    1C
    1UUSER                                                              
    1UDATE              27.october.2022                                 
    1UTIME              00:12:44                                        
    1UHOST                                                              
    1UPGM               CalculiX                                        
    1UVERSION           Version 2.17                             
    1UCOMPILETIME       Thu Jul 23 21:43:50 CEST 2020                    
    1UDIR                                                               
    1UDBN                                                               
    1UMAT    1SOLIDMATERIAL                                             
    2C                          4252                                     1
 -1         1 3.31653E+01 3.79045E+01 0.00000E+00
 -1         2 4.01849E+01 3.09045E+01 0.00000E+00
 -1         3 1.50000E+02 0.00000E+00 0.00000E+00
 -1         4 1.50000E+02 5.00000E+01 0.00000E+00
 -1         5 0.00000E+00 0.00000E+00 0.00000E+00
 -1         6 0.00000E+00 5.00000E+01 0.00000E+00
 -1         7 0.00000E+00 4.70500E+01 0.00000E+00
 -1         8 0.00000E+00 4.41000E+01 0.00000E+00
 -1         9 0.00000E+00 4.11500E+01 0.00000E+00
 -1        10 0.00000E+00 3.82000E+01 0.00000E+00
 -1        11 0.00000E+00 3.52500E+01 0.00000E+00
 -1        12 0.00000E+00 3.23500E+01 0.00000E+00
 -1        13 0.00000E+00 2.94000E+01 0.00000E+00
 -1        14 0.00000E+00 2.64500E+01 0.00000E+00
 -1        15 0.00000E+00 2.35000E+01 0.00000E+00
 -1        16 0.00000E+00 2.05500E+01 0.00000E+00
 -1        17 0.00000E+00 1.76000E+01 0.00000E+00
 -1        18 0.00000E+00 1.47000E+01 0.00000E+00
 -1        19 0.00000E+00 1.17500E+01 0.00000E+00
 -1        20 0.00000E+00 8.80000E+00 0.00000E+00
 -1        21 0.00000E+00 5.85000E+00 0.00000E+00
 -1        22 0.00000E+00 2.90000E+00 0.00000E+00
 -1        23 3.15000E+00 5.00000E+01 0.00000E+00
 -1        24 6.15000E+00 5.00000E+01 0.00000E+00
 -1        25 9.15000E+00 5.00000E+01 0.00000E+00
 -1        26 1.21500E+01 5.00000E+01 0.00000E+00
 -1        27 1.51500E+01 5.00000E+01 0.00000E+00
 -1        28 1.81500E+01 5.00000E+01 0.00000E+00
 -1        29 2.11500E+01 5.00000E+01 0.00000E+00
 -1        30 2.41500E+01 5.00000E+01 0.00000E+00
 -1        31 2.71500E+01 5.00000E+01 0.00000E+00
 -1        32 3.01500E+01 5.00000E+01 0.00000E+00
 -1        33 3.30000E+01 5.00000E+01 0.00000E+00
 -1        34 3.60000E+01 5.00000E+01 0.00000E+00
 -1        35 3.90000E+01 5.00000E+01 0.00000E+00
 -1        36 4.20000E+01 5.00000E+01 0.00000E+00
 -1        37 4.50000E+01 5.00000E+01 0.00000E+00
 -1        38 4.80000E+01 5.00000E+01 0.00000E+00
 -1        39 5.10000E+01 5.00000E+01 0.00000E+00
 -1        40 5.40000E+01 5.00000E+01 0.00000E+00
 -1        41 5.70000E+01 5.00000E+01 0.00000E+00
 -1        42 6.00000E+01 5.00000E+01 0.00000E+00
 -1        43 6.30000E+01 5.00000E+01 0.00000E+00
 -1        44 6.60000E+01 5.00000E+01 0.00000E+00
 -1        45 6.90000E+01 5.00000E+01 0.00000E+00
 -1        46 7.20000E+01 5.00000E+01 0.00000E+00
 -1        47 7.50000E+01 5.00000E+01 0.00000E+00
 -1        48 7.80000E+01 5.00000E+01 0.00000E+00
 -1        49 8.10000E+01 5.00000E+01 0.00000E+00
 -1        50 8.40000E+01 5.00000E+01 0.00000E+00
 -1        51 8.70000E+01 5.00000E+01 0.00000E+00
 -1        52 9.00000E+01 5.00000E+01 0.00000E+00
 -1        53 9.30000E+01 5.00000E+01 0.00000E+00
 -1        54 9.60000E+01 5.00000E+01 0.00000E+00
 -1        55 9.90000E+01 5.00000E+01 0.00000E+00
 -1        56 1.02000E+02 5.00000E+01 0.00000E+00
 -1        57 1.05000E+02 5.00000E+01 0.00000E+00
 -1        58 1.08000E+02 5.00000E+01 0.00000E+00
 -1        59 1.11000E+02 5.00000E+01 0.00000E+00
 -1        60 1.14000E+02 5.00000E+01 0.00000E+00
 -1        61 1.17000E+02 5.00000E+01 0.00000E+00
 -1        62 1.20000E+02 5.00000E+01 0.00000E+00
 -1        63 1.23000E+02 5.00000E+01 0.00000E+00
 -1        64 1.26000E+02 5.00000E+01 0.00000E+00
 -1        65 1.29000E+02 5.00000E+01 0.00000E+00
 -1        66 1.32000E+02 5.00000E+01 0.00000E+00
 -1        67 1.35000E+02 5.00000E+01 0.00000E+00
 -1        68 1.38000E+02 5.00000E+01 0.00000E+00
 -1        69 1.41000E+02 5.00000E+01 0.00000E+00
 -1        70 1.44000E+02 5.00000E+01 0.00000E+00
 -1        71 1.47000E+02 5.00000E+01 0.00000E+00
 -1        72 3.15000E+00 0.00000E+00 0.00000E+00
 -1        73 6.15000E+00 0.00000E+00 0.00000E+00
 -1        74 9.15000E+00 0.00000E+00 0.00000E+00
 -1        75 1.21500E+01 0.00000E+00 0.00000E+00
 -1        76 1.51500E+01 0.00000E+00 0.00000E+00
 -1        77 1.81500E+01 0.00000E+00 0.00000E+00
 -1        78 2.11500E+01 0.00000E+00 0.00000E+00
 -1        79 2.41500E+01 0.00000E+00 0.00000E+00
 -1        80 2.71500E+01 0.00000E+00 0.00000E+00
 -1        81 3.01500E+01 0.00000E+00 0.00000E+00
 -1        82 3.31500E+01 0.00000E+00 0.00000E+00
 -1        83 3.61500E+01 0.00000E+00 0.00000E+00
 -1        84 3.91500E+01 0.00000E+00 0.00000E+00
 -1        85 4.21500E+01 0.00000E+00 0.00000E+00
 -1        86 4.51500E+01 0.00000E+00 0.00000E+00
 -1        87 4.81500E+01 0.00000E+00 0.00000E+00
 -1        88 5.11500E+01 0.00000E+00 0.00000E+00
 -1        89 5.41500E+01 0.00000E+00 0.00000E+00
 -1        90 5.71500E+01 0.00000E+00 0.00000E+00
 -1        91 6.01500E+01 0.00000E+00 0.00000E+00
 -1        92 6.31500E+01 0.00000E+00 0.00000E+00
 -1        93 6.61500E+01 0.00000E+00 0.00000E+00
 -1        94 6.91500E+01 0.00000E+00 0.00000E+00
 -1        95 7.21500E+01 0.00000E+00 0.00000E+00
 -1        96 7.51500E+01 0.00000E+00 0.00000E+00
 -1        97 7.81500E+01 0.00000E+00 0.00000E+00
 -1        98 8.11500E+01 0.00000E+00 0.00000E+00
 -1        99 8.41500E+01 0.00000E+00 0.00000E+00
 -1       100 8.71500E+01 0.00000E+00 0.00000E+00
 -1       101 9.01500E+01 0.00000E+00 0.00000E+00
 -1       102 9.31500E+01 0.00000E+00 0.00000E+00
 -1       103 9.61500E+01 0.00000E+00 0.00000E+00
 -1       104 9.91500E+01 0.00000E+00 0.00000E+00
 -1       105 1.02150E+02 0.00000E+00 0.00000E+00
 -1       106 1.05150E+02 0.00000E+00 0.00000E+00
 -1       107 1.08150E+02 0.00000E+00 0.00000E+00
 -1       108 1.11150E+02 0.00000E+00 0.00000E+00
 -1       109 1.14150E+02 0.00000E+00 0.00000E+00
 -1       110 1.17150E+02 0.00000E+00 0.00000E+00
 -1       111 1.20150E+02 0.00000E+00 0.00000E+00
 -1       112 1.23150E+02 0.00000E+00 0.00000E+00
 -1       113 1.26150E+02 0.00000E+00 0.00000E+00
 -1       114 1.29150E+02 0.00000E+00 0.00000E+00
 -1       115 1.32150E+02 0.00000E+00 0.00000E+00
 -1       116 1.35150E+02 0.00000E+00 0.00000E+00
 -1       117 1.38150E+02 0.00000E+00 0.00000E+00
 -1       118 1.41150E+02 0.00000E+00 0.00000E+00
 -1       119 1.44150E+02 0.00000E+00 0.00000E+00
 -1       120 1.47150E+02 0.00000E+00 0.00000E+00
 -1       121 1.50000E+02 2.95000E+00 0.00000E+00
 -1       122 1.50000E+02 5.90000E+00 0.00000E+00
 -1       123 1.50000E+02 8.85000E+00 0.00000E+00
 -1       124 1.50000E+02 1.18000E+01 0.00000E+00
 -1       125 1.50000E+02 1.47500E+01 0.00000E+00
 -1       126 1.50000E+02 1.76500E+01 0.00000E+00
 -1       127 1.50000E+02 2.06000E+01 0.00000E+00
 -1       128 1.50000E+02 2.35500E+01 0.00000E+00
 -1       129 1.50000E+02 2.65000E+01 0.00000E+00
 -1       130 1.50000E+02 2.94500E+01 0.00000E+00
 -1       131 1.50000E+02 3.24000E+01 0.00000E+00
 -1       132 1.50000E+02 3.53000E+01 0.00000E+00
 -1       133 1.50000E+02 3.82500E+01 0.00000E+00
 -1       134 1.50000E+02 4.12000E+01 0.00000E+00
 -1       135 1.50000E+02 4.41500E+01 0.00000E+00
 -1       136 1.50000E+02 4.71000E+01 0.00000E+00
 -1       137 4.00345E+01 2.94616E+01 0.00000E+00
 -1       138 3.95893E+01 2.80791E+01 0.00000E+00
 -1       139 3.87943E+01 2.67172E+01 0.00000E+00
 -1       140 3.78350E+01 2.56723E+01 0.00000E+00
 -1       141 3.66257E+01 2.48086E+01 0.00000E+00
 -1       142 3.53000E+01 2.42318E+01 0.00000E+00
 -1       143 3.38839E+01 2.39395E+01 0.00000E+00
 -1       144 3.23307E+01 2.39569E+01 0.00000E+00
 -1       145 3.07844E+01 2.43290E+01 0.00000E+00
 -1       146 2.94706E+01 2.49712E+01 0.00000E+00
 -1       147 2.83178E+01 2.58734E+01 0.00000E+00
 -1       148 2.74137E+01 2.69430E+01 0.00000E+00
 -1       149 2.67231E+01 2.82129E+01 0.00000E+00
 -1       150 2.62920E+01 2.96845E+01 0.00000E+00
 -1       151 2.61895E+01 3.11579E+01 0.00000E+00
 -1       152 2.64290E+01 3.27370E+01 0.00000E+00
 -1       153 2.69453E+01 3.40776E+01 0.00000E+00
 -1       154 2.77881E+01 3.53626E+01 0.00000E+00
 -1       155 2.88694E+01 3.64160E+01 0.00000E+00
 -1       156 3.00954E+01 3.71859E+01 0.00000E+00
 -1       157 3.16683E+01 3.77383E+01 0.00000E+00
 -1       158 3.45506E+01 3.77700E+01 0.00000E+00
 -1       159 3.58848E+01 3.73629E+01 0.00000E+00
 -1       160 3.70847E+01 3.67176E+01 0.00000E+00
 -1       161 3.81230E+01 3.58659E+01 0.00000E+00
 -1       162 3.89986E+01 3.48033E+01 0.00000E+00
 -1       163 3.96453E+01 3.35996E+01 0.00000E+00
 -1       164 4.00549E+01 3.22471E+01 0.00000E+00
 -1       165 2.59800E+00 4.55750E+01 0.00000E+00
 -1       166 2.59800E+00 4.26250E+01 0.00000E+00
 -1       167 2.59800E+00 3.96750E+01 0.00000E+00
 -1       168 2.59800E+00 3.67250E+01 0.00000E+00
 -1       169 2.59800E+00 3.38250E+01 0.00000E+00
 -1       170 2.59800E+00 3.08750E+01 0.00000E+00
 -1       171 2.59800E+00 2.79250E+01 0.00000E+00
 -1       172 2.59800E+00 2.49750E+01 0.00000E+00
 -1       173 2.59800E+00 2.20250E+01 0.00000E+00
 -1       174 2.59800E+00 1.90750E+01 0.00000E+00
 -1       175 2.59800E+00 1.61750E+01 0.00000E+00
 -1       176 2.59800E+00 1.32250E+01 0.00000E+00
 -1       177 2.59800E+00 1.02750E+01 0.00000E+00
 -1       178 2.59800E+00 7.32500E+00 0.00000E+00
 -1       179 2.59800E+00 4.37500E+00 0.00000E+00
 -1       180 2.87400E+00 2.18750E+00 0.00000E+00
 -1       181 4.65000E+00 4.74020E+01 0.00000E+00
 -1       182 7.65000E+00 4.74020E+01 0.00000E+00
 -1       183 1.06500E+01 4.74020E+01 0.00000E+00
 -1       184 1.36500E+01 4.74020E+01 0.00000E+00
 -1       185 1.66500E+01 4.74020E+01 0.00000E+00
 -1       186 1.96500E+01 4.74020E+01 0.00000E+00
 -1       187 2.26500E+01 4.74020E+01 0.00000E+00
 -1       188 2.56500E+01 4.74020E+01 0.00000E+00
 -1       189 2.86500E+01 4.74020E+01 0.00000E+00
 -1       190 3.15000E+01 4.74020E+01 0.00000E+00
 -1       191 3.45000E+01 4.74020E+01 0.00000E+00
 -1       192 3.75000E+01 4.74020E+01 0.00000E+00
 -1       193 4.05000E+01 4.74020E+01 0.00000E+00
 -1       194 4.35000E+01 4.74020E+01 0.00000E+00
 -1       195 4.65000E+01 4.74020E+01 0.00000E+00
 -1       196 4.95000E+01 4.74020E+01 0.00000E+00
 -1       197 5.25000E+01 4.74020E+01 0.00000E+00
 -1       198 5.55000E+01 4.74020E+01 0.00000E+00
 -1       199 5.85000E+01 4.74020E+01 0.00000E+00
 -1       200 6.15000E+01 4.74020E+01 0.00000E+00
 -1       201 6.45000E+01 4.74020E+01 0.00000E+00
 -1       202 6.75000E+01 4.74020E+01 0.00000E+00
 -1       203 7.05000E+01 4.74020E+01 0.00000E+00
 -1       204 7.35000E+01 4.74020E+01 0.00000E+00
 -1       205 7.65000E+01 4.74020E+01 0.00000E+00
 -1       206 7.95000E+01 4.74020E+01 0.00000E+00
 -1       207 8.25000E+01 4.74020E+01 0.00000E+00
 -1       208 8.55000E+01 4.74020E+01 0.00000E+00
 -1       209 8.85000E+01 4.74020E+01 0.00000E+00
 -1       210 9.15000E+01 4.74020E+01 0.00000E+00
 -1       211 9.45000E+01 4.74020E+01 0.00000E+00
 -1       212 9.75000E+01 4.74020E+01 0.00000E+00
 -1       213 1.00500E+02 4.74020E+01 0.00000E+00
 -1       214 1.03500E+02 4.74020E+01 0.00000E+00
 -1       215 1.06500E+02 4.74020E+01 0.00000E+00
 -1       216 1.09500E+02 4.74020E+01 0.00000E+00
 -1       217 1.12500E+02 4.74020E+01 0.00000E+00
 -1       218 1.15500E+02 4.74020E+01 0.00000E+00
 -1       219 1.18500E+02 4.74020E+01 0.00000E+00
 -1       220 1.21500E+02 4.74020E+01 0.00000E+00
 -1       221 1.24500E+02 4.74020E+01 0.00000E+00
 -1       222 1.27500E+02 4.74020E+01 0.00000E+00
 -1       223 1.30500E+02 4.74020E+01 0.00000E+00
 -1       224 1.33500E+02 4.74020E+01 0.00000E+00
 -1       225 1.36500E+02 4.74020E+01 0.00000E+00
 -1       226 1.39500E+02 4.74020E+01 0.00000E+00
 -1       227 1.42500E+02 4.74020E+01 0.00000E+00
 -1       228 1.45500E+02 4.74020E+01 0.00000E+00
 -1       229 1.47750E+02 4.72510E+01 0.00000E+00
 -1       230 5.87400E+00 2.18750E+00 0.00000E+00
 -1       231 8.87400E+00 2.18750E+00 0.00000E+00
 -1       232 1.18740E+01 2.18750E+00 0.00000E+00
 -1       233 1.48740E+01 2.18750E+00 0.00000E+00
 -1       234 1.78740E+01 2.18750E+00 0.00000E+00
 -1       235 2.08740E+01 2.18750E+00 0.00000E+00
 -1       236 2.38740E+01 2.18750E+00 0.00000E+00
 -1       237 2.68740E+01 2.18750E+00 0.00000E+00
 -1       238 2.98740E+01 2.18750E+00 0.00000E+00
 -1       239 3.28740E+01 2.18750E+00 0.00000E+00
 -1       240 3.58740E+01 2.18750E+00 0.00000E+00
 -1       241 3.88740E+01 2.18750E+00 0.00000E+00
 -1       242 4.18740E+01 2.18750E+00 0.00000E+00
 -1       243 4.48740E+01 2.18750E+00 0.00000E+00
 -1       244 4.78740E+01 2.18750E+00 0.00000E+00
 -1       245 5.08740E+01 2.18750E+00 0.00000E+00
 -1       246 5.38740E+01 2.18750E+00 0.00000E+00
 -1       247 5.68740E+01 2.18750E+00 0.00000E+00
 -1       248 5.98740E+01 2.18750E+00 0.00000E+00
 -1       249 6.28740E+01 2.18750E+00 0.00000E+00
 -1       250 6.58740E+01 2.18750E+00 0.00000E+00
 -1       251 6.88740E+01 2.18750E+00 0.00000E+00
 -1       252 7.18740E+01 2.18750E+00 0.00000E+00
 -1       253 7.48740E+01 2.18750E+00 0.00000E+00
 -1       254 7.78740E+01 2.18750E+00 0.00000E+00
 -1       255 8.08740E+01 2.18750E+00 0.00000E+00
 -1       256 8.38740E+01 2.18750E+00 0.00000E+00
 -1       257 8.68740E+01 2.18750E+00 0.00000E+00
 -1       258 8.98740E+01 2.18750E+00 0.00000E+00
 -1       259 9.28740E+01 2.18750E+00 0.00000E+00
 -1       260 9.58740E+01 2.18750E+00 0.00000E+00
 -1       261 9.88740E+01 2.18750E+00 0.00000E+00
 -1       262 1.01874E+02 2.18750E+00 0.00000E+00
 -1       263 1.04874E+02 2.18750E+00 0.00000E+00
 -1       264 1.07874E+02 2.18750E+00 0.00000E+00
 -1       265 1.10874E+02 2.18750E+00 0.00000E+00
 -1       266 1.13874E+02 2.18750E+00 0.00000E+00
 -1       267 1.16874E+02 2.18750E+00 0.00000E+00
 -1       268 1.19874E+02 2.18750E+00 0.00000E+00
 -1       269 1.22874E+02 2.18750E+00 0.00000E+00
 -1       270 1.25874E+02 2.18750E+00 0.00000E+00
 -1       271 1.28874E+02 2.18750E+00 0.00000E+00
 -1       272 1.31874E+02 2.18750E+00 0.00000E+00
 -1       273 1.34874E+02 2.18750E+00 0.00000E+00
 -1       274 1.37874E+02 2.18750E+00 0.00000E+00
 -1       275 1.40874E+02 2.18750E+00 0.00000E+00
 -1       276 1.43874E+02 2.18750E+00 0.00000E+00
 -1       277 1.46874E+02 2.18750E+00 0.00000E+00
 -1       278 1.47402E+02 4.42500E+00 0.00000E+00
 -1       279 1.47402E+02 7.37500E+00 0.00000E+00
 -1       280 1.47402E+02 1.03250E+01 0.00000E+00
 -1       281 1.47402E+02 1.32750E+01 0.00000E+00
 -1       282 1.47402E+02 1.61750E+01 0.00000E+00
 -1       283 1.47402E+02 1.91250E+01 0.00000E+00
 -1       284 1.47402E+02 2.20750E+01 0.00000E+00
 -1       285 1.47402E+02 2.50250E+01 0.00000E+00
 -1       286 1.47402E+02 2.79750E+01 0.00000E+00
 -1       287 1.47402E+02 3.09250E+01 0.00000E+00
 -1       288 1.47402E+02 3.38250E+01 0.00000E+00
 -1       289 1.47402E+02 3.67750E+01 0.00000E+00
 -1       290 1.47402E+02 3.97250E+01 0.00000E+00
 -1       291 1.47402E+02 4.26750E+01 0.00000E+00
 -1       292 1.47576E+02 4.49630E+01 0.00000E+00
 -1       293 4.13156E+01 3.00575E+01 0.00000E+00
 -1       294 4.09660E+01 2.83987E+01 0.00000E+00
 -1       295 4.03112E+01 2.67447E+01 0.00000E+00
 -1       296 3.92078E+01 2.53748E+01 0.00000E+00
 -1       297 3.79350E+01 2.42539E+01 0.00000E+00
 -1       298 3.64466E+01 2.34085E+01 0.00000E+00
 -1       299 3.48370E+01 2.28983E+01 0.00000E+00
 -1       300 3.30928E+01 2.26521E+01 0.00000E+00
 -1       301 3.12150E+01 2.27198E+01 0.00000E+00
 -1       302 2.95583E+01 2.34856E+01 0.00000E+00
 -1       303 2.81470E+01 2.44676E+01 0.00000E+00
 -1       304 2.69399E+01 2.56255E+01 0.00000E+00
 -1       305 2.60034E+01 2.69987E+01 0.00000E+00
 -1       306 2.52636E+01 2.85843E+01 0.00000E+00
 -1       307 2.50313E+01 3.03370E+01 0.00000E+00
 -1       308 2.48620E+01 3.21669E+01 0.00000E+00
 -1       309 2.55558E+01 3.38431E+01 0.00000E+00
 -1       310 2.60726E+01 3.55688E+01 0.00000E+00
 -1       311 2.74242E+01 3.68178E+01 0.00000E+00
 -1       312 2.88377E+01 3.78277E+01 0.00000E+00
 -1       313 3.03691E+01 3.89222E+01 0.00000E+00
 -1       314 3.22737E+01 3.91097E+01 0.00000E+00
 -1       315 3.39751E+01 3.90440E+01 0.00000E+00
 -1       316 3.55715E+01 3.87261E+01 0.00000E+00
 -1       317 3.70590E+01 3.81080E+01 0.00000E+00
 -1       318 3.83727E+01 3.72291E+01 0.00000E+00
 -1       319 3.94965E+01 3.61056E+01 0.00000E+00
 -1       320 4.03900E+01 3.47752E+01 0.00000E+00
 -1       321 4.11708E+01 3.33234E+01 0.00000E+00
 -1       322 4.13267E+01 3.16926E+01 0.00000E+00
 -1       323 5.19600E+00 4.11500E+01 0.00000E+00
 -1       324 5.19600E+00 4.41000E+01 0.00000E+00
 -1       325 5.19600E+00 3.52750E+01 0.00000E+00
 -1       326 5.19600E+00 3.23250E+01 0.00000E+00
 -1       327 5.19600E+00 2.93750E+01 0.00000E+00
 -1       328 5.19600E+00 2.64250E+01 0.00000E+00
 -1       329 5.19600E+00 2.34750E+01 0.00000E+00
 -1       330 5.19600E+00 2.05250E+01 0.00000E+00
 -1       331 5.19600E+00 1.76250E+01 0.00000E+00
 -1       332 5.19600E+00 1.46750E+01 0.00000E+00
 -1       333 5.19600E+00 1.17250E+01 0.00000E+00
 -1       334 5.19600E+00 8.77500E+00 0.00000E+00
 -1       335 5.19600E+00 5.82500E+00 0.00000E+00
 -1       336 5.53500E+00 4.00625E+00 0.00000E+00
 -1       337 8.53500E+00 4.00625E+00 0.00000E+00
 -1       338 9.15000E+00 4.48040E+01 0.00000E+00
 -1       339 1.21500E+01 4.48040E+01 0.00000E+00
 -1       340 1.51500E+01 4.48040E+01 0.00000E+00
 -1       341 1.81500E+01 4.48040E+01 0.00000E+00
 -1       342 2.11500E+01 4.48040E+01 0.00000E+00
 -1       343 2.41500E+01 4.48040E+01 0.00000E+00
 -1       344 2.71500E+01 4.48040E+01 0.00000E+00
 -1       345 3.00000E+01 4.48040E+01 0.00000E+00
 -1       346 3.30000E+01 4.48040E+01 0.00000E+00
 -1       347 3.60000E+01 4.48040E+01 0.00000E+00
 -1       348 3.90000E+01 4.48040E+01 0.00000E+00
 -1       349 4.20000E+01 4.48040E+01 0.00000E+00
 -1       350 4.50000E+01 4.48040E+01 0.00000E+00
 -1       351 4.80000E+01 4.48040E+01 0.00000E+00
 -1       352 5.10000E+01 4.48040E+01 0.00000E+00
 -1       353 5.40000E+01 4.48040E+01 0.00000E+00
 -1       354 5.70000E+01 4.48040E+01 0.00000E+00
 -1       355 6.00000E+01 4.48040E+01 0.00000E+00
 -1       356 6.30000E+01 4.48040E+01 0.00000E+00
 -1       357 6.60000E+01 4.48040E+01 0.00000E+00
 -1       358 6.90000E+01 4.48040E+01 0.00000E+00
 -1       359 7.20000E+01 4.48040E+01 0.00000E+00
 -1       360 7.50000E+01 4.48040E+01 0.00000E+00
 -1       361 7.80000E+01 4.48040E+01 0.00000E+00
 -1       362 8.10000E+01 4.48040E+01 0.00000E+00
 -1       363 8.40000E+01 4.48040E+01 0.00000E+00
 -1       364 8.70000E+01 4.48040E+01 0.00000E+00
 -1       365 9.00000E+01 4.48040E+01 0.00000E+00
 -1       366 9.30000E+01 4.48040E+01 0.00000E+00
 -1       367 9.60000E+01 4.48040E+01 0.00000E+00
 -1       368 9.90000E+01 4.48040E+01 0.00000E+00
 -1       369 1.02000E+02 4.48040E+01 0.00000E+00
 -1       370 1.05000E+02 4.48040E+01 0.00000E+00
 -1       371 1.08000E+02 4.48040E+01 0.00000E+00
 -1       372 1.11000E+02 4.48040E+01 0.00000E+00
 -1       373 1.14000E+02 4.48040E+01 0.00000E+00
 -1       374 1.17000E+02 4.48040E+01 0.00000E+00
 -1       375 1.20000E+02 4.48040E+01 0.00000E+00
 -1       376 1.23000E+02 4.48040E+01 0.00000E+00
 -1       377 1.26000E+02 4.48040E+01 0.00000E+00
 -1       378 1.29000E+02 4.48040E+01 0.00000E+00
 -1       379 1.32000E+02 4.48040E+01 0.00000E+00
 -1       380 1.35000E+02 4.48040E+01 0.00000E+00
 -1       381 1.38000E+02 4.48040E+01 0.00000E+00
 -1       382 1.41000E+02 4.48040E+01 0.00000E+00
 -1       383 1.44000E+02 4.48040E+01 0.00000E+00
 -1       384 1.33740E+01 4.78550E+00 0.00000E+00
 -1       385 1.63740E+01 4.78550E+00 0.00000E+00
 -1       386 1.93740E+01 4.78550E+00 0.00000E+00
 -1       387 2.23740E+01 4.78550E+00 0.00000E+00
 -1       388 2.53740E+01 4.78550E+00 0.00000E+00
 -1       389 2.83740E+01 4.78550E+00 0.00000E+00
 -1       390 3.13740E+01 4.78550E+00 0.00000E+00
 -1       391 3.43740E+01 4.78550E+00 0.00000E+00
 -1       392 3.73740E+01 4.78550E+00 0.00000E+00
 -1       393 4.03740E+01 4.78550E+00 0.00000E+00
 -1       394 4.33740E+01 4.78550E+00 0.00000E+00
 -1       395 4.63740E+01 4.78550E+00 0.00000E+00
 -1       396 4.93740E+01 4.78550E+00 0.00000E+00
 -1       397 5.23740E+01 4.78550E+00 0.00000E+00
 -1       398 5.53740E+01 4.78550E+00 0.00000E+00
 -1       399 5.83740E+01 4.78550E+00 0.00000E+00
 -1       400 6.13740E+01 4.78550E+00 0.00000E+00
 -1       401 6.43740E+01 4.78550E+00 0.00000E+00
 -1       402 6.73740E+01 4.78550E+00 0.00000E+00
 -1       403 7.03740E+01 4.78550E+00 0.00000E+00
 -1       404 7.33740E+01 4.78550E+00 0.00000E+00
 -1       405 7.63740E+01 4.78550E+00 0.00000E+00
 -1       406 7.93740E+01 4.78550E+00 0.00000E+00
 -1       407 8.23740E+01 4.78550E+00 0.00000E+00
 -1       408 8.53740E+01 4.78550E+00 0.00000E+00
 -1       409 8.83740E+01 4.78550E+00 0.00000E+00
 -1       410 9.13740E+01 4.78550E+00 0.00000E+00
 -1       411 9.43740E+01 4.78550E+00 0.00000E+00
 -1       412 9.73740E+01 4.78550E+00 0.00000E+00
 -1       413 1.00374E+02 4.78550E+00 0.00000E+00
 -1       414 1.03374E+02 4.78550E+00 0.00000E+00
 -1       415 1.06374E+02 4.78550E+00 0.00000E+00
 -1       416 1.09374E+02 4.78550E+00 0.00000E+00
 -1       417 1.12374E+02 4.78550E+00 0.00000E+00
 -1       418 1.15374E+02 4.78550E+00 0.00000E+00
 -1       419 1.18374E+02 4.78550E+00 0.00000E+00
 -1       420 1.21374E+02 4.78550E+00 0.00000E+00
 -1       421 1.24374E+02 4.78550E+00 0.00000E+00
 -1       422 1.27374E+02 4.78550E+00 0.00000E+00
 -1       423 1.30374E+02 4.78550E+00 0.00000E+00
 -1       424 1.33374E+02 4.78550E+00 0.00000E+00
 -1       425 1.36374E+02 4.78550E+00 0.00000E+00
 -1       426 1.39374E+02 4.78550E+00 0.00000E+00
 -1       427 1.42374E+02 4.78550E+00 0.00000E+00
 -1       428 1.44888E+02 4.60525E+00 0.00000E+00
 -1       429 1.44804E+02 1.18000E+01 0.00000E+00
 -1       430 1.44804E+02 8.85000E+00 0.00000E+00
 -1       431 1.44804E+02 1.47000E+01 0.00000E+00
 -1       432 1.44804E+02 1.76500E+01 0.00000E+00
 -1       433 1.44804E+02 2.06000E+01 0.00000E+00
 -1       434 1.44804E+02 2.35500E+01 0.00000E+00
 -1       435 1.44804E+02 2.65000E+01 0.00000E+00
 -1       436 1.44804E+02 2.94500E+01 0.00000E+00
 -1       437 1.44804E+02 3.23500E+01 0.00000E+00
 -1       438 1.44804E+02 3.53000E+01 0.00000E+00
 -1       439 1.44804E+02 3.82500E+01 0.00000E+00
 -1       440 1.44804E+02 4.12000E+01 0.00000E+00
 -1       441 1.09545E+01 4.39587E+00 0.00000E+00
 -1       442 4.19217E+01 2.70638E+01 0.00000E+00
 -1       443 3.94835E+01 2.37787E+01 0.00000E+00
 -1       444 4.27848E+01 3.08651E+01 0.00000E+00
 -1       445 4.08342E+01 2.51940E+01 0.00000E+00
 -1       446 5.19600E+00 3.82125E+01 0.00000E+00
 -1       447 3.79551E+01 2.24855E+01 0.00000E+00
 -1       448 3.60587E+01 2.18379E+01 0.00000E+00
 -1       449 3.41577E+01 2.14088E+01 0.00000E+00
 -1       450 3.20951E+01 2.10557E+01 0.00000E+00
 -1       451 2.97022E+01 2.16219E+01 0.00000E+00
 -1       452 2.78730E+01 2.25688E+01 0.00000E+00
 -1       453 2.66659E+01 2.37267E+01 0.00000E+00
 -1       454 2.54008E+01 2.55817E+01 0.00000E+00
 -1       455 2.43070E+01 2.71727E+01 0.00000E+00
 -1       456 2.36133E+01 2.92573E+01 0.00000E+00
 -1       457 2.34441E+01 3.10872E+01 0.00000E+00
 -1       458 2.39338E+01 3.35328E+01 0.00000E+00
 -1       459 2.44507E+01 3.52585E+01 0.00000E+00
 -1       460 2.57550E+01 3.72683E+01 0.00000E+00
 -1       461 2.73774E+01 3.83774E+01 0.00000E+00
 -1       462 2.89088E+01 3.94719E+01 0.00000E+00
 -1       463 3.11616E+01 4.06394E+01 0.00000E+00
 -1       464 3.31808E+01 4.05395E+01 0.00000E+00
 -1       465 3.50428E+01 4.02384E+01 0.00000E+00
 -1       466 3.68769E+01 3.97688E+01 0.00000E+00
 -1       467 3.84366E+01 3.87459E+01 0.00000E+00
 -1       468 4.00288E+01 3.77618E+01 0.00000E+00
 -1       469 4.10888E+01 3.62098E+01 0.00000E+00
 -1       470 4.18696E+01 3.47580E+01 0.00000E+00
 -1       471 4.25390E+01 3.26313E+01 0.00000E+00
 -1       472 4.26550E+01 2.89089E+01 0.00000E+00
 -1       473 4.32379E+01 3.40659E+01 0.00000E+00
 -1       474 2.97013E+01 4.11891E+01 0.00000E+00
 -1       475 2.41331E+01 3.69580E+01 0.00000E+00
 -1       476 2.25159E+01 3.24530E+01 0.00000E+00
 -1       477 7.79400E+00 3.08500E+01 0.00000E+00
 -1       478 7.79400E+00 3.38000E+01 0.00000E+00
 -1       479 7.79400E+00 2.49500E+01 0.00000E+00
 -1       480 7.79400E+00 2.20000E+01 0.00000E+00
 -1       481 7.79400E+00 1.91000E+01 0.00000E+00
 -1       482 7.79400E+00 1.61500E+01 0.00000E+00
 -1       483 7.79400E+00 1.32000E+01 0.00000E+00
 -1       484 7.79400E+00 1.02500E+01 0.00000E+00
 -1       485 7.79400E+00 7.30000E+00 0.00000E+00
 -1       486 8.16450E+00 5.65312E+00 0.00000E+00
 -1       487 1.06500E+01 4.22060E+01 0.00000E+00
 -1       488 4.28605E+01 2.52666E+01 0.00000E+00
 -1       489 4.12783E+01 2.34180E+01 0.00000E+00
 -1       490 1.36500E+01 4.22060E+01 0.00000E+00
 -1       491 1.66500E+01 4.22060E+01 0.00000E+00
 -1       492 1.96500E+01 4.22060E+01 0.00000E+00
 -1       493 2.26500E+01 4.22060E+01 0.00000E+00
 -1       494 2.56500E+01 4.22060E+01 0.00000E+00
 -1       495 3.45000E+01 4.27537E+01 0.00000E+00
 -1       496 3.75000E+01 4.25862E+01 0.00000E+00
 -1       497 4.05000E+01 4.24186E+01 0.00000E+00
 -1       498 4.35000E+01 4.24186E+01 0.00000E+00
 -1       499 4.65000E+01 4.24186E+01 0.00000E+00
 -1       500 4.95000E+01 4.24186E+01 0.00000E+00
 -1       501 5.25000E+01 4.24186E+01 0.00000E+00
 -1       502 5.55000E+01 4.24186E+01 0.00000E+00
 -1       503 5.85000E+01 4.24186E+01 0.00000E+00
 -1       504 6.15000E+01 4.24186E+01 0.00000E+00
 -1       505 6.45000E+01 4.24186E+01 0.00000E+00
 -1       506 6.75000E+01 4.24186E+01 0.00000E+00
 -1       507 7.05000E+01 4.24186E+01 0.00000E+00
 -1       508 7.35000E+01 4.24186E+01 0.00000E+00
 -1       509 7.65000E+01 4.24186E+01 0.00000E+00
 -1       510 7.95000E+01 4.24186E+01 0.00000E+00
 -1       511 8.25000E+01 4.24186E+01 0.00000E+00
 -1       512 8.55000E+01 4.24186E+01 0.00000E+00
 -1       513 8.85000E+01 4.24186E+01 0.00000E+00
 -1       514 9.15000E+01 4.24186E+01 0.00000E+00
 -1       515 9.45000E+01 4.24186E+01 0.00000E+00
 -1       516 9.75000E+01 4.24186E+01 0.00000E+00
 -1       517 1.00500E+02 4.24186E+01 0.00000E+00
 -1       518 1.03500E+02 4.24186E+01 0.00000E+00
 -1       519 1.06500E+02 4.24186E+01 0.00000E+00
 -1       520 1.09500E+02 4.24186E+01 0.00000E+00
 -1       521 1.12500E+02 4.24186E+01 0.00000E+00
 -1       522 1.15500E+02 4.24186E+01 0.00000E+00
 -1       523 1.18500E+02 4.24186E+01 0.00000E+00
 -1       524 1.21500E+02 4.24186E+01 0.00000E+00
 -1       525 1.24500E+02 4.24186E+01 0.00000E+00
 -1       526 1.27500E+02 4.24186E+01 0.00000E+00
 -1       527 1.30500E+02 4.24186E+01 0.00000E+00
 -1       528 1.33500E+02 4.24186E+01 0.00000E+00
 -1       529 1.36500E+02 4.24186E+01 0.00000E+00
 -1       530 1.39500E+02 4.24186E+01 0.00000E+00
 -1       531 1.42152E+02 4.18093E+01 0.00000E+00
 -1       532 2.08740E+01 7.38350E+00 0.00000E+00
 -1       533 1.78740E+01 7.38350E+00 0.00000E+00
 -1       534 1.48740E+01 7.38350E+00 0.00000E+00
 -1       535 2.38740E+01 7.38350E+00 0.00000E+00
 -1       536 2.68740E+01 7.38350E+00 0.00000E+00
 -1       537 2.98740E+01 7.38350E+00 0.00000E+00
 -1       538 3.28740E+01 7.38350E+00 0.00000E+00
 -1       539 3.58740E+01 7.38350E+00 0.00000E+00
 -1       540 3.88740E+01 7.38350E+00 0.00000E+00
 -1       541 4.18740E+01 7.38350E+00 0.00000E+00
 -1       542 4.48740E+01 7.38350E+00 0.00000E+00
 -1       543 4.78740E+01 7.38350E+00 0.00000E+00
 -1       544 5.08740E+01 7.38350E+00 0.00000E+00
 -1       545 5.38740E+01 7.38350E+00 0.00000E+00
 -1       546 5.68740E+01 7.38350E+00 0.00000E+00
 -1       547 5.98740E+01 7.38350E+00 0.00000E+00
 -1       548 6.28740E+01 7.38350E+00 0.00000E+00
 -1       549 6.58740E+01 7.38350E+00 0.00000E+00
 -1       550 6.88740E+01 7.38350E+00 0.00000E+00
 -1       551 7.18740E+01 7.38350E+00 0.00000E+00
 -1       552 7.48740E+01 7.38350E+00 0.00000E+00
 -1       553 7.78740E+01 7.38350E+00 0.00000E+00
 -1       554 8.08740E+01 7.38350E+00 0.00000E+00
 -1       555 8.38740E+01 7.38350E+00 0.00000E+00
 -1       556 8.68740E+01 7.38350E+00 0.00000E+00
 -1       557 8.98740E+01 7.38350E+00 0.00000E+00
 -1       558 9.28740E+01 7.38350E+00 0.00000E+00
 -1       559 9.58740E+01 7.38350E+00 0.00000E+00
 -1       560 9.88740E+01 7.38350E+00 0.00000E+00
 -1       561 1.01874E+02 7.38350E+00 0.00000E+00
 -1       562 1.04874E+02 7.38350E+00 0.00000E+00
 -1       563 1.07874E+02 7.38350E+00 0.00000E+00
 -1       564 1.10874E+02 7.38350E+00 0.00000E+00
 -1       565 1.13874E+02 7.38350E+00 0.00000E+00
 -1       566 1.16874E+02 7.38350E+00 0.00000E+00
 -1       567 1.19874E+02 7.38350E+00 0.00000E+00
 -1       568 1.22874E+02 7.38350E+00 0.00000E+00
 -1       569 1.25874E+02 7.38350E+00 0.00000E+00
 -1       570 1.28874E+02 7.38350E+00 0.00000E+00
 -1       571 1.31874E+02 7.38350E+00 0.00000E+00
 -1       572 1.34874E+02 7.38350E+00 0.00000E+00
 -1       573 1.37874E+02 7.38350E+00 0.00000E+00
 -1       574 1.40874E+02 7.38350E+00 0.00000E+00
 -1       575 1.42206E+02 1.61750E+01 0.00000E+00
 -1       576 1.42206E+02 1.32750E+01 0.00000E+00
 -1       577 1.42206E+02 1.03250E+01 0.00000E+00
 -1       578 4.43477E+01 2.97790E+01 0.00000E+00
 -1       579 1.42206E+02 1.91250E+01 0.00000E+00
 -1       580 1.42206E+02 2.20750E+01 0.00000E+00
 -1       581 1.42206E+02 2.50250E+01 0.00000E+00
 -1       582 1.42206E+02 2.79750E+01 0.00000E+00
 -1       583 1.42206E+02 3.08750E+01 0.00000E+00
 -1       584 1.42206E+02 3.38250E+01 0.00000E+00
 -1       585 1.42206E+02 3.67750E+01 0.00000E+00
 -1       586 1.42179E+02 3.92922E+01 0.00000E+00
 -1       587 7.92300E+00 4.16780E+01 0.00000E+00
 -1       588 3.97189E+01 2.19508E+01 0.00000E+00
 -1       589 4.42777E+01 3.19731E+01 0.00000E+00
 -1       590 4.18367E+01 3.78586E+01 0.00000E+00
 -1       591 2.20148E+01 2.75677E+01 0.00000E+00
 -1       592 2.79222E+01 2.04234E+01 0.00000E+00
 -1       593 7.79400E+00 2.79000E+01 0.00000E+00
 -1       594 3.54306E+01 2.01955E+01 0.00000E+00
 -1       595 2.36477E+01 2.55479E+01 0.00000E+00
 -1       596 3.75612E+01 2.05386E+01 0.00000E+00
 -1       597 3.33875E+01 1.97069E+01 0.00000E+00
 -1       598 3.05037E+01 1.96698E+01 0.00000E+00
 -1       599 2.59662E+01 2.17891E+01 0.00000E+00
 -1       600 2.55983E+01 3.92387E+01 0.00000E+00
 -1       601 2.47010E+01 2.36442E+01 0.00000E+00
 -1       602 2.21546E+01 3.00451E+01 0.00000E+00
 -1       603 2.27098E+01 3.48396E+01 0.00000E+00
 -1       604 2.71297E+01 4.03332E+01 0.00000E+00
 -1       605 3.85513E+01 4.06215E+01 0.00000E+00
 -1       606 4.01435E+01 3.96373E+01 0.00000E+00
 -1       607 4.27684E+01 3.61772E+01 0.00000E+00
 -1       608 4.38822E+01 2.73529E+01 0.00000E+00
 -1       609 7.79400E+00 3.67375E+01 0.00000E+00
 -1       610 1.05840E+01 6.04275E+00 0.00000E+00
 -1       611 1.27290E+01 6.71313E+00 0.00000E+00
 -1       612 2.23922E+01 3.65391E+01 0.00000E+00
 -1       613 3.17961E+01 1.83210E+01 0.00000E+00
 -1       614 2.39764E+01 3.89284E+01 0.00000E+00
 -1       615 2.12264E+01 3.14110E+01 0.00000E+00
 -1       616 3.22518E+01 4.22188E+01 0.00000E+00
 -1       617 3.67173E+01 4.10912E+01 0.00000E+00
 -1       618 1.03920E+01 2.05500E+01 0.00000E+00
 -1       619 1.03920E+01 2.35000E+01 0.00000E+00
 -1       620 1.03920E+01 1.46750E+01 0.00000E+00
 -1       621 1.03920E+01 1.17250E+01 0.00000E+00
 -1       622 1.02135E+01 7.68962E+00 0.00000E+00
 -1       623 3.97628E+01 1.95292E+01 0.00000E+00
 -1       624 4.49117E+01 2.55554E+01 0.00000E+00
 -1       625 4.23537E+01 4.00461E+01 0.00000E+00
 -1       626 1.51500E+01 3.96080E+01 0.00000E+00
 -1       627 1.81500E+01 3.96080E+01 0.00000E+00
 -1       628 2.11500E+01 3.96080E+01 0.00000E+00
 -1       629 9.78035E+00 3.93914E+01 0.00000E+00
 -1       630 4.50000E+01 3.98656E+01 0.00000E+00
 -1       631 4.80000E+01 3.98656E+01 0.00000E+00
 -1       632 5.10000E+01 3.98656E+01 0.00000E+00
 -1       633 5.40000E+01 3.98656E+01 0.00000E+00
 -1       634 5.70000E+01 3.98656E+01 0.00000E+00
 -1       635 6.00000E+01 3.98656E+01 0.00000E+00
 -1       636 6.30000E+01 3.98656E+01 0.00000E+00
 -1       637 6.60000E+01 3.98656E+01 0.00000E+00
 -1       638 6.90000E+01 3.98656E+01 0.00000E+00
 -1       639 7.20000E+01 3.98656E+01 0.00000E+00
 -1       640 7.50000E+01 3.98656E+01 0.00000E+00
 -1       641 7.80000E+01 3.98656E+01 0.00000E+00
 -1       642 8.10000E+01 3.98656E+01 0.00000E+00
 -1       643 8.40000E+01 3.98656E+01 0.00000E+00
 -1       644 8.70000E+01 3.98656E+01 0.00000E+00
 -1       645 9.00000E+01 3.98656E+01 0.00000E+00
 -1       646 9.30000E+01 3.98656E+01 0.00000E+00
 -1       647 9.60000E+01 3.98656E+01 0.00000E+00
 -1       648 9.90000E+01 3.98656E+01 0.00000E+00
 -1       649 1.02000E+02 3.98656E+01 0.00000E+00
 -1       650 1.05000E+02 3.98656E+01 0.00000E+00
 -1       651 1.08000E+02 3.98656E+01 0.00000E+00
 -1       652 1.11000E+02 3.98656E+01 0.00000E+00
 -1       653 1.14000E+02 3.98656E+01 0.00000E+00
 -1       654 1.17000E+02 3.98656E+01 0.00000E+00
 -1       655 1.20000E+02 3.98656E+01 0.00000E+00
 -1       656 1.23000E+02 3.98656E+01 0.00000E+00
 -1       657 1.26000E+02 3.98656E+01 0.00000E+00
 -1       658 1.29000E+02 3.98656E+01 0.00000E+00
 -1       659 1.32000E+02 3.98656E+01 0.00000E+00
 -1       660 1.35000E+02 3.98656E+01 0.00000E+00
 -1       661 1.38000E+02 3.98656E+01 0.00000E+00
 -1       662 1.40089E+02 3.95789E+01 0.00000E+00
 -1       663 1.93740E+01 9.98150E+00 0.00000E+00
 -1       664 2.23740E+01 9.98150E+00 0.00000E+00
 -1       665 1.63740E+01 9.98150E+00 0.00000E+00
 -1       666 2.83740E+01 9.98150E+00 0.00000E+00
 -1       667 3.13740E+01 9.98150E+00 0.00000E+00
 -1       668 3.43740E+01 9.98150E+00 0.00000E+00
 -1       669 3.73740E+01 9.98150E+00 0.00000E+00
 -1       670 4.03740E+01 9.98150E+00 0.00000E+00
 -1       671 4.33740E+01 9.98150E+00 0.00000E+00
 -1       672 4.63740E+01 9.98150E+00 0.00000E+00
 -1       673 4.93740E+01 9.98150E+00 0.00000E+00
 -1       674 5.23740E+01 9.98150E+00 0.00000E+00
 -1       675 5.53740E+01 9.98150E+00 0.00000E+00
 -1       676 5.83740E+01 9.98150E+00 0.00000E+00
 -1       677 6.13740E+01 9.98150E+00 0.00000E+00
 -1       678 6.43740E+01 9.98150E+00 0.00000E+00
 -1       679 6.73740E+01 9.98150E+00 0.00000E+00
 -1       680 7.03740E+01 9.98150E+00 0.00000E+00
 -1       681 7.33740E+01 9.98150E+00 0.00000E+00
 -1       682 7.63740E+01 9.98150E+00 0.00000E+00
 -1       683 7.93740E+01 9.98150E+00 0.00000E+00
 -1       684 8.23740E+01 9.98150E+00 0.00000E+00
 -1       685 8.53740E+01 9.98150E+00 0.00000E+00
 -1       686 8.83740E+01 9.98150E+00 0.00000E+00
 -1       687 9.13740E+01 9.98150E+00 0.00000E+00
 -1       688 9.43740E+01 9.98150E+00 0.00000E+00
 -1       689 9.73740E+01 9.98150E+00 0.00000E+00
 -1       690 1.00374E+02 9.98150E+00 0.00000E+00
 -1       691 1.03374E+02 9.98150E+00 0.00000E+00
 -1       692 1.06374E+02 9.98150E+00 0.00000E+00
 -1       693 1.09374E+02 9.98150E+00 0.00000E+00
 -1       694 1.12374E+02 9.98150E+00 0.00000E+00
 -1       695 1.15374E+02 9.98150E+00 0.00000E+00
 -1       696 1.18374E+02 9.98150E+00 0.00000E+00
 -1       697 1.21374E+02 9.98150E+00 0.00000E+00
 -1       698 1.24374E+02 9.98150E+00 0.00000E+00
 -1       699 1.27374E+02 9.98150E+00 0.00000E+00
 -1       700 1.30374E+02 9.98150E+00 0.00000E+00
 -1       701 1.33374E+02 9.98150E+00 0.00000E+00
 -1       702 1.36374E+02 9.98150E+00 0.00000E+00
 -1       703 1.39290E+02 1.01532E+01 0.00000E+00
 -1       704 1.39608E+02 1.47250E+01 0.00000E+00
 -1       705 1.39608E+02 2.06000E+01 0.00000E+00
 -1       706 1.39449E+02 1.24391E+01 0.00000E+00
 -1       707 1.39608E+02 1.76625E+01 0.00000E+00
 -1       708 1.39608E+02 2.65000E+01 0.00000E+00
 -1       709 1.39608E+02 2.94000E+01 0.00000E+00
 -1       710 1.39608E+02 3.23500E+01 0.00000E+00
 -1       711 1.39608E+02 3.53000E+01 0.00000E+00
 -1       712 4.36271E+01 2.30091E+01 0.00000E+00
 -1       713 4.59639E+01 2.82112E+01 0.00000E+00
 -1       714 2.15627E+01 2.55322E+01 0.00000E+00
 -1       715 2.26160E+01 2.36284E+01 0.00000E+00
 -1       716 2.86384E+01 1.80785E+01 0.00000E+00
 -1       717 1.39608E+02 2.35500E+01 0.00000E+00
 -1       718 4.60269E+01 3.09307E+01 0.00000E+00
 -1       719 1.98704E+01 2.89314E+01 0.00000E+00
 -1       720 3.67686E+01 1.86738E+01 0.00000E+00
 -1       721 1.24652E+01 3.94997E+01 0.00000E+00
 -1       722 4.16739E+01 2.14352E+01 0.00000E+00
 -1       723 2.10704E+01 3.37716E+01 0.00000E+00
 -1       724 2.38811E+01 2.17733E+01 0.00000E+00
 -1       725 2.55786E+01 1.91504E+01 0.00000E+00
 -1       726 1.03920E+01 1.76125E+01 0.00000E+00
 -1       727 1.03920E+01 3.23250E+01 0.00000E+00
 -1       728 2.53740E+01 9.98150E+00 0.00000E+00
 -1       729 4.45955E+01 3.54757E+01 0.00000E+00
 -1       730 4.38027E+01 3.78492E+01 0.00000E+00
 -1       731 3.47256E+01 1.81851E+01 0.00000E+00
 -1       732 4.56354E+01 3.33829E+01 0.00000E+00
 -1       733 1.03920E+01 2.64500E+01 0.00000E+00
 -1       734 2.07528E+01 3.54711E+01 0.00000E+00
 -1       735 1.03920E+01 3.52625E+01 0.00000E+00
 -1       736 1.39849E+02 3.74394E+01 0.00000E+00
 -1       737 1.33741E+01 9.98153E+00 0.00000E+00
 -1       738 2.99308E+01 1.67297E+01 0.00000E+00
 -1       739 1.94183E+01 2.68959E+01 0.00000E+00
 -1       740 3.31342E+01 1.67993E+01 0.00000E+00
 -1       741 1.03920E+01 2.93875E+01 0.00000E+00
 -1       742 1.29900E+01 1.32000E+01 0.00000E+00
 -1       743 3.88749E+01 1.69690E+01 0.00000E+00
 -1       744 1.88966E+01 3.10745E+01 0.00000E+00
 -1       745 4.95000E+01 3.72676E+01 0.00000E+00
 -1       746 5.25000E+01 3.72676E+01 0.00000E+00
 -1       747 5.55000E+01 3.72676E+01 0.00000E+00
 -1       748 5.85000E+01 3.72676E+01 0.00000E+00
 -1       749 6.15000E+01 3.72676E+01 0.00000E+00
 -1       750 6.45000E+01 3.72676E+01 0.00000E+00
 -1       751 6.75000E+01 3.72676E+01 0.00000E+00
 -1       752 7.05000E+01 3.72676E+01 0.00000E+00
 -1       753 7.35000E+01 3.72676E+01 0.00000E+00
 -1       754 7.65000E+01 3.72676E+01 0.00000E+00
 -1       755 7.95000E+01 3.72676E+01 0.00000E+00
 -1       756 8.25000E+01 3.72676E+01 0.00000E+00
 -1       757 8.55000E+01 3.72676E+01 0.00000E+00
 -1       758 8.85000E+01 3.72676E+01 0.00000E+00
 -1       759 9.15000E+01 3.72676E+01 0.00000E+00
 -1       760 9.45000E+01 3.72676E+01 0.00000E+00
 -1       761 9.75000E+01 3.72676E+01 0.00000E+00
 -1       762 1.00500E+02 3.72676E+01 0.00000E+00
 -1       763 1.03500E+02 3.72676E+01 0.00000E+00
 -1       764 1.06500E+02 3.72676E+01 0.00000E+00
 -1       765 1.09500E+02 3.72676E+01 0.00000E+00
 -1       766 1.12500E+02 3.72676E+01 0.00000E+00
 -1       767 1.15500E+02 3.72676E+01 0.00000E+00
 -1       768 1.18500E+02 3.72676E+01 0.00000E+00
 -1       769 1.21500E+02 3.72676E+01 0.00000E+00
 -1       770 1.24500E+02 3.72676E+01 0.00000E+00
 -1       771 1.27500E+02 3.72676E+01 0.00000E+00
 -1       772 1.30500E+02 3.72676E+01 0.00000E+00
 -1       773 1.33500E+02 3.72676E+01 0.00000E+00
 -1       774 1.36500E+02 3.72676E+01 0.00000E+00
 -1       775 2.08740E+01 1.25795E+01 0.00000E+00
 -1       776 1.78740E+01 1.25795E+01 0.00000E+00
 -1       777 3.28740E+01 1.25345E+01 0.00000E+00
 -1       778 2.98740E+01 1.25345E+01 0.00000E+00
 -1       779 3.88740E+01 1.25795E+01 0.00000E+00
 -1       780 4.18740E+01 1.25795E+01 0.00000E+00
 -1       781 4.48740E+01 1.25795E+01 0.00000E+00
 -1       782 4.78740E+01 1.25795E+01 0.00000E+00
 -1       783 5.08740E+01 1.25795E+01 0.00000E+00
 -1       784 5.38740E+01 1.25795E+01 0.00000E+00
 -1       785 5.68740E+01 1.25795E+01 0.00000E+00
 -1       786 5.98740E+01 1.25795E+01 0.00000E+00
 -1       787 6.28740E+01 1.25795E+01 0.00000E+00
 -1       788 6.58740E+01 1.25795E+01 0.00000E+00
 -1       789 6.88740E+01 1.25795E+01 0.00000E+00
 -1       790 7.18740E+01 1.25795E+01 0.00000E+00
 -1       791 7.48740E+01 1.25795E+01 0.00000E+00
 -1       792 7.78740E+01 1.25795E+01 0.00000E+00
 -1       793 8.08740E+01 1.25795E+01 0.00000E+00
 -1       794 8.38740E+01 1.25795E+01 0.00000E+00
 -1       795 8.68740E+01 1.25795E+01 0.00000E+00
 -1       796 8.98740E+01 1.25795E+01 0.00000E+00
 -1       797 9.28740E+01 1.25795E+01 0.00000E+00
 -1       798 9.58740E+01 1.25795E+01 0.00000E+00
 -1       799 9.88740E+01 1.25795E+01 0.00000E+00
 -1       800 1.01874E+02 1.25795E+01 0.00000E+00
 -1       801 1.04874E+02 1.25795E+01 0.00000E+00
 -1       802 1.07874E+02 1.25795E+01 0.00000E+00
 -1       803 1.10874E+02 1.25795E+01 0.00000E+00
 -1       804 1.13874E+02 1.25795E+01 0.00000E+00
 -1       805 1.16874E+02 1.25795E+01 0.00000E+00
 -1       806 1.19874E+02 1.25795E+01 0.00000E+00
 -1       807 1.22874E+02 1.25795E+01 0.00000E+00
 -1       808 1.25874E+02 1.25795E+01 0.00000E+00
 -1       809 1.28874E+02 1.25795E+01 0.00000E+00
 -1       810 1.31874E+02 1.25795E+01 0.00000E+00
 -1       811 1.34874E+02 1.25795E+01 0.00000E+00
 -1       812 1.37161E+02 1.25093E+01 0.00000E+00
 -1       813 1.37010E+02 3.08750E+01 0.00000E+00
 -1       814 1.37010E+02 2.20750E+01 0.00000E+00
 -1       815 4.59848E+01 3.72589E+01 0.00000E+00
 -1       816 2.14163E+01 2.14512E+01 0.00000E+00
 -1       817 1.37010E+02 3.38250E+01 0.00000E+00
 -1       818 1.37010E+02 2.79750E+01 0.00000E+00
 -1       819 4.70247E+01 3.51661E+01 0.00000E+00
 -1       820 4.80451E+01 2.95235E+01 0.00000E+00
 -1       821 2.63752E+01 1.65214E+01 0.00000E+00
 -1       822 1.37010E+02 2.50250E+01 0.00000E+00
 -1       823 3.58740E+01 1.25795E+01 0.00000E+00
 -1       824 2.03630E+01 2.33550E+01 0.00000E+00
 -1       825 1.66500E+01 3.70550E+01 0.00000E+00
 -1       826 4.75248E+01 3.24272E+01 0.00000E+00
 -1       827 4.41472E+01 2.03648E+01 0.00000E+00
 -1       828 4.73439E+01 2.61281E+01 0.00000E+00
 -1       829 2.31137E+01 1.88284E+01 0.00000E+00
 -1       830 4.22361E+01 1.84588E+01 0.00000E+00
 -1       831 1.87406E+01 3.34352E+01 0.00000E+00
 -1       832 4.62495E+01 2.32833E+01 0.00000E+00
 -1       833 1.29900E+01 2.20250E+01 0.00000E+00
 -1       834 3.68319E+01 1.64803E+01 0.00000E+00
 -1       835 1.94514E+01 3.75396E+01 0.00000E+00
 -1       836 1.29900E+01 2.49750E+01 0.00000E+00
 -1       837 1.75169E+01 2.91548E+01 0.00000E+00
 -1       838 2.38740E+01 1.25795E+01 0.00000E+00
 -1       839 1.37010E+02 1.91375E+01 0.00000E+00
 -1       840 1.29900E+01 3.37938E+01 0.00000E+00
 -1       841 1.29900E+01 1.61375E+01 0.00000E+00
 -1       842 2.76676E+01 1.51726E+01 0.00000E+00
 -1       843 1.37320E+02 1.47952E+01 0.00000E+00
 -1       844 1.82186E+01 2.47188E+01 0.00000E+00
 -1       845 1.39652E+01 3.69467E+01 0.00000E+00
 -1       846 1.29900E+01 1.90875E+01 0.00000E+00
 -1       847 2.39104E+01 1.61993E+01 0.00000E+00
 -1       848 2.68740E+01 1.25570E+01 0.00000E+00
 -1       849 1.29900E+01 3.08563E+01 0.00000E+00
 -1       850 1.64058E+01 3.14090E+01 0.00000E+00
 -1       851 1.93740E+01 1.51775E+01 0.00000E+00
 -1       852 3.43357E+01 1.51097E+01 0.00000E+00
 -1       853 4.16083E+01 1.53387E+01 0.00000E+00
 -1       854 1.88024E+01 2.12483E+01 0.00000E+00
 -1       855 5.40000E+01 3.46696E+01 0.00000E+00
 -1       856 5.70000E+01 3.46696E+01 0.00000E+00
 -1       857 6.00000E+01 3.46696E+01 0.00000E+00
 -1       858 6.30000E+01 3.46696E+01 0.00000E+00
 -1       859 6.60000E+01 3.46696E+01 0.00000E+00
 -1       860 6.90000E+01 3.46696E+01 0.00000E+00
 -1       861 7.20000E+01 3.46696E+01 0.00000E+00
 -1       862 7.50000E+01 3.46696E+01 0.00000E+00
 -1       863 7.80000E+01 3.46696E+01 0.00000E+00
 -1       864 8.10000E+01 3.46696E+01 0.00000E+00
 -1       865 8.40000E+01 3.46696E+01 0.00000E+00
 -1       866 8.70000E+01 3.46696E+01 0.00000E+00
 -1       867 9.00000E+01 3.46696E+01 0.00000E+00
 -1       868 9.30000E+01 3.46696E+01 0.00000E+00
 -1       869 9.60000E+01 3.46696E+01 0.00000E+00
 -1       870 9.90000E+01 3.46696E+01 0.00000E+00
 -1       871 1.02000E+02 3.46696E+01 0.00000E+00
 -1       872 1.05000E+02 3.46696E+01 0.00000E+00
 -1       873 1.08000E+02 3.46696E+01 0.00000E+00
 -1       874 1.11000E+02 3.46696E+01 0.00000E+00
 -1       875 1.14000E+02 3.46696E+01 0.00000E+00
 -1       876 1.17000E+02 3.46696E+01 0.00000E+00
 -1       877 1.20000E+02 3.46696E+01 0.00000E+00
 -1       878 1.23000E+02 3.46696E+01 0.00000E+00
 -1       879 1.26000E+02 3.46696E+01 0.00000E+00
 -1       880 1.29000E+02 3.46696E+01 0.00000E+00
 -1       881 1.32000E+02 3.46696E+01 0.00000E+00
 -1       882 1.34505E+02 3.42473E+01 0.00000E+00
 -1       883 4.93740E+01 1.51775E+01 0.00000E+00
 -1       884 5.23740E+01 1.51775E+01 0.00000E+00
 -1       885 5.53740E+01 1.51775E+01 0.00000E+00
 -1       886 5.83740E+01 1.51775E+01 0.00000E+00
 -1       887 6.13740E+01 1.51775E+01 0.00000E+00
 -1       888 6.43740E+01 1.51775E+01 0.00000E+00
 -1       889 6.73740E+01 1.51775E+01 0.00000E+00
 -1       890 7.03740E+01 1.51775E+01 0.00000E+00
 -1       891 7.33740E+01 1.51775E+01 0.00000E+00
 -1       892 7.63740E+01 1.51775E+01 0.00000E+00
 -1       893 7.93740E+01 1.51775E+01 0.00000E+00
 -1       894 8.23740E+01 1.51775E+01 0.00000E+00
 -1       895 8.53740E+01 1.51775E+01 0.00000E+00
 -1       896 8.83740E+01 1.51775E+01 0.00000E+00
 -1       897 9.13740E+01 1.51775E+01 0.00000E+00
 -1       898 9.43740E+01 1.51775E+01 0.00000E+00
 -1       899 9.73740E+01 1.51775E+01 0.00000E+00
 -1       900 1.00374E+02 1.51775E+01 0.00000E+00
 -1       901 1.03374E+02 1.51775E+01 0.00000E+00
 -1       902 1.06374E+02 1.51775E+01 0.00000E+00
 -1       903 1.09374E+02 1.51775E+01 0.00000E+00
 -1       904 1.12374E+02 1.51775E+01 0.00000E+00
 -1       905 1.15374E+02 1.51775E+01 0.00000E+00
 -1       906 1.18374E+02 1.51775E+01 0.00000E+00
 -1       907 1.21374E+02 1.51775E+01 0.00000E+00
 -1       908 1.24374E+02 1.51775E+01 0.00000E+00
 -1       909 1.27374E+02 1.51775E+01 0.00000E+00
 -1       910 1.30374E+02 1.51775E+01 0.00000E+00
 -1       911 1.33374E+02 1.51775E+01 0.00000E+00
 -1       912 4.90230E+01 2.38492E+01 0.00000E+00
 -1       913 3.73740E+01 1.47973E+01 0.00000E+00
 -1       914 4.73064E+01 2.03056E+01 0.00000E+00
 -1       915 4.48762E+01 1.77228E+01 0.00000E+00
 -1       916 1.34505E+02 3.12973E+01 0.00000E+00
 -1       917 1.34505E+02 2.83973E+01 0.00000E+00
 -1       918 5.01330E+01 3.13961E+01 0.00000E+00
 -1       919 1.76953E+01 3.52451E+01 0.00000E+00
 -1       920 5.02388E+01 2.73003E+01 0.00000E+00
 -1       921 1.29900E+01 2.79188E+01 0.00000E+00
 -1       922 1.63172E+01 2.69777E+01 0.00000E+00
 -1       923 4.96328E+01 3.41349E+01 0.00000E+00
 -1       924 3.08710E+01 1.52421E+01 0.00000E+00
 -1       925 2.04998E+01 1.86254E+01 0.00000E+00
 -1       926 4.54911E+01 1.52581E+01 0.00000E+00
 -1       927 1.61820E+01 1.56575E+01 0.00000E+00
 -1       928 1.34412E+02 2.35500E+01 0.00000E+00
 -1       929 1.34412E+02 2.06125E+01 0.00000E+00
 -1       930 1.55880E+01 2.35000E+01 0.00000E+00
 -1       931 1.53426E+01 3.45194E+01 0.00000E+00
 -1       932 5.10000E+01 3.48823E+01 0.00000E+00
 -1       933 1.55880E+01 2.05625E+01 0.00000E+00
 -1       934 1.49721E+01 2.93014E+01 0.00000E+00
 -1       935 5.55000E+01 3.20716E+01 0.00000E+00
 -1       936 5.85000E+01 3.20716E+01 0.00000E+00
 -1       937 6.15000E+01 3.20716E+01 0.00000E+00
 -1       938 6.45000E+01 3.20716E+01 0.00000E+00
 -1       939 6.75000E+01 3.20716E+01 0.00000E+00
 -1       940 7.05000E+01 3.20716E+01 0.00000E+00
 -1       941 7.35000E+01 3.20716E+01 0.00000E+00
 -1       942 7.65000E+01 3.20716E+01 0.00000E+00
 -1       943 7.95000E+01 3.20716E+01 0.00000E+00
 -1       944 8.25000E+01 3.20716E+01 0.00000E+00
 -1       945 8.55000E+01 3.20716E+01 0.00000E+00
 -1       946 8.85000E+01 3.20716E+01 0.00000E+00
 -1       947 9.15000E+01 3.20716E+01 0.00000E+00
 -1       948 9.45000E+01 3.20716E+01 0.00000E+00
 -1       949 9.75000E+01 3.20716E+01 0.00000E+00
 -1       950 1.00500E+02 3.20716E+01 0.00000E+00
 -1       951 1.03500E+02 3.20716E+01 0.00000E+00
 -1       952 1.06500E+02 3.20716E+01 0.00000E+00
 -1       953 1.09500E+02 3.20716E+01 0.00000E+00
 -1       954 1.12500E+02 3.20716E+01 0.00000E+00
 -1       955 1.15500E+02 3.20716E+01 0.00000E+00
 -1       956 1.18500E+02 3.20716E+01 0.00000E+00
 -1       957 1.21500E+02 3.20716E+01 0.00000E+00
 -1       958 1.24500E+02 3.20716E+01 0.00000E+00
 -1       959 1.27500E+02 3.20716E+01 0.00000E+00
 -1       960 1.30500E+02 3.20716E+01 0.00000E+00
 -1       961 1.32503E+02 3.16845E+01 0.00000E+00
 -1       962 5.68740E+01 1.77755E+01 0.00000E+00
 -1       963 5.38740E+01 1.77755E+01 0.00000E+00
 -1       964 5.08740E+01 1.77755E+01 0.00000E+00
 -1       965 5.98740E+01 1.77755E+01 0.00000E+00
 -1       966 6.28740E+01 1.77755E+01 0.00000E+00
 -1       967 6.58740E+01 1.77755E+01 0.00000E+00
 -1       968 6.88740E+01 1.77755E+01 0.00000E+00
 -1       969 7.18740E+01 1.77755E+01 0.00000E+00
 -1       970 7.48740E+01 1.77755E+01 0.00000E+00
 -1       971 7.78740E+01 1.77755E+01 0.00000E+00
 -1       972 8.08740E+01 1.77755E+01 0.00000E+00
 -1       973 8.38740E+01 1.77755E+01 0.00000E+00
 -1       974 8.68740E+01 1.77755E+01 0.00000E+00
 -1       975 8.98740E+01 1.77755E+01 0.00000E+00
 -1       976 9.28740E+01 1.77755E+01 0.00000E+00
 -1       977 9.58740E+01 1.77755E+01 0.00000E+00
 -1       978 9.88740E+01 1.77755E+01 0.00000E+00
 -1       979 1.01874E+02 1.77755E+01 0.00000E+00
 -1       980 1.04874E+02 1.77755E+01 0.00000E+00
 -1       981 1.07874E+02 1.77755E+01 0.00000E+00
 -1       982 1.10874E+02 1.77755E+01 0.00000E+00
 -1       983 1.13874E+02 1.77755E+01 0.00000E+00
 -1       984 1.16874E+02 1.77755E+01 0.00000E+00
 -1       985 1.19874E+02 1.77755E+01 0.00000E+00
 -1       986 1.22874E+02 1.77755E+01 0.00000E+00
 -1       987 1.25874E+02 1.77755E+01 0.00000E+00
 -1       988 1.28874E+02 1.77755E+01 0.00000E+00
 -1       989 1.31874E+02 1.77755E+01 0.00000E+00
 -1       990 1.32503E+02 2.87845E+01 0.00000E+00
 -1       991 5.05028E+01 2.09448E+01 0.00000E+00
 -1       992 1.74922E+01 1.84529E+01 0.00000E+00
 -1       993 4.74865E+01 1.78152E+01 0.00000E+00
 -1       994 5.27830E+01 2.94153E+01 0.00000E+00
 -1       995 5.20388E+01 2.47265E+01 0.00000E+00
 -1       996 5.20665E+01 3.30329E+01 0.00000E+00
 -1       997 1.31814E+02 2.20812E+01 0.00000E+00
 -1       998 1.31861E+02 2.60235E+01 0.00000E+00
 -1       999 5.45830E+01 2.68415E+01 0.00000E+00
 -1      1000 5.65415E+01 2.94566E+01 0.00000E+00
 -1      1001 6.00000E+01 2.94736E+01 0.00000E+00
 -1      1002 6.30000E+01 2.94736E+01 0.00000E+00
 -1      1003 6.60000E+01 2.94736E+01 0.00000E+00
 -1      1004 6.90000E+01 2.94736E+01 0.00000E+00
 -1      1005 7.20000E+01 2.94736E+01 0.00000E+00
 -1      1006 7.50000E+01 2.94736E+01 0.00000E+00
 -1      1007 7.80000E+01 2.94736E+01 0.00000E+00
 -1      1008 8.10000E+01 2.94736E+01 0.00000E+00
 -1      1009 8.40000E+01 2.94736E+01 0.00000E+00
 -1      1010 8.70000E+01 2.94736E+01 0.00000E+00
 -1      1011 9.00000E+01 2.94736E+01 0.00000E+00
 -1      1012 9.30000E+01 2.94736E+01 0.00000E+00
 -1      1013 9.60000E+01 2.94736E+01 0.00000E+00
 -1      1014 9.90000E+01 2.94736E+01 0.00000E+00
 -1      1015 1.02000E+02 2.94736E+01 0.00000E+00
 -1      1016 1.05000E+02 2.94736E+01 0.00000E+00
 -1      1017 1.08000E+02 2.94736E+01 0.00000E+00
 -1      1018 1.11000E+02 2.94736E+01 0.00000E+00
 -1      1019 1.14000E+02 2.94736E+01 0.00000E+00
 -1      1020 1.17000E+02 2.94736E+01 0.00000E+00
 -1      1021 1.20000E+02 2.94736E+01 0.00000E+00
 -1      1022 1.23000E+02 2.94736E+01 0.00000E+00
 -1      1023 1.26000E+02 2.94736E+01 0.00000E+00
 -1      1024 1.29000E+02 2.94736E+01 0.00000E+00
 -1      1025 1.30751E+02 2.91291E+01 0.00000E+00
 -1      1026 5.53740E+01 2.03735E+01 0.00000E+00
 -1      1027 5.29384E+01 2.06591E+01 0.00000E+00
 -1      1028 6.43740E+01 2.03735E+01 0.00000E+00
 -1      1029 6.73740E+01 2.03735E+01 0.00000E+00
 -1      1030 7.03740E+01 2.03735E+01 0.00000E+00
 -1      1031 7.33740E+01 2.03735E+01 0.00000E+00
 -1      1032 7.63740E+01 2.03735E+01 0.00000E+00
 -1      1033 7.93740E+01 2.03735E+01 0.00000E+00
 -1      1034 8.23740E+01 2.03735E+01 0.00000E+00
 -1      1035 8.53740E+01 2.03735E+01 0.00000E+00
 -1      1036 8.83740E+01 2.03735E+01 0.00000E+00
 -1      1037 9.13740E+01 2.03735E+01 0.00000E+00
 -1      1038 9.43740E+01 2.03735E+01 0.00000E+00
 -1      1039 9.73740E+01 2.03735E+01 0.00000E+00
 -1      1040 1.00374E+02 2.03735E+01 0.00000E+00
 -1      1041 1.03374E+02 2.03735E+01 0.00000E+00
 -1      1042 1.06374E+02 2.03735E+01 0.00000E+00
 -1      1043 1.09374E+02 2.03735E+01 0.00000E+00
 -1      1044 1.12374E+02 2.03735E+01 0.00000E+00
 -1      1045 1.15374E+02 2.03735E+01 0.00000E+00
 -1      1046 1.18374E+02 2.03735E+01 0.00000E+00
 -1      1047 1.21374E+02 2.03735E+01 0.00000E+00
 -1      1048 1.24374E+02 2.03735E+01 0.00000E+00
 -1      1049 1.27374E+02 2.03735E+01 0.00000E+00
 -1      1050 6.13740E+01 2.03735E+01 0.00000E+00
 -1      1051 5.83740E+01 2.03735E+01 0.00000E+00
 -1      1052 1.29240E+02 2.40833E+01 0.00000E+00
 -1      1053 1.29057E+02 2.09294E+01 0.00000E+00
 -1      1054 1.29120E+02 2.67785E+01 0.00000E+00
 -1      1055 5.49785E+01 2.36075E+01 0.00000E+00
 -1      1056 5.76417E+01 2.65917E+01 0.00000E+00
 -1      1057 6.15000E+01 2.68756E+01 0.00000E+00
 -1      1058 6.45000E+01 2.68756E+01 0.00000E+00
 -1      1059 6.75000E+01 2.68756E+01 0.00000E+00
 -1      1060 7.05000E+01 2.68756E+01 0.00000E+00
 -1      1061 7.35000E+01 2.68756E+01 0.00000E+00
 -1      1062 7.65000E+01 2.68756E+01 0.00000E+00
 -1      1063 7.95000E+01 2.68756E+01 0.00000E+00
 -1      1064 8.25000E+01 2.68756E+01 0.00000E+00
 -1      1065 8.55000E+01 2.68756E+01 0.00000E+00
 -1      1066 8.85000E+01 2.68756E+01 0.00000E+00
 -1      1067 9.15000E+01 2.68756E+01 0.00000E+00
 -1      1068 9.45000E+01 2.68756E+01 0.00000E+00
 -1      1069 9.75000E+01 2.68756E+01 0.00000E+00
 -1      1070 1.00500E+02 2.68756E+01 0.00000E+00
 -1      1071 1.03500E+02 2.68756E+01 0.00000E+00
 -1      1072 1.06500E+02 2.68756E+01 0.00000E+00
 -1      1073 1.09500E+02 2.68756E+01 0.00000E+00
 -1      1074 1.12500E+02 2.68756E+01 0.00000E+00
 -1      1075 1.15500E+02 2.68756E+01 0.00000E+00
 -1      1076 1.18500E+02 2.68756E+01 0.00000E+00
 -1      1077 1.21500E+02 2.68756E+01 0.00000E+00
 -1      1078 1.24500E+02 2.68756E+01 0.00000E+00
 -1      1079 1.26810E+02 2.68271E+01 0.00000E+00
 -1      1080 7.18740E+01 2.29715E+01 0.00000E+00
 -1      1081 6.58740E+01 2.29715E+01 0.00000E+00
 -1      1082 7.48740E+01 2.29715E+01 0.00000E+00
 -1      1083 7.78740E+01 2.29715E+01 0.00000E+00
 -1      1084 8.08740E+01 2.29715E+01 0.00000E+00
 -1      1085 8.38740E+01 2.29715E+01 0.00000E+00
 -1      1086 8.68740E+01 2.29715E+01 0.00000E+00
 -1      1087 8.98740E+01 2.29715E+01 0.00000E+00
 -1      1088 9.28740E+01 2.29715E+01 0.00000E+00
 -1      1089 9.58740E+01 2.29715E+01 0.00000E+00
 -1      1090 9.88740E+01 2.29715E+01 0.00000E+00
 -1      1091 1.01874E+02 2.29715E+01 0.00000E+00
 -1      1092 1.04874E+02 2.29715E+01 0.00000E+00
 -1      1093 1.07874E+02 2.29715E+01 0.00000E+00
 -1      1094 1.10874E+02 2.29715E+01 0.00000E+00
 -1      1095 1.13874E+02 2.29715E+01 0.00000E+00
 -1      1096 1.16874E+02 2.29715E+01 0.00000E+00
 -1      1097 1.19874E+02 2.29715E+01 0.00000E+00
 -1      1098 1.22874E+02 2.29715E+01 0.00000E+00
 -1      1099 1.25874E+02 2.29715E+01 0.00000E+00
 -1      1100 6.88740E+01 2.29715E+01 0.00000E+00
 -1      1101 6.28740E+01 2.29715E+01 0.00000E+00
 -1      1102 5.98740E+01 2.29715E+01 0.00000E+00
 -1      1103 1.27557E+02 2.35274E+01 0.00000E+00
 -1      1104 1.27183E+02 2.51772E+01 0.00000E+00
 -1      1105 0.00000E+00 4.85250E+01 0.00000E+00
 -1      1106 0.00000E+00 4.55750E+01 0.00000E+00
 -1      1107 0.00000E+00 4.26250E+01 0.00000E+00
 -1      1108 0.00000E+00 3.96750E+01 0.00000E+00
 -1      1109 0.00000E+00 3.67250E+01 0.00000E+00
 -1      1110 0.00000E+00 3.38000E+01 0.00000E+00
 -1      1111 0.00000E+00 3.08750E+01 0.00000E+00
 -1      1112 0.00000E+00 2.79250E+01 0.00000E+00
 -1      1113 0.00000E+00 2.49750E+01 0.00000E+00
 -1      1114 0.00000E+00 2.20250E+01 0.00000E+00
 -1      1115 0.00000E+00 1.90750E+01 0.00000E+00
 -1      1116 0.00000E+00 1.61500E+01 0.00000E+00
 -1      1117 0.00000E+00 1.32250E+01 0.00000E+00
 -1      1118 0.00000E+00 1.02750E+01 0.00000E+00
 -1      1119 0.00000E+00 7.32500E+00 0.00000E+00
 -1      1120 0.00000E+00 4.37500E+00 0.00000E+00
 -1      1121 0.00000E+00 1.45000E+00 0.00000E+00
 -1      1122 1.57500E+00 5.00000E+01 0.00000E+00
 -1      1123 4.65000E+00 5.00000E+01 0.00000E+00
 -1      1124 7.65000E+00 5.00000E+01 0.00000E+00
 -1      1125 1.06500E+01 5.00000E+01 0.00000E+00
 -1      1126 1.36500E+01 5.00000E+01 0.00000E+00
 -1      1127 1.66500E+01 5.00000E+01 0.00000E+00
 -1      1128 1.96500E+01 5.00000E+01 0.00000E+00
 -1      1129 2.26500E+01 5.00000E+01 0.00000E+00
 -1      1130 2.56500E+01 5.00000E+01 0.00000E+00
 -1      1131 2.86500E+01 5.00000E+01 0.00000E+00
 -1      1132 3.15750E+01 5.00000E+01 0.00000E+00
 -1      1133 3.45000E+01 5.00000E+01 0.00000E+00
 -1      1134 3.75000E+01 5.00000E+01 0.00000E+00
 -1      1135 4.05000E+01 5.00000E+01 0.00000E+00
 -1      1136 4.35000E+01 5.00000E+01 0.00000E+00
 -1      1137 4.65000E+01 5.00000E+01 0.00000E+00
 -1      1138 4.95000E+01 5.00000E+01 0.00000E+00
 -1      1139 5.25000E+01 5.00000E+01 0.00000E+00
 -1      1140 5.55000E+01 5.00000E+01 0.00000E+00
 -1      1141 5.85000E+01 5.00000E+01 0.00000E+00
 -1      1142 6.15000E+01 5.00000E+01 0.00000E+00
 -1      1143 6.45000E+01 5.00000E+01 0.00000E+00
 -1      1144 6.75000E+01 5.00000E+01 0.00000E+00
 -1      1145 7.05000E+01 5.00000E+01 0.00000E+00
 -1      1146 7.35000E+01 5.00000E+01 0.00000E+00
 -1      1147 7.65000E+01 5.00000E+01 0.00000E+00
 -1      1148 7.95000E+01 5.00000E+01 0.00000E+00
 -1      1149 8.25000E+01 5.00000E+01 0.00000E+00
 -1      1150 8.55000E+01 5.00000E+01 0.00000E+00
 -1      1151 8.85000E+01 5.00000E+01 0.00000E+00
 -1      1152 9.15000E+01 5.00000E+01 0.00000E+00
 -1      1153 9.45000E+01 5.00000E+01 0.00000E+00
 -1      1154 9.75000E+01 5.00000E+01 0.00000E+00
 -1      1155 1.00500E+02 5.00000E+01 0.00000E+00
 -1      1156 1.03500E+02 5.00000E+01 0.00000E+00
 -1      1157 1.06500E+02 5.00000E+01 0.00000E+00
 -1      1158 1.09500E+02 5.00000E+01 0.00000E+00
 -1      1159 1.12500E+02 5.00000E+01 0.00000E+00
 -1      1160 1.15500E+02 5.00000E+01 0.00000E+00
 -1      1161 1.18500E+02 5.00000E+01 0.00000E+00
 -1      1162 1.21500E+02 5.00000E+01 0.00000E+00
 -1      1163 1.24500E+02 5.00000E+01 0.00000E+00
 -1      1164 1.27500E+02 5.00000E+01 0.00000E+00
 -1      1165 1.30500E+02 5.00000E+01 0.00000E+00
 -1      1166 1.33500E+02 5.00000E+01 0.00000E+00
 -1      1167 1.36500E+02 5.00000E+01 0.00000E+00
 -1      1168 1.39500E+02 5.00000E+01 0.00000E+00
 -1      1169 1.42500E+02 5.00000E+01 0.00000E+00
 -1      1170 1.45500E+02 5.00000E+01 0.00000E+00
 -1      1171 1.48500E+02 5.00000E+01 0.00000E+00
 -1      1172 1.57500E+00 0.00000E+00 0.00000E+00
 -1      1173 4.65000E+00 0.00000E+00 0.00000E+00
 -1      1174 7.65000E+00 0.00000E+00 0.00000E+00
 -1      1175 1.06500E+01 0.00000E+00 0.00000E+00
 -1      1176 1.36500E+01 0.00000E+00 0.00000E+00
 -1      1177 1.66500E+01 0.00000E+00 0.00000E+00
 -1      1178 1.96500E+01 0.00000E+00 0.00000E+00
 -1      1179 2.26500E+01 0.00000E+00 0.00000E+00
 -1      1180 2.56500E+01 0.00000E+00 0.00000E+00
 -1      1181 2.86500E+01 0.00000E+00 0.00000E+00
 -1      1182 3.16500E+01 0.00000E+00 0.00000E+00
 -1      1183 3.46500E+01 0.00000E+00 0.00000E+00
 -1      1184 3.76500E+01 0.00000E+00 0.00000E+00
 -1      1185 4.06500E+01 0.00000E+00 0.00000E+00
 -1      1186 4.36500E+01 0.00000E+00 0.00000E+00
 -1      1187 4.66500E+01 0.00000E+00 0.00000E+00
 -1      1188 4.96500E+01 0.00000E+00 0.00000E+00
 -1      1189 5.26500E+01 0.00000E+00 0.00000E+00
 -1      1190 5.56500E+01 0.00000E+00 0.00000E+00
 -1      1191 5.86500E+01 0.00000E+00 0.00000E+00
 -1      1192 6.16500E+01 0.00000E+00 0.00000E+00
 -1      1193 6.46500E+01 0.00000E+00 0.00000E+00
 -1      1194 6.76500E+01 0.00000E+00 0.00000E+00
 -1      1195 7.06500E+01 0.00000E+00 0.00000E+00
 -1      1196 7.36500E+01 0.00000E+00 0.00000E+00
 -1      1197 7.66500E+01 0.00000E+00 0.00000E+00
 -1      1198 7.96500E+01 0.00000E+00 0.00000E+00
 -1      1199 8.26500E+01 0.00000E+00 0.00000E+00
 -1      1200 8.56500E+01 0.00000E+00 0.00000E+00
 -1      1201 8.86500E+01 0.00000E+00 0.00000E+00
 -1      1202 9.16500E+01 0.00000E+00 0.00000E+00
 -1      1203 9.46500E+01 0.00000E+00 0.00000E+00
 -1      1204 9.76500E+01 0.00000E+00 0.00000E+00
 -1      1205 1.00650E+02 0.00000E+00 0.00000E+00
 -1      1206 1.03650E+02 0.00000E+00 0.00000E+00
 -1      1207 1.06650E+02 0.00000E+00 0.00000E+00
 -1      1208 1.09650E+02 0.00000E+00 0.00000E+00
 -1      1209 1.12650E+02 0.00000E+00 0.00000E+00
 -1      1210 1.15650E+02 0.00000E+00 0.00000E+00
 -1      1211 1.18650E+02 0.00000E+00 0.00000E+00
 -1      1212 1.21650E+02 0.00000E+00 0.00000E+00
 -1      1213 1.24650E+02 0.00000E+00 0.00000E+00
 -1      1214 1.27650E+02 0.00000E+00 0.00000E+00
 -1      1215 1.30650E+02 0.00000E+00 0.00000E+00
 -1      1216 1.33650E+02 0.00000E+00 0.00000E+00
 -1      1217 1.36650E+02 0.00000E+00 0.00000E+00
 -1      1218 1.39650E+02 0.00000E+00 0.00000E+00
 -1      1219 1.42650E+02 0.00000E+00 0.00000E+00
 -1      1220 1.45650E+02 0.00000E+00 0.00000E+00
 -1      1221 1.48575E+02 0.00000E+00 0.00000E+00
 -1      1222 1.50000E+02 1.47500E+00 0.00000E+00
 -1      1223 1.50000E+02 4.42500E+00 0.00000E+00
 -1      1224 1.50000E+02 7.37500E+00 0.00000E+00
 -1      1225 1.50000E+02 1.03250E+01 0.00000E+00
 -1      1226 1.50000E+02 1.32750E+01 0.00000E+00
 -1      1227 1.50000E+02 1.62000E+01 0.00000E+00
 -1      1228 1.50000E+02 1.91250E+01 0.00000E+00
 -1      1229 1.50000E+02 2.20750E+01 0.00000E+00
 -1      1230 1.50000E+02 2.50250E+01 0.00000E+00
 -1      1231 1.50000E+02 2.79750E+01 0.00000E+00
 -1      1232 1.50000E+02 3.09250E+01 0.00000E+00
 -1      1233 1.50000E+02 3.38500E+01 0.00000E+00
 -1      1234 1.50000E+02 3.67750E+01 0.00000E+00
 -1      1235 1.50000E+02 3.97250E+01 0.00000E+00
 -1      1236 1.50000E+02 4.26750E+01 0.00000E+00
 -1      1237 1.50000E+02 4.56250E+01 0.00000E+00
 -1      1238 1.50000E+02 4.85500E+01 0.00000E+00
 -1      1239 4.01472E+01 3.01792E+01 0.00000E+00
 -1      1240 3.98479E+01 2.87588E+01 0.00000E+00
 -1      1241 3.92303E+01 2.73757E+01 0.00000E+00
 -1      1242 3.83412E+01 2.61704E+01 0.00000E+00
 -1      1243 3.72533E+01 2.52083E+01 0.00000E+00
 -1      1244 3.59778E+01 2.44859E+01 0.00000E+00
 -1      1245 3.45995E+01 2.40490E+01 0.00000E+00
 -1      1246 3.31068E+01 2.39050E+01 0.00000E+00
 -1      1247 3.15469E+01 2.40989E+01 0.00000E+00
 -1      1248 3.01107E+01 2.46157E+01 0.00000E+00
 -1      1249 2.88706E+01 2.53921E+01 0.00000E+00
 -1      1250 2.78390E+01 2.63856E+01 0.00000E+00
 -1      1251 2.70355E+01 2.75600E+01 0.00000E+00
 -1      1252 2.64671E+01 2.89369E+01 0.00000E+00
 -1      1253 2.62018E+01 3.04185E+01 0.00000E+00
 -1      1254 2.62640E+01 3.19543E+01 0.00000E+00
 -1      1255 2.66527E+01 3.34206E+01 0.00000E+00
 -1      1256 2.73313E+01 3.47433E+01 0.00000E+00
 -1      1257 2.83002E+01 3.59186E+01 0.00000E+00
 -1      1258 2.94624E+01 3.68327E+01 0.00000E+00
 -1      1259 3.08654E+01 3.75091E+01 0.00000E+00
 -1      1260 3.24123E+01 3.78618E+01 0.00000E+00
 -1      1261 3.38613E+01 3.78718E+01 0.00000E+00
 -1      1262 3.52278E+01 3.75998E+01 0.00000E+00
 -1      1263 3.65004E+01 3.70695E+01 0.00000E+00
 -1      1264 3.76243E+01 3.63167E+01 0.00000E+00
 -1      1265 3.85870E+01 3.53562E+01 0.00000E+00
 -1      1266 3.93514E+01 3.42173E+01 0.00000E+00
 -1      1267 3.98843E+01 3.29337E+01 0.00000E+00
 -1      1268 4.01523E+01 3.15790E+01 0.00000E+00
 -1      1269 1.57500E+00 4.85250E+01 0.00000E+00
 -1      1270 1.29900E+00 4.48375E+01 0.00000E+00
 -1      1271 1.29900E+00 4.63125E+01 0.00000E+00
 -1      1272 1.29900E+00 4.18875E+01 0.00000E+00
 -1      1273 1.29900E+00 4.33625E+01 0.00000E+00
 -1      1274 2.59800E+00 4.41000E+01 0.00000E+00
 -1      1275 1.29900E+00 3.89375E+01 0.00000E+00
 -1      1276 1.29900E+00 4.04125E+01 0.00000E+00
 -1      1277 2.59800E+00 4.11500E+01 0.00000E+00
 -1      1278 1.29900E+00 3.59875E+01 0.00000E+00
 -1      1279 1.29900E+00 3.74625E+01 0.00000E+00
 -1      1280 2.59800E+00 3.82000E+01 0.00000E+00
 -1      1281 1.29900E+00 3.30875E+01 0.00000E+00
 -1      1282 1.29900E+00 3.45375E+01 0.00000E+00
 -1      1283 2.59800E+00 3.52750E+01 0.00000E+00
 -1      1284 1.29900E+00 3.01375E+01 0.00000E+00
 -1      1285 1.29900E+00 3.16125E+01 0.00000E+00
 -1      1286 2.59800E+00 3.23500E+01 0.00000E+00
 -1      1287 1.29900E+00 2.71875E+01 0.00000E+00
 -1      1288 1.29900E+00 2.86625E+01 0.00000E+00
 -1      1289 2.59800E+00 2.94000E+01 0.00000E+00
 -1      1290 1.29900E+00 2.42375E+01 0.00000E+00
 -1      1291 1.29900E+00 2.57125E+01 0.00000E+00
 -1      1292 2.59800E+00 2.64500E+01 0.00000E+00
 -1      1293 1.29900E+00 2.12875E+01 0.00000E+00
 -1      1294 1.29900E+00 2.27625E+01 0.00000E+00
 -1      1295 2.59800E+00 2.35000E+01 0.00000E+00
 -1      1296 1.29900E+00 1.83375E+01 0.00000E+00
 -1      1297 1.29900E+00 1.98125E+01 0.00000E+00
 -1      1298 2.59800E+00 2.05500E+01 0.00000E+00
 -1      1299 1.29900E+00 1.54375E+01 0.00000E+00
 -1      1300 1.29900E+00 1.68875E+01 0.00000E+00
 -1      1301 2.59800E+00 1.76250E+01 0.00000E+00
 -1      1302 1.29900E+00 1.24875E+01 0.00000E+00
 -1      1303 1.29900E+00 1.39625E+01 0.00000E+00
 -1      1304 2.59800E+00 1.47000E+01 0.00000E+00
 -1      1305 1.29900E+00 9.53750E+00 0.00000E+00
 -1      1306 1.29900E+00 1.10125E+01 0.00000E+00
 -1      1307 2.59800E+00 1.17500E+01 0.00000E+00
 -1      1308 1.29900E+00 6.58750E+00 0.00000E+00
 -1      1309 1.29900E+00 8.06250E+00 0.00000E+00
 -1      1310 2.59800E+00 8.80000E+00 0.00000E+00
 -1      1311 1.29900E+00 3.63750E+00 0.00000E+00
 -1      1312 1.29900E+00 5.11250E+00 0.00000E+00
 -1      1313 2.59800E+00 5.85000E+00 0.00000E+00
 -1      1314 1.43700E+00 1.09375E+00 0.00000E+00
 -1      1315 1.43700E+00 2.54375E+00 0.00000E+00
 -1      1316 2.73600E+00 3.28125E+00 0.00000E+00
 -1      1317 3.01200E+00 1.09375E+00 0.00000E+00
 -1      1318 3.90000E+00 4.87010E+01 0.00000E+00
 -1      1319 5.40000E+00 4.87010E+01 0.00000E+00
 -1      1320 6.90000E+00 4.87010E+01 0.00000E+00
 -1      1321 8.40000E+00 4.87010E+01 0.00000E+00
 -1      1322 6.15000E+00 4.74020E+01 0.00000E+00
 -1      1323 9.90000E+00 4.87010E+01 0.00000E+00
 -1      1324 1.14000E+01 4.87010E+01 0.00000E+00
 -1      1325 9.15000E+00 4.74020E+01 0.00000E+00
 -1      1326 1.29000E+01 4.87010E+01 0.00000E+00
 -1      1327 1.44000E+01 4.87010E+01 0.00000E+00
 -1      1328 1.21500E+01 4.74020E+01 0.00000E+00
 -1      1329 1.59000E+01 4.87010E+01 0.00000E+00
 -1      1330 1.74000E+01 4.87010E+01 0.00000E+00
 -1      1331 1.51500E+01 4.74020E+01 0.00000E+00
 -1      1332 1.89000E+01 4.87010E+01 0.00000E+00
 -1      1333 2.04000E+01 4.87010E+01 0.00000E+00
 -1      1334 1.81500E+01 4.74020E+01 0.00000E+00
 -1      1335 2.19000E+01 4.87010E+01 0.00000E+00
 -1      1336 2.34000E+01 4.87010E+01 0.00000E+00
 -1      1337 2.11500E+01 4.74020E+01 0.00000E+00
 -1      1338 2.49000E+01 4.87010E+01 0.00000E+00
 -1      1339 2.64000E+01 4.87010E+01 0.00000E+00
 -1      1340 2.41500E+01 4.74020E+01 0.00000E+00
 -1      1341 2.79000E+01 4.87010E+01 0.00000E+00
 -1      1342 2.94000E+01 4.87010E+01 0.00000E+00
 -1      1343 2.71500E+01 4.74020E+01 0.00000E+00
 -1      1344 3.08250E+01 4.87010E+01 0.00000E+00
 -1      1345 3.22500E+01 4.87010E+01 0.00000E+00
 -1      1346 3.00750E+01 4.74020E+01 0.00000E+00
 -1      1347 3.37500E+01 4.87010E+01 0.00000E+00
 -1      1348 3.52500E+01 4.87010E+01 0.00000E+00
 -1      1349 3.30000E+01 4.74020E+01 0.00000E+00
 -1      1350 3.67500E+01 4.87010E+01 0.00000E+00
 -1      1351 3.82500E+01 4.87010E+01 0.00000E+00
 -1      1352 3.60000E+01 4.74020E+01 0.00000E+00
 -1      1353 3.97500E+01 4.87010E+01 0.00000E+00
 -1      1354 4.12500E+01 4.87010E+01 0.00000E+00
 -1      1355 3.90000E+01 4.74020E+01 0.00000E+00
 -1      1356 4.27500E+01 4.87010E+01 0.00000E+00
 -1      1357 4.42500E+01 4.87010E+01 0.00000E+00
 -1      1358 4.20000E+01 4.74020E+01 0.00000E+00
 -1      1359 4.57500E+01 4.87010E+01 0.00000E+00
 -1      1360 4.72500E+01 4.87010E+01 0.00000E+00
 -1      1361 4.50000E+01 4.74020E+01 0.00000E+00
 -1      1362 4.87500E+01 4.87010E+01 0.00000E+00
 -1      1363 5.02500E+01 4.87010E+01 0.00000E+00
 -1      1364 4.80000E+01 4.74020E+01 0.00000E+00
 -1      1365 5.17500E+01 4.87010E+01 0.00000E+00
 -1      1366 5.32500E+01 4.87010E+01 0.00000E+00
 -1      1367 5.10000E+01 4.74020E+01 0.00000E+00
 -1      1368 5.47500E+01 4.87010E+01 0.00000E+00
 -1      1369 5.62500E+01 4.87010E+01 0.00000E+00
 -1      1370 5.40000E+01 4.74020E+01 0.00000E+00
 -1      1371 5.77500E+01 4.87010E+01 0.00000E+00
 -1      1372 5.92500E+01 4.87010E+01 0.00000E+00
 -1      1373 5.70000E+01 4.74020E+01 0.00000E+00
 -1      1374 6.07500E+01 4.87010E+01 0.00000E+00
 -1      1375 6.22500E+01 4.87010E+01 0.00000E+00
 -1      1376 6.00000E+01 4.74020E+01 0.00000E+00
 -1      1377 6.37500E+01 4.87010E+01 0.00000E+00
 -1      1378 6.52500E+01 4.87010E+01 0.00000E+00
 -1      1379 6.30000E+01 4.74020E+01 0.00000E+00
 -1      1380 6.67500E+01 4.87010E+01 0.00000E+00
 -1      1381 6.82500E+01 4.87010E+01 0.00000E+00
 -1      1382 6.60000E+01 4.74020E+01 0.00000E+00
 -1      1383 6.97500E+01 4.87010E+01 0.00000E+00
 -1      1384 7.12500E+01 4.87010E+01 0.00000E+00
 -1      1385 6.90000E+01 4.74020E+01 0.00000E+00
 -1      1386 7.27500E+01 4.87010E+01 0.00000E+00
 -1      1387 7.42500E+01 4.87010E+01 0.00000E+00
 -1      1388 7.20000E+01 4.74020E+01 0.00000E+00
 -1      1389 7.57500E+01 4.87010E+01 0.00000E+00
 -1      1390 7.72500E+01 4.87010E+01 0.00000E+00
 -1      1391 7.50000E+01 4.74020E+01 0.00000E+00
 -1      1392 7.87500E+01 4.87010E+01 0.00000E+00
 -1      1393 8.02500E+01 4.87010E+01 0.00000E+00
 -1      1394 7.80000E+01 4.74020E+01 0.00000E+00
 -1      1395 8.17500E+01 4.87010E+01 0.00000E+00
 -1      1396 8.32500E+01 4.87010E+01 0.00000E+00
 -1      1397 8.10000E+01 4.74020E+01 0.00000E+00
 -1      1398 8.47500E+01 4.87010E+01 0.00000E+00
 -1      1399 8.62500E+01 4.87010E+01 0.00000E+00
 -1      1400 8.40000E+01 4.74020E+01 0.00000E+00
 -1      1401 8.77500E+01 4.87010E+01 0.00000E+00
 -1      1402 8.92500E+01 4.87010E+01 0.00000E+00
 -1      1403 8.70000E+01 4.74020E+01 0.00000E+00
 -1      1404 9.07500E+01 4.87010E+01 0.00000E+00
 -1      1405 9.22500E+01 4.87010E+01 0.00000E+00
 -1      1406 9.00000E+01 4.74020E+01 0.00000E+00
 -1      1407 9.37500E+01 4.87010E+01 0.00000E+00
 -1      1408 9.52500E+01 4.87010E+01 0.00000E+00
 -1      1409 9.30000E+01 4.74020E+01 0.00000E+00
 -1      1410 9.67500E+01 4.87010E+01 0.00000E+00
 -1      1411 9.82500E+01 4.87010E+01 0.00000E+00
 -1      1412 9.60000E+01 4.74020E+01 0.00000E+00
 -1      1413 9.97500E+01 4.87010E+01 0.00000E+00
 -1      1414 1.01250E+02 4.87010E+01 0.00000E+00
 -1      1415 9.90000E+01 4.74020E+01 0.00000E+00
 -1      1416 1.02750E+02 4.87010E+01 0.00000E+00
 -1      1417 1.04250E+02 4.87010E+01 0.00000E+00
 -1      1418 1.02000E+02 4.74020E+01 0.00000E+00
 -1      1419 1.05750E+02 4.87010E+01 0.00000E+00
 -1      1420 1.07250E+02 4.87010E+01 0.00000E+00
 -1      1421 1.05000E+02 4.74020E+01 0.00000E+00
 -1      1422 1.08750E+02 4.87010E+01 0.00000E+00
 -1      1423 1.10250E+02 4.87010E+01 0.00000E+00
 -1      1424 1.08000E+02 4.74020E+01 0.00000E+00
 -1      1425 1.11750E+02 4.87010E+01 0.00000E+00
 -1      1426 1.13250E+02 4.87010E+01 0.00000E+00
 -1      1427 1.11000E+02 4.74020E+01 0.00000E+00
 -1      1428 1.14750E+02 4.87010E+01 0.00000E+00
 -1      1429 1.16250E+02 4.87010E+01 0.00000E+00
 -1      1430 1.14000E+02 4.74020E+01 0.00000E+00
 -1      1431 1.17750E+02 4.87010E+01 0.00000E+00
 -1      1432 1.19250E+02 4.87010E+01 0.00000E+00
 -1      1433 1.17000E+02 4.74020E+01 0.00000E+00
 -1      1434 1.20750E+02 4.87010E+01 0.00000E+00
 -1      1435 1.22250E+02 4.87010E+01 0.00000E+00
 -1      1436 1.20000E+02 4.74020E+01 0.00000E+00
 -1      1437 1.23750E+02 4.87010E+01 0.00000E+00
 -1      1438 1.25250E+02 4.87010E+01 0.00000E+00
 -1      1439 1.23000E+02 4.74020E+01 0.00000E+00
 -1      1440 1.26750E+02 4.87010E+01 0.00000E+00
 -1      1441 1.28250E+02 4.87010E+01 0.00000E+00
 -1      1442 1.26000E+02 4.74020E+01 0.00000E+00
 -1      1443 1.29750E+02 4.87010E+01 0.00000E+00
 -1      1444 1.31250E+02 4.87010E+01 0.00000E+00
 -1      1445 1.29000E+02 4.74020E+01 0.00000E+00
 -1      1446 1.32750E+02 4.87010E+01 0.00000E+00
 -1      1447 1.34250E+02 4.87010E+01 0.00000E+00
 -1      1448 1.32000E+02 4.74020E+01 0.00000E+00
 -1      1449 1.35750E+02 4.87010E+01 0.00000E+00
 -1      1450 1.37250E+02 4.87010E+01 0.00000E+00
 -1      1451 1.35000E+02 4.74020E+01 0.00000E+00
 -1      1452 1.38750E+02 4.87010E+01 0.00000E+00
 -1      1453 1.40250E+02 4.87010E+01 0.00000E+00
 -1      1454 1.38000E+02 4.74020E+01 0.00000E+00
 -1      1455 1.41750E+02 4.87010E+01 0.00000E+00
 -1      1456 1.43250E+02 4.87010E+01 0.00000E+00
 -1      1457 1.41000E+02 4.74020E+01 0.00000E+00
 -1      1458 1.44750E+02 4.87010E+01 0.00000E+00
 -1      1459 1.46250E+02 4.87010E+01 0.00000E+00
 -1      1460 1.44000E+02 4.74020E+01 0.00000E+00
 -1      1461 1.47375E+02 4.86255E+01 0.00000E+00
 -1      1462 1.48875E+02 4.86255E+01 0.00000E+00
 -1      1463 1.48875E+02 4.71755E+01 0.00000E+00
 -1      1464 1.46625E+02 4.73265E+01 0.00000E+00
 -1      1465 6.01200E+00 1.09375E+00 0.00000E+00
 -1      1466 4.51200E+00 1.09375E+00 0.00000E+00
 -1      1467 4.37400E+00 2.18750E+00 0.00000E+00
 -1      1468 9.01200E+00 1.09375E+00 0.00000E+00
 -1      1469 7.51200E+00 1.09375E+00 0.00000E+00
 -1      1470 7.37400E+00 2.18750E+00 0.00000E+00
 -1      1471 1.20120E+01 1.09375E+00 0.00000E+00
 -1      1472 1.05120E+01 1.09375E+00 0.00000E+00
 -1      1473 1.03740E+01 2.18750E+00 0.00000E+00
 -1      1474 1.50120E+01 1.09375E+00 0.00000E+00
 -1      1475 1.35120E+01 1.09375E+00 0.00000E+00
 -1      1476 1.33740E+01 2.18750E+00 0.00000E+00
 -1      1477 1.80120E+01 1.09375E+00 0.00000E+00
 -1      1478 1.65120E+01 1.09375E+00 0.00000E+00
 -1      1479 1.63740E+01 2.18750E+00 0.00000E+00
 -1      1480 2.10120E+01 1.09375E+00 0.00000E+00
 -1      1481 1.95120E+01 1.09375E+00 0.00000E+00
 -1      1482 1.93740E+01 2.18750E+00 0.00000E+00
 -1      1483 2.40120E+01 1.09375E+00 0.00000E+00
 -1      1484 2.25120E+01 1.09375E+00 0.00000E+00
 -1      1485 2.23740E+01 2.18750E+00 0.00000E+00
 -1      1486 2.70120E+01 1.09375E+00 0.00000E+00
 -1      1487 2.55120E+01 1.09375E+00 0.00000E+00
 -1      1488 2.53740E+01 2.18750E+00 0.00000E+00
 -1      1489 3.00120E+01 1.09375E+00 0.00000E+00
 -1      1490 2.85120E+01 1.09375E+00 0.00000E+00
 -1      1491 2.83740E+01 2.18750E+00 0.00000E+00
 -1      1492 3.30120E+01 1.09375E+00 0.00000E+00
 -1      1493 3.15120E+01 1.09375E+00 0.00000E+00
 -1      1494 3.13740E+01 2.18750E+00 0.00000E+00
 -1      1495 3.60120E+01 1.09375E+00 0.00000E+00
 -1      1496 3.45120E+01 1.09375E+00 0.00000E+00
 -1      1497 3.43740E+01 2.18750E+00 0.00000E+00
 -1      1498 3.90120E+01 1.09375E+00 0.00000E+00
 -1      1499 3.75120E+01 1.09375E+00 0.00000E+00
 -1      1500 3.73740E+01 2.18750E+00 0.00000E+00
 -1      1501 4.20120E+01 1.09375E+00 0.00000E+00
 -1      1502 4.05120E+01 1.09375E+00 0.00000E+00
 -1      1503 4.03740E+01 2.18750E+00 0.00000E+00
 -1      1504 4.50120E+01 1.09375E+00 0.00000E+00
 -1      1505 4.35120E+01 1.09375E+00 0.00000E+00
 -1      1506 4.33740E+01 2.18750E+00 0.00000E+00
 -1      1507 4.80120E+01 1.09375E+00 0.00000E+00
 -1      1508 4.65120E+01 1.09375E+00 0.00000E+00
 -1      1509 4.63740E+01 2.18750E+00 0.00000E+00
 -1      1510 5.10120E+01 1.09375E+00 0.00000E+00
 -1      1511 4.95120E+01 1.09375E+00 0.00000E+00
 -1      1512 4.93740E+01 2.18750E+00 0.00000E+00
 -1      1513 5.40120E+01 1.09375E+00 0.00000E+00
 -1      1514 5.25120E+01 1.09375E+00 0.00000E+00
 -1      1515 5.23740E+01 2.18750E+00 0.00000E+00
 -1      1516 5.70120E+01 1.09375E+00 0.00000E+00
 -1      1517 5.55120E+01 1.09375E+00 0.00000E+00
 -1      1518 5.53740E+01 2.18750E+00 0.00000E+00
 -1      1519 6.00120E+01 1.09375E+00 0.00000E+00
 -1      1520 5.85120E+01 1.09375E+00 0.00000E+00
 -1      1521 5.83740E+01 2.18750E+00 0.00000E+00
 -1      1522 6.30120E+01 1.09375E+00 0.00000E+00
 -1      1523 6.15120E+01 1.09375E+00 0.00000E+00
 -1      1524 6.13740E+01 2.18750E+00 0.00000E+00
 -1      1525 6.60120E+01 1.09375E+00 0.00000E+00
 -1      1526 6.45120E+01 1.09375E+00 0.00000E+00
 -1      1527 6.43740E+01 2.18750E+00 0.00000E+00
 -1      1528 6.90120E+01 1.09375E+00 0.00000E+00
 -1      1529 6.75120E+01 1.09375E+00 0.00000E+00
 -1      1530 6.73740E+01 2.18750E+00 0.00000E+00
 -1      1531 7.20120E+01 1.09375E+00 0.00000E+00
 -1      1532 7.05120E+01 1.09375E+00 0.00000E+00
 -1      1533 7.03740E+01 2.18750E+00 0.00000E+00
 -1      1534 7.50120E+01 1.09375E+00 0.00000E+00
 -1      1535 7.35120E+01 1.09375E+00 0.00000E+00
 -1      1536 7.33740E+01 2.18750E+00 0.00000E+00
 -1      1537 7.80120E+01 1.09375E+00 0.00000E+00
 -1      1538 7.65120E+01 1.09375E+00 0.00000E+00
 -1      1539 7.63740E+01 2.18750E+00 0.00000E+00
 -1      1540 8.10120E+01 1.09375E+00 0.00000E+00
 -1      1541 7.95120E+01 1.09375E+00 0.00000E+00
 -1      1542 7.93740E+01 2.18750E+00 0.00000E+00
 -1      1543 8.40120E+01 1.09375E+00 0.00000E+00
 -1      1544 8.25120E+01 1.09375E+00 0.00000E+00
 -1      1545 8.23740E+01 2.18750E+00 0.00000E+00
 -1      1546 8.70120E+01 1.09375E+00 0.00000E+00
 -1      1547 8.55120E+01 1.09375E+00 0.00000E+00
 -1      1548 8.53740E+01 2.18750E+00 0.00000E+00
 -1      1549 9.00120E+01 1.09375E+00 0.00000E+00
 -1      1550 8.85120E+01 1.09375E+00 0.00000E+00
 -1      1551 8.83740E+01 2.18750E+00 0.00000E+00
 -1      1552 9.30120E+01 1.09375E+00 0.00000E+00
 -1      1553 9.15120E+01 1.09375E+00 0.00000E+00
 -1      1554 9.13740E+01 2.18750E+00 0.00000E+00
 -1      1555 9.60120E+01 1.09375E+00 0.00000E+00
 -1      1556 9.45120E+01 1.09375E+00 0.00000E+00
 -1      1557 9.43740E+01 2.18750E+00 0.00000E+00
 -1      1558 9.90120E+01 1.09375E+00 0.00000E+00
 -1      1559 9.75120E+01 1.09375E+00 0.00000E+00
 -1      1560 9.73740E+01 2.18750E+00 0.00000E+00
 -1      1561 1.02012E+02 1.09375E+00 0.00000E+00
 -1      1562 1.00512E+02 1.09375E+00 0.00000E+00
 -1      1563 1.00374E+02 2.18750E+00 0.00000E+00
 -1      1564 1.05012E+02 1.09375E+00 0.00000E+00
 -1      1565 1.03512E+02 1.09375E+00 0.00000E+00
 -1      1566 1.03374E+02 2.18750E+00 0.00000E+00
 -1      1567 1.08012E+02 1.09375E+00 0.00000E+00
 -1      1568 1.06512E+02 1.09375E+00 0.00000E+00
 -1      1569 1.06374E+02 2.18750E+00 0.00000E+00
 -1      1570 1.11012E+02 1.09375E+00 0.00000E+00
 -1      1571 1.09512E+02 1.09375E+00 0.00000E+00
 -1      1572 1.09374E+02 2.18750E+00 0.00000E+00
 -1      1573 1.14012E+02 1.09375E+00 0.00000E+00
 -1      1574 1.12512E+02 1.09375E+00 0.00000E+00
 -1      1575 1.12374E+02 2.18750E+00 0.00000E+00
 -1      1576 1.17012E+02 1.09375E+00 0.00000E+00
 -1      1577 1.15512E+02 1.09375E+00 0.00000E+00
 -1      1578 1.15374E+02 2.18750E+00 0.00000E+00
 -1      1579 1.20012E+02 1.09375E+00 0.00000E+00
 -1      1580 1.18512E+02 1.09375E+00 0.00000E+00
 -1      1581 1.18374E+02 2.18750E+00 0.00000E+00
 -1      1582 1.23012E+02 1.09375E+00 0.00000E+00
 -1      1583 1.21512E+02 1.09375E+00 0.00000E+00
 -1      1584 1.21374E+02 2.18750E+00 0.00000E+00
 -1      1585 1.26012E+02 1.09375E+00 0.00000E+00
 -1      1586 1.24512E+02 1.09375E+00 0.00000E+00
 -1      1587 1.24374E+02 2.18750E+00 0.00000E+00
 -1      1588 1.29012E+02 1.09375E+00 0.00000E+00
 -1      1589 1.27512E+02 1.09375E+00 0.00000E+00
 -1      1590 1.27374E+02 2.18750E+00 0.00000E+00
 -1      1591 1.32012E+02 1.09375E+00 0.00000E+00
 -1      1592 1.30512E+02 1.09375E+00 0.00000E+00
 -1      1593 1.30374E+02 2.18750E+00 0.00000E+00
 -1      1594 1.35012E+02 1.09375E+00 0.00000E+00
 -1      1595 1.33512E+02 1.09375E+00 0.00000E+00
 -1      1596 1.33374E+02 2.18750E+00 0.00000E+00
 -1      1597 1.38012E+02 1.09375E+00 0.00000E+00
 -1      1598 1.36512E+02 1.09375E+00 0.00000E+00
 -1      1599 1.36374E+02 2.18750E+00 0.00000E+00
 -1      1600 1.41012E+02 1.09375E+00 0.00000E+00
 -1      1601 1.39512E+02 1.09375E+00 0.00000E+00
 -1      1602 1.39374E+02 2.18750E+00 0.00000E+00
 -1      1603 1.44012E+02 1.09375E+00 0.00000E+00
 -1      1604 1.42512E+02 1.09375E+00 0.00000E+00
 -1      1605 1.42374E+02 2.18750E+00 0.00000E+00
 -1      1606 1.47012E+02 1.09375E+00 0.00000E+00
 -1      1607 1.45512E+02 1.09375E+00 0.00000E+00
 -1      1608 1.45374E+02 2.18750E+00 0.00000E+00
 -1      1609 1.48575E+02 1.47500E+00 0.00000E+00
 -1      1610 1.48701E+02 5.16250E+00 0.00000E+00
 -1      1611 1.48701E+02 3.68750E+00 0.00000E+00
 -1      1612 1.48701E+02 8.11250E+00 0.00000E+00
 -1      1613 1.48701E+02 6.63750E+00 0.00000E+00
 -1      1614 1.47402E+02 5.90000E+00 0.00000E+00
 -1      1615 1.48701E+02 1.10625E+01 0.00000E+00
 -1      1616 1.48701E+02 9.58750E+00 0.00000E+00
 -1      1617 1.47402E+02 8.85000E+00 0.00000E+00
 -1      1618 1.48701E+02 1.40125E+01 0.00000E+00
 -1      1619 1.48701E+02 1.25375E+01 0.00000E+00
 -1      1620 1.47402E+02 1.18000E+01 0.00000E+00
 -1      1621 1.48701E+02 1.69125E+01 0.00000E+00
 -1      1622 1.48701E+02 1.54625E+01 0.00000E+00
 -1      1623 1.47402E+02 1.47250E+01 0.00000E+00
 -1      1624 1.48701E+02 1.98625E+01 0.00000E+00
 -1      1625 1.48701E+02 1.83875E+01 0.00000E+00
 -1      1626 1.47402E+02 1.76500E+01 0.00000E+00
 -1      1627 1.48701E+02 2.28125E+01 0.00000E+00
 -1      1628 1.48701E+02 2.13375E+01 0.00000E+00
 -1      1629 1.47402E+02 2.06000E+01 0.00000E+00
 -1      1630 1.48701E+02 2.57625E+01 0.00000E+00
 -1      1631 1.48701E+02 2.42875E+01 0.00000E+00
 -1      1632 1.47402E+02 2.35500E+01 0.00000E+00
 -1      1633 1.48701E+02 2.87125E+01 0.00000E+00
 -1      1634 1.48701E+02 2.72375E+01 0.00000E+00
 -1      1635 1.47402E+02 2.65000E+01 0.00000E+00
 -1      1636 1.48701E+02 3.16625E+01 0.00000E+00
 -1      1637 1.48701E+02 3.01875E+01 0.00000E+00
 -1      1638 1.47402E+02 2.94500E+01 0.00000E+00
 -1      1639 1.48701E+02 3.45625E+01 0.00000E+00
 -1      1640 1.48701E+02 3.31125E+01 0.00000E+00
 -1      1641 1.47402E+02 3.23750E+01 0.00000E+00
 -1      1642 1.48701E+02 3.75125E+01 0.00000E+00
 -1      1643 1.48701E+02 3.60375E+01 0.00000E+00
 -1      1644 1.47402E+02 3.53000E+01 0.00000E+00
 -1      1645 1.48701E+02 4.04625E+01 0.00000E+00
 -1      1646 1.48701E+02 3.89875E+01 0.00000E+00
 -1      1647 1.47402E+02 3.82500E+01 0.00000E+00
 -1      1648 1.48701E+02 4.34125E+01 0.00000E+00
 -1      1649 1.48701E+02 4.19375E+01 0.00000E+00
 -1      1650 1.47402E+02 4.12000E+01 0.00000E+00
 -1      1651 1.48788E+02 4.60315E+01 0.00000E+00
 -1      1652 1.48788E+02 4.45565E+01 0.00000E+00
 -1      1653 1.47489E+02 4.38190E+01 0.00000E+00
 -1      1654 1.47663E+02 4.61070E+01 0.00000E+00
 -1      1655 4.06751E+01 2.97595E+01 0.00000E+00
 -1      1656 4.07502E+01 3.04810E+01 0.00000E+00
 -1      1657 4.02776E+01 2.82389E+01 0.00000E+00
 -1      1658 4.05003E+01 2.89302E+01 0.00000E+00
 -1      1659 3.95528E+01 2.67309E+01 0.00000E+00
 -1      1660 3.99503E+01 2.74119E+01 0.00000E+00
 -1      1661 3.85214E+01 2.55236E+01 0.00000E+00
 -1      1662 3.90010E+01 2.60460E+01 0.00000E+00
 -1      1663 3.72804E+01 2.45312E+01 0.00000E+00
 -1      1664 3.78850E+01 2.49631E+01 0.00000E+00
 -1      1665 3.58733E+01 2.38201E+01 0.00000E+00
 -1      1666 3.65361E+01 2.41085E+01 0.00000E+00
 -1      1667 3.43604E+01 2.34189E+01 0.00000E+00
 -1      1668 3.50685E+01 2.35650E+01 0.00000E+00
 -1      1669 3.27117E+01 2.33045E+01 0.00000E+00
 -1      1670 3.34883E+01 2.32958E+01 0.00000E+00
 -1      1671 3.09997E+01 2.35244E+01 0.00000E+00
 -1      1672 3.17729E+01 2.33383E+01 0.00000E+00
 -1      1673 2.95144E+01 2.42284E+01 0.00000E+00
 -1      1674 3.01713E+01 2.39073E+01 0.00000E+00
 -1      1675 2.82324E+01 2.51705E+01 0.00000E+00
 -1      1676 2.88088E+01 2.47194E+01 0.00000E+00
 -1      1677 2.71768E+01 2.62843E+01 0.00000E+00
 -1      1678 2.76289E+01 2.57495E+01 0.00000E+00
 -1      1679 2.63632E+01 2.76058E+01 0.00000E+00
 -1      1680 2.67085E+01 2.69708E+01 0.00000E+00
 -1      1681 2.57778E+01 2.91344E+01 0.00000E+00
 -1      1682 2.59934E+01 2.83986E+01 0.00000E+00
 -1      1683 2.56104E+01 3.07474E+01 0.00000E+00
 -1      1684 2.56616E+01 3.00108E+01 0.00000E+00
 -1      1685 2.56455E+01 3.24520E+01 0.00000E+00
 -1      1686 2.55257E+01 3.16624E+01 0.00000E+00
 -1      1687 2.62506E+01 3.39603E+01 0.00000E+00
 -1      1688 2.59924E+01 3.32900E+01 0.00000E+00
 -1      1689 2.69304E+01 3.54657E+01 0.00000E+00
 -1      1690 2.65090E+01 3.48232E+01 0.00000E+00
 -1      1691 2.81468E+01 3.66169E+01 0.00000E+00
 -1      1692 2.76062E+01 3.60902E+01 0.00000E+00
 -1      1693 2.94666E+01 3.75068E+01 0.00000E+00
 -1      1694 2.88535E+01 3.71219E+01 0.00000E+00
 -1      1695 3.10187E+01 3.83302E+01 0.00000E+00
 -1      1696 3.02323E+01 3.80540E+01 0.00000E+00
 -1      1697 3.27195E+01 3.85071E+01 0.00000E+00
 -1      1698 3.19710E+01 3.84240E+01 0.00000E+00
 -1      1699 3.42628E+01 3.84070E+01 0.00000E+00
 -1      1700 3.35702E+01 3.84743E+01 0.00000E+00
 -1      1701 3.57281E+01 3.80445E+01 0.00000E+00
 -1      1702 3.50610E+01 3.82481E+01 0.00000E+00
 -1      1703 3.70718E+01 3.74128E+01 0.00000E+00
 -1      1704 3.64719E+01 3.77355E+01 0.00000E+00
 -1      1705 3.82479E+01 3.65475E+01 0.00000E+00
 -1      1706 3.77287E+01 3.69734E+01 0.00000E+00
 -1      1707 3.92475E+01 3.54545E+01 0.00000E+00
 -1      1708 3.88097E+01 3.59858E+01 0.00000E+00
 -1      1709 4.00176E+01 3.41874E+01 0.00000E+00
 -1      1710 3.96943E+01 3.47893E+01 0.00000E+00
 -1      1711 4.06129E+01 3.27852E+01 0.00000E+00
 -1      1712 4.04081E+01 3.34615E+01 0.00000E+00
 -1      1713 4.07558E+01 3.12986E+01 0.00000E+00
 -1      1714 4.06908E+01 3.19699E+01 0.00000E+00
 -1      1715 3.97595E+01 2.60597E+01 0.00000E+00
 -1      1716 4.13211E+01 3.08750E+01 0.00000E+00
 -1      1717 1.48437E+02 2.56875E+00 0.00000E+00
 -1      1718 1.47138E+02 3.30625E+00 0.00000E+00
 -1      1719 4.11408E+01 2.92281E+01 0.00000E+00
 -1      1720 4.06386E+01 2.75717E+01 0.00000E+00
 -1      1721 3.85714E+01 2.48143E+01 0.00000E+00
 -1      1722 3.71908E+01 2.38312E+01 0.00000E+00
 -1      1723 3.56418E+01 2.31534E+01 0.00000E+00
 -1      1724 3.39649E+01 2.27752E+01 0.00000E+00
 -1      1725 3.21539E+01 2.26860E+01 0.00000E+00
 -1      1726 3.03867E+01 2.31027E+01 0.00000E+00
 -1      1727 2.88526E+01 2.39766E+01 0.00000E+00
 -1      1728 2.75434E+01 2.50466E+01 0.00000E+00
 -1      1729 2.64716E+01 2.63121E+01 0.00000E+00
 -1      1730 2.56335E+01 2.77915E+01 0.00000E+00
 -1      1731 2.51474E+01 2.94607E+01 0.00000E+00
 -1      1732 2.49466E+01 3.12520E+01 0.00000E+00
 -1      1733 2.52089E+01 3.30050E+01 0.00000E+00
 -1      1734 2.58142E+01 3.47059E+01 0.00000E+00
 -1      1735 2.67484E+01 3.61933E+01 0.00000E+00
 -1      1736 2.81310E+01 3.73227E+01 0.00000E+00
 -1      1737 2.96034E+01 3.83750E+01 0.00000E+00
 -1      1738 3.13214E+01 3.90159E+01 0.00000E+00
 -1      1739 3.31244E+01 3.90768E+01 0.00000E+00
 -1      1740 3.47733E+01 3.88850E+01 0.00000E+00
 -1      1741 3.63152E+01 3.84171E+01 0.00000E+00
 -1      1742 3.77158E+01 3.76686E+01 0.00000E+00
 -1      1743 3.89346E+01 3.66674E+01 0.00000E+00
 -1      1744 3.99432E+01 3.54404E+01 0.00000E+00
 -1      1745 4.07804E+01 3.40493E+01 0.00000E+00
 -1      1746 4.12487E+01 3.25080E+01 0.00000E+00
 -1      1747 2.87400E+00 4.77875E+01 0.00000E+00
 -1      1748 3.89700E+00 4.04125E+01 0.00000E+00
 -1      1749 3.89700E+00 4.18875E+01 0.00000E+00
 -1      1750 3.89700E+00 4.33625E+01 0.00000E+00
 -1      1751 3.89700E+00 4.48375E+01 0.00000E+00
 -1      1752 5.19600E+00 4.26250E+01 0.00000E+00
 -1      1753 3.89700E+00 3.45500E+01 0.00000E+00
 -1      1754 3.89700E+00 3.60000E+01 0.00000E+00
 -1      1755 3.89700E+00 3.16000E+01 0.00000E+00
 -1      1756 3.89700E+00 3.30750E+01 0.00000E+00
 -1      1757 5.19600E+00 3.38000E+01 0.00000E+00
 -1      1758 3.89700E+00 2.86500E+01 0.00000E+00
 -1      1759 3.89700E+00 3.01250E+01 0.00000E+00
 -1      1760 5.19600E+00 3.08500E+01 0.00000E+00
 -1      1761 3.89700E+00 2.57000E+01 0.00000E+00
 -1      1762 3.89700E+00 2.71750E+01 0.00000E+00
 -1      1763 5.19600E+00 2.79000E+01 0.00000E+00
 -1      1764 3.89700E+00 2.27500E+01 0.00000E+00
 -1      1765 3.89700E+00 2.42250E+01 0.00000E+00
 -1      1766 5.19600E+00 2.49500E+01 0.00000E+00
 -1      1767 3.89700E+00 1.98000E+01 0.00000E+00
 -1      1768 3.89700E+00 2.12750E+01 0.00000E+00
 -1      1769 5.19600E+00 2.20000E+01 0.00000E+00
 -1      1770 3.89700E+00 1.69000E+01 0.00000E+00
 -1      1771 3.89700E+00 1.83500E+01 0.00000E+00
 -1      1772 5.19600E+00 1.90750E+01 0.00000E+00
 -1      1773 3.89700E+00 1.39500E+01 0.00000E+00
 -1      1774 3.89700E+00 1.54250E+01 0.00000E+00
 -1      1775 5.19600E+00 1.61500E+01 0.00000E+00
 -1      1776 3.89700E+00 1.10000E+01 0.00000E+00
 -1      1777 3.89700E+00 1.24750E+01 0.00000E+00
 -1      1778 5.19600E+00 1.32000E+01 0.00000E+00
 -1      1779 3.89700E+00 8.05000E+00 0.00000E+00
 -1      1780 3.89700E+00 9.52500E+00 0.00000E+00
 -1      1781 5.19600E+00 1.02500E+01 0.00000E+00
 -1      1782 3.89700E+00 5.10000E+00 0.00000E+00
 -1      1783 3.89700E+00 6.57500E+00 0.00000E+00
 -1      1784 5.19600E+00 7.30000E+00 0.00000E+00
 -1      1785 4.20450E+00 3.09687E+00 0.00000E+00
 -1      1786 4.06650E+00 4.19063E+00 0.00000E+00
 -1      1787 5.36550E+00 4.91563E+00 0.00000E+00
 -1      1788 5.70450E+00 3.09687E+00 0.00000E+00
 -1      1789 3.62400E+00 4.64885E+01 0.00000E+00
 -1      1790 8.70450E+00 3.09687E+00 0.00000E+00
 -1      1791 7.20450E+00 3.09687E+00 0.00000E+00
 -1      1792 7.03500E+00 4.00625E+00 0.00000E+00
 -1      1793 4.92300E+00 4.57510E+01 0.00000E+00
 -1      1794 8.40000E+00 4.61030E+01 0.00000E+00
 -1      1795 9.90000E+00 4.61030E+01 0.00000E+00
 -1      1796 1.14000E+01 4.61030E+01 0.00000E+00
 -1      1797 1.29000E+01 4.61030E+01 0.00000E+00
 -1      1798 1.06500E+01 4.48040E+01 0.00000E+00
 -1      1799 1.44000E+01 4.61030E+01 0.00000E+00
 -1      1800 1.59000E+01 4.61030E+01 0.00000E+00
 -1      1801 1.36500E+01 4.48040E+01 0.00000E+00
 -1      1802 1.74000E+01 4.61030E+01 0.00000E+00
 -1      1803 1.89000E+01 4.61030E+01 0.00000E+00
 -1      1804 1.66500E+01 4.48040E+01 0.00000E+00
 -1      1805 2.04000E+01 4.61030E+01 0.00000E+00
 -1      1806 2.19000E+01 4.61030E+01 0.00000E+00
 -1      1807 1.96500E+01 4.48040E+01 0.00000E+00
 -1      1808 2.34000E+01 4.61030E+01 0.00000E+00
 -1      1809 2.49000E+01 4.61030E+01 0.00000E+00
 -1      1810 2.26500E+01 4.48040E+01 0.00000E+00
 -1      1811 2.64000E+01 4.61030E+01 0.00000E+00
 -1      1812 2.79000E+01 4.61030E+01 0.00000E+00
 -1      1813 2.56500E+01 4.48040E+01 0.00000E+00
 -1      1814 2.93250E+01 4.61030E+01 0.00000E+00
 -1      1815 3.07500E+01 4.61030E+01 0.00000E+00
 -1      1816 2.85750E+01 4.48040E+01 0.00000E+00
 -1      1817 3.22500E+01 4.61030E+01 0.00000E+00
 -1      1818 3.37500E+01 4.61030E+01 0.00000E+00
 -1      1819 3.15000E+01 4.48040E+01 0.00000E+00
 -1      1820 3.52500E+01 4.61030E+01 0.00000E+00
 -1      1821 3.67500E+01 4.61030E+01 0.00000E+00
 -1      1822 3.45000E+01 4.48040E+01 0.00000E+00
 -1      1823 3.82500E+01 4.61030E+01 0.00000E+00
 -1      1824 3.97500E+01 4.61030E+01 0.00000E+00
 -1      1825 3.75000E+01 4.48040E+01 0.00000E+00
 -1      1826 4.12500E+01 4.61030E+01 0.00000E+00
 -1      1827 4.27500E+01 4.61030E+01 0.00000E+00
 -1      1828 4.05000E+01 4.48040E+01 0.00000E+00
 -1      1829 4.42500E+01 4.61030E+01 0.00000E+00
 -1      1830 4.57500E+01 4.61030E+01 0.00000E+00
 -1      1831 4.35000E+01 4.48040E+01 0.00000E+00
 -1      1832 4.72500E+01 4.61030E+01 0.00000E+00
 -1      1833 4.87500E+01 4.61030E+01 0.00000E+00
 -1      1834 4.65000E+01 4.48040E+01 0.00000E+00
 -1      1835 5.02500E+01 4.61030E+01 0.00000E+00
 -1      1836 5.17500E+01 4.61030E+01 0.00000E+00
 -1      1837 4.95000E+01 4.48040E+01 0.00000E+00
 -1      1838 5.32500E+01 4.61030E+01 0.00000E+00
 -1      1839 5.47500E+01 4.61030E+01 0.00000E+00
 -1      1840 5.25000E+01 4.48040E+01 0.00000E+00
 -1      1841 5.62500E+01 4.61030E+01 0.00000E+00
 -1      1842 5.77500E+01 4.61030E+01 0.00000E+00
 -1      1843 5.55000E+01 4.48040E+01 0.00000E+00
 -1      1844 5.92500E+01 4.61030E+01 0.00000E+00
 -1      1845 6.07500E+01 4.61030E+01 0.00000E+00
 -1      1846 5.85000E+01 4.48040E+01 0.00000E+00
 -1      1847 6.22500E+01 4.61030E+01 0.00000E+00
 -1      1848 6.37500E+01 4.61030E+01 0.00000E+00
 -1      1849 6.15000E+01 4.48040E+01 0.00000E+00
 -1      1850 6.52500E+01 4.61030E+01 0.00000E+00
 -1      1851 6.67500E+01 4.61030E+01 0.00000E+00
 -1      1852 6.45000E+01 4.48040E+01 0.00000E+00
 -1      1853 6.82500E+01 4.61030E+01 0.00000E+00
 -1      1854 6.97500E+01 4.61030E+01 0.00000E+00
 -1      1855 6.75000E+01 4.48040E+01 0.00000E+00
 -1      1856 7.12500E+01 4.61030E+01 0.00000E+00
 -1      1857 7.27500E+01 4.61030E+01 0.00000E+00
 -1      1858 7.05000E+01 4.48040E+01 0.00000E+00
 -1      1859 7.42500E+01 4.61030E+01 0.00000E+00
 -1      1860 7.57500E+01 4.61030E+01 0.00000E+00
 -1      1861 7.35000E+01 4.48040E+01 0.00000E+00
 -1      1862 7.72500E+01 4.61030E+01 0.00000E+00
 -1      1863 7.87500E+01 4.61030E+01 0.00000E+00
 -1      1864 7.65000E+01 4.48040E+01 0.00000E+00
 -1      1865 8.02500E+01 4.61030E+01 0.00000E+00
 -1      1866 8.17500E+01 4.61030E+01 0.00000E+00
 -1      1867 7.95000E+01 4.48040E+01 0.00000E+00
 -1      1868 8.32500E+01 4.61030E+01 0.00000E+00
 -1      1869 8.47500E+01 4.61030E+01 0.00000E+00
 -1      1870 8.25000E+01 4.48040E+01 0.00000E+00
 -1      1871 8.62500E+01 4.61030E+01 0.00000E+00
 -1      1872 8.77500E+01 4.61030E+01 0.00000E+00
 -1      1873 8.55000E+01 4.48040E+01 0.00000E+00
 -1      1874 8.92500E+01 4.61030E+01 0.00000E+00
 -1      1875 9.07500E+01 4.61030E+01 0.00000E+00
 -1      1876 8.85000E+01 4.48040E+01 0.00000E+00
 -1      1877 9.22500E+01 4.61030E+01 0.00000E+00
 -1      1878 9.37500E+01 4.61030E+01 0.00000E+00
 -1      1879 9.15000E+01 4.48040E+01 0.00000E+00
 -1      1880 9.52500E+01 4.61030E+01 0.00000E+00
 -1      1881 9.67500E+01 4.61030E+01 0.00000E+00
 -1      1882 9.45000E+01 4.48040E+01 0.00000E+00
 -1      1883 9.82500E+01 4.61030E+01 0.00000E+00
 -1      1884 9.97500E+01 4.61030E+01 0.00000E+00
 -1      1885 9.75000E+01 4.48040E+01 0.00000E+00
 -1      1886 1.01250E+02 4.61030E+01 0.00000E+00
 -1      1887 1.02750E+02 4.61030E+01 0.00000E+00
 -1      1888 1.00500E+02 4.48040E+01 0.00000E+00
 -1      1889 1.04250E+02 4.61030E+01 0.00000E+00
 -1      1890 1.05750E+02 4.61030E+01 0.00000E+00
 -1      1891 1.03500E+02 4.48040E+01 0.00000E+00
 -1      1892 1.07250E+02 4.61030E+01 0.00000E+00
 -1      1893 1.08750E+02 4.61030E+01 0.00000E+00
 -1      1894 1.06500E+02 4.48040E+01 0.00000E+00
 -1      1895 1.10250E+02 4.61030E+01 0.00000E+00
 -1      1896 1.11750E+02 4.61030E+01 0.00000E+00
 -1      1897 1.09500E+02 4.48040E+01 0.00000E+00
 -1      1898 1.13250E+02 4.61030E+01 0.00000E+00
 -1      1899 1.14750E+02 4.61030E+01 0.00000E+00
 -1      1900 1.12500E+02 4.48040E+01 0.00000E+00
 -1      1901 1.16250E+02 4.61030E+01 0.00000E+00
 -1      1902 1.17750E+02 4.61030E+01 0.00000E+00
 -1      1903 1.15500E+02 4.48040E+01 0.00000E+00
 -1      1904 1.19250E+02 4.61030E+01 0.00000E+00
 -1      1905 1.20750E+02 4.61030E+01 0.00000E+00
 -1      1906 1.18500E+02 4.48040E+01 0.00000E+00
 -1      1907 1.22250E+02 4.61030E+01 0.00000E+00
 -1      1908 1.23750E+02 4.61030E+01 0.00000E+00
 -1      1909 1.21500E+02 4.48040E+01 0.00000E+00
 -1      1910 1.25250E+02 4.61030E+01 0.00000E+00
 -1      1911 1.26750E+02 4.61030E+01 0.00000E+00
 -1      1912 1.24500E+02 4.48040E+01 0.00000E+00
 -1      1913 1.28250E+02 4.61030E+01 0.00000E+00
 -1      1914 1.29750E+02 4.61030E+01 0.00000E+00
 -1      1915 1.27500E+02 4.48040E+01 0.00000E+00
 -1      1916 1.31250E+02 4.61030E+01 0.00000E+00
 -1      1917 1.32750E+02 4.61030E+01 0.00000E+00
 -1      1918 1.30500E+02 4.48040E+01 0.00000E+00
 -1      1919 1.34250E+02 4.61030E+01 0.00000E+00
 -1      1920 1.35750E+02 4.61030E+01 0.00000E+00
 -1      1921 1.33500E+02 4.48040E+01 0.00000E+00
 -1      1922 1.37250E+02 4.61030E+01 0.00000E+00
 -1      1923 1.38750E+02 4.61030E+01 0.00000E+00
 -1      1924 1.36500E+02 4.48040E+01 0.00000E+00
 -1      1925 1.40250E+02 4.61030E+01 0.00000E+00
 -1      1926 1.41750E+02 4.61030E+01 0.00000E+00
 -1      1927 1.39500E+02 4.48040E+01 0.00000E+00
 -1      1928 1.43250E+02 4.61030E+01 0.00000E+00
 -1      1929 1.44750E+02 4.61030E+01 0.00000E+00
 -1      1930 1.42500E+02 4.48040E+01 0.00000E+00
 -1      1931 1.46538E+02 4.61825E+01 0.00000E+00
 -1      1932 1.41240E+01 3.48650E+00 0.00000E+00
 -1      1933 1.26240E+01 3.48650E+00 0.00000E+00
 -1      1934 1.71240E+01 3.48650E+00 0.00000E+00
 -1      1935 1.56240E+01 3.48650E+00 0.00000E+00
 -1      1936 1.48740E+01 4.78550E+00 0.00000E+00
 -1      1937 2.01240E+01 3.48650E+00 0.00000E+00
 -1      1938 1.86240E+01 3.48650E+00 0.00000E+00
 -1      1939 1.78740E+01 4.78550E+00 0.00000E+00
 -1      1940 2.31240E+01 3.48650E+00 0.00000E+00
 -1      1941 2.16240E+01 3.48650E+00 0.00000E+00
 -1      1942 2.08740E+01 4.78550E+00 0.00000E+00
 -1      1943 2.61240E+01 3.48650E+00 0.00000E+00
 -1      1944 2.46240E+01 3.48650E+00 0.00000E+00
 -1      1945 2.38740E+01 4.78550E+00 0.00000E+00
 -1      1946 2.91240E+01 3.48650E+00 0.00000E+00
 -1      1947 2.76240E+01 3.48650E+00 0.00000E+00
 -1      1948 2.68740E+01 4.78550E+00 0.00000E+00
 -1      1949 3.21240E+01 3.48650E+00 0.00000E+00
 -1      1950 3.06240E+01 3.48650E+00 0.00000E+00
 -1      1951 2.98740E+01 4.78550E+00 0.00000E+00
 -1      1952 3.51240E+01 3.48650E+00 0.00000E+00
 -1      1953 3.36240E+01 3.48650E+00 0.00000E+00
 -1      1954 3.28740E+01 4.78550E+00 0.00000E+00
 -1      1955 3.81240E+01 3.48650E+00 0.00000E+00
 -1      1956 3.66240E+01 3.48650E+00 0.00000E+00
 -1      1957 3.58740E+01 4.78550E+00 0.00000E+00
 -1      1958 4.11240E+01 3.48650E+00 0.00000E+00
 -1      1959 3.96240E+01 3.48650E+00 0.00000E+00
 -1      1960 3.88740E+01 4.78550E+00 0.00000E+00
 -1      1961 4.41240E+01 3.48650E+00 0.00000E+00
 -1      1962 4.26240E+01 3.48650E+00 0.00000E+00
 -1      1963 4.18740E+01 4.78550E+00 0.00000E+00
 -1      1964 4.71240E+01 3.48650E+00 0.00000E+00
 -1      1965 4.56240E+01 3.48650E+00 0.00000E+00
 -1      1966 4.48740E+01 4.78550E+00 0.00000E+00
 -1      1967 5.01240E+01 3.48650E+00 0.00000E+00
 -1      1968 4.86240E+01 3.48650E+00 0.00000E+00
 -1      1969 4.78740E+01 4.78550E+00 0.00000E+00
 -1      1970 5.31240E+01 3.48650E+00 0.00000E+00
 -1      1971 5.16240E+01 3.48650E+00 0.00000E+00
 -1      1972 5.08740E+01 4.78550E+00 0.00000E+00
 -1      1973 5.61240E+01 3.48650E+00 0.00000E+00
 -1      1974 5.46240E+01 3.48650E+00 0.00000E+00
 -1      1975 5.38740E+01 4.78550E+00 0.00000E+00
 -1      1976 5.91240E+01 3.48650E+00 0.00000E+00
 -1      1977 5.76240E+01 3.48650E+00 0.00000E+00
 -1      1978 5.68740E+01 4.78550E+00 0.00000E+00
 -1      1979 6.21240E+01 3.48650E+00 0.00000E+00
 -1      1980 6.06240E+01 3.48650E+00 0.00000E+00
 -1      1981 5.98740E+01 4.78550E+00 0.00000E+00
 -1      1982 6.51240E+01 3.48650E+00 0.00000E+00
 -1      1983 6.36240E+01 3.48650E+00 0.00000E+00
 -1      1984 6.28740E+01 4.78550E+00 0.00000E+00
 -1      1985 6.81240E+01 3.48650E+00 0.00000E+00
 -1      1986 6.66240E+01 3.48650E+00 0.00000E+00
 -1      1987 6.58740E+01 4.78550E+00 0.00000E+00
 -1      1988 7.11240E+01 3.48650E+00 0.00000E+00
 -1      1989 6.96240E+01 3.48650E+00 0.00000E+00
 -1      1990 6.88740E+01 4.78550E+00 0.00000E+00
 -1      1991 7.41240E+01 3.48650E+00 0.00000E+00
 -1      1992 7.26240E+01 3.48650E+00 0.00000E+00
 -1      1993 7.18740E+01 4.78550E+00 0.00000E+00
 -1      1994 7.71240E+01 3.48650E+00 0.00000E+00
 -1      1995 7.56240E+01 3.48650E+00 0.00000E+00
 -1      1996 7.48740E+01 4.78550E+00 0.00000E+00
 -1      1997 8.01240E+01 3.48650E+00 0.00000E+00
 -1      1998 7.86240E+01 3.48650E+00 0.00000E+00
 -1      1999 7.78740E+01 4.78550E+00 0.00000E+00
 -1      2000 8.31240E+01 3.48650E+00 0.00000E+00
 -1      2001 8.16240E+01 3.48650E+00 0.00000E+00
 -1      2002 8.08740E+01 4.78550E+00 0.00000E+00
 -1      2003 8.61240E+01 3.48650E+00 0.00000E+00
 -1      2004 8.46240E+01 3.48650E+00 0.00000E+00
 -1      2005 8.38740E+01 4.78550E+00 0.00000E+00
 -1      2006 8.91240E+01 3.48650E+00 0.00000E+00
 -1      2007 8.76240E+01 3.48650E+00 0.00000E+00
 -1      2008 8.68740E+01 4.78550E+00 0.00000E+00
 -1      2009 9.21240E+01 3.48650E+00 0.00000E+00
 -1      2010 9.06240E+01 3.48650E+00 0.00000E+00
 -1      2011 8.98740E+01 4.78550E+00 0.00000E+00
 -1      2012 9.51240E+01 3.48650E+00 0.00000E+00
 -1      2013 9.36240E+01 3.48650E+00 0.00000E+00
 -1      2014 9.28740E+01 4.78550E+00 0.00000E+00
 -1      2015 9.81240E+01 3.48650E+00 0.00000E+00
 -1      2016 9.66240E+01 3.48650E+00 0.00000E+00
 -1      2017 9.58740E+01 4.78550E+00 0.00000E+00
 -1      2018 1.01124E+02 3.48650E+00 0.00000E+00
 -1      2019 9.96240E+01 3.48650E+00 0.00000E+00
 -1      2020 9.88740E+01 4.78550E+00 0.00000E+00
 -1      2021 1.04124E+02 3.48650E+00 0.00000E+00
 -1      2022 1.02624E+02 3.48650E+00 0.00000E+00
 -1      2023 1.01874E+02 4.78550E+00 0.00000E+00
 -1      2024 1.07124E+02 3.48650E+00 0.00000E+00
 -1      2025 1.05624E+02 3.48650E+00 0.00000E+00
 -1      2026 1.04874E+02 4.78550E+00 0.00000E+00
 -1      2027 1.10124E+02 3.48650E+00 0.00000E+00
 -1      2028 1.08624E+02 3.48650E+00 0.00000E+00
 -1      2029 1.07874E+02 4.78550E+00 0.00000E+00
 -1      2030 1.13124E+02 3.48650E+00 0.00000E+00
 -1      2031 1.11624E+02 3.48650E+00 0.00000E+00
 -1      2032 1.10874E+02 4.78550E+00 0.00000E+00
 -1      2033 1.16124E+02 3.48650E+00 0.00000E+00
 -1      2034 1.14624E+02 3.48650E+00 0.00000E+00
 -1      2035 1.13874E+02 4.78550E+00 0.00000E+00
 -1      2036 1.19124E+02 3.48650E+00 0.00000E+00
 -1      2037 1.17624E+02 3.48650E+00 0.00000E+00
 -1      2038 1.16874E+02 4.78550E+00 0.00000E+00
 -1      2039 1.22124E+02 3.48650E+00 0.00000E+00
 -1      2040 1.20624E+02 3.48650E+00 0.00000E+00
 -1      2041 1.19874E+02 4.78550E+00 0.00000E+00
 -1      2042 1.25124E+02 3.48650E+00 0.00000E+00
 -1      2043 1.23624E+02 3.48650E+00 0.00000E+00
 -1      2044 1.22874E+02 4.78550E+00 0.00000E+00
 -1      2045 1.28124E+02 3.48650E+00 0.00000E+00
 -1      2046 1.26624E+02 3.48650E+00 0.00000E+00
 -1      2047 1.25874E+02 4.78550E+00 0.00000E+00
 -1      2048 1.31124E+02 3.48650E+00 0.00000E+00
 -1      2049 1.29624E+02 3.48650E+00 0.00000E+00
 -1      2050 1.28874E+02 4.78550E+00 0.00000E+00
 -1      2051 1.34124E+02 3.48650E+00 0.00000E+00
 -1      2052 1.32624E+02 3.48650E+00 0.00000E+00
 -1      2053 1.31874E+02 4.78550E+00 0.00000E+00
 -1      2054 1.37124E+02 3.48650E+00 0.00000E+00
 -1      2055 1.35624E+02 3.48650E+00 0.00000E+00
 -1      2056 1.34874E+02 4.78550E+00 0.00000E+00
 -1      2057 1.40124E+02 3.48650E+00 0.00000E+00
 -1      2058 1.38624E+02 3.48650E+00 0.00000E+00
 -1      2059 1.37874E+02 4.78550E+00 0.00000E+00
 -1      2060 1.43124E+02 3.48650E+00 0.00000E+00
 -1      2061 1.41624E+02 3.48650E+00 0.00000E+00
 -1      2062 1.40874E+02 4.78550E+00 0.00000E+00
 -1      2063 1.45881E+02 3.39637E+00 0.00000E+00
 -1      2064 1.44381E+02 3.39637E+00 0.00000E+00
 -1      2065 1.43631E+02 4.69537E+00 0.00000E+00
 -1      2066 1.46145E+02 4.51512E+00 0.00000E+00
 -1      2067 1.46103E+02 1.25375E+01 0.00000E+00
 -1      2068 1.46103E+02 1.10625E+01 0.00000E+00
 -1      2069 1.46103E+02 9.58750E+00 0.00000E+00
 -1      2070 1.46103E+02 8.11250E+00 0.00000E+00
 -1      2071 1.44804E+02 1.03250E+01 0.00000E+00
 -1      2072 1.46145E+02 5.99013E+00 0.00000E+00
 -1      2073 1.46103E+02 1.54375E+01 0.00000E+00
 -1      2074 1.46103E+02 1.39875E+01 0.00000E+00
 -1      2075 1.44804E+02 1.32500E+01 0.00000E+00
 -1      2076 1.46103E+02 1.83875E+01 0.00000E+00
 -1      2077 1.46103E+02 1.69125E+01 0.00000E+00
 -1      2078 1.44804E+02 1.61750E+01 0.00000E+00
 -1      2079 1.46103E+02 2.13375E+01 0.00000E+00
 -1      2080 1.46103E+02 1.98625E+01 0.00000E+00
 -1      2081 1.44804E+02 1.91250E+01 0.00000E+00
 -1      2082 1.46103E+02 2.42875E+01 0.00000E+00
 -1      2083 1.46103E+02 2.28125E+01 0.00000E+00
 -1      2084 1.44804E+02 2.20750E+01 0.00000E+00
 -1      2085 1.46103E+02 2.72375E+01 0.00000E+00
 -1      2086 1.46103E+02 2.57625E+01 0.00000E+00
 -1      2087 1.44804E+02 2.50250E+01 0.00000E+00
 -1      2088 1.46103E+02 3.01875E+01 0.00000E+00
 -1      2089 1.46103E+02 2.87125E+01 0.00000E+00
 -1      2090 1.44804E+02 2.79750E+01 0.00000E+00
 -1      2091 1.46103E+02 3.30875E+01 0.00000E+00
 -1      2092 1.46103E+02 3.16375E+01 0.00000E+00
 -1      2093 1.44804E+02 3.09000E+01 0.00000E+00
 -1      2094 1.46103E+02 3.60375E+01 0.00000E+00
 -1      2095 1.46103E+02 3.45625E+01 0.00000E+00
 -1      2096 1.44804E+02 3.38250E+01 0.00000E+00
 -1      2097 1.46103E+02 3.89875E+01 0.00000E+00
 -1      2098 1.46103E+02 3.75125E+01 0.00000E+00
 -1      2099 1.44804E+02 3.67750E+01 0.00000E+00
 -1      2100 1.46103E+02 4.19375E+01 0.00000E+00
 -1      2101 1.46103E+02 4.04625E+01 0.00000E+00
 -1      2102 1.44804E+02 3.97250E+01 0.00000E+00
 -1      2103 1.14143E+01 3.29169E+00 0.00000E+00
 -1      2104 9.91425E+00 3.29169E+00 0.00000E+00
 -1      2105 9.74475E+00 4.20106E+00 0.00000E+00
 -1      2106 1.21643E+01 4.59069E+00 0.00000E+00
 -1      2107 4.11165E+01 2.69042E+01 0.00000E+00
 -1      2108 4.14438E+01 2.77312E+01 0.00000E+00
 -1      2109 3.87092E+01 2.40163E+01 0.00000E+00
 -1      2110 3.93456E+01 2.45768E+01 0.00000E+00
 -1      2111 4.20502E+01 3.04613E+01 0.00000E+00
 -1      2112 4.20557E+01 3.12789E+01 0.00000E+00
 -1      2113 4.00210E+01 2.52844E+01 0.00000E+00
 -1      2114 4.05727E+01 2.59694E+01 0.00000E+00
 -1      2115 3.89700E+00 3.74688E+01 0.00000E+00
 -1      2116 3.89700E+00 3.89437E+01 0.00000E+00
 -1      2117 5.19600E+00 3.96813E+01 0.00000E+00
 -1      2118 5.19600E+00 3.67438E+01 0.00000E+00
 -1      2119 3.72009E+01 2.29470E+01 0.00000E+00
 -1      2120 3.79451E+01 2.33697E+01 0.00000E+00
 -1      2121 3.54478E+01 2.23681E+01 0.00000E+00
 -1      2122 3.62527E+01 2.26232E+01 0.00000E+00
 -1      2123 3.36253E+01 2.20304E+01 0.00000E+00
 -1      2124 3.44974E+01 2.21535E+01 0.00000E+00
 -1      2125 3.16551E+01 2.18878E+01 0.00000E+00
 -1      2126 3.25940E+01 2.18539E+01 0.00000E+00
 -1      2127 2.96302E+01 2.25538E+01 0.00000E+00
 -1      2128 3.04586E+01 2.21709E+01 0.00000E+00
 -1      2129 2.80100E+01 2.35182E+01 0.00000E+00
 -1      2130 2.87156E+01 2.30272E+01 0.00000E+00
 -1      2131 2.68029E+01 2.46761E+01 0.00000E+00
 -1      2132 2.74065E+01 2.40972E+01 0.00000E+00
 -1      2133 2.72695E+01 2.31477E+01 0.00000E+00
 -1      2134 2.57021E+01 2.62902E+01 0.00000E+00
 -1      2135 2.61703E+01 2.56036E+01 0.00000E+00
 -1      2136 2.47853E+01 2.78785E+01 0.00000E+00
 -1      2137 2.51552E+01 2.70857E+01 0.00000E+00
 -1      2138 2.43223E+01 2.97971E+01 0.00000E+00
 -1      2139 2.44385E+01 2.89208E+01 0.00000E+00
 -1      2140 2.41531E+01 3.16271E+01 0.00000E+00
 -1      2141 2.42377E+01 3.07121E+01 0.00000E+00
 -1      2142 2.35287E+01 3.01722E+01 0.00000E+00
 -1      2143 2.47448E+01 3.36879E+01 0.00000E+00
 -1      2144 2.43979E+01 3.28498E+01 0.00000E+00
 -1      2145 2.52617E+01 3.54136E+01 0.00000E+00
 -1      2146 2.50032E+01 3.45508E+01 0.00000E+00
 -1      2147 2.41923E+01 3.43956E+01 0.00000E+00
 -1      2148 2.65896E+01 3.70430E+01 0.00000E+00
 -1      2149 2.59138E+01 3.64185E+01 0.00000E+00
 -1      2150 2.81075E+01 3.81025E+01 0.00000E+00
 -1      2151 2.74008E+01 3.75976E+01 0.00000E+00
 -1      2152 2.96389E+01 3.91970E+01 0.00000E+00
 -1      2153 2.88732E+01 3.86498E+01 0.00000E+00
 -1      2154 2.81431E+01 3.89246E+01 0.00000E+00
 -1      2155 3.17176E+01 3.98745E+01 0.00000E+00
 -1      2156 3.07653E+01 3.97808E+01 0.00000E+00
 -1      2157 3.35780E+01 3.97917E+01 0.00000E+00
 -1      2158 3.27273E+01 3.98246E+01 0.00000E+00
 -1      2159 3.53071E+01 3.94823E+01 0.00000E+00
 -1      2160 3.45089E+01 3.96412E+01 0.00000E+00
 -1      2161 3.69679E+01 3.89384E+01 0.00000E+00
 -1      2162 3.62242E+01 3.92474E+01 0.00000E+00
 -1      2163 3.84047E+01 3.79875E+01 0.00000E+00
 -1      2164 3.77478E+01 3.84270E+01 0.00000E+00
 -1      2165 3.97626E+01 3.69337E+01 0.00000E+00
 -1      2166 3.92008E+01 3.74955E+01 0.00000E+00
 -1      2167 4.07394E+01 3.54925E+01 0.00000E+00
 -1      2168 4.02926E+01 3.61577E+01 0.00000E+00
 -1      2169 4.15202E+01 3.40407E+01 0.00000E+00
 -1      2170 4.11298E+01 3.47666E+01 0.00000E+00
 -1      2171 4.14792E+01 3.54839E+01 0.00000E+00
 -1      2172 4.19329E+01 3.21620E+01 0.00000E+00
 -1      2173 4.18549E+01 3.29773E+01 0.00000E+00
 -1      2174 4.18105E+01 2.86538E+01 0.00000E+00
 -1      2175 4.19853E+01 2.94832E+01 0.00000E+00
 -1      2176 1.45788E+02 4.48835E+01 0.00000E+00
 -1      2177 4.01588E+01 2.44864E+01 0.00000E+00
 -1      2178 6.42300E+00 4.57510E+01 0.00000E+00
 -1      2179 4.13779E+01 2.61289E+01 0.00000E+00
 -1      2180 3.87193E+01 2.31321E+01 0.00000E+00
 -1      2181 7.17300E+00 4.44520E+01 0.00000E+00
 -1      2182 1.44846E+02 6.72762E+00 0.00000E+00
 -1      2183 4.27199E+01 2.98870E+01 0.00000E+00
 -1      2184 1.45701E+02 4.37395E+01 0.00000E+00
 -1      2185 4.22884E+01 2.79863E+01 0.00000E+00
 -1      2186 4.26619E+01 3.17482E+01 0.00000E+00
 -1      2187 4.22043E+01 3.36946E+01 0.00000E+00
 -1      2188 4.25537E+01 3.44119E+01 0.00000E+00
 -1      2189 4.28885E+01 3.33486E+01 0.00000E+00
 -1      2190 4.05588E+01 3.69858E+01 0.00000E+00
 -1      2191 3.92327E+01 3.82538E+01 0.00000E+00
 -1      2192 3.76567E+01 3.92574E+01 0.00000E+00
 -1      2193 3.59598E+01 4.00036E+01 0.00000E+00
 -1      2194 3.41118E+01 4.03890E+01 0.00000E+00
 -1      2195 3.00352E+01 4.00556E+01 0.00000E+00
 -1      2196 2.93050E+01 4.03305E+01 0.00000E+00
 -1      2197 3.04315E+01 4.09142E+01 0.00000E+00
 -1      2198 2.51029E+01 3.62634E+01 0.00000E+00
 -1      2199 2.42919E+01 3.61082E+01 0.00000E+00
 -1      2200 2.49441E+01 3.71132E+01 0.00000E+00
 -1      2201 2.36890E+01 3.23100E+01 0.00000E+00
 -1      2202 2.29800E+01 3.17701E+01 0.00000E+00
 -1      2203 2.32249E+01 3.29929E+01 0.00000E+00
 -1      2204 2.39602E+01 2.82150E+01 0.00000E+00
 -1      2205 2.60334E+01 2.46542E+01 0.00000E+00
 -1      2206 2.87876E+01 2.20954E+01 0.00000E+00
 -1      2207 3.08987E+01 2.13388E+01 0.00000E+00
 -1      2208 3.31264E+01 2.12322E+01 0.00000E+00
 -1      2209 3.70069E+01 2.21617E+01 0.00000E+00
 -1      2210 3.51082E+01 2.16233E+01 0.00000E+00
 -1      2211 2.48539E+01 2.63772E+01 0.00000E+00
 -1      2212 2.65662E+01 3.78228E+01 0.00000E+00
 -1      2213 3.21712E+01 4.05895E+01 0.00000E+00
 -1      2214 1.44402E+02 4.30020E+01 0.00000E+00
 -1      2215 6.49500E+00 3.01125E+01 0.00000E+00
 -1      2216 6.49500E+00 3.15875E+01 0.00000E+00
 -1      2217 6.49500E+00 3.30625E+01 0.00000E+00
 -1      2218 6.49500E+00 3.45375E+01 0.00000E+00
 -1      2219 7.79400E+00 3.23250E+01 0.00000E+00
 -1      2220 6.49500E+00 2.42125E+01 0.00000E+00
 -1      2221 6.49500E+00 2.56875E+01 0.00000E+00
 -1      2222 6.49500E+00 2.12625E+01 0.00000E+00
 -1      2223 6.49500E+00 2.27375E+01 0.00000E+00
 -1      2224 7.79400E+00 2.34750E+01 0.00000E+00
 -1      2225 6.49500E+00 1.83625E+01 0.00000E+00
 -1      2226 6.49500E+00 1.98125E+01 0.00000E+00
 -1      2227 7.79400E+00 2.05500E+01 0.00000E+00
 -1      2228 6.49500E+00 1.54125E+01 0.00000E+00
 -1      2229 6.49500E+00 1.68875E+01 0.00000E+00
 -1      2230 7.79400E+00 1.76250E+01 0.00000E+00
 -1      2231 6.49500E+00 1.24625E+01 0.00000E+00
 -1      2232 6.49500E+00 1.39375E+01 0.00000E+00
 -1      2233 7.79400E+00 1.46750E+01 0.00000E+00
 -1      2234 6.49500E+00 9.51250E+00 0.00000E+00
 -1      2235 6.49500E+00 1.09875E+01 0.00000E+00
 -1      2236 7.79400E+00 1.17250E+01 0.00000E+00
 -1      2237 6.49500E+00 6.56250E+00 0.00000E+00
 -1      2238 6.49500E+00 8.03750E+00 0.00000E+00
 -1      2239 7.79400E+00 8.77500E+00 0.00000E+00
 -1      2240 6.84975E+00 4.82969E+00 0.00000E+00
 -1      2241 6.68025E+00 5.73906E+00 0.00000E+00
 -1      2242 7.97925E+00 6.47656E+00 0.00000E+00
 -1      2243 8.34975E+00 4.82969E+00 0.00000E+00
 -1      2244 9.90000E+00 4.35050E+01 0.00000E+00
 -1      2245 1.14000E+01 4.35050E+01 0.00000E+00
 -1      2246 4.18473E+01 2.52303E+01 0.00000E+00
 -1      2247 4.23911E+01 2.61652E+01 0.00000E+00
 -1      2248 4.03809E+01 2.35984E+01 0.00000E+00
 -1      2249 4.10563E+01 2.43060E+01 0.00000E+00
 -1      2250 1.29000E+01 4.35050E+01 0.00000E+00
 -1      2251 1.44000E+01 4.35050E+01 0.00000E+00
 -1      2252 1.21500E+01 4.22060E+01 0.00000E+00
 -1      2253 1.59000E+01 4.35050E+01 0.00000E+00
 -1      2254 1.74000E+01 4.35050E+01 0.00000E+00
 -1      2255 1.51500E+01 4.22060E+01 0.00000E+00
 -1      2256 1.89000E+01 4.35050E+01 0.00000E+00
 -1      2257 2.04000E+01 4.35050E+01 0.00000E+00
 -1      2258 1.81500E+01 4.22060E+01 0.00000E+00
 -1      2259 2.19000E+01 4.35050E+01 0.00000E+00
 -1      2260 2.34000E+01 4.35050E+01 0.00000E+00
 -1      2261 2.11500E+01 4.22060E+01 0.00000E+00
 -1      2262 2.49000E+01 4.35050E+01 0.00000E+00
 -1      2263 2.64000E+01 4.35050E+01 0.00000E+00
 -1      2264 2.41500E+01 4.22060E+01 0.00000E+00
 -1      2265 2.84257E+01 4.29965E+01 0.00000E+00
 -1      2266 2.98507E+01 4.29965E+01 0.00000E+00
 -1      2267 3.13507E+01 4.29965E+01 0.00000E+00
 -1      2268 3.37500E+01 4.37789E+01 0.00000E+00
 -1      2269 3.52500E+01 4.37789E+01 0.00000E+00
 -1      2270 3.67500E+01 4.36951E+01 0.00000E+00
 -1      2271 3.82500E+01 4.36951E+01 0.00000E+00
 -1      2272 3.97500E+01 4.36113E+01 0.00000E+00
 -1      2273 4.12500E+01 4.36113E+01 0.00000E+00
 -1      2274 4.27500E+01 4.36113E+01 0.00000E+00
 -1      2275 4.42500E+01 4.36113E+01 0.00000E+00
 -1      2276 4.20000E+01 4.24186E+01 0.00000E+00
 -1      2277 4.57500E+01 4.36113E+01 0.00000E+00
 -1      2278 4.72500E+01 4.36113E+01 0.00000E+00
 -1      2279 4.50000E+01 4.24186E+01 0.00000E+00
 -1      2280 4.87500E+01 4.36113E+01 0.00000E+00
 -1      2281 5.02500E+01 4.36113E+01 0.00000E+00
 -1      2282 4.80000E+01 4.24186E+01 0.00000E+00
 -1      2283 5.17500E+01 4.36113E+01 0.00000E+00
 -1      2284 5.32500E+01 4.36113E+01 0.00000E+00
 -1      2285 5.10000E+01 4.24186E+01 0.00000E+00
 -1      2286 5.47500E+01 4.36113E+01 0.00000E+00
 -1      2287 5.62500E+01 4.36113E+01 0.00000E+00
 -1      2288 5.40000E+01 4.24186E+01 0.00000E+00
 -1      2289 5.77500E+01 4.36113E+01 0.00000E+00
 -1      2290 5.92500E+01 4.36113E+01 0.00000E+00
 -1      2291 5.70000E+01 4.24186E+01 0.00000E+00
 -1      2292 6.07500E+01 4.36113E+01 0.00000E+00
 -1      2293 6.22500E+01 4.36113E+01 0.00000E+00
 -1      2294 6.00000E+01 4.24186E+01 0.00000E+00
 -1      2295 6.37500E+01 4.36113E+01 0.00000E+00
 -1      2296 6.52500E+01 4.36113E+01 0.00000E+00
 -1      2297 6.30000E+01 4.24186E+01 0.00000E+00
 -1      2298 6.67500E+01 4.36113E+01 0.00000E+00
 -1      2299 6.82500E+01 4.36113E+01 0.00000E+00
 -1      2300 6.60000E+01 4.24186E+01 0.00000E+00
 -1      2301 6.97500E+01 4.36113E+01 0.00000E+00
 -1      2302 7.12500E+01 4.36113E+01 0.00000E+00
 -1      2303 6.90000E+01 4.24186E+01 0.00000E+00
 -1      2304 7.27500E+01 4.36113E+01 0.00000E+00
 -1      2305 7.42500E+01 4.36113E+01 0.00000E+00
 -1      2306 7.20000E+01 4.24186E+01 0.00000E+00
 -1      2307 7.57500E+01 4.36113E+01 0.00000E+00
 -1      2308 7.72500E+01 4.36113E+01 0.00000E+00
 -1      2309 7.50000E+01 4.24186E+01 0.00000E+00
 -1      2310 7.87500E+01 4.36113E+01 0.00000E+00
 -1      2311 8.02500E+01 4.36113E+01 0.00000E+00
 -1      2312 7.80000E+01 4.24186E+01 0.00000E+00
 -1      2313 8.17500E+01 4.36113E+01 0.00000E+00
 -1      2314 8.32500E+01 4.36113E+01 0.00000E+00
 -1      2315 8.10000E+01 4.24186E+01 0.00000E+00
 -1      2316 8.47500E+01 4.36113E+01 0.00000E+00
 -1      2317 8.62500E+01 4.36113E+01 0.00000E+00
 -1      2318 8.40000E+01 4.24186E+01 0.00000E+00
 -1      2319 8.77500E+01 4.36113E+01 0.00000E+00
 -1      2320 8.92500E+01 4.36113E+01 0.00000E+00
 -1      2321 8.70000E+01 4.24186E+01 0.00000E+00
 -1      2322 9.07500E+01 4.36113E+01 0.00000E+00
 -1      2323 9.22500E+01 4.36113E+01 0.00000E+00
 -1      2324 9.00000E+01 4.24186E+01 0.00000E+00
 -1      2325 9.37500E+01 4.36113E+01 0.00000E+00
 -1      2326 9.52500E+01 4.36113E+01 0.00000E+00
 -1      2327 9.30000E+01 4.24186E+01 0.00000E+00
 -1      2328 9.67500E+01 4.36113E+01 0.00000E+00
 -1      2329 9.82500E+01 4.36113E+01 0.00000E+00
 -1      2330 9.60000E+01 4.24186E+01 0.00000E+00
 -1      2331 9.97500E+01 4.36113E+01 0.00000E+00
 -1      2332 1.01250E+02 4.36113E+01 0.00000E+00
 -1      2333 9.90000E+01 4.24186E+01 0.00000E+00
 -1      2334 1.02750E+02 4.36113E+01 0.00000E+00
 -1      2335 1.04250E+02 4.36113E+01 0.00000E+00
 -1      2336 1.02000E+02 4.24186E+01 0.00000E+00
 -1      2337 1.05750E+02 4.36113E+01 0.00000E+00
 -1      2338 1.07250E+02 4.36113E+01 0.00000E+00
 -1      2339 1.05000E+02 4.24186E+01 0.00000E+00
 -1      2340 1.08750E+02 4.36113E+01 0.00000E+00
 -1      2341 1.10250E+02 4.36113E+01 0.00000E+00
 -1      2342 1.08000E+02 4.24186E+01 0.00000E+00
 -1      2343 1.11750E+02 4.36113E+01 0.00000E+00
 -1      2344 1.13250E+02 4.36113E+01 0.00000E+00
 -1      2345 1.11000E+02 4.24186E+01 0.00000E+00
 -1      2346 1.14750E+02 4.36113E+01 0.00000E+00
 -1      2347 1.16250E+02 4.36113E+01 0.00000E+00
 -1      2348 1.14000E+02 4.24186E+01 0.00000E+00
 -1      2349 1.17750E+02 4.36113E+01 0.00000E+00
 -1      2350 1.19250E+02 4.36113E+01 0.00000E+00
 -1      2351 1.17000E+02 4.24186E+01 0.00000E+00
 -1      2352 1.20750E+02 4.36113E+01 0.00000E+00
 -1      2353 1.22250E+02 4.36113E+01 0.00000E+00
 -1      2354 1.20000E+02 4.24186E+01 0.00000E+00
 -1      2355 1.23750E+02 4.36113E+01 0.00000E+00
 -1      2356 1.25250E+02 4.36113E+01 0.00000E+00
 -1      2357 1.23000E+02 4.24186E+01 0.00000E+00
 -1      2358 1.26750E+02 4.36113E+01 0.00000E+00
 -1      2359 1.28250E+02 4.36113E+01 0.00000E+00
 -1      2360 1.26000E+02 4.24186E+01 0.00000E+00
 -1      2361 1.29750E+02 4.36113E+01 0.00000E+00
 -1      2362 1.31250E+02 4.36113E+01 0.00000E+00
 -1      2363 1.29000E+02 4.24186E+01 0.00000E+00
 -1      2364 1.32750E+02 4.36113E+01 0.00000E+00
 -1      2365 1.34250E+02 4.36113E+01 0.00000E+00
 -1      2366 1.32000E+02 4.24186E+01 0.00000E+00
 -1      2367 1.35750E+02 4.36113E+01 0.00000E+00
 -1      2368 1.37250E+02 4.36113E+01 0.00000E+00
 -1      2369 1.35000E+02 4.24186E+01 0.00000E+00
 -1      2370 1.38750E+02 4.36113E+01 0.00000E+00
 -1      2371 1.40250E+02 4.36113E+01 0.00000E+00
 -1      2372 1.38000E+02 4.24186E+01 0.00000E+00
 -1      2373 1.41576E+02 4.33067E+01 0.00000E+00
 -1      2374 1.43076E+02 4.33067E+01 0.00000E+00
 -1      2375 1.43478E+02 4.15047E+01 0.00000E+00
 -1      2376 1.40826E+02 4.21140E+01 0.00000E+00
 -1      2377 2.16240E+01 6.08450E+00 0.00000E+00
 -1      2378 2.01240E+01 6.08450E+00 0.00000E+00
 -1      2379 1.86240E+01 6.08450E+00 0.00000E+00
 -1      2380 1.71240E+01 6.08450E+00 0.00000E+00
 -1      2381 1.93740E+01 7.38350E+00 0.00000E+00
 -1      2382 1.56240E+01 6.08450E+00 0.00000E+00
 -1      2383 1.41240E+01 6.08450E+00 0.00000E+00
 -1      2384 1.63740E+01 7.38350E+00 0.00000E+00
 -1      2385 2.46240E+01 6.08450E+00 0.00000E+00
 -1      2386 2.31240E+01 6.08450E+00 0.00000E+00
 -1      2387 2.23740E+01 7.38350E+00 0.00000E+00
 -1      2388 2.76240E+01 6.08450E+00 0.00000E+00
 -1      2389 2.61240E+01 6.08450E+00 0.00000E+00
 -1      2390 2.53740E+01 7.38350E+00 0.00000E+00
 -1      2391 3.06240E+01 6.08450E+00 0.00000E+00
 -1      2392 2.91240E+01 6.08450E+00 0.00000E+00
 -1      2393 2.83740E+01 7.38350E+00 0.00000E+00
 -1      2394 3.36240E+01 6.08450E+00 0.00000E+00
 -1      2395 3.21240E+01 6.08450E+00 0.00000E+00
 -1      2396 3.13740E+01 7.38350E+00 0.00000E+00
 -1      2397 3.66240E+01 6.08450E+00 0.00000E+00
 -1      2398 3.51240E+01 6.08450E+00 0.00000E+00
 -1      2399 3.43740E+01 7.38350E+00 0.00000E+00
 -1      2400 3.96240E+01 6.08450E+00 0.00000E+00
 -1      2401 3.81240E+01 6.08450E+00 0.00000E+00
 -1      2402 3.73740E+01 7.38350E+00 0.00000E+00
 -1      2403 4.26240E+01 6.08450E+00 0.00000E+00
 -1      2404 4.11240E+01 6.08450E+00 0.00000E+00
 -1      2405 4.03740E+01 7.38350E+00 0.00000E+00
 -1      2406 4.56240E+01 6.08450E+00 0.00000E+00
 -1      2407 4.41240E+01 6.08450E+00 0.00000E+00
 -1      2408 4.33740E+01 7.38350E+00 0.00000E+00
 -1      2409 4.86240E+01 6.08450E+00 0.00000E+00
 -1      2410 4.71240E+01 6.08450E+00 0.00000E+00
 -1      2411 4.63740E+01 7.38350E+00 0.00000E+00
 -1      2412 5.16240E+01 6.08450E+00 0.00000E+00
 -1      2413 5.01240E+01 6.08450E+00 0.00000E+00
 -1      2414 4.93740E+01 7.38350E+00 0.00000E+00
 -1      2415 5.46240E+01 6.08450E+00 0.00000E+00
 -1      2416 5.31240E+01 6.08450E+00 0.00000E+00
 -1      2417 5.23740E+01 7.38350E+00 0.00000E+00
 -1      2418 5.76240E+01 6.08450E+00 0.00000E+00
 -1      2419 5.61240E+01 6.08450E+00 0.00000E+00
 -1      2420 5.53740E+01 7.38350E+00 0.00000E+00
 -1      2421 6.06240E+01 6.08450E+00 0.00000E+00
 -1      2422 5.91240E+01 6.08450E+00 0.00000E+00
 -1      2423 5.83740E+01 7.38350E+00 0.00000E+00
 -1      2424 6.36240E+01 6.08450E+00 0.00000E+00
 -1      2425 6.21240E+01 6.08450E+00 0.00000E+00
 -1      2426 6.13740E+01 7.38350E+00 0.00000E+00
 -1      2427 6.66240E+01 6.08450E+00 0.00000E+00
 -1      2428 6.51240E+01 6.08450E+00 0.00000E+00
 -1      2429 6.43740E+01 7.38350E+00 0.00000E+00
 -1      2430 6.96240E+01 6.08450E+00 0.00000E+00
 -1      2431 6.81240E+01 6.08450E+00 0.00000E+00
 -1      2432 6.73740E+01 7.38350E+00 0.00000E+00
 -1      2433 7.26240E+01 6.08450E+00 0.00000E+00
 -1      2434 7.11240E+01 6.08450E+00 0.00000E+00
 -1      2435 7.03740E+01 7.38350E+00 0.00000E+00
 -1      2436 7.56240E+01 6.08450E+00 0.00000E+00
 -1      2437 7.41240E+01 6.08450E+00 0.00000E+00
 -1      2438 7.33740E+01 7.38350E+00 0.00000E+00
 -1      2439 7.86240E+01 6.08450E+00 0.00000E+00
 -1      2440 7.71240E+01 6.08450E+00 0.00000E+00
 -1      2441 7.63740E+01 7.38350E+00 0.00000E+00
 -1      2442 8.16240E+01 6.08450E+00 0.00000E+00
 -1      2443 8.01240E+01 6.08450E+00 0.00000E+00
 -1      2444 7.93740E+01 7.38350E+00 0.00000E+00
 -1      2445 8.46240E+01 6.08450E+00 0.00000E+00
 -1      2446 8.31240E+01 6.08450E+00 0.00000E+00
 -1      2447 8.23740E+01 7.38350E+00 0.00000E+00
 -1      2448 8.76240E+01 6.08450E+00 0.00000E+00
 -1      2449 8.61240E+01 6.08450E+00 0.00000E+00
 -1      2450 8.53740E+01 7.38350E+00 0.00000E+00
 -1      2451 9.06240E+01 6.08450E+00 0.00000E+00
 -1      2452 8.91240E+01 6.08450E+00 0.00000E+00
 -1      2453 8.83740E+01 7.38350E+00 0.00000E+00
 -1      2454 9.36240E+01 6.08450E+00 0.00000E+00
 -1      2455 9.21240E+01 6.08450E+00 0.00000E+00
 -1      2456 9.13740E+01 7.38350E+00 0.00000E+00
 -1      2457 9.66240E+01 6.08450E+00 0.00000E+00
 -1      2458 9.51240E+01 6.08450E+00 0.00000E+00
 -1      2459 9.43740E+01 7.38350E+00 0.00000E+00
 -1      2460 9.96240E+01 6.08450E+00 0.00000E+00
 -1      2461 9.81240E+01 6.08450E+00 0.00000E+00
 -1      2462 9.73740E+01 7.38350E+00 0.00000E+00
 -1      2463 1.02624E+02 6.08450E+00 0.00000E+00
 -1      2464 1.01124E+02 6.08450E+00 0.00000E+00
 -1      2465 1.00374E+02 7.38350E+00 0.00000E+00
 -1      2466 1.05624E+02 6.08450E+00 0.00000E+00
 -1      2467 1.04124E+02 6.08450E+00 0.00000E+00
 -1      2468 1.03374E+02 7.38350E+00 0.00000E+00
 -1      2469 1.08624E+02 6.08450E+00 0.00000E+00
 -1      2470 1.07124E+02 6.08450E+00 0.00000E+00
 -1      2471 1.06374E+02 7.38350E+00 0.00000E+00
 -1      2472 1.11624E+02 6.08450E+00 0.00000E+00
 -1      2473 1.10124E+02 6.08450E+00 0.00000E+00
 -1      2474 1.09374E+02 7.38350E+00 0.00000E+00
 -1      2475 1.14624E+02 6.08450E+00 0.00000E+00
 -1      2476 1.13124E+02 6.08450E+00 0.00000E+00
 -1      2477 1.12374E+02 7.38350E+00 0.00000E+00
 -1      2478 1.17624E+02 6.08450E+00 0.00000E+00
 -1      2479 1.16124E+02 6.08450E+00 0.00000E+00
 -1      2480 1.15374E+02 7.38350E+00 0.00000E+00
 -1      2481 1.20624E+02 6.08450E+00 0.00000E+00
 -1      2482 1.19124E+02 6.08450E+00 0.00000E+00
 -1      2483 1.18374E+02 7.38350E+00 0.00000E+00
 -1      2484 1.23624E+02 6.08450E+00 0.00000E+00
 -1      2485 1.22124E+02 6.08450E+00 0.00000E+00
 -1      2486 1.21374E+02 7.38350E+00 0.00000E+00
 -1      2487 1.26624E+02 6.08450E+00 0.00000E+00
 -1      2488 1.25124E+02 6.08450E+00 0.00000E+00
 -1      2489 1.24374E+02 7.38350E+00 0.00000E+00
 -1      2490 1.29624E+02 6.08450E+00 0.00000E+00
 -1      2491 1.28124E+02 6.08450E+00 0.00000E+00
 -1      2492 1.27374E+02 7.38350E+00 0.00000E+00
 -1      2493 1.32624E+02 6.08450E+00 0.00000E+00
 -1      2494 1.31124E+02 6.08450E+00 0.00000E+00
 -1      2495 1.30374E+02 7.38350E+00 0.00000E+00
 -1      2496 1.35624E+02 6.08450E+00 0.00000E+00
 -1      2497 1.34124E+02 6.08450E+00 0.00000E+00
 -1      2498 1.33374E+02 7.38350E+00 0.00000E+00
 -1      2499 1.38624E+02 6.08450E+00 0.00000E+00
 -1      2500 1.37124E+02 6.08450E+00 0.00000E+00
 -1      2501 1.36374E+02 7.38350E+00 0.00000E+00
 -1      2502 1.41624E+02 6.08450E+00 0.00000E+00
 -1      2503 1.40124E+02 6.08450E+00 0.00000E+00
 -1      2504 1.39374E+02 7.38350E+00 0.00000E+00
 -1      2505 1.43589E+02 6.81775E+00 0.00000E+00
 -1      2506 1.43505E+02 1.69125E+01 0.00000E+00
 -1      2507 1.43505E+02 1.54375E+01 0.00000E+00
 -1      2508 1.43505E+02 1.39875E+01 0.00000E+00
 -1      2509 1.43505E+02 1.25375E+01 0.00000E+00
 -1      2510 1.42206E+02 1.47250E+01 0.00000E+00
 -1      2511 1.43505E+02 1.10625E+01 0.00000E+00
 -1      2512 1.43505E+02 9.58750E+00 0.00000E+00
 -1      2513 1.42206E+02 1.18000E+01 0.00000E+00
 -1      2514 4.35014E+01 2.93440E+01 0.00000E+00
 -1      2515 4.35663E+01 3.03221E+01 0.00000E+00
 -1      2516 1.43505E+02 1.98625E+01 0.00000E+00
 -1      2517 1.43505E+02 1.83875E+01 0.00000E+00
 -1      2518 1.42206E+02 1.76500E+01 0.00000E+00
 -1      2519 1.43505E+02 2.28125E+01 0.00000E+00
 -1      2520 1.43505E+02 2.13375E+01 0.00000E+00
 -1      2521 1.42206E+02 2.06000E+01 0.00000E+00
 -1      2522 1.43505E+02 2.57625E+01 0.00000E+00
 -1      2523 1.43505E+02 2.42875E+01 0.00000E+00
 -1      2524 1.42206E+02 2.35500E+01 0.00000E+00
 -1      2525 1.43505E+02 2.87125E+01 0.00000E+00
 -1      2526 1.43505E+02 2.72375E+01 0.00000E+00
 -1      2527 1.42206E+02 2.65000E+01 0.00000E+00
 -1      2528 1.43505E+02 3.16125E+01 0.00000E+00
 -1      2529 1.43505E+02 3.01625E+01 0.00000E+00
 -1      2530 1.42206E+02 2.94250E+01 0.00000E+00
 -1      2531 1.43505E+02 3.45625E+01 0.00000E+00
 -1      2532 1.43505E+02 3.30875E+01 0.00000E+00
 -1      2533 1.42206E+02 3.23500E+01 0.00000E+00
 -1      2534 1.43505E+02 3.75125E+01 0.00000E+00
 -1      2535 1.43505E+02 3.60375E+01 0.00000E+00
 -1      2536 1.42206E+02 3.53000E+01 0.00000E+00
 -1      2537 1.43492E+02 4.02461E+01 0.00000E+00
 -1      2538 1.43492E+02 3.87711E+01 0.00000E+00
 -1      2539 1.42193E+02 3.80336E+01 0.00000E+00
 -1      2540 1.42165E+02 4.05507E+01 0.00000E+00
 -1      2541 6.55950E+00 4.28890E+01 0.00000E+00
 -1      2542 8.53650E+00 4.32410E+01 0.00000E+00
 -1      2543 9.28650E+00 4.19420E+01 0.00000E+00
 -1      2544 6.55950E+00 4.14140E+01 0.00000E+00
 -1      2545 3.88370E+01 2.22181E+01 0.00000E+00
 -1      2546 3.96012E+01 2.28647E+01 0.00000E+00
 -1      2547 4.35313E+01 3.14191E+01 0.00000E+00
 -1      2548 4.34084E+01 3.23022E+01 0.00000E+00
 -1      2549 4.14627E+01 3.70342E+01 0.00000E+00
 -1      2550 4.09327E+01 3.78102E+01 0.00000E+00
 -1      2551 2.28141E+01 2.84125E+01 0.00000E+00
 -1      2552 2.31609E+01 2.73702E+01 0.00000E+00
 -1      2553 2.78976E+01 2.14961E+01 0.00000E+00
 -1      2554 2.88122E+01 2.10227E+01 0.00000E+00
 -1      2555 6.49500E+00 2.71625E+01 0.00000E+00
 -1      2556 6.49500E+00 2.86375E+01 0.00000E+00
 -1      2557 7.79400E+00 2.93750E+01 0.00000E+00
 -1      2558 7.79400E+00 2.64250E+01 0.00000E+00
 -1      2559 3.47941E+01 2.08021E+01 0.00000E+00
 -1      2560 3.57446E+01 2.10167E+01 0.00000E+00
 -1      2561 2.39773E+01 2.63603E+01 0.00000E+00
 -1      2562 2.45242E+01 2.55648E+01 0.00000E+00
 -1      2563 3.68100E+01 2.11883E+01 0.00000E+00
 -1      2564 3.77582E+01 2.15121E+01 0.00000E+00
 -1      2565 3.27413E+01 2.03813E+01 0.00000E+00
 -1      2566 3.37726E+01 2.05578E+01 0.00000E+00
 -1      2567 3.01030E+01 2.06459E+01 0.00000E+00
 -1      2568 3.12994E+01 2.03627E+01 0.00000E+00
 -1      2569 2.63161E+01 2.27579E+01 0.00000E+00
 -1      2570 2.69196E+01 2.21789E+01 0.00000E+00
 -1      2571 2.64878E+01 3.88080E+01 0.00000E+00
 -1      2572 2.56767E+01 3.82535E+01 0.00000E+00
 -1      2573 2.50509E+01 2.46130E+01 0.00000E+00
 -1      2574 2.56835E+01 2.36854E+01 0.00000E+00
 -1      2575 2.53336E+01 2.27166E+01 0.00000E+00
 -1      2576 2.27994E+01 3.05662E+01 0.00000E+00
 -1      2577 2.28840E+01 2.96512E+01 0.00000E+00
 -1      2578 2.35802E+01 3.50490E+01 0.00000E+00
 -1      2579 2.33218E+01 3.41862E+01 0.00000E+00
 -1      2580 2.80192E+01 3.99025E+01 0.00000E+00
 -1      2581 2.72535E+01 3.93553E+01 0.00000E+00
 -1      2582 2.63640E+01 3.97860E+01 0.00000E+00
 -1      2583 3.47714E+01 4.14961E+01 0.00000E+00
 -1      2584 3.38404E+01 4.16466E+01 0.00000E+00
 -1      2585 3.84940E+01 3.96837E+01 0.00000E+00
 -1      2586 3.77141E+01 4.01951E+01 0.00000E+00
 -1      2587 4.00861E+01 3.86996E+01 0.00000E+00
 -1      2588 3.92901E+01 3.91916E+01 0.00000E+00
 -1      2589 3.93474E+01 4.01294E+01 0.00000E+00
 -1      2590 4.23190E+01 3.54676E+01 0.00000E+00
 -1      2591 4.19286E+01 3.61935E+01 0.00000E+00
 -1      2592 4.29020E+01 2.72083E+01 0.00000E+00
 -1      2593 4.32686E+01 2.81309E+01 0.00000E+00
 -1      2594 1.42839E+02 8.11675E+00 0.00000E+00
 -1      2595 7.79400E+00 3.52687E+01 0.00000E+00
 -1      2596 6.49500E+00 3.60062E+01 0.00000E+00
 -1      2597 6.49500E+00 3.74750E+01 0.00000E+00
 -1      2598 3.86401E+01 2.12447E+01 0.00000E+00
 -1      2599 9.55950E+00 5.02450E+00 0.00000E+00
 -1      2600 9.37425E+00 5.84794E+00 0.00000E+00
 -1      2601 1.07692E+01 5.21931E+00 0.00000E+00
 -1      2602 4.20694E+01 2.43423E+01 0.00000E+00
 -1      2603 4.33713E+01 2.63097E+01 0.00000E+00
 -1      2604 4.09901E+01 3.87480E+01 0.00000E+00
 -1      2605 2.76757E+01 4.16975E+01 0.00000E+00
 -1      2606 3.90000E+01 4.25024E+01 0.00000E+00
 -1      2607 4.43127E+01 3.08760E+01 0.00000E+00
 -1      2608 4.41149E+01 2.85659E+01 0.00000E+00
 -1      2609 4.23025E+01 3.70179E+01 0.00000E+00
 -1      2610 2.84155E+01 4.07611E+01 0.00000E+00
 -1      2611 6.55950E+00 3.99453E+01 0.00000E+00
 -1      2612 3.64959E+01 2.03671E+01 0.00000E+00
 -1      2613 1.30515E+01 5.74931E+00 0.00000E+00
 -1      2614 1.18418E+01 5.55450E+00 0.00000E+00
 -1      2615 1.16565E+01 6.37794E+00 0.00000E+00
 -1      2616 1.38015E+01 7.04831E+00 0.00000E+00
 -1      2617 2.34214E+01 3.58988E+01 0.00000E+00
 -1      2618 2.25510E+01 3.56894E+01 0.00000E+00
 -1      2619 2.32626E+01 3.67486E+01 0.00000E+00
 -1      2620 2.41744E+01 2.45961E+01 0.00000E+00
 -1      2621 1.41540E+02 8.85425E+00 0.00000E+00
 -1      2622 4.37578E+01 3.30195E+01 0.00000E+00
 -1      2623 2.28312E+01 2.65578E+01 0.00000E+00
 -1      2624 2.20847E+01 2.88064E+01 0.00000E+00
 -1      2625 2.92129E+01 2.00466E+01 0.00000E+00
 -1      2626 3.19456E+01 1.96883E+01 0.00000E+00
 -1      2627 3.25918E+01 1.90139E+01 0.00000E+00
 -1      2628 3.11499E+01 1.89954E+01 0.00000E+00
 -1      2629 2.48657E+01 3.80984E+01 0.00000E+00
 -1      2630 2.40547E+01 3.79432E+01 0.00000E+00
 -1      2631 2.47873E+01 3.90836E+01 0.00000E+00
 -1      2632 2.26129E+01 3.36463E+01 0.00000E+00
 -1      2633 2.69442E+01 2.11063E+01 0.00000E+00
 -1      2634 4.04986E+01 2.26844E+01 0.00000E+00
 -1      2635 3.60000E+01 4.26700E+01 0.00000E+00
 -1      2636 3.44090E+01 1.99512E+01 0.00000E+00
 -1      2637 2.23353E+01 3.12491E+01 0.00000E+00
 -1      2638 2.16905E+01 3.07281E+01 0.00000E+00
 -1      2639 2.18712E+01 3.19320E+01 0.00000E+00
 -1      2640 3.27163E+01 4.13791E+01 0.00000E+00
 -1      2641 3.17067E+01 4.14291E+01 0.00000E+00
 -1      2642 3.76343E+01 4.08563E+01 0.00000E+00
 -1      2643 3.67971E+01 4.04300E+01 0.00000E+00
 -1      2644 3.58800E+01 4.06648E+01 0.00000E+00
 -1      2645 4.30031E+01 3.51216E+01 0.00000E+00
 -1      2646 3.33759E+01 4.24863E+01 0.00000E+00
 -1      2647 9.09300E+00 1.98250E+01 0.00000E+00
 -1      2648 9.09300E+00 2.12750E+01 0.00000E+00
 -1      2649 9.09300E+00 2.27500E+01 0.00000E+00
 -1      2650 9.09300E+00 2.42250E+01 0.00000E+00
 -1      2651 1.03920E+01 2.20250E+01 0.00000E+00
 -1      2652 9.09300E+00 1.39375E+01 0.00000E+00
 -1      2653 9.09300E+00 1.54125E+01 0.00000E+00
 -1      2654 9.09300E+00 1.09875E+01 0.00000E+00
 -1      2655 9.09300E+00 1.24625E+01 0.00000E+00
 -1      2656 1.03920E+01 1.32000E+01 0.00000E+00
 -1      2657 9.18900E+00 6.67137E+00 0.00000E+00
 -1      2658 9.00375E+00 7.49481E+00 0.00000E+00
 -1      2659 1.03988E+01 6.86619E+00 0.00000E+00
 -1      2660 3.86620E+01 2.00339E+01 0.00000E+00
 -1      2661 3.97409E+01 2.07400E+01 0.00000E+00
 -1      2662 4.38861E+01 2.54110E+01 0.00000E+00
 -1      2663 4.43969E+01 2.64541E+01 0.00000E+00
 -1      2664 4.20952E+01 3.89523E+01 0.00000E+00
 -1      2665 4.12486E+01 3.98417E+01 0.00000E+00
 -1      2666 1.44000E+01 4.09070E+01 0.00000E+00
 -1      2667 1.59000E+01 4.09070E+01 0.00000E+00
 -1      2668 1.74000E+01 4.09070E+01 0.00000E+00
 -1      2669 1.89000E+01 4.09070E+01 0.00000E+00
 -1      2670 1.66500E+01 3.96080E+01 0.00000E+00
 -1      2671 2.04000E+01 4.09070E+01 0.00000E+00
 -1      2672 2.19000E+01 4.09070E+01 0.00000E+00
 -1      2673 1.96500E+01 3.96080E+01 0.00000E+00
 -1      2674 3.26259E+01 4.35114E+01 0.00000E+00
 -1      2675 8.85168E+00 4.05347E+01 0.00000E+00
 -1      2676 1.02152E+01 4.07987E+01 0.00000E+00
 -1      2677 4.42500E+01 4.11421E+01 0.00000E+00
 -1      2678 4.57500E+01 4.11421E+01 0.00000E+00
 -1      2679 4.72500E+01 4.11421E+01 0.00000E+00
 -1      2680 4.87500E+01 4.11421E+01 0.00000E+00
 -1      2681 4.65000E+01 3.98656E+01 0.00000E+00
 -1      2682 5.02500E+01 4.11421E+01 0.00000E+00
 -1      2683 5.17500E+01 4.11421E+01 0.00000E+00
 -1      2684 4.95000E+01 3.98656E+01 0.00000E+00
 -1      2685 5.32500E+01 4.11421E+01 0.00000E+00
 -1      2686 5.47500E+01 4.11421E+01 0.00000E+00
 -1      2687 5.25000E+01 3.98656E+01 0.00000E+00
 -1      2688 5.62500E+01 4.11421E+01 0.00000E+00
 -1      2689 5.77500E+01 4.11421E+01 0.00000E+00
 -1      2690 5.55000E+01 3.98656E+01 0.00000E+00
 -1      2691 5.92500E+01 4.11421E+01 0.00000E+00
 -1      2692 6.07500E+01 4.11421E+01 0.00000E+00
 -1      2693 5.85000E+01 3.98656E+01 0.00000E+00
 -1      2694 6.22500E+01 4.11421E+01 0.00000E+00
 -1      2695 6.37500E+01 4.11421E+01 0.00000E+00
 -1      2696 6.15000E+01 3.98656E+01 0.00000E+00
 -1      2697 6.52500E+01 4.11421E+01 0.00000E+00
 -1      2698 6.67500E+01 4.11421E+01 0.00000E+00
 -1      2699 6.45000E+01 3.98656E+01 0.00000E+00
 -1      2700 6.82500E+01 4.11421E+01 0.00000E+00
 -1      2701 6.97500E+01 4.11421E+01 0.00000E+00
 -1      2702 6.75000E+01 3.98656E+01 0.00000E+00
 -1      2703 7.12500E+01 4.11421E+01 0.00000E+00
 -1      2704 7.27500E+01 4.11421E+01 0.00000E+00
 -1      2705 7.05000E+01 3.98656E+01 0.00000E+00
 -1      2706 7.42500E+01 4.11421E+01 0.00000E+00
 -1      2707 7.57500E+01 4.11421E+01 0.00000E+00
 -1      2708 7.35000E+01 3.98656E+01 0.00000E+00
 -1      2709 7.72500E+01 4.11421E+01 0.00000E+00
 -1      2710 7.87500E+01 4.11421E+01 0.00000E+00
 -1      2711 7.65000E+01 3.98656E+01 0.00000E+00
 -1      2712 8.02500E+01 4.11421E+01 0.00000E+00
 -1      2713 8.17500E+01 4.11421E+01 0.00000E+00
 -1      2714 7.95000E+01 3.98656E+01 0.00000E+00
 -1      2715 8.32500E+01 4.11421E+01 0.00000E+00
 -1      2716 8.47500E+01 4.11421E+01 0.00000E+00
 -1      2717 8.25000E+01 3.98656E+01 0.00000E+00
 -1      2718 8.62500E+01 4.11421E+01 0.00000E+00
 -1      2719 8.77500E+01 4.11421E+01 0.00000E+00
 -1      2720 8.55000E+01 3.98656E+01 0.00000E+00
 -1      2721 8.92500E+01 4.11421E+01 0.00000E+00
 -1      2722 9.07500E+01 4.11421E+01 0.00000E+00
 -1      2723 8.85000E+01 3.98656E+01 0.00000E+00
 -1      2724 9.22500E+01 4.11421E+01 0.00000E+00
 -1      2725 9.37500E+01 4.11421E+01 0.00000E+00
 -1      2726 9.15000E+01 3.98656E+01 0.00000E+00
 -1      2727 9.52500E+01 4.11421E+01 0.00000E+00
 -1      2728 9.67500E+01 4.11421E+01 0.00000E+00
 -1      2729 9.45000E+01 3.98656E+01 0.00000E+00
 -1      2730 9.82500E+01 4.11421E+01 0.00000E+00
 -1      2731 9.97500E+01 4.11421E+01 0.00000E+00
 -1      2732 9.75000E+01 3.98656E+01 0.00000E+00
 -1      2733 1.01250E+02 4.11421E+01 0.00000E+00
 -1      2734 1.02750E+02 4.11421E+01 0.00000E+00
 -1      2735 1.00500E+02 3.98656E+01 0.00000E+00
 -1      2736 1.04250E+02 4.11421E+01 0.00000E+00
 -1      2737 1.05750E+02 4.11421E+01 0.00000E+00
 -1      2738 1.03500E+02 3.98656E+01 0.00000E+00
 -1      2739 1.07250E+02 4.11421E+01 0.00000E+00
 -1      2740 1.08750E+02 4.11421E+01 0.00000E+00
 -1      2741 1.06500E+02 3.98656E+01 0.00000E+00
 -1      2742 1.10250E+02 4.11421E+01 0.00000E+00
 -1      2743 1.11750E+02 4.11421E+01 0.00000E+00
 -1      2744 1.09500E+02 3.98656E+01 0.00000E+00
 -1      2745 1.13250E+02 4.11421E+01 0.00000E+00
 -1      2746 1.14750E+02 4.11421E+01 0.00000E+00
 -1      2747 1.12500E+02 3.98656E+01 0.00000E+00
 -1      2748 1.16250E+02 4.11421E+01 0.00000E+00
 -1      2749 1.17750E+02 4.11421E+01 0.00000E+00
 -1      2750 1.15500E+02 3.98656E+01 0.00000E+00
 -1      2751 1.19250E+02 4.11421E+01 0.00000E+00
 -1      2752 1.20750E+02 4.11421E+01 0.00000E+00
 -1      2753 1.18500E+02 3.98656E+01 0.00000E+00
 -1      2754 1.22250E+02 4.11421E+01 0.00000E+00
 -1      2755 1.23750E+02 4.11421E+01 0.00000E+00
 -1      2756 1.21500E+02 3.98656E+01 0.00000E+00
 -1      2757 1.25250E+02 4.11421E+01 0.00000E+00
 -1      2758 1.26750E+02 4.11421E+01 0.00000E+00
 -1      2759 1.24500E+02 3.98656E+01 0.00000E+00
 -1      2760 1.28250E+02 4.11421E+01 0.00000E+00
 -1      2761 1.29750E+02 4.11421E+01 0.00000E+00
 -1      2762 1.27500E+02 3.98656E+01 0.00000E+00
 -1      2763 1.31250E+02 4.11421E+01 0.00000E+00
 -1      2764 1.32750E+02 4.11421E+01 0.00000E+00
 -1      2765 1.30500E+02 3.98656E+01 0.00000E+00
 -1      2766 1.34250E+02 4.11421E+01 0.00000E+00
 -1      2767 1.35750E+02 4.11421E+01 0.00000E+00
 -1      2768 1.33500E+02 3.98656E+01 0.00000E+00
 -1      2769 1.37250E+02 4.11421E+01 0.00000E+00
 -1      2770 1.38750E+02 4.11421E+01 0.00000E+00
 -1      2771 1.36500E+02 3.98656E+01 0.00000E+00
 -1      2772 1.39795E+02 4.09988E+01 0.00000E+00
 -1      2773 1.41121E+02 4.06941E+01 0.00000E+00
 -1      2774 1.41134E+02 3.94355E+01 0.00000E+00
 -1      2775 1.39045E+02 3.97223E+01 0.00000E+00
 -1      2776 2.01240E+01 8.68250E+00 0.00000E+00
 -1      2777 1.86240E+01 8.68250E+00 0.00000E+00
 -1      2778 2.31240E+01 8.68250E+00 0.00000E+00
 -1      2779 2.16240E+01 8.68250E+00 0.00000E+00
 -1      2780 2.08740E+01 9.98150E+00 0.00000E+00
 -1      2781 1.71240E+01 8.68250E+00 0.00000E+00
 -1      2782 1.56240E+01 8.68250E+00 0.00000E+00
 -1      2783 1.78740E+01 9.98150E+00 0.00000E+00
 -1      2784 2.91240E+01 8.68250E+00 0.00000E+00
 -1      2785 2.76240E+01 8.68250E+00 0.00000E+00
 -1      2786 3.21240E+01 8.68250E+00 0.00000E+00
 -1      2787 3.06240E+01 8.68250E+00 0.00000E+00
 -1      2788 2.98740E+01 9.98150E+00 0.00000E+00
 -1      2789 3.51240E+01 8.68250E+00 0.00000E+00
 -1      2790 3.36240E+01 8.68250E+00 0.00000E+00
 -1      2791 3.28740E+01 9.98150E+00 0.00000E+00
 -1      2792 3.81240E+01 8.68250E+00 0.00000E+00
 -1      2793 3.66240E+01 8.68250E+00 0.00000E+00
 -1      2794 3.58740E+01 9.98150E+00 0.00000E+00
 -1      2795 4.11240E+01 8.68250E+00 0.00000E+00
 -1      2796 3.96240E+01 8.68250E+00 0.00000E+00
 -1      2797 3.88740E+01 9.98150E+00 0.00000E+00
 -1      2798 4.41240E+01 8.68250E+00 0.00000E+00
 -1      2799 4.26240E+01 8.68250E+00 0.00000E+00
 -1      2800 4.18740E+01 9.98150E+00 0.00000E+00
 -1      2801 4.71240E+01 8.68250E+00 0.00000E+00
 -1      2802 4.56240E+01 8.68250E+00 0.00000E+00
 -1      2803 4.48740E+01 9.98150E+00 0.00000E+00
 -1      2804 5.01240E+01 8.68250E+00 0.00000E+00
 -1      2805 4.86240E+01 8.68250E+00 0.00000E+00
 -1      2806 4.78740E+01 9.98150E+00 0.00000E+00
 -1      2807 5.31240E+01 8.68250E+00 0.00000E+00
 -1      2808 5.16240E+01 8.68250E+00 0.00000E+00
 -1      2809 5.08740E+01 9.98150E+00 0.00000E+00
 -1      2810 5.61240E+01 8.68250E+00 0.00000E+00
 -1      2811 5.46240E+01 8.68250E+00 0.00000E+00
 -1      2812 5.38740E+01 9.98150E+00 0.00000E+00
 -1      2813 5.91240E+01 8.68250E+00 0.00000E+00
 -1      2814 5.76240E+01 8.68250E+00 0.00000E+00
 -1      2815 5.68740E+01 9.98150E+00 0.00000E+00
 -1      2816 6.21240E+01 8.68250E+00 0.00000E+00
 -1      2817 6.06240E+01 8.68250E+00 0.00000E+00
 -1      2818 5.98740E+01 9.98150E+00 0.00000E+00
 -1      2819 6.51240E+01 8.68250E+00 0.00000E+00
 -1      2820 6.36240E+01 8.68250E+00 0.00000E+00
 -1      2821 6.28740E+01 9.98150E+00 0.00000E+00
 -1      2822 6.81240E+01 8.68250E+00 0.00000E+00
 -1      2823 6.66240E+01 8.68250E+00 0.00000E+00
 -1      2824 6.58740E+01 9.98150E+00 0.00000E+00
 -1      2825 7.11240E+01 8.68250E+00 0.00000E+00
 -1      2826 6.96240E+01 8.68250E+00 0.00000E+00
 -1      2827 6.88740E+01 9.98150E+00 0.00000E+00
 -1      2828 7.41240E+01 8.68250E+00 0.00000E+00
 -1      2829 7.26240E+01 8.68250E+00 0.00000E+00
 -1      2830 7.18740E+01 9.98150E+00 0.00000E+00
 -1      2831 7.71240E+01 8.68250E+00 0.00000E+00
 -1      2832 7.56240E+01 8.68250E+00 0.00000E+00
 -1      2833 7.48740E+01 9.98150E+00 0.00000E+00
 -1      2834 8.01240E+01 8.68250E+00 0.00000E+00
 -1      2835 7.86240E+01 8.68250E+00 0.00000E+00
 -1      2836 7.78740E+01 9.98150E+00 0.00000E+00
 -1      2837 8.31240E+01 8.68250E+00 0.00000E+00
 -1      2838 8.16240E+01 8.68250E+00 0.00000E+00
 -1      2839 8.08740E+01 9.98150E+00 0.00000E+00
 -1      2840 8.61240E+01 8.68250E+00 0.00000E+00
 -1      2841 8.46240E+01 8.68250E+00 0.00000E+00
 -1      2842 8.38740E+01 9.98150E+00 0.00000E+00
 -1      2843 8.91240E+01 8.68250E+00 0.00000E+00
 -1      2844 8.76240E+01 8.68250E+00 0.00000E+00
 -1      2845 8.68740E+01 9.98150E+00 0.00000E+00
 -1      2846 9.21240E+01 8.68250E+00 0.00000E+00
 -1      2847 9.06240E+01 8.68250E+00 0.00000E+00
 -1      2848 8.98740E+01 9.98150E+00 0.00000E+00
 -1      2849 9.51240E+01 8.68250E+00 0.00000E+00
 -1      2850 9.36240E+01 8.68250E+00 0.00000E+00
 -1      2851 9.28740E+01 9.98150E+00 0.00000E+00
 -1      2852 9.81240E+01 8.68250E+00 0.00000E+00
 -1      2853 9.66240E+01 8.68250E+00 0.00000E+00
 -1      2854 9.58740E+01 9.98150E+00 0.00000E+00
 -1      2855 1.01124E+02 8.68250E+00 0.00000E+00
 -1      2856 9.96240E+01 8.68250E+00 0.00000E+00
 -1      2857 9.88740E+01 9.98150E+00 0.00000E+00
 -1      2858 1.04124E+02 8.68250E+00 0.00000E+00
 -1      2859 1.02624E+02 8.68250E+00 0.00000E+00
 -1      2860 1.01874E+02 9.98150E+00 0.00000E+00
 -1      2861 1.07124E+02 8.68250E+00 0.00000E+00
 -1      2862 1.05624E+02 8.68250E+00 0.00000E+00
 -1      2863 1.04874E+02 9.98150E+00 0.00000E+00
 -1      2864 1.10124E+02 8.68250E+00 0.00000E+00
 -1      2865 1.08624E+02 8.68250E+00 0.00000E+00
 -1      2866 1.07874E+02 9.98150E+00 0.00000E+00
 -1      2867 1.13124E+02 8.68250E+00 0.00000E+00
 -1      2868 1.11624E+02 8.68250E+00 0.00000E+00
 -1      2869 1.10874E+02 9.98150E+00 0.00000E+00
 -1      2870 1.16124E+02 8.68250E+00 0.00000E+00
 -1      2871 1.14624E+02 8.68250E+00 0.00000E+00
 -1      2872 1.13874E+02 9.98150E+00 0.00000E+00
 -1      2873 1.19124E+02 8.68250E+00 0.00000E+00
 -1      2874 1.17624E+02 8.68250E+00 0.00000E+00
 -1      2875 1.16874E+02 9.98150E+00 0.00000E+00
 -1      2876 1.22124E+02 8.68250E+00 0.00000E+00
 -1      2877 1.20624E+02 8.68250E+00 0.00000E+00
 -1      2878 1.19874E+02 9.98150E+00 0.00000E+00
 -1      2879 1.25124E+02 8.68250E+00 0.00000E+00
 -1      2880 1.23624E+02 8.68250E+00 0.00000E+00
 -1      2881 1.22874E+02 9.98150E+00 0.00000E+00
 -1      2882 1.28124E+02 8.68250E+00 0.00000E+00
 -1      2883 1.26624E+02 8.68250E+00 0.00000E+00
 -1      2884 1.25874E+02 9.98150E+00 0.00000E+00
 -1      2885 1.31124E+02 8.68250E+00 0.00000E+00
 -1      2886 1.29624E+02 8.68250E+00 0.00000E+00
 -1      2887 1.28874E+02 9.98150E+00 0.00000E+00
 -1      2888 1.34124E+02 8.68250E+00 0.00000E+00
 -1      2889 1.32624E+02 8.68250E+00 0.00000E+00
 -1      2890 1.31874E+02 9.98150E+00 0.00000E+00
 -1      2891 1.37124E+02 8.68250E+00 0.00000E+00
 -1      2892 1.35624E+02 8.68250E+00 0.00000E+00
 -1      2893 1.34874E+02 9.98150E+00 0.00000E+00
 -1      2894 1.40082E+02 8.76838E+00 0.00000E+00
 -1      2895 1.38582E+02 8.76838E+00 0.00000E+00
 -1      2896 1.37832E+02 1.00674E+01 0.00000E+00
 -1      2897 1.40748E+02 1.02391E+01 0.00000E+00
 -1      2898 1.40907E+02 1.54500E+01 0.00000E+00
 -1      2899 1.40907E+02 1.40000E+01 0.00000E+00
 -1      2900 1.40907E+02 2.13375E+01 0.00000E+00
 -1      2901 1.40907E+02 1.98625E+01 0.00000E+00
 -1      2902 1.40827E+02 1.28571E+01 0.00000E+00
 -1      2903 1.40827E+02 1.13821E+01 0.00000E+00
 -1      2904 1.39370E+02 1.12962E+01 0.00000E+00
 -1      2905 1.39529E+02 1.35821E+01 0.00000E+00
 -1      2906 1.40907E+02 1.83937E+01 0.00000E+00
 -1      2907 1.40907E+02 1.69188E+01 0.00000E+00
 -1      2908 1.39608E+02 1.61938E+01 0.00000E+00
 -1      2909 1.39608E+02 1.91313E+01 0.00000E+00
 -1      2910 1.40907E+02 2.72375E+01 0.00000E+00
 -1      2911 1.40907E+02 2.57625E+01 0.00000E+00
 -1      2912 1.40907E+02 3.01375E+01 0.00000E+00
 -1      2913 1.40907E+02 2.86875E+01 0.00000E+00
 -1      2914 1.39608E+02 2.79500E+01 0.00000E+00
 -1      2915 1.40907E+02 3.30875E+01 0.00000E+00
 -1      2916 1.40907E+02 3.16125E+01 0.00000E+00
 -1      2917 1.39608E+02 3.08750E+01 0.00000E+00
 -1      2918 1.40907E+02 3.60375E+01 0.00000E+00
 -1      2919 1.40907E+02 3.45625E+01 0.00000E+00
 -1      2920 1.39608E+02 3.38250E+01 0.00000E+00
 -1      2921 4.24527E+01 2.32136E+01 0.00000E+00
 -1      2922 4.32438E+01 2.41379E+01 0.00000E+00
 -1      2923 4.49231E+01 2.77820E+01 0.00000E+00
 -1      2924 4.51558E+01 2.89951E+01 0.00000E+00
 -1      2925 2.17887E+01 2.65499E+01 0.00000E+00
 -1      2926 2.26052E+01 2.55401E+01 0.00000E+00
 -1      2927 3.09766E+01 4.17039E+01 0.00000E+00
 -1      2928 2.31318E+01 2.45882E+01 0.00000E+00
 -1      2929 2.36585E+01 2.36363E+01 0.00000E+00
 -1      2930 2.20893E+01 2.45803E+01 0.00000E+00
 -1      2931 2.82803E+01 1.92509E+01 0.00000E+00
 -1      2932 2.95711E+01 1.88741E+01 0.00000E+00
 -1      2933 1.40907E+02 2.42875E+01 0.00000E+00
 -1      2934 1.40907E+02 2.28125E+01 0.00000E+00
 -1      2935 1.39608E+02 2.50250E+01 0.00000E+00
 -1      2936 4.14269E+01 4.12323E+01 0.00000E+00
 -1      2937 4.29269E+01 4.12323E+01 0.00000E+00
 -1      2938 4.51873E+01 3.03549E+01 0.00000E+00
 -1      2939 4.51523E+01 3.14519E+01 0.00000E+00
 -1      2940 2.10125E+01 2.94883E+01 0.00000E+00
 -1      2941 2.09426E+01 2.82495E+01 0.00000E+00
 -1      2942 3.60996E+01 1.94346E+01 0.00000E+00
 -1      2943 3.71649E+01 1.96062E+01 0.00000E+00
 -1      2944 3.80257E+01 4.16038E+01 0.00000E+00
 -1      2945 3.71086E+01 4.18387E+01 0.00000E+00
 -1      2946 1.15576E+01 4.08528E+01 0.00000E+00
 -1      2947 1.30576E+01 4.08528E+01 0.00000E+00
 -1      2948 1.38076E+01 3.95538E+01 0.00000E+00
 -1      2949 1.11228E+01 3.94455E+01 0.00000E+00
 -1      2950 4.06964E+01 2.16930E+01 0.00000E+00
 -1      2951 4.14761E+01 2.24266E+01 0.00000E+00
 -1      2952 2.18901E+01 3.43056E+01 0.00000E+00
 -1      2953 2.17932E+01 3.31123E+01 0.00000E+00
 -1      2954 2.42911E+01 2.27087E+01 0.00000E+00
 -1      2955 2.49237E+01 2.17812E+01 0.00000E+00
 -1      2956 2.32486E+01 2.27009E+01 0.00000E+00
 -1      2957 2.57724E+01 2.04698E+01 0.00000E+00
 -1      2958 2.67504E+01 1.97869E+01 0.00000E+00
 -1      2959 9.09300E+00 1.68813E+01 0.00000E+00
 -1      2960 9.09300E+00 1.83563E+01 0.00000E+00
 -1      2961 1.03920E+01 1.90812E+01 0.00000E+00
 -1      2962 1.03920E+01 1.61437E+01 0.00000E+00
 -1      2963 3.56086E+01 4.19225E+01 0.00000E+00
 -1      2964 9.09300E+00 3.15875E+01 0.00000E+00
 -1      2965 9.09300E+00 3.30625E+01 0.00000E+00
 -1      2966 2.61240E+01 8.68250E+00 0.00000E+00
 -1      2967 2.46240E+01 8.68250E+00 0.00000E+00
 -1      2968 2.38740E+01 9.98150E+00 0.00000E+00
 -1      2969 2.68740E+01 9.98150E+00 0.00000E+00
 -1      2970 7.48818E+00 3.88019E+01 0.00000E+00
 -1      2971 4.39167E+01 3.47708E+01 0.00000E+00
 -1      2972 4.36819E+01 3.58265E+01 0.00000E+00
 -1      2973 4.32855E+01 3.70132E+01 0.00000E+00
 -1      2974 4.28197E+01 3.78539E+01 0.00000E+00
 -1      2975 3.40566E+01 1.89460E+01 0.00000E+00
 -1      2976 3.50781E+01 1.91903E+01 0.00000E+00
 -1      2977 3.57471E+01 1.84295E+01 0.00000E+00
 -1      2978 4.49565E+01 3.26780E+01 0.00000E+00
 -1      2979 4.44366E+01 3.37244E+01 0.00000E+00
 -1      2980 4.51155E+01 3.44293E+01 0.00000E+00
 -1      2981 3.95257E+01 4.15201E+01 0.00000E+00
 -1      2982 4.03218E+01 4.10280E+01 0.00000E+00
 -1      2983 1.03920E+01 2.49750E+01 0.00000E+00
 -1      2984 9.09300E+00 2.57000E+01 0.00000E+00
 -1      2985 9.09300E+00 2.71750E+01 0.00000E+00
 -1      2986 9.00375E+00 8.96981E+00 0.00000E+00
 -1      2987 3.82657E+01 1.91015E+01 0.00000E+00
 -1      2988 2.31843E+01 3.77338E+01 0.00000E+00
 -1      2989 4.54378E+01 2.68833E+01 0.00000E+00
 -1      2990 2.25632E+01 3.92682E+01 0.00000E+00
 -1      2991 2.33132E+01 4.05672E+01 0.00000E+00
 -1      2992 4.36769E+01 3.99558E+01 0.00000E+00
 -1      2993 2.48132E+01 4.05672E+01 0.00000E+00
 -1      2994 4.41991E+01 3.66624E+01 0.00000E+00
 -1      2995 2.15725E+01 3.60051E+01 0.00000E+00
 -1      2996 2.17313E+01 3.51554E+01 0.00000E+00
 -1      2997 2.09116E+01 3.46214E+01 0.00000E+00
 -1      2998 8.78718E+00 3.80644E+01 0.00000E+00
 -1      2999 1.39608E+02 2.20750E+01 0.00000E+00
 -1      3000 9.09300E+00 3.45313E+01 0.00000E+00
 -1      3001 9.09300E+00 3.60000E+01 0.00000E+00
 -1      3002 1.03920E+01 3.37938E+01 0.00000E+00
 -1      3003 4.42694E+01 2.42823E+01 0.00000E+00
 -1      3004 4.26505E+01 2.22222E+01 0.00000E+00
 -1      3005 1.41014E+02 3.83658E+01 0.00000E+00
 -1      3006 1.41027E+02 3.71072E+01 0.00000E+00
 -1      3007 1.39728E+02 3.63697E+01 0.00000E+00
 -1      3008 1.39969E+02 3.85092E+01 0.00000E+00
 -1      3009 1.48740E+01 9.98151E+00 0.00000E+00
 -1      3010 1.41240E+01 8.68251E+00 0.00000E+00
 -1      3011 4.59954E+01 2.95710E+01 0.00000E+00
 -1      3012 1.30515E+01 8.34733E+00 0.00000E+00
 -1      3013 2.05484E+01 3.01712E+01 0.00000E+00
 -1      3014 2.92846E+01 1.74041E+01 0.00000E+00
 -1      3015 3.02173E+01 1.81997E+01 0.00000E+00
 -1      3016 3.08635E+01 1.75253E+01 0.00000E+00
 -1      3017 2.07165E+01 2.72318E+01 0.00000E+00
 -1      3018 2.04905E+01 2.62140E+01 0.00000E+00
 -1      3019 1.96443E+01 2.79136E+01 0.00000E+00
 -1      3020 2.63898E+01 4.12696E+01 0.00000E+00
 -1      3021 2.71085E+01 1.86145E+01 0.00000E+00
 -1      3022 4.07183E+01 2.04822E+01 0.00000E+00
 -1      3023 1.03027E+01 9.70731E+00 0.00000E+00
 -1      3024 3.24651E+01 1.75601E+01 0.00000E+00
 -1      3025 3.32608E+01 1.82531E+01 0.00000E+00
 -1      3026 3.39299E+01 1.74922E+01 0.00000E+00
 -1      3027 4.30782E+01 3.89476E+01 0.00000E+00
 -1      3028 9.09300E+00 2.86437E+01 0.00000E+00
 -1      3029 9.09300E+00 3.01187E+01 0.00000E+00
 -1      3030 1.03920E+01 3.08563E+01 0.00000E+00
 -1      3031 1.03920E+01 2.79188E+01 0.00000E+00
 -1      3032 4.58312E+01 3.21568E+01 0.00000E+00
 -1      3033 2.56241E+01 4.07224E+01 0.00000E+00
 -1      3034 2.11484E+01 3.25913E+01 0.00000E+00
 -1      3035 2.47299E+01 2.04619E+01 0.00000E+00
 -1      3036 1.16910E+01 1.24625E+01 0.00000E+00
 -1      3037 1.16910E+01 1.39375E+01 0.00000E+00
 -1      3038 1.14712E+01 7.20138E+00 0.00000E+00
 -1      3039 3.78218E+01 1.78214E+01 0.00000E+00
 -1      3040 3.93189E+01 1.82491E+01 0.00000E+00
 -1      3041 2.17711E+01 3.80736E+01 0.00000E+00
 -1      3042 4.44014E+01 3.88574E+01 0.00000E+00
 -1      3043 2.00615E+01 3.12427E+01 0.00000E+00
 -1      3044 1.93835E+01 3.00029E+01 0.00000E+00
 -1      3045 4.87500E+01 3.85666E+01 0.00000E+00
 -1      3046 5.02500E+01 3.85666E+01 0.00000E+00
 -1      3047 5.17500E+01 3.85666E+01 0.00000E+00
 -1      3048 5.32500E+01 3.85666E+01 0.00000E+00
 -1      3049 5.10000E+01 3.72676E+01 0.00000E+00
 -1      3050 5.47500E+01 3.85666E+01 0.00000E+00
 -1      3051 5.62500E+01 3.85666E+01 0.00000E+00
 -1      3052 5.40000E+01 3.72676E+01 0.00000E+00
 -1      3053 5.77500E+01 3.85666E+01 0.00000E+00
 -1      3054 5.92500E+01 3.85666E+01 0.00000E+00
 -1      3055 5.70000E+01 3.72676E+01 0.00000E+00
 -1      3056 6.07500E+01 3.85666E+01 0.00000E+00
 -1      3057 6.22500E+01 3.85666E+01 0.00000E+00
 -1      3058 6.00000E+01 3.72676E+01 0.00000E+00
 -1      3059 6.37500E+01 3.85666E+01 0.00000E+00
 -1      3060 6.52500E+01 3.85666E+01 0.00000E+00
 -1      3061 6.30000E+01 3.72676E+01 0.00000E+00
 -1      3062 6.67500E+01 3.85666E+01 0.00000E+00
 -1      3063 6.82500E+01 3.85666E+01 0.00000E+00
 -1      3064 6.60000E+01 3.72676E+01 0.00000E+00
 -1      3065 6.97500E+01 3.85666E+01 0.00000E+00
 -1      3066 7.12500E+01 3.85666E+01 0.00000E+00
 -1      3067 6.90000E+01 3.72676E+01 0.00000E+00
 -1      3068 7.27500E+01 3.85666E+01 0.00000E+00
 -1      3069 7.42500E+01 3.85666E+01 0.00000E+00
 -1      3070 7.20000E+01 3.72676E+01 0.00000E+00
 -1      3071 7.57500E+01 3.85666E+01 0.00000E+00
 -1      3072 7.72500E+01 3.85666E+01 0.00000E+00
 -1      3073 7.50000E+01 3.72676E+01 0.00000E+00
 -1      3074 7.87500E+01 3.85666E+01 0.00000E+00
 -1      3075 8.02500E+01 3.85666E+01 0.00000E+00
 -1      3076 7.80000E+01 3.72676E+01 0.00000E+00
 -1      3077 8.17500E+01 3.85666E+01 0.00000E+00
 -1      3078 8.32500E+01 3.85666E+01 0.00000E+00
 -1      3079 8.10000E+01 3.72676E+01 0.00000E+00
 -1      3080 8.47500E+01 3.85666E+01 0.00000E+00
 -1      3081 8.62500E+01 3.85666E+01 0.00000E+00
 -1      3082 8.40000E+01 3.72676E+01 0.00000E+00
 -1      3083 8.77500E+01 3.85666E+01 0.00000E+00
 -1      3084 8.92500E+01 3.85666E+01 0.00000E+00
 -1      3085 8.70000E+01 3.72676E+01 0.00000E+00
 -1      3086 9.07500E+01 3.85666E+01 0.00000E+00
 -1      3087 9.22500E+01 3.85666E+01 0.00000E+00
 -1      3088 9.00000E+01 3.72676E+01 0.00000E+00
 -1      3089 9.37500E+01 3.85666E+01 0.00000E+00
 -1      3090 9.52500E+01 3.85666E+01 0.00000E+00
 -1      3091 9.30000E+01 3.72676E+01 0.00000E+00
 -1      3092 9.67500E+01 3.85666E+01 0.00000E+00
 -1      3093 9.82500E+01 3.85666E+01 0.00000E+00
 -1      3094 9.60000E+01 3.72676E+01 0.00000E+00
 -1      3095 9.97500E+01 3.85666E+01 0.00000E+00
 -1      3096 1.01250E+02 3.85666E+01 0.00000E+00
 -1      3097 9.90000E+01 3.72676E+01 0.00000E+00
 -1      3098 1.02750E+02 3.85666E+01 0.00000E+00
 -1      3099 1.04250E+02 3.85666E+01 0.00000E+00
 -1      3100 1.02000E+02 3.72676E+01 0.00000E+00
 -1      3101 1.05750E+02 3.85666E+01 0.00000E+00
 -1      3102 1.07250E+02 3.85666E+01 0.00000E+00
 -1      3103 1.05000E+02 3.72676E+01 0.00000E+00
 -1      3104 1.08750E+02 3.85666E+01 0.00000E+00
 -1      3105 1.10250E+02 3.85666E+01 0.00000E+00
 -1      3106 1.08000E+02 3.72676E+01 0.00000E+00
 -1      3107 1.11750E+02 3.85666E+01 0.00000E+00
 -1      3108 1.13250E+02 3.85666E+01 0.00000E+00
 -1      3109 1.11000E+02 3.72676E+01 0.00000E+00
 -1      3110 1.14750E+02 3.85666E+01 0.00000E+00
 -1      3111 1.16250E+02 3.85666E+01 0.00000E+00
 -1      3112 1.14000E+02 3.72676E+01 0.00000E+00
 -1      3113 1.17750E+02 3.85666E+01 0.00000E+00
 -1      3114 1.19250E+02 3.85666E+01 0.00000E+00
 -1      3115 1.17000E+02 3.72676E+01 0.00000E+00
 -1      3116 1.20750E+02 3.85666E+01 0.00000E+00
 -1      3117 1.22250E+02 3.85666E+01 0.00000E+00
 -1      3118 1.20000E+02 3.72676E+01 0.00000E+00
 -1      3119 1.23750E+02 3.85666E+01 0.00000E+00
 -1      3120 1.25250E+02 3.85666E+01 0.00000E+00
 -1      3121 1.23000E+02 3.72676E+01 0.00000E+00
 -1      3122 1.26750E+02 3.85666E+01 0.00000E+00
 -1      3123 1.28250E+02 3.85666E+01 0.00000E+00
 -1      3124 1.26000E+02 3.72676E+01 0.00000E+00
 -1      3125 1.29750E+02 3.85666E+01 0.00000E+00
 -1      3126 1.31250E+02 3.85666E+01 0.00000E+00
 -1      3127 1.29000E+02 3.72676E+01 0.00000E+00
 -1      3128 1.32750E+02 3.85666E+01 0.00000E+00
 -1      3129 1.34250E+02 3.85666E+01 0.00000E+00
 -1      3130 1.32000E+02 3.72676E+01 0.00000E+00
 -1      3131 1.35750E+02 3.85666E+01 0.00000E+00
 -1      3132 1.37250E+02 3.85666E+01 0.00000E+00
 -1      3133 1.35000E+02 3.72676E+01 0.00000E+00
 -1      3134 2.16240E+01 1.12805E+01 0.00000E+00
 -1      3135 2.01240E+01 1.12805E+01 0.00000E+00
 -1      3136 1.86240E+01 1.12805E+01 0.00000E+00
 -1      3137 1.71240E+01 1.12805E+01 0.00000E+00
 -1      3138 1.93740E+01 1.25795E+01 0.00000E+00
 -1      3139 3.36240E+01 1.12580E+01 0.00000E+00
 -1      3140 3.21240E+01 1.12580E+01 0.00000E+00
 -1      3141 3.06240E+01 1.12580E+01 0.00000E+00
 -1      3142 2.91240E+01 1.12580E+01 0.00000E+00
 -1      3143 3.13740E+01 1.25345E+01 0.00000E+00
 -1      3144 3.96240E+01 1.12805E+01 0.00000E+00
 -1      3145 3.81240E+01 1.12805E+01 0.00000E+00
 -1      3146 4.26240E+01 1.12805E+01 0.00000E+00
 -1      3147 4.11240E+01 1.12805E+01 0.00000E+00
 -1      3148 4.03740E+01 1.25795E+01 0.00000E+00
 -1      3149 4.56240E+01 1.12805E+01 0.00000E+00
 -1      3150 4.41240E+01 1.12805E+01 0.00000E+00
 -1      3151 4.33740E+01 1.25795E+01 0.00000E+00
 -1      3152 4.86240E+01 1.12805E+01 0.00000E+00
 -1      3153 4.71240E+01 1.12805E+01 0.00000E+00
 -1      3154 4.63740E+01 1.25795E+01 0.00000E+00
 -1      3155 5.16240E+01 1.12805E+01 0.00000E+00
 -1      3156 5.01240E+01 1.12805E+01 0.00000E+00
 -1      3157 4.93740E+01 1.25795E+01 0.00000E+00
 -1      3158 5.46240E+01 1.12805E+01 0.00000E+00
 -1      3159 5.31240E+01 1.12805E+01 0.00000E+00
 -1      3160 5.23740E+01 1.25795E+01 0.00000E+00
 -1      3161 5.76240E+01 1.12805E+01 0.00000E+00
 -1      3162 5.61240E+01 1.12805E+01 0.00000E+00
 -1      3163 5.53740E+01 1.25795E+01 0.00000E+00
 -1      3164 6.06240E+01 1.12805E+01 0.00000E+00
 -1      3165 5.91240E+01 1.12805E+01 0.00000E+00
 -1      3166 5.83740E+01 1.25795E+01 0.00000E+00
 -1      3167 6.36240E+01 1.12805E+01 0.00000E+00
 -1      3168 6.21240E+01 1.12805E+01 0.00000E+00
 -1      3169 6.13740E+01 1.25795E+01 0.00000E+00
 -1      3170 6.66240E+01 1.12805E+01 0.00000E+00
 -1      3171 6.51240E+01 1.12805E+01 0.00000E+00
 -1      3172 6.43740E+01 1.25795E+01 0.00000E+00
 -1      3173 6.96240E+01 1.12805E+01 0.00000E+00
 -1      3174 6.81240E+01 1.12805E+01 0.00000E+00
 -1      3175 6.73740E+01 1.25795E+01 0.00000E+00
 -1      3176 7.26240E+01 1.12805E+01 0.00000E+00
 -1      3177 7.11240E+01 1.12805E+01 0.00000E+00
 -1      3178 7.03740E+01 1.25795E+01 0.00000E+00
 -1      3179 7.56240E+01 1.12805E+01 0.00000E+00
 -1      3180 7.41240E+01 1.12805E+01 0.00000E+00
 -1      3181 7.33740E+01 1.25795E+01 0.00000E+00
 -1      3182 7.86240E+01 1.12805E+01 0.00000E+00
 -1      3183 7.71240E+01 1.12805E+01 0.00000E+00
 -1      3184 7.63740E+01 1.25795E+01 0.00000E+00
 -1      3185 8.16240E+01 1.12805E+01 0.00000E+00
 -1      3186 8.01240E+01 1.12805E+01 0.00000E+00
 -1      3187 7.93740E+01 1.25795E+01 0.00000E+00
 -1      3188 8.46240E+01 1.12805E+01 0.00000E+00
 -1      3189 8.31240E+01 1.12805E+01 0.00000E+00
 -1      3190 8.23740E+01 1.25795E+01 0.00000E+00
 -1      3191 8.76240E+01 1.12805E+01 0.00000E+00
 -1      3192 8.61240E+01 1.12805E+01 0.00000E+00
 -1      3193 8.53740E+01 1.25795E+01 0.00000E+00
 -1      3194 9.06240E+01 1.12805E+01 0.00000E+00
 -1      3195 8.91240E+01 1.12805E+01 0.00000E+00
 -1      3196 8.83740E+01 1.25795E+01 0.00000E+00
 -1      3197 9.36240E+01 1.12805E+01 0.00000E+00
 -1      3198 9.21240E+01 1.12805E+01 0.00000E+00
 -1      3199 9.13740E+01 1.25795E+01 0.00000E+00
 -1      3200 9.66240E+01 1.12805E+01 0.00000E+00
 -1      3201 9.51240E+01 1.12805E+01 0.00000E+00
 -1      3202 9.43740E+01 1.25795E+01 0.00000E+00
 -1      3203 9.96240E+01 1.12805E+01 0.00000E+00
 -1      3204 9.81240E+01 1.12805E+01 0.00000E+00
 -1      3205 9.73740E+01 1.25795E+01 0.00000E+00
 -1      3206 1.02624E+02 1.12805E+01 0.00000E+00
 -1      3207 1.01124E+02 1.12805E+01 0.00000E+00
 -1      3208 1.00374E+02 1.25795E+01 0.00000E+00
 -1      3209 1.05624E+02 1.12805E+01 0.00000E+00
 -1      3210 1.04124E+02 1.12805E+01 0.00000E+00
 -1      3211 1.03374E+02 1.25795E+01 0.00000E+00
 -1      3212 1.08624E+02 1.12805E+01 0.00000E+00
 -1      3213 1.07124E+02 1.12805E+01 0.00000E+00
 -1      3214 1.06374E+02 1.25795E+01 0.00000E+00
 -1      3215 1.11624E+02 1.12805E+01 0.00000E+00
 -1      3216 1.10124E+02 1.12805E+01 0.00000E+00
 -1      3217 1.09374E+02 1.25795E+01 0.00000E+00
 -1      3218 1.14624E+02 1.12805E+01 0.00000E+00
 -1      3219 1.13124E+02 1.12805E+01 0.00000E+00
 -1      3220 1.12374E+02 1.25795E+01 0.00000E+00
 -1      3221 1.17624E+02 1.12805E+01 0.00000E+00
 -1      3222 1.16124E+02 1.12805E+01 0.00000E+00
 -1      3223 1.15374E+02 1.25795E+01 0.00000E+00
 -1      3224 1.20624E+02 1.12805E+01 0.00000E+00
 -1      3225 1.19124E+02 1.12805E+01 0.00000E+00
 -1      3226 1.18374E+02 1.25795E+01 0.00000E+00
 -1      3227 1.23624E+02 1.12805E+01 0.00000E+00
 -1      3228 1.22124E+02 1.12805E+01 0.00000E+00
 -1      3229 1.21374E+02 1.25795E+01 0.00000E+00
 -1      3230 1.26624E+02 1.12805E+01 0.00000E+00
 -1      3231 1.25124E+02 1.12805E+01 0.00000E+00
 -1      3232 1.24374E+02 1.25795E+01 0.00000E+00
 -1      3233 1.29624E+02 1.12805E+01 0.00000E+00
 -1      3234 1.28124E+02 1.12805E+01 0.00000E+00
 -1      3235 1.27374E+02 1.25795E+01 0.00000E+00
 -1      3236 1.32624E+02 1.12805E+01 0.00000E+00
 -1      3237 1.31124E+02 1.12805E+01 0.00000E+00
 -1      3238 1.30374E+02 1.25795E+01 0.00000E+00
 -1      3239 1.35624E+02 1.12805E+01 0.00000E+00
 -1      3240 1.34124E+02 1.12805E+01 0.00000E+00
 -1      3241 1.33374E+02 1.25795E+01 0.00000E+00
 -1      3242 1.38226E+02 1.13313E+01 0.00000E+00
 -1      3243 1.36768E+02 1.12454E+01 0.00000E+00
 -1      3244 1.36018E+02 1.25444E+01 0.00000E+00
 -1      3245 1.38305E+02 1.24742E+01 0.00000E+00
 -1      3246 1.38309E+02 3.16125E+01 0.00000E+00
 -1      3247 1.38309E+02 3.01375E+01 0.00000E+00
 -1      3248 1.38309E+02 2.28125E+01 0.00000E+00
 -1      3249 1.38309E+02 2.13375E+01 0.00000E+00
 -1      3250 4.52902E+01 3.63673E+01 0.00000E+00
 -1      3251 4.48938E+01 3.75541E+01 0.00000E+00
 -1      3252 2.20162E+01 2.25398E+01 0.00000E+00
 -1      3253 2.26487E+01 2.16123E+01 0.00000E+00
 -1      3254 1.38309E+02 3.45625E+01 0.00000E+00
 -1      3255 1.38309E+02 3.30875E+01 0.00000E+00
 -1      3256 1.37010E+02 3.23500E+01 0.00000E+00
 -1      3257 1.38309E+02 2.86875E+01 0.00000E+00
 -1      3258 1.38309E+02 2.72375E+01 0.00000E+00
 -1      3259 1.37010E+02 2.94250E+01 0.00000E+00
 -1      3260 4.63300E+01 3.42745E+01 0.00000E+00
 -1      3261 4.58101E+01 3.53209E+01 0.00000E+00
 -1      3262 4.65047E+01 3.62125E+01 0.00000E+00
 -1      3263 4.70045E+01 2.88673E+01 0.00000E+00
 -1      3264 4.70360E+01 3.02271E+01 0.00000E+00
 -1      3265 2.59769E+01 1.78359E+01 0.00000E+00
 -1      3266 2.75068E+01 1.72999E+01 0.00000E+00
 -1      3267 1.17938E+01 8.83558E+00 0.00000E+00
 -1      3268 1.38309E+02 2.57625E+01 0.00000E+00
 -1      3269 1.38309E+02 2.42875E+01 0.00000E+00
 -1      3270 1.37010E+02 2.35500E+01 0.00000E+00
 -1      3271 1.37010E+02 2.65000E+01 0.00000E+00
 -1      3272 3.66240E+01 1.12805E+01 0.00000E+00
 -1      3273 3.51240E+01 1.12805E+01 0.00000E+00
 -1      3274 3.73740E+01 1.25795E+01 0.00000E+00
 -1      3275 2.09628E+01 2.44436E+01 0.00000E+00
 -1      3276 2.14895E+01 2.34917E+01 0.00000E+00
 -1      3277 2.08897E+01 2.24031E+01 0.00000E+00
 -1      3278 1.59000E+01 3.83315E+01 0.00000E+00
 -1      3279 1.74000E+01 3.83315E+01 0.00000E+00
 -1      3280 4.67759E+01 3.16790E+01 0.00000E+00
 -1      3281 4.65801E+01 3.29050E+01 0.00000E+00
 -1      3282 4.54924E+01 3.85623E+01 0.00000E+00
 -1      3283 4.29106E+01 2.09000E+01 0.00000E+00
 -1      3284 4.38871E+01 2.16870E+01 0.00000E+00
 -1      3285 1.00862E+01 3.73269E+01 0.00000E+00
 -1      3286 1.18830E+01 1.08533E+01 0.00000E+00
 -1      3287 4.61278E+01 2.58418E+01 0.00000E+00
 -1      3288 4.66539E+01 2.71697E+01 0.00000E+00
 -1      3289 2.34974E+01 2.03008E+01 0.00000E+00
 -1      3290 2.43461E+01 1.89894E+01 0.00000E+00
 -1      3291 2.22650E+01 2.01398E+01 0.00000E+00
 -1      3292 4.09995E+01 1.89940E+01 0.00000E+00
 -1      3293 4.19550E+01 1.99470E+01 0.00000E+00
 -1      3294 4.31917E+01 1.94118E+01 0.00000E+00
 -1      3295 1.99055E+01 3.36034E+01 0.00000E+00
 -1      3296 1.99835E+01 3.24231E+01 0.00000E+00
 -1      3297 1.88186E+01 3.22548E+01 0.00000E+00
 -1      3298 4.49383E+01 2.31462E+01 0.00000E+00
 -1      3299 4.55806E+01 2.44193E+01 0.00000E+00
 -1      3300 1.16910E+01 2.12875E+01 0.00000E+00
 -1      3301 1.16910E+01 2.27625E+01 0.00000E+00
 -1      3302 3.57787E+01 1.73327E+01 0.00000E+00
 -1      3303 3.68002E+01 1.75771E+01 0.00000E+00
 -1      3304 3.78534E+01 1.67247E+01 0.00000E+00
 -1      3305 2.03007E+01 3.85738E+01 0.00000E+00
 -1      3306 2.09218E+01 3.70394E+01 0.00000E+00
 -1      3307 2.01021E+01 3.65054E+01 0.00000E+00
 -1      3308 1.88007E+01 3.85738E+01 0.00000E+00
 -1      3309 1.31820E+01 1.15908E+01 0.00000E+00
 -1      3310 1.16910E+01 2.42375E+01 0.00000E+00
 -1      3311 1.16910E+01 2.57125E+01 0.00000E+00
 -1      3312 1.29900E+01 2.35000E+01 0.00000E+00
 -1      3313 1.82068E+01 3.01147E+01 0.00000E+00
 -1      3314 1.86937E+01 2.90431E+01 0.00000E+00
 -1      3315 1.46820E+01 1.15907E+01 0.00000E+00
 -1      3316 4.69924E+01 3.85623E+01 0.00000E+00
 -1      3317 4.77424E+01 3.72633E+01 0.00000E+00
 -1      3318 2.31240E+01 1.12805E+01 0.00000E+00
 -1      3319 2.23740E+01 1.25795E+01 0.00000E+00
 -1      3320 2.46240E+01 1.12805E+01 0.00000E+00
 -1      3321 1.38924E+02 3.86525E+01 0.00000E+00
 -1      3322 1.97467E+01 3.44531E+01 0.00000E+00
 -1      3323 1.54320E+01 1.28897E+01 0.00000E+00
 -1      3324 3.43740E+01 1.25570E+01 0.00000E+00
 -1      3325 1.37010E+02 2.06063E+01 0.00000E+00
 -1      3326 1.38309E+02 1.98687E+01 0.00000E+00
 -1      3327 1.38309E+02 1.84000E+01 0.00000E+00
 -1      3328 1.16910E+01 3.30594E+01 0.00000E+00
 -1      3329 1.16910E+01 3.45281E+01 0.00000E+00
 -1      3330 4.51983E+01 2.18241E+01 0.00000E+00
 -1      3331 1.80507E+01 3.72973E+01 0.00000E+00
 -1      3332 1.16910E+01 1.54063E+01 0.00000E+00
 -1      3333 1.16910E+01 1.68750E+01 0.00000E+00
 -1      3334 1.29900E+01 1.46687E+01 0.00000E+00
 -1      3335 1.14286E+01 3.73811E+01 0.00000E+00
 -1      3336 4.72747E+01 3.37967E+01 0.00000E+00
 -1      3337 4.76945E+01 2.78258E+01 0.00000E+00
 -1      3338 2.70214E+01 1.58470E+01 0.00000E+00
 -1      3339 2.81530E+01 1.66255E+01 0.00000E+00
 -1      3340 2.87992E+01 1.59511E+01 0.00000E+00
 -1      3341 4.77850E+01 3.09753E+01 0.00000E+00
 -1      3342 1.84676E+01 2.80254E+01 0.00000E+00
 -1      3343 1.38464E+02 1.47601E+01 0.00000E+00
 -1      3344 1.38385E+02 1.36172E+01 0.00000E+00
 -1      3345 1.37241E+02 1.36523E+01 0.00000E+00
 -1      3346 4.67967E+01 2.47057E+01 0.00000E+00
 -1      3347 1.98906E+01 2.51255E+01 0.00000E+00
 -1      3348 1.92908E+01 2.40369E+01 0.00000E+00
 -1      3349 1.88184E+01 2.58073E+01 0.00000E+00
 -1      3350 4.05555E+01 1.77139E+01 0.00000E+00
 -1      3351 1.45576E+01 3.82774E+01 0.00000E+00
 -1      3352 1.53076E+01 3.70009E+01 0.00000E+00
 -1      3353 1.32152E+01 3.82232E+01 0.00000E+00
 -1      3354 3.15325E+01 1.67645E+01 0.00000E+00
 -1      3355 1.16910E+01 1.98188E+01 0.00000E+00
 -1      3356 1.29900E+01 2.05562E+01 0.00000E+00
 -1      3357 1.16910E+01 1.83500E+01 0.00000E+00
 -1      3358 2.47445E+01 1.76749E+01 0.00000E+00
 -1      3359 2.51428E+01 1.63603E+01 0.00000E+00
 -1      3360 2.35121E+01 1.75138E+01 0.00000E+00
 -1      3361 1.38464E+02 1.62288E+01 0.00000E+00
 -1      3362 2.76240E+01 1.12692E+01 0.00000E+00
 -1      3363 2.61240E+01 1.12692E+01 0.00000E+00
 -1      3364 2.53740E+01 1.25682E+01 0.00000E+00
 -1      3365 2.83740E+01 1.25457E+01 0.00000E+00
 -1      3366 1.38054E+02 3.62838E+01 0.00000E+00
 -1      3367 1.36755E+02 3.55463E+01 0.00000E+00
 -1      3368 1.16910E+01 3.01219E+01 0.00000E+00
 -1      3369 1.16910E+01 3.15906E+01 0.00000E+00
 -1      3370 1.29900E+01 3.23250E+01 0.00000E+00
 -1      3371 1.38174E+02 3.73535E+01 0.00000E+00
 -1      3372 1.76512E+01 3.12418E+01 0.00000E+00
 -1      3373 1.69614E+01 3.02819E+01 0.00000E+00
 -1      3374 2.01240E+01 1.38785E+01 0.00000E+00
 -1      3375 1.86240E+01 1.38785E+01 0.00000E+00
 -1      3376 3.51048E+01 1.38446E+01 0.00000E+00
 -1      3377 3.36048E+01 1.38221E+01 0.00000E+00
 -1      3378 4.02416E+01 1.61538E+01 0.00000E+00
 -1      3379 4.19222E+01 1.68987E+01 0.00000E+00
 -1      3380 1.95827E+01 2.23017E+01 0.00000E+00
 -1      3381 2.01094E+01 2.13498E+01 0.00000E+00
 -1      3382 5.32500E+01 3.59686E+01 0.00000E+00
 -1      3383 5.47500E+01 3.59686E+01 0.00000E+00
 -1      3384 5.62500E+01 3.59686E+01 0.00000E+00
 -1      3385 5.77500E+01 3.59686E+01 0.00000E+00
 -1      3386 5.55000E+01 3.46696E+01 0.00000E+00
 -1      3387 5.92500E+01 3.59686E+01 0.00000E+00
 -1      3388 6.07500E+01 3.59686E+01 0.00000E+00
 -1      3389 5.85000E+01 3.46696E+01 0.00000E+00
 -1      3390 6.22500E+01 3.59686E+01 0.00000E+00
 -1      3391 6.37500E+01 3.59686E+01 0.00000E+00
 -1      3392 6.15000E+01 3.46696E+01 0.00000E+00
 -1      3393 6.52500E+01 3.59686E+01 0.00000E+00
 -1      3394 6.67500E+01 3.59686E+01 0.00000E+00
 -1      3395 6.45000E+01 3.46696E+01 0.00000E+00
 -1      3396 6.82500E+01 3.59686E+01 0.00000E+00
 -1      3397 6.97500E+01 3.59686E+01 0.00000E+00
 -1      3398 6.75000E+01 3.46696E+01 0.00000E+00
 -1      3399 7.12500E+01 3.59686E+01 0.00000E+00
 -1      3400 7.27500E+01 3.59686E+01 0.00000E+00
 -1      3401 7.05000E+01 3.46696E+01 0.00000E+00
 -1      3402 7.42500E+01 3.59686E+01 0.00000E+00
 -1      3403 7.57500E+01 3.59686E+01 0.00000E+00
 -1      3404 7.35000E+01 3.46696E+01 0.00000E+00
 -1      3405 7.72500E+01 3.59686E+01 0.00000E+00
 -1      3406 7.87500E+01 3.59686E+01 0.00000E+00
 -1      3407 7.65000E+01 3.46696E+01 0.00000E+00
 -1      3408 8.02500E+01 3.59686E+01 0.00000E+00
 -1      3409 8.17500E+01 3.59686E+01 0.00000E+00
 -1      3410 7.95000E+01 3.46696E+01 0.00000E+00
 -1      3411 8.32500E+01 3.59686E+01 0.00000E+00
 -1      3412 8.47500E+01 3.59686E+01 0.00000E+00
 -1      3413 8.25000E+01 3.46696E+01 0.00000E+00
 -1      3414 8.62500E+01 3.59686E+01 0.00000E+00
 -1      3415 8.77500E+01 3.59686E+01 0.00000E+00
 -1      3416 8.55000E+01 3.46696E+01 0.00000E+00
 -1      3417 8.92500E+01 3.59686E+01 0.00000E+00
 -1      3418 9.07500E+01 3.59686E+01 0.00000E+00
 -1      3419 8.85000E+01 3.46696E+01 0.00000E+00
 -1      3420 9.22500E+01 3.59686E+01 0.00000E+00
 -1      3421 9.37500E+01 3.59686E+01 0.00000E+00
 -1      3422 9.15000E+01 3.46696E+01 0.00000E+00
 -1      3423 9.52500E+01 3.59686E+01 0.00000E+00
 -1      3424 9.67500E+01 3.59686E+01 0.00000E+00
 -1      3425 9.45000E+01 3.46696E+01 0.00000E+00
 -1      3426 9.82500E+01 3.59686E+01 0.00000E+00
 -1      3427 9.97500E+01 3.59686E+01 0.00000E+00
 -1      3428 9.75000E+01 3.46696E+01 0.00000E+00
 -1      3429 1.01250E+02 3.59686E+01 0.00000E+00
 -1      3430 1.02750E+02 3.59686E+01 0.00000E+00
 -1      3431 1.00500E+02 3.46696E+01 0.00000E+00
 -1      3432 1.04250E+02 3.59686E+01 0.00000E+00
 -1      3433 1.05750E+02 3.59686E+01 0.00000E+00
 -1      3434 1.03500E+02 3.46696E+01 0.00000E+00
 -1      3435 1.07250E+02 3.59686E+01 0.00000E+00
 -1      3436 1.08750E+02 3.59686E+01 0.00000E+00
 -1      3437 1.06500E+02 3.46696E+01 0.00000E+00
 -1      3438 1.10250E+02 3.59686E+01 0.00000E+00
 -1      3439 1.11750E+02 3.59686E+01 0.00000E+00
 -1      3440 1.09500E+02 3.46696E+01 0.00000E+00
 -1      3441 1.13250E+02 3.59686E+01 0.00000E+00
 -1      3442 1.14750E+02 3.59686E+01 0.00000E+00
 -1      3443 1.12500E+02 3.46696E+01 0.00000E+00
 -1      3444 1.16250E+02 3.59686E+01 0.00000E+00
 -1      3445 1.17750E+02 3.59686E+01 0.00000E+00
 -1      3446 1.15500E+02 3.46696E+01 0.00000E+00
 -1      3447 1.19250E+02 3.59686E+01 0.00000E+00
 -1      3448 1.20750E+02 3.59686E+01 0.00000E+00
 -1      3449 1.18500E+02 3.46696E+01 0.00000E+00
 -1      3450 1.22250E+02 3.59686E+01 0.00000E+00
 -1      3451 1.23750E+02 3.59686E+01 0.00000E+00
 -1      3452 1.21500E+02 3.46696E+01 0.00000E+00
 -1      3453 1.25250E+02 3.59686E+01 0.00000E+00
 -1      3454 1.26750E+02 3.59686E+01 0.00000E+00
 -1      3455 1.24500E+02 3.46696E+01 0.00000E+00
 -1      3456 1.28250E+02 3.59686E+01 0.00000E+00
 -1      3457 1.29750E+02 3.59686E+01 0.00000E+00
 -1      3458 1.27500E+02 3.46696E+01 0.00000E+00
 -1      3459 1.31250E+02 3.59686E+01 0.00000E+00
 -1      3460 1.32750E+02 3.59686E+01 0.00000E+00
 -1      3461 1.30500E+02 3.46696E+01 0.00000E+00
 -1      3462 1.34003E+02 3.57575E+01 0.00000E+00
 -1      3463 1.35503E+02 3.57575E+01 0.00000E+00
 -1      3464 1.35758E+02 3.40362E+01 0.00000E+00
 -1      3465 1.33253E+02 3.44585E+01 0.00000E+00
 -1      3466 4.32411E+01 1.39591E+01 0.00000E+00
 -1      3467 4.17411E+01 1.39591E+01 0.00000E+00
 -1      3468 4.02411E+01 1.39591E+01 0.00000E+00
 -1      3469 5.01240E+01 1.38785E+01 0.00000E+00
 -1      3470 4.86240E+01 1.38785E+01 0.00000E+00
 -1      3471 5.31240E+01 1.38785E+01 0.00000E+00
 -1      3472 5.16240E+01 1.38785E+01 0.00000E+00
 -1      3473 5.08740E+01 1.51775E+01 0.00000E+00
 -1      3474 5.61240E+01 1.38785E+01 0.00000E+00
 -1      3475 5.46240E+01 1.38785E+01 0.00000E+00
 -1      3476 5.38740E+01 1.51775E+01 0.00000E+00
 -1      3477 5.91240E+01 1.38785E+01 0.00000E+00
 -1      3478 5.76240E+01 1.38785E+01 0.00000E+00
 -1      3479 5.68740E+01 1.51775E+01 0.00000E+00
 -1      3480 6.21240E+01 1.38785E+01 0.00000E+00
 -1      3481 6.06240E+01 1.38785E+01 0.00000E+00
 -1      3482 5.98740E+01 1.51775E+01 0.00000E+00
 -1      3483 6.51240E+01 1.38785E+01 0.00000E+00
 -1      3484 6.36240E+01 1.38785E+01 0.00000E+00
 -1      3485 6.28740E+01 1.51775E+01 0.00000E+00
 -1      3486 6.81240E+01 1.38785E+01 0.00000E+00
 -1      3487 6.66240E+01 1.38785E+01 0.00000E+00
 -1      3488 6.58740E+01 1.51775E+01 0.00000E+00
 -1      3489 7.11240E+01 1.38785E+01 0.00000E+00
 -1      3490 6.96240E+01 1.38785E+01 0.00000E+00
 -1      3491 6.88740E+01 1.51775E+01 0.00000E+00
 -1      3492 7.41240E+01 1.38785E+01 0.00000E+00
 -1      3493 7.26240E+01 1.38785E+01 0.00000E+00
 -1      3494 7.18740E+01 1.51775E+01 0.00000E+00
 -1      3495 7.71240E+01 1.38785E+01 0.00000E+00
 -1      3496 7.56240E+01 1.38785E+01 0.00000E+00
 -1      3497 7.48740E+01 1.51775E+01 0.00000E+00
 -1      3498 8.01240E+01 1.38785E+01 0.00000E+00
 -1      3499 7.86240E+01 1.38785E+01 0.00000E+00
 -1      3500 7.78740E+01 1.51775E+01 0.00000E+00
 -1      3501 8.31240E+01 1.38785E+01 0.00000E+00
 -1      3502 8.16240E+01 1.38785E+01 0.00000E+00
 -1      3503 8.08740E+01 1.51775E+01 0.00000E+00
 -1      3504 8.61240E+01 1.38785E+01 0.00000E+00
 -1      3505 8.46240E+01 1.38785E+01 0.00000E+00
 -1      3506 8.38740E+01 1.51775E+01 0.00000E+00
 -1      3507 8.91240E+01 1.38785E+01 0.00000E+00
 -1      3508 8.76240E+01 1.38785E+01 0.00000E+00
 -1      3509 8.68740E+01 1.51775E+01 0.00000E+00
 -1      3510 9.21240E+01 1.38785E+01 0.00000E+00
 -1      3511 9.06240E+01 1.38785E+01 0.00000E+00
 -1      3512 8.98740E+01 1.51775E+01 0.00000E+00
 -1      3513 9.51240E+01 1.38785E+01 0.00000E+00
 -1      3514 9.36240E+01 1.38785E+01 0.00000E+00
 -1      3515 9.28740E+01 1.51775E+01 0.00000E+00
 -1      3516 9.81240E+01 1.38785E+01 0.00000E+00
 -1      3517 9.66240E+01 1.38785E+01 0.00000E+00
 -1      3518 9.58740E+01 1.51775E+01 0.00000E+00
 -1      3519 1.01124E+02 1.38785E+01 0.00000E+00
 -1      3520 9.96240E+01 1.38785E+01 0.00000E+00
 -1      3521 9.88740E+01 1.51775E+01 0.00000E+00
 -1      3522 1.04124E+02 1.38785E+01 0.00000E+00
 -1      3523 1.02624E+02 1.38785E+01 0.00000E+00
 -1      3524 1.01874E+02 1.51775E+01 0.00000E+00
 -1      3525 1.07124E+02 1.38785E+01 0.00000E+00
 -1      3526 1.05624E+02 1.38785E+01 0.00000E+00
 -1      3527 1.04874E+02 1.51775E+01 0.00000E+00
 -1      3528 1.10124E+02 1.38785E+01 0.00000E+00
 -1      3529 1.08624E+02 1.38785E+01 0.00000E+00
 -1      3530 1.07874E+02 1.51775E+01 0.00000E+00
 -1      3531 1.13124E+02 1.38785E+01 0.00000E+00
 -1      3532 1.11624E+02 1.38785E+01 0.00000E+00
 -1      3533 1.10874E+02 1.51775E+01 0.00000E+00
 -1      3534 1.16124E+02 1.38785E+01 0.00000E+00
 -1      3535 1.14624E+02 1.38785E+01 0.00000E+00
 -1      3536 1.13874E+02 1.51775E+01 0.00000E+00
 -1      3537 1.19124E+02 1.38785E+01 0.00000E+00
 -1      3538 1.17624E+02 1.38785E+01 0.00000E+00
 -1      3539 1.16874E+02 1.51775E+01 0.00000E+00
 -1      3540 1.22124E+02 1.38785E+01 0.00000E+00
 -1      3541 1.20624E+02 1.38785E+01 0.00000E+00
 -1      3542 1.19874E+02 1.51775E+01 0.00000E+00
 -1      3543 1.25124E+02 1.38785E+01 0.00000E+00
 -1      3544 1.23624E+02 1.38785E+01 0.00000E+00
 -1      3545 1.22874E+02 1.51775E+01 0.00000E+00
 -1      3546 1.28124E+02 1.38785E+01 0.00000E+00
 -1      3547 1.26624E+02 1.38785E+01 0.00000E+00
 -1      3548 1.25874E+02 1.51775E+01 0.00000E+00
 -1      3549 1.31124E+02 1.38785E+01 0.00000E+00
 -1      3550 1.29624E+02 1.38785E+01 0.00000E+00
 -1      3551 1.28874E+02 1.51775E+01 0.00000E+00
 -1      3552 1.34124E+02 1.38785E+01 0.00000E+00
 -1      3553 1.32624E+02 1.38785E+01 0.00000E+00
 -1      3554 1.31874E+02 1.51775E+01 0.00000E+00
 -1      3555 4.76362E+01 2.35663E+01 0.00000E+00
 -1      3556 4.81834E+01 2.49887E+01 0.00000E+00
 -1      3557 3.81240E+01 1.36884E+01 0.00000E+00
 -1      3558 3.66240E+01 1.36884E+01 0.00000E+00
 -1      3559 1.34776E+01 3.53702E+01 0.00000E+00
 -1      3560 1.21786E+01 3.61046E+01 0.00000E+00
 -1      3561 4.57268E+01 2.03352E+01 0.00000E+00
 -1      3562 4.67779E+01 2.17944E+01 0.00000E+00
 -1      3563 4.82623E+01 3.62169E+01 0.00000E+00
 -1      3564 4.35561E+01 1.80908E+01 0.00000E+00
 -1      3565 4.45117E+01 1.90438E+01 0.00000E+00
 -1      3566 1.35758E+02 3.25612E+01 0.00000E+00
 -1      3567 1.35758E+02 3.10862E+01 0.00000E+00
 -1      3568 1.34505E+02 3.27723E+01 0.00000E+00
 -1      3569 1.35758E+02 2.96362E+01 0.00000E+00
 -1      3570 1.35758E+02 2.81862E+01 0.00000E+00
 -1      3571 1.34505E+02 2.98473E+01 0.00000E+00
 -1      3572 4.90890E+01 3.04598E+01 0.00000E+00
 -1      3573 4.88289E+01 3.19117E+01 0.00000E+00
 -1      3574 1.85733E+01 3.63923E+01 0.00000E+00
 -1      3575 1.92240E+01 3.53581E+01 0.00000E+00
 -1      3576 1.82179E+01 3.43401E+01 0.00000E+00
 -1      3577 1.71726E+01 3.61501E+01 0.00000E+00
 -1      3578 4.87913E+01 2.67142E+01 0.00000E+00
 -1      3579 4.91420E+01 2.84119E+01 0.00000E+00
 -1      3580 3.45306E+01 1.66474E+01 0.00000E+00
 -1      3581 3.55838E+01 1.57950E+01 0.00000E+00
 -1      3582 1.16910E+01 2.71844E+01 0.00000E+00
 -1      3583 1.16910E+01 2.86531E+01 0.00000E+00
 -1      3584 1.29900E+01 2.93875E+01 0.00000E+00
 -1      3585 1.69171E+01 2.80663E+01 0.00000E+00
 -1      3586 1.78678E+01 2.69368E+01 0.00000E+00
 -1      3587 1.72679E+01 2.58482E+01 0.00000E+00
 -1      3588 1.75732E+01 3.24221E+01 0.00000E+00
 -1      3589 4.85788E+01 3.32811E+01 0.00000E+00
 -1      3590 4.83287E+01 3.46505E+01 0.00000E+00
 -1      3591 4.98829E+01 3.27655E+01 0.00000E+00
 -1      3592 3.04009E+01 1.59859E+01 0.00000E+00
 -1      3593 3.20026E+01 1.60207E+01 0.00000E+00
 -1      3594 2.92693E+01 1.52074E+01 0.00000E+00
 -1      3595 2.09581E+01 2.00383E+01 0.00000E+00
 -1      3596 2.18068E+01 1.87269E+01 0.00000E+00
 -1      3597 1.96511E+01 1.99369E+01 0.00000E+00
 -1      3598 4.66826E+01 1.39188E+01 0.00000E+00
 -1      3599 4.51826E+01 1.39188E+01 0.00000E+00
 -1      3600 4.35497E+01 1.52984E+01 0.00000E+00
 -1      3601 4.74326E+01 1.52178E+01 0.00000E+00
 -1      3602 1.37165E+02 1.69663E+01 0.00000E+00
 -1      3603 1.70280E+01 1.41185E+01 0.00000E+00
 -1      3604 1.45860E+01 1.44288E+01 0.00000E+00
 -1      3605 1.45860E+01 1.58975E+01 0.00000E+00
 -1      3606 1.77780E+01 1.54175E+01 0.00000E+00
 -1      3607 3.37349E+01 1.59545E+01 0.00000E+00
 -1      3608 3.71030E+01 1.56388E+01 0.00000E+00
 -1      3609 3.81245E+01 1.58831E+01 0.00000E+00
 -1      3610 3.26033E+01 1.51759E+01 0.00000E+00
 -1      3611 3.18725E+01 1.38883E+01 0.00000E+00
 -1      3612 4.95664E+01 3.57013E+01 0.00000E+00
 -1      3613 3.58548E+01 1.49535E+01 0.00000E+00
 -1      3614 1.35711E+02 2.42875E+01 0.00000E+00
 -1      3615 1.35711E+02 2.28125E+01 0.00000E+00
 -1      3616 3.03725E+01 1.38883E+01 0.00000E+00
 -1      3617 4.38636E+01 1.68584E+01 0.00000E+00
 -1      3618 2.38922E+01 1.43894E+01 0.00000E+00
 -1      3619 2.23922E+01 1.43894E+01 0.00000E+00
 -1      3620 3.94911E+01 1.50680E+01 0.00000E+00
 -1      3621 1.35758E+02 2.67112E+01 0.00000E+00
 -1      3622 1.35711E+02 2.13438E+01 0.00000E+00
 -1      3623 1.35711E+02 1.98750E+01 0.00000E+00
 -1      3624 1.34412E+02 2.20812E+01 0.00000E+00
 -1      3625 4.96309E+01 2.55748E+01 0.00000E+00
 -1      3626 4.81647E+01 2.20774E+01 0.00000E+00
 -1      3627 1.36097E+02 1.36873E+01 0.00000E+00
 -1      3628 1.35347E+02 1.49863E+01 0.00000E+00
 -1      3629 2.87708E+01 1.38535E+01 0.00000E+00
 -1      3630 2.16422E+01 1.56884E+01 0.00000E+00
 -1      3631 2.72708E+01 1.38648E+01 0.00000E+00
 -1      3632 5.01859E+01 2.93482E+01 0.00000E+00
 -1      3633 4.60913E+01 1.90142E+01 0.00000E+00
 -1      3634 1.29900E+01 2.64469E+01 0.00000E+00
 -1      3635 1.29900E+01 1.76125E+01 0.00000E+00
 -1      3636 1.42890E+01 2.27625E+01 0.00000E+00
 -1      3637 1.42890E+01 2.42375E+01 0.00000E+00
 -1      3638 1.35192E+02 1.71575E+01 0.00000E+00
 -1      3639 1.85105E+01 2.29835E+01 0.00000E+00
 -1      3640 1.46539E+01 3.57331E+01 0.00000E+00
 -1      3641 1.59963E+01 3.57872E+01 0.00000E+00
 -1      3642 1.65190E+01 3.48823E+01 0.00000E+00
 -1      3643 1.41663E+01 3.41566E+01 0.00000E+00
 -1      3644 1.46979E+01 3.11326E+01 0.00000E+00
 -1      3645 1.46979E+01 3.26014E+01 0.00000E+00
 -1      3646 5.02500E+01 3.60750E+01 0.00000E+00
 -1      3647 5.17500E+01 3.60750E+01 0.00000E+00
 -1      3648 1.42890E+01 1.98250E+01 0.00000E+00
 -1      3649 1.42890E+01 2.12938E+01 0.00000E+00
 -1      3650 1.55880E+01 2.20313E+01 0.00000E+00
 -1      3651 1.58742E+01 3.29642E+01 0.00000E+00
 -1      3652 5.25000E+01 3.47760E+01 0.00000E+00
 -1      3653 2.53922E+01 1.43781E+01 0.00000E+00
 -1      3654 1.56890E+01 3.03552E+01 0.00000E+00
 -1      3655 1.62445E+01 2.92281E+01 0.00000E+00
 -1      3656 5.47500E+01 3.33706E+01 0.00000E+00
 -1      3657 5.62500E+01 3.33706E+01 0.00000E+00
 -1      3658 5.77500E+01 3.33706E+01 0.00000E+00
 -1      3659 5.92500E+01 3.33706E+01 0.00000E+00
 -1      3660 5.70000E+01 3.20716E+01 0.00000E+00
 -1      3661 6.07500E+01 3.33706E+01 0.00000E+00
 -1      3662 6.22500E+01 3.33706E+01 0.00000E+00
 -1      3663 6.00000E+01 3.20716E+01 0.00000E+00
 -1      3664 6.37500E+01 3.33706E+01 0.00000E+00
 -1      3665 6.52500E+01 3.33706E+01 0.00000E+00
 -1      3666 6.30000E+01 3.20716E+01 0.00000E+00
 -1      3667 6.67500E+01 3.33706E+01 0.00000E+00
 -1      3668 6.82500E+01 3.33706E+01 0.00000E+00
 -1      3669 6.60000E+01 3.20716E+01 0.00000E+00
 -1      3670 6.97500E+01 3.33706E+01 0.00000E+00
 -1      3671 7.12500E+01 3.33706E+01 0.00000E+00
 -1      3672 6.90000E+01 3.20716E+01 0.00000E+00
 -1      3673 7.27500E+01 3.33706E+01 0.00000E+00
 -1      3674 7.42500E+01 3.33706E+01 0.00000E+00
 -1      3675 7.20000E+01 3.20716E+01 0.00000E+00
 -1      3676 7.57500E+01 3.33706E+01 0.00000E+00
 -1      3677 7.72500E+01 3.33706E+01 0.00000E+00
 -1      3678 7.50000E+01 3.20716E+01 0.00000E+00
 -1      3679 7.87500E+01 3.33706E+01 0.00000E+00
 -1      3680 8.02500E+01 3.33706E+01 0.00000E+00
 -1      3681 7.80000E+01 3.20716E+01 0.00000E+00
 -1      3682 8.17500E+01 3.33706E+01 0.00000E+00
 -1      3683 8.32500E+01 3.33706E+01 0.00000E+00
 -1      3684 8.10000E+01 3.20716E+01 0.00000E+00
 -1      3685 8.47500E+01 3.33706E+01 0.00000E+00
 -1      3686 8.62500E+01 3.33706E+01 0.00000E+00
 -1      3687 8.40000E+01 3.20716E+01 0.00000E+00
 -1      3688 8.77500E+01 3.33706E+01 0.00000E+00
 -1      3689 8.92500E+01 3.33706E+01 0.00000E+00
 -1      3690 8.70000E+01 3.20716E+01 0.00000E+00
 -1      3691 9.07500E+01 3.33706E+01 0.00000E+00
 -1      3692 9.22500E+01 3.33706E+01 0.00000E+00
 -1      3693 9.00000E+01 3.20716E+01 0.00000E+00
 -1      3694 9.37500E+01 3.33706E+01 0.00000E+00
 -1      3695 9.52500E+01 3.33706E+01 0.00000E+00
 -1      3696 9.30000E+01 3.20716E+01 0.00000E+00
 -1      3697 9.67500E+01 3.33706E+01 0.00000E+00
 -1      3698 9.82500E+01 3.33706E+01 0.00000E+00
 -1      3699 9.60000E+01 3.20716E+01 0.00000E+00
 -1      3700 9.97500E+01 3.33706E+01 0.00000E+00
 -1      3701 1.01250E+02 3.33706E+01 0.00000E+00
 -1      3702 9.90000E+01 3.20716E+01 0.00000E+00
 -1      3703 1.02750E+02 3.33706E+01 0.00000E+00
 -1      3704 1.04250E+02 3.33706E+01 0.00000E+00
 -1      3705 1.02000E+02 3.20716E+01 0.00000E+00
 -1      3706 1.05750E+02 3.33706E+01 0.00000E+00
 -1      3707 1.07250E+02 3.33706E+01 0.00000E+00
 -1      3708 1.05000E+02 3.20716E+01 0.00000E+00
 -1      3709 1.08750E+02 3.33706E+01 0.00000E+00
 -1      3710 1.10250E+02 3.33706E+01 0.00000E+00
 -1      3711 1.08000E+02 3.20716E+01 0.00000E+00
 -1      3712 1.11750E+02 3.33706E+01 0.00000E+00
 -1      3713 1.13250E+02 3.33706E+01 0.00000E+00
 -1      3714 1.11000E+02 3.20716E+01 0.00000E+00
 -1      3715 1.14750E+02 3.33706E+01 0.00000E+00
 -1      3716 1.16250E+02 3.33706E+01 0.00000E+00
 -1      3717 1.14000E+02 3.20716E+01 0.00000E+00
 -1      3718 1.17750E+02 3.33706E+01 0.00000E+00
 -1      3719 1.19250E+02 3.33706E+01 0.00000E+00
 -1      3720 1.17000E+02 3.20716E+01 0.00000E+00
 -1      3721 1.20750E+02 3.33706E+01 0.00000E+00
 -1      3722 1.22250E+02 3.33706E+01 0.00000E+00
 -1      3723 1.20000E+02 3.20716E+01 0.00000E+00
 -1      3724 1.23750E+02 3.33706E+01 0.00000E+00
 -1      3725 1.25250E+02 3.33706E+01 0.00000E+00
 -1      3726 1.23000E+02 3.20716E+01 0.00000E+00
 -1      3727 1.26750E+02 3.33706E+01 0.00000E+00
 -1      3728 1.28250E+02 3.33706E+01 0.00000E+00
 -1      3729 1.26000E+02 3.20716E+01 0.00000E+00
 -1      3730 1.29750E+02 3.33706E+01 0.00000E+00
 -1      3731 1.31250E+02 3.33706E+01 0.00000E+00
 -1      3732 1.29000E+02 3.20716E+01 0.00000E+00
 -1      3733 1.32251E+02 3.31771E+01 0.00000E+00
 -1      3734 1.33504E+02 3.29659E+01 0.00000E+00
 -1      3735 1.33504E+02 3.14909E+01 0.00000E+00
 -1      3736 1.31501E+02 3.18781E+01 0.00000E+00
 -1      3737 5.76240E+01 1.64765E+01 0.00000E+00
 -1      3738 5.61240E+01 1.64765E+01 0.00000E+00
 -1      3739 1.34458E+02 2.59737E+01 0.00000E+00
 -1      3740 5.46240E+01 1.64765E+01 0.00000E+00
 -1      3741 5.31240E+01 1.64765E+01 0.00000E+00
 -1      3742 5.53740E+01 1.77755E+01 0.00000E+00
 -1      3743 5.16240E+01 1.64765E+01 0.00000E+00
 -1      3744 5.01240E+01 1.64765E+01 0.00000E+00
 -1      3745 5.23740E+01 1.77755E+01 0.00000E+00
 -1      3746 6.06240E+01 1.64765E+01 0.00000E+00
 -1      3747 5.91240E+01 1.64765E+01 0.00000E+00
 -1      3748 5.83740E+01 1.77755E+01 0.00000E+00
 -1      3749 6.36240E+01 1.64765E+01 0.00000E+00
 -1      3750 6.21240E+01 1.64765E+01 0.00000E+00
 -1      3751 6.13740E+01 1.77755E+01 0.00000E+00
 -1      3752 6.66240E+01 1.64765E+01 0.00000E+00
 -1      3753 6.51240E+01 1.64765E+01 0.00000E+00
 -1      3754 6.43740E+01 1.77755E+01 0.00000E+00
 -1      3755 6.96240E+01 1.64765E+01 0.00000E+00
 -1      3756 6.81240E+01 1.64765E+01 0.00000E+00
 -1      3757 6.73740E+01 1.77755E+01 0.00000E+00
 -1      3758 7.26240E+01 1.64765E+01 0.00000E+00
 -1      3759 7.11240E+01 1.64765E+01 0.00000E+00
 -1      3760 7.03740E+01 1.77755E+01 0.00000E+00
 -1      3761 7.56240E+01 1.64765E+01 0.00000E+00
 -1      3762 7.41240E+01 1.64765E+01 0.00000E+00
 -1      3763 7.33740E+01 1.77755E+01 0.00000E+00
 -1      3764 7.86240E+01 1.64765E+01 0.00000E+00
 -1      3765 7.71240E+01 1.64765E+01 0.00000E+00
 -1      3766 7.63740E+01 1.77755E+01 0.00000E+00
 -1      3767 8.16240E+01 1.64765E+01 0.00000E+00
 -1      3768 8.01240E+01 1.64765E+01 0.00000E+00
 -1      3769 7.93740E+01 1.77755E+01 0.00000E+00
 -1      3770 8.46240E+01 1.64765E+01 0.00000E+00
 -1      3771 8.31240E+01 1.64765E+01 0.00000E+00
 -1      3772 8.23740E+01 1.77755E+01 0.00000E+00
 -1      3773 8.76240E+01 1.64765E+01 0.00000E+00
 -1      3774 8.61240E+01 1.64765E+01 0.00000E+00
 -1      3775 8.53740E+01 1.77755E+01 0.00000E+00
 -1      3776 9.06240E+01 1.64765E+01 0.00000E+00
 -1      3777 8.91240E+01 1.64765E+01 0.00000E+00
 -1      3778 8.83740E+01 1.77755E+01 0.00000E+00
 -1      3779 9.36240E+01 1.64765E+01 0.00000E+00
 -1      3780 9.21240E+01 1.64765E+01 0.00000E+00
 -1      3781 9.13740E+01 1.77755E+01 0.00000E+00
 -1      3782 9.66240E+01 1.64765E+01 0.00000E+00
 -1      3783 9.51240E+01 1.64765E+01 0.00000E+00
 -1      3784 9.43740E+01 1.77755E+01 0.00000E+00
 -1      3785 9.96240E+01 1.64765E+01 0.00000E+00
 -1      3786 9.81240E+01 1.64765E+01 0.00000E+00
 -1      3787 9.73740E+01 1.77755E+01 0.00000E+00
 -1      3788 1.02624E+02 1.64765E+01 0.00000E+00
 -1      3789 1.01124E+02 1.64765E+01 0.00000E+00
 -1      3790 1.00374E+02 1.77755E+01 0.00000E+00
 -1      3791 1.05624E+02 1.64765E+01 0.00000E+00
 -1      3792 1.04124E+02 1.64765E+01 0.00000E+00
 -1      3793 1.03374E+02 1.77755E+01 0.00000E+00
 -1      3794 1.08624E+02 1.64765E+01 0.00000E+00
 -1      3795 1.07124E+02 1.64765E+01 0.00000E+00
 -1      3796 1.06374E+02 1.77755E+01 0.00000E+00
 -1      3797 1.11624E+02 1.64765E+01 0.00000E+00
 -1      3798 1.10124E+02 1.64765E+01 0.00000E+00
 -1      3799 1.09374E+02 1.77755E+01 0.00000E+00
 -1      3800 1.14624E+02 1.64765E+01 0.00000E+00
 -1      3801 1.13124E+02 1.64765E+01 0.00000E+00
 -1      3802 1.12374E+02 1.77755E+01 0.00000E+00
 -1      3803 1.17624E+02 1.64765E+01 0.00000E+00
 -1      3804 1.16124E+02 1.64765E+01 0.00000E+00
 -1      3805 1.15374E+02 1.77755E+01 0.00000E+00
 -1      3806 1.20624E+02 1.64765E+01 0.00000E+00
 -1      3807 1.19124E+02 1.64765E+01 0.00000E+00
 -1      3808 1.18374E+02 1.77755E+01 0.00000E+00
 -1      3809 1.23624E+02 1.64765E+01 0.00000E+00
 -1      3810 1.22124E+02 1.64765E+01 0.00000E+00
 -1      3811 1.21374E+02 1.77755E+01 0.00000E+00
 -1      3812 1.26624E+02 1.64765E+01 0.00000E+00
 -1      3813 1.25124E+02 1.64765E+01 0.00000E+00
 -1      3814 1.24374E+02 1.77755E+01 0.00000E+00
 -1      3815 1.29624E+02 1.64765E+01 0.00000E+00
 -1      3816 1.28124E+02 1.64765E+01 0.00000E+00
 -1      3817 1.27374E+02 1.77755E+01 0.00000E+00
 -1      3818 1.32624E+02 1.64765E+01 0.00000E+00
 -1      3819 1.31124E+02 1.64765E+01 0.00000E+00
 -1      3820 1.30374E+02 1.77755E+01 0.00000E+00
 -1      3821 1.33504E+02 3.00409E+01 0.00000E+00
 -1      3822 1.33504E+02 2.85909E+01 0.00000E+00
 -1      3823 1.32503E+02 3.02345E+01 0.00000E+00
 -1      3824 4.89046E+01 2.06252E+01 0.00000E+00
 -1      3825 4.97629E+01 2.23970E+01 0.00000E+00
 -1      3826 2.22051E+01 1.74124E+01 0.00000E+00
 -1      3827 1.70416E+01 3.39773E+01 0.00000E+00
 -1      3828 1.56447E+01 2.81396E+01 0.00000E+00
 -1      3829 1.99369E+01 1.69015E+01 0.00000E+00
 -1      3830 1.89960E+01 1.85392E+01 0.00000E+00
 -1      3831 1.84331E+01 1.68152E+01 0.00000E+00
 -1      3832 1.68371E+01 1.70552E+01 0.00000E+00
 -1      3833 1.81473E+01 1.98506E+01 0.00000E+00
 -1      3834 1.45860E+01 1.73725E+01 0.00000E+00
 -1      3835 1.34442E+02 1.84565E+01 0.00000E+00
 -1      3836 4.84302E+01 1.64964E+01 0.00000E+00
 -1      3837 4.64888E+01 1.65367E+01 0.00000E+00
 -1      3838 5.15109E+01 2.83578E+01 0.00000E+00
 -1      3839 5.14580E+01 3.04057E+01 0.00000E+00
 -1      3840 5.03164E+01 3.45086E+01 0.00000E+00
 -1      3841 1.59526E+01 2.52388E+01 0.00000E+00
 -1      3842 1.69033E+01 2.41094E+01 0.00000E+00
 -1      3843 2.66246E+01 1.45392E+01 0.00000E+00
 -1      3844 4.61813E+01 1.77690E+01 0.00000E+00
 -1      3845 4.73964E+01 1.90604E+01 0.00000E+00
 -1      3846 1.71952E+01 2.23742E+01 0.00000E+00
 -1      3847 5.05309E+01 2.42879E+01 0.00000E+00
 -1      3848 5.11388E+01 2.60134E+01 0.00000E+00
 -1      3849 5.08496E+01 3.35839E+01 0.00000E+00
 -1      3850 5.15332E+01 3.39576E+01 0.00000E+00
 -1      3851 5.30332E+01 3.38513E+01 0.00000E+00
 -1      3852 5.10997E+01 3.22145E+01 0.00000E+00
 -1      3853 1.46536E+01 2.59763E+01 0.00000E+00
 -1      3854 1.71952E+01 2.09054E+01 0.00000E+00
 -1      3855 1.39810E+01 3.00788E+01 0.00000E+00
 -1      3856 5.12708E+01 2.28356E+01 0.00000E+00
 -1      3857 4.91802E+01 1.77954E+01 0.00000E+00
 -1      3858 1.33113E+02 2.28156E+01 0.00000E+00
 -1      3859 1.33113E+02 2.13469E+01 0.00000E+00
 -1      3860 1.33183E+02 2.72104E+01 0.00000E+00
 -1      3861 1.33136E+02 2.47867E+01 0.00000E+00
 -1      3862 1.32182E+02 2.74040E+01 0.00000E+00
 -1      3863 5.24247E+01 3.12241E+01 0.00000E+00
 -1      3864 4.90902E+01 1.90405E+01 0.00000E+00
 -1      3865 4.51836E+01 1.64905E+01 0.00000E+00
 -1      3866 5.06884E+01 1.93601E+01 0.00000E+00
 -1      3867 1.65401E+01 1.95077E+01 0.00000E+00
 -1      3868 1.46536E+01 2.74482E+01 0.00000E+00
 -1      3869 5.24109E+01 2.70709E+01 0.00000E+00
 -1      3870 5.36830E+01 2.81284E+01 0.00000E+00
 -1      3871 5.33109E+01 2.57840E+01 0.00000E+00
 -1      3872 1.39810E+01 2.86101E+01 0.00000E+00
 -1      3873 5.37832E+01 3.25523E+01 0.00000E+00
 -1      3874 1.31837E+02 2.40524E+01 0.00000E+00
 -1      3875 5.41415E+01 3.07435E+01 0.00000E+00
 -1      3876 5.46623E+01 2.94359E+01 0.00000E+00
 -1      3877 5.60208E+01 3.07641E+01 0.00000E+00
 -1      3878 5.75208E+01 3.07641E+01 0.00000E+00
 -1      3879 5.55623E+01 2.81490E+01 0.00000E+00
 -1      3880 5.92500E+01 3.07726E+01 0.00000E+00
 -1      3881 6.07500E+01 3.07726E+01 0.00000E+00
 -1      3882 6.22500E+01 3.07726E+01 0.00000E+00
 -1      3883 6.37500E+01 3.07726E+01 0.00000E+00
 -1      3884 6.15000E+01 2.94736E+01 0.00000E+00
 -1      3885 6.52500E+01 3.07726E+01 0.00000E+00
 -1      3886 6.67500E+01 3.07726E+01 0.00000E+00
 -1      3887 6.45000E+01 2.94736E+01 0.00000E+00
 -1      3888 6.82500E+01 3.07726E+01 0.00000E+00
 -1      3889 6.97500E+01 3.07726E+01 0.00000E+00
 -1      3890 6.75000E+01 2.94736E+01 0.00000E+00
 -1      3891 7.12500E+01 3.07726E+01 0.00000E+00
 -1      3892 7.27500E+01 3.07726E+01 0.00000E+00
 -1      3893 7.05000E+01 2.94736E+01 0.00000E+00
 -1      3894 7.42500E+01 3.07726E+01 0.00000E+00
 -1      3895 7.57500E+01 3.07726E+01 0.00000E+00
 -1      3896 7.35000E+01 2.94736E+01 0.00000E+00
 -1      3897 7.72500E+01 3.07726E+01 0.00000E+00
 -1      3898 7.87500E+01 3.07726E+01 0.00000E+00
 -1      3899 7.65000E+01 2.94736E+01 0.00000E+00
 -1      3900 8.02500E+01 3.07726E+01 0.00000E+00
 -1      3901 8.17500E+01 3.07726E+01 0.00000E+00
 -1      3902 7.95000E+01 2.94736E+01 0.00000E+00
 -1      3903 8.32500E+01 3.07726E+01 0.00000E+00
 -1      3904 8.47500E+01 3.07726E+01 0.00000E+00
 -1      3905 8.25000E+01 2.94736E+01 0.00000E+00
 -1      3906 8.62500E+01 3.07726E+01 0.00000E+00
 -1      3907 8.77500E+01 3.07726E+01 0.00000E+00
 -1      3908 8.55000E+01 2.94736E+01 0.00000E+00
 -1      3909 8.92500E+01 3.07726E+01 0.00000E+00
 -1      3910 9.07500E+01 3.07726E+01 0.00000E+00
 -1      3911 8.85000E+01 2.94736E+01 0.00000E+00
 -1      3912 9.22500E+01 3.07726E+01 0.00000E+00
 -1      3913 9.37500E+01 3.07726E+01 0.00000E+00
 -1      3914 9.15000E+01 2.94736E+01 0.00000E+00
 -1      3915 9.52500E+01 3.07726E+01 0.00000E+00
 -1      3916 9.67500E+01 3.07726E+01 0.00000E+00
 -1      3917 9.45000E+01 2.94736E+01 0.00000E+00
 -1      3918 9.82500E+01 3.07726E+01 0.00000E+00
 -1      3919 9.97500E+01 3.07726E+01 0.00000E+00
 -1      3920 9.75000E+01 2.94736E+01 0.00000E+00
 -1      3921 1.01250E+02 3.07726E+01 0.00000E+00
 -1      3922 1.02750E+02 3.07726E+01 0.00000E+00
 -1      3923 1.00500E+02 2.94736E+01 0.00000E+00
 -1      3924 1.04250E+02 3.07726E+01 0.00000E+00
 -1      3925 1.05750E+02 3.07726E+01 0.00000E+00
 -1      3926 1.03500E+02 2.94736E+01 0.00000E+00
 -1      3927 1.07250E+02 3.07726E+01 0.00000E+00
 -1      3928 1.08750E+02 3.07726E+01 0.00000E+00
 -1      3929 1.06500E+02 2.94736E+01 0.00000E+00
 -1      3930 1.10250E+02 3.07726E+01 0.00000E+00
 -1      3931 1.11750E+02 3.07726E+01 0.00000E+00
 -1      3932 1.09500E+02 2.94736E+01 0.00000E+00
 -1      3933 1.13250E+02 3.07726E+01 0.00000E+00
 -1      3934 1.14750E+02 3.07726E+01 0.00000E+00
 -1      3935 1.12500E+02 2.94736E+01 0.00000E+00
 -1      3936 1.16250E+02 3.07726E+01 0.00000E+00
 -1      3937 1.17750E+02 3.07726E+01 0.00000E+00
 -1      3938 1.15500E+02 2.94736E+01 0.00000E+00
 -1      3939 1.19250E+02 3.07726E+01 0.00000E+00
 -1      3940 1.20750E+02 3.07726E+01 0.00000E+00
 -1      3941 1.18500E+02 2.94736E+01 0.00000E+00
 -1      3942 1.22250E+02 3.07726E+01 0.00000E+00
 -1      3943 1.23750E+02 3.07726E+01 0.00000E+00
 -1      3944 1.21500E+02 2.94736E+01 0.00000E+00
 -1      3945 1.25250E+02 3.07726E+01 0.00000E+00
 -1      3946 1.26750E+02 3.07726E+01 0.00000E+00
 -1      3947 1.24500E+02 2.94736E+01 0.00000E+00
 -1      3948 1.28250E+02 3.07726E+01 0.00000E+00
 -1      3949 1.29750E+02 3.07726E+01 0.00000E+00
 -1      3950 1.27500E+02 2.94736E+01 0.00000E+00
 -1      3951 1.30626E+02 3.06004E+01 0.00000E+00
 -1      3952 1.31627E+02 3.04068E+01 0.00000E+00
 -1      3953 1.31627E+02 2.89568E+01 0.00000E+00
 -1      3954 1.29876E+02 2.93014E+01 0.00000E+00
 -1      3955 1.31306E+02 2.75763E+01 0.00000E+00
 -1      3956 5.61240E+01 1.90745E+01 0.00000E+00
 -1      3957 5.46240E+01 1.90745E+01 0.00000E+00
 -1      3958 5.34062E+01 1.92173E+01 0.00000E+00
 -1      3959 5.19062E+01 1.92173E+01 0.00000E+00
 -1      3960 5.17206E+01 2.08020E+01 0.00000E+00
 -1      3961 5.41562E+01 2.05163E+01 0.00000E+00
 -1      3962 6.51240E+01 1.90745E+01 0.00000E+00
 -1      3963 6.36240E+01 1.90745E+01 0.00000E+00
 -1      3964 6.81240E+01 1.90745E+01 0.00000E+00
 -1      3965 6.66240E+01 1.90745E+01 0.00000E+00
 -1      3966 6.58740E+01 2.03735E+01 0.00000E+00
 -1      3967 7.11240E+01 1.90745E+01 0.00000E+00
 -1      3968 6.96240E+01 1.90745E+01 0.00000E+00
 -1      3969 6.88740E+01 2.03735E+01 0.00000E+00
 -1      3970 7.41240E+01 1.90745E+01 0.00000E+00
 -1      3971 7.26240E+01 1.90745E+01 0.00000E+00
 -1      3972 7.18740E+01 2.03735E+01 0.00000E+00
 -1      3973 7.71240E+01 1.90745E+01 0.00000E+00
 -1      3974 7.56240E+01 1.90745E+01 0.00000E+00
 -1      3975 7.48740E+01 2.03735E+01 0.00000E+00
 -1      3976 8.01240E+01 1.90745E+01 0.00000E+00
 -1      3977 7.86240E+01 1.90745E+01 0.00000E+00
 -1      3978 7.78740E+01 2.03735E+01 0.00000E+00
 -1      3979 8.31240E+01 1.90745E+01 0.00000E+00
 -1      3980 8.16240E+01 1.90745E+01 0.00000E+00
 -1      3981 8.08740E+01 2.03735E+01 0.00000E+00
 -1      3982 8.61240E+01 1.90745E+01 0.00000E+00
 -1      3983 8.46240E+01 1.90745E+01 0.00000E+00
 -1      3984 8.38740E+01 2.03735E+01 0.00000E+00
 -1      3985 8.91240E+01 1.90745E+01 0.00000E+00
 -1      3986 8.76240E+01 1.90745E+01 0.00000E+00
 -1      3987 8.68740E+01 2.03735E+01 0.00000E+00
 -1      3988 9.21240E+01 1.90745E+01 0.00000E+00
 -1      3989 9.06240E+01 1.90745E+01 0.00000E+00
 -1      3990 8.98740E+01 2.03735E+01 0.00000E+00
 -1      3991 9.51240E+01 1.90745E+01 0.00000E+00
 -1      3992 9.36240E+01 1.90745E+01 0.00000E+00
 -1      3993 9.28740E+01 2.03735E+01 0.00000E+00
 -1      3994 9.81240E+01 1.90745E+01 0.00000E+00
 -1      3995 9.66240E+01 1.90745E+01 0.00000E+00
 -1      3996 9.58740E+01 2.03735E+01 0.00000E+00
 -1      3997 1.01124E+02 1.90745E+01 0.00000E+00
 -1      3998 9.96240E+01 1.90745E+01 0.00000E+00
 -1      3999 9.88740E+01 2.03735E+01 0.00000E+00
 -1      4000 1.04124E+02 1.90745E+01 0.00000E+00
 -1      4001 1.02624E+02 1.90745E+01 0.00000E+00
 -1      4002 1.01874E+02 2.03735E+01 0.00000E+00
 -1      4003 1.07124E+02 1.90745E+01 0.00000E+00
 -1      4004 1.05624E+02 1.90745E+01 0.00000E+00
 -1      4005 1.04874E+02 2.03735E+01 0.00000E+00
 -1      4006 1.10124E+02 1.90745E+01 0.00000E+00
 -1      4007 1.08624E+02 1.90745E+01 0.00000E+00
 -1      4008 1.07874E+02 2.03735E+01 0.00000E+00
 -1      4009 1.13124E+02 1.90745E+01 0.00000E+00
 -1      4010 1.11624E+02 1.90745E+01 0.00000E+00
 -1      4011 1.10874E+02 2.03735E+01 0.00000E+00
 -1      4012 1.16124E+02 1.90745E+01 0.00000E+00
 -1      4013 1.14624E+02 1.90745E+01 0.00000E+00
 -1      4014 1.13874E+02 2.03735E+01 0.00000E+00
 -1      4015 1.19124E+02 1.90745E+01 0.00000E+00
 -1      4016 1.17624E+02 1.90745E+01 0.00000E+00
 -1      4017 1.16874E+02 2.03735E+01 0.00000E+00
 -1      4018 1.22124E+02 1.90745E+01 0.00000E+00
 -1      4019 1.20624E+02 1.90745E+01 0.00000E+00
 -1      4020 1.19874E+02 2.03735E+01 0.00000E+00
 -1      4021 1.25124E+02 1.90745E+01 0.00000E+00
 -1      4022 1.23624E+02 1.90745E+01 0.00000E+00
 -1      4023 1.22874E+02 2.03735E+01 0.00000E+00
 -1      4024 1.28124E+02 1.90745E+01 0.00000E+00
 -1      4025 1.26624E+02 1.90745E+01 0.00000E+00
 -1      4026 1.25874E+02 2.03735E+01 0.00000E+00
 -1      4027 1.33143E+02 1.91940E+01 0.00000E+00
 -1      4028 5.24886E+01 2.26928E+01 0.00000E+00
 -1      4029 6.21240E+01 1.90745E+01 0.00000E+00
 -1      4030 6.06240E+01 1.90745E+01 0.00000E+00
 -1      4031 6.28740E+01 2.03735E+01 0.00000E+00
 -1      4032 5.91240E+01 1.90745E+01 0.00000E+00
 -1      4033 5.76240E+01 1.90745E+01 0.00000E+00
 -1      4034 5.98740E+01 2.03735E+01 0.00000E+00
 -1      4035 1.31844E+02 1.99284E+01 0.00000E+00
 -1      4036 1.58850E+01 1.81100E+01 0.00000E+00
 -1      4037 1.30550E+02 2.50534E+01 0.00000E+00
 -1      4038 1.30527E+02 2.30823E+01 0.00000E+00
 -1      4039 1.30435E+02 2.15053E+01 0.00000E+00
 -1      4040 1.30465E+02 1.93525E+01 0.00000E+00
 -1      4041 1.28965E+02 1.93525E+01 0.00000E+00
 -1      4042 1.29148E+02 2.25064E+01 0.00000E+00
 -1      4043 1.29936E+02 2.79538E+01 0.00000E+00
 -1      4044 1.30490E+02 2.64010E+01 0.00000E+00
 -1      4045 1.29180E+02 2.54309E+01 0.00000E+00
 -1      4046 1.29060E+02 2.81261E+01 0.00000E+00
 -1      4047 5.68740E+01 2.03735E+01 0.00000E+00
 -1      4048 1.28215E+02 2.06515E+01 0.00000E+00
 -1      4049 5.82708E+01 2.94651E+01 0.00000E+00
 -1      4050 5.39585E+01 2.21333E+01 0.00000E+00
 -1      4051 5.35087E+01 2.41670E+01 0.00000E+00
 -1      4052 5.47808E+01 2.52245E+01 0.00000E+00
 -1      4053 5.51763E+01 2.19905E+01 0.00000E+00
 -1      4054 5.61124E+01 2.67166E+01 0.00000E+00
 -1      4055 5.70916E+01 2.80241E+01 0.00000E+00
 -1      4056 6.07500E+01 2.81746E+01 0.00000E+00
 -1      4057 6.22500E+01 2.81746E+01 0.00000E+00
 -1      4058 6.37500E+01 2.81746E+01 0.00000E+00
 -1      4059 6.52500E+01 2.81746E+01 0.00000E+00
 -1      4060 6.30000E+01 2.68756E+01 0.00000E+00
 -1      4061 6.67500E+01 2.81746E+01 0.00000E+00
 -1      4062 6.82500E+01 2.81746E+01 0.00000E+00
 -1      4063 6.60000E+01 2.68756E+01 0.00000E+00
 -1      4064 6.97500E+01 2.81746E+01 0.00000E+00
 -1      4065 7.12500E+01 2.81746E+01 0.00000E+00
 -1      4066 6.90000E+01 2.68756E+01 0.00000E+00
 -1      4067 7.27500E+01 2.81746E+01 0.00000E+00
 -1      4068 7.42500E+01 2.81746E+01 0.00000E+00
 -1      4069 7.20000E+01 2.68756E+01 0.00000E+00
 -1      4070 7.57500E+01 2.81746E+01 0.00000E+00
 -1      4071 7.72500E+01 2.81746E+01 0.00000E+00
 -1      4072 7.50000E+01 2.68756E+01 0.00000E+00
 -1      4073 7.87500E+01 2.81746E+01 0.00000E+00
 -1      4074 8.02500E+01 2.81746E+01 0.00000E+00
 -1      4075 7.80000E+01 2.68756E+01 0.00000E+00
 -1      4076 8.17500E+01 2.81746E+01 0.00000E+00
 -1      4077 8.32500E+01 2.81746E+01 0.00000E+00
 -1      4078 8.10000E+01 2.68756E+01 0.00000E+00
 -1      4079 8.47500E+01 2.81746E+01 0.00000E+00
 -1      4080 8.62500E+01 2.81746E+01 0.00000E+00
 -1      4081 8.40000E+01 2.68756E+01 0.00000E+00
 -1      4082 8.77500E+01 2.81746E+01 0.00000E+00
 -1      4083 8.92500E+01 2.81746E+01 0.00000E+00
 -1      4084 8.70000E+01 2.68756E+01 0.00000E+00
 -1      4085 9.07500E+01 2.81746E+01 0.00000E+00
 -1      4086 9.22500E+01 2.81746E+01 0.00000E+00
 -1      4087 9.00000E+01 2.68756E+01 0.00000E+00
 -1      4088 9.37500E+01 2.81746E+01 0.00000E+00
 -1      4089 9.52500E+01 2.81746E+01 0.00000E+00
 -1      4090 9.30000E+01 2.68756E+01 0.00000E+00
 -1      4091 9.67500E+01 2.81746E+01 0.00000E+00
 -1      4092 9.82500E+01 2.81746E+01 0.00000E+00
 -1      4093 9.60000E+01 2.68756E+01 0.00000E+00
 -1      4094 9.97500E+01 2.81746E+01 0.00000E+00
 -1      4095 1.01250E+02 2.81746E+01 0.00000E+00
 -1      4096 9.90000E+01 2.68756E+01 0.00000E+00
 -1      4097 1.02750E+02 2.81746E+01 0.00000E+00
 -1      4098 1.04250E+02 2.81746E+01 0.00000E+00
 -1      4099 1.02000E+02 2.68756E+01 0.00000E+00
 -1      4100 1.05750E+02 2.81746E+01 0.00000E+00
 -1      4101 1.07250E+02 2.81746E+01 0.00000E+00
 -1      4102 1.05000E+02 2.68756E+01 0.00000E+00
 -1      4103 1.08750E+02 2.81746E+01 0.00000E+00
 -1      4104 1.10250E+02 2.81746E+01 0.00000E+00
 -1      4105 1.08000E+02 2.68756E+01 0.00000E+00
 -1      4106 1.11750E+02 2.81746E+01 0.00000E+00
 -1      4107 1.13250E+02 2.81746E+01 0.00000E+00
 -1      4108 1.11000E+02 2.68756E+01 0.00000E+00
 -1      4109 1.14750E+02 2.81746E+01 0.00000E+00
 -1      4110 1.16250E+02 2.81746E+01 0.00000E+00
 -1      4111 1.14000E+02 2.68756E+01 0.00000E+00
 -1      4112 1.17750E+02 2.81746E+01 0.00000E+00
 -1      4113 1.19250E+02 2.81746E+01 0.00000E+00
 -1      4114 1.17000E+02 2.68756E+01 0.00000E+00
 -1      4115 1.20750E+02 2.81746E+01 0.00000E+00
 -1      4116 1.22250E+02 2.81746E+01 0.00000E+00
 -1      4117 1.20000E+02 2.68756E+01 0.00000E+00
 -1      4118 1.23750E+02 2.81746E+01 0.00000E+00
 -1      4119 1.25250E+02 2.81746E+01 0.00000E+00
 -1      4120 1.23000E+02 2.68756E+01 0.00000E+00
 -1      4121 1.26405E+02 2.81504E+01 0.00000E+00
 -1      4122 1.27905E+02 2.81504E+01 0.00000E+00
 -1      4123 1.27965E+02 2.68028E+01 0.00000E+00
 -1      4124 1.25655E+02 2.68514E+01 0.00000E+00
 -1      4125 5.66763E+01 2.19905E+01 0.00000E+00
 -1      4126 7.26240E+01 2.16725E+01 0.00000E+00
 -1      4127 7.11240E+01 2.16725E+01 0.00000E+00
 -1      4128 6.66240E+01 2.16725E+01 0.00000E+00
 -1      4129 6.51240E+01 2.16725E+01 0.00000E+00
 -1      4130 7.56240E+01 2.16725E+01 0.00000E+00
 -1      4131 7.41240E+01 2.16725E+01 0.00000E+00
 -1      4132 7.33740E+01 2.29715E+01 0.00000E+00
 -1      4133 7.86240E+01 2.16725E+01 0.00000E+00
 -1      4134 7.71240E+01 2.16725E+01 0.00000E+00
 -1      4135 7.63740E+01 2.29715E+01 0.00000E+00
 -1      4136 8.16240E+01 2.16725E+01 0.00000E+00
 -1      4137 8.01240E+01 2.16725E+01 0.00000E+00
 -1      4138 7.93740E+01 2.29715E+01 0.00000E+00
 -1      4139 8.46240E+01 2.16725E+01 0.00000E+00
 -1      4140 8.31240E+01 2.16725E+01 0.00000E+00
 -1      4141 8.23740E+01 2.29715E+01 0.00000E+00
 -1      4142 8.76240E+01 2.16725E+01 0.00000E+00
 -1      4143 8.61240E+01 2.16725E+01 0.00000E+00
 -1      4144 8.53740E+01 2.29715E+01 0.00000E+00
 -1      4145 9.06240E+01 2.16725E+01 0.00000E+00
 -1      4146 8.91240E+01 2.16725E+01 0.00000E+00
 -1      4147 8.83740E+01 2.29715E+01 0.00000E+00
 -1      4148 9.36240E+01 2.16725E+01 0.00000E+00
 -1      4149 9.21240E+01 2.16725E+01 0.00000E+00
 -1      4150 9.13740E+01 2.29715E+01 0.00000E+00
 -1      4151 9.66240E+01 2.16725E+01 0.00000E+00
 -1      4152 9.51240E+01 2.16725E+01 0.00000E+00
 -1      4153 9.43740E+01 2.29715E+01 0.00000E+00
 -1      4154 9.96240E+01 2.16725E+01 0.00000E+00
 -1      4155 9.81240E+01 2.16725E+01 0.00000E+00
 -1      4156 9.73740E+01 2.29715E+01 0.00000E+00
 -1      4157 1.02624E+02 2.16725E+01 0.00000E+00
 -1      4158 1.01124E+02 2.16725E+01 0.00000E+00
 -1      4159 1.00374E+02 2.29715E+01 0.00000E+00
 -1      4160 1.05624E+02 2.16725E+01 0.00000E+00
 -1      4161 1.04124E+02 2.16725E+01 0.00000E+00
 -1      4162 1.03374E+02 2.29715E+01 0.00000E+00
 -1      4163 1.08624E+02 2.16725E+01 0.00000E+00
 -1      4164 1.07124E+02 2.16725E+01 0.00000E+00
 -1      4165 1.06374E+02 2.29715E+01 0.00000E+00
 -1      4166 1.11624E+02 2.16725E+01 0.00000E+00
 -1      4167 1.10124E+02 2.16725E+01 0.00000E+00
 -1      4168 1.09374E+02 2.29715E+01 0.00000E+00
 -1      4169 1.14624E+02 2.16725E+01 0.00000E+00
 -1      4170 1.13124E+02 2.16725E+01 0.00000E+00
 -1      4171 1.12374E+02 2.29715E+01 0.00000E+00
 -1      4172 1.17624E+02 2.16725E+01 0.00000E+00
 -1      4173 1.16124E+02 2.16725E+01 0.00000E+00
 -1      4174 1.15374E+02 2.29715E+01 0.00000E+00
 -1      4175 1.20624E+02 2.16725E+01 0.00000E+00
 -1      4176 1.19124E+02 2.16725E+01 0.00000E+00
 -1      4177 1.18374E+02 2.29715E+01 0.00000E+00
 -1      4178 1.23624E+02 2.16725E+01 0.00000E+00
 -1      4179 1.22124E+02 2.16725E+01 0.00000E+00
 -1      4180 1.21374E+02 2.29715E+01 0.00000E+00
 -1      4181 1.26624E+02 2.16725E+01 0.00000E+00
 -1      4182 1.25124E+02 2.16725E+01 0.00000E+00
 -1      4183 1.24374E+02 2.29715E+01 0.00000E+00
 -1      4184 6.96240E+01 2.16725E+01 0.00000E+00
 -1      4185 6.81240E+01 2.16725E+01 0.00000E+00
 -1      4186 7.03740E+01 2.29715E+01 0.00000E+00
 -1      4187 6.36240E+01 2.16725E+01 0.00000E+00
 -1      4188 6.21240E+01 2.16725E+01 0.00000E+00
 -1      4189 6.43740E+01 2.29715E+01 0.00000E+00
 -1      4190 6.06240E+01 2.16725E+01 0.00000E+00
 -1      4191 5.91240E+01 2.16725E+01 0.00000E+00
 -1      4192 6.13740E+01 2.29715E+01 0.00000E+00
 -1      4193 1.28307E+02 2.22284E+01 0.00000E+00
 -1      4194 1.27465E+02 2.19505E+01 0.00000E+00
 -1      4195 1.26715E+02 2.32495E+01 0.00000E+00
 -1      4196 5.88209E+01 2.80327E+01 0.00000E+00
 -1      4197 5.74263E+01 2.32895E+01 0.00000E+00
 -1      4198 5.95709E+01 2.67337E+01 0.00000E+00
 -1      4199 6.73740E+01 2.29715E+01 0.00000E+00
 -1      4200 1.28398E+02 2.38054E+01 0.00000E+00
 -1      4201 5.63101E+01 2.50996E+01 0.00000E+00
 -1      4202 1.28152E+02 2.59779E+01 0.00000E+00
 -1      4203 1.28212E+02 2.46303E+01 0.00000E+00
 -1      4204 1.27370E+02 2.43523E+01 0.00000E+00
 -1      4205 1.26997E+02 2.60022E+01 0.00000E+00
 -1      4206 6.51870E+01 2.49236E+01 0.00000E+00
 -1      4207 6.66870E+01 2.49236E+01 0.00000E+00
 -1      4208 6.81870E+01 2.49236E+01 0.00000E+00
 -1      4209 6.96870E+01 2.49236E+01 0.00000E+00
 -1      4210 7.11870E+01 2.49236E+01 0.00000E+00
 -1      4211 7.26870E+01 2.49236E+01 0.00000E+00
 -1      4212 7.41870E+01 2.49236E+01 0.00000E+00
 -1      4213 7.56870E+01 2.49236E+01 0.00000E+00
 -1      4214 7.71870E+01 2.49236E+01 0.00000E+00
 -1      4215 7.86870E+01 2.49236E+01 0.00000E+00
 -1      4216 8.01870E+01 2.49236E+01 0.00000E+00
 -1      4217 8.16870E+01 2.49236E+01 0.00000E+00
 -1      4218 8.31870E+01 2.49236E+01 0.00000E+00
 -1      4219 8.46870E+01 2.49236E+01 0.00000E+00
 -1      4220 8.61870E+01 2.49236E+01 0.00000E+00
 -1      4221 8.76870E+01 2.49236E+01 0.00000E+00
 -1      4222 8.91870E+01 2.49236E+01 0.00000E+00
 -1      4223 9.06870E+01 2.49236E+01 0.00000E+00
 -1      4224 9.21870E+01 2.49236E+01 0.00000E+00
 -1      4225 9.36870E+01 2.49236E+01 0.00000E+00
 -1      4226 9.51870E+01 2.49236E+01 0.00000E+00
 -1      4227 9.66870E+01 2.49236E+01 0.00000E+00
 -1      4228 9.81870E+01 2.49236E+01 0.00000E+00
 -1      4229 9.96870E+01 2.49236E+01 0.00000E+00
 -1      4230 1.01187E+02 2.49236E+01 0.00000E+00
 -1      4231 1.02687E+02 2.49236E+01 0.00000E+00
 -1      4232 1.04187E+02 2.49236E+01 0.00000E+00
 -1      4233 1.05687E+02 2.49236E+01 0.00000E+00
 -1      4234 1.07187E+02 2.49236E+01 0.00000E+00
 -1      4235 1.08687E+02 2.49236E+01 0.00000E+00
 -1      4236 1.10187E+02 2.49236E+01 0.00000E+00
 -1      4237 1.11687E+02 2.49236E+01 0.00000E+00
 -1      4238 1.13187E+02 2.49236E+01 0.00000E+00
 -1      4239 1.14687E+02 2.49236E+01 0.00000E+00
 -1      4240 1.16187E+02 2.49236E+01 0.00000E+00
 -1      4241 1.17687E+02 2.49236E+01 0.00000E+00
 -1      4242 1.19187E+02 2.49236E+01 0.00000E+00
 -1      4243 1.20687E+02 2.49236E+01 0.00000E+00
 -1      4244 1.22187E+02 2.49236E+01 0.00000E+00
 -1      4245 1.23687E+02 2.49236E+01 0.00000E+00
 -1      4246 5.87579E+01 2.47816E+01 0.00000E+00
 -1      4247 6.06870E+01 2.49236E+01 0.00000E+00
 -1      4248 6.21870E+01 2.49236E+01 0.00000E+00
 -1      4249 1.25187E+02 2.49236E+01 0.00000E+00
 -1      4250 6.36870E+01 2.49236E+01 0.00000E+00
 -1      4251 1.26529E+02 2.40744E+01 0.00000E+00
 -1      4252 1.25842E+02 2.60264E+01 0.00000E+00
 -3
    3C                          2044                                     1
 -1       165    8    0    1
 -2         6         7        23      1105      1269      1122
 -1       166    8    0    1
 -2         7         8       165      1106      1270      1271
 -1       167    8    0    1
 -2         8         9       166      1107      1272      1273
 -1       168    8    0    1
 -2         8       166       165      1273      1274      1270
 -1       169    8    0    1
 -2         9        10       167      1108      1275      1276
 -1       170    8    0    1
 -2         9       167       166      1276      1277      1272
 -1       171    8    0    1
 -2        10        11       168      1109      1278      1279
 -1       172    8    0    1
 -2        10       168       167      1279      1280      1275
 -1       173    8    0    1
 -2        11        12       169      1110      1281      1282
 -1       174    8    0    1
 -2        11       169       168      1282      1283      1278
 -1       175    8    0    1
 -2        12        13       170      1111      1284      1285
 -1       176    8    0    1
 -2        12       170       169      1285      1286      1281
 -1       177    8    0    1
 -2        13        14       171      1112      1287      1288
 -1       178    8    0    1
 -2        13       171       170      1288      1289      1284
 -1       179    8    0    1
 -2        14        15       172      1113      1290      1291
 -1       180    8    0    1
 -2        14       172       171      1291      1292      1287
 -1       181    8    0    1
 -2        15        16       173      1114      1293      1294
 -1       182    8    0    1
 -2        15       173       172      1294      1295      1290
 -1       183    8    0    1
 -2        16        17       174      1115      1296      1297
 -1       184    8    0    1
 -2        16       174       173      1297      1298      1293
 -1       185    8    0    1
 -2        17        18       175      1116      1299      1300
 -1       186    8    0    1
 -2        17       175       174      1300      1301      1296
 -1       187    8    0    1
 -2        18        19       176      1117      1302      1303
 -1       188    8    0    1
 -2        18       176       175      1303      1304      1299
 -1       189    8    0    1
 -2        19        20       177      1118      1305      1306
 -1       190    8    0    1
 -2        19       177       176      1306      1307      1302
 -1       191    8    0    1
 -2        20        21       178      1119      1308      1309
 -1       192    8    0    1
 -2        20       178       177      1309      1310      1305
 -1       193    8    0    1
 -2        21        22       179      1120      1311      1312
 -1       194    8    0    1
 -2        21       179       178      1312      1313      1308
 -1       195    8    0    1
 -2        22         5       180      1121      1314      1315
 -1       196    8    0    1
 -2       179        22       180      1311      1315      1316
 -1       197    8    0    1
 -2         5        72       180      1172      1317      1314
 -1       198    8    0    1
 -2        24        23       181      1123      1318      1319
 -1       199    8    0    1
 -2        25        24       182      1124      1320      1321
 -1       200    8    0    1
 -2        24       181       182      1319      1322      1320
 -1       201    8    0    1
 -2        26        25       183      1125      1323      1324
 -1       202    8    0    1
 -2        25       182       183      1321      1325      1323
 -1       203    8    0    1
 -2        27        26       184      1126      1326      1327
 -1       204    8    0    1
 -2        26       183       184      1324      1328      1326
 -1       205    8    0    1
 -2        28        27       185      1127      1329      1330
 -1       206    8    0    1
 -2        27       184       185      1327      1331      1329
 -1       207    8    0    1
 -2        29        28       186      1128      1332      1333
 -1       208    8    0    1
 -2        28       185       186      1330      1334      1332
 -1       209    8    0    1
 -2        30        29       187      1129      1335      1336
 -1       210    8    0    1
 -2        29       186       187      1333      1337      1335
 -1       211    8    0    1
 -2        31        30       188      1130      1338      1339
 -1       212    8    0    1
 -2        30       187       188      1336      1340      1338
 -1       213    8    0    1
 -2        32        31       189      1131      1341      1342
 -1       214    8    0    1
 -2        31       188       189      1339      1343      1341
 -1       215    8    0    1
 -2        33        32       190      1132      1344      1345
 -1       216    8    0    1
 -2        32       189       190      1342      1346      1344
 -1       217    8    0    1
 -2        34        33       191      1133      1347      1348
 -1       218    8    0    1
 -2        33       190       191      1345      1349      1347
 -1       219    8    0    1
 -2        35        34       192      1134      1350      1351
 -1       220    8    0    1
 -2        34       191       192      1348      1352      1350
 -1       221    8    0    1
 -2        36        35       193      1135      1353      1354
 -1       222    8    0    1
 -2        35       192       193      1351      1355      1353
 -1       223    8    0    1
 -2        37        36       194      1136      1356      1357
 -1       224    8    0    1
 -2        36       193       194      1354      1358      1356
 -1       225    8    0    1
 -2        38        37       195      1137      1359      1360
 -1       226    8    0    1
 -2        37       194       195      1357      1361      1359
 -1       227    8    0    1
 -2        39        38       196      1138      1362      1363
 -1       228    8    0    1
 -2        38       195       196      1360      1364      1362
 -1       229    8    0    1
 -2        40        39       197      1139      1365      1366
 -1       230    8    0    1
 -2        39       196       197      1363      1367      1365
 -1       231    8    0    1
 -2        41        40       198      1140      1368      1369
 -1       232    8    0    1
 -2        40       197       198      1366      1370      1368
 -1       233    8    0    1
 -2        42        41       199      1141      1371      1372
 -1       234    8    0    1
 -2        41       198       199      1369      1373      1371
 -1       235    8    0    1
 -2        43        42       200      1142      1374      1375
 -1       236    8    0    1
 -2        42       199       200      1372      1376      1374
 -1       237    8    0    1
 -2        44        43       201      1143      1377      1378
 -1       238    8    0    1
 -2        43       200       201      1375      1379      1377
 -1       239    8    0    1
 -2        45        44       202      1144      1380      1381
 -1       240    8    0    1
 -2        44       201       202      1378      1382      1380
 -1       241    8    0    1
 -2        46        45       203      1145      1383      1384
 -1       242    8    0    1
 -2        45       202       203      1381      1385      1383
 -1       243    8    0    1
 -2        47        46       204      1146      1386      1387
 -1       244    8    0    1
 -2        46       203       204      1384      1388      1386
 -1       245    8    0    1
 -2        48        47       205      1147      1389      1390
 -1       246    8    0    1
 -2        47       204       205      1387      1391      1389
 -1       247    8    0    1
 -2        49        48       206      1148      1392      1393
 -1       248    8    0    1
 -2        48       205       206      1390      1394      1392
 -1       249    8    0    1
 -2        50        49       207      1149      1395      1396
 -1       250    8    0    1
 -2        49       206       207      1393      1397      1395
 -1       251    8    0    1
 -2        51        50       208      1150      1398      1399
 -1       252    8    0    1
 -2        50       207       208      1396      1400      1398
 -1       253    8    0    1
 -2        52        51       209      1151      1401      1402
 -1       254    8    0    1
 -2        51       208       209      1399      1403      1401
 -1       255    8    0    1
 -2        53        52       210      1152      1404      1405
 -1       256    8    0    1
 -2        52       209       210      1402      1406      1404
 -1       257    8    0    1
 -2        54        53       211      1153      1407      1408
 -1       258    8    0    1
 -2        53       210       211      1405      1409      1407
 -1       259    8    0    1
 -2        55        54       212      1154      1410      1411
 -1       260    8    0    1
 -2        54       211       212      1408      1412      1410
 -1       261    8    0    1
 -2        56        55       213      1155      1413      1414
 -1       262    8    0    1
 -2        55       212       213      1411      1415      1413
 -1       263    8    0    1
 -2        57        56       214      1156      1416      1417
 -1       264    8    0    1
 -2        56       213       214      1414      1418      1416
 -1       265    8    0    1
 -2        58        57       215      1157      1419      1420
 -1       266    8    0    1
 -2        57       214       215      1417      1421      1419
 -1       267    8    0    1
 -2        59        58       216      1158      1422      1423
 -1       268    8    0    1
 -2        58       215       216      1420      1424      1422
 -1       269    8    0    1
 -2        60        59       217      1159      1425      1426
 -1       270    8    0    1
 -2        59       216       217      1423      1427      1425
 -1       271    8    0    1
 -2        61        60       218      1160      1428      1429
 -1       272    8    0    1
 -2        60       217       218      1426      1430      1428
 -1       273    8    0    1
 -2        62        61       219      1161      1431      1432
 -1       274    8    0    1
 -2        61       218       219      1429      1433      1431
 -1       275    8    0    1
 -2        63        62       220      1162      1434      1435
 -1       276    8    0    1
 -2        62       219       220      1432      1436      1434
 -1       277    8    0    1
 -2        64        63       221      1163      1437      1438
 -1       278    8    0    1
 -2        63       220       221      1435      1439      1437
 -1       279    8    0    1
 -2        65        64       222      1164      1440      1441
 -1       280    8    0    1
 -2        64       221       222      1438      1442      1440
 -1       281    8    0    1
 -2        66        65       223      1165      1443      1444
 -1       282    8    0    1
 -2        65       222       223      1441      1445      1443
 -1       283    8    0    1
 -2        67        66       224      1166      1446      1447
 -1       284    8    0    1
 -2        66       223       224      1444      1448      1446
 -1       285    8    0    1
 -2        68        67       225      1167      1449      1450
 -1       286    8    0    1
 -2        67       224       225      1447      1451      1449
 -1       287    8    0    1
 -2        69        68       226      1168      1452      1453
 -1       288    8    0    1
 -2        68       225       226      1450      1454      1452
 -1       289    8    0    1
 -2        70        69       227      1169      1455      1456
 -1       290    8    0    1
 -2        69       226       227      1453      1457      1455
 -1       291    8    0    1
 -2        71        70       228      1170      1458      1459
 -1       292    8    0    1
 -2        70       227       228      1456      1460      1458
 -1       293    8    0    1
 -2         4        71       229      1171      1461      1462
 -1       294    8    0    1
 -2       136         4       229      1238      1462      1463
 -1       295    8    0    1
 -2        71       228       229      1459      1464      1461
 -1       296    8    0    1
 -2        72        73       230      1173      1465      1466
 -1       297    8    0    1
 -2        72       230       180      1466      1467      1317
 -1       298    8    0    1
 -2        73        74       231      1174      1468      1469
 -1       299    8    0    1
 -2        73       231       230      1469      1470      1465
 -1       300    8    0    1
 -2        74        75       232      1175      1471      1472
 -1       301    8    0    1
 -2        74       232       231      1472      1473      1468
 -1       302    8    0    1
 -2        75        76       233      1176      1474      1475
 -1       303    8    0    1
 -2        75       233       232      1475      1476      1471
 -1       304    8    0    1
 -2        76        77       234      1177      1477      1478
 -1       305    8    0    1
 -2        76       234       233      1478      1479      1474
 -1       306    8    0    1
 -2        77        78       235      1178      1480      1481
 -1       307    8    0    1
 -2        77       235       234      1481      1482      1477
 -1       308    8    0    1
 -2        78        79       236      1179      1483      1484
 -1       309    8    0    1
 -2        78       236       235      1484      1485      1480
 -1       310    8    0    1
 -2        79        80       237      1180      1486      1487
 -1       311    8    0    1
 -2        79       237       236      1487      1488      1483
 -1       312    8    0    1
 -2        80        81       238      1181      1489      1490
 -1       313    8    0    1
 -2        80       238       237      1490      1491      1486
 -1       314    8    0    1
 -2        81        82       239      1182      1492      1493
 -1       315    8    0    1
 -2        81       239       238      1493      1494      1489
 -1       316    8    0    1
 -2        82        83       240      1183      1495      1496
 -1       317    8    0    1
 -2        82       240       239      1496      1497      1492
 -1       318    8    0    1
 -2        83        84       241      1184      1498      1499
 -1       319    8    0    1
 -2        83       241       240      1499      1500      1495
 -1       320    8    0    1
 -2        84        85       242      1185      1501      1502
 -1       321    8    0    1
 -2        84       242       241      1502      1503      1498
 -1       322    8    0    1
 -2        85        86       243      1186      1504      1505
 -1       323    8    0    1
 -2        85       243       242      1505      1506      1501
 -1       324    8    0    1
 -2        86        87       244      1187      1507      1508
 -1       325    8    0    1
 -2        86       244       243      1508      1509      1504
 -1       326    8    0    1
 -2        87        88       245      1188      1510      1511
 -1       327    8    0    1
 -2        87       245       244      1511      1512      1507
 -1       328    8    0    1
 -2        88        89       246      1189      1513      1514
 -1       329    8    0    1
 -2        88       246       245      1514      1515      1510
 -1       330    8    0    1
 -2        89        90       247      1190      1516      1517
 -1       331    8    0    1
 -2        89       247       246      1517      1518      1513
 -1       332    8    0    1
 -2        90        91       248      1191      1519      1520
 -1       333    8    0    1
 -2        90       248       247      1520      1521      1516
 -1       334    8    0    1
 -2        91        92       249      1192      1522      1523
 -1       335    8    0    1
 -2        91       249       248      1523      1524      1519
 -1       336    8    0    1
 -2        92        93       250      1193      1525      1526
 -1       337    8    0    1
 -2        92       250       249      1526      1527      1522
 -1       338    8    0    1
 -2        93        94       251      1194      1528      1529
 -1       339    8    0    1
 -2        93       251       250      1529      1530      1525
 -1       340    8    0    1
 -2        94        95       252      1195      1531      1532
 -1       341    8    0    1
 -2        94       252       251      1532      1533      1528
 -1       342    8    0    1
 -2        95        96       253      1196      1534      1535
 -1       343    8    0    1
 -2        95       253       252      1535      1536      1531
 -1       344    8    0    1
 -2        96        97       254      1197      1537      1538
 -1       345    8    0    1
 -2        96       254       253      1538      1539      1534
 -1       346    8    0    1
 -2        97        98       255      1198      1540      1541
 -1       347    8    0    1
 -2        97       255       254      1541      1542      1537
 -1       348    8    0    1
 -2        98        99       256      1199      1543      1544
 -1       349    8    0    1
 -2        98       256       255      1544      1545      1540
 -1       350    8    0    1
 -2        99       100       257      1200      1546      1547
 -1       351    8    0    1
 -2        99       257       256      1547      1548      1543
 -1       352    8    0    1
 -2       100       101       258      1201      1549      1550
 -1       353    8    0    1
 -2       100       258       257      1550      1551      1546
 -1       354    8    0    1
 -2       101       102       259      1202      1552      1553
 -1       355    8    0    1
 -2       101       259       258      1553      1554      1549
 -1       356    8    0    1
 -2       102       103       260      1203      1555      1556
 -1       357    8    0    1
 -2       102       260       259      1556      1557      1552
 -1       358    8    0    1
 -2       103       104       261      1204      1558      1559
 -1       359    8    0    1
 -2       103       261       260      1559      1560      1555
 -1       360    8    0    1
 -2       104       105       262      1205      1561      1562
 -1       361    8    0    1
 -2       104       262       261      1562      1563      1558
 -1       362    8    0    1
 -2       105       106       263      1206      1564      1565
 -1       363    8    0    1
 -2       105       263       262      1565      1566      1561
 -1       364    8    0    1
 -2       106       107       264      1207      1567      1568
 -1       365    8    0    1
 -2       106       264       263      1568      1569      1564
 -1       366    8    0    1
 -2       107       108       265      1208      1570      1571
 -1       367    8    0    1
 -2       107       265       264      1571      1572      1567
 -1       368    8    0    1
 -2       108       109       266      1209      1573      1574
 -1       369    8    0    1
 -2       108       266       265      1574      1575      1570
 -1       370    8    0    1
 -2       109       110       267      1210      1576      1577
 -1       371    8    0    1
 -2       109       267       266      1577      1578      1573
 -1       372    8    0    1
 -2       110       111       268      1211      1579      1580
 -1       373    8    0    1
 -2       110       268       267      1580      1581      1576
 -1       374    8    0    1
 -2       111       112       269      1212      1582      1583
 -1       375    8    0    1
 -2       111       269       268      1583      1584      1579
 -1       376    8    0    1
 -2       112       113       270      1213      1585      1586
 -1       377    8    0    1
 -2       112       270       269      1586      1587      1582
 -1       378    8    0    1
 -2       113       114       271      1214      1588      1589
 -1       379    8    0    1
 -2       113       271       270      1589      1590      1585
 -1       380    8    0    1
 -2       114       115       272      1215      1591      1592
 -1       381    8    0    1
 -2       114       272       271      1592      1593      1588
 -1       382    8    0    1
 -2       115       116       273      1216      1594      1595
 -1       383    8    0    1
 -2       115       273       272      1595      1596      1591
 -1       384    8    0    1
 -2       116       117       274      1217      1597      1598
 -1       385    8    0    1
 -2       116       274       273      1598      1599      1594
 -1       386    8    0    1
 -2       117       118       275      1218      1600      1601
 -1       387    8    0    1
 -2       117       275       274      1601      1602      1597
 -1       388    8    0    1
 -2       118       119       276      1219      1603      1604
 -1       389    8    0    1
 -2       118       276       275      1604      1605      1600
 -1       390    8    0    1
 -2       119       120       277      1220      1606      1607
 -1       391    8    0    1
 -2       119       277       276      1607      1608      1603
 -1       392    8    0    1
 -2       120         3       121      1221      1222      1609
 -1       393    8    0    1
 -2       121       122       278      1223      1610      1611
 -1       394    8    0    1
 -2       122       123       279      1224      1612      1613
 -1       395    8    0    1
 -2       122       279       278      1613      1614      1610
 -1       396    8    0    1
 -2       123       124       280      1225      1615      1616
 -1       397    8    0    1
 -2       123       280       279      1616      1617      1612
 -1       398    8    0    1
 -2       124       125       281      1226      1618      1619
 -1       399    8    0    1
 -2       124       281       280      1619      1620      1615
 -1       400    8    0    1
 -2       125       126       282      1227      1621      1622
 -1       401    8    0    1
 -2       125       282       281      1622      1623      1618
 -1       402    8    0    1
 -2       126       127       283      1228      1624      1625
 -1       403    8    0    1
 -2       126       283       282      1625      1626      1621
 -1       404    8    0    1
 -2       127       128       284      1229      1627      1628
 -1       405    8    0    1
 -2       127       284       283      1628      1629      1624
 -1       406    8    0    1
 -2       128       129       285      1230      1630      1631
 -1       407    8    0    1
 -2       128       285       284      1631      1632      1627
 -1       408    8    0    1
 -2       129       130       286      1231      1633      1634
 -1       409    8    0    1
 -2       129       286       285      1634      1635      1630
 -1       410    8    0    1
 -2       130       131       287      1232      1636      1637
 -1       411    8    0    1
 -2       130       287       286      1637      1638      1633
 -1       412    8    0    1
 -2       131       132       288      1233      1639      1640
 -1       413    8    0    1
 -2       131       288       287      1640      1641      1636
 -1       414    8    0    1
 -2       132       133       289      1234      1642      1643
 -1       415    8    0    1
 -2       132       289       288      1643      1644      1639
 -1       416    8    0    1
 -2       133       134       290      1235      1645      1646
 -1       417    8    0    1
 -2       133       290       289      1646      1647      1642
 -1       418    8    0    1
 -2       134       135       291      1236      1648      1649
 -1       419    8    0    1
 -2       134       291       290      1649      1650      1645
 -1       420    8    0    1
 -2       135       136       292      1237      1651      1652
 -1       421    8    0    1
 -2       291       135       292      1648      1652      1653
 -1       422    8    0    1
 -2       136       229       292      1463      1654      1651
 -1       423    8    0    1
 -2         2       137       293      1239      1655      1656
 -1       424    8    0    1
 -2       137       138       294      1240      1657      1658
 -1       425    8    0    1
 -2       138       139       295      1241      1659      1660
 -1       426    8    0    1
 -2       139       140       296      1242      1661      1662
 -1       427    8    0    1
 -2       140       141       297      1243      1663      1664
 -1       428    8    0    1
 -2       141       142       298      1244      1665      1666
 -1       429    8    0    1
 -2       142       143       299      1245      1667      1668
 -1       430    8    0    1
 -2       143       144       300      1246      1669      1670
 -1       431    8    0    1
 -2       144       145       301      1247      1671      1672
 -1       432    8    0    1
 -2       145       146       302      1248      1673      1674
 -1       433    8    0    1
 -2       146       147       303      1249      1675      1676
 -1       434    8    0    1
 -2       147       148       304      1250      1677      1678
 -1       435    8    0    1
 -2       148       149       305      1251      1679      1680
 -1       436    8    0    1
 -2       149       150       306      1252      1681      1682
 -1       437    8    0    1
 -2       150       151       307      1253      1683      1684
 -1       438    8    0    1
 -2       151       152       308      1254      1685      1686
 -1       439    8    0    1
 -2       152       153       309      1255      1687      1688
 -1       440    8    0    1
 -2       153       154       310      1256      1689      1690
 -1       441    8    0    1
 -2       154       155       311      1257      1691      1692
 -1       442    8    0    1
 -2       155       156       312      1258      1693      1694
 -1       443    8    0    1
 -2       156       157       313      1259      1695      1696
 -1       444    8    0    1
 -2       157         1       314      1260      1697      1698
 -1       445    8    0    1
 -2         1       158       315      1261      1699      1700
 -1       446    8    0    1
 -2       158       159       316      1262      1701      1702
 -1       447    8    0    1
 -2       159       160       317      1263      1703      1704
 -1       448    8    0    1
 -2       160       161       318      1264      1705      1706
 -1       449    8    0    1
 -2       161       162       319      1265      1707      1708
 -1       450    8    0    1
 -2       162       163       320      1266      1709      1710
 -1       451    8    0    1
 -2       163       164       321      1267      1711      1712
 -1       452    8    0    1
 -2       164         2       322      1268      1713      1714
 -1       453    8    0    1
 -2       295       139       296      1659      1662      1715
 -1       454    8    0    1
 -2         2       293       322      1656      1716      1713
 -1       455    8    0    1
 -2       120       121       277      1609      1717      1606
 -1       456    8    0    1
 -2       121       278       277      1611      1718      1717
 -1       457    8    0    1
 -2       293       137       294      1655      1658      1719
 -1       458    8    0    1
 -2       294       138       295      1657      1660      1720
 -1       459    8    0    1
 -2       140       297       296      1664      1721      1661
 -1       460    8    0    1
 -2       141       298       297      1666      1722      1663
 -1       461    8    0    1
 -2       142       299       298      1668      1723      1665
 -1       462    8    0    1
 -2       143       300       299      1670      1724      1667
 -1       463    8    0    1
 -2       144       301       300      1672      1725      1669
 -1       464    8    0    1
 -2       145       302       301      1674      1726      1671
 -1       465    8    0    1
 -2       146       303       302      1676      1727      1673
 -1       466    8    0    1
 -2       147       304       303      1678      1728      1675
 -1       467    8    0    1
 -2       148       305       304      1680      1729      1677
 -1       468    8    0    1
 -2       149       306       305      1682      1730      1679
 -1       469    8    0    1
 -2       150       307       306      1684      1731      1681
 -1       470    8    0    1
 -2       151       308       307      1686      1732      1683
 -1       471    8    0    1
 -2       152       309       308      1688      1733      1685
 -1       472    8    0    1
 -2       153       310       309      1690      1734      1687
 -1       473    8    0    1
 -2       154       311       310      1692      1735      1689
 -1       474    8    0    1
 -2       155       312       311      1694      1736      1691
 -1       475    8    0    1
 -2       156       313       312      1696      1737      1693
 -1       476    8    0    1
 -2       157       314       313      1698      1738      1695
 -1       477    8    0    1
 -2         1       315       314      1700      1739      1697
 -1       478    8    0    1
 -2       158       316       315      1702      1740      1699
 -1       479    8    0    1
 -2       159       317       316      1704      1741      1701
 -1       480    8    0    1
 -2       160       318       317      1706      1742      1703
 -1       481    8    0    1
 -2       161       319       318      1708      1743      1705
 -1       482    8    0    1
 -2       162       320       319      1710      1744      1707
 -1       483    8    0    1
 -2       163       321       320      1712      1745      1709
 -1       484    8    0    1
 -2       164       322       321      1714      1746      1711
 -1       485    8    0    1
 -2        23         7       165      1269      1271      1747
 -1       486    8    0    1
 -2       166       167       323      1277      1748      1749
 -1       487    8    0    1
 -2       165       166       324      1274      1750      1751
 -1       488    8    0    1
 -2       166       323       324      1749      1752      1750
 -1       489    8    0    1
 -2       168       169       325      1283      1753      1754
 -1       490    8    0    1
 -2       169       170       326      1286      1755      1756
 -1       491    8    0    1
 -2       169       326       325      1756      1757      1753
 -1       492    8    0    1
 -2       170       171       327      1289      1758      1759
 -1       493    8    0    1
 -2       170       327       326      1759      1760      1755
 -1       494    8    0    1
 -2       171       172       328      1292      1761      1762
 -1       495    8    0    1
 -2       171       328       327      1762      1763      1758
 -1       496    8    0    1
 -2       172       173       329      1295      1764      1765
 -1       497    8    0    1
 -2       172       329       328      1765      1766      1761
 -1       498    8    0    1
 -2       173       174       330      1298      1767      1768
 -1       499    8    0    1
 -2       173       330       329      1768      1769      1764
 -1       500    8    0    1
 -2       174       175       331      1301      1770      1771
 -1       501    8    0    1
 -2       174       331       330      1771      1772      1767
 -1       502    8    0    1
 -2       175       176       332      1304      1773      1774
 -1       503    8    0    1
 -2       175       332       331      1774      1775      1770
 -1       504    8    0    1
 -2       176       177       333      1307      1776      1777
 -1       505    8    0    1
 -2       176       333       332      1777      1778      1773
 -1       506    8    0    1
 -2       177       178       334      1310      1779      1780
 -1       507    8    0    1
 -2       177       334       333      1780      1781      1776
 -1       508    8    0    1
 -2       178       179       335      1313      1782      1783
 -1       509    8    0    1
 -2       178       335       334      1783      1784      1779
 -1       510    8    0    1
 -2       179       180       336      1316      1785      1786
 -1       511    8    0    1
 -2       335       179       336      1782      1786      1787
 -1       512    8    0    1
 -2       180       230       336      1467      1788      1785
 -1       513    8    0    1
 -2       181        23       165      1318      1747      1789
 -1       514    8    0    1
 -2       230       231       337      1470      1790      1791
 -1       515    8    0    1
 -2       230       337       336      1791      1792      1788
 -1       516    8    0    1
 -2       181       165       324      1789      1751      1793
 -1       517    8    0    1
 -2       183       182       338      1325      1794      1795
 -1       518    8    0    1
 -2       184       183       339      1328      1796      1797
 -1       519    8    0    1
 -2       183       338       339      1795      1798      1796
 -1       520    8    0    1
 -2       185       184       340      1331      1799      1800
 -1       521    8    0    1
 -2       184       339       340      1797      1801      1799
 -1       522    8    0    1
 -2       186       185       341      1334      1802      1803
 -1       523    8    0    1
 -2       185       340       341      1800      1804      1802
 -1       524    8    0    1
 -2       187       186       342      1337      1805      1806
 -1       525    8    0    1
 -2       186       341       342      1803      1807      1805
 -1       526    8    0    1
 -2       188       187       343      1340      1808      1809
 -1       527    8    0    1
 -2       187       342       343      1806      1810      1808
 -1       528    8    0    1
 -2       189       188       344      1343      1811      1812
 -1       529    8    0    1
 -2       188       343       344      1809      1813      1811
 -1       530    8    0    1
 -2       190       189       345      1346      1814      1815
 -1       531    8    0    1
 -2       189       344       345      1812      1816      1814
 -1       532    8    0    1
 -2       191       190       346      1349      1817      1818
 -1       533    8    0    1
 -2       190       345       346      1815      1819      1817
 -1       534    8    0    1
 -2       192       191       347      1352      1820      1821
 -1       535    8    0    1
 -2       191       346       347      1818      1822      1820
 -1       536    8    0    1
 -2       193       192       348      1355      1823      1824
 -1       537    8    0    1
 -2       192       347       348      1821      1825      1823
 -1       538    8    0    1
 -2       194       193       349      1358      1826      1827
 -1       539    8    0    1
 -2       193       348       349      1824      1828      1826
 -1       540    8    0    1
 -2       195       194       350      1361      1829      1830
 -1       541    8    0    1
 -2       194       349       350      1827      1831      1829
 -1       542    8    0    1
 -2       196       195       351      1364      1832      1833
 -1       543    8    0    1
 -2       195       350       351      1830      1834      1832
 -1       544    8    0    1
 -2       197       196       352      1367      1835      1836
 -1       545    8    0    1
 -2       196       351       352      1833      1837      1835
 -1       546    8    0    1
 -2       198       197       353      1370      1838      1839
 -1       547    8    0    1
 -2       197       352       353      1836      1840      1838
 -1       548    8    0    1
 -2       199       198       354      1373      1841      1842
 -1       549    8    0    1
 -2       198       353       354      1839      1843      1841
 -1       550    8    0    1
 -2       200       199       355      1376      1844      1845
 -1       551    8    0    1
 -2       199       354       355      1842      1846      1844
 -1       552    8    0    1
 -2       201       200       356      1379      1847      1848
 -1       553    8    0    1
 -2       200       355       356      1845      1849      1847
 -1       554    8    0    1
 -2       202       201       357      1382      1850      1851
 -1       555    8    0    1
 -2       201       356       357      1848      1852      1850
 -1       556    8    0    1
 -2       203       202       358      1385      1853      1854
 -1       557    8    0    1
 -2       202       357       358      1851      1855      1853
 -1       558    8    0    1
 -2       204       203       359      1388      1856      1857
 -1       559    8    0    1
 -2       203       358       359      1854      1858      1856
 -1       560    8    0    1
 -2       205       204       360      1391      1859      1860
 -1       561    8    0    1
 -2       204       359       360      1857      1861      1859
 -1       562    8    0    1
 -2       206       205       361      1394      1862      1863
 -1       563    8    0    1
 -2       205       360       361      1860      1864      1862
 -1       564    8    0    1
 -2       207       206       362      1397      1865      1866
 -1       565    8    0    1
 -2       206       361       362      1863      1867      1865
 -1       566    8    0    1
 -2       208       207       363      1400      1868      1869
 -1       567    8    0    1
 -2       207       362       363      1866      1870      1868
 -1       568    8    0    1
 -2       209       208       364      1403      1871      1872
 -1       569    8    0    1
 -2       208       363       364      1869      1873      1871
 -1       570    8    0    1
 -2       210       209       365      1406      1874      1875
 -1       571    8    0    1
 -2       209       364       365      1872      1876      1874
 -1       572    8    0    1
 -2       211       210       366      1409      1877      1878
 -1       573    8    0    1
 -2       210       365       366      1875      1879      1877
 -1       574    8    0    1
 -2       212       211       367      1412      1880      1881
 -1       575    8    0    1
 -2       211       366       367      1878      1882      1880
 -1       576    8    0    1
 -2       213       212       368      1415      1883      1884
 -1       577    8    0    1
 -2       212       367       368      1881      1885      1883
 -1       578    8    0    1
 -2       214       213       369      1418      1886      1887
 -1       579    8    0    1
 -2       213       368       369      1884      1888      1886
 -1       580    8    0    1
 -2       215       214       370      1421      1889      1890
 -1       581    8    0    1
 -2       214       369       370      1887      1891      1889
 -1       582    8    0    1
 -2       216       215       371      1424      1892      1893
 -1       583    8    0    1
 -2       215       370       371      1890      1894      1892
 -1       584    8    0    1
 -2       217       216       372      1427      1895      1896
 -1       585    8    0    1
 -2       216       371       372      1893      1897      1895
 -1       586    8    0    1
 -2       218       217       373      1430      1898      1899
 -1       587    8    0    1
 -2       217       372       373      1896      1900      1898
 -1       588    8    0    1
 -2       219       218       374      1433      1901      1902
 -1       589    8    0    1
 -2       218       373       374      1899      1903      1901
 -1       590    8    0    1
 -2       220       219       375      1436      1904      1905
 -1       591    8    0    1
 -2       219       374       375      1902      1906      1904
 -1       592    8    0    1
 -2       221       220       376      1439      1907      1908
 -1       593    8    0    1
 -2       220       375       376      1905      1909      1907
 -1       594    8    0    1
 -2       222       221       377      1442      1910      1911
 -1       595    8    0    1
 -2       221       376       377      1908      1912      1910
 -1       596    8    0    1
 -2       223       222       378      1445      1913      1914
 -1       597    8    0    1
 -2       222       377       378      1911      1915      1913
 -1       598    8    0    1
 -2       224       223       379      1448      1916      1917
 -1       599    8    0    1
 -2       223       378       379      1914      1918      1916
 -1       600    8    0    1
 -2       225       224       380      1451      1919      1920
 -1       601    8    0    1
 -2       224       379       380      1917      1921      1919
 -1       602    8    0    1
 -2       226       225       381      1454      1922      1923
 -1       603    8    0    1
 -2       225       380       381      1920      1924      1922
 -1       604    8    0    1
 -2       227       226       382      1457      1925      1926
 -1       605    8    0    1
 -2       226       381       382      1923      1927      1925
 -1       606    8    0    1
 -2       228       227       383      1460      1928      1929
 -1       607    8    0    1
 -2       227       382       383      1926      1930      1928
 -1       608    8    0    1
 -2       229       228       292      1464      1931      1654
 -1       609    8    0    1
 -2       232       233       384      1476      1932      1933
 -1       610    8    0    1
 -2       233       234       385      1479      1934      1935
 -1       611    8    0    1
 -2       233       385       384      1935      1936      1932
 -1       612    8    0    1
 -2       234       235       386      1482      1937      1938
 -1       613    8    0    1
 -2       234       386       385      1938      1939      1934
 -1       614    8    0    1
 -2       235       236       387      1485      1940      1941
 -1       615    8    0    1
 -2       235       387       386      1941      1942      1937
 -1       616    8    0    1
 -2       236       237       388      1488      1943      1944
 -1       617    8    0    1
 -2       236       388       387      1944      1945      1940
 -1       618    8    0    1
 -2       237       238       389      1491      1946      1947
 -1       619    8    0    1
 -2       237       389       388      1947      1948      1943
 -1       620    8    0    1
 -2       238       239       390      1494      1949      1950
 -1       621    8    0    1
 -2       238       390       389      1950      1951      1946
 -1       622    8    0    1
 -2       239       240       391      1497      1952      1953
 -1       623    8    0    1
 -2       239       391       390      1953      1954      1949
 -1       624    8    0    1
 -2       240       241       392      1500      1955      1956
 -1       625    8    0    1
 -2       240       392       391      1956      1957      1952
 -1       626    8    0    1
 -2       241       242       393      1503      1958      1959
 -1       627    8    0    1
 -2       241       393       392      1959      1960      1955
 -1       628    8    0    1
 -2       242       243       394      1506      1961      1962
 -1       629    8    0    1
 -2       242       394       393      1962      1963      1958
 -1       630    8    0    1
 -2       243       244       395      1509      1964      1965
 -1       631    8    0    1
 -2       243       395       394      1965      1966      1961
 -1       632    8    0    1
 -2       244       245       396      1512      1967      1968
 -1       633    8    0    1
 -2       244       396       395      1968      1969      1964
 -1       634    8    0    1
 -2       245       246       397      1515      1970      1971
 -1       635    8    0    1
 -2       245       397       396      1971      1972      1967
 -1       636    8    0    1
 -2       246       247       398      1518      1973      1974
 -1       637    8    0    1
 -2       246       398       397      1974      1975      1970
 -1       638    8    0    1
 -2       247       248       399      1521      1976      1977
 -1       639    8    0    1
 -2       247       399       398      1977      1978      1973
 -1       640    8    0    1
 -2       248       249       400      1524      1979      1980
 -1       641    8    0    1
 -2       248       400       399      1980      1981      1976
 -1       642    8    0    1
 -2       249       250       401      1527      1982      1983
 -1       643    8    0    1
 -2       249       401       400      1983      1984      1979
 -1       644    8    0    1
 -2       250       251       402      1530      1985      1986
 -1       645    8    0    1
 -2       250       402       401      1986      1987      1982
 -1       646    8    0    1
 -2       251       252       403      1533      1988      1989
 -1       647    8    0    1
 -2       251       403       402      1989      1990      1985
 -1       648    8    0    1
 -2       252       253       404      1536      1991      1992
 -1       649    8    0    1
 -2       252       404       403      1992      1993      1988
 -1       650    8    0    1
 -2       253       254       405      1539      1994      1995
 -1       651    8    0    1
 -2       253       405       404      1995      1996      1991
 -1       652    8    0    1
 -2       254       255       406      1542      1997      1998
 -1       653    8    0    1
 -2       254       406       405      1998      1999      1994
 -1       654    8    0    1
 -2       255       256       407      1545      2000      2001
 -1       655    8    0    1
 -2       255       407       406      2001      2002      1997
 -1       656    8    0    1
 -2       256       257       408      1548      2003      2004
 -1       657    8    0    1
 -2       256       408       407      2004      2005      2000
 -1       658    8    0    1
 -2       257       258       409      1551      2006      2007
 -1       659    8    0    1
 -2       257       409       408      2007      2008      2003
 -1       660    8    0    1
 -2       258       259       410      1554      2009      2010
 -1       661    8    0    1
 -2       258       410       409      2010      2011      2006
 -1       662    8    0    1
 -2       259       260       411      1557      2012      2013
 -1       663    8    0    1
 -2       259       411       410      2013      2014      2009
 -1       664    8    0    1
 -2       260       261       412      1560      2015      2016
 -1       665    8    0    1
 -2       260       412       411      2016      2017      2012
 -1       666    8    0    1
 -2       261       262       413      1563      2018      2019
 -1       667    8    0    1
 -2       261       413       412      2019      2020      2015
 -1       668    8    0    1
 -2       262       263       414      1566      2021      2022
 -1       669    8    0    1
 -2       262       414       413      2022      2023      2018
 -1       670    8    0    1
 -2       263       264       415      1569      2024      2025
 -1       671    8    0    1
 -2       263       415       414      2025      2026      2021
 -1       672    8    0    1
 -2       264       265       416      1572      2027      2028
 -1       673    8    0    1
 -2       264       416       415      2028      2029      2024
 -1       674    8    0    1
 -2       265       266       417      1575      2030      2031
 -1       675    8    0    1
 -2       265       417       416      2031      2032      2027
 -1       676    8    0    1
 -2       266       267       418      1578      2033      2034
 -1       677    8    0    1
 -2       266       418       417      2034      2035      2030
 -1       678    8    0    1
 -2       267       268       419      1581      2036      2037
 -1       679    8    0    1
 -2       267       419       418      2037      2038      2033
 -1       680    8    0    1
 -2       268       269       420      1584      2039      2040
 -1       681    8    0    1
 -2       268       420       419      2040      2041      2036
 -1       682    8    0    1
 -2       269       270       421      1587      2042      2043
 -1       683    8    0    1
 -2       269       421       420      2043      2044      2039
 -1       684    8    0    1
 -2       270       271       422      1590      2045      2046
 -1       685    8    0    1
 -2       270       422       421      2046      2047      2042
 -1       686    8    0    1
 -2       271       272       423      1593      2048      2049
 -1       687    8    0    1
 -2       271       423       422      2049      2050      2045
 -1       688    8    0    1
 -2       272       273       424      1596      2051      2052
 -1       689    8    0    1
 -2       272       424       423      2052      2053      2048
 -1       690    8    0    1
 -2       273       274       425      1599      2054      2055
 -1       691    8    0    1
 -2       273       425       424      2055      2056      2051
 -1       692    8    0    1
 -2       274       275       426      1602      2057      2058
 -1       693    8    0    1
 -2       274       426       425      2058      2059      2054
 -1       694    8    0    1
 -2       275       276       427      1605      2060      2061
 -1       695    8    0    1
 -2       275       427       426      2061      2062      2057
 -1       696    8    0    1
 -2       276       277       428      1608      2063      2064
 -1       697    8    0    1
 -2       427       276       428      2060      2064      2065
 -1       698    8    0    1
 -2       277       278       428      1718      2066      2063
 -1       699    8    0    1
 -2       280       281       429      1620      2067      2068
 -1       700    8    0    1
 -2       279       280       430      1617      2069      2070
 -1       701    8    0    1
 -2       280       429       430      2068      2071      2069
 -1       702    8    0    1
 -2       278       279       428      1614      2072      2066
 -1       703    8    0    1
 -2       281       282       431      1623      2073      2074
 -1       704    8    0    1
 -2       281       431       429      2074      2075      2067
 -1       705    8    0    1
 -2       282       283       432      1626      2076      2077
 -1       706    8    0    1
 -2       282       432       431      2077      2078      2073
 -1       707    8    0    1
 -2       283       284       433      1629      2079      2080
 -1       708    8    0    1
 -2       283       433       432      2080      2081      2076
 -1       709    8    0    1
 -2       284       285       434      1632      2082      2083
 -1       710    8    0    1
 -2       284       434       433      2083      2084      2079
 -1       711    8    0    1
 -2       285       286       435      1635      2085      2086
 -1       712    8    0    1
 -2       285       435       434      2086      2087      2082
 -1       713    8    0    1
 -2       286       287       436      1638      2088      2089
 -1       714    8    0    1
 -2       286       436       435      2089      2090      2085
 -1       715    8    0    1
 -2       287       288       437      1641      2091      2092
 -1       716    8    0    1
 -2       287       437       436      2092      2093      2088
 -1       717    8    0    1
 -2       288       289       438      1644      2094      2095
 -1       718    8    0    1
 -2       288       438       437      2095      2096      2091
 -1       719    8    0    1
 -2       289       290       439      1647      2097      2098
 -1       720    8    0    1
 -2       289       439       438      2098      2099      2094
 -1       721    8    0    1
 -2       290       291       440      1650      2100      2101
 -1       722    8    0    1
 -2       290       440       439      2101      2102      2097
 -1       723    8    0    1
 -2       231       232       441      1473      2103      2104
 -1       724    8    0    1
 -2       337       231       441      1790      2104      2105
 -1       725    8    0    1
 -2       232       384       441      1933      2106      2103
 -1       726    8    0    1
 -2       294       295       442      1720      2107      2108
 -1       727    8    0    1
 -2       296       297       443      1721      2109      2110
 -1       728    8    0    1
 -2       322       293       444      1716      2111      2112
 -1       729    8    0    1
 -2       295       296       445      1715      2113      2114
 -1       730    8    0    1
 -2       167       168       446      1280      2115      2116
 -1       731    8    0    1
 -2       323       167       446      1748      2116      2117
 -1       732    8    0    1
 -2       168       325       446      1754      2118      2115
 -1       733    8    0    1
 -2       297       298       447      1722      2119      2120
 -1       734    8    0    1
 -2       298       299       448      1723      2121      2122
 -1       735    8    0    1
 -2       299       300       449      1724      2123      2124
 -1       736    8    0    1
 -2       300       301       450      1725      2125      2126
 -1       737    8    0    1
 -2       301       302       451      1726      2127      2128
 -1       738    8    0    1
 -2       302       303       452      1727      2129      2130
 -1       739    8    0    1
 -2       303       304       453      1728      2131      2132
 -1       740    8    0    1
 -2       303       453       452      2132      2133      2129
 -1       741    8    0    1
 -2       304       305       454      1729      2134      2135
 -1       742    8    0    1
 -2       305       306       455      1730      2136      2137
 -1       743    8    0    1
 -2       306       307       456      1731      2138      2139
 -1       744    8    0    1
 -2       307       308       457      1732      2140      2141
 -1       745    8    0    1
 -2       307       457       456      2141      2142      2138
 -1       746    8    0    1
 -2       308       309       458      1733      2143      2144
 -1       747    8    0    1
 -2       309       310       459      1734      2145      2146
 -1       748    8    0    1
 -2       309       459       458      2146      2147      2143
 -1       749    8    0    1
 -2       310       311       460      1735      2148      2149
 -1       750    8    0    1
 -2       311       312       461      1736      2150      2151
 -1       751    8    0    1
 -2       312       313       462      1737      2152      2153
 -1       752    8    0    1
 -2       312       462       461      2153      2154      2150
 -1       753    8    0    1
 -2       313       314       463      1738      2155      2156
 -1       754    8    0    1
 -2       314       315       464      1739      2157      2158
 -1       755    8    0    1
 -2       315       316       465      1740      2159      2160
 -1       756    8    0    1
 -2       316       317       466      1741      2161      2162
 -1       757    8    0    1
 -2       317       318       467      1742      2163      2164
 -1       758    8    0    1
 -2       318       319       468      1743      2165      2166
 -1       759    8    0    1
 -2       319       320       469      1744      2167      2168
 -1       760    8    0    1
 -2       320       321       470      1745      2169      2170
 -1       761    8    0    1
 -2       320       470       469      2170      2171      2167
 -1       762    8    0    1
 -2       321       322       471      1746      2172      2173
 -1       763    8    0    1
 -2       293       294       472      1719      2174      2175
 -1       764    8    0    1
 -2       292       228       383      1931      1929      2176
 -1       765    8    0    1
 -2       445       296       443      2113      2110      2177
 -1       766    8    0    1
 -2       181       324       182      1793      2178      1322
 -1       767    8    0    1
 -2       442       295       445      2107      2114      2179
 -1       768    8    0    1
 -2       297       447       443      2120      2180      2109
 -1       769    8    0    1
 -2       338       182       324      1794      2178      2181
 -1       770    8    0    1
 -2       428       279       430      2072      2070      2182
 -1       771    8    0    1
 -2       444       293       472      2111      2175      2183
 -1       772    8    0    1
 -2       291       292       383      1653      2176      2184
 -1       773    8    0    1
 -2       294       442       472      2108      2185      2174
 -1       774    8    0    1
 -2       322       444       471      2112      2186      2172
 -1       775    8    0    1
 -2       470       321       473      2169      2187      2188
 -1       776    8    0    1
 -2       321       471       473      2173      2189      2187
 -1       777    8    0    1
 -2       468       319       469      2165      2168      2190
 -1       778    8    0    1
 -2       467       318       468      2163      2166      2191
 -1       779    8    0    1
 -2       466       317       467      2161      2164      2192
 -1       780    8    0    1
 -2       465       316       466      2159      2162      2193
 -1       781    8    0    1
 -2       464       315       465      2157      2160      2194
 -1       782    8    0    1
 -2       462       313       474      2152      2195      2196
 -1       783    8    0    1
 -2       313       463       474      2156      2197      2195
 -1       784    8    0    1
 -2       459       310       475      2145      2198      2199
 -1       785    8    0    1
 -2       310       460       475      2149      2200      2198
 -1       786    8    0    1
 -2       457       308       476      2140      2201      2202
 -1       787    8    0    1
 -2       308       458       476      2144      2203      2201
 -1       788    8    0    1
 -2       455       306       456      2136      2139      2204
 -1       789    8    0    1
 -2       453       304       454      2131      2135      2205
 -1       790    8    0    1
 -2       451       302       452      2127      2130      2206
 -1       791    8    0    1
 -2       450       301       451      2125      2128      2207
 -1       792    8    0    1
 -2       449       300       450      2123      2126      2208
 -1       793    8    0    1
 -2       447       298       448      2119      2122      2209
 -1       794    8    0    1
 -2       448       299       449      2121      2124      2210
 -1       795    8    0    1
 -2       454       305       455      2134      2137      2211
 -1       796    8    0    1
 -2       460       311       461      2148      2151      2212
 -1       797    8    0    1
 -2       463       314       464      2155      2158      2213
 -1       798    8    0    1
 -2       291       383       440      2184      2214      2100
 -1       799    8    0    1
 -2       326       327       477      1760      2215      2216
 -1       800    8    0    1
 -2       325       326       478      1757      2217      2218
 -1       801    8    0    1
 -2       326       477       478      2216      2219      2217
 -1       802    8    0    1
 -2       328       329       479      1766      2220      2221
 -1       803    8    0    1
 -2       329       330       480      1769      2222      2223
 -1       804    8    0    1
 -2       329       480       479      2223      2224      2220
 -1       805    8    0    1
 -2       330       331       481      1772      2225      2226
 -1       806    8    0    1
 -2       330       481       480      2226      2227      2222
 -1       807    8    0    1
 -2       331       332       482      1775      2228      2229
 -1       808    8    0    1
 -2       331       482       481      2229      2230      2225
 -1       809    8    0    1
 -2       332       333       483      1778      2231      2232
 -1       810    8    0    1
 -2       332       483       482      2232      2233      2228
 -1       811    8    0    1
 -2       333       334       484      1781      2234      2235
 -1       812    8    0    1
 -2       333       484       483      2235      2236      2231
 -1       813    8    0    1
 -2       334       335       485      1784      2237      2238
 -1       814    8    0    1
 -2       334       485       484      2238      2239      2234
 -1       815    8    0    1
 -2       335       336       486      1787      2240      2241
 -1       816    8    0    1
 -2       485       335       486      2237      2241      2242
 -1       817    8    0    1
 -2       336       337       486      1792      2243      2240
 -1       818    8    0    1
 -2       339       338       487      1798      2244      2245
 -1       819    8    0    1
 -2       442       445       488      2179      2246      2247
 -1       820    8    0    1
 -2       445       443       489      2177      2248      2249
 -1       821    8    0    1
 -2       340       339       490      1801      2250      2251
 -1       822    8    0    1
 -2       339       487       490      2245      2252      2250
 -1       823    8    0    1
 -2       341       340       491      1804      2253      2254
 -1       824    8    0    1
 -2       340       490       491      2251      2255      2253
 -1       825    8    0    1
 -2       342       341       492      1807      2256      2257
 -1       826    8    0    1
 -2       341       491       492      2254      2258      2256
 -1       827    8    0    1
 -2       343       342       493      1810      2259      2260
 -1       828    8    0    1
 -2       342       492       493      2257      2261      2259
 -1       829    8    0    1
 -2       344       343       494      1813      2262      2263
 -1       830    8    0    1
 -2       343       493       494      2260      2264      2262
 -1       831    8    0    1
 -2       345       344       474      1816      2265      2266
 -1       832    8    0    1
 -2       346       345       474      1819      2266      2267
 -1       833    8    0    1
 -2       347       346       495      1822      2268      2269
 -1       834    8    0    1
 -2       348       347       496      1825      2270      2271
 -1       835    8    0    1
 -2       349       348       497      1828      2272      2273
 -1       836    8    0    1
 -2       350       349       498      1831      2274      2275
 -1       837    8    0    1
 -2       349       497       498      2273      2276      2274
 -1       838    8    0    1
 -2       351       350       499      1834      2277      2278
 -1       839    8    0    1
 -2       350       498       499      2275      2279      2277
 -1       840    8    0    1
 -2       352       351       500      1837      2280      2281
 -1       841    8    0    1
 -2       351       499       500      2278      2282      2280
 -1       842    8    0    1
 -2       353       352       501      1840      2283      2284
 -1       843    8    0    1
 -2       352       500       501      2281      2285      2283
 -1       844    8    0    1
 -2       354       353       502      1843      2286      2287
 -1       845    8    0    1
 -2       353       501       502      2284      2288      2286
 -1       846    8    0    1
 -2       355       354       503      1846      2289      2290
 -1       847    8    0    1
 -2       354       502       503      2287      2291      2289
 -1       848    8    0    1
 -2       356       355       504      1849      2292      2293
 -1       849    8    0    1
 -2       355       503       504      2290      2294      2292
 -1       850    8    0    1
 -2       357       356       505      1852      2295      2296
 -1       851    8    0    1
 -2       356       504       505      2293      2297      2295
 -1       852    8    0    1
 -2       358       357       506      1855      2298      2299
 -1       853    8    0    1
 -2       357       505       506      2296      2300      2298
 -1       854    8    0    1
 -2       359       358       507      1858      2301      2302
 -1       855    8    0    1
 -2       358       506       507      2299      2303      2301
 -1       856    8    0    1
 -2       360       359       508      1861      2304      2305
 -1       857    8    0    1
 -2       359       507       508      2302      2306      2304
 -1       858    8    0    1
 -2       361       360       509      1864      2307      2308
 -1       859    8    0    1
 -2       360       508       509      2305      2309      2307
 -1       860    8    0    1
 -2       362       361       510      1867      2310      2311
 -1       861    8    0    1
 -2       361       509       510      2308      2312      2310
 -1       862    8    0    1
 -2       363       362       511      1870      2313      2314
 -1       863    8    0    1
 -2       362       510       511      2311      2315      2313
 -1       864    8    0    1
 -2       364       363       512      1873      2316      2317
 -1       865    8    0    1
 -2       363       511       512      2314      2318      2316
 -1       866    8    0    1
 -2       365       364       513      1876      2319      2320
 -1       867    8    0    1
 -2       364       512       513      2317      2321      2319
 -1       868    8    0    1
 -2       366       365       514      1879      2322      2323
 -1       869    8    0    1
 -2       365       513       514      2320      2324      2322
 -1       870    8    0    1
 -2       367       366       515      1882      2325      2326
 -1       871    8    0    1
 -2       366       514       515      2323      2327      2325
 -1       872    8    0    1
 -2       368       367       516      1885      2328      2329
 -1       873    8    0    1
 -2       367       515       516      2326      2330      2328
 -1       874    8    0    1
 -2       369       368       517      1888      2331      2332
 -1       875    8    0    1
 -2       368       516       517      2329      2333      2331
 -1       876    8    0    1
 -2       370       369       518      1891      2334      2335
 -1       877    8    0    1
 -2       369       517       518      2332      2336      2334
 -1       878    8    0    1
 -2       371       370       519      1894      2337      2338
 -1       879    8    0    1
 -2       370       518       519      2335      2339      2337
 -1       880    8    0    1
 -2       372       371       520      1897      2340      2341
 -1       881    8    0    1
 -2       371       519       520      2338      2342      2340
 -1       882    8    0    1
 -2       373       372       521      1900      2343      2344
 -1       883    8    0    1
 -2       372       520       521      2341      2345      2343
 -1       884    8    0    1
 -2       374       373       522      1903      2346      2347
 -1       885    8    0    1
 -2       373       521       522      2344      2348      2346
 -1       886    8    0    1
 -2       375       374       523      1906      2349      2350
 -1       887    8    0    1
 -2       374       522       523      2347      2351      2349
 -1       888    8    0    1
 -2       376       375       524      1909      2352      2353
 -1       889    8    0    1
 -2       375       523       524      2350      2354      2352
 -1       890    8    0    1
 -2       377       376       525      1912      2355      2356
 -1       891    8    0    1
 -2       376       524       525      2353      2357      2355
 -1       892    8    0    1
 -2       378       377       526      1915      2358      2359
 -1       893    8    0    1
 -2       377       525       526      2356      2360      2358
 -1       894    8    0    1
 -2       379       378       527      1918      2361      2362
 -1       895    8    0    1
 -2       378       526       527      2359      2363      2361
 -1       896    8    0    1
 -2       380       379       528      1921      2364      2365
 -1       897    8    0    1
 -2       379       527       528      2362      2366      2364
 -1       898    8    0    1
 -2       381       380       529      1924      2367      2368
 -1       899    8    0    1
 -2       380       528       529      2365      2369      2367
 -1       900    8    0    1
 -2       382       381       530      1927      2370      2371
 -1       901    8    0    1
 -2       381       529       530      2368      2372      2370
 -1       902    8    0    1
 -2       383       382       531      1930      2373      2374
 -1       903    8    0    1
 -2       440       383       531      2214      2374      2375
 -1       904    8    0    1
 -2       382       530       531      2371      2376      2373
 -1       905    8    0    1
 -2       386       387       532      1942      2377      2378
 -1       906    8    0    1
 -2       385       386       533      1939      2379      2380
 -1       907    8    0    1
 -2       386       532       533      2378      2381      2379
 -1       908    8    0    1
 -2       384       385       534      1936      2382      2383
 -1       909    8    0    1
 -2       385       533       534      2380      2384      2382
 -1       910    8    0    1
 -2       387       388       535      1945      2385      2386
 -1       911    8    0    1
 -2       387       535       532      2386      2387      2377
 -1       912    8    0    1
 -2       388       389       536      1948      2388      2389
 -1       913    8    0    1
 -2       388       536       535      2389      2390      2385
 -1       914    8    0    1
 -2       389       390       537      1951      2391      2392
 -1       915    8    0    1
 -2       389       537       536      2392      2393      2388
 -1       916    8    0    1
 -2       390       391       538      1954      2394      2395
 -1       917    8    0    1
 -2       390       538       537      2395      2396      2391
 -1       918    8    0    1
 -2       391       392       539      1957      2397      2398
 -1       919    8    0    1
 -2       391       539       538      2398      2399      2394
 -1       920    8    0    1
 -2       392       393       540      1960      2400      2401
 -1       921    8    0    1
 -2       392       540       539      2401      2402      2397
 -1       922    8    0    1
 -2       393       394       541      1963      2403      2404
 -1       923    8    0    1
 -2       393       541       540      2404      2405      2400
 -1       924    8    0    1
 -2       394       395       542      1966      2406      2407
 -1       925    8    0    1
 -2       394       542       541      2407      2408      2403
 -1       926    8    0    1
 -2       395       396       543      1969      2409      2410
 -1       927    8    0    1
 -2       395       543       542      2410      2411      2406
 -1       928    8    0    1
 -2       396       397       544      1972      2412      2413
 -1       929    8    0    1
 -2       396       544       543      2413      2414      2409
 -1       930    8    0    1
 -2       397       398       545      1975      2415      2416
 -1       931    8    0    1
 -2       397       545       544      2416      2417      2412
 -1       932    8    0    1
 -2       398       399       546      1978      2418      2419
 -1       933    8    0    1
 -2       398       546       545      2419      2420      2415
 -1       934    8    0    1
 -2       399       400       547      1981      2421      2422
 -1       935    8    0    1
 -2       399       547       546      2422      2423      2418
 -1       936    8    0    1
 -2       400       401       548      1984      2424      2425
 -1       937    8    0    1
 -2       400       548       547      2425      2426      2421
 -1       938    8    0    1
 -2       401       402       549      1987      2427      2428
 -1       939    8    0    1
 -2       401       549       548      2428      2429      2424
 -1       940    8    0    1
 -2       402       403       550      1990      2430      2431
 -1       941    8    0    1
 -2       402       550       549      2431      2432      2427
 -1       942    8    0    1
 -2       403       404       551      1993      2433      2434
 -1       943    8    0    1
 -2       403       551       550      2434      2435      2430
 -1       944    8    0    1
 -2       404       405       552      1996      2436      2437
 -1       945    8    0    1
 -2       404       552       551      2437      2438      2433
 -1       946    8    0    1
 -2       405       406       553      1999      2439      2440
 -1       947    8    0    1
 -2       405       553       552      2440      2441      2436
 -1       948    8    0    1
 -2       406       407       554      2002      2442      2443
 -1       949    8    0    1
 -2       406       554       553      2443      2444      2439
 -1       950    8    0    1
 -2       407       408       555      2005      2445      2446
 -1       951    8    0    1
 -2       407       555       554      2446      2447      2442
 -1       952    8    0    1
 -2       408       409       556      2008      2448      2449
 -1       953    8    0    1
 -2       408       556       555      2449      2450      2445
 -1       954    8    0    1
 -2       409       410       557      2011      2451      2452
 -1       955    8    0    1
 -2       409       557       556      2452      2453      2448
 -1       956    8    0    1
 -2       410       411       558      2014      2454      2455
 -1       957    8    0    1
 -2       410       558       557      2455      2456      2451
 -1       958    8    0    1
 -2       411       412       559      2017      2457      2458
 -1       959    8    0    1
 -2       411       559       558      2458      2459      2454
 -1       960    8    0    1
 -2       412       413       560      2020      2460      2461
 -1       961    8    0    1
 -2       412       560       559      2461      2462      2457
 -1       962    8    0    1
 -2       413       414       561      2023      2463      2464
 -1       963    8    0    1
 -2       413       561       560      2464      2465      2460
 -1       964    8    0    1
 -2       414       415       562      2026      2466      2467
 -1       965    8    0    1
 -2       414       562       561      2467      2468      2463
 -1       966    8    0    1
 -2       415       416       563      2029      2469      2470
 -1       967    8    0    1
 -2       415       563       562      2470      2471      2466
 -1       968    8    0    1
 -2       416       417       564      2032      2472      2473
 -1       969    8    0    1
 -2       416       564       563      2473      2474      2469
 -1       970    8    0    1
 -2       417       418       565      2035      2475      2476
 -1       971    8    0    1
 -2       417       565       564      2476      2477      2472
 -1       972    8    0    1
 -2       418       419       566      2038      2478      2479
 -1       973    8    0    1
 -2       418       566       565      2479      2480      2475
 -1       974    8    0    1
 -2       419       420       567      2041      2481      2482
 -1       975    8    0    1
 -2       419       567       566      2482      2483      2478
 -1       976    8    0    1
 -2       420       421       568      2044      2484      2485
 -1       977    8    0    1
 -2       420       568       567      2485      2486      2481
 -1       978    8    0    1
 -2       421       422       569      2047      2487      2488
 -1       979    8    0    1
 -2       421       569       568      2488      2489      2484
 -1       980    8    0    1
 -2       422       423       570      2050      2490      2491
 -1       981    8    0    1
 -2       422       570       569      2491      2492      2487
 -1       982    8    0    1
 -2       423       424       571      2053      2493      2494
 -1       983    8    0    1
 -2       423       571       570      2494      2495      2490
 -1       984    8    0    1
 -2       424       425       572      2056      2496      2497
 -1       985    8    0    1
 -2       424       572       571      2497      2498      2493
 -1       986    8    0    1
 -2       425       426       573      2059      2499      2500
 -1       987    8    0    1
 -2       425       573       572      2500      2501      2496
 -1       988    8    0    1
 -2       426       427       574      2062      2502      2503
 -1       989    8    0    1
 -2       426       574       573      2503      2504      2499
 -1       990    8    0    1
 -2       427       428       430      2065      2182      2505
 -1       991    8    0    1
 -2       431       432       575      2078      2506      2507
 -1       992    8    0    1
 -2       429       431       576      2075      2508      2509
 -1       993    8    0    1
 -2       431       575       576      2507      2510      2508
 -1       994    8    0    1
 -2       430       429       577      2071      2511      2512
 -1       995    8    0    1
 -2       429       576       577      2509      2513      2511
 -1       996    8    0    1
 -2       444       472       578      2183      2514      2515
 -1       997    8    0    1
 -2       432       433       579      2081      2516      2517
 -1       998    8    0    1
 -2       432       579       575      2517      2518      2506
 -1       999    8    0    1
 -2       433       434       580      2084      2519      2520
 -1      1000    8    0    1
 -2       433       580       579      2520      2521      2516
 -1      1001    8    0    1
 -2       434       435       581      2087      2522      2523
 -1      1002    8    0    1
 -2       434       581       580      2523      2524      2519
 -1      1003    8    0    1
 -2       435       436       582      2090      2525      2526
 -1      1004    8    0    1
 -2       435       582       581      2526      2527      2522
 -1      1005    8    0    1
 -2       436       437       583      2093      2528      2529
 -1      1006    8    0    1
 -2       436       583       582      2529      2530      2525
 -1      1007    8    0    1
 -2       437       438       584      2096      2531      2532
 -1      1008    8    0    1
 -2       437       584       583      2532      2533      2528
 -1      1009    8    0    1
 -2       438       439       585      2099      2534      2535
 -1      1010    8    0    1
 -2       438       585       584      2535      2536      2531
 -1      1011    8    0    1
 -2       439       440       586      2102      2537      2538
 -1      1012    8    0    1
 -2       585       439       586      2534      2538      2539
 -1      1013    8    0    1
 -2       440       531       586      2375      2540      2537
 -1      1014    8    0    1
 -2       338       324       587      2181      2541      2542
 -1      1015    8    0    1
 -2       487       338       587      2244      2542      2543
 -1      1016    8    0    1
 -2       324       323       587      1752      2544      2541
 -1      1017    8    0    1
 -2       443       447       588      2180      2545      2546
 -1      1018    8    0    1
 -2       471       444       589      2186      2547      2548
 -1      1019    8    0    1
 -2       468       469       590      2190      2549      2550
 -1      1020    8    0    1
 -2       455       456       591      2204      2551      2552
 -1      1021    8    0    1
 -2       451       452       592      2206      2553      2554
 -1      1022    8    0    1
 -2       327       328       593      1763      2555      2556
 -1      1023    8    0    1
 -2       477       327       593      2215      2556      2557
 -1      1024    8    0    1
 -2       328       479       593      2221      2558      2555
 -1      1025    8    0    1
 -2       448       449       594      2210      2559      2560
 -1      1026    8    0    1
 -2       454       455       595      2211      2561      2562
 -1      1027    8    0    1
 -2       447       448       596      2209      2563      2564
 -1      1028    8    0    1
 -2       449       450       597      2208      2565      2566
 -1      1029    8    0    1
 -2       450       451       598      2207      2567      2568
 -1      1030    8    0    1
 -2       452       453       599      2133      2569      2570
 -1      1031    8    0    1
 -2       460       461       600      2212      2571      2572
 -1      1032    8    0    1
 -2       453       454       601      2205      2573      2574
 -1      1033    8    0    1
 -2       453       601       599      2574      2575      2569
 -1      1034    8    0    1
 -2       456       457       602      2142      2576      2577
 -1      1035    8    0    1
 -2       458       459       603      2147      2578      2579
 -1      1036    8    0    1
 -2       461       462       604      2154      2580      2581
 -1      1037    8    0    1
 -2       461       604       600      2581      2582      2571
 -1      1038    8    0    1
 -2       464       465       495      2194      2583      2584
 -1      1039    8    0    1
 -2       466       467       605      2192      2585      2586
 -1      1040    8    0    1
 -2       467       468       606      2191      2587      2588
 -1      1041    8    0    1
 -2       467       606       605      2588      2589      2585
 -1      1042    8    0    1
 -2       469       470       607      2171      2590      2591
 -1      1043    8    0    1
 -2       472       442       608      2185      2592      2593
 -1      1044    8    0    1
 -2       427       430       574      2505      2594      2502
 -1      1045    8    0    1
 -2       325       478       609      2218      2595      2596
 -1      1046    8    0    1
 -2       325       609       446      2596      2597      2118
 -1      1047    8    0    1
 -2       588       447       596      2545      2564      2598
 -1      1048    8    0    1
 -2       486       337       610      2243      2599      2600
 -1      1049    8    0    1
 -2       337       441       610      2105      2601      2599
 -1      1050    8    0    1
 -2       488       445       489      2246      2249      2602
 -1      1051    8    0    1
 -2       442       488       608      2247      2603      2592
 -1      1052    8    0    1
 -2       606       468       590      2587      2550      2604
 -1      1053    8    0    1
 -2       344       494       474      2263      2605      2265
 -1      1054    8    0    1
 -2       348       496       497      2271      2606      2272
 -1      1055    8    0    1
 -2       444       578       589      2515      2607      2547
 -1      1056    8    0    1
 -2       578       472       608      2514      2593      2608
 -1      1057    8    0    1
 -2       469       607       590      2591      2609      2549
 -1      1058    8    0    1
 -2       604       462       474      2580      2196      2610
 -1      1059    8    0    1
 -2       587       323       446      2544      2117      2611
 -1      1060    8    0    1
 -2       448       594       596      2560      2612      2563
 -1      1061    8    0    1
 -2       441       384       611      2106      2613      2614
 -1      1062    8    0    1
 -2       610       441       611      2601      2614      2615
 -1      1063    8    0    1
 -2       384       534       611      2383      2616      2613
 -1      1064    8    0    1
 -2       603       459       612      2578      2617      2618
 -1      1065    8    0    1
 -2       459       475       612      2199      2619      2617
 -1      1066    8    0    1
 -2       601       454       595      2573      2562      2620
 -1      1067    8    0    1
 -2       430       577       574      2512      2621      2594
 -1      1068    8    0    1
 -2       473       471       589      2189      2548      2622
 -1      1069    8    0    1
 -2       455       591       595      2552      2623      2561
 -1      1070    8    0    1
 -2       456       602       591      2577      2624      2551
 -1      1071    8    0    1
 -2       598       451       592      2567      2554      2625
 -1      1072    8    0    1
 -2       597       450       613      2565      2626      2627
 -1      1073    8    0    1
 -2       450       598       613      2568      2628      2626
 -1      1074    8    0    1
 -2       475       460       614      2200      2629      2630
 -1      1075    8    0    1
 -2       460       600       614      2572      2631      2629
 -1      1076    8    0    1
 -2       476       458       603      2203      2579      2632
 -1      1077    8    0    1
 -2       592       452       599      2553      2570      2633
 -1      1078    8    0    1
 -2       443       588       489      2546      2634      2248
 -1      1079    8    0    1
 -2       496       347       495      2270      2269      2635
 -1      1080    8    0    1
 -2       449       597       594      2566      2636      2559
 -1      1081    8    0    1
 -2       602       457       615      2576      2637      2638
 -1      1082    8    0    1
 -2       457       476       615      2202      2639      2637
 -1      1083    8    0    1
 -2       463       464       616      2213      2640      2641
 -1      1084    8    0    1
 -2       466       605       617      2586      2642      2643
 -1      1085    8    0    1
 -2       466       617       465      2643      2644      2193
 -1      1086    8    0    1
 -2       607       470       473      2590      2188      2645
 -1      1087    8    0    1
 -2       616       464       495      2640      2584      2646
 -1      1088    8    0    1
 -2       480       481       618      2227      2647      2648
 -1      1089    8    0    1
 -2       479       480       619      2224      2649      2650
 -1      1090    8    0    1
 -2       480       618       619      2648      2651      2649
 -1      1091    8    0    1
 -2       482       483       620      2233      2652      2653
 -1      1092    8    0    1
 -2       483       484       621      2236      2654      2655
 -1      1093    8    0    1
 -2       483       621       620      2655      2656      2652
 -1      1094    8    0    1
 -2       485       486       622      2242      2657      2658
 -1      1095    8    0    1
 -2       486       610       622      2600      2659      2657
 -1      1096    8    0    1
 -2       588       596       623      2598      2660      2661
 -1      1097    8    0    1
 -2       608       488       624      2603      2662      2663
 -1      1098    8    0    1
 -2       606       590       625      2604      2664      2665
 -1      1099    8    0    1
 -2       491       490       626      2255      2666      2667
 -1      1100    8    0    1
 -2       492       491       627      2258      2668      2669
 -1      1101    8    0    1
 -2       491       626       627      2667      2670      2668
 -1      1102    8    0    1
 -2       493       492       628      2261      2671      2672
 -1      1103    8    0    1
 -2       492       627       628      2669      2673      2671
 -1      1104    8    0    1
 -2       495       346       616      2268      2674      2646
 -1      1105    8    0    1
 -2       487       587       629      2543      2675      2676
 -1      1106    8    0    1
 -2       499       498       630      2279      2677      2678
 -1      1107    8    0    1
 -2       500       499       631      2282      2679      2680
 -1      1108    8    0    1
 -2       499       630       631      2678      2681      2679
 -1      1109    8    0    1
 -2       501       500       632      2285      2682      2683
 -1      1110    8    0    1
 -2       500       631       632      2680      2684      2682
 -1      1111    8    0    1
 -2       502       501       633      2288      2685      2686
 -1      1112    8    0    1
 -2       501       632       633      2683      2687      2685
 -1      1113    8    0    1
 -2       503       502       634      2291      2688      2689
 -1      1114    8    0    1
 -2       502       633       634      2686      2690      2688
 -1      1115    8    0    1
 -2       504       503       635      2294      2691      2692
 -1      1116    8    0    1
 -2       503       634       635      2689      2693      2691
 -1      1117    8    0    1
 -2       505       504       636      2297      2694      2695
 -1      1118    8    0    1
 -2       504       635       636      2692      2696      2694
 -1      1119    8    0    1
 -2       506       505       637      2300      2697      2698
 -1      1120    8    0    1
 -2       505       636       637      2695      2699      2697
 -1      1121    8    0    1
 -2       507       506       638      2303      2700      2701
 -1      1122    8    0    1
 -2       506       637       638      2698      2702      2700
 -1      1123    8    0    1
 -2       508       507       639      2306      2703      2704
 -1      1124    8    0    1
 -2       507       638       639      2701      2705      2703
 -1      1125    8    0    1
 -2       509       508       640      2309      2706      2707
 -1      1126    8    0    1
 -2       508       639       640      2704      2708      2706
 -1      1127    8    0    1
 -2       510       509       641      2312      2709      2710
 -1      1128    8    0    1
 -2       509       640       641      2707      2711      2709
 -1      1129    8    0    1
 -2       511       510       642      2315      2712      2713
 -1      1130    8    0    1
 -2       510       641       642      2710      2714      2712
 -1      1131    8    0    1
 -2       512       511       643      2318      2715      2716
 -1      1132    8    0    1
 -2       511       642       643      2713      2717      2715
 -1      1133    8    0    1
 -2       513       512       644      2321      2718      2719
 -1      1134    8    0    1
 -2       512       643       644      2716      2720      2718
 -1      1135    8    0    1
 -2       514       513       645      2324      2721      2722
 -1      1136    8    0    1
 -2       513       644       645      2719      2723      2721
 -1      1137    8    0    1
 -2       515       514       646      2327      2724      2725
 -1      1138    8    0    1
 -2       514       645       646      2722      2726      2724
 -1      1139    8    0    1
 -2       516       515       647      2330      2727      2728
 -1      1140    8    0    1
 -2       515       646       647      2725      2729      2727
 -1      1141    8    0    1
 -2       517       516       648      2333      2730      2731
 -1      1142    8    0    1
 -2       516       647       648      2728      2732      2730
 -1      1143    8    0    1
 -2       518       517       649      2336      2733      2734
 -1      1144    8    0    1
 -2       517       648       649      2731      2735      2733
 -1      1145    8    0    1
 -2       519       518       650      2339      2736      2737
 -1      1146    8    0    1
 -2       518       649       650      2734      2738      2736
 -1      1147    8    0    1
 -2       520       519       651      2342      2739      2740
 -1      1148    8    0    1
 -2       519       650       651      2737      2741      2739
 -1      1149    8    0    1
 -2       521       520       652      2345      2742      2743
 -1      1150    8    0    1
 -2       520       651       652      2740      2744      2742
 -1      1151    8    0    1
 -2       522       521       653      2348      2745      2746
 -1      1152    8    0    1
 -2       521       652       653      2743      2747      2745
 -1      1153    8    0    1
 -2       523       522       654      2351      2748      2749
 -1      1154    8    0    1
 -2       522       653       654      2746      2750      2748
 -1      1155    8    0    1
 -2       524       523       655      2354      2751      2752
 -1      1156    8    0    1
 -2       523       654       655      2749      2753      2751
 -1      1157    8    0    1
 -2       525       524       656      2357      2754      2755
 -1      1158    8    0    1
 -2       524       655       656      2752      2756      2754
 -1      1159    8    0    1
 -2       526       525       657      2360      2757      2758
 -1      1160    8    0    1
 -2       525       656       657      2755      2759      2757
 -1      1161    8    0    1
 -2       527       526       658      2363      2760      2761
 -1      1162    8    0    1
 -2       526       657       658      2758      2762      2760
 -1      1163    8    0    1
 -2       528       527       659      2366      2763      2764
 -1      1164    8    0    1
 -2       527       658       659      2761      2765      2763
 -1      1165    8    0    1
 -2       529       528       660      2369      2766      2767
 -1      1166    8    0    1
 -2       528       659       660      2764      2768      2766
 -1      1167    8    0    1
 -2       530       529       661      2372      2769      2770
 -1      1168    8    0    1
 -2       529       660       661      2767      2771      2769
 -1      1169    8    0    1
 -2       531       530       662      2376      2772      2773
 -1      1170    8    0    1
 -2       586       531       662      2540      2773      2774
 -1      1171    8    0    1
 -2       530       661       662      2770      2775      2772
 -1      1172    8    0    1
 -2       533       532       663      2381      2776      2777
 -1      1173    8    0    1
 -2       532       535       664      2387      2778      2779
 -1      1174    8    0    1
 -2       532       664       663      2779      2780      2776
 -1      1175    8    0    1
 -2       534       533       665      2384      2781      2782
 -1      1176    8    0    1
 -2       533       663       665      2777      2783      2781
 -1      1177    8    0    1
 -2       536       537       666      2393      2784      2785
 -1      1178    8    0    1
 -2       537       538       667      2396      2786      2787
 -1      1179    8    0    1
 -2       537       667       666      2787      2788      2784
 -1      1180    8    0    1
 -2       538       539       668      2399      2789      2790
 -1      1181    8    0    1
 -2       538       668       667      2790      2791      2786
 -1      1182    8    0    1
 -2       539       540       669      2402      2792      2793
 -1      1183    8    0    1
 -2       539       669       668      2793      2794      2789
 -1      1184    8    0    1
 -2       540       541       670      2405      2795      2796
 -1      1185    8    0    1
 -2       540       670       669      2796      2797      2792
 -1      1186    8    0    1
 -2       541       542       671      2408      2798      2799
 -1      1187    8    0    1
 -2       541       671       670      2799      2800      2795
 -1      1188    8    0    1
 -2       542       543       672      2411      2801      2802
 -1      1189    8    0    1
 -2       542       672       671      2802      2803      2798
 -1      1190    8    0    1
 -2       543       544       673      2414      2804      2805
 -1      1191    8    0    1
 -2       543       673       672      2805      2806      2801
 -1      1192    8    0    1
 -2       544       545       674      2417      2807      2808
 -1      1193    8    0    1
 -2       544       674       673      2808      2809      2804
 -1      1194    8    0    1
 -2       545       546       675      2420      2810      2811
 -1      1195    8    0    1
 -2       545       675       674      2811      2812      2807
 -1      1196    8    0    1
 -2       546       547       676      2423      2813      2814
 -1      1197    8    0    1
 -2       546       676       675      2814      2815      2810
 -1      1198    8    0    1
 -2       547       548       677      2426      2816      2817
 -1      1199    8    0    1
 -2       547       677       676      2817      2818      2813
 -1      1200    8    0    1
 -2       548       549       678      2429      2819      2820
 -1      1201    8    0    1
 -2       548       678       677      2820      2821      2816
 -1      1202    8    0    1
 -2       549       550       679      2432      2822      2823
 -1      1203    8    0    1
 -2       549       679       678      2823      2824      2819
 -1      1204    8    0    1
 -2       550       551       680      2435      2825      2826
 -1      1205    8    0    1
 -2       550       680       679      2826      2827      2822
 -1      1206    8    0    1
 -2       551       552       681      2438      2828      2829
 -1      1207    8    0    1
 -2       551       681       680      2829      2830      2825
 -1      1208    8    0    1
 -2       552       553       682      2441      2831      2832
 -1      1209    8    0    1
 -2       552       682       681      2832      2833      2828
 -1      1210    8    0    1
 -2       553       554       683      2444      2834      2835
 -1      1211    8    0    1
 -2       553       683       682      2835      2836      2831
 -1      1212    8    0    1
 -2       554       555       684      2447      2837      2838
 -1      1213    8    0    1
 -2       554       684       683      2838      2839      2834
 -1      1214    8    0    1
 -2       555       556       685      2450      2840      2841
 -1      1215    8    0    1
 -2       555       685       684      2841      2842      2837
 -1      1216    8    0    1
 -2       556       557       686      2453      2843      2844
 -1      1217    8    0    1
 -2       556       686       685      2844      2845      2840
 -1      1218    8    0    1
 -2       557       558       687      2456      2846      2847
 -1      1219    8    0    1
 -2       557       687       686      2847      2848      2843
 -1      1220    8    0    1
 -2       558       559       688      2459      2849      2850
 -1      1221    8    0    1
 -2       558       688       687      2850      2851      2846
 -1      1222    8    0    1
 -2       559       560       689      2462      2852      2853
 -1      1223    8    0    1
 -2       559       689       688      2853      2854      2849
 -1      1224    8    0    1
 -2       560       561       690      2465      2855      2856
 -1      1225    8    0    1
 -2       560       690       689      2856      2857      2852
 -1      1226    8    0    1
 -2       561       562       691      2468      2858      2859
 -1      1227    8    0    1
 -2       561       691       690      2859      2860      2855
 -1      1228    8    0    1
 -2       562       563       692      2471      2861      2862
 -1      1229    8    0    1
 -2       562       692       691      2862      2863      2858
 -1      1230    8    0    1
 -2       563       564       693      2474      2864      2865
 -1      1231    8    0    1
 -2       563       693       692      2865      2866      2861
 -1      1232    8    0    1
 -2       564       565       694      2477      2867      2868
 -1      1233    8    0    1
 -2       564       694       693      2868      2869      2864
 -1      1234    8    0    1
 -2       565       566       695      2480      2870      2871
 -1      1235    8    0    1
 -2       565       695       694      2871      2872      2867
 -1      1236    8    0    1
 -2       566       567       696      2483      2873      2874
 -1      1237    8    0    1
 -2       566       696       695      2874      2875      2870
 -1      1238    8    0    1
 -2       567       568       697      2486      2876      2877
 -1      1239    8    0    1
 -2       567       697       696      2877      2878      2873
 -1      1240    8    0    1
 -2       568       569       698      2489      2879      2880
 -1      1241    8    0    1
 -2       568       698       697      2880      2881      2876
 -1      1242    8    0    1
 -2       569       570       699      2492      2882      2883
 -1      1243    8    0    1
 -2       569       699       698      2883      2884      2879
 -1      1244    8    0    1
 -2       570       571       700      2495      2885      2886
 -1      1245    8    0    1
 -2       570       700       699      2886      2887      2882
 -1      1246    8    0    1
 -2       571       572       701      2498      2888      2889
 -1      1247    8    0    1
 -2       571       701       700      2889      2890      2885
 -1      1248    8    0    1
 -2       572       573       702      2501      2891      2892
 -1      1249    8    0    1
 -2       572       702       701      2892      2893      2888
 -1      1250    8    0    1
 -2       573       574       703      2504      2894      2895
 -1      1251    8    0    1
 -2       702       573       703      2891      2895      2896
 -1      1252    8    0    1
 -2       574       577       703      2621      2897      2894
 -1      1253    8    0    1
 -2       576       575       704      2510      2898      2899
 -1      1254    8    0    1
 -2       579       580       705      2521      2900      2901
 -1      1255    8    0    1
 -2       577       576       706      2513      2902      2903
 -1      1256    8    0    1
 -2       703       577       706      2897      2903      2904
 -1      1257    8    0    1
 -2       576       704       706      2899      2905      2902
 -1      1258    8    0    1
 -2       575       579       707      2518      2906      2907
 -1      1259    8    0    1
 -2       704       575       707      2898      2907      2908
 -1      1260    8    0    1
 -2       579       705       707      2901      2909      2906
 -1      1261    8    0    1
 -2       581       582       708      2527      2910      2911
 -1      1262    8    0    1
 -2       582       583       709      2530      2912      2913
 -1      1263    8    0    1
 -2       582       709       708      2913      2914      2910
 -1      1264    8    0    1
 -2       583       584       710      2533      2915      2916
 -1      1265    8    0    1
 -2       583       710       709      2916      2917      2912
 -1      1266    8    0    1
 -2       584       585       711      2536      2918      2919
 -1      1267    8    0    1
 -2       584       711       710      2919      2920      2915
 -1      1268    8    0    1
 -2       488       489       712      2602      2921      2922
 -1      1269    8    0    1
 -2       578       608       713      2608      2923      2924
 -1      1270    8    0    1
 -2       595       591       714      2623      2925      2926
 -1      1271    8    0    1
 -2       474       463       616      2197      2641      2927
 -1      1272    8    0    1
 -2       601       595       715      2620      2928      2929
 -1      1273    8    0    1
 -2       595       714       715      2926      2930      2928
 -1      1274    8    0    1
 -2       598       592       716      2625      2931      2932
 -1      1275    8    0    1
 -2       580       581       717      2524      2933      2934
 -1      1276    8    0    1
 -2       581       708       717      2911      2935      2933
 -1      1277    8    0    1
 -2       498       497       625      2276      2936      2937
 -1      1278    8    0    1
 -2       589       578       718      2607      2938      2939
 -1      1279    8    0    1
 -2       591       602       719      2624      2940      2941
 -1      1280    8    0    1
 -2       596       594       720      2612      2942      2943
 -1      1281    8    0    1
 -2       617       605       496      2642      2944      2945
 -1      1282    8    0    1
 -2       490       487       721      2252      2946      2947
 -1      1283    8    0    1
 -2       626       490       721      2666      2947      2948
 -1      1284    8    0    1
 -2       487       629       721      2676      2949      2946
 -1      1285    8    0    1
 -2       489       588       722      2634      2950      2951
 -1      1286    8    0    1
 -2       476       603       723      2632      2952      2953
 -1      1287    8    0    1
 -2       599       601       724      2575      2954      2955
 -1      1288    8    0    1
 -2       601       715       724      2929      2956      2954
 -1      1289    8    0    1
 -2       592       599       725      2633      2957      2958
 -1      1290    8    0    1
 -2       481       482       726      2230      2959      2960
 -1      1291    8    0    1
 -2       618       481       726      2647      2960      2961
 -1      1292    8    0    1
 -2       482       620       726      2653      2962      2959
 -1      1293    8    0    1
 -2       465       617       495      2644      2963      2583
 -1      1294    8    0    1
 -2       478       477       727      2219      2964      2965
 -1      1295    8    0    1
 -2       535       536       728      2390      2966      2967
 -1      1296    8    0    1
 -2       664       535       728      2778      2967      2968
 -1      1297    8    0    1
 -2       536       666       728      2785      2969      2966
 -1      1298    8    0    1
 -2       587       446       629      2611      2970      2675
 -1      1299    8    0    1
 -2       607       473       729      2645      2971      2972
 -1      1300    8    0    1
 -2       590       607       730      2609      2973      2974
 -1      1301    8    0    1
 -2       594       597       731      2636      2975      2976
 -1      1302    8    0    1
 -2       594       731       720      2976      2977      2942
 -1      1303    8    0    1
 -2       473       589       732      2622      2978      2979
 -1      1304    8    0    1
 -2       473       732       729      2979      2980      2971
 -1      1305    8    0    1
 -2       496       605       497      2944      2981      2606
 -1      1306    8    0    1
 -2       495       617       496      2963      2945      2635
 -1      1307    8    0    1
 -2       497       605       606      2981      2589      2982
 -1      1308    8    0    1
 -2       497       606       625      2982      2665      2936
 -1      1309    8    0    1
 -2       479       619       733      2650      2983      2984
 -1      1310    8    0    1
 -2       479       733       593      2984      2985      2558
 -1      1311    8    0    1
 -2       485       622       484      2658      2986      2239
 -1      1312    8    0    1
 -2       623       596       720      2660      2943      2987
 -1      1313    8    0    1
 -2       612       475       614      2619      2630      2988
 -1      1314    8    0    1
 -2       608       624       713      2663      2989      2923
 -1      1315    8    0    1
 -2       493       628       614      2672      2990      2991
 -1      1316    8    0    1
 -2       630       498       625      2677      2937      2992
 -1      1317    8    0    1
 -2       494       493       614      2264      2991      2993
 -1      1318    8    0    1
 -2       607       729       730      2972      2994      2973
 -1      1319    8    0    1
 -2       603       612       734      2618      2995      2996
 -1      1320    8    0    1
 -2       603       734       723      2996      2997      2952
 -1      1321    8    0    1
 -2       629       446       609      2970      2597      2998
 -1      1322    8    0    1
 -2       705       580       717      2900      2934      2999
 -1      1323    8    0    1
 -2       609       478       735      2595      3000      3001
 -1      1324    8    0    1
 -2       478       727       735      2965      3002      3000
 -1      1325    8    0    1
 -2       488       712       624      2922      3003      2662
 -1      1326    8    0    1
 -2       712       489       722      2921      2951      3004
 -1      1327    8    0    1
 -2       585       586       736      2539      3005      3006
 -1      1328    8    0    1
 -2       711       585       736      2918      3006      3007
 -1      1329    8    0    1
 -2       586       662       736      2774      3008      3005
 -1      1330    8    0    1
 -2       534       665       737      2782      3009      3010
 -1      1331    8    0    1
 -2       578       713       718      2924      3011      2938
 -1      1332    8    0    1
 -2       611       534       737      2616      3010      3012
 -1      1333    8    0    1
 -2       719       602       615      2940      2638      3013
 -1      1334    8    0    1
 -2       598       716       738      2932      3014      3015
 -1      1335    8    0    1
 -2       598       738       613      3015      3016      2628
 -1      1336    8    0    1
 -2       714       591       739      2925      3017      3018
 -1      1337    8    0    1
 -2       591       719       739      2941      3019      3017
 -1      1338    8    0    1
 -2       474       494       604      2605      3020      2610
 -1      1339    8    0    1
 -2       716       592       725      2931      2958      3021
 -1      1340    8    0    1
 -2       722       588       623      2950      2661      3022
 -1      1341    8    0    1
 -2       484       622       621      2986      3023      2654
 -1      1342    8    0    1
 -2       597       613       740      2627      3024      3025
 -1      1343    8    0    1
 -2       597       740       731      3025      3026      2975
 -1      1344    8    0    1
 -2       625       590       730      2664      2974      3027
 -1      1345    8    0    1
 -2       477       593       741      2557      3028      3029
 -1      1346    8    0    1
 -2       727       477       741      2964      3029      3030
 -1      1347    8    0    1
 -2       593       733       741      2985      3031      3028
 -1      1348    8    0    1
 -2       589       718       732      2939      3032      2978
 -1      1349    8    0    1
 -2       604       494       600      3020      3033      2582
 -1      1350    8    0    1
 -2       615       476       723      2639      2953      3034
 -1      1351    8    0    1
 -2       599       724       725      2955      3035      2957
 -1      1352    8    0    1
 -2       620       621       742      2656      3036      3037
 -1      1353    8    0    1
 -2       622       610       611      2659      2615      3038
 -1      1354    8    0    1
 -2       623       720       743      2987      3039      3040
 -1      1355    8    0    1
 -2       614       628       612      2990      3041      2988
 -1      1356    8    0    1
 -2       630       625       730      2992      3027      3042
 -1      1357    8    0    1
 -2       346       474       616      2267      2927      2674
 -1      1358    8    0    1
 -2       719       615       744      3013      3043      3044
 -1      1359    8    0    1
 -2       632       631       745      2684      3045      3046
 -1      1360    8    0    1
 -2       633       632       746      2687      3047      3048
 -1      1361    8    0    1
 -2       632       745       746      3046      3049      3047
 -1      1362    8    0    1
 -2       634       633       747      2690      3050      3051
 -1      1363    8    0    1
 -2       633       746       747      3048      3052      3050
 -1      1364    8    0    1
 -2       635       634       748      2693      3053      3054
 -1      1365    8    0    1
 -2       634       747       748      3051      3055      3053
 -1      1366    8    0    1
 -2       636       635       749      2696      3056      3057
 -1      1367    8    0    1
 -2       635       748       749      3054      3058      3056
 -1      1368    8    0    1
 -2       637       636       750      2699      3059      3060
 -1      1369    8    0    1
 -2       636       749       750      3057      3061      3059
 -1      1370    8    0    1
 -2       638       637       751      2702      3062      3063
 -1      1371    8    0    1
 -2       637       750       751      3060      3064      3062
 -1      1372    8    0    1
 -2       639       638       752      2705      3065      3066
 -1      1373    8    0    1
 -2       638       751       752      3063      3067      3065
 -1      1374    8    0    1
 -2       640       639       753      2708      3068      3069
 -1      1375    8    0    1
 -2       639       752       753      3066      3070      3068
 -1      1376    8    0    1
 -2       641       640       754      2711      3071      3072
 -1      1377    8    0    1
 -2       640       753       754      3069      3073      3071
 -1      1378    8    0    1
 -2       642       641       755      2714      3074      3075
 -1      1379    8    0    1
 -2       641       754       755      3072      3076      3074
 -1      1380    8    0    1
 -2       643       642       756      2717      3077      3078
 -1      1381    8    0    1
 -2       642       755       756      3075      3079      3077
 -1      1382    8    0    1
 -2       644       643       757      2720      3080      3081
 -1      1383    8    0    1
 -2       643       756       757      3078      3082      3080
 -1      1384    8    0    1
 -2       645       644       758      2723      3083      3084
 -1      1385    8    0    1
 -2       644       757       758      3081      3085      3083
 -1      1386    8    0    1
 -2       646       645       759      2726      3086      3087
 -1      1387    8    0    1
 -2       645       758       759      3084      3088      3086
 -1      1388    8    0    1
 -2       647       646       760      2729      3089      3090
 -1      1389    8    0    1
 -2       646       759       760      3087      3091      3089
 -1      1390    8    0    1
 -2       648       647       761      2732      3092      3093
 -1      1391    8    0    1
 -2       647       760       761      3090      3094      3092
 -1      1392    8    0    1
 -2       649       648       762      2735      3095      3096
 -1      1393    8    0    1
 -2       648       761       762      3093      3097      3095
 -1      1394    8    0    1
 -2       650       649       763      2738      3098      3099
 -1      1395    8    0    1
 -2       649       762       763      3096      3100      3098
 -1      1396    8    0    1
 -2       651       650       764      2741      3101      3102
 -1      1397    8    0    1
 -2       650       763       764      3099      3103      3101
 -1      1398    8    0    1
 -2       652       651       765      2744      3104      3105
 -1      1399    8    0    1
 -2       651       764       765      3102      3106      3104
 -1      1400    8    0    1
 -2       653       652       766      2747      3107      3108
 -1      1401    8    0    1
 -2       652       765       766      3105      3109      3107
 -1      1402    8    0    1
 -2       654       653       767      2750      3110      3111
 -1      1403    8    0    1
 -2       653       766       767      3108      3112      3110
 -1      1404    8    0    1
 -2       655       654       768      2753      3113      3114
 -1      1405    8    0    1
 -2       654       767       768      3111      3115      3113
 -1      1406    8    0    1
 -2       656       655       769      2756      3116      3117
 -1      1407    8    0    1
 -2       655       768       769      3114      3118      3116
 -1      1408    8    0    1
 -2       657       656       770      2759      3119      3120
 -1      1409    8    0    1
 -2       656       769       770      3117      3121      3119
 -1      1410    8    0    1
 -2       658       657       771      2762      3122      3123
 -1      1411    8    0    1
 -2       657       770       771      3120      3124      3122
 -1      1412    8    0    1
 -2       659       658       772      2765      3125      3126
 -1      1413    8    0    1
 -2       658       771       772      3123      3127      3125
 -1      1414    8    0    1
 -2       660       659       773      2768      3128      3129
 -1      1415    8    0    1
 -2       659       772       773      3126      3130      3128
 -1      1416    8    0    1
 -2       661       660       774      2771      3131      3132
 -1      1417    8    0    1
 -2       660       773       774      3129      3133      3131
 -1      1418    8    0    1
 -2       663       664       775      2780      3134      3135
 -1      1419    8    0    1
 -2       665       663       776      2783      3136      3137
 -1      1420    8    0    1
 -2       663       775       776      3135      3138      3136
 -1      1421    8    0    1
 -2       667       668       777      2791      3139      3140
 -1      1422    8    0    1
 -2       666       667       778      2788      3141      3142
 -1      1423    8    0    1
 -2       667       777       778      3140      3143      3141
 -1      1424    8    0    1
 -2       669       670       779      2797      3144      3145
 -1      1425    8    0    1
 -2       670       671       780      2800      3146      3147
 -1      1426    8    0    1
 -2       670       780       779      3147      3148      3144
 -1      1427    8    0    1
 -2       671       672       781      2803      3149      3150
 -1      1428    8    0    1
 -2       671       781       780      3150      3151      3146
 -1      1429    8    0    1
 -2       672       673       782      2806      3152      3153
 -1      1430    8    0    1
 -2       672       782       781      3153      3154      3149
 -1      1431    8    0    1
 -2       673       674       783      2809      3155      3156
 -1      1432    8    0    1
 -2       673       783       782      3156      3157      3152
 -1      1433    8    0    1
 -2       674       675       784      2812      3158      3159
 -1      1434    8    0    1
 -2       674       784       783      3159      3160      3155
 -1      1435    8    0    1
 -2       675       676       785      2815      3161      3162
 -1      1436    8    0    1
 -2       675       785       784      3162      3163      3158
 -1      1437    8    0    1
 -2       676       677       786      2818      3164      3165
 -1      1438    8    0    1
 -2       676       786       785      3165      3166      3161
 -1      1439    8    0    1
 -2       677       678       787      2821      3167      3168
 -1      1440    8    0    1
 -2       677       787       786      3168      3169      3164
 -1      1441    8    0    1
 -2       678       679       788      2824      3170      3171
 -1      1442    8    0    1
 -2       678       788       787      3171      3172      3167
 -1      1443    8    0    1
 -2       679       680       789      2827      3173      3174
 -1      1444    8    0    1
 -2       679       789       788      3174      3175      3170
 -1      1445    8    0    1
 -2       680       681       790      2830      3176      3177
 -1      1446    8    0    1
 -2       680       790       789      3177      3178      3173
 -1      1447    8    0    1
 -2       681       682       791      2833      3179      3180
 -1      1448    8    0    1
 -2       681       791       790      3180      3181      3176
 -1      1449    8    0    1
 -2       682       683       792      2836      3182      3183
 -1      1450    8    0    1
 -2       682       792       791      3183      3184      3179
 -1      1451    8    0    1
 -2       683       684       793      2839      3185      3186
 -1      1452    8    0    1
 -2       683       793       792      3186      3187      3182
 -1      1453    8    0    1
 -2       684       685       794      2842      3188      3189
 -1      1454    8    0    1
 -2       684       794       793      3189      3190      3185
 -1      1455    8    0    1
 -2       685       686       795      2845      3191      3192
 -1      1456    8    0    1
 -2       685       795       794      3192      3193      3188
 -1      1457    8    0    1
 -2       686       687       796      2848      3194      3195
 -1      1458    8    0    1
 -2       686       796       795      3195      3196      3191
 -1      1459    8    0    1
 -2       687       688       797      2851      3197      3198
 -1      1460    8    0    1
 -2       687       797       796      3198      3199      3194
 -1      1461    8    0    1
 -2       688       689       798      2854      3200      3201
 -1      1462    8    0    1
 -2       688       798       797      3201      3202      3197
 -1      1463    8    0    1
 -2       689       690       799      2857      3203      3204
 -1      1464    8    0    1
 -2       689       799       798      3204      3205      3200
 -1      1465    8    0    1
 -2       690       691       800      2860      3206      3207
 -1      1466    8    0    1
 -2       690       800       799      3207      3208      3203
 -1      1467    8    0    1
 -2       691       692       801      2863      3209      3210
 -1      1468    8    0    1
 -2       691       801       800      3210      3211      3206
 -1      1469    8    0    1
 -2       692       693       802      2866      3212      3213
 -1      1470    8    0    1
 -2       692       802       801      3213      3214      3209
 -1      1471    8    0    1
 -2       693       694       803      2869      3215      3216
 -1      1472    8    0    1
 -2       693       803       802      3216      3217      3212
 -1      1473    8    0    1
 -2       694       695       804      2872      3218      3219
 -1      1474    8    0    1
 -2       694       804       803      3219      3220      3215
 -1      1475    8    0    1
 -2       695       696       805      2875      3221      3222
 -1      1476    8    0    1
 -2       695       805       804      3222      3223      3218
 -1      1477    8    0    1
 -2       696       697       806      2878      3224      3225
 -1      1478    8    0    1
 -2       696       806       805      3225      3226      3221
 -1      1479    8    0    1
 -2       697       698       807      2881      3227      3228
 -1      1480    8    0    1
 -2       697       807       806      3228      3229      3224
 -1      1481    8    0    1
 -2       698       699       808      2884      3230      3231
 -1      1482    8    0    1
 -2       698       808       807      3231      3232      3227
 -1      1483    8    0    1
 -2       699       700       809      2887      3233      3234
 -1      1484    8    0    1
 -2       699       809       808      3234      3235      3230
 -1      1485    8    0    1
 -2       700       701       810      2890      3236      3237
 -1      1486    8    0    1
 -2       700       810       809      3237      3238      3233
 -1      1487    8    0    1
 -2       701       702       811      2893      3239      3240
 -1      1488    8    0    1
 -2       701       811       810      3240      3241      3236
 -1      1489    8    0    1
 -2       702       703       812      2896      3242      3243
 -1      1490    8    0    1
 -2       811       702       812      3239      3243      3244
 -1      1491    8    0    1
 -2       703       706       812      2904      3245      3242
 -1      1492    8    0    1
 -2       709       710       813      2917      3246      3247
 -1      1493    8    0    1
 -2       705       717       814      2999      3248      3249
 -1      1494    8    0    1
 -2       730       729       815      2994      3250      3251
 -1      1495    8    0    1
 -2       724       715       816      2956      3252      3253
 -1      1496    8    0    1
 -2       710       711       817      2920      3254      3255
 -1      1497    8    0    1
 -2       710       817       813      3255      3256      3246
 -1      1498    8    0    1
 -2       708       709       818      2914      3257      3258
 -1      1499    8    0    1
 -2       709       813       818      3247      3259      3257
 -1      1500    8    0    1
 -2       729       732       819      2980      3260      3261
 -1      1501    8    0    1
 -2       729       819       815      3261      3262      3250
 -1      1502    8    0    1
 -2       718       713       820      3011      3263      3264
 -1      1503    8    0    1
 -2       716       725       821      3021      3265      3266
 -1      1504    8    0    1
 -2       611       737       622      3012      3267      3038
 -1      1505    8    0    1
 -2       717       708       822      2935      3268      3269
 -1      1506    8    0    1
 -2       814       717       822      3248      3269      3270
 -1      1507    8    0    1
 -2       708       818       822      3258      3271      3268
 -1      1508    8    0    1
 -2       668       669       823      2794      3272      3273
 -1      1509    8    0    1
 -2       669       779       823      3145      3274      3272
 -1      1510    8    0    1
 -2       715       714       824      2930      3275      3276
 -1      1511    8    0    1
 -2       715       824       816      3276      3277      3252
 -1      1512    8    0    1
 -2       627       626       825      2670      3278      3279
 -1      1513    8    0    1
 -2       732       718       826      3032      3280      3281
 -1      1514    8    0    1
 -2       630       730       815      3042      3251      3282
 -1      1515    8    0    1
 -2       712       722       827      3004      3283      3284
 -1      1516    8    0    1
 -2       629       609       735      2998      3001      3285
 -1      1517    8    0    1
 -2       621       622       737      3023      3267      3286
 -1      1518    8    0    1
 -2       713       624       828      2989      3287      3288
 -1      1519    8    0    1
 -2       725       724       829      3035      3289      3290
 -1      1520    8    0    1
 -2       724       816       829      3253      3291      3289
 -1      1521    8    0    1
 -2       722       623       830      3022      3292      3293
 -1      1522    8    0    1
 -2       722       830       827      3293      3294      3283
 -1      1523    8    0    1
 -2       615       723       831      3034      3295      3296
 -1      1524    8    0    1
 -2       615       831       744      3296      3297      3043
 -1      1525    8    0    1
 -2       624       712       832      3003      3298      3299
 -1      1526    8    0    1
 -2       619       618       833      2651      3300      3301
 -1      1527    8    0    1
 -2       720       731       834      2977      3302      3303
 -1      1528    8    0    1
 -2       720       834       743      3303      3304      3039
 -1      1529    8    0    1
 -2       600       494       614      3033      2993      2631
 -1      1530    8    0    1
 -2       612       628       835      3041      3305      3306
 -1      1531    8    0    1
 -2       734       612       835      2995      3306      3307
 -1      1532    8    0    1
 -2       628       627       835      2673      3308      3305
 -1      1533    8    0    1
 -2       621       737       742      3286      3309      3036
 -1      1534    8    0    1
 -2       733       619       836      2983      3310      3311
 -1      1535    8    0    1
 -2       619       833       836      3301      3312      3310
 -1      1536    8    0    1
 -2       719       744       837      3044      3313      3314
 -1      1537    8    0    1
 -2       742       737       665      3309      3009      3315
 -1      1538    8    0    1
 -2       745       631       815      3045      3316      3317
 -1      1539    8    0    1
 -2       775       664       838      3134      3318      3319
 -1      1540    8    0    1
 -2       664       728       838      2968      3320      3318
 -1      1541    8    0    1
 -2       662       661       736      2775      3321      3008
 -1      1542    8    0    1
 -2       723       734       831      2997      3322      3295
 -1      1543    8    0    1
 -2       665       776       742      3137      3323      3315
 -1      1544    8    0    1
 -2       777       668       823      3139      3273      3324
 -1      1545    8    0    1
 -2       705       814       839      3249      3325      3326
 -1      1546    8    0    1
 -2       705       839       707      3326      3327      2909
 -1      1547    8    0    1
 -2       735       727       840      3002      3328      3329
 -1      1548    8    0    1
 -2       712       827       832      3284      3330      3298
 -1      1549    8    0    1
 -2       835       627       825      3308      3279      3331
 -1      1550    8    0    1
 -2       726       620       841      2962      3332      3333
 -1      1551    8    0    1
 -2       620       742       841      3037      3334      3332
 -1      1552    8    0    1
 -2       721       629       735      2949      3285      3335
 -1      1553    8    0    1
 -2       819       732       826      3260      3281      3336
 -1      1554    8    0    1
 -2       820       713       828      3263      3288      3337
 -1      1555    8    0    1
 -2       716       821       842      3266      3338      3339
 -1      1556    8    0    1
 -2       716       842       738      3339      3340      3014
 -1      1557    8    0    1
 -2       826       718       820      3280      3264      3341
 -1      1558    8    0    1
 -2       739       719       837      3019      3314      3342
 -1      1559    8    0    1
 -2       706       704       843      2905      3343      3344
 -1      1560    8    0    1
 -2       706       843       812      3344      3345      3245
 -1      1561    8    0    1
 -2       624       832       828      3299      3346      3287
 -1      1562    8    0    1
 -2       824       714       844      3275      3347      3348
 -1      1563    8    0    1
 -2       714       739       844      3018      3349      3347
 -1      1564    8    0    1
 -2       631       630       815      2681      3282      3316
 -1      1565    8    0    1
 -2       623       743       830      3040      3350      3292
 -1      1566    8    0    1
 -2       825       626       845      3278      3351      3352
 -1      1567    8    0    1
 -2       626       721       845      2948      3353      3351
 -1      1568    8    0    1
 -2       740       613       738      3024      3016      3354
 -1      1569    8    0    1
 -2       833       618       846      3300      3355      3356
 -1      1570    8    0    1
 -2       618       726       846      2961      3357      3355
 -1      1571    8    0    1
 -2       821       725       847      3265      3358      3359
 -1      1572    8    0    1
 -2       725       829       847      3290      3360      3358
 -1      1573    8    0    1
 -2       704       707       843      2908      3361      3343
 -1      1574    8    0    1
 -2       728       666       848      2969      3362      3363
 -1      1575    8    0    1
 -2       838       728       848      3320      3363      3364
 -1      1576    8    0    1
 -2       666       778       848      3142      3365      3362
 -1      1577    8    0    1
 -2       817       711       774      3254      3366      3367
 -1      1578    8    0    1
 -2       727       741       849      3030      3368      3369
 -1      1579    8    0    1
 -2       727       849       840      3369      3370      3328
 -1      1580    8    0    1
 -2       711       736       774      3007      3371      3366
 -1      1581    8    0    1
 -2       837       744       850      3313      3372      3373
 -1      1582    8    0    1
 -2       776       775       851      3138      3374      3375
 -1      1583    8    0    1
 -2       777       823       852      3324      3376      3377
 -1      1584    8    0    1
 -2       830       743       853      3350      3378      3379
 -1      1585    8    0    1
 -2       816       824       854      3277      3380      3381
 -1      1586    8    0    1
 -2       661       774       736      3132      3371      3321
 -1      1587    8    0    1
 -2       747       746       855      3052      3382      3383
 -1      1588    8    0    1
 -2       748       747       856      3055      3384      3385
 -1      1589    8    0    1
 -2       747       855       856      3383      3386      3384
 -1      1590    8    0    1
 -2       749       748       857      3058      3387      3388
 -1      1591    8    0    1
 -2       748       856       857      3385      3389      3387
 -1      1592    8    0    1
 -2       750       749       858      3061      3390      3391
 -1      1593    8    0    1
 -2       749       857       858      3388      3392      3390
 -1      1594    8    0    1
 -2       751       750       859      3064      3393      3394
 -1      1595    8    0    1
 -2       750       858       859      3391      3395      3393
 -1      1596    8    0    1
 -2       752       751       860      3067      3396      3397
 -1      1597    8    0    1
 -2       751       859       860      3394      3398      3396
 -1      1598    8    0    1
 -2       753       752       861      3070      3399      3400
 -1      1599    8    0    1
 -2       752       860       861      3397      3401      3399
 -1      1600    8    0    1
 -2       754       753       862      3073      3402      3403
 -1      1601    8    0    1
 -2       753       861       862      3400      3404      3402
 -1      1602    8    0    1
 -2       755       754       863      3076      3405      3406
 -1      1603    8    0    1
 -2       754       862       863      3403      3407      3405
 -1      1604    8    0    1
 -2       756       755       864      3079      3408      3409
 -1      1605    8    0    1
 -2       755       863       864      3406      3410      3408
 -1      1606    8    0    1
 -2       757       756       865      3082      3411      3412
 -1      1607    8    0    1
 -2       756       864       865      3409      3413      3411
 -1      1608    8    0    1
 -2       758       757       866      3085      3414      3415
 -1      1609    8    0    1
 -2       757       865       866      3412      3416      3414
 -1      1610    8    0    1
 -2       759       758       867      3088      3417      3418
 -1      1611    8    0    1
 -2       758       866       867      3415      3419      3417
 -1      1612    8    0    1
 -2       760       759       868      3091      3420      3421
 -1      1613    8    0    1
 -2       759       867       868      3418      3422      3420
 -1      1614    8    0    1
 -2       761       760       869      3094      3423      3424
 -1      1615    8    0    1
 -2       760       868       869      3421      3425      3423
 -1      1616    8    0    1
 -2       762       761       870      3097      3426      3427
 -1      1617    8    0    1
 -2       761       869       870      3424      3428      3426
 -1      1618    8    0    1
 -2       763       762       871      3100      3429      3430
 -1      1619    8    0    1
 -2       762       870       871      3427      3431      3429
 -1      1620    8    0    1
 -2       764       763       872      3103      3432      3433
 -1      1621    8    0    1
 -2       763       871       872      3430      3434      3432
 -1      1622    8    0    1
 -2       765       764       873      3106      3435      3436
 -1      1623    8    0    1
 -2       764       872       873      3433      3437      3435
 -1      1624    8    0    1
 -2       766       765       874      3109      3438      3439
 -1      1625    8    0    1
 -2       765       873       874      3436      3440      3438
 -1      1626    8    0    1
 -2       767       766       875      3112      3441      3442
 -1      1627    8    0    1
 -2       766       874       875      3439      3443      3441
 -1      1628    8    0    1
 -2       768       767       876      3115      3444      3445
 -1      1629    8    0    1
 -2       767       875       876      3442      3446      3444
 -1      1630    8    0    1
 -2       769       768       877      3118      3447      3448
 -1      1631    8    0    1
 -2       768       876       877      3445      3449      3447
 -1      1632    8    0    1
 -2       770       769       878      3121      3450      3451
 -1      1633    8    0    1
 -2       769       877       878      3448      3452      3450
 -1      1634    8    0    1
 -2       771       770       879      3124      3453      3454
 -1      1635    8    0    1
 -2       770       878       879      3451      3455      3453
 -1      1636    8    0    1
 -2       772       771       880      3127      3456      3457
 -1      1637    8    0    1
 -2       771       879       880      3454      3458      3456
 -1      1638    8    0    1
 -2       773       772       881      3130      3459      3460
 -1      1639    8    0    1
 -2       772       880       881      3457      3461      3459
 -1      1640    8    0    1
 -2       774       773       882      3133      3462      3463
 -1      1641    8    0    1
 -2       817       774       882      3367      3463      3464
 -1      1642    8    0    1
 -2       773       881       882      3460      3465      3462
 -1      1643    8    0    1
 -2       780       781       853      3151      3466      3467
 -1      1644    8    0    1
 -2       779       780       853      3148      3467      3468
 -1      1645    8    0    1
 -2       782       783       883      3157      3469      3470
 -1      1646    8    0    1
 -2       783       784       884      3160      3471      3472
 -1      1647    8    0    1
 -2       783       884       883      3472      3473      3469
 -1      1648    8    0    1
 -2       784       785       885      3163      3474      3475
 -1      1649    8    0    1
 -2       784       885       884      3475      3476      3471
 -1      1650    8    0    1
 -2       785       786       886      3166      3477      3478
 -1      1651    8    0    1
 -2       785       886       885      3478      3479      3474
 -1      1652    8    0    1
 -2       786       787       887      3169      3480      3481
 -1      1653    8    0    1
 -2       786       887       886      3481      3482      3477
 -1      1654    8    0    1
 -2       787       788       888      3172      3483      3484
 -1      1655    8    0    1
 -2       787       888       887      3484      3485      3480
 -1      1656    8    0    1
 -2       788       789       889      3175      3486      3487
 -1      1657    8    0    1
 -2       788       889       888      3487      3488      3483
 -1      1658    8    0    1
 -2       789       790       890      3178      3489      3490
 -1      1659    8    0    1
 -2       789       890       889      3490      3491      3486
 -1      1660    8    0    1
 -2       790       791       891      3181      3492      3493
 -1      1661    8    0    1
 -2       790       891       890      3493      3494      3489
 -1      1662    8    0    1
 -2       791       792       892      3184      3495      3496
 -1      1663    8    0    1
 -2       791       892       891      3496      3497      3492
 -1      1664    8    0    1
 -2       792       793       893      3187      3498      3499
 -1      1665    8    0    1
 -2       792       893       892      3499      3500      3495
 -1      1666    8    0    1
 -2       793       794       894      3190      3501      3502
 -1      1667    8    0    1
 -2       793       894       893      3502      3503      3498
 -1      1668    8    0    1
 -2       794       795       895      3193      3504      3505
 -1      1669    8    0    1
 -2       794       895       894      3505      3506      3501
 -1      1670    8    0    1
 -2       795       796       896      3196      3507      3508
 -1      1671    8    0    1
 -2       795       896       895      3508      3509      3504
 -1      1672    8    0    1
 -2       796       797       897      3199      3510      3511
 -1      1673    8    0    1
 -2       796       897       896      3511      3512      3507
 -1      1674    8    0    1
 -2       797       798       898      3202      3513      3514
 -1      1675    8    0    1
 -2       797       898       897      3514      3515      3510
 -1      1676    8    0    1
 -2       798       799       899      3205      3516      3517
 -1      1677    8    0    1
 -2       798       899       898      3517      3518      3513
 -1      1678    8    0    1
 -2       799       800       900      3208      3519      3520
 -1      1679    8    0    1
 -2       799       900       899      3520      3521      3516
 -1      1680    8    0    1
 -2       800       801       901      3211      3522      3523
 -1      1681    8    0    1
 -2       800       901       900      3523      3524      3519
 -1      1682    8    0    1
 -2       801       802       902      3214      3525      3526
 -1      1683    8    0    1
 -2       801       902       901      3526      3527      3522
 -1      1684    8    0    1
 -2       802       803       903      3217      3528      3529
 -1      1685    8    0    1
 -2       802       903       902      3529      3530      3525
 -1      1686    8    0    1
 -2       803       804       904      3220      3531      3532
 -1      1687    8    0    1
 -2       803       904       903      3532      3533      3528
 -1      1688    8    0    1
 -2       804       805       905      3223      3534      3535
 -1      1689    8    0    1
 -2       804       905       904      3535      3536      3531
 -1      1690    8    0    1
 -2       805       806       906      3226      3537      3538
 -1      1691    8    0    1
 -2       805       906       905      3538      3539      3534
 -1      1692    8    0    1
 -2       806       807       907      3229      3540      3541
 -1      1693    8    0    1
 -2       806       907       906      3541      3542      3537
 -1      1694    8    0    1
 -2       807       808       908      3232      3543      3544
 -1      1695    8    0    1
 -2       807       908       907      3544      3545      3540
 -1      1696    8    0    1
 -2       808       809       909      3235      3546      3547
 -1      1697    8    0    1
 -2       808       909       908      3547      3548      3543
 -1      1698    8    0    1
 -2       809       810       910      3238      3549      3550
 -1      1699    8    0    1
 -2       809       910       909      3550      3551      3546
 -1      1700    8    0    1
 -2       810       811       911      3241      3552      3553
 -1      1701    8    0    1
 -2       810       911       910      3553      3554      3549
 -1      1702    8    0    1
 -2       828       832       912      3346      3555      3556
 -1      1703    8    0    1
 -2       823       779       913      3274      3557      3558
 -1      1704    8    0    1
 -2       735       840       845      3329      3559      3560
 -1      1705    8    0    1
 -2       832       827       914      3330      3561      3562
 -1      1706    8    0    1
 -2       815       819       745      3262      3563      3317
 -1      1707    8    0    1
 -2       827       830       915      3294      3564      3565
 -1      1708    8    0    1
 -2       813       817       916      3256      3566      3567
 -1      1709    8    0    1
 -2       817       882       916      3464      3568      3566
 -1      1710    8    0    1
 -2       818       813       917      3259      3569      3570
 -1      1711    8    0    1
 -2       813       916       917      3567      3571      3569
 -1      1712    8    0    1
 -2       826       820       918      3341      3572      3573
 -1      1713    8    0    1
 -2       734       835       919      3307      3574      3575
 -1      1714    8    0    1
 -2       831       734       919      3322      3575      3576
 -1      1715    8    0    1
 -2       835       825       919      3331      3577      3574
 -1      1716    8    0    1
 -2       820       828       920      3337      3578      3579
 -1      1717    8    0    1
 -2       834       731       852      3302      3580      3581
 -1      1718    8    0    1
 -2       741       733       921      3031      3582      3583
 -1      1719    8    0    1
 -2       741       921       849      3583      3584      3368
 -1      1720    8    0    1
 -2       739       837       922      3342      3585      3586
 -1      1721    8    0    1
 -2       739       922       844      3586      3587      3349
 -1      1722    8    0    1
 -2       744       831       850      3297      3588      3372
 -1      1723    8    0    1
 -2       819       826       923      3336      3589      3590
 -1      1724    8    0    1
 -2       826       918       923      3573      3591      3589
 -1      1725    8    0    1
 -2       740       738       924      3354      3592      3593
 -1      1726    8    0    1
 -2       738       842       924      3340      3594      3592
 -1      1727    8    0    1
 -2       829       816       925      3291      3595      3596
 -1      1728    8    0    1
 -2       816       854       925      3381      3597      3595
 -1      1729    8    0    1
 -2       781       782       926      3154      3598      3599
 -1      1730    8    0    1
 -2       853       781       926      3466      3599      3600
 -1      1731    8    0    1
 -2       782       883       926      3470      3601      3598
 -1      1732    8    0    1
 -2       843       707       839      3361      3327      3602
 -1      1733    8    0    1
 -2       721       735       845      3335      3560      3353
 -1      1734    8    0    1
 -2       742       776       927      3323      3603      3604
 -1      1735    8    0    1
 -2       841       742       927      3334      3604      3605
 -1      1736    8    0    1
 -2       776       851       927      3375      3606      3603
 -1      1737    8    0    1
 -2       731       740       852      3026      3607      3580
 -1      1738    8    0    1
 -2       743       834       913      3304      3608      3609
 -1      1739    8    0    1
 -2       852       740       924      3607      3593      3610
 -1      1740    8    0    1
 -2       777       852       924      3377      3610      3611
 -1      1741    8    0    1
 -2       745       819       923      3563      3590      3612
 -1      1742    8    0    1
 -2       834       852       913      3581      3613      3608
 -1      1743    8    0    1
 -2       814       822       928      3270      3614      3615
 -1      1744    8    0    1
 -2       778       777       924      3143      3611      3616
 -1      1745    8    0    1
 -2       830       853       926      3379      3600      3617
 -1      1746    8    0    1
 -2       775       838       847      3319      3618      3619
 -1      1747    8    0    1
 -2       913       779       853      3557      3468      3620
 -1      1748    8    0    1
 -2       818       917       822      3570      3621      3271
 -1      1749    8    0    1
 -2       839       814       929      3325      3622      3623
 -1      1750    8    0    1
 -2       814       928       929      3615      3624      3622
 -1      1751    8    0    1
 -2       828       912       920      3556      3625      3578
 -1      1752    8    0    1
 -2       912       832       914      3555      3562      3626
 -1      1753    8    0    1
 -2       811       812       843      3244      3345      3627
 -1      1754    8    0    1
 -2       823       913       852      3558      3613      3376
 -1      1755    8    0    1
 -2       811       843       911      3627      3628      3552
 -1      1756    8    0    1
 -2       778       924       842      3616      3594      3629
 -1      1757    8    0    1
 -2       775       847       851      3619      3630      3374
 -1      1758    8    0    1
 -2       778       842       848      3629      3631      3365
 -1      1759    8    0    1
 -2       918       820       920      3572      3579      3632
 -1      1760    8    0    1
 -2       827       915       914      3565      3633      3561
 -1      1761    8    0    1
 -2       921       733       836      3582      3311      3634
 -1      1762    8    0    1
 -2       743       913       853      3609      3620      3378
 -1      1763    8    0    1
 -2       846       726       841      3357      3333      3635
 -1      1764    8    0    1
 -2       836       833       930      3312      3636      3637
 -1      1765    8    0    1
 -2       911       843       839      3628      3602      3638
 -1      1766    8    0    1
 -2       854       824       844      3380      3348      3639
 -1      1767    8    0    1
 -2       825       845       931      3352      3640      3641
 -1      1768    8    0    1
 -2       919       825       931      3577      3641      3642
 -1      1769    8    0    1
 -2       845       840       931      3559      3643      3640
 -1      1770    8    0    1
 -2       840       849       850      3370      3644      3645
 -1      1771    8    0    1
 -2       746       745       932      3049      3646      3647
 -1      1772    8    0    1
 -2       833       846       933      3356      3648      3649
 -1      1773    8    0    1
 -2       833       933       930      3649      3650      3636
 -1      1774    8    0    1
 -2       840       850       931      3645      3651      3643
 -1      1775    8    0    1
 -2       746       932       855      3647      3652      3382
 -1      1776    8    0    1
 -2       847       838       848      3618      3364      3653
 -1      1777    8    0    1
 -2       837       850       934      3373      3654      3655
 -1      1778    8    0    1
 -2       856       855       935      3386      3656      3657
 -1      1779    8    0    1
 -2       857       856       936      3389      3658      3659
 -1      1780    8    0    1
 -2       856       935       936      3657      3660      3658
 -1      1781    8    0    1
 -2       858       857       937      3392      3661      3662
 -1      1782    8    0    1
 -2       857       936       937      3659      3663      3661
 -1      1783    8    0    1
 -2       859       858       938      3395      3664      3665
 -1      1784    8    0    1
 -2       858       937       938      3662      3666      3664
 -1      1785    8    0    1
 -2       860       859       939      3398      3667      3668
 -1      1786    8    0    1
 -2       859       938       939      3665      3669      3667
 -1      1787    8    0    1
 -2       861       860       940      3401      3670      3671
 -1      1788    8    0    1
 -2       860       939       940      3668      3672      3670
 -1      1789    8    0    1
 -2       862       861       941      3404      3673      3674
 -1      1790    8    0    1
 -2       861       940       941      3671      3675      3673
 -1      1791    8    0    1
 -2       863       862       942      3407      3676      3677
 -1      1792    8    0    1
 -2       862       941       942      3674      3678      3676
 -1      1793    8    0    1
 -2       864       863       943      3410      3679      3680
 -1      1794    8    0    1
 -2       863       942       943      3677      3681      3679
 -1      1795    8    0    1
 -2       865       864       944      3413      3682      3683
 -1      1796    8    0    1
 -2       864       943       944      3680      3684      3682
 -1      1797    8    0    1
 -2       866       865       945      3416      3685      3686
 -1      1798    8    0    1
 -2       865       944       945      3683      3687      3685
 -1      1799    8    0    1
 -2       867       866       946      3419      3688      3689
 -1      1800    8    0    1
 -2       866       945       946      3686      3690      3688
 -1      1801    8    0    1
 -2       868       867       947      3422      3691      3692
 -1      1802    8    0    1
 -2       867       946       947      3689      3693      3691
 -1      1803    8    0    1
 -2       869       868       948      3425      3694      3695
 -1      1804    8    0    1
 -2       868       947       948      3692      3696      3694
 -1      1805    8    0    1
 -2       870       869       949      3428      3697      3698
 -1      1806    8    0    1
 -2       869       948       949      3695      3699      3697
 -1      1807    8    0    1
 -2       871       870       950      3431      3700      3701
 -1      1808    8    0    1
 -2       870       949       950      3698      3702      3700
 -1      1809    8    0    1
 -2       872       871       951      3434      3703      3704
 -1      1810    8    0    1
 -2       871       950       951      3701      3705      3703
 -1      1811    8    0    1
 -2       873       872       952      3437      3706      3707
 -1      1812    8    0    1
 -2       872       951       952      3704      3708      3706
 -1      1813    8    0    1
 -2       874       873       953      3440      3709      3710
 -1      1814    8    0    1
 -2       873       952       953      3707      3711      3709
 -1      1815    8    0    1
 -2       875       874       954      3443      3712      3713
 -1      1816    8    0    1
 -2       874       953       954      3710      3714      3712
 -1      1817    8    0    1
 -2       876       875       955      3446      3715      3716
 -1      1818    8    0    1
 -2       875       954       955      3713      3717      3715
 -1      1819    8    0    1
 -2       877       876       956      3449      3718      3719
 -1      1820    8    0    1
 -2       876       955       956      3716      3720      3718
 -1      1821    8    0    1
 -2       878       877       957      3452      3721      3722
 -1      1822    8    0    1
 -2       877       956       957      3719      3723      3721
 -1      1823    8    0    1
 -2       879       878       958      3455      3724      3725
 -1      1824    8    0    1
 -2       878       957       958      3722      3726      3724
 -1      1825    8    0    1
 -2       880       879       959      3458      3727      3728
 -1      1826    8    0    1
 -2       879       958       959      3725      3729      3727
 -1      1827    8    0    1
 -2       881       880       960      3461      3730      3731
 -1      1828    8    0    1
 -2       880       959       960      3728      3732      3730
 -1      1829    8    0    1
 -2       882       881       961      3465      3733      3734
 -1      1830    8    0    1
 -2       916       882       961      3568      3734      3735
 -1      1831    8    0    1
 -2       881       960       961      3731      3736      3733
 -1      1832    8    0    1
 -2       885       886       962      3479      3737      3738
 -1      1833    8    0    1
 -2       822       917       928      3621      3739      3614
 -1      1834    8    0    1
 -2       884       885       963      3476      3740      3741
 -1      1835    8    0    1
 -2       885       962       963      3738      3742      3740
 -1      1836    8    0    1
 -2       883       884       964      3473      3743      3744
 -1      1837    8    0    1
 -2       884       963       964      3741      3745      3743
 -1      1838    8    0    1
 -2       886       887       965      3482      3746      3747
 -1      1839    8    0    1
 -2       886       965       962      3747      3748      3737
 -1      1840    8    0    1
 -2       887       888       966      3485      3749      3750
 -1      1841    8    0    1
 -2       887       966       965      3750      3751      3746
 -1      1842    8    0    1
 -2       888       889       967      3488      3752      3753
 -1      1843    8    0    1
 -2       888       967       966      3753      3754      3749
 -1      1844    8    0    1
 -2       889       890       968      3491      3755      3756
 -1      1845    8    0    1
 -2       889       968       967      3756      3757      3752
 -1      1846    8    0    1
 -2       890       891       969      3494      3758      3759
 -1      1847    8    0    1
 -2       890       969       968      3759      3760      3755
 -1      1848    8    0    1
 -2       891       892       970      3497      3761      3762
 -1      1849    8    0    1
 -2       891       970       969      3762      3763      3758
 -1      1850    8    0    1
 -2       892       893       971      3500      3764      3765
 -1      1851    8    0    1
 -2       892       971       970      3765      3766      3761
 -1      1852    8    0    1
 -2       893       894       972      3503      3767      3768
 -1      1853    8    0    1
 -2       893       972       971      3768      3769      3764
 -1      1854    8    0    1
 -2       894       895       973      3506      3770      3771
 -1      1855    8    0    1
 -2       894       973       972      3771      3772      3767
 -1      1856    8    0    1
 -2       895       896       974      3509      3773      3774
 -1      1857    8    0    1
 -2       895       974       973      3774      3775      3770
 -1      1858    8    0    1
 -2       896       897       975      3512      3776      3777
 -1      1859    8    0    1
 -2       896       975       974      3777      3778      3773
 -1      1860    8    0    1
 -2       897       898       976      3515      3779      3780
 -1      1861    8    0    1
 -2       897       976       975      3780      3781      3776
 -1      1862    8    0    1
 -2       898       899       977      3518      3782      3783
 -1      1863    8    0    1
 -2       898       977       976      3783      3784      3779
 -1      1864    8    0    1
 -2       899       900       978      3521      3785      3786
 -1      1865    8    0    1
 -2       899       978       977      3786      3787      3782
 -1      1866    8    0    1
 -2       900       901       979      3524      3788      3789
 -1      1867    8    0    1
 -2       900       979       978      3789      3790      3785
 -1      1868    8    0    1
 -2       901       902       980      3527      3791      3792
 -1      1869    8    0    1
 -2       901       980       979      3792      3793      3788
 -1      1870    8    0    1
 -2       902       903       981      3530      3794      3795
 -1      1871    8    0    1
 -2       902       981       980      3795      3796      3791
 -1      1872    8    0    1
 -2       903       904       982      3533      3797      3798
 -1      1873    8    0    1
 -2       903       982       981      3798      3799      3794
 -1      1874    8    0    1
 -2       904       905       983      3536      3800      3801
 -1      1875    8    0    1
 -2       904       983       982      3801      3802      3797
 -1      1876    8    0    1
 -2       905       906       984      3539      3803      3804
 -1      1877    8    0    1
 -2       905       984       983      3804      3805      3800
 -1      1878    8    0    1
 -2       906       907       985      3542      3806      3807
 -1      1879    8    0    1
 -2       906       985       984      3807      3808      3803
 -1      1880    8    0    1
 -2       907       908       986      3545      3809      3810
 -1      1881    8    0    1
 -2       907       986       985      3810      3811      3806
 -1      1882    8    0    1
 -2       908       909       987      3548      3812      3813
 -1      1883    8    0    1
 -2       908       987       986      3813      3814      3809
 -1      1884    8    0    1
 -2       909       910       988      3551      3815      3816
 -1      1885    8    0    1
 -2       909       988       987      3816      3817      3812
 -1      1886    8    0    1
 -2       910       911       989      3554      3818      3819
 -1      1887    8    0    1
 -2       910       989       988      3819      3820      3815
 -1      1888    8    0    1
 -2       917       916       990      3571      3821      3822
 -1      1889    8    0    1
 -2       916       961       990      3735      3823      3821
 -1      1890    8    0    1
 -2       912       914       991      3626      3824      3825
 -1      1891    8    0    1
 -2       829       925       847      3596      3826      3360
 -1      1892    8    0    1
 -2       831       919       931      3576      3642      3827
 -1      1893    8    0    1
 -2       837       934       922      3655      3828      3585
 -1      1894    8    0    1
 -2       831       931       850      3827      3651      3588
 -1      1895    8    0    1
 -2       847       925       851      3826      3829      3630
 -1      1896    8    0    1
 -2       851       925       992      3829      3830      3831
 -1      1897    8    0    1
 -2       927       851       992      3606      3831      3832
 -1      1898    8    0    1
 -2       925       854       992      3597      3833      3830
 -1      1899    8    0    1
 -2       846       841       927      3635      3605      3834
 -1      1900    8    0    1
 -2       911       839       989      3638      3835      3818
 -1      1901    8    0    1
 -2       926       883       993      3601      3836      3837
 -1      1902    8    0    1
 -2       918       920       994      3632      3838      3839
 -1      1903    8    0    1
 -2       932       745       923      3646      3612      3840
 -1      1904    8    0    1
 -2       844       922       930      3587      3841      3842
 -1      1905    8    0    1
 -2       821       847       848      3359      3653      3843
 -1      1906    8    0    1
 -2       914       915       993      3633      3844      3845
 -1      1907    8    0    1
 -2       854       844       930      3639      3842      3846
 -1      1908    8    0    1
 -2       920       912       995      3625      3847      3848
 -1      1909    8    0    1
 -2       932       923       996      3840      3849      3850
 -1      1910    8    0    1
 -2       855       932       996      3652      3850      3851
 -1      1911    8    0    1
 -2       923       918       996      3591      3852      3849
 -1      1912    8    0    1
 -2       930       922       836      3841      3853      3637
 -1      1913    8    0    1
 -2       854       930       933      3846      3650      3854
 -1      1914    8    0    1
 -2       934       850       849      3654      3644      3855
 -1      1915    8    0    1
 -2       912       991       995      3825      3856      3847
 -1      1916    8    0    1
 -2       883       964       993      3744      3857      3836
 -1      1917    8    0    1
 -2       929       928       997      3624      3858      3859
 -1      1918    8    0    1
 -2       928       917       998      3739      3860      3861
 -1      1919    8    0    1
 -2       917       990       998      3822      3862      3860
 -1      1920    8    0    1
 -2       996       918       994      3852      3839      3863
 -1      1921    8    0    1
 -2       914       993       964      3845      3857      3864
 -1      1922    8    0    1
 -2       915       830       926      3564      3617      3865
 -1      1923    8    0    1
 -2       991       914       964      3824      3864      3866
 -1      1924    8    0    1
 -2       992       854       933      3833      3854      3867
 -1      1925    8    0    1
 -2       842       821       848      3338      3843      3631
 -1      1926    8    0    1
 -2       921       836       922      3634      3853      3868
 -1      1927    8    0    1
 -2       994       920       999      3838      3869      3870
 -1      1928    8    0    1
 -2       920       995       999      3848      3871      3869
 -1      1929    8    0    1
 -2       849       921       934      3584      3872      3855
 -1      1930    8    0    1
 -2       922       934       921      3828      3872      3868
 -1      1931    8    0    1
 -2       993       915       926      3844      3865      3837
 -1      1932    8    0    1
 -2       935       855       996      3656      3851      3873
 -1      1933    8    0    1
 -2       997       928       998      3858      3861      3874
 -1      1934    8    0    1
 -2       996       994       935      3863      3875      3873
 -1      1935    8    0    1
 -2       935       994      1000      3875      3876      3877
 -1      1936    8    0    1
 -2       936       935      1000      3660      3877      3878
 -1      1937    8    0    1
 -2       994       999      1000      3870      3879      3876
 -1      1938    8    0    1
 -2       937       936      1001      3663      3880      3881
 -1      1939    8    0    1
 -2       938       937      1002      3666      3882      3883
 -1      1940    8    0    1
 -2       937      1001      1002      3881      3884      3882
 -1      1941    8    0    1
 -2       939       938      1003      3669      3885      3886
 -1      1942    8    0    1
 -2       938      1002      1003      3883      3887      3885
 -1      1943    8    0    1
 -2       940       939      1004      3672      3888      3889
 -1      1944    8    0    1
 -2       939      1003      1004      3886      3890      3888
 -1      1945    8    0    1
 -2       941       940      1005      3675      3891      3892
 -1      1946    8    0    1
 -2       940      1004      1005      3889      3893      3891
 -1      1947    8    0    1
 -2       942       941      1006      3678      3894      3895
 -1      1948    8    0    1
 -2       941      1005      1006      3892      3896      3894
 -1      1949    8    0    1
 -2       943       942      1007      3681      3897      3898
 -1      1950    8    0    1
 -2       942      1006      1007      3895      3899      3897
 -1      1951    8    0    1
 -2       944       943      1008      3684      3900      3901
 -1      1952    8    0    1
 -2       943      1007      1008      3898      3902      3900
 -1      1953    8    0    1
 -2       945       944      1009      3687      3903      3904
 -1      1954    8    0    1
 -2       944      1008      1009      3901      3905      3903
 -1      1955    8    0    1
 -2       946       945      1010      3690      3906      3907
 -1      1956    8    0    1
 -2       945      1009      1010      3904      3908      3906
 -1      1957    8    0    1
 -2       947       946      1011      3693      3909      3910
 -1      1958    8    0    1
 -2       946      1010      1011      3907      3911      3909
 -1      1959    8    0    1
 -2       948       947      1012      3696      3912      3913
 -1      1960    8    0    1
 -2       947      1011      1012      3910      3914      3912
 -1      1961    8    0    1
 -2       949       948      1013      3699      3915      3916
 -1      1962    8    0    1
 -2       948      1012      1013      3913      3917      3915
 -1      1963    8    0    1
 -2       950       949      1014      3702      3918      3919
 -1      1964    8    0    1
 -2       949      1013      1014      3916      3920      3918
 -1      1965    8    0    1
 -2       951       950      1015      3705      3921      3922
 -1      1966    8    0    1
 -2       950      1014      1015      3919      3923      3921
 -1      1967    8    0    1
 -2       952       951      1016      3708      3924      3925
 -1      1968    8    0    1
 -2       951      1015      1016      3922      3926      3924
 -1      1969    8    0    1
 -2       953       952      1017      3711      3927      3928
 -1      1970    8    0    1
 -2       952      1016      1017      3925      3929      3927
 -1      1971    8    0    1
 -2       954       953      1018      3714      3930      3931
 -1      1972    8    0    1
 -2       953      1017      1018      3928      3932      3930
 -1      1973    8    0    1
 -2       955       954      1019      3717      3933      3934
 -1      1974    8    0    1
 -2       954      1018      1019      3931      3935      3933
 -1      1975    8    0    1
 -2       956       955      1020      3720      3936      3937
 -1      1976    8    0    1
 -2       955      1019      1020      3934      3938      3936
 -1      1977    8    0    1
 -2       957       956      1021      3723      3939      3940
 -1      1978    8    0    1
 -2       956      1020      1021      3937      3941      3939
 -1      1979    8    0    1
 -2       958       957      1022      3726      3942      3943
 -1      1980    8    0    1
 -2       957      1021      1022      3940      3944      3942
 -1      1981    8    0    1
 -2       959       958      1023      3729      3945      3946
 -1      1982    8    0    1
 -2       958      1022      1023      3943      3947      3945
 -1      1983    8    0    1
 -2       960       959      1024      3732      3948      3949
 -1      1984    8    0    1
 -2       959      1023      1024      3946      3950      3948
 -1      1985    8    0    1
 -2       961       960      1025      3736      3951      3952
 -1      1986    8    0    1
 -2       990       961      1025      3823      3952      3953
 -1      1987    8    0    1
 -2       960      1024      1025      3949      3954      3951
 -1      1988    8    0    1
 -2       998       990      1025      3862      3953      3955
 -1      1989    8    0    1
 -2       963       962      1026      3742      3956      3957
 -1      1990    8    0    1
 -2       964       963      1027      3745      3958      3959
 -1      1991    8    0    1
 -2       991       964      1027      3866      3959      3960
 -1      1992    8    0    1
 -2       963      1026      1027      3957      3961      3958
 -1      1993    8    0    1
 -2       966       967      1028      3754      3962      3963
 -1      1994    8    0    1
 -2       967       968      1029      3757      3964      3965
 -1      1995    8    0    1
 -2       967      1029      1028      3965      3966      3962
 -1      1996    8    0    1
 -2       968       969      1030      3760      3967      3968
 -1      1997    8    0    1
 -2       968      1030      1029      3968      3969      3964
 -1      1998    8    0    1
 -2       969       970      1031      3763      3970      3971
 -1      1999    8    0    1
 -2       969      1031      1030      3971      3972      3967
 -1      2000    8    0    1
 -2       970       971      1032      3766      3973      3974
 -1      2001    8    0    1
 -2       970      1032      1031      3974      3975      3970
 -1      2002    8    0    1
 -2       971       972      1033      3769      3976      3977
 -1      2003    8    0    1
 -2       971      1033      1032      3977      3978      3973
 -1      2004    8    0    1
 -2       972       973      1034      3772      3979      3980
 -1      2005    8    0    1
 -2       972      1034      1033      3980      3981      3976
 -1      2006    8    0    1
 -2       973       974      1035      3775      3982      3983
 -1      2007    8    0    1
 -2       973      1035      1034      3983      3984      3979
 -1      2008    8    0    1
 -2       974       975      1036      3778      3985      3986
 -1      2009    8    0    1
 -2       974      1036      1035      3986      3987      3982
 -1      2010    8    0    1
 -2       975       976      1037      3781      3988      3989
 -1      2011    8    0    1
 -2       975      1037      1036      3989      3990      3985
 -1      2012    8    0    1
 -2       976       977      1038      3784      3991      3992
 -1      2013    8    0    1
 -2       976      1038      1037      3992      3993      3988
 -1      2014    8    0    1
 -2       977       978      1039      3787      3994      3995
 -1      2015    8    0    1
 -2       977      1039      1038      3995      3996      3991
 -1      2016    8    0    1
 -2       978       979      1040      3790      3997      3998
 -1      2017    8    0    1
 -2       978      1040      1039      3998      3999      3994
 -1      2018    8    0    1
 -2       979       980      1041      3793      4000      4001
 -1      2019    8    0    1
 -2       979      1041      1040      4001      4002      3997
 -1      2020    8    0    1
 -2       980       981      1042      3796      4003      4004
 -1      2021    8    0    1
 -2       980      1042      1041      4004      4005      4000
 -1      2022    8    0    1
 -2       981       982      1043      3799      4006      4007
 -1      2023    8    0    1
 -2       981      1043      1042      4007      4008      4003
 -1      2024    8    0    1
 -2       982       983      1044      3802      4009      4010
 -1      2025    8    0    1
 -2       982      1044      1043      4010      4011      4006
 -1      2026    8    0    1
 -2       983       984      1045      3805      4012      4013
 -1      2027    8    0    1
 -2       983      1045      1044      4013      4014      4009
 -1      2028    8    0    1
 -2       984       985      1046      3808      4015      4016
 -1      2029    8    0    1
 -2       984      1046      1045      4016      4017      4012
 -1      2030    8    0    1
 -2       985       986      1047      3811      4018      4019
 -1      2031    8    0    1
 -2       985      1047      1046      4019      4020      4015
 -1      2032    8    0    1
 -2       986       987      1048      3814      4021      4022
 -1      2033    8    0    1
 -2       986      1048      1047      4022      4023      4018
 -1      2034    8    0    1
 -2       987       988      1049      3817      4024      4025
 -1      2035    8    0    1
 -2       987      1049      1048      4025      4026      4021
 -1      2036    8    0    1
 -2       839       929       989      3623      4027      3835
 -1      2037    8    0    1
 -2       995       991      1027      3856      3960      4028
 -1      2038    8    0    1
 -2       965       966      1050      3751      4029      4030
 -1      2039    8    0    1
 -2       966      1028      1050      3963      4031      4029
 -1      2040    8    0    1
 -2       962       965      1051      3748      4032      4033
 -1      2041    8    0    1
 -2       965      1050      1051      4030      4034      4032
 -1      2042    8    0    1
 -2       929       997       989      3859      4035      4027
 -1      2043    8    0    1
 -2       933       846       927      3648      3834      4036
 -1      2044    8    0    1
 -2       997       998      1052      3874      4037      4038
 -1      2045    8    0    1
 -2       989       997      1053      4035      4039      4040
 -1      2046    8    0    1
 -2       988       989      1053      3820      4040      4041
 -1      2047    8    0    1
 -2       997      1052      1053      4038      4042      4039
 -1      2048    8    0    1
 -2       998      1025      1054      3955      4043      4044
 -1      2049    8    0    1
 -2      1052       998      1054      4037      4044      4045
 -1      2050    8    0    1
 -2      1025      1024      1054      3954      4046      4043
 -1      2051    8    0    1
 -2      1026       962      1051      3956      4033      4047
 -1      2052    8    0    1
 -2      1049       988      1053      4024      4041      4048
 -1      2053    8    0    1
 -2       936      1000      1001      3878      4049      3880
 -1      2054    8    0    1
 -2       995      1027      1055      4028      4050      4051
 -1      2055    8    0    1
 -2       999       995      1055      3871      4051      4052
 -1      2056    8    0    1
 -2      1027      1026      1055      3961      4053      4050
 -1      2057    8    0    1
 -2      1000       999      1056      3879      4054      4055
 -1      2058    8    0    1
 -2      1002      1001      1057      3884      4056      4057
 -1      2059    8    0    1
 -2      1003      1002      1058      3887      4058      4059
 -1      2060    8    0    1
 -2      1002      1057      1058      4057      4060      4058
 -1      2061    8    0    1
 -2      1004      1003      1059      3890      4061      4062
 -1      2062    8    0    1
 -2      1003      1058      1059      4059      4063      4061
 -1      2063    8    0    1
 -2      1005      1004      1060      3893      4064      4065
 -1      2064    8    0    1
 -2      1004      1059      1060      4062      4066      4064
 -1      2065    8    0    1
 -2      1006      1005      1061      3896      4067      4068
 -1      2066    8    0    1
 -2      1005      1060      1061      4065      4069      4067
 -1      2067    8    0    1
 -2      1007      1006      1062      3899      4070      4071
 -1      2068    8    0    1
 -2      1006      1061      1062      4068      4072      4070
 -1      2069    8    0    1
 -2      1008      1007      1063      3902      4073      4074
 -1      2070    8    0    1
 -2      1007      1062      1063      4071      4075      4073
 -1      2071    8    0    1
 -2      1009      1008      1064      3905      4076      4077
 -1      2072    8    0    1
 -2      1008      1063      1064      4074      4078      4076
 -1      2073    8    0    1
 -2      1010      1009      1065      3908      4079      4080
 -1      2074    8    0    1
 -2      1009      1064      1065      4077      4081      4079
 -1      2075    8    0    1
 -2      1011      1010      1066      3911      4082      4083
 -1      2076    8    0    1
 -2      1010      1065      1066      4080      4084      4082
 -1      2077    8    0    1
 -2      1012      1011      1067      3914      4085      4086
 -1      2078    8    0    1
 -2      1011      1066      1067      4083      4087      4085
 -1      2079    8    0    1
 -2      1013      1012      1068      3917      4088      4089
 -1      2080    8    0    1
 -2      1012      1067      1068      4086      4090      4088
 -1      2081    8    0    1
 -2      1014      1013      1069      3920      4091      4092
 -1      2082    8    0    1
 -2      1013      1068      1069      4089      4093      4091
 -1      2083    8    0    1
 -2      1015      1014      1070      3923      4094      4095
 -1      2084    8    0    1
 -2      1014      1069      1070      4092      4096      4094
 -1      2085    8    0    1
 -2      1016      1015      1071      3926      4097      4098
 -1      2086    8    0    1
 -2      1015      1070      1071      4095      4099      4097
 -1      2087    8    0    1
 -2      1017      1016      1072      3929      4100      4101
 -1      2088    8    0    1
 -2      1016      1071      1072      4098      4102      4100
 -1      2089    8    0    1
 -2      1018      1017      1073      3932      4103      4104
 -1      2090    8    0    1
 -2      1017      1072      1073      4101      4105      4103
 -1      2091    8    0    1
 -2      1019      1018      1074      3935      4106      4107
 -1      2092    8    0    1
 -2      1018      1073      1074      4104      4108      4106
 -1      2093    8    0    1
 -2      1020      1019      1075      3938      4109      4110
 -1      2094    8    0    1
 -2      1019      1074      1075      4107      4111      4109
 -1      2095    8    0    1
 -2      1021      1020      1076      3941      4112      4113
 -1      2096    8    0    1
 -2      1020      1075      1076      4110      4114      4112
 -1      2097    8    0    1
 -2      1022      1021      1077      3944      4115      4116
 -1      2098    8    0    1
 -2      1021      1076      1077      4113      4117      4115
 -1      2099    8    0    1
 -2      1023      1022      1078      3947      4118      4119
 -1      2100    8    0    1
 -2      1022      1077      1078      4116      4120      4118
 -1      2101    8    0    1
 -2      1024      1023      1079      3950      4121      4122
 -1      2102    8    0    1
 -2      1054      1024      1079      4046      4122      4123
 -1      2103    8    0    1
 -2      1023      1078      1079      4119      4124      4121
 -1      2104    8    0    1
 -2      1026      1051      1055      4047      4125      4053
 -1      2105    8    0    1
 -2      1030      1031      1080      3972      4126      4127
 -1      2106    8    0    1
 -2      1028      1029      1081      3966      4128      4129
 -1      2107    8    0    1
 -2      1031      1032      1082      3975      4130      4131
 -1      2108    8    0    1
 -2      1031      1082      1080      4131      4132      4126
 -1      2109    8    0    1
 -2      1032      1033      1083      3978      4133      4134
 -1      2110    8    0    1
 -2      1032      1083      1082      4134      4135      4130
 -1      2111    8    0    1
 -2      1033      1034      1084      3981      4136      4137
 -1      2112    8    0    1
 -2      1033      1084      1083      4137      4138      4133
 -1      2113    8    0    1
 -2      1034      1035      1085      3984      4139      4140
 -1      2114    8    0    1
 -2      1034      1085      1084      4140      4141      4136
 -1      2115    8    0    1
 -2      1035      1036      1086      3987      4142      4143
 -1      2116    8    0    1
 -2      1035      1086      1085      4143      4144      4139
 -1      2117    8    0    1
 -2      1036      1037      1087      3990      4145      4146
 -1      2118    8    0    1
 -2      1036      1087      1086      4146      4147      4142
 -1      2119    8    0    1
 -2      1037      1038      1088      3993      4148      4149
 -1      2120    8    0    1
 -2      1037      1088      1087      4149      4150      4145
 -1      2121    8    0    1
 -2      1038      1039      1089      3996      4151      4152
 -1      2122    8    0    1
 -2      1038      1089      1088      4152      4153      4148
 -1      2123    8    0    1
 -2      1039      1040      1090      3999      4154      4155
 -1      2124    8    0    1
 -2      1039      1090      1089      4155      4156      4151
 -1      2125    8    0    1
 -2      1040      1041      1091      4002      4157      4158
 -1      2126    8    0    1
 -2      1040      1091      1090      4158      4159      4154
 -1      2127    8    0    1
 -2      1041      1042      1092      4005      4160      4161
 -1      2128    8    0    1
 -2      1041      1092      1091      4161      4162      4157
 -1      2129    8    0    1
 -2      1042      1043      1093      4008      4163      4164
 -1      2130    8    0    1
 -2      1042      1093      1092      4164      4165      4160
 -1      2131    8    0    1
 -2      1043      1044      1094      4011      4166      4167
 -1      2132    8    0    1
 -2      1043      1094      1093      4167      4168      4163
 -1      2133    8    0    1
 -2      1044      1045      1095      4014      4169      4170
 -1      2134    8    0    1
 -2      1044      1095      1094      4170      4171      4166
 -1      2135    8    0    1
 -2      1045      1046      1096      4017      4172      4173
 -1      2136    8    0    1
 -2      1045      1096      1095      4173      4174      4169
 -1      2137    8    0    1
 -2      1046      1047      1097      4020      4175      4176
 -1      2138    8    0    1
 -2      1046      1097      1096      4176      4177      4172
 -1      2139    8    0    1
 -2      1047      1048      1098      4023      4178      4179
 -1      2140    8    0    1
 -2      1047      1098      1097      4179      4180      4175
 -1      2141    8    0    1
 -2      1048      1049      1099      4026      4181      4182
 -1      2142    8    0    1
 -2      1048      1099      1098      4182      4183      4178
 -1      2143    8    0    1
 -2       933       927       992      4036      3832      3867
 -1      2144    8    0    1
 -2      1029      1030      1100      3969      4184      4185
 -1      2145    8    0    1
 -2      1030      1080      1100      4127      4186      4184
 -1      2146    8    0    1
 -2      1050      1028      1101      4031      4187      4188
 -1      2147    8    0    1
 -2      1028      1081      1101      4129      4189      4187
 -1      2148    8    0    1
 -2      1051      1050      1102      4034      4190      4191
 -1      2149    8    0    1
 -2      1050      1101      1102      4188      4192      4190
 -1      2150    8    0    1
 -2      1049      1053      1103      4048      4193      4194
 -1      2151    8    0    1
 -2      1049      1103      1099      4194      4195      4181
 -1      2152    8    0    1
 -2      1001      1000      1056      4049      4055      4196
 -1      2153    8    0    1
 -2      1055      1051      1102      4125      4191      4197
 -1      2154    8    0    1
 -2      1001      1056      1057      4196      4198      4056
 -1      2155    8    0    1
 -2      1081      1029      1100      4128      4185      4199
 -1      2156    8    0    1
 -2      1103      1053      1052      4193      4042      4200
 -1      2157    8    0    1
 -2       999      1055      1056      4052      4201      4054
 -1      2158    8    0    1
 -2      1052      1054      1104      4045      4202      4203
 -1      2159    8    0    1
 -2      1103      1052      1104      4200      4203      4204
 -1      2160    8    0    1
 -2      1054      1079      1104      4123      4205      4202
 -1      2161    8    0    1
 -2      1059      1058      1081      4063      4206      4207
 -1      2162    8    0    1
 -2      1060      1059      1100      4066      4208      4209
 -1      2163    8    0    1
 -2      1061      1060      1080      4069      4210      4211
 -1      2164    8    0    1
 -2      1062      1061      1082      4072      4212      4213
 -1      2165    8    0    1
 -2      1063      1062      1083      4075      4214      4215
 -1      2166    8    0    1
 -2      1064      1063      1084      4078      4216      4217
 -1      2167    8    0    1
 -2      1065      1064      1085      4081      4218      4219
 -1      2168    8    0    1
 -2      1066      1065      1086      4084      4220      4221
 -1      2169    8    0    1
 -2      1067      1066      1087      4087      4222      4223
 -1      2170    8    0    1
 -2      1068      1067      1088      4090      4224      4225
 -1      2171    8    0    1
 -2      1069      1068      1089      4093      4226      4227
 -1      2172    8    0    1
 -2      1070      1069      1090      4096      4228      4229
 -1      2173    8    0    1
 -2      1071      1070      1091      4099      4230      4231
 -1      2174    8    0    1
 -2      1072      1071      1092      4102      4232      4233
 -1      2175    8    0    1
 -2      1073      1072      1093      4105      4234      4235
 -1      2176    8    0    1
 -2      1074      1073      1094      4108      4236      4237
 -1      2177    8    0    1
 -2      1075      1074      1095      4111      4238      4239
 -1      2178    8    0    1
 -2      1076      1075      1096      4114      4240      4241
 -1      2179    8    0    1
 -2      1077      1076      1097      4117      4242      4243
 -1      2180    8    0    1
 -2      1078      1077      1098      4120      4244      4245
 -1      2181    8    0    1
 -2      1083      1084      1063      4138      4216      4215
 -1      2182    8    0    1
 -2      1082      1083      1062      4135      4214      4213
 -1      2183    8    0    1
 -2      1097      1076      1096      4242      4241      4177
 -1      2184    8    0    1
 -2      1090      1069      1089      4228      4227      4156
 -1      2185    8    0    1
 -2      1093      1072      1092      4234      4233      4165
 -1      2186    8    0    1
 -2      1057      1056      1102      4198      4246      4247
 -1      2187    8    0    1
 -2      1080      1082      1061      4132      4212      4211
 -1      2188    8    0    1
 -2      1084      1085      1064      4141      4218      4217
 -1      2189    8    0    1
 -2      1085      1086      1065      4144      4220      4219
 -1      2190    8    0    1
 -2      1086      1087      1066      4147      4222      4221
 -1      2191    8    0    1
 -2      1087      1088      1067      4150      4224      4223
 -1      2192    8    0    1
 -2      1088      1089      1068      4153      4226      4225
 -1      2193    8    0    1
 -2      1090      1091      1070      4159      4230      4229
 -1      2194    8    0    1
 -2      1091      1092      1071      4162      4232      4231
 -1      2195    8    0    1
 -2      1057      1102      1101      4247      4192      4248
 -1      2196    8    0    1
 -2      1093      1094      1073      4168      4236      4235
 -1      2197    8    0    1
 -2      1094      1095      1074      4171      4238      4237
 -1      2198    8    0    1
 -2      1095      1096      1075      4174      4240      4239
 -1      2199    8    0    1
 -2      1097      1098      1077      4180      4244      4243
 -1      2200    8    0    1
 -2      1098      1099      1078      4183      4249      4245
 -1      2201    8    0    1
 -2      1058      1057      1101      4060      4248      4250
 -1      2202    8    0    1
 -2      1099      1103      1104      4195      4204      4251
 -1      2203    8    0    1
 -2      1055      1102      1056      4197      4246      4201
 -1      2204    8    0    1
 -2      1101      1081      1058      4189      4206      4250
 -1      2205    8    0    1
 -2      1080      1060      1100      4210      4209      4186
 -1      2206    8    0    1
 -2      1081      1100      1059      4199      4208      4207
 -1      2207    8    0    1
 -2      1078      1099      1104      4249      4251      4252
 -1      2208    8    0    1
 -2      1078      1104      1079      4252      4205      4124
 -3
    1PSTEP                         1           1           1          
  100CL  101 1.000000000        4252                     0    1           1
 -4  DISP        4    1
 -5  D1          1    2    1    0
 -5  D2          1    2    2    0
 -5  D3          1    2    3    0
 -5  ALL         1    2    0    0    1ALL
 -1         1 3.79206E-03-1.40607E-03-7.19532E-15
 -1         2 5.94132E-03-5.47668E-04-1.05777E-14
 -1         3 1.45203E-02-2.61923E-03-1.23545E-13
 -1         4 1.59514E-02-4.04836E-03-1.30115E-13
 -1         5 0.00000E+00 0.00000E+00 0.00000E+00
 -1         6 0.00000E+00 0.00000E+00 0.00000E+00
 -1         7 0.00000E+00 0.00000E+00 0.00000E+00
 -1         8 0.00000E+00 0.00000E+00 0.00000E+00
 -1         9 0.00000E+00 0.00000E+00 0.00000E+00
 -1        10 0.00000E+00 0.00000E+00 0.00000E+00
 -1        11 0.00000E+00 0.00000E+00 0.00000E+00
 -1        12 0.00000E+00 0.00000E+00 0.00000E+00
 -1        13 0.00000E+00 0.00000E+00 0.00000E+00
 -1        14 0.00000E+00 0.00000E+00 0.00000E+00
 -1        15 0.00000E+00 0.00000E+00 0.00000E+00
 -1        16 0.00000E+00 0.00000E+00 0.00000E+00
 -1        17 0.00000E+00 0.00000E+00 0.00000E+00
 -1        18 0.00000E+00 0.00000E+00 0.00000E+00
 -1        19 0.00000E+00 0.00000E+00 0.00000E+00
 -1        20 0.00000E+00 0.00000E+00 0.00000E+00
 -1        21 0.00000E+00 0.00000E+00 0.00000E+00
 -1        22 0.00000E+00 0.00000E+00 0.00000E+00
 -1        23 4.51233E-04-2.46150E-04 2.12165E-17
 -1        24 8.02815E-04-3.68996E-04-9.64228E-17
 -1        25 1.15302E-03-4.65161E-04-3.47914E-16
 -1        26 1.51671E-03-5.57381E-04-7.29255E-16
 -1        27 1.89842E-03-6.63619E-04-1.23803E-15
 -1        28 2.29673E-03-7.99536E-04-1.87683E-15
 -1        29 2.70152E-03-9.76802E-04-2.64893E-15
 -1        30 3.09223E-03-1.19496E-03-3.55548E-15
 -1        31 3.44286E-03-1.43000E-03-4.60582E-15
 -1        32 3.73792E-03-1.63062E-03-5.80812E-15
 -1        33 3.97910E-03-1.73560E-03-7.09249E-15
 -1        34 4.23233E-03-1.72926E-03-8.59504E-15
 -1        35 4.52744E-03-1.62797E-03-1.02544E-14
 -1        36 4.88051E-03-1.49098E-03-1.20628E-14
 -1        37 5.27722E-03-1.37251E-03-1.40059E-14
 -1        38 5.69108E-03-1.30019E-03-1.60748E-14
 -1        39 6.10011E-03-1.27770E-03-1.82616E-14
 -1        40 6.49235E-03-1.29653E-03-2.05603E-14
 -1        41 6.86408E-03-1.34518E-03-2.29735E-14
 -1        42 7.21629E-03-1.41353E-03-2.54909E-14
 -1        43 7.55190E-03-1.49406E-03-2.80917E-14
 -1        44 7.87424E-03-1.58162E-03-3.07670E-14
 -1        45 8.18637E-03-1.67291E-03-3.35144E-14
 -1        46 8.49080E-03-1.76586E-03-3.63333E-14
 -1        47 8.78954E-03-1.85923E-03-3.92258E-14
 -1        48 9.08411E-03-1.95231E-03-4.21930E-14
 -1        49 9.37569E-03-2.04474E-03-4.52426E-14
 -1        50 9.66512E-03-2.13634E-03-4.83808E-14
 -1        51 9.95306E-03-2.22709E-03-5.15937E-14
 -1        52 1.02400E-02-2.31701E-03-5.48726E-14
 -1        53 1.05262E-02-2.40619E-03-5.82262E-14
 -1        54 1.08120E-02-2.49470E-03-6.16620E-14
 -1        55 1.10975E-02-2.58265E-03-6.51634E-14
 -1        56 1.13829E-02-2.67013E-03-6.87181E-14
 -1        57 1.16682E-02-2.75723E-03-7.23163E-14
 -1        58 1.19535E-02-2.84402E-03-7.59761E-14
 -1        59 1.22388E-02-2.93056E-03-7.96933E-14
 -1        60 1.25242E-02-3.01691E-03-8.34468E-14
 -1        61 1.28096E-02-3.10312E-03-8.72354E-14
 -1        62 1.30950E-02-3.18921E-03-9.10602E-14
 -1        63 1.33805E-02-3.27523E-03-9.49246E-14
 -1        64 1.36660E-02-3.36119E-03-9.88021E-14
 -1        65 1.39516E-02-3.44712E-03-1.02673E-13
 -1        66 1.42372E-02-3.53301E-03-1.06566E-13
 -1        67 1.45229E-02-3.61890E-03-1.10466E-13
 -1        68 1.48085E-02-3.70478E-03-1.14375E-13
 -1        69 1.50942E-02-3.79066E-03-1.18302E-13
 -1        70 1.53799E-02-3.87655E-03-1.22242E-13
 -1        71 1.56657E-02-3.96245E-03-1.26190E-13
 -1        72 4.40354E-04 2.62054E-04 8.32667E-17
 -1        73 7.61724E-04 4.01757E-04 6.93991E-17
 -1        74 1.06943E-03 5.03253E-04-4.47708E-17
 -1        75 1.37275E-03 5.87488E-04-2.66314E-16
 -1        76 1.67280E-03 6.63330E-04-6.02183E-16
 -1        77 1.96741E-03 7.34341E-04-1.05748E-15
 -1        78 2.25312E-03 7.99832E-04-1.63548E-15
 -1        79 2.52664E-03 8.55289E-04-2.33926E-15
 -1        80 2.78654E-03 8.93283E-04-3.17341E-15
 -1        81 3.03460E-03 9.05423E-04-4.14401E-15
 -1        82 3.27609E-03 8.85122E-04-5.25841E-15
 -1        83 3.51864E-03 8.30156E-04-6.51141E-15
 -1        84 3.76989E-03 7.43763E-04-7.90499E-15
 -1        85 4.03521E-03 6.33711E-04-9.43757E-15
 -1        86 4.31637E-03 5.09872E-04-1.11083E-14
 -1        87 4.61181E-03 3.81600E-04-1.29167E-14
 -1        88 4.91781E-03 2.55946E-04-1.48532E-14
 -1        89 5.22997E-03 1.37076E-04-1.69080E-14
 -1        90 5.54431E-03 2.66068E-05-1.90769E-14
 -1        91 5.85784E-03-7.56391E-05-2.13544E-14
 -1        92 6.16863E-03-1.70841E-04-2.37388E-14
 -1        93 6.47572E-03-2.60571E-04-2.62255E-14
 -1        94 6.77887E-03-3.46401E-04-2.88081E-14
 -1        95 7.07824E-03-4.29698E-04-3.14819E-14
 -1        96 7.37428E-03-5.11545E-04-3.42387E-14
 -1        97 7.66753E-03-5.92741E-04-3.70791E-14
 -1        98 7.95852E-03-6.73837E-04-4.00109E-14
 -1        99 8.24776E-03-7.55183E-04-4.30376E-14
 -1       100 8.53570E-03-8.36977E-04-4.61522E-14
 -1       101 8.82269E-03-9.19312E-04-4.93503E-14
 -1       102 9.10901E-03-1.00221E-03-5.26300E-14
 -1       103 9.39488E-03-1.08563E-03-5.59898E-14
 -1       104 9.68048E-03-1.16954E-03-5.94164E-14
 -1       105 9.96591E-03-1.25388E-03-6.29081E-14
 -1       106 1.02513E-02-1.33856E-03-6.64522E-14
 -1       107 1.05366E-02-1.42354E-03-7.00563E-14
 -1       108 1.08219E-02-1.50874E-03-7.37140E-14
 -1       109 1.11073E-02-1.59414E-03-7.74135E-14
 -1       110 1.13927E-02-1.67967E-03-8.11455E-14
 -1       111 1.16781E-02-1.76531E-03-8.49007E-14
 -1       112 1.19636E-02-1.85103E-03-8.86925E-14
 -1       113 1.22492E-02-1.93681E-03-9.25226E-14
 -1       114 1.25348E-02-2.02262E-03-9.63844E-14
 -1       115 1.28204E-02-2.10846E-03-1.00285E-13
 -1       116 1.31060E-02-2.19431E-03-1.04185E-13
 -1       117 1.33917E-02-2.28016E-03-1.08085E-13
 -1       118 1.36774E-02-2.36601E-03-1.11991E-13
 -1       119 1.39631E-02-2.45186E-03-1.15911E-13
 -1       120 1.42488E-02-2.53769E-03-1.19833E-13
 -1       121 1.46046E-02-2.70351E-03-1.23925E-13
 -1       122 1.46890E-02-2.78780E-03-1.24321E-13
 -1       123 1.47734E-02-2.87209E-03-1.24716E-13
 -1       124 1.48578E-02-2.95640E-03-1.25123E-13
 -1       125 1.49422E-02-3.04072E-03-1.25528E-13
 -1       126 1.50251E-02-3.12363E-03-1.25936E-13
 -1       127 1.51095E-02-3.20797E-03-1.26346E-13
 -1       128 1.51939E-02-3.29233E-03-1.26745E-13
 -1       129 1.52784E-02-3.37668E-03-1.27147E-13
 -1       130 1.53628E-02-3.46104E-03-1.27530E-13
 -1       131 1.54473E-02-3.54539E-03-1.27925E-13
 -1       132 1.55304E-02-3.62829E-03-1.28325E-13
 -1       133 1.56148E-02-3.71261E-03-1.28715E-13
 -1       134 1.56993E-02-3.79692E-03-1.29081E-13
 -1       135 1.57838E-02-3.88121E-03-1.29435E-13
 -1       136 1.58683E-02-3.96550E-03-1.29774E-13
 -1       137 5.85878E-03-3.75091E-04-1.04492E-14
 -1       138 5.68607E-03-2.07175E-04-1.01639E-14
 -1       139 5.40516E-03-3.72987E-05-9.69518E-15
 -1       140 5.08061E-03 9.88207E-05-9.16169E-15
 -1       141 4.68154E-03 2.17807E-04-8.52273E-15
 -1       142 4.25158E-03 3.04716E-04-7.85752E-15
 -1       143 3.79745E-03 3.58792E-04-7.18335E-15
 -1       144 3.30461E-03 3.76962E-04-6.48835E-15
 -1       145 2.82108E-03 3.51742E-04-5.83993E-15
 -1       146 2.41207E-03 2.92432E-04-5.32062E-15
 -1       147 2.05697E-03 2.01984E-04-4.88978E-15
 -1       148 1.78153E-03 9.07679E-05-4.56818E-15
 -1       149 1.57442E-03-4.47872E-05-4.33672E-15
 -1       150 1.44942E-03-2.05978E-04-4.20679E-15
 -1       151 1.42714E-03-3.76043E-04-4.19527E-15
 -1       152 1.51425E-03-5.66858E-04-4.30961E-15
 -1       153 1.68920E-03-7.45096E-04-4.52453E-15
 -1       154 1.97261E-03-9.29871E-04-4.86621E-15
 -1       155 2.33655E-03-1.10013E-03-5.30926E-15
 -1       156 2.75328E-03-1.23898E-03-5.82623E-15
 -1       157 3.28453E-03-1.35525E-03-6.51435E-15
 -1       158 4.25656E-03-1.40331E-03-7.84651E-15
 -1       159 4.69534E-03-1.35458E-03-8.49649E-15
 -1       160 5.07943E-03-1.26919E-03-9.09434E-15
 -1       161 5.40042E-03-1.15689E-03-9.61938E-15
 -1       162 5.65891E-03-1.02080E-03-1.00598E-14
 -1       163 5.83662E-03-8.71055E-04-1.03737E-14
 -1       164 5.93354E-03-7.08521E-04-1.05526E-14
 -1       165 2.70230E-04-9.54937E-05-3.16655E-17
 -1       166 2.42180E-04-5.78853E-05-4.76710E-17
 -1       167 2.21448E-04-3.60284E-05-5.58161E-17
 -1       168 2.04742E-04-2.44599E-05-5.99191E-17
 -1       169 1.92708E-04-1.99638E-05-6.12642E-17
 -1       170 1.85777E-04-1.93447E-05-6.12371E-17
 -1       171 1.84379E-04-1.95672E-05-5.99089E-17
 -1       172 1.87772E-04-1.78384E-05-5.79845E-17
 -1       173 1.94514E-04-1.22740E-05-5.49386E-17
 -1       174 2.02982E-04-2.11859E-06-5.09406E-17
 -1       175 2.11752E-04 1.22011E-05-4.57262E-17
 -1       176 2.20554E-04 3.06914E-05-3.83808E-17
 -1       177 2.29563E-04 5.30186E-05-2.83011E-17
 -1       178 2.40445E-04 8.04038E-05-1.30782E-17
 -1       179 2.58570E-04 1.17850E-04 1.04354E-17
 -1       180 3.21784E-04 1.80445E-04 3.73711E-17
 -1       181 5.36468E-04-2.23705E-04-8.51234E-17
 -1       182 8.91066E-04-3.28489E-04-2.90678E-16
 -1       183 1.24284E-03-4.17512E-04-6.19655E-16
 -1       184 1.60100E-03-5.10960E-04-1.07221E-15
 -1       185 1.96907E-03-6.26252E-04-1.64896E-15
 -1       186 2.34651E-03-7.79404E-04-2.35289E-15
 -1       187 2.72773E-03-9.79809E-04-3.18779E-15
 -1       188 3.10192E-03-1.21868E-03-4.15817E-15
 -1       189 3.45699E-03-1.45652E-03-5.27439E-15
 -1       190 3.77261E-03-1.62123E-03-6.47523E-15
 -1       191 4.09410E-03-1.67536E-03-7.89062E-15
 -1       192 4.42609E-03-1.60517E-03-9.46437E-15
 -1       193 4.78215E-03-1.46520E-03-1.11914E-14
 -1       194 5.15907E-03-1.32397E-03-1.30626E-14
 -1       195 5.54432E-03-1.22490E-03-1.50592E-14
 -1       196 5.92596E-03-1.18042E-03-1.71776E-14
 -1       197 6.29674E-03-1.18432E-03-1.94076E-14
 -1       198 6.65375E-03-1.22419E-03-2.17486E-14
 -1       199 6.99691E-03-1.28814E-03-2.41943E-14
 -1       200 7.32758E-03-1.36701E-03-2.67344E-14
 -1       201 7.64773E-03-1.45450E-03-2.93553E-14
 -1       202 7.95932E-03-1.54654E-03-3.20518E-14
 -1       203 8.26419E-03-1.64059E-03-3.48241E-14
 -1       204 8.56385E-03-1.73517E-03-3.76714E-14
 -1       205 8.85954E-03-1.82943E-03-4.05966E-14
 -1       206 9.15227E-03-1.92292E-03-4.35979E-14
 -1       207 9.44280E-03-2.01546E-03-4.66832E-14
 -1       208 9.73172E-03-2.10699E-03-4.98480E-14
 -1       209 1.00195E-02-2.19758E-03-5.30867E-14
 -1       210 1.03064E-02-2.28729E-03-5.63946E-14
 -1       211 1.05928E-02-2.37623E-03-5.97756E-14
 -1       212 1.08788E-02-2.46453E-03-6.32289E-14
 -1       213 1.11646E-02-2.55227E-03-6.67427E-14
 -1       214 1.14502E-02-2.63957E-03-7.03101E-14
 -1       215 1.17357E-02-2.72651E-03-7.39354E-14
 -1       216 1.20212E-02-2.81317E-03-7.76112E-14
 -1       217 1.23067E-02-2.89960E-03-8.13389E-14
 -1       218 1.25922E-02-2.98587E-03-8.51008E-14
 -1       219 1.28777E-02-3.07201E-03-8.88970E-14
 -1       220 1.31632E-02-3.15805E-03-9.27292E-14
 -1       221 1.34488E-02-3.24403E-03-9.65869E-14
 -1       222 1.37344E-02-3.32996E-03-1.00453E-13
 -1       223 1.40200E-02-3.41586E-03-1.04332E-13
 -1       224 1.43057E-02-3.50174E-03-1.08224E-13
 -1       225 1.45913E-02-3.58762E-03-1.12121E-13
 -1       226 1.48770E-02-3.67349E-03-1.16032E-13
 -1       227 1.51627E-02-3.75938E-03-1.19963E-13
 -1       228 1.54484E-02-3.84527E-03-1.23903E-13
 -1       229 1.56584E-02-3.90538E-03-1.26842E-13
 -1       230 6.57540E-04 3.21831E-04-2.60886E-19
 -1       231 9.78029E-04 4.27063E-04-1.32717E-16
 -1       232 1.28936E-03 5.13314E-04-3.69008E-16
 -1       233 1.59498E-03 5.90649E-04-7.16959E-16
 -1       234 1.89508E-03 6.63475E-04-1.18191E-15
 -1       235 2.18835E-03 7.31654E-04-1.76746E-15
 -1       236 2.47312E-03 7.90876E-04-2.47779E-15
 -1       237 2.74867E-03 8.33457E-04-3.31751E-15
 -1       238 3.01614E-03 8.50294E-04-4.29189E-15
 -1       239 3.27888E-03 8.33858E-04-5.40636E-15
 -1       240 3.54185E-03 7.81144E-04-6.66133E-15
 -1       241 3.81009E-03 6.95122E-04-8.05635E-15
 -1       242 4.08728E-03 5.83864E-04-9.58995E-15
 -1       243 4.37478E-03 4.57910E-04-1.12598E-14
 -1       244 4.67173E-03 3.27315E-04-1.30632E-14
 -1       245 4.97579E-03 1.99647E-04-1.49924E-14
 -1       246 5.28404E-03 7.93336E-05-1.70431E-14
 -1       247 5.59376E-03-3.19656E-05-1.92053E-14
 -1       248 5.90283E-03-1.34509E-04-2.14782E-14
 -1       249 6.20981E-03-2.29615E-04-2.38594E-14
 -1       250 6.51395E-03-3.18993E-04-2.63421E-14
 -1       251 6.81497E-03-4.04335E-04-2.89208E-14
 -1       252 7.11296E-03-4.87095E-04-3.15879E-14
 -1       253 7.40821E-03-5.68417E-04-3.43396E-14
 -1       254 7.70110E-03-6.49134E-04-3.71802E-14
 -1       255 7.99204E-03-7.29815E-04-4.01087E-14
 -1       256 8.28144E-03-8.10813E-04-4.31268E-14
 -1       257 8.56963E-03-8.92326E-04-4.62314E-14
 -1       258 8.85693E-03-9.74440E-04-4.94204E-14
 -1       259 9.14358E-03-1.05716E-03-5.26903E-14
 -1       260 9.42976E-03-1.14047E-03-5.60374E-14
 -1       261 9.71564E-03-1.22429E-03-5.94575E-14
 -1       262 1.00013E-02-1.30855E-03-6.29414E-14
 -1       263 1.02869E-02-1.39319E-03-6.64820E-14
 -1       264 1.05724E-02-1.47814E-03-7.00750E-14
 -1       265 1.08578E-02-1.56333E-03-7.37169E-14
 -1       266 1.11433E-02-1.64871E-03-7.74039E-14
 -1       267 1.14288E-02-1.73424E-03-8.11299E-14
 -1       268 1.17143E-02-1.81988E-03-8.48837E-14
 -1       269 1.19999E-02-1.90560E-03-8.86700E-14
 -1       270 1.22855E-02-1.99138E-03-9.24942E-14
 -1       271 1.25711E-02-2.07720E-03-9.63514E-14
 -1       272 1.28567E-02-2.16304E-03-1.00237E-13
 -1       273 1.31423E-02-2.24890E-03-1.04128E-13
 -1       274 1.34280E-02-2.33475E-03-1.08023E-13
 -1       275 1.37137E-02-2.42061E-03-1.11927E-13
 -1       276 1.39994E-02-2.50646E-03-1.15839E-13
 -1       277 1.42851E-02-2.59229E-03-1.19757E-13
 -1       278 1.43994E-02-2.67133E-03-1.20741E-13
 -1       279 1.44838E-02-2.75562E-03-1.21136E-13
 -1       280 1.45682E-02-2.83993E-03-1.21536E-13
 -1       281 1.46525E-02-2.92424E-03-1.21948E-13
 -1       282 1.47355E-02-3.00713E-03-1.22350E-13
 -1       283 1.48199E-02-3.09146E-03-1.22757E-13
 -1       284 1.49043E-02-3.17580E-03-1.23160E-13
 -1       285 1.49887E-02-3.26014E-03-1.23564E-13
 -1       286 1.50731E-02-3.34449E-03-1.23960E-13
 -1       287 1.51576E-02-3.42883E-03-1.24350E-13
 -1       288 1.52407E-02-3.51173E-03-1.24731E-13
 -1       289 1.53252E-02-3.59605E-03-1.25111E-13
 -1       290 1.54097E-02-3.68036E-03-1.25477E-13
 -1       291 1.54942E-02-3.76466E-03-1.25835E-13
 -1       292 1.55763E-02-3.83502E-03-1.26338E-13
 -1       293 5.93112E-03-5.25051E-04-1.12909E-14
 -1       294 5.76006E-03-4.17261E-04-1.10254E-14
 -1       295 5.46400E-03-2.80152E-04-1.05903E-14
 -1       296 5.10187E-03-9.88936E-05-9.92063E-15
 -1       297 4.71156E-03 8.64072E-05-9.19567E-15
 -1       298 4.31167E-03 2.60450E-04-8.40295E-15
 -1       299 3.92699E-03 3.88208E-04-7.60329E-15
 -1       300 3.53913E-03 4.51183E-04-6.79846E-15
 -1       301 3.14832E-03 4.28099E-04-6.00233E-15
 -1       302 2.75375E-03 3.20461E-04-5.36047E-15
 -1       303 2.37380E-03 1.81699E-04-4.85208E-15
 -1       304 2.02752E-03 3.59516E-05-4.44622E-15
 -1       305 1.73030E-03-9.56873E-05-4.15170E-15
 -1       306 1.50603E-03-2.12185E-04-3.93825E-15
 -1       307 1.40137E-03-3.03861E-04-3.88457E-15
 -1       308 1.43984E-03-3.90339E-04-3.86877E-15
 -1       309 1.62526E-03-5.21320E-04-4.10535E-15
 -1       310 1.94125E-03-6.52239E-04-4.31515E-15
 -1       311 2.31861E-03-8.80441E-04-4.80040E-15
 -1       312 2.72761E-03-1.10704E-03-5.34557E-15
 -1       313 3.19817E-03-1.31964E-03-5.98177E-15
 -1       314 3.61265E-03-1.46121E-03-6.81058E-15
 -1       315 3.99761E-03-1.48756E-03-7.59881E-15
 -1       316 4.36982E-03-1.42316E-03-8.38127E-15
 -1       317 4.73933E-03-1.29212E-03-9.14230E-15
 -1       318 5.09537E-03-1.13140E-03-9.83475E-15
 -1       319 5.42541E-03-9.69402E-04-1.04355E-14
 -1       320 5.70177E-03-8.26462E-04-1.09101E-14
 -1       321 5.89367E-03-7.03518E-04-1.13292E-14
 -1       322 5.97380E-03-6.15419E-04-1.13564E-14
 -1       323 4.73992E-04-1.03635E-04-1.88746E-16
 -1       324 5.25373E-04-1.55662E-04-1.63989E-16
 -1       325 3.98426E-04-5.37518E-05-2.08797E-16
 -1       326 3.76873E-04-4.59022E-05-2.10389E-16
 -1       327 3.68343E-04-4.23690E-05-2.08834E-16
 -1       328 3.72077E-04-3.76171E-05-2.04542E-16
 -1       329 3.85157E-04-2.73331E-05-1.97572E-16
 -1       330 4.03599E-04-9.21833E-06-1.88024E-16
 -1       331 4.23467E-04 1.65695E-05-1.75299E-16
 -1       332 4.43346E-04 5.01687E-05-1.58260E-16
 -1       333 4.62775E-04 9.05056E-05-1.36020E-16
 -1       334 4.84079E-04 1.38231E-04-1.05611E-16
 -1       335 5.13298E-04 1.96957E-04-6.27753E-17
 -1       336 5.77378E-04 2.55180E-04-3.81368E-17
 -1       337 8.98167E-04 3.60607E-04-1.81777E-16
 -1       338 9.75603E-04-2.89543E-04-5.03453E-16
 -1       339 1.31109E-03-3.73923E-04-9.04252E-16
 -1       340 1.65326E-03-4.69967E-04-1.42451E-15
 -1       341 2.00703E-03-5.94410E-04-2.06497E-15
 -1       342 2.37654E-03-7.63236E-04-2.82975E-15
 -1       343 2.76198E-03-9.84462E-04-3.72228E-15
 -1       344 3.15386E-03-1.24223E-03-4.75179E-15
 -1       345 3.51990E-03-1.46785E-03-5.86791E-15
 -1       346 3.88747E-03-1.59993E-03-7.19596E-15
 -1       347 4.25670E-03-1.57755E-03-8.68405E-15
 -1       348 4.64004E-03-1.44058E-03-1.03305E-14
 -1       349 5.03348E-03-1.27893E-03-1.21281E-14
 -1       350 5.42093E-03-1.15580E-03-1.40577E-14
 -1       351 5.79220E-03-1.09133E-03-1.61084E-14
 -1       352 6.14598E-03-1.08061E-03-1.82727E-14
 -1       353 6.48501E-03-1.11065E-03-2.05451E-14
 -1       354 6.81249E-03-1.16853E-03-2.29210E-14
 -1       355 7.13098E-03-1.24406E-03-2.53948E-14
 -1       356 7.44234E-03-1.33008E-03-2.79594E-14
 -1       357 7.74798E-03-1.42180E-03-3.06052E-14
 -1       358 8.04900E-03-1.51622E-03-3.33272E-14
 -1       359 8.34632E-03-1.61152E-03-3.61251E-14
 -1       360 8.64072E-03-1.70664E-03-3.90030E-14
 -1       361 8.93282E-03-1.80102E-03-4.19600E-14
 -1       362 9.22315E-03-1.89439E-03-4.49949E-14
 -1       363 9.51212E-03-1.98668E-03-4.81116E-14
 -1       364 9.80008E-03-2.07791E-03-5.13079E-14
 -1       365 1.00873E-02-2.16817E-03-5.45725E-14
 -1       366 1.03740E-02-2.25757E-03-5.79082E-14
 -1       367 1.06602E-02-2.34622E-03-6.13138E-14
 -1       368 1.09462E-02-2.43426E-03-6.47841E-14
 -1       369 1.12321E-02-2.52179E-03-6.83132E-14
 -1       370 1.15178E-02-2.60891E-03-7.19007E-14
 -1       371 1.18034E-02-2.69570E-03-7.55429E-14
 -1       372 1.20890E-02-2.78224E-03-7.92394E-14
 -1       373 1.23746E-02-2.86858E-03-8.29763E-14
 -1       374 1.26602E-02-2.95477E-03-8.67491E-14
 -1       375 1.29458E-02-3.04085E-03-9.05540E-14
 -1       376 1.32315E-02-3.12685E-03-9.43910E-14
 -1       377 1.35171E-02-3.21279E-03-9.82380E-14
 -1       378 1.38027E-02-3.29870E-03-1.02101E-13
 -1       379 1.40884E-02-3.38459E-03-1.05981E-13
 -1       380 1.43741E-02-3.47046E-03-1.09870E-13
 -1       381 1.46597E-02-3.55633E-03-1.13771E-13
 -1       382 1.49454E-02-3.64221E-03-1.17689E-13
 -1       383 1.52311E-02-3.72809E-03-1.21620E-13
 -1       384 1.38860E-03 4.72077E-04-6.69461E-16
 -1       385 1.69820E-03 5.47259E-04-1.10081E-15
 -1       386 2.00398E-03 6.19419E-04-1.64819E-15
 -1       387 2.30475E-03 6.86417E-04-2.31586E-15
 -1       388 2.59911E-03 7.41844E-04-3.10999E-15
 -1       389 2.88655E-03 7.76132E-04-4.03485E-15
 -1       390 3.16840E-03 7.79330E-04-5.09686E-15
 -1       391 3.44799E-03 7.44880E-04-6.29864E-15
 -1       392 3.72964E-03 6.72613E-04-7.64136E-15
 -1       393 4.01692E-03 5.69146E-04-9.12423E-15
 -1       394 4.31137E-03 4.45423E-04-1.07419E-14
 -1       395 4.61242E-03 3.13066E-04-1.24919E-14
 -1       396 4.91809E-03 1.81473E-04-1.43688E-14
 -1       397 5.22603E-03 5.65735E-05-1.63681E-14
 -1       398 5.53415E-03-5.89984E-05-1.84809E-14
 -1       399 5.84097E-03-1.65009E-04-2.07054E-14
 -1       400 6.14559E-03-2.62625E-04-2.30418E-14
 -1       401 6.44758E-03-3.53612E-04-2.54795E-14
 -1       402 6.74686E-03-4.39816E-04-2.80170E-14
 -1       403 7.04357E-03-5.22873E-04-3.06463E-14
 -1       404 7.33798E-03-6.04102E-04-3.33616E-14
 -1       405 7.63040E-03-6.84481E-04-3.61625E-14
 -1       406 7.92116E-03-7.64691E-04-3.90493E-14
 -1       407 8.21057E-03-8.45168E-04-4.20258E-14
 -1       408 8.49891E-03-9.26163E-04-4.50906E-14
 -1       409 8.78644E-03-1.00780E-03-4.82374E-14
 -1       410 9.07335E-03-1.09009E-03-5.14656E-14
 -1       411 9.35981E-03-1.17303E-03-5.47710E-14
 -1       412 9.64594E-03-1.25654E-03-5.81534E-14
 -1       413 9.93185E-03-1.34056E-03-6.16042E-14
 -1       414 1.02176E-02-1.42501E-03-6.51148E-14
 -1       415 1.05033E-02-1.50980E-03-6.86800E-14
 -1       416 1.07889E-02-1.59488E-03-7.22916E-14
 -1       417 1.10745E-02-1.68017E-03-7.59504E-14
 -1       418 1.13601E-02-1.76564E-03-7.96530E-14
 -1       419 1.16457E-02-1.85124E-03-8.33907E-14
 -1       420 1.19313E-02-1.93693E-03-8.71584E-14
 -1       421 1.22169E-02-2.02269E-03-9.09594E-14
 -1       422 1.25025E-02-2.10849E-03-9.47963E-14
 -1       423 1.27882E-02-2.19433E-03-9.86658E-14
 -1       424 1.30738E-02-2.28018E-03-1.02547E-13
 -1       425 1.33595E-02-2.36605E-03-1.06435E-13
 -1       426 1.36452E-02-2.45191E-03-1.10331E-13
 -1       427 1.39309E-02-2.53776E-03-1.14233E-13
 -1       428 1.41651E-02-2.60455E-03-1.17484E-13
 -1       429 1.43629E-02-2.80775E-03-1.18357E-13
 -1       430 1.42785E-02-2.72344E-03-1.17950E-13
 -1       431 1.44459E-02-2.89063E-03-1.18763E-13
 -1       432 1.45302E-02-2.97495E-03-1.19165E-13
 -1       433 1.46146E-02-3.05928E-03-1.19566E-13
 -1       434 1.46990E-02-3.14362E-03-1.19971E-13
 -1       435 1.47835E-02-3.22795E-03-1.20376E-13
 -1       436 1.48679E-02-3.31228E-03-1.20770E-13
 -1       437 1.49510E-02-3.39518E-03-1.21147E-13
 -1       438 1.50355E-02-3.47951E-03-1.21520E-13
 -1       439 1.51200E-02-3.56382E-03-1.21885E-13
 -1       440 1.52045E-02-3.64813E-03-1.22245E-13
 -1       441 1.14438E-03 4.19874E-04-3.87748E-16
 -1       442 5.60739E-03-4.37104E-04-1.15857E-14
 -1       443 4.82266E-03-6.76986E-05-1.00375E-14
 -1       444 5.98619E-03-5.95364E-04-1.22700E-14
 -1       445 5.21857E-03-2.68708E-04-1.08640E-14
 -1       446 4.31499E-04-7.12951E-05-2.02224E-16
 -1       447 4.41411E-03 1.47216E-04-9.15983E-15
 -1       448 4.04500E-03 3.38674E-04-8.16707E-15
 -1       449 3.70417E-03 4.56615E-04-7.24960E-15
 -1       450 3.36628E-03 4.86143E-04-6.33570E-15
 -1       451 2.96833E-03 3.87062E-04-5.39656E-15
 -1       452 2.61089E-03 2.31013E-04-4.75227E-15
 -1       453 2.30672E-03 8.88589E-05-4.36279E-15
 -1       454 1.90479E-03-8.37092E-05-3.98134E-15
 -1       455 1.62038E-03-1.98283E-04-3.67608E-15
 -1       456 1.41832E-03-2.73886E-04-3.50219E-15
 -1       457 1.37983E-03-3.13800E-04-3.47534E-15
 -1       458 1.53622E-03-3.93154E-04-3.64182E-15
 -1       459 1.78052E-03-4.86946E-04-3.81881E-15
 -1       460 2.22389E-03-7.01251E-04-4.25457E-15
 -1       461 2.62006E-03-9.45828E-04-4.82227E-15
 -1       462 3.01889E-03-1.18364E-03-5.40774E-15
 -1       463 3.50516E-03-1.43973E-03-6.34699E-15
 -1       464 3.84017E-03-1.52813E-03-7.25248E-15
 -1       465 4.16382E-03-1.49785E-03-8.15024E-15
 -1       466 4.50467E-03-1.37285E-03-9.09423E-15
 -1       467 4.86045E-03-1.19197E-03-9.92778E-15
 -1       468 5.21161E-03-9.99811E-04-1.08239E-14
 -1       469 5.54180E-03-8.39710E-04-1.14098E-14
 -1       470 5.77807E-03-7.33704E-04-1.18403E-14
 -1       471 5.96780E-03-6.42294E-04-1.21812E-14
 -1       472 5.86399E-03-5.38833E-04-1.21134E-14
 -1       473 5.90723E-03-6.79930E-04-1.26921E-14
 -1       474 3.31091E-03-1.33537E-03-5.74293E-15
 -1       475 2.00363E-03-5.47601E-04-3.74933E-15
 -1       476 1.41083E-03-3.18262E-04-3.24692E-15
 -1       477 5.55107E-04-7.28147E-05-4.44621E-16
 -1       478 5.79508E-04-8.32746E-05-4.44421E-16
 -1       479 5.70020E-04-4.95655E-05-4.28223E-16
 -1       480 5.98888E-04-2.49544E-05-4.12990E-16
 -1       481 6.31939E-04 1.04206E-05-3.92681E-16
 -1       482 6.65251E-04 5.67253E-05-3.65905E-16
 -1       483 6.96453E-04 1.11664E-04-3.31332E-16
 -1       484 7.27176E-04 1.74242E-04-2.86297E-16
 -1       485 7.62799E-04 2.45370E-04-2.26879E-16
 -1       486 8.26900E-04 3.00880E-04-2.09661E-16
 -1       487 1.04317E-03-2.57121E-04-7.36742E-16
 -1       488 5.41838E-03-4.10073E-04-1.20991E-14
 -1       489 4.99461E-03-2.08915E-04-1.10607E-14
 -1       490 1.35478E-03-3.35971E-04-1.20422E-15
 -1       491 1.67631E-03-4.31234E-04-1.78671E-15
 -1       492 2.01661E-03-5.59074E-04-2.48582E-15
 -1       493 2.38621E-03-7.38703E-04-3.30344E-15
 -1       494 2.79158E-03-9.83119E-04-4.24797E-15
 -1       495 4.05677E-03-1.56515E-03-7.91597E-15
 -1       496 4.47535E-03-1.43878E-03-9.48033E-15
 -1       497 4.90532E-03-1.24175E-03-1.12025E-14
 -1       498 5.31135E-03-1.09100E-03-1.30662E-14
 -1       499 5.68436E-03-1.00961E-03-1.50530E-14
 -1       500 6.02706E-03-9.88410E-04-1.71542E-14
 -1       501 6.34910E-03-1.01084E-03-1.93639E-14
 -1       502 6.65888E-03-1.06289E-03-2.16754E-14
 -1       503 6.96172E-03-1.13415E-03-2.40841E-14
 -1       504 7.26047E-03-1.21730E-03-2.65885E-14
 -1       505 7.55653E-03-1.30733E-03-2.91802E-14
 -1       506 7.85059E-03-1.40095E-03-3.18513E-14
 -1       507 8.14302E-03-1.49604E-03-3.46019E-14
 -1       508 8.43407E-03-1.59134E-03-3.74300E-14
 -1       509 8.72395E-03-1.68610E-03-4.03392E-14
 -1       510 9.01285E-03-1.77996E-03-4.33276E-14
 -1       511 9.30095E-03-1.87276E-03-4.63944E-14
 -1       512 9.58841E-03-1.96448E-03-4.95456E-14
 -1       513 9.87536E-03-2.05519E-03-5.27721E-14
 -1       514 1.01619E-02-2.14497E-03-5.60633E-14
 -1       515 1.04482E-02-2.23396E-03-5.94271E-14
 -1       516 1.07343E-02-2.32228E-03-6.28552E-14
 -1       517 1.10202E-02-2.41003E-03-6.63456E-14
 -1       518 1.13060E-02-2.49732E-03-6.98959E-14
 -1       519 1.15918E-02-2.58425E-03-7.35036E-14
 -1       520 1.18775E-02-2.67090E-03-7.71704E-14
 -1       521 1.21632E-02-2.75731E-03-8.08814E-14
 -1       522 1.24488E-02-2.84356E-03-8.46268E-14
 -1       523 1.27345E-02-2.92969E-03-8.84119E-14
 -1       524 1.30202E-02-3.01572E-03-9.22254E-14
 -1       525 1.33058E-02-3.10168E-03-9.60567E-14
 -1       526 1.35915E-02-3.18761E-03-9.99010E-14
 -1       527 1.38772E-02-3.27350E-03-1.03768E-13
 -1       528 1.41629E-02-3.35937E-03-1.07648E-13
 -1       529 1.44486E-02-3.44524E-03-1.11538E-13
 -1       530 1.47343E-02-3.53111E-03-1.15442E-13
 -1       531 1.49694E-02-3.58961E-03-1.18839E-13
 -1       532 2.12996E-03 5.71325E-04-2.13816E-15
 -1       533 1.81577E-03 4.99710E-04-1.51125E-15
 -1       534 1.50074E-03 4.26916E-04-9.99902E-16
 -1       535 2.44086E-03 6.37645E-04-2.88658E-15
 -1       536 2.74595E-03 6.89589E-04-3.76250E-15
 -1       537 3.04419E-03 7.14853E-04-4.77253E-15
 -1       538 3.33746E-03 7.02166E-04-5.92034E-15
 -1       539 3.63022E-03 6.46571E-04-7.21045E-15
 -1       540 3.92719E-03 5.52320E-04-8.64179E-15
 -1       541 4.23078E-03 4.31065E-04-1.02121E-14
 -1       542 4.54027E-03 2.96801E-04-1.19121E-14
 -1       543 4.85291E-03 1.61373E-04-1.37392E-14
 -1       544 5.16569E-03 3.23479E-05-1.56908E-14
 -1       545 5.47635E-03-8.68325E-05-1.77554E-14
 -1       546 5.78374E-03-1.95665E-04-1.99332E-14
 -1       547 6.08751E-03-2.95306E-04-2.22227E-14
 -1       548 6.38786E-03-3.87621E-04-2.46171E-14
 -1       549 6.68519E-03-4.74580E-04-2.71112E-14
 -1       550 6.97999E-03-5.57955E-04-2.97016E-14
 -1       551 7.27270E-03-6.39183E-04-3.23794E-14
 -1       552 7.56374E-03-7.19348E-04-3.51433E-14
 -1       553 7.85345E-03-7.99215E-04-3.79909E-14
 -1       554 8.14212E-03-8.79286E-04-4.09267E-14
 -1       555 8.42998E-03-9.59857E-04-4.39504E-14
 -1       556 8.71722E-03-1.04108E-03-4.70587E-14
 -1       557 9.00399E-03-1.12300E-03-5.02468E-14
 -1       558 9.29041E-03-1.20561E-03-5.35125E-14
 -1       559 9.57657E-03-1.28884E-03-5.68555E-14
 -1       560 9.86256E-03-1.37262E-03-6.02726E-14
 -1       561 1.01484E-02-1.45688E-03-6.37515E-14
 -1       562 1.04342E-02-1.54152E-03-6.72853E-14
 -1       563 1.07199E-02-1.62647E-03-7.08693E-14
 -1       564 1.10056E-02-1.71168E-03-7.45032E-14
 -1       565 1.12912E-02-1.79708E-03-7.81807E-14
 -1       566 1.15769E-02-1.88262E-03-8.18994E-14
 -1       567 1.18626E-02-1.96828E-03-8.56501E-14
 -1       568 1.21482E-02-2.05401E-03-8.94343E-14
 -1       569 1.24339E-02-2.13980E-03-9.32492E-14
 -1       570 1.27196E-02-2.22563E-03-9.71002E-14
 -1       571 1.30052E-02-2.31148E-03-1.00971E-13
 -1       572 1.32909E-02-2.39734E-03-1.04852E-13
 -1       573 1.35766E-02-2.48321E-03-1.08743E-13
 -1       574 1.38623E-02-2.56907E-03-1.12636E-13
 -1       575 1.42406E-02-2.85844E-03-1.15580E-13
 -1       576 1.41577E-02-2.77555E-03-1.15179E-13
 -1       577 1.40733E-02-2.69125E-03-1.14769E-13
 -1       578 5.97359E-03-6.02249E-04-1.32444E-14
 -1       579 1.43250E-02-2.94276E-03-1.15979E-13
 -1       580 1.44094E-02-3.02709E-03-1.16379E-13
 -1       581 1.44938E-02-3.11142E-03-1.16784E-13
 -1       582 1.45782E-02-3.19575E-03-1.17180E-13
 -1       583 1.46613E-02-3.27865E-03-1.17557E-13
 -1       584 1.47458E-02-3.36297E-03-1.17929E-13
 -1       585 1.48303E-02-3.44729E-03-1.18296E-13
 -1       586 1.48998E-02-3.51846E-03-1.18572E-13
 -1       587 7.50449E-04-1.78064E-04-4.17892E-16
 -1       588 4.60561E-03 3.75754E-06-1.01033E-14
 -1       589 6.02387E-03-6.35269E-04-1.32897E-14
 -1       590 5.41742E-03-8.93706E-04-1.19314E-14
 -1       591 1.46608E-03-2.32352E-04-3.07161E-15
 -1       592 2.77252E-03 3.23946E-04-4.73480E-15
 -1       593 5.53151E-04-6.39937E-05-4.39132E-16
 -1       594 3.84547E-03 4.14564E-04-7.81095E-15
 -1       595 1.75850E-03-1.49450E-04-3.48467E-15
 -1       596 4.16842E-03 2.54618E-04-8.88498E-15
 -1       597 3.54769E-03 4.96083E-04-6.85605E-15
 -1       598 3.15532E-03 4.68178E-04-5.66250E-15
 -1       599 2.41261E-03 1.46763E-04-4.11872E-15
 -1       600 2.49442E-03-8.04488E-04-4.22818E-15
 -1       601 2.07547E-03-1.86225E-05-3.76315E-15
 -1       602 1.35761E-03-2.78315E-04-3.13002E-15
 -1       603 1.62104E-03-3.80371E-04-3.32318E-15
 -1       604 2.84106E-03-1.02751E-03-4.75915E-15
 -1       605 4.70934E-03-1.28035E-03-1.00400E-14
 -1       606 5.01922E-03-1.10497E-03-1.09459E-14
 -1       607 5.68816E-03-7.69677E-04-1.24660E-14
 -1       608 5.75197E-03-5.34771E-04-1.28369E-14
 -1       609 6.25155E-04-1.03236E-04-4.37750E-16
 -1       610 1.07392E-03 3.59436E-04-4.17120E-16
 -1       611 1.28672E-03 3.95145E-04-6.76752E-16
 -1       612 1.79021E-03-4.30127E-04-3.24806E-15
 -1       613 3.32991E-03 5.13129E-04-6.13677E-15
 -1       614 2.24353E-03-6.47970E-04-3.71558E-15
 -1       615 1.33608E-03-2.77837E-04-2.90658E-15
 -1       616 3.73493E-03-1.53125E-03-6.84646E-15
 -1       617 4.40395E-03-1.43349E-03-9.03634E-15
 -1       618 8.34999E-04-7.40490E-06-6.97843E-16
 -1       619 7.85709E-04-5.18333E-05-7.25260E-16
 -1       620 9.29402E-04 1.18168E-04-6.17036E-16
 -1       621 9.70105E-04 1.93458E-04-5.59137E-16
 -1       622 1.00802E-03 3.01025E-04-4.35964E-16
 -1       623 4.40381E-03 1.17553E-04-1.00158E-14
 -1       624 5.62564E-03-5.02512E-04-1.34096E-14
 -1       625 5.29100E-03-1.00302E-03-1.23063E-14
 -1       626 1.37083E-03-3.02158E-04-1.51916E-15
 -1       627 1.66422E-03-3.90469E-04-2.15797E-15
 -1       628 1.98163E-03-5.13285E-04-2.90693E-15
 -1       629 8.62110E-04-1.75898E-04-6.53940E-16
 -1       630 5.62591E-03-9.11935E-04-1.40085E-14
 -1       631 5.94984E-03-8.88799E-04-1.60489E-14
 -1       632 6.24733E-03-9.10288E-04-1.81961E-14
 -1       633 6.53267E-03-9.59868E-04-2.04440E-14
 -1       634 6.81396E-03-1.02765E-03-2.27899E-14
 -1       635 7.09494E-03-1.10730E-03-2.52331E-14
 -1       636 7.37701E-03-1.19442E-03-2.77648E-14
 -1       637 7.66038E-03-1.28590E-03-3.03821E-14
 -1       638 7.94486E-03-1.37959E-03-3.30802E-14
 -1       639 8.23011E-03-1.47407E-03-3.58585E-14
 -1       640 8.51584E-03-1.56844E-03-3.87182E-14
 -1       641 8.80182E-03-1.66220E-03-4.16594E-14
 -1       642 9.08791E-03-1.75507E-03-4.46809E-14
 -1       643 9.37401E-03-1.84697E-03-4.77818E-14
 -1       644 9.66008E-03-1.93789E-03-5.09634E-14
 -1       645 9.94609E-03-2.02790E-03-5.42125E-14
 -1       646 1.02320E-02-2.11711E-03-5.75321E-14
 -1       647 1.05179E-02-2.20562E-03-6.09229E-14
 -1       648 1.08038E-02-2.29354E-03-6.43753E-14
 -1       649 1.10896E-02-2.38097E-03-6.78863E-14
 -1       650 1.13754E-02-2.46802E-03-7.14620E-14
 -1       651 1.16611E-02-2.55475E-03-7.50931E-14
 -1       652 1.19468E-02-2.64125E-03-7.87760E-14
 -1       653 1.22326E-02-2.72755E-03-8.24963E-14
 -1       654 1.25183E-02-2.81372E-03-8.62559E-14
 -1       655 1.28040E-02-2.89978E-03-9.00466E-14
 -1       656 1.30897E-02-2.98577E-03-9.38609E-14
 -1       657 1.33754E-02-3.07171E-03-9.76932E-14
 -1       658 1.36611E-02-3.15761E-03-1.01543E-13
 -1       659 1.39468E-02-3.24349E-03-1.05409E-13
 -1       660 1.42325E-02-3.32936E-03-1.09285E-13
 -1       661 1.45183E-02-3.41523E-03-1.13180E-13
 -1       662 1.47090E-02-3.46684E-03-1.15873E-13
 -1       663 1.94441E-03 4.46735E-04-1.94782E-15
 -1       664 2.26948E-03 5.19534E-04-2.65141E-15
 -1       665 1.62146E-03 3.76043E-04-1.35984E-15
 -1       666 2.90772E-03 6.37745E-04-4.43610E-15
 -1       667 3.21524E-03 6.52648E-04-5.53022E-15
 -1       668 3.51848E-03 6.19300E-04-6.76568E-15
 -1       669 3.82428E-03 5.36702E-04-8.14460E-15
 -1       670 4.13750E-03 4.17080E-04-9.66580E-15
 -1       671 4.45786E-03 2.78686E-04-1.13198E-14
 -1       672 4.78130E-03 1.37753E-04-1.31005E-14
 -1       673 5.10299E-03 4.14524E-06-1.50066E-14
 -1       674 5.41971E-03-1.18043E-04-1.70285E-14
 -1       675 5.73019E-03-2.28599E-04-1.91609E-14
 -1       676 6.03465E-03-3.29128E-04-2.14043E-14
 -1       677 6.33403E-03-4.21847E-04-2.37533E-14
 -1       678 6.62943E-03-5.08939E-04-2.62043E-14
 -1       679 6.92191E-03-5.92284E-04-2.87527E-14
 -1       680 7.21230E-03-6.73377E-04-3.13938E-14
 -1       681 7.50123E-03-7.53335E-04-3.41210E-14
 -1       682 7.78915E-03-8.32949E-04-3.69312E-14
 -1       683 8.07637E-03-9.12740E-04-3.98269E-14
 -1       684 8.36313E-03-9.93023E-04-4.28121E-14
 -1       685 8.64956E-03-1.07396E-03-4.58801E-14
 -1       686 8.93576E-03-1.15562E-03-4.90322E-14
 -1       687 9.22181E-03-1.23799E-03-5.22615E-14
 -1       688 9.50775E-03-1.32101E-03-5.55661E-14
 -1       689 9.79361E-03-1.40461E-03-5.89447E-14
 -1       690 1.00794E-02-1.48871E-03-6.23914E-14
 -1       691 1.03652E-02-1.57322E-03-6.58971E-14
 -1       692 1.06509E-02-1.65807E-03-6.94550E-14
 -1       693 1.09367E-02-1.74320E-03-7.30604E-14
 -1       694 1.12224E-02-1.82853E-03-7.67160E-14
 -1       695 1.15081E-02-1.91403E-03-8.04131E-14
 -1       696 1.17938E-02-1.99965E-03-8.41495E-14
 -1       697 1.20795E-02-2.08535E-03-8.79163E-14
 -1       698 1.23652E-02-2.17113E-03-9.17141E-14
 -1       699 1.26509E-02-2.25694E-03-9.55416E-14
 -1       700 1.29366E-02-2.34278E-03-9.93974E-14
 -1       701 1.32223E-02-2.42864E-03-1.03273E-13
 -1       702 1.35081E-02-2.51451E-03-1.07154E-13
 -1       703 1.37907E-02-2.60288E-03-1.10961E-13
 -1       704 1.39517E-02-2.74264E-03-1.12000E-13
 -1       705 1.41197E-02-2.91057E-03-1.12802E-13
 -1       706 1.38712E-02-2.67276E-03-1.11480E-13
 -1       707 1.40357E-02-2.82660E-03-1.12404E-13
 -1       708 1.42886E-02-3.07923E-03-1.13598E-13
 -1       709 1.43716E-02-3.16213E-03-1.13975E-13
 -1       710 1.44561E-02-3.24645E-03-1.14347E-13
 -1       711 1.45406E-02-3.33077E-03-1.14716E-13
 -1       712 5.21989E-03-3.30989E-04-1.24610E-14
 -1       713 5.93580E-03-6.03580E-04-1.42361E-14
 -1       714 1.59085E-03-1.70779E-04-2.93313E-15
 -1       715 1.84620E-03-7.89303E-05-3.18059E-15
 -1       716 2.93502E-03 4.35286E-04-4.92404E-15
 -1       717 1.42041E-02-2.99490E-03-1.13202E-13
 -1       718 6.06985E-03-6.44886E-04-1.44066E-14
 -1       719 1.30169E-03-2.32282E-04-2.55418E-15
 -1       720 3.96186E-03 3.63050E-04-8.40546E-15
 -1       721 1.11319E-03-2.35566E-04-1.04209E-15
 -1       722 4.81670E-03-1.23788E-04-1.11999E-14
 -1       723 1.44136E-03-3.05495E-04-2.88376E-15
 -1       724 2.14116E-03 5.33526E-05-3.49693E-15
 -1       725 2.50797E-03 2.59775E-04-3.93900E-15
 -1       726 8.84553E-04 5.03185E-05-6.62322E-16
 -1       727 7.48742E-04-1.12164E-04-7.63146E-16
 -1       728 2.59206E-03 5.87635E-04-3.47863E-15
 -1       729 5.88445E-03-7.20603E-04-1.36294E-14
 -1       730 5.63257E-03-8.30510E-04-1.31801E-14
 -1       731 3.68926E-03 4.73137E-04-7.40646E-15
 -1       732 6.04548E-03-6.73676E-04-1.42455E-14
 -1       733 7.47083E-04-8.12755E-05-7.45494E-16
 -1       734 1.55824E-03-3.35320E-04-2.80987E-15
 -1       735 8.00134E-04-1.32391E-04-7.58864E-16
 -1       736 1.46248E-02-3.39881E-03-1.15294E-13
 -1       737 1.30311E-03 3.07899E-04-8.83920E-16
 -1       738 3.10249E-03 5.05838E-04-5.34884E-15
 -1       739 1.35553E-03-1.94531E-04-2.42650E-15
 -1       740 3.47613E-03 5.25418E-04-6.63992E-15
 -1       741 7.31697E-04-9.86732E-05-7.58277E-16
 -1       742 1.21347E-03 1.99673E-04-9.25109E-16
 -1       743 4.16124E-03 2.77205E-04-9.39874E-15
 -1       744 1.24384E-03-2.34572E-04-2.34207E-15
 -1       745 6.18003E-03-8.14066E-04-1.70429E-14
 -1       746 6.43082E-03-8.64576E-04-1.92271E-14
 -1       747 6.68452E-03-9.29965E-04-2.15108E-14
 -1       748 6.94384E-03-1.00567E-03-2.38912E-14
 -1       749 7.20901E-03-1.08867E-03-2.63659E-14
 -1       750 7.47934E-03-1.17657E-03-2.89245E-14
 -1       751 7.75386E-03-1.26744E-03-3.15692E-14
 -1       752 8.03159E-03-1.35985E-03-3.42952E-14
 -1       753 8.31172E-03-1.45280E-03-3.71043E-14
 -1       754 8.59359E-03-1.54563E-03-3.99972E-14
 -1       755 8.87669E-03-1.63793E-03-4.29712E-14
 -1       756 9.16065E-03-1.72950E-03-4.60238E-14
 -1       757 9.44522E-03-1.82026E-03-4.91587E-14
 -1       758 9.73019E-03-1.91023E-03-5.23671E-14
 -1       759 1.00154E-02-1.99944E-03-5.56430E-14
 -1       760 1.03009E-02-2.08799E-03-5.89927E-14
 -1       761 1.05865E-02-2.17597E-03-6.24099E-14
 -1       762 1.08721E-02-2.26347E-03-6.58858E-14
 -1       763 1.11578E-02-2.35058E-03-6.94216E-14
 -1       764 1.14435E-02-2.43737E-03-7.30170E-14
 -1       765 1.17293E-02-2.52391E-03-7.66671E-14
 -1       766 1.20150E-02-2.61026E-03-8.03616E-14
 -1       767 1.23008E-02-2.69646E-03-8.40952E-14
 -1       768 1.25865E-02-2.78255E-03-8.78637E-14
 -1       769 1.28723E-02-2.86856E-03-9.16637E-14
 -1       770 1.31580E-02-2.95451E-03-9.54809E-14
 -1       771 1.34438E-02-3.04042E-03-9.93177E-14
 -1       772 1.37295E-02-3.12631E-03-1.03171E-13
 -1       773 1.40152E-02-3.21218E-03-1.07035E-13
 -1       774 1.43010E-02-3.29805E-03-1.10911E-13
 -1       775 2.07899E-03 3.87894E-04-2.40779E-15
 -1       776 1.74521E-03 3.16960E-04-1.74748E-15
 -1       777 3.39642E-03 5.91141E-04-6.30484E-15
 -1       778 3.07991E-03 5.91633E-04-5.12652E-15
 -1       779 4.03581E-03 4.07693E-04-9.10245E-15
 -1       780 4.36887E-03 2.61400E-04-1.07106E-14
 -1       781 4.70672E-03 1.10564E-04-1.24489E-14
 -1       782 5.04069E-03-2.97884E-05-1.43113E-14
 -1       783 5.36616E-03-1.54878E-04-1.62925E-14
 -1       784 5.68150E-03-2.65903E-04-1.83843E-14
 -1       785 5.98753E-03-3.65694E-04-2.05840E-14
 -1       786 6.28617E-03-4.57331E-04-2.28897E-14
 -1       787 6.57946E-03-5.43430E-04-2.52970E-14
 -1       788 6.86916E-03-6.26009E-04-2.78037E-14
 -1       789 7.15661E-03-7.06563E-04-3.04053E-14
 -1       790 7.44274E-03-7.86157E-04-3.30951E-14
 -1       791 7.72820E-03-8.65524E-04-3.58703E-14
 -1       792 8.01336E-03-9.45137E-04-3.87297E-14
 -1       793 8.29845E-03-1.02528E-03-4.16742E-14
 -1       794 8.58358E-03-1.10610E-03-4.47042E-14
 -1       795 8.86881E-03-1.18765E-03-4.78163E-14
 -1       796 9.15416E-03-1.26992E-03-5.10116E-14
 -1       797 9.43961E-03-1.35284E-03-5.42813E-14
 -1       798 9.72514E-03-1.43636E-03-5.76246E-14
 -1       799 1.00108E-02-1.52038E-03-6.10383E-14
 -1       800 1.02964E-02-1.60482E-03-6.45144E-14
 -1       801 1.05821E-02-1.68961E-03-6.80448E-14
 -1       802 1.08678E-02-1.77468E-03-7.16246E-14
 -1       803 1.11536E-02-1.85997E-03-7.52530E-14
 -1       804 1.14393E-02-1.94544E-03-7.89292E-14
 -1       805 1.17250E-02-2.03102E-03-8.26516E-14
 -1       806 1.20108E-02-2.11671E-03-8.64035E-14
 -1       807 1.22965E-02-2.20246E-03-9.01848E-14
 -1       808 1.25823E-02-2.28827E-03-9.39971E-14
 -1       809 1.28680E-02-2.37410E-03-9.78360E-14
 -1       810 1.31537E-02-2.45996E-03-1.01694E-13
 -1       811 1.34395E-02-2.54582E-03-1.05573E-13
 -1       812 1.36553E-02-2.60929E-03-1.08525E-13
 -1       813 1.41664E-02-3.12993E-03-1.10788E-13
 -1       814 1.39145E-02-2.87837E-03-1.09633E-13
 -1       815 5.88104E-03-7.85612E-04-1.46068E-14
 -1       816 1.86904E-03 7.17666E-06-2.82663E-15
 -1       817 1.42509E-02-3.21425E-03-1.11154E-13
 -1       818 1.40833E-02-3.04703E-03-1.10420E-13
 -1       819 6.06267E-03-7.27358E-04-1.52491E-14
 -1       820 6.11296E-03-6.58309E-04-1.57069E-14
 -1       821 2.67395E-03 3.99865E-04-4.10566E-15
 -1       822 1.39989E-02-2.96270E-03-1.10034E-13
 -1       823 3.71239E-03 5.26217E-04-7.63222E-15
 -1       824 1.63987E-03-9.01191E-05-2.60105E-15
 -1       825 1.35942E-03-2.74154E-04-1.84632E-15
 -1       826 6.14777E-03-6.85681E-04-1.54867E-14
 -1       827 5.03350E-03-2.13447E-04-1.26217E-14
 -1       828 5.86094E-03-5.78487E-04-1.50402E-14
 -1       829 2.20430E-03 1.81610E-04-3.21130E-15
 -1       830 4.65977E-03-3.35661E-06-1.13533E-14
 -1       831 1.30492E-03-2.52746E-04-2.31608E-15
 -1       832 5.52135E-03-4.47684E-04-1.41409E-14
 -1       833 1.02853E-03-3.86477E-05-1.08958E-15
 -1       834 3.89919E-03 4.07259E-04-8.33051E-15
 -1       835 1.63079E-03-3.60577E-04-2.48266E-15
 -1       836 9.60470E-04-9.00307E-05-1.12211E-15
 -1       837 1.17992E-03-1.97819E-04-2.02042E-15
 -1       838 2.41787E-03 4.66448E-04-3.18606E-15
 -1       839 1.38304E-02-2.79440E-03-1.09235E-13
 -1       840 9.55453E-04-1.60375E-04-1.16087E-15
 -1       841 1.16146E-03 1.11938E-04-9.92939E-16
 -1       842 2.83982E-03 4.85217E-04-4.47776E-15
 -1       843 1.37358E-02-2.67917E-03-1.09044E-13
 -1       844 1.37413E-03-1.31359E-04-2.12518E-15
 -1       845 1.13549E-03-2.16562E-04-1.32007E-15
 -1       846 1.09898E-03 3.02560E-05-1.04721E-15
 -1       847 2.37792E-03 3.27783E-04-3.34889E-15
 -1       848 2.75375E-03 5.41609E-04-4.08946E-15
 -1       849 9.09349E-04-1.40769E-04-1.15844E-15
 -1       850 1.12203E-03-1.96346E-04-1.79915E-15
 -1       851 1.86506E-03 2.49284E-04-2.16057E-15
 -1       852 3.58738E-03 5.24376E-04-7.08509E-15
 -1       853 4.43122E-03 1.72580E-04-1.07807E-14
 -1       854 1.59810E-03-1.34855E-05-2.19526E-15
 -1       855 6.56484E-03-8.44011E-04-2.02478E-14
 -1       856 6.80018E-03-9.14675E-04-2.25654E-14
 -1       857 7.04745E-03-9.92249E-04-2.49786E-14
 -1       858 7.30408E-03-1.07515E-03-2.74835E-14
 -1       859 7.56801E-03-1.16182E-03-3.00728E-14
 -1       860 7.83758E-03-1.25090E-03-3.27464E-14
 -1       861 8.11145E-03-1.34133E-03-3.55031E-14
 -1       862 8.38854E-03-1.43230E-03-3.83439E-14
 -1       863 8.66805E-03-1.52328E-03-4.12690E-14
 -1       864 8.94935E-03-1.61393E-03-4.42772E-14
 -1       865 9.23195E-03-1.70406E-03-4.73631E-14
 -1       866 9.51551E-03-1.79360E-03-5.05265E-14
 -1       867 9.79977E-03-1.88254E-03-5.37623E-14
 -1       868 1.00845E-02-1.97092E-03-5.70694E-14
 -1       869 1.03696E-02-2.05880E-03-6.04448E-14
 -1       870 1.06550E-02-2.14624E-03-6.38890E-14
 -1       871 1.09405E-02-2.23332E-03-6.73911E-14
 -1       872 1.12261E-02-2.32011E-03-7.09462E-14
 -1       873 1.15118E-02-2.40665E-03-7.45637E-14
 -1       874 1.17975E-02-2.49300E-03-7.82295E-14
 -1       875 1.20833E-02-2.57922E-03-8.19368E-14
 -1       876 1.23691E-02-2.66532E-03-8.56827E-14
 -1       877 1.26548E-02-2.75134E-03-8.94602E-14
 -1       878 1.29406E-02-2.83730E-03-9.32666E-14
 -1       879 1.32264E-02-2.92322E-03-9.70958E-14
 -1       880 1.35121E-02-3.00912E-03-1.00939E-13
 -1       881 1.37979E-02-3.09499E-03-1.04795E-13
 -1       882 1.40244E-02-3.15462E-03-1.07968E-13
 -1       883 5.32055E-03-1.99107E-04-1.55472E-14
 -1       884 5.64119E-03-3.09335E-04-1.76015E-14
 -1       885 5.94838E-03-4.06366E-04-1.97608E-14
 -1       886 6.24547E-03-4.94968E-04-2.20242E-14
 -1       887 6.53573E-03-5.78537E-04-2.43895E-14
 -1       888 6.82176E-03-6.59292E-04-2.68539E-14
 -1       889 7.10545E-03-7.38669E-04-2.94137E-14
 -1       890 7.38807E-03-8.17588E-04-3.20676E-14
 -1       891 7.67040E-03-8.96626E-04-3.48065E-14
 -1       892 7.95291E-03-9.76127E-04-3.76313E-14
 -1       893 8.23583E-03-1.05628E-03-4.05394E-14
 -1       894 8.51924E-03-1.13717E-03-4.35311E-14
 -1       895 8.80313E-03-1.21880E-03-4.66039E-14
 -1       896 9.08748E-03-1.30115E-03-4.97627E-14
 -1       897 9.37219E-03-1.38414E-03-5.30003E-14
 -1       898 9.65721E-03-1.46770E-03-5.63121E-14
 -1       899 9.94246E-03-1.55175E-03-5.96896E-14
 -1       900 1.02279E-02-1.63621E-03-6.31358E-14
 -1       901 1.05134E-02-1.72101E-03-6.66401E-14
 -1       902 1.07991E-02-1.80608E-03-7.01957E-14
 -1       903 1.10848E-02-1.89136E-03-7.37978E-14
 -1       904 1.13705E-02-1.97681E-03-7.74513E-14
 -1       905 1.16563E-02-2.06239E-03-8.11518E-14
 -1       906 1.19421E-02-2.14806E-03-8.48939E-14
 -1       907 1.22278E-02-2.23381E-03-8.86633E-14
 -1       908 1.25136E-02-2.31960E-03-9.24591E-14
 -1       909 1.27994E-02-2.40543E-03-9.62834E-14
 -1       910 1.30851E-02-2.49128E-03-1.00127E-13
 -1       911 1.33709E-02-2.57714E-03-1.03992E-13
 -1       912 5.82276E-03-5.41530E-04-1.60268E-14
 -1       913 3.91980E-03 4.19523E-04-8.49991E-15
 -1       914 5.39176E-03-3.46948E-04-1.46215E-14
 -1       915 4.94146E-03-1.15323E-04-1.28824E-14
 -1       916 1.39399E-02-3.07030E-03-1.07605E-13
 -1       917 1.38568E-02-2.98740E-03-1.07240E-13
 -1       918 6.27939E-03-7.16497E-04-1.72570E-14
 -1       919 1.33421E-03-2.59572E-04-2.07983E-15
 -1       920 6.13810E-03-6.56017E-04-1.70993E-14
 -1       921 9.14205E-04-1.22149E-04-1.14524E-15
 -1       922 1.15210E-03-1.55986E-04-1.75047E-15
 -1       923 6.25673E-03-7.47043E-04-1.70265E-14
 -1       924 3.20618E-03 5.47968E-04-5.64480E-15
 -1       925 1.89699E-03 1.23491E-04-2.52983E-15
 -1       926 4.88624E-03-3.15927E-05-1.30633E-14
 -1       927 1.50235E-03 1.71046E-04-1.51968E-15
 -1       928 1.37092E-02-2.84617E-03-1.06483E-13
 -1       929 1.36252E-02-2.76220E-03-1.06083E-13
 -1       930 1.20726E-03-8.28531E-05-1.56551E-15
 -1       931 1.14007E-03-2.06193E-04-1.58887E-15
 -1       932 6.34216E-03-7.85602E-04-1.80351E-14
 -1       933 1.30579E-03-2.48581E-06-1.51853E-15
 -1       934 1.03151E-03-1.60199E-04-1.50575E-15
 -1       935 6.65267E-03-8.34135E-04-2.12579E-14
 -1       936 6.88395E-03-9.04880E-04-2.36091E-14
 -1       937 7.12847E-03-9.81521E-04-2.60556E-14
 -1       938 7.38291E-03-1.06282E-03-2.85906E-14
 -1       939 7.64494E-03-1.14749E-03-3.12092E-14
 -1       940 7.91281E-03-1.23440E-03-3.39142E-14
 -1       941 8.18518E-03-1.32265E-03-3.67025E-14
 -1       942 8.46099E-03-1.41156E-03-3.95776E-14
 -1       943 8.73944E-03-1.50065E-03-4.25348E-14
 -1       944 9.01988E-03-1.58964E-03-4.55763E-14
 -1       945 9.30181E-03-1.67834E-03-4.86959E-14
 -1       946 9.58487E-03-1.76668E-03-5.18904E-14
 -1       947 9.86875E-03-1.85462E-03-5.51542E-14
 -1       948 1.01532E-02-1.94219E-03-5.84891E-14
 -1       949 1.04382E-02-2.02942E-03-6.18952E-14
 -1       950 1.07234E-02-2.11636E-03-6.53627E-14
 -1       951 1.10088E-02-2.20304E-03-6.88867E-14
 -1       952 1.12944E-02-2.28952E-03-7.24661E-14
 -1       953 1.15801E-02-2.37583E-03-7.61015E-14
 -1       954 1.18659E-02-2.46202E-03-7.97854E-14
 -1       955 1.21516E-02-2.54811E-03-8.35066E-14
 -1       956 1.24374E-02-2.63413E-03-8.72619E-14
 -1       957 1.27232E-02-2.72009E-03-9.10479E-14
 -1       958 1.30090E-02-2.80602E-03-9.48664E-14
 -1       959 1.32948E-02-2.89192E-03-9.87021E-14
 -1       960 1.35806E-02-2.97780E-03-1.02553E-13
 -1       961 1.37602E-02-3.02405E-03-1.05076E-13
 -1       962 6.21423E-03-5.35139E-04-2.11543E-14
 -1       963 5.92130E-03-4.51900E-04-1.89298E-14
 -1       964 5.61562E-03-3.60133E-04-1.68071E-14
 -1       965 6.49930E-03-6.14367E-04-2.34799E-14
 -1       966 6.78001E-03-6.92069E-04-2.59049E-14
 -1       967 7.05870E-03-7.69513E-04-2.84236E-14
 -1       968 7.33685E-03-8.47367E-04-3.10362E-14
 -1       969 7.61535E-03-9.25949E-04-3.37402E-14
 -1       970 7.89466E-03-1.00538E-03-3.65303E-14
 -1       971 8.17497E-03-1.08570E-03-3.94037E-14
 -1       972 8.45629E-03-1.16685E-03-4.23616E-14
 -1       973 8.73856E-03-1.24879E-03-4.53978E-14
 -1       974 9.02166E-03-1.33143E-03-4.85175E-14
 -1       975 9.30545E-03-1.41468E-03-5.17212E-14
 -1       976 9.58979E-03-1.49846E-03-5.49991E-14
 -1       977 9.87456E-03-1.58269E-03-5.83485E-14
 -1       978 1.01597E-02-1.66728E-03-6.17631E-14
 -1       979 1.04450E-02-1.75218E-03-6.52397E-14
 -1       980 1.07305E-02-1.83731E-03-6.87704E-14
 -1       981 1.10161E-02-1.92264E-03-7.23503E-14
 -1       982 1.13018E-02-2.00812E-03-7.59759E-14
 -1       983 1.15876E-02-2.09372E-03-7.96550E-14
 -1       984 1.18734E-02-2.17940E-03-8.33791E-14
 -1       985 1.21592E-02-2.26514E-03-8.71370E-14
 -1       986 1.24449E-02-2.35094E-03-9.09272E-14
 -1       987 1.27307E-02-2.43676E-03-9.47340E-14
 -1       988 1.30165E-02-2.52260E-03-9.85662E-14
 -1       989 1.33023E-02-2.60846E-03-1.02421E-13
 -1       990 1.36772E-02-2.94115E-03-1.04713E-13
 -1       991 5.76418E-03-4.72651E-04-1.68224E-14
 -1       992 1.56769E-03 8.44394E-05-1.84974E-15
 -1       993 5.25043E-03-2.38604E-04-1.45412E-14
 -1       994 6.39817E-03-7.36683E-04-1.90593E-14
 -1       995 6.13205E-03-6.28908E-04-1.82007E-14
 -1       996 6.41966E-03-7.76026E-04-1.87305E-14
 -1       997 1.34197E-02-2.72983E-03-1.02937E-13
 -1       998 1.35370E-02-2.84387E-03-1.03530E-13
 -1       999 6.43370E-03-7.25579E-04-2.02222E-14
 -1      1000 6.67194E-03-8.13866E-04-2.18964E-14
 -1      1001 6.94475E-03-8.93972E-04-2.46410E-14
 -1      1002 7.19298E-03-9.69351E-04-2.71197E-14
 -1      1003 7.44964E-03-1.04899E-03-2.96845E-14
 -1      1004 7.71292E-03-1.13174E-03-3.23357E-14
 -1      1005 7.98143E-03-1.21663E-03-3.50745E-14
 -1      1006 8.25405E-03-1.30286E-03-3.78973E-14
 -1      1007 8.52991E-03-1.38985E-03-4.08044E-14
 -1      1008 8.80829E-03-1.47721E-03-4.37971E-14
 -1      1009 9.08863E-03-1.56466E-03-4.68729E-14
 -1      1010 9.37045E-03-1.65204E-03-5.00230E-14
 -1      1011 9.65342E-03-1.73927E-03-5.32481E-14
 -1      1012 9.93723E-03-1.82630E-03-5.65417E-14
 -1      1013 1.02217E-02-1.91313E-03-5.99075E-14
 -1      1014 1.05066E-02-1.99978E-03-6.33410E-14
 -1      1015 1.07918E-02-2.08625E-03-6.68325E-14
 -1      1016 1.10772E-02-2.17258E-03-7.03787E-14
 -1      1017 1.13628E-02-2.25880E-03-7.39814E-14
 -1      1018 1.16485E-02-2.34492E-03-7.76363E-14
 -1      1019 1.19343E-02-2.43096E-03-8.13299E-14
 -1      1020 1.22201E-02-2.51695E-03-8.50652E-14
 -1      1021 1.25059E-02-2.60290E-03-8.88311E-14
 -1      1022 1.27917E-02-2.68882E-03-9.26315E-14
 -1      1023 1.30775E-02-2.77472E-03-9.64593E-14
 -1      1024 1.33632E-02-2.86060E-03-1.00299E-13
 -1      1025 1.35202E-02-2.90088E-03-1.02504E-13
 -1      1026 6.19545E-03-5.77305E-04-2.02788E-14
 -1      1027 5.98202E-03-5.26076E-04-1.85179E-14
 -1      1028 7.01605E-03-7.98638E-04-2.74338E-14
 -1      1029 7.28855E-03-8.75097E-04-3.00064E-14
 -1      1030 7.56243E-03-9.53136E-04-3.26721E-14
 -1      1031 7.83801E-03-1.03258E-03-3.54262E-14
 -1      1032 8.11534E-03-1.11323E-03-3.82677E-14
 -1      1033 8.39432E-03-1.19489E-03-4.11896E-14
 -1      1034 8.67477E-03-1.27738E-03-4.41917E-14
 -1      1035 8.95647E-03-1.36055E-03-4.72773E-14
 -1      1036 9.23921E-03-1.44429E-03-5.04441E-14
 -1      1037 9.52277E-03-1.52849E-03-5.36865E-14
 -1      1038 9.80698E-03-1.61305E-03-5.70037E-14
 -1      1039 1.00917E-02-1.69792E-03-6.03880E-14
 -1      1040 1.03767E-02-1.78302E-03-6.38373E-14
 -1      1041 1.06621E-02-1.86832E-03-6.73434E-14
 -1      1042 1.09476E-02-1.95376E-03-7.09035E-14
 -1      1043 1.12332E-02-2.03933E-03-7.45076E-14
 -1      1044 1.15189E-02-2.12497E-03-7.81620E-14
 -1      1045 1.18047E-02-2.21069E-03-8.18665E-14
 -1      1046 1.20905E-02-2.29646E-03-8.56102E-14
 -1      1047 1.23763E-02-2.38226E-03-8.93859E-14
 -1      1048 1.26621E-02-2.46809E-03-9.31852E-14
 -1      1049 1.29479E-02-2.55394E-03-9.70061E-14
 -1      1050 6.74418E-03-7.23809E-04-2.49534E-14
 -1      1051 6.47149E-03-6.50215E-04-2.25672E-14
 -1      1052 1.32317E-02-2.71338E-03-9.98976E-14
 -1      1053 1.31241E-02-2.61799E-03-9.92353E-14
 -1      1054 1.32975E-02-2.78699E-03-1.00105E-13
 -1      1055 6.31918E-03-6.59737E-04-2.02668E-14
 -1      1056 6.66499E-03-7.83960E-04-2.25440E-14
 -1      1057 6.99219E-03-8.78830E-04-2.56625E-14
 -1      1058 7.24726E-03-9.53654E-04-2.81725E-14
 -1      1059 7.50852E-03-1.03224E-03-3.07703E-14
 -1      1060 7.77489E-03-1.11356E-03-3.34556E-14
 -1      1061 8.04547E-03-1.19682E-03-3.62297E-14
 -1      1062 8.31949E-03-1.28137E-03-3.90882E-14
 -1      1063 8.59628E-03-1.36674E-03-4.20297E-14
 -1      1064 8.87530E-03-1.45260E-03-4.50572E-14
 -1      1065 9.15607E-03-1.53872E-03-4.81639E-14
 -1      1066 9.43820E-03-1.62496E-03-5.13476E-14
 -1      1067 9.72137E-03-1.71123E-03-5.46042E-14
 -1      1068 1.00053E-02-1.79747E-03-5.79274E-14
 -1      1069 1.02899E-02-1.88367E-03-6.13228E-14
 -1      1070 1.05749E-02-1.96981E-03-6.47820E-14
 -1      1071 1.08601E-02-2.05590E-03-6.82999E-14
 -1      1072 1.11456E-02-2.14194E-03-7.18704E-14
 -1      1073 1.14312E-02-2.22793E-03-7.54917E-14
 -1      1074 1.17170E-02-2.31389E-03-7.91592E-14
 -1      1075 1.20027E-02-2.39983E-03-8.28707E-14
 -1      1076 1.22885E-02-2.48574E-03-8.66191E-14
 -1      1077 1.25743E-02-2.57164E-03-9.03985E-14
 -1      1078 1.28602E-02-2.65752E-03-9.42085E-14
 -1      1079 1.30788E-02-2.72226E-03-9.71513E-14
 -1      1080 7.78208E-03-1.05740E-03-3.43186E-14
 -1      1081 7.24220E-03-9.00205E-04-2.89794E-14
 -1      1082 8.05619E-03-1.13862E-03-3.71244E-14
 -1      1083 8.33270E-03-1.22104E-03-4.00161E-14
 -1      1084 8.61126E-03-1.30436E-03-4.29821E-14
 -1      1085 8.89153E-03-1.38834E-03-4.60333E-14
 -1      1086 9.17319E-03-1.47281E-03-4.91673E-14
 -1      1087 9.45596E-03-1.55764E-03-5.23780E-14
 -1      1088 9.73958E-03-1.64274E-03-5.56619E-14
 -1      1089 1.00239E-02-1.72803E-03-5.90153E-14
 -1      1090 1.03086E-02-1.81348E-03-6.24339E-14
 -1      1091 1.05938E-02-1.89903E-03-6.59153E-14
 -1      1092 1.08791E-02-1.98468E-03-6.94508E-14
 -1      1093 1.11647E-02-2.07038E-03-7.30373E-14
 -1      1094 1.14504E-02-2.15613E-03-7.66707E-14
 -1      1095 1.17361E-02-2.24192E-03-8.03536E-14
 -1      1096 1.20219E-02-2.32773E-03-8.40785E-14
 -1      1097 1.23077E-02-2.41356E-03-8.78411E-14
 -1      1098 1.25935E-02-2.49941E-03-9.16331E-14
 -1      1099 1.28793E-02-2.58527E-03-9.54435E-14
 -1      1100 7.51067E-03-9.77766E-04-3.16032E-14
 -1      1101 6.97670E-03-8.25233E-04-2.64443E-14
 -1      1102 6.71390E-03-7.53387E-04-2.39981E-14
 -1      1103 1.30555E-02-2.64932E-03-9.76665E-14
 -1      1104 1.30672E-02-2.68579E-03-9.74091E-14
 -1      1105 0.00000E+00 0.00000E+00 0.00000E+00
 -1      1106 0.00000E+00 0.00000E+00 0.00000E+00
 -1      1107 0.00000E+00 0.00000E+00 0.00000E+00
 -1      1108 0.00000E+00 0.00000E+00 0.00000E+00
 -1      1109 0.00000E+00 0.00000E+00 0.00000E+00
 -1      1110 0.00000E+00 0.00000E+00 0.00000E+00
 -1      1111 0.00000E+00 0.00000E+00 0.00000E+00
 -1      1112 0.00000E+00 0.00000E+00 0.00000E+00
 -1      1113 0.00000E+00 0.00000E+00 0.00000E+00
 -1      1114 0.00000E+00 0.00000E+00 0.00000E+00
 -1      1115 0.00000E+00 0.00000E+00 0.00000E+00
 -1      1116 0.00000E+00 0.00000E+00 0.00000E+00
 -1      1117 0.00000E+00 0.00000E+00 0.00000E+00
 -1      1118 0.00000E+00 0.00000E+00 0.00000E+00
 -1      1119 0.00000E+00 0.00000E+00 0.00000E+00
 -1      1120 0.00000E+00 0.00000E+00 0.00000E+00
 -1      1121 0.00000E+00 0.00000E+00 0.00000E+00
 -1      1122 2.29205E-04-1.43034E-04 8.17217E-18
 -1      1123 6.21308E-04-3.09473E-04-5.62701E-17
 -1      1124 9.74078E-04-4.18061E-04-2.37942E-16
 -1      1125 1.33327E-03-5.07662E-04-5.55559E-16
 -1      1126 1.70687E-03-6.01999E-04-1.00224E-15
 -1      1127 2.09701E-03-7.19313E-04-1.57685E-15
 -1      1128 2.49878E-03-8.75432E-04-2.28332E-15
 -1      1129 2.89763E-03-1.07871E-03-3.12256E-15
 -1      1130 3.27012E-03-1.31822E-03-4.09996E-15
 -1      1131 3.59391E-03-1.55313E-03-5.22664E-15
 -1      1132 3.86006E-03-1.71707E-03-6.47343E-15
 -1      1133 4.10427E-03-1.76800E-03-7.86616E-15
 -1      1134 4.37648E-03-1.70178E-03-9.44766E-15
 -1      1135 4.70130E-03-1.56499E-03-1.11804E-14
 -1      1136 5.07793E-03-1.42327E-03-1.30547E-14
 -1      1137 5.48420E-03-1.32114E-03-1.50581E-14
 -1      1138 5.89558E-03-1.27304E-03-1.71865E-14
 -1      1139 6.29568E-03-1.27369E-03-1.94290E-14
 -1      1140 6.67719E-03-1.31080E-03-2.17814E-14
 -1      1141 7.03893E-03-1.37240E-03-2.42444E-14
 -1      1142 7.38282E-03-1.44926E-03-2.68024E-14
 -1      1143 7.71191E-03-1.53504E-03-2.94410E-14
 -1      1144 8.02932E-03-1.62565E-03-3.21540E-14
 -1      1145 8.33779E-03-1.71854E-03-3.49345E-14
 -1      1146 8.63954E-03-1.81218E-03-3.77896E-14
 -1      1147 8.93634E-03-1.90570E-03-4.07211E-14
 -1      1148 9.22953E-03-1.99863E-03-4.37296E-14
 -1      1149 9.52013E-03-2.09073E-03-4.68232E-14
 -1      1150 9.80889E-03-2.18195E-03-4.99995E-14
 -1      1151 1.00964E-02-2.27229E-03-5.32425E-14
 -1      1152 1.03830E-02-2.36183E-03-5.65574E-14
 -1      1153 1.06690E-02-2.45065E-03-5.99532E-14
 -1      1154 1.09547E-02-2.53886E-03-6.34244E-14
 -1      1155 1.12402E-02-2.62655E-03-6.69530E-14
 -1      1156 1.15255E-02-2.71381E-03-7.05278E-14
 -1      1157 1.18108E-02-2.80073E-03-7.41540E-14
 -1      1158 1.20961E-02-2.88737E-03-7.78421E-14
 -1      1159 1.23815E-02-2.97380E-03-8.15781E-14
 -1      1160 1.26669E-02-3.06006E-03-8.53459E-14
 -1      1161 1.29523E-02-3.14620E-03-8.91530E-14
 -1      1162 1.32378E-02-3.23225E-03-9.29982E-14
 -1      1163 1.35233E-02-3.31823E-03-9.68690E-14
 -1      1164 1.38088E-02-3.40417E-03-1.00737E-13
 -1      1165 1.40944E-02-3.49007E-03-1.04621E-13
 -1      1166 1.43801E-02-3.57596E-03-1.08518E-13
 -1      1167 1.46657E-02-3.66184E-03-1.12421E-13
 -1      1168 1.49514E-02-3.74772E-03-1.16342E-13
 -1      1169 1.52371E-02-3.83360E-03-1.20274E-13
 -1      1170 1.55228E-02-3.91950E-03-1.24214E-13
 -1      1171 1.58085E-02-4.00540E-03-1.28150E-13
 -1      1172 2.41428E-04 1.62494E-04 4.16876E-17
 -1      1173 5.95942E-04 3.39367E-04 6.52283E-17
 -1      1174 9.11226E-04 4.58536E-04-1.35525E-20
 -1      1175 1.21847E-03 5.49636E-04-1.70111E-16
 -1      1176 1.52121E-03 6.28294E-04-4.50662E-16
 -1      1177 1.81907E-03 7.01500E-04-8.46965E-16
 -1      1178 2.10952E-03 7.70788E-04-1.36463E-15
 -1      1179 2.38936E-03 8.33350E-04-2.00508E-15
 -1      1180 2.65629E-03 8.82710E-04-2.77458E-15
 -1      1181 2.91045E-03 9.10190E-04-3.67759E-15
 -1      1182 3.15536E-03 9.07474E-04-4.72130E-15
 -1      1183 3.39748E-03 8.69597E-04-5.90573E-15
 -1      1184 3.64449E-03 7.97048E-04-7.22938E-15
 -1      1185 3.90289E-03 6.95847E-04-8.69129E-15
 -1      1186 4.17623E-03 5.75604E-04-1.02922E-14
 -1      1187 4.46456E-03 4.46646E-04-1.20308E-14
 -1      1188 4.76523E-03 3.17593E-04-1.39037E-14
 -1      1189 5.07419E-03 1.94144E-04-1.58978E-14
 -1      1190 5.38727E-03 7.90455E-05-1.80092E-14
 -1      1191 5.70104E-03-2.72166E-05-2.02334E-14
 -1      1192 6.01306E-03-1.25552E-04-2.25634E-14
 -1      1193 6.32191E-03-2.17515E-04-2.49974E-14
 -1      1194 6.62699E-03-3.04791E-04-2.75284E-14
 -1      1195 6.92823E-03-3.88914E-04-3.01564E-14
 -1      1196 7.22596E-03-4.71132E-04-3.28751E-14
 -1      1197 7.52063E-03-5.52389E-04-3.56720E-14
 -1      1198 7.81279E-03-6.33350E-04-3.85554E-14
 -1      1199 8.10295E-03-7.14451E-04-4.15352E-14
 -1      1200 8.39158E-03-7.95950E-04-4.46069E-14
 -1      1201 8.67907E-03-8.77979E-04-4.77631E-14
 -1      1202 8.96575E-03-9.60582E-04-5.10002E-14
 -1      1203 9.25188E-03-1.04375E-03-5.43224E-14
 -1      1204 9.53763E-03-1.12743E-03-5.77149E-14
 -1      1205 9.82316E-03-1.21157E-03-6.11709E-14
 -1      1206 1.01086E-02-1.29610E-03-6.46844E-14
 -1      1207 1.03939E-02-1.38095E-03-6.82586E-14
 -1      1208 1.06792E-02-1.46606E-03-7.18898E-14
 -1      1209 1.09646E-02-1.55138E-03-7.55737E-14
 -1      1210 1.12500E-02-1.63686E-03-7.92848E-14
 -1      1211 1.15354E-02-1.72245E-03-8.30264E-14
 -1      1212 1.18209E-02-1.80814E-03-8.68010E-14
 -1      1213 1.21064E-02-1.89390E-03-9.06157E-14
 -1      1214 1.23920E-02-1.97970E-03-9.44581E-14
 -1      1215 1.26776E-02-2.06553E-03-9.83338E-14
 -1      1216 1.29632E-02-2.15138E-03-1.02235E-13
 -1      1217 1.32489E-02-2.23723E-03-1.06136E-13
 -1      1218 1.35346E-02-2.32309E-03-1.10039E-13
 -1      1219 1.38203E-02-2.40894E-03-1.13952E-13
 -1      1220 1.41060E-02-2.49478E-03-1.17874E-13
 -1      1221 1.43845E-02-2.57846E-03-1.21693E-13
 -1      1222 1.45625E-02-2.66137E-03-1.23735E-13
 -1      1223 1.46468E-02-2.74565E-03-1.24124E-13
 -1      1224 1.47312E-02-2.82994E-03-1.24521E-13
 -1      1225 1.48156E-02-2.91425E-03-1.24922E-13
 -1      1226 1.49000E-02-2.99856E-03-1.25327E-13
 -1      1227 1.49836E-02-3.08217E-03-1.25731E-13
 -1      1228 1.50673E-02-3.16580E-03-1.26143E-13
 -1      1229 1.51517E-02-3.25015E-03-1.26546E-13
 -1      1230 1.52361E-02-3.33451E-03-1.26949E-13
 -1      1231 1.53206E-02-3.41886E-03-1.27339E-13
 -1      1232 1.54051E-02-3.50321E-03-1.27721E-13
 -1      1233 1.54888E-02-3.58684E-03-1.28125E-13
 -1      1234 1.55726E-02-3.67045E-03-1.28523E-13
 -1      1235 1.56571E-02-3.75477E-03-1.28896E-13
 -1      1236 1.57416E-02-3.83907E-03-1.29260E-13
 -1      1237 1.58261E-02-3.92336E-03-1.29606E-13
 -1      1238 1.59099E-02-4.00693E-03-1.29937E-13
 -1      1239 5.95141E-03-4.75311E-04-1.05385E-14
 -1      1240 5.80681E-03-3.25140E-04-1.03388E-14
 -1      1241 5.55444E-03-1.62731E-04-9.97293E-15
 -1      1242 5.22353E-03-3.56798E-07-9.47751E-15
 -1      1243 4.84646E-03 1.49598E-04-8.90115E-15
 -1      1244 4.43054E-03 2.79182E-04-8.25357E-15
 -1      1245 4.00222E-03 3.70723E-04-7.58345E-15
 -1      1246 3.55204E-03 4.14277E-04-6.89357E-15
 -1      1247 3.08617E-03 3.99789E-04-6.21340E-15
 -1      1248 2.65166E-03 3.34232E-04-5.61985E-15
 -1      1249 2.26505E-03 2.33326E-04-5.13206E-15
 -1      1250 1.93222E-03 1.12655E-04-4.74488E-15
 -1      1251 1.66474E-03-1.70495E-05-4.45759E-15
 -1      1252 1.47222E-03-1.55792E-04-4.26828E-15
 -1      1253 1.38378E-03-2.98987E-04-4.19535E-15
 -1      1254 1.41663E-03-4.52630E-04-4.24645E-15
 -1      1255 1.56820E-03-6.17302E-04-4.42149E-15
 -1      1256 1.82439E-03-7.94110E-04-4.70834E-15
 -1      1257 2.17509E-03-9.85846E-04-5.11390E-15
 -1      1258 2.58088E-03-1.16761E-03-5.60823E-15
 -1      1259 3.05127E-03-1.32644E-03-6.21841E-15
 -1      1260 3.55267E-03-1.43058E-03-6.91374E-15
 -1      1261 4.01325E-03-1.45516E-03-7.58342E-15
 -1      1262 4.44528E-03-1.41319E-03-8.23018E-15
 -1      1263 4.84960E-03-1.31926E-03-8.84739E-15
 -1      1264 5.21000E-03-1.19341E-03-9.40217E-15
 -1      1265 5.52062E-03-1.05061E-03-9.88010E-15
 -1      1266 5.76496E-03-9.03055E-04-1.02506E-14
 -1      1267 5.92590E-03-7.57283E-04-1.04915E-14
 -1      1268 5.98984E-03-6.16771E-04-1.05867E-14
 -1      1269 1.87454E-04-9.96500E-05-1.00018E-17
 -1      1270 1.25728E-04-3.78076E-05-2.94632E-17
 -1      1271 1.33197E-04-5.15849E-05-2.39609E-17
 -1      1272 1.15011E-04-2.06219E-05-3.81775E-17
 -1      1273 1.20207E-04-2.78241E-05-3.56025E-17
 -1      1274 2.50729E-04-6.95577E-05-8.42832E-17
 -1      1275 1.06429E-04-1.13795E-05-4.27040E-17
 -1      1276 1.10714E-04-1.52739E-05-4.14707E-17
 -1      1277 2.28742E-04-4.04345E-05-9.95975E-17
 -1      1278 9.94534E-05-7.44696E-06-4.50893E-17
 -1      1279 1.02826E-04-9.08624E-06-4.45201E-17
 -1      1280 2.10728E-04-2.45989E-05-1.07824E-16
 -1      1281 9.45913E-05-7.03833E-06-4.58211E-17
 -1      1282 9.68131E-05-7.22814E-06-4.56449E-17
 -1      1283 1.96679E-04-1.79445E-05-1.11646E-16
 -1      1284 9.20303E-05-8.40506E-06-4.58753E-17
 -1      1285 9.30329E-05-7.97452E-06-4.60379E-17
 -1      1286 1.87349E-04-1.70924E-05-1.12825E-16
 -1      1287 9.18883E-05-9.77991E-06-4.49673E-17
 -1      1288 9.16829E-05-9.54565E-06-4.52925E-17
 -1      1289 1.83327E-04-1.87493E-05-1.12079E-16
 -1      1290 9.37669E-05-9.65486E-06-4.37069E-17
 -1      1291 9.26029E-05-1.02615E-05-4.42219E-17
 -1      1292 1.84469E-04-1.96489E-05-1.09925E-16
 -1      1293 9.70012E-05-7.10929E-06-4.15520E-17
 -1      1294 9.52336E-05-8.90511E-06-4.22703E-17
 -1      1295 1.89656E-04-1.72141E-05-1.06225E-16
 -1      1296 1.00890E-04-1.88700E-06-3.89500E-17
 -1      1297 9.88591E-05-4.92368E-06-3.98173E-17
 -1      1298 1.97302E-04-1.00470E-05-1.00939E-16
 -1      1299 1.04846E-04 5.63606E-06-3.52501E-17
 -1      1300 1.02810E-04 1.57537E-06-3.65105E-17
 -1      1301 2.05834E-04 1.95206E-06-9.40816E-17
 -1      1302 1.08796E-04 1.53527E-05-3.04119E-17
 -1      1303 1.06734E-04 1.02635E-05-3.21330E-17
 -1      1304 2.14353E-04 1.83327E-05-8.48795E-17
 -1      1305 1.12847E-04 2.70609E-05-2.36898E-17
 -1      1306 1.10620E-04 2.09655E-05-2.63190E-17
 -1      1307 2.22717E-04 3.87625E-05-7.28313E-17
 -1      1308 1.17785E-04 4.15874E-05-1.36474E-17
 -1      1309 1.14814E-04 3.38964E-05-1.78622E-17
 -1      1310 2.31559E-04 6.34470E-05-5.59313E-17
 -1      1311 1.26350E-04 6.26562E-05 1.15196E-18
 -1      1312 1.20780E-04 5.08912E-05-5.96311E-18
 -1      1313 2.43373E-04 9.50847E-05-3.23363E-17
 -1      1314 1.69066E-04 1.09099E-04 2.35543E-17
 -1      1315 1.46820E-04 8.25963E-05 1.04626E-17
 -1      1316 2.77710E-04 1.43260E-04-4.45878E-18
 -1      1317 3.61098E-04 2.17440E-04 3.36509E-17
 -1      1318 4.80260E-04-2.31708E-04-6.49844E-17
 -1      1319 6.62335E-04-2.95538E-04-1.26919E-16
 -1      1320 8.41740E-04-3.48645E-04-2.24498E-16
 -1      1321 1.02061E-03-3.95022E-04-3.54629E-16
 -1      1322 7.09573E-04-2.77306E-04-2.06961E-16
 -1      1323 1.20005E-03-4.38913E-04-5.15931E-16
 -1      1324 1.38108E-03-4.82309E-04-7.09285E-16
 -1      1325 1.06513E-03-3.71071E-04-4.73986E-16
 -1      1326 1.56456E-03-5.28349E-04-9.34000E-16
 -1      1327 1.75081E-03-5.78699E-04-1.19077E-15
 -1      1328 1.42154E-03-4.57814E-04-8.65275E-16
 -1      1329 1.94000E-03-6.36179E-04-1.47880E-15
 -1      1330 2.13168E-03-7.02395E-04-1.79895E-15
 -1      1331 1.78484E-03-5.57718E-04-1.38083E-15
 -1      1332 2.32528E-03-7.79754E-04-2.15175E-15
 -1      1333 2.51943E-03-8.69195E-04-2.53756E-15
 -1      1334 2.15717E-03-6.89167E-04-2.02175E-15
 -1      1335 2.71277E-03-9.71526E-04-2.95616E-15
 -1      1336 2.90303E-03-1.08549E-03-3.40861E-15
 -1      1337 2.53634E-03-8.67500E-04-2.79158E-15
 -1      1338 3.08845E-03-1.20827E-03-3.89619E-15
 -1      1339 3.26663E-03-1.33450E-03-4.41980E-15
 -1      1340 2.91497E-03-1.09612E-03-3.69384E-15
 -1      1341 3.43645E-03-1.45674E-03-4.98106E-15
 -1      1342 3.59747E-03-1.56625E-03-5.57948E-15
 -1      1343 3.28120E-03-1.35113E-03-4.73703E-15
 -1      1344 3.74285E-03-1.65015E-03-6.18375E-15
 -1      1345 3.88348E-03-1.70713E-03-6.82417E-15
 -1      1346 3.61671E-03-1.56928E-03-5.89790E-15
 -1      1347 4.02887E-03-1.73429E-03-7.53470E-15
 -1      1348 4.17662E-03-1.72741E-03-8.28410E-15
 -1      1349 3.93355E-03-1.68833E-03-7.20485E-15
 -1      1350 4.32953E-03-1.69020E-03-9.07279E-15
 -1      1351 4.49076E-03-1.63022E-03-9.90035E-15
 -1      1352 4.25812E-03-1.67271E-03-8.70044E-15
 -1      1353 4.66118E-03-1.55677E-03-1.07648E-14
 -1      1354 4.84051E-03-1.47901E-03-1.16647E-14
 -1      1355 4.60238E-03-1.54906E-03-1.03507E-14
 -1      1356 5.02760E-03-1.40488E-03-1.25994E-14
 -1      1357 5.22012E-03-1.34015E-03-1.35672E-14
 -1      1358 4.97042E-03-1.39076E-03-1.21479E-14
 -1      1359 5.41618E-03-1.28819E-03-1.45677E-14
 -1      1360 5.61337E-03-1.25067E-03-1.55986E-14
 -1      1361 5.35237E-03-1.26047E-03-1.40800E-14
 -1      1362 5.81016E-03-1.22726E-03-1.66593E-14
 -1      1363 6.00496E-03-1.21730E-03-1.77507E-14
 -1      1364 5.73550E-03-1.18603E-03-1.61375E-14
 -1      1365 6.19689E-03-1.21892E-03-1.88685E-14
 -1      1366 6.38521E-03-1.23070E-03-2.00124E-14
 -1      1367 6.11087E-03-1.16745E-03-1.83109E-14
 -1      1368 6.56963E-03-1.25068E-03-2.11866E-14
 -1      1369 6.74998E-03-1.27746E-03-2.23869E-14
 -1      1370 6.47406E-03-1.19264E-03-2.05950E-14
 -1      1371 6.92635E-03-1.30955E-03-2.36124E-14
 -1      1372 7.09889E-03-1.34584E-03-2.48631E-14
 -1      1373 6.82380E-03-1.24787E-03-2.29865E-14
 -1      1374 7.26784E-03-1.38536E-03-2.61370E-14
 -1      1375 7.43349E-03-1.42728E-03-2.74311E-14
 -1      1376 7.16067E-03-1.32200E-03-2.54763E-14
 -1      1377 7.59615E-03-1.47103E-03-2.87460E-14
 -1      1378 7.75611E-03-1.51605E-03-3.00810E-14
 -1      1379 7.48623E-03-1.40720E-03-2.80570E-14
 -1      1380 7.91369E-03-1.56203E-03-3.14326E-14
 -1      1381 8.06915E-03-1.60856E-03-3.28024E-14
 -1      1382 7.80232E-03-1.49836E-03-3.07151E-14
 -1      1383 8.22277E-03-1.65552E-03-3.41911E-14
 -1      1384 8.37475E-03-1.70262E-03-3.55982E-14
 -1      1385 8.11078E-03-1.59235E-03-3.34502E-14
 -1      1386 8.52533E-03-1.74983E-03-3.70233E-14
 -1      1387 8.67469E-03-1.79695E-03-3.84683E-14
 -1      1388 8.41325E-03-1.68727E-03-3.62593E-14
 -1      1389 8.82299E-03-1.84399E-03-3.99312E-14
 -1      1390 8.97039E-03-1.89083E-03-4.14147E-14
 -1      1391 8.71111E-03-1.78207E-03-3.91441E-14
 -1      1392 9.11701E-03-1.93750E-03-4.29190E-14
 -1      1393 9.26296E-03-1.98392E-03-4.44417E-14
 -1      1394 9.00547E-03-1.87618E-03-4.21081E-14
 -1      1395 9.40834E-03-2.03012E-03-4.59862E-14
 -1      1396 9.55325E-03-2.07605E-03-4.75526E-14
 -1      1397 9.29721E-03-1.96932E-03-4.51522E-14
 -1      1398 9.69775E-03-2.12176E-03-4.91362E-14
 -1      1399 9.84190E-03-2.16722E-03-5.07391E-14
 -1      1400 9.58701E-03-2.06142E-03-4.82760E-14
 -1      1401 9.98578E-03-2.21247E-03-5.23597E-14
 -1      1402 1.01294E-02-2.25748E-03-5.39966E-14
 -1      1403 9.87542E-03-2.15251E-03-5.14770E-14
 -1      1404 1.02728E-02-2.30230E-03-5.56535E-14
 -1      1405 1.04161E-02-2.34691E-03-5.73278E-14
 -1      1406 1.01628E-02-2.24265E-03-5.47507E-14
 -1      1407 1.05592E-02-2.39135E-03-5.90227E-14
 -1      1408 1.07023E-02-2.43562E-03-6.07359E-14
 -1      1409 1.04495E-02-2.33197E-03-5.80951E-14
 -1      1410 1.08452E-02-2.47975E-03-6.24649E-14
 -1      1411 1.09881E-02-2.52373E-03-6.42117E-14
 -1      1412 1.07357E-02-2.42056E-03-6.15133E-14
 -1      1413 1.11309E-02-2.56758E-03-6.59731E-14
 -1      1414 1.12737E-02-2.61132E-03-6.77459E-14
 -1      1415 1.10216E-02-2.50856E-03-6.49968E-14
 -1      1416 1.14164E-02-2.65496E-03-6.95312E-14
 -1      1417 1.15592E-02-2.69850E-03-7.13297E-14
 -1      1418 1.13073E-02-2.59606E-03-6.85366E-14
 -1      1419 1.17019E-02-2.74196E-03-7.31430E-14
 -1      1420 1.18446E-02-2.78534E-03-7.49683E-14
 -1      1421 1.15929E-02-2.68316E-03-7.21313E-14
 -1      1422 1.19873E-02-2.82866E-03-7.68084E-14
 -1      1423 1.21300E-02-2.87193E-03-7.86646E-14
 -1      1424 1.18784E-02-2.76993E-03-7.57802E-14
 -1      1425 1.22727E-02-2.91514E-03-8.05299E-14
 -1      1426 1.24154E-02-2.95831E-03-8.24020E-14
 -1      1427 1.21639E-02-2.85646E-03-7.94827E-14
 -1      1428 1.25582E-02-3.00144E-03-8.42851E-14
 -1      1429 1.27009E-02-3.04453E-03-8.61769E-14
 -1      1430 1.24494E-02-2.94279E-03-8.32263E-14
 -1      1431 1.28436E-02-3.08760E-03-8.80776E-14
 -1      1432 1.29864E-02-3.13064E-03-8.99878E-14
 -1      1433 1.27349E-02-3.02898E-03-8.70052E-14
 -1      1434 1.31291E-02-3.17366E-03-9.19087E-14
 -1      1435 1.32719E-02-3.21666E-03-9.38347E-14
 -1      1436 1.30205E-02-3.11506E-03-9.08213E-14
 -1      1437 1.34147E-02-3.25965E-03-9.57637E-14
 -1      1438 1.35574E-02-3.30263E-03-9.76967E-14
 -1      1439 1.33060E-02-3.20106E-03-9.46655E-14
 -1      1440 1.37002E-02-3.34559E-03-9.96294E-14
 -1      1441 1.38430E-02-3.38855E-03-1.01564E-13
 -1      1442 1.35916E-02-3.28701E-03-9.85225E-14
 -1      1443 1.39858E-02-3.43150E-03-1.03505E-13
 -1      1444 1.41286E-02-3.47444E-03-1.05452E-13
 -1      1445 1.38772E-02-3.37292E-03-1.02392E-13
 -1      1446 1.42715E-02-3.51738E-03-1.07400E-13
 -1      1447 1.44143E-02-3.56032E-03-1.09345E-13
 -1      1448 1.41628E-02-3.45881E-03-1.06278E-13
 -1      1449 1.45571E-02-3.60326E-03-1.11296E-13
 -1      1450 1.46999E-02-3.64620E-03-1.13253E-13
 -1      1451 1.44485E-02-3.54468E-03-1.10174E-13
 -1      1452 1.48428E-02-3.68914E-03-1.15210E-13
 -1      1453 1.49856E-02-3.73208E-03-1.17172E-13
 -1      1454 1.47342E-02-3.63056E-03-1.14079E-13
 -1      1455 1.51285E-02-3.77502E-03-1.19138E-13
 -1      1456 1.52713E-02-3.81796E-03-1.21105E-13
 -1      1457 1.50199E-02-3.71643E-03-1.18002E-13
 -1      1458 1.54142E-02-3.86091E-03-1.23077E-13
 -1      1459 1.55570E-02-3.90386E-03-1.25045E-13
 -1      1460 1.53056E-02-3.80232E-03-1.21936E-13
 -1      1461 1.56620E-02-3.93391E-03-1.26510E-13
 -1      1462 1.58049E-02-3.97687E-03-1.28477E-13
 -1      1463 1.57633E-02-3.93544E-03-1.28307E-13
 -1      1464 1.55534E-02-3.87532E-03-1.25374E-13
 -1      1465 6.99623E-04 3.64592E-04 7.23705E-18
 -1      1466 5.33753E-04 2.97685E-04 3.24990E-17
 -1      1467 4.83281E-04 2.56714E-04 4.48589E-18
 -1      1468 1.01872E-03 4.68418E-04-1.18923E-16
 -1      1469 8.60817E-04 4.19790E-04-4.31106E-17
 -1      1470 8.13395E-04 3.80151E-04-8.03394E-17
 -1      1471 1.32809E-03 5.52864E-04-3.50726E-16
 -1      1472 1.17420E-03 5.12244E-04-2.20933E-16
 -1      1473 1.13119E-03 4.74190E-04-2.66334E-16
 -1      1474 1.63130E-03 6.29059E-04-6.94513E-16
 -1      1475 1.48034E-03 5.91731E-04-5.07935E-16
 -1      1476 1.44070E-03 5.54664E-04-5.59557E-16
 -1      1477 1.92829E-03 7.01338E-04-1.15539E-15
 -1      1478 1.78063E-03 6.65733E-04-9.10012E-16
 -1      1479 1.74396E-03 6.29508E-04-9.66973E-16
 -1      1480 2.21733E-03 7.69271E-04-1.73864E-15
 -1      1481 2.07394E-03 7.36138E-04-1.43161E-15
 -1      1482 2.04078E-03 7.00953E-04-1.49289E-15
 -1      1483 2.49645E-03 8.28207E-04-2.44559E-15
 -1      1484 2.35824E-03 8.00341E-04-2.07655E-15
 -1      1485 2.32992E-03 7.66649E-04-2.14122E-15
 -1      1486 2.76489E-03 8.70178E-04-3.28471E-15
 -1      1487 2.63200E-03 8.51865E-04-2.84832E-15
 -1      1488 2.61027E-03 8.20164E-04-2.91659E-15
 -1      1489 3.02414E-03 8.85925E-04-4.25917E-15
 -1      1490 2.89549E-03 8.81780E-04-3.75446E-15
 -1      1491 2.88203E-03 8.52373E-04-3.82436E-15
 -1      1492 3.27821E-03 8.67951E-04-5.37318E-15
 -1      1493 3.15149E-03 8.81326E-04-4.79865E-15
 -1      1494 3.14743E-03 8.54120E-04-4.86953E-15
 -1      1495 3.53287E-03 8.13451E-04-6.62836E-15
 -1      1496 3.40507E-03 8.45070E-04-5.98310E-15
 -1      1497 3.41057E-03 8.19525E-04-6.05435E-15
 -1      1498 3.79396E-03 7.25672E-04-8.02162E-15
 -1      1499 3.66227E-03 7.73202E-04-7.30713E-15
 -1      1500 3.67646E-03 7.48482E-04-7.37920E-15
 -1      1501 4.06568E-03 6.12932E-04-9.55323E-15
 -1      1502 3.92830E-03 6.71742E-04-8.77091E-15
 -1      1503 3.94940E-03 6.46986E-04-8.84325E-15
 -1      1504 4.34962E-03 4.85917E-04-1.12238E-14
 -1      1505 4.20611E-03 5.50557E-04-1.03711E-14
 -1      1506 4.23188E-03 5.25118E-04-1.04447E-14
 -1      1507 4.64484E-03 3.54715E-04-1.30262E-14
 -1      1508 4.49595E-03 4.20350E-04-1.21087E-14
 -1      1509 4.52410E-03 3.93906E-04-1.21804E-14
 -1      1510 4.94864E-03 2.26835E-04-1.49598E-14
 -1      1511 4.79587E-03 2.90077E-04-1.39777E-14
 -1      1512 4.82447E-03 2.62607E-04-1.40470E-14
 -1      1513 5.25768E-03 1.06581E-04-1.70084E-14
 -1      1514 5.10273E-03 1.65653E-04-1.59700E-14
 -1      1515 5.13038E-03 1.37333E-04-1.60365E-14
 -1      1516 5.56878E-03-4.51259E-06-1.91753E-14
 -1      1517 5.41316E-03 4.99123E-05-1.80775E-14
 -1      1518 5.43911E-03 2.10073E-05-1.81426E-14
 -1      1519 5.87944E-03-1.06812E-04-2.14497E-14
 -1      1520 5.72430E-03-5.66716E-05-2.02984E-14
 -1      1521 5.74826E-03-8.58925E-05-2.03599E-14
 -1      1522 6.18797E-03-2.01703E-04-2.38292E-14
 -1      1523 6.03406E-03-1.55070E-04-2.26262E-14
 -1      1524 6.05610E-03-1.84381E-04-2.26856E-14
 -1      1525 6.49347E-03-2.90933E-04-2.63120E-14
 -1      1526 6.34114E-03-2.46916E-04-2.50589E-14
 -1      1527 6.36155E-03-2.76152E-04-2.51157E-14
 -1      1528 6.79558E-03-3.76200E-04-2.88886E-14
 -1      1529 6.64495E-03-3.33969E-04-2.75886E-14
 -1      1530 6.66408E-03-3.63026E-04-2.76447E-14
 -1      1531 7.09439E-03-4.58950E-04-3.15591E-14
 -1      1532 6.94538E-03-4.17818E-04-3.02132E-14
 -1      1533 6.96358E-03-4.46641E-04-3.02666E-14
 -1      1534 7.39020E-03-5.40311E-04-3.43176E-14
 -1      1535 7.24265E-03-4.99752E-04-3.29278E-14
 -1      1536 7.26023E-03-5.28326E-04-3.29782E-14
 -1      1537 7.68345E-03-6.21100E-04-3.71548E-14
 -1      1538 7.53712E-03-5.80742E-04-3.57249E-14
 -1      1539 7.55434E-03-6.09074E-04-3.57738E-14
 -1      1540 7.97460E-03-7.01871E-04-4.00841E-14
 -1      1541 7.82926E-03-6.61467E-04-3.86087E-14
 -1      1542 7.84631E-03-6.89579E-04-3.86568E-14
 -1      1543 8.26407E-03-7.82966E-04-4.31077E-14
 -1      1544 8.11952E-03-7.42366E-04-4.15845E-14
 -1      1545 8.13653E-03-7.70289E-04-4.16303E-14
 -1      1546 8.55227E-03-8.64573E-04-4.62162E-14
 -1      1547 8.40831E-03-8.23701E-04-4.46510E-14
 -1      1548 8.42537E-03-8.51465E-04-4.46919E-14
 -1      1549 8.83953E-03-9.46774E-04-4.94081E-14
 -1      1550 8.69600E-03-9.05599E-04-4.78023E-14
 -1      1551 8.71316E-03-9.33237E-04-4.78384E-14
 -1      1552 9.12610E-03-1.02958E-03-5.26831E-14
 -1      1553 8.98288E-03-9.88102E-04-5.10353E-14
 -1      1554 9.00016E-03-1.01564E-03-5.10670E-14
 -1      1555 9.41219E-03-1.11294E-03-5.60362E-14
 -1      1556 9.26919E-03-1.07119E-03-5.43499E-14
 -1      1557 9.28660E-03-1.09865E-03-5.43761E-14
 -1      1558 9.69798E-03-1.19682E-03-5.94572E-14
 -1      1559 9.55511E-03-1.15482E-03-5.77386E-14
 -1      1560 9.57266E-03-1.18222E-03-5.77594E-14
 -1      1561 9.98356E-03-1.28113E-03-6.29393E-14
 -1      1562 9.84079E-03-1.23892E-03-6.11905E-14
 -1      1563 9.85845E-03-1.26628E-03-6.12083E-14
 -1      1564 1.02690E-02-1.36580E-03-6.64803E-14
 -1      1565 1.01263E-02-1.32342E-03-6.47031E-14
 -1      1566 1.01441E-02-1.35076E-03-6.47177E-14
 -1      1567 1.05545E-02-1.45077E-03-7.00769E-14
 -1      1568 1.04118E-02-1.40825E-03-6.82710E-14
 -1      1569 1.04296E-02-1.43557E-03-6.82833E-14
 -1      1570 1.08399E-02-1.53599E-03-7.37297E-14
 -1      1571 1.06972E-02-1.49335E-03-7.18971E-14
 -1      1572 1.07151E-02-1.52066E-03-7.19008E-14
 -1      1573 1.11253E-02-1.62138E-03-7.74223E-14
 -1      1574 1.09826E-02-1.57867E-03-7.55715E-14
 -1      1575 1.10006E-02-1.60596E-03-7.55697E-14
 -1      1576 1.14108E-02-1.70693E-03-8.11435E-14
 -1      1577 1.12680E-02-1.66414E-03-7.92790E-14
 -1      1578 1.12861E-02-1.69143E-03-7.92719E-14
 -1      1579 1.16963E-02-1.79257E-03-8.49018E-14
 -1      1580 1.15535E-02-1.74974E-03-8.30201E-14
 -1      1581 1.15716E-02-1.77703E-03-8.30119E-14
 -1      1582 1.19818E-02-1.87830E-03-8.86948E-14
 -1      1583 1.18390E-02-1.83543E-03-8.67936E-14
 -1      1584 1.18571E-02-1.86272E-03-8.67837E-14
 -1      1585 1.22673E-02-1.96408E-03-9.25200E-14
 -1      1586 1.21246E-02-1.92118E-03-9.06032E-14
 -1      1587 1.21427E-02-1.94847E-03-9.05904E-14
 -1      1588 1.25529E-02-2.04990E-03-9.63765E-14
 -1      1589 1.24101E-02-2.00699E-03-9.44435E-14
 -1      1590 1.24283E-02-2.03428E-03-9.44278E-14
 -1      1591 1.28386E-02-2.13574E-03-1.00259E-13
 -1      1592 1.26957E-02-2.09282E-03-9.83161E-14
 -1      1593 1.27139E-02-2.12011E-03-9.82958E-14
 -1      1594 1.31242E-02-2.22160E-03-1.04159E-13
 -1      1595 1.29814E-02-2.17867E-03-1.02210E-13
 -1      1596 1.29995E-02-2.20596E-03-1.02184E-13
 -1      1597 1.34099E-02-2.30746E-03-1.08056E-13
 -1      1598 1.32670E-02-2.26453E-03-1.06106E-13
 -1      1599 1.32852E-02-2.29182E-03-1.06078E-13
 -1      1600 1.36956E-02-2.39331E-03-1.11962E-13
 -1      1601 1.35527E-02-2.35039E-03-1.10008E-13
 -1      1602 1.35709E-02-2.37768E-03-1.09978E-13
 -1      1603 1.39813E-02-2.47916E-03-1.15877E-13
 -1      1604 1.38384E-02-2.43624E-03-1.13918E-13
 -1      1605 1.38566E-02-2.46354E-03-1.13885E-13
 -1      1606 1.42670E-02-2.56499E-03-1.19793E-13
 -1      1607 1.41241E-02-2.52208E-03-1.17836E-13
 -1      1608 1.41423E-02-2.54938E-03-1.17799E-13
 -1      1609 1.44267E-02-2.62060E-03-1.21880E-13
 -1      1610 1.45442E-02-2.72957E-03-1.22532E-13
 -1      1611 1.45020E-02-2.68742E-03-1.22335E-13
 -1      1612 1.46286E-02-2.81386E-03-1.22928E-13
 -1      1613 1.45864E-02-2.77171E-03-1.22731E-13
 -1      1614 1.44416E-02-2.71348E-03-1.20938E-13
 -1      1615 1.47130E-02-2.89817E-03-1.23331E-13
 -1      1616 1.46708E-02-2.85601E-03-1.23127E-13
 -1      1617 1.45260E-02-2.79778E-03-1.21335E-13
 -1      1618 1.47973E-02-2.98248E-03-1.23735E-13
 -1      1619 1.47552E-02-2.94032E-03-1.23535E-13
 -1      1620 1.46104E-02-2.88208E-03-1.21740E-13
 -1      1621 1.48803E-02-3.06538E-03-1.24139E-13
 -1      1622 1.48388E-02-3.02393E-03-1.23937E-13
 -1      1623 1.46940E-02-2.96569E-03-1.22145E-13
 -1      1624 1.49647E-02-3.14972E-03-1.24550E-13
 -1      1625 1.49225E-02-3.10755E-03-1.24346E-13
 -1      1626 1.47777E-02-3.04930E-03-1.22550E-13
 -1      1627 1.50491E-02-3.23406E-03-1.24954E-13
 -1      1628 1.50069E-02-3.19189E-03-1.24753E-13
 -1      1629 1.48621E-02-3.13363E-03-1.22957E-13
 -1      1630 1.51335E-02-3.31841E-03-1.25354E-13
 -1      1631 1.50913E-02-3.27624E-03-1.25154E-13
 -1      1632 1.49465E-02-3.21797E-03-1.23359E-13
 -1      1633 1.52180E-02-3.40276E-03-1.25740E-13
 -1      1634 1.51757E-02-3.36059E-03-1.25549E-13
 -1      1635 1.50309E-02-3.30232E-03-1.23757E-13
 -1      1636 1.53024E-02-3.48710E-03-1.26133E-13
 -1      1637 1.52602E-02-3.44493E-03-1.25935E-13
 -1      1638 1.51154E-02-3.38666E-03-1.24147E-13
 -1      1639 1.53855E-02-3.57000E-03-1.26520E-13
 -1      1640 1.53440E-02-3.52855E-03-1.26327E-13
 -1      1641 1.51991E-02-3.47028E-03-1.24532E-13
 -1      1642 1.54700E-02-3.65433E-03-1.26908E-13
 -1      1643 1.54278E-02-3.61217E-03-1.26719E-13
 -1      1644 1.52829E-02-3.55389E-03-1.24916E-13
 -1      1645 1.55545E-02-3.73864E-03-1.27277E-13
 -1      1646 1.55123E-02-3.69648E-03-1.27094E-13
 -1      1647 1.53674E-02-3.63821E-03-1.25294E-13
 -1      1648 1.56390E-02-3.82294E-03-1.27637E-13
 -1      1649 1.55968E-02-3.78079E-03-1.27458E-13
 -1      1650 1.54519E-02-3.72251E-03-1.25658E-13
 -1      1651 1.57223E-02-3.90026E-03-1.28060E-13
 -1      1652 1.56801E-02-3.85812E-03-1.27889E-13
 -1      1653 1.55352E-02-3.79984E-03-1.26089E-13
 -1      1654 1.56173E-02-3.87020E-03-1.26591E-13
 -1      1655 5.93507E-03-4.88357E-04-1.08766E-14
 -1      1656 5.98489E-03-5.35420E-04-1.09412E-14
 -1      1657 5.73781E-03-3.70384E-04-1.06089E-14
 -1      1658 5.84368E-03-4.27831E-04-1.07529E-14
 -1      1659 5.41530E-03-2.17970E-04-1.01662E-14
 -1      1660 5.57849E-03-2.96100E-04-1.04039E-14
 -1      1661 5.04812E-03-3.73088E-05-9.57716E-15
 -1      1662 5.22019E-03-1.19044E-04-9.84533E-15
 -1      1663 4.64663E-03 1.48135E-04-8.90808E-15
 -1      1664 4.83657E-03 6.17362E-05-9.22867E-15
 -1      1665 4.24446E-03 3.11302E-04-8.18711E-15
 -1      1666 4.42794E-03 2.40525E-04-8.52191E-15
 -1      1667 3.85497E-03 4.22938E-04-7.45459E-15
 -1      1668 4.03321E-03 3.78991E-04-7.79140E-15
 -1      1669 3.45502E-03 4.64078E-04-6.70514E-15
 -1      1670 3.64023E-03 4.56491E-04-7.05195E-15
 -1      1671 3.05108E-03 4.16603E-04-5.97881E-15
 -1      1672 3.23698E-03 4.51442E-04-6.29959E-15
 -1      1673 2.65270E-03 2.99854E-04-5.38984E-15
 -1      1674 2.82854E-03 3.58431E-04-5.64742E-15
 -1      1675 2.26926E-03 1.55710E-04-4.91022E-15
 -1      1676 2.44208E-03 2.25337E-04-5.12318E-15
 -1      1677 1.92991E-03 1.04230E-05-4.53612E-15
 -1      1678 2.08049E-03 7.59928E-05-4.69472E-15
 -1      1679 1.64313E-03-1.20086E-04-4.26405E-15
 -1      1680 1.76778E-03-6.17506E-05-4.37782E-15
 -1      1681 1.43917E-03-2.36180E-04-4.08588E-15
 -1      1682 1.52139E-03-1.86695E-04-4.14988E-15
 -1      1683 1.36333E-03-3.31927E-04-4.04933E-15
 -1      1684 1.38093E-03-2.88415E-04-4.05576E-15
 -1      1685 1.43706E-03-4.31947E-04-4.10055E-15
 -1      1686 1.38196E-03-3.82710E-04-4.04565E-15
 -1      1687 1.64520E-03-5.71065E-04-4.33227E-15
 -1      1688 1.53604E-03-5.08398E-04-4.22693E-15
 -1      1689 1.98368E-03-7.25450E-04-4.61538E-15
 -1      1690 1.81792E-03-6.38766E-04-4.45005E-15
 -1      1691 2.37602E-03-9.56250E-04-5.09137E-15
 -1      1692 2.18445E-03-8.53822E-04-4.87274E-15
 -1      1693 2.79105E-03-1.17805E-03-5.63457E-15
 -1      1694 2.59723E-03-1.07869E-03-5.37797E-15
 -1      1695 3.27105E-03-1.38240E-03-6.30296E-15
 -1      1696 3.05746E-03-1.29045E-03-5.96322E-15
 -1      1697 3.69126E-03-1.49252E-03-7.06350E-15
 -1      1698 3.50067E-03-1.45550E-03-6.72176E-15
 -1      1699 4.08133E-03-1.49391E-03-7.78506E-15
 -1      1700 3.90561E-03-1.50452E-03-7.45909E-15
 -1      1701 4.46390E-03-1.40957E-03-8.49261E-15
 -1      1702 4.28707E-03-1.45852E-03-8.16805E-15
 -1      1703 4.83937E-03-1.26684E-03-9.16425E-15
 -1      1704 4.66763E-03-1.33810E-03-8.86308E-15
 -1      1705 5.19576E-03-1.10165E-03-9.76317E-15
 -1      1706 5.03433E-03-1.17920E-03-9.49829E-15
 -1      1707 5.52190E-03-9.38784E-04-1.02759E-14
 -1      1708 5.37617E-03-1.01289E-03-1.00520E-14
 -1      1709 5.78348E-03-7.98475E-04-1.06614E-14
 -1      1710 5.67232E-03-8.59825E-04-1.05024E-14
 -1      1711 5.95419E-03-6.77960E-04-1.09530E-14
 -1      1712 5.88716E-03-7.26863E-04-1.08622E-14
 -1      1713 6.00692E-03-5.87024E-04-1.09730E-14
 -1      1714 5.99763E-03-6.28748E-04-1.09608E-14
 -1      1715 5.27368E-03-2.32126E-04-1.02823E-14
 -1      1716 6.00509E-03-5.72395E-04-1.13290E-14
 -1      1717 1.44449E-02-2.64791E-03-1.21844E-13
 -1      1718 1.43423E-02-2.63181E-03-1.20248E-13
 -1      1719 5.88890E-03-4.98697E-04-1.11675E-14
 -1      1720 5.63247E-03-3.91409E-04-1.08261E-14
 -1      1721 4.87395E-03-3.14339E-05-9.59661E-15
 -1      1722 4.46987E-03 1.74870E-04-8.84736E-15
 -1      1723 4.08540E-03 3.52241E-04-8.05611E-15
 -1      1724 3.71924E-03 4.64221E-04-7.25469E-15
 -1      1725 3.35540E-03 4.83211E-04-6.45033E-15
 -1      1726 2.99003E-03 3.96714E-04-5.72724E-15
 -1      1727 2.60530E-03 2.45769E-04-5.14526E-15
 -1      1728 2.22893E-03 7.86305E-05-4.67885E-15
 -1      1729 1.88301E-03-7.40298E-05-4.31991E-15
 -1      1730 1.59343E-03-1.96774E-04-4.05864E-15
 -1      1731 1.40556E-03-2.81023E-04-3.92131E-15
 -1      1732 1.36346E-03-3.46205E-04-3.88692E-15
 -1      1733 1.48761E-03-4.20440E-04-4.00002E-15
 -1      1734 1.76464E-03-5.41263E-04-4.23273E-15
 -1      1735 2.14078E-03-7.21722E-04-4.58496E-15
 -1      1736 2.55773E-03-9.72831E-04-5.11158E-15
 -1      1737 3.01095E-03-1.22417E-03-5.71190E-15
 -1      1738 3.42810E-03-1.43421E-03-6.44569E-15
 -1      1739 3.80386E-03-1.52721E-03-7.25892E-15
 -1      1740 4.15796E-03-1.49804E-03-8.04207E-15
 -1      1741 4.51307E-03-1.37566E-03-8.80619E-15
 -1      1742 4.87597E-03-1.19999E-03-9.52529E-15
 -1      1743 5.23432E-03-1.01383E-03-1.01636E-14
 -1      1744 5.56343E-03-8.49578E-04-1.06938E-14
 -1      1745 5.82482E-03-7.19413E-04-1.11333E-14
 -1      1746 5.98077E-03-6.36804E-04-1.13516E-14
 -1      1747 3.26192E-04-1.49956E-04-5.59177E-17
 -1      1748 3.40457E-04-6.14338E-05-1.57440E-16
 -1      1749 3.56670E-04-7.75408E-05-1.49362E-16
 -1      1750 3.74618E-04-9.85465E-05-1.39239E-16
 -1      1751 3.95012E-04-1.24976E-04-1.24697E-16
 -1      1752 4.94405E-04-1.22556E-04-2.17355E-16
 -1      1753 2.91363E-04-3.16119E-05-1.71345E-16
 -1      1754 3.00844E-04-3.49444E-05-1.69773E-16
 -1      1755 2.78390E-04-2.95233E-05-1.72212E-16
 -1      1756 2.83747E-04-2.99568E-05-1.72009E-16
 -1      1757 3.83306E-04-4.59523E-05-2.53121E-16
 -1      1758 2.74431E-04-2.98366E-05-1.70531E-16
 -1      1759 2.75318E-04-2.96788E-05-1.71819E-16
 -1      1760 3.68378E-04-4.24681E-05-2.53337E-16
 -1      1761 2.78608E-04-2.80960E-05-1.66818E-16
 -1      1762 2.75657E-04-2.94639E-05-1.68973E-16
 -1      1763 3.66384E-04-4.04793E-05-2.50383E-16
 -1      1764 2.88705E-04-2.10746E-05-1.60584E-16
 -1      1765 2.83139E-04-2.53752E-05-1.64108E-16
 -1      1766 3.75397E-04-3.46396E-05-2.44054E-16
 -1      1767 3.01975E-04-7.27436E-06-1.52263E-16
 -1      1768 2.95152E-04-1.50362E-05-1.56816E-16
 -1      1769 3.91751E-04-2.14320E-05-2.34648E-16
 -1      1770 3.15858E-04 1.28951E-05-1.41150E-16
 -1      1771 3.08942E-04 2.05536E-06-1.47262E-16
 -1      1772 4.11261E-04 2.05485E-07-2.21950E-16
 -1      1773 3.29606E-04 3.93920E-05-1.26540E-16
 -1      1774 3.22807E-04 2.54804E-05-1.34536E-16
 -1      1775 4.31097E-04 2.99543E-05-2.05334E-16
 -1      1776 3.43121E-04 7.14903E-05-1.07187E-16
 -1      1777 3.36303E-04 5.48029E-05-1.17866E-16
 -1      1778 4.50219E-04 6.71974E-05-1.83664E-16
 -1      1779 3.58319E-04 1.10364E-04-8.02581E-17
 -1      1780 3.50288E-04 9.00373E-05-9.52743E-17
 -1      1781 4.69360E-04 1.11486E-04-1.54878E-16
 -1      1782 3.80769E-04 1.60772E-04-4.29209E-17
 -1      1783 3.68052E-04 1.33845E-04-6.35342E-17
 -1      1784 4.92151E-04 1.64841E-04-1.15806E-16
 -1      1785 4.42942E-04 2.22048E-04-1.35254E-17
 -1      1786 4.09939E-04 1.88019E-04-3.18213E-17
 -1      1787 5.37292E-04 2.24726E-04-7.92958E-17
 -1      1788 6.08041E-04 2.88721E-04-4.67562E-17
 -1      1789 3.89553E-04-1.51343E-04-9.34718E-17
 -1      1790 9.32713E-04 3.95764E-04-1.87418E-16
 -1      1791 7.71315E-04 3.45597E-04-1.04626E-16
 -1      1792 7.32858E-04 3.11832E-04-1.25551E-16
 -1      1793 5.23272E-04-1.82812E-04-1.63023E-16
 -1      1794 9.32243E-04-3.05763E-04-4.29656E-16
 -1      1795 1.10591E-03-3.48159E-04-5.97436E-16
 -1      1796 1.27953E-03-3.90540E-04-7.95384E-16
 -1      1797 1.45454E-03-4.34549E-04-1.02410E-15
 -1      1798 1.14137E-03-3.26780E-04-7.25142E-16
 -1      1799 1.63136E-03-4.83087E-04-1.28254E-15
 -1      1800 1.81010E-03-5.37992E-04-1.57236E-15
 -1      1801 1.48063E-03-4.12960E-04-1.18544E-15
 -1      1802 1.99209E-03-6.01767E-04-1.89317E-15
 -1      1803 2.17599E-03-6.76591E-04-2.24518E-15
 -1      1804 1.82856E-03-5.19386E-04-1.76589E-15
 -1      1805 2.36400E-03-7.63896E-04-2.62861E-15
 -1      1806 2.55290E-03-8.65237E-04-3.04437E-15
 -1      1807 2.19070E-03-6.64126E-04-2.46873E-15
 -1      1808 2.74534E-03-9.79534E-04-3.49432E-15
 -1      1809 2.93625E-03-1.10511E-03-3.97721E-15
 -1      1810 2.57062E-03-8.62355E-04-3.29729E-15
 -1      1811 3.12731E-03-1.23672E-03-4.49631E-15
 -1      1812 3.31390E-03-1.36611E-03-5.05173E-15
 -1      1813 2.96431E-03-1.11428E-03-4.25904E-15
 -1      1814 3.48589E-03-1.47922E-03-5.61472E-15
 -1      1815 3.65475E-03-1.57108E-03-6.21160E-15
 -1      1816 3.34548E-03-1.37568E-03-5.33414E-15
 -1      1817 3.82470E-03-1.63741E-03-6.87850E-15
 -1      1818 3.99689E-03-1.66507E-03-7.58501E-15
 -1      1819 3.70849E-03-1.57627E-03-6.55476E-15
 -1      1820 4.16672E-03-1.65331E-03-8.33059E-15
 -1      1821 4.34399E-03-1.60912E-03-9.11605E-15
 -1      1822 4.06764E-03-1.63150E-03-7.96314E-15
 -1      1823 4.52496E-03-1.54005E-03-9.93969E-15
 -1      1824 4.71193E-03-1.45904E-03-1.08011E-14
 -1      1825 4.43893E-03-1.53230E-03-9.53008E-15
 -1      1826 4.90352E-03-1.37547E-03-1.16983E-14
 -1      1827 5.09548E-03-1.29807E-03-1.26300E-14
 -1      1828 4.83003E-03-1.36073E-03-1.12507E-14
 -1      1829 5.28918E-03-1.23268E-03-1.35946E-14
 -1      1830 5.47943E-03-1.18145E-03-1.45911E-14
 -1      1831 5.22524E-03-1.20469E-03-1.31124E-14
 -1      1832 5.66871E-03-1.14608E-03-1.56184E-14
 -1      1833 5.85356E-03-1.12520E-03-1.66739E-14
 -1      1834 5.60710E-03-1.10658E-03-1.51013E-14
 -1      1835 6.03603E-03-1.11802E-03-1.77579E-14
 -1      1836 6.21446E-03-1.12242E-03-1.88697E-14
 -1      1837 5.96992E-03-1.07001E-03-1.72086E-14
 -1      1838 6.39000E-03-1.13672E-03-2.00077E-14
 -1      1839 6.56218E-03-1.15913E-03-2.11729E-14
 -1      1840 6.31573E-03-1.08273E-03-1.94251E-14
 -1      1841 6.73146E-03-1.18798E-03-2.23659E-14
 -1      1842 6.89800E-03-1.22203E-03-2.35810E-14
 -1      1843 6.64835E-03-1.13001E-03-2.17485E-14
 -1      1844 7.06187E-03-1.25998E-03-2.48224E-14
 -1      1845 7.22350E-03-1.30102E-03-2.60860E-14
 -1      1846 6.97095E-03-1.19958E-03-2.41733E-14
 -1      1847 7.38280E-03-1.34427E-03-2.73706E-14
 -1      1848 7.54028E-03-1.38920E-03-2.86776E-14
 -1      1849 7.28572E-03-1.28257E-03-2.66913E-14
 -1      1850 7.69582E-03-1.43527E-03-3.00036E-14
 -1      1851 7.84988E-03-1.48214E-03-3.13483E-14
 -1      1852 7.59423E-03-1.37305E-03-2.92944E-14
 -1      1853 8.00237E-03-1.52951E-03-3.27119E-14
 -1      1854 8.15368E-03-1.57714E-03-3.40953E-14
 -1      1855 7.89766E-03-1.46724E-03-3.19782E-14
 -1      1856 8.30375E-03-1.62488E-03-3.54974E-14
 -1      1857 8.45288E-03-1.67260E-03-3.69185E-14
 -1      1858 8.19696E-03-1.56286E-03-3.47378E-14
 -1      1859 8.60104E-03-1.72021E-03-3.83590E-14
 -1      1860 8.74848E-03-1.76763E-03-3.98190E-14
 -1      1861 8.49295E-03-1.65857E-03-3.75754E-14
 -1      1862 8.89519E-03-1.81485E-03-4.12988E-14
 -1      1863 9.04133E-03-1.86179E-03-4.27992E-14
 -1      1864 8.78632E-03-1.75363E-03-4.04917E-14
 -1      1865 9.18692E-03-1.90848E-03-4.43194E-14
 -1      1866 9.33209E-03-1.95489E-03-4.58588E-14
 -1      1867 9.07763E-03-1.84770E-03-4.34877E-14
 -1      1868 9.47685E-03-2.00103E-03-4.74193E-14
 -1      1869 9.62129E-03-2.04688E-03-4.89990E-14
 -1      1870 9.36736E-03-1.94064E-03-4.65632E-14
 -1      1871 9.76543E-03-2.09249E-03-5.05975E-14
 -1      1872 9.90934E-03-2.13783E-03-5.22142E-14
 -1      1873 9.65589E-03-2.03246E-03-4.97197E-14
 -1      1874 1.00530E-02-2.18295E-03-5.38493E-14
 -1      1875 1.01966E-02-2.22784E-03-5.55013E-14
 -1      1876 9.94353E-03-2.12322E-03-5.29494E-14
 -1      1877 1.03399E-02-2.27252E-03-5.71711E-14
 -1      1878 1.04832E-02-2.31701E-03-5.88594E-14
 -1      1879 1.02305E-02-2.21305E-03-5.62496E-14
 -1      1880 1.06263E-02-2.36133E-03-6.05643E-14
 -1      1881 1.07694E-02-2.40548E-03-6.22861E-14
 -1      1882 1.05170E-02-2.30207E-03-5.96194E-14
 -1      1883 1.09124E-02-2.44949E-03-6.40246E-14
 -1      1884 1.10553E-02-2.49337E-03-6.57778E-14
 -1      1885 1.08032E-02-2.39040E-03-6.30561E-14
 -1      1886 1.11982E-02-2.53712E-03-6.75484E-14
 -1      1887 1.13411E-02-2.58077E-03-6.93285E-14
 -1      1888 1.10891E-02-2.47816E-03-6.65589E-14
 -1      1889 1.14839E-02-2.62432E-03-7.11221E-14
 -1      1890 1.16267E-02-2.66779E-03-7.29309E-14
 -1      1891 1.13749E-02-2.56547E-03-7.01176E-14
 -1      1892 1.17695E-02-2.71118E-03-7.47564E-14
 -1      1893 1.19123E-02-2.75450E-03-7.65925E-14
 -1      1894 1.16606E-02-2.65240E-03-7.37317E-14
 -1      1895 1.20551E-02-2.79776E-03-7.84382E-14
 -1      1896 1.21979E-02-2.84097E-03-8.02990E-14
 -1      1897 1.19462E-02-2.73905E-03-7.73997E-14
 -1      1898 1.23406E-02-2.88414E-03-8.21704E-14
 -1      1899 1.24834E-02-2.92726E-03-8.40487E-14
 -1      1900 1.22318E-02-2.82547E-03-8.11147E-14
 -1      1901 1.26262E-02-2.97036E-03-8.59356E-14
 -1      1902 1.27690E-02-3.01342E-03-8.78323E-14
 -1      1903 1.25174E-02-2.91172E-03-8.48696E-14
 -1      1904 1.29118E-02-3.05646E-03-8.97364E-14
 -1      1905 1.30545E-02-3.09947E-03-9.16511E-14
 -1      1906 1.28030E-02-2.99784E-03-8.86574E-14
 -1      1907 1.31973E-02-3.14247E-03-9.35695E-14
 -1      1908 1.33401E-02-3.18546E-03-9.54909E-14
 -1      1909 1.30886E-02-3.08387E-03-9.24760E-14
 -1      1910 1.34829E-02-3.22843E-03-9.74207E-14
 -1      1911 1.36257E-02-3.27139E-03-9.93488E-14
 -1      1912 1.33743E-02-3.16984E-03-9.63187E-14
 -1      1913 1.37686E-02-3.31434E-03-1.01282E-13
 -1      1914 1.39114E-02-3.35729E-03-1.03220E-13
 -1      1915 1.36599E-02-3.25576E-03-1.00174E-13
 -1      1916 1.40542E-02-3.40023E-03-1.05159E-13
 -1      1917 1.41970E-02-3.44317E-03-1.07102E-13
 -1      1918 1.39456E-02-3.34165E-03-1.04044E-13
 -1      1919 1.43399E-02-3.48611E-03-1.09049E-13
 -1      1920 1.44827E-02-3.52904E-03-1.10997E-13
 -1      1921 1.42312E-02-3.42753E-03-1.07925E-13
 -1      1922 1.46255E-02-3.57198E-03-1.12952E-13
 -1      1923 1.47684E-02-3.61491E-03-1.14907E-13
 -1      1924 1.45169E-02-3.51340E-03-1.11822E-13
 -1      1925 1.49112E-02-3.65785E-03-1.16865E-13
 -1      1926 1.50541E-02-3.70079E-03-1.18829E-13
 -1      1927 1.48026E-02-3.59927E-03-1.15732E-13
 -1      1928 1.51969E-02-3.74373E-03-1.20795E-13
 -1      1929 1.53398E-02-3.78668E-03-1.22765E-13
 -1      1930 1.50883E-02-3.68515E-03-1.19657E-13
 -1      1931 1.55123E-02-3.84014E-03-1.25124E-13
 -1      1932 1.48958E-03 5.33400E-04-7.28015E-16
 -1      1933 1.33495E-03 4.94835E-04-5.46560E-16
 -1      1934 1.79499E-03 6.07987E-04-1.17673E-15
 -1      1935 1.64304E-03 5.71126E-04-9.37699E-16
 -1      1936 1.54209E-03 5.11618E-04-9.03032E-16
 -1      1937 2.09482E-03 6.79369E-04-1.74413E-15
 -1      1938 1.94577E-03 6.44204E-04-1.44523E-15
 -1      1939 1.85032E-03 5.85823E-04-1.39285E-15
 -1      1940 2.38802E-03 7.44158E-04-2.43365E-15
 -1      1941 2.24240E-03 7.12956E-04-2.07327E-15
 -1      1942 2.15405E-03 6.56971E-04-2.00071E-15
 -1      1943 2.67368E-03 7.94898E-04-3.25187E-15
 -1      1944 2.53181E-03 7.71842E-04-2.82660E-15
 -1      1945 2.45201E-03 7.20632E-04-2.73226E-15
 -1      1946 2.95217E-03 8.21737E-04-4.20337E-15
 -1      1947 2.81365E-03 8.11902E-04-3.71070E-15
 -1      1948 2.74315E-03 7.68255E-04-3.59253E-15
 -1      1949 3.22569E-03 8.15517E-04-5.29175E-15
 -1      1950 3.08919E-03 8.23184E-04-4.73046E-15
 -1      1951 3.02778E-03 7.89231E-04-4.58666E-15
 -1      1952 3.49815E-03 7.71308E-04-6.52072E-15
 -1      1953 3.36160E-03 7.98230E-04-5.88836E-15
 -1      1954 3.30826E-03 7.74464E-04-5.71875E-15
 -1      1955 3.77391E-03 6.90674E-04-7.88861E-15
 -1      1956 3.63521E-03 7.35212E-04-7.18715E-15
 -1      1957 3.58861E-03 7.20176E-04-6.99064E-15
 -1      1958 4.05636E-03 5.81330E-04-9.39542E-15
 -1      1959 3.91407E-03 6.38978E-04-8.62468E-15
 -1      1960 3.87296E-03 6.29843E-04-8.40269E-15
 -1      1961 4.34691E-03 4.54429E-04-1.10390E-14
 -1      1962 4.20061E-03 5.19385E-04-1.02010E-14
 -1      1963 4.16393E-03 5.12999E-04-9.95296E-15
 -1      1964 4.64499E-03 3.21149E-04-1.28130E-14
 -1      1965 4.49516E-03 3.88001E-04-1.19098E-14
 -1      1966 4.46191E-03 3.81772E-04-1.16367E-14
 -1      1967 4.94868E-03 1.90176E-04-1.47161E-14
 -1      1968 4.79636E-03 2.54985E-04-1.37490E-14
 -1      1969 4.76547E-03 2.47273E-04-1.34502E-14
 -1      1970 5.25562E-03 6.67320E-05-1.67379E-14
 -1      1971 5.10197E-03 1.27319E-04-1.57125E-14
 -1      1972 5.07236E-03 1.17392E-04-1.53873E-14
 -1      1973 5.56359E-03-4.70934E-05-1.88762E-14
 -1      1974 5.40966E-03 8.57295E-06-1.77934E-14
 -1      1975 5.38034E-03-3.65147E-06-1.74435E-14
 -1      1976 5.87087E-03-1.51426E-04-2.11248E-14
 -1      1977 5.71745E-03-1.00398E-04-1.99865E-14
 -1      1978 5.68769E-03-1.14628E-04-1.96129E-14
 -1      1979 6.17629E-03-2.47632E-04-2.34799E-14
 -1      1980 6.02389E-03-2.00453E-04-2.22893E-14
 -1      1981 5.99327E-03-2.16236E-04-2.18925E-14
 -1      1982 6.47921E-03-3.37555E-04-2.59388E-14
 -1      1983 6.32810E-03-2.93276E-04-2.46966E-14
 -1      1984 6.29645E-03-3.10136E-04-2.42774E-14
 -1      1985 6.77940E-03-4.23037E-04-2.84930E-14
 -1      1986 6.62965E-03-3.80756E-04-2.72042E-14
 -1      1987 6.59700E-03-3.98269E-04-2.67628E-14
 -1      1988 7.07689E-03-5.05670E-04-3.11408E-14
 -1      1989 6.92846E-03-4.64631E-04-2.98058E-14
 -1      1990 6.89495E-03-4.82459E-04-2.93448E-14
 -1      1991 7.37190E-03-5.86710E-04-3.38762E-14
 -1      1992 7.22468E-03-5.46329E-04-3.24966E-14
 -1      1993 7.19050E-03-5.64224E-04-3.20166E-14
 -1      1994 7.66476E-03-6.67072E-04-3.66948E-14
 -1      1995 7.51857E-03-6.26932E-04-3.52755E-14
 -1      1996 7.48392E-03-6.44729E-04-3.47750E-14
 -1      1997 7.95581E-03-7.47378E-04-3.96027E-14
 -1      1998 7.81048E-03-7.07203E-04-3.81379E-14
 -1      1999 7.77554E-03-7.24800E-04-3.76185E-14
 -1      2000 8.24539E-03-8.28018E-04-4.26010E-14
 -1      2001 8.10076E-03-7.87638E-04-4.10910E-14
 -1      2002 8.06565E-03-8.04988E-04-4.05509E-14
 -1      2003 8.53382E-03-9.09209E-04-4.56842E-14
 -1      2004 8.38973E-03-8.68535E-04-4.41319E-14
 -1      2005 8.35457E-03-8.85622E-04-4.35722E-14
 -1      2006 8.82136E-03-9.91044E-04-4.88512E-14
 -1      2007 8.67768E-03-9.50042E-04-4.72578E-14
 -1      2008 8.64254E-03-9.66875E-04-4.66780E-14
 -1      2009 9.10824E-03-1.07354E-03-5.20996E-14
 -1      2010 8.96486E-03-1.03221E-03-5.04650E-14
 -1      2011 8.92979E-03-1.04881E-03-4.98652E-14
 -1      2012 9.39463E-03-1.15665E-03-5.54259E-14
 -1      2013 9.25148E-03-1.11502E-03-5.37534E-14
 -1      2014 9.21650E-03-1.13142E-03-5.31321E-14
 -1      2015 9.68069E-03-1.24032E-03-5.88248E-14
 -1      2016 9.53770E-03-1.19842E-03-5.71162E-14
 -1      2017 9.50281E-03-1.21464E-03-5.64754E-14
 -1      2018 9.96653E-03-1.32447E-03-6.22876E-14
 -1      2019 9.82363E-03-1.28234E-03-6.05488E-14
 -1      2020 9.78885E-03-1.29842E-03-5.98891E-14
 -1      2021 1.02522E-02-1.40902E-03-6.58115E-14
 -1      2022 1.01094E-02-1.36670E-03-6.40422E-14
 -1      2023 1.00747E-02-1.38267E-03-6.33681E-14
 -1      2024 1.05378E-02-1.49390E-03-6.93874E-14
 -1      2025 1.03950E-02-1.45143E-03-6.75945E-14
 -1      2026 1.03604E-02-1.46731E-03-6.69036E-14
 -1      2027 1.08234E-02-1.57905E-03-7.30166E-14
 -1      2028 1.06806E-02-1.53645E-03-7.11950E-14
 -1      2029 1.06461E-02-1.55226E-03-7.04922E-14
 -1      2030 1.11089E-02-1.66440E-03-7.66886E-14
 -1      2031 1.09661E-02-1.62170E-03-7.48468E-14
 -1      2032 1.09317E-02-1.63746E-03-7.41273E-14
 -1      2033 1.13945E-02-1.74991E-03-8.03990E-14
 -1      2034 1.12517E-02-1.70714E-03-7.85405E-14
 -1      2035 1.12173E-02-1.72286E-03-7.78076E-14
 -1      2036 1.16800E-02-1.83553E-03-8.41456E-14
 -1      2037 1.15372E-02-1.79271E-03-8.22672E-14
 -1      2038 1.15029E-02-1.80840E-03-8.15269E-14
 -1      2039 1.19656E-02-1.92125E-03-8.79240E-14
 -1      2040 1.18228E-02-1.87838E-03-8.60299E-14
 -1      2041 1.17885E-02-1.89405E-03-8.52781E-14
 -1      2042 1.22512E-02-2.00702E-03-9.17373E-14
 -1      2043 1.21084E-02-1.96413E-03-8.98277E-14
 -1      2044 1.20741E-02-1.97979E-03-8.90647E-14
 -1      2045 1.25368E-02-2.09284E-03-9.55816E-14
 -1      2046 1.23940E-02-2.04992E-03-9.36556E-14
 -1      2047 1.23597E-02-2.06557E-03-9.28841E-14
 -1      2048 1.28224E-02-2.17868E-03-9.94498E-14
 -1      2049 1.26796E-02-2.13575E-03-9.75132E-14
 -1      2050 1.26453E-02-2.15140E-03-9.67328E-14
 -1      2051 1.31081E-02-2.26454E-03-1.03340E-13
 -1      2052 1.29653E-02-2.22161E-03-1.01393E-13
 -1      2053 1.29310E-02-2.23725E-03-1.00605E-13
 -1      2054 1.33938E-02-2.35040E-03-1.07231E-13
 -1      2055 1.32509E-02-2.30747E-03-1.05285E-13
 -1      2056 1.32167E-02-2.32311E-03-1.04492E-13
 -1      2057 1.36795E-02-2.43626E-03-1.11132E-13
 -1      2058 1.35366E-02-2.39333E-03-1.09180E-13
 -1      2059 1.35023E-02-2.40898E-03-1.08386E-13
 -1      2060 1.39651E-02-2.52211E-03-1.15037E-13
 -1      2061 1.38223E-02-2.47919E-03-1.13085E-13
 -1      2062 1.37880E-02-2.49484E-03-1.12285E-13
 -1      2063 1.42251E-02-2.59843E-03-1.18623E-13
 -1      2064 1.40823E-02-2.55551E-03-1.16665E-13
 -1      2065 1.40480E-02-2.57116E-03-1.15863E-13
 -1      2066 1.42823E-02-2.63794E-03-1.19116E-13
 -1      2067 1.45077E-02-2.86600E-03-1.20154E-13
 -1      2068 1.44655E-02-2.82384E-03-1.19949E-13
 -1      2069 1.44234E-02-2.78169E-03-1.19746E-13
 -1      2070 1.43812E-02-2.73954E-03-1.19546E-13
 -1      2071 1.43207E-02-2.76559E-03-1.18156E-13
 -1      2072 1.43245E-02-2.68009E-03-1.19314E-13
 -1      2073 1.45907E-02-2.94888E-03-1.20552E-13
 -1      2074 1.45492E-02-2.90744E-03-1.20352E-13
 -1      2075 1.44044E-02-2.84919E-03-1.18561E-13
 -1      2076 1.46750E-02-3.03321E-03-1.20962E-13
 -1      2077 1.46329E-02-2.99105E-03-1.20758E-13
 -1      2078 1.44880E-02-2.93279E-03-1.18964E-13
 -1      2079 1.47594E-02-3.11754E-03-1.21364E-13
 -1      2080 1.47172E-02-3.07538E-03-1.21163E-13
 -1      2081 1.45724E-02-3.01712E-03-1.19368E-13
 -1      2082 1.48439E-02-3.20188E-03-1.21766E-13
 -1      2083 1.48016E-02-3.15971E-03-1.21564E-13
 -1      2084 1.46568E-02-3.10145E-03-1.19769E-13
 -1      2085 1.49283E-02-3.28622E-03-1.22163E-13
 -1      2086 1.48861E-02-3.24405E-03-1.21965E-13
 -1      2087 1.47412E-02-3.18578E-03-1.20170E-13
 -1      2088 1.50128E-02-3.37055E-03-1.22553E-13
 -1      2089 1.49705E-02-3.32838E-03-1.22358E-13
 -1      2090 1.48257E-02-3.27012E-03-1.20566E-13
 -1      2091 1.50958E-02-3.45345E-03-1.22931E-13
 -1      2092 1.50543E-02-3.41200E-03-1.22742E-13
 -1      2093 1.49094E-02-3.35373E-03-1.20951E-13
 -1      2094 1.51803E-02-3.53777E-03-1.23313E-13
 -1      2095 1.51381E-02-3.49561E-03-1.23122E-13
 -1      2096 1.49932E-02-3.43734E-03-1.21327E-13
 -1      2097 1.52648E-02-3.62209E-03-1.23679E-13
 -1      2098 1.52226E-02-3.57993E-03-1.23496E-13
 -1      2099 1.50777E-02-3.52166E-03-1.21700E-13
 -1      2100 1.53493E-02-3.70639E-03-1.24040E-13
 -1      2101 1.53071E-02-3.66424E-03-1.23861E-13
 -1      2102 1.51622E-02-3.60597E-03-1.22064E-13
 -1      2103 1.21354E-03 4.68512E-04-4.11495E-16
 -1      2104 1.05612E-03 4.26370E-04-2.80781E-16
 -1      2105 1.01798E-03 3.92970E-04-3.05149E-16
 -1      2106 1.26423E-03 4.48064E-04-5.50043E-16
 -1      2107 5.53607E-03-4.12534E-04-1.11086E-14
 -1      2108 5.69560E-03-4.68489E-04-1.13284E-14
 -1      2109 4.72343E-03-1.51116E-05-9.65657E-15
 -1      2110 4.91558E-03-1.20382E-04-1.00202E-14
 -1      2111 5.99724E-03-5.77203E-04-1.17906E-14
 -1      2112 6.01951E-03-5.93617E-04-1.18244E-14
 -1      2113 5.13191E-03-2.31062E-04-1.04216E-14
 -1      2114 5.32229E-03-3.22309E-04-1.07589E-14
 -1      2115 3.12384E-04-4.07092E-05-1.67089E-16
 -1      2116 3.25555E-04-4.93066E-05-1.62847E-16
 -1      2117 4.48143E-04-8.07093E-05-2.37711E-16
 -1      2118 4.10604E-04-5.68854E-05-2.48499E-16
 -1      2119 4.31931E-03 2.08433E-04-8.82980E-15
 -1      2120 4.49991E-03 1.03570E-04-9.22857E-15
 -1      2121 3.96111E-03 3.94128E-04-7.93945E-15
 -1      2122 4.12207E-03 3.15528E-04-8.34109E-15
 -1      2123 3.62770E-03 4.96112E-04-7.08125E-15
 -1      2124 3.78065E-03 4.59286E-04-7.48349E-15
 -1      2125 3.29603E-03 4.91660E-04-6.22343E-15
 -1      2126 3.44941E-03 5.10903E-04-6.62174E-15
 -1      2127 2.92193E-03 3.62997E-04-5.42893E-15
 -1      2128 3.08519E-03 4.32416E-04-5.74486E-15
 -1      2129 2.55541E-03 1.86312E-04-4.84569E-15
 -1      2130 2.72624E-03 2.72921E-04-5.09499E-15
 -1      2131 2.21180E-03 2.20194E-05-4.44019E-15
 -1      2132 2.38485E-03 1.05688E-04-4.64094E-15
 -1      2133 2.49556E-03 1.43522E-04-4.59278E-15
 -1      2134 1.82965E-03-1.37874E-04-4.09199E-15
 -1      2135 1.98773E-03-7.30317E-05-4.23760E-15
 -1      2136 1.54727E-03-2.43605E-04-3.82632E-15
 -1      2137 1.67216E-03-2.01569E-04-3.93139E-15
 -1      2138 1.37342E-03-3.02161E-04-3.70758E-15
 -1      2139 1.43304E-03-2.83212E-04-3.73427E-15
 -1      2140 1.36831E-03-3.34069E-04-3.68574E-15
 -1      2141 1.35120E-03-3.21510E-04-3.69442E-15
 -1      2142 1.35335E-03-3.04881E-04-3.50561E-15
 -1      2143 1.55947E-03-4.09875E-04-3.89125E-15
 -1      2144 1.45391E-03-3.69906E-04-3.77463E-15
 -1      2145 1.86108E-03-5.16093E-04-4.08941E-15
 -1      2146 1.69472E-03-4.59031E-04-3.98791E-15
 -1      2147 1.63304E-03-4.02039E-04-3.75318E-15
 -1      2148 2.30512E-03-7.44749E-04-4.55912E-15
 -1      2149 2.10431E-03-6.30404E-04-4.31899E-15
 -1      2150 2.71986E-03-1.00812E-03-5.12539E-15
 -1      2151 2.51855E-03-8.80582E-04-4.85396E-15
 -1      2152 3.14613E-03-1.26599E-03-5.74383E-15
 -1      2153 2.93742E-03-1.13938E-03-5.42912E-15
 -1      2154 2.86053E-03-1.05810E-03-5.15561E-15
 -1      2155 3.57082E-03-1.49175E-03-6.63166E-15
 -1      2156 3.40263E-03-1.40930E-03-6.21836E-15
 -1      2157 3.89705E-03-1.55426E-03-7.48292E-15
 -1      2158 3.74801E-03-1.54083E-03-7.08548E-15
 -1      2159 4.21839E-03-1.49191E-03-8.31992E-15
 -1      2160 4.06963E-03-1.53527E-03-7.92958E-15
 -1      2161 4.55799E-03-1.33651E-03-9.16720E-15
 -1      2162 4.39897E-03-1.41952E-03-8.78391E-15
 -1      2163 4.92091E-03-1.13721E-03-9.92095E-15
 -1      2164 4.75262E-03-1.23361E-03-9.57311E-15
 -1      2165 5.27823E-03-9.37989E-04-1.06618E-14
 -1      2166 5.11153E-03-1.02706E-03-1.03571E-14
 -1      2167 5.61272E-03-7.82267E-04-1.11857E-14
 -1      2168 5.46399E-03-8.49867E-04-1.09456E-14
 -1      2169 5.85573E-03-6.80546E-04-1.16034E-14
 -1      2170 5.74397E-03-7.25403E-04-1.13930E-14
 -1      2171 5.66801E-03-7.41740E-04-1.16480E-14
 -1      2172 6.00665E-03-6.16301E-04-1.17806E-14
 -1      2173 5.96176E-03-6.36701E-04-1.17677E-14
 -1      2174 5.83652E-03-5.21734E-04-1.15821E-14
 -1      2175 5.93042E-03-5.50279E-04-1.17160E-14
 -1      2176 1.54037E-02-3.78155E-03-1.23981E-13
 -1      2177 4.99792E-03-2.02096E-04-1.04812E-14
 -1      2178 6.94965E-04-2.34168E-04-2.62255E-16
 -1      2179 5.41813E-03-3.96719E-04-1.12485E-14
 -1      2180 4.57873E-03 2.79202E-05-9.63610E-15
 -1      2181 7.43868E-04-2.19849E-04-3.46809E-16
 -1      2182 1.42219E-02-2.66400E-03-1.17721E-13
 -1      2183 5.97082E-03-5.81153E-04-1.22067E-14
 -1      2184 1.53627E-02-3.74637E-03-1.23728E-13
 -1      2185 5.76583E-03-5.24088E-04-1.18672E-14
 -1      2186 6.02249E-03-6.08193E-04-1.22402E-14
 -1      2187 5.91597E-03-6.50732E-04-1.20258E-14
 -1      2188 5.86114E-03-6.67160E-04-1.22845E-14
 -1      2189 5.96386E-03-6.37507E-04-1.24549E-14
 -1      2190 5.36205E-03-8.78398E-04-1.11437E-14
 -1      2191 5.00448E-03-1.07104E-03-1.04051E-14
 -1      2192 4.63955E-03-1.28532E-03-9.54919E-15
 -1      2193 4.30248E-03-1.46547E-03-8.66473E-15
 -1      2194 3.98768E-03-1.55966E-03-7.74622E-15
 -1      2195 3.30557E-03-1.34623E-03-5.91785E-15
 -1      2196 3.21208E-03-1.27272E-03-5.62473E-15
 -1      2197 3.42914E-03-1.41296E-03-6.09034E-15
 -1      2198 1.99711E-03-5.44849E-04-4.06152E-15
 -1      2199 1.89631E-03-4.78420E-04-3.81481E-15
 -1      2200 2.12420E-03-5.82188E-04-4.02972E-15
 -1      2201 1.39807E-03-3.32570E-04-3.57455E-15
 -1      2202 1.36019E-03-3.10312E-04-3.38151E-15
 -1      2203 1.44192E-03-3.28305E-04-3.46357E-15
 -1      2204 1.48236E-03-2.70391E-04-3.60679E-15
 -1      2205 2.12452E-03-3.34142E-05-4.19979E-15
 -1      2206 2.82795E-03 3.16748E-04-5.11144E-15
 -1      2207 3.19303E-03 4.72634E-04-5.90356E-15
 -1      2208 3.53064E-03 5.15023E-04-6.83646E-15
 -1      2209 4.19313E-03 2.57177E-04-8.70517E-15
 -1      2210 3.85024E-03 4.33066E-04-7.75419E-15
 -1      2211 1.75371E-03-1.84988E-04-3.84975E-15
 -1      2212 2.44618E-03-7.91009E-04-4.56979E-15
 -1      2213 3.67989E-03-1.53052E-03-6.84245E-15
 -1      2214 1.52178E-02-3.68811E-03-1.21935E-13
 -1      2215 4.57845E-04-5.54904E-05-3.58559E-16
 -1      2216 4.63140E-04-5.75864E-05-3.59549E-16
 -1      2217 4.72947E-04-6.05000E-05-3.59359E-16
 -1      2218 4.87039E-04-6.52332E-05-3.57990E-16
 -1      2219 5.60369E-04-7.51344E-05-4.86576E-16
 -1      2220 4.75644E-04-3.91159E-05-3.43340E-16
 -1      2221 4.66468E-04-4.57914E-05-3.48883E-16
 -1      2222 4.99562E-04-1.82611E-05-3.29923E-16
 -1      2223 4.87030E-04-2.99658E-05-3.37282E-16
 -1      2224 5.80371E-04-4.07182E-05-4.61545E-16
 -1      2225 5.25880E-04 1.23093E-05-3.11911E-16
 -1      2226 5.12719E-04-4.14789E-06-3.21737E-16
 -1      2227 6.12542E-04-1.11387E-05-4.43005E-16
 -1      2228 5.52043E-04 5.26479E-05-2.88113E-16
 -1      2229 5.39213E-04 3.14581E-05-3.00839E-16
 -1      2230 6.46355E-04 2.98722E-05-4.18245E-16
 -1      2231 5.76753E-04 1.01021E-04-2.57308E-16
 -1      2232 5.64572E-04 7.59387E-05-2.73883E-16
 -1      2233 6.78521E-04 8.10485E-05-3.86084E-16
 -1      2234 6.02058E-04 1.57283E-04-2.16868E-16
 -1      2235 5.89123E-04 1.28160E-04-2.38768E-16
 -1      2236 7.08657E-04 1.40449E-04-3.44681E-16
 -1      2237 6.33557E-04 2.23620E-04-1.62671E-16
 -1      2238 6.16662E-04 1.89040E-04-1.91904E-16
 -1      2239 7.40334E-04 2.07946E-04-2.90553E-16
 -1      2240 6.97053E-04 2.81457E-04-1.39401E-16
 -1      2241 6.64529E-04 2.50752E-04-1.53862E-16
 -1      2242 7.89784E-04 2.72692E-04-2.49448E-16
 -1      2243 8.57206E-04 3.31397E-04-2.26259E-16
 -1      2244 1.00973E-03-2.68076E-04-6.54167E-16
 -1      2245 1.17176E-03-3.07217E-04-8.56981E-16
 -1      2246 5.30950E-03-3.83344E-04-1.15048E-14
 -1      2247 5.50730E-03-4.61535E-04-1.18717E-14
 -1      2248 4.88007E-03-1.69466E-04-1.05812E-14
 -1      2249 5.07702E-03-2.73005E-04-1.09978E-14
 -1      2250 1.33484E-03-3.48084E-04-1.08846E-15
 -1      2251 1.49997E-03-3.92439E-04-1.34964E-15
 -1      2252 1.19583E-03-2.89230E-04-9.92804E-16
 -1      2253 1.66801E-03-4.42238E-04-1.64038E-15
 -1      2254 1.83951E-03-5.00223E-04-1.96140E-15
 -1      2255 1.51228E-03-3.72478E-04-1.51733E-15
 -1      2256 2.01666E-03-5.67817E-04-2.31156E-15
 -1      2257 2.19875E-03-6.48792E-04-2.69226E-15
 -1      2258 1.84342E-03-4.79681E-04-2.15766E-15
 -1      2259 2.38937E-03-7.43219E-04-3.10433E-15
 -1      2260 2.58486E-03-8.54766E-04-3.54844E-15
 -1      2261 2.20107E-03-6.30130E-04-2.91637E-15
 -1      2262 2.78993E-03-9.80622E-04-4.02595E-15
 -1      2263 2.99570E-03-1.11981E-03-4.53778E-15
 -1      2264 2.59620E-03-8.44302E-04-3.79788E-15
 -1      2265 3.24971E-03-1.29484E-03-5.29171E-15
 -1      2266 3.44507E-03-1.42147E-03-5.85935E-15
 -1      2267 3.64724E-03-1.52605E-03-6.49564E-15
 -1      2268 3.96278E-03-1.61546E-03-7.59896E-15
 -1      2269 4.15235E-03-1.59621E-03-8.34187E-15
 -1      2270 4.34411E-03-1.53270E-03-9.12399E-15
 -1      2271 4.54478E-03-1.44850E-03-9.94651E-15
 -1      2272 4.75200E-03-1.34868E-03-1.08055E-14
 -1      2273 4.95721E-03-1.25717E-03-1.17015E-14
 -1      2274 5.16181E-03-1.17801E-03-1.26325E-14
 -1      2275 5.35823E-03-1.11454E-03-1.35949E-14
 -1      2276 5.10072E-03-1.15072E-03-1.21549E-14
 -1      2277 5.54978E-03-1.06947E-03-1.45884E-14
 -1      2278 5.73273E-03-1.03989E-03-1.56117E-14
 -1      2279 5.49750E-03-1.03015E-03-1.40791E-14
 -1      2280 5.91036E-03-1.02600E-03-1.66641E-14
 -1      2281 6.08176E-03-1.02427E-03-1.77433E-14
 -1      2282 5.85782E-03-9.81105E-04-1.61224E-14
 -1      2283 6.24906E-03-1.03378E-03-1.88483E-14
 -1      2284 6.41248E-03-1.05191E-03-1.99804E-14
 -1      2285 6.19001E-03-9.85485E-04-1.82762E-14
 -1      2286 6.57306E-03-1.07739E-03-2.11381E-14
 -1      2287 6.73131E-03-1.10860E-03-2.23224E-14
 -1      2288 6.50502E-03-1.02633E-03-2.05340E-14
 -1      2289 6.88756E-03-1.14437E-03-2.35312E-14
 -1      2290 7.04233E-03-1.18370E-03-2.47633E-14
 -1      2291 6.81053E-03-1.09095E-03-2.28938E-14
 -1      2292 7.19562E-03-1.22570E-03-2.60181E-14
 -1      2293 7.34788E-03-1.26975E-03-2.72945E-14
 -1      2294 7.11082E-03-1.17046E-03-2.53502E-14
 -1      2295 7.49897E-03-1.31524E-03-2.85925E-14
 -1      2296 7.64928E-03-1.36180E-03-2.99121E-14
 -1      2297 7.40797E-03-1.25877E-03-2.78964E-14
 -1      2298 7.79864E-03-1.40903E-03-3.12507E-14
 -1      2299 7.94736E-03-1.45670E-03-3.26084E-14
 -1      2300 7.70296E-03-1.35184E-03-3.05266E-14
 -1      2301 8.09531E-03-1.50459E-03-3.39862E-14
 -1      2302 8.24273E-03-1.55254E-03-3.53829E-14
 -1      2303 7.99622E-03-1.44707E-03-3.32370E-14
 -1      2304 8.38953E-03-1.60045E-03-3.68004E-14
 -1      2305 8.53588E-03-1.64821E-03-3.82365E-14
 -1      2306 8.28802E-03-1.54286E-03-3.60269E-14
 -1      2307 8.68173E-03-1.69577E-03-3.96921E-14
 -1      2308 8.82722E-03-1.74310E-03-4.11682E-14
 -1      2309 8.57856E-03-1.63828E-03-3.88962E-14
 -1      2310 8.97231E-03-1.79015E-03-4.26645E-14
 -1      2311 9.11712E-03-1.83692E-03-4.41813E-14
 -1      2312 8.86803E-03-1.73285E-03-4.18443E-14
 -1      2313 9.26161E-03-1.88341E-03-4.57178E-14
 -1      2314 9.40588E-03-1.92961E-03-4.72739E-14
 -1      2315 9.15660E-03-1.82634E-03-4.48735E-14
 -1      2316 9.54991E-03-1.97553E-03-4.88507E-14
 -1      2317 9.69376E-03-2.02117E-03-5.04456E-14
 -1      2318 9.44444E-03-1.91870E-03-4.79828E-14
 -1      2319 9.83744E-03-2.06656E-03-5.20573E-14
 -1      2320 9.98098E-03-2.11170E-03-5.36879E-14
 -1      2321 9.73170E-03-2.00996E-03-5.11689E-14
 -1      2322 1.01244E-02-2.15662E-03-5.53354E-14
 -1      2323 1.02677E-02-2.20132E-03-5.70017E-14
 -1      2324 1.00185E-02-2.10022E-03-5.44240E-14
 -1      2325 1.04109E-02-2.24584E-03-5.86862E-14
 -1      2326 1.05541E-02-2.29016E-03-6.03855E-14
 -1      2327 1.03050E-02-2.18962E-03-5.77527E-14
 -1      2328 1.06971E-02-2.33433E-03-6.21010E-14
 -1      2329 1.08402E-02-2.37834E-03-6.38329E-14
 -1      2330 1.05912E-02-2.27826E-03-6.11496E-14
 -1      2331 1.09831E-02-2.42222E-03-6.55816E-14
 -1      2332 1.11261E-02-2.46598E-03-6.73467E-14
 -1      2333 1.08772E-02-2.36628E-03-6.46096E-14
 -1      2334 1.12690E-02-2.50963E-03-6.91247E-14
 -1      2335 1.14119E-02-2.55318E-03-7.09140E-14
 -1      2336 1.11631E-02-2.45379E-03-6.81312E-14
 -1      2337 1.15547E-02-2.59665E-03-7.27181E-14
 -1      2338 1.16976E-02-2.64003E-03-7.45400E-14
 -1      2339 1.14489E-02-2.54088E-03-7.17108E-14
 -1      2340 1.18404E-02-2.68335E-03-7.63729E-14
 -1      2341 1.19833E-02-2.72661E-03-7.82162E-14
 -1      2342 1.17346E-02-2.62765E-03-7.53460E-14
 -1      2343 1.21261E-02-2.76982E-03-8.00714E-14
 -1      2344 1.22689E-02-2.81298E-03-8.19384E-14
 -1      2345 1.20203E-02-2.71417E-03-7.90333E-14
 -1      2346 1.24117E-02-2.85611E-03-8.38131E-14
 -1      2347 1.25545E-02-2.89920E-03-8.56975E-14
 -1      2348 1.23060E-02-2.80049E-03-8.27585E-14
 -1      2349 1.26974E-02-2.94226E-03-8.75895E-14
 -1      2350 1.28402E-02-2.98529E-03-8.94901E-14
 -1      2351 1.25917E-02-2.88666E-03-8.65239E-14
 -1      2352 1.29830E-02-3.02831E-03-9.13959E-14
 -1      2353 1.31258E-02-3.07130E-03-9.33089E-14
 -1      2354 1.28773E-02-2.97273E-03-9.03183E-14
 -1      2355 1.32686E-02-3.11428E-03-9.52290E-14
 -1      2356 1.34115E-02-3.15725E-03-9.71510E-14
 -1      2357 1.31630E-02-3.05872E-03-9.41413E-14
 -1      2358 1.35543E-02-3.20021E-03-9.90783E-14
 -1      2359 1.36971E-02-3.24316E-03-1.01007E-13
 -1      2360 1.34487E-02-3.14466E-03-9.79813E-14
 -1      2361 1.38400E-02-3.28611E-03-1.02940E-13
 -1      2362 1.39828E-02-3.32905E-03-1.04876E-13
 -1      2363 1.37343E-02-3.23056E-03-1.01836E-13
 -1      2364 1.41256E-02-3.37199E-03-1.06817E-13
 -1      2365 1.42685E-02-3.41492E-03-1.08760E-13
 -1      2366 1.40200E-02-3.31644E-03-1.05709E-13
 -1      2367 1.44113E-02-3.45786E-03-1.10709E-13
 -1      2368 1.45542E-02-3.50079E-03-1.12661E-13
 -1      2369 1.43057E-02-3.40231E-03-1.09595E-13
 -1      2370 1.46970E-02-3.54372E-03-1.14614E-13
 -1      2371 1.48399E-02-3.58666E-03-1.16571E-13
 -1      2372 1.45914E-02-3.48818E-03-1.13494E-13
 -1      2373 1.49574E-02-3.61591E-03-1.18268E-13
 -1      2374 1.51003E-02-3.65885E-03-1.20233E-13
 -1      2375 1.50869E-02-3.61887E-03-1.20543E-13
 -1      2376 1.48518E-02-3.56036E-03-1.17146E-13
 -1      2377 2.21803E-03 6.33393E-04-2.26338E-15
 -1      2378 2.06446E-03 5.98476E-04-1.92434E-15
 -1      2379 1.90970E-03 5.62373E-04-1.61553E-15
 -1      2380 1.75433E-03 5.25727E-04-1.33594E-15
 -1      2381 1.97285E-03 5.37931E-04-1.84423E-15
 -1      2382 1.59814E-03 4.88634E-04-1.08538E-15
 -1      2383 1.44160E-03 4.51219E-04-8.63553E-16
 -1      2384 1.65729E-03 4.64625E-04-1.27491E-15
 -1      2385 2.52127E-03 6.96173E-04-3.03624E-15
 -1      2386 2.37045E-03 6.66383E-04-2.63397E-15
 -1      2387 2.28632E-03 6.09097E-04-2.53225E-15
 -1      2388 2.81787E-03 7.40847E-04-3.93853E-15
 -1      2389 2.67039E-03 7.21537E-04-3.47068E-15
 -1      2390 2.59494E-03 6.71274E-04-3.34533E-15
 -1      2391 3.10802E-03 7.55801E-04-4.97464E-15
 -1      2392 2.96349E-03 7.52760E-04-4.43928E-15
 -1      2393 2.89657E-03 7.12989E-04-4.28863E-15
 -1      2394 3.39447E-03 7.31889E-04-6.15025E-15
 -1      2395 3.25124E-03 7.49057E-04-5.54514E-15
 -1      2396 3.19152E-03 7.21317E-04-5.36757E-15
 -1      2397 3.68172E-03 6.66735E-04-7.46641E-15
 -1      2398 3.53750E-03 7.04277E-04-6.79094E-15
 -1      2399 3.48331E-03 6.87213E-04-6.58681E-15
 -1      2400 3.97389E-03 5.66160E-04-8.92232E-15
 -1      2401 3.82687E-03 6.20212E-04-8.17700E-15
 -1      2402 3.77719E-03 6.10215E-04-7.94749E-15
 -1      2403 4.27284E-03 4.41828E-04-1.05151E-14
 -1      2404 4.12248E-03 5.06108E-04-9.70101E-15
 -1      2405 4.07719E-03 4.99052E-04-9.44698E-15
 -1      2406 4.57783E-03 3.06825E-04-1.22385E-14
 -1      2407 4.42476E-03 3.74897E-04-1.13611E-14
 -1      2408 4.38409E-03 3.67667E-04-1.10813E-14
 -1      2409 4.88649E-03 1.71953E-04-1.40907E-14
 -1      2410 4.73196E-03 2.38863E-04-1.31490E-14
 -1      2411 4.69581E-03 2.29853E-04-1.28451E-14
 -1      2412 5.19624E-03 4.40099E-05-1.60624E-14
 -1      2413 5.04148E-03 1.06861E-04-1.50619E-14
 -1      2414 5.00909E-03 9.56547E-05-1.47346E-14
 -1      2415 5.50505E-03-7.39683E-05-1.81517E-14
 -1      2416 5.35095E-03-1.62844E-05-1.70927E-14
 -1      2417 5.32116E-03-2.94862E-05-1.67422E-14
 -1      2418 5.81167E-03-1.81669E-04-2.03532E-14
 -1      2419 5.65875E-03-1.29047E-04-1.92386E-14
 -1      2420 5.63030E-03-1.43829E-04-1.88636E-14
 -1      2421 6.11554E-03-2.80338E-04-2.26632E-14
 -1      2422 5.96401E-03-2.32025E-04-2.14949E-14
 -1      2423 5.93585E-03-2.47960E-04-2.10969E-14
 -1      2424 6.41653E-03-3.71876E-04-2.50765E-14
 -1      2425 6.26641E-03-3.26879E-04-2.38570E-14
 -1      2426 6.23782E-03-3.43597E-04-2.34369E-14
 -1      2427 6.71480E-03-4.58263E-04-2.75902E-14
 -1      2428 6.56600E-03-4.15604E-04-2.63224E-14
 -1      2429 6.53654E-03-4.32804E-04-2.58795E-14
 -1      2430 7.01060E-03-5.41256E-04-3.01983E-14
 -1      2431 6.86298E-03-5.00094E-04-2.88828E-14
 -1      2432 6.83251E-03-5.17541E-04-2.84210E-14
 -1      2433 7.30427E-03-6.22269E-04-3.28935E-14
 -1      2434 7.15768E-03-5.81941E-04-3.15349E-14
 -1      2435 7.12620E-03-5.99459E-04-3.10531E-14
 -1      2436 7.59615E-03-7.02351E-04-3.56764E-14
 -1      2437 7.45041E-03-6.62377E-04-3.42747E-14
 -1      2438 7.41805E-03-6.79841E-04-3.37730E-14
 -1      2439 7.88653E-03-7.82235E-04-3.85450E-14
 -1      2440 7.74150E-03-7.42285E-04-3.71007E-14
 -1      2441 7.70841E-03-7.59614E-04-3.65808E-14
 -1      2442 8.17572E-03-8.62389E-04-4.15013E-14
 -1      2443 8.03125E-03-8.22258E-04-4.00117E-14
 -1      2444 7.99761E-03-8.39405E-04-3.94737E-14
 -1      2445 8.46396E-03-9.43085E-04-4.45453E-14
 -1      2446 8.31994E-03-9.02658E-04-4.30128E-14
 -1      2447 8.28589E-03-9.19603E-04-4.24533E-14
 -1      2448 8.75145E-03-1.02445E-03-4.76712E-14
 -1      2449 8.60778E-03-9.83680E-04-4.60971E-14
 -1      2450 8.57346E-03-1.00042E-03-4.55183E-14
 -1      2451 9.03839E-03-1.10652E-03-5.08791E-14
 -1      2452 8.89498E-03-1.06540E-03-4.92661E-14
 -1      2453 8.86048E-03-1.08195E-03-4.86662E-14
 -1      2454 9.32491E-03-1.18927E-03-5.41640E-14
 -1      2455 9.18169E-03-1.14781E-03-5.25110E-14
 -1      2456 9.14710E-03-1.16419E-03-5.18930E-14
 -1      2457 9.61112E-03-1.27263E-03-5.75255E-14
 -1      2458 9.46804E-03-1.23088E-03-5.58358E-14
 -1      2459 9.43341E-03-1.24710E-03-5.51969E-14
 -1      2460 9.89711E-03-1.35653E-03-6.09547E-14
 -1      2461 9.75413E-03-1.31452E-03-5.92317E-14
 -1      2462 9.71951E-03-1.33061E-03-5.85758E-14
 -1      2463 1.01830E-02-1.44088E-03-6.44474E-14
 -1      2464 1.00400E-02-1.39865E-03-6.26937E-14
 -1      2465 1.00054E-02-1.41464E-03-6.20205E-14
 -1      2466 1.04687E-02-1.52560E-03-6.79945E-14
 -1      2467 1.03258E-02-1.48320E-03-6.62140E-14
 -1      2468 1.02913E-02-1.49910E-03-6.55263E-14
 -1      2469 1.07544E-02-1.61063E-03-7.15937E-14
 -1      2470 1.06115E-02-1.56808E-03-6.97879E-14
 -1      2471 1.05770E-02-1.58391E-03-6.90856E-14
 -1      2472 1.10400E-02-1.69588E-03-7.52381E-14
 -1      2473 1.08972E-02-1.65323E-03-7.34101E-14
 -1      2474 1.08627E-02-1.66901E-03-7.26942E-14
 -1      2475 1.13257E-02-1.78132E-03-7.89274E-14
 -1      2476 1.11828E-02-1.73858E-03-7.70771E-14
 -1      2477 1.11484E-02-1.75432E-03-7.63482E-14
 -1      2478 1.16113E-02-1.86690E-03-8.26528E-14
 -1      2479 1.14685E-02-1.82410E-03-8.07860E-14
 -1      2480 1.14341E-02-1.83981E-03-8.00462E-14
 -1      2481 1.18969E-02-1.95258E-03-8.64124E-14
 -1      2482 1.17541E-02-1.90973E-03-8.45281E-14
 -1      2483 1.17197E-02-1.92542E-03-8.37802E-14
 -1      2484 1.21826E-02-2.03833E-03-9.02069E-14
 -1      2485 1.20397E-02-1.99545E-03-8.83053E-14
 -1      2486 1.20054E-02-2.01112E-03-8.75484E-14
 -1      2487 1.24682E-02-2.12414E-03-9.40327E-14
 -1      2488 1.23254E-02-2.08123E-03-9.21163E-14
 -1      2489 1.22911E-02-2.09689E-03-9.13486E-14
 -1      2490 1.27539E-02-2.20997E-03-9.78838E-14
 -1      2491 1.26110E-02-2.16705E-03-9.59568E-14
 -1      2492 1.25767E-02-2.18270E-03-9.51810E-14
 -1      2493 1.30395E-02-2.29583E-03-1.01762E-13
 -1      2494 1.28967E-02-2.25290E-03-9.98203E-14
 -1      2495 1.28624E-02-2.26855E-03-9.90386E-14
 -1      2496 1.33252E-02-2.38169E-03-1.05645E-13
 -1      2497 1.31824E-02-2.33876E-03-1.03701E-13
 -1      2498 1.31481E-02-2.35441E-03-1.02914E-13
 -1      2499 1.36109E-02-2.46756E-03-1.09538E-13
 -1      2500 1.34681E-02-2.42462E-03-1.07590E-13
 -1      2501 1.34338E-02-2.44027E-03-1.06796E-13
 -1      2502 1.38966E-02-2.55342E-03-1.13438E-13
 -1      2503 1.37538E-02-2.51049E-03-1.11488E-13
 -1      2504 1.37195E-02-2.52614E-03-1.10691E-13
 -1      2505 1.41047E-02-2.63060E-03-1.16096E-13
 -1      2506 1.43854E-02-2.91670E-03-1.17374E-13
 -1      2507 1.43432E-02-2.87454E-03-1.17169E-13
 -1      2508 1.43018E-02-2.83309E-03-1.16970E-13
 -1      2509 1.42603E-02-2.79165E-03-1.16770E-13
 -1      2510 1.41991E-02-2.81700E-03-1.15381E-13
 -1      2511 1.42181E-02-2.74950E-03-1.16566E-13
 -1      2512 1.41759E-02-2.70735E-03-1.16363E-13
 -1      2513 1.41155E-02-2.73340E-03-1.14977E-13
 -1      2514 5.94731E-03-5.92450E-04-1.26937E-14
 -1      2515 6.00966E-03-6.02783E-04-1.27743E-14
 -1      2516 1.44698E-02-3.00102E-03-1.17774E-13
 -1      2517 1.44276E-02-2.95886E-03-1.17575E-13
 -1      2518 1.42828E-02-2.90060E-03-1.15782E-13
 -1      2519 1.45542E-02-3.08535E-03-1.18177E-13
 -1      2520 1.45120E-02-3.04319E-03-1.17977E-13
 -1      2521 1.43672E-02-2.98493E-03-1.16185E-13
 -1      2522 1.46386E-02-3.16969E-03-1.18577E-13
 -1      2523 1.45964E-02-3.12752E-03-1.18377E-13
 -1      2524 1.44516E-02-3.06926E-03-1.16587E-13
 -1      2525 1.47231E-02-3.25402E-03-1.18969E-13
 -1      2526 1.46809E-02-3.21185E-03-1.18773E-13
 -1      2527 1.45360E-02-3.15359E-03-1.16982E-13
 -1      2528 1.48061E-02-3.33692E-03-1.19346E-13
 -1      2529 1.47646E-02-3.29547E-03-1.19160E-13
 -1      2530 1.46198E-02-3.23720E-03-1.17366E-13
 -1      2531 1.48906E-02-3.42124E-03-1.19724E-13
 -1      2532 1.48484E-02-3.37908E-03-1.19536E-13
 -1      2533 1.47035E-02-3.32081E-03-1.17744E-13
 -1      2534 1.49751E-02-3.50555E-03-1.20088E-13
 -1      2535 1.49329E-02-3.46340E-03-1.19906E-13
 -1      2536 1.47880E-02-3.40513E-03-1.18115E-13
 -1      2537 1.50522E-02-3.58329E-03-1.20405E-13
 -1      2538 1.50099E-02-3.54114E-03-1.20223E-13
 -1      2539 1.48651E-02-3.48287E-03-1.18434E-13
 -1      2540 1.49346E-02-3.55404E-03-1.18707E-13
 -1      2541 6.38481E-04-1.64360E-04-3.16113E-16
 -1      2542 8.55532E-04-2.25421E-04-4.99844E-16
 -1      2543 8.91882E-04-2.11988E-04-6.03860E-16
 -1      2544 6.06495E-04-1.35527E-04-3.31590E-16
 -1      2545 4.47577E-03 6.54971E-05-9.67054E-15
 -1      2546 4.66843E-03-5.10087E-05-1.01134E-14
 -1      2547 6.03659E-03-6.13916E-04-1.27949E-14
 -1      2548 6.02463E-03-6.20029E-04-1.27506E-14
 -1      2549 5.45862E-03-8.27087E-04-1.17014E-14
 -1      2550 5.29478E-03-9.07703E-04-1.14023E-14
 -1      2551 1.42253E-03-2.75462E-04-3.30694E-15
 -1      2552 1.52801E-03-2.54413E-04-3.39151E-15
 -1      2553 2.73908E-03 2.76336E-04-4.78824E-15
 -1      2554 2.89968E-03 3.62234E-04-5.10469E-15
 -1      2555 4.59906E-04-5.03756E-05-3.53206E-16
 -1      2556 4.56921E-04-5.33886E-05-3.56418E-16
 -1      2557 5.47534E-04-6.81900E-05-4.83798E-16
 -1      2558 5.56084E-04-5.88447E-05-4.75206E-16
 -1      2559 3.76395E-03 4.65699E-04-7.58158E-15
 -1      2560 3.90906E-03 4.00692E-04-8.04071E-15
 -1      2561 1.68890E-03-2.10370E-04-3.60578E-15
 -1      2562 1.83825E-03-1.60102E-04-3.75608E-15
 -1      2563 4.07690E-03 3.10157E-04-8.57344E-15
 -1      2564 4.24303E-03 2.05961E-04-9.07076E-15
 -1      2565 3.46945E-03 5.24997E-04-6.64543E-15
 -1      2566 3.61133E-03 5.08845E-04-7.10532E-15
 -1      2567 3.10060E-03 4.48451E-04-5.57673E-15
 -1      2568 3.27105E-03 5.05045E-04-6.04258E-15
 -1      2569 2.40188E-03 9.65429E-05-4.27917E-15
 -1      2570 2.54353E-03 1.73471E-04-4.46824E-15
 -1      2571 2.59031E-03-8.47870E-04-4.56110E-15
 -1      2572 2.39192E-03-7.22937E-04-4.28069E-15
 -1      2573 2.01721E-03-8.79647E-05-3.90384E-15
 -1      2574 2.21379E-03 2.03884E-06-4.08969E-15
 -1      2575 2.26892E-03 4.31924E-05-3.97306E-15
 -1      2576 1.33690E-03-2.97458E-04-3.32119E-15
 -1      2577 1.35817E-03-2.93984E-04-3.33450E-15
 -1      2578 1.68815E-03-3.93517E-04-3.59328E-15
 -1      2579 1.56362E-03-3.57271E-04-3.50778E-15
 -1      2580 2.96460E-03-1.10080E-03-5.12479E-15
 -1      2581 2.77923E-03-9.72930E-04-4.83612E-15
 -1      2582 2.69309E-03-9.01257E-04-4.52936E-15
 -1      2583 4.08148E-03-1.56455E-03-8.08601E-15
 -1      2584 3.95170E-03-1.58429E-03-7.63197E-15
 -1      2585 4.73426E-03-1.22907E-03-1.00265E-14
 -1      2586 4.57316E-03-1.33016E-03-9.60554E-15
 -1      2587 5.07582E-03-1.02638E-03-1.09211E-14
 -1      2588 4.90330E-03-1.12788E-03-1.04698E-14
 -1      2589 4.83441E-03-1.18379E-03-1.05266E-14
 -1      2590 5.73395E-03-7.12895E-04-1.21783E-14
 -1      2591 5.61159E-03-7.59449E-04-1.19608E-14
 -1      2592 5.69103E-03-5.25724E-04-1.22301E-14
 -1      2593 5.82536E-03-5.62521E-04-1.24965E-14
 -1      2594 1.40704E-02-2.64626E-03-1.15295E-13
 -1      2595 5.95823E-04-8.79002E-05-4.82917E-16
 -1      2596 5.05246E-04-7.25436E-05-3.55144E-16
 -1      2597 5.26857E-04-8.33448E-05-3.50292E-16
 -1      2598 4.35141E-03 1.33394E-04-9.52663E-15
 -1      2599 9.81654E-04 3.62294E-04-3.21317E-16
 -1      2600 9.46903E-04 3.32042E-04-3.34517E-16
 -1      2601 1.10565E-03 3.90648E-04-4.34589E-16
 -1      2602 5.20046E-03-3.44504E-04-1.16047E-14
 -1      2603 5.60149E-03-5.07092E-04-1.24913E-14
 -1      2604 5.19996E-03-9.69874E-04-1.14677E-14
 -1      2605 3.06491E-03-1.16089E-03-5.00820E-15
 -1      2606 4.67326E-03-1.34539E-03-1.03640E-14
 -1      2607 6.04113E-03-6.19162E-04-1.32874E-14
 -1      2608 5.90009E-03-5.90569E-04-1.30625E-14
 -1      2609 5.55134E-03-7.94678E-04-1.22263E-14
 -1      2610 3.10594E-03-1.19278E-03-5.28141E-15
 -1      2611 5.76712E-04-1.12459E-04-3.43001E-16
 -1      2612 3.98225E-03 3.57452E-04-8.38598E-15
 -1      2613 1.33520E-03 4.34667E-04-7.07117E-16
 -1      2614 1.21201E-03 4.09286E-04-5.57537E-16
 -1      2615 1.17777E-03 3.78702E-04-5.70765E-16
 -1      2616 1.39183E-03 4.12156E-04-8.63160E-16
 -1      2617 1.79162E-03-4.19681E-04-3.56031E-15
 -1      2618 1.69694E-03-3.76430E-04-3.31598E-15
 -1      2619 1.89418E-03-4.52919E-04-3.52494E-15
 -1      2620 1.92277E-03-1.18195E-04-3.65166E-15
 -1      2621 1.39678E-02-2.63016E-03-1.13706E-13
 -1      2622 6.00678E-03-6.33567E-04-1.30097E-14
 -1      2623 1.58808E-03-2.28187E-04-3.29993E-15
 -1      2624 1.37499E-03-2.72706E-04-3.12421E-15
 -1      2625 2.99065E-03 4.16648E-04-5.22900E-15
 -1      2626 3.36113E-03 5.25379E-04-6.28967E-15
 -1      2627 3.43744E-03 5.32413E-04-6.53945E-15
 -1      2628 3.26052E-03 5.15372E-04-5.94343E-15
 -1      2629 2.26308E-03-6.38703E-04-4.01937E-15
 -1      2630 2.13932E-03-5.67622E-04-3.76821E-15
 -1      2631 2.38360E-03-7.00372E-04-4.00424E-15
 -1      2632 1.47908E-03-3.24325E-04-3.31007E-15
 -1      2633 2.62289E-03 2.32998E-04-4.45942E-15
 -1      2634 4.77317E-03-1.21975E-04-1.06139E-14
 -1      2635 4.25030E-03-1.53978E-03-8.72223E-15
 -1      2636 3.68336E-03 4.90253E-04-7.37447E-15
 -1      2637 1.33354E-03-2.94061E-04-3.20930E-15
 -1      2638 1.31583E-03-2.81186E-04-3.04158E-15
 -1      2639 1.34403E-03-2.87711E-04-3.09866E-15
 -1      2640 3.78489E-03-1.56642E-03-7.09974E-15
 -1      2641 3.64320E-03-1.51941E-03-6.64377E-15
 -1      2642 4.52669E-03-1.36808E-03-9.57459E-15
 -1      2643 4.41401E-03-1.41750E-03-9.11370E-15
 -1      2644 4.26314E-03-1.49305E-03-8.63689E-15
 -1      2645 5.81787E-03-6.89192E-04-1.26032E-14
 -1      2646 3.89949E-03-1.59251E-03-7.41627E-15
 -1      2647 7.31706E-04 2.42449E-07-5.72621E-16
 -1      2648 7.10955E-04-2.11017E-05-5.85957E-16
 -1      2649 6.90278E-04-3.95558E-05-5.97395E-16
 -1      2650 6.71583E-04-5.44404E-05-6.07370E-16
 -1      2651 8.06484E-04-3.44205E-05-7.50458E-16
 -1      2652 8.10687E-04 1.14681E-04-4.98286E-16
 -1      2653 7.92360E-04 8.26139E-05-5.20620E-16
 -1      2654 8.45814E-04 1.84549E-04-4.44929E-16
 -1      2655 8.28444E-04 1.48749E-04-4.73444E-16
 -1      2656 9.47923E-04 1.53427E-04-6.24772E-16
 -1      2657 9.13603E-04 3.02662E-04-3.45454E-16
 -1      2658 8.81723E-04 2.74077E-04-3.53951E-16
 -1      2659 1.03749E-03 3.30421E-04-4.59404E-16
 -1      2660 4.26275E-03 1.87314E-04-9.48741E-15
 -1      2661 4.46564E-03 5.73855E-05-1.01044E-14
 -1      2662 5.52600E-03-4.87644E-04-1.27758E-14
 -1      2663 5.69413E-03-5.43386E-04-1.31504E-14
 -1      2664 5.32969E-03-9.23675E-04-1.21541E-14
 -1      2665 5.13754E-03-1.02956E-03-1.16531E-14
 -1      2666 1.36360E-03-3.10821E-04-1.39582E-15
 -1      2667 1.51652E-03-3.53003E-04-1.68753E-15
 -1      2668 1.67346E-03-4.00488E-04-2.00716E-15
 -1      2669 1.83647E-03-4.57307E-04-2.35521E-15
 -1      2670 1.51219E-03-3.32998E-04-1.85998E-15
 -1      2671 2.00827E-03-5.23616E-04-2.73184E-15
 -1      2672 2.18991E-03-6.06944E-04-3.13828E-15
 -1      2673 1.81846E-03-4.31697E-04-2.55316E-15
 -1      2674 3.82238E-03-1.59600E-03-7.06893E-15
 -1      2675 8.05615E-04-1.71988E-04-5.69233E-16
 -1      2676 9.45792E-04-2.08044E-04-7.34682E-16
 -1      2677 5.46152E-03-9.82624E-04-1.35710E-14
 -1      2678 5.64509E-03-9.47346E-04-1.45629E-14
 -1      2679 5.81894E-03-9.31086E-04-1.55831E-14
 -1      2680 5.98351E-03-9.26893E-04-1.66316E-14
 -1      2681 5.79127E-03-8.77949E-04-1.50476E-14
 -1      2682 6.14166E-03-9.34846E-04-1.77064E-14
 -1      2683 6.29512E-03-9.50889E-04-1.88064E-14
 -1      2684 6.10257E-03-8.83688E-04-1.71396E-14
 -1      2685 6.44518E-03-9.74465E-04-1.99328E-14
 -1      2686 6.59322E-03-1.00354E-03-2.10841E-14
 -1      2687 6.39278E-03-9.23944E-04-1.93357E-14
 -1      2688 6.73966E-03-1.03732E-03-2.22604E-14
 -1      2689 6.88540E-03-1.07474E-03-2.34620E-14
 -1      2690 6.67485E-03-9.85809E-04-2.16321E-14
 -1      2691 7.03046E-03-1.11503E-03-2.46853E-14
 -1      2692 7.17537E-03-1.15760E-03-2.59319E-14
 -1      2693 6.95507E-03-1.06183E-03-2.40251E-14
 -1      2694 7.31997E-03-1.20183E-03-2.72020E-14
 -1      2695 7.46461E-03-1.24739E-03-2.84921E-14
 -1      2696 7.23603E-03-1.14692E-03-2.65117E-14
 -1      2697 7.60906E-03-1.29382E-03-2.98042E-14
 -1      2698 7.75357E-03-1.34090E-03-3.11360E-14
 -1      2699 7.51845E-03-1.23747E-03-2.90857E-14
 -1      2700 7.89792E-03-1.38835E-03-3.24874E-14
 -1      2701 8.04229E-03-1.43604E-03-3.38608E-14
 -1      2702 7.80224E-03-1.33097E-03-3.17426E-14
 -1      2703 8.18652E-03-1.48377E-03-3.52515E-14
 -1      2704 8.33072E-03-1.53148E-03-3.66644E-14
 -1      2705 8.08707E-03-1.42571E-03-3.44809E-14
 -1      2706 8.47477E-03-1.57906E-03-3.80980E-14
 -1      2707 8.61878E-03-1.62646E-03-3.95493E-14
 -1      2708 8.37258E-03-1.52059E-03-3.72999E-14
 -1      2709 8.76265E-03-1.67363E-03-4.10194E-14
 -1      2710 8.90645E-03-1.72055E-03-4.25122E-14
 -1      2711 8.65847E-03-1.61496E-03-4.01999E-14
 -1      2712 9.05013E-03-1.76721E-03-4.40256E-14
 -1      2713 9.19374E-03-1.81359E-03-4.55583E-14
 -1      2714 8.94456E-03-1.70848E-03-4.31796E-14
 -1      2715 9.33724E-03-1.85970E-03-4.71131E-14
 -1      2716 9.48068E-03-1.90554E-03-4.86855E-14
 -1      2717 9.23071E-03-1.80099E-03-4.62436E-14
 -1      2718 9.62403E-03-1.95112E-03-5.02738E-14
 -1      2719 9.76732E-03-1.99644E-03-5.18820E-14
 -1      2720 9.51684E-03-1.89248E-03-4.93829E-14
 -1      2721 9.91054E-03-2.04154E-03-5.35093E-14
 -1      2722 1.00537E-02-2.08640E-03-5.51533E-14
 -1      2723 9.80292E-03-1.98299E-03-5.25959E-14
 -1      2724 1.01968E-02-2.13107E-03-5.68177E-14
 -1      2725 1.03399E-02-2.17554E-03-5.84982E-14
 -1      2726 1.00889E-02-2.07261E-03-5.58824E-14
 -1      2727 1.04829E-02-2.21984E-03-6.01921E-14
 -1      2728 1.06260E-02-2.26397E-03-6.19035E-14
 -1      2729 1.03749E-02-2.16148E-03-5.92369E-14
 -1      2730 1.07689E-02-2.30796E-03-6.36321E-14
 -1      2731 1.09119E-02-2.35182E-03-6.53762E-14
 -1      2732 1.06608E-02-2.24969E-03-6.26582E-14
 -1      2733 1.10548E-02-2.39556E-03-6.71348E-14
 -1      2734 1.11977E-02-2.43919E-03-6.89097E-14
 -1      2735 1.09466E-02-2.33735E-03-6.61412E-14
 -1      2736 1.13406E-02-2.48273E-03-7.06964E-14
 -1      2737 1.14835E-02-2.52618E-03-7.24980E-14
 -1      2738 1.12324E-02-2.42458E-03-6.96843E-14
 -1      2739 1.16264E-02-2.56955E-03-7.43132E-14
 -1      2740 1.17693E-02-2.61286E-03-7.61441E-14
 -1      2741 1.15182E-02-2.51146E-03-7.32835E-14
 -1      2742 1.19121E-02-2.65611E-03-7.79845E-14
 -1      2743 1.20550E-02-2.69931E-03-7.98355E-14
 -1      2744 1.18040E-02-2.59806E-03-7.69378E-14
 -1      2745 1.21978E-02-2.74247E-03-8.17003E-14
 -1      2746 1.23407E-02-2.78559E-03-8.35713E-14
 -1      2747 1.20897E-02-2.68445E-03-8.06389E-14
 -1      2748 1.24835E-02-2.82867E-03-8.54501E-14
 -1      2749 1.26264E-02-2.87173E-03-8.73384E-14
 -1      2750 1.23754E-02-2.77068E-03-8.43787E-14
 -1      2751 1.27692E-02-2.91476E-03-8.92349E-14
 -1      2752 1.29121E-02-2.95777E-03-9.11365E-14
 -1      2753 1.26611E-02-2.85678E-03-8.81498E-14
 -1      2754 1.30549E-02-3.00076E-03-9.30466E-14
 -1      2755 1.31978E-02-3.04374E-03-9.49616E-14
 -1      2756 1.29468E-02-2.94280E-03-9.19529E-14
 -1      2757 1.33406E-02-3.08671E-03-9.68793E-14
 -1      2758 1.34835E-02-3.12967E-03-9.88020E-14
 -1      2759 1.32326E-02-3.02876E-03-9.57784E-14
 -1      2760 1.36263E-02-3.17262E-03-1.00730E-13
 -1      2761 1.37692E-02-3.21556E-03-1.02659E-13
 -1      2762 1.35183E-02-3.11467E-03-9.96202E-14
 -1      2763 1.39120E-02-3.25850E-03-1.04593E-13
 -1      2764 1.40549E-02-3.30144E-03-1.06530E-13
 -1      2765 1.38040E-02-3.20056E-03-1.03480E-13
 -1      2766 1.41977E-02-3.34437E-03-1.08470E-13
 -1      2767 1.43406E-02-3.38730E-03-1.10415E-13
 -1      2768 1.40897E-02-3.28643E-03-1.07349E-13
 -1      2769 1.44834E-02-3.43024E-03-1.12365E-13
 -1      2770 1.46263E-02-3.47317E-03-1.14319E-13
 -1      2771 1.43754E-02-3.37229E-03-1.11235E-13
 -1      2772 1.47217E-02-3.49898E-03-1.15662E-13
 -1      2773 1.48392E-02-3.52823E-03-1.17358E-13
 -1      2774 1.48044E-02-3.49265E-03-1.17220E-13
 -1      2775 1.46137E-02-3.44103E-03-1.14527E-13
 -1      2776 2.03918E-03 5.12032E-04-2.07890E-15
 -1      2777 1.87908E-03 4.75381E-04-1.76046E-15
 -1      2778 2.35835E-03 5.83944E-04-2.80671E-15
 -1      2779 2.19921E-03 5.48570E-04-2.42772E-15
 -1      2780 2.10822E-03 4.85223E-04-2.32021E-15
 -1      2781 1.71891E-03 4.38954E-04-1.47110E-15
 -1      2782 1.55943E-03 4.02917E-04-1.20990E-15
 -1      2783 1.78265E-03 4.11763E-04-1.67391E-15
 -1      2784 2.97905E-03 6.85490E-04-4.64399E-15
 -1      2785 2.82679E-03 6.69920E-04-4.13515E-15
 -1      2786 3.27821E-03 6.86656E-04-5.76623E-15
 -1      2787 3.12909E-03 6.91674E-04-5.18764E-15
 -1      2788 3.06396E-03 6.58506E-04-5.00488E-15
 -1      2789 3.57489E-03 6.40960E-04-7.02955E-15
 -1      2790 3.42617E-03 6.69796E-04-6.38014E-15
 -1      2791 3.36704E-03 6.50998E-04-6.16992E-15
 -1      2792 3.87541E-03 5.50665E-04-8.43454E-15
 -1      2793 3.72413E-03 6.00711E-04-7.71442E-15
 -1      2794 3.66905E-03 5.91611E-04-7.47747E-15
 -1      2795 4.18351E-03 4.28231E-04-9.97698E-15
 -1      2796 4.02839E-03 4.92311E-04-9.18852E-15
 -1      2797 3.97723E-03 4.86557E-04-8.92632E-15
 -1      2798 4.49849E-03 2.90142E-04-1.16525E-14
 -1      2799 4.34039E-03 3.60055E-04-1.07982E-14
 -1      2800 4.29423E-03 3.52913E-04-1.05121E-14
 -1      2801 4.81658E-03 1.50617E-04-1.34572E-14
 -1      2802 4.65752E-03 2.19882E-04-1.25397E-14
 -1      2803 4.61729E-03 2.09425E-04-1.22295E-14
 -1      2804 5.13380E-03 1.82835E-05-1.53824E-14
 -1      2805 4.97562E-03 8.32213E-05-1.44041E-14
 -1      2806 4.94107E-03 6.97425E-05-1.40729E-14
 -1      2807 5.44741E-03-1.03086E-04-1.74256E-14
 -1      2808 5.29127E-03-4.38215E-05-1.63905E-14
 -1      2809 5.26117E-03-5.93491E-05-1.60363E-14
 -1      2810 5.75622E-03-2.13172E-04-1.95802E-14
 -1      2811 5.60251E-03-1.59447E-04-1.84887E-14
 -1      2812 5.57525E-03-1.76067E-04-1.81136E-14
 -1      2813 6.06022E-03-3.13424E-04-2.18451E-14
 -1      2814 5.90884E-03-2.64385E-04-2.06992E-14
 -1      2815 5.88287E-03-2.81475E-04-2.03014E-14
 -1      2816 6.36000E-03-4.05942E-04-2.42139E-14
 -1      2817 6.21062E-03-3.60504E-04-2.30169E-14
 -1      2818 6.18475E-03-3.77739E-04-2.25967E-14
 -1      2819 6.65634E-03-4.92862E-04-2.66859E-14
 -1      2820 6.50857E-03-4.49974E-04-2.54366E-14
 -1      2821 6.48202E-03-4.67206E-04-2.49948E-14
 -1      2822 6.95000E-03-5.76060E-04-2.92528E-14
 -1      2823 6.80347E-03-5.34825E-04-2.79581E-14
 -1      2824 6.77582E-03-5.51992E-04-2.74941E-14
 -1      2825 7.24162E-03-6.57038E-04-3.19096E-14
 -1      2826 7.09603E-03-6.16750E-04-3.05700E-14
 -1      2827 7.06714E-03-6.33826E-04-3.00865E-14
 -1      2828 7.53169E-03-7.36923E-04-3.46552E-14
 -1      2829 7.38681E-03-6.97063E-04-3.32719E-14
 -1      2830 7.35671E-03-7.14032E-04-3.27700E-14
 -1      2831 7.82061E-03-8.16506E-04-3.74866E-14
 -1      2832 7.67626E-03-7.76716E-04-3.60598E-14
 -1      2833 7.64508E-03-7.93566E-04-3.55400E-14
 -1      2834 8.10866E-03-8.96305E-04-4.04025E-14
 -1      2835 7.96472E-03-8.56356E-04-3.89334E-14
 -1      2836 7.93262E-03-8.73079E-04-3.83932E-14
 -1      2837 8.39608E-03-9.76628E-04-4.34054E-14
 -1      2838 8.25243E-03-9.36389E-04-4.18933E-14
 -1      2839 8.21961E-03-9.52980E-04-4.13341E-14
 -1      2840 8.68300E-03-1.05763E-03-4.64923E-14
 -1      2841 8.53959E-03-1.01704E-03-4.49390E-14
 -1      2842 8.50620E-03-1.03350E-03-4.43592E-14
 -1      2843 8.96958E-03-1.13936E-03-4.96628E-14
 -1      2844 8.82632E-03-1.09841E-03-4.80667E-14
 -1      2845 8.79253E-03-1.11474E-03-4.74687E-14
 -1      2846 9.25588E-03-1.22181E-03-5.29084E-14
 -1      2847 9.11275E-03-1.18050E-03-5.12766E-14
 -1      2848 9.07867E-03-1.19672E-03-5.06593E-14
 -1      2849 9.54199E-03-1.30491E-03-5.62317E-14
 -1      2850 9.39895E-03-1.26328E-03-5.45604E-14
 -1      2851 9.36469E-03-1.27940E-03-5.39257E-14
 -1      2852 9.82796E-03-1.38859E-03-5.96262E-14
 -1      2853 9.68499E-03-1.34668E-03-5.79210E-14
 -1      2854 9.65060E-03-1.36270E-03-5.72669E-14
 -1      2855 1.01138E-02-1.47275E-03-6.30873E-14
 -1      2856 9.97091E-03-1.43061E-03-6.13492E-14
 -1      2857 9.93646E-03-1.44656E-03-6.06789E-14
 -1      2858 1.03996E-02-1.55733E-03-6.66052E-14
 -1      2859 1.02567E-02-1.51500E-03-6.48394E-14
 -1      2860 1.02223E-02-1.53087E-03-6.41542E-14
 -1      2861 1.06854E-02-1.64224E-03-7.01753E-14
 -1      2862 1.05425E-02-1.59975E-03-6.83836E-14
 -1      2863 1.05080E-02-1.61557E-03-6.76837E-14
 -1      2864 1.09711E-02-1.72740E-03-7.37963E-14
 -1      2865 1.08282E-02-1.68479E-03-7.19802E-14
 -1      2866 1.07938E-02-1.70057E-03-7.12662E-14
 -1      2867 1.12568E-02-1.81277E-03-7.74600E-14
 -1      2868 1.11140E-02-1.77007E-03-7.56223E-14
 -1      2869 1.10795E-02-1.78581E-03-7.48978E-14
 -1      2870 1.15425E-02-1.89830E-03-8.11668E-14
 -1      2871 1.13997E-02-1.85552E-03-7.93087E-14
 -1      2872 1.13652E-02-1.87124E-03-7.85725E-14
 -1      2873 1.18282E-02-1.98394E-03-8.49090E-14
 -1      2874 1.16853E-02-1.94111E-03-8.30335E-14
 -1      2875 1.16509E-02-1.95680E-03-8.22883E-14
 -1      2876 1.21139E-02-2.06967E-03-8.86835E-14
 -1      2877 1.19710E-02-2.02679E-03-8.67915E-14
 -1      2878 1.19367E-02-2.04247E-03-8.60384E-14
 -1      2879 1.23996E-02-2.15545E-03-9.24928E-14
 -1      2880 1.22567E-02-2.11255E-03-9.05853E-14
 -1      2881 1.22224E-02-2.12822E-03-8.98216E-14
 -1      2882 1.26852E-02-2.24127E-03-9.63261E-14
 -1      2883 1.25424E-02-2.19836E-03-9.44054E-14
 -1      2884 1.25081E-02-2.21402E-03-9.36340E-14
 -1      2885 1.29709E-02-2.32712E-03-1.00189E-13
 -1      2886 1.28281E-02-2.28420E-03-9.82559E-14
 -1      2887 1.27938E-02-2.29985E-03-9.74740E-14
 -1      2888 1.32566E-02-2.41299E-03-1.04064E-13
 -1      2889 1.31138E-02-2.37006E-03-1.02126E-13
 -1      2890 1.30795E-02-2.38571E-03-1.01338E-13
 -1      2891 1.35423E-02-2.49886E-03-1.07949E-13
 -1      2892 1.33995E-02-2.45592E-03-1.06006E-13
 -1      2893 1.33652E-02-2.47157E-03-1.05216E-13
 -1      2894 1.38265E-02-2.58597E-03-1.11799E-13
 -1      2895 1.36837E-02-2.54304E-03-1.09851E-13
 -1      2896 1.36494E-02-2.55869E-03-1.09059E-13
 -1      2897 1.39320E-02-2.64706E-03-1.12867E-13
 -1      2898 1.40961E-02-2.80054E-03-1.13791E-13
 -1      2899 1.40547E-02-2.75910E-03-1.13592E-13
 -1      2900 1.42645E-02-2.96883E-03-1.14595E-13
 -1      2901 1.42223E-02-2.92667E-03-1.14393E-13
 -1      2902 1.40144E-02-2.72416E-03-1.13330E-13
 -1      2903 1.39722E-02-2.68200E-03-1.13128E-13
 -1      2904 1.38309E-02-2.63782E-03-1.11221E-13
 -1      2905 1.39114E-02-2.70770E-03-1.11743E-13
 -1      2906 1.41803E-02-2.88468E-03-1.14192E-13
 -1      2907 1.41381E-02-2.84252E-03-1.13990E-13
 -1      2908 1.39937E-02-2.78462E-03-1.12203E-13
 -1      2909 1.40777E-02-2.86858E-03-1.12604E-13
 -1      2910 1.44334E-02-3.13749E-03-1.15386E-13
 -1      2911 1.43912E-02-3.09532E-03-1.15192E-13
 -1      2912 1.45164E-02-3.22039E-03-1.15766E-13
 -1      2913 1.44749E-02-3.17894E-03-1.15579E-13
 -1      2914 1.43301E-02-3.12068E-03-1.13794E-13
 -1      2915 1.46009E-02-3.30471E-03-1.16141E-13
 -1      2916 1.45587E-02-3.26255E-03-1.15952E-13
 -1      2917 1.44138E-02-3.20429E-03-1.14170E-13
 -1      2918 1.46854E-02-3.38903E-03-1.16509E-13
 -1      2919 1.46432E-02-3.34687E-03-1.16326E-13
 -1      2920 1.44983E-02-3.28861E-03-1.14539E-13
 -1      2921 5.09378E-03-2.99901E-04-1.17866E-14
 -1      2922 5.30332E-03-3.97419E-04-1.23140E-14
 -1      2923 5.86333E-03-5.92205E-04-1.35535E-14
 -1      2924 5.97417E-03-6.14728E-04-1.37616E-14
 -1      2925 1.51731E-03-2.24928E-04-3.02917E-15
 -1      2926 1.67146E-03-1.91718E-04-3.23132E-15
 -1      2927 3.54724E-03-1.47510E-03-6.32751E-15
 -1      2928 1.81449E-03-1.42540E-04-3.36260E-15
 -1      2929 1.96921E-03-7.89448E-05-3.49708E-15
 -1      2930 1.71385E-03-1.51377E-04-3.08556E-15
 -1      2931 2.88572E-03 3.91096E-04-4.87385E-15
 -1      2932 3.06038E-03 4.65100E-04-5.33047E-15
 -1      2933 1.43490E-02-3.05316E-03-1.14993E-13
 -1      2934 1.43068E-02-3.01099E-03-1.14796E-13
 -1      2935 1.42463E-02-3.03706E-03-1.13405E-13
 -1      2936 5.07597E-03-1.11017E-03-1.17874E-14
 -1      2937 5.28270E-03-1.03373E-03-1.27217E-14
 -1      2938 6.04761E-03-6.29568E-04-1.38432E-14
 -1      2939 6.07218E-03-6.34179E-04-1.38664E-14
 -1      2940 1.31192E-03-2.63459E-04-2.86187E-15
 -1      2941 1.35845E-03-2.52148E-04-2.83411E-15
 -1      2942 3.88690E-03 4.06789E-04-8.15529E-15
 -1      2943 4.03402E-03 3.24412E-04-8.69068E-15
 -1      2944 4.55659E-03-1.37085E-03-9.80250E-15
 -1      2945 4.41461E-03-1.44962E-03-9.30397E-15
 -1      2946 1.07868E-03-2.39759E-04-9.22507E-16
 -1      2947 1.22684E-03-2.75371E-04-1.16026E-15
 -1      2948 1.23709E-03-2.60072E-04-1.30608E-15
 -1      2949 9.83199E-04-1.99497E-04-8.74883E-16
 -1      2950 4.68775E-03-7.68048E-05-1.06851E-14
 -1      2951 4.87559E-03-1.85514E-04-1.11684E-14
 -1      2952 1.50797E-03-3.16555E-04-3.12668E-15
 -1      2953 1.40525E-03-2.96778E-04-3.08984E-15
 -1      2954 2.13316E-03-4.09272E-06-3.66402E-15
 -1      2955 2.29400E-03 8.12003E-05-3.83622E-15
 -1      2956 2.00343E-03-3.51018E-05-3.36994E-15
 -1      2957 2.49415E-03 1.97948E-04-4.07031E-15
 -1      2958 2.66117E-03 2.88037E-04-4.36849E-15
 -1      2959 7.73031E-04 5.26195E-05-5.39960E-16
 -1      2960 7.52784E-04 2.50567E-05-5.57429E-16
 -1      2961 8.57673E-04 1.70629E-05-7.18325E-16
 -1      2962 9.05549E-04 8.08160E-05-6.77125E-16
 -1      2963 4.19819E-03-1.53798E-03-8.51305E-15
 -1      2964 6.45833E-04-8.95571E-05-6.33892E-16
 -1      2965 6.60538E-04-9.51013E-05-6.33743E-16
 -1      2966 2.67266E-03 6.46307E-04-3.65959E-15
 -1      2967 2.51639E-03 6.17205E-04-3.21683E-15
 -1      2968 2.43349E-03 5.58826E-04-3.08621E-15
 -1      2969 2.75329E-03 6.22148E-04-3.97862E-15
 -1      2970 6.36964E-04-1.15601E-04-4.36988E-16
 -1      2971 5.90555E-03-6.72887E-04-1.31821E-14
 -1      2972 5.79824E-03-7.09902E-04-1.30684E-14
 -1      2973 5.65293E-03-7.69595E-04-1.28527E-14
 -1      2974 5.51983E-03-8.28094E-04-1.25807E-14
 -1      2975 3.61708E-03 5.10139E-04-7.17788E-15
 -1      2976 3.74734E-03 4.67726E-04-7.65704E-15
 -1      2977 3.81030E-03 4.42579E-04-7.94197E-15
 -1      2978 6.05768E-03-6.42998E-04-1.37867E-14
 -1      2979 5.99807E-03-6.50097E-04-1.34840E-14
 -1      2980 5.99312E-03-6.72633E-04-1.39607E-14
 -1      2981 4.78173E-03-1.25473E-03-1.06557E-14
 -1      2982 4.92526E-03-1.16552E-03-1.11163E-14
 -1      2983 7.59999E-04-7.06546E-05-7.74568E-16
 -1      2984 6.55617E-04-6.59194E-05-6.15867E-16
 -1      2985 6.44155E-04-7.44176E-05-6.23050E-16
 -1      2986 8.61794E-04 2.34210E-04-3.92034E-16
 -1      2987 4.15877E-03 2.54742E-04-9.23416E-15
 -1      2988 2.01206E-03-5.03594E-04-3.51056E-15
 -1      2989 5.80671E-03-5.77751E-04-1.38463E-14
 -1      2990 2.11786E-03-5.53781E-04-3.33497E-15
 -1      2991 2.34189E-03-6.78789E-04-3.55076E-15
 -1      2992 5.45564E-03-9.30935E-04-1.31800E-14
 -1      2993 2.54617E-03-8.00625E-04-4.01605E-15
 -1      2994 5.76959E-03-7.44074E-04-1.34333E-14
 -1      2995 1.65917E-03-3.54792E-04-3.05534E-15
 -1      2996 1.58149E-03-3.32472E-04-3.09181E-15
 -1      2997 1.48225E-03-3.01127E-04-2.87668E-15
 -1      2998 7.33051E-04-1.30931E-04-5.81552E-16
 -1      2999 1.41619E-02-2.95273E-03-1.13006E-13
 -1      3000 6.82332E-04-1.02687E-04-6.31859E-16
 -1      3001 7.10427E-04-1.13696E-04-6.27672E-16
 -1      3002 7.64825E-04-1.17517E-04-8.01103E-16
 -1      3003 5.42664E-03-4.45076E-04-1.29617E-14
 -1      3004 5.00682E-03-2.49517E-04-1.18567E-14
 -1      3005 1.47623E-02-3.45863E-03-1.16932E-13
 -1      3006 1.47276E-02-3.42305E-03-1.16796E-13
 -1      3007 1.45827E-02-3.36479E-03-1.15010E-13
 -1      3008 1.46669E-02-3.43282E-03-1.15584E-13
 -1      3009 1.46057E-03 3.41482E-04-1.14207E-15
 -1      3010 1.40035E-03 3.67030E-04-9.77137E-16
 -1      3011 6.03872E-03-6.33136E-04-1.43458E-14
 -1      3012 1.29250E-03 3.52118E-04-8.14954E-16
 -1      3013 1.28599E-03-2.57723E-04-2.75496E-15
 -1      3014 3.03522E-03 4.86578E-04-5.17677E-15
 -1      3015 3.14707E-03 5.01823E-04-5.55316E-15
 -1      3016 3.22276E-03 5.28351E-04-5.78040E-15
 -1      3017 1.40273E-03-2.32254E-04-2.76878E-15
 -1      3018 1.45527E-03-2.05203E-04-2.70327E-15
 -1      3019 1.30970E-03-2.25873E-04-2.51927E-15
 -1      3020 2.84315E-03-9.98231E-04-4.54470E-15
 -1      3021 2.74303E-03 3.56359E-04-4.45485E-15
 -1      3022 4.58316E-03-7.99489E-06-1.06383E-14
 -1      3023 9.85487E-04 2.45760E-04-5.34607E-16
 -1      3024 3.40982E-03 5.42048E-04-6.43280E-15
 -1      3025 3.50940E-03 5.32006E-04-6.80069E-15
 -1      3026 3.57531E-03 5.23179E-04-7.06321E-15
 -1      3027 5.45553E-03-8.88494E-04-1.27744E-14
 -1      3028 6.37966E-04-8.04433E-05-6.28227E-16
 -1      3029 6.38377E-04-8.52221E-05-6.31914E-16
 -1      3030 7.30168E-04-1.04063E-04-8.00507E-16
 -1      3031 7.30589E-04-9.18947E-05-7.91454E-16
 -1      3032 6.09375E-03-6.50459E-04-1.43500E-14
 -1      3033 2.67941E-03-8.83560E-04-4.28233E-15
 -1      3034 1.35337E-03-2.79468E-04-2.92225E-15
 -1      3035 2.35054E-03 1.48992E-04-3.75236E-15
 -1      3036 1.08981E-03 1.96693E-04-7.65067E-16
 -1      3037 1.06761E-03 1.54794E-04-7.99084E-16
 -1      3038 1.14452E-03 3.48455E-04-5.81593E-16
 -1      3039 4.04714E-03 3.28151E-04-8.94089E-15
 -1      3040 4.25508E-03 2.05928E-04-9.74835E-15
 -1      3041 1.89865E-03-4.49076E-04-3.11337E-15
 -1      3042 5.61883E-03-8.50229E-04-1.36265E-14
 -1      3043 1.27228E-03-2.53989E-04-2.64553E-15
 -1      3044 1.24398E-03-2.38771E-04-2.47643E-15
 -1      3045 6.07545E-03-8.33012E-04-1.65760E-14
 -1      3046 6.21340E-03-8.50919E-04-1.76451E-14
 -1      3047 6.34806E-03-8.75046E-04-1.87419E-14
 -1      3048 6.48212E-03-9.03719E-04-1.98617E-14
 -1      3049 6.31050E-03-8.27961E-04-1.81506E-14
 -1      3050 6.61539E-03-9.36397E-04-2.10063E-14
 -1      3051 6.74934E-03-9.72270E-04-2.21756E-14
 -1      3052 6.56075E-03-8.89522E-04-2.03853E-14
 -1      3053 6.88366E-03-1.01073E-03-2.33683E-14
 -1      3054 7.01905E-03-1.05145E-03-2.45848E-14
 -1      3055 6.81584E-03-9.62293E-04-2.27158E-14
 -1      3056 7.15516E-03-1.09382E-03-2.58243E-14
 -1      3057 7.29233E-03-1.13770E-03-2.70865E-14
 -1      3058 7.07718E-03-1.04319E-03-2.51412E-14
 -1      3059 7.43022E-03-1.18257E-03-2.83699E-14
 -1      3060 7.56899E-03-1.22834E-03-2.96746E-14
 -1      3061 7.34438E-03-1.12979E-03-2.76579E-14
 -1      3062 7.70837E-03-1.27463E-03-3.09990E-14
 -1      3063 7.84843E-03-1.32138E-03-3.23448E-14
 -1      3064 7.61650E-03-1.22003E-03-3.02593E-14
 -1      3065 7.98894E-03-1.36832E-03-3.37115E-14
 -1      3066 8.12996E-03-1.41541E-03-3.50971E-14
 -1      3067 7.89248E-03-1.31232E-03-3.29446E-14
 -1      3068 8.27129E-03-1.46249E-03-3.65044E-14
 -1      3069 8.41297E-03-1.50953E-03-3.79337E-14
 -1      3070 8.17135E-03-1.40548E-03-3.57128E-14
 -1      3071 8.55486E-03-1.55642E-03-3.93812E-14
 -1      3072 8.69700E-03-1.60315E-03-4.08479E-14
 -1      3073 8.45234E-03-1.49870E-03-3.85635E-14
 -1      3074 8.83927E-03-1.64967E-03-4.23345E-14
 -1      3075 8.98171E-03-1.69598E-03-4.38441E-14
 -1      3076 8.73484E-03-1.59150E-03-4.14944E-14
 -1      3077 9.12423E-03-1.74206E-03-4.53754E-14
 -1      3078 9.26685E-03-1.78789E-03-4.69267E-14
 -1      3079 9.01841E-03-1.68359E-03-4.45085E-14
 -1      3080 9.40952E-03-1.83349E-03-4.84943E-14
 -1      3081 9.55226E-03-1.87886E-03-5.00778E-14
 -1      3082 9.30271E-03-1.77486E-03-4.76040E-14
 -1      3083 9.69503E-03-1.92401E-03-5.16830E-14
 -1      3084 9.83784E-03-1.96894E-03-5.33062E-14
 -1      3085 9.58752E-03-1.86528E-03-5.07726E-14
 -1      3086 9.98066E-03-2.01367E-03-5.49463E-14
 -1      3087 1.01235E-02-2.05821E-03-5.66072E-14
 -1      3088 9.87266E-03-1.95490E-03-5.40143E-14
 -1      3089 1.02664E-02-2.10257E-03-5.82834E-14
 -1      3090 1.04092E-02-2.14678E-03-5.99743E-14
 -1      3091 1.01580E-02-2.04380E-03-5.73279E-14
 -1      3092 1.05521E-02-2.19083E-03-6.16808E-14
 -1      3093 1.06950E-02-2.23475E-03-6.34073E-14
 -1      3094 1.04436E-02-2.13207E-03-6.07086E-14
 -1      3095 1.08379E-02-2.27855E-03-6.51474E-14
 -1      3096 1.09807E-02-2.32224E-03-6.69020E-14
 -1      3097 1.07292E-02-2.21981E-03-6.41545E-14
 -1      3098 1.11236E-02-2.36582E-03-6.86732E-14
 -1      3099 1.12665E-02-2.40932E-03-7.04564E-14
 -1      3100 1.10149E-02-2.30710E-03-6.76625E-14
 -1      3101 1.14094E-02-2.45274E-03-7.22552E-14
 -1      3102 1.15523E-02-2.49609E-03-7.40682E-14
 -1      3103 1.13006E-02-2.39404E-03-7.12277E-14
 -1      3104 1.16951E-02-2.53937E-03-7.58915E-14
 -1      3105 1.18380E-02-2.58260E-03-7.77277E-14
 -1      3106 1.15864E-02-2.48070E-03-7.48473E-14
 -1      3107 1.19809E-02-2.62579E-03-7.95777E-14
 -1      3108 1.21238E-02-2.66893E-03-8.14388E-14
 -1      3109 1.18721E-02-2.56713E-03-7.85188E-14
 -1      3110 1.22666E-02-2.71204E-03-8.33060E-14
 -1      3111 1.24095E-02-2.75511E-03-8.51810E-14
 -1      3112 1.21579E-02-2.65340E-03-8.22325E-14
 -1      3113 1.25524E-02-2.79816E-03-8.70662E-14
 -1      3114 1.26953E-02-2.84118E-03-8.89588E-14
 -1      3115 1.24436E-02-2.73953E-03-8.59819E-14
 -1      3116 1.28381E-02-2.88419E-03-9.08580E-14
 -1      3117 1.29810E-02-2.92718E-03-9.27645E-14
 -1      3118 1.27294E-02-2.82557E-03-8.97647E-14
 -1      3119 1.31239E-02-2.97015E-03-9.46756E-14
 -1      3120 1.32667E-02-3.01312E-03-9.65917E-14
 -1      3121 1.30151E-02-2.91155E-03-9.35738E-14
 -1      3122 1.34096E-02-3.05607E-03-9.85104E-14
 -1      3123 1.35524E-02-3.09902E-03-1.00435E-13
 -1      3124 1.33009E-02-2.99748E-03-9.74020E-14
 -1      3125 1.36953E-02-3.14197E-03-1.02363E-13
 -1      3126 1.38382E-02-3.18491E-03-1.04292E-13
 -1      3127 1.35866E-02-3.08337E-03-1.01246E-13
 -1      3128 1.39810E-02-3.22784E-03-1.06226E-13
 -1      3129 1.41239E-02-3.27077E-03-1.08163E-13
 -1      3130 1.38724E-02-3.16925E-03-1.05105E-13
 -1      3131 1.42667E-02-3.31371E-03-1.10106E-13
 -1      3132 1.44096E-02-3.35664E-03-1.12055E-13
 -1      3133 1.41581E-02-3.25512E-03-1.08979E-13
 -1      3134 2.17922E-03 4.57127E-04-2.56707E-15
 -1      3135 2.01303E-03 4.19178E-04-2.21038E-15
 -1      3136 1.84747E-03 3.82426E-04-1.88289E-15
 -1      3137 1.68358E-03 3.47534E-04-1.58463E-15
 -1      3138 1.91291E-03 3.51601E-04-2.09893E-15
 -1      3139 3.45838E-03 6.15484E-04-6.57731E-15
 -1      3140 3.30516E-03 6.31837E-04-5.95539E-15
 -1      3141 3.15177E-03 6.33428E-04-5.36897E-15
 -1      3142 2.99552E-03 6.22281E-04-4.81807E-15
 -1      3143 3.24092E-03 6.09323E-04-5.73829E-15
 -1      3144 4.08336E-03 4.17457E-04-9.42376E-15
 -1      3145 3.92330E-03 4.82406E-04-8.66002E-15
 -1      3146 4.41011E-03 2.72521E-04-1.10526E-14
 -1      3147 4.24586E-03 3.46199E-04-1.02221E-14
 -1      3148 4.19620E-03 3.41612E-04-9.92777E-15
 -1      3149 4.74115E-03 1.25262E-04-1.28128E-14
 -1      3150 4.57574E-03 1.98182E-04-1.19165E-14
 -1      3151 4.53323E-03 1.86986E-04-1.16005E-14
 -1      3152 5.06970E-03-1.27186E-05-1.46936E-14
 -1      3153 4.90624E-03 5.47090E-05-1.37385E-14
 -1      3154 4.87126E-03 3.86048E-05-1.34002E-14
 -1      3155 5.39133E-03-1.37070E-04-1.66946E-14
 -1      3156 5.23165E-03-7.65937E-05-1.56795E-14
 -1      3157 5.20277E-03-9.54736E-05-1.53214E-14
 -1      3158 5.70461E-03-2.48232E-04-1.88056E-14
 -1      3159 5.54910E-03-1.94110E-04-1.77360E-14
 -1      3160 5.52412E-03-2.13736E-04-1.73571E-14
 -1      3161 6.01010E-03-3.48571E-04-2.10260E-14
 -1      3162 5.85830E-03-2.99538E-04-1.99022E-14
 -1      3163 5.83519E-03-3.18774E-04-1.95022E-14
 -1      3164 6.30924E-03-4.40784E-04-2.33511E-14
 -1      3165 6.16038E-03-3.95501E-04-2.21761E-14
 -1      3166 6.13756E-03-4.13961E-04-2.17540E-14
 -1      3167 6.60366E-03-5.27315E-04-2.57792E-14
 -1      3168 6.45695E-03-4.84608E-04-2.45528E-14
 -1      3169 6.43340E-03-5.02300E-04-2.41102E-14
 -1      3170 6.89481E-03-6.10152E-04-2.83058E-14
 -1      3171 6.74957E-03-5.69083E-04-2.70302E-14
 -1      3172 6.72471E-03-5.86166E-04-2.65668E-14
 -1      3173 7.18377E-03-6.90820E-04-3.09237E-14
 -1      3174 7.03950E-03-6.50677E-04-2.96040E-14
 -1      3175 7.01311E-03-6.67334E-04-2.91193E-14
 -1      3176 7.47136E-03-7.70435E-04-3.36320E-14
 -1      3177 7.32769E-03-7.30705E-04-3.22666E-14
 -1      3178 7.29977E-03-7.47085E-04-3.17640E-14
 -1      3179 7.75811E-03-8.49773E-04-3.64258E-14
 -1      3180 7.61481E-03-8.10103E-04-3.50180E-14
 -1      3181 7.58546E-03-8.26314E-04-3.44961E-14
 -1      3182 8.04438E-03-9.29340E-04-3.93041E-14
 -1      3183 7.90128E-03-8.89506E-04-3.78543E-14
 -1      3184 7.87070E-03-9.05614E-04-3.73143E-14
 -1      3185 8.33037E-03-1.00944E-03-4.22674E-14
 -1      3186 8.18739E-03-9.69312E-04-4.07751E-14
 -1      3187 8.15579E-03-9.85355E-04-4.02168E-14
 -1      3188 8.61622E-03-1.09023E-03-4.53154E-14
 -1      3189 8.47330E-03-1.04975E-03-4.37809E-14
 -1      3190 8.44088E-03-1.06574E-03-4.32029E-14
 -1      3191 8.90200E-03-1.17176E-03-4.84477E-14
 -1      3192 8.75911E-03-1.13091E-03-4.68717E-14
 -1      3193 8.72607E-03-1.14686E-03-4.62746E-14
 -1      3194 9.18775E-03-1.25403E-03-5.16585E-14
 -1      3195 9.04487E-03-1.21281E-03-5.00423E-14
 -1      3196 9.01136E-03-1.22873E-03-4.94269E-14
 -1      3197 9.47350E-03-1.33696E-03-5.49446E-14
 -1      3198 9.33062E-03-1.29541E-03-5.32926E-14
 -1      3199 9.29677E-03-1.31131E-03-5.26594E-14
 -1      3200 9.75924E-03-1.42049E-03-5.83040E-14
 -1      3201 9.61637E-03-1.37866E-03-5.66152E-14
 -1      3202 9.58228E-03-1.39452E-03-5.59654E-14
 -1      3203 1.00450E-02-1.50453E-03-6.17322E-14
 -1      3204 9.90211E-03-1.46245E-03-6.00100E-14
 -1      3205 9.86787E-03-1.47828E-03-5.93427E-14
 -1      3206 1.03307E-02-1.58900E-03-6.52207E-14
 -1      3207 1.01879E-02-1.54672E-03-6.34699E-14
 -1      3208 1.01535E-02-1.56252E-03-6.27869E-14
 -1      3209 1.06165E-02-1.67382E-03-6.87632E-14
 -1      3210 1.04736E-02-1.63137E-03-6.69850E-14
 -1      3211 1.04392E-02-1.64715E-03-6.62882E-14
 -1      3212 1.09022E-02-1.75892E-03-7.23569E-14
 -1      3213 1.07593E-02-1.71634E-03-7.05529E-14
 -1      3214 1.07249E-02-1.73209E-03-6.98438E-14
 -1      3215 1.11879E-02-1.84423E-03-7.59976E-14
 -1      3216 1.10451E-02-1.80155E-03-7.41721E-14
 -1      3217 1.10107E-02-1.81728E-03-7.34466E-14
 -1      3218 1.14737E-02-1.92971E-03-7.96859E-14
 -1      3219 1.13308E-02-1.88695E-03-7.78369E-14
 -1      3220 1.12964E-02-1.90266E-03-7.71014E-14
 -1      3221 1.17594E-02-2.01532E-03-8.34099E-14
 -1      3222 1.16166E-02-1.97250E-03-8.15422E-14
 -1      3223 1.15822E-02-1.98820E-03-8.07986E-14
 -1      3224 1.20451E-02-2.10102E-03-8.71665E-14
 -1      3225 1.19023E-02-2.05816E-03-8.52849E-14
 -1      3226 1.18679E-02-2.07384E-03-8.45327E-14
 -1      3227 1.23309E-02-2.18678E-03-9.09610E-14
 -1      3228 1.21880E-02-2.14389E-03-8.90599E-14
 -1      3229 1.21537E-02-2.15957E-03-8.83006E-14
 -1      3230 1.26166E-02-2.27259E-03-9.47760E-14
 -1      3231 1.24737E-02-2.22968E-03-9.28661E-14
 -1      3232 1.24394E-02-2.24535E-03-9.20976E-14
 -1      3233 1.29023E-02-2.35843E-03-9.86206E-14
 -1      3234 1.27595E-02-2.31551E-03-9.66940E-14
 -1      3235 1.27251E-02-2.33117E-03-9.59203E-14
 -1      3236 1.31880E-02-2.44429E-03-1.02487E-13
 -1      3237 1.30452E-02-2.40136E-03-1.00554E-13
 -1      3238 1.30109E-02-2.41702E-03-9.97686E-14
 -1      3239 1.34738E-02-2.53016E-03-1.06366E-13
 -1      3240 1.33309E-02-2.48723E-03-1.04424E-13
 -1      3241 1.32966E-02-2.50288E-03-1.03636E-13
 -1      3242 1.37230E-02-2.60608E-03-1.09742E-13
 -1      3243 1.35817E-02-2.56190E-03-1.07841E-13
 -1      3244 1.35474E-02-2.57755E-03-1.07047E-13
 -1      3245 1.37632E-02-2.64102E-03-1.10002E-13
 -1      3246 1.43112E-02-3.18819E-03-1.12571E-13
 -1      3247 1.42690E-02-3.14603E-03-1.12387E-13
 -1      3248 1.40593E-02-2.93663E-03-1.11423E-13
 -1      3249 1.40171E-02-2.89447E-03-1.11222E-13
 -1      3250 5.88430E-03-7.30400E-04-1.41438E-14
 -1      3251 5.76373E-03-7.79842E-04-1.39169E-14
 -1      3252 1.87164E-03-5.28298E-05-3.03566E-15
 -1      3253 2.01239E-03 1.12469E-05-3.18680E-15
 -1      3254 1.43957E-02-3.27251E-03-1.12940E-13
 -1      3255 1.43535E-02-3.23035E-03-1.12756E-13
 -1      3256 1.42086E-02-3.17209E-03-1.10979E-13
 -1      3257 1.42275E-02-3.10458E-03-1.12202E-13
 -1      3258 1.41859E-02-3.06313E-03-1.12012E-13
 -1      3259 1.41249E-02-3.08848E-03-1.10611E-13
 -1      3260 6.06778E-03-6.85365E-04-1.47693E-14
 -1      3261 5.98621E-03-7.00807E-04-1.44562E-14
 -1      3262 5.98803E-03-7.34869E-04-1.49557E-14
 -1      3263 6.04442E-03-6.40595E-04-1.49878E-14
 -1      3264 6.10914E-03-6.53536E-04-1.50764E-14
 -1      3265 2.61414E-03 3.35696E-04-4.06397E-15
 -1      3266 2.81676E-03 4.21863E-04-4.54664E-15
 -1      3267 1.15301E-03 3.06630E-04-6.74536E-16
 -1      3268 1.41437E-02-3.02096E-03-1.11816E-13
 -1      3269 1.41015E-02-2.97880E-03-1.11618E-13
 -1      3270 1.39567E-02-2.92053E-03-1.09839E-13
 -1      3271 1.40411E-02-3.00487E-03-1.10232E-13
 -1      3272 3.76635E-03 5.39209E-04-7.93097E-15
 -1      3273 3.61133E-03 5.83870E-04-7.23698E-15
 -1      3274 3.86831E-03 4.80796E-04-8.38975E-15
 -1      3275 1.61954E-03-1.49061E-04-2.79635E-15
 -1      3276 1.74407E-03-1.06235E-04-2.91566E-15
 -1      3277 1.75626E-03-5.88904E-05-2.74577E-15
 -1      3278 1.36339E-03-2.78182E-04-1.71614E-15
 -1      3279 1.49911E-03-3.14975E-04-2.03442E-15
 -1      3280 6.12966E-03-6.61735E-04-1.49663E-14
 -1      3281 6.11656E-03-6.68577E-04-1.48852E-14
 -1      3282 5.75731E-03-8.24456E-04-1.43402E-14
 -1      3283 4.91142E-03-1.85469E-04-1.19402E-14
 -1      3284 5.10796E-03-2.86805E-04-1.25794E-14
 -1      3285 8.23557E-04-1.45409E-04-7.47381E-16
 -1      3286 1.13295E-03 2.47902E-04-7.47124E-16
 -1      3287 5.75404E-03-5.60813E-04-1.42428E-14
 -1      3288 5.90882E-03-6.05188E-04-1.46636E-14
 -1      3289 2.19749E-03 1.08818E-04-3.39193E-15
 -1      3290 2.36768E-03 2.12659E-04-3.60284E-15
 -1      3291 2.04923E-03 8.20906E-05-3.05191E-15
 -1      3292 4.51613E-03 5.11308E-05-1.07169E-14
 -1      3293 4.70876E-03-6.93332E-05-1.13195E-14
 -1      3294 4.83210E-03-1.16503E-04-1.20167E-14
 -1      3295 1.35698E-03-2.64714E-04-2.62227E-15
 -1      3296 1.30192E-03-2.58245E-04-2.63453E-15
 -1      3297 1.24747E-03-2.37720E-04-2.36006E-15
 -1      3298 5.37111E-03-4.12342E-04-1.33216E-14
 -1      3299 5.56791E-03-4.93989E-04-1.38057E-14
 -1      3300 9.30135E-04-2.50288E-05-9.20108E-16
 -1      3301 8.99646E-04-5.11607E-05-9.36602E-16
 -1      3302 3.78718E-03 4.57821E-04-7.90747E-15
 -1      3303 3.91342E-03 3.98809E-04-8.41509E-15
 -1      3304 4.01641E-03 3.55285E-04-8.89737E-15
 -1      3305 1.79664E-03-4.13191E-04-2.72387E-15
 -1      3306 1.71024E-03-3.70861E-04-2.88686E-15
 -1      3307 1.59008E-03-3.29397E-04-2.67793E-15
 -1      3308 1.64733E-03-3.61627E-04-2.35378E-15
 -1      3309 1.25753E-03 2.52305E-04-9.42294E-16
 -1      3310 8.70496E-04-7.28533E-05-9.50615E-16
 -1      3311 8.45527E-04-8.98879E-05-9.62812E-16
 -1      3312 9.88814E-04-7.08868E-05-1.14355E-15
 -1      3313 1.19160E-03-2.18158E-04-2.20945E-15
 -1      3314 1.22712E-03-2.21690E-04-2.31017E-15
 -1      3315 1.41581E-03 2.83240E-04-1.16924E-15
 -1      3316 5.90876E-03-8.20731E-04-1.53546E-14
 -1      3317 6.03785E-03-7.79279E-04-1.58364E-14
 -1      3318 2.34582E-03 4.95800E-04-2.95349E-15
 -1      3319 2.25165E-03 4.28505E-04-2.81895E-15
 -1      3320 2.51133E-03 5.33518E-04-3.37088E-15
 -1      3321 1.45715E-02-3.40702E-03-1.14241E-13
 -1      3322 1.40390E-03-2.73458E-04-2.58779E-15
 -1      3323 1.47528E-03 2.54110E-04-1.33685E-15
 -1      3324 3.55226E-03 5.76935E-04-6.99141E-15
 -1      3325 1.38724E-02-2.83638E-03-1.09441E-13
 -1      3326 1.39751E-02-2.85248E-03-1.11021E-13
 -1      3327 1.39331E-02-2.81050E-03-1.10819E-13
 -1      3328 8.43219E-04-1.31851E-04-9.90093E-16
 -1      3329 8.73859E-04-1.42160E-04-9.88033E-16
 -1      3330 5.27494E-03-3.51585E-04-1.34051E-14
 -1      3331 1.48457E-03-3.01143E-04-2.18656E-15
 -1      3332 1.04399E-03 1.14254E-04-8.29252E-16
 -1      3333 1.01846E-03 7.56392E-05-8.56411E-16
 -1      3334 1.18746E-03 1.53157E-04-9.96192E-16
 -1      3335 9.37605E-04-1.70137E-04-9.36344E-16
 -1      3336 6.13267E-03-6.92516E-04-1.53946E-14
 -1      3337 6.01677E-03-6.32788E-04-1.53993E-14
 -1      3338 2.76928E-03 4.50853E-04-4.32910E-15
 -1      3339 2.90206E-03 4.67439E-04-4.74361E-15
 -1      3340 2.97928E-03 5.06303E-04-4.94484E-15
 -1      3341 6.16118E-03-6.71173E-04-1.56228E-14
 -1      3342 1.24296E-03-2.08631E-04-2.25074E-15
 -1      3343 1.38438E-02-2.71090E-03-1.10524E-13
 -1      3344 1.38035E-02-2.67596E-03-1.10263E-13
 -1      3345 1.36956E-02-2.64423E-03-1.08785E-13
 -1      3346 5.70270E-03-5.33533E-04-1.46173E-14
 -1      3347 1.48103E-03-1.68993E-04-2.54550E-15
 -1      3348 1.49734E-03-1.28661E-04-2.38982E-15
 -1      3349 1.35880E-03-1.75736E-04-2.30569E-15
 -1      3350 4.39111E-03 1.42145E-04-1.03917E-14
 -1      3351 1.24203E-03-2.47384E-04-1.45524E-15
 -1      3352 1.24040E-03-2.36024E-04-1.60776E-15
 -1      3353 1.12159E-03-2.18408E-04-1.21563E-15
 -1      3354 3.29543E-03 5.45902E-04-6.01643E-15
 -1      3355 9.60927E-04 5.24338E-06-9.01568E-16
 -1      3356 1.06155E-03-1.00254E-05-1.10605E-15
 -1      3357 9.90411E-04 3.87948E-05-8.80196E-16
 -1      3358 2.46024E-03 2.92333E-04-3.68116E-15
 -1      3359 2.53546E-03 3.65121E-04-3.75530E-15
 -1      3360 2.30695E-03 2.53845E-04-3.31919E-15
 -1      3361 1.38858E-02-2.75288E-03-1.10722E-13
 -1      3362 2.83705E-03 5.99634E-04-4.30253E-15
 -1      3363 2.67548E-03 5.69661E-04-3.81993E-15
 -1      3364 2.59099E-03 5.10104E-04-3.66016E-15
 -1      3365 2.92244E-03 5.79666E-04-4.63044E-15
 -1      3366 1.44208E-02-3.31441E-03-1.12820E-13
 -1      3367 1.42759E-02-3.25615E-03-1.11043E-13
 -1      3368 8.13553E-04-1.18406E-04-9.85892E-16
 -1      3369 8.22800E-04-1.24868E-04-9.89050E-16
 -1      3370 9.17956E-04-1.47057E-04-1.19757E-15
 -1      3371 1.44629E-02-3.34843E-03-1.13105E-13
 -1      3372 1.17064E-03-2.13965E-04-2.09395E-15
 -1      3373 1.13058E-03-1.98743E-04-1.94153E-15
 -1      3374 1.97788E-03 3.18257E-04-2.32046E-15
 -1      3375 1.80820E-03 2.82993E-04-1.98604E-15
 -1      3376 3.64796E-03 5.37060E-04-7.40217E-15
 -1      3377 3.48857E-03 5.71842E-04-6.73452E-15
 -1      3378 4.28631E-03 2.26260E-04-1.01202E-14
 -1      3379 4.52485E-03 8.86275E-05-1.11072E-14
 -1      3380 1.62470E-03-6.31117E-05-2.42822E-15
 -1      3381 1.73388E-03-1.71779E-05-2.53495E-15
 -1      3382 6.50904E-03-8.46059E-04-1.97677E-14
 -1      3383 6.62843E-03-8.80565E-04-2.09057E-14
 -1      3384 6.74999E-03-9.16903E-04-2.20671E-14
 -1      3385 6.87435E-03-9.55337E-04-2.32529E-14
 -1      3386 6.68529E-03-8.74527E-04-2.14228E-14
 -1      3387 7.00080E-03-9.95209E-04-2.44625E-14
 -1      3388 7.12952E-03-1.03671E-03-2.56944E-14
 -1      3389 6.92533E-03-9.49894E-04-2.37868E-14
 -1      3390 7.25999E-03-1.07927E-03-2.69492E-14
 -1      3391 7.39227E-03-1.12295E-03-2.82259E-14
 -1      3392 7.17650E-03-1.03103E-03-2.62448E-14
 -1      3393 7.52595E-03-1.16732E-03-2.95233E-14
 -1      3394 7.66103E-03-1.21240E-03-3.08414E-14
 -1      3395 7.43630E-03-1.11653E-03-2.87904E-14
 -1      3396 7.79719E-03-1.25786E-03-3.21820E-14
 -1      3397 7.93441E-03-1.30370E-03-3.35422E-14
 -1      3398 7.70278E-03-1.20497E-03-3.14222E-14
 -1      3399 8.07244E-03-1.34969E-03-3.49232E-14
 -1      3400 8.21126E-03-1.39582E-03-3.63257E-14
 -1      3401 7.97435E-03-1.29517E-03-3.41376E-14
 -1      3402 8.35069E-03-1.44194E-03-3.77495E-14
 -1      3403 8.49069E-03-1.48806E-03-3.91923E-14
 -1      3404 8.24976E-03-1.38619E-03-3.69372E-14
 -1      3405 8.63113E-03-1.53406E-03-4.06565E-14
 -1      3406 8.77199E-03-1.57995E-03-4.21396E-14
 -1      3407 8.52804E-03-1.47741E-03-3.98197E-14
 -1      3408 8.91317E-03-1.62568E-03-4.36443E-14
 -1      3409 9.05465E-03-1.67126E-03-4.51719E-14
 -1      3410 8.80845E-03-1.56839E-03-4.27854E-14
 -1      3411 9.19635E-03-1.71664E-03-4.67175E-14
 -1      3412 9.33828E-03-1.76185E-03-4.82811E-14
 -1      3413 9.09042E-03-1.65889E-03-4.58315E-14
 -1      3414 9.48036E-03-1.80687E-03-4.98638E-14
 -1      3415 9.62259E-03-1.85171E-03-5.14646E-14
 -1      3416 9.37353E-03-1.74881E-03-4.89567E-14
 -1      3417 9.76494E-03-1.89637E-03-5.30845E-14
 -1      3418 9.90739E-03-1.94086E-03-5.47216E-14
 -1      3419 9.65747E-03-1.83809E-03-5.21568E-14
 -1      3420 1.00499E-02-1.98519E-03-5.63754E-14
 -1      3421 1.01925E-02-2.02938E-03-5.80483E-14
 -1      3422 9.94200E-03-1.92678E-03-5.54262E-14
 -1      3423 1.03352E-02-2.07343E-03-5.97390E-14
 -1      3424 1.04779E-02-2.11734E-03-6.14425E-14
 -1      3425 1.02269E-02-2.01492E-03-5.87675E-14
 -1      3426 1.06206E-02-2.16115E-03-6.31638E-14
 -1      3427 1.07634E-02-2.20484E-03-6.49029E-14
 -1      3428 1.05122E-02-2.10259E-03-6.21766E-14
 -1      3429 1.09062E-02-2.24844E-03-6.66541E-14
 -1      3430 1.10491E-02-2.29195E-03-6.84210E-14
 -1      3431 1.07976E-02-2.18984E-03-6.56479E-14
 -1      3432 1.11919E-02-2.33538E-03-7.02032E-14
 -1      3433 1.13347E-02-2.37875E-03-7.19971E-14
 -1      3434 1.10832E-02-2.27677E-03-6.91778E-14
 -1      3435 1.14776E-02-2.42205E-03-7.38059E-14
 -1      3436 1.16205E-02-2.46529E-03-7.56253E-14
 -1      3437 1.13689E-02-2.36343E-03-7.27634E-14
 -1      3438 1.17634E-02-2.50849E-03-7.74591E-14
 -1      3439 1.19062E-02-2.55165E-03-7.93063E-14
 -1      3440 1.16546E-02-2.44987E-03-7.64034E-14
 -1      3441 1.20491E-02-2.59476E-03-8.11586E-14
 -1      3442 1.21920E-02-2.63785E-03-8.30227E-14
 -1      3443 1.19404E-02-2.53614E-03-8.00872E-14
 -1      3444 1.23349E-02-2.68091E-03-8.48979E-14
 -1      3445 1.24778E-02-2.72395E-03-8.67790E-14
 -1      3446 1.22262E-02-2.62229E-03-8.38132E-14
 -1      3447 1.26207E-02-2.76696E-03-8.86703E-14
 -1      3448 1.27636E-02-2.80996E-03-9.05674E-14
 -1      3449 1.25119E-02-2.70835E-03-8.75743E-14
 -1      3450 1.29064E-02-2.85294E-03-9.24681E-14
 -1      3451 1.30493E-02-2.89591E-03-9.43779E-14
 -1      3452 1.27977E-02-2.79434E-03-9.13652E-14
 -1      3453 1.31922E-02-2.93888E-03-9.62915E-14
 -1      3454 1.33351E-02-2.98183E-03-9.82101E-14
 -1      3455 1.30835E-02-2.88027E-03-9.51806E-14
 -1      3456 1.34779E-02-3.02478E-03-1.00131E-13
 -1      3457 1.36208E-02-3.06772E-03-1.02056E-13
 -1      3458 1.33693E-02-2.96618E-03-9.90148E-14
 -1      3459 1.37637E-02-3.11066E-03-1.03985E-13
 -1      3460 1.39066E-02-3.15359E-03-1.05917E-13
 -1      3461 1.36550E-02-3.05206E-03-1.02866E-13
 -1      3462 1.40198E-02-3.18341E-03-1.07506E-13
 -1      3463 1.41627E-02-3.22634E-03-1.09445E-13
 -1      3464 1.41376E-02-3.18444E-03-1.09565E-13
 -1      3465 1.39111E-02-3.12481E-03-1.06383E-13
 -1      3466 4.56441E-03 1.39739E-04-1.16432E-14
 -1      3467 4.39045E-03 2.20777E-04-1.07871E-14
 -1      3468 4.21755E-03 3.03113E-04-9.96459E-15
 -1      3469 5.34016E-03-1.78145E-04-1.59535E-14
 -1      3470 5.17586E-03-1.16578E-04-1.49590E-14
 -1      3471 5.65923E-03-2.88960E-04-1.80251E-14
 -1      3472 5.50139E-03-2.35266E-04-1.69764E-14
 -1      3473 5.48118E-03-2.58893E-04-1.65920E-14
 -1      3474 5.96658E-03-3.87409E-04-2.02039E-14
 -1      3475 5.81425E-03-3.39372E-04-1.91012E-14
 -1      3476 5.79574E-03-3.61573E-04-1.86987E-14
 -1      3477 6.26490E-03-4.77477E-04-2.24867E-14
 -1      3478 6.11670E-03-4.33219E-04-2.13322E-14
 -1      3479 6.09799E-03-4.53472E-04-2.09096E-14
 -1      3480 6.55693E-03-5.62206E-04-2.48716E-14
 -1      3481 6.41155E-03-5.20324E-04-2.36666E-14
 -1      3482 6.39152E-03-5.38810E-04-2.32227E-14
 -1      3483 6.84493E-03-6.43732E-04-2.73570E-14
 -1      3484 6.70131E-03-6.03246E-04-2.61028E-14
 -1      3485 6.67943E-03-6.20398E-04-2.56377E-14
 -1      3486 7.13057E-03-7.23541E-04-2.99358E-14
 -1      3487 6.98796E-03-6.83772E-04-2.86346E-14
 -1      3488 6.96406E-03-7.00026E-04-2.81498E-14
 -1      3489 7.41499E-03-8.02640E-04-3.26067E-14
 -1      3490 7.27287E-03-7.63130E-04-3.12608E-14
 -1      3491 7.24701E-03-7.78846E-04-3.07561E-14
 -1      3492 7.69892E-03-8.81693E-04-3.53631E-14
 -1      3493 7.55697E-03-8.42143E-04-3.39734E-14
 -1      3494 7.52933E-03-8.57579E-04-3.34520E-14
 -1      3495 7.98278E-03-9.61115E-04-3.82066E-14
 -1      3496 7.84083E-03-9.21342E-04-3.67746E-14
 -1      3497 7.81165E-03-9.36668E-04-3.62339E-14
 -1      3498 8.26682E-03-1.04115E-03-4.11304E-14
 -1      3499 8.12476E-03-1.00105E-03-3.96576E-14
 -1      3500 8.09430E-03-1.01636E-03-3.90990E-14
 -1      3501 8.55113E-03-1.12191E-03-4.41402E-14
 -1      3502 8.40893E-03-1.08144E-03-4.26251E-14
 -1      3503 8.37742E-03-1.09680E-03-4.20479E-14
 -1      3504 8.83573E-03-1.20342E-03-4.72355E-14
 -1      3505 8.69339E-03-1.16257E-03-4.56785E-14
 -1      3506 8.66106E-03-1.17800E-03-4.50820E-14
 -1      3507 9.12061E-03-1.28566E-03-5.04093E-14
 -1      3508 8.97813E-03-1.24445E-03-4.88122E-14
 -1      3509 8.94518E-03-1.25995E-03-4.81980E-14
 -1      3510 9.40573E-03-1.36857E-03-5.36617E-14
 -1      3511 9.26314E-03-1.32704E-03-5.20259E-14
 -1      3512 9.22971E-03-1.34259E-03-5.13947E-14
 -1      3513 9.69104E-03-1.45208E-03-5.69880E-14
 -1      3514 9.54836E-03-1.41026E-03-5.53157E-14
 -1      3515 9.51459E-03-1.42586E-03-5.46663E-14
 -1      3516 9.97650E-03-1.53609E-03-6.03820E-14
 -1      3517 9.83375E-03-1.49402E-03-5.86769E-14
 -1      3518 9.79974E-03-1.50966E-03-5.80125E-14
 -1      3519 1.02621E-02-1.62052E-03-6.38423E-14
 -1      3520 1.01193E-02-1.57826E-03-6.21047E-14
 -1      3521 1.00851E-02-1.59392E-03-6.14237E-14
 -1      3522 1.05477E-02-1.70531E-03-6.73559E-14
 -1      3523 1.04049E-02-1.66288E-03-6.55919E-14
 -1      3524 1.03706E-02-1.67855E-03-6.48970E-14
 -1      3525 1.08334E-02-1.79037E-03-7.09233E-14
 -1      3526 1.06906E-02-1.74781E-03-6.91345E-14
 -1      3527 1.06562E-02-1.76349E-03-6.84252E-14
 -1      3528 1.11191E-02-1.87566E-03-7.45407E-14
 -1      3529 1.09763E-02-1.83299E-03-7.27255E-14
 -1      3530 1.09419E-02-1.84867E-03-7.20052E-14
 -1      3531 1.14049E-02-1.96111E-03-7.82055E-14
 -1      3532 1.12620E-02-1.91836E-03-7.63665E-14
 -1      3533 1.12276E-02-1.93405E-03-7.56339E-14
 -1      3534 1.16907E-02-2.04669E-03-8.19124E-14
 -1      3535 1.15478E-02-2.00389E-03-8.00549E-14
 -1      3536 1.15134E-02-2.01957E-03-7.93099E-14
 -1      3537 1.19764E-02-2.13237E-03-8.56566E-14
 -1      3538 1.18335E-02-2.08952E-03-8.37809E-14
 -1      3539 1.17992E-02-2.10520E-03-8.30284E-14
 -1      3540 1.22622E-02-2.21812E-03-8.94339E-14
 -1      3541 1.21193E-02-2.17524E-03-8.75407E-14
 -1      3542 1.20849E-02-2.19092E-03-8.67831E-14
 -1      3543 1.25479E-02-2.30392E-03-9.32367E-14
 -1      3544 1.24051E-02-2.26102E-03-9.13319E-14
 -1      3545 1.23707E-02-2.27669E-03-9.05662E-14
 -1      3546 1.28337E-02-2.38976E-03-9.70633E-14
 -1      3547 1.26908E-02-2.34684E-03-9.51483E-14
 -1      3548 1.26565E-02-2.36250E-03-9.43755E-14
 -1      3549 1.31194E-02-2.47561E-03-1.00917E-13
 -1      3550 1.29766E-02-2.43268E-03-9.89864E-14
 -1      3551 1.29422E-02-2.44834E-03-9.82080E-14
 -1      3552 1.34052E-02-2.56148E-03-1.04784E-13
 -1      3553 1.32623E-02-2.51854E-03-1.02851E-13
 -1      3554 1.32280E-02-2.53420E-03-1.02064E-13
 -1      3555 5.67834E-03-5.09934E-04-1.51014E-14
 -1      3556 5.84268E-03-5.71591E-04-1.55609E-14
 -1      3557 3.97180E-03 4.20504E-04-8.84220E-15
 -1      3558 3.80749E-03 4.86359E-04-8.10383E-15
 -1      3559 1.02981E-03-1.79137E-04-1.27738E-15
 -1      3560 9.55661E-04-1.65829E-04-1.05852E-15
 -1      3561 5.21119E-03-2.95389E-04-1.36405E-14
 -1      3562 5.44646E-03-4.08625E-04-1.44166E-14
 -1      3563 6.12260E-03-7.56794E-04-1.61640E-14
 -1      3564 4.79260E-03-6.71353E-05-1.21455E-14
 -1      3565 4.97216E-03-1.70343E-04-1.27912E-14
 -1      3566 1.40954E-02-3.14228E-03-1.09385E-13
 -1      3567 1.40531E-02-3.10012E-03-1.09200E-13
 -1      3568 1.39821E-02-3.11246E-03-1.07792E-13
 -1      3569 1.40116E-02-3.05867E-03-1.09018E-13
 -1      3570 1.39701E-02-3.01722E-03-1.08834E-13
 -1      3571 1.38983E-02-3.02885E-03-1.07429E-13
 -1      3572 6.21317E-03-6.88014E-04-1.65012E-14
 -1      3573 6.22655E-03-6.96835E-04-1.63903E-14
 -1      3574 1.46206E-03-2.90331E-04-2.30982E-15
 -1      3575 1.43447E-03-2.79647E-04-2.46378E-15
 -1      3576 1.30593E-03-2.45599E-04-2.22909E-15
 -1      3577 1.33905E-03-2.56081E-04-1.99594E-15
 -1      3578 6.01305E-03-6.27805E-04-1.60845E-14
 -1      3579 6.13616E-03-6.62900E-04-1.64269E-14
 -1      3580 3.62947E-03 5.15372E-04-7.29481E-15
 -1      3581 3.73232E-03 4.88809E-04-7.73685E-15
 -1      3582 8.26157E-04-1.02398E-04-9.72624E-16
 -1      3583 8.15145E-04-1.11650E-04-9.80430E-16
 -1      3584 8.97910E-04-1.32736E-04-1.18940E-15
 -1      3585 1.15271E-03-1.82789E-04-1.91663E-15
 -1      3586 1.24451E-03-1.84871E-04-2.10778E-15
 -1      3587 1.24644E-03-1.56797E-04-1.96783E-15
 -1      3588 1.19207E-03-2.17065E-04-2.08216E-15
 -1      3589 6.21325E-03-7.08206E-04-1.62747E-14
 -1      3590 6.17435E-03-7.23647E-04-1.61550E-14
 -1      3591 6.28873E-03-7.25861E-04-1.71704E-14
 -1      3592 3.16354E-03 5.42471E-04-5.53918E-15
 -1      3593 3.34141E-03 5.57169E-04-6.17553E-15
 -1      3594 3.03154E-03 5.34412E-04-5.08216E-15
 -1      3595 1.89653E-03 5.74400E-05-2.71305E-15
 -1      3596 2.05566E-03 1.43422E-04-2.89555E-15
 -1      3597 1.75073E-03 4.26499E-05-2.39563E-15
 -1      3598 4.95954E-03-3.18210E-05-1.37203E-14
 -1      3599 4.78825E-03 4.06629E-05-1.27939E-14
 -1      3600 4.65325E-03 6.66050E-05-1.19330E-14
 -1      3601 5.10309E-03-1.22245E-04-1.43152E-14
 -1      3602 1.37831E-02-2.73678E-03-1.09142E-13
 -1      3603 1.62628E-03 2.40528E-04-1.66916E-15
 -1      3604 1.35779E-03 1.85502E-04-1.23951E-15
 -1      3605 1.32849E-03 1.36452E-04-1.27742E-15
 -1      3606 1.68281E-03 2.04711E-04-1.86097E-15
 -1      3607 3.53169E-03 5.42482E-04-6.90671E-15
 -1      3608 3.90028E-03 4.23919E-04-8.45924E-15
 -1      3609 4.02454E-03 3.61531E-04-8.98648E-15
 -1      3610 3.39867E-03 5.64654E-04-6.38266E-15
 -1      3611 3.30746E-03 5.86025E-04-6.01515E-15
 -1      3612 6.23371E-03-7.67030E-04-1.70641E-14
 -1      3613 3.74764E-03 4.92449E-04-7.81669E-15
 -1      3614 1.38540E-02-2.90444E-03-1.08258E-13
 -1      3615 1.38118E-02-2.86227E-03-1.08061E-13
 -1      3616 3.14677E-03 5.79609E-04-5.42799E-15
 -1      3617 4.76273E-03-2.32964E-05-1.22400E-14
 -1      3618 2.40945E-03 4.01588E-04-3.31081E-15
 -1      3619 2.23345E-03 3.57816E-04-2.90160E-15
 -1      3620 4.16284E-03 3.08348E-04-9.64466E-15
 -1      3621 1.39278E-02-2.97505E-03-1.08641E-13
 -1      3622 1.37698E-02-2.82028E-03-1.07863E-13
 -1      3623 1.37278E-02-2.77830E-03-1.07660E-13
 -1      3624 1.36672E-02-2.80419E-03-1.06284E-13
 -1      3625 5.99776E-03-6.12886E-04-1.65913E-14
 -1      3626 5.61153E-03-4.61495E-04-1.53512E-14
 -1      3627 1.35876E-02-2.61249E-03-1.07309E-13
 -1      3628 1.35533E-02-2.62815E-03-1.06519E-13
 -1      3629 2.97204E-03 5.54647E-04-4.83785E-15
 -1      3630 2.12214E-03 2.81612E-04-2.75711E-15
 -1      3631 2.80424E-03 5.19893E-04-4.32431E-15
 -1      3632 6.23735E-03-6.91606E-04-1.72126E-14
 -1      3633 5.16039E-03-2.42989E-04-1.37755E-14
 -1      3634 9.27155E-04-1.11134E-04-1.17126E-15
 -1      3635 1.13021E-03 6.69435E-05-1.05763E-15
 -1      3636 1.11631E-03-6.45832E-05-1.35287E-15
 -1      3637 1.07380E-03-9.44603E-05-1.37130E-15
 -1      3638 1.36006E-02-2.68577E-03-1.06617E-13
 -1      3639 1.48288E-03-8.86971E-05-2.19582E-15
 -1      3640 1.13042E-03-2.03713E-04-1.48841E-15
 -1      3641 1.23248E-03-2.27861E-04-1.75054E-15
 -1      3642 1.22504E-03-2.23436E-04-1.86015E-15
 -1      3643 1.03827E-03-1.77287E-04-1.40262E-15
 -1      3644 1.00837E-03-1.66452E-04-1.49685E-15
 -1      3645 1.03142E-03-1.74508E-04-1.50036E-15
 -1      3646 6.27631E-03-7.87015E-04-1.75666E-14
 -1      3647 6.39148E-03-8.16364E-04-1.86573E-14
 -1      3648 1.20174E-03 1.09647E-05-1.30801E-15
 -1      3649 1.16011E-03-2.88879E-05-1.33201E-15
 -1      3650 1.25411E-03-5.11389E-05-1.57853E-15
 -1      3651 1.11210E-03-1.95135E-04-1.72834E-15
 -1      3652 6.45892E-03-8.07692E-04-1.91574E-14
 -1      3653 2.58537E-03 4.48033E-04-3.75078E-15
 -1      3654 1.06132E-03-1.77878E-04-1.68349E-15
 -1      3655 1.09592E-03-1.81365E-04-1.78735E-15
 -1      3656 6.61888E-03-8.35316E-04-2.07815E-14
 -1      3657 6.73202E-03-8.70626E-04-2.19355E-14
 -1      3658 6.84893E-03-9.07150E-04-2.31158E-14
 -1      3659 6.96932E-03-9.45502E-04-2.43180E-14
 -1      3660 6.77052E-03-8.66958E-04-2.24473E-14
 -1      3661 7.09259E-03-9.84987E-04-2.55434E-14
 -1      3662 7.21850E-03-1.02586E-03-2.67919E-14
 -1      3663 7.00748E-03-9.41062E-04-2.48460E-14
 -1      3664 7.34663E-03-1.06760E-03-2.80615E-14
 -1      3665 7.47676E-03-1.11033E-03-2.93526E-14
 -1      3666 7.25634E-03-1.02048E-03-2.73362E-14
 -1      3667 7.60858E-03-1.15365E-03-3.06649E-14
 -1      3668 7.74195E-03-1.19762E-03-3.19994E-14
 -1      3669 7.51418E-03-1.10387E-03-2.99121E-14
 -1      3670 7.87660E-03-1.24195E-03-3.33543E-14
 -1      3671 8.01243E-03-1.28664E-03-3.47304E-14
 -1      3672 7.77889E-03-1.19001E-03-3.25736E-14
 -1      3673 8.14923E-03-1.33150E-03-3.61283E-14
 -1      3674 8.28692E-03-1.37654E-03-3.75470E-14
 -1      3675 8.04888E-03-1.27788E-03-3.53219E-14
 -1      3676 8.42535E-03-1.42161E-03-3.89851E-14
 -1      3677 8.56445E-03-1.46671E-03-4.04446E-14
 -1      3678 8.32290E-03-1.36667E-03-3.81535E-14
 -1      3679 8.70409E-03-1.51177E-03-4.19268E-14
 -1      3680 8.84425E-03-1.55677E-03-4.34274E-14
 -1      3681 8.60000E-03-1.45584E-03-4.10697E-14
 -1      3682 8.98481E-03-1.60167E-03-4.49477E-14
 -1      3683 9.12574E-03-1.64647E-03-4.64899E-14
 -1      3684 8.87944E-03-1.54499E-03-4.40677E-14
 -1      3685 9.26697E-03-1.69115E-03-4.80511E-14
 -1      3686 9.40849E-03-1.73570E-03-4.96306E-14
 -1      3687 9.16064E-03-1.63392E-03-4.71473E-14
 -1      3688 9.55022E-03-1.78013E-03-5.12293E-14
 -1      3689 9.69215E-03-1.82443E-03-5.28461E-14
 -1      3690 9.44316E-03-1.72249E-03-5.03035E-14
 -1      3691 9.83425E-03-1.86860E-03-5.44791E-14
 -1      3692 9.97649E-03-1.91265E-03-5.61294E-14
 -1      3693 9.72665E-03-1.81066E-03-5.35337E-14
 -1      3694 1.01188E-02-1.95659E-03-5.77993E-14
 -1      3695 1.02613E-02-2.00042E-03-5.94866E-14
 -1      3696 1.00109E-02-1.89844E-03-5.68335E-14
 -1      3697 1.04038E-02-2.04415E-03-6.11888E-14
 -1      3698 1.05465E-02-2.08779E-03-6.29078E-14
 -1      3699 1.02956E-02-1.98585E-03-6.02023E-14
 -1      3700 1.06891E-02-2.13134E-03-6.46419E-14
 -1      3701 1.08318E-02-2.17481E-03-6.63906E-14
 -1      3702 1.05807E-02-2.07293E-03-6.36377E-14
 -1      3703 1.09746E-02-2.21822E-03-6.81550E-14
 -1      3704 1.11174E-02-2.26156E-03-6.99332E-14
 -1      3705 1.08660E-02-2.15974E-03-6.71331E-14
 -1      3706 1.12602E-02-2.30485E-03-7.17243E-14
 -1      3707 1.14031E-02-2.34808E-03-7.35282E-14
 -1      3708 1.11516E-02-2.24632E-03-7.06854E-14
 -1      3709 1.15459E-02-2.39127E-03-7.53469E-14
 -1      3710 1.16888E-02-2.43442E-03-7.71775E-14
 -1      3711 1.14372E-02-2.33271E-03-7.42923E-14
 -1      3712 1.18317E-02-2.47754E-03-7.90181E-14
 -1      3713 1.19745E-02-2.52063E-03-8.08676E-14
 -1      3714 1.17230E-02-2.41896E-03-7.79490E-14
 -1      3715 1.21174E-02-2.56369E-03-8.27304E-14
 -1      3716 1.22603E-02-2.60672E-03-8.46015E-14
 -1      3717 1.20087E-02-2.50509E-03-8.16484E-14
 -1      3718 1.24032E-02-2.64974E-03-8.64795E-14
 -1      3719 1.25461E-02-2.69274E-03-8.83669E-14
 -1      3720 1.22945E-02-2.59114E-03-8.53871E-14
 -1      3721 1.26890E-02-2.73573E-03-9.02637E-14
 -1      3722 1.28319E-02-2.77870E-03-9.21627E-14
 -1      3723 1.25803E-02-2.67713E-03-8.91578E-14
 -1      3724 1.29748E-02-2.82167E-03-9.40678E-14
 -1      3725 1.31177E-02-2.86463E-03-9.59825E-14
 -1      3726 1.28661E-02-2.76307E-03-9.29589E-14
 -1      3727 1.32606E-02-2.90758E-03-9.79010E-14
 -1      3728 1.34035E-02-2.95052E-03-9.98210E-14
 -1      3729 1.31519E-02-2.84898E-03-9.67828E-14
 -1      3730 1.35463E-02-2.99346E-03-1.01745E-13
 -1      3731 1.36892E-02-3.03640E-03-1.03674E-13
 -1      3732 1.34377E-02-2.93486E-03-1.00625E-13
 -1      3733 1.37791E-02-3.05953E-03-1.04938E-13
 -1      3734 1.38923E-02-3.08934E-03-1.06523E-13
 -1      3735 1.38500E-02-3.04718E-03-1.06342E-13
 -1      3736 1.36704E-02-3.00093E-03-1.03812E-13
 -1      3737 6.22884E-03-5.16757E-04-2.16194E-14
 -1      3738 6.08208E-03-4.74620E-04-2.04852E-14
 -1      3739 1.37830E-02-2.91679E-03-1.06867E-13
 -1      3740 5.93293E-03-4.31153E-04-1.93765E-14
 -1      3741 5.78080E-03-3.85325E-04-1.82937E-14
 -1      3742 6.06928E-03-4.96883E-04-2.00595E-14
 -1      3743 5.62508E-03-3.37051E-04-1.72367E-14
 -1      3744 5.46526E-03-2.84746E-04-1.62058E-14
 -1      3745 5.76987E-03-4.10942E-04-1.78861E-14
 -1      3746 6.51699E-03-5.97898E-04-2.39644E-14
 -1      3747 6.37364E-03-5.57658E-04-2.27798E-14
 -1      3748 6.35809E-03-5.76988E-04-2.23346E-14
 -1      3749 6.80060E-03-6.76887E-04-2.64079E-14
 -1      3750 6.65918E-03-6.37531E-04-2.51730E-14
 -1      3751 6.64067E-03-6.54712E-04-2.47093E-14
 -1      3752 7.08189E-03-7.55097E-04-2.89469E-14
 -1      3753 6.94141E-03-7.16020E-04-2.76665E-14
 -1      3754 6.92004E-03-7.31775E-04-2.71813E-14
 -1      3755 7.36230E-03-8.33306E-04-3.15790E-14
 -1      3756 7.22212E-03-7.94165E-04-3.02507E-14
 -1      3757 7.19820E-03-8.09084E-04-2.97466E-14
 -1      3758 7.64271E-03-9.11958E-04-3.42989E-14
 -1      3759 7.50246E-03-8.72560E-04-3.29285E-14
 -1      3760 7.47632E-03-8.87069E-04-3.24043E-14
 -1      3761 7.92361E-03-9.91290E-04-3.71061E-14
 -1      3762 7.78308E-03-9.51534E-04-3.56907E-14
 -1      3763 7.75508E-03-9.65916E-04-3.51496E-14
 -1      3764 8.20522E-03-1.07141E-03-3.99955E-14
 -1      3765 8.06431E-03-1.03125E-03-3.85409E-14
 -1      3766 8.03478E-03-1.04568E-03-3.79803E-14
 -1      3767 8.48759E-03-1.15233E-03-4.29681E-14
 -1      3768 8.34630E-03-1.11177E-03-4.14709E-14
 -1      3769 8.31554E-03-1.12634E-03-4.08959E-14
 -1      3770 8.77068E-03-1.23404E-03-4.60275E-14
 -1      3771 8.62904E-03-1.19309E-03-4.44868E-14
 -1      3772 8.59731E-03-1.20784E-03-4.38931E-14
 -1      3773 9.05441E-03-1.31646E-03-4.91647E-14
 -1      3774 8.91247E-03-1.27517E-03-4.75859E-14
 -1      3775 8.87998E-03-1.29009E-03-4.69739E-14
 -1      3776 9.33868E-03-1.39953E-03-5.23821E-14
 -1      3777 9.19648E-03-1.35792E-03-5.07646E-14
 -1      3778 9.16342E-03-1.37302E-03-5.01345E-14
 -1      3779 9.62337E-03-1.48316E-03-5.56751E-14
 -1      3780 9.48098E-03-1.44128E-03-5.40191E-14
 -1      3781 9.44750E-03-1.45652E-03-5.33721E-14
 -1      3782 9.90841E-03-1.56727E-03-5.90380E-14
 -1      3783 9.76585E-03-1.52516E-03-5.73481E-14
 -1      3784 9.73207E-03-1.54052E-03-5.66854E-14
 -1      3785 1.01937E-02-1.65178E-03-6.24667E-14
 -1      3786 1.00510E-02-1.60948E-03-6.07444E-14
 -1      3787 1.00170E-02-1.62493E-03-6.00653E-14
 -1      3788 1.04792E-02-1.73661E-03-6.59546E-14
 -1      3789 1.03364E-02-1.69416E-03-6.42040E-14
 -1      3790 1.03023E-02-1.70968E-03-6.35100E-14
 -1      3791 1.07647E-02-1.82170E-03-6.94955E-14
 -1      3792 1.06219E-02-1.77913E-03-6.77175E-14
 -1      3793 1.05877E-02-1.79470E-03-6.70127E-14
 -1      3794 1.10504E-02-1.90700E-03-7.30884E-14
 -1      3795 1.09076E-02-1.86433E-03-7.12861E-14
 -1      3796 1.08733E-02-1.87994E-03-7.05675E-14
 -1      3797 1.13362E-02-1.99246E-03-7.67300E-14
 -1      3798 1.11933E-02-1.94971E-03-7.49044E-14
 -1      3799 1.11589E-02-1.96535E-03-7.41734E-14
 -1      3800 1.16219E-02-2.07805E-03-8.04176E-14
 -1      3801 1.14790E-02-2.03524E-03-7.85670E-14
 -1      3802 1.14447E-02-2.05089E-03-7.78261E-14
 -1      3803 1.19077E-02-2.16372E-03-8.41459E-14
 -1      3804 1.17648E-02-2.12087E-03-8.22766E-14
 -1      3805 1.17305E-02-2.13654E-03-8.15250E-14
 -1      3806 1.21935E-02-2.24947E-03-8.79087E-14
 -1      3807 1.20506E-02-2.20659E-03-8.60229E-14
 -1      3808 1.20162E-02-2.22225E-03-8.52639E-14
 -1      3809 1.24793E-02-2.33526E-03-9.16993E-14
 -1      3810 1.23364E-02-2.29236E-03-8.98004E-14
 -1      3811 1.23020E-02-2.30803E-03-8.90345E-14
 -1      3812 1.27650E-02-2.42109E-03-9.55156E-14
 -1      3813 1.26221E-02-2.37817E-03-9.36051E-14
 -1      3814 1.25878E-02-2.39384E-03-9.28326E-14
 -1      3815 1.30508E-02-2.50694E-03-9.93533E-14
 -1      3816 1.29079E-02-2.46401E-03-9.74307E-14
 -1      3817 1.28736E-02-2.47967E-03-9.66545E-14
 -1      3818 1.33366E-02-2.59280E-03-1.03210E-13
 -1      3819 1.31937E-02-2.54986E-03-1.01280E-13
 -1      3820 1.31594E-02-2.56553E-03-1.00497E-13
 -1      3821 1.38085E-02-3.00573E-03-1.06161E-13
 -1      3822 1.37670E-02-2.96428E-03-1.05976E-13
 -1      3823 1.37187E-02-2.98261E-03-1.04894E-13
 -1      3824 5.58188E-03-4.21683E-04-1.57385E-14
 -1      3825 5.78981E-03-5.15278E-04-1.64565E-14
 -1      3826 2.14708E-03 2.18984E-04-2.96079E-15
 -1      3827 1.21707E-03-2.21430E-04-1.97037E-15
 -1      3828 1.07506E-03-1.63597E-04-1.66123E-15
 -1      3829 1.89132E-03 1.84719E-04-2.38083E-15
 -1      3830 1.73195E-03 9.54702E-05-2.21138E-15
 -1      3831 1.72142E-03 1.59836E-04-2.04037E-15
 -1      3832 1.53925E-03 1.25241E-04-1.71767E-15
 -1      3833 1.58971E-03 2.96298E-05-2.05534E-15
 -1      3834 1.29496E-03 8.84386E-05-1.31140E-15
 -1      3835 1.35663E-02-2.70143E-03-1.05827E-13
 -1      3836 5.27969E-03-2.21589E-04-1.50771E-14
 -1      3837 5.06057E-03-1.40007E-04-1.38296E-14
 -1      3838 6.28161E-03-6.99825E-04-1.80981E-14
 -1      3839 6.34827E-03-7.26598E-04-1.81803E-14
 -1      3840 6.30726E-03-7.58552E-04-1.75537E-14
 -1      3841 1.17095E-03-1.28991E-04-1.69296E-15
 -1      3842 1.28865E-03-1.14700E-04-1.86904E-15
 -1      3843 2.72915E-03 4.80219E-04-4.14444E-15
 -1      3844 5.09243E-03-1.85244E-04-1.37357E-14
 -1      3845 5.31337E-03-2.98856E-04-1.46173E-14
 -1      3846 1.38920E-03-6.55366E-05-1.90284E-15
 -1      3847 5.98520E-03-5.94034E-04-1.71288E-14
 -1      3848 6.13910E-03-6.48791E-04-1.76791E-14
 -1      3849 6.34864E-03-7.54811E-04-1.78982E-14
 -1      3850 6.39309E-03-7.74305E-04-1.84112E-14
 -1      3851 6.49779E-03-8.04616E-04-1.95127E-14
 -1      3852 6.35929E-03-7.42281E-04-1.80157E-14
 -1      3853 1.05439E-03-1.26023E-04-1.45530E-15
 -1      3854 1.45013E-03-1.57669E-05-1.87633E-15
 -1      3855 9.59729E-04-1.50919E-04-1.36276E-15
 -1      3856 5.95667E-03-5.63655E-04-1.75401E-14
 -1      3857 5.43380E-03-3.07132E-04-1.56898E-14
 -1      3858 1.35644E-02-2.78800E-03-1.04710E-13
 -1      3859 1.35224E-02-2.74601E-03-1.04512E-13
 -1      3860 1.36969E-02-2.91564E-03-1.05386E-13
 -1      3861 1.36231E-02-2.84502E-03-1.05004E-13
 -1      3862 1.36071E-02-2.89251E-03-1.04120E-13
 -1      3863 6.42768E-03-7.55078E-04-1.89295E-14
 -1      3864 5.49829E-03-3.59080E-04-1.57356E-14
 -1      3865 4.90391E-03-7.55888E-05-1.30124E-14
 -1      3866 5.68601E-03-4.22298E-04-1.68501E-14
 -1      3867 1.43447E-03 3.15699E-05-1.71648E-15
 -1      3868 1.02348E-03-1.43011E-04-1.46838E-15
 -1      3869 6.28735E-03-6.92605E-04-1.86644E-14
 -1      3870 6.42293E-03-7.33631E-04-1.96692E-14
 -1      3871 6.29252E-03-6.82019E-04-1.92310E-14
 -1      3872 9.64840E-04-1.42209E-04-1.35521E-15
 -1      3873 6.54086E-03-8.01372E-04-2.00071E-14
 -1      3874 1.34783E-02-2.78685E-03-1.03234E-13
 -1      3875 6.53430E-03-7.83418E-04-2.01755E-14
 -1      3876 6.53726E-03-7.74061E-04-2.04864E-14
 -1      3877 6.67050E-03-8.23372E-04-2.16052E-14
 -1      3878 6.78398E-03-8.57597E-04-2.27750E-14
 -1      3879 6.56176E-03-7.70768E-04-2.10818E-14
 -1      3880 6.91961E-03-8.98794E-04-2.41522E-14
 -1      3881 7.04060E-03-9.36275E-04-2.53712E-14
 -1      3882 7.16436E-03-9.74853E-04-2.66135E-14
 -1      3883 7.29051E-03-1.01472E-03-2.78766E-14
 -1      3884 7.06996E-03-9.30539E-04-2.58942E-14
 -1      3885 7.41878E-03-1.05543E-03-2.91621E-14
 -1      3886 7.54891E-03-1.09705E-03-3.04685E-14
 -1      3887 7.32189E-03-1.00819E-03-2.84153E-14
 -1      3888 7.68066E-03-1.13926E-03-3.17972E-14
 -1      3889 7.81385E-03-1.18208E-03-3.31478E-14
 -1      3890 7.58153E-03-1.08959E-03-3.10237E-14
 -1      3891 7.94830E-03-1.22526E-03-3.45185E-14
 -1      3892 8.08386E-03-1.26882E-03-3.59115E-14
 -1      3893 7.84721E-03-1.17360E-03-3.37188E-14
 -1      3894 8.22040E-03-1.31259E-03-3.73245E-14
 -1      3895 8.35781E-03-1.35656E-03-3.87589E-14
 -1      3896 8.11765E-03-1.25932E-03-3.64983E-14
 -1      3897 8.49596E-03-1.40061E-03-4.02156E-14
 -1      3898 8.63478E-03-1.44475E-03-4.16933E-14
 -1      3899 8.39183E-03-1.34607E-03-3.93645E-14
 -1      3900 8.77418E-03-1.48889E-03-4.31906E-14
 -1      3901 8.91409E-03-1.53304E-03-4.47081E-14
 -1      3902 8.66892E-03-1.43335E-03-4.23149E-14
 -1      3903 9.05443E-03-1.57714E-03-4.62461E-14
 -1      3904 9.19516E-03-1.62121E-03-4.78039E-14
 -1      3905 8.94827E-03-1.52083E-03-4.53470E-14
 -1      3906 9.33622E-03-1.66521E-03-4.93812E-14
 -1      3907 9.47757E-03-1.70915E-03-5.09766E-14
 -1      3908 9.22936E-03-1.60830E-03-4.84596E-14
 -1      3909 9.61917E-03-1.75301E-03-5.25896E-14
 -1      3910 9.76099E-03-1.79679E-03-5.42208E-14
 -1      3911 9.51177E-03-1.69564E-03-5.16479E-14
 -1      3912 9.90298E-03-1.84050E-03-5.58699E-14
 -1      3913 1.00451E-02-1.88414E-03-5.75361E-14
 -1      3914 9.79518E-03-1.78279E-03-5.49078E-14
 -1      3915 1.01874E-02-1.92771E-03-5.92190E-14
 -1      3916 1.03298E-02-1.97121E-03-6.09184E-14
 -1      3917 1.00793E-02-1.86973E-03-5.82366E-14
 -1      3918 1.04723E-02-2.01464E-03-6.26364E-14
 -1      3919 1.06149E-02-2.05802E-03-6.43676E-14
 -1      3920 1.03640E-02-1.95648E-03-6.16351E-14
 -1      3921 1.07575E-02-2.10134E-03-6.61127E-14
 -1      3922 1.09002E-02-2.14462E-03-6.78744E-14
 -1      3923 1.06491E-02-2.04304E-03-6.50955E-14
 -1      3924 1.10430E-02-2.18784E-03-6.96492E-14
 -1      3925 1.11858E-02-2.23103E-03-7.14378E-14
 -1      3926 1.09344E-02-2.12944E-03-6.86142E-14
 -1      3927 1.13286E-02-2.27419E-03-7.32415E-14
 -1      3928 1.14714E-02-2.31731E-03-7.50560E-14
 -1      3929 1.12200E-02-2.21571E-03-7.21904E-14
 -1      3930 1.16143E-02-2.36040E-03-7.68822E-14
 -1      3931 1.17572E-02-2.40347E-03-7.87195E-14
 -1      3932 1.15056E-02-2.30188E-03-7.58171E-14
 -1      3933 1.19000E-02-2.44651E-03-8.05671E-14
 -1      3934 1.20429E-02-2.48954E-03-8.24276E-14
 -1      3935 1.17914E-02-2.38796E-03-7.94888E-14
 -1      3936 1.21858E-02-2.53255E-03-8.42955E-14
 -1      3937 1.23287E-02-2.57554E-03-8.61712E-14
 -1      3938 1.20771E-02-2.47397E-03-8.32028E-14
 -1      3939 1.24716E-02-2.61853E-03-8.80556E-14
 -1      3940 1.26145E-02-2.66150E-03-8.99490E-14
 -1      3941 1.23629E-02-2.55994E-03-8.69548E-14
 -1      3942 1.27574E-02-2.70447E-03-9.18475E-14
 -1      3943 1.29003E-02-2.74742E-03-9.37525E-14
 -1      3944 1.26487E-02-2.64587E-03-9.07359E-14
 -1      3945 1.30432E-02-2.79037E-03-9.56635E-14
 -1      3946 1.31861E-02-2.83332E-03-9.75815E-14
 -1      3947 1.29346E-02-2.73177E-03-9.45464E-14
 -1      3948 1.33290E-02-2.87626E-03-9.95019E-14
 -1      3949 1.34719E-02-2.91920E-03-1.01424E-13
 -1      3950 1.32203E-02-2.81766E-03-9.83773E-14
 -1      3951 1.35504E-02-2.93934E-03-1.02529E-13
 -1      3952 1.36402E-02-2.96247E-03-1.03792E-13
 -1      3953 1.35987E-02-2.92102E-03-1.03608E-13
 -1      3954 1.34417E-02-2.88074E-03-1.01402E-13
 -1      3955 1.35286E-02-2.87237E-03-1.03017E-13
 -1      3956 6.20392E-03-5.58603E-04-2.07470E-14
 -1      3957 6.06041E-03-5.19766E-04-1.96314E-14
 -1      3958 5.94966E-03-4.92694E-04-1.87579E-14
 -1      3959 5.80106E-03-4.51364E-04-1.76884E-14
 -1      3960 5.87445E-03-5.05043E-04-1.76938E-14
 -1      3961 6.09018E-03-5.55118E-04-1.94215E-14
 -1      3962 7.03756E-03-7.85176E-04-2.79576E-14
 -1      3963 6.89992E-03-7.47127E-04-2.66956E-14
 -1      3964 7.31288E-03-8.62105E-04-3.05496E-14
 -1      3965 7.17513E-03-8.23491E-04-2.92426E-14
 -1      3966 7.15290E-03-8.37360E-04-2.87376E-14
 -1      3967 7.58902E-03-9.40237E-04-3.32329E-14
 -1      3968 7.45079E-03-9.01024E-04-3.18800E-14
 -1      3969 7.42583E-03-9.14397E-04-3.13560E-14
 -1      3970 7.86640E-03-1.01954E-03-3.60046E-14
 -1      3971 7.72753E-03-9.79751E-04-3.46081E-14
 -1      3972 7.70037E-03-9.93009E-04-3.40653E-14
 -1      3973 8.14516E-03-1.09990E-03-3.88605E-14
 -1      3974 8.00559E-03-1.05960E-03-3.74209E-14
 -1      3975 7.97669E-03-1.07298E-03-3.68626E-14
 -1      3976 8.42527E-03-1.18121E-03-4.17975E-14
 -1      3977 8.28504E-03-1.14045E-03-4.03184E-14
 -1      3978 8.25476E-03-1.15408E-03-3.97413E-14
 -1      3979 8.70660E-03-1.26335E-03-4.48206E-14
 -1      3980 8.56578E-03-1.22219E-03-4.32988E-14
 -1      3981 8.53443E-03-1.23612E-03-4.27036E-14
 -1      3982 8.98898E-03-1.34619E-03-4.79246E-14
 -1      3983 8.84766E-03-1.30469E-03-4.63625E-14
 -1      3984 8.81548E-03-1.31894E-03-4.57498E-14
 -1      3985 9.27223E-03-1.42963E-03-5.11049E-14
 -1      3986 9.13050E-03-1.38785E-03-4.95045E-14
 -1      3987 9.09770E-03-1.40239E-03-4.88763E-14
 -1      3988 9.55618E-03-1.51358E-03-5.43648E-14
 -1      3989 9.41413E-03-1.47155E-03-5.27255E-14
 -1      3990 9.38085E-03-1.48635E-03-5.20785E-14
 -1      3991 9.84068E-03-1.59794E-03-5.76944E-14
 -1      3992 9.69837E-03-1.55572E-03-5.60206E-14
 -1      3993 9.66475E-03-1.57073E-03-5.53576E-14
 -1      3994 1.01256E-02-1.68265E-03-6.10945E-14
 -1      3995 9.98309E-03-1.64026E-03-5.93867E-14
 -1      3996 9.94922E-03-1.65545E-03-5.87061E-14
 -1      3997 1.04108E-02-1.76763E-03-6.45535E-14
 -1      3998 1.02682E-02-1.72511E-03-6.28161E-14
 -1      3999 1.02341E-02-1.74044E-03-6.21223E-14
 -1      4000 1.06962E-02-1.85284E-03-6.80711E-14
 -1      4001 1.05535E-02-1.81021E-03-6.63066E-14
 -1      4002 1.05193E-02-1.82564E-03-6.55983E-14
 -1      4003 1.09818E-02-1.93821E-03-7.16384E-14
 -1      4004 1.08390E-02-1.89551E-03-6.98479E-14
 -1      4005 1.08048E-02-1.91102E-03-6.91299E-14
 -1      4006 1.12675E-02-2.02373E-03-7.52589E-14
 -1      4007 1.11246E-02-1.98096E-03-7.34436E-14
 -1      4008 1.10904E-02-1.99652E-03-7.27127E-14
 -1      4009 1.15532E-02-2.10935E-03-7.89237E-14
 -1      4010 1.14104E-02-2.06653E-03-7.70853E-14
 -1      4011 1.13760E-02-2.08213E-03-7.63434E-14
 -1      4012 1.18390E-02-2.19504E-03-8.26336E-14
 -1      4013 1.16961E-02-2.15219E-03-8.07733E-14
 -1      4014 1.16618E-02-2.16782E-03-8.00216E-14
 -1      4015 1.21248E-02-2.28080E-03-8.63812E-14
 -1      4016 1.19819E-02-2.23791E-03-8.45035E-14
 -1      4017 1.19476E-02-2.25356E-03-8.37420E-14
 -1      4018 1.24106E-02-2.36659E-03-9.01609E-14
 -1      4019 1.22677E-02-2.32369E-03-8.82669E-14
 -1      4020 1.22334E-02-2.33935E-03-8.74990E-14
 -1      4021 1.26964E-02-2.45242E-03-9.39659E-14
 -1      4022 1.25535E-02-2.40950E-03-9.20611E-14
 -1      4023 1.25192E-02-2.42517E-03-9.12878E-14
 -1      4024 1.29822E-02-2.53827E-03-9.77936E-14
 -1      4025 1.28393E-02-2.49534E-03-9.58778E-14
 -1      4026 1.28050E-02-2.51101E-03-9.50990E-14
 -1      4027 1.34637E-02-2.68533E-03-1.04254E-13
 -1      4028 6.05733E-03-5.85096E-04-1.83961E-14
 -1      4029 6.76218E-03-7.09342E-04-2.54571E-14
 -1      4030 6.62397E-03-6.71694E-04-2.42439E-14
 -1      4031 6.88105E-03-7.62067E-04-2.62107E-14
 -1      4032 6.48516E-03-6.34177E-04-2.30536E-14
 -1      4033 6.34525E-03-5.96488E-04-2.18875E-14
 -1      4034 6.60920E-03-6.88534E-04-2.37768E-14
 -1      4035 1.33610E-02-2.66914E-03-1.02683E-13
 -1      4036 1.40911E-03 7.57891E-05-1.56017E-15
 -1      4037 1.33844E-02-2.77862E-03-1.01715E-13
 -1      4038 1.33257E-02-2.72160E-03-1.01421E-13
 -1      4039 1.32719E-02-2.67390E-03-1.01088E-13
 -1      4040 1.32132E-02-2.61322E-03-1.00832E-13
 -1      4041 1.30703E-02-2.57029E-03-9.89083E-14
 -1      4042 1.31779E-02-2.66568E-03-9.95731E-14
 -1      4043 1.34088E-02-2.84393E-03-1.01306E-13
 -1      4044 1.34172E-02-2.81543E-03-1.01815E-13
 -1      4045 1.32646E-02-2.75018E-03-1.00007E-13
 -1      4046 1.33304E-02-2.82379E-03-1.00204E-13
 -1      4047 6.33529E-03-6.16271E-04-2.14399E-14
 -1      4048 1.30360E-02-2.58596E-03-9.81260E-14
 -1      4049 6.80982E-03-8.52532E-04-2.32783E-14
 -1      4050 6.15762E-03-6.00163E-04-1.94171E-14
 -1      4051 6.22677E-03-6.47463E-04-1.92524E-14
 -1      4052 6.38278E-03-6.97270E-04-2.02773E-14
 -1      4053 6.25950E-03-6.22982E-04-2.03056E-14
 -1      4054 6.55172E-03-7.55412E-04-2.13992E-14
 -1      4055 6.67465E-03-8.00332E-04-2.22504E-14
 -1      4056 6.97206E-03-8.86844E-04-2.51783E-14
 -1      4057 7.09627E-03-9.23764E-04-2.64141E-14
 -1      4058 7.22268E-03-9.61717E-04-2.76716E-14
 -1      4059 7.35093E-03-1.00083E-03-2.89509E-14
 -1      4060 7.12068E-03-9.15791E-04-2.69315E-14
 -1      4061 7.48090E-03-1.04072E-03-3.02534E-14
 -1      4062 7.61237E-03-1.08144E-03-3.15771E-14
 -1      4063 7.37842E-03-9.92502E-04-2.94857E-14
 -1      4064 7.74519E-03-1.12272E-03-3.29220E-14
 -1      4065 7.87922E-03-1.16457E-03-3.42889E-14
 -1      4066 7.64195E-03-1.07251E-03-3.21278E-14
 -1      4067 8.01434E-03-1.20678E-03-3.56766E-14
 -1      4068 8.15042E-03-1.24936E-03-3.70857E-14
 -1      4069 7.91023E-03-1.15488E-03-3.48570E-14
 -1      4070 8.28737E-03-1.29217E-03-3.85175E-14
 -1      4071 8.42508E-03-1.33520E-03-3.99702E-14
 -1      4072 8.18241E-03-1.23886E-03-3.76736E-14
 -1      4073 8.56348E-03-1.37836E-03-4.14434E-14
 -1      4074 8.70249E-03-1.42164E-03-4.29375E-14
 -1      4075 8.45775E-03-1.32389E-03-4.05753E-14
 -1      4076 8.84203E-03-1.46497E-03-4.44514E-14
 -1      4077 8.98205E-03-1.50836E-03-4.59854E-14
 -1      4078 8.73563E-03-1.40956E-03-4.35583E-14
 -1      4079 9.12247E-03-1.55176E-03-4.75400E-14
 -1      4080 9.26327E-03-1.59517E-03-4.91144E-14
 -1      4081 9.01551E-03-1.49559E-03-4.66236E-14
 -1      4082 9.40438E-03-1.63857E-03-5.07061E-14
 -1      4083 9.54577E-03-1.68195E-03-5.23169E-14
 -1      4084 9.29697E-03-1.58180E-03-4.97667E-14
 -1      4085 9.68740E-03-1.72531E-03-5.39459E-14
 -1      4086 9.82924E-03-1.76864E-03-5.55930E-14
 -1      4087 9.57963E-03-1.66807E-03-5.29862E-14
 -1      4088 9.97126E-03-1.81194E-03-5.72570E-14
 -1      4089 1.01134E-02-1.85521E-03-5.89369E-14
 -1      4090 9.86322E-03-1.75434E-03-5.62772E-14
 -1      4091 1.02557E-02-1.89845E-03-6.06350E-14
 -1      4092 1.03982E-02-1.94166E-03-6.23497E-14
 -1      4093 1.01475E-02-1.84057E-03-5.96370E-14
 -1      4094 1.05407E-02-1.98484E-03-6.40790E-14
 -1      4095 1.06833E-02-2.02799E-03-6.58223E-14
 -1      4096 1.04323E-02-1.92675E-03-6.30631E-14
 -1      4097 1.08259E-02-2.07111E-03-6.75815E-14
 -1      4098 1.09686E-02-2.11421E-03-6.93549E-14
 -1      4099 1.07174E-02-2.01286E-03-6.65514E-14
 -1      4100 1.11114E-02-2.15729E-03-7.11404E-14
 -1      4101 1.12542E-02-2.20035E-03-7.29412E-14
 -1      4102 1.10028E-02-2.09893E-03-7.00936E-14
 -1      4103 1.13970E-02-2.24339E-03-7.47527E-14
 -1      4104 1.15398E-02-2.28641E-03-7.65746E-14
 -1      4105 1.12884E-02-2.18494E-03-7.36885E-14
 -1      4106 1.16827E-02-2.32942E-03-7.84090E-14
 -1      4107 1.18256E-02-2.37242E-03-8.02545E-14
 -1      4108 1.15741E-02-2.27092E-03-7.73304E-14
 -1      4109 1.19685E-02-2.41541E-03-8.21115E-14
 -1      4110 1.21114E-02-2.45839E-03-8.39774E-14
 -1      4111 1.18598E-02-2.35687E-03-8.10203E-14
 -1      4112 1.22543E-02-2.50136E-03-8.58518E-14
 -1      4113 1.23972E-02-2.54432E-03-8.77348E-14
 -1      4114 1.21456E-02-2.44279E-03-8.47504E-14
 -1      4115 1.25401E-02-2.58728E-03-8.96245E-14
 -1      4116 1.26830E-02-2.63023E-03-9.15217E-14
 -1      4117 1.24314E-02-2.52869E-03-8.85126E-14
 -1      4118 1.28259E-02-2.67318E-03-9.34274E-14
 -1      4119 1.29688E-02-2.71612E-03-9.53369E-14
 -1      4120 1.27172E-02-2.61458E-03-9.23079E-14
 -1      4121 1.30781E-02-2.74849E-03-9.68076E-14
 -1      4122 1.32210E-02-2.79143E-03-9.87270E-14
 -1      4123 1.31881E-02-2.75462E-03-9.86291E-14
 -1      4124 1.29695E-02-2.68989E-03-9.56817E-14
 -1      4125 6.39310E-03-6.56928E-04-2.14385E-14
 -1      4126 7.81040E-03-1.04551E-03-3.48999E-14
 -1      4127 7.67342E-03-1.00562E-03-3.35211E-14
 -1      4128 7.26602E-03-8.88531E-04-2.95202E-14
 -1      4129 7.13129E-03-8.50524E-04-2.82314E-14
 -1      4130 8.08599E-03-1.12634E-03-3.77219E-14
 -1      4131 7.94791E-03-1.08577E-03-3.63005E-14
 -1      4132 7.91917E-03-1.09794E-03-3.57377E-14
 -1      4133 8.36364E-03-1.20829E-03-4.06244E-14
 -1      4134 8.22457E-03-1.16719E-03-3.91639E-14
 -1      4135 8.19439E-03-1.17976E-03-3.85839E-14
 -1      4136 8.64307E-03-1.29113E-03-4.36119E-14
 -1      4137 8.50315E-03-1.24962E-03-4.21074E-14
 -1      4138 8.47187E-03-1.26264E-03-4.15121E-14
 -1      4139 8.92400E-03-1.37465E-03-4.66806E-14
 -1      4140 8.78336E-03-1.33281E-03-4.51347E-14
 -1      4141 8.75125E-03-1.34630E-03-4.45209E-14
 -1      4142 9.20617E-03-1.45871E-03-4.98290E-14
 -1      4143 9.06495E-03-1.41662E-03-4.82457E-14
 -1      4144 9.03221E-03-1.43053E-03-4.76129E-14
 -1      4145 9.48931E-03-1.54318E-03-5.30533E-14
 -1      4146 9.34763E-03-1.50090E-03-5.14313E-14
 -1      4147 9.31443E-03-1.51519E-03-5.07842E-14
 -1      4148 9.77322E-03-1.62798E-03-5.63518E-14
 -1      4149 9.63118E-03-1.58555E-03-5.46949E-14
 -1      4150 9.59763E-03-1.60016E-03-5.40302E-14
 -1      4151 1.00577E-02-1.71304E-03-5.97216E-14
 -1      4152 9.91540E-03-1.67048E-03-5.80274E-14
 -1      4153 9.88160E-03-1.68536E-03-5.73495E-14
 -1      4154 1.03426E-02-1.79830E-03-6.31510E-14
 -1      4155 1.02001E-02-1.75565E-03-6.14286E-14
 -1      4156 1.01661E-02-1.77073E-03-6.07352E-14
 -1      4157 1.06279E-02-1.88371E-03-6.66431E-14
 -1      4158 1.04852E-02-1.84099E-03-6.48897E-14
 -1      4159 1.04511E-02-1.85624E-03-6.41821E-14
 -1      4160 1.09133E-02-1.96924E-03-7.01899E-14
 -1      4161 1.07706E-02-1.92646E-03-6.84115E-14
 -1      4162 1.07364E-02-1.94184E-03-6.76897E-14
 -1      4163 1.11989E-02-2.05487E-03-7.37863E-14
 -1      4164 1.10561E-02-2.01204E-03-7.19802E-14
 -1      4165 1.10219E-02-2.02752E-03-7.12512E-14
 -1      4166 1.14846E-02-2.14056E-03-7.74313E-14
 -1      4167 1.13418E-02-2.09771E-03-7.56026E-14
 -1      4168 1.13075E-02-2.11325E-03-7.48596E-14
 -1      4169 1.17704E-02-2.22631E-03-8.11192E-14
 -1      4170 1.16275E-02-2.18343E-03-7.92695E-14
 -1      4171 1.15932E-02-2.19902E-03-7.85179E-14
 -1      4172 1.20562E-02-2.31210E-03-8.48524E-14
 -1      4173 1.19133E-02-2.26920E-03-8.29824E-14
 -1      4174 1.18790E-02-2.28482E-03-8.22209E-14
 -1      4175 1.23420E-02-2.39791E-03-8.86196E-14
 -1      4176 1.21991E-02-2.35500E-03-8.67321E-14
 -1      4177 1.21648E-02-2.37064E-03-8.59637E-14
 -1      4178 1.26278E-02-2.48375E-03-9.24123E-14
 -1      4179 1.24849E-02-2.44083E-03-9.05126E-14
 -1      4180 1.24506E-02-2.45648E-03-8.97391E-14
 -1      4181 1.29136E-02-2.56960E-03-9.62315E-14
 -1      4182 1.27707E-02-2.52667E-03-9.43188E-14
 -1      4183 1.27364E-02-2.54234E-03-9.35387E-14
 -1      4184 7.53705E-03-9.66124E-04-3.21643E-14
 -1      4185 7.40122E-03-9.27081E-04-3.08317E-14
 -1      4186 7.64657E-03-1.01755E-03-3.29770E-14
 -1      4187 6.99713E-03-8.13117E-04-2.69667E-14
 -1      4188 6.86327E-03-7.76319E-04-2.57231E-14
 -1      4189 7.11019E-03-8.62924E-04-2.77258E-14
 -1      4190 6.72984E-03-7.40209E-04-2.45041E-14
 -1      4191 6.59632E-03-7.04726E-04-2.33088E-14
 -1      4192 6.84649E-03-7.89819E-04-2.52358E-14
 -1      4193 1.30898E-02-2.63365E-03-9.84575E-14
 -1      4194 1.30017E-02-2.60163E-03-9.73450E-14
 -1      4195 1.29674E-02-2.61729E-03-9.65600E-14
 -1      4196 6.81130E-03-8.39033E-04-2.36122E-14
 -1      4197 6.51701E-03-7.07024E-04-2.21297E-14
 -1      4198 6.82992E-03-8.30740E-04-2.41098E-14
 -1      4199 7.37686E-03-9.39025E-04-3.03062E-14
 -1      4200 1.31436E-02-2.68135E-03-9.87876E-14
 -1      4201 6.50131E-03-7.25638E-04-2.14241E-14
 -1      4202 1.31823E-02-2.73639E-03-9.87620E-14
 -1      4203 1.31494E-02-2.69958E-03-9.86597E-14
 -1      4204 1.30613E-02-2.66755E-03-9.75460E-14
 -1      4205 1.30730E-02-2.70402E-03-9.72855E-14
 -1      4206 7.24721E-03-9.28220E-04-2.86054E-14
 -1      4207 7.37878E-03-9.66746E-04-2.99005E-14
 -1      4208 7.51151E-03-1.00593E-03-3.12173E-14
 -1      4209 7.64522E-03-1.04581E-03-3.25555E-14
 -1      4210 7.77992E-03-1.08617E-03-3.39172E-14
 -1      4211 7.91548E-03-1.12704E-03-3.53003E-14
 -1      4212 8.05188E-03-1.16824E-03-3.67050E-14
 -1      4213 8.18901E-03-1.20981E-03-3.81325E-14
 -1      4214 8.32684E-03-1.25161E-03-3.95787E-14
 -1      4215 8.46528E-03-1.29366E-03-4.10467E-14
 -1      4216 8.60428E-03-1.33587E-03-4.25360E-14
 -1      4217 8.74378E-03-1.37825E-03-4.40432E-14
 -1      4218 8.88374E-03-1.42072E-03-4.55727E-14
 -1      4219 9.02411E-03-1.46331E-03-4.71215E-14
 -1      4220 9.16483E-03-1.50597E-03-4.86914E-14
 -1      4221 9.30587E-03-1.54869E-03-5.02793E-14
 -1      4222 9.44718E-03-1.59146E-03-5.18859E-14
 -1      4223 9.58874E-03-1.63427E-03-5.35115E-14
 -1      4224 9.73052E-03-1.67711E-03-5.51542E-14
 -1      4225 9.87248E-03-1.71997E-03-5.68162E-14
 -1      4226 1.00146E-02-1.76285E-03-5.84950E-14
 -1      4227 1.01569E-02-1.80575E-03-6.01899E-14
 -1      4228 1.02992E-02-1.84865E-03-6.18994E-14
 -1      4229 1.04417E-02-1.89156E-03-6.36255E-14
 -1      4230 1.05843E-02-1.93448E-03-6.53670E-14
 -1      4231 1.07269E-02-1.97741E-03-6.71231E-14
 -1      4232 1.08696E-02-2.02033E-03-6.88932E-14
 -1      4233 1.10123E-02-2.06326E-03-7.06759E-14
 -1      4234 1.11551E-02-2.10619E-03-7.24699E-14
 -1      4235 1.12979E-02-2.14912E-03-7.42765E-14
 -1      4236 1.14408E-02-2.19206E-03-7.60978E-14
 -1      4237 1.15836E-02-2.23499E-03-7.79279E-14
 -1      4238 1.17265E-02-2.27792E-03-7.97688E-14
 -1      4239 1.18694E-02-2.32086E-03-8.16233E-14
 -1      4240 1.20123E-02-2.36379E-03-8.34862E-14
 -1      4241 1.21552E-02-2.40672E-03-8.53584E-14
 -1      4242 1.22981E-02-2.44966E-03-8.72395E-14
 -1      4243 1.24410E-02-2.49259E-03-8.91284E-14
 -1      4244 1.25839E-02-2.53553E-03-9.10233E-14
 -1      4245 1.27268E-02-2.57846E-03-9.29249E-14
 -1      4246 6.69163E-03-7.71044E-04-2.33003E-14
 -1      4247 6.85950E-03-8.18265E-04-2.48561E-14
 -1      4248 6.98755E-03-8.53863E-04-2.60835E-14
 -1      4249 1.28697E-02-2.62140E-03-9.48330E-14
 -1      4250 7.11671E-03-8.90615E-04-2.73336E-14
 -1      4251 1.29732E-02-2.63553E-03-9.64316E-14
 -1      4252 1.29636E-02-2.67166E-03-9.58142E-14
 -3
    1PSTEP                         2           1           1          
  100CL  101 1.000000000        4252                     0    1           1
 -4  STRESS      6    1
 -5  SXX         1    4    1    1
 -5  SYY         1    4    2    2
 -5  SZZ         1    4    3    3
 -5  SXY         1    4    1    2
 -5  SYZ         1    4    2    3
 -5  SZX         1    4    3    1
 -1         1 7.09025E+01 9.38945E-01 4.14272E+00 3.41630E-01-8.63892E-14 2.30671E-13
 -1         2-6.57924E-01-2.51114E+01-3.40733E+00 2.17612E-02 5.12132E-13 5.46854E-14
 -1         3 1.99998E+01 3.24675E-05-7.81129E-05 3.23115E-05-3.34707E-13-2.94290E-13
 -1         4 1.99998E+01 4.89975E-05-7.00128E-05-4.96484E-05 3.45741E-13-4.43632E-13
 -1         5 3.44997E+01 6.49356E+00 2.75776E+00 6.36826E+00-4.52971E-14 3.08902E-12
 -1         6 3.76213E+01 1.27670E+01 4.93510E+00-8.57561E+00-1.70308E-13 2.22666E-12
 -1         7 2.36660E+01 6.87578E+00 5.79692E-02-3.96366E+00-2.74780E-14 2.48478E-13
 -1         8 2.16247E+01 6.49882E+00 1.23521E-01-2.00382E+00-2.42306E-14-3.14106E-13
 -1         9 1.99762E+01 6.01751E+00 5.80827E-02-1.08613E+00-1.82562E-14-6.04937E-13
 -1        10 1.85804E+01 5.59924E+00 1.16588E-02-6.15625E-01-1.09079E-14-7.41169E-13
 -1        11 1.74680E+01 5.26566E+00-2.31861E-02-4.42853E-01-7.52870E-15-7.92598E-13
 -1        12 1.67268E+01 5.04250E+00-4.26335E-02-4.59598E-01-2.67147E-16-8.09964E-13
 -1        13 1.63817E+01 4.93816E+00-4.40151E-02-5.57326E-01 9.81853E-16-7.87512E-13
 -1        14 1.64333E+01 4.95246E+00-2.86069E-02-6.27531E-01 7.39773E-15-7.52583E-13
 -1        15 1.68033E+01 5.06217E+00-2.42356E-03-5.84943E-01 1.17129E-14-6.99017E-13
 -1        16 1.73782E+01 5.23364E+00 2.64761E-02-3.83681E-01 1.64556E-14-6.28645E-13
 -1        17 1.80474E+01 5.43382E+00 5.12259E-02-1.73995E-02 1.80828E-14-5.43190E-13
 -1        18 1.87227E+01 5.63784E+00 6.81166E-02 4.83880E-01 2.34743E-14-4.09225E-13
 -1        19 1.94048E+01 5.84562E+00 7.70965E-02 1.11617E+00 3.36432E-14-2.32442E-13
 -1        20 2.01260E+01 6.06802E+00 7.94468E-02 1.87259E+00 3.64986E-14 5.04956E-14
 -1        21 2.10457E+01 6.35565E+00 8.47749E-02 2.82486E+00 4.02178E-14 5.22422E-13
 -1        22 2.28462E+01 6.84413E+00 1.87247E-01 4.31707E+00 1.29063E-15 1.38378E-12
 -1        23 2.65485E+01-1.58061E+00-1.03206E+00-4.68515E-01-1.12570E-13 1.65300E-12
 -1        24 2.43151E+01-1.04153E-01-3.02161E-01 1.16386E-01-2.53582E-14 1.15196E-12
 -1        25 2.49497E+01-5.67558E-02-6.81284E-02 1.02218E-01-1.82935E-14 6.86267E-13
 -1        26 2.60842E+01-1.47184E-02-6.02927E-04 8.39516E-02 1.02718E-14 3.88762E-13
 -1        27 2.73513E+01 1.36526E-02 4.43672E-02 7.47875E-02-5.45787E-16 2.54862E-13
 -1        28 2.82560E+01 4.45331E-02 1.11940E-01 3.81203E-02-6.13528E-15 1.64122E-13
 -1        29 2.80991E+01 6.63951E-02 1.79614E-01-5.41025E-02 2.82712E-14 1.51559E-13
 -1        30 2.62154E+01 5.61587E-02 1.70506E-01-2.00582E-01 1.80411E-15 1.12861E-13
 -1        31 2.26477E+01-1.00320E-03 3.79221E-03-3.18043E-01-3.13779E-15-1.99674E-13
 -1        32 1.88731E+01-6.82267E-02-2.51906E-01-2.52334E-01-1.44416E-14-5.15553E-13
 -1        33 1.72347E+01-1.18947E-01-3.88909E-01-1.49368E-02 4.87544E-15-8.53959E-13
 -1        34 1.88269E+01-7.84961E-02-2.67651E-01 2.54631E-01-2.66861E-14-9.54743E-13
 -1        35 2.27140E+01-3.94187E-03-8.37686E-03 3.28607E-01-2.14542E-14-1.04317E-12
 -1        36 2.65065E+01 5.67125E-02 1.66471E-01 2.19247E-01 2.49280E-14-1.06469E-12
 -1        37 2.86349E+01 7.16177E-02 1.84269E-01 7.21834E-02 1.51554E-14-1.01819E-12
 -1        38 2.89592E+01 5.36228E-02 1.17932E-01-2.21252E-02-6.52087E-14-1.13684E-12
 -1        39 2.81018E+01 2.69887E-02 4.69551E-02-5.71656E-02 1.70983E-14-1.05133E-12
 -1        40 2.67374E+01 6.01262E-03 2.19134E-03-5.79940E-02-7.63345E-14-8.47919E-13
 -1        41 2.53117E+01-6.09314E-03-1.75956E-02-4.61516E-02-1.69510E-14-1.19327E-12
 -1        42 2.40419E+01-1.12626E-02-2.25219E-02-3.27697E-02 2.67431E-14-1.21392E-12
 -1        43 2.29996E+01-1.22978E-02-2.07915E-02-2.18096E-02-4.52973E-14-1.38290E-12
 -1        44 2.21831E+01-1.13246E-02-1.69765E-02-1.39044E-02 1.06464E-13-1.34340E-12
 -1        45 2.15615E+01-9.60495E-03-1.30859E-02-8.55265E-03 6.57482E-14-9.12287E-13
 -1        46 2.10974E+01-7.78037E-03-9.79785E-03-5.05393E-03-4.29839E-14-7.74312E-13
 -1        47 2.07559E+01-6.12857E-03-7.22383E-03-2.81594E-03-4.27430E-14-7.73765E-13
 -1        48 2.05078E+01-4.73951E-03-5.27776E-03-1.40909E-03-7.44305E-17-7.48559E-13
 -1        49 2.03299E+01-3.61671E-03-3.82953E-03-5.42126E-04 6.30261E-14-9.11686E-13
 -1        50 2.02042E+01-2.72974E-03-2.75912E-03-2.35195E-05 1.20462E-14-1.26977E-12
 -1        51 2.01169E+01-2.03906E-03-1.97038E-03 2.71190E-04-5.04748E-15-1.02103E-12
 -1        52 2.00578E+01-1.50663E-03-1.39050E-03 4.22829E-04 8.13152E-20-7.88169E-13
 -1        53 2.00190E+01-1.09957E-03-9.65555E-04 4.84149E-04-8.40982E-14-1.30613E-12
 -1        54 1.99947E+01-7.90839E-04-6.55839E-04 4.89807E-04-1.24239E-14-1.53582E-12
 -1        55 1.99805E+01-5.58723E-04-4.31984E-04 4.62683E-04 1.01307E-13-1.17867E-12
 -1        56 1.99733E+01-3.85976E-04-2.72127E-04 4.17875E-04-4.33100E-14-9.79105E-13
 -1        57 1.99707E+01-2.58970E-04-1.59856E-04 3.65264E-04 9.79829E-14-8.42761E-13
 -1        58 1.99710E+01-1.66968E-04-8.27778E-05 3.11184E-04-1.55807E-13-1.19943E-12
 -1        59 1.99731E+01-1.01528E-04-3.14959E-05 2.59538E-04 5.43320E-15-1.49121E-12
 -1        60 1.99761E+01-5.60317E-05 1.11476E-06 2.12570E-04-8.89075E-15-1.13804E-12
 -1        61 1.99794E+01-2.53127E-05 2.04455E-05 1.71400E-04-3.38790E-14-1.26668E-12
 -1        62 1.99829E+01-5.35390E-06 3.05587E-05 1.36400E-04-7.75100E-14-1.31138E-12
 -1        63 1.99861E+01 6.95576E-06 3.45054E-05 1.07465E-04 1.80539E-13-1.00934E-12
 -1        64 1.99891E+01 1.40234E-05 3.45863E-05 8.41891E-05 3.42107E-14-4.47618E-13
 -1        65 1.99917E+01 1.77210E-05 3.25875E-05 6.59798E-05-2.97313E-14-3.36589E-13
 -1        66 1.99940E+01 1.95259E-05 3.00294E-05 5.20841E-05-7.44872E-14-4.67249E-13
 -1        67 1.99959E+01 2.06194E-05 2.84650E-05 4.15040E-05-3.07879E-14-4.84173E-13
 -1        68 1.99975E+01 2.18863E-05 2.97258E-05 3.26743E-05-6.88083E-14-8.18343E-13
 -1        69 1.99987E+01 2.35927E-05 3.52712E-05 2.26609E-05 5.82533E-14-5.53347E-13
 -1        70 1.99995E+01 2.58254E-05 4.11720E-05 6.64813E-06-6.86731E-14-5.54456E-13
 -1        71 1.99999E+01 8.69952E-06 1.03095E-05-3.68645E-05-4.69478E-14-7.67944E-13
 -1        72 2.30242E+01-4.23922E-01-1.02853E+00-3.83057E-01 2.73705E-14 2.96198E-12
 -1        73 2.17908E+01-5.99797E-02-2.77330E-01-7.82340E-02 2.01943E-14 2.47517E-12
 -1        74 2.13713E+01-1.15601E-02-4.04482E-02-3.64390E-02 1.15401E-14 2.10563E-12
 -1        75 2.11489E+01 6.74903E-04 1.77466E-02-2.51311E-02 1.18818E-14 1.90817E-12
 -1        76 2.08549E+01 5.68677E-03 3.02319E-02-1.25047E-02 2.87368E-16 1.75852E-12
 -1        77 2.03472E+01 5.58162E-03 2.98700E-02 3.29416E-03 4.72772E-15 1.63194E-12
 -1        78 1.95877E+01 9.24814E-04 2.05043E-02 2.16323E-02-2.25246E-14 1.58417E-12
 -1        79 1.86493E+01-6.89708E-03 1.42907E-03 3.80402E-02 1.72764E-14 1.46022E-12
 -1        80 1.77178E+01-1.49538E-02-2.35470E-02 4.54758E-02-1.51109E-14 1.22814E-12
 -1        81 1.70443E+01-1.96201E-02-4.52722E-02 3.84632E-02 2.06215E-14 9.65880E-13
 -1        82 1.68493E+01-1.85453E-02-5.36977E-02 1.75885E-02 1.96058E-14 7.93619E-13
 -1        83 1.72196E+01-1.21521E-02-4.45837E-02-9.46741E-03-1.03414E-14 7.72724E-13
 -1        84 1.80639E+01-3.23231E-03-2.25104E-02-3.21931E-02-5.87545E-15 7.67721E-13
 -1        85 1.91567E+01 4.88654E-03 2.37562E-03-4.34670E-02 1.24533E-14 7.57998E-13
 -1        86 2.02404E+01 1.00222E-02 2.09065E-02-4.25161E-02-4.72604E-16 4.92365E-13
 -1        87 2.11182E+01 1.17001E-02 2.91770E-02-3.33489E-02 1.51866E-14 3.72910E-13
 -1        88 2.16957E+01 1.06937E-02 2.84639E-02-2.12577E-02-2.96999E-14 3.43554E-13
 -1        89 2.19715E+01 8.22122E-03 2.24549E-02-1.01918E-02 5.30755E-14 1.97096E-13
 -1        90 2.20015E+01 5.36020E-03 1.48042E-02-2.01223E-03-3.30824E-14 6.93499E-14
 -1        91 2.18625E+01 2.79512E-03 7.87445E-03 3.03240E-03-4.17896E-14 2.71557E-13
 -1        92 2.16274E+01 8.30479E-04 2.67051E-03 5.51809E-03 5.00309E-15 2.39220E-13
 -1        93 2.13535E+01-4.89375E-04-7.01404E-04 6.24662E-03-3.00797E-14 2.99150E-13
 -1        94 2.10801E+01-1.25582E-03-2.56377E-03 5.93438E-03 4.28450E-15 1.11955E-14
 -1        95 2.08305E+01-1.60679E-03-3.35249E-03 5.10838E-03-6.51629E-15 4.42916E-14
 -1        96 2.06162E+01-1.67713E-03-3.46104E-03 4.10916E-03-1.04746E-14 3.61171E-13
 -1        97 2.04405E+01-1.57723E-03-3.18805E-03 3.13242E-03-1.73586E-14 4.38171E-13
 -1        98 2.03019E+01-1.38820E-03-2.73696E-03 2.27497E-03 2.33147E-14 1.99815E-14
 -1        99 2.01962E+01-1.16483E-03-2.23467E-03 1.57233E-03-2.48748E-14-3.34484E-13
 -1       100 2.01183E+01-9.41192E-04-1.75332E-03 1.02539E-03-6.68072E-14-1.74690E-13
 -1       101 2.00628E+01-7.36382E-04-1.32875E-03 6.17751E-04 7.51317E-14-1.05662E-13
 -1       102 2.00247E+01-5.59404E-04-9.74315E-04 3.26222E-04-2.85909E-14-3.18838E-13
 -1       103 1.99999E+01-4.12860E-04-6.90394E-04 1.26724E-04-2.37029E-14-7.70401E-14
 -1       104 1.99848E+01-2.95600E-04-4.70587E-04-2.73444E-06 1.98078E-14 5.04062E-14
 -1       105 1.99766E+01-2.04517E-04-3.05579E-04-8.07975E-05-1.01784E-14 1.22534E-13
 -1       106 1.99732E+01-1.35691E-04-1.85399E-04-1.22500E-04-2.80548E-14-4.97104E-15
 -1       107 1.99728E+01-8.50916E-05-1.00647E-04-1.39503E-04 8.03069E-14-3.61382E-13
 -1       108 1.99744E+01-4.89606E-05-4.30798E-05-1.40559E-04 1.58483E-14-7.46959E-13
 -1       109 1.99770E+01-2.40009E-05-5.80564E-06-1.32040E-04-8.81654E-14-2.37289E-14
 -1       110 1.99801E+01-7.43562E-06 1.67385E-05-1.18448E-04-3.49875E-14-1.24664E-13
 -1       111 1.99834E+01 3.00489E-06 2.89237E-05-1.02862E-04 3.01170E-14-3.14421E-13
 -1       112 1.99865E+01 9.13754E-06 3.41168E-05-8.73126E-05-7.15880E-14-5.78709E-13
 -1       113 1.99894E+01 1.23988E-05 3.48882E-05-7.30810E-05 6.13311E-14-3.16428E-13
 -1       114 1.99919E+01 1.39220E-05 3.32358E-05-6.09250E-05-1.47304E-13-4.76885E-13
 -1       115 1.99941E+01 1.46066E-05 3.08514E-05-5.12204E-05 2.78891E-15-8.08587E-13
 -1       116 1.99960E+01 1.51469E-05 2.94494E-05-4.39735E-05-3.67546E-14-5.00601E-13
 -1       117 1.99976E+01 1.60232E-05 3.10651E-05-3.86098E-05-3.06984E-14-7.66501E-13
 -1       118 1.99988E+01 1.69426E-05 3.73116E-05-3.33344E-05 3.24986E-14-6.75896E-13
 -1       119 1.99996E+01 1.54699E-05 4.14534E-05-2.09240E-05 1.70701E-14-1.04966E-12
 -1       120 1.99999E+01-1.50980E-05 2.23245E-06 1.47766E-05 1.03772E-13-7.85623E-13
 -1       121 1.99998E+01 4.08071E-05 3.74390E-06 2.60313E-05-6.27072E-13 4.47035E-14
 -1       122 1.99998E+01-2.59793E-04 3.86560E-05-9.94373E-06-2.12387E-13 1.99849E-14
 -1       123 1.99998E+01-1.01894E-03 2.54658E-05-3.22793E-05 3.11034E-14 9.78163E-14
 -1       124 1.99998E+01-2.01967E-03 5.41251E-06-3.76755E-05-1.08668E-13 2.86429E-14
 -1       125 1.99998E+01-3.06450E-03-1.01819E-05-3.55352E-05-1.15937E-14-2.89092E-13
 -1       126 1.99998E+01-3.97956E-03-2.15029E-05-2.87491E-05-3.95687E-13 1.49037E-13
 -1       127 1.99998E+01-4.67045E-03-2.87872E-05-1.84316E-05 1.29301E-13 1.76954E-13
 -1       128 1.99998E+01-5.03641E-03-3.24562E-05-6.30221E-06 8.02523E-14-2.89864E-13
 -1       129 1.99998E+01-5.03463E-03-3.24810E-05 6.42843E-06 2.27829E-13 1.34001E-13
 -1       130 1.99998E+01-4.66487E-03-2.88466E-05 1.85706E-05 3.08225E-13-6.45568E-14
 -1       131 1.99998E+01-3.97009E-03-2.13289E-05 2.92129E-05-7.07293E-13-2.71325E-13
 -1       132 1.99998E+01-3.05161E-03-1.01029E-05 3.58100E-05-9.06715E-13 4.44503E-13
 -1       133 1.99998E+01-2.00379E-03 5.76004E-06 3.77926E-05-4.58265E-13-1.41871E-14
 -1       134 1.99998E+01-1.00462E-03 2.58283E-05 3.23936E-05-3.35677E-13-1.43716E-13
 -1       135 1.99998E+01-2.48383E-04 3.74526E-05 4.90118E-06 1.50168E-13 5.86455E-14
 -1       136 1.99998E+01 8.25198E-05 1.21282E-05-4.13893E-05 1.15515E-12 1.76695E-13
 -1       137-1.29192E+00-1.97262E+01-3.04891E+00-3.69169E+00 2.62657E-12 5.76650E-13
 -1       138-1.44640E+00-8.02943E+00-2.20920E+00-2.78808E+00 3.48194E-12 1.61487E-12
 -1       139 3.72732E+00 4.69517E+00-9.12709E-01 4.39516E+00 3.48843E-12 2.52648E-12
 -1       140 1.58181E+01 1.11325E+01 4.55316E-01 1.31873E+01 2.70195E-12 3.08664E-12
 -1       141 3.46450E+01 1.05927E+01 1.81242E+00 1.86821E+01 1.49236E-12 2.61696E-12
 -1       142 5.34360E+01 5.63445E+00 2.84415E+00 1.62918E+01 4.53443E-13 1.28675E-12
 -1       143 6.52454E+01 1.37129E+00 3.42020E+00 6.17622E+00 5.87724E-15-2.04281E-13
 -1       144 6.42049E+01 1.85548E+00 3.38119E+00-7.69736E+00 2.72102E-13-1.74108E-12
 -1       145 4.98426E+01 6.68192E+00 2.64991E+00-1.70759E+01 1.10599E-12-2.96546E-12
 -1       146 3.02581E+01 1.10658E+01 1.48740E+00-1.78813E+01 2.04969E-12-3.29675E-12
 -1       147 1.26029E+01 1.02975E+01 1.17726E-01-1.13939E+01 2.78566E-12-2.88047E-12
 -1       148 2.23688E+00 2.84464E+00-1.17382E+00-2.81203E+00 2.88108E-12-2.00284E-12
 -1       149-1.45947E+00-9.21210E+00-2.30965E+00 3.02100E+00 2.14606E-12-9.37223E-13
 -1       150-1.16770E+00-2.05401E+01-3.09411E+00 3.28017E+00 7.50899E-13-1.52968E-13
 -1       151-8.09826E-01-2.44977E+01-3.37734E+00-1.05750E+00-9.56374E-13-1.10804E-13
 -1       152-1.72044E+00-1.88782E+01-3.13128E+00-4.33846E+00-2.58554E-12-7.31505E-13
 -1       153-1.57155E+00-7.26543E+00-2.36158E+00-2.79479E+00-3.34688E-12-1.78646E-12
 -1       154 4.81020E+00 4.45459E+00-1.09482E+00 5.05184E+00-3.31718E-12-2.71183E-12
 -1       155 1.96970E+01 1.06954E+01 5.19126E-01 1.44074E+01-2.53164E-12-3.22908E-12
 -1       156 4.11086E+01 9.15010E+00 2.19505E+00 1.86144E+01-1.46280E-12-2.79377E-12
 -1       157 6.25536E+01 3.89623E+00 3.62945E+00 1.33671E+01-4.18512E-13-1.61521E-12
 -1       158 6.41301E+01 3.14099E+00 3.70929E+00-1.21759E+01-3.76858E-13 1.84741E-12
 -1       159 4.66602E+01 7.98327E+00 2.56663E+00-1.85176E+01-1.09487E-12 2.62362E-12
 -1       160 2.63781E+01 1.08041E+01 1.08514E+00-1.66140E+01-1.97947E-12 2.83984E-12
 -1       161 1.00271E+01 8.19006E+00-3.98734E-01-9.13399E+00-2.67686E-12 2.61552E-12
 -1       162 5.83255E-01-5.53070E-01-1.71423E+00-5.89232E-01-3.04662E-12 2.09982E-12
 -1       163-2.04541E+00-1.23179E+01-2.68257E+00 4.20417E+00-2.59259E-12 1.02396E-12
 -1       164-1.42975E+00-2.19937E+01-3.26299E+00 4.00967E+00-1.42594E-12 3.44984E-13
 -1       165 2.37721E+01 3.74513E+00-4.38039E-02-2.45203E+00-3.44164E-13-1.87142E-14
 -1       166 2.15212E+01 4.41027E+00-3.90166E-02-1.48516E+00-2.81509E-13-3.71928E-13
 -1       167 1.96601E+01 4.75999E+00-2.92193E-02-8.91633E-01-2.02231E-13-5.58829E-13
 -1       168 1.81507E+01 4.93225E+00-2.12585E-02-5.95305E-01-1.26059E-13-6.48418E-13
 -1       169 1.70609E+01 5.00694E+00-1.56855E-02-5.22941E-01-5.70403E-14-6.77109E-13
 -1       170 1.64375E+01 4.99592E+00-1.28797E-02-5.77523E-01-1.52677E-15-6.77164E-13
 -1       171 1.63222E+01 4.90984E+00-1.18833E-02-6.51242E-01 5.82021E-14-6.49320E-13
 -1       172 1.66450E+01 4.77710E+00-1.23441E-02-6.43395E-01 1.07753E-13-6.11060E-13
 -1       173 1.72702E+01 4.63859E+00-1.39235E-02-4.89566E-01 1.61371E-13-5.57218E-13
 -1       174 1.80459E+01 4.52962E+00-1.65456E-02-1.70807E-01 2.12905E-13-4.91358E-13
 -1       175 1.88402E+01 4.46505E+00-2.03595E-02 2.87065E-01 2.60372E-13-3.78140E-13
 -1       176 1.96278E+01 4.42850E+00-2.60352E-02 8.70072E-01 3.33060E-13-2.20563E-13
 -1       177 2.04230E+01 4.37211E+00-3.55019E-02 1.55074E+00 3.86320E-13-2.17916E-14
 -1       178 2.13664E+01 4.18703E+00-4.93857E-02 2.33396E+00 4.01179E-13 3.10866E-13
 -1       179 2.28650E+01 3.50529E+00-6.02966E-02 3.17941E+00 3.43687E-13 8.51666E-13
 -1       180 2.43826E+01 1.10531E+00-3.46821E-01 2.76470E+00 2.20367E-13 1.53959E-12
 -1       181 2.55777E+01 8.09155E-01 4.21620E-03-1.03552E+00-3.12868E-13 4.26655E-13
 -1       182 2.47811E+01 1.94474E-01-7.68942E-03 2.10144E-01-2.47127E-13 3.04844E-13
 -1       183 2.48645E+01 1.10043E-01 1.14829E-02 7.16563E-01-1.74821E-13 2.11530E-13
 -1       184 2.54012E+01-1.29209E-02 4.02864E-03 8.76399E-01-7.73236E-14 1.18985E-13
 -1       185 2.60440E+01-1.88366E-01-2.04071E-03 6.67861E-01-8.08121E-15 1.44409E-13
 -1       186 2.64836E+01-4.11668E-01-2.69498E-03-1.58910E-02 2.99587E-15 2.33913E-13
 -1       187 2.63888E+01-5.59353E-01-1.11941E-03-1.14506E+00-4.80007E-14 2.31128E-13
 -1       188 2.55344E+01-3.83952E-01-7.47466E-03-2.26538E+00-2.02582E-13 1.42351E-13
 -1       189 2.40948E+01 2.53155E-01-3.38321E-02-2.45434E+00-2.23111E-13-1.75138E-14
 -1       190 2.29578E+01 9.10937E-01-5.05657E-02-1.14947E+00-2.64375E-13-2.15080E-13
 -1       191 2.29095E+01 9.62199E-01-5.08177E-02 1.04872E+00-1.66627E-13-4.82017E-13
 -1       192 2.41380E+01 2.99011E-01-3.13651E-02 2.53073E+00-6.69846E-14-6.54175E-13
 -1       193 2.56686E+01-3.59543E-01-8.32684E-03 2.42013E+00-6.69690E-15-7.28599E-13
 -1       194 2.66270E+01-5.72943E-01-1.78442E-03 1.29992E+00 4.21937E-14-6.89046E-13
 -1       195 2.67687E+01-4.44373E-01-4.86806E-03 1.05062E-01 4.98993E-15-6.24892E-13
 -1       196 2.62794E+01-2.29474E-01-7.11795E-03-6.80743E-01 5.75724E-14-4.71019E-13
 -1       197 2.54449E+01-6.49422E-02-5.95566E-03-1.02383E+00 9.15346E-14-4.44945E-13
 -1       198 2.44991E+01 2.56178E-02-3.03871E-03-1.06779E+00-7.19097E-14-3.01167E-13
 -1       199 2.35888E+01 6.22702E-02-3.51255E-04-9.59929E-01-8.54460E-14-2.06043E-13
 -1       200 2.27877E+01 6.92085E-02 1.35991E-03-7.98016E-01-1.39159E-13-4.06925E-13
 -1       201 2.21204E+01 6.28908E-02 2.12845E-03-6.33605E-01 4.27911E-14-4.68575E-13
 -1       202 2.15845E+01 5.22508E-02 2.26900E-03-4.88668E-01 2.03060E-13-4.15078E-13
 -1       203 2.11650E+01 4.14131E-02 2.08244E-03-3.69482E-01 4.60624E-14-4.46683E-13
 -1       204 2.08426E+01 3.19502E-02 1.76818E-03-2.75192E-01-3.92467E-14-3.39634E-13
 -1       205 2.05987E+01 2.42426E-02 1.43488E-03-2.02312E-01 3.06104E-14-4.62610E-13
 -1       206 2.04166E+01 1.81844E-02 1.13183E-03-1.46831E-01-1.93884E-13-5.61453E-13
 -1       207 2.02825E+01 1.35135E-02 8.75832E-04-1.05065E-01-2.44655E-13-7.23104E-13
 -1       208 2.01852E+01 9.95183E-03 6.68121E-04-7.39274E-02-2.00173E-14-8.61919E-13
 -1       209 2.01157E+01 7.25536E-03 5.03571E-04-5.09369E-02 9.46996E-14-9.64081E-13
 -1       210 2.00670E+01 5.22584E-03 3.75217E-04-3.41454E-02-1.31351E-13-9.42248E-13
 -1       211 2.00337E+01 3.70764E-03 2.76222E-04-2.20391E-02-5.06119E-14-6.73914E-13
 -1       212 2.00117E+01 2.58031E-03 2.00592E-04-1.34489E-02 2.50259E-13-6.48539E-13
 -1       213 1.99979E+01 1.75109E-03 1.43346E-04-7.47508E-03 2.10738E-14-5.77046E-13
 -1       214 1.99897E+01 1.14846E-03 1.00445E-04-3.42810E-03-5.24153E-14-5.96254E-13
 -1       215 1.99855E+01 7.17203E-04 6.86595E-05-7.81781E-04-2.82561E-13-8.03113E-13
 -1       216 1.99839E+01 4.14642E-04 4.54241E-05 8.62829E-04-6.98152E-14-6.46510E-13
 -1       217 1.99840E+01 2.07779E-04 2.87099E-05 1.80571E-03 1.97875E-13-7.02844E-13
 -1       218 1.99851E+01 7.11753E-05 1.69183E-05 2.26997E-03-9.55441E-14-6.23877E-13
 -1       219 1.99868E+01-1.47160E-05 8.79323E-06 2.41924E-03 1.86378E-13-1.01768E-13
 -1       220 1.99887E+01-6.48516E-05 3.35041E-06 2.37126E-03 1.78963E-13 5.73266E-14
 -1       221 1.99906E+01-9.06546E-05-1.80663E-07 2.20859E-03 1.48836E-13 2.65382E-13
 -1       222 1.99925E+01-1.00895E-04-2.40210E-06 1.98669E-03 1.22188E-14 5.03230E-14
 -1       223 1.99942E+01-1.02452E-04-3.77413E-06 1.74005E-03-8.25267E-14-1.68063E-13
 -1       224 1.99957E+01-1.01018E-04-4.61296E-06 1.48646E-03-1.70845E-13-6.71449E-14
 -1       225 1.99970E+01-1.01757E-04-5.03679E-06 1.22973E-03-1.57409E-13-4.47618E-14
 -1       226 1.99981E+01-1.09482E-04-4.88225E-06 9.61628E-04-1.94968E-14-2.39926E-14
 -1       227 1.99989E+01-1.27275E-04-3.85091E-06 6.65892E-04 1.26118E-13-3.20302E-14
 -1       228 1.99994E+01-1.49214E-04-3.75562E-06 3.38621E-04-2.85056E-13 3.24769E-13
 -1       229 1.99997E+01-1.24037E-04 2.19056E-06 1.05767E-04-4.91593E-14 1.19630E-13
 -1       230 2.30821E+01 2.38778E-01-4.96485E-02 9.58627E-01 2.41460E-13 1.37055E-12
 -1       231 2.21112E+01 8.27283E-02 1.07335E-02 3.60127E-01 1.81790E-13 1.19515E-12
 -1       232 2.15993E+01-2.23008E-03 1.31180E-02 2.21800E-01 1.13455E-13 1.01777E-12
 -1       233 2.12055E+01-4.29313E-02 7.46317E-03 2.70171E-01 7.92376E-14 8.95054E-13
 -1       234 2.07690E+01-5.45086E-02 4.03229E-03 4.01481E-01 6.76094E-14 8.63269E-13
 -1       235 2.02279E+01-4.30574E-02 2.31617E-03 5.39992E-01 6.24490E-14 7.66951E-13
 -1       236 1.96027E+01-6.93463E-03 1.05224E-03 6.10143E-01 8.33412E-14 6.45637E-13
 -1       237 1.89923E+01 4.59360E-02-2.41581E-04 5.47243E-01 1.00298E-13 5.65189E-13
 -1       238 1.85428E+01 9.59559E-02-1.19338E-03 3.28720E-01 1.16675E-13 5.00935E-13
 -1       239 1.83891E+01 1.19855E-01-1.15712E-03-2.50826E-03 9.01306E-14 4.34588E-13
 -1       240 1.85906E+01 1.05173E-01-8.41758E-05-3.48406E-01 4.75488E-14 3.61826E-13
 -1       241 1.90990E+01 5.93025E-02 1.33204E-03-6.02301E-01 9.21442E-15 2.27248E-13
 -1       242 1.97801E+01 3.86127E-03 2.14436E-03-7.01261E-01 3.46724E-14 1.75259E-13
 -1       243 2.04735E+01-4.00596E-02 1.90779E-03-6.47442E-01 5.24863E-14 1.97810E-13
 -1       244 2.10498E+01-6.22206E-02 9.18529E-04-4.91033E-01 5.39117E-14 2.30957E-13
 -1       245 2.14401E+01-6.39880E-02-2.04994E-04-2.96230E-01-3.03481E-14 2.06172E-13
 -1       246 2.16334E+01-5.28779E-02-1.02779E-03-1.14248E-01 4.05427E-14 2.41487E-13
 -1       247 2.16581E+01-3.68242E-02-1.37131E-03 2.68771E-02 2.45006E-14 3.67635E-13
 -1       248 2.15600E+01-2.13033E-02-1.30624E-03 1.19546E-01-4.87698E-14 2.50875E-13
 -1       249 2.13865E+01-8.96918E-03-1.00751E-03 1.68808E-01-1.61275E-14 2.88774E-13
 -1       250 2.11777E+01-4.56707E-04-6.35271E-04 1.85083E-01-3.81367E-15 1.78828E-13
 -1       251 2.09629E+01 4.66679E-03-2.93826E-04 1.79394E-01 1.05621E-13 1.57787E-13
 -1       252 2.07611E+01 7.21832E-03-3.11994E-05 1.61043E-01-2.70003E-14 1.45472E-13
 -1       253 2.05829E+01 8.02376E-03 1.43437E-04 1.36898E-01-1.47172E-13 4.29667E-14
 -1       254 2.04326E+01 7.76135E-03 2.41554E-04 1.11521E-01 6.09865E-14 1.43701E-13
 -1       255 2.03107E+01 6.92651E-03 2.81996E-04 8.76418E-02 1.95282E-13 8.29972E-15
 -1       256 2.02148E+01 5.85117E-03 2.83579E-04 6.66638E-02 7.46011E-14 6.63927E-14
 -1       257 2.01417E+01 4.74053E-03 2.61855E-04 4.91157E-02-1.30736E-13 1.11468E-13
 -1       258 2.00876E+01 3.70968E-03 2.28305E-04 3.49903E-02 2.36914E-15 3.53685E-14
 -1       259 2.00488E+01 2.81380E-03 1.90697E-04 2.39858E-02-1.03057E-15 1.79897E-13
 -1       260 2.00219E+01 2.07065E-03 1.53852E-04 1.56658E-02-2.99030E-15 3.00060E-14
 -1       261 2.00041E+01 1.47629E-03 1.20451E-04 9.55817E-03-1.74630E-14-6.68065E-14
 -1       262 1.99931E+01 1.01551E-03 9.17197E-05 5.21245E-03-2.27137E-14 4.78073E-14
 -1       263 1.99868E+01 6.68374E-04 6.79611E-05 2.22853E-03-1.30888E-14 8.52910E-15
 -1       264 1.99838E+01 4.14187E-04 4.89356E-05 2.68287E-04 2.62639E-13-7.58710E-14
 -1       265 1.99831E+01 2.33630E-04 3.41207E-05-9.43715E-04 4.62036E-14-6.66516E-14
 -1       266 1.99838E+01 1.09786E-04 2.28784E-05-1.62502E-03-3.98256E-13-2.13459E-14
 -1       267 1.99852E+01 2.84712E-05 1.45577E-05-1.94282E-03 1.61638E-13-7.18902E-14
 -1       268 1.99872E+01-2.18370E-05 8.55090E-06-2.02218E-03 1.37913E-13-2.76377E-13
 -1       269 1.99892E+01-5.02857E-05 4.32118E-06-1.95398E-03-2.94674E-14-2.20068E-13
 -1       270 1.99912E+01-6.40375E-05 1.41169E-06-1.80188E-03 5.98138E-14-1.19049E-13
 -1       271 1.99931E+01-6.87059E-05-5.48738E-07-1.60805E-03 4.02977E-14-2.07095E-13
 -1       272 1.99948E+01-6.88215E-05-1.82661E-06-1.39766E-03 8.69813E-14-2.22607E-14
 -1       273 1.99963E+01-6.83037E-05-2.51174E-06-1.18187E-03-3.13389E-14-2.45410E-13
 -1       274 1.99975E+01-7.08566E-05-2.38595E-06-9.59867E-04-4.05295E-14-1.05535E-13
 -1       275 1.99985E+01-7.94194E-05-9.60969E-07-7.20769E-04 5.10080E-16-1.41450E-13
 -1       276 1.99992E+01-9.92293E-05 2.51054E-08-4.45861E-04 3.94507E-14-1.76184E-13
 -1       277 1.99996E+01-1.03204E-04-4.15992E-06-1.49175E-04-1.37119E-13-1.74862E-13
 -1       278 1.99997E+01-3.62846E-04-3.01638E-06-3.31954E-04 2.73191E-14 2.54444E-13
 -1       279 1.99997E+01-8.69190E-04-1.02878E-06-6.12218E-04 3.73912E-14-6.88142E-14
 -1       280 1.99998E+01-1.53484E-03-7.27341E-07-7.76616E-04-1.77516E-13-6.62456E-14
 -1       281 1.99998E+01-2.26113E-03 4.03359E-07-8.06719E-04-2.66786E-13 1.00023E-13
 -1       282 1.99999E+01-2.94084E-03 1.91478E-06-7.17837E-04-7.27893E-14-2.55885E-13
 -1       283 1.99999E+01-3.50701E-03 3.21563E-06-5.32823E-04 4.66332E-14 1.73257E-13
 -1       284 1.99999E+01-3.87569E-03 4.10892E-06-2.82389E-04-1.62977E-13-7.05308E-14
 -1       285 1.99999E+01-4.00297E-03 4.41831E-06 1.30431E-06 1.38184E-13-4.20106E-14
 -1       286 1.99999E+01-3.87364E-03 4.11172E-06 2.85117E-04-8.99707E-16-6.96342E-14
 -1       287 1.99999E+01-3.50265E-03 3.21817E-06 5.35829E-04 4.95371E-14-3.59779E-13
 -1       288 1.99999E+01-2.94567E-03 1.84749E-06 7.18391E-04 8.82518E-14-1.47126E-13
 -1       289 1.99998E+01-2.25310E-03 4.33183E-07 8.08593E-04 9.23642E-14 1.82182E-13
 -1       290 1.99998E+01-1.52528E-03-8.25070E-07 7.76719E-04-5.50992E-14 9.06766E-14
 -1       291 1.99997E+01-8.66330E-04-1.13385E-06 6.08925E-04-8.89969E-14 6.21326E-14
 -1       292 1.99997E+01-4.39843E-04 5.19715E-08 3.66216E-04-2.76610E-13 3.29178E-13
 -1       293-8.27260E-01-1.09744E+01-9.98032E-01 1.56082E+00 6.13870E-13 1.14707E-12
 -1       294 2.67017E+00-8.51535E+00-8.11220E-01 3.65647E+00 1.15008E-12 9.91304E-13
 -1       295 9.84166E+00-4.61922E+00-4.48947E-01 6.03957E+00 1.30565E-12 1.02120E-12
 -1       296 1.88047E+01-3.66671E-01-7.69445E-02 7.58789E+00 1.42239E-12 1.14356E-12
 -1       297 2.90259E+01 3.00091E+00 3.50348E-01 8.12808E+00 1.31505E-12 9.25093E-13
 -1       298 3.85479E+01 5.24442E+00 7.15840E-01 6.86621E+00 1.03773E-12 4.52249E-13
 -1       299 4.52232E+01 6.39520E+00 9.57217E-01 3.93347E+00 7.18703E-13 1.66367E-13
 -1       300 4.66338E+01 6.97003E+00 9.37261E-01-1.81997E-01 7.64749E-13-3.72794E-13
 -1       301 4.24095E+01 6.47127E+00 6.74581E-01-3.28688E+00 8.32001E-13-6.81150E-13
 -1       302 3.64376E+01 4.59320E+00 5.56842E-01-6.66225E+00 9.30284E-13-1.10095E-12
 -1       303 2.69045E+01 2.33381E+00 2.44705E-01-8.10832E+00 1.08286E-12-1.35375E-12
 -1       304 1.68692E+01-9.26262E-01-1.60658E-01-7.38831E+00 1.07880E-12-1.25613E-12
 -1       305 8.31825E+00-4.81946E+00-5.38751E-01-5.55890E+00 8.56037E-13-1.07522E-12
 -1       306 2.25265E+00-8.18797E+00-7.68318E-01-3.66609E+00 4.02983E-13-9.13103E-13
 -1       307-1.04915E+00-1.06239E+01-9.77153E-01-1.22243E+00-1.16782E-13-8.27338E-13
 -1       308-2.78002E-01-8.94356E+00-7.24815E-01 1.48755E+00-5.10619E-13-9.51544E-13
 -1       309 3.41044E+00-8.20939E+00-8.34215E-01 3.37068E+00-1.15680E-12-1.04185E-12
 -1       310 1.29603E+01-5.38064E+00-3.46488E-01 6.28351E+00-9.63757E-13-9.94663E-13
 -1       311 2.18203E+01-1.29510E+00-1.15415E-01 6.95490E+00-1.34037E-12-1.21736E-12
 -1       312 3.27724E+01 2.51493E+00 4.06008E-01 7.21349E+00-1.26417E-12-1.15752E-12
 -1       313 4.12369E+01 4.75230E+00 6.08779E-01 3.21887E+00-1.01653E-12-6.40821E-13
 -1       314 4.79348E+01 6.90493E+00 1.09205E+00 1.67461E+00-9.06858E-13-3.45265E-13
 -1       315 4.90758E+01 6.69381E+00 1.22197E+00-1.55735E+00-7.80431E-13 1.01960E-13
 -1       316 4.43394E+01 5.45708E+00 9.68090E-01-4.61552E+00-7.01786E-13 6.03906E-13
 -1       317 3.59516E+01 3.23716E+00 5.50993E-01-6.64183E+00-8.97310E-13 8.67251E-13
 -1       318 2.57900E+01 3.50064E-01 8.46206E-02-7.18105E+00-9.62758E-13 9.38749E-13
 -1       319 1.57235E+01-3.04270E+00-3.38843E-01-6.36265E+00-1.13515E-12 8.18012E-13
 -1       320 7.30983E+00-6.62718E+00-6.79747E-01-4.53521E+00-9.67504E-13 1.03059E-12
 -1       321 2.09620E+00-8.91845E+00-7.27032E-01-3.07668E+00-3.59823E-13 8.97810E-13
 -1       322-1.11990E+00-1.12884E+01-1.01340E+00-4.38080E-01 3.72827E-14 9.33975E-13
 -1       323 2.09584E+01 3.33293E+00-1.78196E-02-6.17546E-01-2.80619E-13-3.24083E-13
 -1       324 2.31038E+01 2.29751E+00-1.49694E-02-9.44838E-01-3.38464E-13-1.13243E-13
 -1       325 1.75614E+01 4.45174E+00-9.30723E-03-3.58331E-01-1.08378E-13-5.11689E-13
 -1       326 1.65751E+01 4.67864E+00-5.25075E-03-5.01054E-01-3.57572E-14-5.46484E-13
 -1       327 1.62073E+01 4.67178E+00-3.91315E-03-7.10161E-01 4.38269E-14-5.30412E-13
 -1       328 1.64241E+01 4.46715E+00-4.74278E-03-8.43782E-01 1.02172E-13-4.99614E-13
 -1       329 1.70757E+01 4.14768E+00-6.99166E-03-7.97356E-01 1.58228E-13-4.42552E-13
 -1       330 1.79592E+01 3.80914E+00-1.00717E-02-5.36292E-01 2.11133E-13-4.11653E-13
 -1       331 1.88807E+01 3.52115E+00-1.35260E-02-1.01095E-01 2.70490E-13-3.17199E-13
 -1       332 1.97705E+01 3.28344E+00-1.73678E-02 4.57405E-01 3.43463E-13-1.72432E-13
 -1       333 2.06024E+01 3.04730E+00-2.21177E-02 1.05965E+00 4.10258E-13-1.02834E-14
 -1       334 2.14562E+01 2.68508E+00-2.68440E-02 1.61969E+00 4.40200E-13 1.91402E-13
 -1       335 2.24309E+01 1.95143E+00-3.30603E-02 1.93496E+00 4.01909E-13 5.46929E-13
 -1       336 2.29893E+01 1.08401E+00-2.61525E-02 1.61698E+00 3.43019E-13 8.85184E-13
 -1       337 2.23682E+01 3.45394E-01 6.04911E-03 7.80271E-01 2.56822E-13 7.75265E-13
 -1       338 2.36336E+01 7.64456E-01 1.22610E-02 5.40511E-01-2.53920E-13-3.66276E-14
 -1       339 2.37757E+01 2.94547E-01 3.91980E-03 1.18860E+00-1.55994E-13-1.64712E-14
 -1       340 2.42397E+01-2.32420E-01-2.91972E-03 1.36427E+00-2.48769E-14 2.90338E-14
 -1       341 2.50104E+01-9.37999E-01-8.82982E-03 9.67216E-01 5.53841E-14 6.27465E-14
 -1       342 2.60102E+01-1.66663E+00-1.40366E-02-1.42018E-01 2.20058E-14 1.57617E-13
 -1       343 2.69486E+01-1.81418E+00-2.43545E-02-1.84258E+00-1.40343E-13 2.30258E-13
 -1       344 2.71940E+01-5.69125E-01-4.91357E-02-3.20956E+00-3.07767E-13 2.59140E-13
 -1       345 2.68795E+01 1.86454E+00-8.54877E-02-2.93842E+00-4.31065E-13 7.70599E-14
 -1       346 2.61727E+01 3.61062E+00-1.82206E-01-1.77936E-01-3.93782E-13-1.88669E-13
 -1       347 2.67523E+01 2.17219E+00-1.04928E-01 2.77361E+00-3.57867E-13-4.62679E-13
 -1       348 2.72854E+01-3.88929E-01-6.03979E-02 3.40927E+00-7.61839E-14-7.05806E-13
 -1       349 2.70509E+01-1.82697E+00-2.56296E-02 2.05120E+00 1.18228E-13-5.58137E-13
 -1       350 2.61155E+01-1.77747E+00-1.45382E-02 2.62186E-01 1.49970E-13-4.97316E-13
 -1       351 2.50245E+01-1.10273E+00-1.08681E-02-1.01414E+00 9.06393E-14-3.49937E-13
 -1       352 2.40612E+01-4.49558E-01-7.25418E-03-1.63729E+00 1.18462E-13-2.51580E-13
 -1       353 2.32754E+01-2.81998E-02-3.06278E-03-1.78598E+00 1.27787E-13-2.37639E-13
 -1       354 2.26345E+01 1.79514E-01-1.42185E-05-1.66897E+00-7.27261E-15-1.62112E-13
 -1       355 2.21036E+01 2.50660E-01 1.68033E-03-1.43675E+00-1.71570E-13-1.25342E-13
 -1       356 2.16609E+01 2.50699E-01 2.31682E-03-1.17723E+00-1.30370E-13-7.30440E-14
 -1       357 2.12939E+01 2.20563E-01 2.32984E-03-9.34134E-01 1.21714E-13-1.88925E-13
 -1       358 2.09936E+01 1.81886E-01 2.05860E-03-7.24870E-01 6.64316E-14-3.78158E-13
 -1       359 2.07515E+01 1.44579E-01 1.69923E-03-5.53101E-01 3.97509E-14-3.84714E-13
 -1       360 2.05595E+01 1.12361E-01 1.34821E-03-4.16177E-01-2.17490E-14-1.86105E-13
 -1       361 2.04094E+01 8.60145E-02 1.04367E-03-3.09131E-01-1.48860E-13-2.11365E-13
 -1       362 2.02939E+01 6.51033E-02 7.94646E-04-2.26613E-01-2.30314E-13-2.23465E-13
 -1       363 2.02063E+01 4.87917E-02 5.97527E-04-1.63728E-01-2.33169E-13-2.47778E-13
 -1       364 2.01409E+01 3.62075E-02 4.44448E-04-1.16304E-01-1.67651E-14-2.45599E-13
 -1       365 2.00928E+01 2.65768E-02 3.27013E-04-8.09204E-02-2.13026E-14-2.20463E-13
 -1       366 2.00582E+01 1.92590E-02 2.37729E-04-5.48306E-02 6.03630E-17-3.49298E-13
 -1       367 2.00338E+01 1.37401E-02 1.70385E-04-3.58533E-02 9.31771E-14-4.97838E-13
 -1       368 2.00170E+01 9.61388E-03 1.20008E-04-2.22720E-02 1.28218E-13-7.09478E-13
 -1       369 2.00058E+01 6.56121E-03 8.26821E-05-1.27444E-02-4.57894E-14-7.18275E-13
 -1       370 1.99988E+01 4.33170E-03 5.53425E-05-6.22675E-03-1.16988E-13-6.25855E-13
 -1       371 1.99946E+01 2.72913E-03 3.55999E-05-1.91384E-03-2.33990E-14-4.15453E-13
 -1       372 1.99925E+01 1.59996E-03 2.15934E-05 8.10826E-04 9.22750E-14 1.06407E-14
 -1       373 1.99917E+01 8.24346E-04 1.18762E-05 2.41441E-03 1.75726E-13 6.10231E-14
 -1       374 1.99918E+01 3.09101E-04 5.32593E-06 3.24658E-03 3.39427E-13 2.01087E-13
 -1       375 1.99924E+01-1.78751E-05 1.07432E-06 3.56512E-03 2.54317E-13 1.77493E-13
 -1       376 1.99933E+01-2.12149E-04-1.54988E-06 3.55627E-03 3.26297E-13 2.40218E-13
 -1       377 1.99943E+01-3.16501E-04-3.06683E-06 3.35084E-03-7.39510E-14 4.24911E-13
 -1       378 1.99954E+01-3.64084E-04-3.88044E-06 3.03674E-03-2.60789E-13 3.59289E-13
 -1       379 1.99964E+01-3.81094E-04-4.29447E-06 2.66847E-03-9.82390E-14 2.20827E-13
 -1       380 1.99972E+01-3.88995E-04-4.53027E-06 2.27436E-03-1.06198E-13 1.69496E-13
 -1       381 1.99980E+01-4.05594E-04-4.87054E-06 1.86272E-03-1.41568E-13-3.88281E-15
 -1       382 1.99987E+01-4.43019E-04-5.62375E-06 1.43032E-03 1.84156E-14-5.02214E-15
 -1       383 1.99992E+01-4.98669E-04-5.80447E-06 9.68294E-04 1.40141E-13-1.67415E-14
 -1       384 2.17826E+01-5.73874E-02 3.32125E-03 5.42083E-01 1.67725E-13 5.15846E-13
 -1       385 2.15007E+01-1.89956E-01 3.76101E-04 6.52488E-01 1.16363E-13 4.37670E-13
 -1       386 2.11914E+01-2.05038E-01-6.37448E-04 8.60662E-01 1.47212E-13 3.83498E-13
 -1       387 2.08192E+01-1.03130E-01 4.27960E-04 1.03493E+00 1.41588E-13 3.17629E-13
 -1       388 2.03983E+01 1.00914E-01 2.33963E-03 1.04052E+00 1.34591E-13 2.51996E-13
 -1       389 2.00078E+01 3.41418E-01 4.05729E-03 7.86950E-01 1.31196E-13 2.63785E-13
 -1       390 1.97644E+01 5.13854E-01 5.01235E-03 2.85796E-01 1.76604E-13 2.88657E-13
 -1       391 1.97600E+01 5.30357E-01 4.96378E-03-3.29930E-01 1.53537E-13 2.22984E-13
 -1       392 2.00017E+01 3.79785E-01 3.97251E-03-8.62786E-01 1.34437E-13 1.21875E-13
 -1       393 2.04023E+01 1.35887E-01 2.16951E-03-1.15560E+00 3.75730E-14-1.24771E-14
 -1       394 2.08327E+01-9.74829E-02-6.45021E-05-1.16448E+00-5.27383E-15 2.40108E-14
 -1       395 2.11854E+01-2.48251E-01-2.01196E-03-9.51576E-01 1.13578E-14 5.43900E-14
 -1       396 2.14068E+01-2.99551E-01-3.07613E-03-6.27741E-01-6.12106E-14 5.55502E-14
 -1       397 2.14921E+01-2.74710E-01-3.31525E-03-2.94801E-01-3.47235E-14 1.59993E-13
 -1       398 2.14653E+01-2.10090E-01-2.89596E-03-1.71955E-02 3.83464E-14 1.06270E-13
 -1       399 2.13599E+01-1.36108E-01-2.13020E-03 1.79303E-01-7.21410E-14 1.91625E-13
 -1       400 2.12078E+01-7.08955E-02-1.31199E-03 2.95761E-01-6.27771E-14 2.91334E-13
 -1       401 2.10349E+01-2.17811E-02-6.08654E-04 3.46862E-01 2.47527E-14 2.78041E-13
 -1       402 2.08599E+01 1.07224E-02-8.72058E-05 3.51292E-01 8.60617E-14 2.61688E-13
 -1       403 2.06951E+01 2.93498E-02 2.50947E-04 3.26355E-01-2.56376E-14 3.06867E-13
 -1       404 2.05476E+01 3.77724E-02 4.36384E-04 2.85759E-01-5.01969E-14 3.54799E-13
 -1       405 2.04209E+01 3.94156E-02 5.09952E-04 2.39246E-01 2.17433E-14 1.96780E-13
 -1       406 2.03153E+01 3.70057E-02 5.09921E-04 1.93101E-01 1.43517E-13 3.22060E-14
 -1       407 2.02300E+01 3.25062E-02 4.66932E-04 1.50948E-01 6.49746E-14 8.03521E-14
 -1       408 2.01628E+01 2.72227E-02 4.03063E-04 1.14528E-01 3.67550E-15 1.27515E-13
 -1       409 2.01111E+01 2.19562E-02 3.32897E-04 8.43516E-02-1.30039E-13 1.47759E-13
 -1       410 2.00723E+01 1.71499E-02 2.65229E-04 6.01869E-02-7.19451E-14 2.96246E-13
 -1       411 2.00440E+01 1.30084E-02 2.04751E-04 4.14057E-02 4.17333E-14 2.33932E-13
 -1       412 2.00239E+01 9.58701E-03 1.53439E-04 2.72103E-02-2.09915E-14 4.39684E-13
 -1       413 2.00102E+01 6.85482E-03 1.11590E-04 1.67756E-02-7.86608E-14 4.52433E-13
 -1       414 2.00012E+01 4.73625E-03 7.85592E-05 9.32907E-03 6.82325E-14 2.16628E-13
 -1       415 1.99956E+01 3.13792E-03 5.32377E-05 4.19188E-03 2.42120E-13 1.26943E-13
 -1       416 1.99926E+01 1.96465E-03 3.43606E-05 7.92695E-04 9.88863E-14 2.79273E-13
 -1       417 1.99912E+01 1.12823E-03 2.06839E-05-1.33294E-03-1.21896E-13 1.43448E-13
 -1       418 1.99909E+01 5.51562E-04 1.10793E-05-2.55180E-03-1.13964E-13-3.30049E-15
 -1       419 1.99914E+01 1.69945E-04 4.57365E-06-3.14594E-03 2.85873E-13-8.20780E-14
 -1       420 1.99923E+01-6.93590E-05 3.56714E-07-3.32654E-03 2.16020E-14-1.56663E-13
 -1       421 1.99933E+01-2.08465E-04-2.23011E-06-3.24705E-03 6.59406E-14-3.28100E-13
 -1       422 1.99945E+01-2.80640E-04-3.71761E-06-3.01471E-03 5.24552E-14-3.49739E-13
 -1       423 1.99956E+01-3.12239E-04-4.52946E-06-2.70017E-03-2.86175E-14-2.45036E-13
 -1       424 1.99966E+01-3.24653E-04-4.99941E-06-2.34499E-03 1.33501E-15-3.92691E-14
 -1       425 1.99975E+01-3.35722E-04-5.31671E-06-1.96748E-03-1.40826E-13 1.46756E-13
 -1       426 1.99983E+01-3.59597E-04-5.74547E-06-1.56908E-03-2.08903E-13 4.83441E-14
 -1       427 1.99989E+01-4.00493E-04-6.20401E-06-1.14586E-03-3.44019E-14 1.13465E-13
 -1       428 1.99993E+01-4.09756E-04-4.64804E-06-7.36624E-04 2.74941E-15 1.45138E-13
 -1       429 1.99998E+01-1.74213E-03-7.26090E-07-1.38012E-03-3.61322E-13-3.03937E-13
 -1       430 1.99996E+01-1.15647E-03-2.80811E-06-1.26506E-03-1.45449E-13-2.59407E-13
 -1       431 1.99999E+01-2.29258E-03 1.22283E-06-1.31083E-03-2.11511E-13 9.57368E-14
 -1       432 2.00001E+01-2.77442E-03 2.68968E-06-1.06807E-03 5.43966E-14 8.21242E-14
 -1       433 2.00002E+01-3.12673E-03 3.78074E-06-6.94700E-04-8.06365E-14-8.20543E-14
 -1       434 2.00002E+01-3.31279E-03 4.37753E-06-2.39640E-04-2.21300E-13-6.22297E-14
 -1       435 2.00002E+01-3.31271E-03 4.38083E-06 2.43252E-04-3.32943E-13 1.16129E-14
 -1       436 2.00002E+01-3.12620E-03 3.81537E-06 6.98828E-04-2.21590E-13-2.02329E-13
 -1       437 2.00001E+01-2.78011E-03 2.69019E-06 1.06744E-03-8.07473E-15-2.60074E-13
 -1       438 1.99999E+01-2.29843E-03 1.27695E-06 1.31152E-03 1.42610E-13 4.36666E-13
 -1       439 1.99998E+01-1.73790E-03-4.69924E-07 1.38176E-03 8.77845E-14-2.63737E-15
 -1       440 1.99995E+01-1.15529E-03-2.39700E-06 1.25177E-03-2.07421E-14 1.23386E-14
 -1       441 2.20170E+01 1.18547E-01 7.65701E-03 5.68011E-01 2.39286E-13 6.53779E-13
 -1       442 1.01656E+01-5.45811E+00-5.53184E-02 7.22478E+00 2.12247E-13 6.46816E-13
 -1       443 2.67555E+01-2.69281E+00 9.18251E-03 4.97517E+00 5.74929E-13-3.09197E-14
 -1       444 1.13308E+00-4.37870E+00-5.08635E-02 8.18577E-01 1.68879E-13 1.15793E-12
 -1       445 1.92006E+01-4.96701E+00-1.70653E-02 7.03878E+00 3.90368E-13 3.04805E-13
 -1       446 1.90650E+01 4.01202E+00-1.41567E-02-4.01731E-01-1.97150E-13-4.49465E-13
 -1       447 3.21021E+01 9.58722E-01 1.76279E-02 1.98689E+00 8.08669E-13-2.45040E-13
 -1       448 3.54541E+01 5.32919E+00 7.31455E-02 6.08875E-01 8.33750E-13-8.16569E-14
 -1       449 3.65432E+01 7.98373E+00 7.68556E-02 3.06338E-02 9.10133E-13-1.54092E-13
 -1       450 3.47107E+01 7.90722E+00-3.78485E-02 3.71981E-01 8.17138E-13-7.60364E-14
 -1       451 3.36856E+01 4.07906E+00-4.26416E-02-3.33863E-02 6.16784E-13-2.99205E-14
 -1       452 3.08819E+01-3.26487E-01-2.43950E-02-2.12887E+00 2.97137E-13-1.36086E-13
 -1       453 2.65866E+01-2.96034E+00 2.95326E-02-4.95462E+00 2.12344E-13-3.48832E-13
 -1       454 1.72343E+01-4.73794E+00-4.94022E-02-7.29247E+00 1.29285E-13-7.07434E-13
 -1       455 9.71458E+00-4.82206E+00-2.77862E-02-7.19358E+00-6.48787E-14-8.43818E-13
 -1       456 3.22753E+00-3.77953E+00-2.41681E-02-4.30650E+00-1.24283E-13-9.58941E-13
 -1       457 1.57112E+00-3.29815E+00 1.79463E-02-3.46523E-01-8.71396E-14-9.77274E-13
 -1       458 5.17963E+00-4.59757E+00-4.55422E-02 4.78704E+00-8.89011E-14-8.60326E-13
 -1       459 1.21129E+01-5.36718E+00-1.29957E-02 6.71968E+00-1.04930E-13-6.03427E-13
 -1       460 2.26062E+01-5.62249E+00-3.15150E-02 5.60213E+00-2.95791E-13-3.71626E-13
 -1       461 2.96419E+01-2.92885E+00 1.48607E-03 3.44514E+00-6.81205E-13-3.09225E-13
 -1       462 3.45035E+01 9.94618E-01 2.86515E-02 6.20634E-01-8.11063E-13-1.89959E-13
 -1       463 3.55400E+01 6.21117E+00-2.16594E-02-1.19566E+00-9.19320E-13 1.41553E-14
 -1       464 3.75817E+01 7.83480E+00 1.01162E-01 3.53257E-02-9.34364E-13-2.25897E-13
 -1       465 3.77644E+01 6.31602E+00 1.35138E-01 7.95204E-01-7.81042E-13-2.37602E-13
 -1       466 3.56010E+01 2.25083E+00 4.13656E-02 2.27980E-01-5.93706E-13-1.34864E-13
 -1       467 3.16387E+01-1.77271E+00 2.00258E-02-2.39680E+00-3.55466E-13 1.66811E-14
 -1       468 2.52764E+01-5.13815E+00-2.72237E-02-4.70126E+00-1.84477E-13-1.51032E-13
 -1       469 1.67687E+01-6.10047E+00-6.37912E-02-6.59277E+00-1.43358E-13 1.66523E-13
 -1       470 9.49318E+00-5.83386E+00-6.75182E-02-6.22281E+00 4.02178E-14 8.11996E-13
 -1       471 2.53639E+00-4.94164E+00-8.54457E-02-3.04226E+00 1.65187E-13 9.29118E-13
 -1       472 3.96416E+00-4.56379E+00-2.35884E-02 4.95289E+00-1.88738E-15 9.19945E-13
 -1       473 8.03064E+00-3.81025E+00 1.04497E-01-5.51782E+00 3.29695E-13 7.85302E-13
 -1       474 3.27894E+01 2.84297E+00-9.67248E-02-2.64059E+00-7.82541E-13 2.73608E-13
 -1       475 1.94244E+01-5.50544E+00 4.35138E-02 6.13755E+00 1.66658E-13-2.26000E-13
 -1       476 4.82868E+00-1.59528E+00 1.40566E-01 2.67419E+00 8.86340E-14-8.73829E-13
 -1       477 1.60188E+01 4.26400E+00-1.28106E-03-6.04355E-01 8.13406E-15-4.97908E-13
 -1       478 1.67560E+01 4.07456E+00-1.99712E-03-1.46216E-01-3.77016E-14-4.81464E-13
 -1       479 1.67186E+01 3.68851E+00-2.06285E-03-1.20531E+00 1.00698E-13-4.30055E-13
 -1       480 1.77450E+01 3.17210E+00-3.49935E-03-1.07035E+00 1.60423E-13-3.89620E-13
 -1       481 1.88366E+01 2.70165E+00-4.85328E-03-6.64831E-01 2.06510E-13-3.27629E-13
 -1       482 1.98520E+01 2.32018E+00-6.20391E-03-8.99415E-02 2.82198E-13-2.04469E-13
 -1       483 2.07122E+01 2.00760E+00-7.62325E-03 5.10685E-01 3.26105E-13-6.09853E-14
 -1       484 2.14523E+01 1.67167E+00-7.67622E-03 1.00866E+00 3.54190E-13 8.92630E-14
 -1       485 2.20786E+01 1.19866E+00-6.23656E-03 1.24297E+00 3.56008E-13 3.03871E-13
 -1       486 2.23267E+01 7.40762E-01 1.07753E-03 1.08361E+00 3.20069E-13 5.06585E-13
 -1       487 2.19678E+01 1.16887E+00 1.99398E-03 1.04035E+00-1.77013E-13-1.70380E-13
 -1       488 1.74473E+01-5.13521E+00 7.79443E-02 7.15578E+00-2.38580E-13 5.45172E-14
 -1       489 2.46143E+01-5.08185E+00 1.45662E-02 4.80368E+00 5.96120E-14-4.34069E-13
 -1       490 2.22019E+01 3.45633E-01 1.75004E-03 1.71984E+00-5.33069E-14-1.20811E-13
 -1       491 2.28500E+01-7.33456E-01 9.21483E-04 2.01502E+00 7.70510E-14-6.72123E-14
 -1       492 2.41887E+01-2.14182E+00 4.02637E-03 1.71341E+00 1.17787E-13 5.89331E-14
 -1       493 2.63409E+01-3.38285E+00-6.17498E-03 4.90832E-01 5.18359E-14 1.79959E-13
 -1       494 2.88203E+01-3.02296E+00-4.98554E-02-1.63001E+00-1.58467E-13 3.69659E-13
 -1       495 2.97494E+01 5.30389E+00-2.21529E-01 1.82995E+00-6.45123E-13-3.68938E-13
 -1       496 2.99971E+01 1.08558E+00-1.40797E-01 3.42065E+00-3.04069E-13-6.42805E-13
 -1       497 2.88024E+01-2.81683E+00-6.59699E-02 2.02038E+00 1.44615E-13-6.03000E-13
 -1       498 2.64704E+01-3.44369E+00-3.47953E-03-2.07527E-01 2.62845E-13-5.36749E-13
 -1       499 2.43036E+01-2.39412E+00-6.15512E-04-1.65458E+00 2.37101E-13-3.16635E-13
 -1       500 2.28249E+01-1.13069E+00-2.31483E-03-2.25480E+00 1.58542E-13-1.13841E-13
 -1       501 2.19537E+01-2.39470E-01-1.49651E-03-2.33710E+00 8.99756E-14-3.15559E-14
 -1       502 2.14591E+01 2.44725E-01-2.94866E-04-2.15684E+00 6.17288E-14-1.30187E-13
 -1       503 2.11590E+01 4.45550E-01 6.99230E-04-1.86850E+00-7.17331E-14-2.94098E-13
 -1       504 2.09497E+01 4.85574E-01 1.16205E-03-1.55488E+00-7.00135E-14-1.64128E-13
 -1       505 2.07828E+01 4.48565E-01 1.22420E-03-1.25808E+00-9.16956E-14-6.14019E-14
 -1       506 2.06398E+01 3.82613E-01 1.10175E-03-9.96765E-01-1.22862E-13-1.51763E-13
 -1       507 2.05149E+01 3.12054E-01 9.16246E-04-7.76615E-01 3.03881E-14-3.05670E-13
 -1       508 2.04069E+01 2.47604E-01 7.29013E-04-5.96498E-01 1.47207E-14-4.43418E-13
 -1       509 2.03155E+01 1.92913E-01 5.64602E-04-4.52169E-01-3.39965E-14-4.95912E-13
 -1       510 2.02398E+01 1.48314E-01 4.29647E-04-3.38331E-01-2.00045E-13-5.01172E-13
 -1       511 2.01786E+01 1.12784E-01 3.22802E-04-2.49706E-01-1.95626E-13-3.35142E-13
 -1       512 2.01301E+01 8.48930E-02 2.39944E-04-1.81510E-01-1.52447E-13-2.34643E-13
 -1       513 2.00925E+01 6.32252E-02 1.76505E-04-1.29627E-01-6.53673E-14-1.42775E-13
 -1       514 2.00638E+01 4.65342E-02 1.28367E-04-9.06183E-02-2.08473E-13-2.84854E-13
 -1       515 2.00425E+01 3.37806E-02 9.21150E-05-6.16665E-02-1.35249E-13-5.00208E-13
 -1       516 2.00269E+01 2.41195E-02 6.50231E-05-4.04909E-02 7.78934E-14-5.74503E-13
 -1       517 2.00158E+01 1.68731E-02 4.49542E-05-2.52654E-02 2.32795E-14-5.36071E-13
 -1       518 2.00081E+01 1.15010E-02 3.02457E-05-1.45407E-02 6.57890E-17-3.57476E-13
 -1       519 2.00030E+01 7.57365E-03 1.96079E-05-7.17678E-03 5.22660E-14-2.49029E-13
 -1       520 1.99997E+01 4.75074E-03 1.20413E-05-2.28542E-03 2.30087E-13-3.66673E-15
 -1       521 1.99977E+01 2.76364E-03 6.77203E-06 8.18257E-04 1.66528E-13 1.12022E-13
 -1       522 1.99967E+01 1.40127E-03 3.20206E-06 2.65610E-03 5.70133E-14 7.72583E-14
 -1       523 1.99963E+01 4.98624E-04 8.70112E-07 3.62018E-03 1.75911E-13-9.97170E-14
 -1       524 1.99964E+01-7.25287E-05-5.78611E-07 4.00016E-03 1.68288E-13-8.99088E-14
 -1       525 1.99966E+01-4.11437E-04-1.41836E-06 4.00538E-03 8.92800E-14-3.61811E-13
 -1       526 1.99970E+01-5.94883E-04-1.86330E-06 3.78266E-03 4.15148E-14 3.28325E-14
 -1       527 1.99975E+01-6.82649E-04-2.07443E-06 3.43023E-03-2.89913E-13 4.33706E-13
 -1       528 1.99980E+01-7.21883E-04-2.14443E-06 3.00881E-03-2.20759E-13 5.85198E-14
 -1       529 1.99984E+01-7.50419E-04-2.25589E-06 2.55058E-03-2.97489E-13-3.99186E-14
 -1       530 1.99988E+01-7.98439E-04-2.91081E-06 2.06709E-03 3.46640E-14 3.29177E-13
 -1       531 1.99992E+01-9.67285E-04-2.72361E-06 1.68605E-03-2.35557E-14 4.79513E-13
 -1       532 2.18198E+01-3.56268E-01-4.66473E-04 1.19957E+00 1.77795E-13 2.75196E-13
 -1       533 2.19414E+01-4.16892E-01-4.11181E-04 9.22575E-01 1.49942E-13 2.40260E-13
 -1       534 2.19949E+01-2.41074E-01-1.45222E-03 7.33028E-01 1.78746E-13 2.85786E-13
 -1       535 2.15850E+01-3.73165E-02 8.97196E-04 1.37524E+00 1.51413E-13 2.62302E-13
 -1       536 2.12540E+01 4.64343E-01 1.84226E-03 1.26647E+00 1.34890E-13 2.82507E-13
 -1       537 2.09368E+01 9.51850E-01 1.99547E-03 7.76163E-01 1.33185E-13 2.50007E-13
 -1       538 2.07856E+01 1.18042E+00 1.51784E-03-5.29786E-03 1.74464E-13 1.93472E-13
 -1       539 2.08838E+01 1.01698E+00 1.56598E-03-8.12801E-01 2.06592E-13 1.72645E-13
 -1       540 2.11701E+01 5.44248E-01 1.48490E-03-1.35668E+00 1.87819E-13 1.31079E-13
 -1       541 2.14852E+01-4.15461E-03 7.05226E-04-1.49809E+00 1.96777E-14 6.14117E-14
 -1       542 2.16933E+01-4.21877E-01-4.35179E-04-1.28731E+00 2.67632E-14-8.39941E-14
 -1       543 2.17424E+01-6.20291E-01-1.09432E-03-8.81470E-01-3.86139E-15-4.61395E-14
 -1       544 2.16555E+01-6.25228E-01-1.54245E-03-4.35746E-01-8.78581E-14-3.59142E-14
 -1       545 2.14857E+01-5.12896E-01-1.55948E-03-5.21270E-02 2.53825E-14-5.74809E-14
 -1       546 2.12817E+01-3.57254E-01-1.22703E-03 2.26796E-01-4.70098E-14-3.04964E-14
 -1       547 2.10758E+01-2.07449E-01-8.13405E-04 3.98480E-01-1.54966E-13-6.48617E-15
 -1       548 2.08852E+01-8.72030E-02-4.38111E-04 4.80486E-01-2.36958E-14-3.56062E-14
 -1       549 2.07168E+01-2.55985E-03-1.49199E-04 4.96751E-01-1.91771E-14 9.68111E-14
 -1       550 2.05722E+01 4.99111E-02 4.73762E-05 4.70078E-01-2.34014E-14 1.38656E-13
 -1       551 2.04505E+01 7.72944E-02 1.63092E-04 4.19014E-01-8.12113E-14 1.23747E-13
 -1       552 2.03495E+01 8.70618E-02 2.17943E-04 3.57163E-01 1.11819E-13-3.28987E-14
 -1       553 2.02669E+01 8.55933E-02 2.31316E-04 2.93668E-01 1.38679E-13-5.32065E-14
 -1       554 2.02004E+01 7.77396E-02 2.19284E-04 2.34108E-01 8.89520E-14-4.03981E-14
 -1       555 2.01475E+01 6.68928E-02 1.93764E-04 1.81451E-01-1.40815E-14 7.39084E-14
 -1       556 2.01062E+01 5.52539E-02 1.62853E-04 1.36877E-01-1.05469E-13 1.54692E-13
 -1       557 2.00745E+01 4.41353E-02 1.31607E-04 1.00433E-01-1.84315E-13 1.23945E-13
 -1       558 2.00505E+01 3.42295E-02 1.02872E-04 7.15037E-02-4.64620E-14 3.33055E-13
 -1       559 2.00327E+01 2.58217E-02 7.80037E-05 4.91479E-02-5.26382E-14 2.82834E-13
 -1       560 2.00199E+01 1.89459E-02 5.74114E-05 3.23114E-02 1.67245E-14 1.40839E-13
 -1       561 2.00108E+01 1.34943E-02 4.09509E-05 1.99599E-02 1.28508E-13 5.55580E-14
 -1       562 2.00046E+01 9.28938E-03 2.81884E-05 1.11519E-02 1.59636E-13-8.99042E-14
 -1       563 2.00006E+01 6.13026E-03 1.85697E-05 5.07244E-03 1.97650E-13-1.49846E-13
 -1       564 1.99981E+01 3.81933E-03 1.15223E-05 1.04262E-03 4.45085E-14-1.58010E-13
 -1       565 1.99967E+01 2.17695E-03 6.51230E-06-1.48636E-03 2.05084E-14-3.97304E-13
 -1       566 1.99961E+01 1.04783E-03 3.07087E-06-2.94625E-03 4.80877E-14-4.36573E-13
 -1       567 1.99960E+01 3.02445E-04 8.02898E-07-3.66819E-03-1.20352E-14-2.29907E-13
 -1       568 1.99962E+01-1.64488E-04-6.16415E-07-3.89958E-03 1.49044E-14-2.40149E-13
 -1       569 1.99966E+01-4.37039E-04-1.44429E-06-3.81969E-03-8.23626E-15-1.14839E-13
 -1       570 1.99971E+01-5.81754E-04-1.89373E-06-3.55337E-03-1.13568E-13-1.10834E-13
 -1       571 1.99976E+01-6.51403E-04-2.13880E-06-3.18251E-03-6.90260E-14-4.09774E-14
 -1       572 1.99981E+01-6.88531E-04-2.35301E-06-2.75562E-03-2.71480E-13-1.83314E-13
 -1       573 1.99986E+01-7.26433E-04-2.65757E-06-2.29564E-03-8.36901E-14-5.64541E-14
 -1       574 1.99990E+01-7.87835E-04-2.46448E-06-1.80859E-03 3.96561E-15-2.69464E-13
 -1       575 2.00003E+01-2.28577E-03 1.16664E-06-1.59480E-03 5.21565E-14 3.81716E-13
 -1       576 1.99999E+01-1.84748E-03 3.08110E-07-1.82406E-03-1.84925E-13 1.37360E-13
 -1       577 1.99995E+01-1.33821E-03-1.10183E-06-1.82531E-03 1.15875E-14-4.65833E-13
 -1       578 5.23087E+00-1.47963E+00 1.76089E-01 3.02089E+00-1.50178E-13 8.18318E-13
 -1       579 2.00005E+01-2.63236E-03 1.35756E-06-1.17503E-03 2.12755E-13-1.54476E-13
 -1       580 2.00007E+01-2.85348E-03 1.86161E-06-6.21329E-04 6.49065E-14-3.21386E-13
 -1       581 2.00008E+01-2.92976E-03 1.99925E-06 1.30742E-06-2.36754E-13-2.52660E-13
 -1       582 2.00007E+01-2.85518E-03 1.91214E-06 6.24651E-04-1.73903E-13 2.85800E-13
 -1       583 2.00005E+01-2.64017E-03 1.55291E-06 1.17123E-03-8.23983E-15-4.74766E-14
 -1       584 2.00003E+01-2.29431E-03 9.14783E-07 1.59500E-03-1.10040E-15-3.04566E-15
 -1       585 1.99999E+01-1.84720E-03 6.01350E-07 1.82702E-03-2.21653E-13 2.80697E-13
 -1       586 1.99996E+01-1.41647E-03-6.39418E-07 1.84646E-03-2.17877E-13-1.11837E-13
 -1       587 2.15165E+01 2.09094E+00-5.25938E-03 2.10720E-01-2.52721E-13-2.46732E-13
 -1       588 2.89277E+01-2.61783E+00-6.53655E-02 1.51565E+00 3.04347E-13-5.30374E-13
 -1       589 4.85047E+00-1.47199E+00 1.91274E-01-1.52923E+00 2.00201E-13 9.28591E-13
 -1       590 2.27863E+01-6.05075E+00 2.85867E-02-4.99850E+00 2.32502E-13-4.28525E-13
 -1       591 1.00263E+01-1.85082E+00 1.69206E-01-6.25123E+00-2.55032E-13-7.56270E-13
 -1       592 2.97847E+01 6.29129E-01-1.14985E-01 1.10078E+00 2.34278E-13 2.16036E-13
 -1       593 1.60524E+01 4.10495E+00-1.38131E-03-1.02068E+00 5.96599E-14-4.71190E-13
 -1       594 3.12475E+01 6.20325E+00-1.50831E-01-1.24839E+00 7.72257E-13-2.56753E-13
 -1       595 1.64903E+01-4.52475E+00 8.40243E-02-7.30008E+00-2.71769E-13-5.71834E-13
 -1       596 3.06125E+01 2.25424E+00-1.12447E-01-1.25500E+00 6.26006E-13-4.35166E-13
 -1       597 3.02989E+01 7.67439E+00-1.84589E-01-1.85060E-01 8.06896E-13-1.11766E-13
 -1       598 2.98867E+01 5.34280E+00-1.74303E-01 1.69587E+00 5.69725E-13 1.68407E-13
 -1       599 2.80148E+01-3.18558E+00-5.48106E-02-1.72084E+00-7.67251E-14 4.39163E-14
 -1       600 2.76514E+01-4.98565E+00-3.96682E-02 2.25857E+00-9.65686E-14 1.91513E-13
 -1       601 2.35200E+01-4.85448E+00 2.08405E-02-5.28284E+00-2.02609E-13-1.57933E-13
 -1       602 4.79072E+00-9.09646E-01 1.60084E-01-2.54298E+00-1.01689E-13-9.07913E-13
 -1       603 1.11633E+01-3.07561E+00 1.58343E-01 5.93778E+00 2.22732E-13-5.93213E-13
 -1       604 3.11003E+01-2.94198E+00-1.06857E-01-5.62845E-01-3.38472E-13 2.54782E-13
 -1       605 3.16335E+01-1.42471E+00-8.25282E-02 1.49849E+00-1.40821E-13-4.60632E-13
 -1       606 2.92072E+01-4.54427E+00-2.16535E-02-1.14829E+00 1.06307E-13-4.03011E-13
 -1       607 1.59311E+01-5.25305E+00 9.98633E-02-6.54430E+00 4.85709E-13 9.26828E-14
 -1       608 1.03395E+01-3.23024E+00 1.49957E-01 6.67204E+00-2.83974E-13 6.50639E-13
 -1       609 1.81941E+01 3.55020E+00-2.41157E-03 1.45994E-01-1.23535E-13-4.21442E-13
 -1       610 2.20950E+01 3.03969E-01 3.11460E-03 7.64042E-01 2.55036E-13 4.36118E-13
 -1       611 2.19944E+01 1.81552E-02 1.25435E-03 6.88453E-01 2.27682E-13 3.40714E-13
 -1       612 1.70303E+01-3.91487E+00 9.97979E-02 5.89912E+00 3.21985E-13-2.25944E-13
 -1       613 2.74973E+01 6.20273E+00-1.55883E-01 1.05996E+00 5.78024E-13 1.25816E-13
 -1       614 2.50467E+01-5.48716E+00 4.75607E-02 3.63759E+00 2.04239E-13 5.71279E-14
 -1       615 6.19308E+00 2.74884E-01 1.67730E-01 2.17849E-01 4.12560E-14-8.11795E-13
 -1       616 3.14814E+01 5.92151E+00-1.68247E-01-9.97433E-01-6.78721E-13-8.13759E-15
 -1       617 3.29638E+01 2.60874E+00-1.36837E-01 2.39355E+00-4.73108E-13-4.06244E-13
 -1       618 1.87054E+01 1.92750E+00-1.51585E-03-1.36990E+00 1.22354E-13-3.09667E-13
 -1       619 1.73142E+01 2.58401E+00-3.17978E-04-1.71761E+00 7.75165E-14-3.64894E-13
 -1       620 2.08544E+01 1.10276E+00-1.37257E-03-4.80849E-02 2.35474E-13-9.75008E-14
 -1       621 2.15199E+01 8.49518E-01-2.55355E-03 5.25615E-01 2.71041E-13 3.75839E-14
 -1       622 2.20487E+01 5.38036E-01 2.34890E-03 8.80021E-01 2.67228E-13 2.39764E-13
 -1       623 2.80546E+01-1.11210E+00-7.99885E-02-1.08003E+00 2.72138E-13-4.40623E-13
 -1       624 1.57333E+01-3.47348E+00 9.91654E-02 6.49401E+00-4.27800E-13 2.82725E-14
 -1       625 2.63034E+01-5.10968E+00 8.34910E-03-2.05162E+00 3.07018E-13-3.95786E-13
 -1       626 2.01545E+01 3.26427E-01 7.72532E-03 2.38904E+00 6.13841E-14-1.44455E-13
 -1       627 2.08411E+01-1.27954E+00 2.15789E-02 3.10441E+00 1.95832E-13-1.06545E-13
 -1       628 2.26866E+01-3.44885E+00 2.71795E-02 3.40611E+00 1.96222E-13-3.83461E-14
 -1       629 1.98679E+01 2.24915E+00-1.83910E-03 8.18902E-01-1.50530E-13-2.68023E-13
 -1       630 2.30592E+01-3.87024E+00 3.79262E-02-3.23202E+00 4.21543E-13-2.85803E-13
 -1       631 2.10264E+01-1.91485E+00 1.22266E-02-3.30200E+00 3.83834E-13-9.93073E-14
 -1       632 2.01167E+01-4.86553E-01 4.09931E-03-2.96533E+00 1.78148E-13 2.51303E-14
 -1       633 1.98422E+01 3.06050E-01 7.67654E-04-2.53632E+00-2.12282E-14 1.17693E-14
 -1       634 1.98343E+01 6.63360E-01 2.91859E-04-2.12917E+00-1.03097E-13-6.06206E-14
 -1       635 1.99153E+01 7.62898E-01 4.62388E-04-1.76316E+00-6.27809E-14-1.22044E-13
 -1       636 2.00023E+01 7.30311E-01 4.78954E-04-1.44101E+00 4.68163E-14-1.32558E-13
 -1       637 2.00663E+01 6.40891E-01 4.26921E-04-1.16188E+00-3.34270E-14 1.14085E-14
 -1       638 2.01029E+01 5.35401E-01 3.50740E-04-9.24246E-01-4.41299E-14 9.63172E-14
 -1       639 2.01171E+01 4.33756E-01 2.76807E-04-7.25532E-01-7.27170E-14-1.86162E-14
 -1       640 2.01158E+01 3.44223E-01 2.13118E-04-5.62130E-01-1.06039E-13-2.39302E-14
 -1       641 2.01054E+01 2.69078E-01 1.61638E-04-4.29812E-01-1.33318E-13-1.95637E-13
 -1       642 2.00907E+01 2.07792E-01 1.21309E-04-3.24161E-01-2.14231E-14-2.47038E-13
 -1       643 2.00749E+01 1.58720E-01 9.02271E-05-2.40905E-01-9.48219E-14-3.77440E-14
 -1       644 2.00597E+01 1.19935E-01 6.64969E-05-1.76132E-01-1.05683E-13 1.12357E-13
 -1       645 2.00463E+01 8.95920E-02 4.85001E-05-1.26381E-01-1.22412E-13-1.66240E-13
 -1       646 2.00349E+01 6.60718E-02 3.49341E-05-8.86770E-02-1.85097E-13-1.69934E-14
 -1       647 2.00256E+01 4.80074E-02 2.47765E-05-6.05121E-02-8.28206E-14 1.73510E-13
 -1       648 2.00183E+01 3.42705E-02 1.72321E-05-3.98064E-02 2.31947E-13 1.10338E-13
 -1       649 2.00126E+01 2.39407E-02 1.16846E-05-2.48595E-02 1.32013E-13 3.11308E-13
 -1       650 2.00084E+01 1.62726E-02 7.65640E-06-1.42993E-02-3.43308E-14 4.17286E-13
 -1       651 2.00053E+01 1.06659E-02 4.77715E-06-7.03202E-03 3.13476E-13 4.57309E-13
 -1       652 2.00030E+01 6.63995E-03 2.75997E-06-2.19703E-03 1.48442E-13 2.16795E-13
 -1       653 2.00015E+01 3.81195E-03 1.38288E-06 8.74392E-04 1.59551E-13 2.75679E-13
 -1       654 2.00005E+01 1.87930E-03 4.74559E-07 2.69440E-03 2.59982E-14 3.88124E-13
 -1       655 1.99998E+01 6.04308E-04-9.67858E-08 3.64907E-03 9.14752E-14 2.03353E-13
 -1       656 1.99995E+01-1.98483E-04-4.32049E-07 4.02407E-03 1.32310E-14 4.24991E-14
 -1       657 1.99993E+01-6.73091E-04-6.14370E-07 4.02583E-03 9.62005E-14-1.91123E-13
 -1       658 1.99992E+01-9.31271E-04-7.20672E-07 3.79893E-03 3.04021E-13-1.34499E-14
 -1       659 1.99992E+01-1.06027E-03-7.39841E-07 3.43989E-03-3.96026E-13 4.05188E-13
 -1       660 1.99992E+01-1.12710E-03-7.34616E-07 3.00841E-03-2.90263E-13 3.76538E-13
 -1       661 1.99993E+01-1.18666E-03-7.22872E-07 2.53470E-03 1.04726E-13 6.16463E-13
 -1       662 1.99995E+01-1.28993E-03-5.35156E-07 2.19789E-03-1.42980E-14 3.01848E-13
 -1       663 2.25463E+01-7.07489E-01-7.95133E-04 1.05048E+00 1.38539E-13 1.80224E-13
 -1       664 2.26156E+01-4.45593E-01-1.20623E-03 1.43733E+00 1.48470E-13 2.24233E-13
 -1       665 2.23481E+01-5.62506E-01 4.28438E-04 7.25737E-01 1.45871E-13 1.54550E-13
 -1       666 2.21293E+01 1.18263E+00-1.31735E-04 1.36135E+00 1.61683E-13 2.71937E-13
 -1       667 2.18216E+01 1.89274E+00-2.78157E-03 5.63615E-01 2.27511E-13 2.18972E-13
 -1       668 2.17694E+01 1.95757E+00-4.04188E-03-5.13815E-01 2.16304E-13 7.44777E-14
 -1       669 2.20032E+01 1.32237E+00-1.45737E-03-1.39252E+00 2.21467E-13-1.03750E-14
 -1       670 2.23115E+01 3.51379E-01-8.12088E-04-1.72429E+00 1.52909E-13-4.80154E-14
 -1       671 2.24604E+01-5.00930E-01-1.55608E-03-1.53265E+00 8.94493E-14-1.37259E-13
 -1       672 2.23591E+01-9.69576E-01 2.45591E-04-1.03111E+00 2.39830E-14-6.14330E-14
 -1       673 2.20662E+01-1.07080E+00-3.88716E-04-4.66914E-01-3.20119E-14-1.54758E-13
 -1       674 2.16893E+01-9.25373E-01-8.02166E-04 7.72215E-03-3.57515E-14-9.88080E-14
 -1       675 2.13179E+01-6.75091E-01-6.12223E-04 3.41799E-01-1.02661E-13-3.13646E-15
 -1       676 2.09982E+01-4.16650E-01-3.92051E-04 5.39543E-01-1.63967E-13 9.63004E-14
 -1       677 2.07442E+01-1.99993E-01-2.13426E-04 6.28412E-01-7.64601E-14 4.60679E-14
 -1       678 2.05517E+01-4.13498E-02-8.69633E-05 6.40252E-01-1.10304E-13 6.63810E-14
 -1       679 2.04093E+01 6.18071E-02-1.26027E-06 6.02907E-01-9.77481E-14 7.30892E-14
 -1       680 2.03050E+01 1.19921E-01 4.78310E-05 5.37963E-01-9.05958E-15-1.12714E-14
 -1       681 2.02284E+01 1.45193E-01 7.21468E-05 4.60907E-01 1.30690E-13-1.33310E-13
 -1       682 2.01716E+01 1.48603E-01 7.98761E-05 3.82093E-01 1.29794E-13-3.04464E-13
 -1       683 2.01292E+01 1.38840E-01 7.73724E-05 3.07905E-01 7.10103E-14-1.94276E-13
 -1       684 2.00971E+01 1.22208E-01 6.92911E-05 2.41826E-01-3.58168E-14-2.86939E-14
 -1       685 2.00726E+01 1.02964E-01 5.87965E-05 1.85331E-01-3.24912E-14-5.05709E-14
 -1       686 2.00538E+01 8.37749E-02 4.78773E-05 1.38589E-01-7.10036E-14-1.62602E-13
 -1       687 2.00394E+01 6.61579E-02 3.76719E-05 1.00982E-01-1.67269E-13-1.55649E-13
 -1       688 2.00284E+01 5.08447E-02 2.87431E-05 7.14773E-02-6.47837E-14-2.98491E-13
 -1       689 2.00200E+01 3.80620E-02 2.12884E-05 4.88734E-02-1.01625E-14-2.66430E-13
 -1       690 2.00138E+01 2.77334E-02 1.52883E-05 3.19618E-02 4.38664E-14-1.41185E-13
 -1       691 2.00091E+01 1.96191E-02 1.06072E-05 1.96189E-02 1.09804E-13 1.33726E-13
 -1       692 2.00057E+01 1.34071E-02 7.05787E-06 1.08537E-02 2.92817E-13 1.30292E-13
 -1       693 2.00033E+01 8.77013E-03 4.44134E-06 4.82569E-03 2.35047E-13 7.86403E-14
 -1       694 2.00016E+01 5.39838E-03 2.56883E-06 8.43710E-04 1.04444E-13 7.94805E-14
 -1       695 2.00005E+01 3.01627E-03 1.27303E-06-1.64562E-03 1.08504E-14 7.34707E-14
 -1       696 1.99998E+01 1.38876E-03 4.11889E-07-3.07468E-03-7.11780E-14 5.58039E-14
 -1       697 1.99993E+01 3.21474E-04-1.32647E-07-3.77328E-03-6.34385E-15-4.16468E-15
 -1       698 1.99991E+01-3.42778E-04-4.60004E-07-3.98661E-03 8.62898E-15 6.61100E-14
 -1       699 1.99990E+01-7.29174E-04-6.26438E-07-3.89148E-03-1.55829E-13 3.29720E-13
 -1       700 1.99991E+01-9.36661E-04-6.99269E-07-3.61031E-03-2.10961E-13 3.36417E-13
 -1       701 1.99991E+01-1.04306E-03-6.91600E-07-3.22295E-03 1.72156E-13 1.97235E-13
 -1       702 1.99992E+01-1.11222E-03-8.08746E-07-2.77804E-03-1.84553E-13-1.22338E-13
 -1       703 1.99994E+01-1.21266E-03-1.23204E-06-2.31905E-03-1.07386E-13-2.57129E-13
 -1       704 2.00004E+01-1.92001E-03-4.83851E-07-2.10919E-03 1.01080E-13 4.69371E-13
 -1       705 2.00012E+01-2.53030E-03 5.91586E-07-1.09288E-03 1.19020E-13-1.92919E-13
 -1       706 1.99999E+01-1.58399E-03-1.76144E-07-2.29195E-03 1.47217E-13 6.24133E-16
 -1       707 2.00008E+01-2.27798E-03 4.98250E-08-1.68603E-03-4.74175E-14 3.08745E-13
 -1       708 2.00013E+01-2.66154E-03 8.74995E-07 3.77321E-04 1.25165E-13 6.92235E-14
 -1       709 2.00012E+01-2.53754E-03 9.38144E-07 1.08297E-03 3.03602E-14-9.15411E-15
 -1       710 2.00008E+01-2.29111E-03 5.23635E-07 1.68905E-03 6.99229E-14-2.84752E-13
 -1       711 2.00004E+01-1.93606E-03-6.64836E-07 2.10779E-03-2.60882E-14 1.71993E-13
 -1       712 2.23050E+01-4.94898E+00 4.34691E-02 4.93478E+00-2.91298E-13-3.52300E-13
 -1       713 1.00507E+01-8.99172E-01 1.35402E-01 4.59517E+00-2.93050E-13 6.62317E-13
 -1       714 1.57522E+01-2.74155E+00 9.64341E-02-6.44922E+00-3.58547E-13-4.86906E-13
 -1       715 2.09984E+01-4.23206E+00 5.29615E-02-5.50181E+00-3.69073E-13-2.30135E-13
 -1       716 2.73565E+01 2.35069E+00-9.87161E-02 2.19547E+00 2.93276E-13 2.90434E-13
 -1       717 2.00013E+01-2.65876E-03 5.15453E-07-3.76883E-04-2.51431E-14-5.10523E-13
 -1       718 7.50289E+00 1.40442E-01 1.59792E-01 5.91216E-01 3.26290E-14 6.89872E-13
 -1       719 9.59673E+00 7.87387E-01 1.53969E-01-3.50902E+00-1.00029E-13-7.34593E-13
 -1       720 2.81248E+01 3.68503E+00-1.33046E-01-2.09436E+00 5.55563E-13-2.22815E-13
 -1       721 1.99067E+01 1.38946E+00 1.94940E-03 1.63807E+00-6.20053E-14-2.00369E-13
 -1       722 2.65213E+01-4.28127E+00-2.40824E-02 2.09708E+00 1.39125E-14-5.21746E-13
 -1       723 9.66447E+00-6.08086E-01 1.69720E-01 3.91977E+00 2.19106E-13-6.48481E-13
 -1       724 2.53204E+01-4.23165E+00-2.46827E-03-2.96820E+00-2.14171E-13 2.29244E-14
 -1       725 2.73247E+01-1.81062E+00-4.85525E-02 7.20825E-01-3.87728E-14 2.69944E-13
 -1       726 1.99313E+01 1.43026E+00-8.55371E-04-7.39846E-01 2.03979E-13-2.13655E-13
 -1       727 1.57199E+01 3.70252E+00 8.75496E-05-1.70858E-01 9.61259E-15-4.73053E-13
 -1       728 2.24673E+01 2.45422E-01-1.08964E-03 1.62592E+00 1.04028E-13 2.51101E-13
 -1       729 1.34313E+01-3.03676E+00 1.22315E-01-5.70378E+00 5.44086E-13 3.11008E-13
 -1       730 2.04789E+01-4.83383E+00 7.35649E-02-5.13689E+00 4.68514E-13-3.40757E-13
 -1       731 2.73291E+01 5.95854E+00-1.56098E-01-1.18802E+00 6.93792E-13 4.61436E-15
 -1       732 9.12576E+00-7.41427E-01 1.62058E-01-3.38238E+00 2.51507E-13 6.75120E-13
 -1       733 1.60685E+01 3.26262E+00 6.81988E-04-1.59546E+00 2.33939E-14-4.26307E-13
 -1       734 1.38328E+01-1.46980E+00 1.17493E-01 4.85708E+00 3.14453E-13-4.00832E-13
 -1       735 1.69753E+01 3.23462E+00-4.03623E-04 5.74620E-01-2.91771E-14-3.94214E-13
 -1       736 1.99999E+01-1.62784E-03-4.59393E-07 2.22884E-03-1.21924E-13 8.68280E-14
 -1       737 2.20627E+01-5.18941E-02 7.95462E-04 6.02126E-01 1.87411E-13 1.28214E-13
 -1       738 2.58330E+01 3.74165E+00-9.38616E-02 1.93394E+00 3.56583E-13 2.32562E-13
 -1       739 1.30848E+01-1.55319E-01 8.12265E-02-4.88745E+00-2.13386E-13-5.22030E-13
 -1       740 2.56014E+01 5.60256E+00-1.10256E-01 7.03881E-02 6.22977E-13 2.13313E-13
 -1       741 1.54254E+01 3.70137E+00-8.18677E-04-1.00354E+00 1.27771E-14-4.48891E-13
 -1       742 2.17626E+01 4.81644E-02-6.99457E-04 1.02412E-01 1.75753E-13-9.11651E-15
 -1       743 2.61963E+01 1.00478E+00-3.95724E-02-2.15980E+00 3.55209E-13-1.92435E-13
 -1       744 9.77142E+00 1.65413E+00 1.16551E-01-4.39072E-01 2.72187E-14-6.81344E-13
 -1       745 1.73779E+01-5.00335E-01 1.92967E-02-3.54959E+00 3.00631E-13-1.85905E-13
 -1       746 1.77029E+01 4.73865E-01 2.94891E-03-2.69622E+00 1.13604E-13-7.71755E-14
 -1       747 1.81851E+01 9.19309E-01 5.76039E-05-2.12307E+00-6.53932E-14 7.82729E-14
 -1       748 1.86520E+01 1.05243E+00 1.05067E-04-1.71716E+00-4.76424E-14 2.61983E-13
 -1       749 1.90421E+01 1.02151E+00 1.17100E-04-1.40701E+00-7.59789E-14 2.87494E-13
 -1       750 1.93441E+01 9.13976E-01 1.12240E-04-1.15358E+00 1.67934E-14 1.73960E-13
 -1       751 1.95661E+01 7.79359E-01 8.99416E-05-9.39308E-01 3.82721E-15 1.41528E-13
 -1       752 1.97232E+01 6.44133E-01 7.02065E-05-7.56515E-01-1.07192E-13 8.08296E-14
 -1       753 1.98307E+01 5.20875E-01 5.26353E-05-6.01439E-01-1.33986E-13 3.27158E-16
 -1       754 1.99021E+01 4.14349E-01 3.89109E-05-4.71501E-01-2.06028E-13 1.47287E-13
 -1       755 1.99481E+01 3.25235E-01 2.86877E-05-3.64247E-01-1.53411E-13-5.46393E-14
 -1       756 1.99768E+01 2.52279E-01 2.11392E-05-2.77087E-01 1.76298E-14-9.37032E-14
 -1       757 1.99940E+01 1.93475E-01 1.55321E-05-2.07347E-01-1.05087E-14-5.44583E-15
 -1       758 2.00037E+01 1.46656E-01 1.13349E-05-1.52394E-01-1.46309E-13 1.35043E-13
 -1       759 2.00086E+01 1.09780E-01 8.18106E-06-1.09751E-01-7.18464E-14 2.02490E-13
 -1       760 2.00105E+01 8.10337E-02 5.81403E-06-7.71735E-02-1.14658E-13 2.82750E-13
 -1       761 2.00108E+01 5.88597E-02 4.04781E-06-5.26910E-02-6.30767E-14 1.82381E-13
 -1       762 2.00101E+01 4.19489E-02 2.74271E-06-3.46150E-02 3.14040E-13-3.64896E-14
 -1       763 2.00090E+01 2.92132E-02 1.79117E-06-2.15301E-02 1.97506E-13 1.62828E-13
 -1       764 2.00077E+01 1.97574E-02 1.10928E-06-1.22725E-02 2.53082E-13 4.75840E-13
 -1       765 2.00063E+01 1.28512E-02 6.31183E-07-5.90117E-03 1.34494E-13 3.90390E-13
 -1       766 2.00051E+01 7.90386E-03 3.05285E-07-1.66793E-03 1.52728E-13 3.72794E-13
 -1       767 2.00040E+01 4.44155E-03 9.12374E-08 1.01259E-03 9.40122E-14 2.07085E-13
 -1       768 2.00031E+01 2.08760E-03-4.26060E-08 2.59079E-03-9.87036E-14 1.67017E-14
 -1       769 2.00023E+01 5.45010E-04-1.20503E-07 3.40700E-03-1.30452E-13-1.76342E-13
 -1       770 2.00017E+01-4.18601E-04-1.59115E-07 3.71318E-03-1.40807E-13-2.43149E-13
 -1       771 2.00011E+01-9.84045E-04-1.93535E-07 3.69118E-03 2.24739E-13-1.09281E-13
 -1       772 2.00007E+01-1.29165E-03-2.11975E-07 3.46810E-03 6.79492E-14-3.99209E-13
 -1       773 2.00004E+01-1.45086E-03-3.49555E-07 3.13134E-03-2.17696E-13 1.00072E-13
 -1       774 2.00002E+01-1.54840E-03-4.67899E-07 2.72816E-03 2.58313E-14 3.57573E-13
 -1       775 2.33398E+01-1.09213E+00-2.51306E-03 1.02893E+00 9.70704E-14 1.59864E-13
 -1       776 2.28247E+01-1.01186E+00 1.12808E-04 5.17690E-01 1.05162E-13 7.47344E-14
 -1       777 2.27953E+01 3.09708E+00-1.76993E-02 8.21979E-02 3.57645E-13 1.43822E-13
 -1       778 2.30683E+01 2.34567E+00-1.66941E-02 1.33608E+00 2.05233E-13 2.47343E-13
 -1       779 2.33291E+01 1.07903E+00-1.80941E-02-1.91425E+00 2.70261E-13-1.27891E-13
 -1       780 2.34804E+01-3.84220E-01 1.19997E-04-1.76388E+00 1.46644E-13-2.04904E-13
 -1       781 2.32144E+01-1.34502E+00 7.17796E-04-1.06313E+00-2.91568E-14-8.91161E-14
 -1       782 2.26760E+01-1.61188E+00-1.60259E-03-3.45648E-01-3.20539E-14-4.83246E-14
 -1       783 2.20240E+01-1.43355E+00-7.89900E-04 2.27914E-01-9.21623E-14 3.83913E-14
 -1       784 2.14224E+01-1.07088E+00-4.63002E-04 5.92489E-01-5.72901E-14 1.02493E-13
 -1       785 2.09420E+01-6.80191E-01-2.06188E-04 7.76283E-01-1.97329E-13 1.39162E-14
 -1       786 2.05932E+01-3.46259E-01-8.06507E-05 8.32582E-01-1.65673E-13 1.28700E-13
 -1       787 2.03572E+01-9.74710E-02-2.84227E-05 8.08858E-01-1.39905E-13 2.32669E-13
 -1       788 2.02063E+01 6.83397E-02 9.99697E-06 7.39693E-01-1.03170E-13 2.21829E-13
 -1       789 2.01148E+01 1.65624E-01 2.16463E-05 6.48433E-01 7.26372E-14 1.00440E-13
 -1       790 2.00624E+01 2.11947E-01 2.52636E-05 5.50236E-01 1.21554E-13-2.13381E-14
 -1       791 2.00341E+01 2.23469E-01 2.51347E-05 4.54485E-01 1.20640E-13-1.48620E-14
 -1       792 2.00201E+01 2.13255E-01 2.29481E-05 3.66594E-01 8.47424E-14 9.01898E-14
 -1       793 2.00138E+01 1.91008E-01 1.97717E-05 2.89286E-01-1.37564E-14 2.04983E-14
 -1       794 2.00114E+01 1.63463E-01 1.63147E-05 2.23501E-01-4.19035E-14 5.52543E-14
 -1       795 2.00107E+01 1.34983E-01 1.30037E-05 1.69040E-01 4.39545E-14 8.58519E-14
 -1       796 2.00105E+01 1.08173E-01 1.00593E-05 1.25027E-01-1.41709E-13 5.51936E-14
 -1       797 2.00102E+01 8.44010E-02 7.56817E-06 9.02349E-02-1.22369E-13 7.85433E-14
 -1       798 2.00097E+01 6.42118E-02 5.53756E-06 6.33069E-02-1.68484E-13 1.65779E-13
 -1       799 2.00090E+01 4.76368E-02 3.93218E-06 4.28988E-02 2.37947E-16 4.82392E-17
 -1       800 2.00080E+01 3.44124E-02 2.69699E-06 2.77652E-02-3.16735E-14-5.09094E-14
 -1       801 2.00070E+01 2.41282E-02 1.77097E-06 1.68044E-02 1.34104E-13-5.33612E-14
 -1       802 2.00059E+01 1.63232E-02 1.09495E-06 9.07553E-03 2.90792E-13 9.03661E-14
 -1       803 2.00049E+01 1.05429E-02 6.15618E-07 3.79785E-03 1.15814E-14 1.29617E-14
 -1       804 2.00039E+01 6.37194E-03 2.87194E-07 3.39343E-04 1.09146E-13 1.21094E-13
 -1       805 2.00031E+01 3.44851E-03 7.16843E-08-1.80014E-03 6.18761E-14 4.17031E-14
 -1       806 2.00023E+01 1.46841E-03-6.26989E-08-3.00787E-03-1.09883E-13-1.31066E-13
 -1       807 2.00017E+01 1.82429E-04-1.47855E-07-3.57700E-03-3.58897E-13 2.24647E-13
 -1       808 2.00012E+01-6.09702E-04-2.25269E-07-3.72397E-03-3.27114E-13 7.24732E-13
 -1       809 2.00008E+01-1.06674E-03-2.33488E-07-3.60386E-03-2.07346E-13 4.90920E-13
 -1       810 2.00005E+01-1.31391E-03-2.55376E-07-3.32328E-03 2.19298E-14 3.47184E-13
 -1       811 2.00002E+01-1.45165E-03-2.95943E-07-2.94800E-03 1.31206E-13 5.79839E-13
 -1       812 2.00000E+01-1.50992E-03-1.06303E-06-2.63180E-03 8.41871E-15 2.14226E-13
 -1       813 2.00016E+01-2.27868E-03 1.47077E-09 1.61294E-03 1.05098E-13 3.89239E-16
 -1       814 2.00020E+01-2.42989E-03 2.79887E-07-8.53649E-04-4.36914E-14-4.51821E-13
 -1       815 1.77769E+01-2.72779E+00 6.34092E-02-4.83787E+00 5.44842E-13-7.41577E-14
 -1       816 2.29394E+01-3.51685E+00 1.38278E-02-3.39380E+00-2.91751E-13-3.82415E-14
 -1       817 2.00010E+01-2.00509E-03-3.25982E-07 2.23221E-03 1.02571E-13-3.09430E-13
 -1       818 2.00020E+01-2.43309E-03-6.61085E-07 8.50107E-04 2.53305E-14 1.31097E-13
 -1       819 1.36164E+01-8.34250E-01 9.35274E-02-4.13349E+00 2.98728E-13 1.26864E-13
 -1       820 1.07734E+01 6.21810E-01 7.93372E-02 2.15423E+00-2.78379E-13 4.61138E-13
 -1       821 2.57845E+01 2.48065E-01-2.12964E-02 1.90425E+00 6.06043E-14 3.29517E-13
 -1       822 2.00021E+01-2.49179E-03 3.83592E-07-7.66343E-06-1.15377E-13-3.05542E-14
 -1       823 2.29624E+01 2.57078E+00-1.34392E-02-1.23612E+00 3.30858E-13 2.86576E-14
 -1       824 1.96040E+01-2.68396E+00 4.27326E-02-4.85059E+00-3.16635E-13-2.52921E-13
 -1       825 1.72938E+01 4.65924E-01 2.00264E-02 2.98979E+00 1.49964E-13-2.81084E-13
 -1       826 1.03004E+01 5.86955E-01 9.82780E-02-1.43439E+00 7.18024E-14 6.24716E-13
 -1       827 2.44690E+01-4.15096E+00 1.40380E-02 2.32018E+00-2.63497E-13-4.69479E-13
 -1       828 1.46005E+01-1.44235E+00 7.23884E-02 5.03922E+00-5.40169E-13 5.40904E-14
 -1       829 2.54948E+01-2.81022E+00-1.99380E-02-5.38669E-01-1.57718E-13 1.35065E-13
 -1       830 2.60306E+01-2.76192E+00-3.80256E-02-2.82221E-01-4.93860E-14-2.45338E-13
 -1       831 1.15022E+01 1.22990E+00 1.04669E-01 2.26205E+00 1.61658E-13-5.35735E-13
 -1       832 1.96578E+01-3.53377E+00 3.19192E-02 4.93149E+00-4.79549E-13-2.30330E-13
 -1       833 1.83948E+01 1.15789E+00 2.33431E-03-2.22750E+00 2.13625E-14-3.08636E-13
 -1       834 2.56183E+01 3.17090E+00-8.82585E-02-2.04031E+00 4.34631E-13-1.06325E-13
 -1       835 1.82255E+01-1.55016E+00 5.40246E-02 4.20533E+00 2.41059E-13-2.47355E-13
 -1       836 1.65176E+01 2.03653E+00 8.15240E-04-2.42554E+00-1.92101E-14-3.73706E-13
 -1       837 1.17823E+01 1.89648E+00 6.82012E-02-2.34495E+00-6.65224E-14-6.13622E-13
 -1       838 2.36134E+01-3.90816E-01 5.99390E-04 1.63209E+00 1.11817E-13 2.58183E-13
 -1       839 2.00016E+01-2.26872E-03 1.07579E-07-1.62770E-03-7.73937E-14 1.94294E-13
 -1       840 1.54174E+01 2.92583E+00 2.28229E-03 7.30515E-01 1.37889E-14-4.16706E-13
 -1       841 2.10864E+01 2.18522E-01-7.08093E-04-6.36174E-01 1.41985E-13-1.37299E-13
 -1       842 2.48817E+01 1.39533E+00-4.61215E-02 2.08674E+00 1.36873E-13 3.47953E-13
 -1       843 2.00006E+01-1.82812E-03 1.37974E-06-2.40628E-03 1.66353E-13 5.41676E-13
 -1       844 1.67669E+01-6.78316E-01 3.24218E-02-4.57690E+00-2.22257E-13-3.58953E-13
 -1       845 1.75174E+01 1.68922E+00 1.78700E-03 1.94717E+00 1.85325E-14-2.80540E-13
 -1       846 2.00232E+01 5.19627E-01 2.74412E-03-1.52715E+00 9.43482E-14-1.90215E-13
 -1       847 2.52527E+01-1.42768E+00-3.35978E-03 1.15346E+00-2.14920E-14 2.61147E-13
 -1       848 2.34783E+01 8.94905E-01-1.92082E-02 1.89425E+00 1.37635E-13 2.83929E-13
 -1       849 1.44905E+01 3.24005E+00 5.77242E-03-5.95912E-01 1.19926E-14-4.88638E-13
 -1       850 1.23709E+01 2.48462E+00 4.59779E-02-1.69424E-01 1.90998E-14-5.48105E-13
 -1       851 2.34345E+01-1.62096E+00 4.85536E-03 7.25763E-02 2.15574E-14 7.54997E-14
 -1       852 2.42417E+01 4.31893E+00-5.60506E-02-7.70695E-01 4.52785E-13 2.30718E-16
 -1       853 2.47986E+01-9.47634E-01-2.81858E-02-1.64827E+00 1.09746E-13-6.78018E-14
 -1       854 2.10956E+01-2.10869E+00 1.35336E-02-3.31862E+00-1.99619E-13-1.33564E-13
 -1       855 1.63018E+01 1.20801E+00 3.18580E-04-1.66649E+00 1.53842E-13-5.70134E-16
 -1       856 1.72803E+01 1.31617E+00 7.31730E-04-1.32632E+00-3.03578E-14 1.17170E-13
 -1       857 1.80160E+01 1.27229E+00-1.01259E-06-1.10273E+00-1.09408E-13 6.11489E-14
 -1       858 1.85681E+01 1.15263E+00-9.26487E-06-9.33652E-01-9.56190E-14 6.01790E-14
 -1       859 1.89780E+01 1.00103E+00-1.80088E-05-7.90727E-01-2.70308E-14 1.25508E-14
 -1       860 1.92792E+01 8.44098E-01-4.73729E-06-6.62812E-01-5.94584E-14-3.65879E-14
 -1       861 1.94982E+01 6.96277E-01-4.44739E-07-5.47162E-01-1.38801E-13-3.17398E-14
 -1       862 1.96558E+01 5.64452E-01 9.35420E-08-4.43947E-01-1.28234E-13-7.88989E-14
 -1       863 1.97680E+01 4.50964E-01-1.62100E-07-3.53792E-01-1.81480E-13 1.99240E-13
 -1       864 1.98470E+01 3.55635E-01-3.50610E-07-2.76868E-01-1.53343E-13-2.18723E-14
 -1       865 1.99021E+01 2.77021E-01-3.86050E-07-2.12707E-01-1.95278E-14-1.82593E-13
 -1       866 1.99399E+01 2.13145E-01-3.42401E-07-1.60324E-01 7.16272E-14 2.30667E-14
 -1       867 1.99656E+01 1.61911E-01-2.79392E-07-1.18407E-01-5.21653E-14 2.35567E-14
 -1       868 1.99826E+01 1.21305E-01-2.23578E-07-8.55024E-02-7.20377E-15 5.49565E-14
 -1       869 1.99935E+01 8.95016E-02-1.81388E-07-6.01546E-02-8.35748E-14 8.75844E-14
 -1       870 2.00003E+01 6.48922E-02-1.50995E-07-4.09962E-02 6.08312E-14 2.57121E-13
 -1       871 2.00042E+01 4.60934E-02-1.28600E-07-2.68020E-02 3.45190E-13 2.29502E-13
 -1       872 2.00062E+01 3.19332E-02-1.10940E-07-1.65117E-02 9.15937E-14 8.13563E-14
 -1       873 2.00070E+01 2.14324E-02-9.58842E-08-9.23366E-03 1.92822E-13-1.20356E-14
 -1       874 2.00069E+01 1.37828E-02-8.23396E-08-4.23606E-03 9.21224E-14 8.59683E-14
 -1       875 2.00064E+01 8.32506E-03-7.00749E-08-9.30768E-04 3.76842E-14 2.39659E-14
 -1       876 2.00057E+01 4.52702E-03-5.98313E-08 1.14541E-03-1.57524E-13-2.28521E-13
 -1       877 2.00048E+01 1.96403E-03-5.42396E-08 2.35016E-03-2.73735E-13-2.34549E-13
 -1       878 2.00040E+01 3.00426E-04-5.22488E-08 2.95422E-03-1.88188E-13-2.07539E-13
 -1       879 2.00031E+01-7.26946E-04-3.61219E-08 3.15777E-03 1.74376E-13-1.38158E-13
 -1       880 2.00024E+01-1.32286E-03 3.10321E-08 3.10480E-03-6.72635E-15-7.44976E-14
 -1       881 2.00017E+01-1.64533E-03 6.10613E-07 2.89759E-03 5.99653E-14-2.39044E-13
 -1       882 2.00014E+01-1.84648E-03 2.55791E-07 2.57946E-03 1.17734E-13-1.31925E-13
 -1       883 2.24082E+01-2.04237E+00 8.50440E-04 6.89967E-01-1.48609E-13-9.88006E-14
 -1       884 2.15068E+01-1.52200E+00-1.53142E-04 1.04680E+00-1.49461E-13 5.00961E-14
 -1       885 2.08328E+01-9.67324E-01-5.32324E-05 1.15942E+00-9.94126E-14 9.64523E-14
 -1       886 2.03785E+01-4.96173E-01 4.04070E-05 1.12761E+00-2.72055E-13 1.06992E-13
 -1       887 2.01002E+01-1.48345E-01-1.12229E-05 1.02389E+00-2.64052E-13 9.53959E-14
 -1       888 1.99459E+01 8.42381E-02 3.76606E-05 8.92053E-01-1.71239E-13 2.01584E-13
 -1       889 1.98734E+01 2.22549E-01 2.72975E-05 7.55072E-01 3.18410E-14 1.19711E-13
 -1       890 1.98511E+01 2.90756E-01 1.67527E-05 6.25049E-01 7.39292E-14 1.61451E-13
 -1       891 1.98570E+01 3.10661E-01 1.07115E-05 5.07731E-01 1.27894E-13 1.60788E-13
 -1       892 1.98767E+01 2.99844E-01 7.17993E-06 4.05374E-01 5.09760E-14 2.13130E-13
 -1       893 1.99014E+01 2.71468E-01 4.88572E-06 3.18310E-01 5.18420E-14 2.60119E-13
 -1       894 1.99258E+01 2.34809E-01 3.28644E-06 2.45806E-01-4.22656E-14 1.67736E-13
 -1       895 1.99475E+01 1.96011E-01 2.15411E-06 1.86560E-01-1.84418E-13 1.39171E-13
 -1       896 1.99653E+01 1.58854E-01 1.36245E-06 1.38998E-01-1.29709E-13 3.33726E-13
 -1       897 1.99791E+01 1.25427E-01 8.21043E-07 1.01466E-01-1.29953E-13 2.34811E-13
 -1       898 1.99893E+01 9.66605E-02 4.59989E-07 7.23514E-02-1.43751E-13 5.43672E-14
 -1       899 1.99964E+01 7.27443E-02 2.25937E-07 5.01584E-02 1.29776E-14-2.21996E-13
 -1       900 2.00011E+01 5.34224E-02 7.94030E-08 3.35515E-02-6.15328E-14-1.19388E-13
 -1       901 2.00040E+01 3.82026E-02-8.03492E-09 2.13718E-02 7.45538E-14-1.85011E-13
 -1       902 2.00055E+01 2.64937E-02-5.63967E-08 1.26391E-02-2.70099E-14-7.65692E-14
 -1       903 2.00060E+01 1.76924E-02-7.95550E-08 6.54201E-03 9.75434E-14 2.12738E-13
 -1       904 2.00059E+01 1.12334E-02-8.70161E-08 2.42273E-03 8.93802E-14 1.25230E-13
 -1       905 2.00055E+01 6.61550E-03-8.52563E-08-2.42225E-04 1.21738E-13 4.51995E-14
 -1       906 2.00048E+01 3.41065E-03-7.89500E-08-1.86157E-03 8.39292E-14 2.59878E-13
 -1       907 2.00041E+01 1.26397E-03-7.50097E-08-2.74831E-03-3.85685E-13 2.53401E-13
 -1       908 2.00033E+01-1.12390E-04-1.16768E-07-3.13722E-03-5.85473E-13 2.10689E-13
 -1       909 2.00026E+01-9.48471E-04-2.21436E-07-3.20020E-03-1.60224E-13 2.12857E-13
 -1       910 2.00019E+01-1.42344E-03-3.58303E-07-3.05856E-03-1.85581E-13 4.23859E-13
 -1       911 2.00014E+01-1.68861E-03-9.30401E-07-2.79580E-03-2.55034E-14 5.04736E-13
 -1       912 1.78494E+01-1.79656E+00 1.58489E-02 4.20212E+00-4.13694E-13-2.16823E-13
 -1       913 2.44299E+01 2.36562E+00-4.22724E-02-2.02208E+00 4.02697E-13-1.04223E-13
 -1       914 2.20489E+01-3.27453E+00 1.64094E-02 2.91253E+00-2.77615E-13-1.61274E-13
 -1       915 2.43268E+01-3.03071E+00 4.02655E-03 6.19284E-01-4.64229E-14-1.92727E-14
 -1       916 2.00022E+01-2.09616E-03-1.17677E-07 1.90264E-03 1.07057E-13-1.18150E-13
 -1       917 2.00027E+01-2.25235E-03 4.47590E-07 1.06721E-03-2.07562E-13 3.15532E-13
 -1       918 1.25261E+01 1.24592E+00 3.10356E-02-5.56017E-02-9.35719E-14 2.92431E-13
 -1       919 1.45901E+01 7.85854E-01 4.01526E-02 3.02582E+00 1.67890E-13-3.72499E-13
 -1       920 1.43066E+01 2.71899E-01 3.42849E-02 3.03977E+00-2.80507E-13 1.77327E-13
 -1       921 1.49542E+01 2.88315E+00 6.31549E-03-1.84077E+00-3.19209E-14-4.47558E-13
 -1       922 1.43325E+01 1.47098E+00 2.44499E-02-3.27725E+00-1.17952E-13-4.27425E-13
 -1       923 1.37309E+01 6.88187E-01 3.69582E-02-2.37317E+00 2.00351E-13 2.09908E-13
 -1       924 2.45195E+01 3.91586E+00-5.31542E-02 1.30769E+00 4.20334E-13 2.45096E-13
 -1       925 2.37800E+01-2.66870E+00-1.01412E-02-1.33485E+00-1.73017E-13 2.35588E-14
 -1       926 2.37866E+01-2.25679E+00 4.81068E-03-2.52756E-01-4.06643E-14-6.92990E-14
 -1       927 2.22963E+01-1.00135E+00-2.31431E-03-5.35766E-01 4.45322E-14-6.08038E-14
 -1       928 2.00029E+01-2.28453E-03-2.55824E-07-4.84983E-04-1.76777E-13-4.38518E-13
 -1       929 2.00025E+01-2.18116E-03-1.61980E-06-1.37540E-03-3.50702E-13-1.76002E-13
 -1       930 1.77400E+01 3.64150E-01 1.72518E-02-3.30249E+00-8.04492E-14-3.15872E-13
 -1       931 1.49333E+01 2.06485E+00 1.78710E-02 1.71125E+00 6.25060E-14-3.87208E-13
 -1       932 1.52376E+01 7.49668E-01 2.80025E-02-2.35808E+00 1.48070E-13-9.78202E-14
 -1       933 2.00721E+01-4.97228E-01-2.85607E-03-2.46839E+00-2.03938E-14-1.67207E-13
 -1       934 1.35843E+01 2.63628E+00 2.10625E-02-1.62076E+00-3.81503E-14-5.32498E-13
 -1       935 1.60150E+01 1.46277E+00 3.98407E-03-4.93659E-01-3.94073E-14-5.52783E-14
 -1       936 1.70838E+01 1.41311E+00 1.55902E-03-4.83770E-01 2.93341E-14-8.69726E-14
 -1       937 1.78582E+01 1.29714E+00 1.65428E-04-4.81349E-01-5.10594E-14 5.96088E-14
 -1       938 1.84279E+01 1.15222E+00-7.85145E-05-4.65639E-01-1.63737E-13 9.70432E-14
 -1       939 1.88512E+01 9.95269E-01-5.67446E-05-4.33614E-01-1.01873E-13-9.07813E-14
 -1       940 1.91666E+01 8.40498E-01-3.45239E-05-3.88846E-01-1.13490E-13-2.44964E-13
 -1       941 1.94010E+01 6.96554E-01-2.28292E-05-3.36948E-01-8.12546E-14-1.17912E-13
 -1       942 1.95746E+01 5.67916E-01-1.65817E-05-2.83181E-01 9.37716E-14-2.14980E-14
 -1       943 1.97022E+01 4.56264E-01-1.25859E-05-2.31543E-01-3.60403E-13 5.09874E-14
 -1       944 1.97954E+01 3.61528E-01-9.61845E-06-1.84609E-01-1.27705E-13 1.22394E-13
 -1       945 1.98627E+01 2.82624E-01-7.28214E-06-1.43726E-01-6.89315E-15-1.14970E-13
 -1       946 1.99109E+01 2.17952E-01-5.43097E-06-1.09316E-01 6.82618E-14-2.32884E-13
 -1       947 1.99448E+01 1.65711E-01-3.98149E-06-8.11853E-02 2.10120E-14 1.86757E-14
 -1       948 1.99683E+01 1.24090E-01-2.86482E-06-5.87701E-02 1.21092E-13 1.30240E-13
 -1       949 1.99842E+01 9.13786E-02-2.01864E-06-4.13266E-02 3.94051E-15 2.02027E-13
 -1       950 1.99945E+01 6.60218E-02-1.38773E-06-2.80577E-02 6.72525E-14-3.43026E-14
 -1       951 2.00010E+01 4.66484E-02-9.25015E-07-1.81937E-02 9.21131E-14-1.65506E-13
 -1       952 2.00048E+01 3.20744E-02-5.91575E-07-1.10372E-02 3.35321E-13-4.99893E-14
 -1       953 2.00067E+01 2.12965E-02-3.56097E-07-5.98425E-03 6.42023E-14 5.41954E-14
 -1       954 2.00074E+01 1.34784E-02-1.93994E-07-2.52957E-03 3.22207E-14-8.88329E-14
 -1       955 2.00073E+01 7.93309E-03-8.68370E-08-2.62317E-04-2.28293E-13-2.89215E-13
 -1       956 2.00067E+01 4.10405E-03-2.26316E-08 1.14338E-03-7.75502E-14-3.37565E-13
 -1       957 2.00058E+01 1.54608E-03 3.73810E-11 1.94003E-03-1.48217E-13-1.94442E-13
 -1       958 2.00049E+01-9.30569E-05-3.62415E-08 2.31910E-03 8.53850E-14-5.33735E-14
 -1       959 2.00040E+01-1.09072E-03 5.30518E-08 2.42128E-03 2.75181E-14-1.99282E-13
 -1       960 2.00031E+01-1.65575E-03 8.64317E-07 2.34860E-03-6.28198E-14-2.98173E-13
 -1       961 2.00026E+01-1.90990E-03-3.61625E-07 2.13434E-03 3.72194E-14-1.96194E-13
 -1       962 2.00091E+01-6.06365E-01 1.50977E-04 1.53137E+00-2.35786E-13 1.63163E-13
 -1       963 2.05393E+01-1.22766E+00 5.87280E-04 1.72868E+00-1.02441E-13 8.42480E-14
 -1       964 2.14311E+01-2.00900E+00 2.46340E-03 1.78320E+00-1.94783E-13 7.31982E-14
 -1       965 1.97217E+01-1.58267E-01-1.73323E-04 1.29024E+00-2.84537E-13 1.78319E-13
 -1       966 1.95945E+01 1.34084E-01 8.26938E-05 1.06001E+00-2.62916E-13 1.73792E-13
 -1       967 1.95641E+01 3.05874E-01 3.89595E-05 8.55051E-01-1.39013E-14 1.50913E-13
 -1       968 1.95888E+01 3.89734E-01 1.09709E-05 6.81027E-01 2.76339E-14 2.47531E-13
 -1       969 1.96407E+01 4.13494E-01-7.78280E-07 5.36735E-01 1.58189E-13 3.43065E-13
 -1       970 1.97026E+01 3.98949E-01-4.48676E-06 4.18807E-01 6.98269E-14 2.98789E-13
 -1       971 1.97643E+01 3.62289E-01-5.18942E-06 3.23440E-01-3.27153E-14 2.30593E-13
 -1       972 1.98202E+01 3.14959E-01-4.89555E-06 2.47023E-01-7.31432E-14 2.24888E-13
 -1       973 1.98679E+01 2.64633E-01-4.28731E-06 1.86345E-01-9.99043E-14 1.38686E-13
 -1       974 1.99068E+01 2.16115E-01-3.59915E-06 1.38623E-01-2.75723E-13 5.86486E-14
 -1       975 1.99373E+01 1.72132E-01-2.92498E-06 1.01481E-01-7.03020E-14 1.24374E-13
 -1       976 1.99603E+01 1.33967E-01-2.30928E-06 7.29036E-02-9.59777E-14 5.60727E-14
 -1       977 1.99771E+01 1.01956E-01-1.77319E-06 5.11937E-02 8.92605E-14-5.13081E-15
 -1       978 1.99890E+01 7.58511E-02-1.32382E-06 3.49341E-02-9.43792E-14-6.91721E-14
 -1       979 1.99969E+01 5.50819E-02-9.59245E-07 2.29510E-02 4.58300E-14-1.39043E-13
 -1       980 2.00020E+01 3.89298E-02-6.72094E-07 1.42822E-02-1.27452E-13-8.45007E-14
 -1       981 2.00049E+01 2.66423E-02-4.52249E-07 8.14711E-03-4.66208E-14-1.10108E-13
 -1       982 2.00064E+01 1.75019E-02-2.88730E-07 3.92044E-03 8.33602E-14-6.05293E-14
 -1       983 2.00068E+01 1.08630E-02-1.70924E-07 1.10729E-03 9.91866E-14 3.14195E-13
 -1       984 2.00066E+01 6.16737E-03-8.90963E-08-6.78512E-04-9.37050E-14 3.07480E-13
 -1       985 2.00060E+01 2.94737E-03-3.46061E-08-1.73379E-03-1.03480E-13 5.07797E-13
 -1       986 2.00052E+01 8.20251E-04-1.45531E-08-2.28296E-03-3.52255E-13 4.16795E-13
 -1       987 2.00043E+01-5.21367E-04 7.67995E-08-2.49166E-03-2.27353E-13 2.04955E-13
 -1       988 2.00034E+01-1.31683E-03 5.00675E-08-2.48552E-03-2.25606E-13 1.17072E-13
 -1       989 2.00026E+01-1.77987E-03 1.62290E-06-2.34908E-03-1.65255E-13-1.50763E-14
 -1       990 2.00032E+01-2.03683E-03-2.19223E-06 1.26217E-03 6.36139E-14 4.32844E-13
 -1       991 2.00427E+01-1.92658E+00 6.45830E-03 2.96077E+00-1.94990E-13-5.80983E-14
 -1       992 2.21002E+01-1.53975E+00 1.08642E-02-1.62323E+00-6.13244E-14-1.17884E-13
 -1       993 2.28460E+01-2.83697E+00-1.04020E-02 1.44592E+00-1.74015E-13 6.83221E-14
 -1       994 1.46253E+01 1.22548E+00 1.15780E-02 1.04076E+00-7.58378E-14 2.73869E-13
 -1       995 1.69696E+01-3.54143E-01 1.43896E-03 3.03565E+00-3.16953E-13-2.26805E-13
 -1       996 1.45430E+01 1.29880E+00 1.40722E-02-1.13887E+00 9.96189E-14 1.68438E-13
 -1       997 2.00036E+01-1.95956E-03-1.39023E-06-1.03508E-03-6.85403E-14-2.28024E-13
 -1       998 2.00037E+01-2.00995E-03 1.76159E-06 3.29344E-04 2.90951E-14-8.78915E-14
 -1       999 1.63174E+01 7.56532E-01 7.66155E-04 1.74768E+00-1.34787E-13-1.15624E-13
 -1      1000 1.63419E+01 1.30588E+00-6.30939E-04 4.93538E-01-6.04298E-14 3.52618E-13
 -1      1001 1.73736E+01 1.27313E+00 3.05007E-04 1.83445E-01-1.57780E-14 1.00940E-13
 -1      1002 1.80271E+01 1.17756E+00-1.65684E-04 2.13926E-02-1.34625E-13-8.37004E-14
 -1      1003 1.85187E+01 1.05616E+00-1.35148E-04-7.89704E-02-1.68425E-13 4.72432E-14
 -1      1004 1.88934E+01 9.21604E-01-8.66611E-05-1.31710E-01-1.94346E-13 1.08575E-13
 -1      1005 1.91799E+01 7.85978E-01-6.02108E-05-1.51877E-01-4.55894E-14 1.55749E-13
 -1      1006 1.93984E+01 6.57122E-01-4.57732E-05-1.51164E-01 1.86869E-14-1.22493E-14
 -1      1007 1.95645E+01 5.39725E-01-3.65154E-05-1.38328E-01-6.05464E-14-1.10146E-14
 -1      1008 1.96896E+01 4.36121E-01-2.95470E-05-1.19556E-01-1.31457E-13 1.65326E-13
 -1      1009 1.97831E+01 3.46991E-01-2.38422E-05-9.89462E-02-2.18722E-13 1.84381E-13
 -1      1010 1.98522E+01 2.71935E-01-1.90500E-05-7.90086E-02-3.18540E-14 1.05174E-13
 -1      1011 1.99025E+01 2.09901E-01-1.50298E-05-6.11157E-02 1.09926E-13 1.14850E-14
 -1      1012 1.99386E+01 1.59492E-01-1.16952E-05-4.58701E-02 1.27580E-13 1.76272E-13
 -1      1013 1.99640E+01 1.19180E-01-8.96872E-06-3.33868E-02 6.08121E-14 8.52758E-14
 -1      1014 1.99814E+01 8.74391E-02-6.77265E-06-2.34977E-02-1.07985E-13 1.34132E-13
 -1      1015 1.99930E+01 6.28324E-02-5.03004E-06-1.58908E-02-3.89954E-14 2.05564E-13
 -1      1016 2.00003E+01 4.40601E-02-3.66769E-06-1.02008E-02 1.37009E-13-2.16688E-14
 -1      1017 2.00047E+01 2.99806E-02-2.61857E-06-6.06365E-03 9.58579E-14-1.94428E-13
 -1      1018 2.00069E+01 1.96152E-02-1.82327E-06-3.14685E-03-1.25088E-13-2.98311E-13
 -1      1019 2.00078E+01 1.21424E-02-1.23061E-06-1.16300E-03 9.62880E-14-3.73370E-13
 -1      1020 2.00078E+01 6.88442E-03-7.98366E-07 1.26156E-04-1.50398E-13 1.68687E-14
 -1      1021 2.00072E+01 3.29100E-03-4.94750E-07 9.11683E-04-5.58728E-14 2.56795E-13
 -1      1022 2.00063E+01 9.21885E-04-2.45619E-07 1.34214E-03 3.85966E-14 3.41522E-13
 -1      1023 2.00053E+01-5.65211E-04 7.75584E-07 1.53081E-03 1.74417E-14 1.24345E-13
 -1      1024 2.00043E+01-1.46149E-03-5.48043E-07 1.56150E-03 4.77396E-14 1.18264E-13
 -1      1025 2.00038E+01-1.79274E-03-1.51968E-06 1.41654E-03-1.26740E-13 3.76369E-13
 -1      1026 1.93412E+01-6.15844E-01-2.10584E-03 2.02319E+00-1.75788E-13 1.28349E-13
 -1      1027 1.95842E+01-1.19259E+00-1.86244E-03 2.49266E+00-1.83520E-13 8.65045E-14
 -1      1028 1.91652E+01 4.35122E-01 1.17074E-04 9.31135E-01-1.94653E-13-1.01686E-13
 -1      1029 1.92677E+01 5.19631E-01 4.50836E-05 7.05109E-01-1.71882E-13 2.81226E-13
 -1      1030 1.93853E+01 5.36884E-01 6.08890E-06 5.31541E-01 3.85539E-14 4.08251E-13
 -1      1031 1.95018E+01 5.11763E-01-9.80141E-06 3.99085E-01 1.43917E-13 3.62720E-13
 -1      1032 1.96083E+01 4.62453E-01-1.56007E-05 2.98344E-01 6.16757E-14 3.92052E-13
 -1      1033 1.97008E+01 4.01744E-01-1.70070E-05 2.21872E-01 1.36069E-13 1.66163E-13
 -1      1034 1.97778E+01 3.38227E-01-1.63904E-05 1.63919E-01 9.92356E-14-1.55337E-13
 -1      1035 1.98400E+01 2.77314E-01-1.48094E-05 1.20092E-01-3.99759E-14-1.34707E-13
 -1      1036 1.98886E+01 2.22101E-01-1.28132E-05 8.70510E-02-2.36487E-13-7.80822E-14
 -1      1037 1.99258E+01 1.74060E-01-1.07209E-05 6.22534E-02-8.22259E-14-4.66414E-14
 -1      1038 1.99533E+01 1.33579E-01-8.72140E-06 4.37588E-02 5.66705E-14-1.34961E-13
 -1      1039 1.99731E+01 1.00371E-01-6.91959E-06 3.00792E-02 7.67259E-14-3.11562E-14
 -1      1040 1.99869E+01 7.37631E-02-5.36344E-06 2.00682E-02-2.12797E-14-1.49509E-13
 -1      1041 1.99961E+01 5.29006E-02-4.06369E-06 1.28397E-02 9.38646E-14-1.03084E-13
 -1      1042 2.00019E+01 3.68812E-02-3.00816E-06 7.70745E-03-4.82038E-14-3.30912E-13
 -1      1043 2.00053E+01 2.48363E-02-2.17197E-06 4.14061E-03-2.20401E-14-2.73331E-13
 -1      1044 2.00070E+01 1.59774E-02-1.52437E-06 1.72940E-03-3.15854E-13-7.03120E-14
 -1      1045 2.00075E+01 9.61722E-03-1.03251E-06 1.59351E-04-2.07068E-14 1.46080E-13
 -1      1046 2.00073E+01 5.17526E-03-6.60126E-07-8.08962E-04-1.28382E-13 3.16407E-13
 -1      1047 2.00066E+01 2.17289E-03-3.44120E-07-1.35579E-03-2.05741E-13 1.98041E-13
 -1      1048 2.00057E+01 2.23706E-04-1.97922E-08-1.61519E-03-1.06015E-13 4.77958E-14
 -1      1049 2.00047E+01-9.72674E-04 1.05795E-06-1.68373E-03-1.17269E-14 1.02557E-13
 -1      1050 1.91055E+01 2.49638E-01-4.15950E-05 1.22360E+00-2.40883E-13-1.08846E-13
 -1      1051 1.91488E+01-7.48669E-02 3.08013E-04 1.58119E+00-2.24712E-13 1.82425E-14
 -1      1052 2.00047E+01-1.51051E-03-8.81034E-07-3.66407E-04-1.51902E-13-4.35403E-13
 -1      1053 2.00043E+01-1.42988E-03 6.19803E-07-1.48658E-03-9.92573E-16 9.49437E-14
 -1      1054 2.00046E+01-1.48770E-03-4.62107E-07 6.10837E-04 1.45438E-13 1.16688E-13
 -1      1055 1.79088E+01-2.90562E-02 1.91810E-03 2.21682E+00-1.68570E-13-1.45632E-13
 -1      1056 1.71705E+01 9.25261E-01 3.01699E-03 1.18269E+00-1.42072E-13-1.81199E-13
 -1      1057 1.78867E+01 1.02342E+00-2.05518E-03 6.18747E-01-1.57477E-13-1.94108E-13
 -1      1058 1.83591E+01 9.88821E-01-3.95286E-04 3.67388E-01-1.20969E-13-1.56318E-13
 -1      1059 1.87342E+01 9.11097E-01-2.16951E-04 2.02067E-01-8.26409E-14-2.54680E-13
 -1      1060 1.90328E+01 8.10726E-01-1.21346E-04 9.73849E-02-2.05405E-13-1.87987E-13
 -1      1061 1.92697E+01 7.01407E-01-6.46457E-05 3.41769E-02-1.47026E-13-3.23936E-13
 -1      1062 1.94560E+01 5.92614E-01-3.19102E-05-1.40169E-03 5.74984E-14-2.16807E-13
 -1      1063 1.96013E+01 4.90409E-01-1.32249E-05-1.92102E-02 1.09418E-13 2.37351E-14
 -1      1064 1.97132E+01 3.98266E-01-2.88202E-06-2.61163E-02-4.88755E-14 1.87279E-13
 -1      1065 1.97983E+01 3.17793E-01 2.47976E-06-2.67589E-02-1.22317E-13 3.69497E-13
 -1      1066 1.98620E+01 2.49310E-01 4.90085E-06-2.41555E-02-8.45958E-14 2.67173E-13
 -1      1067 1.99090E+01 1.92311E-01 5.63928E-06-2.01805E-02 5.37348E-14 8.85530E-14
 -1      1068 1.99429E+01 1.45799E-01 5.46980E-06-1.59294E-02 1.06097E-13-1.14151E-13
 -1      1069 1.99669E+01 1.08532E-01 4.86176E-06-1.19876E-02 1.28833E-13 2.70598E-13
 -1      1070 1.99834E+01 7.91880E-02 4.09044E-06-8.61997E-03 4.50011E-14 4.39730E-13
 -1      1071 1.99944E+01 5.64779E-02 3.30898E-06-5.90188E-03-1.26432E-13 6.28839E-13
 -1      1072 2.00013E+01 3.92082E-02 2.59518E-06-3.80455E-03 2.15065E-14 6.41286E-13
 -1      1073 2.00054E+01 2.63166E-02 1.98195E-06-2.24928E-03-1.25917E-13 5.36081E-13
 -1      1074 2.00074E+01 1.68854E-02 1.47703E-06-1.14008E-03-1.06306E-13 5.37240E-13
 -1      1075 2.00081E+01 1.01410E-02 1.07671E-06-3.81811E-04-4.35800E-14 5.12471E-14
 -1      1076 2.00079E+01 5.44413E-03 7.76625E-07 1.10639E-04-4.15659E-15-1.18925E-13
 -1      1077 2.00073E+01 2.27591E-03 5.61854E-07 4.08924E-04 1.90698E-13 2.89287E-14
 -1      1078 2.00063E+01 2.13129E-04-1.76108E-06 5.71506E-04-6.77148E-14 1.82062E-13
 -1      1079 2.00055E+01-7.91569E-04 1.02887E-06 6.04639E-04-1.43370E-13 2.49920E-13
 -1      1080 1.92786E+01 6.39100E-01 7.33229E-05 3.36622E-01-3.32757E-14-1.43914E-13
 -1      1081 1.88797E+01 6.89223E-01 1.83314E-04 6.76186E-01-3.07870E-13-2.19956E-13
 -1      1082 1.94396E+01 5.70885E-01 4.25888E-05 2.36313E-01 1.17767E-13 1.11325E-13
 -1      1083 1.95739E+01 4.93051E-01 2.54510E-05 1.65463E-01 2.61081E-13 1.76136E-13
 -1      1084 1.96832E+01 4.14227E-01 1.59621E-05 1.15560E-01 2.00834E-13 2.56583E-13
 -1      1085 1.97701E+01 3.39816E-01 1.06925E-05 8.04595E-02 1.56123E-14 3.18599E-13
 -1      1086 1.98377E+01 2.72867E-01 7.72814E-06 5.57788E-02-1.96893E-13 2.74052E-13
 -1      1087 1.98892E+01 2.14766E-01 5.99906E-06 3.84197E-02-1.64299E-13 2.94201E-13
 -1      1088 1.99276E+01 1.65787E-01 4.91237E-06 2.62075E-02 1.42414E-14 2.69853E-13
 -1      1089 1.99555E+01 1.25502E-01 4.14891E-06 1.76215E-02 1.13470E-13 2.14595E-13
 -1      1090 1.99753E+01 9.30861E-02 3.54553E-06 1.15990E-02 1.97329E-13 1.05680E-13
 -1      1091 1.99888E+01 6.75259E-02 3.02558E-06 7.39504E-03-6.92578E-14 1.32611E-14
 -1      1092 1.99977E+01 4.77619E-02 2.55787E-06 4.48507E-03 7.13500E-14 1.25127E-13
 -1      1093 2.00032E+01 3.27767E-02 2.13308E-06 2.49700E-03-9.30979E-14 2.19739E-13
 -1      1094 2.00063E+01 2.16446E-02 1.75111E-06 1.16494E-03-2.54821E-13 1.74766E-13
 -1      1095 2.00077E+01 1.35562E-02 1.41569E-06 2.97592E-04-3.76668E-13 1.48820E-13
 -1      1096 2.00080E+01 7.82429E-03 1.13607E-06-2.43380E-04-1.48954E-13 1.71407E-13
 -1      1097 2.00076E+01 3.87914E-03 9.37732E-07-5.58336E-04-6.93755E-14 1.11025E-13
 -1      1098 2.00068E+01 1.25783E-03 8.76184E-07-7.20241E-04 1.88476E-14-2.27860E-13
 -1      1099 2.00058E+01-4.05764E-04-1.50356E-06-7.80012E-04-1.26795E-15-4.79558E-13
 -1      1100 1.90908E+01 6.84773E-01 1.25149E-04 4.78025E-01-1.17051E-13-3.43707E-13
 -1      1101 1.86546E+01 6.26375E-01 3.17160E-04 9.50794E-01-2.00348E-13-1.86655E-13
 -1      1102 1.84414E+01 4.61975E-01-8.13119E-04 1.32736E+00-1.63765E-13-9.53696E-14
 -1      1103 2.00052E+01-1.01669E-03 6.52523E-07-5.89464E-04-1.43580E-13-6.95355E-13
 -1      1104 2.00054E+01-9.17105E-04 3.08542E-06 2.38956E-05-6.51258E-14-4.85781E-14
 -1      1105 3.04125E+01 9.84035E+00 2.38843E+00-6.35076E+00-5.14033E-14 1.21159E-12
 -1      1106 2.29215E+01 6.97884E+00 3.41241E-01-2.85020E+00-2.40641E-14 2.99344E-14
 -1      1107 2.08433E+01 6.29107E+00 1.26949E-01-1.51212E+00-1.45717E-14-4.42084E-13
 -1      1108 1.92903E+01 5.80060E+00 4.50046E-02-8.31611E-01-8.27116E-15-6.60140E-13
 -1      1109 1.80248E+01 5.40546E+00-6.60818E-03-5.15848E-01-5.24580E-15-7.55034E-13
 -1      1110 1.70943E+01 5.11656E+00-3.90472E-02-4.43610E-01-2.49800E-15-7.87204E-13
 -1      1111 1.65492E+01 4.94938E+00-5.12749E-02-5.07376E-01 2.08167E-16-7.87211E-13
 -1      1112 1.64011E+01 4.90702E+00-4.44014E-02-5.97006E-01 9.66241E-16-7.55940E-13
 -1      1113 1.66113E+01 4.97678E+00-2.20093E-02-6.14551E-01 3.82333E-15-7.11490E-13
 -1      1114 1.70843E+01 5.12785E+00 8.46844E-03-4.93883E-01 5.44009E-15-6.52310E-13
 -1      1115 1.77086E+01 5.32429E+00 3.90604E-02-2.09431E-01 7.53564E-15-5.74841E-13
 -1      1116 1.83850E+01 5.53476E+00 6.41340E-02 2.26445E-01 9.82547E-15-4.60606E-13
 -1      1117 1.90683E+01 5.74481E+00 8.10677E-02 7.94587E-01 1.37113E-14-3.06586E-13
 -1      1118 1.97784E+01 5.96140E+00 9.28847E-02 1.48864E+00 1.54043E-14-7.71588E-14
 -1      1119 2.06215E+01 6.22026E+00 1.12626E-01 2.33750E+00 2.00395E-14 3.00366E-13
 -1      1120 2.19884E+01 6.66094E+00 2.14716E-01 3.52563E+00 1.87628E-14 9.60201E-13
 -1      1121 2.69301E+01 8.53081E+00 1.50583E+00 5.80882E+00 2.63123E-14 2.18592E-12
 -1      1122 3.14005E+01 3.56069E+00 1.05758E+00-4.01386E+00-1.91416E-13 1.95077E-12
 -1      1123 2.43840E+01-2.09442E-01-6.61980E-01 1.50341E-02-6.51423E-14 1.50506E-12
 -1      1124 2.44414E+01-1.06323E-01-2.35737E-01 1.09066E-01-2.47198E-14 9.11174E-13
 -1      1125 2.54403E+01-5.02606E-02-5.79679E-02 8.69913E-02-1.40140E-14 5.25413E-13
 -1      1126 2.67263E+01-4.63951E-03 2.06049E-02 7.77202E-02-2.38947E-15 3.16941E-13
 -1      1127 2.79215E+01 5.02232E-02 1.09130E-01 5.46396E-02-7.99534E-15 2.16160E-13
 -1      1128 2.84202E+01 1.13171E-01 2.15138E-01-9.61945E-03 3.83721E-15 1.30344E-13
 -1      1129 2.74640E+01 1.51506E-01 2.68392E-01-1.28877E-01 1.00978E-14 1.71557E-13
 -1      1130 2.46159E+01 1.01474E-01 1.49426E-01-2.62704E-01 5.84602E-15-3.98293E-14
 -1      1131 2.05919E+01-6.81521E-02-1.69874E-01-2.94156E-01 7.06206E-15-3.31069E-13
 -1      1132 1.75704E+01-2.48147E-01-4.75152E-01-1.29821E-01-1.69829E-14-7.41698E-13
 -1      1133 1.75205E+01-2.54056E-01-4.85633E-01 1.22504E-01-9.29465E-15-9.01473E-13
 -1      1134 2.05852E+01-8.10296E-02-1.90004E-01 2.98788E-01-8.97806E-15-1.01175E-12
 -1      1135 2.47825E+01 9.70764E-02 1.37948E-01 2.77706E-01-1.87524E-15-1.08219E-12
 -1      1136 2.78854E+01 1.57790E-01 2.71964E-01 1.47326E-01-2.17708E-15-1.01727E-12
 -1      1137 2.90606E+01 1.26327E-01 2.27692E-01 2.65194E-02-1.95920E-14-1.12081E-12
 -1      1138 2.86770E+01 6.84613E-02 1.23234E-01-3.81596E-02-3.14731E-14-1.13523E-12
 -1      1139 2.74676E+01 2.12370E-02 3.69064E-02-5.67218E-02-2.90436E-15-8.53290E-13
 -1      1140 2.60144E+01-6.70954E-03-1.17653E-02-5.19911E-02-4.73439E-14-1.06197E-12
 -1      1141 2.46409E+01-1.93119E-02-3.12807E-02-3.99129E-02 1.69272E-14-1.28734E-12
 -1      1142 2.34784E+01-2.26652E-02-3.46411E-02-2.79763E-02 5.80438E-15-1.32139E-12
 -1      1143 2.25517E+01-2.14327E-02-3.10334E-02-1.85687E-02 3.32271E-14-1.42687E-12
 -1      1144 2.18388E+01-1.83992E-02-2.53701E-02-1.18598E-02 6.17913E-14-1.09857E-12
 -1      1145 2.13026E+01-1.49933E-02-1.98034E-02-7.31837E-03 3.20243E-14-7.93763E-13
 -1      1146 2.09057E+01-1.18469E-02-1.50738E-02-4.33462E-03-2.99907E-14-8.23904E-13
 -1      1147 2.06158E+01-9.17818E-03-1.13052E-02-2.41271E-03-3.14302E-14-7.30063E-13
 -1      1148 2.04067E+01-7.01305E-03-8.39502E-03-1.19599E-03 5.82907E-14-7.65858E-13
 -1      1149 2.02580E+01-5.30016E-03-6.18316E-03-4.41775E-04-1.74117E-15-1.17018E-12
 -1      1150 2.01539E+01-3.96560E-03-4.51613E-03 1.09628E-05-3.98905E-15-1.18388E-12
 -1      1151 2.00825E+01-2.93642E-03-3.26623E-03 2.68110E-04 2.01654E-14-8.73431E-13
 -1      1152 2.00349E+01-2.14910E-03-2.33326E-03 3.99320E-04-4.35418E-14-9.37843E-13
 -1      1153 2.00044E+01-1.55133E-03-1.64049E-03 4.50613E-04-4.63770E-15-1.54922E-12
 -1      1154 1.99859E+01-1.10116E-03-1.12966E-03 4.52558E-04 1.37407E-14-1.41651E-12
 -1      1155 1.99757E+01-7.65357E-04-7.56510E-04 4.25508E-04 3.11970E-14-1.11580E-12
 -1      1156 1.99712E+01-5.17704E-04-4.87318E-04 3.82970E-04 6.27264E-14-8.63309E-13
 -1      1157 1.99703E+01-3.37593E-04-2.96271E-04 3.33811E-04-6.31448E-14-1.00735E-12
 -1      1158 1.99717E+01-2.08836E-04-1.63559E-04 2.83711E-04-5.59087E-14-1.52667E-12
 -1      1159 1.99744E+01-1.18752E-04-7.39677E-05 2.36156E-04 9.07651E-15-1.23184E-12
 -1      1160 1.99777E+01-5.74367E-05-1.58301E-05 1.93134E-04 4.90710E-15-1.11182E-12
 -1      1161 1.99811E+01-1.71929E-05 1.97702E-05 1.55611E-04-3.06913E-14-1.36973E-12
 -1      1162 1.99845E+01 7.93660E-06 3.96207E-05 1.23880E-04 4.13365E-14-1.12425E-12
 -1      1163 1.99876E+01 2.25477E-05 4.88824E-05 9.77984E-05 7.95546E-14-7.94790E-13
 -1      1164 1.99904E+01 3.01920E-05 5.15151E-05 7.69419E-05 2.72784E-14-2.58931E-13
 -1      1165 1.99929E+01 3.36433E-05 5.06688E-05 6.06850E-05-4.06768E-14-4.98426E-13
 -1      1166 1.99950E+01 3.51186E-05 4.90837E-05 4.81797E-05-2.57320E-14-3.62803E-13
 -1      1167 1.99967E+01 3.64274E-05 4.94556E-05 3.81676E-05-3.81052E-14-7.63143E-13
 -1      1168 1.99982E+01 3.89034E-05 5.42469E-05 2.84746E-05 3.68710E-14-7.08688E-13
 -1      1169 1.99992E+01 4.26851E-05 6.23884E-05 1.50128E-05-3.81739E-14-5.62467E-13
 -1      1170 1.99998E+01 4.04183E-05 5.45297E-05-1.09697E-05 3.38883E-14-5.63290E-13
 -1      1171 1.99999E+01 3.49145E-05-2.22911E-05-4.25909E-05 8.47720E-14-7.66656E-13
 -1      1172 2.95432E+01 5.48939E-01 2.93006E-01 1.99506E+00-3.67761E-14 3.15137E-12
 -1      1173 2.23256E+01-5.95798E-02-5.80285E-01 1.02115E-01 1.08698E-14 2.75227E-12
 -1      1174 2.15018E+01-2.64201E-02-1.66929E-01-1.62955E-03 9.67715E-15 2.30268E-12
 -1      1175 2.12383E+01-1.28016E-03-1.37073E-02-1.60058E-02 1.24359E-14 2.01848E-12
 -1      1176 2.10187E+01 1.21964E-02 3.02935E-02-1.65248E-02 6.41154E-15 1.85279E-12
 -1      1177 2.06405E+01 1.78961E-02 4.19069E-02-9.18528E-03-2.61119E-15 1.71684E-12
 -1      1178 2.00138E+01 1.44740E-02 3.79317E-02 4.13389E-03-1.22242E-14 1.61636E-12
 -1      1179 1.91528E+01 1.97531E-03 1.88829E-02 2.11535E-02-1.24813E-14 1.56972E-12
 -1      1180 1.81875E+01-1.61323E-02-1.29561E-02 3.65680E-02-2.92995E-15 1.33666E-12
 -1      1181 1.73455E+01-3.28154E-02-4.78614E-02 4.34193E-02 1.37325E-14 1.14236E-12
 -1      1182 1.68779E+01-4.05316E-02-7.15050E-02 3.69735E-02 1.10250E-14 8.70786E-13
 -1      1183 1.69524E+01-3.58408E-02-7.31335E-02 1.83201E-02-1.13538E-15 7.73206E-13
 -1      1184 1.75706E+01-2.15575E-02-5.26412E-02-5.52609E-03 6.86430E-15 7.72979E-13
 -1      1185 1.85666E+01-4.44777E-03-2.03214E-02-2.57144E-02-2.45123E-14 8.27852E-13
 -1      1186 1.96860E+01 9.26577E-03 1.02795E-02-3.64374E-02 1.23292E-14 6.29524E-13
 -1      1187 2.06910E+01 1.66810E-02 2.99674E-02-3.69625E-02 1.32513E-14 4.37414E-13
 -1      1188 2.14318E+01 1.81561E-02 3.67047E-02-3.03267E-02-9.18449E-15 3.06422E-13
 -1      1189 2.18616E+01 1.57188E-02 3.36159E-02-2.06846E-02 2.06885E-14 3.60901E-13
 -1      1190 2.20113E+01 1.15536E-02 2.54842E-02-1.13002E-02 2.50559E-14 5.12715E-14
 -1      1191 2.19507E+01 7.22737E-03 1.62952E-02-3.90479E-03-2.88320E-14 2.38482E-13
 -1      1192 2.17571E+01 3.57696E-03 8.35770E-03 1.04979E-03 8.00597E-15 3.16786E-13
 -1      1193 2.14970E+01 8.89822E-04 2.52981E-03 3.84564E-03-2.27330E-14 2.65179E-13
 -1      1194 2.12192E+01-8.65683E-04-1.20980E-03 5.03898E-03 2.44802E-15 1.78579E-13
 -1      1195 2.09549E+01-1.86181E-03-3.26959E-03 5.19054E-03 3.72470E-15 2.48516E-14
 -1      1196 2.07213E+01-2.30392E-03-4.14068E-03 4.75068E-03-1.67472E-14 1.54515E-13
 -1      1197 2.05255E+01-2.37761E-03-4.25392E-03 4.03615E-03-2.92096E-14 4.24987E-13
 -1      1198 2.03681E+01-2.22951E-03-3.93529E-03 3.24772E-03 1.96837E-15 3.15772E-13
 -1      1199 2.02461E+01-1.96564E-03-3.40892E-03 2.49969E-03-4.13339E-15-2.61428E-13
 -1      1200 2.01546E+01-1.65722E-03-2.81716E-03 1.84793E-03-2.85210E-14-2.36536E-13
 -1      1201 2.00882E+01-1.34865E-03-2.24310E-03 1.31188E-03-1.46744E-14-1.13585E-13
 -1      1202 2.00418E+01-1.06506E-03-1.72985E-03 8.90080E-04 4.72007E-14-2.66241E-13
 -1      1203 2.00108E+01-8.18540E-04-1.29508E-03 5.70489E-04-3.46895E-14-2.23240E-13
 -1      1204 1.99911E+01-6.12830E-04-9.41290E-04 3.36779E-04 6.01261E-15 1.38437E-14
 -1      1205 1.99798E+01-4.46708E-04-6.62675E-04 1.72026E-04-2.58467E-14 9.37065E-15
 -1      1206 1.99742E+01-3.16291E-04-4.49528E-04 6.06425E-05-2.41089E-14 1.18146E-13
 -1      1207 1.99725E+01-2.16529E-04-2.90909E-04-1.07711E-05 2.24949E-14-1.33986E-13
 -1      1208 1.99732E+01-1.42136E-04-1.76173E-04-5.31944E-05 9.39074E-14-6.43174E-13
 -1      1209 1.99755E+01-8.81096E-05-9.57488E-05-7.53048E-05-5.77067E-14-4.23594E-13
 -1      1210 1.99784E+01-5.00028E-05-4.14528E-05-8.37571E-05-3.86671E-15 1.72998E-15
 -1      1211 1.99817E+01-2.40144E-05-6.53599E-06-8.35230E-05-5.04766E-14-2.32243E-13
 -1      1212 1.99849E+01-6.98220E-06 1.44316E-05-7.82298E-05 1.50735E-14-5.39338E-13
 -1      1213 1.99879E+01 3.68665E-06 2.57558E-05-7.04686E-05-3.27208E-14-4.18051E-13
 -1      1214 1.99906E+01 1.01224E-05 3.08651E-05-6.20583E-05-6.40127E-14-3.34826E-13
 -1      1215 1.99930E+01 1.41171E-05 3.26086E-05-5.42537E-05 1.56253E-14-7.53438E-13
 -1      1216 1.99951E+01 1.72503E-05 3.36243E-05-4.78678E-05-9.45312E-14-6.06775E-13
 -1      1217 1.99968E+01 2.09325E-05 3.66962E-05-4.32336E-05 3.19481E-14-6.59060E-13
 -1      1218 1.99982E+01 2.62235E-05 4.45238E-05-3.98870E-05-2.76684E-14-6.73742E-13
 -1      1219 1.99992E+01 3.21879E-05 5.55656E-05-3.42820E-05 5.39925E-14-9.25747E-13
 -1      1220 1.99998E+01 2.72024E-05 4.68848E-05-1.58448E-05 7.41933E-14-1.00793E-12
 -1      1221 1.99998E+01-1.76119E-05-4.20338E-05 1.83471E-05-5.35442E-14-5.14538E-13
 -1      1222 1.99998E+01 5.24300E-05-3.96404E-05 1.71799E-05-4.80380E-13-8.41837E-14
 -1      1223 1.99998E+01-2.01601E-05 4.83020E-05 1.07427E-05-5.74616E-13 2.63080E-15
 -1      1224 1.99998E+01-5.77918E-04 5.11316E-05-2.15231E-05-3.75121E-15-2.50474E-14
 -1      1225 1.99998E+01-1.49369E-03 2.27349E-05-3.46296E-05-7.06147E-14-8.80782E-14
 -1      1226 1.99998E+01-2.55039E-03-5.30757E-06-3.65078E-05 1.74796E-13-1.12255E-13
 -1      1227 1.99998E+01-3.55771E-03-2.74343E-05-3.17757E-05-3.91515E-13-9.57503E-14
 -1      1228 1.99998E+01-4.38101E-03-4.29223E-05-2.35686E-05-1.58135E-13 1.45271E-13
 -1      1229 1.99998E+01-4.92215E-03-5.24417E-05-1.23493E-05 2.76511E-13-1.14787E-13
 -1      1230 1.99998E+01-5.10850E-03-5.56357E-05 6.43608E-08-3.86890E-15-8.35207E-14
 -1      1231 1.99998E+01-4.91852E-03-5.24903E-05 1.25059E-05 5.06031E-13 3.55882E-14
 -1      1232 1.99998E+01-4.37348E-03-4.28794E-05 2.37427E-05-2.77207E-13-1.56944E-13
 -1      1233 1.99998E+01-3.54583E-03-2.71575E-05 3.24514E-05-8.74732E-13-1.41783E-14
 -1      1234 1.99998E+01-2.53550E-03-4.98406E-06 3.67346E-05-7.15284E-13 1.26419E-13
 -1      1235 1.99998E+01-1.47780E-03 2.31569E-05 3.43987E-05-3.57092E-13-4.66504E-15
 -1      1236 1.99998E+01-5.66969E-04 4.99285E-05 1.96946E-05-1.03046E-13-1.25180E-13
 -1      1237 1.99998E+01-8.88011E-06 4.73321E-05-2.24927E-05 7.75862E-13 1.27287E-13
 -1      1238 1.99998E+01 6.31372E-05-2.70861E-05-3.89861E-05 8.60080E-13-5.65451E-14
 -1      1239-1.00571E+00-2.40496E+01-3.67375E+00-2.11078E+00 1.67211E-12 3.66443E-13
 -1      1240-1.62662E+00-1.49508E+01-2.98526E+00-3.88250E+00 3.19478E-12 1.12416E-12
 -1      1241 5.90468E-01-1.78594E+00-1.73008E+00 2.63337E-01 3.58957E-12 2.15405E-12
 -1      1242 9.37417E+00 8.44903E+00-1.89355E-01 8.78559E+00 3.20544E-12 2.96096E-12
 -1      1243 2.54253E+01 1.16417E+01 1.40729E+00 1.64938E+01 2.14795E-12 2.96851E-12
 -1      1244 4.51804E+01 8.68670E+00 2.80542E+00 1.82889E+01 9.57512E-13 2.01794E-12
 -1      1245 6.13735E+01 3.75157E+00 3.76984E+00 1.18433E+01 1.76373E-13 5.26912E-13
 -1      1246 6.73866E+01 1.62946E+00 4.13554E+00-8.07136E-01 1.20751E-13-1.01119E-12
 -1      1247 5.90676E+01 4.72855E+00 3.70422E+00-1.31011E+01 6.76653E-13-2.41718E-12
 -1      1248 4.11662E+01 9.64424E+00 2.60928E+00-1.83675E+01 1.63425E-12-3.27804E-12
 -1      1249 2.14533E+01 1.14730E+01 1.03671E+00-1.51002E+01 2.47247E-12-3.18101E-12
 -1      1250 6.99047E+00 6.98073E+00-5.26044E-01-6.96157E+00 2.93787E-12-2.53930E-12
 -1      1251-1.29395E-01-3.47016E+00-1.96120E+00 6.65273E-01 2.61635E-12-1.51179E-12
 -1      1252-1.58140E+00-1.59912E+01-3.06800E+00 3.75869E+00 1.48370E-12-5.66880E-13
 -1      1253-9.19070E-01-2.44572E+01-3.74577E+00 1.34331E+00-8.88178E-14-1.23193E-13
 -1      1254-1.42513E+00-2.33350E+01-3.72428E+00-3.06342E+00-1.82804E-12-4.36158E-13
 -1      1255-2.02603E+00-1.43046E+01-3.18908E+00-4.42031E+00-3.10663E-12-1.29802E-12
 -1      1256 9.29041E-01-1.54755E+00-1.93978E+00 5.81918E-01-3.43170E-12-2.35167E-12
 -1      1257 1.16328E+01 8.09886E+00-3.20601E-01 9.70651E+00-3.00315E-12-3.11462E-12
 -1      1258 3.08836E+01 1.08295E+01 1.76531E+00 1.73322E+01-2.05835E-12-3.17857E-12
 -1      1259 5.35199E+01 7.22160E+00 3.55652E+00 1.69212E+01-9.31311E-13-2.25220E-12
 -1      1260 6.96871E+01 2.53815E+00 4.73491E+00 7.31415E+00-2.06023E-13-7.74825E-13
 -1      1261 7.01152E+01 2.24037E+00 4.71168E+00-6.28325E+00-2.12129E-13 1.15752E-12
 -1      1262 5.71228E+01 6.02975E+00 3.74977E+00-1.61530E+01-7.27141E-13 2.30171E-12
 -1      1263 3.71622E+01 1.01294E+01 2.21611E+00-1.82798E+01-1.61993E-12 2.85816E-12
 -1      1264 1.80183E+01 1.01597E+01 4.82354E-01-1.31485E+01-2.36500E-12 2.83862E-12
 -1      1265 4.72726E+00 4.05536E+00-1.14368E+00-4.58277E+00-2.90612E-12 2.40097E-12
 -1      1266-1.31512E+00-7.05470E+00-2.53140E+00 2.49493E+00-2.90745E-12 1.61016E-12
 -1      1267-2.09172E+00-1.83992E+01-3.40296E+00 4.66726E+00-2.11042E-12 7.61585E-13
 -1      1268-1.12080E+00-2.53228E+01-3.84718E+00 2.26710E+00-5.39346E-13 1.91028E-13
 -1      1269 2.53790E+01 1.99995E+00-7.18584E-01-2.29384E+00-7.32747E-14 9.32088E-13
 -1      1270 2.26586E+01 4.94623E+00-3.59418E-02-2.13314E+00-1.68712E-13-1.89362E-13
 -1      1271 2.36605E+01 5.14967E+00-4.18271E-02-3.15918E+00-2.34590E-13 6.04516E-14
 -1      1272 2.06818E+01 5.19336E+00-2.88157E-02-1.28140E+00-1.49700E-13-5.40061E-13
 -1      1273 2.15978E+01 5.46024E+00 4.39688E-02-1.74126E+00-1.80564E-13-3.94816E-13
 -1      1274 2.26766E+01 4.11904E+00-6.96672E-03-1.84483E+00-2.88915E-13-1.66450E-13
 -1      1275 1.90789E+01 5.17427E+00-3.01778E-02-7.51790E-01-1.05374E-13-7.01654E-13
 -1      1276 1.98584E+01 5.41188E+00 2.85694E-02-9.92565E-01-1.29924E-13-6.30843E-13
 -1      1277 2.05958E+01 4.61816E+00-1.76204E-02-1.16696E+00-2.30663E-13-4.58550E-13
 -1      1278 1.77847E+01 5.10572E+00-3.23963E-02-5.14105E-01-6.60583E-14-7.75909E-13
 -1      1279 1.83998E+01 5.29288E+00 1.02356E-02-6.12791E-01-7.79099E-14-7.48996E-13
 -1      1280 1.89044E+01 4.84740E+00-1.98867E-02-7.32066E-01-1.50040E-13-5.99760E-13
 -1      1281 1.68858E+01 5.04136E+00-3.00761E-02-4.83663E-01-2.35506E-14-7.96694E-13
 -1      1282 1.72905E+01 5.16477E+00-5.90133E-03-4.91633E-01-3.88509E-14-7.85979E-13
 -1      1283 1.76016E+01 4.95831E+00-1.76283E-02-5.50852E-01-9.12430E-14-6.55014E-13
 -1      1284 1.64166E+01 4.98952E+00-2.23142E-02-5.57600E-01 2.90566E-15-7.85625E-13
 -1      1285 1.65954E+01 5.04437E+00-1.85735E-02-5.26483E-01-4.05925E-15-7.97220E-13
 -1      1286 1.67426E+01 4.98455E+00-1.54272E-02-5.46992E-01-2.54484E-14-6.73417E-13
 -1      1287 1.63960E+01 4.95505E+00-1.00413E-02-6.28850E-01 4.09187E-14-7.51415E-13
 -1      1288 1.63517E+01 4.94256E+00-2.49197E-02-6.10670E-01 2.58361E-14-7.67181E-13
 -1      1289 1.63724E+01 4.93357E+00-1.48217E-02-6.16295E-01 2.11792E-14-6.57174E-13
 -1      1290 1.67475E+01 4.94043E+00 3.28483E-03-6.04598E-01 6.82718E-14-7.05047E-13
 -1      1291 1.65277E+01 4.87483E+00-2.38116E-02-6.40052E-01 5.75616E-14-7.34600E-13
 -1      1292 1.64759E+01 4.82386E+00-1.54287E-02-6.53098E-01 8.05909E-14-6.25290E-13
 -1      1293 1.73467E+01 4.95095E+00 1.44451E-02-4.29475E-01 1.02127E-13-6.39764E-13
 -1      1294 1.70185E+01 4.85222E+00-1.66963E-02-5.40295E-01 8.72913E-14-6.77873E-13
 -1      1295 1.69507E+01 4.69030E+00-1.65148E-02-5.73995E-01 1.23150E-13-5.80175E-13
 -1      1296 1.80641E+01 4.99011E+00 2.14178E-02-9.01951E-02 1.31013E-13-5.60121E-13
 -1      1297 1.76915E+01 4.87730E+00-6.95357E-03-2.79250E-01 1.19585E-13-6.07155E-13
 -1      1298 1.76532E+01 4.57117E+00-1.74665E-02-3.37483E-01 1.78283E-13-5.19827E-13
 -1      1299 1.87936E+01 5.05550E+00 2.43297E-02 3.86797E-01 1.60282E-13-4.37966E-13
 -1      1300 1.84237E+01 4.94133E+00 1.55120E-03 1.33797E-01 1.46098E-13-5.08704E-13
 -1      1301 1.84417E+01 4.49127E+00-1.81083E-02 5.24603E-02 2.24581E-13-4.27977E-13
 -1      1302 1.95255E+01 5.14120E+00 2.41587E-02 9.92613E-01 2.08451E-13-2.67147E-13
 -1      1303 1.91550E+01 5.02443E+00 5.62773E-03 6.75788E-01 1.85234E-13-3.62269E-13
 -1      1304 1.92356E+01 4.44842E+00-1.95073E-02 5.73965E-01 2.78111E-13-2.93949E-13
 -1      1305 2.02847E+01 5.23002E+00 2.14096E-02 1.71056E+00 2.39690E-13-2.49627E-14
 -1      1306 1.98894E+01 5.10162E+00 2.42658E-03 1.33140E+00 2.21850E-13-1.72248E-13
 -1      1307 2.00309E+01 4.41272E+00-2.18145E-02 1.20590E+00 3.43741E-13-1.12195E-13
 -1      1308 2.12191E+01 5.29282E+00 1.96444E-02 2.57915E+00 2.52742E-13 3.81035E-13
 -1      1309 2.07061E+01 5.12314E+00-1.16692E-02 2.09693E+00 2.31426E-13 1.42868E-13
 -1      1310 2.09034E+01 4.31353E+00-2.40295E-02 1.93424E+00 3.73652E-13 1.53856E-13
 -1      1311 2.27911E+01 5.12960E+00 2.23649E-02 3.76635E+00 1.90348E-13 1.07422E-12
 -1      1312 2.18804E+01 4.93763E+00-3.78027E-02 3.00361E+00 1.95968E-13 6.57904E-13
 -1      1313 2.21110E+01 3.96078E+00-1.72214E-02 2.74390E+00 3.57596E-13 5.94066E-13
 -1      1314 2.90710E+01 3.32606E+00 9.27284E-01 4.52850E+00 6.75016E-14 2.25869E-12
 -1      1315 2.38102E+01 3.68368E+00-1.81330E-01 3.67676E+00 7.71050E-14 1.45781E-12
 -1      1316 2.39751E+01 2.60061E+00-2.29243E-02 3.15204E+00 2.95045E-13 1.21370E-12
 -1      1317 2.34014E+01 3.39082E-01-7.87655E-01 1.00323E+00 1.46078E-13 2.22877E-12
 -1      1318 2.56854E+01 9.67136E-02-3.97820E-01-7.26862E-01-1.96052E-13 1.01386E-12
 -1      1319 2.49807E+01 2.80088E-01-1.45036E-01-3.14880E-01-1.78635E-13 7.83214E-13
 -1      1320 2.47395E+01 1.60237E-01-6.89992E-02 1.05814E-01-1.31974E-13 6.97851E-13
 -1      1321 2.49067E+01 9.48702E-02-1.01015E-02 1.75049E-01-1.28748E-13 5.00162E-13
 -1      1322 2.49211E+01 3.45426E-01-1.04586E-01-3.19326E-01-3.04062E-13 3.69689E-13
 -1      1323 2.49941E+01 7.36718E-02 9.29053E-04 3.82163E-01-9.94977E-14 4.40224E-13
 -1      1324 2.54784E+01 3.68834E-02 1.16422E-02 4.05493E-01-8.00991E-14 3.06387E-13
 -1      1325 2.46738E+01 1.34157E-01-4.08569E-02 4.84697E-01-2.15657E-13 2.71144E-13
 -1      1326 2.57738E+01 1.65195E-02 1.03622E-02 4.68519E-01-3.17348E-14 2.48135E-13
 -1      1327 2.63333E+01-2.53756E-02 1.14155E-02 4.66917E-01-3.82357E-14 1.86219E-13
 -1      1328 2.50839E+01 2.87681E-02-1.06333E-02 8.11604E-01-1.30993E-13 1.68979E-13
 -1      1329 2.66761E+01-6.02495E-02 1.62426E-02 3.73807E-01 4.43048E-15 1.95163E-13
 -1      1330 2.70563E+01-1.09958E-01 1.84857E-02 3.27826E-01-9.07000E-15 1.63189E-13
 -1      1331 2.57346E+01-9.78654E-02 5.18498E-03 7.92979E-01-4.49137E-14 1.22870E-13
 -1      1332 2.72807E+01-1.63371E-01 3.37491E-02 3.35487E-02-4.40446E-15 1.86512E-13
 -1      1333 2.71648E+01-2.02549E-01 3.33959E-02-7.46280E-02 1.40530E-14 1.76036E-13
 -1      1334 2.63399E+01-2.68635E-01 2.71291E-02 3.52475E-01-1.60601E-14 1.95951E-13
 -1      1335 2.70906E+01-2.51277E-01 5.28306E-02-5.54542E-01 1.56489E-14 1.92409E-13
 -1      1336 2.62100E+01-2.33305E-01 3.84120E-02-7.10437E-01-3.49824E-14 1.55931E-13
 -1      1337 2.65650E+01-4.23583E-01 5.07676E-02-5.62724E-01 4.54498E-16 2.55289E-13
 -1      1338 2.57124E+01-2.17355E-01 4.21814E-02-1.17780E+00-9.67750E-14 1.29008E-13
 -1      1339 2.41303E+01-9.87317E-02 2.50170E-03-1.29095E+00-1.19276E-13-1.99840E-14
 -1      1340 2.60881E+01-3.94547E-01 5.21265E-02-1.72771E+00-1.40445E-13 1.91850E-13
 -1      1341 2.33190E+01 2.24056E-02-2.50596E-02-1.36308E+00-1.02210E-13-9.71445E-14
 -1      1342 2.16894E+01 2.05544E-01-7.34477E-02-1.29692E+00-1.17170E-13-2.30371E-13
 -1      1343 2.48446E+01-4.38508E-02-5.52188E-03-2.44603E+00-2.02120E-13 6.53644E-14
 -1      1344 2.10542E+01 3.50776E-01-1.05970E-01-7.38177E-01-1.42039E-13-3.71619E-13
 -1      1345 2.03617E+01 4.36973E-01-1.29474E-01-4.94212E-01-1.32047E-13-5.19591E-13
 -1      1346 2.33896E+01 5.23453E-01-1.00108E-01-1.88361E+00-2.46830E-13-1.18416E-13
 -1      1347 2.03302E+01 4.46397E-01-1.33444E-01 4.28142E-01-7.70356E-14-6.56112E-13
 -1      1348 2.10149E+01 3.67553E-01-1.10973E-01 7.00200E-01-1.01072E-13-7.17398E-13
 -1      1349 2.27030E+01 8.04457E-01-1.51680E-01-6.42573E-02-2.11914E-13-3.57490E-13
 -1      1350 2.17000E+01 2.26525E-01-7.70700E-02 1.32737E+00-4.69520E-14-7.98597E-13
 -1      1351 2.33780E+01 4.29696E-02-2.90026E-02 1.40597E+00-2.65239E-14-8.51152E-13
 -1      1352 2.33773E+01 5.47146E-01-1.07174E-01 1.88141E+00-1.33574E-13-5.76424E-13
 -1      1353 2.42434E+01-8.46218E-02-4.07537E-04 1.37104E+00-3.02241E-14-8.64891E-13
 -1      1354 2.59241E+01-2.13333E-01 3.91290E-02 1.26343E+00 1.60436E-14-8.94729E-13
 -1      1355 2.49261E+01-3.53545E-03-6.68991E-03 2.56250E+00-2.88242E-14-6.91530E-13
 -1      1356 2.64787E+01-2.35636E-01 3.64324E-02 7.96706E-01 2.07195E-14-8.58424E-13
 -1      1357 2.74666E+01-2.62024E-01 5.17749E-02 6.37079E-01 2.64788E-14-8.46143E-13
 -1      1358 2.62810E+01-3.88422E-01 5.33883E-02 1.88791E+00 1.37459E-14-7.25218E-13
 -1      1359 2.75715E+01-2.15663E-01 3.16866E-02 1.30519E-01-5.20417E-16-8.38496E-13
 -1      1360 2.77592E+01-1.81911E-01 3.12005E-02 1.37596E-02-4.42823E-14-8.93435E-13
 -1      1361 2.68415E+01-4.39685E-01 5.51439E-02 6.87454E-01 2.99205E-14-6.51806E-13
 -1      1362 2.75168E+01-1.28304E-01 1.38377E-02-3.22508E-01 7.40900E-15-7.88578E-13
 -1      1363 2.71488E+01-8.32789E-02 8.82450E-03-3.78301E-01 3.56798E-14-7.73100E-13
 -1      1364 2.66239E+01-2.96176E-01 3.21917E-02-3.12984E-01 3.59903E-14-5.73153E-13
 -1      1365 2.67176E+01-4.88957E-02 1.03394E-03-5.26540E-01 4.91352E-14-7.13419E-13
 -1      1366 2.60912E+01-1.47206E-02-3.37007E-03-5.39171E-01 1.06126E-14-6.41199E-13
 -1      1367 2.59096E+01-1.32025E-01 1.01556E-02-8.71617E-01 5.86753E-14-4.53025E-13
 -1      1368 2.55997E+01 1.37140E-04-3.74448E-03-5.59620E-01-8.97330E-14-6.03115E-13
 -1      1369 2.49256E+01 2.03549E-02-6.77658E-03-5.50186E-01-3.85589E-14-6.90791E-13
 -1      1370 2.49798E+01-2.07945E-02-2.94878E-03-1.05681E+00 1.68598E-14-4.27847E-13
 -1      1371 2.44536E+01 2.30382E-02-3.70785E-03-5.05638E-01-4.66090E-14-6.45112E-13
 -1      1372 2.38417E+01 3.29685E-02-5.94680E-03-4.88196E-01-4.11997E-15-6.82024E-13
 -1      1373 2.40286E+01 3.46580E-02-8.46225E-03-1.01880E+00-8.11410E-14-2.23674E-13
 -1      1374 2.34279E+01 2.99941E-02-2.10121E-03-4.20458E-01-7.34729E-14-7.93570E-13
 -1      1375 2.29190E+01 3.38438E-02-3.98072E-03-4.02201E-01-7.93532E-14-8.57980E-13
 -1      1376 2.31628E+01 5.36414E-02-9.63072E-03-8.80489E-01-9.88957E-14-3.58203E-13
 -1      1377 2.25759E+01 2.90686E-02-5.66083E-04-3.33299E-01-1.45379E-14-9.28625E-13
 -1      1378 2.21733E+01 2.97940E-02-2.22890E-03-3.17182E-01 9.40506E-14-8.97393E-13
 -1      1379 2.24265E+01 5.40117E-02-8.86623E-03-7.15701E-01-6.71746E-14-4.84948E-13
 -1      1380 2.18989E+01 2.50499E-02 4.18528E-04-2.56476E-01 1.24806E-13-9.20845E-13
 -1      1381 2.15902E+01 2.43723E-02-1.02474E-03-2.43308E-01 1.06939E-13-7.29040E-13
 -1      1382 2.18268E+01 4.68747E-02-7.47647E-03-5.60396E-01 1.58429E-13-4.77735E-13
 -1      1383 2.13763E+01 2.03413E-02 8.94738E-04-1.93454E-01 8.92455E-14-7.07628E-13
 -1      1384 2.11445E+01 1.91562E-02-3.04906E-04-1.83125E-01-5.25578E-15-6.57563E-13
 -1      1385 2.13527E+01 3.78811E-02-6.03938E-03-4.28184E-01 1.39819E-13-3.68667E-13
 -1      1386 2.09807E+01 1.59747E-02 1.03631E-03-1.43747E-01-7.49247E-14-5.79120E-13
 -1      1387 2.08093E+01 1.47066E-02 8.07302E-05-1.35831E-01-4.86612E-14-5.91743E-13
 -1      1388 2.09857E+01 2.94517E-02-4.76562E-03-3.21499E-01-3.69609E-14-4.39548E-13
 -1      1389 2.06858E+01 1.22934E-02 9.96636E-04-1.05445E-01 1.96826E-14-6.10096E-13
 -1      1390 2.05607E+01 1.11221E-02 2.61981E-04-9.94634E-02 1.36332E-14-6.35173E-13
 -1      1391 2.07062E+01 2.23872E-02-3.70665E-03-2.38036E-01 3.39310E-14-3.91416E-13
 -1      1392 2.04688E+01 9.33355E-03 8.76537E-04-7.63687E-02-7.99186E-14-6.36072E-13
 -1      1393 2.03787E+01 8.32030E-03 3.27567E-04-7.18946E-02-4.92477E-14-7.30967E-13
 -1      1394 2.04964E+01 1.67758E-02-2.85312E-03-1.73987E-01-8.53781E-14-5.08604E-13
 -1      1395 2.03113E+01 7.01371E-03 7.32684E-04-5.45364E-02-1.12554E-13-8.47562E-13
 -1      1396 2.02473E+01 6.16655E-03 3.31980E-04-5.12182E-02-1.12189E-13-9.95472E-13
 -1      1397 2.03409E+01 1.24414E-02-2.17661E-03-1.25482E-01-2.37788E-13-6.94240E-13
 -1      1398 2.01985E+01 5.22187E-03 5.93153E-04-3.82962E-02-3.25468E-14-1.00830E-12
 -1      1399 2.01539E+01 4.52738E-03 3.06702E-04-3.58565E-02-4.59106E-14-9.68875E-13
 -1      1400 2.02272E+01 9.14386E-03-1.64594E-03-8.91301E-02-1.36559E-13-7.78410E-13
 -1      1401 2.01192E+01 3.85045E-03 4.69782E-04-2.63295E-02 5.11800E-14-9.15183E-13
 -1      1402 2.00888E+01 3.28842E-03 2.69151E-04-2.45536E-02 3.98144E-14-9.07508E-13
 -1      1403 2.01454E+01 6.65730E-03-1.23281E-03-6.21464E-02 5.87544E-14-9.25166E-13
 -1      1404 2.00646E+01 2.80796E-03 3.66002E-04-1.76055E-02-9.16979E-14-8.77042E-13
 -1      1405 2.00444E+01 2.35761E-03 2.28585E-04-1.63287E-02-1.67662E-13-1.06185E-12
 -1      1406 2.00876E+01 4.79361E-03-9.13338E-04-4.23196E-02 6.43924E-15-1.00653E-12
 -1      1407 2.00280E+01 2.02057E-03 2.81289E-04-1.13268E-02-1.13157E-13-9.99837E-13
 -1      1408 2.00152E+01 1.66291E-03 1.89671E-04-1.04229E-02-5.45033E-14-1.08173E-12
 -1      1409 2.00476E+01 3.40446E-03-6.68013E-04-2.79216E-02-1.07602E-13-7.70881E-13
 -1      1410 2.00044E+01 1.43008E-03 2.13504E-04-6.87949E-03 9.14389E-14-1.01859E-12
 -1      1411 1.99968E+01 1.14861E-03 1.54552E-04-6.25222E-03 1.67375E-13-8.94387E-13
 -1      1412 2.00208E+01 2.37557E-03-4.81104E-04-1.76134E-02 9.45335E-14-6.90070E-13
 -1      1413 1.99900E+01 9.91096E-04 1.60048E-04-3.79270E-03 3.97464E-14-8.60770E-13
 -1      1414 1.99860E+01 7.71740E-04 1.24010E-04-3.36869E-03-5.61837E-14-7.78766E-13
 -1      1415 2.00034E+01 1.61971E-03-3.40014E-04-1.03629E-02 1.64582E-13-6.42155E-13
 -1      1416 1.99821E+01 6.68259E-04 1.18389E-04-1.70629E-03-2.61331E-14-7.96629E-13
 -1      1417 1.99804E+01 4.99158E-04 9.81161E-05-1.42977E-03 1.48168E-14-7.42031E-13
 -1      1418 1.99928E+01 1.07029E-03-2.34678E-04-5.37712E-03 5.31033E-15-5.27317E-13
 -1      1419 1.99785E+01 4.34041E-04 8.62706E-05-3.46007E-04-4.74883E-14-8.76004E-13
 -1      1420 1.99784E+01 3.05258E-04 7.65838E-05-1.74817E-04-2.10246E-13-9.27999E-13
 -1      1421 1.99869E+01 6.76441E-04-1.57069E-04-2.04969E-03-1.78040E-13-7.45121E-13
 -1      1422 1.99777E+01 2.66994E-04 6.17667E-05 4.95752E-04-1.15110E-13-9.75980E-13
 -1      1423 1.99785E+01 1.70248E-04 5.89626E-05 5.93250E-04-3.13976E-14-1.07793E-12
 -1      1424 1.99842E+01 3.99167E-04-1.00790E-04 8.09088E-05-2.15285E-13-7.33457E-13
 -1      1425 1.99787E+01 1.50413E-04 4.32753E-05 9.74877E-04 1.30599E-13-1.07522E-12
 -1      1426 1.99800E+01 7.88452E-05 4.47434E-05 1.02219E-03 1.20919E-13-9.26119E-13
 -1      1427 1.99837E+01 2.08543E-04-6.07649E-05 1.36326E-03 6.56660E-14-6.97676E-13
 -1      1428 1.99807E+01 7.13200E-05 2.94817E-05 1.20718E-03-4.33703E-14-9.55742E-13
 -1      1429 1.99823E+01 1.92843E-05 3.34145E-05 1.22154E-03-7.76088E-14-9.71343E-13
 -1      1430 1.99844E+01 8.16149E-05-3.29802E-05 2.05819E-03 5.89319E-14-6.20586E-13
 -1      1431 1.99832E+01 1.96621E-05 1.93173E-05 1.27749E-03-8.11826E-15-7.80991E-13
 -1      1432 1.99848E+01-1.74561E-05 2.44909E-05 1.27132E-03 5.15636E-14-7.95441E-13
 -1      1433 1.99859E+01 8.12910E-07-1.42828E-05 2.35850E-03 1.33489E-14-3.69660E-13
 -1      1434 1.99858E+01-1.23126E-05 1.19203E-05 1.24682E-03 6.33423E-14-6.40354E-13
 -1      1435 1.99874E+01-3.82643E-05 1.75291E-05 1.22884E-03 1.94618E-13-4.86291E-13
 -1      1436 1.99877E+01-4.72624E-05-2.21157E-06 2.40443E-03 2.37895E-13-8.65415E-14
 -1      1437 1.99884E+01-3.05672E-05 6.60190E-06 1.15790E-03 1.56868E-13-3.69921E-13
 -1      1438 1.99898E+01-4.83923E-05 1.21353E-05 1.13405E-03 5.81100E-14-1.95577E-13
 -1      1439 1.99897E+01-7.28050E-05 5.14262E-06 2.29574E-03 1.70157E-13 2.14935E-13
 -1      1440 1.99908E+01-3.97018E-05 2.82298E-06 1.03944E-03 3.17883E-14-2.17440E-13
 -1      1441 1.99921E+01-5.18699E-05 7.97866E-06 1.01349E-03-2.15951E-14-2.46911E-13
 -1      1442 1.99916E+01-8.35889E-05 9.25573E-06 2.10116E-03 5.04424E-14 1.95480E-13
 -1      1443 1.99929E+01-4.33200E-05 1.91423E-07 9.09336E-04-6.32070E-14-2.64477E-13
 -1      1444 1.99940E+01-5.18595E-05 4.82718E-06 8.83368E-04-1.13255E-13-3.29446E-13
 -1      1445 1.99934E+01-8.56345E-05 1.12771E-05 1.86546E-03-2.72743E-14-1.16731E-13
 -1      1446 1.99948E+01-4.43639E-05-1.49932E-06 7.76844E-04-1.03165E-13-2.34261E-13
 -1      1447 1.99958E+01-5.09724E-05 2.63121E-06 7.51547E-04-1.02311E-13-2.19124E-13
 -1      1448 1.99950E+01-8.38125E-05 1.21312E-05 1.61462E-03-1.26801E-13-1.52732E-13
 -1      1449 1.99964E+01-4.54255E-05-2.16155E-06 6.44003E-04-1.15031E-13-3.38569E-13
 -1      1450 1.99972E+01-5.15135E-05 1.65056E-06 6.18752E-04-1.12583E-13-4.53924E-13
 -1      1451 1.99964E+01-8.24169E-05 1.26206E-05 1.35937E-03-2.24633E-13-4.01779E-14
 -1      1452 1.99977E+01-4.89404E-05-1.27485E-06 5.06436E-04-5.45422E-14-3.42457E-13
 -1      1453 1.99983E+01-5.53725E-05 2.38494E-06 4.79200E-04 4.69600E-15-2.84758E-13
 -1      1454 1.99976E+01-8.55973E-05 1.34861E-05 1.09742E-03-2.86979E-14-3.07075E-14
 -1      1455 1.99987E+01-5.66642E-05 1.78584E-06 3.54997E-04 6.62607E-14-3.37186E-13
 -1      1456 1.99992E+01-6.25720E-05 3.76487E-06 3.22448E-04 3.03705E-14-3.10697E-13
 -1      1457 1.99985E+01-9.65633E-05 1.52157E-05 8.16407E-04 3.58530E-15-1.05956E-13
 -1      1458 1.99994E+01-6.41317E-05 5.48836E-06 1.84283E-04-1.14664E-13-1.03049E-13
 -1      1459 1.99996E+01-7.33178E-05-6.53204E-06 1.42431E-04-1.58738E-13-1.88225E-13
 -1      1460 1.99992E+01-1.13649E-04 1.62221E-05 5.03455E-04 1.02151E-14 2.10588E-13
 -1      1461 1.99997E+01-5.90011E-05-1.41489E-06 3.72247E-05-7.24248E-14-4.16516E-13
 -1      1462 1.99998E+01-4.16838E-05-3.75270E-05 2.48325E-05 1.82985E-13-1.91409E-13
 -1      1463 1.99998E+01-4.20081E-05 4.49022E-06 3.67055E-05 5.66588E-13 1.73771E-13
 -1      1464 1.99996E+01-1.28972E-04 8.76611E-06 2.19621E-04-2.52400E-13 2.50103E-13
 -1      1465 2.25450E+01 5.98851E-02-1.43915E-01 3.70550E-01 1.44291E-13 1.90730E-12
 -1      1466 2.36294E+01 2.08138E-01-2.34566E-01 5.93163E-01 1.23568E-13 2.11418E-12
 -1      1467 2.37396E+01 8.51025E-01-9.43144E-02 1.83667E+00 2.34854E-13 1.50993E-12
 -1      1468 2.17770E+01 1.60172E-02-1.12037E-02 1.42422E-01 1.02435E-13 1.63519E-12
 -1      1469 2.21010E+01 9.16054E-02-5.79837E-02 1.78591E-01 9.79772E-14 1.78929E-12
 -1      1470 2.24860E+01 1.44966E-01-5.26498E-02 6.39565E-01 2.08736E-13 1.29504E-12
 -1      1471 2.13768E+01-4.90136E-03 1.50372E-02 9.53765E-02 6.70952E-14 1.44602E-12
 -1      1472 2.15334E+01 1.97846E-02 5.85334E-03 1.00325E-01 6.25394E-14 1.53827E-12
 -1      1473 2.18097E+01 2.05301E-02-7.64766E-03 2.86808E-01 1.46896E-13 1.12680E-12
 -1      1474 2.10189E+01-1.57151E-02 1.63374E-02 1.34424E-01 5.63106E-14 1.30926E-12
 -1      1475 2.11872E+01-1.38222E-02 1.48343E-02 1.20601E-01 4.98429E-14 1.37691E-12
 -1      1476 2.13896E+01-2.95235E-02 3.93756E-03 2.41258E-01 9.33346E-14 9.65431E-13
 -1      1477 2.05421E+01-1.90605E-02 1.33002E-02 2.10337E-01 4.76559E-14 1.23889E-12
 -1      1478 2.07987E+01-2.90244E-02 1.14041E-02 1.86022E-01 3.29489E-14 1.28661E-12
 -1      1479 2.09971E+01-4.27261E-02 9.44615E-03 3.32354E-01 6.91400E-14 8.88476E-13
 -1      1480 1.98943E+01-1.35021E-02 8.45973E-03 2.86901E-01 1.95965E-14 1.15963E-12
 -1      1481 2.02597E+01-3.00503E-02 7.12780E-03 2.61179E-01 2.40840E-14 1.19089E-12
 -1      1482 2.05191E+01-3.81375E-02 1.12912E-02 4.69726E-01 7.05516E-14 8.48698E-13
 -1      1483 1.91220E+01 1.19872E-03 6.84699E-04 3.24389E-01 5.90004E-14 1.05160E-12
 -1      1484 1.95625E+01-1.59748E-02 2.75009E-03 3.08687E-01 3.28537E-14 1.10502E-12
 -1      1485 1.99321E+01-1.55370E-02 8.73948E-03 5.77847E-01 6.70372E-14 7.23589E-13
 -1      1486 1.83647E+01 2.14064E-02-9.22443E-03 2.88657E-01 4.38946E-14 8.79886E-13
 -1      1487 1.87953E+01 1.07197E-02-2.25669E-03 2.93630E-01 5.21918E-14 9.90534E-13
 -1      1488 1.92974E+01 2.15816E-02 1.29293E-03 5.85209E-01 9.23237E-14 6.14529E-13
 -1      1489 1.78158E+01 3.92518E-02-1.78371E-02 1.68875E-01 8.23907E-14 7.24408E-13
 -1      1490 1.81234E+01 4.11647E-02-7.00170E-03 1.98624E-01 6.48578E-14 8.34510E-13
 -1      1491 1.87433E+01 6.16105E-02-9.11615E-03 4.46095E-01 1.08646E-13 5.36722E-13
 -1      1492 1.76479E+01 4.60842E-02-2.08881E-02-1.00457E-02 6.01125E-14 6.25628E-13
 -1      1493 1.77343E+01 6.25253E-02-9.51531E-03 3.80019E-02 5.00008E-14 6.91253E-13
 -1      1494 1.84200E+01 8.81114E-02-1.81263E-02 1.69395E-01 9.97379E-14 4.77661E-13
 -1      1495 1.79321E+01 3.79980E-02-1.64285E-02-1.94067E-01 1.73039E-14 5.43482E-13
 -1      1496 1.77588E+01 6.50187E-02-8.28017E-03-1.42858E-01 3.78031E-14 5.66002E-13
 -1      1497 1.84342E+01 8.84449E-02-2.14311E-02-1.73582E-01 7.40519E-14 4.06090E-13
 -1      1498 1.86002E+01 1.88091E-02-6.47483E-03-3.26060E-01 1.83009E-14 4.75783E-13
 -1      1499 1.82084E+01 4.81843E-02-3.67249E-03-2.87695E-01 1.61910E-14 5.09211E-13
 -1      1500 1.87955E+01 6.19321E-02-1.77165E-02-4.77923E-01 2.91633E-14 3.06465E-13
 -1      1501 1.94766E+01-2.73950E-03 4.29910E-03-3.73874E-01 3.75340E-14 4.62720E-13
 -1      1502 1.89677E+01 2.06954E-02 2.11086E-03-3.57259E-01 6.81833E-15 5.02570E-13
 -1      1503 1.94087E+01 2.03665E-02-9.43438E-03-6.56594E-01 7.38732E-15 2.24296E-13
 -1      1504 2.03559E+01-1.87961E-02 1.17196E-02-3.40708E-01 4.44263E-14 3.42674E-13
 -1      1505 1.98475E+01-5.92438E-03 6.52341E-03-3.45149E-01 4.37393E-14 4.56794E-13
 -1      1506 2.01183E+01-1.95126E-02-6.67145E-04-6.78839E-01 3.83944E-14 1.73844E-13
 -1      1507 2.10771E+01-2.60400E-02 1.42285E-02-2.54804E-01 3.18608E-14 3.22267E-13
 -1      1508 2.06610E+01-2.37380E-02 8.20791E-03-2.73109E-01 2.35307E-14 3.61346E-13
 -1      1509 2.07716E+01-4.54260E-02 5.56848E-03-5.71917E-01 6.03120E-14 2.22398E-13
 -1      1510 2.15586E+01-2.55312E-02 1.27496E-02-1.50751E-01-3.55965E-14 2.60500E-13
 -1      1511 2.12807E+01-3.07276E-02 7.37554E-03-1.74235E-01-1.31752E-15 2.87999E-13
 -1      1512 2.12658E+01-5.39429E-02 8.39919E-03-3.94364E-01 2.56401E-14 2.24254E-13
 -1      1513 2.17934E+01-2.04199E-02 9.21381E-03-5.52986E-02 4.41717E-14 2.18221E-13
 -1      1514 2.16570E+01-2.92156E-02 5.15053E-03-7.73464E-02 1.42265E-14 2.51198E-13
 -1      1515 2.15609E+01-4.89037E-02 8.44502E-03-2.04656E-01 7.54605E-16 2.02947E-13
 -1      1516 2.18224E+01-1.37751E-02 5.37456E-03 1.75217E-02-3.31740E-14 1.57885E-13
 -1      1517 2.18032E+01-2.30333E-02 2.68655E-03 3.85890E-04 4.54081E-14 2.27204E-13
 -1      1518 2.16678E+01-3.67900E-02 6.90001E-03-4.25343E-02 5.93414E-14 3.37913E-13
 -1      1519 2.17061E+01-7.60882E-03 2.23743E-03 6.44652E-02-3.88730E-14 2.17703E-13
 -1      1520 2.17689E+01-1.54841E-02 7.17974E-04 5.31244E-02-4.81321E-14 1.69925E-13
 -1      1521 2.16260E+01-2.32137E-02 4.81484E-03 7.44021E-02-4.58123E-14 3.01286E-13
 -1      1522 2.15038E+01-2.83297E-03 1.15150E-04 8.87203E-02 4.07747E-15 2.62301E-13
 -1      1523 2.16144E+01-8.60972E-03-5.15720E-04 8.25340E-02-2.63327E-14 2.71058E-13
 -1      1524 2.14845E+01-1.15163E-02 2.83723E-03 1.45147E-01-3.64587E-14 2.60023E-13
 -1      1525 2.12641E+01 3.90332E-04-1.08270E-03 9.60302E-02-3.25024E-14 2.34630E-13
 -1      1526 2.13950E+01-3.29781E-03-1.09394E-03 9.37490E-02-2.08810E-14 1.83752E-13
 -1      1527 2.12881E+01-2.96550E-03 1.26001E-03 1.77627E-01-7.13340E-15 2.20738E-13
 -1      1528 2.10212E+01 2.27770E-03-1.60008E-03 9.22548E-02 6.01300E-14 8.71126E-14
 -1      1529 2.11532E+01 3.16906E-04-1.21725E-03 9.25817E-02 5.64295E-14 2.17897E-13
 -1      1530 2.10722E+01 2.46458E-03 1.47055E-04 1.82661E-01 6.67523E-14 1.72319E-13
 -1      1531 2.07962E+01 3.16998E-03-1.68684E-03 8.22317E-02-2.07278E-15 1.05663E-13
 -1      1532 2.09177E+01 2.47411E-03-1.08558E-03 8.40836E-02-2.59254E-14 8.33409E-14
 -1      1533 2.08611E+01 5.38310E-03-5.53099E-04 1.70447E-01 1.15714E-14 1.53472E-13
 -1      1534 2.06004E+01 3.39717E-03-1.53887E-03 6.94714E-02-5.49029E-14 1.63278E-13
 -1      1535 2.07054E+01 3.53586E-03-8.47351E-04 7.20514E-02-6.99639E-14 3.83903E-14
 -1      1536 2.06694E+01 6.53044E-03-9.32835E-04 1.49070E-01-5.45079E-14 9.46236E-14
 -1      1537 2.04377E+01 3.22487E-03-1.28835E-03 5.62702E-02 4.18750E-14 2.67012E-13
 -1      1538 2.05242E+01 3.85315E-03-5.93587E-04 5.90468E-02 8.17944E-15 2.61621E-13
 -1      1539 2.05043E+01 6.55981E-03-1.08617E-03 1.24232E-01-8.08762E-14 1.01764E-13
 -1      1540 2.03074E+01 2.84462E-03-1.01477E-03 4.39740E-02 1.06309E-13 4.83114E-14
 -1      1541 2.03761E+01 3.71172E-03-3.70457E-04 4.66259E-02 7.14749E-14 2.05981E-13
 -1      1542 2.03680E+01 5.96610E-03-1.09237E-03 9.95629E-02 1.35487E-13 8.00048E-14
 -1      1543 2.02066E+01 2.38340E-03-7.60463E-04 3.32554E-02 9.68914E-15-1.56294E-13
 -1      1544 2.02592E+01 3.32121E-03-1.95147E-04 3.56124E-02 4.76577E-14-1.94859E-14
 -1      1545 2.02592E+01 5.08817E-03-1.01179E-03 7.71162E-02 1.45380E-13-9.70049E-15
 -1      1546 2.01309E+01 1.91878E-03-5.44165E-04 2.43475E-02-7.88718E-14-2.99544E-14
 -1      1547 2.01700E+01 2.82371E-03-6.87043E-05 2.63401E-02-6.70532E-14-7.44945E-14
 -1      1548 2.01751E+01 4.13886E-03-8.87174E-04 5.78490E-02-5.96983E-14 9.59337E-14
 -1      1549 2.00760E+01 1.49345E-03-3.70868E-04 1.72191E-02 2.71753E-14-5.02136E-14
 -1      1550 2.01040E+01 2.30857E-03 1.53724E-05 1.88399E-02-4.30674E-14-8.36169E-14
 -1      1551 2.01119E+01 3.23967E-03-7.46928E-04 4.20152E-02-4.68474E-14 8.34713E-14
 -1      1552 2.00374E+01 1.12712E-03-2.38305E-04 1.16969E-02-3.99764E-15-4.04876E-14
 -1      1553 2.00568E+01 1.82708E-03 6.60859E-05 1.29735E-02 4.86650E-14 1.41011E-14
 -1      1554 2.00659E+01 2.45082E-03-6.08664E-04 2.94563E-02-1.69645E-15 5.09234E-14
 -1      1555 2.00114E+01 8.25238E-04-1.40929E-04 7.54575E-03-3.53240E-14-5.73945E-14
 -1      1556 2.00242E+01 1.40479E-03 9.23209E-05 8.52273E-03-2.04161E-14-1.01302E-13
 -1      1557 2.00336E+01 1.79407E-03-4.82305E-04 1.98010E-02 3.98470E-14 1.56924E-13
 -1      1558 1.99949E+01 5.85069E-04-7.21911E-05 4.51724E-03-1.78764E-14-9.10480E-15
 -1      1559 2.00028E+01 1.05076E-03 1.01694E-04 5.24450E-03-3.47591E-14-6.86593E-14
 -1      1560 2.00116E+01 1.26878E-03-3.72571E-04 1.25938E-02-3.26559E-14-1.00016E-13
 -1      1561 1.99851E+01 3.99735E-04-2.57545E-05 2.37755E-03 9.84943E-16 3.87659E-14
 -1      1562 1.99895E+01 7.64268E-04 1.00216E-04 2.90377E-03 1.25629E-14 7.95302E-14
 -1      1563 1.99975E+01 8.62520E-04-2.80845E-04 7.37274E-03-2.64588E-14 2.30300E-14
 -1      1564 1.99802E+01 2.60727E-04 3.94537E-06 9.21050E-04-4.08307E-14-1.03011E-14
 -1      1565 1.99822E+01 5.39241E-04 9.23498E-05 1.29013E-03 7.80930E-16 9.83305E-14
 -1      1566 1.99891E+01 5.57827E-04-2.06507E-04 3.71239E-03 4.48171E-15 3.60931E-15
 -1      1567 1.99785E+01 1.59401E-04 2.15079E-05-2.47967E-05 2.07086E-13-2.35782E-13
 -1      1568 1.99789E+01 3.67226E-04 8.12446E-05 2.24718E-04 1.16028E-13-5.49229E-14
 -1      1569 1.99847E+01 3.36152E-04-1.47856E-04 1.24370E-03 7.01296E-14-5.55631E-15
 -1      1570 1.99788E+01 8.77869E-05 3.05726E-05-5.99664E-04 2.87762E-14-4.02030E-13
 -1      1571 1.99782E+01 2.39159E-04 6.90088E-05-4.38738E-04 8.83214E-14-2.27821E-13
 -1      1572 1.99830E+01 1.80060E-04-1.02713E-04-3.39953E-04 1.90949E-13-1.07470E-13
 -1      1573 1.99805E+01 3.89587E-05 3.39208E-05-9.13260E-04-2.59971E-13-6.81450E-14
 -1      1574 1.99793E+01 1.46390E-04 5.69690E-05-8.16166E-04-1.99830E-13-3.33877E-13
 -1      1575 1.99831E+01 7.42617E-05-6.87982E-05-1.28489E-03-1.69979E-13-1.73271E-14
 -1      1576 1.99827E+01 7.14141E-06 3.36135E-05-1.04944E-03 9.90627E-14-4.35776E-14
 -1      1577 1.99813E+01 8.12025E-05 4.58895E-05-9.96924E-04 5.44889E-14 2.53162E-14
 -1      1578 1.99843E+01 5.96523E-06-4.39497E-05-1.78331E-03-1.37300E-13-8.49565E-14
 -1      1579 1.99853E+01-1.23364E-05 3.11343E-05-1.07061E-03 1.21067E-13-3.21656E-13
 -1      1580 1.99838E+01 3.70113E-05 3.61470E-05-1.04806E-03 5.08603E-14-2.35169E-13
 -1      1581 1.99861E+01-3.51719E-05-2.62364E-05-1.98120E-03 1.66312E-13-1.78146E-13
 -1      1582 1.99879E+01-2.31695E-05 2.75213E-05-1.02184E-03-1.90472E-14-3.88122E-13
 -1      1583 1.99864E+01 8.36250E-06 2.78620E-05-1.01848E-03 5.05353E-14-2.86399E-13
 -1      1584 1.99881E+01-5.73005E-05-1.39999E-05-1.98641E-03 8.14874E-14-3.10184E-13
 -1      1585 1.99903E+01-2.82395E-05 2.34844E-05-9.34445E-04 4.58772E-14-2.10510E-13
 -1      1586 1.99889E+01-9.17575E-06 2.09969E-05-9.42611E-04-7.81098E-14-3.12174E-13
 -1      1587 1.99902E+01-6.67321E-05-5.85283E-06-1.87614E-03-5.18485E-14-1.51320E-13
 -1      1588 1.99925E+01-2.97907E-05 1.95166E-05-8.28994E-04-5.62181E-14-3.74056E-13
 -1      1589 1.99913E+01-1.91895E-05 1.54294E-05-8.43485E-04 5.26265E-14-2.71944E-13
 -1      1590 1.99921E+01-6.83284E-05-6.48941E-07-1.70327E-03 7.37129E-14-1.14400E-13
 -1      1591 1.99945E+01-2.96104E-05 1.60230E-05-7.17469E-04 5.37843E-14-4.22650E-13
 -1      1592 1.99934E+01-2.46412E-05 1.10223E-05-7.35135E-04 1.27318E-14-2.43952E-13
 -1      1593 1.99939E+01-6.59047E-05 2.57463E-06-1.50149E-03 9.41384E-14-1.75531E-13
 -1      1594 1.99961E+01-2.91970E-05 1.35029E-05-6.04773E-04-5.53503E-14-3.74097E-13
 -1      1595 1.99952E+01-2.81204E-05 7.72453E-06-6.24261E-04-3.55875E-14-4.74000E-13
 -1      1596 1.99955E+01-6.26367E-05 4.69418E-06-1.28903E-03-6.23357E-16-1.43493E-13
 -1      1597 1.99975E+01-2.98600E-05 1.27412E-05-4.89581E-04 2.29892E-14-3.76637E-13
 -1      1598 1.99968E+01-3.20832E-05 5.71768E-06-5.11287E-04 2.50457E-14-3.29470E-13
 -1      1599 1.99969E+01-6.14024E-05 6.64188E-06-1.07123E-03-3.95542E-14-2.58043E-13
 -1      1600 1.99986E+01-3.26682E-05 1.44292E-05-3.65141E-04 2.08604E-14-4.40079E-13
 -1      1601 1.99980E+01-3.88223E-05 5.48499E-06-3.91172E-04-5.98500E-14-4.69236E-13
 -1      1602 1.99980E+01-6.49005E-05 9.44157E-06-8.42246E-04-5.14493E-14-8.40173E-14
 -1      1603 1.99994E+01-3.74631E-05 1.54059E-05-2.20317E-04 3.07295E-14-6.39887E-13
 -1      1604 1.99990E+01-5.01298E-05 6.61369E-06-2.55316E-04 8.10359E-14-4.69063E-13
 -1      1605 1.99989E+01-7.56058E-05 1.28015E-05-5.88145E-04 8.69245E-14-2.49396E-13
 -1      1606 1.99997E+01-4.15466E-05-2.74584E-06-6.20600E-05-7.61276E-14-5.10581E-13
 -1      1607 1.99996E+01-5.86194E-05 3.90915E-06-1.02593E-04-3.20473E-14-6.49581E-13
 -1      1608 1.99994E+01-8.99793E-05 1.19264E-05-3.00335E-04-3.66153E-14-2.83060E-13
 -1      1609 1.99998E+01-1.63273E-05-1.04300E-05 7.66831E-06-2.44879E-13-2.80903E-13
 -1      1610 1.99997E+01-3.42699E-04 8.70079E-06-1.79862E-04-9.79541E-14 1.70524E-13
 -1      1611 1.99997E+01-1.72125E-04-4.07911E-06-1.39325E-04-3.07026E-13 6.61491E-14
 -1      1612 1.99998E+01-9.62152E-04 5.26206E-06-3.27087E-04 8.83566E-14 8.48924E-14
 -1      1613 1.99997E+01-6.01747E-04 5.64695E-06-2.97831E-04-6.66830E-14 2.98639E-14
 -1      1614 1.99997E+01-5.81662E-04 1.18731E-05-4.73166E-04-3.78243E-14 8.64348E-14
 -1      1615 1.99998E+01-1.77527E-03 1.35005E-06-4.06588E-04-1.15589E-13-9.99854E-14
 -1      1616 1.99998E+01-1.30389E-03 4.01623E-06-3.96484E-04-5.63699E-14 1.13208E-13
 -1      1617 1.99997E+01-1.17865E-03 9.06273E-06-7.02707E-04 1.03157E-15 4.52778E-15
 -1      1618 1.99998E+01-2.64556E-03-7.66376E-07-4.15713E-04-1.45878E-14-1.09596E-13
 -1      1619 1.99998E+01-2.15148E-03 1.19030E-06-4.19657E-04-1.68546E-13 1.54940E-13
 -1      1620 1.99998E+01-1.89442E-03 1.19211E-06-7.98670E-04-2.67990E-13-4.32926E-14
 -1      1621 1.99998E+01-3.43165E-03-1.43585E-06-3.64297E-04-2.22997E-13-2.91806E-14
 -1      1622 1.99998E+01-2.99759E-03 1.91950E-08-3.78852E-04-1.34768E-13-2.93667E-13
 -1      1623 1.99998E+01-2.61844E-03-5.68347E-06-7.67655E-04-1.58452E-13-3.03304E-13
 -1      1624 1.99998E+01-4.05393E-03-1.47960E-06-2.64382E-04 7.07413E-14 2.09477E-13
 -1      1625 1.99998E+01-3.72548E-03-5.67806E-07-2.87249E-04-1.27348E-13 2.69138E-13
 -1      1626 1.99999E+01-3.25880E-03-1.08203E-05-6.29589E-04-5.40611E-14 1.01372E-13
 -1      1627 1.99999E+01-4.41924E-03-1.24980E-06-1.32273E-04 6.84052E-15-1.79517E-13
 -1      1628 1.99998E+01-4.24507E-03-7.83519E-07-1.59985E-04-6.15569E-14 1.40913E-13
 -1      1629 1.99999E+01-3.73844E-03-1.44130E-05-4.10191E-04-8.04029E-14 7.97931E-14
 -1      1630 1.99999E+01-4.48434E-03-9.99791E-07 1.53642E-05 1.93705E-13 9.95970E-14
 -1      1631 1.99999E+01-4.48522E-03-1.00582E-06-1.39977E-05 8.77142E-14-1.40747E-13
 -1      1632 1.99999E+01-3.99282E-03-1.62249E-05-1.41419E-04-9.06492E-15-2.02773E-13
 -1      1633 1.99998E+01-4.24125E-03-7.68443E-07 1.61428E-04 1.26964E-13-6.68090E-14
 -1      1634 1.99999E+01-4.41729E-03-1.27397E-06 1.33695E-04 1.59631E-13 1.32436E-13
 -1      1635 1.99999E+01-3.99181E-03-1.62344E-05 1.44088E-04 1.54011E-13 4.49064E-14
 -1      1636 1.99998E+01-3.71860E-03-4.80610E-07 2.88748E-04-2.58588E-13-3.05500E-13
 -1      1637 1.99998E+01-4.04900E-03-1.57873E-06 2.65943E-04 8.51195E-14-2.13906E-13
 -1      1638 1.99999E+01-3.73536E-03-1.43995E-05 4.13082E-04-2.81923E-14-2.37836E-13
 -1      1639 1.99998E+01-2.99437E-03-3.96101E-08 3.79371E-04-3.24398E-13 1.65923E-13
 -1      1640 1.99998E+01-3.42976E-03-1.51156E-06 3.64920E-04-2.43015E-13-3.08044E-13
 -1      1641 1.99999E+01-3.25848E-03-1.09180E-05 6.31221E-04 2.84444E-14-3.80227E-13
 -1      1642 1.99998E+01-2.13971E-03 1.25533E-06 4.20517E-04-2.08707E-13-2.73090E-14
 -1      1643 1.99998E+01-2.63519E-03-7.59896E-07 4.16768E-04-4.20631E-13 3.50754E-13
 -1      1644 1.99998E+01-2.61677E-03-5.57005E-06 7.69204E-04 1.72662E-14 2.09155E-13
 -1      1645 1.99998E+01-1.29231E-03 3.78427E-06 3.96154E-04-2.57787E-13-3.70468E-14
 -1      1646 1.99998E+01-1.76280E-03 1.44566E-06 4.06712E-04-2.68573E-13 1.15022E-13
 -1      1647 1.99998E+01-1.88557E-03 1.23381E-06 7.99678E-04 4.07576E-14 1.18733E-13
 -1      1648 1.99997E+01-5.92831E-04 5.08785E-06 2.94301E-04-3.99122E-14-2.97679E-15
 -1      1649 1.99998E+01-9.49497E-04 6.10134E-06 3.25790E-04-2.20639E-13-4.46413E-14
 -1      1650 1.99997E+01-1.16736E-03 9.48753E-06 7.01577E-04-1.07021E-13-6.68266E-15
 -1      1651 1.99997E+01-1.91825E-04-9.17319E-07 1.49184E-04 3.48804E-13 2.48729E-13
 -1      1652 1.99998E+01-3.76556E-04 1.10830E-05 1.90514E-04-2.26500E-16 2.30783E-13
 -1      1653 1.99997E+01-6.27202E-04 1.46581E-05 4.86173E-04-8.83667E-14 1.11943E-13
 -1      1654 1.99997E+01-2.64689E-04 4.39356E-06 2.34311E-04-2.16361E-13 3.05566E-13
 -1      1655-5.61632E-01-1.48916E+01-1.71418E+00-7.52823E-01 1.55875E-12 8.13988E-13
 -1      1656-5.85792E-01-1.72911E+01-1.93312E+00 5.27184E-01 6.05516E-13 6.03073E-13
 -1      1657 1.24611E+00-8.09102E+00-1.22963E+00 5.15065E-01 2.30693E-12 1.19796E-12
 -1      1658 5.43941E-01-1.33340E+01-1.76214E+00-6.75212E-02 1.87517E-12 7.92040E-13
 -1      1659 7.26774E+00 2.32483E-04-4.93219E-01 4.99919E+00 2.38920E-12 1.69365E-12
 -1      1660 4.00715E+00-5.80738E+00-1.27584E+00 1.95059E+00 2.31781E-12 1.37174E-12
 -1      1661 1.72897E+01 5.47419E+00 2.57558E-01 9.98308E+00 2.09188E-12 2.06146E-12
 -1      1662 1.11082E+01 2.15611E+00-5.94860E-01 6.37892E+00 2.36478E-12 1.83131E-12
 -1      1663 3.12104E+01 6.99250E+00 9.97872E-01 1.30799E+01 1.43963E-12 1.76947E-12
 -1      1664 2.23088E+01 6.54227E+00 1.63489E-01 1.09106E+01 1.91336E-12 1.97886E-12
 -1      1665 4.50014E+01 5.56657E+00 1.55131E+00 1.15123E+01 7.79987E-13 8.74634E-13
 -1      1666 3.63886E+01 7.07518E+00 9.06682E-01 1.26683E+01 1.20004E-12 1.46327E-12
 -1      1667 5.40742E+01 3.76527E+00 1.82071E+00 5.34633E+00 3.64653E-13 2.86438E-14
 -1      1668 4.88035E+01 5.27118E+00 1.49574E+00 9.73676E+00 5.67490E-13 6.74683E-13
 -1      1669 5.44166E+01 3.84283E+00 1.67526E+00-3.40194E+00 5.08149E-13-1.00817E-12
 -1      1670 5.50395E+01 3.76422E+00 1.77666E+00 2.53874E+00 4.21940E-13-3.21354E-13
 -1      1671 4.56347E+01 5.64793E+00 1.19637E+00-9.71401E+00 9.10647E-13-1.76203E-12
 -1      1672 5.19526E+01 4.11028E+00 1.62711E+00-5.71254E+00 5.92665E-13-1.23596E-12
 -1      1673 3.31175E+01 6.98249E+00 6.52478E-01-1.22447E+01 1.41898E-12-2.17404E-12
 -1      1674 4.19741E+01 5.71403E+00 1.31473E+00-1.17382E+01 1.07309E-12-2.02061E-12
 -1      1675 1.95293E+01 5.93718E+00-4.33551E-02-1.00311E+01 1.87694E-12-2.09655E-12
 -1      1676 2.80079E+01 6.91213E+00 8.07199E-01-1.26412E+01 1.60805E-12-2.26219E-12
 -1      1677 9.39093E+00 1.02291E+00-7.37834E-01-5.47573E+00 1.92513E-12-1.63980E-12
 -1      1678 1.48262E+01 4.73118E+00 7.41972E-02-9.01035E+00 1.95344E-12-1.99185E-12
 -1      1679 3.20479E+00-6.41513E+00-1.35179E+00-1.48926E+00 1.47748E-12-1.01741E-12
 -1      1680 5.75650E+00-9.16389E-01-6.49629E-01-4.02438E+00 1.85230E-12-1.46461E-12
 -1      1681 4.48176E-01-1.35187E+01-1.73082E+00-1.43420E-01 5.79647E-13-5.47076E-13
 -1      1682 1.06723E+00-8.51063E+00-1.24205E+00-4.81643E-01 1.23923E-12-8.83196E-13
 -1      1683-6.99813E-01-1.67713E+01-1.87345E+00-8.25072E-01-5.02459E-13-4.38649E-13
 -1      1684-6.68694E-01-1.50520E+01-1.72665E+00 7.07631E-01 3.03257E-13-4.62408E-13
 -1      1685-4.31925E-01-1.34295E+01-1.57128E+00-1.06270E+00-1.48925E-12-7.86399E-13
 -1      1686-4.52012E-01-1.57988E+01-1.73712E+00-5.17201E-02-7.42656E-13-5.52780E-13
 -1      1687 1.47270E+00-7.45084E+00-1.30938E+00 3.21953E-01-2.24676E-12-1.33832E-12
 -1      1688 6.54577E-01-1.26407E+01-1.78952E+00-5.07917E-01-1.84674E-12-9.06938E-13
 -1      1689 9.43237E+00-6.08893E-01-5.16247E-01 5.38865E+00-2.12386E-12-1.74905E-12
 -1      1690 5.63294E+00-5.71559E+00-1.23880E+00 2.28607E+00-2.07512E-12-1.40571E-12
 -1      1691 2.07028E+01 4.85877E+00 2.87682E-01 1.02291E+01-1.96121E-12-2.15161E-12
 -1      1692 1.32475E+01 1.67899E+00-6.54579E-01 6.45604E+00-2.25531E-12-1.93612E-12
 -1      1693 3.58825E+01 5.95881E+00 1.07487E+00 1.25802E+01-1.38956E-12-1.96643E-12
 -1      1694 2.60054E+01 6.06440E+00 1.86924E-01 1.10150E+01-1.81177E-12-2.16316E-12
 -1      1695 5.03187E+01 4.42366E+00 1.70893E+00 8.30193E+00-7.54351E-13-1.11522E-12
 -1      1696 4.10448E+01 5.96889E+00 9.91859E-01 1.06677E+01-1.16684E-12-1.61449E-12
 -1      1697 5.82202E+01 3.69222E+00 2.18642E+00 1.44341E+00-4.89886E-13-1.39611E-13
 -1      1698 5.43277E+01 4.59601E+00 1.81772E+00 6.99178E+00-6.28941E-13-9.26370E-13
 -1      1699 5.57944E+01 4.26238E+00 2.00674E+00-6.39782E+00-5.39846E-13 9.23372E-13
 -1      1700 5.87505E+01 3.48864E+00 2.21626E+00-1.06586E+00-4.49696E-13 2.12580E-13
 -1      1701 4.51417E+01 5.86229E+00 1.36310E+00-1.12953E+01-8.29753E-13 1.60028E-12
 -1      1702 5.30137E+01 4.32480E+00 2.00479E+00-8.50145E+00-5.60069E-13 1.22558E-12
 -1      1703 3.10533E+01 6.31061E+00 5.25044E-01-1.17179E+01-1.39688E-12 1.82587E-12
 -1      1704 4.03936E+01 5.77132E+00 1.37783E+00-1.23314E+01-1.03617E-12 1.73550E-12
 -1      1705 1.78374E+01 3.94190E+00-3.29315E-01-8.48977E+00-1.76237E-12 1.74349E-12
 -1      1706 2.57762E+01 5.68105E+00 5.72362E-01-1.14764E+01-1.46738E-12 1.84386E-12
 -1      1707 8.00123E+00-1.58554E+00-1.05265E+00-3.87948E+00-2.01528E-12 1.46805E-12
 -1      1708 1.30959E+01 2.65423E+00-2.26146E-01-7.42332E+00-1.90914E-12 1.63647E-12
 -1      1709 2.48598E+00-8.75100E+00-1.54005E+00-3.95321E-01-1.71829E-12 1.01114E-12
 -1      1710 4.52438E+00-3.43737E+00-9.33488E-01-2.49535E+00-1.97975E-12 1.52578E-12
 -1      1711 2.78369E-01-1.45004E+01-1.73417E+00 4.62922E-01-8.73857E-13 6.52339E-13
 -1      1712 6.87138E-01-1.03555E+01-1.37940E+00 3.48650E-01-1.44618E-12 9.27050E-13
 -1      1713-7.20201E-01-1.74130E+01-1.92306E+00 7.79178E-02 2.20698E-13 4.72039E-13
 -1      1714-8.29312E-01-1.60095E+01-1.80432E+00 1.49168E+00-6.44484E-13 6.06959E-13
 -1      1715 1.42301E+01-2.65330E+00-3.16774E-01 6.74331E+00 1.43574E-12 1.12488E-12
 -1      1716-1.46606E+00-1.20858E+01-1.39613E+00 5.55455E-01 3.37112E-13 1.07353E-12
 -1      1717 1.99997E+01-5.47549E-05 3.01420E-06-5.62076E-05-3.77282E-13-2.96312E-14
 -1      1718 1.99996E+01-2.25826E-04 1.29228E-07-2.33318E-04-9.84384E-14 8.83063E-14
 -1      1719 4.60383E-01-1.05537E+01-1.24330E+00 2.53123E+00 9.11105E-13 1.09923E-12
 -1      1720 5.92405E+00-6.99695E+00-8.34550E-01 4.80717E+00 1.27898E-12 1.04323E-12
 -1      1721 2.41773E+01 1.55080E+00 2.78114E-01 7.96933E+00 1.41986E-12 1.11544E-12
 -1      1722 3.44954E+01 4.62269E+00 8.70836E-01 7.66018E+00 1.19932E-12 7.54063E-13
 -1      1723 4.29867E+01 6.42365E+00 1.31043E+00 5.59010E+00 8.72913E-13 3.12861E-13
 -1      1724 4.73704E+01 7.33067E+00 1.52127E+00 1.91156E+00 7.40519E-13-9.38694E-14
 -1      1725 4.57932E+01 7.49393E+00 1.37225E+00-1.83521E+00 8.00471E-13-5.76317E-13
 -1      1726 4.07260E+01 6.16754E+00 1.14680E+00-5.16202E+00 9.09148E-13-9.51572E-13
 -1      1727 3.24452E+01 3.98389E+00 7.66235E-01-7.62950E+00 1.01408E-12-1.31140E-12
 -1      1728 2.20541E+01 8.80263E-01 1.45770E-01-7.79897E+00 1.12788E-12-1.36313E-12
 -1      1729 1.24441E+01-3.02945E+00-4.24397E-01-6.43820E+00 1.00808E-12-1.21853E-12
 -1      1730 4.93415E+00-7.11400E+00-9.04442E-01-4.49675E+00 6.53033E-13-1.03802E-12
 -1      1731 1.11678E-01-1.02231E+01-1.22392E+00-2.39177E+00 1.65867E-13-8.88289E-13
 -1      1732-1.21799E+00-1.07233E+01-1.23406E+00 9.12905E-02-3.70461E-13-9.15490E-13
 -1      1733 1.05442E+00-9.60497E+00-1.16210E+00 2.25967E+00-8.48710E-13-1.01388E-12
 -1      1734 7.82655E+00-6.87372E+00-7.18127E-01 4.95959E+00-1.15175E-12-1.08696E-12
 -1      1735 1.70126E+01-3.78225E+00-4.22190E-01 6.37275E+00-1.20193E-12-1.17023E-12
 -1      1736 2.74820E+01 8.43808E-01 2.75864E-01 7.16032E+00-1.32994E-12-1.26577E-12
 -1      1737 3.83394E+01 4.12478E+00 9.70869E-01 5.59342E+00-1.15324E-12-9.25926E-13
 -1      1738 4.56329E+01 6.55156E+00 1.33381E+00 2.58184E+00-9.65450E-13-5.31020E-13
 -1      1739 5.01127E+01 7.58872E+00 1.81921E+00 1.02448E-01-8.54483E-13-1.10176E-13
 -1      1740 4.80983E+01 6.77090E+00 1.67671E+00-3.21956E+00-7.36078E-13 3.67872E-13
 -1      1741 4.10943E+01 4.91059E+00 1.18370E+00-5.78855E+00-8.35089E-13 7.88480E-13
 -1      1742 3.13489E+01 2.13901E+00 5.51236E-01-7.08123E+00-9.56846E-13 1.00286E-12
 -1      1743 2.08236E+01-1.27337E+00-8.25859E-02-6.80929E+00-1.11722E-12 8.90843E-13
 -1      1744 1.12365E+01-5.11680E+00-6.56362E-01-5.38577E+00-1.09313E-12 9.94982E-13
 -1      1745 4.21190E+00-8.58570E+00-1.03759E+00-3.57770E+00-7.01550E-13 9.71105E-13
 -1      1746-4.98493E-03-1.08349E+01-1.19602E+00-1.67114E+00-1.97620E-13 9.46077E-13
 -1      1747 2.60880E+01 1.98910E+00-2.27380E-02-1.99640E+00-2.37893E-13 7.52759E-13
 -1      1748 2.02767E+01 4.00296E+00-4.67643E-02-7.62258E-01-2.33423E-13-3.96953E-13
 -1      1749 2.12584E+01 3.83355E+00-2.47748E-02-1.04119E+00-2.83999E-13-3.09093E-13
 -1      1750 2.22725E+01 3.30652E+00-5.44539E-02-1.23770E+00-2.99641E-13-1.86670E-13
 -1      1751 2.31879E+01 2.89244E+00-1.17054E-01-1.57886E+00-3.38165E-13-2.70825E-14
 -1      1752 2.20291E+01 2.90109E+00 1.72483E-03-7.73660E-01-3.08419E-13-2.16618E-13
 -1      1753 1.72918E+01 4.72179E+00-2.33487E-02-4.44448E-01-8.55219E-14-5.46155E-13
 -1      1754 1.78804E+01 4.70178E+00-4.71298E-03-4.85187E-01-1.21868E-13-5.27128E-13
 -1      1755 1.65031E+01 4.83858E+00-1.25997E-02-5.39097E-01-1.44815E-14-5.56536E-13
 -1      1756 1.68314E+01 4.85053E+00-5.25163E-03-5.17540E-01-5.14276E-14-5.58944E-13
 -1      1757 1.70723E+01 4.57300E+00 6.36785E-04-4.22989E-01-7.75291E-14-5.33750E-13
 -1      1758 1.62775E+01 4.80123E+00-3.43340E-03-6.75695E-01 5.07511E-14-5.40810E-13
 -1      1759 1.63206E+01 4.83692E+00-9.94394E-03-6.46388E-01 1.75016E-14-5.52094E-13
 -1      1760 1.63941E+01 4.67851E+00 2.02047E-03-6.06126E-01 5.01270E-15-5.38639E-13
 -1      1761 1.65582E+01 4.63922E+00 2.22164E-03-7.34732E-01 1.07814E-13-5.02493E-13
 -1      1762 1.63586E+01 4.68778E+00-1.47984E-02-7.47817E-01 7.96320E-14-5.26809E-13
 -1      1763 1.63156E+01 4.56637E+00-9.03965E-04-7.83611E-01 7.14953E-14-5.17099E-13
 -1      1764 1.71997E+01 4.41243E+00 3.29335E-03-6.32986E-01 1.61645E-13-4.49724E-13
 -1      1765 1.68395E+01 4.46020E+00-1.79600E-02-7.19742E-01 1.32878E-13-4.78389E-13
 -1      1766 1.67458E+01 4.29727E+00-6.70060E-03-8.30420E-01 1.23413E-13-4.75731E-13
 -1      1767 1.80255E+01 4.18588E+00-1.05275E-04-3.44177E-01 2.13950E-13-4.06590E-13
 -1      1768 1.75942E+01 4.22194E+00-1.93553E-02-5.12098E-01 1.90248E-13-4.39447E-13
 -1      1769 1.75107E+01 3.96433E+00-1.25617E-02-6.76355E-01 1.82518E-13-4.25401E-13
 -1      1770 1.88763E+01 4.00348E+00-6.42966E-03 9.95381E-02 2.66591E-13-2.99333E-13
 -1      1771 1.84473E+01 4.02353E+00-2.03400E-02-1.34170E-01 2.42722E-13-3.61504E-13
 -1      1772 1.84144E+01 3.65355E+00-1.59614E-02-3.25232E-01 2.35117E-13-3.66171E-13
 -1      1773 1.97073E+01 3.85732E+00-1.49573E-02 6.66614E-01 3.43439E-13-1.52996E-13
 -1      1774 1.92936E+01 3.87120E+00-2.28343E-02 3.74691E-01 2.98522E-13-2.31898E-13
 -1      1775 1.93231E+01 3.39920E+00-1.70159E-02 1.74577E-01 2.94566E-13-2.44050E-13
 -1      1776 2.05120E+01 3.69583E+00-2.74844E-02 1.30304E+00 4.01183E-13 2.34535E-14
 -1      1777 2.01060E+01 3.72941E+00-2.89055E-02 9.69243E-01 3.69101E-13-7.52523E-14
 -1      1778 2.01896E+01 3.17837E+00-1.54675E-02 7.57775E-01 3.72008E-13-8.67674E-14
 -1      1779 2.13918E+01 3.38534E+00-4.89476E-02 1.96503E+00 4.22390E-13 2.72095E-13
 -1      1780 2.09325E+01 3.50505E+00-4.04056E-02 1.59395E+00 4.08479E-13 1.16258E-13
 -1      1781 2.10403E+01 2.90745E+00-1.03698E-02 1.34171E+00 4.20153E-13 9.55208E-14
 -1      1782 2.26142E+01 2.60819E+00-6.65925E-02 2.48718E+00 3.78107E-13 7.15303E-13
 -1      1783 2.19277E+01 3.01773E+00-5.23060E-02 2.17581E+00 3.95042E-13 4.54012E-13
 -1      1784 2.19786E+01 2.40534E+00-2.05100E-03 1.80308E+00 4.14452E-13 3.68577E-13
 -1      1785 2.36481E+01 1.15687E+00-1.30043E-01 2.05302E+00 2.91406E-13 1.22682E-12
 -1      1786 2.30865E+01 2.23819E+00 2.55688E-03 2.41672E+00 3.39527E-13 8.97948E-13
 -1      1787 2.27429E+01 1.56334E+00-1.51822E-02 1.80982E+00 3.82108E-13 7.27699E-13
 -1      1788 2.29654E+01 7.07688E-01-6.06811E-02 1.26892E+00 2.90289E-13 1.13660E-12
 -1      1789 2.49181E+01 2.43737E+00 7.79052E-02-1.99834E+00-3.12451E-13 2.61124E-13
 -1      1790 2.22242E+01 1.95880E-01-7.80396E-03 5.50841E-01 2.22222E-13 1.00077E-12
 -1      1791 2.26987E+01 3.45280E-01-1.73373E-02 8.57106E-01 2.38535E-13 1.07135E-12
 -1      1792 2.26912E+01 7.25189E-01 4.94288E-03 1.18525E+00 2.90240E-13 8.40703E-13
 -1      1793 2.44755E+01 1.76784E+00 7.67637E-02-1.14615E+00-3.21590E-13 1.52607E-13
 -1      1794 2.42893E+01 5.53496E-01 3.41648E-02 3.39622E-01-2.34628E-13 1.38116E-13
 -1      1795 2.42857E+01 3.93570E-01 1.23373E-02 6.51416E-01-2.00567E-13 6.99787E-14
 -1      1796 2.43692E+01 2.60407E-01 2.79649E-02 9.28925E-01-1.64288E-13 8.48505E-14
 -1      1797 2.46009E+01 9.76582E-02 1.58685E-03 1.03865E+00-1.13257E-13 4.39093E-14
 -1      1798 2.36390E+01 4.99939E-01-1.63078E-02 8.86359E-01-2.10503E-13-2.57589E-14
 -1      1799 2.48510E+01-6.05726E-02 2.01665E-02 1.10489E+00-4.66250E-14 7.55559E-14
 -1      1800 2.51299E+01-2.75694E-01-1.83175E-02 1.01078E+00-9.19230E-15 6.99232E-14
 -1      1801 2.39545E+01 1.28036E-02-1.81403E-02 1.29883E+00-9.85128E-14 7.25288E-15
 -1      1802 2.55442E+01-4.90941E-01 1.83868E-02 8.08468E-01 2.01679E-14 1.10290E-13
 -1      1803 2.57130E+01-7.56837E-01-3.77266E-02 4.58957E-01 2.67009E-14 1.31019E-13
 -1      1804 2.45800E+01-6.01017E-01-2.12006E-02 1.19746E+00 9.21051E-15 5.17936E-14
 -1      1805 2.62453E+01-9.78431E-01 1.56365E-02-7.75176E-02 1.64695E-14 2.11666E-13
 -1      1806 2.61536E+01-1.16317E+00-4.60289E-02-6.68358E-01-2.50841E-14 1.93698E-13
 -1      1807 2.54734E+01-1.31607E+00-2.08463E-02 4.52125E-01 3.58151E-14 1.04191E-13
 -1      1808 2.66352E+01-1.20061E+00-5.75931E-03-1.46889E+00-1.00373E-13 2.26387E-13
 -1      1809 2.62209E+01-1.01657E+00-2.69308E-02-2.07921E+00-1.60813E-13 1.79429E-13
 -1      1810 2.64693E+01-1.75390E+00-1.64166E-02-9.66750E-01-7.07238E-14 1.99406E-13
 -1      1811 2.63182E+01-5.94080E-01-5.95975E-02-2.68752E+00-2.47790E-13 1.80798E-13
 -1      1812 2.56843E+01 8.24466E-02-2.01436E-02-2.80456E+00-2.78298E-13 9.57619E-14
 -1      1813 2.71081E+01-1.13241E+00-2.30976E-02-2.60651E+00-2.28772E-13 2.54246E-13
 -1      1814 2.54420E+01 8.65886E-01-9.10511E-02-2.63500E+00-3.32519E-13-1.16747E-14
 -1      1815 2.49250E+01 1.62886E+00-2.62603E-02-1.97640E+00-3.50941E-13-8.15875E-14
 -1      1816 2.70938E+01 5.10545E-01-6.16991E-02-3.16402E+00-3.56180E-13 1.75110E-13
 -1      1817 2.46139E+01 2.08597E+00-1.05146E-01-6.20809E-01-3.26836E-13-2.30867E-13
 -1      1818 2.46699E+01 2.14498E+00-7.24603E-02 5.30701E-01-2.55920E-13-3.23151E-13
 -1      1819 2.65290E+01 2.94437E+00-1.31905E-01-1.69792E+00-4.31877E-13-5.37487E-14
 -1      1820 2.48804E+01 1.76164E+00-2.73566E-02 1.86287E+00-2.59848E-13-4.59090E-13
 -1      1821 2.54004E+01 1.01046E+00-1.02146E-01 2.63445E+00-2.04121E-13-5.56315E-13
 -1      1822 2.66300E+01 2.86127E+00-9.65224E-02 1.37965E+00-3.56770E-13-3.07951E-13
 -1      1823 2.57514E+01 1.92717E-01-6.58333E-03 2.96636E+00-1.03535E-13-6.46889E-13
 -1      1824 2.64169E+01-5.45645E-01-6.28350E-02 2.86852E+00-2.90948E-14-6.91735E-13
 -1      1825 2.70801E+01 9.14215E-01-6.06046E-02 3.23930E+00-2.38157E-13-5.85906E-13
 -1      1826 2.63439E+01-1.00287E+00-2.73455E-02 2.26647E+00 3.61915E-14-6.35918E-13
 -1      1827 2.67992E+01-1.22999E+00-1.21977E-02 1.64962E+00 8.76521E-14-5.98071E-13
 -1      1828 2.72329E+01-1.08442E+00-8.76961E-03 2.79428E+00 3.63667E-14-6.67612E-13
 -1      1829 2.63290E+01-1.21910E+00-4.60705E-02 8.13447E-01 9.01779E-14-5.82095E-13
 -1      1830 2.64304E+01-1.06375E+00 8.94609E-03 1.78844E-01 8.35165E-14-5.33756E-13
 -1      1831 2.65987E+01-1.80048E+00-6.05722E-03 1.13747E+00 1.38901E-13-5.27649E-13
 -1      1832 2.58573E+01-8.53999E-01-4.21684E-02-4.31267E-01 4.79790E-14-5.01465E-13
 -1      1833 2.56533E+01-6.05808E-01 8.98920E-03-8.44526E-01 8.97650E-14-4.05547E-13
 -1      1834 2.55586E+01-1.44427E+00-1.28018E-02-4.12061E-01 9.49137E-14-4.48267E-13
 -1      1835 2.51458E+01-4.03071E-01-2.65503E-02-1.14659E+00 6.38812E-14-3.65361E-13
 -1      1836 2.47592E+01-2.12396E-01 4.15402E-03-1.32628E+00 9.30298E-14-3.32799E-13
 -1      1837 2.45258E+01-7.80173E-01-1.43608E-02-1.35392E+00 1.25498E-13-3.05299E-13
 -1      1838 2.43506E+01-8.20765E-02-1.05724E-02-1.40159E+00 1.08350E-13-2.98058E-13
 -1      1839 2.38954E+01 2.46854E-02 1.39961E-03-1.42241E+00 5.05568E-14-2.97485E-13
 -1      1840 2.36533E+01-2.42791E-01-1.11592E-02-1.72830E+00 1.05660E-13-1.97722E-13
 -1      1841 2.35684E+01 8.89070E-02 7.13798E-04-1.37111E+00-5.47418E-14-2.05037E-13
 -1      1842 2.31209E+01 1.33282E-01 7.67323E-04-1.30992E+00-5.13569E-14-1.96996E-13
 -1      1843 2.29413E+01 7.07249E-02-7.52883E-03-1.73542E+00 6.58141E-14-2.48735E-13
 -1      1844 2.28543E+01 1.55659E-01 6.84177E-03-1.20426E+00-1.64727E-13-1.62384E-13
 -1      1845 2.24553E+01 1.64515E-01 1.09290E-03-1.11291E+00-1.45619E-13-2.37058E-13
 -1      1846 2.23551E+01 2.09164E-01-5.11640E-03-1.55560E+00-7.60091E-14-1.46791E-13
 -1      1847 2.22353E+01 1.65261E-01 9.18817E-03-9.94629E-01-1.53077E-13-2.37929E-13
 -1      1848 2.19000E+01 1.57540E-01 1.52886E-03-9.01210E-01-8.18998E-14-2.52289E-13
 -1      1849 2.18680E+01 2.44337E-01-3.79417E-03-1.30704E+00-1.34409E-13-1.05148E-13
 -1      1850 2.17187E+01 1.49135E-01 9.28938E-03-7.90710E-01 9.35688E-14-3.07606E-13
 -1      1851 2.14477E+01 1.35564E-01 1.77092E-03-7.07622E-01 2.28503E-13-2.47278E-13
 -1      1852 2.14635E+01 2.29450E-01-3.10475E-03-1.05456E+00-4.05392E-14-1.91839E-13
 -1      1853 2.12998E+01 1.24532E-01 8.30622E-03-6.12842E-01 1.60484E-13-2.59386E-13
 -1      1854 2.10866E+01 1.10334E-01 1.79995E-03-5.43912E-01 6.21551E-14-3.07302E-13
 -1      1855 2.11308E+01 1.95597E-01-2.68524E-03-8.28019E-01 1.27682E-13-2.65710E-13
 -1      1856 2.09676E+01 9.96352E-02 6.94725E-03-4.66395E-01-7.74684E-15-3.72572E-13
 -1      1857 2.08032E+01 8.69603E-02 1.68209E-03-4.11412E-01 1.20073E-14-3.13909E-13
 -1      1858 2.08611E+01 1.58344E-01-2.35164E-03-6.37522E-01 3.10420E-14-4.13642E-13
 -1      1859 2.07088E+01 7.77023E-02 5.58136E-03-3.49827E-01-3.65916E-14-1.85465E-13
 -1      1860 2.05841E+01 6.71810E-02 1.48747E-03-3.07007E-01-3.14757E-14-2.31251E-13
 -1      1861 2.06457E+01 1.24365E-01-2.03807E-03-4.83351E-01 3.99980E-14-2.87302E-13
 -1      1862 2.05104E+01 5.96003E-02 4.36924E-03-2.59007E-01-8.79709E-14-3.16501E-13
 -1      1863 2.04170E+01 5.11959E-02 1.26622E-03-2.26184E-01-1.58426E-13-3.28314E-13
 -1      1864 2.04763E+01 9.58242E-02-1.73325E-03-3.61581E-01-1.01336E-13-2.10393E-13
 -1      1865 2.03603E+01 4.51701E-02 3.35966E-03-1.89285E-01-2.31458E-13-4.02254E-13
 -1      1866 2.02914E+01 3.86013E-02 1.04840E-03-1.64419E-01-2.30449E-13-4.58843E-13
 -1      1867 2.03450E+01 7.28558E-02-1.44426E-03-2.67006E-01-1.84400E-13-2.13867E-13
 -1      1868 2.02483E+01 3.38923E-02 2.54854E-03-1.36369E-01-2.53011E-13-4.94262E-13
 -1      1869 2.01982E+01 2.88256E-02 8.49561E-04-1.17720E-01-1.41118E-13-5.18464E-13
 -1      1870 2.02448E+01 5.48092E-02-1.18034E-03-1.94483E-01-2.01383E-13-2.71783E-13
 -1      1871 2.01661E+01 2.51846E-02 1.91102E-03-9.66157E-02 1.01879E-14-5.81153E-13
 -1      1872 2.01302E+01 2.13115E-02 6.76248E-04-8.27684E-02 5.40688E-14-6.40649E-13
 -1      1873 2.01694E+01 4.08314E-02-9.47573E-04-1.39477E-01-1.56251E-13-1.95618E-13
 -1      1874 2.01066E+01 1.85178E-02 1.41713E-03-6.70570E-02 2.31453E-14-6.11729E-13
 -1      1875 2.00813E+01 1.55787E-02 5.29840E-04-5.68861E-02-4.71902E-14-5.92387E-13
 -1      1876 2.01136E+01 3.01077E-02-7.48216E-04-9.81938E-02 1.71217E-14-2.47034E-13
 -1      1877 2.00643E+01 1.34498E-02 1.03852E-03-4.53265E-02-9.95075E-15-6.05327E-13
 -1      1878 2.00470E+01 1.12354E-02 4.08994E-04-3.79504E-02 5.27404E-14-4.78928E-13
 -1      1879 2.00731E+01 2.19418E-02-5.81559E-04-6.75533E-02-3.78412E-14-3.29991E-13
 -1      1880 2.00350E+01 9.62467E-03 7.50842E-04-2.95611E-02 6.50567E-14-5.51258E-13
 -1      1881 2.00235E+01 7.96976E-03 3.11087E-04-2.42937E-02 1.72143E-13-5.88806E-13
 -1      1882 2.00441E+01 1.57679E-02-4.45053E-04-4.50955E-02 4.18793E-14-4.31668E-13
 -1      1883 2.00153E+01 6.76140E-03 5.34159E-04-1.83045E-02 1.73263E-13-6.99382E-13
 -1      1884 2.00080E+01 5.53659E-03 2.33035E-04-1.46144E-02 1.06204E-13-7.36009E-13
 -1      1885 2.00240E+01 1.11368E-02-3.35220E-04-2.88759E-02 1.03721E-13-5.68794E-13
 -1      1886 2.00025E+01 4.63932E-03 3.72486E-04-1.04245E-02 8.39141E-15-6.88763E-13
 -1      1887 1.99982E+01 3.74363E-03 1.71732E-04-7.90195E-03-1.85352E-14-6.25311E-13
 -1      1888 2.00104E+01 7.69546E-03-2.48270E-04-1.73682E-02 2.76966E-14-7.87877E-13
 -1      1889 1.99947E+01 3.08567E-03 2.53169E-04-5.04549E-03-8.18694E-14-5.85276E-13
 -1      1890 1.99924E+01 2.44035E-03 1.24283E-04-3.37635E-03-2.14516E-13-6.51597E-13
 -1      1891 2.00016E+01 5.16744E-03-1.80490E-04-9.38180E-03-4.96629E-14-6.78938E-13
 -1      1892 1.99904E+01 1.96528E-03 1.66255E-04-1.49450E-03-2.08977E-13-5.68826E-13
 -1      1893 1.99894E+01 1.50898E-03 8.80997E-05-4.39354E-04-4.91197E-14-4.69150E-13
 -1      1894 1.99962E+01 3.33658E-03-1.28457E-04-3.99455E-03-9.63789E-14-5.67208E-13
 -1      1895 1.99884E+01 1.17250E-03 1.03945E-04 7.42015E-04-1.52958E-14-2.70320E-13
 -1      1896 1.99884E+01 8.57478E-04 6.09381E-05 1.36401E-03 8.74892E-14-3.46196E-13
 -1      1897 1.99932E+01 2.03390E-03-8.91356E-05-4.97189E-04 3.43095E-14-1.73208E-13
 -1      1898 1.99880E+01 6.24894E-04 6.01426E-05 2.05225E-03 1.75099E-13-3.62460E-13
 -1      1899 1.99885E+01 4.14143E-04 4.08898E-05 2.37622E-03 6.10297E-14-2.18204E-13
 -1      1900 1.99919E+01 1.12760E-03-5.99121E-05 1.65073E-03 1.45217E-13-3.10747E-14
 -1      1901 1.99886E+01 2.58370E-04 3.01082E-05 2.72628E-03 1.44912E-13-1.54191E-13
 -1      1902 1.99893E+01 1.23330E-04 2.63558E-05 2.85181E-03 3.39136E-13 1.69623E-13
 -1      1903 1.99916E+01 5.15130E-04-3.85858E-05 2.85651E-03 2.30395E-13 1.64470E-13
 -1      1904 1.99897E+01 2.33345E-05 1.01713E-05 2.97768E-03 2.39891E-13 1.17402E-13
 -1      1905 1.99906E+01-5.79417E-05 1.60088E-05 2.97683E-03 2.36825E-13 9.12280E-14
 -1      1906 1.99920E+01 1.17045E-04-2.33365E-05 3.42299E-03 2.67857E-13 2.25016E-13
 -1      1907 1.99910E+01-1.18432E-04-2.49127E-06 2.96069E-03 2.63507E-13 2.38847E-13
 -1      1908 1.99920E+01-1.62758E-04 8.74944E-06 2.88432E-03 3.05700E-13 3.42421E-13
 -1      1909 1.99928E+01-1.27933E-04-1.26826E-05 3.57147E-03 3.05134E-13 1.18319E-13
 -1      1910 1.99925E+01-1.96323E-04-1.00331E-05 2.78375E-03 1.47205E-14 3.85884E-13
 -1      1911 1.99934E+01-2.16609E-04 3.66372E-06 2.66635E-03-4.30165E-14 4.05380E-13
 -1      1912 1.99938E+01-2.66954E-04-5.43704E-06 3.45993E-03 1.42582E-13 3.08922E-13
 -1      1913 1.99939E+01-2.33042E-04-1.40768E-05 2.51987E-03-1.06642E-13 3.04141E-13
 -1      1914 1.99948E+01-2.39340E-04-8.42790E-09 2.38325E-03-1.35212E-13 1.15964E-13
 -1      1915 1.99949E+01-3.36400E-04-6.64031E-07 3.19728E-03-1.71423E-13 4.86493E-13
 -1      1916 1.99953E+01-2.46429E-04-1.58076E-05 2.21457E-03-1.00146E-13 6.92657E-14
 -1      1917 1.99960E+01-2.46818E-04-2.88170E-06 2.07051E-03-1.09880E-13 3.27486E-14
 -1      1918 1.99959E+01-3.64708E-04 2.36354E-06 2.85442E-03-1.89046E-13 2.37969E-13
 -1      1919 1.99965E+01-2.51021E-04-1.60309E-05 1.89166E-03-1.85683E-13 6.92464E-14
 -1      1920 1.99971E+01-2.52261E-04-5.36744E-06 1.74369E-03-1.89003E-13 1.11204E-13
 -1      1921 1.99968E+01-3.74780E-04 4.18812E-06 2.47254E-03-7.20609E-14 1.67901E-13
 -1      1922 1.99975E+01-2.59224E-04-1.52248E-05 1.55760E-03-1.09688E-13 4.73396E-14
 -1      1923 1.99980E+01-2.66855E-04-7.68165E-06 1.40256E-03-1.86159E-15-9.40951E-15
 -1      1924 1.99977E+01-3.85518E-04 5.17324E-06 2.06962E-03-1.42931E-13 5.77857E-14
 -1      1925 1.99983E+01-2.80869E-04-1.34731E-05 1.20532E-03-5.59521E-15-6.72526E-14
 -1      1926 1.99987E+01-2.96691E-04-9.07682E-06 1.03596E-03 6.93287E-14-6.99335E-15
 -1      1927 1.99984E+01-4.10875E-04 6.10166E-06 1.64778E-03-2.98703E-14-7.84986E-14
 -1      1928 1.99990E+01-3.15054E-04-1.09610E-05 8.22848E-04 1.40481E-13 7.77767E-14
 -1      1929 1.99993E+01-3.29055E-04-6.78245E-06 6.40852E-04-7.62449E-14 1.21417E-13
 -1      1930 1.99990E+01-4.53767E-04 7.05290E-06 1.19802E-03 1.22136E-13 3.60213E-14
 -1      1931 1.99995E+01-3.05636E-04-7.31020E-06 3.65954E-04-3.82983E-13 3.72522E-13
 -1      1932 2.14948E+01-6.86923E-02 5.51938E-04 4.06435E-01 1.18810E-13 6.97727E-13
 -1      1933 2.17009E+01-1.03555E-02 1.33670E-02 3.89924E-01 1.37725E-13 7.68153E-13
 -1      1934 2.11292E+01-1.28416E-01-2.96446E-03 5.33639E-01 8.64413E-14 6.46436E-13
 -1      1935 2.13545E+01-1.04969E-01 8.07147E-03 4.63633E-01 8.32839E-14 6.69238E-13
 -1      1936 2.16361E+01-1.31165E-01-7.00828E-05 5.88805E-01 1.41504E-13 4.78438E-13
 -1      1937 2.07089E+01-1.18818E-01-1.91021E-03 7.07253E-01 1.14390E-13 5.63407E-13
 -1      1938 2.09757E+01-1.31241E-01 2.23885E-03 6.30113E-01 9.66041E-14 6.17618E-13
 -1      1939 2.13496E+01-1.92916E-01 3.13186E-03 7.55111E-01 1.32050E-13 4.20430E-13
 -1      1940 2.02215E+01-3.72437E-02 2.85388E-03 8.24403E-01 1.12238E-13 4.70624E-13
 -1      1941 2.05203E+01-8.67031E-02-3.66026E-04 7.85318E-01 1.09770E-13 5.25809E-13
 -1      1942 2.10122E+01-1.48162E-01 4.31175E-03 9.52929E-01 1.54705E-13 3.80539E-13
 -1      1943 1.97192E+01 9.95926E-02 8.64490E-03 7.86923E-01 1.30407E-13 4.10115E-13
 -1      1944 2.00055E+01 2.56484E-02-9.49433E-05 8.24229E-01 1.01485E-13 4.46135E-13
 -1      1945 2.06079E+01 1.02252E-03 2.43351E-03 1.04889E+00 1.34826E-13 2.87860E-13
 -1      1946 1.93081E+01 2.43319E-01 1.22700E-02 5.41927E-01 1.25971E-13 3.93832E-13
 -1      1947 1.95176E+01 1.73540E-01 2.79029E-03 6.69238E-01 1.27132E-13 4.08556E-13
 -1      1948 2.01860E+01 2.14555E-01-3.01482E-03 9.27461E-01 1.37612E-13 2.54430E-13
 -1      1949 1.91088E+01 3.28914E-01 1.18803E-02 1.21251E-01 1.31443E-13 3.55675E-13
 -1      1950 1.91829E+01 2.96524E-01 7.41541E-03 3.13556E-01 1.33803E-13 4.09925E-13
 -1      1951 1.98518E+01 4.11105E-01-9.61323E-03 5.46462E-01 1.45736E-13 2.82043E-13
 -1      1952 1.91966E+01 3.12071E-01 8.07650E-03-3.57166E-01 9.36985E-14 2.72401E-13
 -1      1953 1.91088E+01 3.34394E-01 1.15762E-02-1.57307E-01 1.17495E-13 2.93398E-13
 -1      1954 1.97196E+01 5.00426E-01-1.31286E-02-2.10994E-02 1.78754E-13 2.54730E-13
 -1      1955 1.95557E+01 2.00216E-01 3.32112E-03-7.42927E-01 6.59733E-14 1.52411E-13
 -1      1956 1.93249E+01 2.66249E-01 1.25182E-02-5.97448E-01 9.78592E-14 2.31179E-13
 -1      1957 1.98449E+01 4.36998E-01-1.07492E-02-6.05241E-01 1.42927E-13 1.77669E-13
 -1      1958 2.00819E+01 4.67138E-02-2.93722E-04-9.30196E-01 2.85141E-14 6.25923E-14
 -1      1959 1.97651E+01 1.25579E-01 9.00107E-03-8.74548E-01 1.46584E-14 1.07562E-13
 -1      1960 2.01841E+01 2.49831E-01-4.06553E-03-1.02325E+00 9.15188E-14 5.47908E-14
 -1      1961 2.06347E+01-8.69816E-02-2.18296E-03-9.01340E-01 8.26140E-15 1.02846E-13
 -1      1962 2.03038E+01-2.50305E-02 2.41519E-03-9.33033E-01 2.56468E-14 9.15188E-14
 -1      1963 2.06197E+01 2.15496E-02 2.57706E-03-1.17304E+00 2.56705E-14-1.67076E-14
 -1      1964 2.10966E+01-1.64658E-01-2.76022E-03-7.13605E-01 1.89553E-14 1.25002E-13
 -1      1965 2.08134E+01-1.33850E-01-4.33703E-03-8.03161E-01 2.04012E-14 1.38127E-13
 -1      1966 2.10258E+01-1.63825E-01 6.36971E-03-1.06604E+00-2.17209E-15 7.58907E-14
 -1      1967 2.14045E+01-1.83138E-01-2.62096E-03-4.53884E-01-6.02300E-14 1.26444E-13
 -1      1968 2.12055E+01-1.81416E-01-8.85252E-03-5.64674E-01 1.45877E-14 1.14923E-13
 -1      1969 2.13192E+01-2.62592E-01 7.08922E-03-7.92136E-01-1.53003E-15 2.37592E-14
 -1      1970 2.15483E+01-1.60089E-01-2.25429E-03-1.97589E-01-1.84965E-14 2.40424E-13
 -1      1971 2.14430E+01-1.76814E-01-1.04028E-02-3.00860E-01-5.55966E-14 1.88887E-13
 -1      1972 2.14722E+01-2.76703E-01 5.88398E-03-4.59755E-01-7.57649E-14 1.11822E-13
 -1      1973 2.15523E+01-1.17689E-01-1.78880E-03 9.97411E-03 4.08553E-14 2.87208E-13
 -1      1974 2.15301E+01-1.41600E-01-9.54622E-03-7.01607E-02 5.15170E-14 2.14478E-13
 -1      1975 2.14973E+01-2.34319E-01 4.02626E-03-1.52532E-01 3.23830E-14 1.33383E-13
 -1      1976 2.14550E+01-7.29239E-02-1.27110E-03 1.52706E-01-4.71153E-14 2.77114E-13
 -1      1977 2.14954E+01-9.61561E-02-7.33881E-03 9.99381E-02 3.12294E-15 3.48959E-13
 -1      1978 2.14257E+01-1.67701E-01 2.30227E-03 8.49013E-02-3.08217E-14 1.60569E-13
 -1      1979 2.12957E+01-3.51492E-02-7.55224E-04 2.33970E-01-4.41823E-14 3.10292E-13
 -1      1980 2.13759E+01-5.37844E-02-4.75585E-03 2.05780E-01-4.84393E-14 3.23899E-13
 -1      1981 2.12916E+01-1.00540E-01 9.66934E-04 2.40880E-01-6.72947E-14 2.37026E-13
 -1      1982 2.11072E+01-7.61872E-03-2.89948E-04 2.66433E-01 2.10696E-14 2.25826E-13
 -1      1983 2.12074E+01-2.06208E-02-2.42349E-03 2.57029E-01 1.69349E-14 3.05570E-13
 -1      1984 2.11247E+01-4.53028E-02 3.32865E-05 3.23825E-01-2.36061E-14 2.93223E-13
 -1      1985 2.09137E+01 1.00165E-02 8.68532E-05 2.64959E-01 8.44464E-14 1.94331E-13
 -1      1986 2.10188E+01 2.10444E-03-6.25336E-04 2.68164E-01 7.35429E-14 2.28562E-13
 -1      1987 2.09474E+01-5.86317E-03-5.67009E-04 3.50747E-01 7.03019E-14 2.61018E-13
 -1      1988 2.07311E+01 1.96808E-02 3.57994E-04 2.42799E-01-3.51804E-14 2.33061E-13
 -1      1989 2.08310E+01 1.57039E-02 5.89462E-04 2.53361E-01 3.73846E-14 2.41197E-13
 -1      1990 2.07753E+01 1.88338E-02-9.14326E-04 3.39794E-01 2.99133E-14 2.83262E-13
 -1      1991 2.05684E+01 2.36382E-02 5.25887E-04 2.10168E-01-8.65611E-14 2.19354E-13
 -1      1992 2.06575E+01 2.23835E-02 1.29657E-03 2.24171E-01-3.31986E-14 2.49642E-13
 -1      1993 2.06178E+01 3.18918E-02-1.07871E-03 3.06510E-01-5.59608E-14 2.85306E-13
 -1      1994 2.04298E+01 2.38990E-02 6.06221E-04 1.74146E-01 2.47913E-14 1.31464E-13
 -1      1995 2.05054E+01 2.43421E-02 1.61768E-03 1.88956E-01-1.03013E-13 1.48092E-13
 -1      1996 2.04801E+01 3.67522E-02-1.11612E-03 2.62608E-01-5.83512E-15 3.25699E-13
 -1      1997 2.03157E+01 2.20173E-02 6.20189E-04 1.39177E-01 2.01500E-13 4.05700E-14
 -1      1998 2.03775E+01 2.33914E-02 1.67510E-03 1.53198E-01 1.40557E-13 9.07463E-14
 -1      1999 2.03639E+01 3.63943E-02-1.07007E-03 2.16069E-01 7.68185E-14 1.07415E-13
 -1      2000 2.02247E+01 1.90885E-02 5.88985E-04 1.07724E-01 6.88922E-14 1.24403E-13
 -1      2001 2.02736E+01 2.08677E-02 1.57099E-03 1.20116E-01 1.60026E-13 7.61357E-14
 -1      2002 2.02687E+01 3.30853E-02-9.73763E-04 1.71808E-01 1.31369E-13 5.19338E-14
 -1      2003 2.01541E+01 1.58264E-02 5.30764E-04 8.08854E-02-1.05114E-13 1.07328E-13
 -1      2004 2.01916E+01 1.76779E-02 1.38169E-03 9.13149E-02 3.47401E-14 1.81766E-13
 -1      2005 2.01929E+01 2.84016E-02-8.51786E-04 1.32476E-01 1.65526E-14 7.94849E-14
 -1      2006 2.01008E+01 1.26591E-02 4.59517E-04 5.88893E-02-4.65310E-14 8.71635E-14
 -1      2007 2.01287E+01 1.43912E-02 1.15946E-03 6.73378E-02-1.11575E-13 1.08440E-13
 -1      2008 2.01339E+01 2.33562E-02-7.21556E-04 9.91741E-02-7.28447E-14 1.13538E-13
 -1      2009 2.00617E+01 9.81529E-03 3.85128E-04 4.14532E-02-7.67707E-14 1.94740E-13
 -1      2010 2.00818E+01 1.13324E-02 9.37190E-04 4.80795E-02-6.31549E-14 1.51075E-13
 -1      2011 2.00892E+01 1.85455E-02-5.94684E-04 7.20235E-02-1.14482E-13 2.08487E-13
 -1      2012 2.00338E+01 7.39293E-03 3.13985E-04 2.80364E-02 4.58328E-14 1.79149E-13
 -1      2013 2.00478E+01 8.66119E-03 7.33524E-04 3.30831E-02 3.83872E-14 2.16828E-13
 -1      2014 2.00562E+01 1.42780E-02-4.78245E-04 5.05821E-02-1.58565E-16 2.31578E-13
 -1      2015 2.00147E+01 5.40974E-03 2.49765E-04 1.80000E-02 6.34199E-15 1.83438E-13
 -1      2016 2.00240E+01 6.43193E-03 5.57354E-04 2.17357E-02 5.67935E-15 2.22323E-13
 -1      2017 2.00324E+01 1.06765E-02-3.75934E-04 3.41291E-02 1.02423E-14 2.96030E-13
 -1      2018 2.00021E+01 3.83799E-03 1.94200E-04 1.07053E-02-7.38278E-14 2.71161E-13
 -1      2019 2.00080E+01 4.63671E-03 4.11316E-04 1.33897E-02-2.17323E-15 2.54667E-13
 -1      2020 2.00159E+01 7.75076E-03-2.89070E-04 2.18485E-02-4.50535E-14 4.53407E-13
 -1      2021 1.99943E+01 2.62758E-03 1.47705E-04 5.56728E-03 3.77859E-14 6.73081E-14
 -1      2022 1.99977E+01 3.23425E-03 2.94337E-04 7.43308E-03 3.89072E-14 1.04771E-13
 -1      2023 2.00048E+01 5.44836E-03-2.17404E-04 1.29391E-02 9.94476E-15 3.06059E-13
 -1      2024 1.99899E+01 1.72045E-03 1.09880E-04 2.07919E-03 2.13183E-13 9.82958E-14
 -1      2025 1.99916E+01 2.16865E-03 2.03385E-04 3.32500E-03 7.44370E-14 8.80414E-14
 -1      2026 1.99978E+01 3.68742E-03-1.59746E-04 6.67402E-03 9.41896E-14 1.67187E-13
 -1      2027 1.99879E+01 1.05914E-03 7.98679E-05-1.79885E-04 2.73875E-14 9.11546E-14
 -1      2028 1.99884E+01 1.38073E-03 1.34598E-04 6.08892E-04 1.53193E-13 7.71593E-14
 -1      2029 1.99936E+01 2.37707E-03-1.14415E-04 2.42797E-03 2.11972E-13 1.74420E-13
 -1      2030 1.99875E+01 5.91286E-04 5.65977E-05-1.54850E-03-2.58135E-13 9.02323E-14
 -1      2031 1.99873E+01 8.14561E-04 8.39817E-05-1.08711E-03-2.86310E-14 3.26320E-14
 -1      2032 1.99916E+01 1.42924E-03-7.95540E-05-3.16701E-04-1.18574E-14 1.83177E-13
 -1      2033 1.99881E+01 2.71647E-04 3.89489E-05-2.29136E-03-1.93788E-14-4.30094E-14
 -1      2034 1.99874E+01 4.20582E-04 4.77999E-05-2.05698E-03-2.69570E-13 3.72830E-16
 -1      2035 1.99909E+01 7.64753E-04-5.33263E-05-1.97511E-03-1.54348E-13 1.02312E-13
 -1      2036 1.99893E+01 6.25617E-05 2.58431E-05-2.60998E-03 1.75237E-13-8.58023E-14
 -1      2037 1.99884E+01 1.56817E-04 2.27668E-05-2.52696E-03 1.94639E-13-1.07063E-13
 -1      2038 1.99911E+01 3.15855E-04-3.40363E-05-2.87110E-03 1.00769E-13-7.36311E-14
 -1      2039 1.99907E+01-6.64954E-05 1.62922E-05-2.65363E-03-2.14829E-14-1.58224E-13
 -1      2040 1.99897E+01-1.11819E-05 6.11270E-06-2.66654E-03 5.51226E-14-1.73203E-13
 -1      2041 1.99918E+01 2.65384E-05-2.01882E-05-3.25070E-03 1.61485E-13-1.15694E-13
 -1      2042 1.99923E+01-1.39821E-04 9.41540E-06-2.52939E-03 6.92147E-14-2.84593E-13
 -1      2043 1.99913E+01-1.11050E-04-4.42204E-06-2.59902E-03-2.78873E-14-2.39961E-13
 -1      2044 1.99928E+01-1.48353E-04-1.05065E-05-3.29569E-03 3.37881E-14-1.74326E-13
 -1      2045 1.99938E+01-1.76613E-04 4.43720E-06-2.31076E-03 6.52042E-14-2.35775E-13
 -1      2046 1.99928E+01-1.64659E-04-1.06335E-05-2.41078E-03 1.29026E-13-2.56120E-13
 -1      2047 1.99939E+01-2.44646E-04-3.93497E-06-3.13597E-03 4.72095E-14-4.32395E-13
 -1      2048 1.99952E+01-1.92185E-04 6.85654E-07-2.04461E-03-1.33824E-14-1.70652E-13
 -1      2049 1.99943E+01-1.89302E-04-1.39075E-05-2.15893E-03-2.44960E-14-2.01823E-13
 -1      2050 1.99950E+01-2.90656E-04 3.75739E-07-2.86013E-03 3.79565E-14-2.49952E-13
 -1      2051 1.99964E+01-1.99138E-04-2.36802E-06-1.75646E-03 4.22483E-15-1.46725E-13
 -1      2052 1.99957E+01-1.98935E-04-1.52592E-05-1.87739E-03 5.46222E-14-4.64177E-14
 -1      2053 1.99961E+01-3.09076E-04 3.08375E-06-2.52400E-03-4.64252E-14-1.64487E-13
 -1      2054 1.99975E+01-2.08038E-04-4.91626E-06-1.45438E-03-1.67542E-13 2.71924E-14
 -1      2055 1.99968E+01-2.05221E-04-1.53095E-05-1.58127E-03-6.96815E-14-2.31273E-14
 -1      2056 1.99971E+01-3.18635E-04 4.69913E-06-2.15732E-03-7.17637E-14 1.06715E-13
 -1      2057 1.99983E+01-2.27222E-04-6.93142E-06-1.13297E-03-2.38095E-14 8.68779E-14
 -1      2058 1.99978E+01-2.18040E-04-1.42550E-05-1.27096E-03-1.47930E-13 2.91517E-14
 -1      2059 1.99979E+01-3.34420E-04 5.65505E-06-1.76957E-03-2.16148E-13 2.89468E-14
 -1      2060 1.99990E+01-2.61578E-04-7.48252E-06-7.78897E-04-5.87503E-14 6.64606E-14
 -1      2061 1.99987E+01-2.43629E-04-1.11369E-05-9.36478E-04 2.30231E-15 8.00779E-14
 -1      2062 1.99986E+01-3.65671E-04 7.71066E-06-1.35978E-03-5.95773E-14 9.55527E-14
 -1      2063 1.99995E+01-2.62814E-04-7.60299E-06-4.23709E-04-4.23322E-14 6.05127E-14
 -1      2064 1.99992E+01-2.55601E-04-7.74052E-06-5.85530E-04-4.00187E-15 8.57875E-14
 -1      2065 1.99991E+01-3.92466E-04 2.34808E-06-9.38190E-04-6.38033E-14 6.85644E-14
 -1      2066 1.99995E+01-3.84262E-04-3.01849E-06-5.27121E-04 3.16681E-14 1.97090E-13
 -1      2067 1.99998E+01-1.99394E-03 3.85127E-06-1.08955E-03-3.48204E-13-8.70343E-14
 -1      2068 1.99997E+01-1.64602E-03-5.14578E-06-1.07453E-03-3.07311E-13-2.33603E-13
 -1      2069 1.99997E+01-1.34796E-03 1.20696E-06-1.01387E-03-2.04594E-13-1.33109E-13
 -1      2070 1.99996E+01-1.02336E-03-7.38544E-06-9.28564E-04-4.18552E-14-1.82960E-13
 -1      2071 1.99997E+01-1.44753E-03 6.04234E-07-1.32574E-03-2.46025E-13-2.55445E-13
 -1      2072 1.99995E+01-6.41761E-04-2.51505E-06-6.88245E-04-4.20104E-14-9.28514E-14
 -1      2073 1.99999E+01-2.60272E-03 7.01368E-06-1.00688E-03-1.38737E-13-1.46820E-13
 -1      2074 1.99999E+01-2.27566E-03 1.42741E-07-1.05946E-03-3.04179E-13 1.43967E-13
 -1      2075 1.99999E+01-2.02581E-03-3.01847E-06-1.35394E-03-3.47708E-13-6.96282E-14
 -1      2076 2.00000E+01-3.12138E-03 9.75773E-06-7.90109E-04-1.51575E-14 8.48693E-14
 -1      2077 2.00000E+01-2.84885E-03 4.81075E-06-8.98464E-04-2.72045E-14 7.47692E-14
 -1      2078 2.00000E+01-2.55409E-03-6.04282E-06-1.19667E-03-1.94185E-14 2.69100E-14
 -1      2079 2.00001E+01-3.47881E-03 1.15168E-05-4.76408E-04-1.14491E-13-1.26433E-13
 -1      2080 2.00000E+01-3.30093E-03 8.58036E-06-6.22792E-04-2.33696E-14-4.45002E-15
 -1      2081 2.00001E+01-2.98064E-03-8.43667E-06-8.86398E-04-9.82684E-15 6.84575E-15
 -1      2082 2.00001E+01-3.63499E-03 1.20147E-05-1.06645E-04-6.84715E-14-1.92632E-13
 -1      2083 2.00001E+01-3.57357E-03 1.10145E-05-2.72491E-04-1.47057E-13-1.36553E-13
 -1      2084 2.00002E+01-3.25618E-03-1.00091E-05-4.69745E-04-1.25392E-13-4.68610E-14
 -1      2085 2.00001E+01-3.57245E-03 1.10788E-05 2.75682E-04-1.10300E-13-4.80592E-14
 -1      2086 2.00001E+01-3.63498E-03 1.19721E-05 1.09770E-04-1.22177E-13 5.30017E-14
 -1      2087 2.00002E+01-3.35135E-03-1.05248E-05 1.80416E-06-3.03316E-13-6.42524E-14
 -1      2088 2.00000E+01-3.29845E-03 8.72418E-06 6.26309E-04-8.38000E-14-2.43126E-13
 -1      2089 2.00001E+01-3.47763E-03 1.14344E-05 4.79863E-04-1.37681E-13-1.01610E-13
 -1      2090 2.00002E+01-3.25602E-03-9.98271E-06 4.73625E-04-2.48970E-13-6.40403E-14
 -1      2091 2.00000E+01-2.85375E-03 4.86758E-06 8.98188E-04-3.57277E-14-1.96976E-13
 -1      2092 2.00000E+01-3.12215E-03 9.72595E-06 7.91410E-04-8.11307E-14-3.07813E-13
 -1      2093 2.00001E+01-2.98304E-03-8.56128E-06 8.88007E-04-1.32116E-13-3.14532E-13
 -1      2094 1.99999E+01-2.27508E-03 1.12434E-07 1.06083E-03 1.51629E-13 3.56371E-13
 -1      2095 1.99999E+01-2.60796E-03 7.08250E-06 1.00743E-03 7.28019E-14 2.77944E-13
 -1      2096 2.00000E+01-2.55994E-03-6.03796E-06 1.19678E-03 5.35867E-14 1.23833E-13
 -1      2097 1.99997E+01-1.63876E-03-4.95605E-06 1.07582E-03 7.42322E-14 6.19979E-14
 -1      2098 1.99998E+01-1.98841E-03 3.88959E-06 1.09160E-03 1.74788E-13 8.51503E-14
 -1      2099 1.99999E+01-2.02724E-03-2.87801E-06 1.35523E-03 1.73141E-13 2.28842E-13
 -1      2100 1.99996E+01-1.02497E-03-9.79320E-06 9.25744E-04 5.91978E-14 1.05242E-14
 -1      2101 1.99997E+01-1.34277E-03 5.73880E-07 1.01300E-03-1.45529E-14-3.66579E-14
 -1      2102 1.99997E+01-1.44609E-03-1.25134E-06 1.32419E-03-6.69269E-14-2.19040E-14
 -1      2103 2.18147E+01 3.61354E-02 5.50468E-03 3.86886E-01 1.81693E-13 8.39225E-13
 -1      2104 2.20780E+01 1.27400E-01 1.34531E-02 4.74906E-01 2.05264E-13 9.28960E-13
 -1      2105 2.21699E+01 2.43478E-01 2.35238E-03 6.72600E-01 2.45706E-13 7.23590E-13
 -1      2106 2.18815E+01 2.66855E-02 2.13919E-04 5.48984E-01 2.07578E-13 6.05163E-13
 -1      2107 1.01520E+01-4.94071E+00-1.43480E-01 6.74033E+00 7.68163E-13 7.55319E-13
 -1      2108 6.38306E+00-6.75031E+00-4.25062E-01 5.40697E+00 6.41265E-13 8.56024E-13
 -1      2109 2.76913E+01 1.32568E-01 1.69311E-01 6.47510E+00 9.60121E-13 4.13003E-13
 -1      2110 2.27431E+01-1.75447E+00-1.64137E-01 6.24459E+00 9.55347E-13 5.54556E-13
 -1      2111 2.72986E-01-7.31235E+00-3.93858E-01 1.41403E+00 3.97099E-13 1.14853E-12
 -1      2112 1.43919E-01-7.53562E+00-4.22250E-01-2.71197E-02 1.18017E-13 1.04716E-12
 -1      2113 1.91044E+01-2.68329E+00 2.38808E-02 7.31463E+00 9.21707E-13 6.92613E-13
 -1      2114 1.44887E+01-4.76109E+00-2.93541E-01 6.53551E+00 8.12017E-13 6.61970E-13
 -1      2115 1.85828E+01 4.45302E+00-3.29625E-02-4.98396E-01-1.57348E-13-5.00520E-13
 -1      2116 1.93924E+01 4.38415E+00-9.40013E-03-6.49118E-01-2.02456E-13-4.53556E-13
 -1      2117 1.99908E+01 3.68070E+00-1.84282E-02-5.00474E-01-2.28713E-13-3.85015E-13
 -1      2118 1.83181E+01 4.24696E+00-2.42915E-03-3.64462E-01-1.43433E-13-4.85374E-13
 -1      2119 3.48681E+01 3.09707E+00 2.97020E-01 4.38577E+00 9.52616E-13 1.17795E-13
 -1      2120 3.05648E+01 1.52838E+00 5.66994E-03 4.83838E+00 1.02524E-12 2.78222E-13
 -1      2121 3.97696E+01 5.84760E+00 3.85197E-01 2.41760E+00 7.60059E-13 6.56142E-14
 -1      2122 3.67138E+01 4.91882E+00 1.81125E-01 3.42273E+00 8.90038E-13 1.65867E-13
 -1      2123 4.09573E+01 7.27930E+00 2.86207E-01 1.80139E-01 8.12461E-13-2.16611E-13
 -1      2124 4.05128E+01 6.98645E+00 3.51089E-01 1.60156E+00 8.16514E-13-2.33147E-15
 -1      2125 3.81599E+01 6.94587E+00 1.08750E-01-1.10619E+00 7.91034E-13-3.08975E-13
 -1      2126 4.01996E+01 7.40018E+00 3.28378E-01-2.40774E-01 7.71716E-13-2.29775E-13
 -1      2127 3.48858E+01 3.94723E+00 7.59616E-02-2.96002E+00 7.26558E-13-5.27856E-13
 -1      2128 3.73952E+01 5.20236E+00 1.55737E-01-1.79184E+00 7.36161E-13-3.39506E-13
 -1      2129 2.89042E+01 5.17051E-01-8.07950E-02-4.91866E+00 6.13731E-13-7.09988E-13
 -1      2130 3.31440E+01 2.03247E+00 1.58770E-01-4.30149E+00 6.25305E-13-5.81757E-13
 -1      2131 2.18411E+01-2.13125E+00-1.70821E-01-6.21064E+00 6.08735E-13-8.06522E-13
 -1      2132 2.66743E+01-4.04408E-01 1.34853E-01-6.43168E+00 6.55309E-13-7.95808E-13
 -1      2133 2.91102E+01-1.46777E+00 1.55689E-01-3.57967E+00 2.51882E-13-2.54796E-13
 -1      2134 1.26869E+01-4.70546E+00-3.44548E-01-6.42628E+00 4.70624E-13-8.73218E-13
 -1      2135 1.71008E+01-2.79072E+00-3.85076E-02-7.35712E+00 6.20060E-13-9.53793E-13
 -1      2136 5.96847E+00-6.20288E+00-3.70422E-01-5.38272E+00 1.44940E-13-8.70692E-13
 -1      2137 9.30640E+00-4.77667E+00-1.58402E-01-6.52790E+00 3.97460E-13-9.29375E-13
 -1      2138 1.15403E+00-6.81437E+00-4.11880E-01-2.62846E+00-1.21680E-13-8.82072E-13
 -1      2139 2.90521E+00-5.73207E+00-2.57159E-01-4.22446E+00 1.34615E-13-9.07274E-13
 -1      2140 6.60448E-01-5.89221E+00-2.81833E-01 6.93609E-01-2.54519E-13-9.27314E-13
 -1      2141 2.99873E-01-6.75699E+00-4.13665E-01-1.03506E+00-9.82409E-14-9.10050E-13
 -1      2142 2.11472E+00-3.91166E+00-1.52381E-01-2.32084E+00-1.10426E-13-9.98979E-13
 -1      2143 4.52131E+00-6.47052E+00-3.75469E-01 4.30757E+00-6.19504E-13-9.24122E-13
 -1      2144 2.39919E+00-6.44736E+00-3.42191E-01 3.10351E+00-3.31735E-13-8.89511E-13
 -1      2145 1.23554E+01-5.47676E+00-2.20621E-01 6.42265E+00-5.33906E-13-7.54695E-13
 -1      2146 7.75205E+00-6.74603E+00-4.69480E-01 5.02128E+00-6.03184E-13-8.23175E-13
 -1      2147 8.53918E+00-5.19439E+00-8.83777E-02 5.78519E+00-1.30174E-13-7.84039E-13
 -1      2148 2.24003E+01-3.42883E+00 5.60747E-02 6.39969E+00-8.45990E-13-7.59171E-13
 -1      2149 1.78640E+01-5.16635E+00-1.30800E-01 6.07052E+00-6.37324E-13-6.84119E-13
 -1      2150 3.09939E+01-1.90110E-01 2.10048E-01 5.34719E+00-1.00742E-12-7.19758E-13
 -1      2151 2.56192E+01-2.22320E+00-1.81927E-01 5.19754E+00-9.75553E-13-7.79710E-13
 -1      2152 3.72969E+01 2.82915E+00 1.97591E-01 1.98380E+00-9.21527E-13-4.51528E-13
 -1      2153 3.39363E+01 1.41163E+00 1.50259E-01 3.62198E+00-1.02778E-12-6.53255E-13
 -1      2154 3.26083E+01-7.95539E-01 1.90579E-01 2.06092E+00-7.67719E-13-2.58016E-13
 -1      2155 4.14443E+01 6.60060E+00 5.14389E-01 5.19519E-01-9.50295E-13-1.62093E-13
 -1      2156 3.82374E+01 5.24031E+00 1.57838E-01 7.66761E-01-9.65006E-13-2.71116E-13
 -1      2157 4.28478E+01 7.11870E+00 4.87169E-01-3.22957E-01-8.29115E-13-8.35165E-14
 -1      2158 4.22147E+01 7.06924E+00 3.54372E-01 5.28623E-01-8.93619E-13-2.43028E-13
 -1      2159 4.06749E+01 5.56958E+00 3.31607E-01-1.60733E+00-7.34524E-13 1.38112E-13
 -1      2160 4.27358E+01 6.38514E+00 4.80273E-01-6.60339E-01-7.93865E-13-8.10463E-14
 -1      2161 3.56692E+01 2.36524E+00 1.09259E-01-2.88773E+00-6.88130E-13 3.34621E-13
 -1      2162 3.94376E+01 3.81663E+00 3.93099E-01-2.23138E+00-6.84841E-13 2.06279E-13
 -1      2163 2.85708E+01-9.51107E-01-1.04690E-01-4.70189E+00-6.20670E-13 4.81171E-13
 -1      2164 3.34956E+01 7.76125E-01 2.60204E-01-4.52054E+00-6.31883E-13 4.47753E-13
 -1      2165 2.06057E+01-4.27866E+00-2.74665E-01-5.56402E+00-6.35048E-13 2.94209E-13
 -1      2166 2.55605E+01-2.46912E+00 8.03625E-02-5.88222E+00-5.92804E-13 3.55438E-13
 -1      2167 1.19982E+01-6.27725E+00-4.15066E-01-5.60285E+00-5.58886E-13 6.37559E-13
 -1      2168 1.63949E+01-4.56384E+00-1.11016E-01-6.50616E+00-6.51257E-13 4.90663E-13
 -1      2169 5.76712E+00-7.05439E+00-3.53821E-01-4.69411E+00-2.16993E-13 8.32306E-13
 -1      2170 8.67558E+00-6.18923E+00-2.62819E-01-5.55713E+00-4.91829E-13 8.81989E-13
 -1      2171 1.30263E+01-6.16788E+00-1.33879E-01-6.41198E+00-5.72875E-14 5.40894E-13
 -1      2172 6.98115E-01-7.97209E+00-5.37751E-01-1.56656E+00 1.08524E-13 9.45188E-13
 -1      2173 2.40381E+00-6.86685E+00-3.60552E-01-3.14238E+00-4.61853E-14 8.71303E-13
 -1      2174 3.56365E+00-6.33470E+00-2.71520E-01 4.56514E+00 5.45897E-13 9.25093E-13
 -1      2175 1.60250E+00-7.34961E+00-4.20792E-01 3.15147E+00 2.81497E-13 1.00114E-12
 -1      2176 1.99995E+01-4.77442E-04-2.07443E-06 6.63838E-04-9.97845E-14 6.79035E-14
 -1      2177 2.31507E+01-3.84920E+00 4.56326E-02 6.03121E+00 5.28355E-13 1.94955E-13
 -1      2178 2.40572E+01 1.14265E+00-1.59134E-02-3.85815E-01-2.90275E-13 8.76833E-14
 -1      2179 1.46736E+01-5.40567E+00-6.83913E-02 7.21544E+00 3.14582E-13 5.02130E-13
 -1      2180 2.98990E+01-7.30687E-01 1.64363E-01 3.57663E+00 6.95805E-13-1.16795E-13
 -1      2181 2.33335E+01 1.41691E+00-2.71358E-02-1.76438E-01-3.03434E-13-5.34954E-14
 -1      2182 1.99994E+01-7.72551E-04-1.03059E-06-1.01509E-03-1.26026E-13-1.23676E-13
 -1      2183 2.30337E+00-4.83568E+00-1.78815E-01 2.90924E+00 1.04805E-13 1.05160E-12
 -1      2184 1.99995E+01-6.89218E-04-3.26535E-06 8.00118E-04-9.01811E-15 1.02924E-13
 -1      2185 6.90328E+00-5.33886E+00-1.44480E-01 6.09097E+00 1.17684E-13 8.40161E-13
 -1      2186 1.63771E+00-5.05355E+00-2.06483E-01-1.12410E+00 1.48423E-13 1.10956E-12
 -1      2187 5.41823E+00-6.03108E+00-1.93065E-01-4.46147E+00 3.22520E-14 8.39717E-13
 -1      2188 8.55345E+00-5.03693E+00-9.99766E-02-5.87992E+00 2.00562E-13 8.15514E-13
 -1      2189 5.32632E+00-4.22725E+00 4.73990E-02-4.34764E+00 2.37033E-13 8.11018E-13
 -1      2190 2.11750E+01-5.66571E+00-1.73586E-02-5.76395E+00-2.08722E-13 2.94209E-15
 -1      2191 2.86378E+01-3.43792E+00 7.63303E-02-3.49210E+00-2.67564E-13-1.19904E-14
 -1      2192 3.41809E+01 4.78453E-01 2.24470E-01-1.13840E+00-4.74884E-13-4.77396E-15
 -1      2193 3.73149E+01 4.58005E+00 3.29528E-01 4.18864E-01-7.28473E-13-1.57041E-13
 -1      2194 3.83872E+01 7.54210E+00 4.31968E-01 4.62575E-01-8.60978E-13-2.53908E-13
 -1      2195 3.66248E+01 3.49825E+00 1.24842E-01 3.35144E-02-8.98670E-13-1.72307E-13
 -1      2196 3.39864E+01 2.03082E+00 5.68578E-02-1.05397E+00-7.75352E-13 4.37428E-14
 -1      2197 3.38602E+01 4.27803E+00-2.16208E-01-1.78985E+00-8.37053E-13 1.15213E-13
 -1      2198 1.66516E+01-5.50739E+00-8.36851E-02 6.27176E+00-3.33955E-13-5.90195E-13
 -1      2199 1.61654E+01-5.27459E+00 1.43499E-01 6.58571E+00 9.76996E-15-4.20497E-13
 -1      2200 2.06822E+01-5.85684E+00-1.48689E-01 5.76053E+00-2.98095E-14-3.02022E-13
 -1      2201 2.57363E+00-4.79431E+00-1.60923E-01 2.16840E+00-1.73583E-13-9.24316E-13
 -1      2202 3.23833E+00-2.40990E+00 8.20702E-02 1.25522E+00-4.09880E-14-9.11715E-13
 -1      2203 4.75442E+00-3.22205E+00-4.99982E-02 3.69751E+00 3.96072E-14-8.62865E-13
 -1      2204 6.28313E+00-4.64356E+00-1.33457E-01-5.79628E+00-9.67004E-14-9.41164E-13
 -1      2205 2.21392E+01-3.85957E+00 3.51930E-02-6.29494E+00 2.07112E-13-5.95718E-13
 -1      2206 3.28724E+01 2.14676E+00 2.06500E-01-1.11065E+00 4.74717E-13-1.32894E-13
 -1      2207 3.49454E+01 6.33335E+00 1.97871E-01 1.69330E-01 7.37577E-13-5.44009E-14
 -1      2208 3.62240E+01 8.35520E+00 2.65101E-01 1.77403E-01 8.44602E-13-1.18936E-13
 -1      2209 3.42461E+01 3.43194E+00 2.54316E-01 1.27559E+00 8.33805E-13-1.31728E-13
 -1      2210 3.66766E+01 7.04366E+00 3.47464E-01 3.45426E-01 8.81184E-13-1.07386E-13
 -1      2211 1.33767E+01-5.01772E+00-9.83141E-02-7.20862E+00 4.32987E-14-7.95496E-13
 -1      2212 2.60663E+01-4.46008E+00-4.78145E-02 4.51589E+00-5.09093E-13-3.98015E-13
 -1      2213 3.73154E+01 7.42117E+00 3.37681E-01-6.64479E-01-9.35585E-13-1.08635E-13
 -1      2214 1.99994E+01-8.14168E-04-1.69583E-06 1.12462E-03 1.12727E-13 1.11404E-13
 -1      2215 1.61200E+01 4.46558E+00-4.27001E-03-6.59257E-01 2.68069E-14-5.14577E-13
 -1      2216 1.62977E+01 4.46516E+00-6.82422E-03-5.49134E-01-1.43587E-14-5.27741E-13
 -1      2217 1.66506E+01 4.36170E+00-1.49490E-02-3.30486E-01-3.52261E-14-5.18815E-13
 -1      2218 1.71789E+01 4.26187E+00-1.60537E-03-2.51395E-01-8.23508E-14-4.95669E-13
 -1      2219 1.63991E+01 4.19093E+00 1.30985E-02-3.72235E-01-1.00200E-14-4.91389E-13
 -1      2220 1.69321E+01 3.93578E+00 8.99042E-03-9.92179E-01 1.35675E-13-4.37371E-13
 -1      2221 1.65411E+01 4.06616E+00-1.66657E-02-1.02009E+00 9.77411E-14-4.65457E-13
 -1      2222 1.78828E+01 3.50884E+00 6.97551E-03-7.93276E-01 1.90896E-13-4.00247E-13
 -1      2223 1.73811E+01 3.65212E+00-1.64100E-02-9.32548E-01 1.59931E-13-4.22710E-13
 -1      2224 1.72266E+01 3.41998E+00-4.97116E-03-1.15304E+00 1.35431E-13-4.09997E-13
 -1      2225 1.88777E+01 3.12349E+00 6.57866E-04-3.75854E-01 2.44419E-13-3.31347E-13
 -1      2226 1.83781E+01 3.25226E+00-1.41465E-02-6.00878E-01 2.06443E-13-3.78198E-13
 -1      2227 1.82824E+01 2.92161E+00-1.03928E-02-8.77683E-01 1.79199E-13-3.59655E-13
 -1      2228 1.98158E+01 2.80299E+00-8.07491E-03 1.85198E-01 3.13883E-13-1.97538E-13
 -1      2229 1.93575E+01 2.91931E+00-1.26780E-02-9.66342E-02 2.69694E-13-2.69501E-13
 -1      2230 1.93379E+01 2.50042E+00-1.09970E-02-3.81486E-01 2.39684E-13-2.67195E-13
 -1      2231 2.06459E+01 2.51249E+00-1.91702E-02 7.79379E-01 3.77352E-13-4.09187E-14
 -1      2232 2.02428E+01 2.64127E+00-1.32815E-02 4.85435E-01 3.33014E-13-1.21228E-13
 -1      2233 2.02825E+01 2.16831E+00-7.02439E-03 2.12290E-01 3.01632E-13-1.31157E-13
 -1      2234 2.14139E+01 2.14147E+00-3.37513E-02 1.29099E+00 4.03853E-13 1.38884E-13
 -1      2235 2.10322E+01 2.34779E+00-1.63492E-02 1.03929E+00 3.82404E-13 3.43302E-14
 -1      2236 2.10852E+01 1.86556E+00-8.11806E-04 7.69283E-01 3.42109E-13 2.21351E-14
 -1      2237 2.22141E+01 1.54566E+00-3.13777E-02 1.55179E+00 3.78799E-13 4.21784E-13
 -1      2238 2.18131E+01 1.92164E+00-1.00140E-02 1.45314E+00 3.91275E-13 2.55988E-13
 -1      2239 2.18143E+01 1.47795E+00 1.42485E-02 1.14645E+00 3.49751E-13 1.98590E-13
 -1      2240 2.26336E+01 8.93611E-01-2.10491E-02 1.33431E+00 3.25878E-13 6.94694E-13
 -1      2241 2.24120E+01 1.33612E+00-9.08255E-05 1.49607E+00 3.53446E-13 5.36571E-13
 -1      2242 2.21966E+01 9.78721E-01-3.75731E-03 1.16303E+00 3.47285E-13 4.03256E-13
 -1      2243 2.23338E+01 5.38311E-01-6.69103E-03 9.34053E-01 2.93319E-13 6.37262E-13
 -1      2244 2.28247E+01 1.01548E+00 2.03160E-02 7.66095E-01-2.10473E-13-1.01006E-13
 -1      2245 2.28834E+01 6.91815E-01-1.06360E-03 1.12365E+00-1.59008E-13-8.98340E-14
 -1      2246 1.81268E+01-5.16770E+00-1.85359E-02 7.18444E+00 7.07212E-14 1.43767E-13
 -1      2247 1.39767E+01-5.14506E+00 4.67910E-02 7.16141E+00-1.46549E-14 3.31485E-13
 -1      2248 2.54406E+01-4.01714E+00-5.46619E-02 4.95037E+00 3.17912E-13-2.27013E-13
 -1      2249 2.20288E+01-4.93990E+00 9.98134E-03 5.81083E+00 1.98730E-13-8.12683E-14
 -1      2250 2.30345E+01 3.80425E-01 2.65245E-02 1.43073E+00-9.85787E-14-4.97337E-14
 -1      2251 2.32401E+01 5.89163E-03-4.39626E-03 1.55169E+00-3.59834E-14-4.20835E-14
 -1      2252 2.20334E+01 7.38469E-01-1.67165E-02 1.39489E+00-1.23969E-13-1.40458E-13
 -1      2253 2.36091E+01-4.00010E-01 3.49164E-02 1.65756E+00 2.16858E-14-2.64979E-15
 -1      2254 2.39546E+01-9.09221E-01-1.51974E-02 1.50623E+00 6.98391E-14 9.79425E-15
 -1      2255 2.24373E+01-2.21335E-01-2.94716E-02 1.88758E+00 4.44696E-15-1.04534E-13
 -1      2256 2.46777E+01-1.42796E+00 4.74341E-02 1.29448E+00 9.19915E-14 7.32001E-14
 -1      2257 2.51225E+01-1.99062E+00-2.83478E-02 8.08216E-01 7.21836E-14 8.79978E-14
 -1      2258 2.33759E+01-1.49012E+00-4.66097E-02 1.90039E+00 1.02873E-13 1.74080E-15
 -1      2259 2.62210E+01-2.41328E+00 4.22903E-02 1.45817E-01 4.16351E-14 1.63827E-13
 -1      2260 2.66464E+01-2.63532E+00-3.89855E-02-6.24810E-01-6.08905E-14 1.95509E-13
 -1      2261 2.50370E+01-2.84572E+00-6.75710E-02 1.15691E+00 7.80660E-14 1.06536E-13
 -1      2262 2.79103E+01-2.46317E+00-2.20241E-02-1.72119E+00-1.50031E-13 2.75037E-13
 -1      2263 2.79419E+01-1.64377E+00-4.11111E-02-2.43410E+00-2.46921E-13 2.95954E-13
 -1      2264 2.74122E+01-3.35126E+00-9.38291E-02-4.73619E-01-5.91333E-14 2.74469E-13
 -1      2265 2.95562E+01 6.92348E-01-1.09874E-01-2.98961E+00-4.93758E-13 2.96430E-13
 -1      2266 2.95154E+01 2.49907E+00-1.36499E-01-2.77934E+00-6.10373E-13 1.95594E-13
 -1      2267 2.95813E+01 3.94061E+00-1.21705E-01-1.59324E+00-6.29552E-13 4.69798E-14
 -1      2268 2.79337E+01 4.61346E+00-1.22495E-01 7.47087E-01-4.92384E-13-2.74267E-13
 -1      2269 2.81390E+01 3.45941E+00-2.34326E-01 2.19187E+00-4.89248E-13-4.22565E-13
 -1      2270 2.83881E+01 1.96441E+00-6.25878E-02 3.11684E+00-3.67345E-13-5.75512E-13
 -1      2271 2.85195E+01 3.19371E-02-1.72132E-01 3.35283E+00-1.74555E-13-6.55601E-13
 -1      2272 2.80698E+01-1.38439E+00-3.60122E-02 2.71386E+00 3.25295E-14-6.70221E-13
 -1      2273 2.78988E+01-2.36921E+00-4.16470E-02 2.00865E+00 1.40736E-13-6.09780E-13
 -1      2274 2.67491E+01-2.65814E+00-4.44134E-02 9.01007E-01 1.72836E-13-5.52300E-13
 -1      2275 2.63408E+01-2.52925E+00 3.25268E-02 6.13862E-02 2.12881E-13-5.01920E-13
 -1      2276 2.74906E+01-3.23016E+00-7.11550E-02 8.52923E-01 2.04485E-13-6.10258E-13
 -1      2277 2.52103E+01-2.16801E+00-3.57412E-02-7.19489E-01 1.80762E-13-4.14083E-13
 -1      2278 2.47278E+01-1.64927E+00 3.89350E-02-1.29976E+00 1.61265E-13-3.40581E-13
 -1      2279 2.52338E+01-2.99477E+00-5.09501E-02-9.82097E-01 2.29003E-13-4.23911E-13
 -1      2280 2.39311E+01-1.18360E+00-2.12643E-02-1.64819E+00 1.29815E-13-2.22162E-13
 -1      2281 2.34879E+01-7.21234E-01 2.39550E-02-1.92409E+00 1.50808E-13-1.91841E-13
 -1      2282 2.34470E+01-1.80634E+00-4.23758E-02-1.98595E+00 2.13866E-13-2.11733E-13
 -1      2283 2.30145E+01-3.84383E-01-8.61611E-03-1.99191E+00 1.19866E-13-1.47071E-13
 -1      2284 2.26383E+01-9.54541E-02 1.10531E-02-2.04930E+00 1.19186E-13-1.47814E-13
 -1      2285 2.23244E+01-7.05803E-01-2.59148E-02-2.31181E+00 1.20974E-13-7.24631E-14
 -1      2286 2.23736E+01 8.97822E-02 1.09831E-04-1.97189E+00 1.06946E-13-2.03390E-13
 -1      2287 2.20569E+01 2.29773E-01 3.52955E-03-1.90614E+00 4.48170E-14-1.55386E-13
 -1      2288 2.16771E+01-5.05059E-03-1.25717E-02-2.25389E+00 8.41275E-14-7.95885E-14
 -1      2289 2.19028E+01 3.07333E-01 4.97841E-03-1.76847E+00-6.45919E-14-2.31306E-13
 -1      2290 2.16346E+01 3.53969E-01 1.28716E-04-1.64834E+00-1.07946E-13-2.58169E-13
 -1      2291 2.12977E+01 3.42562E-01-4.89159E-03-2.01515E+00-2.00359E-14-2.23067E-13
 -1      2292 2.15328E+01 3.70246E-01 7.15018E-03-1.49610E+00-1.46339E-13-1.49572E-13
 -1      2293 2.13060E+01 3.68096E-01-1.07543E-03-1.36283E+00-9.98843E-14-6.69702E-14
 -1      2294 2.10499E+01 4.64524E-01-1.31741E-03-1.71180E+00-5.74612E-14-2.65266E-13
 -1      2295 2.12282E+01 3.55210E-01 7.58610E-03-1.21869E+00-9.53541E-14-6.14604E-14
 -1      2296 2.10384E+01 3.32018E-01-1.28096E-03-1.09340E+00-1.39303E-14-1.02175E-13
 -1      2297 2.08635E+01 4.66124E-01-1.27731E-04-1.40543E+00-6.97840E-14-1.23862E-13
 -1      2298 2.09731E+01 3.08321E-01 7.07752E-03-9.67015E-01-9.26277E-15-2.08828E-13
 -1      2299 2.08167E+01 2.78970E-01-1.09693E-03-8.58473E-01-3.55974E-14-3.39352E-13
 -1      2300 2.07084E+01 4.14378E-01 2.45137E-06-1.12591E+00-1.15293E-13-1.23561E-13
 -1      2301 2.07600E+01 2.53623E-01 6.15149E-03-7.52551E-01 3.31972E-14-4.33794E-13
 -1      2302 2.06335E+01 2.25128E-01-8.14378E-04-6.62833E-01 6.47148E-14-3.80438E-13
 -1      2303 2.05739E+01 3.45888E-01-2.04839E-04-8.85097E-01-4.72460E-14-2.42035E-13
 -1      2304 2.05843E+01 2.02083E-01 5.11646E-03-5.76626E-01 5.30898E-14-4.37483E-13
 -1      2305 2.04836E+01 1.77207E-01-5.51877E-04-5.04622E-01 4.75750E-14-3.88800E-13
 -1      2306 2.04572E+01 2.78285E-01-4.37011E-04-6.85073E-01 1.69364E-14-3.67339E-13
 -1      2307 2.04419E+01 1.57758E-01 4.13309E-03-4.35877E-01-1.25113E-14-3.96083E-13
 -1      2308 2.03630E+01 1.37178E-01-3.46674E-04-3.79228E-01-9.07882E-14-3.86770E-13
 -1      2309 2.03575E+01 2.18745E-01-5.91175E-04-5.23038E-01-1.21551E-14-4.46705E-13
 -1      2310 2.03283E+01 1.21402E-01 3.27084E-03-3.25240E-01-1.56187E-13-3.34198E-13
 -1      2311 2.02674E+01 1.04881E-01-2.00828E-04-2.81317E-01-2.28494E-13-3.80329E-13
 -1      2312 2.02741E+01 1.69218E-01-6.55760E-04-3.94162E-01-9.82227E-14-4.92041E-13
 -1      2313 2.02392E+01 9.23736E-02 2.54875E-03-2.39448E-01-2.20204E-13-2.74187E-13
 -1      2314 2.01930E+01 7.93520E-02-1.03997E-04-2.05796E-01-2.06202E-13-3.32755E-13
 -1      2315 2.02061E+01 1.29319E-01-6.50687E-04-2.93127E-01-2.06513E-13-4.03353E-13
 -1      2316 2.01706E+01 6.95748E-02 1.96107E-03-1.73690E-01-1.86786E-13-2.03782E-13
 -1      2317 2.01360E+01 5.94333E-02-4.34599E-05-1.48186E-01-9.95871E-14-1.56857E-13
 -1      2318 2.01517E+01 9.77914E-02-6.01274E-04-2.14889E-01-1.81923E-13-2.78941E-13
 -1      2319 2.01186E+01 5.18653E-02 1.49175E-03-1.23837E-01-2.57739E-14-1.47341E-13
 -1      2320 2.00931E+01 4.40380E-02-7.99314E-06-1.04718E-01-2.72221E-15-5.29389E-14
 -1      2321 2.01090E+01 7.31915E-02-5.28752E-04-1.54996E-01-1.05922E-13-2.49592E-13
 -1      2322 2.00798E+01 3.82266E-02 1.12202E-03-8.64663E-02-1.22432E-13-2.74134E-13
 -1      2323 2.00614E+01 3.22334E-02 1.10577E-05-7.23038E-02-1.33647E-13-3.26687E-13
 -1      2324 2.00763E+01 5.41770E-02-4.48158E-04-1.09672E-01-1.34061E-13-1.62211E-13
 -1      2325 2.00515E+01 2.78052E-02 8.33895E-04-5.87969E-02-5.32896E-14-4.73415E-13
 -1      2326 2.00384E+01 2.32536E-02 1.98757E-05-4.84465E-02 1.12457E-14-4.87532E-13
 -1      2327 2.00517E+01 3.95995E-02-3.68983E-04-7.57910E-02-1.63400E-13-4.44560E-13
 -1      2328 2.00312E+01 1.99074E-02 6.11522E-04-3.85971E-02 7.49707E-14-5.50607E-13
 -1      2329 2.00222E+01 1.64820E-02 2.26499E-05-3.11523E-02 1.28743E-13-6.28880E-13
 -1      2330 2.00336E+01 2.85151E-02-2.96552E-04-5.08075E-02-3.25765E-14-4.75794E-13
 -1      2331 2.00170E+01 1.39780E-02 4.41528E-04-2.40933E-02 9.85447E-14-6.99103E-13
 -1      2332 2.00110E+01 1.14276E-02 2.20987E-05-1.88406E-02-2.65481E-14-6.28318E-13
 -1      2333 2.00205E+01 2.01631E-02-2.33354E-04-3.26711E-02 4.26848E-14-6.40589E-13
 -1      2334 2.00074E+01 9.57544E-03 3.12894E-04-1.38867E-02-4.09457E-14-5.43160E-13
 -1      2335 2.00036E+01 7.70067E-03 1.99159E-05-1.02688E-02-4.55895E-14-4.90621E-13
 -1      2336 2.00113E+01 1.39363E-02-1.80081E-04-1.97468E-02 6.47320E-15-4.40876E-13
 -1      2337 2.00012E+01 6.34972E-03 2.16656E-04-6.88238E-03-8.82516E-14-4.36430E-13
 -1      2338 1.99989E+01 4.99276E-03 1.71097E-05-4.46721E-03 1.36402E-14-3.74241E-13
 -1      2339 2.00050E+01 9.35198E-03-1.36369E-04-1.07425E-02 3.41740E-14-2.35376E-13
 -1      2340 1.99974E+01 4.02419E-03 1.45591E-04-2.23085E-03 1.41432E-13-2.21928E-13
 -1      2341 1.99962E+01 3.06053E-03 1.42443E-05-6.86258E-04 1.78286E-13 1.71144E-14
 -1      2342 2.00010E+01 6.02794E-03-1.01301E-04-4.64592E-03 1.62362E-13-1.62714E-13
 -1      2343 1.99953E+01 2.38075E-03 9.39146E-05 7.21188E-04 1.72776E-13 4.41942E-14
 -1      2344 1.99948E+01 1.71249E-03 1.16044E-05 1.64789E-03 1.98725E-13 1.26234E-13
 -1      2345 1.99985E+01 3.66217E-03-7.37177E-05-6.72334E-04 1.72003E-13 7.78501E-14
 -1      2346 1.99943E+01 1.24814E-03 5.70236E-05 2.47048E-03 4.43869E-14 9.98722E-14
 -1      2347 1.99943E+01 7.98697E-04 9.30226E-06 2.96918E-03 1.57858E-13 9.77145E-14
 -1      2348 1.99971E+01 2.01704E-03-5.24140E-05 1.78025E-03 1.49140E-13 1.13450E-13
 -1      2349 1.99941E+01 4.92558E-04 3.12805E-05 3.38983E-03 2.14772E-13 1.04843E-16
 -1      2350 1.99944E+01 2.02342E-04 7.34554E-06 3.60107E-03 2.06487E-13 4.21892E-14
 -1      2351 1.99964E+01 9.06487E-04-3.62452E-05 3.16761E-03 1.05070E-13-3.15302E-14
 -1      2352 1.99944E+01 1.00081E-05 1.38348E-05 3.75457E-03 2.09954E-13 3.61577E-14
 -1      2353 1.99949E+01-1.67111E-04 5.67716E-06 3.78035E-03 2.30414E-13 3.18828E-14
 -1      2354 1.99963E+01 1.85579E-04-2.41854E-05 3.82966E-03 1.78303E-13-1.33819E-13
 -1      2355 1.99950E+01-2.79961E-04 2.47532E-06 3.76383E-03 1.25267E-13-8.13218E-14
 -1      2356 1.99955E+01-3.79617E-04 4.19822E-06 3.67618E-03 6.04528E-15-3.00012E-14
 -1      2357 1.99964E+01-2.58030E-04-1.53518E-05 4.01512E-03 1.29807E-13-1.92657E-13
 -1      2358 1.99957E+01-4.39526E-04-4.49093E-06 3.55749E-03-4.78427E-14 2.24094E-13
 -1      2359 1.99962E+01-4.89331E-04 2.78272E-06 3.40523E-03-1.55009E-13 2.92524E-13
 -1      2360 1.99968E+01-5.11218E-04-9.01418E-06 3.90144E-03 8.70064E-14-2.25046E-13
 -1      2361 1.99964E+01-5.17016E-04-8.33469E-06 3.22949E-03-2.97944E-13 3.23585E-13
 -1      2362 1.99969E+01-5.38608E-04 1.31357E-06 3.04334E-03-2.06153E-13 3.34876E-13
 -1      2363 1.99972E+01-6.41370E-04-4.59152E-06 3.61066E-03-1.15044E-13 2.24623E-13
 -1      2364 1.99972E+01-5.50537E-04-9.97004E-06 2.83810E-03-1.12507E-13 1.01278E-13
 -1      2365 1.99976E+01-5.61234E-04-2.94929E-07 2.63475E-03-9.67029E-14 8.30907E-14
 -1      2366 1.99977E+01-7.01229E-04-1.61837E-06 3.22187E-03-2.69102E-13 2.65079E-13
 -1      2367 1.99978E+01-5.70952E-04-1.00999E-05 2.41393E-03-1.24527E-13 4.88393E-14
 -1      2368 1.99982E+01-5.84616E-04-2.36100E-06 2.19944E-03-2.54868E-13 6.16449E-16
 -1      2369 1.99982E+01-7.32866E-04 1.84797E-07 2.78113E-03-2.17456E-13-8.95709E-14
 -1      2370 1.99984E+01-6.02735E-04-9.96026E-06 1.96546E-03-1.26705E-13 1.54257E-13
 -1      2371 1.99987E+01-6.27302E-04-6.35715E-06 1.73976E-03 9.92032E-15 1.17701E-13
 -1      2372 1.99986E+01-7.68182E-04 1.70743E-06 2.30998E-03-1.65186E-13 1.91068E-13
 -1      2373 1.99989E+01-7.06883E-04-9.76956E-06 1.56621E-03-4.22656E-14 2.65774E-13
 -1      2374 1.99992E+01-7.41026E-04-8.77938E-06 1.32152E-03 6.67672E-14 1.54567E-13
 -1      2375 1.99994E+01-1.04797E-03 6.87633E-06 1.46891E-03-6.92214E-14 2.87963E-13
 -1      2376 1.99991E+01-8.70809E-04 6.68722E-06 1.87497E-03 1.78038E-14 4.69912E-13
 -1      2377 2.13221E+01-2.14051E-01 8.22567E-04 1.11718E+00 1.63181E-13 3.01471E-13
 -1      2378 2.15034E+01-2.88555E-01-7.25141E-04 1.02693E+00 1.62579E-13 3.32931E-13
 -1      2379 2.15637E+01-3.14406E-01-5.50132E-03 8.93551E-01 1.47659E-13 3.19119E-13
 -1      2380 2.17288E+01-2.90690E-01 7.08571E-03 7.90402E-01 1.30517E-13 3.37511E-13
 -1      2381 2.18829E+01-3.83893E-01 2.99461E-03 1.06148E+00 1.59916E-13 2.67345E-13
 -1      2382 2.17472E+01-2.30292E-01-6.67682E-03 6.92844E-01 1.52244E-13 3.55923E-13
 -1      2383 2.18977E+01-1.28040E-01 9.38942E-03 6.46608E-01 1.69842E-13 3.98894E-13
 -1      2384 2.19569E+01-3.32773E-01-2.74692E-03 8.17517E-01 1.66578E-13 2.59117E-13
 -1      2385 2.10030E+01 6.56410E-02 9.71179E-03 1.20350E+00 1.50457E-13 2.47547E-13
 -1      2386 2.11933E+01-9.73333E-02-5.90643E-03 1.19869E+00 1.36588E-13 2.81880E-13
 -1      2387 2.17106E+01-1.91220E-01 5.60083E-03 1.29696E+00 1.70088E-13 2.77411E-13
 -1      2388 2.06508E+01 4.43694E-01 1.61999E-02 1.01662E+00 1.28635E-13 2.50798E-13
 -1      2389 2.08176E+01 2.45271E-01-7.21365E-03 1.14794E+00 1.34971E-13 2.60035E-13
 -1      2390 2.14238E+01 2.17894E-01 4.36572E-03 1.33847E+00 1.48563E-13 2.79692E-13
 -1      2391 2.03720E+01 7.61417E-01 1.57814E-02 5.18097E-01 1.51809E-13 2.58769E-13
 -1      2392 2.04716E+01 6.16830E-01-2.86672E-03 7.82268E-01 1.22358E-13 2.67154E-13
 -1      2393 2.10857E+01 7.04171E-01-2.67670E-03 1.04007E+00 1.30375E-13 2.66696E-13
 -1      2394 2.02863E+01 8.55886E-01 8.02573E-03-1.77259E-01 1.77108E-13 2.55934E-13
 -1      2395 2.02866E+01 8.42284E-01 5.87749E-03 1.48969E-01 1.93871E-13 2.56605E-13
 -1      2396 2.08380E+01 1.05336E+00-1.02541E-02 3.94738E-01 1.63745E-13 2.12254E-13
 -1      2397 2.04427E+01 6.70822E-01-1.86032E-03-8.39295E-01 1.63430E-13 1.74959E-13
 -1      2398 2.03423E+01 7.98298E-01 1.40544E-02-5.58526E-01 1.93843E-13 2.33357E-13
 -1      2399 2.08109E+01 1.08508E+00-1.10993E-02-4.15648E-01 1.84339E-13 1.96647E-13
 -1      2400 2.07751E+01 3.00103E-01-8.15699E-03-1.24981E+00 1.23652E-13 7.66308E-14
 -1      2401 2.06055E+01 5.03730E-01 1.59008E-02-1.09931E+00 1.81418E-13 1.45398E-13
 -1      2402 2.10169E+01 7.75679E-01-3.94505E-03-1.10344E+00 1.98532E-13 1.46014E-13
 -1      2403 2.11438E+01-8.58902E-02-9.13751E-03-1.32169E+00-1.66468E-14 6.63879E-15
 -1      2404 2.09547E+01 1.04802E-01 1.03319E-02-1.32223E+00 2.43422E-14 1.61869E-14
 -1      2405 2.13347E+01 2.74543E-01 4.28103E-03-1.44708E+00 9.84358E-14 8.24618E-14
 -1      2406 2.14262E+01-3.55284E-01-6.41307E-03-1.11101E+00 5.24255E-15-4.66576E-15
 -1      2407 2.12632E+01-2.36368E-01 1.41334E-03-1.22710E+00-1.44476E-14-1.18549E-14
 -1      2408 2.16066E+01-2.03667E-01 8.39980E-03-1.40606E+00 9.01595E-15-9.56212E-15
 -1      2409 2.15663E+01-4.64934E-01-2.58556E-03-7.49041E-01-2.32540E-14 8.23720E-15
 -1      2410 2.14562E+01-4.28677E-01-6.09299E-03-9.20816E-01 4.86328E-14-3.35207E-14
 -1      2411 2.17354E+01-5.12579E-01 7.62845E-03-1.08928E+00 3.54309E-14-7.50609E-14
 -1      2412 2.15702E+01-4.44695E-01 2.22806E-04-3.62595E-01-8.96726E-14 2.45225E-14
 -1      2413 2.15201E+01-4.69473E-01-9.94181E-03-5.37044E-01-1.09609E-13 3.76219E-14
 -1      2414 2.17117E+01-6.17165E-01 4.63630E-03-6.57235E-01-6.10592E-14-2.83863E-14
 -1      2415 2.14750E+01-3.51520E-01 1.67661E-03-3.39333E-02 4.10201E-14-7.64872E-15
 -1      2416 2.14781E+01-4.06781E-01-1.03789E-02-1.78355E-01 3.23864E-14 1.53395E-14
 -1      2417 2.15775E+01-5.66371E-01 1.55868E-03-2.39519E-01-2.60874E-14-6.55815E-14
 -1      2418 2.13220E+01-2.36048E-01 2.12411E-03 2.02675E-01-8.39697E-14 3.01368E-14
 -1      2419 2.13647E+01-2.97372E-01-8.65327E-03 1.00943E-01-3.93088E-15 2.43147E-14
 -1      2420 2.13862E+01-4.34238E-01-3.72488E-04 9.24395E-02-5.41017E-17-2.42333E-14
 -1      2421 2.11438E+01-1.30033E-01 1.98743E-03 3.46208E-01-1.14694E-13 8.54754E-14
 -1      2422 2.12118E+01-1.83348E-01-6.10102E-03 2.86248E-01-1.23537E-13 4.53690E-14
 -1      2423 2.11785E+01-2.82630E-01-1.28477E-03 3.17169E-01-1.07577E-13-1.10840E-14
 -1      2424 2.09622E+01-4.75992E-02 1.62471E-03 4.12542E-01-1.12410E-14 1.13406E-13
 -1      2425 2.10430E+01-8.74534E-02-3.59237E-03 3.86621E-01-3.22976E-14 1.18137E-13
 -1      2426 2.09787E+01-1.48212E-01-1.57106E-03 4.42953E-01-8.47934E-14-6.82828E-15
 -1      2427 2.07905E+01 8.77093E-03 1.23897E-03 4.22835E-01 3.09723E-14 1.83809E-13
 -1      2428 2.08745E+01-1.74640E-02-1.54292E-03 4.21247E-01 1.87026E-14 1.67762E-13
 -1      2429 2.07984E+01-4.60951E-02-1.55581E-03 4.90991E-01-2.67996E-14 7.06794E-15
 -1      2430 2.06357E+01 4.25076E-02 9.14844E-04 3.97062E-01-3.25932E-14 2.37431E-13
 -1      2431 2.07163E+01 2.75804E-02-7.00658E-05 4.10829E-01 9.59389E-15 1.92244E-13
 -1      2432 2.06415E+01 2.22960E-02-1.42905E-03 4.84855E-01-9.36704E-15 1.08809E-13
 -1      2433 2.05009E+01 5.90717E-02 6.69811E-04 3.51312E-01-6.72739E-14 2.24653E-13
 -1      2434 2.05740E+01 5.24546E-02 8.67276E-04 3.73299E-01-4.38721E-14 2.14938E-13
 -1      2435 2.05081E+01 6.21640E-02-1.27753E-03 4.45279E-01-4.85431E-14 1.93711E-13
 -1      2436 2.03868E+01 6.38677E-02 4.94394E-04 2.97236E-01 6.03509E-14 9.68957E-14
 -1      2437 2.04504E+01 6.27812E-02 1.37550E-03 3.22345E-01 1.75143E-14 1.64949E-13
 -1      2438 2.03967E+01 8.07592E-02-1.13089E-03 3.88330E-01 3.04006E-14-4.00633E-15
 -1      2439 2.02925E+01 6.13593E-02 3.71383E-04 2.42536E-01 9.26960E-14 1.27012E-14
 -1      2440 2.03460E+01 6.35875E-02 1.57364E-03 2.67455E-01 7.94430E-14 5.48971E-14
 -1      2441 2.03051E+01 8.49870E-02-9.94678E-04 3.25345E-01 1.09916E-13-4.29893E-14
 -1      2442 2.02164E+01 5.48607E-02 2.84808E-04 1.91803E-01 6.14308E-14 7.87520E-15
 -1      2443 2.02600E+01 5.88000E-02 1.56755E-03 2.14608E-01 9.45018E-14-2.44412E-14
 -1      2444 2.02308E+01 8.04444E-02-8.67596E-04 2.63640E-01 1.40882E-13-5.94881E-14
 -1      2445 2.01562E+01 4.66410E-02 2.22540E-04 1.47384E-01-1.44400E-14 8.55487E-14
 -1      2446 2.01907E+01 5.12183E-02 1.44064E-03 1.67138E-01-1.97744E-14 4.15061E-14
 -1      2447 2.01714E+01 7.12363E-02-7.48082E-04 2.07447E-01 1.99892E-14 2.83342E-14
 -1      2448 2.01095E+01 3.81401E-02 1.76281E-04 1.10119E-01-1.39741E-13 1.81944E-13
 -1      2449 2.01362E+01 4.26922E-02 1.25328E-03 1.26537E-01-2.36519E-14 1.43704E-13
 -1      2450 2.01246E+01 6.01450E-02-6.35969E-04 1.58810E-01-3.70521E-14 7.09551E-14
 -1      2451 2.00741E+01 3.01920E-02 1.40699E-04 7.99134E-02-1.32386E-13 2.67157E-13
 -1      2452 2.00943E+01 3.43489E-02 1.04600E-03 9.31048E-02-1.74095E-13 1.75636E-13
 -1      2453 2.00884E+01 4.89161E-02-5.32162E-04 1.18317E-01-1.51780E-13 1.01098E-13
 -1      2454 2.00478E+01 2.32156E-02 1.12507E-04 5.61437E-02-1.45890E-14 2.90503E-13
 -1      2455 2.00626E+01 2.68045E-02 8.43914E-04 6.64350E-02 5.14828E-15 3.80017E-13
 -1      2456 2.00609E+01 3.85443E-02-4.37896E-04 8.56655E-02-1.18432E-13 2.65778E-13
 -1      2457 2.00288E+01 1.73620E-02 8.97061E-05 3.79401E-02-5.24736E-14 3.68853E-13
 -1      2458 2.00394E+01 2.03347E-02 6.61019E-04 4.57516E-02-1.42128E-15 3.18778E-13
 -1      2459 2.00403E+01 2.95137E-02-3.54173E-04 6.00672E-02-6.31321E-14 2.93761E-13
 -1      2460 2.00154E+01 1.26211E-02 7.10680E-05 2.43635E-02-5.78349E-14 3.03093E-13
 -1      2461 2.00227E+01 1.50026E-02 5.03705E-04 3.01338E-02-3.60381E-14 3.17957E-13
 -1      2462 2.00253E+01 2.19814E-02-2.81482E-04 4.05166E-02-2.69410E-14 1.56480E-13
 -1      2463 2.00062E+01 8.89480E-03 5.58013E-05 1.45120E-02 8.20714E-14 1.43044E-13
 -1      2464 2.00111E+01 1.07480E-02 3.73520E-04 1.86538E-02 4.13823E-14 2.46169E-13
 -1      2465 2.00146E+01 1.59101E-02-2.19749E-04 2.59653E-02 9.83614E-14 1.54682E-13
 -1      2466 2.00003E+01 6.04463E-03 4.33506E-05 7.57669E-03 1.97243E-13-2.56789E-14
 -1      2467 2.00034E+01 7.44843E-03 2.69147E-04 1.04547E-02 1.00211E-13 1.33124E-13
 -1      2468 2.00071E+01 1.11580E-02-1.68421E-04 1.54232E-02 1.29443E-13 3.20676E-15
 -1      2469 1.99967E+01 3.92144E-03 3.32852E-05 2.86612E-03 1.69457E-13 1.71054E-13
 -1      2470 1.99984E+01 4.95668E-03 1.87763E-04 4.78872E-03 2.79731E-13 8.82185E-14
 -1      2471 2.00022E+01 7.53721E-03-1.26596E-04 8.01131E-03 1.76349E-13-1.26977E-13
 -1      2472 1.99947E+01 2.38248E-03 2.52407E-05-1.89946E-04-3.20802E-14 3.00757E-14
 -1      2473 1.99956E+01 3.12453E-03 1.25932E-04 1.02899E-03 7.98558E-14 1.64045E-13
 -1      2474 1.99990E+01 4.85042E-03-9.31727E-05 2.98280E-03 1.13248E-13-2.01284E-13
 -1      2475 1.99939E+01 1.30014E-03 1.88903E-05-2.04789E-03-5.79452E-14-2.68107E-13
 -1      2476 1.99941E+01 1.81519E-03 8.01524E-05-1.33297E-03-2.20425E-14-1.45707E-13
 -1      2477 1.99972E+01 2.91099E-03-6.69637E-05-2.75817E-04 7.57135E-14-2.61947E-13
 -1      2478 1.99938E+01 5.65452E-04 1.39317E-05-3.06337E-03 1.97663E-13-3.29237E-13
 -1      2479 1.99936E+01 9.09314E-04 4.71659E-05-2.69830E-03-5.27504E-15-2.50896E-13
 -1      2480 1.99963E+01 1.55338E-03-4.67944E-05-2.25413E-03-1.76979E-14-4.29128E-13
 -1      2481 1.99942E+01 8.83423E-05 1.00795E-05-3.50652E-03 3.88754E-14-2.54444E-13
 -1      2482 1.99938E+01 3.06686E-04 2.41139E-05-3.37533E-03 2.04215E-13-1.76366E-13
 -1      2483 1.99960E+01 6.36959E-04-3.15642E-05-3.33284E-03 7.22051E-14-3.28415E-13
 -1      2484 1.99948E+01-2.03912E-04 7.06193E-06-3.57688E-03 4.97213E-14-2.62438E-13
 -1      2485 1.99943E+01-7.44973E-05 8.59038E-06-3.59485E-03-1.46831E-14-1.82464E-13
 -1      2486 1.99960E+01 4.58990E-05-2.02866E-05-3.80053E-03-5.31393E-14-1.92560E-13
 -1      2487 1.99955E+01-3.69150E-04 4.61736E-06-3.41698E-03-3.11162E-14-2.74351E-13
 -1      2488 1.99950E+01-2.99726E-04-1.36010E-06-3.52452E-03 6.99167E-14-2.32747E-13
 -1      2489 1.99964E+01-3.13147E-04-1.21079E-05-3.86990E-03 7.02048E-14-1.94505E-13
 -1      2490 1.99963E+01-4.53150E-04 2.49740E-06-3.12400E-03-8.12936E-14-1.12773E-13
 -1      2491 1.99958E+01-4.20879E-04-7.28453E-06-3.28145E-03-6.08401E-14-1.29944E-13
 -1      2492 1.99968E+01-5.14380E-04-6.31695E-06-3.69248E-03-6.77500E-14-1.63000E-13
 -1      2493 1.99971E+01-4.92468E-04 4.71999E-07-2.75928E-03-7.56197E-14-2.17500E-14
 -1      2494 1.99966E+01-4.79095E-04-1.03639E-05-2.94274E-03-5.42070E-14-1.43031E-13
 -1      2495 1.99973E+01-6.16573E-04-2.35561E-06-3.37118E-03-1.19663E-13-6.24329E-14
 -1      2496 1.99978E+01-5.16820E-04-1.60021E-06-2.35589E-03-1.59386E-13 5.55971E-14
 -1      2497 1.99973E+01-5.07601E-04-1.14949E-05-2.55398E-03-1.43992E-13-1.37808E-14
 -1      2498 1.99978E+01-6.66665E-04 1.77996E-07-2.97086E-03-1.85628E-13-3.80851E-14
 -1      2499 1.99984E+01-5.49550E-04-4.03060E-06-1.92565E-03-2.35867E-13-3.46592E-14
 -1      2500 1.99980E+01-5.33417E-04-1.14040E-05-2.13575E-03-8.76844E-14 2.38880E-14
 -1      2501 1.99983E+01-7.01629E-04 1.82131E-06-2.52663E-03-1.43871E-13-1.13953E-13
 -1      2502 1.99989E+01-6.02181E-04-9.09365E-06-1.47034E-03 2.84735E-14-1.49555E-13
 -1      2503 1.99986E+01-5.74252E-04-1.16344E-05-1.68873E-03-1.51849E-13-1.35846E-13
 -1      2504 1.99988E+01-7.48881E-04 3.31585E-06-2.05068E-03-4.02370E-14-1.38595E-13
 -1      2505 1.99992E+01-7.67783E-04-5.62037E-06-1.22886E-03-6.91123E-14-1.47010E-13
 -1      2506 2.00002E+01-2.51430E-03 1.00475E-05-1.32300E-03 7.70978E-14 1.91233E-13
 -1      2507 2.00001E+01-2.28881E-03-1.22431E-06-1.45320E-03-5.76555E-14 2.38687E-13
 -1      2508 2.00000E+01-2.05735E-03 8.61626E-06-1.56101E-03-2.48855E-13 9.46793E-14
 -1      2509 1.99998E+01-1.79896E-03-5.29955E-06-1.59977E-03-2.74802E-13-2.01162E-13
 -1      2510 2.00001E+01-2.07919E-03-3.87655E-06-1.71887E-03-1.59224E-13 4.26995E-13
 -1      2511 1.99997E+01-1.53345E-03 5.93147E-06-1.59679E-03-1.95932E-13-3.55899E-13
 -1      2512 1.99995E+01-1.26038E-03-1.00819E-05-1.53095E-03-9.89188E-15-3.67841E-13
 -1      2513 1.99997E+01-1.60182E-03-3.82860E-06-1.83565E-03-1.21518E-13-2.81502E-13
 -1      2514 4.52937E+00-2.98044E+00 6.40443E-02 4.04174E+00-8.40716E-14 8.59368E-13
 -1      2515 3.27601E+00-2.82127E+00 9.04953E-02 1.84162E+00-1.54807E-14 9.35307E-13
 -1      2516 2.00004E+01-2.86253E-03 1.04027E-05-9.25771E-04 5.93651E-14-1.07659E-13
 -1      2517 2.00003E+01-2.69734E-03 2.43010E-06-1.12468E-03 1.63592E-13-5.43360E-14
 -1      2518 2.00004E+01-2.47714E-03-6.15823E-06-1.39223E-03 1.98306E-13 5.81039E-14
 -1      2519 2.00005E+01-3.06665E-03 9.92202E-06-4.21648E-04-1.15375E-13-1.45707E-13
 -1      2520 2.00004E+01-2.97940E-03 5.79718E-06-6.63976E-04-3.24098E-14-1.88214E-13
 -1      2521 2.00006E+01-2.76598E-03-7.85231E-06-9.02890E-04 1.01734E-13-2.40411E-13
 -1      2522 2.00005E+01-3.10682E-03 8.42956E-06 1.30103E-04-2.79315E-13-1.29413E-13
 -1      2523 2.00005E+01-3.10691E-03 8.35428E-06-1.26910E-04-3.01163E-13-1.05715E-13
 -1      2524 2.00007E+01-2.91716E-03-8.44450E-06-3.11535E-04-1.35885E-13-3.02695E-13
 -1      2525 2.00004E+01-2.97979E-03 6.06079E-06 6.67609E-04-1.79429E-13-7.14793E-15
 -1      2526 2.00005E+01-3.06761E-03 9.82860E-06 4.25121E-04-2.63077E-13 1.27592E-13
 -1      2527 2.00007E+01-2.91824E-03-8.45841E-06 3.14549E-04-1.85886E-13-1.38251E-14
 -1      2528 2.00003E+01-2.70406E-03 2.62388E-06 1.12266E-03 4.35529E-14-1.67896E-13
 -1      2529 2.00004E+01-2.86629E-03 1.04331E-05 9.26132E-04-1.18224E-13-1.61096E-13
 -1      2530 2.00006E+01-2.77065E-03-7.79934E-06 9.02376E-04-7.44999E-14 5.80728E-14
 -1      2531 2.00001E+01-2.29580E-03-1.32021E-06 1.45353E-03 7.65530E-14 2.55988E-13
 -1      2532 2.00002E+01-2.52125E-03 1.00978E-05 1.32281E-03 1.01013E-13-1.10110E-13
 -1      2533 2.00004E+01-2.48607E-03-6.48230E-06 1.39065E-03 8.17819E-15-1.18529E-13
 -1      2534 1.99998E+01-1.79502E-03-3.72297E-06 1.60054E-03-2.51649E-14 1.86629E-13
 -1      2535 2.00000E+01-2.05992E-03 8.56460E-06 1.56346E-03-1.26573E-14 3.68182E-13
 -1      2536 2.00001E+01-2.08461E-03-4.35252E-06 1.72185E-03-1.22873E-13 2.32378E-13
 -1      2537 1.99995E+01-1.29253E-03-6.29586E-06 1.54281E-03-1.66321E-13 7.97172E-14
 -1      2538 1.99997E+01-1.56810E-03 6.23598E-06 1.60997E-03-9.94218E-14-8.31725E-14
 -1      2539 1.99998E+01-1.64026E-03-4.75837E-06 1.84445E-03-2.40881E-13 5.05555E-14
 -1      2540 1.99994E+01-1.19821E-03-7.20529E-06 1.77237E-03-3.84777E-14 2.31306E-13
 -1      2541 2.23124E+01 2.18550E+00-4.59713E-03-3.30856E-01-2.81115E-13-1.82325E-13
 -1      2542 2.25717E+01 1.40755E+00-4.16006E-03 3.86412E-01-2.55959E-13-1.43738E-13
 -1      2543 2.17217E+01 1.62740E+00-6.02152E-03 6.32327E-01-2.15821E-13-2.03962E-13
 -1      2544 2.12469E+01 2.73045E+00-1.28386E-03-2.23413E-01-2.70306E-13-2.77908E-13
 -1      2545 3.01747E+01-9.81057E-01-1.23611E-01 1.85706E+00 5.52571E-13-3.90799E-13
 -1      2546 2.79592E+01-2.62126E+00-1.55581E-02 3.11979E+00 4.03830E-13-3.31069E-13
 -1      2547 3.00511E+00-2.82351E+00 7.45081E-02-3.17501E-01 1.79142E-13 9.91596E-13
 -1      2548 3.79677E+00-3.18608E+00 8.18366E-02-2.41294E+00 1.72612E-13 9.17044E-13
 -1      2549 1.99347E+01-5.99469E+00 8.94408E-03-5.70424E+00 7.83817E-14-2.08396E-13
 -1      2550 2.37407E+01-5.69343E+00-7.33055E-02-4.92848E+00 1.60427E-14-3.18648E-13
 -1      2551 6.81114E+00-2.61032E+00 1.29815E-01-5.27591E+00-1.89848E-13-8.50015E-13
 -1      2552 9.83202E+00-3.33013E+00 8.03526E-02-6.84486E+00-1.62426E-13-7.98195E-13
 -1      2553 3.03796E+01 2.00638E-01-6.84246E-02-3.81688E-01 2.52104E-13 3.26128E-14
 -1      2554 3.13994E+01 2.15818E+00-1.75061E-01 4.15281E-01 4.21080E-13 8.41549E-14
 -1      2555 1.62646E+01 4.29578E+00 4.76329E-03-9.27885E-01 8.38884E-14-4.88765E-13
 -1      2556 1.61109E+01 4.37720E+00-1.31232E-02-8.59801E-01 5.20696E-14-5.07665E-13
 -1      2557 1.60449E+01 4.20086E+00 1.10943E-02-8.19442E-01 3.35600E-14-4.83292E-13
 -1      2558 1.63882E+01 3.89987E+00 3.95699E-03-1.12717E+00 6.90103E-14-4.54625E-13
 -1      2559 3.36328E+01 6.98740E+00-1.18592E-01-4.76231E-01 8.49543E-13-2.04378E-13
 -1      2560 3.32523E+01 5.73450E+00-8.42884E-02-4.62654E-01 8.19678E-13-1.81466E-13
 -1      2561 1.31003E+01-4.53219E+00 3.22276E-02-7.18375E+00-1.64091E-13-6.80012E-13
 -1      2562 1.67689E+01-4.71722E+00-1.19207E-02-7.37225E+00-6.39488E-14-6.24823E-13
 -1      2563 3.27353E+01 3.63231E+00-9.65253E-02-2.30028E-01 7.49956E-13-2.80720E-13
 -1      2564 3.13887E+01 1.65406E+00-5.42239E-02 1.99861E-01 6.90656E-13-3.43225E-13
 -1      2565 3.23531E+01 7.78259E+00-1.60373E-01 1.44829E-01 8.17069E-13-8.88178E-14
 -1      2566 3.34403E+01 7.79236E+00-5.27895E-02-2.38565E-01 8.46767E-13-1.31173E-13
 -1      2567 3.18235E+01 4.83569E+00-1.01464E-01 9.75195E-01 6.16618E-13 7.82152E-14
 -1      2568 3.20402E+01 6.53824E+00-1.79208E-01 9.33497E-01 7.26086E-13 2.49800E-15
 -1      2569 2.73592E+01-3.06214E+00-7.18497E-03-3.14507E+00 3.54161E-14-1.14631E-13
 -1      2570 2.90850E+01-1.91747E+00-1.36615E-01-2.01267E+00 1.14294E-13-2.32037E-14
 -1      2571 2.85317E+01-4.10592E+00-3.02068E-02 2.94675E+00-3.93602E-13-5.11258E-14
 -1      2572 2.52224E+01-5.24452E+00-3.48891E-02 4.01648E+00-1.97647E-13-1.05860E-13
 -1      2573 2.06205E+01-4.74909E+00 7.99380E-03-6.21968E+00-6.40876E-14-4.28754E-13
 -1      2574 2.47055E+01-4.06266E+00-6.53325E-02-5.13712E+00 8.77076E-15-2.51105E-13
 -1      2575 2.59832E+01-4.01767E+00 3.07664E-02-3.60501E+00-1.25025E-13-6.86812E-14
 -1      2576 3.20194E+00-2.05391E+00 9.89946E-02-1.35125E+00-8.87242E-14-9.31311E-13
 -1      2577 3.93667E+00-2.34858E+00 4.07327E-02-3.48178E+00-9.74498E-14-9.14990E-13
 -1      2578 1.14844E+01-4.32244E+00 1.72190E-02 6.32823E+00 7.13596E-14-5.89806E-13
 -1      2579 8.32657E+00-3.83132E+00 7.83695E-02 5.25893E+00 8.56537E-14-7.30110E-13
 -1      2580 3.25576E+01-1.01771E+00-7.83180E-02 2.07364E-01-5.81181E-13 3.94684E-14
 -1      2581 3.04573E+01-2.89914E+00-6.37474E-02 1.26888E+00-4.95409E-13 2.94209E-14
 -1      2582 2.96205E+01-3.90089E+00 1.42160E-02 7.21479E-01-2.24432E-13 2.17687E-13
 -1      2583 3.34732E+01 5.70321E+00-1.29185E-01 1.57545E+00-7.19036E-13-3.04146E-13
 -1      2584 3.31538E+01 6.35822E+00-2.05192E-01 7.67798E-01-8.17790E-13-2.90858E-13
 -1      2585 3.17094E+01-1.64872E+00-6.05918E-02-2.86292E-01-2.41647E-13-2.85549E-13
 -1      2586 3.32889E+01 2.72943E-01-9.81941E-02 7.75031E-01-3.57658E-13-3.39229E-13
 -1      2587 2.73310E+01-4.72963E+00-1.19260E-02-2.83493E+00-1.93456E-14-2.96541E-13
 -1      2588 3.01724E+01-3.32717E+00-6.50944E-02-1.83910E+00-1.14228E-13-2.33147E-13
 -1      2589 3.06629E+01-2.96070E+00 2.17178E-02 2.54431E-01-9.59476E-15-4.04898E-13
 -1      2590 1.28425E+01-5.49684E+00 3.78616E-02-6.28786E+00 3.05755E-13 4.77327E-13
 -1      2591 1.62132E+01-5.75125E+00-2.37078E-02-6.59862E+00 1.70697E-13 7.64389E-14
 -1      2592 1.02018E+01-4.36127E+00 3.17263E-02 7.04938E+00-2.59237E-14 5.93442E-13
 -1      2593 7.26154E+00-3.75719E+00 9.15695E-02 5.76222E+00-1.46244E-13 7.91284E-13
 -1      2594 1.99993E+01-9.63779E-04 5.36768E-06-1.54304E-03-3.40091E-14-3.04230E-13
 -1      2595 1.74887E+01 3.83229E+00 1.09178E-02 1.74463E-02-8.15119E-14-4.50861E-13
 -1      2596 1.78503E+01 3.97163E+00-2.40436E-02-1.10058E-01-1.09315E-13-4.66540E-13
 -1      2597 1.86322E+01 3.76230E+00-1.20833E-02-1.31566E-01-1.63616E-13-4.40523E-13
 -1      2598 3.01285E+01-1.74106E-01-2.16548E-02 1.09418E-01 4.81636E-13-4.48586E-13
 -1      2599 2.22365E+01 3.45438E-01 7.52382E-03 7.81926E-01 2.59943E-13 5.94439E-13
 -1      2600 2.22081E+01 5.43114E-01 7.65050E-03 9.23000E-01 2.81863E-13 4.74554E-13
 -1      2601 2.20583E+01 1.99799E-01 1.00063E-03 6.64821E-01 2.52251E-13 5.45945E-13
 -1      2602 2.11796E+01-5.22257E+00 8.08031E-02 6.02823E+00-1.04888E-13-1.71120E-13
 -1      2603 1.39562E+01-4.26714E+00 1.30964E-01 6.97690E+00-2.39087E-13 3.26295E-13
 -1      2604 2.62586E+01-5.40053E+00 4.88019E-02-3.16753E+00 1.37806E-13-3.96724E-13
 -1      2605 3.05029E+01-5.75109E-01-1.04880E-01-2.27479E+00-4.31183E-13 3.32401E-13
 -1      2606 2.94778E+01-9.46899E-01-6.59077E-02 2.81429E+00-7.90618E-14-5.83991E-13
 -1      2607 4.96972E+00-1.54065E+00 1.74128E-01 7.47027E-01 2.72282E-14 8.79519E-13
 -1      2608 7.69977E+00-2.41982E+00 1.60831E-01 4.93124E+00-2.23460E-13 8.19234E-13
 -1      2609 1.94901E+01-5.68356E+00 9.84469E-02-5.81492E+00 3.36980E-13-1.96065E-13
 -1      2610 3.22782E+01-1.49320E-01-3.93357E-02-1.52623E+00-5.56818E-13 2.21434E-13
 -1      2611 2.02796E+01 3.08391E+00-6.46011E-03-1.21778E-01-2.30726E-13-3.48241E-13
 -1      2612 3.11489E+01 4.37251E+00-3.88022E-02-1.31144E+00 7.05436E-13-3.30208E-13
 -1      2613 2.18927E+01-2.68650E-02 4.97766E-04 6.10073E-01 1.96131E-13 4.31469E-13
 -1      2614 2.20066E+01 9.01319E-02 9.56150E-03 6.34632E-01 2.26636E-13 4.96055E-13
 -1      2615 2.20274E+01 1.53056E-01-4.01614E-03 7.16942E-01 2.39209E-13 3.94814E-13
 -1      2616 2.19742E+01-1.24839E-01-9.39113E-03 7.05731E-01 2.08145E-13 3.19754E-13
 -1      2617 1.49107E+01-4.53769E+00 1.27678E-01 6.30686E+00 1.32505E-13-4.06883E-13
 -1      2618 1.41867E+01-3.41189E+00 1.60364E-01 5.96490E+00 2.60791E-13-4.04038E-13
 -1      2619 1.78426E+01-4.90099E+00-6.61539E-02 6.00058E+00 2.39114E-13-2.16674E-13
 -1      2620 2.01853E+01-4.73831E+00 8.23169E-02-6.36785E+00-2.19907E-13-3.94299E-13
 -1      2621 1.99993E+01-1.05723E-03-1.90151E-06-1.82876E-03 5.06903E-14-2.64371E-13
 -1      2622 6.24110E+00-2.75464E+00 1.20729E-01-3.47136E+00 2.59417E-13 8.67084E-13
 -1      2623 1.30810E+01-3.38351E+00 9.64159E-02-6.83143E+00-2.87631E-13-6.83537E-13
 -1      2624 7.31411E+00-1.42481E+00 1.49976E-01-4.53465E+00-1.56680E-13-8.66363E-13
 -1      2625 3.01718E+01 3.15816E+00-4.75820E-02 1.49203E+00 4.10422E-13 2.08750E-13
 -1      2626 3.08429E+01 6.96962E+00-1.04268E-01 7.70224E-01 7.04381E-13 1.52378E-14
 -1      2627 2.88459E+01 6.93353E+00-1.75067E-01 5.20274E-01 7.05741E-13-8.69443E-15
 -1      2628 2.87606E+01 5.85649E+00-1.20790E-01 1.29606E+00 5.65881E-13 1.48014E-13
 -1      2629 2.40192E+01-5.66872E+00 2.34329E-02 4.52396E+00-1.07969E-14-1.43954E-13
 -1      2630 2.24287E+01-5.20101E+00 1.86667E-01 4.92649E+00 1.59484E-13-8.24514E-14
 -1      2631 2.60526E+01-5.52012E+00-1.62433E-01 2.95205E+00 6.72656E-14 1.27828E-13
 -1      2632 7.87839E+00-2.41195E+00 1.50696E-01 4.41700E+00 1.32200E-13-7.65110E-13
 -1      2633 2.92154E+01-1.27866E+00-5.73972E-03-3.03958E-01 7.58074E-14 9.29534E-14
 -1      2634 2.69920E+01-3.83907E+00 3.82214E-02 3.19802E+00 1.94234E-13-4.70762E-13
 -1      2635 3.01001E+01 3.32219E+00-1.34321E-01 2.76776E+00-4.93411E-13-5.44870E-13
 -1      2636 3.11045E+01 7.14490E+00-6.15312E-02-7.01372E-01 7.76601E-13-1.81022E-13
 -1      2637 4.20441E+00-1.47453E+00 1.40371E-01-6.10708E-02-3.26874E-14-8.96894E-13
 -1      2638 5.33111E+00-3.81216E-01 9.96514E-02-1.12586E+00-5.58754E-14-8.53762E-13
 -1      2639 5.41120E+00-6.93552E-01 1.14597E-01 1.38227E+00 6.62664E-14-8.16180E-13
 -1      2640 3.42584E+01 6.76066E+00-9.54502E-02-3.69850E-01-8.27116E-13-1.23623E-13
 -1      2641 3.35727E+01 6.14687E+00-6.06983E-02-1.37632E+00-7.72216E-13 1.40998E-14
 -1      2642 3.25420E+01 7.03797E-01 6.95035E-04 2.01348E+00-2.84259E-13-4.14224E-13
 -1      2643 3.41569E+01 2.38178E+00-8.16135E-02 1.43334E+00-5.23998E-13-2.78944E-13
 -1      2644 3.51054E+01 4.43256E+00-5.56335E-02 1.53941E+00-6.51090E-13-3.02036E-13
 -1      2645 1.19760E+01-4.58504E+00 1.05500E-01-6.17490E+00 4.08701E-13 5.06151E-13
 -1      2646 3.07251E+01 5.67193E+00-1.43880E-01 4.82344E-01-6.36574E-13-1.93470E-13
 -1      2647 1.87998E+01 2.33340E+00 9.75533E-03-1.00678E+00 1.65741E-13-3.14903E-13
 -1      2648 1.81917E+01 2.54348E+00-1.29147E-02-1.22017E+00 1.39669E-13-3.51755E-13
 -1      2649 1.75763E+01 2.90181E+00 1.60122E-02-1.38011E+00 1.21638E-13-3.74820E-13
 -1      2650 1.69675E+01 3.11912E+00-1.97505E-02-1.45609E+00 9.21399E-14-3.95880E-13
 -1      2651 1.79977E+01 2.23582E+00-9.25510E-03-1.56162E+00 9.97503E-14-3.41856E-13
 -1      2652 2.07668E+01 1.54633E+00-1.00870E-02 2.27262E-01 2.84212E-13-8.48657E-14
 -1      2653 2.03593E+01 1.71462E+00-4.73684E-04-7.07672E-02 2.61003E-13-1.49614E-13
 -1      2654 2.14440E+01 1.23144E+00-2.32855E-02 7.58018E-01 3.19746E-13 5.99030E-14
 -1      2655 2.11384E+01 1.43103E+00 3.30837E-03 5.14223E-01 2.97132E-13-1.37750E-14
 -1      2656 2.11870E+01 9.90646E-01 2.88370E-04 2.42874E-01 2.55587E-13-2.62386E-14
 -1      2657 2.21780E+01 6.48690E-01 7.88188E-04 9.81265E-01 2.88118E-13 3.67258E-13
 -1      2658 2.20356E+01 8.54708E-01-1.21203E-02 1.04725E+00 3.14919E-13 2.69144E-13
 -1      2659 2.20699E+01 4.23374E-01 2.50905E-03 8.18789E-01 2.53100E-13 3.40725E-13
 -1      2660 2.90544E+01 3.18437E-01-2.06907E-01-1.07609E+00 4.65530E-13-4.33931E-13
 -1      2661 2.86616E+01-1.68654E+00 1.14146E-03 7.96065E-02 2.88679E-13-5.04319E-13
 -1      2662 1.63241E+01-4.42561E+00-1.29647E-02 6.87656E+00-3.20549E-13 3.74839E-14
 -1      2663 1.31990E+01-3.26513E+00 1.66158E-01 6.49837E+00-3.76962E-13 3.30111E-13
 -1      2664 2.47807E+01-5.40727E+00 9.93690E-02-3.39459E+00 2.78791E-13-3.91423E-13
 -1      2665 2.74501E+01-5.02436E+00-1.17060E-01-1.65676E+00 1.87197E-13-4.07341E-13
 -1      2666 2.12318E+01 3.80306E-01 2.59815E-02 2.02870E+00 9.34149E-15-1.46896E-13
 -1      2667 2.15484E+01-2.29810E-01 1.58894E-02 2.22201E+00 7.02337E-14-1.33870E-13
 -1      2668 2.19564E+01-9.30736E-01 5.16269E-02 2.50777E+00 1.45212E-13-8.27441E-14
 -1      2669 2.26114E+01-1.77138E+00 2.50951E-02 2.44939E+00 1.67595E-13-3.94081E-14
 -1      2670 2.03819E+01-5.12083E-01-2.86496E-02 2.75363E+00 1.15800E-13-1.11390E-13
 -1      2671 2.36205E+01-2.67574E+00 8.86378E-02 2.47804E+00 1.56920E-13 2.42133E-14
 -1      2672 2.47734E+01-3.49471E+00 5.13373E-02 1.98104E+00 1.28002E-13 6.68701E-14
 -1      2673 2.15175E+01-2.41259E+00-3.93904E-02 3.29586E+00 1.90663E-13-8.66668E-14
 -1      2674 2.84551E+01 4.58489E+00-3.44672E-01-5.48316E-01-5.38153E-13-1.18419E-13
 -1      2675 2.06987E+01 2.17093E+00-5.31928E-03 5.04279E-01-2.03036E-13-2.60335E-13
 -1      2676 2.09362E+01 1.70757E+00 5.02581E-03 9.24816E-01-1.68567E-13-2.30564E-13
 -1      2677 2.48766E+01-3.76176E+00 6.83992E-03-1.76094E+00 3.55046E-13-4.06480E-13
 -1      2678 2.38256E+01-3.01423E+00 7.79636E-02-2.34948E+00 3.50002E-13-2.86670E-13
 -1      2679 2.27399E+01-2.20665E+00 1.65377E-02-2.52403E+00 3.06033E-13-1.98880E-13
 -1      2680 2.20168E+01-1.44204E+00 4.58888E-02-2.73316E+00 2.62130E-13-1.15700E-13
 -1      2681 2.17997E+01-2.97159E+00-5.77529E-02-3.29955E+00 3.94174E-13-1.99278E-13
 -1      2682 2.15196E+01-8.33482E-01 1.39538E-02-2.63053E+00 1.83273E-13-1.41583E-14
 -1      2683 2.10815E+01-3.32722E-01 1.69676E-02-2.63199E+00 1.46037E-13 3.45119E-14
 -1      2684 2.04463E+01-1.24159E+00-3.58049E-02-3.14624E+00 2.83459E-13-4.94396E-15
 -1      2685 2.09219E+01 2.73171E-02 1.12176E-02-2.44330E+00 6.15198E-14 1.73099E-14
 -1      2686 2.06670E+01 2.84798E-01 3.11777E-03-2.34143E+00 5.85600E-14-6.38928E-14
 -1      2687 1.99355E+01-1.00341E-01-1.48616E-02-2.74883E+00 7.28786E-14 1.85850E-14
 -1      2688 2.06564E+01 4.53936E-01 8.17495E-03-2.14436E+00-5.01093E-14-1.28426E-13
 -1      2689 2.04997E+01 5.54180E-01-2.24667E-03-1.99917E+00-5.56783E-14-1.46170E-13
 -1      2690 1.98296E+01 4.85530E-01-3.93668E-03-2.33104E+00-7.32728E-14-5.20596E-14
 -1      2691 2.05406E+01 6.06963E-01 6.60421E-03-1.81556E+00-3.45743E-14-1.84265E-13
 -1      2692 2.04304E+01 6.19907E-01-3.88201E-03-1.66097E+00 3.55724E-15-1.79747E-13
 -1      2693 1.98803E+01 7.17241E-01 1.38211E-03-1.94439E+00-9.22018E-14-8.18816E-14
 -1      2694 2.04776E+01 6.12198E-01 5.64237E-03-1.49768E+00-9.67976E-15-1.75015E-13
 -1      2695 2.03893E+01 5.83731E-01-4.01207E-03-1.35151E+00-2.71722E-14-1.12809E-13
 -1      2696 1.99676E+01 7.50741E-01 3.03745E-03-1.60040E+00 1.26609E-14-1.62953E-13
 -1      2697 2.04261E+01 5.49742E-01 4.94453E-03-1.21019E+00-5.48515E-14-6.20974E-14
 -1      2698 2.03501E+01 5.05958E-01-3.53369E-03-1.08081E+00-6.40936E-14-1.04811E-14
 -1      2699 2.00421E+01 6.88802E-01 2.95237E-03-1.29978E+00 1.08439E-14-1.11373E-13
 -1      2700 2.03734E+01 4.64209E-01 4.33208E-03-9.61175E-01-7.94087E-14 2.62701E-14
 -1      2701 2.03068E+01 4.18447E-01-2.87860E-03-8.51393E-01-1.99943E-15-6.84217E-14
 -1      2702 2.00901E+01 5.90248E-01 2.26423E-03-1.04145E+00-4.56922E-14 8.60457E-14
 -1      2703 2.03183E+01 3.77890E-01 3.74002E-03-7.52038E-01-4.44165E-14-1.15387E-13
 -1      2704 2.02607E+01 3.36141E-01-2.23905E-03-6.61549E-01-5.80958E-14-2.05263E-13
 -1      2705 2.01133E+01 4.85755E-01 1.50204E-03-8.23386E-01-5.23717E-14 2.40314E-14
 -1      2706 2.02639E+01 3.00439E-01 3.16758E-03-5.80406E-01-6.58751E-14-2.16207E-13
 -1      2707 2.02149E+01 2.64805E-01-1.69114E-03-5.07384E-01-7.35146E-14-2.42824E-13
 -1      2708 2.01180E+01 3.89495E-01 8.68563E-04-6.42479E-01-1.02628E-13-1.73843E-14
 -1      2709 2.02129E+01 2.34947E-01 2.63195E-03-4.42086E-01-8.34673E-14-3.57926E-13
 -1      2710 2.01723E+01 2.05647E-01-1.25243E-03-3.84118E-01-1.58563E-13-4.36430E-13
 -1      2711 2.01110E+01 3.06719E-01 4.10370E-04-4.94793E-01-1.33695E-13-7.13723E-14
 -1      2712 2.01675E+01 1.81407E-01 2.14896E-03-3.32267E-01-1.01558E-13-3.61883E-13
 -1      2713 2.01346E+01 1.57856E-01-9.14926E-04-2.86872E-01-8.80997E-14-2.62380E-13
 -1      2714 2.00977E+01 2.38248E-01 1.10246E-04-3.75984E-01-4.65381E-14-3.02192E-13
 -1      2715 2.01287E+01 1.38537E-01 1.72716E-03-2.46211E-01-1.32812E-13-2.21438E-13
 -1      2716 2.01026E+01 1.19889E-01-6.61628E-04-2.11094E-01-1.33479E-13-1.63372E-13
 -1      2717 2.00821E+01 1.82939E-01-6.83432E-05-2.81697E-01-6.82295E-14-1.42842E-13
 -1      2718 2.00966E+01 1.04685E-01 1.36826E-03-1.79595E-01-1.08953E-13-1.22506E-13
 -1      2719 2.00762E+01 9.00814E-02-4.74437E-04-1.52747E-01-6.41950E-14-1.35063E-13
 -1      2720 2.00664E+01 1.38964E-01-1.61861E-04-2.07833E-01-1.14572E-13 1.10621E-13
 -1      2721 2.00708E+01 7.82334E-02 1.06927E-03-1.28648E-01-9.43650E-14-2.07312E-13
 -1      2722 2.00552E+01 6.69019E-02-3.37422E-04-1.08369E-01-1.89870E-13-2.12972E-13
 -1      2723 2.00521E+01 1.04403E-01-1.99966E-04-1.50702E-01-6.91595E-14-6.60918E-14
 -1      2724 2.00505E+01 5.77490E-02 8.24515E-04-9.01720E-02-2.18344E-13-1.76417E-13
 -1      2725 2.00388E+01 4.90337E-02-2.37748E-04-7.50538E-02-2.16371E-13-2.10895E-13
 -1      2726 2.00397E+01 7.75022E-02-2.04435E-04-1.07087E-01-1.89526E-13-1.37192E-13
 -1      2727 2.00350E+01 4.20248E-02 6.27157E-04-6.15077E-02-1.82546E-13-1.77116E-13
 -1      2728 2.00264E+01 3.53837E-02-1.65559E-04-5.04001E-02 2.28265E-14-1.93669E-13
 -1      2729 2.00295E+01 5.67526E-02-1.90218E-04-7.42465E-02-1.57940E-13 1.01405E-13
 -1      2730 2.00233E+01 3.00678E-02 4.70189E-04-4.04767E-02 1.64645E-13-2.54468E-13
 -1      2731 2.00172E+01 2.50594E-02-1.13495E-04-3.24519E-02 1.17031E-13-1.81179E-13
 -1      2732 2.00213E+01 4.08980E-02-1.67040E-04-4.98885E-02 7.45371E-14 1.13357E-13
 -1      2733 2.00148E+01 2.10715E-02 3.46962E-04-2.53154E-02 6.58017E-14-4.57950E-14
 -1      2734 2.00105E+01 1.73391E-02-7.61356E-05-1.96325E-02 2.94171E-14-1.86377E-14
 -1      2735 2.00149E+01 2.89091E-02-1.40899E-04-3.21250E-02 2.02615E-13 2.57276E-13
 -1      2736 2.00087E+01 1.43854E-02 2.51470E-04-1.46117E-02 1.49506E-14 3.07834E-14
 -1      2737 2.00058E+01 1.16427E-02-4.95162E-05-1.06849E-02 8.94455E-14 7.64422E-14
 -1      2738 2.00101E+01 1.99501E-02-1.15264E-04-1.94219E-02-6.36527E-15 3.14062E-13
 -1      2739 2.00044E+01 9.48782E-03 1.78453E-04-7.24726E-03 2.26487E-13 4.01710E-14
 -1      2740 2.00025E+01 7.50579E-03-3.07384E-05-4.61790E-03 2.59305E-13 1.97388E-13
 -1      2741 2.00065E+01 1.33471E-02-9.19561E-05-1.05482E-02 1.81573E-13 4.88570E-13
 -1      2742 2.00016E+01 5.96202E-03 1.23411E-04-2.34568E-03 1.87289E-13 1.37279E-13
 -1      2743 2.00004E+01 4.55843E-03-1.76814E-05-6.58616E-04 1.33578E-13 1.16307E-13
 -1      2744 2.00039E+01 8.55945E-03-7.17656E-05-4.52848E-03 1.86711E-13 3.59959E-13
 -1      2745 1.99998E+01 3.47689E-03 8.25639E-05 7.71573E-04 1.25878E-13 1.56751E-13
 -1      2746 1.99992E+01 2.50765E-03-8.78987E-06 1.78796E-03 1.59706E-13 1.88060E-13
 -1      2747 2.00021E+01 5.15582E-03-5.48685E-05-5.99488E-04 1.28622E-13 1.77597E-13
 -1      2748 1.99987E+01 1.77088E-03 5.27862E-05 2.62310E-03 8.52350E-14 2.40377E-13
 -1      2749 1.99984E+01 1.12277E-03-2.92390E-06 3.17367E-03 1.45305E-13 1.96556E-13
 -1      2750 2.00009E+01 2.79409E-03-4.10978E-05 1.82780E-03 1.20733E-13 3.20918E-13
 -1      2751 1.99982E+01 6.38743E-04 3.15319E-05 3.59939E-03 1.33286E-13 8.40735E-14
 -1      2752 1.99981E+01 2.23373E-04 7.49174E-07 3.83607E-03 1.13722E-13 2.38178E-14
 -1      2753 2.00001E+01 1.20481E-03-3.01176E-05 3.20136E-03 7.56724E-14 2.84117E-13
 -1      2754 1.99980E+01-7.96188E-05 1.67584E-05 3.98931E-03 3.57207E-14-4.35366E-14
 -1      2755 1.99981E+01-3.30879E-04 2.83204E-06 4.02239E-03 1.60851E-14-1.43884E-13
 -1      2756 1.99996E+01 1.77103E-04-2.15297E-05 3.85609E-03 8.32424E-14 1.16461E-13
 -1      2757 1.99980E+01-5.08475E-04 6.85050E-06 4.00173E-03 1.08021E-13-2.50258E-13
 -1      2758 1.99981E+01-6.48789E-04 3.75408E-06 3.90900E-03 1.23552E-13-1.06412E-13
 -1      2759 1.99993E+01-4.53132E-04-1.49392E-05 4.03727E-03-2.58972E-14-6.99402E-14
 -1      2760 1.99981E+01-7.44203E-04 5.52505E-07 3.78316E-03 2.15484E-13-1.54485E-14
 -1      2761 1.99983E+01-8.14897E-04 3.81056E-06 3.61710E-03 4.46208E-14 2.09629E-13
 -1      2762 1.99992E+01-8.13222E-04-1.00012E-05 3.91975E-03 2.35186E-13-1.36938E-13
 -1      2763 1.99983E+01-8.61947E-04-3.08239E-06 3.43156E-03-3.34813E-13 4.28968E-13
 -1      2764 1.99986E+01-8.95262E-04 3.31596E-06 3.22510E-03-3.49952E-13 3.20814E-13
 -1      2765 1.99992E+01-1.00218E-03-6.41677E-06 3.62363E-03-8.43063E-14 2.07437E-13
 -1      2766 1.99986E+01-9.20435E-04-4.72176E-06 3.00762E-03-2.90359E-13 2.55841E-13
 -1      2767 1.99988E+01-9.42213E-04 2.10139E-06 2.77923E-03-2.95007E-13 1.54066E-13
 -1      2768 1.99992E+01-1.09672E-03-3.77720E-06 3.22610E-03-3.72088E-13 4.35874E-13
 -1      2769 1.99989E+01-9.66119E-04-5.05238E-06 2.54282E-03-1.26706E-13 2.60966E-13
 -1      2770 1.99991E+01-9.96866E-04-1.28147E-06 2.30141E-03 1.29529E-13 3.99407E-13
 -1      2771 1.99993E+01-1.15914E-03-2.31481E-06 2.77405E-03-1.01069E-13 4.44009E-13
 -1      2772 1.99991E+01-1.04808E-03-6.57772E-06 2.14083E-03 3.77849E-14 3.02886E-13
 -1      2773 1.99993E+01-1.13198E-03-3.78075E-06 1.93835E-03 2.11218E-14 3.41426E-13
 -1      2774 1.99996E+01-1.34373E-03 6.92454E-06 2.01766E-03-1.05825E-13 3.06367E-14
 -1      2775 1.99994E+01-1.23580E-03 2.37583E-07 2.36508E-03 6.89220E-14 5.74995E-13
 -1      2776 2.21799E+01-5.30858E-01-6.01347E-03 1.12608E+00 1.48810E-13 2.25706E-13
 -1      2777 2.22510E+01-5.53139E-01 5.58546E-03 9.88321E-01 1.37947E-13 2.06190E-13
 -1      2778 2.21036E+01-2.12918E-01 3.32779E-03 1.40570E+00 1.47868E-13 2.60648E-13
 -1      2779 2.22093E+01-4.18768E-01-5.18184E-03 1.31109E+00 1.51481E-13 2.52167E-13
 -1      2780 2.25921E+01-5.70584E-01 7.08666E-03 1.24567E+00 1.36487E-13 1.93390E-13
 -1      2781 2.21305E+01-4.91329E-01-8.31446E-03 8.24435E-01 1.59015E-13 1.93470E-13
 -1      2782 2.21924E+01-3.63798E-01 1.72406E-02 7.43405E-01 1.64217E-13 2.15812E-13
 -1      2783 2.24268E+01-6.26002E-01-6.22908E-04 8.76435E-01 1.48993E-13 1.71741E-13
 -1      2784 2.15535E+01 1.11705E+00 1.80903E-02 1.05863E+00 1.49726E-13 2.66040E-13
 -1      2785 2.16712E+01 7.66893E-01-1.61975E-02 1.30336E+00 1.52744E-13 2.97347E-13
 -1      2786 2.13173E+01 1.55372E+00 8.87119E-03 2.68033E-01 1.93899E-13 1.87895E-13
 -1      2787 2.13725E+01 1.38603E+00-8.68007E-03 6.68516E-01 1.76270E-13 2.21882E-13
 -1      2788 2.19777E+01 1.53753E+00-4.40168E-03 9.86845E-01 1.90284E-13 2.31099E-13
 -1      2789 2.13227E+01 1.45787E+00-6.72027E-03-6.64157E-01 1.87564E-13 1.16337E-13
 -1      2790 2.12888E+01 1.57831E+00 5.58769E-03-2.50386E-01 1.67817E-13 1.18184E-13
 -1      2791 2.17841E+01 1.91568E+00-1.45159E-02 2.70571E-02 2.23833E-13 1.71365E-13
 -1      2792 2.15661E+01 8.74337E-01-1.71230E-02-1.36272E+00 1.87641E-13 6.90535E-14
 -1      2793 2.14634E+01 1.21789E+00 1.66606E-02-1.09061E+00 2.14415E-13 7.96928E-14
 -1      2794 2.18841E+01 1.63571E+00-8.80007E-03-9.74702E-01 2.20469E-13 2.23714E-14
 -1      2795 2.18722E+01 1.19114E-01-1.76714E-02-1.59698E+00 8.56758E-14 3.50026E-14
 -1      2796 2.17553E+01 5.03965E-01 1.53610E-02-1.53593E+00 1.52395E-13 4.00166E-14
 -1      2797 2.21775E+01 8.49308E-01 6.57758E-03-1.58835E+00 1.91054E-13-4.82353E-14
 -1      2798 2.20583E+01-4.92551E-01-1.08429E-02-1.39763E+00 5.51209E-14-8.45544E-14
 -1      2799 2.19769E+01-2.13004E-01 6.05092E-03-1.51643E+00 6.23950E-14 1.10719E-14
 -1      2800 2.24117E+01-6.29289E-02 1.00228E-02-1.65033E+00 1.21214E-13-8.83503E-14
 -1      2801 2.20430E+01-8.02276E-01-1.76022E-03-9.51419E-01-2.47773E-14-2.99880E-14
 -1      2802 2.20208E+01-6.82733E-01-3.12561E-03-1.16173E+00 5.00333E-14-7.24698E-14
 -1      2803 2.24300E+01-7.26102E-01 9.79776E-03-1.28871E+00 6.85975E-14-1.05548E-13
 -1      2804 2.18628E+01-8.39056E-01 3.94673E-03-4.52256E-01-6.59453E-14-8.19836E-14
 -1      2805 2.18966E+01-8.51137E-01-8.23167E-03-6.77312E-01-6.61738E-14-6.97957E-14
 -1      2806 2.22197E+01-1.01680E+00 5.11168E-03-7.47123E-01-2.39486E-14-9.04732E-14
 -1      2807 2.15945E+01-7.03506E-01 6.23804E-03-2.56133E-02-4.11972E-14-6.29195E-14
 -1      2808 2.16656E+01-7.89360E-01-9.29734E-03-2.15848E-01-4.65441E-14-7.91332E-14
 -1      2809 2.18728E+01-1.00122E+00-1.32855E-03-2.23349E-01-2.44446E-14-1.75766E-13
 -1      2810 2.13080E+01-5.00164E-01 6.32944E-03 2.80288E-01-7.22617E-14-1.70794E-15
 -1      2811 2.13972E+01-6.09293E-01-7.72507E-03 1.43857E-01-3.21533E-14-1.88259E-14
 -1      2812 2.14931E+01-8.05226E-01-4.21886E-03 1.81387E-01-6.26847E-14-5.69092E-14
 -1      2813 2.10444E+01-2.98689E-01 5.23515E-03 4.65441E-01-1.97880E-13 4.78360E-14
 -1      2814 2.11374E+01-3.99954E-01-5.36143E-03 3.82739E-01-1.29383E-13 3.66467E-14
 -1      2815 2.11466E+01-5.50892E-01-4.84039E-03 4.46210E-01-1.29490E-13 6.72028E-14
 -1      2816 2.08205E+01-1.33750E-01 3.79915E-03 5.51655E-01-4.70885E-14 3.22046E-15
 -1      2817 2.09090E+01-2.13254E-01-3.14431E-03 5.13363E-01-1.08003E-13 4.92583E-14
 -1      2818 2.08612E+01-3.12492E-01-4.31446E-03 5.88028E-01-1.31852E-13 7.97017E-14
 -1      2819 2.06385E+01-1.53871E-02 2.47976E-03 5.66451E-01-7.18205E-14 4.47981E-14
 -1      2820 2.07185E+01-7.04452E-02-1.40353E-03 5.60532E-01-5.87118E-14 1.85752E-14
 -1      2821 2.06402E+01-1.23837E-01-3.40397E-03 6.37020E-01-9.30822E-14 8.54375E-14
 -1      2822 2.04937E+01 5.97921E-02 1.45074E-03 5.35030E-01-3.48251E-14 1.06426E-13
 -1      2823 2.05639E+01 2.62164E-02-1.72408E-04 5.50192E-01-3.56851E-14 1.04256E-13
 -1      2824 2.04747E+01 7.90659E-03-2.51777E-03 6.23187E-01-8.53423E-14 1.67603E-14
 -1      2825 2.03797E+01 1.00615E-01 7.25721E-04 4.77452E-01-4.44374E-14 9.43666E-14
 -1      2826 2.04399E+01 8.35606E-02 6.21037E-04 5.04542E-01 5.47453E-15 1.17278E-13
 -1      2827 2.03529E+01 8.91623E-02-1.80719E-03 5.71249E-01-6.63035E-14 5.24004E-14
 -1      2828 2.02902E+01 1.16833E-01 2.57958E-04 4.08291E-01 1.24241E-13-7.28276E-14
 -1      2829 2.03409E+01 1.11288E-01 1.07329E-03 4.40593E-01 3.50489E-15-3.44151E-14
 -1      2830 2.02635E+01 1.31282E-01-1.29150E-03 4.99702E-01 5.68383E-14-9.67277E-14
 -1      2831 2.02201E+01 1.16992E-01-1.73250E-05 3.37335E-01 1.38010E-13-1.67605E-13
 -1      2832 2.02622E+01 1.18744E-01 1.27771E-03 3.70321E-01 1.25320E-13-1.26811E-13
 -1      2833 2.01976E+01 1.45910E-01-9.36980E-04 4.21417E-01 1.45941E-13-2.04315E-13
 -1      2834 2.01654E+01 1.07728E-01-1.60037E-04 2.70596E-01 1.21581E-13-1.24640E-13
 -1      2835 2.01997E+01 1.13595E-01 1.31325E-03 3.01493E-01 1.57877E-13-1.36920E-13
 -1      2836 2.01485E+01 1.42928E-01-6.99102E-04 3.44713E-01 9.80335E-14-2.65952E-13
 -1      2837 2.01227E+01 9.37757E-02-2.17736E-04 2.11322E-01-3.07018E-14 7.15888E-14
 -1      2838 2.01503E+01 1.01535E-01 1.24239E-03 2.38649E-01-8.78556E-15 5.01782E-15
 -1      2839 2.01115E+01 1.29870E-01-5.38943E-04 2.74480E-01 1.95691E-14-1.35868E-13
 -1      2840 2.00897E+01 7.82781E-02-2.24954E-04 1.60857E-01-7.04541E-14 9.96786E-14
 -1      2841 2.01115E+01 8.64872E-02 1.11188E-03 1.84020E-01-3.65119E-16 5.48482E-14
 -1      2842 2.00835E+01 1.12037E-01-4.27906E-04 2.13162E-01-2.83540E-14-5.24557E-14
 -1      2843 2.00644E+01 6.31611E-02-2.05157E-04 1.19315E-01-1.38244E-13-6.51853E-14
 -1      2844 2.00813E+01 7.09593E-02 9.54758E-04 1.38293E-01-9.42365E-14-2.68425E-14
 -1      2845 2.00621E+01 9.29075E-02-3.47069E-04 1.61556E-01-3.08741E-14-1.08540E-13
 -1      2846 2.00451E+01 4.94856E-02-1.73376E-04 8.60870E-02-1.27788E-13 4.99123E-14
 -1      2847 2.00580E+01 5.64194E-02 7.93060E-04 1.01191E-01-1.80490E-13-2.18242E-14
 -1      2848 2.00456E+01 7.45787E-02-2.84831E-04 1.19419E-01-1.66704E-13-1.22978E-13
 -1      2849 2.00307E+01 3.77313E-02-1.38626E-04 6.01889E-02-1.14448E-13-2.49229E-14
 -1      2850 2.00403E+01 4.36160E-02 6.40341E-04 7.18968E-02-5.81716E-14-1.98567E-15
 -1      2851 2.00331E+01 5.81786E-02-2.34504E-04 8.59120E-02-5.83025E-14-2.07631E-13
 -1      2852 2.00201E+01 2.80108E-02-1.05869E-04 4.04950E-02 2.59921E-14-3.34162E-14
 -1      2853 2.00271E+01 3.28283E-02 5.04016E-04 4.93439E-02 3.63021E-15 2.59843E-14
 -1      2854 2.00235E+01 4.41880E-02-1.92425E-04 5.99095E-02-3.91304E-14-3.52548E-13
 -1      2855 2.00124E+01 2.02221E-02-7.74662E-05 2.58849E-02 8.47897E-14-9.80282E-14
 -1      2856 2.00174E+01 2.40486E-02 3.87260E-04 3.24039E-02 7.99412E-14-6.83653E-14
 -1      2857 2.00163E+01 3.26824E-02-1.56646E-04 4.02017E-02-2.23010E-16-2.11278E-13
 -1      2858 2.00070E+01 1.41514E-02-5.42013E-05 1.53269E-02 1.33898E-13-1.22535E-14
 -1      2859 2.00104E+01 1.71101E-02 2.90500E-04 1.99994E-02 1.21126E-13-1.21292E-14
 -1      2860 2.00110E+01 2.35043E-02-1.26117E-04 2.56194E-02 5.51235E-14 2.04724E-14
 -1      2861 2.00032E+01 9.54066E-03-3.59692E-05 7.91876E-03 2.14039E-13-5.29060E-14
 -1      2862 2.00055E+01 1.17702E-02 2.12507E-04 1.11643E-02 2.28431E-13-1.72086E-14
 -1      2863 2.00071E+01 1.63779E-02-1.00207E-04 1.51041E-02 2.11934E-13 1.66674E-13
 -1      2864 2.00008E+01 6.12748E-03-2.22201E-05 2.90115E-03 1.35843E-13-7.94960E-14
 -1      2865 2.00022E+01 7.76444E-03 1.51184E-04 5.07075E-03 2.13521E-13-1.42323E-13
 -1      2866 2.00042E+01 1.09841E-02-7.84500E-05 7.73981E-03 2.52875E-13 6.81325E-14
 -1      2867 1.99992E+01 3.66841E-03-1.22315E-05-3.45413E-04 1.25921E-14-1.13714E-13
 -1      2868 2.00000E+01 4.83713E-03 1.04081E-04 1.03280E-03 4.56495E-14-1.59213E-13
 -1      2869 2.00022E+01 7.00494E-03-6.04236E-05 2.76100E-03 1.67626E-13 5.00645E-14
 -1      2870 1.99983E+01 1.94971E-03-5.26624E-06-2.31307E-03 5.30403E-15-2.05396E-13
 -1      2871 1.99987E+01 2.75788E-03 6.87294E-05-1.50158E-03 8.24542E-15-1.32147E-13
 -1      2872 2.00009E+01 4.14831E-03-4.57087E-05-4.53979E-04 4.19940E-14 1.41876E-13
 -1      2873 1.99979E+01 7.90871E-04-6.56547E-07-3.38321E-03-6.80962E-14-8.35498E-14
 -1      2874 1.99980E+01 1.32855E-03 4.28355E-05-2.96550E-03 2.12859E-14-1.91925E-13
 -1      2875 2.00000E+01 2.15959E-03-3.38812E-05-2.39722E-03-1.05425E-14 7.16551E-15
 -1      2876 1.99978E+01 4.37783E-05 2.15728E-06-3.84412E-03-1.99482E-15-5.62968E-14
 -1      2877 1.99977E+01 3.84334E-04 2.43805E-05-3.69045E-03-9.33416E-14-1.74161E-14
 -1      2878 1.99995E+01 8.24740E-04-2.45251E-05-3.44905E-03-7.15001E-14 1.10442E-13
 -1      2879 1.99979E+01-4.10693E-04 3.62226E-06-3.90774E-03-4.26111E-14-2.15997E-15
 -1      2880 1.99977E+01-2.08592E-04 1.16570E-05-3.92366E-03 1.07817E-14-1.30179E-13
 -1      2881 1.99992E+01-3.14088E-05-1.72502E-05-3.89623E-03 4.43521E-14-7.74712E-14
 -1      2882 1.99981E+01-6.67138E-04 4.07830E-06-3.72465E-03-6.60493E-14-1.70370E-14
 -1      2883 1.99978E+01-5.57062E-04 3.28452E-06-3.84395E-03-4.24974E-14 6.72758E-14
 -1      2884 1.99991E+01-5.49489E-04-1.17013E-05-3.94912E-03-7.42137E-14 2.46106E-13
 -1      2885 1.99983E+01-8.00326E-04 3.77254E-06-3.39686E-03-9.25837E-14 7.50996E-14
 -1      2886 1.99981E+01-7.45659E-04-1.84438E-06-3.57564E-03-1.13980E-13 5.49827E-14
 -1      2887 1.99990E+01-8.41082E-04-7.56984E-06-3.75680E-03-2.14866E-13 3.24783E-13
 -1      2888 1.99986E+01-8.69461E-04 2.90545E-06-2.98842E-03-1.37767E-13-9.05795E-14
 -1      2889 1.99984E+01-8.41252E-04-4.58222E-06-3.20017E-03 3.07873E-14 2.35360E-14
 -1      2890 1.99991E+01-9.94316E-04-4.62114E-06-3.41996E-03 8.41559E-16 2.13581E-13
 -1      2891 1.99989E+01-9.21843E-04 1.35327E-06-2.53327E-03-1.06585E-13-1.97513E-13
 -1      2892 1.99987E+01-8.98732E-04-6.22739E-06-2.76593E-03-2.20670E-13-2.40819E-13
 -1      2893 1.99992E+01-1.07822E-03-2.45580E-06-3.00252E-03-2.71565E-14 1.14387E-13
 -1      2894 1.99992E+01-1.00861E-03-1.97689E-06-2.06172E-03-6.10371E-14-2.23792E-13
 -1      2895 1.99990E+01-9.69914E-04-6.86892E-06-2.31053E-03-7.69878E-14-1.46532E-13
 -1      2896 1.99993E+01-1.15847E-03 1.29101E-06-2.54794E-03-1.62996E-13-1.99202E-13
 -1      2897 1.99995E+01-1.26482E-03 5.36405E-06-2.07216E-03-1.78617E-14-3.70460E-13
 -1      2898 2.00003E+01-2.08946E-03 9.78613E-06-1.84844E-03 6.15750E-14 4.34632E-13
 -1      2899 2.00001E+01-1.88258E-03-2.17076E-06-1.96102E-03 1.13546E-14 3.56370E-13
 -1      2900 2.00009E+01-2.67804E-03 8.30956E-06-8.50218E-04 8.91506E-14-1.94659E-13
 -1      2901 2.00008E+01-2.57835E-03 1.50996E-09-1.13635E-03 1.69843E-13-1.56624E-13
 -1      2902 1.99999E+01-1.70507E-03 6.83911E-06-2.05303E-03 5.68831E-14 1.83629E-14
 -1      2903 1.99997E+01-1.46570E-03-2.66282E-06-2.05667E-03 9.42026E-14-3.99170E-13
 -1      2904 1.99996E+01-1.40172E-03-6.44528E-06-2.30748E-03 5.95054E-14-1.91979E-13
 -1      2905 2.00001E+01-1.75795E-03-4.51342E-06-2.20274E-03 1.15413E-13 2.31366E-13
 -1      2906 2.00007E+01-2.43908E-03 9.22918E-06-1.42419E-03 9.35671E-14 1.81672E-14
 -1      2907 2.00005E+01-2.28524E-03-3.52036E-06-1.63821E-03 3.87467E-14 3.35803E-13
 -1      2908 2.00006E+01-2.10895E-03 1.38464E-06-1.90637E-03-6.33688E-15 5.44565E-13
 -1      2909 2.00010E+01-2.41633E-03-6.91835E-06-1.40022E-03 8.18863E-14 1.18125E-15
 -1      2910 2.00010E+01-2.75088E-03 3.78852E-06 5.05000E-04-4.28057E-14 2.35139E-13
 -1      2911 2.00011E+01-2.78481E-03 6.13453E-06 1.83498E-04-2.44928E-14-1.45406E-13
 -1      2912 2.00008E+01-2.58501E-03 9.26014E-07 1.12921E-03 4.85306E-14-5.51860E-14
 -1      2913 2.00010E+01-2.68310E-03 8.28137E-06 8.47327E-04-2.85792E-14 2.08309E-13
 -1      2914 2.00013E+01-2.61468E-03-5.81200E-06 7.33607E-04 7.42443E-14 1.34025E-13
 -1      2915 2.00005E+01-2.29358E-03-2.66711E-06 1.64213E-03-3.90287E-14-2.11751E-13
 -1      2916 2.00007E+01-2.45080E-03 9.73310E-06 1.42263E-03 4.29494E-14-6.45015E-14
 -1      2917 2.00010E+01-2.42859E-03-5.80884E-06 1.39241E-03 8.54325E-14-1.03078E-13
 -1      2918 2.00001E+01-1.89457E-03-3.54324E-06 1.96458E-03-1.28058E-13 1.70902E-13
 -1      2919 2.00003E+01-2.09852E-03 9.79538E-06 1.84554E-03-6.13336E-14 7.09818E-14
 -1      2920 2.00006E+01-2.12385E-03-5.07738E-06 1.91119E-03-2.64077E-14-6.05908E-14
 -1      2921 2.31817E+01-5.17642E+00-6.19577E-02 4.95119E+00-1.10842E-13-4.23474E-13
 -1      2922 2.01168E+01-4.89417E+00 1.22916E-01 5.96204E+00-2.96013E-13-1.69076E-13
 -1      2923 9.96784E+00-2.12850E+00 6.24196E-02 5.64153E+00-2.97651E-13 6.79123E-13
 -1      2924 7.76970E+00-1.12646E+00 1.77030E-01 3.79443E+00-2.15321E-13 7.19119E-13
 -1      2925 1.28624E+01-2.32393E+00 1.07264E-01-6.39295E+00-2.96721E-13-5.99396E-13
 -1      2926 1.60228E+01-3.67273E+00 7.26474E-02-6.91109E+00-3.20938E-13-5.39124E-13
 -1      2927 3.25527E+01 5.00021E+00 3.91514E-02-1.95808E+00-7.63112E-13 1.42497E-13
 -1      2928 1.89349E+01-4.28914E+00 9.93225E-02-6.32882E+00-3.32984E-13-3.84717E-13
 -1      2929 2.19550E+01-4.65169E+00-4.77927E-02-5.45613E+00-2.75280E-13-1.84502E-13
 -1      2930 1.84989E+01-3.52969E+00 1.10231E-01-6.01932E+00-3.74395E-13-3.78482E-13
 -1      2931 2.86105E+01 1.71714E+00-6.18817E-02 1.75418E+00 2.80304E-13 2.83884E-13
 -1      2932 2.84248E+01 3.69674E+00-2.08007E-01 1.87484E+00 4.14030E-13 2.61388E-13
 -1      2933 2.00011E+01-2.78333E-03 6.15253E-06-1.82284E-04-1.59569E-13-3.78525E-13
 -1      2934 2.00010E+01-2.74851E-03 3.56444E-06-5.03005E-04 7.27684E-14-4.76660E-13
 -1      2935 2.00013E+01-2.67629E-03-6.88668E-06 9.60476E-08 5.91414E-15-2.23026E-13
 -1      2936 2.78257E+01-4.00117E+00-9.58396E-03-2.51677E-02 2.15231E-13-5.15324E-13
 -1      2937 2.65867E+01-4.15458E+00 8.20565E-02-1.02800E+00 3.14686E-13-4.99802E-13
 -1      2938 6.26859E+00-7.04656E-01 1.14580E-01 1.79924E+00-3.98570E-14 7.15983E-13
 -1      2939 6.20911E+00-6.56886E-01 1.65451E-01-4.96084E-01 1.13937E-13 7.96280E-13
 -1      2940 7.49823E+00 5.77018E-02 2.44070E-01-3.05138E+00-1.10308E-13-8.30697E-13
 -1      2941 9.55937E+00-5.35360E-01 9.57342E-02-4.77731E+00-1.75512E-13-7.32636E-13
 -1      2942 2.95232E+01 4.79928E+00-2.00182E-01-1.56862E+00 6.58640E-13-2.15619E-13
 -1      2943 2.93666E+01 3.15893E+00-8.45608E-02-1.77297E+00 5.80203E-13-3.43489E-13
 -1      2944 3.08575E+01 4.21517E-02-7.50303E-02 2.44900E+00-2.28956E-13-5.10925E-13
 -1      2945 3.14403E+01 1.62698E+00-2.09352E-01 2.83442E+00-3.60018E-13-5.27467E-13
 -1      2946 2.09651E+01 1.30318E+00 8.21299E-03 1.32518E+00-1.17043E-13-1.90577E-13
 -1      2947 2.10872E+01 8.46367E-01 7.06670E-03 1.68312E+00-6.12134E-14-1.77260E-13
 -1      2948 1.99834E+01 8.30200E-01-1.82555E-02 2.01594E+00-5.81772E-15-1.67793E-13
 -1      2949 1.98793E+01 1.83861E+00 3.98243E-03 1.23186E+00-1.08471E-13-2.34917E-13
 -1      2950 2.74109E+01-3.62033E+00-1.49156E-01 1.91178E+00 1.64594E-13-4.99309E-13
 -1      2951 2.56694E+01-4.52456E+00 4.22901E-02 3.34094E+00 5.87030E-14-4.89692E-13
 -1      2952 1.01890E+01-1.87763E+00 1.11781E-01 4.91165E+00 2.28872E-13-6.25860E-13
 -1      2953 7.37540E+00-1.07657E+00 1.86830E-01 3.24328E+00 1.59622E-13-7.62834E-13
 -1      2954 2.45855E+01-4.40366E+00 8.24002E-02-4.02697E+00-2.10484E-13-4.99739E-14
 -1      2955 2.63699E+01-3.85470E+00-1.29926E-01-2.41893E+00-1.29466E-13 2.78111E-14
 -1      2956 2.32610E+01-4.27962E+00 5.40734E-02-4.32249E+00-2.73892E-13-1.17930E-13
 -1      2957 2.78587E+01-2.29451E+00 3.53453E-02-3.63626E-01-6.56801E-14 1.35905E-13
 -1      2958 2.82631E+01-8.33600E-01-1.83094E-01 7.79998E-01 1.09780E-13 2.32175E-13
 -1      2959 1.98966E+01 1.88103E+00 2.67709E-04-4.10777E-01 2.47341E-13-2.09976E-13
 -1      2960 1.93703E+01 2.06746E+00-5.22968E-03-7.05954E-01 2.03094E-13-2.66344E-13
 -1      2961 1.93059E+01 1.65959E+00-1.13314E-02-1.06267E+00 1.61488E-13-2.60724E-13
 -1      2962 2.03926E+01 1.26085E+00-4.87299E-03-3.90726E-01 2.15476E-13-1.56508E-13
 -1      2963 3.16890E+01 4.34585E+00-5.67789E-02 2.18200E+00-6.04156E-13-3.93352E-13
 -1      2964 1.58647E+01 3.96844E+00-9.39275E-03-3.97277E-01 1.29829E-14-4.86054E-13
 -1      2965 1.62528E+01 3.88204E+00-1.62720E-03-1.53435E-01-1.04536E-14-4.71919E-13
 -1      2966 2.18731E+01 4.08649E-01 1.40862E-02 1.44324E+00 1.12539E-13 2.85272E-13
 -1      2967 2.20059E+01 6.17222E-02-1.36516E-02 1.48784E+00 1.16676E-13 2.63586E-13
 -1      2968 2.25591E+01-9.33604E-02 7.20691E-03 1.54509E+00 1.37373E-13 2.41436E-13
 -1      2969 2.23146E+01 7.27287E-01 7.08436E-03 1.52342E+00 1.31589E-13 2.76820E-13
 -1      2970 1.94896E+01 3.13409E+00-2.85487E-03 1.79807E-01-1.83964E-13-3.48896E-13
 -1      2971 1.08829E+01-3.30742E+00 1.56299E-01-5.52639E+00 4.43978E-13 5.28744E-13
 -1      2972 1.43778E+01-4.24897E+00 1.70411E-02-6.16974E+00 5.34295E-13 2.21573E-13
 -1      2973 1.84454E+01-4.91250E+00 1.63172E-01-5.72254E+00 4.74509E-13-1.06914E-13
 -1      2974 2.13149E+01-5.57255E+00-5.87629E-02-5.12916E+00 3.50053E-13-3.58193E-13
 -1      2975 2.86835E+01 6.78241E+00-2.13286E-01-6.40796E-01 7.50983E-13-7.37015E-14
 -1      2976 2.92395E+01 6.10782E+00-1.59686E-01-1.28354E+00 7.15400E-13-1.55820E-13
 -1      2977 2.78448E+01 4.92691E+00-1.07195E-01-1.61162E+00 6.32272E-13-7.22200E-14
 -1      2978 6.97397E+00-1.07939E+00 1.59463E-01-2.46148E+00 2.23432E-13 8.15459E-13
 -1      2979 8.45486E+00-2.24592E+00 1.06784E-01-4.43399E+00 2.92502E-13 6.60083E-13
 -1      2980 1.12920E+01-1.89364E+00 1.74374E-01-4.55740E+00 3.82125E-13 4.66405E-13
 -1      2981 2.99748E+01-2.39959E+00-1.71723E-01 1.68516E+00 5.62050E-15-4.99739E-13
 -1      2982 2.91481E+01-3.47846E+00 1.06505E-02 6.27250E-01 1.35817E-13-4.98823E-13
 -1      2983 1.66883E+01 2.91880E+00 1.47827E-03-1.68235E+00 4.91391E-14-3.89762E-13
 -1      2984 1.64426E+01 3.49299E+00 1.48664E-02-1.39156E+00 6.02395E-14-4.30538E-13
 -1      2985 1.60173E+01 3.65986E+00-2.05918E-02-1.29752E+00 4.14243E-14-4.50469E-13
 -1      2986 2.18038E+01 1.10232E+00 6.94791E-03 9.65559E-01 3.11963E-13 1.68523E-13
 -1      2987 2.82545E+01 1.34029E+00-6.71701E-02-1.71252E+00 4.24299E-13-3.32540E-13
 -1      2988 2.10452E+01-4.76659E+00 1.12455E-01 4.97672E+00 2.54852E-13-1.24389E-13
 -1      2989 1.29108E+01-2.16435E+00 1.68535E-01 5.62583E+00-3.95350E-13 3.78905E-13
 -1      2990 2.34451E+01-4.55817E+00-6.99251E-02 3.57723E+00 1.90944E-13 7.26502E-15
 -1      2991 2.59123E+01-4.26913E+00 7.65584E-02 1.86102E+00 1.33192E-13 1.59865E-13
 -1      2992 2.43332E+01-4.61355E+00-7.39859E-02-2.71583E+00 3.74548E-13-3.41956E-13
 -1      2993 2.73849E+01-4.21588E+00 2.95111E-02 1.00577E+00 1.06859E-15 2.17798E-13
 -1      2994 1.69892E+01-3.95495E+00 1.16840E-01-5.56049E+00 5.23442E-13 2.49800E-16
 -1      2995 1.53127E+01-2.67413E+00 1.03948E-01 5.29518E+00 3.39298E-13-3.16691E-13
 -1      2996 1.27656E+01-2.24795E+00 1.92732E-01 5.35185E+00 2.75432E-13-4.96700E-13
 -1      2997 1.16305E+01-1.08169E+00 9.72906E-02 4.46460E+00 2.56364E-13-5.24941E-13
 -1      2998 1.90024E+01 2.91024E+00-4.87113E-03 4.74584E-01-1.35523E-13-3.40438E-13
 -1      2999 2.00013E+01-2.60963E-03-6.57658E-06-7.37747E-04-1.12809E-15-4.07677E-13
 -1      3000 1.68412E+01 3.62419E+00-2.15068E-02 1.93874E-01-2.88821E-14-4.43381E-13
 -1      3001 1.76393E+01 3.40393E+00 1.20069E-02 3.61371E-01-7.92578E-14-4.04538E-13
 -1      3002 1.63796E+01 3.48648E+00 1.72249E-02 2.06794E-01-5.07428E-15-4.36433E-13
 -1      3003 1.91843E+01-4.27931E+00 1.03426E-01 5.82843E+00-3.59310E-13-1.48052E-13
 -1      3004 2.45599E+01-4.66682E+00 6.00661E-02 3.50153E+00-1.18121E-13-4.56628E-13
 -1      3005 1.99997E+01-1.52456E-03-1.32228E-06 2.03345E-03-3.08740E-13-3.14452E-14
 -1      3006 1.99999E+01-1.72699E-03 7.98904E-06 2.02187E-03-2.07803E-13 3.03816E-14
 -1      3007 2.00001E+01-1.79089E-03-2.87255E-06 2.17672E-03 2.88025E-14 1.45834E-13
 -1      3008 1.99997E+01-1.46597E-03-2.54191E-06 2.21316E-03-1.20282E-13 2.55728E-13
 -1      3009 2.21779E+01-3.61119E-01-1.98873E-02 6.46614E-01 1.72629E-13 1.46874E-13
 -1      3010 2.20407E+01-1.65410E-01-4.94621E-03 6.61869E-01 1.81967E-13 2.03524E-13
 -1      3011 8.78184E+00-3.22998E-01 1.93558E-01 2.65397E+00-1.33296E-13 6.81510E-13
 -1      3012 2.20278E+01 7.51525E-03 5.05439E-03 6.63957E-01 2.12149E-13 2.22666E-13
 -1      3013 7.78920E+00 5.11387E-01 1.43903E-01-1.82846E+00-2.56531E-14-7.86538E-13
 -1      3014 2.66394E+01 3.11585E+00-5.92063E-02 1.97095E+00 3.19779E-13 2.44214E-13
 -1      3015 2.77862E+01 4.46300E+00-1.12737E-01 1.82526E+00 4.20428E-13 2.37491E-13
 -1      3016 2.65920E+01 4.89821E+00-1.67232E-01 1.52028E+00 4.61950E-13 2.03216E-13
 -1      3017 1.18468E+01-9.55933E-01 1.72660E-01-5.46623E+00-2.34764E-13-6.32772E-13
 -1      3018 1.43118E+01-1.42859E+00 8.56603E-02-5.62028E+00-2.96825E-13-4.94146E-13
 -1      3019 1.12214E+01 2.05844E-01 5.32455E-02-4.28046E+00-1.46744E-13-6.33896E-13
 -1      3020 2.97449E+01-3.17096E+00-1.51784E-01-1.12973E+00-2.22881E-13 3.22575E-13
 -1      3021 2.75064E+01 2.57913E-01-4.98719E-02 1.55346E+00 1.26253E-13 2.74697E-13
 -1      3022 2.75569E+01-2.71776E+00-7.03424E-03 5.21255E-01 1.24806E-13-4.73732E-13
 -1      3023 2.18068E+01 7.25455E-01 7.60303E-03 7.36909E-01 2.72179E-13 1.42119E-13
 -1      3024 2.65540E+01 5.95378E+00-1.26372E-01 5.33427E-01 5.94330E-13 1.72033E-13
 -1      3025 2.78281E+01 6.50766E+00-1.47621E-01-4.98309E-02 7.10237E-13 5.29056E-14
 -1      3026 2.65178E+01 5.75113E+00-1.17745E-01-5.08630E-01 6.68202E-13 1.12028E-13
 -1      3027 2.35437E+01-5.04208E+00 6.45303E-02-3.66355E+00 3.82847E-13-3.36474E-13
 -1      3028 1.57662E+01 3.90639E+00 4.02148E-03-1.01359E+00 4.09806E-14-4.52489E-13
 -1      3029 1.57029E+01 3.96463E+00-1.38241E-02-7.93256E-01 8.16762E-15-4.71520E-13
 -1      3030 1.55892E+01 3.73399E+00 2.00768E-02-5.92110E-01 7.50257E-15-4.68054E-13
 -1      3031 1.57592E+01 3.50140E+00 1.45855E-02-1.31826E+00 1.86922E-14-4.41553E-13
 -1      3032 8.28974E+00-2.67652E-01 1.94151E-01-1.40779E+00 1.44922E-13 7.45654E-13
 -1      3033 2.87369E+01-3.75910E+00 8.09338E-02 1.53780E-01-1.27915E-13 3.01953E-13
 -1      3034 7.91131E+00-2.12966E-01 1.82731E-01 2.16472E+00 1.25171E-13-7.41268E-13
 -1      3035 2.65831E+01-3.01816E+00 4.18747E-03-1.10952E+00-1.41678E-13 1.13590E-13
 -1      3036 2.15881E+01 4.32033E-01-2.09131E-02 3.01282E-01 2.25683E-13 1.17439E-14
 -1      3037 2.13204E+01 5.92981E-01 7.66119E-03 3.01789E-02 2.06279E-13-4.99488E-14
 -1      3038 2.20424E+01 2.73489E-01 9.96649E-03 7.73198E-01 2.43331E-13 2.96858E-13
 -1      3039 2.69805E+01 2.16103E+00-1.54567E-01-2.08283E+00 4.57169E-13-2.30538E-13
 -1      3040 2.72118E+01 1.74893E-01 9.75613E-03-1.71650E+00 3.16150E-13-3.23672E-13
 -1      3041 2.00617E+01-3.62670E+00 8.30237E-02 4.62457E+00 2.42729E-13-1.15588E-13
 -1      3042 2.20326E+01-4.21207E+00 1.51794E-01-4.08588E+00 4.34083E-13-3.55920E-13
 -1      3043 8.12934E+00 1.03371E+00 1.74916E-01-1.04048E-01 4.09542E-14-7.42462E-13
 -1      3044 9.48153E+00 1.18712E+00 9.13708E-02-1.90362E+00-4.29700E-14-7.12846E-13
 -1      3045 1.92668E+01-1.19841E+00 4.93634E-02-3.46202E+00 3.58267E-13-9.15119E-14
 -1      3046 1.88076E+01-4.79398E-01 2.41699E-02-3.23107E+00 2.35080E-13-9.28198E-14
 -1      3047 1.89414E+01 1.35940E-02 2.73552E-02-2.84049E+00 1.32194E-13-6.87419E-14
 -1      3048 1.87823E+01 3.74784E-01-4.62471E-03-2.61817E+00 3.06746E-14-3.02759E-14
 -1      3049 1.75415E+01-1.85984E-02 5.39259E-03-3.10189E+00 1.94291E-13-1.35164E-13
 -1      3050 1.90230E+01 6.27868E-01 1.42409E-02-2.32964E+00-7.03899E-14 5.15912E-14
 -1      3051 1.90026E+01 7.76135E-01-9.29530E-03-2.13222E+00-6.29059E-14 4.79388E-14
 -1      3052 1.79616E+01 7.05178E-01 4.74984E-03-2.39951E+00 1.27091E-14-2.65787E-14
 -1      3053 1.92418E+01 8.66330E-01 7.23652E-03-1.91953E+00-8.93086E-14 1.23103E-13
 -1      3054 1.92726E+01 8.95351E-01-8.71095E-03-1.74652E+00-1.10183E-13 1.02824E-13
 -1      3055 1.84460E+01 9.98426E-01 8.41377E-03-1.91484E+00-3.18336E-14 1.66352E-13
 -1      3056 1.94741E+01 8.97036E-01 4.04637E-03-1.58119E+00-8.76715E-14 1.11671E-13
 -1      3057 1.95115E+01 8.66184E-01-7.36713E-03-1.42941E+00 3.06282E-14 9.00059E-14
 -1      3058 1.88731E+01 1.04748E+00 8.39861E-03-1.55926E+00-8.74648E-14 2.84924E-13
 -1      3059 1.96687E+01 8.25682E-01 2.69541E-03-1.29419E+00 1.15827E-14 6.50659E-14
 -1      3060 1.96963E+01 7.69528E-01-6.00056E-03-1.16190E+00-2.51023E-14 8.00800E-14
 -1      3061 1.92143E+01 9.76048E-01 7.14438E-03-1.27853E+00-3.56183E-14 2.02162E-13
 -1      3062 1.98130E+01 7.13373E-01 2.16976E-03-1.04849E+00-4.77219E-14 9.30588E-14
 -1      3063 1.98277E+01 6.50834E-01-4.78827E-03-9.34828E-01-1.28135E-14 1.00884E-13
 -1      3064 1.94711E+01 8.52804E-01 5.57540E-03-1.04509E+00 1.18336E-14 1.60525E-13
 -1      3065 1.99112E+01 5.93002E-01 1.94659E-03-8.39165E-01-1.03111E-13 1.08259E-13
 -1      3066 1.99151E+01 5.33499E-01-3.75824E-03-7.43169E-01-7.93452E-14 4.02897E-14
 -1      3067 1.96561E+01 7.16074E-01 4.10673E-03-8.46733E-01-4.90276E-14 1.48092E-13
 -1      3068 1.99731E+01 4.80510E-01 1.79819E-03-6.62932E-01-1.09406E-13-3.23279E-14
 -1      3069 1.99697E+01 4.28037E-01-2.91144E-03-5.83249E-01-1.17927E-13-3.24432E-14
 -1      3070 1.97847E+01 5.85434E-01 2.89434E-03-6.77895E-01-1.38293E-13 4.51589E-15
 -1      3071 2.00090E+01 3.82329E-01 1.64211E-03-5.16705E-01-1.39005E-13 2.59199E-14
 -1      3072 2.00013E+01 3.38007E-01-2.23108E-03-4.51632E-01-1.83299E-13 5.03162E-14
 -1      3073 1.98715E+01 4.69519E-01 1.96439E-03-5.35478E-01-1.35883E-13 6.83228E-14
 -1      3074 2.00273E+01 2.99946E-01 1.46278E-03-3.97187E-01-1.41380E-13-5.18117E-14
 -1      3075 2.00177E+01 2.63498E-01-1.69420E-03-3.44838E-01-6.71322E-14-1.80385E-13
 -1      3076 1.99283E+01 3.70981E-01 1.28681E-03-4.16981E-01-2.35947E-13 8.13197E-14
 -1      3077 2.00345E+01 2.32507E-01 1.26853E-03-3.00923E-01-5.14179E-14-1.69498E-13
 -1      3078 2.00247E+01 2.03071E-01-1.27629E-03-2.59399E-01-5.83256E-14-9.01761E-14
 -1      3079 1.99644E+01 2.89460E-01 8.11941E-04-3.19883E-01-4.55518E-14-1.08539E-13
 -1      3080 2.00353E+01 1.78226E-01 1.07283E-03-2.24483E-01-2.85265E-14 5.14137E-14
 -1      3081 2.00261E+01 1.54768E-01-9.54251E-04-1.91989E-01-6.11805E-14 1.24220E-13
 -1      3082 1.99865E+01 2.23260E-01 4.89683E-04-2.41544E-01-3.07629E-15-7.57435E-14
 -1      3083 2.00325E+01 1.35086E-01 8.87090E-04-1.64625E-01-1.75439E-13 1.41794E-13
 -1      3084 2.00245E+01 1.16595E-01-7.07925E-04-1.39536E-01-1.04620E-13 8.24235E-14
 -1      3085 1.99993E+01 1.70247E-01 2.77344E-04-1.79305E-01-8.26187E-14 1.88063E-14
 -1      3086 2.00282E+01 1.01162E-01 7.18762E-04-1.18404E-01-1.14524E-13 4.30001E-14
 -1      3087 2.00214E+01 8.67315E-02-5.20613E-04-9.92972E-02-1.14406E-13 9.65014E-14
 -1      3088 2.00063E+01 1.28276E-01 1.41584E-04-1.30606E-01-9.97011E-14 1.87797E-13
 -1      3089 2.00234E+01 7.47467E-02 5.71603E-04-8.32247E-02-1.21982E-13 1.04044E-13
 -1      3090 2.00179E+01 6.35970E-02-3.78920E-04-6.88851E-02-8.55025E-14 2.81981E-13
 -1      3091 2.00095E+01 9.53941E-02 5.77515E-05-9.30839E-02-9.33632E-14 2.08100E-13
 -1      3092 2.00188E+01 5.43835E-02 4.46606E-04-5.68567E-02-5.51332E-14 1.80883E-13
 -1      3093 2.00144E+01 4.58594E-02-2.72315E-04-4.62657E-02 9.71221E-14 1.09970E-13
 -1      3094 2.00105E+01 6.98965E-02 8.28968E-06-6.46307E-02-8.92509E-14 3.06858E-13
 -1      3095 2.00147E+01 3.88534E-02 3.42941E-04-3.74219E-02 2.53288E-13 6.55450E-15
 -1      3096 2.00113E+01 3.24125E-02-1.92617E-04-2.97392E-02 2.59179E-13 1.27416E-13
 -1      3097 2.00103E+01 5.03378E-02-1.89578E-05-4.34162E-02 1.05022E-13 6.48960E-14
 -1      3098 2.00112E+01 2.71499E-02 2.58726E-04-2.33656E-02 1.73556E-13 1.72932E-13
 -1      3099 2.00086E+01 2.23471E-02-1.33498E-04-1.79083E-02 2.99531E-15 2.72575E-13
 -1      3100 2.00094E+01 3.55107E-02-3.22209E-05-2.78896E-02 2.92113E-13-3.40075E-14
 -1      3101 2.00083E+01 1.84493E-02 1.91570E-04-1.34212E-02 1.11034E-13 4.25467E-13
 -1      3102 2.00065E+01 1.49222E-02-9.00733E-05-9.64165E-03 3.16397E-13 5.18900E-13
 -1      3103 2.00081E+01 2.44182E-02-3.69638E-05-1.67622E-02 2.18700E-13 3.01428E-13
 -1      3104 2.00060E+01 1.20820E-02 1.38940E-04-6.57175E-03 1.75032E-13 4.48645E-13
 -1      3105 2.00047E+01 9.53791E-03-5.85714E-05-4.03688E-03 1.05946E-13 3.54017E-13
 -1      3106 2.00068E+01 1.62441E-02-3.67476E-05-8.98291E-03 1.87272E-13 5.04677E-13
 -1      3107 2.00043E+01 7.50822E-03 9.83888E-05-2.01270E-03 1.31448E-13 2.73982E-13
 -1      3108 2.00033E+01 5.71235E-03-3.60797E-05-3.84499E-04 1.57372E-13 2.95203E-13
 -1      3109 2.00056E+01 1.03256E-02-3.38478E-05-3.70834E-03 1.05850E-13 3.48681E-13
 -1      3110 2.00029E+01 4.29569E-03 6.76816E-05 8.83452E-04 1.42121E-13 3.20907E-13
 -1      3111 2.00023E+01 3.06127E-03-2.03510E-05 1.86491E-03 1.78473E-15 3.30137E-13
 -1      3112 2.00045E+01 6.12934E-03-2.96858E-05-2.72960E-04 1.58607E-13 2.89608E-13
 -1      3113 2.00019E+01 2.10118E-03 4.48565E-05 2.59856E-03-7.14012E-14 2.44255E-13
 -1      3114 2.00015E+01 1.28082E-03-9.65683E-06 3.13001E-03 3.95137E-14 1.08625E-13
 -1      3115 2.00035E+01 3.22928E-03-2.51234E-05 1.84001E-03-3.61934E-14 1.13484E-13
 -1      3116 2.00011E+01 6.54198E-04 2.82459E-05 3.49649E-03 2.59760E-14 2.59590E-14
 -1      3117 2.00009E+01 1.32482E-04-2.67453E-06 3.72407E-03 4.08381E-14-5.94402E-14
 -1      3118 2.00026E+01 1.28824E-03-2.06641E-05 3.02496E-03-7.10206E-14-1.09912E-13
 -1      3119 2.00006E+01-2.56823E-04 1.64694E-05 3.84661E-03-4.66317E-14-1.39289E-13
 -1      3120 2.00005E+01-5.69756E-04 1.60123E-06 3.87643E-03-6.30280E-14-1.93893E-13
 -1      3121 2.00019E+01 4.13921E-05-1.65871E-05 3.57720E-03-1.37591E-13-2.46150E-13
 -1      3122 2.00002E+01-7.96532E-04 8.39504E-06 3.84363E-03 1.77787E-13-1.84958E-13
 -1      3123 2.00002E+01-9.70404E-04 3.91727E-06 3.75042E-03 2.76876E-13-9.80540E-14
 -1      3124 2.00014E+01-7.17870E-04-1.30291E-05 3.71292E-03 1.38483E-14-2.02314E-13
 -1      3125 2.00000E+01-1.09287E-03 3.09377E-06 3.62385E-03 1.44632E-13-2.05089E-13
 -1      3126 2.00000E+01-1.18161E-03 5.05553E-06 3.45784E-03-1.90776E-13-2.77988E-14
 -1      3127 2.00009E+01-1.15005E-03-1.00396E-05 3.58608E-03 1.34963E-13-3.07568E-13
 -1      3128 1.99998E+01-1.24687E-03-5.46623E-07 3.27889E-03-3.21316E-13 2.15638E-13
 -1      3129 1.99998E+01-1.29194E-03 5.34787E-06 3.07089E-03-2.72910E-13 2.43729E-13
 -1      3130 2.00005E+01-1.37833E-03-7.25828E-06 3.30250E-03-8.31191E-14-1.75228E-13
 -1      3131 1.99997E+01-1.33018E-03-1.39975E-06 2.86229E-03-1.26756E-13 2.79473E-13
 -1      3132 1.99997E+01-1.37057E-03 2.53703E-06 2.63365E-03 2.14092E-14 4.47430E-13
 -1      3133 2.00003E+01-1.50411E-03-3.76292E-06 2.93258E-03-9.21148E-14 2.51487E-13
 -1      3134 2.29781E+01-7.55028E-01-8.12061E-03 1.23922E+00 1.29147E-13 1.86814E-13
 -1      3135 2.29440E+01-8.80820E-01 2.02830E-03 1.03827E+00 1.22167E-13 1.75028E-13
 -1      3136 2.26686E+01-8.81629E-01-1.77350E-02 7.85107E-01 1.39738E-13 1.29814E-13
 -1      3137 2.26143E+01-7.55969E-01 1.81991E-02 6.20678E-01 1.16973E-13 1.17098E-13
 -1      3138 2.30648E+01-1.03708E+00-2.08033E-03 7.70972E-01 1.15540E-13 1.22978E-13
 -1      3139 2.22838E+01 2.50684E+00-1.06738E-02-2.20745E-01 2.94433E-13 1.11871E-13
 -1      3140 2.22976E+01 2.46153E+00-1.69623E-02 3.21553E-01 2.86464E-13 1.90378E-13
 -1      3141 2.24665E+01 2.16639E+00 1.05035E-02 9.40077E-01 2.19028E-13 2.22605E-13
 -1      3142 2.25664E+01 1.67242E+00-3.39404E-02 1.32290E+00 1.75934E-13 2.43183E-13
 -1      3143 2.29518E+01 2.74071E+00-1.34346E-02 7.44667E-01 2.79717E-13 2.06435E-13
 -1      3144 2.27780E+01 6.27927E-01-3.42326E-02-1.78204E+00 2.00325E-13-1.09920E-13
 -1      3145 2.26822E+01 1.27700E+00 1.50534E-02-1.64757E+00 2.42550E-13-6.70583E-14
 -1      3146 2.29377E+01-4.98867E-01-1.97578E-02-1.63079E+00 1.26609E-13-1.89873E-13
 -1      3147 2.28886E+01 4.62211E-02 7.20559E-03-1.74081E+00 1.77764E-13-1.30626E-13
 -1      3148 2.34365E+01 3.94875E-01 7.75456E-03-1.85975E+00 2.11119E-13-1.92776E-13
 -1      3149 2.27791E+01-1.15451E+00-3.23343E-03-1.04618E+00-1.24119E-15-1.12853E-13
 -1      3150 2.28459E+01-8.95411E-01-1.81788E-03-1.30174E+00 4.16953E-14-1.50995E-13
 -1      3151 2.33820E+01-9.19262E-01 4.40237E-03-1.41515E+00 4.40047E-14-1.41056E-13
 -1      3152 2.23794E+01-1.32400E+00 6.66030E-03-4.10525E-01-8.37112E-16-7.62738E-14
 -1      3153 2.25164E+01-1.29364E+00-7.98194E-03-6.94408E-01 8.59295E-15-3.33117E-14
 -1      3154 2.29552E+01-1.45225E+00 9.29271E-03-7.16555E-01-3.76849E-14-6.41358E-14
 -1      3155 2.18720E+01-1.15474E+00 1.10915E-02 1.09600E-01-5.77109E-14-1.69203E-14
 -1      3156 2.20408E+01-1.26965E+00-9.82328E-03-1.18380E-01-2.74996E-14-4.11863E-14
 -1      3157 2.23306E+01-1.52919E+00-6.25317E-03-4.76491E-02-4.84863E-14-4.36131E-15
 -1      3158 2.13867E+01-8.50010E-01 1.06250E-02 4.58525E-01-9.09794E-14 4.38516E-14
 -1      3159 2.15560E+01-1.01607E+00-7.19855E-03 3.02546E-01-1.64863E-14 4.33226E-14
 -1      3160 2.16958E+01-1.26496E+00-9.98305E-03 4.19857E-01-7.16113E-14 5.67067E-14
 -1      3161 2.09840E+01-5.30700E-01 8.36900E-03 6.50939E-01-1.47174E-13 8.16753E-14
 -1      3162 2.11325E+01-6.91462E-01-4.00483E-03 5.61660E-01-1.55691E-13 4.26327E-14
 -1      3163 2.11561E+01-8.86632E-01-9.90761E-03 6.91179E-01-1.32321E-13 3.69758E-14
 -1      3164 2.06790E+01-2.60934E-01 5.78789E-03 7.25532E-01-1.49345E-13 1.02741E-13
 -1      3165 2.07990E+01-3.90671E-01-1.66632E-03 6.88285E-01-1.28804E-13 1.25989E-13
 -1      3166 2.07468E+01-5.21671E-01-8.14362E-03 8.08794E-01-1.73601E-13 5.38428E-14
 -1      3167 2.04613E+01-6.17651E-02 3.57556E-03 7.21295E-01-1.37230E-13 1.81569E-13
 -1      3168 2.05539E+01-1.54197E-01-2.12808E-04 7.20291E-01-1.10078E-13 1.55094E-13
 -1      3169 2.04604E+01-2.27676E-01-5.96967E-03 8.23268E-01-1.67052E-13 1.93065E-13
 -1      3170 2.03120E+01 6.93530E-02 1.93008E-03 6.69297E-01-1.19006E-13 1.29658E-13
 -1      3171 2.03817E+01 1.07323E-02 6.08857E-04 6.91166E-01-1.13469E-13 1.36146E-13
 -1      3172 2.02719E+01-1.83223E-02-4.05775E-03 7.75626E-01-1.11112E-13 2.38770E-13
 -1      3173 2.02123E+01 1.44724E-01 8.01242E-04 5.92048E-01-7.61686E-16 3.24612E-15
 -1      3174 2.02643E+01 1.12810E-01 1.03764E-03 6.26541E-01-3.51972E-14 7.69354E-14
 -1      3175 2.01545E+01 1.14675E-01-2.59905E-03 6.94624E-01-2.67037E-14 1.47491E-13
 -1      3176 2.01465E+01 1.79008E-01 9.02905E-05 5.04962E-01 1.43264E-13-1.35076E-13
 -1      3177 2.01855E+01 1.66240E-01 1.22496E-03 5.44772E-01 7.56751E-14-1.05320E-13
 -1      3178 2.00850E+01 1.87435E-01-1.58199E-03 5.99397E-01 1.14383E-13 4.79888E-14
 -1      3179 2.01033E+01 1.85562E-01-3.15251E-04 4.18002E-01 1.38448E-13-1.80438E-13
 -1      3180 2.01328E+01 1.85373E-01 1.26667E-03 4.58254E-01 1.60735E-13-1.08939E-13
 -1      3181 2.00462E+01 2.16947E-01-9.16863E-04 5.02123E-01 1.06784E-13-5.12853E-14
 -1      3182 2.00747E+01 1.75081E-01-5.12298E-04 3.37142E-01 2.99203E-14-4.56692E-14
 -1      3183 2.00972E+01 1.82366E-01 1.21962E-03 3.74835E-01 9.11131E-14-1.09638E-13
 -1      3184 2.00260E+01 2.17944E-01-5.06437E-04 4.10138E-01 1.02452E-13 3.82541E-14
 -1      3185 2.00553E+01 1.55432E-01-5.75714E-04 2.65539E-01 2.28448E-14-3.20158E-14
 -1      3186 2.00727E+01 1.66515E-01 1.12014E-03 2.99043E-01 4.09343E-14-6.26814E-14
 -1      3187 2.00163E+01 2.01899E-01-2.67616E-04 3.27467E-01 6.78197E-14 5.89869E-14
 -1      3188 2.00418E+01 1.32007E-01-5.59641E-04 2.04438E-01-4.95447E-14-4.05037E-14
 -1      3189 2.00553E+01 1.44421E-01 9.92793E-04 2.33074E-01-2.15419E-14 3.39043E-14
 -1      3190 2.00123E+01 1.77096E-01-1.37647E-04 2.55908E-01-5.58151E-14 8.44936E-15
 -1      3191 2.00320E+01 1.08248E-01-5.01251E-04 1.53848E-01-9.29219E-16-6.79397E-14
 -1      3192 2.00426E+01 1.20454E-01 8.54634E-04 1.77559E-01 9.55333E-15-4.76858E-14
 -1      3193 2.00108E+01 1.49125E-01-7.27835E-05 1.95810E-01 6.95368E-15 5.53215E-14
 -1      3194 2.00248E+01 8.61652E-02-4.24797E-04 1.13035E-01-1.60058E-13-9.67428E-14
 -1      3195 2.00330E+01 9.72947E-02 7.17381E-04 1.32142E-01-9.29527E-14-2.68472E-14
 -1      3196 2.00104E+01 1.21496E-01-4.43507E-05 1.46619E-01-5.51839E-14 9.36166E-14
 -1      3197 2.00192E+01 6.67742E-02-3.45174E-04 8.08783E-02-6.21286E-14-7.79590E-14
 -1      3198 2.00255E+01 7.64161E-02 5.88668E-04 9.59010E-02-8.66410E-14-1.45745E-14
 -1      3199 2.00102E+01 9.62104E-02-3.45755E-05 1.07272E-01-1.22526E-13 5.22629E-14
 -1      3200 2.00148E+01 5.04405E-02-2.70807E-04 5.61031E-02-8.91755E-14-6.83811E-14
 -1      3201 2.00196E+01 5.84783E-02 4.72978E-04 6.76432E-02-5.67735E-14-5.20047E-14
 -1      3202 2.00098E+01 7.42314E-02-3.30763E-05 7.64693E-02-1.35097E-13 3.37645E-14
 -1      3203 2.00113E+01 3.71294E-02-2.05826E-04 3.74352E-02-1.72658E-14-6.66099E-14
 -1      3204 2.00150E+01 4.36237E-02 3.72432E-04 4.60974E-02-4.10728E-14-1.18479E-13
 -1      3205 2.00092E+01 5.58513E-02-3.42218E-05 5.28561E-02-9.35182E-14 6.68542E-14
 -1      3206 2.00085E+01 2.65835E-02-1.51662E-04 2.36908E-02-6.32522E-17 5.34181E-14
 -1      3207 2.00113E+01 3.16898E-02 2.87470E-04 3.00378E-02-1.78577E-14-7.48985E-14
 -1      3208 2.00083E+01 4.09551E-02-3.52786E-05 3.51348E-02-1.36987E-14-7.09111E-14
 -1      3209 2.00063E+01 1.84394E-02-1.08154E-04 1.38236E-02 2.18039E-13 7.81434E-14
 -1      3210 2.00084E+01 2.23547E-02 2.17413E-04 1.83527E-02 1.24751E-13 9.63480E-14
 -1      3211 2.00073E+01 2.92061E-02-3.51779E-05 2.21305E-02 7.46206E-15-1.86365E-14
 -1      3212 2.00046E+01 1.23034E-02-7.42909E-05 6.94266E-03 2.48766E-13 4.10665E-14
 -1      3213 2.00061E+01 1.52324E-02 1.60910E-04 1.00766E-02 2.90399E-13 7.64255E-14
 -1      3214 2.00063E+01 2.01681E-02-3.37334E-05 1.28218E-02 2.41541E-13 2.44778E-14
 -1      3215 2.00032E+01 7.79494E-03-4.86916E-05 2.31172E-03 1.03701E-13 5.58986E-14
 -1      3216 2.00043E+01 9.93094E-03 1.16272E-04 4.39903E-03 1.71728E-13 7.29336E-14
 -1      3217 2.00053E+01 1.33827E-02-3.11689E-05 6.34810E-03 1.36642E-13 8.09672E-14
 -1      3218 2.00022E+01 4.57080E-03-2.98949E-05-6.62313E-04 8.51298E-14 1.31060E-13
 -1      3219 2.00029E+01 6.08555E-03 8.17103E-05 6.58221E-04 1.94786E-13 2.00019E-13
 -1      3220 2.00043E+01 8.41454E-03-2.78502E-05 2.00365E-03 4.07785E-14 9.27984E-14
 -1      3221 2.00014E+01 2.33499E-03-1.65237E-05-2.44603E-03-4.69614E-14-1.13879E-14
 -1      3222 2.00019E+01 3.37503E-03 5.54910E-05-1.67294E-03 2.87303E-14 7.74781E-14
 -1      3223 2.00034E+01 4.87459E-03-2.41454E-05-7.76856E-04 1.08560E-13 7.93660E-14
 -1      3224 2.00009E+01 8.40525E-04-7.36803E-06-3.39822E-03-2.71122E-14-9.10053E-14
 -1      3225 2.00011E+01 1.52715E-03 3.60297E-05-3.00471E-03-5.72457E-14-1.28129E-14
 -1      3226 2.00026E+01 2.42953E-03-2.03640E-05-2.43631E-03-3.31451E-14-6.71304E-14
 -1      3227 2.00004E+01-1.13714E-04-1.42008E-06-3.78826E-03-1.12617E-13 1.97417E-13
 -1      3228 2.00006E+01 3.17674E-04 2.19383E-05-3.64905E-03-1.30262E-13 6.30681E-14
 -1      3229 2.00020E+01 8.02476E-04-1.67426E-05-3.31417E-03-2.18396E-13-1.67757E-14
 -1      3230 2.00001E+01-6.88648E-04 2.15483E-06-3.81289E-03-2.69228E-13 6.61004E-13
 -1      3231 2.00002E+01-4.34301E-04 1.20372E-05-3.83722E-03-1.53566E-13 4.96980E-13
 -1      3232 2.00014E+01-2.31382E-04-1.34575E-05-3.66453E-03-3.90716E-13 4.49757E-13
 -1      3233 1.99999E+01-1.01168E-03 4.02873E-06-3.61100E-03-2.69101E-13 4.94583E-13
 -1      3234 1.99999E+01-8.72606E-04 5.42005E-06-3.73559E-03-2.49637E-13 5.23470E-13
 -1      3235 2.00010E+01-8.51617E-04-1.06061E-05-3.67255E-03-2.32361E-13 7.00135E-13
 -1      3236 1.99998E+01-1.18318E-03 4.53339E-06-3.27620E-03 1.96791E-13 3.44755E-13
 -1      3237 1.99998E+01-1.11068E-03 1.35521E-06-3.45908E-03-4.34786E-14 3.82885E-13
 -1      3238 2.00006E+01-1.20017E-03-8.27525E-06-3.46864E-03-9.86250E-14 3.03316E-13
 -1      3239 1.99997E+01-1.28117E-03 4.32258E-06-2.86683E-03-3.10772E-14 3.33667E-13
 -1      3240 1.99997E+01-1.23764E-03-3.75891E-07-3.08182E-03 1.97285E-13 4.08846E-13
 -1      3241 2.00003E+01-1.39088E-03-6.96743E-06-3.14012E-03 4.83242E-14 4.54565E-13
 -1      3242 1.99997E+01-1.36265E-03 1.80818E-06-2.47386E-03-4.45650E-14-3.77334E-14
 -1      3243 1.99996E+01-1.31332E-03-4.32282E-06-2.70424E-03-1.19038E-13 3.58191E-14
 -1      3244 2.00001E+01-1.48274E-03-4.60831E-06-2.78560E-03 4.00901E-14 4.60116E-13
 -1      3245 2.00000E+01-1.54219E-03 3.62493E-06-2.46152E-03 7.79076E-14 2.00315E-13
 -1      3246 2.00012E+01-2.28270E-03-1.75607E-06 1.64845E-03 1.05149E-13-1.65185E-13
 -1      3247 2.00014E+01-2.39926E-03 6.56606E-06 1.34173E-03 6.35831E-14-5.04253E-14
 -1      3248 2.00017E+01-2.53625E-03 5.13387E-06-6.10402E-04-5.91208E-14-5.09241E-13
 -1      3249 2.00016E+01-2.47857E-03-1.86145E-07-9.72957E-04 3.61205E-14-4.54517E-13
 -1      3250 1.57778E+01-2.78504E+00 1.43726E-01-5.22176E+00 5.66241E-13 1.42941E-13
 -1      3251 1.88025E+01-3.89953E+00-3.60229E-02-5.03979E+00 5.05401E-13-2.46532E-13
 -1      3252 2.20832E+01-3.74752E+00 8.14776E-02-4.36152E+00-3.24997E-13-1.36949E-13
 -1      3253 2.38392E+01-4.00665E+00-8.59991E-02-3.25829E+00-2.44263E-13 1.32481E-14
 -1      3254 2.00007E+01-1.97220E-03-4.98317E-06 2.16796E-03 9.38376E-15-7.18540E-14
 -1      3255 2.00010E+01-2.13705E-03 8.97703E-06 1.95251E-03 1.17783E-13-3.24066E-13
 -1      3256 2.00013E+01-2.14929E-03-4.68908E-06 1.92663E-03 6.16541E-14-9.30403E-14
 -1      3257 2.00016E+01-2.48276E-03 8.98989E-07 9.65799E-04-2.37317E-14-1.90128E-14
 -1      3258 2.00017E+01-2.53926E-03 6.09061E-06 6.12352E-04 7.42114E-14 1.65677E-13
 -1      3259 2.00018E+01-2.36471E-03-3.66611E-06 1.23167E-03 9.73968E-14-7.07389E-14
 -1      3260 1.14160E+01-7.67986E-01 1.28061E-01-3.75832E+00 2.82316E-13 3.88217E-13
 -1      3261 1.33914E+01-1.97480E+00 5.42923E-02-4.91995E+00 3.74478E-13 2.04420E-13
 -1      3262 1.57838E+01-1.78557E+00 1.16448E-01-4.50813E+00 4.02602E-13 4.82323E-14
 -1      3263 1.02088E+01-2.19983E-01 2.02721E-02 3.34091E+00-2.56666E-13 5.48714E-13
 -1      3264 9.25249E+00 4.16590E-01 1.38271E-01 1.37814E+00-1.25271E-13 5.55486E-13
 -1      3265 2.65656E+01-6.74105E-01-2.28927E-02 1.33902E+00 2.62082E-14 3.03844E-13
 -1      3266 2.64679E+01 1.11965E+00-1.11530E-01 2.02042E+00 1.68657E-13 2.88811E-13
 -1      3267 2.19943E+01 2.31396E-01-1.55100E-02 7.22368E-01 2.28752E-13 1.73937E-13
 -1      3268 2.00017E+01-2.57524E-03 1.43258E-06 1.86787E-04 1.05907E-14-2.19593E-15
 -1      3269 2.00017E+01-2.56832E-03 2.77368E-06-1.93964E-04-1.48543E-14-2.22641E-13
 -1      3270 2.00020E+01-2.46674E-03-5.72254E-06-4.29829E-04-1.15017E-13-2.64795E-13
 -1      3271 2.00020E+01-2.46979E-03-1.37480E-07 4.24877E-04-5.63038E-14 2.07393E-13
 -1      3272 2.24485E+01 1.87079E+00-2.98862E-02-1.30333E+00 2.63487E-13-3.56312E-15
 -1      3273 2.23759E+01 2.30934E+00 7.00443E-03-8.64352E-01 2.89749E-13 4.89769E-14
 -1      3274 2.31739E+01 1.83475E+00-7.72813E-03-1.62837E+00 2.96131E-13-5.08430E-14
 -1      3275 1.77416E+01-2.68297E+00 6.32740E-02-5.63128E+00-3.32095E-13-3.67914E-13
 -1      3276 2.01327E+01-3.50798E+00-4.43535E-03-5.20512E+00-3.36356E-13-2.43423E-13
 -1      3277 2.13626E+01-3.13159E+00 5.11237E-02-4.16981E+00-2.99441E-13-1.63015E-13
 -1      3278 1.87801E+01 4.09507E-01 2.17143E-02 2.67675E+00 1.09772E-13-1.94797E-13
 -1      3279 1.91037E+01-4.01923E-01 4.33335E-02 3.08724E+00 1.75924E-13-1.99697E-13
 -1      3280 8.81991E+00 3.08869E-01 8.12580E-02-4.32062E-01 7.05824E-14 6.53394E-13
 -1      3281 9.68019E+00-1.26843E-01 9.98781E-02-2.39929E+00 1.39402E-13 6.71102E-13
 -1      3282 2.05382E+01-3.35124E+00 7.46065E-02-4.13669E+00 4.55525E-13-2.20789E-13
 -1      3283 2.52296E+01-4.35171E+00-9.62446E-02 2.27858E+00-1.26517E-13-5.25500E-13
 -1      3284 2.35764E+01-4.39080E+00 9.93547E-02 3.50250E+00-2.68424E-13-4.32841E-13
 -1      3285 1.83910E+01 2.73892E+00-5.06776E-03 7.40211E-01-8.13559E-14-3.26543E-13
 -1      3286 2.18441E+01 4.06298E-01 1.72476E-02 5.74805E-01 2.17105E-13 8.86614E-14
 -1      3287 1.49015E+01-2.55544E+00-1.49369E-02 5.77946E+00-4.73607E-13 3.80529E-14
 -1      3288 1.24765E+01-1.13396E+00 1.36435E-01 4.80232E+00-4.29289E-13 4.00124E-13
 -1      3289 2.56245E+01-3.37494E+00 5.99130E-02-1.63386E+00-1.98857E-13 8.97477E-14
 -1      3290 2.62271E+01-2.36371E+00-7.90225E-02 5.38468E-02-1.02453E-13 2.26066E-13
 -1      3291 2.44226E+01-3.27377E+00 1.21209E-02-1.98451E+00-2.29929E-13 3.95309E-14
 -1      3292 2.67967E+01-2.17516E+00-1.71564E-01-5.87241E-01 1.00791E-13-3.48610E-13
 -1      3293 2.64050E+01-3.30909E+00 3.21701E-02 7.89088E-01-4.44731E-14-4.19983E-13
 -1      3294 2.53889E+01-3.43208E+00 2.19954E-02 9.98077E-01-1.75606E-13-3.82694E-13
 -1      3295 1.06588E+01 3.73497E-01 1.66395E-01 3.07789E+00 1.87315E-13-5.83283E-13
 -1      3296 8.84926E+00 8.34100E-01 1.28450E-01 1.42259E+00 1.15552E-13-6.57946E-13
 -1      3297 1.05622E+01 1.41286E+00 9.50420E-02 9.44816E-01 9.49119E-14-6.13024E-13
 -1      3298 2.06438E+01-4.40917E+00-8.79446E-02 5.00064E+00-3.80071E-13-2.24154E-13
 -1      3299 1.79405E+01-3.36908E+00 1.37883E-01 5.61616E+00-4.45186E-13-1.28182E-13
 -1      3300 1.85988E+01 1.57103E+00 2.00240E-02-1.78030E+00 7.28001E-14-3.06612E-13
 -1      3301 1.77937E+01 1.85627E+00-1.77774E-02-1.97176E+00 4.54957E-14-3.41698E-13
 -1      3302 2.63982E+01 4.57211E+00-1.25106E-01-1.60766E+00 5.62328E-13-4.80518E-14
 -1      3303 2.68199E+01 3.45402E+00-9.52388E-02-2.10184E+00 5.01099E-13-1.81605E-13
 -1      3304 2.59610E+01 2.13639E+00-3.50330E-02-2.12146E+00 4.06612E-13-1.49041E-13
 -1      3305 2.05248E+01-2.50099E+00 7.23276E-02 3.82895E+00 2.20698E-13-1.57017E-13
 -1      3306 1.76229E+01-2.74396E+00 4.56214E-02 5.01939E+00 2.69784E-13-2.42403E-13
 -1      3307 1.60247E+01-1.51364E+00 5.44889E-02 4.55309E+00 2.75058E-13-3.03230E-13
 -1      3308 1.96005E+01-1.36971E+00 6.35078E-02 3.59004E+00 2.11703E-13-1.59933E-13
 -1      3309 2.19695E+01 3.03880E-02 1.90744E-02 3.81507E-01 1.79358E-13 7.18505E-14
 -1      3310 1.69877E+01 2.34676E+00 2.88125E-02-2.05249E+00 3.17548E-14-3.61780E-13
 -1      3311 1.62078E+01 2.61662E+00-2.92348E-02-1.99510E+00-1.01091E-15-3.95481E-13
 -1      3312 1.74310E+01 1.57233E+00-9.04250E-03-2.36493E+00 1.78850E-15-3.37784E-13
 -1      3313 1.05917E+01 1.72778E+00 2.52612E-02-1.45698E+00-2.25067E-14-6.51278E-13
 -1      3314 1.09122E+01 1.42062E+00 1.85774E-01-2.88653E+00-8.09977E-14-6.76806E-13
 -1      3315 2.20977E+01-3.14768E-01-7.31776E-03 4.08954E-01 1.46037E-13 6.93130E-14
 -1      3316 1.95608E+01-2.24043E+00 7.53015E-02-4.00111E+00 4.81167E-13-1.34951E-13
 -1      3317 1.74069E+01-1.59928E+00-1.05961E-02-4.17152E+00 4.13742E-13-9.61523E-14
 -1      3318 2.30937E+01-4.55876E-01-1.04796E-02 1.51972E+00 1.26261E-13 2.31424E-13
 -1      3319 2.35066E+01-7.60281E-01 1.09671E-02 1.34918E+00 9.53515E-14 1.93208E-13
 -1      3320 2.30283E+01-4.00629E-02-2.64340E-04 1.61449E+00 1.13468E-13 2.44590E-13
 -1      3321 1.99996E+01-1.40119E-03-1.78891E-07 2.37847E-03 2.32265E-14 4.20845E-13
 -1      3322 1.25266E+01-1.34283E-01 1.11421E-01 3.55355E+00 2.38153E-13-4.97685E-13
 -1      3323 2.22749E+01-5.34408E-01-7.77133E-03 2.70797E-01 1.29829E-13 3.45567E-14
 -1      3324 2.28880E+01 2.82434E+00-2.36174E-02-5.92042E-01 3.47472E-13 9.40739E-14
 -1      3325 2.00018E+01-2.34432E-03-1.41800E-06-1.24352E-03-5.97953E-15-1.72287E-13
 -1      3326 2.00014E+01-2.38143E-03 1.03324E-05-1.34916E-03 5.99634E-14-3.70469E-15
 -1      3327 2.00012E+01-2.28698E-03-1.14556E-05-1.65769E-03-1.54424E-14 1.87953E-13
 -1      3328 1.55317E+01 3.29497E+00-1.48706E-02 2.62764E-01 1.34658E-14-4.44408E-13
 -1      3329 1.62390E+01 3.07156E+00 5.04433E-03 6.29698E-01-5.96094E-15-4.08194E-13
 -1      3330 2.22199E+01-3.93967E+00 4.92337E-02 3.70250E+00-3.64181E-13-3.27716E-13
 -1      3331 1.76246E+01-5.60157E-01 3.04982E-03 3.59948E+00 1.88755E-13-2.63015E-13
 -1      3332 2.09592E+01 6.55302E-01-5.15453E-03-3.42670E-01 1.87893E-13-1.24217E-13
 -1      3333 2.05271E+01 8.35523E-01 8.97885E-03-6.80891E-01 1.69914E-13-1.79597E-13
 -1      3334 2.14045E+01 1.38415E-01-9.26078E-03-2.63772E-01 1.68240E-13-6.74281E-14
 -1      3335 1.83743E+01 2.33483E+00 5.19992E-03 1.13294E+00-4.56230E-14-2.97102E-13
 -1      3336 1.19395E+01-6.62337E-02 1.37194E-01-2.86284E+00 1.89362E-13 4.30142E-13
 -1      3337 1.26829E+01-3.34419E-01 1.31877E-01 3.68064E+00-4.26117E-13 2.95368E-13
 -1      3338 2.54426E+01 8.14356E-01-1.75309E-03 1.99173E+00 1.00364E-13 3.23817E-13
 -1      3339 2.61239E+01 1.83175E+00-4.58526E-02 2.14042E+00 2.16313E-13 2.86441E-13
 -1      3340 2.52907E+01 2.47045E+00-1.00826E-01 1.99217E+00 2.39340E-13 2.69711E-13
 -1      3341 1.05373E+01 6.99343E-01 1.40407E-01 4.03975E-01-8.52929E-14 5.12979E-13
 -1      3342 1.23086E+01 8.85733E-01 7.25346E-02-3.58289E+00-1.37411E-13-5.72646E-13
 -1      3343 2.00005E+01-1.87907E-03-5.89869E-06-2.25490E-03 1.20247E-13 4.50926E-13
 -1      3344 2.00003E+01-1.71329E-03 1.16954E-08-2.34869E-03 1.18400E-13 2.99220E-13
 -1      3345 2.00003E+01-1.66884E-03 1.75020E-06-2.51716E-03 1.10571E-13 3.46245E-13
 -1      3346 1.72497E+01-2.47515E+00 1.00186E-01 5.05008E+00-5.15539E-13-9.72313E-14
 -1      3347 1.63698E+01-1.66023E+00 8.84701E-02-5.46235E+00-2.81365E-13-4.12628E-13
 -1      3348 1.80860E+01-1.71589E+00 1.36654E-02-4.73735E+00-2.76775E-13-3.02560E-13
 -1      3349 1.48723E+01-4.27362E-01 2.11132E-02-4.73936E+00-2.06640E-13-4.24376E-13
 -1      3350 2.63077E+01-9.61976E-01-2.55805E-02-1.31167E+00 1.54180E-13-2.20490E-13
 -1      3351 1.88918E+01 1.02249E+00 3.07823E-02 2.16599E+00 3.81431E-14-2.09149E-13
 -1      3352 1.73923E+01 1.06120E+00-5.48669E-03 2.45488E+00 7.12113E-14-2.73234E-13
 -1      3353 1.87331E+01 1.53509E+00 3.15654E-03 1.78074E+00-1.54371E-14-2.30872E-13
 -1      3354 2.58085E+01 4.78953E+00-1.00117E-01 1.03983E+00 4.98601E-13 2.15439E-13
 -1      3355 1.93260E+01 1.23488E+00-4.10757E-03-1.44983E+00 1.07385E-13-2.47287E-13
 -1      3356 1.91681E+01 8.15460E-01-1.67675E-02-1.88671E+00 6.59525E-14-2.45008E-13
 -1      3357 1.99808E+01 9.81975E-01 2.90735E-03-1.12509E+00 1.52503E-13-2.00536E-13
 -1      3358 2.62372E+01-1.63740E+00-2.53068E-02 9.30986E-01-2.65599E-14 2.79176E-13
 -1      3359 2.54764E+01-5.90164E-01-2.80838E-02 1.55803E+00 2.95319E-14 2.95640E-13
 -1      3360 2.54823E+01-1.99980E+00 4.86269E-02 3.33771E-01-9.17062E-14 2.02442E-13
 -1      3361 2.00008E+01-2.03837E-03 1.12601E-05-2.04665E-03 2.95985E-14 4.79647E-13
 -1      3362 2.28243E+01 1.11130E+00 1.91712E-02 1.60456E+00 1.34549E-13 2.51168E-13
 -1      3363 2.29509E+01 4.84296E-01-2.45653E-02 1.72025E+00 1.11351E-13 2.50577E-13
 -1      3364 2.35760E+01 2.26718E-01-1.04590E-02 1.77992E+00 1.26312E-13 2.97455E-13
 -1      3365 2.33314E+01 1.66700E+00 1.25872E-02 1.64818E+00 1.74626E-13 2.59816E-13
 -1      3366 2.00003E+01-1.73110E-03 5.54820E-06 2.40677E-03 2.74520E-14 2.91400E-13
 -1      3367 2.00006E+01-1.77989E-03-3.33494E-06 2.49250E-03 7.34859E-14 1.00058E-13
 -1      3368 1.49742E+01 3.46548E+00 2.61825E-03-8.07006E-01 1.72883E-14-4.67460E-13
 -1      3369 1.50949E+01 3.44381E+00-9.79953E-03-3.78666E-01 6.00453E-15-4.82158E-13
 -1      3370 1.49685E+01 3.12020E+00 2.58554E-02 6.73801E-02 3.73096E-15-4.57380E-13
 -1      3371 2.00000E+01-1.58671E-03-4.47302E-06 2.47356E-03 1.34626E-14 2.67325E-13
 -1      3372 1.12407E+01 2.13459E+00 1.38643E-01-3.42729E-01 2.18159E-14-6.09374E-13
 -1      3373 1.19994E+01 2.14065E+00 3.36056E-02-1.21565E+00-3.60137E-14-5.86559E-13
 -1      3374 2.33562E+01-1.38137E+00-1.54961E-02 5.24710E-01 6.50643E-14 1.15823E-13
 -1      3375 2.31648E+01-1.24507E+00 2.90374E-02 3.19577E-01 5.75547E-14 6.77761E-14
 -1      3376 2.35666E+01 3.35243E+00-5.39523E-02-9.78887E-01 3.93127E-13 3.45677E-14
 -1      3377 2.35065E+01 3.70907E+00-3.30646E-02-3.19870E-01 4.19071E-13 7.61205E-14
 -1      3378 2.53838E+01-2.15589E-01-1.17141E-01-1.85916E+00 2.35418E-13-1.02150E-13
 -1      3379 2.54908E+01-1.65505E+00 2.71577E-02-1.00975E+00 8.23456E-14-1.34828E-13
 -1      3380 2.05312E+01-2.30236E+00 9.51287E-02-4.02933E+00-2.64025E-13-1.91628E-13
 -1      3381 2.17907E+01-2.88216E+00-6.18082E-02-3.37877E+00-2.47453E-13-9.00356E-14
 -1      3382 1.69791E+01 8.68577E-01 1.35550E-02-2.18310E+00 1.19905E-13-1.93012E-14
 -1      3383 1.72069E+01 1.03385E+00-1.96502E-02-1.91917E+00 2.57616E-14 5.14390E-14
 -1      3384 1.77161E+01 1.13042E+00 4.95746E-03-1.71438E+00-6.16396E-14 1.48966E-13
 -1      3385 1.79388E+01 1.16196E+00-1.51182E-02-1.53489E+00-7.09632E-15 1.71180E-13
 -1      3386 1.68524E+01 1.28814E+00 2.11194E-02-1.48820E+00 4.85430E-14 1.22240E-13
 -1      3387 1.83187E+01 1.16606E+00 6.92164E-04-1.40103E+00-8.92127E-14 1.86648E-13
 -1      3388 1.85089E+01 1.13278E+00-1.08271E-02-1.26446E+00-1.07287E-13 1.78487E-13
 -1      3389 1.76989E+01 1.31256E+00 1.68577E-02-1.21149E+00-7.09773E-14 8.11632E-14
 -1      3390 1.87927E+01 1.08771E+00-5.20955E-04-1.16337E+00-1.26096E-13 1.98539E-13
 -1      3391 1.89410E+01 1.02383E+00-7.89035E-03-1.05066E+00-4.71885E-14 1.17378E-13
 -1      3392 1.83293E+01 1.22640E+00 1.24607E-02-1.01681E+00-1.02740E-13 4.85404E-14
 -1      3393 1.91516E+01 9.57410E-01-6.51681E-04-9.66992E-01 1.23219E-14 1.30956E-13
 -1      3394 1.92609E+01 8.83272E-01-5.94489E-03-8.70132E-01-1.74600E-14 8.36071E-14
 -1      3395 1.88002E+01 1.08699E+00 9.23186E-03-8.61545E-01-4.86424E-14 5.59660E-14
 -1      3396 1.94160E+01 8.11897E-01-3.66128E-04-7.97431E-01-2.62738E-14 4.94635E-14
 -1      3397 1.94930E+01 7.38686E-01-4.56754E-03-7.13350E-01-5.78320E-14 2.59221E-14
 -1      3398 1.91482E+01 9.29945E-01 6.80835E-03-7.26306E-01-5.63136E-14-3.69483E-14
 -1      3399 1.96062E+01 6.70888E-01-8.58561E-06-6.49407E-01-1.22550E-13-2.14024E-14
 -1      3400 1.96584E+01 6.04133E-01-3.54928E-03-5.76941E-01-1.23754E-13 1.75856E-14
 -1      3401 1.94027E+01 7.75476E-01 4.96977E-03-6.04515E-01-1.01405E-13-3.64594E-14
 -1      3402 1.97404E+01 5.43789E-01 2.79994E-04-5.21147E-01-1.06115E-13-2.31006E-14
 -1      3403 1.97745E+01 4.85699E-01-2.76753E-03-4.59604E-01-1.58400E-13 3.47310E-14
 -1      3404 1.95869E+01 6.34104E-01 3.58115E-03-4.95034E-01-1.22927E-13-8.64122E-14
 -1      3405 1.98334E+01 4.34054E-01 4.65077E-04-4.11725E-01-2.39342E-13 9.11750E-14
 -1      3406 1.98548E+01 3.85009E-01-2.15449E-03-3.60350E-01-1.96141E-13 4.84185E-14
 -1      3407 1.97188E+01 5.10317E-01 2.54801E-03-3.98319E-01-1.58248E-13-1.65371E-15
 -1      3408 1.98967E+01 3.41936E-01 5.55120E-04-3.20057E-01-1.02028E-13-1.04234E-13
 -1      3409 1.99096E+01 3.01394E-01-1.66947E-03-2.77914E-01 1.03507E-14-6.08761E-14
 -1      3410 1.98122E+01 4.05094E-01 1.79106E-03-3.14782E-01-1.75765E-13 1.21405E-13
 -1      3411 1.99391E+01 2.66126E-01 5.73391E-04-2.44670E-01 7.68082E-15-1.28150E-13
 -1      3412 1.99464E+01 2.33143E-01-1.28519E-03-2.10682E-01-4.62357E-14-1.17205E-13
 -1      3413 1.98777E+01 3.17544E-01 1.24400E-03-2.44269E-01-8.79466E-14-1.18436E-13
 -1      3414 1.99670E+01 2.04677E-01 5.44387E-04-1.83776E-01 5.52619E-15 3.59555E-14
 -1      3415 1.99706E+01 1.78194E-01-9.81519E-04-1.56813E-01-3.04643E-14 2.87062E-14
 -1      3416 1.99231E+01 2.45893E-01 8.53237E-04-1.86046E-01 5.84672E-14-4.97734E-14
 -1      3417 1.99848E+01 1.55495E-01 4.88453E-04-1.35438E-01-1.05761E-13 6.57981E-14
 -1      3418 1.99862E+01 1.34480E-01-7.42676E-04-1.14390E-01-6.28449E-14 1.43598E-13
 -1      3419 1.99541E+01 1.88056E-01 5.76938E-04-1.38955E-01-4.35148E-15-1.48061E-17
 -1      3420 1.99958E+01 1.16582E-01 4.20485E-04-9.77150E-02-4.00388E-15 1.71380E-13
 -1      3421 1.99960E+01 1.00091E-01-5.55959E-04-8.15486E-02-1.71896E-14 1.98097E-13
 -1      3422 1.99749E+01 1.41943E-01 3.83369E-04-1.01607E-01-4.35176E-14 3.44170E-14
 -1      3423 2.00023E+01 8.61337E-02 3.50413E-04-6.87736E-02-1.09374E-13 2.21320E-13
 -1      3424 2.00018E+01 7.33410E-02-4.11030E-04-5.65623E-02-1.15930E-13 1.72759E-13
 -1      3425 1.99886E+01 1.05607E-01 2.48987E-04-7.25407E-02-2.30893E-14 1.27536E-13
 -1      3426 2.00058E+01 6.25814E-02 2.84253E-04-4.69566E-02-5.35109E-14 1.94984E-13
 -1      3427 2.00049E+01 5.27764E-02-2.99460E-04-3.78953E-02 1.64138E-13 1.62851E-13
 -1      3428 1.99972E+01 7.73128E-02 1.56619E-04-5.03425E-02-3.57731E-14 1.26377E-13
 -1      3429 2.00074E+01 4.45838E-02 2.25207E-04-3.08148E-02 3.51256E-13 1.61333E-13
 -1      3430 2.00064E+01 3.71668E-02-2.14380E-04-2.42212E-02 3.22582E-13 2.15072E-13
 -1      3431 2.00024E+01 5.55513E-02 9.38905E-05-3.37144E-02 1.90791E-13 2.93033E-13
 -1      3432 2.00078E+01 3.10133E-02 1.74586E-04-1.91156E-02 1.33918E-13 2.99110E-13
 -1      3433 2.00068E+01 2.54840E-02-1.50204E-04-1.44236E-02 1.32143E-13 2.85594E-13
 -1      3434 2.00053E+01 3.90351E-02 5.19552E-05-2.15131E-02 2.61210E-13 1.24955E-13
 -1      3435 2.00075E+01 2.09328E-02 1.32516E-04-1.08342E-02 2.25782E-13 2.49829E-13
 -1      3436 2.00066E+01 1.68786E-02-1.02408E-04-7.58305E-03 2.29823E-13 2.37445E-13
 -1      3437 2.00066E+01 2.66823E-02 2.45241E-05-1.27629E-02 1.48904E-13-7.69788E-14
 -1      3438 2.00068E+01 1.35715E-02 9.84365E-05-5.13603E-03 8.53930E-14 1.81566E-13
 -1      3439 2.00060E+01 1.06558E-02-6.73374E-05-2.95732E-03 9.00309E-14 2.65302E-13
 -1      3440 2.00069E+01 1.75943E-02 7.13821E-06-6.65267E-03 8.59977E-14 5.81569E-14
 -1      3441 2.00059E+01 8.30230E-03 7.14416E-05-1.35405E-03 7.89161E-14 2.41047E-13
 -1      3442 2.00052E+01 6.25307E-03-4.20624E-05 4.19757E-05 2.55203E-14 6.72732E-14
 -1      3443 2.00066E+01 1.10342E-02-3.35773E-06-2.52312E-03 1.41536E-13 1.37638E-13
 -1      3444 2.00049E+01 4.61994E-03 5.04994E-05 1.03558E-03-4.00013E-14-3.22458E-14
 -1      3445 2.00044E+01 3.21976E-03-2.42457E-05 1.87282E-03-1.59172E-13-8.64870E-14
 -1      3446 2.00060E+01 6.40387E-03-9.19363E-06 1.50551E-04-9.52737E-14-1.49291E-13
 -1      3447 2.00040E+01 2.12137E-03 3.45847E-05 2.43670E-03-2.02858E-13-1.39682E-13
 -1      3448 2.00036E+01 1.19807E-03-1.20377E-05 2.88509E-03-2.41161E-13-2.14798E-13
 -1      3449 2.00052E+01 3.22353E-03-1.19432E-05 1.77799E-03-1.96410E-13-2.44746E-13
 -1      3450 2.00032E+01 4.88131E-04 2.27589E-05 3.15486E-03-2.43939E-13-1.81000E-13
 -1      3451 2.00028E+01-9.34786E-05-3.99401E-06 3.34075E-03-1.43136E-13-2.03921E-13
 -1      3452 2.00043E+01 1.11190E-03-1.27165E-05 2.67264E-03-2.40863E-13-2.14637E-13
 -1      3453 2.00024E+01-5.29489E-04 1.42093E-05 3.41623E-03 4.62804E-14-1.61250E-13
 -1      3454 2.00022E+01-8.74762E-04 1.01078E-06 3.43124E-03 2.09075E-13 4.77940E-15
 -1      3455 2.00035E+01-2.31212E-04-1.23038E-05 3.06936E-03 1.73275E-14-2.49833E-13
 -1      3456 2.00018E+01-1.12601E-03 8.16454E-06 3.38390E-03 8.48066E-14-5.00617E-14
 -1      3457 2.00016E+01-1.31636E-03 3.94961E-06 3.29237E-03 4.55568E-14-1.86857E-13
 -1      3458 2.00027E+01-1.03991E-03-1.11111E-05 3.13971E-03 1.19343E-13-1.39768E-13
 -1      3459 2.00012E+01-1.45522E-03 3.12620E-06 3.17157E-03 1.00996E-13-3.07636E-13
 -1      3460 2.00011E+01-1.54979E-03 5.88946E-06 3.01480E-03-5.02501E-14-8.40241E-14
 -1      3461 2.00020E+01-1.49483E-03-8.69240E-06 3.00603E-03 1.61317E-14-1.56332E-13
 -1      3462 2.00009E+01-1.64366E-03-1.60984E-06 2.85272E-03-5.61456E-15-5.26289E-14
 -1      3463 2.00008E+01-1.70378E-03 2.89905E-06 2.66257E-03 8.66557E-14 1.21949E-13
 -1      3464 2.00012E+01-1.92113E-03 2.56170E-06 2.40729E-03 1.09363E-13-2.21934E-13
 -1      3465 2.00015E+01-1.75175E-03-3.79476E-06 2.73973E-03 1.23978E-13-1.94326E-13
 -1      3466 2.39454E+01-1.23878E+00-2.23806E-02-1.27871E+00 1.20936E-14-5.49014E-14
 -1      3467 2.41025E+01-6.45665E-01-2.27986E-02-1.68934E+00 8.92897E-14-1.35883E-13
 -1      3468 2.41436E+01 2.25424E-01 8.43214E-03-1.84614E+00 2.03695E-13-1.26910E-13
 -1      3469 2.22475E+01-1.69475E+00 1.89143E-02 4.39653E-01-1.21435E-13-2.81201E-14
 -1      3470 2.25346E+01-1.85464E+00-1.37207E-02 1.82326E-01-8.47827E-14-8.44847E-14
 -1      3471 2.14928E+01-1.26399E+00 1.58675E-02 8.04247E-01-1.26315E-13 7.09527E-14
 -1      3472 2.17733E+01-1.50208E+00-6.90704E-03 6.44823E-01-1.29054E-13 1.03474E-14
 -1      3473 2.19069E+01-1.80463E+00-1.81402E-02 8.79570E-01-1.62043E-13-4.90764E-14
 -1      3474 2.09092E+01-8.01257E-01 1.14661E-02 9.56674E-01-1.69729E-13 2.99338E-14
 -1      3475 2.11378E+01-1.03375E+00-1.86457E-03 8.82632E-01-7.91687E-14 7.84762E-14
 -1      3476 2.11240E+01-1.26335E+00-1.66141E-02 1.11073E+00-9.08160E-14 8.81187E-14
 -1      3477 2.05010E+01-4.07675E-01 7.30958E-03 9.72668E-01-2.18824E-13 9.56994E-14
 -1      3478 2.06699E+01-5.95846E-01 8.94364E-04 9.57238E-01-2.52270E-13 7.14511E-14
 -1      3479 2.05716E+01-7.44733E-01-1.27433E-02 1.14787E+00-2.09175E-13 1.16749E-13
 -1      3480 2.02381E+01-1.15475E-01 4.10350E-03 9.11911E-01-2.02431E-13 1.19504E-13
 -1      3481 2.03544E+01-2.50307E-01 2.02497E-03 9.31923E-01-1.90239E-13 1.01302E-13
 -1      3482 2.02167E+01-3.30896E-01-8.87319E-03 1.07748E+00-2.63859E-13 7.22608E-14
 -1      3483 2.00814E+01 7.97425E-02 1.96257E-03 8.13389E-01-1.22363E-13 2.12875E-13
 -1      3484 2.01571E+01-7.16466E-03 2.25124E-03 8.52874E-01-1.57480E-13 1.74255E-13
 -1      3485 2.00091E+01-3.72190E-02-5.66853E-03 9.58516E-01-2.30020E-13 1.38624E-13
 -1      3486 1.99967E+01 1.95079E-01 5.78303E-04 7.00552E-01 4.33016E-14 1.17946E-13
 -1      3487 2.00437E+01 1.46218E-01 2.11064E-03 7.48880E-01-3.93239E-14 1.66141E-13
 -1      3488 1.99017E+01 1.50532E-01-3.35225E-03 8.23432E-01-6.08873E-14 1.82035E-13
 -1      3489 1.99576E+01 2.50901E-01-2.43901E-04 5.87218E-01 4.95783E-14 1.86379E-13
 -1      3490 1.99856E+01 2.29623E-01 1.83987E-03 6.37639E-01 8.82076E-14 1.27719E-13
 -1      3491 1.98583E+01 2.55273E-01-1.80632E-03 6.89604E-01 8.22578E-14 6.09435E-14
 -1      3492 1.99455E+01 2.65833E-01-6.83176E-04 4.81118E-01 1.39997E-13 1.37819E-13
 -1      3493 1.99614E+01 2.63028E-01 1.56106E-03 5.29520E-01 1.14806E-13 1.74243E-13
 -1      3494 1.98525E+01 3.00212E-01-8.27228E-04 5.65791E-01 6.85962E-14 2.15180E-13
 -1      3495 1.99479E+01 2.54960E-01-8.73715E-04 3.86210E-01 4.35396E-14 1.63090E-13
 -1      3496 1.99567E+01 2.63462E-01 1.31153E-03 4.30263E-01 5.06986E-14 1.26764E-13
 -1      3497 1.98667E+01 3.05242E-01-2.45406E-04 4.55912E-01 9.97969E-14 1.29622E-13
 -1      3498 1.99568E+01 2.29556E-01-9.10111E-04 3.04107E-01 8.32531E-15 1.64599E-13
 -1      3499 1.99616E+01 2.44125E-01 1.09736E-03 3.42679E-01 1.23585E-13 1.64014E-13
 -1      3500 1.98895E+01 2.85881E-01 7.08936E-05 3.61215E-01 7.50617E-14 2.08095E-13
 -1      3501 1.99678E+01 1.97519E-01-8.57177E-04 2.34971E-01-5.62818E-14 5.34450E-14
 -1      3502 1.99705E+01 2.14554E-01 9.14813E-04 2.67724E-01-6.56586E-14 9.30500E-14
 -1      3503 1.99143E+01 2.53449E-01 2.18507E-04 2.81476E-01 1.51368E-14 2.57186E-13
 -1      3504 1.99784E+01 1.64033E-01-7.58235E-04 1.78088E-01-4.30842E-14 1.82224E-13
 -1      3505 1.99800E+01 1.81221E-01 7.58584E-04 2.05187E-01-5.31212E-14 1.26562E-13
 -1      3506 1.99374E+01 2.15720E-01 2.65185E-04 2.15662E-01-1.10545E-13 5.15867E-14
 -1      3507 1.99873E+01 1.32244E-01-6.41287E-04 1.32253E-01-1.52098E-13 2.81576E-13
 -1      3508 1.99885E+01 1.48221E-01 6.24323E-04 1.54165E-01-3.91095E-14 2.84343E-13
 -1      3509 1.99570E+01 1.77702E-01 2.56219E-04 1.62326E-01-1.67158E-13 2.12984E-13
 -1      3510 1.99942E+01 1.03848E-01-5.23543E-04 9.60409E-02-1.45756E-13 2.41024E-13
 -1      3511 1.99952E+01 1.17915E-01 5.08936E-04 1.13385E-01-1.07175E-13 1.85744E-13
 -1      3512 1.99727E+01 1.42354E-01 2.20502E-04 1.19848E-01-1.03440E-13 2.74468E-13
 -1      3513 1.99991E+01 7.95660E-02-4.14769E-04 6.79727E-02-2.19924E-13 1.57661E-13
 -1      3514 2.00001E+01 9.14655E-02 4.10236E-04 8.14234E-02-1.48931E-13 9.68119E-14
 -1      3515 1.99845E+01 1.11201E-01 1.75484E-04 8.65896E-02-1.45475E-13 1.42250E-13
 -1      3516 2.00024E+01 5.94968E-02-3.19753E-04 4.66321E-02 3.90730E-14-1.25088E-13
 -1      3517 2.00034E+01 6.92459E-02 3.26535E-04 5.68530E-02-8.20755E-14 5.30582E-14
 -1      3518 1.99931E+01 8.48093E-02 1.30951E-04 6.09948E-02-6.28116E-14-6.81673E-14
 -1      3519 2.00044E+01 4.33766E-02-2.40094E-04 3.07295E-02 1.59799E-14-6.47358E-14
 -1      3520 2.00053E+01 5.11486E-02 2.56354E-04 3.83337E-02 9.35235E-15-3.79093E-14
 -1      3521 1.99989E+01 6.31493E-02 9.17725E-05 4.16469E-02-5.13113E-14-2.61788E-13
 -1      3522 2.00053E+01 3.07528E-02-1.75468E-04 1.91343E-02 9.06723E-14-1.60142E-13
 -1      3523 2.00062E+01 3.67974E-02 1.98273E-04 2.46640E-02 6.78329E-14-9.02275E-14
 -1      3524 2.00026E+01 4.58473E-02 5.98150E-05 2.72983E-02 1.31961E-14-1.42948E-13
 -1      3525 2.00056E+01 2.11004E-02-1.24497E-04 1.08850E-02 1.70492E-13 6.31055E-14
 -1      3526 2.00064E+01 2.56917E-02 1.50878E-04 1.48039E-02 1.15059E-13-1.08109E-13
 -1      3527 2.00047E+01 3.23605E-02 3.52325E-05 1.68794E-02 4.24062E-14-2.11039E-13
 -1      3528 2.00054E+01 1.38930E-02-8.53229E-05 5.18437E-03 7.23825E-14 1.75608E-13
 -1      3529 2.00061E+01 1.72983E-02 1.12771E-04 7.87786E-03 2.09267E-13 2.20706E-13
 -1      3530 2.00057E+01 2.20904E-02 1.72975E-05 9.49512E-03-1.47900E-14 7.80834E-14
 -1      3531 2.00049E+01 8.64304E-03-5.59653E-05 1.38649E-03 4.34691E-14 6.94968E-14
 -1      3532 2.00055E+01 1.11055E-02 8.25993E-05 3.16719E-03 4.39231E-14 4.81373E-14
 -1      3533 2.00059E+01 1.44510E-02 4.91368E-06 4.41152E-03 1.03724E-13 2.03636E-13
 -1      3534 2.00043E+01 4.92191E-03-3.45357E-05-1.02151E-03 1.32445E-13 5.23304E-14
 -1      3535 2.00048E+01 6.65297E-03 5.90915E-05 9.44829E-05 9.94709E-14 4.77969E-14
 -1      3536 2.00057E+01 8.90757E-03-3.08710E-06 1.03876E-03 1.15935E-13 6.88244E-14
 -1      3537 2.00036E+01 2.36635E-03-1.93461E-05-2.43844E-03-5.59141E-14 8.11289E-14
 -1      3538 2.00040E+01 3.54354E-03 4.10891E-05-1.79453E-03 8.26139E-14 1.30482E-13
 -1      3539 2.00051E+01 4.99426E-03-7.78756E-06-1.08843E-03 6.34272E-14 1.44405E-13
 -1      3540 2.00029E+01 6.76819E-04-8.95848E-06-3.16808E-03-4.07982E-13 2.25005E-13
 -1      3541 2.00033E+01 1.44556E-03 2.75631E-05-2.84994E-03-2.69036E-13 4.09118E-14
 -1      3542 2.00044E+01 2.31861E-03-1.01173E-05-2.33014E-03-9.45372E-14 2.27620E-13
 -1      3543 2.00023E+01-3.88584E-04-2.21655E-06-3.43657E-03-4.80228E-13 4.28766E-13
 -1      3544 2.00026E+01 8.85623E-05 1.76115E-05-3.33574E-03-5.48005E-13 2.42075E-13
 -1      3545 2.00037E+01 5.58468E-04-1.08485E-05-2.95955E-03-5.25083E-13 2.23819E-13
 -1      3546 2.00017E+01-1.02235E-03 1.88919E-06-3.40777E-03-1.45230E-13 4.13717E-13
 -1      3547 2.00019E+01-7.44183E-04 1.04473E-05-3.44617E-03-2.38296E-13 4.43589E-13
 -1      3548 2.00029E+01-5.45491E-04-1.06110E-05-3.17948E-03-3.90460E-13 1.75498E-13
 -1      3549 2.00012E+01-1.37610E-03 4.08251E-06-3.19634E-03-1.16973E-13 3.16428E-13
 -1      3550 2.00014E+01-1.22380E-03 5.68272E-06-3.31962E-03-1.29880E-13 2.88738E-13
 -1      3551 2.00022E+01-1.19963E-03-9.89338E-06-3.13537E-03-1.21707E-13 3.19150E-13
 -1      3552 2.00008E+01-1.57224E-03 5.18336E-06-2.88571E-03 6.22881E-14 5.00167E-13
 -1      3553 2.00009E+01-1.48097E-03 3.99135E-06-3.05269E-03-6.57627E-14 4.10609E-13
 -1      3554 2.00016E+01-1.56620E-03-1.04384E-05-2.93093E-03-1.53237E-13 4.72149E-13
 -1      3555 1.84536E+01-2.77835E+00-8.77569E-02 4.59984E+00-4.55046E-13-2.39874E-13
 -1      3556 1.64055E+01-1.55929E+00 8.90832E-02 4.54053E+00-4.70813E-13-9.36126E-14
 -1      3557 2.38158E+01 1.59477E+00-6.97584E-02-1.95416E+00 3.38805E-13-9.84334E-14
 -1      3558 2.37010E+01 2.61002E+00 1.32424E-02-1.60589E+00 3.71300E-13-3.30530E-14
 -1      3559 1.64679E+01 2.33686E+00 2.41999E-02 1.35560E+00 1.88888E-14-3.59086E-13
 -1      3560 1.71906E+01 2.47296E+00-1.13626E-02 1.24325E+00-9.07998E-15-3.31663E-13
 -1      3561 2.29769E+01-3.86061E+00-8.47898E-02 2.70035E+00-2.75403E-13-2.87538E-13
 -1      3562 2.10841E+01-3.28143E+00 1.00122E-01 3.83335E+00-3.72593E-13-2.42955E-13
 -1      3563 1.56497E+01-6.29551E-01 7.63836E-02-3.77019E+00 3.11752E-13-6.96457E-14
 -1      3564 2.50094E+01-2.95523E+00-5.94707E-02 2.30381E-01-4.95576E-14-1.06795E-13
 -1      3565 2.45139E+01-3.45272E+00 6.72339E-02 1.35496E+00-1.52149E-13-2.31162E-13
 -1      3566 2.00016E+01-2.05487E-03 1.94448E-06 2.07014E-03 6.75051E-14-1.60593E-13
 -1      3567 2.00019E+01-2.18568E-03 1.24942E-06 1.75956E-03 8.22598E-14 1.99209E-14
 -1      3568 2.00018E+01-1.97151E-03-3.82876E-06 2.24145E-03 7.01202E-14-2.86706E-14
 -1      3569 2.00021E+01-2.26497E-03 3.65388E-06 1.34683E-03 6.31348E-15 8.72454E-14
 -1      3570 2.00023E+01-2.34450E-03-3.05212E-06 9.54847E-04-9.38015E-14 2.22960E-13
 -1      3571 2.00024E+01-2.16766E-03-2.77923E-07 1.48424E-03 1.02496E-15 7.03956E-14
 -1      3572 1.14898E+01 8.55590E-01-1.91600E-02 1.00769E+00-1.77872E-13 3.67061E-13
 -1      3573 1.14861E+01 9.20474E-01 6.35322E-02-7.38426E-01-8.18443E-15 4.33369E-13
 -1      3574 1.63631E+01-3.44389E-01 7.32656E-02 3.64554E+00 2.14818E-13-3.16774E-13
 -1      3575 1.42137E+01-2.81746E-01 8.89312E-02 3.92693E+00 2.30149E-13-3.91520E-13
 -1      3576 1.30841E+01 9.43305E-01 5.72240E-02 2.69020E+00 1.53754E-13-4.59396E-13
 -1      3577 1.59342E+01 6.12734E-01 2.35426E-02 2.98620E+00 1.60070E-13-3.21090E-13
 -1      3578 1.42081E+01-6.40789E-01-2.94562E-02 4.03073E+00-4.24372E-13 5.16115E-14
 -1      3579 1.26563E+01 4.74834E-01 8.29331E-02 2.62401E+00-3.31661E-13 3.57200E-13
 -1      3580 2.57296E+01 5.03113E+00-1.11757E-01-9.82011E-01 5.53391E-13 2.41196E-14
 -1      3581 2.49720E+01 3.88099E+00-4.36725E-02-1.39405E+00 4.35020E-13-6.06841E-14
 -1      3582 1.55813E+01 3.08697E+00 2.18039E-02-1.71301E+00-3.43584E-16-4.27129E-13
 -1      3583 1.51323E+01 3.26064E+00-2.39162E-02-1.40587E+00-1.13083E-14-4.45372E-13
 -1      3584 1.46904E+01 3.10201E+00 2.27243E-02-1.23440E+00-1.16174E-14-4.74845E-13
 -1      3585 1.29565E+01 1.62670E+00-5.17309E-04-2.85490E+00-8.26630E-14-5.16719E-13
 -1      3586 1.37973E+01 7.26025E-01 8.79513E-02-4.05787E+00-1.60493E-13-4.65745E-13
 -1      3587 1.54416E+01 4.23246E-01 2.50004E-02-3.89630E+00-1.75738E-13-3.95819E-13
 -1      3588 1.17639E+01 1.84382E+00 3.13919E-02 9.55617E-01 9.07295E-14-5.40651E-13
 -1      3589 1.20749E+01 6.23484E-01 5.81861E-02-1.91697E+00 1.63007E-13 4.52874E-13
 -1      3590 1.35503E+01-1.07226E-01 1.70739E-02-3.24961E+00 2.89539E-13 1.83034E-13
 -1      3591 1.32043E+01 9.98152E-01 7.45261E-02-1.21434E+00 3.37647E-14 2.79402E-13
 -1      3592 2.52484E+01 3.88545E+00-4.76238E-02 1.63215E+00 4.08500E-13 2.40676E-13
 -1      3593 2.50564E+01 4.77102E+00-9.43806E-02 6.85166E-01 5.32061E-13 2.05908E-13
 -1      3594 2.47858E+01 2.69306E+00-2.28150E-02 1.77603E+00 2.56951E-13 3.03250E-13
 -1      3595 2.35359E+01-2.91979E+00 8.24655E-02-2.28163E+00-2.30676E-13 1.38691E-15
 -1      3596 2.44505E+01-2.92578E+00-1.08148E-01-9.95294E-01-1.55344E-13 6.51277E-14
 -1      3597 2.25215E+01-2.40247E+00 1.80887E-02-2.34653E+00-1.81657E-13-6.73732E-14
 -1      3598 2.32209E+01-1.91082E+00 5.25195E-03-2.98834E-01-7.46453E-14-8.08455E-14
 -1      3599 2.34859E+01-1.74883E+00 4.26231E-03-6.70944E-01-4.06216E-14-5.99698E-14
 -1      3600 2.43207E+01-1.64529E+00 6.19378E-03-9.48854E-01 1.82805E-14-5.30973E-14
 -1      3601 2.30497E+01-2.18681E+00-1.46996E-02 2.45291E-01-8.59377E-14-1.03525E-13
 -1      3602 2.00012E+01-2.05723E-03 3.18332E-06-2.04465E-03 5.85491E-14 4.60912E-13
 -1      3603 2.25209E+01-1.03243E+00-2.22470E-02-1.52794E-02 6.61927E-14 1.11142E-14
 -1      3604 2.20100E+01-4.24487E-01 1.46828E-02-2.01971E-01 1.04685E-13-3.38629E-14
 -1      3605 2.16533E+01-3.88334E-01-1.47233E-03-6.08702E-01 9.18927E-14-9.14911E-14
 -1      3606 2.27787E+01-1.34620E+00-2.91513E-02-2.49855E-01 3.96124E-14 2.03518E-14
 -1      3607 2.48906E+01 4.94330E+00-8.85798E-02-3.41093E-01 5.39992E-13 1.09546E-13
 -1      3608 2.49642E+01 2.61658E+00-1.30218E-01-1.98627E+00 4.06699E-13-7.10647E-14
 -1      3609 2.53559E+01 1.87996E+00 1.73976E-02-2.11796E+00 3.97501E-13-1.48291E-13
 -1      3610 2.43943E+01 4.21517E+00-5.77759E-02 2.87438E-01 4.60812E-13 1.30364E-13
 -1      3611 2.36145E+01 3.58014E+00-2.48586E-02 6.67421E-01 3.97515E-13 1.97990E-13
 -1      3612 1.55621E+01 6.56226E-02 3.51191E-02-3.04640E+00 2.66467E-13-4.94049E-15
 -1      3613 2.43589E+01 3.40492E+00-4.24727E-02-1.42534E+00 4.15664E-13-6.92883E-14
 -1      3614 2.00025E+01-2.39071E-03-1.20173E-06-2.41903E-04-1.76962E-13-2.77476E-13
 -1      3615 2.00024E+01-2.35653E-03 1.56146E-06-6.69173E-04-1.38222E-13-3.93574E-13
 -1      3616 2.37277E+01 3.00765E+00-6.67785E-02 1.30240E+00 2.86150E-13 2.43650E-13
 -1      3617 2.47830E+01-2.55873E+00-3.53919E-02-2.09425E-01-2.51392E-14-9.88641E-14
 -1      3618 2.43754E+01-8.10201E-01-8.76026E-03 1.42391E+00 6.28456E-14 2.70351E-13
 -1      3619 2.42082E+01-1.24992E+00 5.74124E-03 1.05638E+00 2.30623E-14 2.14166E-13
 -1      3620 2.47316E+01 6.66488E-01-2.37060E-02-1.93496E+00 2.75176E-13-1.22506E-13
 -1      3621 2.00024E+01-2.37153E-03 3.36765E-06 5.19771E-04-2.10422E-13 2.07517E-13
 -1      3622 2.00023E+01-2.30052E-03 5.00036E-06-1.11771E-03-1.73744E-13-2.95598E-13
 -1      3623 2.00021E+01-2.23389E-03-1.20394E-06-1.49877E-03-2.83923E-13 9.22818E-15
 -1      3624 2.00027E+01-2.22820E-03-3.75795E-06-9.41106E-04-2.18676E-13-3.46484E-13
 -1      3625 1.60796E+01-7.27859E-01 5.86043E-02 3.68771E+00-3.37201E-13-4.83728E-14
 -1      3626 2.00715E+01-2.56136E+00 4.72298E-02 3.62369E+00-3.67768E-13-1.99177E-13
 -1      3627 2.00004E+01-1.63257E-03 3.45225E-06-2.65811E-03 1.42340E-13 5.18136E-13
 -1      3628 2.00010E+01-1.77270E-03-1.09680E-05-2.60182E-03 6.33064E-14 5.72481E-13
 -1      3629 2.39601E+01 2.01863E+00-1.75424E-02 1.70617E+00 1.75790E-13 3.06742E-13
 -1      3630 2.42263E+01-1.66628E+00-2.93261E-02 5.22555E-01-1.33513E-14 1.66697E-13
 -1      3631 2.40554E+01 1.07796E+00-8.33577E-02 1.92180E+00 1.50993E-13 3.18075E-13
 -1      3632 1.33180E+01 8.57294E-01 6.72751E-02 1.55123E+00-2.01674E-13 2.78954E-13
 -1      3633 2.32592E+01-3.26341E+00 1.76114E-03 1.80248E+00-1.82797E-13-1.00941E-13
 -1      3634 1.57746E+01 2.46093E+00 1.78289E-02-2.16779E+00-2.19269E-14-4.10497E-13
 -1      3635 2.05957E+01 3.58826E-01 7.08646E-03-1.07281E+00 1.10698E-13-1.68976E-13
 -1      3636 1.81718E+01 8.07020E-01 4.44967E-02-2.72070E+00-2.86771E-14-2.99545E-13
 -1      3637 1.70281E+01 1.17500E+00-2.56896E-02-2.85911E+00-5.43554E-14-3.45050E-13
 -1      3638 2.00016E+01-1.96555E-03 7.58520E-06-2.20466E-03-2.00857E-14 3.84903E-13
 -1      3639 1.89500E+01-1.48675E+00 2.12348E-03-4.04627E+00-2.16795E-13-2.55971E-13
 -1      3640 1.61954E+01 1.84668E+00-5.13600E-03 1.83622E+00 4.35285E-14-3.39836E-13
 -1      3641 1.60844E+01 1.31176E+00 4.31548E-02 2.34096E+00 1.02588E-13-3.48737E-13
 -1      3642 1.47121E+01 1.41824E+00 1.25150E-03 2.31680E+00 1.15752E-13-3.74988E-13
 -1      3643 1.51415E+01 2.43252E+00-1.69797E-02 1.23383E+00 4.12240E-14-3.95544E-13
 -1      3644 1.35486E+01 2.83852E+00 2.80935E-02-3.82033E-01 1.57365E-14-5.10801E-13
 -1      3645 1.39474E+01 2.72194E+00 2.32391E-02 3.54791E-01 2.24506E-14-4.69881E-13
 -1      3646 1.61982E+01 1.17113E-01 1.19423E-02-2.97952E+00 2.25524E-13-1.26624E-13
 -1      3647 1.64134E+01 5.86736E-01-1.34771E-02-2.53826E+00 1.24178E-13-7.29191E-14
 -1      3648 2.00705E+01 3.36312E-02 9.77906E-03-1.97490E+00 4.72721E-14-1.77243E-13
 -1      3649 1.91794E+01 3.63002E-01 1.58022E-03-2.34018E+00-4.29843E-15-2.32510E-13
 -1      3650 1.88461E+01-1.05171E-01-1.76570E-02-2.89384E+00-5.69718E-14-2.29693E-13
 -1      3651 1.36170E+01 2.29331E+00 3.89719E-02 8.61729E-01 4.13437E-14-4.67612E-13
 -1      3652 1.58091E+01 9.79574E-01 1.53782E-02-2.00320E+00 1.40792E-13-9.00057E-14
 -1      3653 2.44153E+01-1.41307E-01-1.32522E-02 1.64594E+00 7.16007E-14 2.80797E-13
 -1      3654 1.29312E+01 2.52420E+00 1.36494E-02-9.75008E-01-1.14275E-14-5.50081E-13
 -1      3655 1.28240E+01 2.30872E+00 8.48401E-02-1.97151E+00-5.21211E-14-5.70807E-13
 -1      3656 1.61604E+01 1.34659E+00 1.16876E-02-1.04798E+00 7.19602E-14-2.93630E-14
 -1      3657 1.66046E+01 1.35542E+00-1.85460E-02-9.35149E-01-1.48479E-14 2.05305E-15
 -1      3658 1.71509E+01 1.35929E+00-5.17855E-03-8.87359E-01-1.29823E-14-5.13410E-14
 -1      3659 1.75188E+01 1.32444E+00-1.30138E-02-8.07125E-01-2.69619E-14-4.08706E-14
 -1      3660 1.66264E+01 1.46729E+00 2.97183E-02-4.93899E-01-1.94695E-14-1.02889E-13
 -1      3661 1.79140E+01 1.27909E+00-5.50744E-03-7.80336E-01-8.03339E-14-4.60743E-15
 -1      3662 1.81921E+01 1.21595E+00-8.59587E-03-7.17167E-01-6.45024E-14 1.80690E-14
 -1      3663 1.75262E+01 1.37355E+00 1.91026E-02-4.83062E-01 1.57205E-14-8.79624E-15
 -1      3664 1.84813E+01 1.14710E+00-4.44626E-03-6.91362E-01-9.65435E-14 4.57116E-15
 -1      3665 1.86882E+01 1.07096E+00-6.12113E-03-6.35079E-01-7.12982E-14 1.02606E-14
 -1      3666 1.81804E+01 1.23819E+00 1.26295E-02-4.74317E-01-1.30323E-13 9.35114E-14
 -1      3667 1.89027E+01 9.94026E-01-3.24721E-03-6.06218E-01-5.81171E-14-6.46623E-14
 -1      3668 1.90546E+01 9.15539E-01-4.55877E-03-5.53169E-01-9.42239E-14-8.28100E-14
 -1      3669 1.86660E+01 1.08358E+00 9.03800E-03-4.50356E-01-1.27264E-13-6.23817E-15
 -1      3670 1.92145E+01 8.39549E-01-2.19700E-03-5.21603E-01-8.20196E-14-1.16607E-13
 -1      3671 1.93246E+01 7.65019E-01-3.52821E-03-4.71608E-01-1.31747E-13-1.26953E-13
 -1      3672 1.90280E+01 9.25050E-01 6.62635E-03-4.11695E-01-1.02708E-13-1.81219E-13
 -1      3673 1.94438E+01 6.94874E-01-1.37751E-03-4.39113E-01-1.53055E-13-8.91476E-14
 -1      3674 1.95226E+01 6.27601E-01-2.79248E-03-3.93084E-01-1.20226E-13-9.40751E-14
 -1      3675 1.92976E+01 7.73760E-01 4.88507E-03-3.63099E-01-1.22587E-13-1.99193E-13
 -1      3676 1.96112E+01 5.65563E-01-7.78958E-04-3.61559E-01-2.28192E-14 1.14015E-14
 -1      3677 1.96670E+01 5.06891E-01-2.23005E-03-3.20420E-01-1.74069E-14 1.39904E-13
 -1      3678 1.94978E+01 6.36047E-01 3.59954E-03-3.10055E-01 2.87509E-14-6.11977E-14
 -1      3679 1.97325E+01 4.53624E-01-3.67914E-04-2.91335E-01-2.72936E-13 2.24974E-13
 -1      3680 1.97714E+01 4.03721E-01-1.78055E-03-2.55622E-01-3.40081E-13 6.86098E-14
 -1      3681 1.96456E+01 5.14852E-01 2.64336E-03-2.57209E-01-1.18628E-13-3.52628E-14
 -1      3682 1.98195E+01 3.58979E-01-1.03273E-04-2.29877E-01-1.86498E-13 7.55399E-14
 -1      3683 1.98463E+01 3.17355E-01-1.41353E-03-1.99694E-01-6.74619E-14-7.79291E-14
 -1      3684 1.97539E+01 4.10884E-01 1.93134E-03-2.07840E-01-2.66206E-13 1.42904E-13
 -1      3685 1.98814E+01 2.80423E-01 5.41766E-05-1.77680E-01 5.76901E-15-1.02415E-13
 -1      3686 1.98996E+01 2.46262E-01-1.11213E-03-1.52777E-01 3.44461E-14-7.58597E-14
 -1      3687 1.98327E+01 3.23495E-01 1.40211E-03-1.63896E-01-4.08442E-14 1.39637E-14
 -1      3688 1.99248E+01 2.16225E-01 1.37449E-04-1.34503E-01 5.97875E-14-1.33430E-13
 -1      3689 1.99369E+01 1.88586E-01-8.65395E-04-1.14404E-01 3.46323E-14-8.81761E-14
 -1      3690 1.98894E+01 2.51291E-01 1.01000E-03-1.26247E-01 2.78341E-14-2.40437E-13
 -1      3691 1.99549E+01 1.64481E-01 1.72169E-04-9.96237E-02-2.06618E-15 6.42075E-16
 -1      3692 1.99628E+01 1.42414E-01-6.65029E-04-8.37309E-02-2.63957E-14-3.57340E-14
 -1      3693 1.99296E+01 1.92531E-01 7.20632E-04-9.49952E-02 5.53850E-14-7.96952E-14
 -1      3694 1.99753E+01 1.23315E-01 1.77050E-04-7.20566E-02 1.90453E-14-1.99024E-14
 -1      3695 1.99802E+01 1.05923E-01-5.04009E-04-5.97344E-02 4.06013E-14 6.91863E-14
 -1      3696 1.99578E+01 1.45381E-01 5.08079E-04-6.97513E-02 4.56572E-14 6.16805E-14
 -1      3697 1.99888E+01 9.09806E-02 1.65082E-04-5.07182E-02-3.32599E-14 3.30293E-14
 -1      3698 1.99918E+01 7.74515E-02-3.76134E-04-4.13491E-02 7.18104E-14 1.81062E-13
 -1      3699 1.99770E+01 1.08057E-01 3.52824E-04-4.98555E-02 4.77594E-14 1.98623E-13
 -1      3700 1.99975E+01 6.59132E-02 1.44859E-04-3.45382E-02 8.91680E-14 1.29820E-13
 -1      3701 1.99991E+01 5.55315E-02-2.75870E-04-2.75560E-02 1.65365E-13 7.46257E-14
 -1      3702 1.99899E+01 7.89104E-02 2.40212E-04-3.45331E-02 8.12521E-14 1.22493E-13
 -1      3703 2.00027E+01 4.67447E-02 1.21781E-04-2.25271E-02 1.58037E-13-2.46100E-14
 -1      3704 2.00034E+01 3.88937E-02-1.98321E-04-1.74346E-02 1.08184E-13-1.00397E-13
 -1      3705 1.99981E+01 5.64664E-02 1.59255E-04-2.29979E-02 4.59174E-14-1.33554E-13
 -1      3706 2.00056E+01 3.23025E-02 9.90305E-05-1.38118E-02 2.23347E-13-3.44203E-15
 -1      3707 2.00057E+01 2.64596E-02-1.39209E-04-1.01858E-02 2.61137E-13 1.27395E-14
 -1      3708 2.00031E+01 3.94381E-02 1.01723E-04-1.45152E-02 2.18853E-13-1.65443E-13
 -1      3709 2.00069E+01 2.15978E-02 7.83147E-05-7.64816E-03 6.95664E-14 3.00640E-14
 -1      3710 2.00067E+01 1.73270E-02-9.48640E-05-5.13868E-03 9.03807E-14 8.65592E-14
 -1      3711 2.00058E+01 2.67252E-02 6.14502E-05-8.43383E-03 1.91958E-13-1.42546E-14
 -1      3712 2.00072E+01 1.38090E-02 6.03961E-05-3.42031E-03 1.27737E-13 4.62534E-14
 -1      3713 2.00068E+01 1.07517E-02-6.21832E-05-1.74388E-03 1.00544E-13 2.33620E-14
 -1      3714 2.00071E+01 1.74029E-02 3.38177E-05-4.19921E-03 5.86079E-14 6.29660E-14
 -1      3715 2.00069E+01 8.26252E-03 4.54654E-05-6.30372E-04-6.48638E-14-2.23017E-13
 -1      3716 2.00064E+01 6.12728E-03-3.85878E-05 4.37503E-04-1.76511E-13-2.77221E-13
 -1      3717 2.00073E+01 1.07059E-02 1.53642E-05-1.35364E-03-7.71169E-14-2.53068E-13
 -1      3718 2.00062E+01 4.41319E-03 3.33881E-05 1.11509E-03-9.88192E-14-3.14624E-13
 -1      3719 2.00057E+01 2.96626E-03-2.19670E-05 1.74869E-03-1.67614E-13-2.76095E-13
 -1      3720 2.00069E+01 6.00974E-03 3.49908E-06 4.70798E-04-1.45409E-13-3.14665E-13
 -1      3721 2.00054E+01 1.82481E-03 2.38623E-05 2.12052E-03-2.20941E-13-2.14154E-13
 -1      3722 2.00049E+01 8.80783E-04-1.05992E-05 2.45237E-03-1.20639E-13-1.53185E-13
 -1      3723 2.00062E+01 2.81158E-03-3.71084E-06 1.56277E-03-1.55983E-13-3.37490E-13
 -1      3724 2.00045E+01 1.52228E-04 1.65418E-05 2.61660E-03-3.45351E-14-8.00244E-14
 -1      3725 2.00040E+01-4.34842E-04-3.20052E-06 2.74533E-03 7.08699E-14-9.47881E-14
 -1      3726 2.00053E+01 7.11343E-04-7.70598E-06 2.14370E-03 2.69560E-15-1.21899E-13
 -1      3727 2.00036E+01-8.75891E-04 1.10986E-05 2.77358E-03 1.32986E-13-1.11093E-13
 -1      3728 2.00032E+01-1.21898E-03 1.63554E-06 2.77014E-03 4.53586E-14-1.29067E-13
 -1      3729 2.00044E+01-6.07542E-04-9.76443E-06 2.37976E-03 6.34753E-14-1.11240E-13
 -1      3730 2.00027E+01-1.47271E-03 5.89498E-06 2.71417E-03-4.81151E-15-1.78703E-13
 -1      3731 2.00024E+01-1.65450E-03 4.67834E-06 2.62748E-03 3.12079E-14-2.65636E-13
 -1      3732 2.00035E+01-1.38687E-03-9.21948E-06 2.39113E-03-6.20342E-14-3.05700E-13
 -1      3733 2.00022E+01-1.76929E-03-9.78238E-08 2.51382E-03-5.19514E-14-1.20574E-13
 -1      3734 2.00020E+01-1.87783E-03 3.96453E-06 2.35804E-03-7.72908E-15-8.30767E-14
 -1      3735 2.00024E+01-2.00697E-03-2.93294E-06 2.01991E-03 8.50714E-14-2.51816E-13
 -1      3736 2.00028E+01-1.79170E-03-6.65139E-06 2.24425E-03 4.69106E-14-1.99844E-13
 -1      3737 2.02133E+01-5.37681E-01 7.91724E-03 1.31981E+00-2.46054E-13 1.48236E-13
 -1      3738 2.04396E+01-7.89752E-01 5.62192E-03 1.35367E+00-1.75311E-13 1.38360E-13
 -1      3739 2.00028E+01-2.27595E-03-7.30412E-07 2.94477E-04-2.10297E-13 2.22057E-14
 -1      3740 2.07155E+01-1.07371E+00 1.32078E-02 1.42816E+00-1.09136E-13 1.03637E-13
 -1      3741 2.10473E+01-1.38955E+00 3.16212E-03 1.39821E+00-1.03564E-13 7.06568E-14
 -1      3742 2.02238E+01-9.30695E-01-1.68503E-02 1.63205E+00-1.77892E-13 1.62782E-13
 -1      3743 2.15035E+01-1.71777E+00 2.17520E-02 1.38931E+00-1.88287E-13 4.80451E-14
 -1      3744 2.19356E+01-2.05948E+00-5.24105E-03 1.24544E+00-1.86564E-13-5.31476E-15
 -1      3745 2.09079E+01-1.63525E+00-2.18292E-02 1.77005E+00-1.44606E-13 3.99548E-14
 -1      3746 1.99221E+01-1.48090E-01 3.54163E-03 1.15217E+00-2.76552E-13 1.88404E-13
 -1      3747 2.00633E+01-3.25250E-01 5.44789E-03 1.21507E+00-2.53154E-13 1.64813E-13
 -1      3748 1.98346E+01-3.93411E-01-1.20562E-02 1.41128E+00-2.42719E-13 1.46636E-13
 -1      3749 1.97757E+01 1.10046E-01 1.13093E-03 9.73513E-01-2.41867E-13 2.20170E-13
 -1      3750 1.98564E+01-3.74266E-03 4.69142E-03 1.04568E+00-3.06426E-13 1.62971E-13
 -1      3751 1.96415E+01-1.80082E-02-6.80677E-03 1.17430E+00-2.93656E-13 1.73212E-13
 -1      3752 1.97208E+01 2.62923E-01-2.74969E-04 8.04166E-01-2.10966E-14 1.76335E-13
 -1      3753 1.97608E+01 1.98798E-01 3.73643E-03 8.75686E-01-1.16404E-13 1.63886E-13
 -1      3754 1.95710E+01 2.17192E-01-3.57390E-03 9.56180E-01-1.25662E-13 1.42155E-13
 -1      3755 1.97200E+01 3.37994E-01-9.95379E-04 6.53045E-01 5.53357E-14 1.90880E-13
 -1      3756 1.97345E+01 3.09604E-01 2.81028E-03 7.19172E-01 5.91663E-14 1.67934E-13
 -1      3757 1.95732E+01 3.46837E-01-1.62697E-03 7.66706E-01 3.97633E-14 2.07573E-13
 -1      3758 1.97479E+01 3.59501E-01-1.30281E-03 5.22701E-01 1.19634E-13 2.10452E-13
 -1      3759 1.97478E+01 3.55118E-01 2.07380E-03 5.81402E-01 1.34694E-13 2.55898E-13
 -1      3760 1.96144E+01 4.01668E-01-4.60718E-04 6.07690E-01 6.15943E-14 3.14257E-13
 -1      3761 1.97882E+01 3.46833E-01-1.37071E-03 4.12753E-01 8.54306E-14 2.09264E-13
 -1      3762 1.97808E+01 3.57332E-01 1.52748E-03 4.63435E-01 9.00737E-14 1.38001E-13
 -1      3763 1.96728E+01 4.06803E-01 1.98738E-04 4.76749E-01 1.08786E-13 2.91391E-13
 -1      3764 1.98313E+01 3.14500E-01-1.30494E-03 3.21576E-01-1.98428E-14 2.35376E-13
 -1      3765 1.98210E+01 3.33185E-01 1.13333E-03 3.64401E-01 7.35942E-14 2.09408E-13
 -1      3766 1.97352E+01 3.81420E-01 5.30173E-04 3.70263E-01 5.50506E-14 2.57378E-13
 -1      3767 1.98716E+01 2.72774E-01-1.17027E-03 2.47070E-01-3.14963E-14 2.89269E-13
 -1      3768 1.98611E+01 2.94988E-01 8.51445E-04 2.82590E-01-4.46866E-14 2.88604E-13
 -1      3769 1.97942E+01 3.39462E-01 6.56443E-04 2.84515E-01-1.05969E-13 2.25458E-13
 -1      3770 1.99064E+01 2.28507E-01-1.00659E-03 1.87022E-01-1.83185E-13 1.14892E-13
 -1      3771 1.98970E+01 2.51204E-01 6.48951E-04 2.15986E-01-5.87569E-14 1.74487E-13
 -1      3772 1.98459E+01 2.90570E-01 6.61427E-04 2.16092E-01-3.99502E-14 1.61427E-13
 -1      3773 1.99349E+01 1.85964E-01-8.38201E-04 1.39281E-01-2.16188E-13 1.56757E-13
 -1      3774 1.99272E+01 2.07300E-01 5.01380E-04 1.62518E-01-2.50359E-13 1.35030E-13
 -1      3775 1.98890E+01 2.41038E-01 6.01018E-04 1.61998E-01-1.78633E-13 1.20979E-13
 -1      3776 1.99573E+01 1.47532E-01-6.79282E-04 1.01847E-01-1.33981E-13 2.06673E-13
 -1      3777 1.99513E+01 1.66519E-01 3.91577E-04 1.20192E-01-1.12772E-13 1.96090E-13
 -1      3778 1.99233E+01 1.94663E-01 5.11169E-04 1.19657E-01-1.57814E-13 2.76248E-14
 -1      3779 1.99741E+01 1.14310E-01-5.37343E-04 7.29137E-02-1.23556E-13 4.51347E-14
 -1      3780 1.99697E+01 1.30541E-01 3.07957E-04 8.71632E-02-1.08861E-13 9.84917E-14
 -1      3781 1.99498E+01 1.53469E-01 4.13892E-04 8.68739E-02-9.06749E-14 7.27824E-14
 -1      3782 1.99862E+01 8.65575E-02-4.15535E-04 5.08884E-02 3.58997E-14-8.36465E-14
 -1      3783 1.99833E+01 9.99965E-02 2.42875E-04 6.17731E-02-6.83436E-15-4.29928E-14
 -1      3784 1.99695E+01 1.18274E-01 3.21701E-04 6.17945E-02-7.95777E-15 7.52461E-15
 -1      3785 1.99947E+01 6.40222E-02-3.14249E-04 3.43952E-02-1.19389E-13-7.80939E-14
 -1      3786 1.99928E+01 7.48528E-02 1.91330E-04 4.25634E-02-7.03486E-14-1.63116E-13
 -1      3787 1.99836E+01 8.91275E-02 2.40859E-04 4.28632E-02 2.14757E-14-4.88823E-14
 -1      3788 2.00002E+01 4.61742E-02-2.32240E-04 2.22667E-02 3.43001E-14-3.98602E-14
 -1      3789 1.99991E+01 5.46944E-02 1.50026E-04 2.82793E-02-3.56994E-14-1.29409E-13
 -1      3790 1.99933E+01 6.56199E-02 1.73691E-04 2.87860E-02-7.98570E-14-1.39940E-13
 -1      3791 2.00035E+01 3.23620E-02-1.67398E-04 1.35302E-02-8.59055E-14-3.22582E-14
 -1      3792 2.00031E+01 3.89138E-02 1.16739E-04 1.78610E-02 5.48556E-15-6.14525E-14
 -1      3793 1.99997E+01 4.71050E-02 1.20194E-04 1.84960E-02 7.65856E-15-7.08365E-14
 -1      3794 2.00054E+01 2.19113E-02-1.17258E-04 7.38781E-03-1.69811E-14-1.21655E-14
 -1      3795 2.00053E+01 2.68374E-02 8.99003E-05 1.04292E-02-8.33198E-14-3.38776E-14
 -1      3796 2.00036E+01 3.28451E-02 7.91144E-05 1.11231E-02-1.13673E-13-6.66737E-14
 -1      3797 2.00061E+01 1.41846E-02-7.93281E-05 3.19604E-03 1.12664E-13 5.16462E-14
 -1      3798 2.00063E+01 1.78027E-02 6.83431E-05 5.26656E-03 1.00569E-13 4.88500E-14
 -1      3799 2.00057E+01 2.21027E-02 4.86372E-05 5.96541E-03 3.36765E-14-1.09377E-13
 -1      3800 2.00061E+01 8.61173E-03-5.12811E-05 4.44059E-04 1.29141E-13 1.00699E-13
 -1      3801 2.00064E+01 1.12024E-02 5.11545E-05 1.79779E-03 1.19667E-13 1.63465E-13
 -1      3802 2.00066E+01 1.41936E-02 2.68132E-05 2.46370E-03 3.47147E-14 1.55864E-13
 -1      3803 2.00057E+01 4.70310E-03-3.10525E-05-1.26700E-03-1.77550E-14 2.52257E-13
 -1      3804 2.00061E+01 6.50494E-03 3.75876E-05-4.31195E-04-6.07373E-16 1.55240E-13
 -1      3805 2.00067E+01 8.51385E-03 1.17954E-05 1.78330E-04 3.19784E-14 3.39507E-13
 -1      3806 2.00050E+01 2.05021E-03-1.68786E-05-2.24322E-03-1.73650E-13 4.32266E-13
 -1      3807 2.00055E+01 3.26082E-03 2.70148E-05-1.77258E-03 7.27942E-14 4.08702E-13
 -1      3808 2.00063E+01 4.54862E-03 1.95774E-06-1.23146E-03-8.72688E-14 3.67821E-13
 -1      3809 2.00043E+01 3.20116E-04-7.35213E-06-2.71513E-03-5.07136E-13 2.63643E-13
 -1      3810 2.00047E+01 1.09967E-03 1.88947E-05-2.49465E-03-4.33539E-13 3.19824E-13
 -1      3811 2.00056E+01 1.87128E-03-4.06116E-06-2.02562E-03-2.08143E-13 4.31035E-13
 -1      3812 2.00035E+01-7.52991E-04-8.75524E-07-2.85219E-03-1.90904E-13 1.67912E-13
 -1      3813 2.00038E+01-2.77521E-04 1.27159E-05-2.79751E-03-3.90136E-13 1.39550E-13
 -1      3814 2.00047E+01 1.35438E-04-7.37748E-06-2.39890E-03-3.41775E-13 3.22316E-13
 -1      3815 2.00027E+01-1.38414E-03 1.49597E-06-2.77826E-03-2.79791E-13 3.61737E-13
 -1      3816 2.00030E+01-1.10998E-03 7.37555E-06-2.82936E-03-1.85387E-13 2.05079E-13
 -1      3817 2.00038E+01-9.32707E-04-9.01078E-06-2.49403E-03-1.71364E-13 2.24657E-13
 -1      3818 2.00020E+01-1.73887E-03 4.41772E-06-2.57032E-03-1.00109E-13 2.27198E-13
 -1      3819 2.00023E+01-1.57732E-03 7.34522E-06-2.68307E-03-2.11417E-13 2.98069E-13
 -1      3820 2.00030E+01-1.56897E-03-8.31777E-06-2.42308E-03-2.01437E-13 7.32489E-15
 -1      3821 2.00027E+01-2.06658E-03 3.99633E-06 1.57958E-03 1.02070E-13 9.17160E-14
 -1      3822 2.00029E+01-2.14693E-03-1.80967E-06 1.16989E-03-5.88854E-14 3.83397E-13
 -1      3823 2.00029E+01-1.97000E-03-6.62597E-07 1.69221E-03 8.29180E-14 7.28861E-14
 -1      3824 2.08579E+01-2.62910E+00-3.85145E-02 2.95615E+00-2.26222E-13-7.64857E-14
 -1      3825 1.91142E+01-1.81836E+00 5.60213E-02 3.54757E+00-3.18403E-13-1.49593E-13
 -1      3826 2.46332E+01-2.21301E+00-1.96942E-02-1.14273E-01-1.13066E-13 1.46430E-13
 -1      3827 1.34434E+01 1.64800E+00 8.51986E-02 1.94554E+00 1.01909E-13-4.43298E-13
 -1      3828 1.39148E+01 2.08394E+00 3.39009E-02-2.40564E+00-8.00436E-14-4.87548E-13
 -1      3829 2.37088E+01-2.02879E+00 5.18415E-02-5.66525E-01-9.34565E-14 6.41501E-14
 -1      3830 2.27708E+01-2.16378E+00-5.16728E-02-1.54440E+00-1.17841E-13-5.59635E-14
 -1      3831 2.28371E+01-1.65344E+00-3.84003E-03-7.86034E-01-1.27947E-14-2.19612E-14
 -1      3832 2.22695E+01-1.22595E+00 2.90104E-02-1.04882E+00 4.29344E-15-9.30124E-14
 -1      3833 2.16541E+01-1.75590E+00 3.32459E-02-2.39988E+00-1.31395E-13-1.07534E-13
 -1      3834 2.12056E+01-2.78189E-01 5.99132E-03-1.06478E+00 5.86024E-14-1.39757E-13
 -1      3835 2.00021E+01-2.03043E-03-6.00505E-06-1.98570E-03-2.02725E-13 1.14025E-13
 -1      3836 2.26967E+01-2.38070E+00 3.01304E-02 1.04373E+00-1.68851E-13-1.35744E-14
 -1      3837 2.33689E+01-2.62897E+00-2.46652E-02 6.09500E-01-8.59321E-14 3.59109E-15
 -1      3838 1.43447E+01 7.37604E-01-9.24481E-03 1.98272E+00-1.59176E-13 2.87886E-13
 -1      3839 1.36236E+01 1.28801E+00 4.63221E-02 5.47821E-01-7.35282E-14 2.56899E-13
 -1      3840 1.45247E+01 7.35802E-01 4.82247E-02-2.36290E+00 1.75923E-13 2.89230E-14
 -1      3841 1.60492E+01 8.50765E-01 1.00642E-03-3.38507E+00-1.00652E-13-3.73390E-13
 -1      3842 1.73729E+01-5.16444E-02 8.43412E-02-3.92438E+00-1.49568E-13-3.47461E-13
 -1      3843 2.46507E+01 6.45139E-01-5.55157E-03 1.93523E+00 1.10953E-13 3.30048E-13
 -1      3844 2.35211E+01-3.04250E+00-4.50601E-02 1.08318E+00-1.18167E-13 4.07747E-14
 -1      3845 2.25283E+01-2.97581E+00 3.87837E-02 2.13556E+00-2.23113E-13-6.76993E-14
 -1      3846 1.92828E+01-9.03472E-01-1.89165E-03-3.36681E+00-1.40223E-13-2.43890E-13
 -1      3847 1.72245E+01-1.10894E+00-4.63246E-02 3.62237E+00-3.42979E-13-2.19661E-13
 -1      3848 1.57091E+01-5.64388E-02 1.90340E-02 3.02305E+00-2.60590E-13-6.35481E-14
 -1      3849 1.41190E+01 9.86882E-01 1.59748E-02-1.72778E+00 1.14111E-13 1.88047E-13
 -1      3850 1.49366E+01 1.03139E+00 4.01397E-02-1.75079E+00 1.27727E-13 3.51229E-14
 -1      3851 1.53882E+01 1.21836E+00-2.16416E-02-1.41041E+00 1.47745E-13 2.75283E-14
 -1      3852 1.34924E+01 1.21188E+00-1.37628E-02-6.17759E-01-5.14302E-15 2.66126E-13
 -1      3853 1.55846E+01 1.77923E+00 4.05971E-02-2.82987E+00-6.84173E-14-4.00390E-13
 -1      3854 2.05266E+01-1.25452E+00 1.24828E-02-2.90215E+00-1.03417E-13-1.46716E-13
 -1      3855 1.39567E+01 2.90409E+00-2.16121E-02-1.10402E+00-8.38002E-15-5.07075E-13
 -1      3856 1.85829E+01-1.15252E+00 3.46382E-02 3.07961E+00-2.82372E-13-1.61677E-13
 -1      3857 2.20753E+01-2.39523E+00-5.73373E-03 1.59981E+00-1.79062E-13 7.47943E-14
 -1      3858 2.00032E+01-2.12011E-03 2.65396E-06-7.61912E-04-9.37811E-14-3.86440E-13
 -1      3859 2.00030E+01-2.07306E-03-4.95535E-06-1.20459E-03-1.88282E-13-1.47713E-13
 -1      3860 2.00032E+01-2.13983E-03-2.24396E-07 7.00803E-04-9.91994E-14 1.60390E-13
 -1      3861 2.00033E+01-2.14977E-03 1.90550E-06-7.56550E-05-1.07021E-13-3.09360E-13
 -1      3862 2.00035E+01-2.01341E-03 1.39677E-06 7.95722E-04 6.70786E-14 2.36025E-13
 -1      3863 1.45539E+01 1.30837E+00 3.60631E-02-1.60444E-02 2.00885E-14 1.90356E-13
 -1      3864 2.17348E+01-2.59646E+00 1.43498E-02 2.27848E+00-2.10581E-13 7.00525E-15
 -1      3865 2.40858E+01-2.52170E+00 4.54282E-02 1.74444E-01-1.21830E-14-2.23120E-14
 -1      3866 2.07400E+01-1.97422E+00-4.25737E-03 2.37178E+00-1.69447E-13 9.58435E-15
 -1      3867 2.11047E+01-1.01191E+00 1.09802E-02-2.04700E+00-4.18810E-14-1.48895E-13
 -1      3868 1.45994E+01 2.18551E+00-1.97324E-03-2.50700E+00-7.37674E-14-4.40287E-13
 -1      3869 1.54733E+01 5.14484E-01 3.05612E-02 2.33093E+00-1.60925E-13 2.73789E-14
 -1      3870 1.54431E+01 9.48172E-01-2.16722E-02 1.44203E+00-8.09656E-14 1.11084E-13
 -1      3871 1.66034E+01 2.41277E-01 3.81928E-03 2.33045E+00-2.32869E-13-1.62788E-13
 -1      3872 1.42770E+01 2.73827E+00 7.62038E-03-1.71581E+00-3.81205E-14-4.92768E-13
 -1      3873 1.53360E+01 1.41974E+00 2.74432E-02-7.94686E-01 4.45632E-14 5.74308E-14
 -1      3874 2.00037E+01-1.97610E-03 4.98742E-07-3.47832E-04-6.24332E-14-2.54802E-13
 -1      3875 1.52595E+01 1.32517E+00-1.44468E-02 2.15352E-01-7.23865E-14 1.39620E-13
 -1      3876 1.56075E+01 1.28624E+00 3.10406E-02 7.42680E-01-1.06322E-13 3.45987E-13
 -1      3877 1.61300E+01 1.36972E+00-1.29176E-02 2.72214E-02-9.30601E-14 1.37947E-13
 -1      3878 1.66739E+01 1.35180E+00-1.06089E-02-1.72059E-02-2.14236E-14 1.18725E-13
 -1      3879 1.62855E+01 1.04580E+00-1.87452E-03 1.09574E+00-7.52586E-14 1.58644E-13
 -1      3880 1.71933E+01 1.32160E+00-1.38506E-02-1.29420E-01 3.07279E-14 7.81015E-14
 -1      3881 1.75931E+01 1.27660E+00-7.35799E-03-1.57984E-01 1.80606E-15 6.61408E-14
 -1      3882 1.79185E+01 1.22437E+00-9.17638E-03-2.19018E-01-1.06080E-13 5.00008E-14
 -1      3883 1.82113E+01 1.16307E+00-4.69816E-03-2.29964E-01-1.56000E-13 7.21657E-14
 -1      3884 1.77458E+01 1.23856E+00 1.48835E-02 9.92420E-02-9.49802E-14-3.44093E-14
 -1      3885 1.84566E+01 1.09436E+00-6.60195E-03-2.64425E-01-2.02344E-13 1.20831E-13
 -1      3886 1.86736E+01 1.02441E+00-3.48282E-03-2.61791E-01-1.48166E-13 2.62523E-14
 -1      3887 1.83030E+01 1.12791E+00 1.00614E-02-3.14749E-02-1.52372E-13-8.33339E-14
 -1      3888 1.88604E+01 9.51409E-01-4.63762E-03-2.76952E-01-1.49502E-13 8.00819E-15
 -1      3889 1.90217E+01 8.79805E-01-2.75155E-03-2.64312E-01-1.58048E-13-9.36756E-14
 -1      3890 1.87280E+01 9.96990E-01 7.43456E-03-1.07092E-01-1.68749E-13 7.21632E-14
 -1      3891 1.91647E+01 8.08441E-01-3.20183E-03-2.66242E-01-9.33909E-14-3.79531E-14
 -1      3892 1.92842E+01 7.39923E-01-2.26527E-03-2.47425E-01-3.80764E-14 3.94757E-14
 -1      3893 1.90529E+01 8.59873E-01 5.59441E-03-1.42941E-01-1.24540E-13 9.99424E-14
 -1      3894 1.93937E+01 6.73738E-01-2.16028E-03-2.41104E-01-1.08049E-14-2.92468E-14
 -1      3895 1.94817E+01 6.11089E-01-1.89817E-03-2.19443E-01 4.46601E-14-4.29290E-14
 -1      3896 1.93012E+01 7.26130E-01 4.23979E-03-1.52211E-01-1.27394E-17 1.05805E-13
 -1      3897 1.95653E+01 5.51955E-01-1.41704E-03-2.08660E-01-2.32511E-14-6.13907E-14
 -1      3898 1.96297E+01 4.96548E-01-1.59129E-03-1.86653E-01-2.09108E-13-5.63633E-14
 -1      3899 1.94904E+01 6.01868E-01 3.21720E-03-1.45110E-01-1.92478E-14-2.14295E-14
 -1      3900 1.96930E+01 4.45184E-01-8.97695E-04-1.74082E-01-2.15412E-13 9.66856E-14
 -1      3901 1.97397E+01 3.97437E-01-1.32178E-03-1.53379E-01-1.40192E-13 1.48516E-13
 -1      3902 1.96337E+01 4.90504E-01 2.43509E-03-1.29087E-01-1.09424E-13 5.73007E-14
 -1      3903 1.97872E+01 3.53818E-01-5.43687E-04-1.40764E-01-1.63295E-13 1.48655E-13
 -1      3904 1.98208E+01 3.13539E-01-1.08266E-03-1.22309E-01-1.07738E-13 4.31650E-14
 -1      3905 1.97413E+01 3.93476E-01 1.83357E-03-1.09257E-01-1.66177E-13 1.66659E-13
 -1      3906 1.98561E+01 2.77191E-01-3.09051E-04-1.10679E-01-4.52531E-14-1.18996E-14
 -1      3907 1.98799E+01 2.43828E-01-8.72581E-04-9.48871E-02 2.68222E-14-8.18874E-14
 -1      3908 1.98213E+01 3.10879E-01 1.37062E-03-8.89046E-02-1.75784E-13 1.61813E-13
 -1      3909 1.99058E+01 2.14041E-01-1.58450E-04-8.47593E-02 8.52391E-14-6.02423E-14
 -1      3910 1.99225E+01 1.86857E-01-6.91333E-04-7.16843E-02 7.39618E-14 4.40580E-14
 -1      3911 1.98800E+01 2.41951E-01 1.01516E-03-6.99512E-02 9.74057E-14 1.86815E-16
 -1      3912 1.99411E+01 1.62819E-01-6.54749E-05-6.32330E-02 5.33698E-14 1.11921E-13
 -1      3913 1.99526E+01 1.41008E-01-5.38131E-04-5.27077E-02 1.20220E-13 1.93636E-13
 -1      3914 1.99225E+01 1.85440E-01 7.43510E-04-5.33700E-02 9.58719E-14 7.73243E-14
 -1      3915 1.99658E+01 1.21891E-01-1.09573E-05-4.58957E-02 1.37835E-13 1.72974E-13
 -1      3916 1.99734E+01 1.04649E-01-4.11278E-04-3.76334E-02 3.20540E-14 2.30616E-13
 -1      3917 1.99526E+01 1.39862E-01 5.37213E-04-3.95094E-02 1.16923E-13 1.23648E-13
 -1      3918 1.99826E+01 8.96646E-02 1.86306E-05-3.23056E-02-3.94341E-14 1.88589E-13
 -1      3919 1.99875E+01 7.62357E-02-3.08320E-04-2.59709E-02 2.05498E-14 1.12942E-13
 -1      3920 1.99736E+01 1.03674E-01 3.81793E-04-2.83355E-02-4.96568E-14 9.21274E-14
 -1      3921 1.99937E+01 6.46619E-02 3.25880E-05-2.19185E-02 2.57073E-14 4.92233E-14
 -1      3922 1.99967E+01 5.43608E-02-2.26354E-04-1.71734E-02 8.74387E-14 3.63982E-14
 -1      3923 1.99878E+01 7.53819E-02 2.65826E-04-1.96033E-02-6.88146E-14 1.99283E-13
 -1      3924 2.00006E+01 4.55582E-02 3.71458E-05-1.41744E-02 1.23405E-13-9.26364E-14
 -1      3925 2.00023E+01 3.77826E-02-1.62323E-04-1.07048E-02 2.26045E-13-8.47367E-14
 -1      3926 1.99970E+01 5.36065E-02 1.80294E-04-1.29713E-02 4.11509E-14 1.06404E-13
 -1      3927 2.00047E+01 3.11977E-02 3.63721E-05-8.54811E-03 2.56224E-13-1.64044E-13
 -1      3928 2.00055E+01 2.54302E-02-1.13245E-04-6.07714E-03 1.33244E-13-1.57126E-13
 -1      3929 2.00027E+01 3.71193E-02 1.18082E-04-8.07314E-03 1.36448E-13-9.40352E-14
 -1      3930 2.00068E+01 2.05936E-02 3.28491E-05-4.57522E-03 2.53155E-14-1.89765E-13
 -1      3931 2.00071E+01 1.63984E-02-7.63607E-05-2.86850E-03-2.04672E-14-2.32544E-13
 -1      3932 2.00059E+01 2.48541E-02 7.35948E-05-4.55971E-03-2.36149E-14-2.48588E-13
 -1      3933 2.00076E+01 1.29189E-02 2.81623E-05-1.86224E-03-1.95781E-14-2.44990E-13
 -1      3934 2.00075E+01 9.93517E-03-4.92214E-05-7.27326E-04-1.45970E-13-2.57194E-13
 -1      3935 2.00074E+01 1.59060E-02 4.24448E-05-2.12074E-03-3.47395E-14-2.60365E-13
 -1      3936 2.00076E+01 7.49213E-03 2.32438E-05-8.65781E-05-2.24686E-13-1.28507E-14
 -1      3937 2.00072E+01 5.42597E-03-2.97256E-05 6.30344E-04-1.02099E-13-1.00694E-13
 -1      3938 2.00078E+01 9.52164E-03 2.12119E-05-4.93440E-04-1.18821E-14-2.37039E-13
 -1      3939 2.00070E+01 3.76018E-03 1.86058E-05 1.00884E-03-6.45044E-14-3.37219E-14
 -1      3940 2.00065E+01 2.37530E-03-1.61373E-05 1.42777E-03-8.18069E-14 1.69174E-14
 -1      3941 2.00075E+01 5.08420E-03 7.24320E-06 5.36667E-04-1.21598E-13 1.63399E-13
 -1      3942 2.00061E+01 1.28001E-03 1.44922E-05 1.62359E-03-6.62290E-14 5.75003E-14
 -1      3943 2.00056E+01 3.89008E-04-6.93692E-06 1.83603E-03 6.04367E-14 9.48232E-14
 -1      3944 2.00067E+01 2.09620E-03-1.49087E-06 1.13915E-03 5.68335E-15 2.56908E-13
 -1      3945 2.00051E+01-2.97608E-04 1.12296E-05 1.90953E-03 9.83838E-14-7.19978E-14
 -1      3946 2.00046E+01-8.43986E-04-1.50834E-06 1.98487E-03 4.27841E-14-7.51265E-14
 -1      3947 2.00058E+01 1.62524E-04-6.63323E-06 1.44358E-03-1.58085E-14 2.03975E-13
 -1      3948 2.00041E+01-1.25451E-03 8.16795E-06 1.97721E-03 6.46890E-15-6.12643E-15
 -1      3949 2.00037E+01-1.55935E-03 3.50433E-06 1.95994E-03-8.02350E-14-4.20777E-14
 -1      3950 2.00048E+01-1.03567E-03-1.08270E-05 1.55622E-03 8.09125E-14 1.41837E-13
 -1      3951 2.00034E+01-1.70736E-03 3.66880E-06 1.87780E-03-1.18498E-13 8.82923E-15
 -1      3952 2.00032E+01-1.84860E-03 5.15905E-06 1.77717E-03 5.28525E-14 5.79567E-14
 -1      3953 2.00035E+01-1.91991E-03-7.57268E-06 1.34049E-03-1.55844E-14 4.09372E-13
 -1      3954 2.00040E+01-1.63600E-03-1.10331E-05 1.49554E-03-7.64782E-14 2.20531E-13
 -1      3955 2.00038E+01-1.89014E-03 2.73718E-06 8.63837E-04-3.17165E-14 1.31212E-13
 -1      3956 1.96992E+01-6.08155E-01 4.24543E-03 1.76386E+00-2.05078E-13 1.40476E-13
 -1      3957 1.99768E+01-9.07198E-01 1.59739E-02 1.87947E+00-1.43783E-13 1.18251E-13
 -1      3958 2.00962E+01-1.20432E+00 6.42604E-03 2.09275E+00-1.34103E-13 2.82976E-14
 -1      3959 2.05463E+01-1.60853E+00 1.29916E-02 2.16351E+00-1.72627E-13 5.57395E-14
 -1      3960 1.97720E+01-1.59652E+00-2.00158E-02 2.71668E+00-1.79578E-13 4.02699E-14
 -1      3961 1.94312E+01-8.92043E-01-5.98541E-03 2.25643E+00-1.93513E-13 1.05605E-13
 -1      3962 1.93646E+01 3.64971E-01-2.12483E-03 8.93182E-01-8.46995E-14 1.26491E-14
 -1      3963 1.93873E+01 2.92375E-01 5.78068E-03 9.97891E-01-1.89567E-13 3.60758E-14
 -1      3964 1.94264E+01 4.49373E-01-2.39775E-03 6.93941E-01-5.77905E-14 2.85120E-13
 -1      3965 1.94199E+01 4.18845E-01 3.94216E-03 7.81122E-01-4.95381E-14 2.40262E-13
 -1      3966 1.92168E+01 4.78020E-01-3.05535E-04 8.15433E-01-1.78610E-13 4.68408E-14
 -1      3967 1.95104E+01 4.70466E-01-2.32961E-03 5.35334E-01 5.98075E-14 4.26952E-13
 -1      3968 1.94889E+01 4.67915E-01 2.64818E-03 6.06573E-01 2.34892E-16 3.74045E-13
 -1      3969 1.93292E+01 5.29662E-01 6.59700E-04 6.16244E-01-8.97415E-14 3.72708E-13
 -1      3970 1.95995E+01 4.51326E-01-2.10846E-03 4.10206E-01 7.28705E-14 3.94787E-13
 -1      3971 1.95719E+01 4.66064E-01 1.75637E-03 4.67786E-01 1.33871E-13 4.07808E-13
 -1      3972 1.94473E+01 5.26012E-01 1.12638E-03 4.63721E-01 1.09102E-13 3.74304E-13
 -1      3973 1.96837E+01 4.09016E-01-1.83054E-03 3.12076E-01-2.90507E-14 3.39008E-13
 -1      3974 1.96555E+01 4.33257E-01 1.15433E-03 3.58255E-01 4.38591E-14 3.76237E-13
 -1      3975 1.95590E+01 4.88811E-01 1.29238E-03 3.47507E-01 1.19279E-13 3.35554E-13
 -1      3976 1.97582E+01 3.55605E-01-1.54426E-03 2.35490E-01-7.41992E-15 1.55375E-13
 -1      3977 1.97322E+01 3.83930E-01 7.55899E-04 2.72271E-01 1.07766E-14 2.25499E-13
 -1      3978 1.96583E+01 4.33668E-01 1.28014E-03 2.59194E-01 8.86772E-14 3.63501E-13
 -1      3979 1.98210E+01 2.99211E-01-1.27367E-03 1.76008E-01-1.45568E-14-3.17199E-14
 -1      3980 1.97986E+01 3.28041E-01 4.96798E-04 2.05096E-01 3.51805E-14-2.18501E-14
 -1      3981 1.97426E+01 3.71350E-01 1.16928E-03 1.92204E-01 1.20637E-13-5.68019E-14
 -1      3982 1.98718E+01 2.44943E-01-1.03020E-03 1.30069E-01-1.81590E-13-5.82262E-14
 -1      3983 1.98535E+01 2.72083E-01 3.30788E-04 1.52892E-01-7.49160E-14-1.73060E-14
 -1      3984 1.98116E+01 3.08907E-01 1.01164E-03 1.41481E-01 3.00824E-15-1.30196E-13
 -1      3985 1.99117E+01 1.95717E-01-8.18441E-04 9.48269E-02-1.47839E-13-1.41268E-14
 -1      3986 1.98974E+01 2.19969E-01 2.25510E-04 1.12573E-01-2.76396E-13-6.77530E-14
 -1      3987 1.98665E+01 2.50621E-01 8.40110E-04 1.03173E-01-1.28279E-13-1.07452E-13
 -1      3988 1.99421E+01 1.52921E-01-6.39047E-04 6.80086E-02-9.61621E-14-3.87211E-15
 -1      3989 1.99312E+01 1.73771E-01 1.58918E-04 8.16675E-02-2.78920E-14 4.18560E-14
 -1      3990 1.99089E+01 1.98793E-01 6.74438E-04 7.43485E-02-1.55043E-13-1.83285E-14
 -1      3991 1.99645E+01 1.16925E-01-4.90405E-04 4.77977E-02 1.16255E-13-5.31533E-14
 -1      3992 1.99566E+01 1.34307E-01 1.16409E-04 5.81888E-02-5.93295E-15 6.37594E-14
 -1      3993 1.99408E+01 1.54359E-01 5.25411E-04 5.27748E-02-5.34686E-14-7.21925E-14
 -1      3994 1.99805E+01 8.74694E-02-3.69656E-04 3.27404E-02 3.09033E-14-6.69429E-14
 -1      3995 1.99750E+01 1.01587E-01 8.85880E-05 4.05419E-02 9.74377E-14 3.41753E-14
 -1      3996 1.99642E+01 1.17372E-01 3.97835E-04 3.67431E-02 1.19967E-13-1.44852E-13
 -1      3997 1.99915E+01 6.39406E-02-2.73351E-04 2.16746E-02-1.82814E-14-1.96360E-13
 -1      3998 1.99878E+01 7.51429E-02 6.95958E-05 2.74440E-02-4.85220E-14-1.03292E-13
 -1      3999 1.99807E+01 8.73496E-02 2.92729E-04 2.49403E-02 5.02117E-14-7.90507E-14
 -1      4000 1.99988E+01 4.55588E-02-1.97888E-04 1.36734E-02-2.34030E-14-1.49885E-13
 -1      4001 1.99965E+01 5.42567E-02 5.58937E-05 1.78660E-02 1.09783E-13-2.19703E-13
 -1      4002 1.99920E+01 6.35257E-02 2.08867E-04 1.63533E-02 6.13973E-15-1.51268E-13
 -1      4003 2.00033E+01 3.15029E-02-1.39790E-04 8.00060E-03-5.91798E-14-2.54871E-13
 -1      4004 2.00020E+01 3.81140E-02 4.54170E-05 1.09851E-02-1.30338E-13-2.42406E-13
 -1      4005 1.99993E+01 4.50180E-02 1.43850E-04 1.01983E-02 2.10474E-14-1.04085E-13
 -1      4006 2.00057E+01 2.09850E-02-9.58634E-05 4.07543E-03 3.62048E-14-2.07153E-13
 -1      4007 2.00051E+01 2.59016E-02 3.70020E-05 6.14720E-03-1.58029E-14-2.52833E-13
 -1      4008 2.00038E+01 3.09369E-02 9.48082E-05 5.86828E-03-4.82298E-14-3.64813E-13
 -1      4009 2.00068E+01 1.32924E-02-6.32882E-05 1.44324E-03-1.44917E-13 2.01186E-13
 -1      4010 2.00067E+01 1.68646E-02 3.00142E-05 2.83618E-03-1.75415E-13-4.68492E-14
 -1      4011 2.00063E+01 2.04501E-02 5.88325E-05 2.89425E-03-1.85228E-13-1.44642E-13
 -1      4012 2.00070E+01 7.80639E-03-3.96429E-05-2.48285E-04-5.18288E-14 2.88829E-13
 -1      4013 2.00072E+01 1.03350E-02 2.41150E-05 6.48755E-04 2.72464E-14 2.83897E-13
 -1      4014 2.00073E+01 1.28167E-02 3.32282E-05 9.15068E-04-1.42560E-13-2.91323E-15
 -1      4015 2.00066E+01 4.00590E-03-2.29008E-05-1.26891E-03-1.52536E-13 3.75211E-13
 -1      4016 2.00070E+01 5.74231E-03 1.91232E-05-7.26754E-04-8.19683E-14 3.03932E-13
 -1      4017 2.00074E+01 7.40010E-03 1.56370E-05-3.45464E-04-5.88000E-14 2.72213E-13
 -1      4018 2.00059E+01 1.46289E-03-1.13747E-05-1.82222E-03-1.75695E-13 3.71110E-13
 -1      4019 2.00063E+01 2.61232E-03 1.49361E-05-1.52801E-03-2.01293E-13 3.86117E-13
 -1      4020 2.00069E+01 3.66839E-03 4.09269E-06-1.09660E-03-2.05335E-13 2.76095E-13
 -1      4021 2.00050E+01-1.67567E-04-3.53000E-06-2.05922E-03-1.86015E-13 1.49194E-13
 -1      4022 2.00055E+01 5.59355E-04 1.14575E-05-1.93355E-03-1.63192E-13 3.34054E-13
 -1      4023 2.00061E+01 1.18736E-03-2.90211E-06-1.49490E-03-1.01776E-13 1.52283E-13
 -1      4024 2.00041E+01-1.15052E-03 3.62487E-06-2.08418E-03-6.02343E-14 9.31433E-14
 -1      4025 2.00045E+01-7.27908E-04 7.96951E-06-2.07469E-03-1.13629E-13 1.58163E-13
 -1      4026 2.00052E+01-3.90764E-04-6.46004E-06-1.65666E-03-1.12423E-13 1.80350E-14
 -1      4027 2.00026E+01-1.97011E-03 1.64082E-06-1.86012E-03-2.94115E-13 4.77463E-14
 -1      4028 1.83480E+01-8.14656E-01 4.84251E-04 2.81821E+00-2.77228E-13-6.66004E-14
 -1      4029 1.93541E+01 1.87268E-01-1.14641E-03 1.13967E+00-2.47289E-13-1.43681E-15
 -1      4030 1.94264E+01 5.32371E-02 7.37395E-03 1.26160E+00-2.88309E-13 4.17751E-14
 -1      4031 1.91310E+01 3.41654E-01-2.18909E-03 1.07339E+00-2.15300E-13-1.59297E-13
 -1      4032 1.94419E+01-1.14299E-01 2.62521E-03 1.43192E+00-2.86463E-13 7.09261E-14
 -1      4033 1.95947E+01-3.28897E-01 1.17131E-02 1.57030E+00-2.40045E-13 9.85780E-14
 -1      4034 1.91086E+01 7.90512E-02-6.60956E-03 1.39925E+00-2.37603E-13-5.09815E-14
 -1      4035 2.00031E+01-1.86109E-03 1.77646E-06-1.70409E-03-1.19711E-13-9.66283E-15
 -1      4036 2.13245E+01-8.07191E-01-3.17635E-04-1.48389E+00 1.78867E-14-1.32082E-13
 -1      4037 2.00042E+01-1.77295E-03 1.22693E-06-1.97889E-05-5.20789E-14-2.12279E-13
 -1      4038 2.00041E+01-1.74680E-03-1.33347E-06-6.93229E-04-8.66246E-14-4.08247E-13
 -1      4039 2.00039E+01-1.70687E-03-1.23643E-06-1.27107E-03-2.58570E-14-5.65867E-14
 -1      4040 2.00035E+01-1.63213E-03-1.00661E-07-1.92556E-03-5.60620E-14 6.00352E-14
 -1      4041 2.00039E+01-1.35359E-03 4.81791E-06-1.97694E-03-9.26381E-14 1.11775E-13
 -1      4042 2.00045E+01-1.44792E-03 2.34810E-06-9.21261E-04-1.92865E-14-3.29328E-13
 -1      4043 2.00042E+01-1.64084E-03 4.11310E-06 1.01122E-03 3.08456E-14 3.09948E-13
 -1      4044 2.00042E+01-1.76286E-03-5.09876E-06 4.75762E-04 9.59950E-14 3.07930E-15
 -1      4045 2.00047E+01-1.48159E-03 2.98428E-06 1.17467E-04-7.56176E-14-1.32328E-13
 -1      4046 2.00045E+01-1.44833E-03 8.22288E-06 1.07608E-03 1.22668E-13 2.41799E-14
 -1      4047 1.92103E+01-3.59310E-01-1.67167E-02 1.80355E+00-1.80720E-13 7.36676E-14
 -1      4048 2.00045E+01-1.21000E-03-8.68496E-06-1.59137E-03 8.28359E-15 1.92613E-13
 -1      4049 1.69304E+01 1.32090E+00 2.56215E-02 3.28627E-01-1.93311E-14 2.76058E-13
 -1      4050 1.87359E+01-5.91835E-01 1.08450E-02 2.37751E+00-1.96982E-13-3.14874E-14
 -1      4051 1.75088E+01-1.60693E-01 2.32430E-02 2.60119E+00-2.60286E-13-2.13375E-13
 -1      4052 1.70242E+01 3.10138E-01-3.07843E-02 2.02898E+00-1.88788E-13-1.88983E-13
 -1      4053 1.86449E+01-3.44844E-01-1.31713E-04 2.13508E+00-1.79097E-13 1.90702E-14
 -1      4054 1.68111E+01 8.94183E-01 3.76352E-02 1.45135E+00-1.74661E-13-1.47330E-13
 -1      4055 1.66980E+01 1.06994E+00-2.56058E-02 8.68048E-01-7.63964E-14 4.30077E-14
 -1      4056 1.75958E+01 1.12274E+00-1.80396E-02 4.07608E-01-1.08355E-13-7.94821E-14
 -1      4057 1.79499E+01 1.10725E+00-1.34832E-04 3.08313E-01-1.49879E-13-1.19898E-13
 -1      4058 1.81744E+01 1.06483E+00-1.11526E-02 2.01148E-01-1.38962E-13-1.43385E-13
 -1      4059 1.84344E+01 1.02516E+00-7.00113E-04 1.35900E-01-1.31464E-13-7.90285E-14
 -1      4060 1.81596E+01 1.01997E+00 1.14064E-02 4.87252E-01-1.53636E-13-1.56641E-13
 -1      4061 1.86134E+01 9.70324E-01-7.83716E-03 6.71872E-02-1.01722E-13-1.30285E-13
 -1      4062 1.88103E+01 9.17483E-01-9.32783E-04 2.93060E-02-1.23544E-13-4.06676E-14
 -1      4063 1.85761E+01 9.60897E-01 9.62865E-03 2.79679E-01-1.10484E-13-2.32703E-13
 -1      4064 1.89539E+01 8.56579E-01-5.52339E-03-1.27302E-02-1.87553E-13 1.63720E-14
 -1      4065 1.91035E+01 7.98436E-01-1.07018E-03-3.14904E-02-1.22178E-13-2.02633E-14
 -1      4066 1.89066E+01 8.69725E-01 7.80696E-03 1.46203E-01-1.23277E-13-1.77032E-13
 -1      4067 1.92182E+01 7.36879E-01-3.88057E-03-5.53969E-02-8.96226E-14-9.23926E-15
 -1      4068 1.93316E+01 6.78665E-01-1.12414E-03-6.15964E-02-2.82235E-14-1.11737E-13
 -1      4069 1.91693E+01 7.63080E-01 6.29236E-03 6.33907E-02-1.93510E-13-2.67074E-13
 -1      4070 1.94226E+01 6.20108E-01-2.70717E-03-7.36206E-02 2.49372E-14-1.48889E-13
 -1      4071 1.95082E+01 5.65176E-01-1.10287E-03-7.21436E-02 3.27542E-14-1.01079E-13
 -1      4072 1.93770E+01 6.52552E-01 5.04010E-03 1.48055E-02-3.26415E-14-3.00178E-13
 -1      4073 1.95796E+01 5.11805E-01-1.86929E-03-7.67420E-02 3.23240E-14 3.65493E-14
 -1      4074 1.96437E+01 4.62094E-01-1.02466E-03-7.10555E-02-4.19420E-14 1.38899E-13
 -1      4075 1.95396E+01 5.45853E-01 4.00287E-03-1.13194E-02 9.48693E-14-1.03795E-13
 -1      4076 1.96991E+01 4.15007E-01-1.27487E-03-7.13134E-02-8.73441E-14 2.31512E-13
 -1      4077 1.97467E+01 3.71433E-01-9.10702E-04-6.37529E-02-1.17478E-13 2.38675E-13
 -1      4078 1.96657E+01 4.47702E-01 3.14604E-03-2.32854E-02 8.37480E-15 1.17437E-13
 -1      4079 1.97891E+01 3.30962E-01-8.57274E-04-6.17253E-02-1.99268E-13 2.63028E-13
 -1      4080 1.98241E+01 2.93742E-01-7.79918E-04-5.37691E-02-1.09596E-13 2.92592E-13
 -1      4081 1.97622E+01 3.60605E-01 2.44312E-03-2.67981E-02-7.11984E-14 2.70199E-13
 -1      4082 1.98560E+01 2.59715E-01-5.67197E-04-5.07613E-02-4.37360E-14 2.44255E-13
 -1      4083 1.98813E+01 2.28611E-01-6.46874E-04-4.32699E-02 4.55227E-15 1.44682E-13
 -1      4084 1.98350E+01 2.85495E-01 1.87212E-03-2.56485E-02-9.93555E-14 4.04078E-13
 -1      4085 1.99050E+01 2.00552E-01-3.68086E-04-4.00617E-02 1.05442E-13 7.23410E-14
 -1      4086 1.99231E+01 1.75059E-01-5.21440E-04-3.34728E-02 1.55874E-13 1.67509E-13
 -1      4087 1.98891E+01 2.22255E-01 1.41368E-03-2.22542E-02-3.39195E-14 1.59709E-13
 -1      4088 1.99403E+01 1.52325E-01-2.33101E-04-3.04900E-02 1.07744E-13 9.93096E-14
 -1      4089 1.99529E+01 1.31800E-01-4.09399E-04-2.49676E-02 4.71156E-14 4.88229E-15
 -1      4090 1.99285E+01 1.70110E-01 1.05033E-03-1.80793E-02 1.19373E-13-6.05872E-14
 -1      4091 1.99651E+01 1.13685E-01-1.42802E-04-2.24086E-02 2.14286E-14 1.50435E-13
 -1      4092 1.99737E+01 9.74387E-02-3.13394E-04-1.79509E-02-2.87997E-14 1.55337E-13
 -1      4093 1.99568E+01 1.27919E-01 7.66255E-04-1.39490E-02 1.00486E-13 1.01622E-13
 -1      4094 1.99822E+01 8.32367E-02-8.32990E-05-1.58760E-02-5.59684E-14 2.74733E-13
 -1      4095 1.99879E+01 7.05889E-02-2.33873E-04-1.23905E-02-4.37265E-15 3.17069E-13
 -1      4096 1.99765E+01 9.43853E-02 5.47366E-04-1.02780E-02 6.81918E-14 3.78363E-13
 -1      4097 1.99936E+01 5.96348E-02-4.48039E-05-1.07822E-02-9.54922E-14 4.18367E-13
 -1      4098 1.99971E+01 4.99533E-02-1.69900E-04-8.13438E-03 5.46277E-14 3.33679E-13
 -1      4099 1.99898E+01 6.81879E-02 3.81293E-04-7.22950E-03-4.91062E-14 5.06746E-13
 -1      4100 2.00007E+01 4.16457E-02-2.04933E-05-6.93669E-03 1.30925E-13 2.78176E-13
 -1      4101 2.00028E+01 3.43645E-02-1.19776E-04-4.98086E-03 6.26194E-14 2.08346E-13
 -1      4102 1.99984E+01 4.80730E-02 2.57390E-04-4.82198E-03-2.68158E-14 5.97913E-13
 -1      4103 2.00050E+01 2.81763E-02-5.65715E-06-4.12339E-03-6.32558E-14 1.55090E-13
 -1      4104 2.00060E+01 2.28036E-02-8.14767E-05-2.72021E-03-1.51085E-13 1.58810E-13
 -1      4105 2.00037E+01 3.29027E-02 1.66660E-04-2.99884E-03-5.46520E-14 5.44218E-13
 -1      4106 2.00072E+01 1.82847E-02 2.92994E-06-2.13205E-03-1.98110E-13 1.65493E-13
 -1      4107 2.00075E+01 1.44035E-02-5.29379E-05-1.15762E-03 4.56367E-14 8.60228E-14
 -1      4108 2.00066E+01 2.16785E-02 1.01637E-04-1.67096E-03-1.04560E-13 5.94383E-13
 -1      4109 2.00080E+01 1.11769E-02 7.46223E-06-7.74555E-04 8.93912E-14-1.98362E-13
 -1      4110 2.00079E+01 8.44099E-03-3.22258E-05-1.23991E-04-7.78513E-14-5.36717E-14
 -1      4111 2.00078E+01 1.35483E-02 5.62206E-05-7.41766E-04-8.25548E-14 3.08989E-13
 -1      4112 2.00079E+01 6.19716E-03 9.42465E-06 1.08396E-04-5.66229E-14-5.02703E-14
 -1      4113 2.00076E+01 4.32394E-03-1.76147E-05 5.20552E-04-3.31162E-15 1.18150E-13
 -1      4114 2.00080E+01 7.80007E-03 2.55221E-05-1.20612E-04-3.22457E-14-4.37294E-14
 -1      4115 2.00072E+01 2.81238E-03 9.81745E-06 6.46314E-04-2.71297E-14 1.63631E-13
 -1      4116 2.00068E+01 1.57494E-03-7.59485E-06 8.87344E-04 1.07275E-13 1.98631E-13
 -1      4117 2.00076E+01 3.85086E-03 5.71747E-06 2.71111E-04 7.15414E-14-1.88253E-14
 -1      4118 2.00063E+01 5.94896E-04 9.36078E-06 9.40767E-04-7.73994E-14 3.41632E-13
 -1      4119 2.00058E+01-1.78873E-04 1.90048E-06 1.05663E-03-1.59272E-13 2.81050E-13
 -1      4120 2.00068E+01 1.23074E-03-5.82026E-06 4.98641E-04 6.01409E-14 6.96213E-14
 -1      4121 2.00054E+01-6.58911E-04 7.63125E-06 1.05213E-03-5.80527E-14 2.71914E-13
 -1      4122 2.00049E+01-1.14614E-03 5.88883E-07 1.08773E-03-1.52689E-14 1.53606E-13
 -1      4123 2.00050E+01-1.16190E-03-7.81281E-06 6.19225E-04 3.42389E-16 1.48542E-13
 -1      4124 2.00059E+01-3.09769E-04-9.85618E-06 5.89213E-04-9.75295E-14 2.36246E-13
 -1      4125 1.85710E+01-6.58964E-02-3.71383E-03 1.87192E+00-1.72660E-13-7.72624E-15
 -1      4126 1.93866E+01 5.68133E-01-3.58035E-03 3.69476E-01 8.40834E-14 9.76237E-14
 -1      4127 1.93345E+01 5.91712E-01 2.07680E-03 4.31885E-01 7.59576E-14 8.63470E-14
 -1      4128 1.90694E+01 5.92692E-01-5.54810E-03 6.91687E-01-2.77699E-13 9.78357E-16
 -1      4129 1.90304E+01 5.70486E-01 5.37565E-03 8.00627E-01-2.74783E-13-1.24320E-13
 -1      4130 1.95210E+01 5.11009E-01-2.82275E-03 2.68859E-01 1.17533E-13 2.68308E-13
 -1      4131 1.94719E+01 5.43699E-01 1.20417E-03 3.15887E-01 1.49386E-13 1.90494E-13
 -1      4132 1.93710E+01 6.10439E-01 4.43299E-03 2.84400E-01 3.48344E-14-3.56126E-14
 -1      4133 1.96348E+01 4.43039E-01-2.20530E-03 1.95014E-01 1.41007E-13 2.43955E-13
 -1      4134 1.95916E+01 4.79224E-01 6.51726E-04 2.30436E-01 1.23074E-13 2.40128E-13
 -1      4135 1.95167E+01 5.36390E-01 3.70677E-03 1.99453E-01 1.94860E-13 9.61706E-14
 -1      4136 1.97285E+01 3.72890E-01-1.70856E-03 1.40869E-01 1.62067E-13 8.58416E-14
 -1      4137 1.96920E+01 4.08869E-01 3.14283E-04 1.67551E-01 2.20276E-13 1.79074E-13
 -1      4138 1.96366E+01 4.57170E-01 3.04150E-03 1.39525E-01 2.40860E-13 2.89533E-13
 -1      4139 1.98034E+01 3.06025E-01-1.31251E-03 1.01189E-01 2.15518E-15 8.78119E-14
 -1      4140 1.97737E+01 3.39536E-01 1.18547E-04 1.21283E-01 6.53623E-14 1.12668E-13
 -1      4141 1.97330E+01 3.79793E-01 2.45028E-03 9.73375E-02 8.31257E-14 2.89793E-13
 -1      4142 1.98619E+01 2.45562E-01-9.99097E-04 7.21304E-02-1.86665E-13 1.27962E-13
 -1      4143 1.98385E+01 2.75383E-01 1.36059E-05 8.72461E-02-7.80152E-14 9.36183E-14
 -1      4144 1.98089E+01 3.08480E-01 1.93834E-03 6.76642E-02-7.02654E-14 2.92376E-13
 -1      4145 1.99065E+01 1.92969E-01-7.52848E-04 5.08811E-02-1.54116E-13 1.57954E-13
 -1      4146 1.98886E+01 2.18598E-01-3.54439E-05 6.22231E-02-1.80866E-13 2.03050E-13
 -1      4147 1.98673E+01 2.45436E-01 1.50537E-03 4.67927E-02-2.07426E-13 3.11932E-13
 -1      4148 1.99397E+01 1.48607E-01-5.60819E-04 3.53862E-02-5.72864E-15 9.23040E-14
 -1      4149 1.99264E+01 1.70019E-01-5.19664E-05 4.38599E-02-5.13170E-14 1.07890E-13
 -1      4150 1.99113E+01 1.91479E-01 1.14714E-03 3.21074E-02-6.81271E-14 2.34445E-13
 -1      4151 1.99638E+01 1.12142E-01-4.12292E-04 2.41399E-02 7.45893E-15 1.37666E-13
 -1      4152 1.99542E+01 1.29603E-01-5.10888E-05 3.04304E-02 1.54875E-15 6.65821E-15
 -1      4153 1.99437E+01 1.46518E-01 8.56825E-04 2.17758E-02 6.18063E-14 2.82422E-13
 -1      4154 1.99807E+01 8.28449E-02-2.98455E-04 1.60347E-02 8.44904E-14-4.10226E-14
 -1      4155 1.99740E+01 9.67754E-02-4.21893E-05 2.06639E-02 9.95044E-14 3.83504E-14
 -1      4156 1.99669E+01 1.09914E-01 6.26170E-04 1.45167E-02 1.61229E-13 1.92123E-13
 -1      4157 1.99922E+01 5.97961E-02-2.12097E-04 1.02515E-02-5.97590E-15-6.95778E-14
 -1      4158 1.99877E+01 7.06852E-02-3.07539E-05 1.36194E-02-5.74629E-14-8.30845E-14
 -1      4159 1.99831E+01 8.07324E-02 4.46455E-04 9.43362E-03 4.92996E-14 8.96689E-14
 -1      4160 1.99996E+01 4.20264E-02-1.47348E-04 6.18095E-03 1.81407E-14-9.62257E-14
 -1      4161 1.99968E+01 5.03699E-02-1.97298E-05 8.59586E-03 9.04829E-14 8.48594E-15
 -1      4162 1.99939E+01 5.79265E-02 3.09158E-04 5.89694E-03 1.23282E-14 4.93322E-14
 -1      4163 2.00041E+01 2.86021E-02-9.94519E-05 3.36808E-03-3.86460E-14-4.92026E-14
 -1      4164 2.00025E+01 3.48663E-02-1.04808E-05 5.06782E-03-3.15931E-14-1.27381E-13
 -1      4165 2.00009E+01 4.04472E-02 2.06393E-04 3.46161E-03-1.68057E-14 1.97901E-13
 -1      4166 2.00065E+01 1.86733E-02-6.45782E-05 1.47189E-03-2.90846E-13 8.94244E-15
 -1      4167 2.00058E+01 2.32763E-02-3.43887E-06 2.64009E-03-1.61785E-13-4.98711E-14
 -1      4168 2.00050E+01 2.73141E-02 1.31160E-04 1.81086E-03-1.76491E-13 1.97485E-13
 -1      4169 2.00075E+01 1.14973E-02-3.96582E-05 2.36866E-04-1.95682E-13 1.04220E-13
 -1      4170 2.00073E+01 1.48003E-02 1.47062E-06 1.01478E-03-2.61131E-13 2.49828E-14
 -1      4171 2.00071E+01 1.76526E-02 7.74442E-05 7.17555E-04-2.80991E-13 1.44161E-13
 -1      4172 2.00076E+01 6.44473E-03-2.22435E-05-5.28039E-04-1.16511E-13 2.17200E-13
 -1      4173 2.00077E+01 8.75123E-03 4.56358E-06-3.24145E-05-6.33222E-14 1.59038E-13
 -1      4174 2.00079E+01 1.07083E-02 4.02247E-05 1.78192E-05-2.67297E-13 1.41874E-13
 -1      4175 2.00071E+01 2.99485E-03-1.03754E-05-9.64795E-04-1.77321E-13 8.25833E-14
 -1      4176 2.00074E+01 4.55409E-03 6.24416E-06-6.69681E-04-1.13140E-13 2.19318E-13
 -1      4177 2.00078E+01 5.84843E-03 1.54293E-05-4.07067E-04-1.15606E-13 2.17902E-13
 -1      4178 2.00063E+01 7.25625E-04-2.60053E-06-1.17761E-03-4.44826E-14-1.18731E-13
 -1      4179 2.00067E+01 1.73817E-03 6.89347E-06-1.02208E-03-8.13328E-14-6.17432E-14
 -1      4180 2.00072E+01 2.55316E-03-1.58175E-08-6.43384E-04-2.00981E-14-4.60239E-14
 -1      4181 2.00053E+01-6.90271E-04 2.70893E-06-1.23371E-03-3.62060E-14-2.21730E-13
 -1      4182 2.00058E+01-7.68189E-05 6.32286E-06-1.18034E-03-1.00129E-13-1.86188E-13
 -1      4183 2.00062E+01 4.05724E-04-6.54042E-06-7.54972E-04-2.30031E-14-3.47389E-13
 -1      4184 1.92340E+01 6.01499E-01-4.48999E-03 5.06304E-01-8.00250E-15 3.09863E-14
 -1      4185 1.91840E+01 6.07859E-01 3.41788E-03 5.88958E-01-1.54689E-13 1.65802E-15
 -1      4186 1.91988E+01 6.68535E-01 5.19236E-03 4.04376E-01-3.96754E-14-2.74474E-13
 -1      4187 1.89055E+01 5.16429E-01-6.72869E-03 9.41000E-01-2.10348E-13-1.33107E-13
 -1      4188 1.88924E+01 4.50559E-01 8.18349E-03 1.08310E+00-2.11612E-13-1.70171E-13
 -1      4189 1.87843E+01 6.66716E-01 6.36485E-03 8.07931E-01-2.52397E-13-1.86934E-13
 -1      4190 1.87650E+01 3.37753E-01-8.38512E-03 1.27514E+00-2.09267E-13-7.69042E-14
 -1      4191 1.88198E+01 2.03934E-01 1.08677E-02 1.44895E+00-1.67928E-13-7.43357E-14
 -1      4192 1.85601E+01 5.53948E-01 6.22866E-03 1.13268E+00-1.92245E-13-1.68010E-13
 -1      4193 2.00048E+01-1.22228E-03 3.12157E-06-1.03218E-03-6.05154E-14-3.56200E-13
 -1      4194 2.00050E+01-9.75220E-04 3.89878E-06-1.12573E-03-6.26067E-14-3.16871E-13
 -1      4195 2.00055E+01-7.16337E-04-7.23856E-06-6.87530E-04-6.85014E-14-6.31084E-13
 -1      4196 1.72493E+01 1.10672E+00-9.15347E-05 6.63872E-01-7.74979E-14-5.72249E-14
 -1      4197 1.81984E+01 2.39856E-01 5.32480E-03 1.74164E+00-1.34442E-13-8.87606E-14
 -1      4198 1.75756E+01 9.84167E-01 1.12324E-02 8.85929E-01-1.29741E-13-1.64612E-13
 -1      4199 1.90013E+01 6.94871E-01 5.91250E-03 5.72940E-01-2.35168E-13-2.75691E-13
 -1      4200 2.00049E+01-1.27412E-03-4.42314E-06-4.82012E-04-1.45296E-13-5.44672E-13
 -1      4201 1.74821E+01 4.81083E-01 4.77311E-03 1.70165E+00-1.56606E-13-1.65233E-13
 -1      4202 2.00050E+01-1.21924E-03-3.66391E-06 3.12127E-04-3.58994E-14 5.13587E-14
 -1      4203 2.00050E+01-1.22501E-03-3.39437E-06-1.69974E-04-1.69127E-13-2.13944E-13
 -1      4204 2.00053E+01-9.52993E-04 5.58658E-06-2.88728E-04-7.68898E-14-3.80077E-13
 -1      4205 2.00055E+01-8.28693E-04 1.03625E-05 3.13290E-04-1.55734E-13 7.93394E-14
 -1      4206 1.85950E+01 8.22640E-01-1.00977E-02 5.34797E-01-1.85409E-13-2.14700E-13
 -1      4207 1.87861E+01 8.07636E-01-1.12458E-03 4.42170E-01-1.89261E-13-2.39756E-13
 -1      4208 1.88922E+01 7.86194E-01-7.78791E-03 3.49270E-01-1.36991E-13-2.97220E-13
 -1      4209 1.90449E+01 7.52597E-01-1.56397E-03 2.89002E-01-1.67967E-13-2.85026E-13
 -1      4210 1.91393E+01 7.16577E-01-5.96151E-03 2.23674E-01-1.67193E-13-1.87286E-13
 -1      4211 1.92605E+01 6.73314E-01-1.69881E-03 1.85658E-01-1.49994E-13-2.38963E-13
 -1      4212 1.93415E+01 6.30299E-01-4.54567E-03 1.40076E-01-4.09892E-14-1.41207E-13
 -1      4213 1.94370E+01 5.83598E-01-1.66104E-03 1.17132E-01 9.04944E-14-1.78357E-15
 -1      4214 1.95046E+01 5.38794E-01-3.45052E-03 8.55224E-02 2.14909E-13-1.09104E-14
 -1      4215 1.95791E+01 4.92776E-01-1.52375E-03 7.25162E-02 2.59829E-13 7.39624E-14
 -1      4216 1.96342E+01 4.49575E-01-2.60422E-03 5.06883E-02 1.50528E-13 1.17506E-13
 -1      4217 1.96916E+01 4.06781E-01-1.33481E-03 4.40111E-02 4.42985E-14 1.59792E-13
 -1      4218 1.97355E+01 3.67213E-01-1.95165E-03 2.89710E-02-2.40025E-14 2.45113E-13
 -1      4219 1.97791E+01 3.29030E-01-1.12694E-03 2.61502E-02-3.68508E-14 3.07574E-13
 -1      4220 1.98133E+01 2.94137E-01-1.45030E-03 1.57890E-02-1.33994E-13 2.86717E-13
 -1      4221 1.98460E+01 2.61139E-01-9.21879E-04 1.51819E-02-1.38419E-13 2.03083E-13
 -1      4222 1.98722E+01 2.31280E-01-1.06702E-03 8.03321E-03-1.21077E-13 1.67591E-13
 -1      4223 1.98963E+01 2.03502E-01-7.33001E-04 8.58659E-03-9.28653E-14 1.82758E-13
 -1      4224 1.99158E+01 1.78582E-01-7.75785E-04 3.64124E-03-1.72000E-14 1.22387E-13
 -1      4225 1.99332E+01 1.55722E-01-5.67419E-04 4.70839E-03 8.80307E-14 3.74599E-14
 -1      4226 1.99474E+01 1.35376E-01-5.56088E-04 1.27702E-03 1.78245E-13-2.75665E-15
 -1      4227 1.99598E+01 1.16940E-01-4.27783E-04 2.48249E-03 2.45093E-13 1.74288E-13
 -1      4228 1.99699E+01 1.00658E-01-3.91764E-04 9.59562E-05 2.08262E-13 1.82938E-13
 -1      4229 1.99784E+01 8.60699E-02-3.13790E-04 1.23897E-03 1.50116E-13 2.67988E-13
 -1      4230 1.99853E+01 7.32835E-02-2.70084E-04-4.22050E-04 3.50898E-15 2.19925E-13
 -1      4231 1.99909E+01 6.19500E-02-2.23365E-04 5.65636E-04-1.03082E-13 2.84967E-13
 -1      4232 1.99955E+01 5.20937E-02-1.81054E-04-5.88071E-04-4.44570E-14 3.91587E-13
 -1      4233 1.99991E+01 4.34491E-02-1.53527E-04 2.14712E-04 1.44697E-14 4.22867E-13
 -1      4234 2.00019E+01 3.59934E-02-1.16845E-04-5.81929E-04-9.83004E-14 5.55393E-13
 -1      4235 2.00040E+01 2.95248E-02-1.00987E-04 4.08427E-05-1.47319E-13 4.03043E-13
 -1      4236 2.00056E+01 2.39961E-02-7.13486E-05-5.03240E-04-1.79545E-13 4.71169E-13
 -1      4237 2.00067E+01 1.92544E-02-6.25211E-05-3.90098E-05-1.29745E-13 4.10298E-13
 -1      4238 2.00075E+01 1.52429E-02-3.98217E-05-4.04059E-04-2.64532E-13 3.20299E-13
 -1      4239 2.00078E+01 1.18462E-02-3.51934E-05-7.09108E-05-2.17291E-13 1.47009E-13
 -1      4240 2.00080E+01 9.00652E-03-1.86042E-05-3.09237E-04-1.09908E-13 8.84716E-14
 -1      4241 2.00080E+01 6.63726E-03-1.64674E-05-7.95650E-05-1.35936E-13 4.07592E-14
 -1      4242 2.00078E+01 4.68456E-03-4.92176E-06-2.28788E-04-5.10746E-14-3.95265E-14
 -1      4243 2.00075E+01 3.08381E-03-4.33201E-06-7.76099E-05 1.39561E-13-1.79547E-15
 -1      4244 2.00071E+01 1.78721E-03 2.99454E-06-1.65375E-04 1.59131E-13-1.09299E-13
 -1      4245 2.00066E+01 7.46108E-04 1.54263E-06-7.00251E-05 1.46901E-14-5.91066E-14
 -1      4246 1.77750E+01 6.55384E-01-2.12303E-02 1.27403E+00-1.46806E-13-7.99145E-14
 -1      4247 1.81439E+01 7.67397E-01 6.16041E-03 9.82573E-01-1.61406E-13-1.44465E-13
 -1      4248 1.82435E+01 8.00377E-01-1.36437E-02 8.04673E-01-1.81961E-13-2.06274E-13
 -1      4249 2.00061E+01-7.30856E-05 4.26566E-06-1.13022E-04 1.65949E-14-2.25655E-13
 -1      4250 1.84823E+01 8.19005E-01 1.03900E-04 6.65363E-01-1.53042E-13-1.58977E-13
 -1      4251 2.00056E+01-6.60254E-04-1.23814E-07-3.76958E-04 4.38074E-14-3.07117E-13
 -1      4252 2.00059E+01-3.64188E-04-4.73084E-06 3.05974E-04-3.23114E-15 1.46713E-14
 -3
    1PSTEP                         3           1           1          
  100CL  101 1.000000000        4252                     0    1           1
 -4  TOSTRAIN    6    1
 -5  EXX         1    4    1    1
 -5  EYY         1    4    2    2
 -5  EZZ         1    4    3    3
 -5  EXY         1    4    1    2
 -5  EYZ         1    4    2    3
 -5  EZX         1    4    3    1
 -1         1 3.30371E-04-1.02736E-04-8.29033E-05 2.11485E-06-5.34716E-19 1.42803E-18
 -1         2 3.76081E-05-1.13771E-04 2.05880E-05 1.34712E-07 3.17034E-18 3.38443E-19
 -1         3 9.52374E-05-2.85709E-05-2.85716E-05 2.00024E-10-2.07200E-18-1.82180E-18
 -1         4 9.52374E-05-2.85709E-05-2.85716E-05-3.07347E-10 2.14030E-18-2.74629E-18
 -1         5 1.51068E-04-2.23033E-05-4.54297E-05 3.94226E-05-2.80368E-19 1.91224E-17
 -1         6 1.53860E-04 2.94131E-10-4.84828E-05-5.30871E-05-1.05371E-18 1.37846E-17
 -1         7 1.02790E-04-1.14957E-06-4.33551E-05-2.45370E-05-1.69724E-19 1.53808E-18
 -1         8 9.35143E-05-1.22117E-07-3.95883E-05-1.24046E-05-1.49925E-19-1.94447E-18
 -1         9 8.64454E-05 3.43803E-08-3.68573E-05-6.72367E-06-1.13079E-19-3.74485E-18
 -1        10 8.04627E-05 1.02913E-07-3.44869E-05-3.81101E-06-6.76568E-20-4.58819E-18
 -1        11 7.56917E-05 1.53407E-07-3.25871E-05-2.74147E-06-4.65339E-20-4.90655E-18
 -1        12 7.25088E-05 1.77361E-07-3.13020E-05-2.84513E-06-1.58819E-21-5.01407E-18
 -1        13 7.10163E-05 1.75529E-07-3.06665E-05-3.45011E-06 6.07481E-21-4.87507E-18
 -1        14 7.12195E-05 1.47925E-07-3.06872E-05-3.88472E-06 4.57927E-20-4.65885E-18
 -1        15 7.27874E-05 1.04365E-07-3.12479E-05-3.62108E-06 7.24743E-20-4.32724E-18
 -1        16 7.52390E-05 5.82472E-08-3.21766E-05-2.37517E-06 1.01829E-19-3.89162E-18
 -1        17 7.81045E-05 2.00700E-08-3.33007E-05-1.07711E-07 1.11914E-19-3.36260E-18
 -1        18 8.10043E-05 2.85681E-09-3.44764E-05 2.99545E-06 1.45293E-19-2.53330E-18
 -1        19 8.39426E-05 5.04792E-09-3.57048E-05 6.90963E-06 2.08211E-19-1.43891E-18
 -1        20 8.70560E-05 3.04205E-08-3.70417E-05 1.15922E-05 2.25920E-19 3.12598E-19
 -1        21 9.10171E-05 7.85811E-08-3.87411E-05 1.74873E-05 2.48975E-19 3.23405E-18
 -1        22 9.87465E-05-3.13804E-07-4.15231E-05 2.67247E-05 7.83505E-21 8.56619E-18
 -1        23 1.30154E-04-4.39787E-05-4.05829E-05-2.90033E-06-6.96949E-19 1.02329E-17
 -1        24 1.16367E-04-3.48002E-05-3.60260E-05 7.20484E-07-1.56976E-19 7.13118E-18
 -1        25 1.18987E-04-3.58154E-05-3.58858E-05 6.32780E-07-1.13251E-19 4.24827E-18
 -1        26 1.24232E-04-3.73324E-05-3.72450E-05 5.19700E-07 6.35850E-20 2.40666E-18
 -1        27 1.30161E-04-3.90716E-05-3.88815E-05 4.62970E-07-3.37779E-21 1.57768E-18
 -1        28 1.34329E-04-4.03135E-05-3.98963E-05 2.35983E-07-3.79759E-20 1.01598E-18
 -1        29 1.33454E-04-4.00820E-05-3.93812E-05-3.34920E-07 1.75005E-19 9.38248E-19
 -1        30 1.24511E-04-3.74267E-05-3.67188E-05-1.24170E-06 1.11769E-20 6.98220E-19
 -1        31 1.07842E-04-3.23640E-05-3.23344E-05-1.96884E-06-1.94214E-20-1.23603E-18
 -1        32 9.03293E-05-2.69266E-05-2.80637E-05-1.56207E-06-8.94447E-20-3.19151E-18
 -1        33 8.27954E-05-2.46318E-05-2.63030E-05-9.24662E-08 3.01557E-20-5.28641E-18
 -1        34 9.01462E-05-2.68870E-05-2.80579E-05 1.57629E-06-1.65201E-19-5.91044E-18
 -1        35 1.08179E-04-3.24553E-05-3.24828E-05 2.03423E-06-1.32810E-19-6.45757E-18
 -1        36 1.25903E-04-3.78342E-05-3.71547E-05 1.35724E-06 1.54286E-19-6.59129E-18
 -1        37 1.35991E-04-4.08292E-05-4.01318E-05 4.46849E-07 9.37924E-20-6.30306E-18
 -1        38 1.37656E-04-4.12833E-05-4.08852E-05-1.36965E-07-4.03671E-19-7.03757E-18
 -1        39 1.33712E-04-4.00840E-05-3.99604E-05-3.53882E-07 1.05844E-19-6.50823E-18
 -1        40 1.27309E-04-3.81708E-05-3.81945E-05-3.59010E-07-4.72549E-19-5.24904E-18
 -1        41 1.20566E-04-3.61634E-05-3.62346E-05-2.85701E-07-1.04933E-19-7.38699E-18
 -1        42 1.14534E-04-3.43670E-05-3.44367E-05-2.02860E-07 1.65556E-19-7.51474E-18
 -1        43 1.09569E-04-3.28855E-05-3.29380E-05-1.35012E-07-2.80411E-19-8.56082E-18
 -1        44 1.05674E-04-3.17198E-05-3.17548E-05-8.60749E-08 6.59063E-19-8.31630E-18
 -1        45 1.02706E-04-3.08292E-05-3.08508E-05-5.29450E-08 4.07013E-19-5.64748E-18
 -1        46 1.00489E-04-3.01622E-05-3.01747E-05-3.12862E-08-2.66091E-19-4.79337E-18
 -1        47 9.88568E-05-2.96702E-05-2.96770E-05-1.74320E-08-2.64600E-19-4.78998E-18
 -1        48 9.76705E-05-2.93119E-05-2.93152E-05-8.72296E-09-4.60326E-22-4.63393E-18
 -1        49 9.68196E-05-2.90544E-05-2.90558E-05-3.35602E-09 3.90162E-19-5.64377E-18
 -1        50 9.62181E-05-2.88721E-05-2.88723E-05-1.45597E-10 7.45713E-20-7.86050E-18
 -1        51 9.58007E-05-2.87454E-05-2.87450E-05 1.67879E-09-3.12451E-20-6.32069E-18
 -1        52 9.55176E-05-2.86592E-05-2.86585E-05 2.61751E-09 4.13590E-25-4.87914E-18
 -1        53 9.53317E-05-2.86025E-05-2.86017E-05 2.99711E-09-5.20608E-19-8.08554E-18
 -1        54 9.52150E-05-2.85667E-05-2.85659E-05 3.03214E-09-7.69099E-20-9.50745E-18
 -1        55 9.51469E-05-2.85457E-05-2.85449E-05 2.86423E-09 6.27137E-19-7.29655E-18
 -1        56 9.51119E-05-2.85347E-05-2.85340E-05 2.58685E-09-2.68110E-19-6.06113E-18
 -1        57 9.50991E-05-2.85306E-05-2.85299E-05 2.26116E-09 6.06561E-19-5.21709E-18
 -1        58 9.51003E-05-2.85307E-05-2.85301E-05 1.92637E-09-9.64516E-19-7.42504E-18
 -1        59 9.51100E-05-2.85334E-05-2.85329E-05 1.60666E-09 3.36340E-20-9.23128E-18
 -1        60 9.51242E-05-2.85375E-05-2.85371E-05 1.31591E-09-5.50380E-20-7.04503E-18
 -1        61 9.51402E-05-2.85422E-05-2.85419E-05 1.06105E-09-2.09727E-19-7.84138E-18
 -1        62 9.51565E-05-2.85470E-05-2.85468E-05 8.44382E-10-4.79824E-19-8.11806E-18
 -1        63 9.51719E-05-2.85516E-05-2.85514E-05 6.65257E-10 1.11762E-18-6.24831E-18
 -1        64 9.51860E-05-2.85558E-05-2.85557E-05 5.21171E-10 2.11781E-19-2.77097E-18
 -1        65 9.51985E-05-2.85595E-05-2.85594E-05 4.08446E-10-1.84051E-19-2.08364E-18
 -1        66 9.52093E-05-2.85628E-05-2.85627E-05 3.22425E-10-4.61111E-19-2.89250E-18
 -1        67 9.52185E-05-2.85655E-05-2.85655E-05 2.56929E-10-1.90592E-19-2.99726E-18
 -1        68 9.52260E-05-2.85678E-05-2.85677E-05 2.02269E-10-4.25956E-19-5.06593E-18
 -1        69 9.52318E-05-2.85695E-05-2.85694E-05 1.40282E-10 3.60616E-19-3.42548E-18
 -1        70 9.52358E-05-2.85707E-05-2.85706E-05 4.11551E-11-4.25119E-19-3.43234E-18
 -1        71 9.52374E-05-2.85712E-05-2.85712E-05-2.28209E-10-2.90629E-19-4.75394E-18
 -1        72 1.11714E-04-3.34410E-05-3.71838E-05-2.37131E-06 1.69460E-19 1.83357E-17
 -1        73 1.04247E-04-3.10191E-05-3.23646E-05-4.84306E-07 1.25020E-19 1.53225E-17
 -1        74 1.01842E-04-3.05276E-05-3.07065E-05-2.25575E-07 7.14436E-20 1.30348E-17
 -1        75 1.00683E-04-3.02348E-05-3.01291E-05-1.55574E-07 7.35537E-20 1.18125E-17
 -1        76 9.92575E-05-2.98088E-05-2.96568E-05-7.74098E-08 1.77720E-21 1.08861E-17
 -1        77 9.68409E-05-2.90836E-05-2.89332E-05 2.03924E-08 2.92673E-20 1.01024E-17
 -1        78 9.32440E-05-2.80073E-05-2.78861E-05 1.33914E-07-1.39438E-19 9.80680E-18
 -1        79 8.88140E-05-2.66768E-05-2.66252E-05 2.35487E-07 1.06950E-19 9.03943E-18
 -1        80 8.44253E-05-2.53487E-05-2.54019E-05 2.81517E-07-9.35454E-20 7.60281E-18
 -1        81 8.12561E-05-2.43778E-05-2.45366E-05 2.38105E-07 1.27655E-19 5.97927E-18
 -1        82 8.03380E-05-2.40820E-05-2.42996E-05 1.08881E-07 1.21367E-19 4.91289E-18
 -1        83 8.20793E-05-2.45937E-05-2.47944E-05-5.86078E-08-6.40188E-20 4.78352E-18
 -1        84 8.60552E-05-2.57887E-05-2.59081E-05-1.99291E-07-3.63715E-20 4.75260E-18
 -1        85 9.12118E-05-2.73468E-05-2.73623E-05-2.69082E-07 7.70925E-20 4.69232E-18
 -1        86 9.63387E-05-2.88970E-05-2.88296E-05-2.63195E-07-2.92284E-21 3.04794E-18
 -1        87 1.00504E-04-3.01548E-05-3.00466E-05-2.06445E-07 9.40103E-20 2.30852E-18
 -1        88 1.03257E-04-3.09836E-05-3.08736E-05-1.31595E-07-1.83855E-19 2.12677E-18
 -1        89 1.04582E-04-3.13808E-05-3.12927E-05-6.30924E-08 3.28566E-19 1.22011E-18
 -1        90 1.04740E-04-3.14264E-05-3.13679E-05-1.24567E-08-2.04796E-19 4.29309E-19
 -1        91 1.04092E-04-3.12301E-05-3.11987E-05 1.87720E-08-2.58698E-19 1.68106E-18
 -1        92 1.02983E-04-3.08962E-05-3.08848E-05 3.41596E-08 3.09711E-20 1.48088E-18
 -1        93 1.01685E-04-3.05063E-05-3.05076E-05 3.86696E-08-1.86208E-19 1.85188E-18
 -1        94 1.00387E-04-3.01167E-05-3.01248E-05 3.67366E-08 2.65230E-20 6.92929E-20
 -1        95 9.91998E-05-2.97607E-05-2.97715E-05 3.16233E-08-4.03385E-20 2.74187E-19
 -1        96 9.81796E-05-2.94547E-05-2.94658E-05 2.54377E-08-6.48433E-20 2.23581E-18
 -1        97 9.73425E-05-2.92037E-05-2.92136E-05 1.93911E-08-1.07457E-19 2.71249E-18
 -1        98 9.66816E-05-2.90054E-05-2.90138E-05 1.40831E-08 1.44329E-19 1.23694E-19
 -1        99 9.61774E-05-2.88541E-05-2.88607E-05 9.73347E-09-1.53987E-19-2.07061E-18
 -1       100 9.58053E-05-2.87424E-05-2.87474E-05 6.34766E-09-4.13568E-19-1.08141E-18
 -1       101 9.55399E-05-2.86627E-05-2.86664E-05 3.82417E-09 4.65101E-19-6.54097E-19
 -1       102 9.53580E-05-2.86080E-05-2.86106E-05 2.01947E-09-1.76992E-19-1.97376E-18
 -1       103 9.52392E-05-2.85723E-05-2.85740E-05 7.84479E-10-1.46732E-19-4.76915E-19
 -1       104 9.51668E-05-2.85504E-05-2.85515E-05-1.69275E-11 1.22620E-19 3.12039E-19
 -1       105 9.51274E-05-2.85385E-05-2.85392E-05-5.00175E-10-6.30090E-20 7.58546E-19
 -1       106 9.51107E-05-2.85335E-05-2.85338E-05-7.58333E-10-1.73673E-19-3.07730E-20
 -1       107 9.51089E-05-2.85328E-05-2.85329E-05-8.63590E-10 4.97138E-19-2.23712E-18
 -1       108 9.51162E-05-2.85350E-05-2.85350E-05-8.70127E-10 9.81086E-20-4.62403E-18
 -1       109 9.51287E-05-2.85387E-05-2.85386E-05-8.17393E-10-5.45786E-19-1.46894E-19
 -1       110 9.51435E-05-2.85431E-05-2.85430E-05-7.33252E-10-2.16590E-19-7.71727E-19
 -1       111 9.51589E-05-2.85477E-05-2.85475E-05-6.36766E-10 1.86439E-19-1.94642E-18
 -1       112 9.51737E-05-2.85521E-05-2.85520E-05-5.40507E-10-4.43164E-19-3.58249E-18
 -1       113 9.51874E-05-2.85562E-05-2.85561E-05-4.52406E-10 3.79668E-19-1.95884E-18
 -1       114 9.51995E-05-2.85599E-05-2.85597E-05-3.77155E-10-9.11883E-19-2.95215E-18
 -1       115 9.52101E-05-2.85630E-05-2.85629E-05-3.17079E-10 1.72647E-20-5.00554E-18
 -1       116 9.52191E-05-2.85657E-05-2.85656E-05-2.72217E-10-2.27528E-19-3.09896E-18
 -1       117 9.52265E-05-2.85679E-05-2.85679E-05-2.39013E-10-1.90037E-19-4.74501E-18
 -1       118 9.52322E-05-2.85697E-05-2.85695E-05-2.06356E-10 2.01182E-19-4.18412E-18
 -1       119 9.52360E-05-2.85708E-05-2.85706E-05-1.29530E-10 1.05672E-19-6.49790E-18
 -1       120 9.52375E-05-2.85713E-05-2.85712E-05 9.14744E-11 6.42400E-19-4.86338E-18
 -1       121 9.52371E-05-2.85710E-05-2.85712E-05 1.61146E-10-3.88188E-18 2.76736E-19
 -1       122 9.52375E-05-2.85725E-05-2.85706E-05-6.15564E-11-1.31478E-18 1.23716E-19
 -1       123 9.52386E-05-2.85761E-05-2.85696E-05-1.99824E-10 1.92545E-19 6.05530E-19
 -1       124 9.52400E-05-2.85808E-05-2.85682E-05-2.33229E-10-6.72706E-19 1.77313E-19
 -1       125 9.52415E-05-2.85857E-05-2.85668E-05-2.19980E-10-7.17704E-20-1.78962E-18
 -1       126 9.52428E-05-2.85900E-05-2.85655E-05-1.77971E-10-2.44949E-18 9.22612E-19
 -1       127 9.52438E-05-2.85933E-05-2.85646E-05-1.14100E-10 8.00434E-19 1.09543E-18
 -1       128 9.52443E-05-2.85950E-05-2.85641E-05-3.90137E-11 4.96800E-19-1.79440E-18
 -1       129 9.52443E-05-2.85950E-05-2.85641E-05 3.97950E-11 1.41037E-18 8.29530E-19
 -1       130 9.52438E-05-2.85933E-05-2.85646E-05 1.14961E-10 1.90806E-18-3.99637E-19
 -1       131 9.52428E-05-2.85900E-05-2.85656E-05 1.80842E-10-4.37848E-18-1.67963E-18
 -1       132 9.52415E-05-2.85856E-05-2.85668E-05 2.21681E-10-5.61300E-18 2.75168E-18
 -1       133 9.52400E-05-2.85807E-05-2.85683E-05 2.33954E-10-2.83688E-18-8.78250E-20
 -1       134 9.52386E-05-2.85760E-05-2.85696E-05 2.00532E-10-2.07800E-18-8.89671E-19
 -1       135 9.52375E-05-2.85724E-05-2.85706E-05 3.03406E-11 9.29612E-19 3.63043E-19
 -1       136 9.52371E-05-2.85708E-05-2.85712E-05-2.56219E-10 7.15092E-18 1.09382E-18
 -1       137 2.63839E-05-8.77331E-05 1.55073E-05-2.28533E-05 1.62609E-17 3.56974E-18
 -1       138 7.73901E-06-3.30131E-05 3.01688E-06-1.72595E-05 2.15561E-17 9.99711E-18
 -1       139 1.23456E-05 1.83371E-05-1.63784E-05 2.72082E-05 2.15960E-17 1.56396E-17
 -1       140 5.87705E-05 2.97641E-05-3.63327E-05 8.16357E-05 1.67281E-17 1.91061E-17
 -1       141 1.47254E-04-1.64067E-06-5.59946E-05 1.15651E-04 9.23859E-18 1.62012E-17
 -1       142 2.42345E-04-5.35695E-05-7.08428E-05 1.00854E-04 2.80717E-18 7.96634E-18
 -1       143 3.03847E-04-9.15638E-05-7.88801E-05 3.82337E-05 3.63033E-20-1.26473E-18
 -1       144 2.98256E-04-8.77159E-05-7.82710E-05-4.76504E-05 1.68458E-18-1.07778E-17
 -1       145 2.24015E-04-4.31707E-05-6.81307E-05-1.05708E-04 6.84667E-18-1.83586E-17
 -1       146 1.26153E-04 7.34377E-06-5.19512E-05-1.10694E-04 1.26886E-17-2.04097E-17
 -1       147 4.51348E-05 3.08633E-05-3.21541E-05-7.05335E-05 1.72447E-17-1.78296E-17
 -1       148 8.26490E-06 1.20273E-05-1.28489E-05-1.74078E-05 1.78364E-17-1.23980E-17
 -1       149 9.50979E-06-3.84827E-05 4.24674E-06 1.87014E-05 1.32857E-17-5.80196E-18
 -1       150 2.82026E-05-9.17216E-05 1.62773E-05 2.03058E-05 4.64809E-18-9.46890E-19
 -1       151 3.59652E-05-1.10674E-04 2.00710E-05-6.54645E-06-5.92034E-18-6.85726E-19
 -1       152 2.32495E-05-8.29652E-05 1.45158E-05-2.68571E-05-1.60062E-17-4.52834E-18
 -1       153 6.26931E-06-2.89785E-05 1.37864E-06-1.73011E-05-2.07184E-17-1.10591E-17
 -1       154 1.81061E-05 1.59046E-05-1.84488E-05 3.12733E-05-2.05355E-17-1.67882E-17
 -1       155 7.77745E-05 2.20503E-05-4.09457E-05 8.91886E-05-1.56697E-17-1.99900E-17
 -1       156 1.79548E-04-1.82905E-05-6.13456E-05 1.15232E-04-9.05542E-18-1.72922E-17
 -1       157 2.87123E-04-7.59937E-05-7.76452E-05 8.27490E-05-2.59076E-18-9.99859E-18
 -1       158 2.95595E-04-8.19563E-05-7.84383E-05-7.53746E-05-2.33307E-18 1.14364E-17
 -1       159 2.07120E-04-3.23084E-05-6.58400E-05-1.14633E-04-6.77732E-18 1.62410E-17
 -1       160 1.08625E-04 1.22149E-05-4.79500E-05-1.02849E-04-1.22544E-17 1.75785E-17
 -1       161 3.66176E-05 2.52455E-05-2.79232E-05-5.65438E-05-1.65709E-17 1.61932E-17
 -1       162 6.01641E-06-1.01799E-06-8.20613E-06-3.64763E-06-1.88609E-17 1.29979E-17
 -1       163 1.16892E-05-5.19024E-05 7.74487E-06 2.60258E-05-1.60479E-17 6.33824E-18
 -1       164 2.92726E-05-9.80278E-05 1.79240E-05 2.48217E-05-8.82714E-18 2.13558E-18
 -1       165 1.07913E-04-1.60636E-05-3.95189E-05-1.51792E-05-2.13050E-18-1.15885E-19
 -1       166 9.62371E-05-9.68749E-06-3.72307E-05-9.19384E-06-1.74268E-18-2.30241E-18
 -1       167 8.68612E-05-5.37746E-06-3.50249E-05-5.51964E-06-1.25193E-18-3.45946E-18
 -1       168 7.94162E-05-2.41227E-06-3.30769E-05-3.68522E-06-7.80356E-19-4.01402E-18
 -1       169 7.41120E-05-5.07747E-07-3.16002E-05-3.23726E-06-3.53090E-19-4.19163E-18
 -1       170 7.11553E-05 3.26318E-07-3.06805E-05-3.57514E-06-9.45137E-21-4.19197E-18
 -1       171 7.07279E-05 7.96793E-08-3.03881E-05-4.03150E-06 3.60301E-19-4.01960E-18
 -1       172 7.24553E-05-1.01287E-06-3.06618E-05-3.98292E-06 6.67038E-19-3.78276E-18
 -1       173 7.56326E-05-2.56336E-06-3.13646E-05-3.03065E-06 9.98963E-19-3.44946E-18
 -1       174 7.94858E-05-4.18669E-06-3.23296E-05-1.05738E-06 1.31799E-18-3.04173E-18
 -1       175 8.33657E-05-5.62336E-06-3.33902E-05 1.77707E-06 1.61182E-18-2.34086E-18
 -1       176 8.71764E-05-6.91439E-06-3.44901E-05 5.38616E-06 2.06181E-18-1.36537E-18
 -1       177 9.10571E-05-8.30538E-06-3.55906E-05 9.59980E-06 2.39149E-18-1.34877E-19
 -1       178 9.58339E-05-1.05147E-05-3.67401E-05 1.44484E-05 2.48349E-18 1.92445E-18
 -1       179 1.03960E-04-1.58863E-05-3.79590E-05 1.96820E-05 2.12752E-18 5.27230E-18
 -1       180 1.15024E-04-2.90734E-05-3.80628E-05 1.71148E-05 1.36421E-18 9.53081E-18
 -1       181 1.20636E-04-3.26924E-05-3.76754E-05-6.41036E-06-1.93679E-18 2.64118E-18
 -1       182 1.17739E-04-3.44646E-05-3.57161E-05 1.30089E-06-1.52989E-18 1.88714E-18
 -1       183 1.18229E-04-3.50131E-05-3.56232E-05 4.43586E-06-1.08221E-18 1.30949E-18
 -1       184 1.20971E-04-3.63547E-05-3.62498E-05 5.42533E-06-4.78669E-19 7.36561E-19
 -1       185 1.24291E-04-3.80997E-05-3.69463E-05 4.13438E-06-5.00279E-20 8.93970E-19
 -1       186 1.26705E-04-3.97903E-05-3.72585E-05-9.83727E-08 1.85421E-20 1.44803E-18
 -1       187 1.26461E-04-4.03602E-05-3.69045E-05-7.08848E-06-2.97143E-19 1.43081E-18
 -1       188 1.22152E-04-3.82954E-05-3.59648E-05-1.40238E-05-1.25408E-18 8.81152E-19
 -1       189 1.14424E-04-3.31673E-05-3.49439E-05-1.51935E-05-1.38118E-18-1.08500E-19
 -1       190 1.08094E-04-2.83868E-05-3.43390E-05-7.11576E-06-1.63660E-18-1.33144E-18
 -1       191 1.07791E-04-2.80734E-05-3.43445E-05 6.49206E-06-1.03150E-18-2.98393E-18
 -1       192 1.14561E-04-3.30142E-05-3.50594E-05 1.56664E-05-4.14729E-19-4.04964E-18
 -1       193 1.22757E-04-3.83697E-05-3.61955E-05 1.49818E-05-4.14599E-20-4.51036E-18
 -1       194 1.27616E-04-4.07643E-05-3.72285E-05 8.04710E-06 2.61177E-19-4.26550E-18
 -1       195 1.28112E-04-4.03501E-05-3.76293E-05 6.50385E-07 3.09035E-20-3.86838E-18
 -1       196 1.25478E-04-3.86246E-05-3.72481E-05-4.21412E-06 3.56399E-19-2.91582E-18
 -1       197 1.21268E-04-3.66507E-05-3.62855E-05-6.33800E-06 5.66640E-19-2.75442E-18
 -1       198 1.16630E-04-3.48723E-05-3.50497E-05-6.61010E-06-4.45155E-19-1.86437E-18
 -1       199 1.12239E-04-3.34013E-05-3.37889E-05-5.94242E-06-5.28953E-19-1.27550E-18
 -1       200 1.08412E-04-3.22262E-05-3.26462E-05-4.94010E-06-8.61456E-19-2.51906E-18
 -1       201 1.05242E-04-3.13042E-05-3.16803E-05-3.92232E-06 2.64896E-19-2.90070E-18
 -1       202 1.02706E-04-3.05895E-05-3.08989E-05-3.02509E-06 1.25703E-18-2.56953E-18
 -1       203 1.00723E-04-3.00414E-05-3.02849E-05-2.28727E-06 2.85147E-19-2.76518E-18
 -1       204 9.92023E-05-2.96255E-05-2.98124E-05-1.70357E-06-2.42958E-19-2.10250E-18
 -1       205 9.80523E-05-2.93133E-05-2.94545E-05-1.25241E-06 1.89494E-19-2.86378E-18
 -1       206 9.71944E-05-2.90816E-05-2.91872E-05-9.08952E-07-1.20023E-18-3.47566E-18
 -1       207 9.65629E-05-2.89120E-05-2.89902E-05-6.50405E-07-1.51453E-18-4.47636E-18
 -1       208 9.61048E-05-2.87896E-05-2.88470E-05-4.57646E-07-1.23916E-19-5.33569E-18
 -1       209 9.57778E-05-2.87028E-05-2.87446E-05-3.15324E-07 5.86235E-19-5.96812E-18
 -1       210 9.55491E-05-2.86428E-05-2.86728E-05-2.11376E-07-8.13123E-19-5.83296E-18
 -1       211 9.53931E-05-2.86024E-05-2.86236E-05-1.36433E-07-3.13312E-19-4.17185E-18
 -1       212 9.52901E-05-2.85762E-05-2.85909E-05-8.32551E-08 1.54922E-18-4.01477E-18
 -1       213 9.52252E-05-2.85602E-05-2.85702E-05-4.62743E-08 1.30457E-19-3.57219E-18
 -1       214 9.51872E-05-2.85514E-05-2.85579E-05-2.12216E-08-3.24475E-19-3.69109E-18
 -1       215 9.51678E-05-2.85474E-05-2.85514E-05-4.83959E-09-1.74919E-18-4.97165E-18
 -1       216 9.51607E-05-2.85465E-05-2.85488E-05 5.34132E-09-4.32189E-19-4.00221E-18
 -1       217 9.51615E-05-2.85476E-05-2.85487E-05 1.11782E-08 1.22494E-18-4.35094E-18
 -1       218 9.51671E-05-2.85498E-05-2.85502E-05 1.40522E-08-5.91463E-19-3.86209E-18
 -1       219 9.51752E-05-2.85526E-05-2.85525E-05 1.49762E-08 1.15377E-18-6.29993E-19
 -1       220 9.51844E-05-2.85556E-05-2.85552E-05 1.46793E-08 1.10786E-18 3.54879E-19
 -1       221 9.51937E-05-2.85585E-05-2.85579E-05 1.36722E-08 9.21365E-19 1.64284E-18
 -1       222 9.52026E-05-2.85612E-05-2.85606E-05 1.22986E-08 7.56399E-20 3.11523E-19
 -1       223 9.52107E-05-2.85636E-05-2.85630E-05 1.07718E-08-5.10880E-19-1.04039E-18
 -1       224 9.52179E-05-2.85658E-05-2.85652E-05 9.20189E-09-1.05761E-18-4.15659E-19
 -1       225 9.52240E-05-2.85676E-05-2.85670E-05 7.61262E-09-9.74440E-19-2.77097E-19
 -1       226 9.52290E-05-2.85692E-05-2.85685E-05 5.95294E-09-1.20695E-19-1.48526E-19
 -1       227 9.52329E-05-2.85704E-05-2.85696E-05 4.12219E-09 7.80728E-19-1.98282E-19
 -1       228 9.52356E-05-2.85713E-05-2.85704E-05 2.09622E-09-1.76463E-18 2.01047E-18
 -1       229 9.52368E-05-2.85716E-05-2.85708E-05 6.54751E-10-3.04320E-19 7.40567E-19
 -1       230 1.09645E-04-3.17665E-05-3.35520E-05 5.93436E-06 1.49475E-18 8.48437E-18
 -1       231 1.05158E-04-3.12088E-05-3.16545E-05 2.22936E-06 1.12536E-18 7.39854E-18
 -1       232 1.02838E-04-3.08856E-05-3.07905E-05 1.37305E-06 7.02338E-19 6.30050E-18
 -1       233 1.01029E-04-3.05086E-05-3.01967E-05 1.67249E-06 4.90519E-19 5.54081E-18
 -1       234 9.89723E-05-2.99354E-05-2.95730E-05 2.48536E-06 4.18534E-19 5.34405E-18
 -1       235 9.63815E-05-2.91053E-05-2.88244E-05 3.34281E-06 3.86588E-19 4.74779E-18
 -1       236 9.33548E-05-2.80384E-05-2.79890E-05 3.77707E-06 5.15921E-19 3.99679E-18
 -1       237 9.03745E-05-2.69128E-05-2.71987E-05 3.38770E-06 6.20895E-19 3.49880E-18
 -1       238 8.81637E-05-2.60311E-05-2.66325E-05 2.03494E-06 7.22274E-19 3.10103E-18
 -1       239 8.73975E-05-2.56977E-05-2.64468E-05-1.55273E-08 5.57943E-19 2.69030E-18
 -1       240 8.83764E-05-2.60570E-05-2.67086E-05-2.15680E-06 2.94351E-19 2.23986E-18
 -1       241 9.08609E-05-2.70038E-05-2.73626E-05-3.72853E-06 5.70424E-20 1.40678E-18
 -1       242 9.41825E-05-2.82420E-05-2.82526E-05-4.34114E-06 2.14638E-19 1.08493E-18
 -1       243 9.75473E-05-2.94413E-05-2.91815E-05-4.00797E-06 3.24915E-19 1.22453E-18
 -1       244 1.00325E-04-3.03688E-05-2.99779E-05-3.03973E-06 3.33744E-19 1.42973E-18
 -1       245 1.02187E-04-3.09331E-05-3.05383E-05-1.83381E-06-1.87871E-19 1.27630E-18
 -1       246 1.03093E-04-3.11552E-05-3.08342E-05-7.07252E-07 2.50981E-19 1.49492E-18
 -1       247 1.03188E-04-3.11135E-05-3.08940E-05 1.66382E-07 1.51672E-19 2.27584E-18
 -1       248 1.02699E-04-3.08995E-05-3.07757E-05 7.40045E-07-3.01906E-19 1.55304E-18
 -1       249 1.01855E-04-3.05934E-05-3.05441E-05 1.04500E-06-9.98370E-20 1.78765E-18
 -1       250 1.00848E-04-3.02551E-05-3.02562E-05 1.14575E-06-2.36087E-20 1.10703E-18
 -1       251 9.98168E-05-2.99243E-05-2.99550E-05 1.11053E-06 6.53843E-19 9.76779E-19
 -1       252 9.88519E-05-2.96242E-05-2.96691E-05 9.96934E-07-1.67144E-19 9.00540E-19
 -1       253 9.80020E-05-2.93661E-05-2.94149E-05 8.47461E-07-9.11067E-19 2.65984E-19
 -1       254 9.72869E-05-2.91529E-05-2.91994E-05 6.90370E-07 3.77536E-19 8.89580E-19
 -1       255 9.67072E-05-2.89827E-05-2.90238E-05 5.42545E-07 1.20888E-18 5.13795E-20
 -1       256 9.62523E-05-2.88509E-05-2.88853E-05 4.12681E-07 4.61816E-19 4.11002E-19
 -1       257 9.59058E-05-2.87517E-05-2.87794E-05 3.04050E-07-8.09321E-19 6.90042E-19
 -1       258 9.56497E-05-2.86793E-05-2.87008E-05 2.16606E-07 1.46663E-20 2.18948E-19
 -1       259 9.54662E-05-2.86280E-05-2.86443E-05 1.48483E-07-6.37953E-21 1.11365E-18
 -1       260 9.53394E-05-2.85931E-05-2.86050E-05 9.69785E-08-1.85114E-20 1.85751E-19
 -1       261 9.52556E-05-2.85705E-05-2.85789E-05 5.91697E-08-1.08104E-19-4.13564E-19
 -1       262 9.52034E-05-2.85568E-05-2.85625E-05 3.22675E-08-1.40609E-19 2.95950E-19
 -1       263 9.51740E-05-2.85494E-05-2.85532E-05 1.37957E-08-8.10257E-20 5.27991E-20
 -1       264 9.51604E-05-2.85464E-05-2.85487E-05 1.66083E-09 1.62586E-18-4.69677E-19
 -1       265 9.51572E-05-2.85462E-05-2.85474E-05-5.84204E-09 2.86023E-19-4.12605E-19
 -1       266 9.51606E-05-2.85477E-05-2.85483E-05-1.00597E-08-2.46540E-18-1.32141E-19
 -1       267 9.51678E-05-2.85502E-05-2.85503E-05-1.20270E-08 1.00062E-18-4.45035E-19
 -1       268 9.51769E-05-2.85532E-05-2.85530E-05-1.25183E-08 8.53744E-19-1.71091E-18
 -1       269 9.51867E-05-2.85562E-05-2.85559E-05-1.20961E-08-1.82417E-19-1.36233E-18
 -1       270 9.51963E-05-2.85592E-05-2.85588E-05-1.11545E-08 3.70276E-19-7.36971E-19
 -1       271 9.52053E-05-2.85619E-05-2.85615E-05-9.95461E-09 2.49462E-19-1.28202E-18
 -1       272 9.52134E-05-2.85643E-05-2.85639E-05-8.65217E-09 5.38456E-19-1.37805E-19
 -1       273 9.52204E-05-2.85664E-05-2.85660E-05-7.31635E-09-1.94003E-19-1.51921E-18
 -1       274 9.52263E-05-2.85682E-05-2.85678E-05-5.94203E-09-2.50897E-19-6.53312E-19
 -1       275 9.52309E-05-2.85696E-05-2.85691E-05-4.46190E-09 3.15764E-21-8.75642E-19
 -1       276 9.52343E-05-2.85707E-05-2.85701E-05-2.76009E-09 2.44219E-19-1.09066E-18
 -1       277 9.52364E-05-2.85714E-05-2.85708E-05-9.23464E-10-8.48834E-19-1.08248E-18
 -1       278 9.52370E-05-2.85727E-05-2.85704E-05-2.05495E-09 1.69118E-19 1.57513E-18
 -1       279 9.52379E-05-2.85751E-05-2.85698E-05-3.78992E-09 2.31469E-19-4.25993E-19
 -1       280 9.52391E-05-2.85784E-05-2.85689E-05-4.80762E-09-1.09891E-18-4.10092E-19
 -1       281 9.52404E-05-2.85819E-05-2.85679E-05-4.99397E-09-1.65153E-18 6.19191E-19
 -1       282 9.52416E-05-2.85852E-05-2.85670E-05-4.44375E-09-4.50600E-19-1.58405E-18
 -1       283 9.52426E-05-2.85880E-05-2.85662E-05-3.29843E-09 2.88682E-19 1.07254E-18
 -1       284 9.52432E-05-2.85898E-05-2.85657E-05-1.74812E-09-1.00890E-18-4.36620E-19
 -1       285 9.52434E-05-2.85904E-05-2.85656E-05 8.07430E-12 8.55423E-19-2.60066E-19
 -1       286 9.52432E-05-2.85898E-05-2.85657E-05 1.76501E-09-5.56961E-21-4.31069E-19
 -1       287 9.52426E-05-2.85880E-05-2.85663E-05 3.31704E-09 3.06658E-19-2.22720E-18
 -1       288 9.52416E-05-2.85853E-05-2.85670E-05 4.44718E-09 5.46321E-19-9.10778E-19
 -1       289 9.52404E-05-2.85819E-05-2.85679E-05 5.00558E-09 5.71778E-19 1.12779E-18
 -1       290 9.52391E-05-2.85783E-05-2.85689E-05 4.80826E-09-3.41091E-19 5.61331E-19
 -1       291 9.52379E-05-2.85751E-05-2.85698E-05 3.76953E-09-5.50933E-19 3.84630E-19
 -1       292 9.52372E-05-2.85731E-05-2.85703E-05 2.26705E-09-1.71235E-18 2.03777E-18
 -1       293 1.31642E-05-4.96516E-05 1.21070E-05 9.66222E-06 3.79990E-18 7.10089E-18
 -1       294 2.60388E-05-4.32049E-05 4.48731E-06 2.26353E-05 7.11868E-18 6.13681E-18
 -1       295 5.41053E-05-3.54145E-05-9.59846E-06 3.73878E-05 8.08218E-18 6.32157E-18
 -1       296 9.01800E-05-2.85000E-05-2.67065E-05 4.69726E-05 8.80554E-18 7.07887E-18
 -1       297 1.33431E-04-2.76760E-05-4.40842E-05 5.03167E-05 8.14094E-18 5.72764E-18
 -1       298 1.75047E-04-3.11177E-05-5.91517E-05 4.25051E-05 6.42420E-18 2.79944E-18
 -1       299 2.04845E-04-3.55186E-05-6.91824E-05 2.43500E-05 4.44915E-18 1.02946E-18
 -1       300 2.10770E-04-3.47680E-05-7.21137E-05-1.12665E-06 4.73438E-18-2.30784E-18
 -1       301 1.91742E-04-3.07332E-05-6.66175E-05-2.03473E-05 5.15070E-18-4.21653E-18
 -1       302 1.66155E-04-3.09769E-05-5.59638E-05-4.12425E-05 5.75877E-18-6.81586E-18
 -1       303 1.24433E-04-2.76713E-05-4.06038E-05-5.01944E-05 6.70289E-18-8.38012E-18
 -1       304 8.18821E-05-2.82801E-05-2.35406E-05-4.57372E-05 6.67780E-18-7.77619E-18
 -1       305 4.72653E-05-3.40634E-05-7.56374E-06-3.44122E-05 5.29904E-18-6.65609E-18
 -1       306 2.35216E-05-4.11108E-05 4.82037E-06-2.26949E-05 2.49409E-18-5.65262E-18
 -1       307 1.15770E-05-4.76955E-05 1.20227E-05-7.56744E-06-7.22943E-19-5.12158E-18
 -1       308 1.24881E-05-4.11558E-05 9.72216E-06 9.20864E-06-3.16102E-18-5.89101E-18
 -1       309 2.91596E-05-4.27727E-05 2.88319E-06 2.08661E-05-7.16145E-18-6.44957E-18
 -1       310 6.98975E-05-4.36419E-05-1.24781E-05 3.88979E-05-5.96608E-18-6.15761E-18
 -1       311 1.05921E-04-3.71741E-05-2.98713E-05 4.30541E-05-8.29711E-18-7.53563E-18
 -1       312 1.51886E-04-3.54218E-05-4.84771E-05 4.46549E-05-7.82574E-18-7.16569E-18
 -1       313 1.88708E-04-3.71495E-05-6.27999E-05 1.99264E-05-6.29271E-18-3.96708E-18
 -1       314 2.16837E-04-3.71577E-05-7.31422E-05 1.03666E-05-5.61360E-18-2.13738E-18
 -1       315 2.22386E-04-3.99786E-05-7.38519E-05-9.64072E-06-4.83158E-18 6.31251E-19
 -1       316 2.01961E-04-3.87389E-05-6.65279E-05-2.85723E-05-4.34443E-18 3.73796E-18
 -1       317 1.65786E-04-3.67315E-05-5.33601E-05-4.11161E-05-5.55468E-18 5.36955E-18
 -1       318 1.22188E-04-3.52967E-05-3.69399E-05-4.44541E-05-5.95972E-18 5.81170E-18
 -1       319 7.97048E-05-3.64672E-05-1.97290E-05-3.93878E-05-7.02677E-18 5.06399E-18
 -1       320 4.52472E-05-4.10295E-05-4.21212E-06-2.80751E-05-5.98916E-18 6.37991E-18
 -1       321 2.37611E-05-4.44247E-05 6.28401E-06-1.90461E-05-2.22727E-18 5.55775E-18
 -1       322 1.22412E-05-5.07069E-05 1.29005E-05-2.71192E-06 2.30764E-19 5.78164E-18
 -1       323 9.50660E-05-1.40440E-05-3.47868E-05-3.82291E-06-1.73717E-18-2.00624E-18
 -1       324 1.06757E-04-2.20435E-05-3.63589E-05-5.84900E-06-2.09526E-18-7.01045E-19
 -1       325 7.72794E-05-3.87567E-06-3.14917E-05-2.21824E-06-6.70906E-19-3.16760E-18
 -1       326 7.22529E-05-1.39199E-06-3.03875E-05-3.10176E-06-2.21355E-19-3.38300E-18
 -1       327 7.05093E-05-9.01165E-07-2.98459E-05-4.39623E-06 2.71309E-19-3.28350E-18
 -1       328 7.18351E-05-2.18407E-06-2.98672E-05-5.22341E-06 6.32491E-19-3.09284E-18
 -1       329 7.53976E-05-4.63300E-06-3.03524E-05-4.93601E-06 9.79505E-19-2.73961E-18
 -1       330 8.00928E-05-7.50287E-06-3.11456E-05-3.31990E-06 1.30702E-18-2.54834E-18
 -1       331 8.48970E-05-1.01857E-05-3.20670E-05-6.25826E-07 1.67446E-18-1.96362E-18
 -1       332 8.94794E-05-1.25833E-05-3.30169E-05 2.83156E-06 2.12620E-18-1.06743E-18
 -1       333 9.37850E-05-1.48895E-05-3.38906E-05 6.55974E-06 2.53969E-18-6.36598E-20
 -1       334 9.83751E-05-1.78273E-05-3.46154E-05 1.00266E-05 2.72505E-18 1.18483E-18
 -1       335 1.04073E-04-2.27044E-05-3.49894E-05 1.19783E-05 2.48801E-18 3.38578E-18
 -1       336 1.07962E-04-2.76426E-05-3.45150E-05 1.00099E-05 2.12343E-18 5.47970E-18
 -1       337 1.06013E-04-3.03186E-05-3.24193E-05 4.83025E-06 1.58985E-18 4.79926E-18
 -1       338 1.11432E-04-3.01396E-05-3.47960E-05 3.34602E-06-1.57188E-18-2.26742E-19
 -1       339 1.12791E-04-3.25683E-05-3.43674E-05 7.35802E-06-9.65674E-19-1.01965E-19
 -1       340 1.15763E-04-3.57307E-05-3.43100E-05 8.44550E-06-1.54000E-19 1.79731E-19
 -1       341 1.20450E-04-4.01831E-05-3.44311E-05 5.98752E-06 3.42856E-19 3.88436E-19
 -1       342 1.26259E-04-4.50737E-05-3.48434E-05-8.79159E-07 1.36217E-19 9.75724E-19
 -1       343 1.30953E-04-4.71021E-05-3.60222E-05-1.14064E-05-8.68789E-19 1.42540E-18
 -1       344 1.30379E-04-4.14886E-05-3.82696E-05-1.98687E-05-1.90523E-18 1.60423E-18
 -1       345 1.25456E-04-2.93985E-05-4.14701E-05-1.81902E-05-2.66839E-18 4.76985E-19
 -1       346 1.19734E-04-1.99358E-05-4.34152E-05-1.10151E-06-2.43765E-18-1.16794E-18
 -1       347 1.24439E-04-2.77240E-05-4.18204E-05 1.71700E-05-2.21539E-18-2.86422E-18
 -1       348 1.30573E-04-4.07449E-05-3.87112E-05 2.11050E-05-4.71599E-19-4.36929E-18
 -1       349 1.31460E-04-4.73073E-05-3.61562E-05 1.26979E-05 7.31889E-19-3.45513E-18
 -1       350 1.26920E-04-4.57512E-05-3.48379E-05 1.62306E-06 9.28385E-19-3.07862E-18
 -1       351 1.20755E-04-4.09849E-05-3.42258E-05-6.27800E-06 5.61100E-19-2.16628E-18
 -1       352 1.15230E-04-3.65035E-05-3.37655E-05-1.01356E-05 7.33330E-19-1.55740E-18
 -1       353 1.10880E-04-3.33805E-05-3.32249E-05-1.10561E-05 7.91060E-19-1.47110E-18
 -1       354 1.07527E-04-3.14802E-05-3.25916E-05-1.03317E-05-4.50212E-20-1.00355E-18
 -1       355 1.04895E-04-3.03853E-05-3.19266E-05-8.89414E-06-1.06210E-18-7.75928E-19
 -1       356 1.02786E-04-2.97536E-05-3.12912E-05-7.28763E-06-8.07055E-19-4.52178E-19
 -1       357 1.01081E-04-2.93729E-05-3.07239E-05-5.78274E-06 7.53469E-19-1.16953E-18
 -1       358 9.97067E-05-2.91277E-05-3.02409E-05-4.48729E-06 4.11242E-19-2.34098E-18
 -1       359 9.86079E-05-2.89590E-05-2.98435E-05-3.42396E-06 2.46077E-19-2.38156E-18
 -1       360 9.77399E-05-2.88376E-05-2.95248E-05-2.57634E-06-1.34637E-19-1.15208E-18
 -1       361 9.70634E-05-2.87482E-05-2.92742E-05-1.91367E-06-9.21513E-19-1.30845E-18
 -1       362 9.65436E-05-2.86824E-05-2.90805E-05-1.40284E-06-1.42576E-18-1.38335E-18
 -1       363 9.61500E-05-2.86347E-05-2.89330E-05-1.01355E-06-1.44343E-18-1.53387E-18
 -1       364 9.58567E-05-2.86009E-05-2.88223E-05-7.19974E-07-1.03784E-19-1.52038E-18
 -1       365 9.56418E-05-2.85780E-05-2.87405E-05-5.00936E-07-1.31873E-19-1.36477E-18
 -1       366 9.54874E-05-2.85632E-05-2.86810E-05-3.39427E-07 3.73782E-22-2.16232E-18
 -1       367 9.53790E-05-2.85545E-05-2.86385E-05-2.21949E-07 5.76811E-19-3.08186E-18
 -1       368 9.53050E-05-2.85501E-05-2.86088E-05-1.37874E-07 7.93733E-19-4.39200E-18
 -1       369 9.52564E-05-2.85486E-05-2.85887E-05-7.88936E-08-2.83458E-19-4.44646E-18
 -1       370 9.52261E-05-2.85491E-05-2.85756E-05-3.85465E-08-7.24211E-19-3.87434E-18
 -1       371 9.52086E-05-2.85508E-05-2.85675E-05-1.18476E-08-1.44851E-19-2.57185E-18
 -1       372 9.52001E-05-2.85531E-05-2.85629E-05 5.01940E-09 5.71226E-19 6.58712E-20
 -1       373 9.51975E-05-2.85557E-05-2.85607E-05 1.49463E-08 1.08783E-18 3.77762E-19
 -1       374 9.51987E-05-2.85583E-05-2.85602E-05 2.00979E-08 2.10121E-18 1.24482E-18
 -1       375 9.52021E-05-2.85607E-05-2.85606E-05 2.20698E-08 1.57434E-18 1.09876E-18
 -1       376 9.52066E-05-2.85629E-05-2.85616E-05 2.20150E-08 2.01993E-18 1.48706E-18
 -1       377 9.52116E-05-2.85648E-05-2.85629E-05 2.07433E-08-4.57792E-19 2.63040E-18
 -1       378 9.52166E-05-2.85665E-05-2.85643E-05 1.87989E-08-1.61441E-18 2.22417E-18
 -1       379 9.52213E-05-2.85680E-05-2.85657E-05 1.65191E-08-6.08146E-19 1.36702E-18
 -1       380 9.52255E-05-2.85693E-05-2.85670E-05 1.40794E-08-6.57419E-19 1.04926E-18
 -1       381 9.52292E-05-2.85705E-05-2.85680E-05 1.15311E-08-8.76375E-19-2.40364E-20
 -1       382 9.52324E-05-2.85716E-05-2.85689E-05 8.85433E-09 1.14001E-19-3.10894E-20
 -1       383 9.52350E-05-2.85727E-05-2.85696E-05 5.99420E-09 8.67541E-19-1.03638E-19
 -1       384 1.03804E-04-3.13960E-05-3.10202E-05 3.35575E-06 1.03830E-18 3.19333E-18
 -1       385 1.02655E-04-3.16204E-05-3.04421E-05 4.03921E-06 7.20344E-19 2.70939E-18
 -1       386 1.01205E-04-3.12489E-05-2.99836E-05 5.32791E-06 9.11311E-19 2.37404E-18
 -1       387 9.92858E-05-3.02334E-05-2.95924E-05 6.40671E-06 8.76500E-19 1.96627E-18
 -1       388 9.69872E-05-2.86632E-05-2.92734E-05 6.44129E-06 8.33180E-19 1.55998E-18
 -1       389 9.47817E-05-2.69626E-05-2.90510E-05 4.87159E-06 8.12162E-19 1.63295E-18
 -1       390 9.33748E-05-2.57951E-05-2.89450E-05 1.76921E-06 1.09326E-18 1.78692E-18
 -1       391 9.33306E-05-2.57102E-05-2.89626E-05-2.04242E-06 9.50464E-19 1.38038E-18
 -1       392 9.46978E-05-2.67710E-05-2.90975E-05-5.34106E-06 8.32228E-19 7.54468E-19
 -1       393 9.69565E-05-2.85021E-05-2.93299E-05-7.15369E-06 2.32594E-19-7.72372E-20
 -1       394 9.93426E-05-3.02251E-05-2.96220E-05-7.20869E-06-3.26472E-20 1.48641E-19
 -1       395 1.01241E-04-3.14442E-05-2.99199E-05-5.89071E-06 7.03112E-20 3.36700E-19
 -1       396 1.02370E-04-3.20032E-05-3.01679E-05-3.88602E-06-3.78923E-19 3.43883E-19
 -1       397 1.02741E-04-3.20064E-05-3.03264E-05-1.82496E-06-2.14956E-19 9.90431E-19
 -1       398 1.02520E-04-3.16610E-05-3.03784E-05-1.06448E-07 2.37382E-19 6.57860E-19
 -1       399 1.01911E-04-3.11592E-05-3.03298E-05 1.10997E-06-4.46586E-19 1.18625E-18
 -1       400 1.01093E-04-3.06326E-05-3.02019E-05 1.83090E-06-3.88621E-19 1.80350E-18
 -1       401 1.00198E-04-3.01528E-05-3.00217E-05 2.14724E-06 1.53231E-19 1.72121E-18
 -1       402 9.93177E-05-2.97487E-05-2.98156E-05 2.17467E-06 5.32763E-19 1.61998E-18
 -1       403 9.85058E-05-2.94250E-05-2.96052E-05 2.02030E-06-1.58709E-19 1.89965E-18
 -1       404 9.77913E-05-2.91745E-05-2.94057E-05 1.76899E-06-3.10743E-19 2.19637E-18
 -1       405 9.71851E-05-2.89857E-05-2.92265E-05 1.48105E-06 1.34601E-19 1.21816E-18
 -1       406 9.66861E-05-2.88464E-05-2.90724E-05 1.19539E-06 8.88436E-19 1.99370E-19
 -1       407 9.62863E-05-2.87459E-05-2.89442E-05 9.34441E-07 4.02224E-19 4.97418E-19
 -1       408 9.59737E-05-2.86749E-05-2.88409E-05 7.08985E-07 2.27529E-20 7.89380E-19
 -1       409 9.57352E-05-2.86260E-05-2.87599E-05 5.22177E-07-8.05003E-19 9.14700E-19
 -1       410 9.55576E-05-2.85935E-05-2.86980E-05 3.72586E-07-4.45375E-19 1.83390E-18
 -1       411 9.54289E-05-2.85727E-05-2.86519E-05 2.56321E-07 2.58349E-19 1.44815E-18
 -1       412 9.53382E-05-2.85602E-05-2.86186E-05 1.68445E-07-1.29947E-19 2.72185E-18
 -1       413 9.52767E-05-2.85535E-05-2.85953E-05 1.03849E-07-4.86948E-19 2.80077E-18
 -1       414 9.52368E-05-2.85507E-05-2.85795E-05 5.77514E-08 4.22392E-19 1.34103E-18
 -1       415 9.52128E-05-2.85503E-05-2.85694E-05 2.59497E-08 1.49884E-18 7.85841E-19
 -1       416 9.51998E-05-2.85515E-05-2.85634E-05 4.90716E-09 6.12153E-19 1.72883E-18
 -1       417 9.51945E-05-2.85535E-05-2.85604E-05-8.25151E-09-7.54593E-19 8.88012E-19
 -1       418 9.51942E-05-2.85559E-05-2.85592E-05-1.57968E-08-7.05491E-19-2.04316E-20
 -1       419 9.51969E-05-2.85584E-05-2.85594E-05-1.94749E-08 1.76969E-18-5.08102E-19
 -1       420 9.52014E-05-2.85607E-05-2.85603E-05-2.05929E-08 1.33727E-19-9.69820E-19
 -1       421 9.52067E-05-2.85629E-05-2.85616E-05-2.01008E-08 4.08204E-19-2.03109E-18
 -1       422 9.52122E-05-2.85649E-05-2.85632E-05-1.86625E-08 3.24723E-19-2.16505E-18
 -1       423 9.52175E-05-2.85666E-05-2.85647E-05-1.67153E-08-1.77156E-19-1.51689E-18
 -1       424 9.52224E-05-2.85681E-05-2.85661E-05-1.45166E-08 8.26436E-21-2.43094E-19
 -1       425 9.52267E-05-2.85694E-05-2.85674E-05-1.21796E-08-8.71781E-19 9.08492E-19
 -1       426 9.52304E-05-2.85707E-05-2.85685E-05-9.71333E-09-1.29321E-18 2.99273E-19
 -1       427 9.52334E-05-2.85718E-05-2.85693E-05-7.09339E-09-2.12964E-19 7.02401E-19
 -1       428 9.52355E-05-2.85724E-05-2.85699E-05-4.56005E-09 1.70201E-20 8.98473E-19
 -1       429 9.52394E-05-2.85794E-05-2.85686E-05-8.54357E-09-2.23675E-18-1.88152E-18
 -1       430 9.52377E-05-2.85763E-05-2.85692E-05-7.83135E-09-9.00401E-19-1.60585E-18
 -1       431 9.52411E-05-2.85823E-05-2.85681E-05-8.11465E-09-1.30935E-18 5.92656E-19
 -1       432 9.52425E-05-2.85848E-05-2.85676E-05-6.61187E-09 3.36741E-19 5.08388E-19
 -1       433 9.52435E-05-2.85866E-05-2.85672E-05-4.30052E-09-4.99178E-19-5.07955E-19
 -1       434 9.52440E-05-2.85876E-05-2.85670E-05-1.48348E-09-1.36995E-18-3.85231E-19
 -1       435 9.52440E-05-2.85876E-05-2.85670E-05 1.50584E-09-2.06107E-18 7.18892E-20
 -1       436 9.52435E-05-2.85866E-05-2.85672E-05 4.32608E-09-1.37175E-18-1.25251E-18
 -1       437 9.52425E-05-2.85848E-05-2.85676E-05 6.60795E-09-4.99864E-20-1.60998E-18
 -1       438 9.52411E-05-2.85823E-05-2.85681E-05 8.11895E-09 8.82826E-19 2.70317E-18
 -1       439 9.52394E-05-2.85794E-05-2.85686E-05 8.55376E-09 5.43428E-19-1.63266E-20
 -1       440 9.52376E-05-2.85763E-05-2.85691E-05 7.74903E-09-1.28403E-19 7.63816E-20
 -1       441 1.04663E-04-3.08993E-05-3.15858E-05 3.51626E-06 1.48130E-18 4.04720E-18
 -1       442 5.62841E-05-4.04343E-05-6.98847E-06 4.47248E-05 1.31364E-18 4.00424E-18
 -1       443 1.31241E-04-5.10582E-05-3.43316E-05 3.07987E-05 3.55923E-18-1.91641E-19
 -1       444 1.17236E-05-2.23970E-05 4.39438E-06 5.06738E-06 1.04540E-18 7.16823E-18
 -1       445 9.85513E-05-5.10574E-05-2.04149E-05 4.35734E-05 2.41658E-18 1.88698E-18
 -1       446 8.50744E-05-8.11061E-06-3.30346E-05-2.48690E-06-1.22046E-18-2.78239E-18
 -1       447 1.51472E-04-4.13200E-05-4.71458E-05 1.22998E-05 5.00604E-18-1.51672E-18
 -1       448 1.61112E-04-2.53762E-05-5.79136E-05 3.76922E-06 5.16118E-18-5.05149E-19
 -1       449 1.62500E-04-1.42967E-05-6.32440E-05 1.89638E-07 5.63478E-18-9.53997E-19
 -1       450 1.54047E-04-1.18792E-05-6.10630E-05 2.30274E-06 5.05837E-18-4.70739E-19
 -1       451 1.54641E-04-2.86373E-05-5.41526E-05-2.06677E-07 3.81800E-18-1.85183E-19
 -1       452 1.47558E-04-4.56368E-05-4.37667E-05-1.31787E-05 1.83941E-18-8.42586E-19
 -1       453 1.30790E-04-5.21199E-05-3.36112E-05-3.06714E-05 1.31465E-18-2.15951E-18
 -1       454 8.89074E-05-4.71115E-05-1.80873E-05-4.51439E-05 8.00128E-19-4.37945E-18
 -1       455 5.31882E-05-3.68005E-05-7.12162E-06-4.45317E-05-4.01811E-19-5.22339E-18
 -1       456 2.08030E-05-2.25740E-05 6.73491E-07-2.66593E-05-7.69000E-19-5.93601E-18
 -1       457 1.21675E-05-1.79756E-05 2.55265E-06-2.14514E-06-5.39386E-19-6.04993E-18
 -1       458 3.12979E-05-2.92276E-05-1.04838E-06 2.96341E-05-5.50677E-19-5.32593E-18
 -1       459 6.53665E-05-4.28436E-05-9.69865E-06 4.15980E-05-6.49145E-19-3.73573E-18
 -1       460 1.15726E-04-5.90233E-05-2.44125E-05 3.46798E-05-1.83118E-18-2.30028E-18
 -1       461 1.45334E-04-5.62946E-05-3.81545E-05 2.13270E-05-4.21706E-18-1.91408E-18
 -1       462 1.62840E-04-4.45953E-05-5.05751E-05 3.84202E-06-5.02079E-18-1.17568E-18
 -1       463 1.60396E-04-2.11636E-05-5.97477E-05-7.40172E-06-5.69058E-18 8.74562E-20
 -1       464 1.67623E-04-1.65241E-05-6.43990E-05 2.18683E-07-5.78418E-18-1.39844E-18
 -1       465 1.70615E-04-2.40659E-05-6.23285E-05 4.92269E-06-4.83455E-18-1.47066E-18
 -1       466 1.66254E-04-4.01995E-05-5.38771E-05 1.41130E-06-3.67538E-18-8.34645E-19
 -1       467 1.53164E-04-5.36683E-05-4.25704E-05-1.48373E-05-2.20059E-18 1.03232E-19
 -1       468 1.27743E-04-6.05377E-05-2.88986E-05-2.91030E-05-1.14212E-18-9.34701E-19
 -1       469 8.86570E-05-5.29140E-05-1.55441E-05-4.08124E-05-8.87055E-19 1.03092E-18
 -1       470 5.36362E-05-4.12455E-05-5.54912E-06-3.85222E-05 2.49345E-19 5.02672E-18
 -1       471 1.92596E-05-2.70330E-05 3.02919E-06-1.88331E-05 1.02253E-18 5.75157E-18
 -1       472 2.54304E-05-2.73617E-05 7.44285E-07 3.06608E-05-1.16996E-20 5.69534E-18
 -1       473 4.35351E-05-2.97657E-05-5.53152E-06-3.41579E-05 2.04108E-18 4.86123E-18
 -1       474 1.52217E-04-3.31658E-05-5.13640E-05-1.63465E-05-4.84418E-18 1.69380E-18
 -1       475 1.00300E-04-5.40277E-05-1.96770E-05 3.79944E-05 1.03174E-18-1.39903E-18
 -1       476 2.50719E-05-1.46955E-05-3.94978E-06 1.65545E-05 5.48560E-19-5.40968E-18
 -1       477 7.01903E-05-2.57737E-06-2.89815E-05-3.74125E-06 5.03538E-20-3.08229E-18
 -1       478 7.39726E-05-4.53165E-06-2.97675E-05-9.05150E-07-2.33390E-19-2.98049E-18
 -1       479 7.43461E-05-6.31646E-06-2.91629E-05-7.46144E-06 6.23366E-19-2.66224E-18
 -1       480 7.99736E-05-1.02398E-05-2.98983E-05-6.62598E-06 9.93098E-19-2.41193E-18
 -1       481 8.58454E-05-1.40375E-05-3.07920E-05-4.11562E-06 1.27839E-18-2.02818E-18
 -1       482 9.12276E-05-1.73026E-05-3.17041E-05-5.56781E-07 1.74694E-18-1.26576E-18
 -1       483 9.57725E-05-2.00180E-05-3.24932E-05 3.16139E-06 2.01874E-18-3.77525E-19
 -1       484 9.97766E-05-2.26748E-05-3.30708E-05 6.24408E-06 2.19260E-18 5.52578E-19
 -1       485 1.03433E-04-2.58240E-05-3.32829E-05 7.69457E-06 2.20385E-18 1.88110E-18
 -1       486 1.05258E-04-2.83695E-05-3.29485E-05 6.70807E-06 1.98138E-18 3.13600E-18
 -1       487 1.02936E-04-2.58193E-05-3.30429E-05 6.44026E-06-1.09580E-18-1.05474E-18
 -1       488 9.03068E-05-4.94894E-05-1.72175E-05 4.42977E-05-1.47670E-18 3.37543E-19
 -1       489 1.24450E-04-5.93834E-05-2.78341E-05 2.97371E-05 3.69095E-19-2.68711E-18
 -1       490 1.05227E-04-3.00737E-05-3.22025E-05 1.06467E-05-3.29997E-19-7.47875E-19
 -1       491 1.09856E-04-3.61368E-05-3.15906E-05 1.24740E-05 4.76977E-19-4.16074E-19
 -1       492 1.18238E-04-4.47602E-05-3.14763E-05 1.06068E-05 7.29156E-19 3.64818E-19
 -1       493 1.30274E-04-5.37298E-05-3.28266E-05 3.03848E-06 3.20870E-19 1.11404E-18
 -1       494 1.41629E-04-5.54956E-05-3.70907E-05-1.00905E-05-9.80944E-19 2.28834E-18
 -1       495 1.34403E-04-1.69261E-05-5.11311E-05 1.13283E-05-3.99365E-18-2.28389E-18
 -1       496 1.41494E-04-3.74825E-05-4.50744E-05 2.11754E-05-1.88221E-18-3.97933E-18
 -1       497 1.41273E-04-5.44656E-05-3.74364E-05 1.25071E-05 8.95221E-19-3.73281E-18
 -1       498 1.30974E-04-5.42084E-05-3.29118E-05-1.28469E-06 1.62713E-18-3.32272E-18
 -1       499 1.19153E-04-4.61191E-05-3.13022E-05-1.02427E-05 1.46776E-18-1.96012E-18
 -1       500 1.10309E-04-3.79879E-05-3.10028E-05-1.39583E-05 9.81444E-19-7.04733E-19
 -1       501 1.04885E-04-3.25006E-05-3.10274E-05-1.44677E-05 5.56992E-19-1.95349E-19
 -1       502 1.01837E-04-2.94901E-05-3.10069E-05-1.33519E-05 3.82130E-19-8.05921E-19
 -1       503 1.00120E-04-2.81065E-05-3.08603E-05-1.15669E-05-4.44062E-19-1.82061E-18
 -1       504 9.90650E-05-2.76175E-05-3.06162E-05-9.62543E-06-4.33417E-19-1.01603E-18
 -1       505 9.83232E-05-2.75555E-05-3.03247E-05-7.78808E-06-5.67639E-19-3.80107E-19
 -1       506 9.77365E-05-2.76650E-05-3.00267E-05-6.17045E-06-7.60575E-19-9.39488E-19
 -1       507 9.72428E-05-2.78223E-05-2.97484E-05-4.80762E-06 1.88117E-19-1.89224E-18
 -1       508 9.68210E-05-2.79747E-05-2.95030E-05-3.69261E-06 9.11282E-20-2.74497E-18
 -1       509 9.64639E-05-2.81043E-05-2.92950E-05-2.79914E-06-2.10455E-19-3.06993E-18
 -1       510 9.61675E-05-2.82084E-05-2.91238E-05-2.09443E-06-1.23838E-18-3.10249E-18
 -1       511 9.59269E-05-2.82899E-05-2.89861E-05-1.54580E-06-1.21102E-18-2.07469E-18
 -1       512 9.57360E-05-2.83534E-05-2.88774E-05-1.12363E-06-9.43718E-19-1.45255E-18
 -1       513 9.55878E-05-2.84027E-05-2.87930E-05-8.02450E-07-4.04655E-19-8.83847E-19
 -1       514 9.54754E-05-2.84412E-05-2.87285E-05-5.60970E-07-1.29054E-18-1.76338E-18
 -1       515 9.53921E-05-2.84714E-05-2.86800E-05-3.81745E-07-8.37258E-19-3.09653E-18
 -1       516 9.53317E-05-2.84951E-05-2.86440E-05-2.50658E-07 4.82197E-19-3.55645E-18
 -1       517 9.52892E-05-2.85137E-05-2.86179E-05-1.56405E-07 1.44111E-19-3.31854E-18
 -1       518 9.52603E-05-2.85283E-05-2.85993E-05-9.00138E-08 4.07270E-22-2.21295E-18
 -1       519 9.52414E-05-2.85396E-05-2.85864E-05-4.44277E-08 3.23552E-19-1.54161E-18
 -1       520 9.52298E-05-2.85484E-05-2.85777E-05-1.41479E-08 1.42435E-18-2.26988E-20
 -1       521 9.52234E-05-2.85551E-05-2.85721E-05 5.06540E-09 1.03089E-18 6.93467E-19
 -1       522 9.52205E-05-2.85601E-05-2.85687E-05 1.64425E-08 3.52939E-19 4.78266E-19
 -1       523 9.52199E-05-2.85638E-05-2.85669E-05 2.24106E-08 1.08897E-18-6.17296E-19
 -1       524 9.52209E-05-2.85666E-05-2.85661E-05 2.47629E-08 1.04178E-18-5.56578E-19
 -1       525 9.52226E-05-2.85686E-05-2.85660E-05 2.47952E-08 5.52686E-19-2.23978E-18
 -1       526 9.52248E-05-2.85700E-05-2.85663E-05 2.34165E-08 2.56996E-19 2.03249E-19
 -1       527 9.52271E-05-2.85711E-05-2.85669E-05 2.12348E-08-1.79470E-18 2.68485E-18
 -1       528 9.52294E-05-2.85719E-05-2.85675E-05 1.86260E-08-1.36660E-18 3.62265E-19
 -1       529 9.52316E-05-2.85727E-05-2.85681E-05 1.57893E-08-1.84160E-18-2.47115E-19
 -1       530 9.52336E-05-2.85735E-05-2.85686E-05 1.27963E-08 2.14587E-19 2.03776E-18
 -1       531 9.52359E-05-2.85749E-05-2.85690E-05 1.04375E-08-1.45821E-19 2.96841E-18
 -1       532 1.04413E-04-3.28670E-05-3.06644E-05 7.42592E-06 1.10063E-18 1.70359E-18
 -1       533 1.05079E-04-3.33295E-05-3.07513E-05 5.71118E-06 9.28210E-19 1.48733E-18
 -1       534 1.05084E-04-3.25671E-05-3.10838E-05 4.53779E-06 1.10652E-18 1.76915E-18
 -1       535 1.02838E-04-3.10146E-05-3.07781E-05 8.51340E-06 9.37318E-19 1.62378E-18
 -1       536 1.00544E-04-2.81544E-05-3.10175E-05 7.84005E-06 8.35030E-19 1.74885E-18
 -1       537 9.83362E-05-2.53799E-05-3.12599E-05 4.80482E-06 8.24476E-19 1.54766E-18
 -1       538 9.72905E-05-2.40748E-05-3.13728E-05-3.27963E-08 1.08002E-18 1.19769E-18
 -1       539 9.79915E-05-2.49934E-05-3.12793E-05-5.03163E-06 1.27890E-18 1.06876E-18
 -1       540 1.00030E-04-2.76534E-05-3.10134E-05-8.39848E-06 1.16269E-18 8.11438E-19
 -1       541 1.02316E-04-3.07140E-05-3.06839E-05-9.27390E-06 1.21813E-19 3.80164E-19
 -1       542 1.03905E-04-3.29987E-05-3.03898E-05-7.96905E-06 1.65676E-19-5.19964E-19
 -1       543 1.04423E-04-3.40127E-05-3.01796E-05-5.45672E-06-2.39022E-20-2.85626E-19
 -1       544 1.04017E-04-3.39116E-05-3.00507E-05-2.69747E-06-5.43882E-19-2.22326E-19
 -1       545 1.03048E-04-3.31340E-05-2.99685E-05-3.22691E-07 1.57131E-19-3.55834E-19
 -1       546 1.01853E-04-3.21018E-05-2.98979E-05 1.40397E-06-2.91013E-19-1.88787E-19
 -1       547 1.00659E-04-3.10950E-05-2.98158E-05 2.46678E-06-9.59315E-19-4.01524E-20
 -1       548 9.95785E-05-3.02506E-05-2.97135E-05 2.97444E-06-1.46689E-19-2.20420E-19
 -1       549 9.86554E-05-2.96074E-05-2.95925E-05 3.07513E-06-1.18715E-19 5.99306E-19
 -1       550 9.78917E-05-2.91513E-05-2.94600E-05 2.91001E-06-1.44866E-19 8.58344E-19
 -1       551 9.72726E-05-2.88471E-05-2.93246E-05 2.59390E-06-5.02736E-19 7.66051E-19
 -1       552 9.67777E-05-2.86564E-05-2.91940E-05 2.21101E-06 6.92211E-19-2.03659E-19
 -1       553 9.63866E-05-2.85455E-05-2.90739E-05 1.81794E-06 8.58487E-19-3.29373E-19
 -1       554 9.60809E-05-2.84878E-05-2.89677E-05 1.44924E-06 5.50655E-19-2.50083E-19
 -1       555 9.58448E-05-2.84639E-05-2.88768E-05 1.12327E-06-8.71713E-20 4.57528E-19
 -1       556 9.56648E-05-2.84603E-05-2.88013E-05 8.47336E-07-6.52900E-19 9.57617E-19
 -1       557 9.55295E-05-2.84678E-05-2.87402E-05 6.21727E-07-1.14100E-18 7.67279E-19
 -1       558 9.54295E-05-2.84807E-05-2.86920E-05 4.42642E-07-2.87622E-19 2.06177E-18
 -1       559 9.53570E-05-2.84953E-05-2.86547E-05 3.04249E-07-3.25856E-19 1.75088E-18
 -1       560 9.53056E-05-2.85097E-05-2.86266E-05 2.00023E-07 1.03533E-19 8.71861E-19
 -1       561 9.52703E-05-2.85227E-05-2.86060E-05 1.23561E-07 7.95523E-19 3.43930E-19
 -1       562 9.52468E-05-2.85339E-05-2.85912E-05 6.90354E-08 9.88225E-19-5.56550E-19
 -1       563 9.52321E-05-2.85431E-05-2.85809E-05 3.14008E-08 1.22355E-18-9.27615E-19
 -1       564 9.52236E-05-2.85506E-05-2.85741E-05 6.45434E-09 2.75529E-19-9.78160E-19
 -1       565 9.52194E-05-2.85564E-05-2.85698E-05-9.20127E-09 1.26957E-19-2.45950E-18
 -1       566 9.52181E-05-2.85609E-05-2.85674E-05-1.82387E-08 2.97686E-19-2.70260E-18
 -1       567 9.52186E-05-2.85643E-05-2.85661E-05-2.27079E-08-7.45037E-20-1.42323E-18
 -1       568 9.52203E-05-2.85668E-05-2.85658E-05-2.41403E-08 9.22653E-20-1.48664E-18
 -1       569 9.52225E-05-2.85687E-05-2.85660E-05-2.36457E-08-5.09864E-20-7.10909E-19
 -1       570 9.52250E-05-2.85700E-05-2.85664E-05-2.19970E-08-7.03037E-19-6.86114E-19
 -1       571 9.52276E-05-2.85711E-05-2.85671E-05-1.97013E-08-4.27304E-19-2.53669E-19
 -1       572 9.52300E-05-2.85720E-05-2.85677E-05-1.70586E-08-1.68059E-18-1.13480E-18
 -1       573 9.52322E-05-2.85728E-05-2.85683E-05-1.42111E-08-5.18082E-19-3.49478E-19
 -1       574 9.52344E-05-2.85737E-05-2.85689E-05-1.11961E-08 2.45490E-20-1.66811E-18
 -1       575 9.52427E-05-2.85827E-05-2.85686E-05-9.87257E-09 3.22874E-19 2.36300E-18
 -1       576 9.52405E-05-2.85801E-05-2.85687E-05-1.12918E-08-1.14477E-18 8.50326E-19
 -1       577 9.52378E-05-2.85771E-05-2.85689E-05-1.12995E-08 7.17319E-20-2.88373E-18
 -1       578 2.67711E-05-1.47701E-05-4.52039E-06 1.87008E-05-9.29751E-19 5.06610E-18
 -1       579 9.52444E-05-2.85847E-05-2.85684E-05-7.27399E-09 1.31705E-18-9.56278E-19
 -1       580 9.52455E-05-2.85860E-05-2.85683E-05-3.84632E-09 4.01802E-19-1.98953E-18
 -1       581 9.52459E-05-2.85865E-05-2.85683E-05 8.09356E-12-1.46562E-18-1.56408E-18
 -1       582 9.52455E-05-2.85860E-05-2.85683E-05 3.86689E-09-1.07654E-18 1.76924E-18
 -1       583 9.52444E-05-2.85848E-05-2.85684E-05 7.25047E-09-5.10085E-20-2.93903E-19
 -1       584 9.52427E-05-2.85828E-05-2.85686E-05 9.87378E-09-6.81197E-21-1.88541E-20
 -1       585 9.52404E-05-2.85801E-05-2.85687E-05 1.13101E-08-1.37214E-18 1.73765E-18
 -1       586 9.52382E-05-2.85776E-05-2.85688E-05 1.14305E-08-1.34876E-18-6.92325E-19
 -1       587 9.94798E-05-2.07734E-05-3.37499E-05 1.30446E-06-1.56447E-18-1.52739E-18
 -1       588 1.41584E-04-5.36978E-05-3.78968E-05 9.38259E-06 1.88407E-18-3.28336E-18
 -1       589 2.49270E-05-1.42119E-05-3.91557E-06-9.46668E-06 1.23937E-18 5.74839E-18
 -1       590 1.17109E-04-6.14057E-05-2.37717E-05-3.09431E-05 1.43932E-18-2.65277E-18
 -1       591 5.01465E-05-2.33784E-05-1.08735E-05-3.86981E-05-1.57871E-18-4.68197E-18
 -1       592 1.41097E-04-3.93894E-05-4.39959E-05 6.81433E-06 1.45033E-18 1.33720E-18
 -1       593 7.05778E-05-3.38266E-06-2.88028E-05-6.31850E-06 3.69323E-19-2.91689E-18
 -1       594 1.40151E-04-1.48845E-05-5.42193E-05-7.72813E-06 4.78065E-18-1.58930E-18
 -1       595 8.48689E-05-4.52240E-05-1.66935E-05-4.51910E-05-1.68253E-18-3.53991E-18
 -1       596 1.42714E-04-3.28370E-05-4.74879E-05-7.76906E-06 3.87539E-18-2.69372E-18
 -1       597 1.33581E-04-6.47571E-06-5.51265E-05-1.14561E-06 4.99495E-18-6.91880E-19
 -1       598 1.34934E-04-1.70043E-05-5.11578E-05 1.04983E-05 3.52736E-18 1.04262E-18
 -1       599 1.38033E-04-5.51123E-05-3.57314E-05-1.06528E-05-4.74947E-19 2.71898E-19
 -1       600 1.38852E-04-6.31865E-05-3.25685E-05 1.39816E-05-5.97820E-19 1.18553E-18
 -1       601 1.18905E-04-5.67464E-05-2.65658E-05-3.27033E-05-1.25419E-18-9.77635E-19
 -1       602 2.38838E-05-1.14042E-05-4.78209E-06-1.57422E-05-6.29504E-19-5.62070E-18
 -1       603 5.73261E-05-3.08195E-05-1.07998E-05 3.67577E-05 1.37881E-18-3.67221E-18
 -1       604 1.52452E-04-5.82858E-05-4.07351E-05-3.48428E-06-2.09532E-18 1.57707E-18
 -1       605 1.52789E-04-5.18572E-05-4.35484E-05 9.27640E-06-8.71782E-19-2.85175E-18
 -1       606 1.45605E-04-6.33330E-05-3.53359E-05-7.10846E-06 6.58092E-19-2.49467E-18
 -1       607 8.32243E-05-4.79160E-05-1.47789E-05-4.05123E-05 3.00676E-18 5.73706E-19
 -1       608 5.36363E-05-3.03671E-05-9.44205E-06 4.13031E-05-1.75791E-18 4.02780E-18
 -1       609 8.15702E-05-9.08236E-06-3.10747E-05 9.03773E-07-7.64738E-19-2.60893E-18
 -1       610 1.04775E-04-3.01212E-05-3.19836E-05 4.72978E-06 1.57879E-18 2.69978E-18
 -1       611 1.04707E-04-3.13359E-05-3.14405E-05 4.26185E-06 1.40946E-18 2.10918E-18
 -1       612 8.65469E-05-4.31138E-05-1.82611E-05 3.65184E-05 1.99323E-18-1.39866E-18
 -1       613 1.22301E-04-9.52229E-06-4.88851E-05 6.56164E-06 3.57834E-18 7.78847E-19
 -1       614 1.27041E-04-6.19782E-05-2.77157E-05 2.25184E-05 1.26438E-18 3.53689E-19
 -1       615 2.88585E-05-7.77789E-06-8.44123E-06 1.34859E-06 2.55380E-19-5.02539E-18
 -1       616 1.41693E-04-1.65355E-05-5.42339E-05-6.17459E-06-4.20181E-18-5.02793E-20
 -1       617 1.53439E-04-3.44730E-05-5.14695E-05 1.48172E-05-2.92878E-18-2.51495E-18
 -1       618 8.63221E-05-1.75413E-05-2.94828E-05-8.48034E-06 7.57428E-19-1.91698E-18
 -1       619 7.87576E-05-1.24293E-05-2.84275E-05-1.06329E-05 4.79865E-19-2.25887E-18
 -1       620 9.77334E-05-2.45388E-05-3.13739E-05-2.97669E-07 1.45770E-18-6.03577E-19
 -1       621 1.01266E-04-2.66937E-05-3.19684E-05 3.25381E-06 1.67787E-18 2.32664E-19
 -1       622 1.04222E-04-2.89394E-05-3.22556E-05 5.44775E-06 1.65427E-18 1.48426E-18
 -1       623 1.35296E-04-4.52594E-05-3.88701E-05-6.68590E-06 1.68471E-18-2.72763E-18
 -1       624 7.97407E-05-3.91581E-05-1.70418E-05 4.02010E-05-2.64827E-18 1.75124E-19
 -1       625 1.32542E-04-6.19201E-05-3.02370E-05-1.27005E-05 1.90061E-18-2.45006E-18
 -1       626 9.54963E-05-2.72487E-05-2.92216E-05 1.47893E-05 3.79999E-19-8.94248E-19
 -1       627 1.01041E-04-3.58969E-05-2.78424E-05 1.92178E-05 1.21228E-18-6.59557E-19
 -1       628 1.12919E-04-4.88713E-05-2.73530E-05 2.10854E-05 1.21474E-18-2.37341E-19
 -1       629 9.13986E-05-1.76698E-05-3.16045E-05 5.06939E-06-9.31854E-19-1.65920E-18
 -1       630 1.15280E-04-5.14256E-05-2.72322E-05-2.00077E-05 2.60956E-18-1.76924E-18
 -1       631 1.02844E-04-3.91735E-05-2.72439E-05-2.04409E-05 2.37613E-18-6.14761E-19
 -1       632 9.64828E-05-3.10609E-05-2.80235E-05-1.83568E-05 1.10282E-18 1.55571E-19
 -1       633 9.40482E-05-2.68897E-05-2.87795E-05-1.57010E-05-1.31412E-19 7.28593E-20
 -1       634 9.35011E-05-2.51763E-05-2.92810E-05-1.31806E-05-6.38221E-19-3.75269E-19
 -1       635 9.37442E-05-2.48182E-05-2.95381E-05-1.09148E-05-3.88643E-19-7.55513E-19
 -1       636 9.42048E-05-2.50977E-05-2.96157E-05-8.92051E-06 2.89816E-19-8.20598E-19
 -1       637 9.46376E-05-2.56149E-05-2.95797E-05-7.19256E-06-2.06929E-19 7.06241E-20
 -1       638 9.49629E-05-2.61695E-05-2.94817E-05-5.72152E-06-2.73185E-19 5.96249E-19
 -1       639 9.51756E-05-2.66736E-05-2.93570E-05-4.49139E-06-4.50153E-19-1.15243E-19
 -1       640 9.52975E-05-2.70980E-05-2.92276E-05-3.47985E-06-6.56430E-19-1.48140E-19
 -1       641 9.53556E-05-2.74410E-05-2.91057E-05-2.66074E-06-8.25300E-19-1.21109E-18
 -1       642 9.53732E-05-2.77118E-05-2.89973E-05-2.00671E-06-1.32619E-19-1.52928E-18
 -1       643 9.53678E-05-2.79227E-05-2.89047E-05-1.49132E-06-5.86993E-19-2.33654E-19
 -1       644 9.53510E-05-2.80857E-05-2.88278E-05-1.09034E-06-6.54228E-19 6.95544E-19
 -1       645 9.53303E-05-2.82109E-05-2.87653E-05-7.82357E-07-7.57791E-19-1.02910E-18
 -1       646 9.53097E-05-2.83067E-05-2.87155E-05-5.48953E-07-1.14584E-18-1.05197E-19
 -1       647 9.52913E-05-2.83794E-05-2.86764E-05-3.74599E-07-5.12699E-19 1.07411E-18
 -1       648 9.52761E-05-2.84343E-05-2.86464E-05-2.46421E-07 1.43586E-18 6.83044E-19
 -1       649 9.52639E-05-2.84755E-05-2.86236E-05-1.53892E-07 8.17226E-19 1.92714E-18
 -1       650 9.52547E-05-2.85059E-05-2.86066E-05-8.85192E-08-2.12524E-19 2.58320E-18
 -1       651 9.52479E-05-2.85282E-05-2.85942E-05-4.35316E-08 1.94056E-18 2.83096E-18
 -1       652 9.52431E-05-2.85442E-05-2.85853E-05-1.36007E-08 9.18928E-19 1.34207E-18
 -1       653 9.52399E-05-2.85554E-05-2.85790E-05 5.41290E-09 9.87696E-19 1.70658E-18
 -1       654 9.52377E-05-2.85632E-05-2.85748E-05 1.66796E-08 1.60941E-19 2.40267E-18
 -1       655 9.52365E-05-2.85683E-05-2.85721E-05 2.25895E-08 5.66275E-19 1.25885E-18
 -1       656 9.52358E-05-2.85716E-05-2.85704E-05 2.49109E-08 8.19062E-20 2.63090E-19
 -1       657 9.52355E-05-2.85736E-05-2.85694E-05 2.49218E-08 5.95527E-19-1.18314E-18
 -1       658 9.52355E-05-2.85747E-05-2.85689E-05 2.35172E-08 1.88204E-18-8.32611E-20
 -1       659 9.52357E-05-2.85753E-05-2.85688E-05 2.12946E-08-2.45159E-18 2.50831E-18
 -1       660 9.52361E-05-2.85757E-05-2.85687E-05 1.86235E-08-1.79687E-18 2.33095E-18
 -1       661 9.52367E-05-2.85761E-05-2.85688E-05 1.56910E-08 6.48301E-19 3.81620E-18
 -1       662 9.52375E-05-2.85768E-05-2.85688E-05 1.36060E-08-8.85114E-20 1.86858E-18
 -1       663 1.08375E-04-3.55768E-05-3.12020E-05 6.50298E-06 8.57622E-19 1.11567E-18
 -1       664 1.08331E-04-3.44281E-05-3.16771E-05 8.89774E-06 9.19103E-19 1.38811E-18
 -1       665 1.07223E-04-3.46051E-05-3.11202E-05 4.49266E-06 9.03013E-19 9.56739E-19
 -1       666 1.03688E-04-2.59816E-05-3.33034E-05 8.42740E-06 1.00090E-18 1.68342E-18
 -1       667 1.01212E-04-2.21566E-05-3.38908E-05 3.48905E-06 1.40840E-18 1.35554E-18
 -1       668 1.00873E-04-2.17716E-05-3.39149E-05-3.18076E-06 1.33901E-18 4.61051E-19
 -1       669 1.02890E-04-2.51340E-05-3.33291E-05-8.62039E-06 1.37099E-18-6.42223E-20
 -1       670 1.05744E-04-3.01991E-05-3.23794E-05-1.06742E-05 9.46584E-19-2.97240E-19
 -1       671 1.07672E-04-3.44694E-05-3.13781E-05-9.48783E-06 5.53735E-19-8.49703E-19
 -1       672 1.07857E-04-3.65590E-05-3.05553E-05-6.38304E-06 1.48467E-19-3.80300E-19
 -1       673 1.06608E-04-3.66217E-05-2.99953E-05-2.89042E-06-1.98169E-19-9.58025E-19
 -1       674 1.04605E-04-3.53900E-05-2.96665E-05 4.78038E-08-2.21319E-19-6.11668E-19
 -1       675 1.02479E-04-3.36680E-05-2.94927E-05 2.11590E-06-6.35523E-19-1.94172E-20
 -1       676 1.00587E-04-3.19809E-05-2.94041E-05 3.34003E-06-1.01503E-18 5.96145E-19
 -1       677 9.90680E-05-3.05866E-05-2.93499E-05 3.89017E-06-4.73325E-19 2.85182E-19
 -1       678 9.79245E-05-2.95564E-05-2.93009E-05 3.96347E-06-6.82832E-19 4.10930E-19
 -1       679 9.70990E-05-2.88619E-05-2.92445E-05 3.73228E-06-6.05107E-19 4.52457E-19
 -1       680 9.65190E-05-2.84361E-05-2.91782E-05 3.33025E-06-5.60830E-20-6.97756E-20
 -1       681 9.61180E-05-2.82064E-05-2.91047E-05 2.85323E-06 8.09031E-19-8.25252E-19
 -1       682 9.58430E-05-2.81091E-05-2.90285E-05 2.36534E-06 8.03484E-19-1.88478E-18
 -1       683 9.56549E-05-2.80950E-05-2.89540E-05 1.90608E-06 4.39587E-19-1.20266E-18
 -1       684 9.55257E-05-2.81283E-05-2.88844E-05 1.49702E-06-2.21723E-19-1.77629E-19
 -1       685 9.54366E-05-2.81849E-05-2.88219E-05 1.14729E-06-2.01136E-19-3.13058E-19
 -1       686 9.53746E-05-2.82494E-05-2.87677E-05 8.57933E-07-4.39546E-19-1.00658E-18
 -1       687 9.53312E-05-2.83127E-05-2.87221E-05 6.25129E-07-1.03547E-18-9.63539E-19
 -1       688 9.53006E-05-2.83699E-05-2.86845E-05 4.42479E-07-4.01042E-19-1.84780E-18
 -1       689 9.52791E-05-2.84188E-05-2.86543E-05 3.02549E-07-6.29106E-20-1.64933E-18
 -1       690 9.52640E-05-2.84590E-05-2.86306E-05 1.97859E-07 2.71554E-19-8.74000E-19
 -1       691 9.52534E-05-2.84910E-05-2.86124E-05 1.21450E-07 6.79741E-19 8.27830E-19
 -1       692 9.52462E-05-2.85158E-05-2.85987E-05 6.71895E-08 1.81268E-18 8.06571E-19
 -1       693 9.52413E-05-2.85344E-05-2.85886E-05 2.98733E-08 1.45505E-18 4.86821E-19
 -1       694 9.52381E-05-2.85480E-05-2.85814E-05 5.22296E-09 6.46556E-19 4.92022E-19
 -1       695 9.52361E-05-2.85578E-05-2.85764E-05-1.01872E-08 6.71690E-20 4.54818E-19
 -1       696 9.52350E-05-2.85645E-05-2.85731E-05-1.90337E-08-4.40626E-19 3.45452E-19
 -1       697 9.52345E-05-2.85690E-05-2.85710E-05-2.33584E-08-3.92714E-20-2.57814E-20
 -1       698 9.52344E-05-2.85718E-05-2.85697E-05-2.46790E-08 5.34175E-20 4.09252E-19
 -1       699 9.52346E-05-2.85735E-05-2.85690E-05-2.40901E-08-9.64656E-19 2.04112E-18
 -1       700 9.52349E-05-2.85745E-05-2.85687E-05-2.23495E-08-1.30595E-18 2.08258E-18
 -1       701 9.52354E-05-2.85751E-05-2.85687E-05-1.99516E-08 1.06573E-18 1.22098E-18
 -1       702 9.52360E-05-2.85756E-05-2.85687E-05-1.71974E-08-1.14247E-18-7.57331E-19
 -1       703 9.52369E-05-2.85763E-05-2.85688E-05-1.43560E-08-6.64773E-19-1.59175E-18
 -1       704 9.52425E-05-2.85811E-05-2.85692E-05-1.30569E-08 6.25736E-19 2.90563E-18
 -1       705 9.52473E-05-2.85852E-05-2.85695E-05-6.76543E-09 7.36790E-19-1.19426E-18
 -1       706 9.52399E-05-2.85788E-05-2.85690E-05-1.41883E-08 9.11343E-19 3.86368E-21
 -1       707 9.52454E-05-2.85835E-05-2.85694E-05-1.04373E-08-2.93537E-19 1.91128E-18
 -1       708 9.52483E-05-2.85860E-05-2.85695E-05 2.33580E-09 7.74828E-19 4.28526E-19
 -1       709 9.52473E-05-2.85852E-05-2.85695E-05 6.70413E-09 1.87944E-19-5.66683E-20
 -1       710 9.52454E-05-2.85835E-05-2.85694E-05 1.04560E-08 4.32856E-19-1.76275E-18
 -1       711 9.52426E-05-2.85812E-05-2.85692E-05 1.30482E-08-1.61498E-19 1.06472E-18
 -1       712 1.13222E-04-5.54930E-05-2.45874E-05 3.05487E-05-1.80317E-18-2.18091E-18
 -1       713 4.89513E-05-1.88333E-05-1.24288E-05 2.84463E-05-1.81413E-18 4.10006E-18
 -1       714 7.87894E-05-3.56959E-05-1.81275E-05-3.99237E-05-2.21960E-18-3.01419E-18
 -1       715 1.05963E-04-5.02261E-05-2.36998E-05-3.40588E-05-2.28474E-18-1.42463E-18
 -1       716 1.27052E-04-2.77459E-05-4.29089E-05 1.35910E-05 1.81548E-18 1.79788E-18
 -1       717 9.52483E-05-2.85860E-05-2.85695E-05-2.33308E-09-1.55648E-19-3.16038E-18
 -1       718 3.52992E-05-1.02779E-05-1.01581E-05 3.65991E-06 2.01993E-19 4.27063E-18
 -1       719 4.43539E-05-1.01801E-05-1.41013E-05-2.17225E-05-6.19234E-19-4.54740E-18
 -1       720 1.28854E-04-2.24405E-05-4.60762E-05-1.29651E-05 3.43914E-18-1.37931E-18
 -1       721 9.28061E-05-2.18244E-05-3.04138E-05 1.01405E-05-3.83843E-19-1.24038E-18
 -1       722 1.32442E-04-5.82402E-05-3.18862E-05 1.29819E-05 8.61194E-20-3.22992E-18
 -1       723 4.66475E-05-1.69445E-05-1.21295E-05 2.42652E-05 1.35639E-18-4.01435E-18
 -1       724 1.26622E-04-5.63191E-05-3.01385E-05-1.83745E-05-1.32582E-18 1.41865E-19
 -1       725 1.32773E-04-4.75879E-05-3.66798E-05 4.46225E-06-2.39995E-19 1.67109E-18
 -1       726 9.28690E-05-2.16613E-05-3.05206E-05-4.58000E-06 1.26273E-18-1.32263E-18
 -1       727 6.95674E-05-4.82614E-06-2.77459E-05-1.05769E-06 5.95078E-20-2.92842E-18
 -1       728 1.06638E-04-3.09259E-05-3.24519E-05 1.00652E-05 6.43982E-19 1.55443E-18
 -1       729 6.81219E-05-3.38230E-05-1.42668E-05-3.53091E-05 3.36809E-18 1.92525E-18
 -1       730 1.04319E-04-5.23790E-05-2.19998E-05-3.17998E-05 2.90037E-18-2.10942E-18
 -1       731 1.21849E-04-1.04446E-05-4.82971E-05-7.35443E-06 4.29488E-18 2.86271E-20
 -1       732 4.42836E-05-1.67989E-05-1.12059E-05-2.09386E-05 1.55698E-18 4.17942E-18
 -1       733 7.18550E-05-7.41976E-06-2.76127E-05-9.87664E-06 1.44820E-19-2.63905E-18
 -1       734 6.78025E-05-2.69281E-05-1.71020E-05 3.00676E-05 1.94664E-18-2.48138E-18
 -1       735 7.62145E-05-8.84691E-06-2.88732E-05 3.55717E-06-1.80621E-19-2.44037E-18
 -1       736 9.52401E-05-2.85791E-05-2.85690E-05 1.37976E-08-7.54767E-19 5.37507E-19
 -1       737 1.05134E-04-3.17665E-05-3.14403E-05 3.72744E-06 1.16016E-18 7.93704E-19
 -1       738 1.17803E-04-1.89528E-05-4.26965E-05 1.19720E-05 2.20735E-18 1.43966E-18
 -1       739 6.24144E-05-1.95482E-05-1.80839E-05-3.02556E-05-1.32091E-18-3.23167E-18
 -1       740 1.14065E-04-9.73706E-06-4.51021E-05 4.35736E-07 3.85659E-18 1.32049E-18
 -1       741 6.81676E-05-4.40947E-06-2.73278E-05-6.21240E-06 7.90948E-20-2.77885E-18
 -1       742 1.03564E-04-3.08591E-05-3.11616E-05 6.33978E-07 1.08800E-18-5.64340E-20
 -1       743 1.23365E-04-3.25820E-05-3.90471E-05-1.33702E-05 2.19894E-18-1.19125E-18
 -1       744 4.40010E-05-6.24886E-06-1.57672E-05-2.71807E-06 1.68480E-19-4.21783E-18
 -1       745 8.34391E-05-2.72357E-05-2.40189E-05-2.19736E-05 1.86106E-18-1.15083E-18
 -1       746 8.36186E-05-2.30376E-05-2.59528E-05-1.66909E-05 7.03266E-19-4.77752E-19
 -1       747 8.52824E-05-2.16012E-05-2.72918E-05-1.31428E-05-4.04815E-19 4.84548E-19
 -1       748 8.73155E-05-2.16343E-05-2.81487E-05-1.06300E-05-2.94930E-19 1.62180E-18
 -1       749 8.92174E-05-2.23389E-05-2.86618E-05-8.71008E-06-4.70346E-19 1.77973E-18
 -1       750 9.08088E-05-2.32823E-05-2.89395E-05-7.14119E-06 1.03959E-19 1.07689E-18
 -1       751 9.20585E-05-2.42405E-05-2.90645E-05-5.81476E-06 2.36926E-20 8.76128E-19
 -1       752 9.29996E-05-2.51088E-05-2.90958E-05-4.68319E-06-6.63568E-19 5.00374E-19
 -1       753 9.36875E-05-2.58492E-05-2.90734E-05-3.72319E-06-8.29439E-19 2.02566E-21
 -1       754 9.41797E-05-2.64585E-05-2.90233E-05-2.91882E-06-1.27541E-18 9.11779E-19
 -1       755 9.45263E-05-2.69486E-05-2.89618E-05-2.25486E-06-9.49690E-19-3.38244E-19
 -1       756 9.47673E-05-2.73370E-05-2.88986E-05-1.71530E-06 1.09137E-19-5.80068E-19
 -1       757 9.49331E-05-2.76416E-05-2.88392E-05-1.28358E-06-6.50541E-20-3.37122E-20
 -1       758 9.50460E-05-2.78783E-05-2.87861E-05-9.43391E-07-9.05721E-19 8.35977E-19
 -1       759 9.51220E-05-2.80609E-05-2.87404E-05-6.79409E-07-4.44764E-19 1.25351E-18
 -1       760 9.51725E-05-2.82006E-05-2.87022E-05-4.77741E-07-7.09790E-19 1.75036E-18
 -1       761 9.52055E-05-2.83066E-05-2.86709E-05-3.26183E-07-3.90475E-19 1.12903E-18
 -1       762 9.52264E-05-2.83861E-05-2.86458E-05-2.14283E-07 1.94405E-18-2.25888E-19
 -1       763 9.52391E-05-2.84451E-05-2.86260E-05-1.33282E-07 1.22265E-18 1.00798E-18
 -1       764 9.52463E-05-2.84883E-05-2.86106E-05-7.59725E-08 1.56670E-18 2.94567E-18
 -1       765 9.52499E-05-2.85193E-05-2.85988E-05-3.65310E-08 8.32582E-19 2.41670E-18
 -1       766 9.52512E-05-2.85411E-05-2.85900E-05-1.03253E-08 9.45459E-19 2.30778E-18
 -1       767 9.52509E-05-2.85560E-05-2.85835E-05 6.26842E-09 5.81980E-19 1.28195E-18
 -1       768 9.52499E-05-2.85659E-05-2.85788E-05 1.60382E-08-6.11022E-19 1.03392E-19
 -1       769 9.52483E-05-2.85721E-05-2.85755E-05 2.10910E-08-8.07558E-19-1.09164E-18
 -1       770 9.52467E-05-2.85758E-05-2.85732E-05 2.29864E-08-8.71663E-19-1.50521E-18
 -1       771 9.52450E-05-2.85778E-05-2.85717E-05 2.28502E-08 1.39124E-18-6.76499E-19
 -1       772 9.52434E-05-2.85786E-05-2.85706E-05 2.14692E-08 4.20638E-19-2.47130E-18
 -1       773 9.52421E-05-2.85789E-05-2.85699E-05 1.93845E-08-1.34764E-18 6.19495E-19
 -1       774 9.52410E-05-2.85790E-05-2.85694E-05 1.68886E-08 1.59908E-19 2.21354E-18
 -1       775 1.12706E-04-3.85396E-05-3.17944E-05 6.36955E-06 6.00920E-19 9.89639E-19
 -1       776 1.10134E-04-3.74252E-05-3.11606E-05 3.20475E-06 6.51004E-19 4.62645E-19
 -1       777 1.04150E-04-1.77914E-05-3.70734E-05 5.08844E-07 2.21401E-18 8.90325E-19
 -1       778 1.06522E-04-2.17611E-05-3.63852E-05 8.27095E-06 1.27048E-18 1.53117E-18
 -1       779 1.09575E-04-2.81632E-05-3.49549E-05-1.18501E-05 1.67305E-18-7.91705E-19
 -1       780 1.12360E-04-3.53732E-05-3.29939E-05-1.09193E-05 9.07804E-19-1.26845E-18
 -1       781 1.12465E-04-3.95693E-05-3.12386E-05-6.58127E-06-1.80497E-19-5.51671E-19
 -1       782 1.10286E-04-4.00676E-05-3.00992E-05-2.13973E-06-1.98428E-19-2.99154E-19
 -1       783 1.06925E-04-3.82882E-05-2.94187E-05 1.41090E-06-5.70530E-19 2.37660E-19
 -1       784 1.03542E-04-3.57023E-05-2.90759E-05 3.66779E-06-3.54655E-19 6.34482E-19
 -1       785 1.00696E-04-3.31559E-05-2.89465E-05 4.80556E-06-1.22156E-18 8.61485E-20
 -1       786 9.85577E-05-3.10676E-05-2.89246E-05 5.15408E-06-1.02559E-18 7.96716E-19
 -1       787 9.70782E-05-2.95458E-05-2.89426E-05 5.00722E-06-8.66079E-19 1.44033E-18
 -1       788 9.61228E-05-2.85407E-05-2.89637E-05 4.57905E-06-6.38671E-19 1.37323E-18
 -1       789 9.55483E-05-2.79468E-05-2.89720E-05 4.01411E-06 4.49659E-19 6.21774E-19
 -1       790 9.52323E-05-2.76513E-05-2.89632E-05 3.40623E-06 7.52476E-19-1.32093E-19
 -1       791 9.50814E-05-2.75561E-05-2.89393E-05 2.81348E-06 7.46821E-19-9.20030E-20
 -1       792 9.50291E-05-2.75847E-05-2.89047E-05 2.26939E-06 5.24596E-19 5.58318E-19
 -1       793 9.50311E-05-2.76816E-05-2.88640E-05 1.79082E-06-8.51587E-20 1.26895E-19
 -1       794 9.50591E-05-2.78094E-05-2.88212E-05 1.38358E-06-2.59403E-19 3.42051E-19
 -1       795 9.50963E-05-2.79440E-05-2.87795E-05 1.04644E-06 2.72100E-19 5.31464E-19
 -1       796 9.51336E-05-2.80713E-05-2.87409E-05 7.73976E-07-8.77249E-19 3.41675E-19
 -1       797 9.51663E-05-2.81842E-05-2.87066E-05 5.58597E-07-7.57522E-19 4.86220E-19
 -1       798 9.51927E-05-2.82796E-05-2.86770E-05 3.91900E-07-1.04299E-18 1.02625E-18
 -1       799 9.52128E-05-2.83574E-05-2.86523E-05 2.65564E-07 1.47302E-21 2.98631E-22
 -1       800 9.52271E-05-2.84190E-05-2.86320E-05 1.71880E-07-1.96074E-19-3.15153E-19
 -1       801 9.52368E-05-2.84665E-05-2.86159E-05 1.04027E-07 8.30169E-19-3.30332E-19
 -1       802 9.52429E-05-2.85021E-05-2.86032E-05 5.61818E-08 1.80014E-18 5.59409E-19
 -1       803 9.52462E-05-2.85282E-05-2.85934E-05 2.35105E-08 7.16946E-20 8.02390E-20
 -1       804 9.52477E-05-2.85467E-05-2.85861E-05 2.10069E-09 6.75668E-19 7.49628E-19
 -1       805 9.52478E-05-2.85594E-05-2.85807E-05-1.11437E-08 3.83043E-19 2.58162E-19
 -1       806 9.52472E-05-2.85678E-05-2.85769E-05-1.86201E-08-6.80227E-19-8.11359E-19
 -1       807 9.52461E-05-2.85730E-05-2.85742E-05-2.21433E-08-2.22174E-18 1.39067E-18
 -1       808 9.52447E-05-2.85761E-05-2.85723E-05-2.30532E-08-2.02499E-18 4.48643E-18
 -1       809 9.52434E-05-2.85776E-05-2.85710E-05-2.23096E-08-1.28357E-18 3.03903E-18
 -1       810 9.52422E-05-2.85783E-05-2.85702E-05-2.05727E-08 1.35756E-19 2.14924E-18
 -1       811 9.52412E-05-2.85786E-05-2.85697E-05-1.82495E-08 8.12226E-19 3.58948E-18
 -1       812 9.52403E-05-2.85786E-05-2.85693E-05-1.62921E-08 5.21158E-20 1.32616E-18
 -1       813 9.52490E-05-2.85846E-05-2.85705E-05 9.98488E-09 6.50609E-19 2.40957E-21
 -1       814 9.52509E-05-2.85858E-05-2.85708E-05-5.28450E-09-2.70470E-19-2.79699E-18
 -1       815 8.84581E-05-3.84756E-05-2.11968E-05-2.99487E-05 3.37281E-18-4.59105E-19
 -1       816 1.14240E-04-4.95373E-05-2.76807E-05-2.10092E-05-1.80609E-18-2.36719E-19
 -1       817 9.52459E-05-2.85825E-05-2.85700E-05 1.38185E-08 6.34964E-19-1.91552E-18
 -1       818 9.52509E-05-2.85858E-05-2.85707E-05 5.26257E-09 1.56808E-19 8.11554E-19
 -1       819 6.58982E-05-2.35583E-05-1.78149E-05-2.55883E-05 1.84923E-18 7.85358E-19
 -1       820 5.03004E-05-1.25430E-05-1.59011E-05 1.33357E-05-1.72330E-18 2.85463E-18
 -1       821 1.22460E-04-3.56234E-05-3.72908E-05 1.17882E-05 3.75156E-19 2.03987E-18
 -1       822 9.52516E-05-2.85863E-05-2.85709E-05-4.74403E-11-7.14241E-19-1.89145E-19
 -1       823 1.05691E-04-2.05424E-05-3.65399E-05-7.65218E-06 2.04817E-18 1.77405E-19
 -1       824 9.71254E-05-4.08475E-05-2.39679E-05-3.00274E-05-1.96011E-18-1.56569E-18
 -1       825 8.16572E-05-2.25154E-05-2.52757E-05 1.85083E-05 9.28355E-19-1.74004E-18
 -1       826 4.80706E-05-1.20602E-05-1.50854E-05-8.87958E-06 4.44490E-19 3.86742E-18
 -1       827 1.22429E-04-5.47422E-05-2.89589E-05 1.43630E-05-1.63117E-18-2.90631E-18
 -1       828 7.14832E-05-2.78296E-05-1.84526E-05 3.11952E-05-3.34391E-18 3.34922E-19
 -1       829 1.25447E-04-4.97746E-05-3.25014E-05-3.33461E-06-9.76358E-19 8.36127E-19
 -1       830 1.27955E-04-5.02843E-05-3.34221E-05-1.74708E-06-3.05710E-19-1.51876E-18
 -1       831 5.28656E-05-1.07245E-05-1.76902E-05 1.40032E-05 1.00073E-18-3.31637E-18
 -1       832 9.86110E-05-4.49556E-05-2.28823E-05 3.05282E-05-2.96861E-18-1.42587E-18
 -1       833 8.59369E-05-2.07679E-05-2.79213E-05-1.37893E-05 1.32249E-19-1.91060E-18
 -1       834 1.17588E-04-2.13720E-05-4.15477E-05-1.26305E-05 2.69053E-18-6.58178E-19
 -1       835 8.89253E-05-3.34953E-05-2.35646E-05 2.60330E-05 1.49227E-18-1.53124E-18
 -1       836 7.57446E-05-1.38999E-05-2.65020E-05-1.50152E-05-1.18915E-19-2.31341E-18
 -1       837 5.32995E-05-7.89842E-06-1.92163E-05-1.45164E-05-4.11809E-19-3.79859E-18
 -1       838 1.13002E-04-3.55954E-05-3.31723E-05 1.01034E-05 6.92198E-19 1.59828E-18
 -1       839 9.52491E-05-2.85846E-05-2.85705E-05-1.00762E-08-4.79104E-19 1.20277E-18
 -1       840 6.92333E-05-8.09563E-06-2.61938E-05 4.52224E-06 8.53584E-20-2.57961E-18
 -1       841 1.00100E-04-2.90819E-05-3.04390E-05-3.93822E-06 8.78951E-19-8.49945E-19
 -1       842 1.16557E-04-2.88350E-05-3.77582E-05 1.29179E-05 8.47284E-19 2.15399E-18
 -1       843 9.52438E-05-2.85811E-05-2.85697E-05-1.48960E-08 1.02980E-18 3.35323E-18
 -1       844 8.07653E-05-2.72292E-05-2.28294E-05-2.83332E-05-1.37591E-18-2.22207E-18
 -1       845 8.10007E-05-1.69836E-05-2.74296E-05 1.20539E-05 1.14732E-19-1.73668E-18
 -1       846 9.46022E-05-2.61341E-05-2.93338E-05-9.45377E-06 5.84058E-19-1.17752E-18
 -1       847 1.22295E-04-4.28690E-05-3.40517E-05 7.14045E-06-1.33042E-19 1.61663E-18
 -1       848 1.10550E-04-2.92515E-05-3.49103E-05 1.17263E-05 8.52025E-19 1.75767E-18
 -1       849 6.43655E-05-5.28015E-06-2.53019E-05-3.68898E-06 7.42436E-20-3.02490E-18
 -1       850 5.52938E-05-5.90685E-06-2.10032E-05-1.04881E-06 1.18240E-19-3.39302E-18
 -1       851 1.13902E-04-4.12037E-05-3.11391E-05 4.49282E-07 1.33454E-19 4.67385E-19
 -1       852 1.09347E-04-1.39846E-05-4.10679E-05-4.77097E-06 2.80294E-18 1.42275E-21
 -1       853 1.19483E-04-3.98989E-05-3.42070E-05-1.02036E-05 6.79383E-19-4.19720E-19
 -1       854 1.03448E-04-4.01973E-05-2.70597E-05-2.05438E-05-1.23576E-18-8.26827E-19
 -1       855 7.59012E-05-1.75362E-05-2.50125E-05-1.03164E-05 9.52356E-19-3.52813E-21
 -1       856 8.04057E-05-1.84197E-05-2.65628E-05-8.21055E-06-1.87930E-19 7.25335E-19
 -1       857 8.39729E-05-1.96786E-05-2.75547E-05-6.82643E-06-6.77289E-19 3.78541E-19
 -1       858 8.67729E-05-2.10371E-05-2.81725E-05-5.77975E-06-5.91927E-19 3.72537E-19
 -1       859 8.89414E-05-2.23446E-05-2.85415E-05-4.89498E-06-1.67333E-19 7.76957E-20
 -1       860 9.06000E-05-2.35222E-05-2.87476E-05-4.10312E-06-3.68076E-19-2.26496E-19
 -1       861 9.18540E-05-2.45390E-05-2.88493E-05-3.38719E-06-8.59243E-19-1.96485E-19
 -1       862 9.27926E-05-2.53918E-05-2.88861E-05-2.74824E-06-7.93831E-19-4.88422E-19
 -1       863 9.34889E-05-2.60925E-05-2.88842E-05-2.19014E-06-1.12344E-18 1.23339E-18
 -1       864 9.40015E-05-2.66594E-05-2.88609E-05-1.71394E-06-9.49266E-19-1.35400E-19
 -1       865 9.43760E-05-2.71124E-05-2.88273E-05-1.31676E-06-1.20886E-19-1.13034E-18
 -1       866 9.46476E-05-2.74707E-05-2.87901E-05-9.92482E-07 4.43406E-19 1.42794E-19
 -1       867 9.48429E-05-2.77513E-05-2.87536E-05-7.32994E-07-3.22928E-19 1.45827E-19
 -1       868 9.49819E-05-2.79689E-05-2.87198E-05-5.29300E-07-4.45948E-20 3.40207E-19
 -1       869 9.50795E-05-2.81360E-05-2.86901E-05-3.72385E-07-5.17368E-19 5.42189E-19
 -1       870 9.51469E-05-2.82629E-05-2.86646E-05-2.53786E-07 3.76574E-19 1.59170E-18
 -1       871 9.51923E-05-2.83580E-05-2.86433E-05-1.65917E-07 2.13689E-18 1.42073E-18
 -1       872 9.52221E-05-2.84282E-05-2.86259E-05-1.02215E-07 5.67009E-19 5.03634E-19
 -1       873 9.52406E-05-2.84793E-05-2.86120E-05-5.71608E-08 1.19366E-18-7.45063E-20
 -1       874 9.52513E-05-2.85157E-05-2.86010E-05-2.62232E-08 5.70281E-19 5.32185E-19
 -1       875 9.52567E-05-2.85409E-05-2.85925E-05-5.76189E-09 2.33283E-19 1.48361E-19
 -1       876 9.52586E-05-2.85580E-05-2.85860E-05 7.09061E-09-9.75146E-19-1.41465E-18
 -1       877 9.52582E-05-2.85690E-05-2.85811E-05 1.45486E-08-1.69455E-18-1.45197E-18
 -1       878 9.52565E-05-2.85756E-05-2.85775E-05 1.82880E-08-1.16497E-18-1.28476E-18
 -1       879 9.52540E-05-2.85794E-05-2.85749E-05 1.95481E-08 1.07947E-18-8.55265E-19
 -1       880 9.52513E-05-2.85811E-05-2.85729E-05 1.92202E-08-4.16393E-20-4.61175E-19
 -1       881 9.52487E-05-2.85817E-05-2.85715E-05 1.79375E-08 3.71214E-19-1.47979E-18
 -1       882 9.52473E-05-2.85822E-05-2.85708E-05 1.59681E-08 7.28828E-19-8.16678E-19
 -1       883 1.09622E-04-4.17385E-05-2.90900E-05 4.27123E-06-9.19966E-19-6.11623E-19
 -1       884 1.04588E-04-3.79715E-05-2.85505E-05 6.48020E-06-9.25234E-19 3.10121E-19
 -1       885 1.00586E-04-3.43674E-05-2.83795E-05 7.17739E-06-6.15412E-19 5.97084E-19
 -1       886 9.77495E-05-3.14750E-05-2.84032E-05 6.98045E-06-1.68415E-18 6.62330E-19
 -1       887 9.59272E-05-2.94210E-05-2.85027E-05 6.33839E-06-1.63461E-18 5.90546E-19
 -1       888 9.48601E-05-2.80931E-05-2.86143E-05 5.52223E-06-1.06005E-18 1.24790E-18
 -1       889 9.43172E-05-2.73308E-05-2.87083E-05 4.67426E-06 1.97111E-19 7.41066E-19
 -1       890 9.41136E-05-2.69742E-05-2.87740E-05 3.86935E-06 4.57657E-19 9.99457E-19
 -1       891 9.41134E-05-2.68878E-05-2.88109E-05 3.14310E-06 7.91727E-19 9.95352E-19
 -1       892 9.42228E-05-2.69675E-05-2.88237E-05 2.50946E-06 3.15566E-19 1.31937E-18
 -1       893 9.43807E-05-2.71379E-05-2.88183E-05 1.97049E-06 3.20926E-19 1.61026E-18
 -1       894 9.45495E-05-2.73473E-05-2.88009E-05 1.52165E-06-2.61644E-19 1.03837E-18
 -1       895 9.47079E-05-2.75630E-05-2.87764E-05 1.15490E-06-1.14163E-18 8.61532E-19
 -1       896 9.48457E-05-2.77653E-05-2.87487E-05 8.60467E-07-8.02961E-19 2.06593E-18
 -1       897 9.49593E-05-2.79443E-05-2.87207E-05 6.28125E-07-8.04472E-19 1.45359E-18
 -1       898 9.50489E-05-2.80958E-05-2.86942E-05 4.47890E-07-8.89886E-19 3.36559E-19
 -1       899 9.51171E-05-2.82199E-05-2.86702E-05 3.10504E-07 8.03375E-20-1.37426E-18
 -1       900 9.51671E-05-2.83186E-05-2.86493E-05 2.07700E-07-3.80917E-19-7.39066E-19
 -1       901 9.52024E-05-2.83952E-05-2.86317E-05 1.32302E-07 4.61523E-19-1.14531E-18
 -1       902 9.52262E-05-2.84531E-05-2.86171E-05 7.82418E-08-1.67204E-19-4.74000E-19
 -1       903 9.52415E-05-2.84958E-05-2.86053E-05 4.04981E-08 6.03840E-19 1.31695E-18
 -1       904 9.52504E-05-2.85264E-05-2.85960E-05 1.49979E-08 5.53306E-19 7.75232E-19
 -1       905 9.52548E-05-2.85478E-05-2.85887E-05-1.49949E-09 7.53617E-19 2.79807E-19
 -1       906 9.52563E-05-2.85621E-05-2.85832E-05-1.15240E-08 5.19562E-19 1.60877E-18
 -1       907 9.52558E-05-2.85713E-05-2.85791E-05-1.70134E-08-2.38757E-18 1.56867E-18
 -1       908 9.52541E-05-2.85767E-05-2.85760E-05-1.94209E-08-3.62436E-18 1.30426E-18
 -1       909 9.52519E-05-2.85797E-05-2.85738E-05-1.98108E-08-9.91866E-19 1.31768E-18
 -1       910 9.52494E-05-2.85810E-05-2.85722E-05-1.89339E-08-1.14884E-18 2.62389E-18
 -1       911 9.52471E-05-2.85814E-05-2.85710E-05-1.73073E-08-1.57878E-19 3.12456E-18
 -1       912 8.75412E-05-3.40769E-05-2.28572E-05 2.60131E-05-2.56097E-18-1.34226E-18
 -1       913 1.13014E-04-2.35746E-05-3.84806E-05-1.25176E-05 2.49286E-18-6.45194E-19
 -1       914 1.09649E-04-4.71149E-05-2.67424E-05 1.80299E-05-1.71858E-18-9.98358E-19
 -1       915 1.20166E-04-4.91903E-05-3.04038E-05 3.83366E-06-2.87382E-19-1.19311E-19
 -1       916 9.52514E-05-2.85845E-05-2.85715E-05 1.17782E-08 6.62733E-19-7.31402E-19
 -1       917 9.52540E-05-2.85860E-05-2.85720E-05 6.60651E-09-1.28491E-18 1.95329E-18
 -1       918 5.78238E-05-1.20058E-05-1.95265E-05-3.44201E-07-5.79260E-19 1.81030E-18
 -1       919 6.82965E-05-1.71582E-05-2.17744E-05 1.87313E-05 1.03933E-18-2.30590E-18
 -1       920 6.76895E-05-1.91923E-05-2.06632E-05 1.88176E-05-1.73647E-18 1.09774E-18
 -1       921 6.70827E-05-7.64291E-06-2.54519E-05-1.13952E-05-1.97607E-19-2.77060E-18
 -1       922 6.61139E-05-1.35053E-05-2.24600E-05-2.02877E-05-7.30175E-19-2.64598E-18
 -1       923 6.43491E-05-1.63912E-05-2.04226E-05-1.46911E-05 1.24027E-18 1.29943E-18
 -1       924 1.11241E-04-1.63050E-05-4.08751E-05 8.09524E-06 2.60202E-18 1.51726E-18
 -1       925 1.17065E-04-4.66650E-05-3.02072E-05-8.26334E-06-1.07107E-18 1.45845E-19
 -1       926 1.16487E-04-4.47343E-05-3.07339E-05-1.56468E-06-2.51735E-19-4.28995E-19
 -1       927 1.07607E-04-3.66169E-05-3.04324E-05-3.31664E-06 2.75675E-19-3.76402E-19
 -1       928 9.52550E-05-2.85864E-05-2.85722E-05-3.00227E-09-1.09433E-18-2.71463E-18
 -1       929 9.52533E-05-2.85854E-05-2.85719E-05-8.51438E-09-2.17101E-18-1.08954E-18
 -1       930 8.39312E-05-2.36334E-05-2.57809E-05-2.04440E-05-4.98021E-19-1.95540E-18
 -1       931 6.81357E-05-1.15262E-05-2.41980E-05 1.05935E-05 3.86939E-19-2.39701E-18
 -1       932 7.14488E-05-1.82381E-05-2.27055E-05-1.45976E-05 9.16621E-19-6.05544E-19
 -1       933 9.62960E-05-3.10382E-05-2.79778E-05-1.52805E-05-1.26248E-19-1.03510E-18
 -1       934 6.08908E-05-6.88249E-06-2.30719E-05-1.00333E-05-2.36165E-19-3.29641E-18
 -1       935 7.41667E-05-1.59188E-05-2.49493E-05-3.05598E-06-2.43950E-19-3.42196E-19
 -1       936 7.93305E-05-1.76786E-05-2.64167E-05-2.99477E-06 1.81592E-19-5.38401E-19
 -1       937 8.31860E-05-1.93352E-05-2.73640E-05-2.97978E-06-3.16082E-19 3.69006E-19
 -1       938 8.61059E-05-2.08387E-05-2.79719E-05-2.88253E-06-1.01361E-18 6.00744E-19
 -1       939 8.83461E-05-2.21909E-05-2.83524E-05-2.68428E-06-6.30643E-19-5.61980E-19
 -1       940 9.00688E-05-2.33784E-05-2.85817E-05-2.40714E-06-7.02558E-19-1.51644E-18
 -1       941 9.13908E-05-2.43988E-05-2.87109E-05-2.08587E-06-5.03005E-19-7.29929E-19
 -1       942 9.24009E-05-2.52593E-05-2.87750E-05-1.75303E-06 5.80491E-19-1.33083E-19
 -1       943 9.31682E-05-2.59733E-05-2.87979E-05-1.43336E-06-2.23106E-18 3.15636E-19
 -1       944 9.37472E-05-2.65575E-05-2.87956E-05-1.14282E-06-7.90555E-19 7.57679E-19
 -1       945 9.41807E-05-2.70295E-05-2.87791E-05-8.89730E-07-4.26719E-20-7.11721E-19
 -1       946 9.45024E-05-2.74062E-05-2.87555E-05-6.76719E-07 4.22573E-19-1.44167E-18
 -1       947 9.47386E-05-2.77035E-05-2.87293E-05-5.02576E-07 1.30074E-19 1.15612E-19
 -1       948 9.49098E-05-2.79352E-05-2.87034E-05-3.63815E-07 7.49617E-19 8.06247E-19
 -1       949 9.50321E-05-2.81137E-05-2.86794E-05-2.55831E-07 2.43936E-20 1.25064E-18
 -1       950 9.51178E-05-2.82492E-05-2.86580E-05-1.73691E-07 4.16325E-19-2.12349E-19
 -1       951 9.51764E-05-2.83508E-05-2.86396E-05-1.12628E-07 5.70224E-19-1.02456E-18
 -1       952 9.52151E-05-2.84256E-05-2.86241E-05-6.83256E-08 2.07579E-18-3.09458E-19
 -1       953 9.52396E-05-2.84796E-05-2.86114E-05-3.70454E-08 3.97443E-19 3.35495E-19
 -1       954 9.52540E-05-2.85178E-05-2.86012E-05-1.56593E-08 1.99461E-19-5.49918E-19
 -1       955 9.52614E-05-2.85440E-05-2.85931E-05-1.62387E-09-1.41324E-18-1.79038E-18
 -1       956 9.52641E-05-2.85614E-05-2.85868E-05 7.07809E-09-4.80073E-19-2.08969E-18
 -1       957 9.52637E-05-2.85724E-05-2.85820E-05 1.20097E-08-9.17536E-19-1.20369E-18
 -1       958 9.52616E-05-2.85789E-05-2.85783E-05 1.43563E-08 5.28574E-19-3.30408E-19
 -1       959 9.52585E-05-2.85823E-05-2.85755E-05 1.49889E-08 1.70350E-19-1.23365E-18
 -1       960 9.52550E-05-2.85837E-05-2.85734E-05 1.45389E-08-3.88885E-19-1.84583E-18
 -1       961 9.52533E-05-2.85843E-05-2.85724E-05 1.32126E-08 2.30406E-19-1.21453E-18
 -1       962 9.61476E-05-3.14722E-05-2.77175E-05 9.47993E-06-1.45962E-18 1.01006E-18
 -1       963 9.95592E-05-3.51887E-05-2.75853E-05 1.07014E-05-6.34157E-19 5.21535E-19
 -1       964 1.04920E-04-4.01861E-05-2.77342E-05 1.10389E-05-1.20580E-18 4.53131E-19
 -1       965 9.41393E-05-2.89273E-05-2.79486E-05 7.98717E-06-1.76142E-18 1.10388E-18
 -1       966 9.31156E-05-2.73538E-05-2.81833E-05 6.56196E-06-1.62757E-18 1.07585E-18
 -1       967 9.27256E-05-2.64923E-05-2.83856E-05 5.29317E-06-8.60558E-20 9.34223E-19
 -1       968 9.27230E-05-2.61281E-05-2.85407E-05 4.21588E-06 1.71067E-19 1.53233E-18
 -1       969 9.29362E-05-2.60891E-05-2.86488E-05 3.32264E-06 9.79262E-19 2.12374E-18
 -1       970 9.32518E-05-2.62468E-05-2.87165E-05 2.59262E-06 4.32262E-19 1.84965E-18
 -1       971 9.35980E-05-2.65095E-05-2.87522E-05 2.00225E-06-2.02523E-19 1.42748E-18
 -1       972 9.39321E-05-2.68148E-05-2.87646E-05 1.52919E-06-4.52791E-19 1.39216E-18
 -1       973 9.42312E-05-2.71226E-05-2.87608E-05 1.15356E-06-6.18455E-19 8.58534E-19
 -1       974 9.44856E-05-2.74092E-05-2.87470E-05 8.58142E-07-1.70685E-18 3.63062E-19
 -1       975 9.46934E-05-2.76621E-05-2.87277E-05 6.28216E-07-4.35203E-19 7.69934E-19
 -1       976 9.48576E-05-2.78768E-05-2.87061E-05 4.51308E-07-5.94148E-19 3.47117E-19
 -1       977 9.49835E-05-2.80532E-05-2.86844E-05 3.16914E-07 5.52565E-19-3.17622E-20
 -1       978 9.50772E-05-2.81945E-05-2.86640E-05 2.16259E-07-5.84252E-19-4.28208E-19
 -1       979 9.51448E-05-2.83048E-05-2.86457E-05 1.42078E-07 2.83709E-19-8.60742E-19
 -1       980 9.51920E-05-2.83889E-05-2.86299E-05 8.84134E-08-7.88987E-19-5.23100E-19
 -1       981 9.52235E-05-2.84516E-05-2.86165E-05 5.04345E-08-2.88605E-19-6.81622E-19
 -1       982 9.52435E-05-2.84972E-05-2.86055E-05 2.42694E-08 5.16040E-19-3.74705E-19
 -1       983 9.52550E-05-2.85294E-05-2.85967E-05 6.85465E-09 6.14012E-19 1.94502E-18
 -1       984 9.52607E-05-2.85515E-05-2.85897E-05-4.20031E-09-5.80079E-19 1.90345E-18
 -1       985 9.52624E-05-2.85660E-05-2.85842E-05-1.07330E-08-6.40593E-19 3.14350E-18
 -1       986 9.52616E-05-2.85749E-05-2.85800E-05-1.41326E-08-2.18063E-18 2.58016E-18
 -1       987 9.52593E-05-2.85801E-05-2.85768E-05-1.54246E-08-1.40742E-18 1.26877E-18
 -1       988 9.52562E-05-2.85826E-05-2.85744E-05-1.53865E-08-1.39661E-18 7.24729E-19
 -1       989 9.52531E-05-2.85836E-05-2.85726E-05-1.45419E-08-1.02301E-18-9.33294E-20
 -1       990 9.52564E-05-2.85857E-05-2.85731E-05 7.81344E-09 3.93801E-19 2.67951E-18
 -1       991 9.81843E-05-3.78158E-05-2.58494E-05 1.83286E-05-1.20708E-18-3.59655E-19
 -1       992 1.07423E-04-3.89193E-05-2.93203E-05-1.00485E-05-3.79635E-19-7.29763E-19
 -1       993 1.12858E-04-4.61316E-05-2.86338E-05 8.95093E-06-1.07724E-18 4.22951E-19
 -1       994 6.78772E-05-1.50743E-05-2.25889E-05 6.44280E-06-4.69466E-19 1.69538E-18
 -1       995 8.13114E-05-2.59307E-05-2.37295E-05 1.87921E-05-1.96209E-18-1.40404E-18
 -1       996 6.73766E-05-1.46110E-05-2.25641E-05-7.05017E-06 6.16694E-19 1.04272E-18
 -1       997 9.52579E-05-2.85859E-05-2.85737E-05-6.40764E-09-4.24297E-19-1.41157E-18
 -1       998 9.52588E-05-2.85864E-05-2.85739E-05 2.03880E-09 1.80113E-19-5.44090E-19
 -1       999 7.66201E-05-1.97091E-05-2.43877E-05 1.08189E-05-8.34396E-19-7.15770E-19
 -1      1000 7.59538E-05-1.71262E-05-2.52141E-05 3.05523E-06-3.74089E-19 2.18288E-18
 -1      1001 8.09123E-05-1.87573E-05-2.66368E-05 1.13561E-06-9.76710E-20 6.24861E-19
 -1      1002 8.41614E-05-2.01453E-05-2.74360E-05 1.32431E-07-8.33395E-19-5.18145E-19
 -1      1003 8.66756E-05-2.14258E-05-2.79647E-05-4.88864E-07-1.04263E-18 2.92458E-19
 -1      1004 8.86523E-05-2.26019E-05-2.83076E-05-8.15346E-07-1.20309E-18 6.72129E-19
 -1      1005 9.02099E-05-2.36570E-05-2.85229E-05-9.40190E-07-2.82220E-19 9.64158E-19
 -1      1006 9.14349E-05-2.45828E-05-2.86510E-05-9.35774E-07 1.15681E-19-7.58292E-20
 -1      1007 9.23931E-05-2.53791E-05-2.87204E-05-8.56318E-07-3.74811E-19-6.81857E-20
 -1      1008 9.31372E-05-2.60512E-05-2.87512E-05-7.40111E-07-8.13783E-19 1.02345E-18
 -1      1009 9.37097E-05-2.66092E-05-2.87574E-05-6.12524E-07-1.35399E-18 1.14141E-18
 -1      1010 9.41458E-05-2.70653E-05-2.87488E-05-4.89101E-07-1.97191E-19 6.51079E-19
 -1      1011 9.44741E-05-2.74326E-05-2.87321E-05-3.78335E-07 6.80494E-19 7.10975E-20
 -1      1012 9.47180E-05-2.77242E-05-2.87116E-05-2.83958E-07 7.89778E-19 1.09121E-18
 -1      1013 9.48964E-05-2.79525E-05-2.86903E-05-2.06680E-07 3.76456E-19 5.27898E-19
 -1      1014 9.50247E-05-2.81285E-05-2.86698E-05-1.45462E-07-6.68481E-19 8.30341E-19
 -1      1015 9.51149E-05-2.82622E-05-2.86512E-05-9.83715E-08-2.41400E-19 1.27254E-18
 -1      1016 9.51767E-05-2.83621E-05-2.86348E-05-6.31475E-08 8.48148E-19-1.34140E-19
 -1      1017 9.52175E-05-2.84353E-05-2.86209E-05-3.75369E-08 5.93406E-19-1.20360E-18
 -1      1018 9.52431E-05-2.84879E-05-2.86094E-05-1.94805E-08-7.74354E-19-1.84669E-18
 -1      1019 9.52579E-05-2.85248E-05-2.85999E-05-7.19950E-09 5.96069E-19-2.31134E-18
 -1      1020 9.52653E-05-2.85498E-05-2.85924E-05 7.80969E-10-9.31034E-19 1.04426E-19
 -1      1021 9.52677E-05-2.85660E-05-2.85864E-05 5.64375E-09-3.45879E-19 1.58969E-18
 -1      1022 9.52669E-05-2.85761E-05-2.85818E-05 8.30847E-09 2.38931E-19 2.11418E-18
 -1      1023 9.52642E-05-2.85817E-05-2.85782E-05 9.47644E-09 1.07973E-19 7.69755E-19
 -1      1024 9.52605E-05-2.85845E-05-2.85755E-05 9.66642E-09 2.95531E-19 7.32111E-19
 -1      1025 9.52585E-05-2.85853E-05-2.85742E-05 8.76906E-09-7.84580E-19 2.32991E-18
 -1      1026 9.29835E-05-3.05598E-05-2.67605E-05 1.25245E-05-1.08821E-18 7.94545E-19
 -1      1027 9.49645E-05-3.36538E-05-2.62826E-05 1.54308E-05-1.13608E-18 5.35506E-19
 -1      1028 9.06410E-05-2.53070E-05-2.79999E-05 5.76417E-06-1.20499E-18-6.29485E-19
 -1      1029 9.10084E-05-2.50509E-05-2.82674E-05 4.36496E-06-1.06403E-18 1.74092E-18
 -1      1030 9.15437E-05-2.51366E-05-2.84602E-05 3.29049E-06 2.38667E-19 2.52727E-18
 -1      1031 9.21345E-05-2.54227E-05-2.85908E-05 2.47053E-06 8.90913E-19 2.24541E-18
 -1      1032 9.27123E-05-2.58097E-05-2.86726E-05 1.84689E-06 3.81802E-19 2.42699E-18
 -1      1033 9.32392E-05-2.62308E-05-2.87179E-05 1.37350E-06 8.42331E-19 1.02863E-18
 -1      1034 9.36969E-05-2.66434E-05-2.87373E-05 1.01474E-06 6.14316E-19-9.61608E-19
 -1      1035 9.40798E-05-2.70222E-05-2.87390E-05 7.43429E-07-2.47470E-19-8.33903E-19
 -1      1036 9.43905E-05-2.73547E-05-2.87297E-05 5.38887E-07-1.46396E-18-4.83366E-19
 -1      1037 9.46359E-05-2.76365E-05-2.87141E-05 3.85378E-07-5.09017E-19-2.88732E-19
 -1      1038 9.48248E-05-2.78686E-05-2.86955E-05 2.70888E-07 3.50817E-19-8.35472E-19
 -1      1039 9.49666E-05-2.80550E-05-2.86764E-05 1.86205E-07 4.74970E-19-1.92872E-19
 -1      1040 9.50703E-05-2.82014E-05-2.86581E-05 1.24232E-07-1.31732E-19-9.25535E-19
 -1      1041 9.51440E-05-2.83140E-05-2.86415E-05 7.94836E-08 5.81066E-19-6.38136E-19
 -1      1042 9.51947E-05-2.83986E-05-2.86269E-05 4.77128E-08-2.98405E-19-2.04850E-18
 -1      1043 9.52280E-05-2.84608E-05-2.86145E-05 2.56323E-08-1.36439E-19-1.69205E-18
 -1      1044 9.52486E-05-2.85053E-05-2.86043E-05 1.07058E-08-1.95529E-18-4.35265E-19
 -1      1045 9.52602E-05-2.85364E-05-2.85959E-05 9.86459E-10-1.28185E-19 9.04303E-19
 -1      1046 9.52654E-05-2.85572E-05-2.85892E-05-5.00786E-09-7.94748E-19 1.95871E-18
 -1      1047 9.52666E-05-2.85705E-05-2.85840E-05-8.39298E-09-1.27364E-18 1.22597E-18
 -1      1048 9.52650E-05-2.85785E-05-2.85799E-05-9.99877E-09-6.56284E-19 2.95879E-19
 -1      1049 9.52620E-05-2.85828E-05-2.85768E-05-1.04231E-08-7.25950E-20 6.34879E-19
 -1      1050 9.06220E-05-2.61048E-05-2.76504E-05 7.57465E-06-1.49118E-18-6.73808E-19
 -1      1051 9.12914E-05-2.77124E-05-2.72471E-05 9.78829E-06-1.39107E-18 1.12930E-19
 -1      1052 9.52624E-05-2.85853E-05-2.85759E-05-2.26824E-09-9.40347E-19-2.69535E-18
 -1      1053 9.52606E-05-2.85844E-05-2.85755E-05-9.20266E-09-6.14450E-21 5.87747E-19
 -1      1054 9.52623E-05-2.85851E-05-2.85759E-05 3.78137E-09 9.00330E-19 7.22356E-19
 -1      1055 8.53187E-05-2.57251E-05-2.55333E-05 1.37232E-05-1.04353E-18-9.01534E-19
 -1      1056 8.04381E-05-2.01276E-05-2.58367E-05 7.32140E-06-8.79496E-19-1.12171E-18
 -1      1057 8.37156E-05-2.06760E-05-2.70242E-05 3.83034E-06-9.74856E-19-1.20162E-18
 -1      1058 8.60122E-05-2.15180E-05-2.76418E-05 2.27431E-06-7.48855E-19-9.67681E-19
 -1      1059 8.79094E-05-2.24243E-05-2.80658E-05 1.25089E-06-5.11587E-19-1.57659E-18
 -1      1060 8.94746E-05-2.33290E-05-2.83485E-05 6.02859E-07-1.27155E-18-1.16373E-18
 -1      1061 9.07583E-05-2.41880E-05-2.85304E-05 2.11571E-07-9.10158E-19-2.00532E-18
 -1      1062 9.18013E-05-2.49723E-05-2.86411E-05-8.67711E-09 3.55943E-19-1.34214E-18
 -1      1063 9.26390E-05-2.56666E-05-2.87025E-05-1.18920E-07 6.77350E-19 1.46932E-19
 -1      1064 9.33034E-05-2.62652E-05-2.87307E-05-1.61672E-07-3.02562E-19 1.15935E-18
 -1      1065 9.38235E-05-2.67699E-05-2.87372E-05-1.65650E-07-7.57199E-19 2.28736E-18
 -1      1066 9.42248E-05-2.71871E-05-2.87304E-05-1.49534E-07-5.23688E-19 1.65393E-18
 -1      1067 9.45299E-05-2.75256E-05-2.87161E-05-1.24927E-07 3.32644E-19 5.48185E-19
 -1      1068 9.47580E-05-2.77956E-05-2.86982E-05-9.86108E-08 6.56792E-19-7.06649E-19
 -1      1069 9.49256E-05-2.80074E-05-2.86792E-05-7.42088E-08 7.97535E-19 1.67513E-18
 -1      1070 9.50461E-05-2.81707E-05-2.86609E-05-5.33617E-08 2.78578E-19 2.72214E-18
 -1      1071 9.51307E-05-2.82945E-05-2.86441E-05-3.65355E-08-7.82675E-19 3.89281E-18
 -1      1072 9.51883E-05-2.83866E-05-2.86293E-05-2.35520E-08 1.33135E-19 3.96986E-18
 -1      1073 9.52260E-05-2.84538E-05-2.86167E-05-1.39241E-08-7.79489E-19 3.31860E-18
 -1      1074 9.52492E-05-2.85016E-05-2.86061E-05-7.05764E-09-6.58083E-19 3.32577E-18
 -1      1075 9.52622E-05-2.85347E-05-2.85975E-05-2.36359E-09-2.69781E-19 3.17244E-19
 -1      1076 9.52682E-05-2.85569E-05-2.85906E-05 6.84906E-10-2.57312E-20-7.36203E-19
 -1      1077 9.52695E-05-2.85710E-05-2.85851E-05 2.53143E-09 1.18051E-18 1.79082E-19
 -1      1078 9.52679E-05-2.85794E-05-2.85808E-05 3.53789E-09-4.19187E-19 1.12705E-18
 -1      1079 9.52653E-05-2.85830E-05-2.85781E-05 3.74300E-09-8.87530E-19 1.54712E-18
 -1      1080 9.08897E-05-2.44976E-05-2.84535E-05 2.08385E-06-2.05993E-19-8.90894E-19
 -1      1081 8.89183E-05-2.36892E-05-2.79547E-05 4.18591E-06-1.90586E-18-1.36163E-18
 -1      1082 9.17541E-05-2.50525E-05-2.85863E-05 1.46289E-06 7.29033E-19 6.89152E-19
 -1      1083 9.25047E-05-2.56149E-05-2.86670E-05 1.02430E-06 1.61622E-18 1.09036E-18
 -1      1084 9.31376E-05-2.61463E-05-2.87105E-05 7.15370E-07 1.24326E-18 1.58837E-18
 -1      1085 9.36577E-05-2.66248E-05-2.87283E-05 4.98082E-07 9.66476E-20 1.97228E-18
 -1      1086 9.40754E-05-2.70402E-05-2.87293E-05 3.45297E-07-1.21886E-18 1.69651E-18
 -1      1087 9.44037E-05-2.73905E-05-2.87199E-05 2.37836E-07-1.01709E-18 1.82124E-18
 -1      1088 9.46565E-05-2.76786E-05-2.87048E-05 1.62237E-07 8.81609E-20 1.67052E-18
 -1      1089 9.48470E-05-2.79103E-05-2.86872E-05 1.09086E-07 7.02434E-19 1.32845E-18
 -1      1090 9.49874E-05-2.80929E-05-2.86691E-05 7.18033E-08 1.22156E-18 6.54207E-19
 -1      1091 9.50884E-05-2.82339E-05-2.86519E-05 4.57789E-08-4.28739E-19 8.20926E-20
 -1      1092 9.51589E-05-2.83407E-05-2.86364E-05 2.77647E-08 4.41690E-19 7.74597E-19
 -1      1093 9.52064E-05-2.84199E-05-2.86228E-05 1.54576E-08-5.76320E-19 1.36029E-18
 -1      1094 9.52370E-05-2.84773E-05-2.86113E-05 7.21151E-09-1.57746E-18 1.08188E-18
 -1      1095 9.52552E-05-2.85178E-05-2.86017E-05 1.84224E-09-2.33175E-18 9.21267E-19
 -1      1096 9.52649E-05-2.85456E-05-2.85940E-05-1.50664E-09-9.22097E-19 1.06109E-18
 -1      1097 9.52687E-05-2.85638E-05-2.85878E-05-3.45637E-09-4.29468E-19 6.87295E-19
 -1      1098 9.52686E-05-2.85751E-05-2.85829E-05-4.45863E-09 1.16676E-19-1.41056E-18
 -1      1099 9.52662E-05-2.85816E-05-2.85791E-05-4.82864E-09-7.84920E-21-2.96869E-18
 -1      1100 8.99303E-05-2.40120E-05-2.82503E-05 2.95920E-06-7.24600E-19-2.12771E-18
 -1      1101 8.79363E-05-2.36672E-05-2.75428E-05 5.88587E-06-1.24025E-18-1.15548E-18
 -1      1102 8.71573E-05-2.41438E-05-2.70087E-05 8.21702E-06-1.01378E-18-5.90383E-19
 -1      1103 9.52644E-05-2.85837E-05-2.85774E-05-3.64907E-09-8.88831E-19-4.30458E-18
 -1      1104 9.52653E-05-2.85836E-05-2.85779E-05 1.47925E-10-4.03160E-19-3.00722E-19
 -1      1105 1.27352E-04 2.94131E-10-4.61306E-05-3.93143E-05-3.17637E-19 7.50026E-18
 -1      1106 9.86928E-05 9.34053E-11-4.10898E-05-1.76441E-05-1.49078E-19 1.85394E-19
 -1      1107 9.00850E-05 4.88282E-11-3.81588E-05-9.36076E-06-9.04208E-20-2.73671E-18
 -1      1108 8.35078E-05 2.64028E-11-3.56299E-05-5.14807E-06-5.14573E-20-4.08659E-18
 -1      1109 7.81197E-05 1.11138E-11-3.35033E-05-3.19335E-06-3.23990E-20-4.67401E-18
 -1      1110 7.41476E-05 1.30908E-12-3.19157E-05-2.74616E-06-1.53525E-20-4.87317E-18
 -1      1111 7.18085E-05-2.91891E-12-3.09565E-05-3.14090E-06 1.32349E-21-4.87321E-18
 -1      1112 7.11540E-05-1.58823E-12-3.06516E-05-3.69575E-06 5.97555E-21-4.67963E-18
 -1      1113 7.20230E-05 4.11290E-12-3.09449E-05-3.80436E-06 2.37699E-20-4.40446E-18
 -1      1114 7.40164E-05 1.21751E-11-3.16914E-05-3.05737E-06 3.36696E-20-4.03810E-18
 -1      1115 7.66646E-05 2.05876E-11-3.27181E-05-1.29648E-06 4.65868E-20-3.55853E-18
 -1      1116 7.95494E-05 2.80047E-11-3.38657E-05 1.40180E-06 6.07746E-20-2.85137E-18
 -1      1117 8.24787E-05 3.45031E-11-3.50613E-05 4.91887E-06 8.49151E-20-1.89790E-18
 -1      1118 8.55340E-05 4.13250E-11-3.63289E-05 9.21541E-06 9.50794E-20-4.77634E-19
 -1      1119 8.91508E-05 5.21427E-11-3.78091E-05 1.44702E-05 1.24196E-19 1.85941E-18
 -1      1120 9.48842E-05 7.97627E-11-3.99051E-05 2.18253E-05 1.15620E-19 5.94411E-18
 -1      1121 1.13900E-04 1.82776E-10-4.34878E-05 3.59594E-05 1.62630E-19 1.35319E-17
 -1      1122 1.42929E-04-2.94130E-05-4.49084E-05-2.48477E-05-1.18468E-18 1.20766E-17
 -1      1123 1.17359E-04-3.48859E-05-3.76874E-05 9.30685E-08-4.03294E-19 9.31715E-18
 -1      1124 1.16876E-04-3.50858E-05-3.58869E-05 6.75168E-07-1.53035E-19 5.64060E-18
 -1      1125 1.21299E-04-3.64998E-05-3.65475E-05 5.38517E-07-8.67514E-20 3.25261E-18
 -1      1126 1.27245E-04-3.82320E-05-3.80757E-05 4.81125E-07-1.47937E-20 1.96194E-18
 -1      1127 1.32732E-04-3.98046E-05-3.94400E-05 3.38245E-07-4.94985E-20 1.33821E-18
 -1      1128 1.34865E-04-4.03687E-05-3.97375E-05-5.95490E-08 2.37500E-20 8.06825E-19
 -1      1129 1.30181E-04-3.88962E-05-3.81726E-05-7.97813E-07 6.24951E-20 1.06197E-18
 -1      1130 1.16860E-04-3.48958E-05-3.45990E-05-1.62626E-06 3.61908E-20-2.46910E-19
 -1      1131 9.83969E-05-2.94989E-05-3.01286E-05-1.82097E-06 4.37215E-20-2.04940E-18
 -1      1132 8.47020E-05-2.56035E-05-2.70087E-05-8.03655E-07-1.05111E-19-4.59134E-18
 -1      1133 8.44875E-05-2.55453E-05-2.69788E-05 7.58355E-07-5.75718E-20-5.58068E-18
 -1      1134 9.84121E-05-2.95219E-05-3.01965E-05 1.84964E-06-5.55799E-20-6.26275E-18
 -1      1135 1.17676E-04-3.51383E-05-3.48853E-05 1.71913E-06-1.16202E-20-6.69961E-18
 -1      1136 1.32174E-04-3.94735E-05-3.87667E-05 9.12017E-07-1.34864E-20-6.29780E-18
 -1      1137 1.37878E-04-4.12388E-05-4.06113E-05 1.64168E-07-1.21291E-19-6.93836E-18
 -1      1138 1.36283E-04-4.08172E-05-4.04782E-05-2.36226E-07-1.94837E-19-7.02759E-18
 -1      1139 1.30715E-04-3.91911E-05-3.90941E-05-3.51135E-07-1.79846E-20-5.28220E-18
 -1      1140 1.23904E-04-3.71785E-05-3.72098E-05-3.21850E-07-2.93082E-19-6.57419E-18
 -1      1141 1.17410E-04-3.52486E-05-3.53227E-05-2.47080E-07 1.04789E-19-7.96931E-18
 -1      1142 1.11884E-04-3.35991E-05-3.36732E-05-1.73187E-07 3.59393E-20-8.18004E-18
 -1      1143 1.07464E-04-3.22745E-05-3.23339E-05-1.14949E-07 2.05690E-19-8.83301E-18
 -1      1144 1.04057E-04-3.12496E-05-3.12928E-05-7.34179E-08 3.82515E-19-6.80067E-18
 -1      1145 1.01490E-04-3.04753E-05-3.05051E-05-4.53042E-08 1.98245E-19-4.91378E-18
 -1      1146 9.95894E-05-2.99002E-05-2.99202E-05-2.68334E-08-1.85656E-19-5.10036E-18
 -1      1147 9.81999E-05-2.94787E-05-2.94919E-05-1.49358E-08-1.94568E-19-4.51944E-18
 -1      1148 9.71970E-05-2.91739E-05-2.91825E-05-7.40377E-09 3.60848E-19-4.74102E-18
 -1      1149 9.64830E-05-2.89564E-05-2.89618E-05-2.73480E-09-1.07786E-20-7.24396E-18
 -1      1150 9.59829E-05-2.88037E-05-2.88071E-05 6.78648E-11-2.46938E-20-7.32880E-18
 -1      1151 9.56397E-05-2.86986E-05-2.87006E-05 1.65973E-09 1.24834E-19-5.40695E-18
 -1      1152 9.54106E-05-2.86282E-05-2.86293E-05 2.47198E-09-2.69545E-19-5.80569E-18
 -1      1153 9.52634E-05-2.85827E-05-2.85832E-05 2.78951E-09-2.87098E-20-9.59043E-18
 -1      1154 9.51739E-05-2.85549E-05-2.85550E-05 2.80155E-09 8.50616E-20-8.76887E-18
 -1      1155 9.51246E-05-2.85393E-05-2.85392E-05 2.63409E-09 1.93124E-19-6.90732E-18
 -1      1156 9.51023E-05-2.85320E-05-2.85319E-05 2.37077E-09 3.88307E-19-5.34430E-18
 -1      1157 9.50977E-05-2.85302E-05-2.85300E-05 2.06645E-09-3.90896E-19-6.23595E-18
 -1      1158 9.51040E-05-2.85318E-05-2.85315E-05 1.75630E-09-3.46101E-19-9.45080E-18
 -1      1159 9.51164E-05-2.85353E-05-2.85350E-05 1.46192E-09 5.61879E-20-7.62567E-18
 -1      1160 9.51319E-05-2.85398E-05-2.85395E-05 1.19559E-09 3.03773E-20-6.88270E-18
 -1      1161 9.51483E-05-2.85446E-05-2.85444E-05 9.63308E-10-1.89994E-19-8.47927E-18
 -1      1162 9.51643E-05-2.85493E-05-2.85491E-05 7.66878E-10 2.55893E-19-6.95966E-18
 -1      1163 9.51792E-05-2.85537E-05-2.85536E-05 6.05419E-10 4.92481E-19-4.92013E-18
 -1      1164 9.51925E-05-2.85577E-05-2.85576E-05 4.76307E-10 1.68867E-19-1.60291E-18
 -1      1165 9.52041E-05-2.85612E-05-2.85611E-05 3.75669E-10-2.51809E-19-3.08549E-18
 -1      1166 9.52141E-05-2.85642E-05-2.85641E-05 2.98255E-10-1.59293E-19-2.24593E-18
 -1      1167 9.52225E-05-2.85667E-05-2.85666E-05 2.36275E-10-2.35890E-19-4.72422E-18
 -1      1168 9.52292E-05-2.85687E-05-2.85686E-05 1.76271E-10 2.28249E-19-4.38712E-18
 -1      1169 9.52341E-05-2.85702E-05-2.85700E-05 9.29362E-11-2.36315E-19-3.48194E-18
 -1      1170 9.52370E-05-2.85710E-05-2.85709E-05-6.79080E-11 2.09785E-19-3.48703E-18
 -1      1171 9.52374E-05-2.85710E-05-2.85714E-05-2.63658E-10 5.24779E-19-4.74596E-18
 -1      1172 1.39479E-04-4.00091E-05-4.15935E-05 1.23504E-05-2.27640E-19 1.95089E-17
 -1      1173 1.07227E-04-3.13485E-05-3.45719E-05 6.32141E-07 6.73391E-20 1.70379E-17
 -1      1174 1.02666E-04-3.06042E-05-3.14740E-05-1.00877E-08 5.99276E-20 1.42547E-17
 -1      1175 1.01156E-04-3.03270E-05-3.04039E-05-9.90834E-08 7.69857E-20 1.24953E-17
 -1      1176 1.00028E-04-3.00119E-05-2.98998E-05-1.02297E-07 3.96906E-20 1.14697E-17
 -1      1177 9.82026E-05-2.94610E-05-2.93124E-05-5.68613E-08-1.61681E-20 1.06280E-17
 -1      1178 9.52291E-05-2.85765E-05-2.84313E-05 2.55907E-08-7.56754E-20 1.00060E-17
 -1      1179 9.11739E-05-2.73787E-05-2.72740E-05 1.30950E-07-7.72653E-20 9.71729E-18
 -1      1180 8.66486E-05-2.60404E-05-2.60208E-05 2.26373E-07-1.81359E-20 8.27459E-18
 -1      1181 8.27127E-05-2.48671E-05-2.49603E-05 2.68786E-07 8.50044E-20 7.07175E-18
 -1      1182 8.05312E-05-2.42022E-05-2.43939E-05 2.28884E-07 6.82490E-20 5.39060E-18
 -1      1183 8.08816E-05-2.42840E-05-2.45148E-05 1.13410E-07-7.02773E-21 4.78653E-18
 -1      1184 8.37757E-05-2.51284E-05-2.53208E-05-3.42091E-08 4.24923E-20 4.78507E-18
 -1      1185 8.84478E-05-2.65159E-05-2.66142E-05-1.59185E-07-1.51741E-19 5.12476E-18
 -1      1186 9.37149E-05-2.80934E-05-2.80871E-05-2.25565E-07 7.63244E-20 3.89704E-18
 -1      1187 9.84619E-05-2.95219E-05-2.94397E-05-2.28816E-07 8.20332E-20 2.70783E-18
 -1      1188 1.01978E-04-3.05828E-05-3.04680E-05-1.87737E-07-5.68604E-20 1.89690E-18
 -1      1189 1.04033E-04-3.12041E-05-3.10933E-05-1.28048E-07 1.28074E-19 2.23414E-18
 -1      1190 1.04763E-04-3.14261E-05-3.13399E-05-6.99538E-08 1.55109E-19 3.17394E-19
 -1      1191 1.04493E-04-3.13470E-05-3.12909E-05-2.41725E-08-1.78484E-19 1.47631E-18
 -1      1192 1.03588E-04-3.10765E-05-3.10469E-05 6.49871E-09 4.95605E-20 1.96105E-18
 -1      1193 1.02362E-04-3.07094E-05-3.06993E-05 2.38063E-08-1.40728E-19 1.64158E-18
 -1      1194 1.01047E-04-3.03156E-05-3.03177E-05 3.11937E-08 1.51544E-20 1.10547E-18
 -1      1195 9.97927E-05-2.99398E-05-2.99485E-05 3.21319E-08 2.30579E-20 1.53842E-19
 -1      1196 9.86821E-05-2.96069E-05-2.96183E-05 2.94089E-08-1.03673E-19 9.56519E-19
 -1      1197 9.77500E-05-2.93274E-05-2.93390E-05 2.49857E-08-1.80822E-19 2.63087E-18
 -1      1198 9.69998E-05-2.91023E-05-2.91129E-05 2.01049E-08 1.21854E-20 1.95478E-18
 -1      1199 9.64175E-05-2.89275E-05-2.89364E-05 1.54743E-08-2.55880E-20-1.61837E-18
 -1      1200 9.59805E-05-2.87961E-05-2.88033E-05 1.14396E-08-1.76559E-19-1.46427E-18
 -1      1201 9.56632E-05-2.87007E-05-2.87062E-05 8.12114E-09-9.08416E-20-7.03146E-19
 -1      1202 9.54412E-05-2.86338E-05-2.86379E-05 5.51002E-09 2.92195E-19-1.64816E-18
 -1      1203 9.52923E-05-2.85888E-05-2.85918E-05 3.53160E-09-2.14745E-19-1.38196E-18
 -1      1204 9.51981E-05-2.85603E-05-2.85624E-05 2.08482E-09 3.72210E-20 8.56988E-20
 -1      1205 9.51434E-05-2.85437E-05-2.85451E-05 1.06493E-09-1.60003E-19 5.80093E-20
 -1      1206 9.51163E-05-2.85354E-05-2.85362E-05 3.75406E-10-1.49245E-19 7.31378E-19
 -1      1207 9.51078E-05-2.85327E-05-2.85332E-05-6.66784E-11 1.39254E-19-8.29436E-19
 -1      1208 9.51111E-05-2.85336E-05-2.85338E-05-3.29299E-10 5.81332E-19-3.98155E-18
 -1      1209 9.51215E-05-2.85366E-05-2.85367E-05-4.66173E-10-3.57232E-19-2.62225E-18
 -1      1210 9.51354E-05-2.85408E-05-2.85407E-05-5.18496E-10-2.39368E-20 1.07093E-20
 -1      1211 9.51508E-05-2.85453E-05-2.85452E-05-5.17047E-10-3.12474E-19-1.43769E-18
 -1      1212 9.51661E-05-2.85499E-05-2.85497E-05-4.84279E-10 9.33124E-20-3.33876E-18
 -1      1213 9.51804E-05-2.85542E-05-2.85540E-05-4.36234E-10-2.02557E-19-2.58794E-18
 -1      1214 9.51934E-05-2.85580E-05-2.85579E-05-3.84170E-10-3.96269E-19-2.07273E-18
 -1      1215 9.52048E-05-2.85614E-05-2.85613E-05-3.35856E-10 9.67282E-20-4.66414E-18
 -1      1216 9.52147E-05-2.85644E-05-2.85643E-05-2.96325E-10-5.85193E-19-3.75623E-18
 -1      1217 9.52229E-05-2.85668E-05-2.85667E-05-2.67637E-10 1.97774E-19-4.07990E-18
 -1      1218 9.52295E-05-2.85688E-05-2.85687E-05-2.46920E-10-1.71281E-19-4.17078E-18
 -1      1219 9.52343E-05-2.85703E-05-2.85701E-05-2.12222E-10 3.34239E-19-5.73082E-18
 -1      1220 9.52370E-05-2.85711E-05-2.85710E-05-9.80867E-11 4.59292E-19-6.23958E-18
 -1      1221 9.52375E-05-2.85712E-05-2.85714E-05 1.13577E-10-3.31464E-19-3.18523E-18
 -1      1222 9.52370E-05-2.85708E-05-2.85714E-05 1.06352E-10-2.97378E-18-5.21137E-19
 -1      1223 9.52373E-05-2.85714E-05-2.85709E-05 6.65022E-11-3.55715E-18 1.62859E-20
 -1      1224 9.52381E-05-2.85740E-05-2.85701E-05-1.33238E-10-2.32217E-20-1.55055E-19
 -1      1225 9.52393E-05-2.85783E-05-2.85689E-05-2.14374E-10-4.37138E-19-5.45246E-19
 -1      1226 9.52408E-05-2.85833E-05-2.85675E-05-2.26000E-10 1.08207E-18-6.94913E-19
 -1      1227 9.52422E-05-2.85880E-05-2.85662E-05-1.96707E-10-2.42366E-18-5.92740E-19
 -1      1228 9.52433E-05-2.85919E-05-2.85650E-05-1.45901E-10-9.78932E-19 8.99298E-19
 -1      1229 9.52441E-05-2.85945E-05-2.85643E-05-7.64478E-11 1.71174E-18-7.10587E-19
 -1      1230 9.52443E-05-2.85953E-05-2.85641E-05 3.98424E-13-2.39504E-20-5.17033E-19
 -1      1231 9.52441E-05-2.85944E-05-2.85643E-05 7.74172E-11 3.13257E-18 2.20308E-19
 -1      1232 9.52433E-05-2.85919E-05-2.85651E-05 1.46979E-10-1.71605E-18-9.71557E-19
 -1      1233 9.52421E-05-2.85880E-05-2.85662E-05 2.00890E-10-5.41501E-18-8.77702E-20
 -1      1234 9.52407E-05-2.85832E-05-2.85675E-05 2.27404E-10-4.42795E-18 7.82594E-19
 -1      1235 9.52393E-05-2.85782E-05-2.85689E-05 2.12944E-10-2.21057E-18-2.88788E-20
 -1      1236 9.52380E-05-2.85740E-05-2.85701E-05 1.21919E-10-6.37903E-19-7.74923E-19
 -1      1237 9.52372E-05-2.85713E-05-2.85709E-05-1.39241E-10 4.80296E-18 7.87967E-19
 -1      1238 9.52372E-05-2.85708E-05-2.85714E-05-2.41343E-10 5.32430E-18-3.50041E-19
 -1      1239 3.48157E-05-1.07837E-04 1.82993E-05-1.30667E-05 1.03512E-17 2.26838E-18
 -1      1240 1.78772E-05-6.46060E-05 9.46657E-06-2.40345E-05 1.97782E-17 6.95922E-18
 -1      1241 7.83464E-06-6.87644E-06-6.53067E-06 1.63018E-06 2.22228E-17 1.33340E-17
 -1      1242 3.28394E-05 2.71123E-05-2.63634E-05 5.43870E-05 1.98426E-17 1.83298E-17
 -1      1243 1.02432E-04 1.71042E-05-4.62515E-05 1.02105E-04 1.32984E-17 1.83755E-17
 -1      1244 1.98727E-04-2.71859E-05-6.35938E-05 1.13217E-04 5.92754E-18 1.24920E-17
 -1      1245 2.81510E-04-7.51974E-05-7.50842E-05 7.33156E-05 1.09172E-18 3.26108E-18
 -1      1246 3.12653E-04-9.44151E-05-7.89013E-05-4.99656E-06 7.47507E-19-6.25957E-18
 -1      1247 2.69227E-04-6.71571E-05-7.34982E-05-8.11020E-05 4.18911E-18-1.49637E-17
 -1      1248 1.78524E-04-1.66114E-05-6.01611E-05-1.13703E-04 1.01148E-17-2.02932E-17
 -1      1249 8.42875E-05 2.25046E-05-4.21008E-05-9.34773E-05 1.53067E-17-1.96884E-17
 -1      1250 2.40670E-05 2.40067E-05-2.24638E-05-4.30954E-05 1.81858E-17-1.57184E-17
 -1      1251 7.14292E-06-1.35380E-05-4.19683E-06 4.11836E-06 1.61987E-17-9.35971E-18
 -1      1252 1.96969E-05-6.95065E-05 1.04942E-05 2.32681E-05 9.18353E-18-3.50947E-18
 -1      1253 3.59134E-05-1.09799E-04 1.84148E-05 8.31575E-06-5.50148E-19-7.62528E-19
 -1      1254 3.18697E-05-1.03763E-04 1.76369E-05-1.89641E-05-1.13168E-17-2.69992E-18
 -1      1255 1.53433E-05-6.06672E-05 8.14344E-06-2.73638E-05-1.92319E-17-8.03580E-18
 -1      1256 9.40590E-06-5.92538E-06-8.35345E-06 3.60235E-06-2.12436E-17-1.45571E-17
 -1      1257 4.42823E-05 2.24057E-05-2.97147E-05 6.00879E-05-1.85890E-17-1.92785E-17
 -1      1258 1.29072E-04 4.92785E-06-5.11839E-05 1.07294E-04-1.27411E-17-1.96800E-17
 -1      1259 2.39459E-04-4.71492E-05-6.98378E-05 1.04750E-04-5.76491E-18-1.39405E-17
 -1      1260 3.21453E-04-9.42307E-05-8.06317E-05 4.52781E-05-1.27531E-18-4.79717E-18
 -1      1261 3.23950E-04-9.62271E-05-8.09285E-05-3.88963E-05-1.31301E-18 7.16505E-18
 -1      1262 2.58043E-04-5.82477E-05-7.23618E-05-9.99950E-05-4.50113E-18 1.42479E-17
 -1      1263 1.59327E-04-8.01959E-06-5.70066E-05-1.13161E-04-1.00289E-17 1.76945E-17
 -1      1264 7.05984E-05 2.19501E-05-3.79574E-05-8.13956E-05-1.46384E-17 1.75709E-17
 -1      1265 1.83512E-05 1.41919E-05-1.79927E-05-2.83696E-05-1.79893E-17 1.48637E-17
 -1      1266 7.43197E-06-2.80988E-05-9.73886E-08 1.54448E-05-1.79978E-17 9.96704E-18
 -1      1267 2.11854E-05-7.97657E-05 1.30682E-05 2.88926E-05-1.30638E-17 4.71416E-18
 -1      1268 3.63342E-05-1.13488E-04 1.94566E-05 1.40344E-05-3.33900E-18 1.18251E-18
 -1      1269 1.19022E-04-2.57056E-05-4.25347E-05-1.42000E-05-4.53374E-19 5.77020E-18
 -1      1270 1.00883E-04-8.76459E-06-3.96066E-05-1.32052E-05-1.04450E-18-1.17219E-18
 -1      1271 1.05372E-04-9.21878E-06-4.13566E-05-1.95568E-05-1.45203E-18 3.74177E-19
 -1      1272 9.11069E-05-4.77402E-06-3.71018E-05-7.93245E-06-9.26760E-19-3.34324E-18
 -1      1273 9.49834E-05-4.91566E-06-3.84449E-05-1.07792E-05-1.11787E-18-2.44406E-18
 -1      1274 1.02109E-04-1.27707E-05-3.83126E-05-1.14204E-05-1.78856E-18-1.03042E-18
 -1      1275 8.35032E-05-2.57307E-06-3.47911E-05-4.65394E-06-6.52427E-19-4.34358E-18
 -1      1276 8.67916E-05-2.63909E-06-3.59643E-05-6.14445E-06-8.04258E-19-3.90522E-18
 -1      1277 9.15031E-05-7.40618E-06-3.61039E-05-7.22406E-06-1.42789E-18-2.83873E-18
 -1      1278 7.74413E-05-1.04741E-06-3.28548E-05-3.18256E-06-4.08958E-19-4.80324E-18
 -1      1279 8.00424E-05-1.09591E-06-3.37980E-05-3.79347E-06-4.82279E-19-4.63665E-18
 -1      1280 8.31245E-05-3.89500E-06-3.40258E-05-4.53184E-06-9.28798E-19-3.71278E-18
 -1      1281 7.32496E-05-7.31446E-08-3.14677E-05-2.99411E-06-1.45796E-19-4.93192E-18
 -1      1282 7.49657E-05-9.80651E-08-3.21070E-05-3.04344E-06-2.40451E-19-4.86558E-18
 -1      1283 7.67588E-05-1.50888E-06-3.23123E-05-3.41003E-06-5.64825E-19-4.05485E-18
 -1      1284 7.10783E-05 3.39210E-07-3.06864E-05-3.45181E-06 1.79730E-20-4.86339E-18
 -1      1285 7.18458E-05 3.39676E-07-3.10023E-05-3.25918E-06-2.50669E-20-4.93518E-18
 -1      1286 7.26280E-05-1.60001E-07-3.11123E-05-3.38614E-06-1.57535E-19-4.16878E-18
 -1      1287 7.10117E-05 1.87036E-07-3.05493E-05-3.89288E-06 2.53289E-19-4.65161E-18
 -1      1288 7.08401E-05 2.12012E-07-3.05390E-05-3.78034E-06 1.59924E-19-4.74921E-18
 -1      1289 7.09372E-05 1.25143E-07-3.05077E-05-3.81516E-06 1.31112E-19-4.06822E-18
 -1      1290 7.26875E-05-4.03830E-07-3.09671E-05-3.74275E-06 4.22696E-19-4.36459E-18
 -1      1291 7.17732E-05-3.63482E-07-3.06884E-05-3.96223E-06 3.56323E-19-4.54753E-18
 -1      1292 7.15875E-05-5.44193E-07-3.05017E-05-4.04299E-06 4.98896E-19-3.87083E-18
 -1      1293 7.55098E-05-1.22563E-06-3.17850E-05-2.65866E-06 6.32257E-19-3.96045E-18
 -1      1294 7.41326E-05-1.18249E-06-3.13234E-05-3.34469E-06 5.40301E-19-4.19635E-18
 -1      1295 7.40407E-05-1.85692E-06-3.09943E-05-3.55330E-06 7.62356E-19-3.59157E-18
 -1      1296 7.88604E-05-2.07406E-06-3.28327E-05-5.58351E-07 8.10981E-19-3.46745E-18
 -1      1297 7.72875E-05-2.03838E-06-3.22742E-05-1.72869E-06 7.40307E-19-3.75858E-18
 -1      1298 7.75576E-05-3.42646E-06-3.18323E-05-2.08918E-06 1.10366E-18-3.21798E-18
 -1      1299 8.22366E-05-2.80898E-06-3.39543E-05 2.39446E-06 9.92193E-19-2.71125E-18
 -1      1300 8.06708E-05-2.79169E-06-3.33713E-05 8.28268E-07 9.04419E-19-3.14912E-18
 -1      1301 8.14274E-05-4.93241E-06-3.28476E-05 3.24754E-07 1.39026E-18-2.64936E-18
 -1      1302 8.55994E-05-3.44613E-06-3.51231E-05 6.14475E-06 1.29045E-18-1.65378E-18
 -1      1303 8.40285E-05-3.44647E-06-3.45152E-05 4.18345E-06 1.14672E-18-2.24264E-18
 -1      1304 8.52712E-05-6.26864E-06-3.39272E-05 3.55312E-06 1.72163E-18-1.81969E-18
 -1      1305 8.90915E-05-4.10381E-06-3.63476E-05 1.05892E-05 1.48374E-18-1.54531E-19
 -1      1306 8.74199E-05-4.12346E-06-3.56899E-05 8.24202E-06 1.37331E-18-1.06631E-18
 -1      1307 8.91124E-05-7.57144E-06-3.50233E-05 7.46508E-06 2.12791E-18-6.94514E-19
 -1      1308 9.34539E-05-5.13710E-06-3.77806E-05 1.59662E-05 1.56468E-18 2.35888E-18
 -1      1309 9.12982E-05-5.16752E-06-3.69544E-05 1.29810E-05 1.43260E-18 8.84461E-19
 -1      1310 9.34121E-05-9.28705E-06-3.61386E-05 1.19739E-05 2.31309E-18 9.52489E-19
 -1      1311 1.01169E-04-8.16403E-06-3.97802E-05 2.33155E-05 1.17833E-18 6.64974E-18
 -1      1312 9.71928E-05-7.69122E-06-3.84915E-05 1.85938E-05 1.21306E-18 4.07275E-18
 -1      1313 9.96569E-05-1.27017E-05-3.73274E-05 1.69860E-05 2.21361E-18 3.67761E-18
 -1      1314 1.32357E-04-2.70163E-05-4.18659E-05 2.80335E-05 4.18011E-19 1.39824E-17
 -1      1315 1.08379E-04-1.62143E-05-4.01405E-05 2.27609E-05 4.77197E-19 9.02429E-18
 -1      1316 1.10485E-04-2.18335E-05-3.80744E-05 1.95126E-05 1.82644E-18 7.51361E-18
 -1      1317 1.12076E-04-3.06907E-05-3.76658E-05 6.21044E-06 9.04314E-19 1.37971E-17
 -1      1318 1.22742E-04-3.56646E-05-3.87260E-05-4.49962E-06-1.21380E-18 6.27630E-18
 -1      1319 1.18763E-04-3.41458E-05-3.67775E-05-1.94926E-06-1.10580E-18 4.84848E-18
 -1      1320 1.17677E-04-3.44805E-05-3.58996E-05 6.55040E-07-8.16963E-19 4.32005E-18
 -1      1321 1.18482E-04-3.51148E-05-3.57646E-05 1.08364E-06-7.97005E-19 3.09617E-18
 -1      1322 1.18328E-04-3.38073E-05-3.65931E-05-1.97678E-06-1.88232E-18 2.28859E-18
 -1      1323 1.18913E-04-3.53564E-05-3.58067E-05 2.36577E-06-6.15945E-19 2.72522E-18
 -1      1324 1.21256E-04-3.62387E-05-3.63949E-05 2.51020E-06-4.95845E-19 1.89677E-18
 -1      1325 1.17361E-04-3.45510E-05-3.56344E-05 3.00051E-06-1.33506E-18 1.67855E-18
 -1      1326 1.22694E-04-3.67559E-05-3.67940E-05 2.90035E-06-1.96452E-19 1.53609E-18
 -1      1327 1.25416E-04-3.77561E-05-3.75283E-05 2.89044E-06-2.36696E-19 1.15271E-18
 -1      1328 1.19421E-04-3.56819E-05-3.59258E-05 5.02421E-06-8.10902E-19 1.04609E-18
 -1      1329 1.27092E-04-3.84189E-05-3.79454E-05 2.31404E-06 2.74227E-20 1.20819E-18
 -1      1330 1.28970E-04-3.92019E-05-3.84067E-05 2.02940E-06-5.61424E-20 1.01022E-18
 -1      1331 1.22678E-04-3.72371E-05-3.65992E-05 4.90892E-06-2.78039E-19 7.60622E-19
 -1      1332 1.30093E-04-3.97986E-05-3.85784E-05 2.07682E-07-2.72903E-20 1.15459E-18
 -1      1333 1.29598E-04-3.98190E-05-3.83584E-05-4.61983E-07 8.69929E-20 1.08973E-18
 -1      1334 1.25773E-04-3.89464E-05-3.71154E-05 2.18199E-06-9.94205E-20 1.21302E-18
 -1      1335 1.29286E-04-3.99729E-05-3.80903E-05-3.43288E-06 9.68529E-20 1.19114E-18
 -1      1336 1.25088E-04-3.86087E-05-3.69267E-05-4.39794E-06-2.16563E-19 9.65194E-19
 -1      1337 1.27033E-04-4.00396E-05-3.71031E-05-3.48353E-06 2.80580E-21 1.58036E-18
 -1      1338 1.22690E-04-3.78273E-05-3.62207E-05-7.29117E-06-5.99071E-19 7.98329E-19
 -1      1339 1.15044E-04-3.49456E-05-3.43189E-05-7.99160E-06-7.38388E-19-1.23667E-19
 -1      1340 1.24718E-04-3.92219E-05-3.64568E-05-1.06954E-05-8.69413E-19 1.18762E-18
 -1      1341 1.11047E-04-3.31703E-05-3.34642E-05-8.43814E-06-6.32747E-19-6.01393E-19
 -1      1342 1.03094E-04-2.99011E-05-3.16282E-05-8.02854E-06-7.25351E-19-1.42619E-18
 -1      1343 1.18378E-04-3.56932E-05-3.54560E-05-1.51421E-05-1.25120E-18 4.04538E-19
 -1      1344 9.99082E-05-2.82556E-05-3.10831E-05-4.56967E-06-8.79273E-19-2.30044E-18
 -1      1345 9.65210E-05-2.68223E-05-3.03289E-05-3.05941E-06-8.17387E-19-3.21650E-18
 -1      1346 1.10774E-04-3.07780E-05-3.46381E-05-1.16605E-05-1.52794E-18-7.33054E-19
 -1      1347 9.63635E-05-2.67268E-05-3.03163E-05 2.65040E-06-4.76932E-19-4.06166E-18
 -1      1348 9.97043E-05-2.81125E-05-3.10748E-05 4.33457E-06-6.25640E-19-4.44110E-18
 -1      1349 1.07177E-04-2.83854E-05-3.43043E-05-3.97783E-07-1.31179E-18-2.21305E-18
 -1      1350 1.03120E-04-2.98113E-05-3.16907E-05 8.21704E-06-2.90691E-19-4.94392E-18
 -1      1351 1.11304E-04-3.31511E-05-3.35966E-05 8.70360E-06-1.64179E-19-5.26897E-18
 -1      1352 1.10692E-04-3.06376E-05-3.46882E-05 1.16468E-05-8.26810E-19-3.56834E-18
 -1      1353 1.15566E-04-3.50358E-05-3.45145E-05 8.48742E-06-1.87105E-19-5.35410E-18
 -1      1354 1.23697E-04-3.81063E-05-3.65434E-05 7.82125E-06 9.93014E-20-5.53885E-18
 -1      1355 1.18711E-04-3.56160E-05-3.56356E-05 1.58631E-05-1.78446E-19-4.28085E-18
 -1      1356 1.26374E-04-3.90008E-05-3.73166E-05 4.93199E-06 1.28273E-19-5.31428E-18
 -1      1357 1.31094E-04-4.05597E-05-3.86171E-05 3.94382E-06 1.63888E-19-5.23800E-18
 -1      1358 1.25626E-04-3.94702E-05-3.67352E-05 1.16871E-05 8.50739E-20-4.48946E-18
 -1      1359 1.31556E-04-4.04602E-05-3.89289E-05 8.07973E-07-3.25578E-21-5.19059E-18
 -1      1360 1.32402E-04-4.05668E-05-3.92475E-05 8.51784E-08-2.74095E-19-5.53080E-18
 -1      1361 1.28366E-04-4.05176E-05-3.74543E-05 4.25567E-06 1.85249E-19-4.03498E-18
 -1      1362 1.31196E-04-3.99405E-05-3.90606E-05-1.99648E-06 4.58655E-20-4.88167E-18
 -1      1363 1.29386E-04-3.91931E-05-3.86229E-05-2.34186E-06 2.20857E-19-4.78584E-18
 -1      1364 1.27158E-04-3.94905E-05-3.74578E-05-1.93752E-06 2.22809E-19-3.54808E-18
 -1      1365 1.27295E-04-3.84023E-05-3.80932E-05-3.25953E-06 3.04174E-19-4.41640E-18
 -1      1366 1.24269E-04-3.73384E-05-3.72681E-05-3.33772E-06 6.56980E-20-3.96933E-18
 -1      1367 1.23553E-04-3.76569E-05-3.67768E-05-5.39572E-06 3.63225E-19-2.80442E-18
 -1      1368 1.21909E-04-3.65650E-05-3.65891E-05-3.46431E-06-5.55491E-19-3.73359E-18
 -1      1369 1.18674E-04-3.55014E-05-3.56694E-05-3.40592E-06-2.38696E-19-4.27635E-18
 -1      1370 1.18985E-04-3.57802E-05-3.56697E-05-6.54217E-06 1.04370E-19-2.64857E-18
 -1      1371 1.16418E-04-3.48186E-05-3.49842E-05-3.13014E-06-2.88529E-19-3.99352E-18
 -1      1372 1.13494E-04-3.38941E-05-3.41350E-05-3.02217E-06-2.55036E-20-4.22206E-18
 -1      1373 1.14385E-04-3.41495E-05-3.44164E-05-6.30684E-06-5.02302E-19-1.38465E-18
 -1      1374 1.11522E-04-3.33226E-05-3.35213E-05-2.60283E-06-4.54827E-19-4.91255E-18
 -1      1375 1.09096E-04-3.25746E-05-3.28088E-05-2.48982E-06-4.91226E-19-5.31129E-18
 -1      1376 1.10236E-04-3.28205E-05-3.32122E-05-5.45065E-06-6.12210E-19-2.21745E-18
 -1      1377 1.07464E-04-3.21120E-05-3.22955E-05-2.06328E-06-8.99973E-20-5.74865E-18
 -1      1378 1.05548E-04-3.15311E-05-3.17293E-05-1.96351E-06 5.82216E-19-5.55529E-18
 -1      1379 1.06728E-04-3.17679E-05-3.21572E-05-4.43053E-06-4.15844E-19-3.00206E-18
 -1      1380 1.04244E-04-3.11655E-05-3.13180E-05-1.58771E-06 7.72607E-19-5.70048E-18
 -1      1381 1.02777E-04-3.07257E-05-3.08829E-05-1.50619E-06 6.62004E-19-4.51311E-18
 -1      1382 1.03881E-04-3.09473E-05-3.12838E-05-3.46912E-06 9.80745E-19-2.95741E-18
 -1      1383 1.01761E-04-3.04420E-05-3.05623E-05-1.19757E-06 5.52471E-19-4.38056E-18
 -1      1384 1.00661E-04-3.01147E-05-3.02352E-05-1.13363E-06-3.25380E-20-4.07064E-18
 -1      1385 1.01634E-04-3.03149E-05-3.05868E-05-2.65066E-06 8.65549E-19-2.28223E-18
 -1      1386 9.98837E-05-2.98978E-05-2.99903E-05-8.89864E-07-4.63822E-19-3.58503E-18
 -1      1387 9.90706E-05-2.96576E-05-2.97481E-05-8.40859E-07-3.01238E-19-3.66317E-18
 -1      1388 9.98967E-05-2.98325E-05-3.00444E-05-1.99023E-06-2.28805E-19-2.72101E-18
 -1      1389 9.84846E-05-2.94940E-05-2.95639E-05-6.52753E-07 1.21845E-19-3.77678E-18
 -1      1390 9.78918E-05-2.93198E-05-2.93870E-05-6.15726E-07 8.43972E-20-3.93202E-18
 -1      1391 9.85744E-05-2.94684E-05-2.96300E-05-1.47355E-06 2.10048E-19-2.42305E-18
 -1      1392 9.74558E-05-2.91979E-05-2.92503E-05-4.72759E-07-4.94733E-19-3.93758E-18
 -1      1393 9.70292E-05-2.90733E-05-2.91228E-05-4.45062E-07-3.04865E-19-4.52503E-18
 -1      1394 9.75819E-05-2.91966E-05-2.93181E-05-1.07706E-06-5.28532E-19-3.14850E-18
 -1      1395 9.67092E-05-2.89837E-05-2.90226E-05-3.37606E-07-6.96765E-19-5.24681E-18
 -1      1396 9.64066E-05-2.88959E-05-2.89320E-05-3.17065E-07-6.94502E-19-6.16244E-18
 -1      1397 9.68467E-05-2.89961E-05-2.90865E-05-7.76795E-07-1.47202E-18-4.29767E-18
 -1      1398 9.61751E-05-2.88310E-05-2.88597E-05-2.37072E-07-2.01480E-19-6.24184E-18
 -1      1399 9.59642E-05-2.87702E-05-2.87963E-05-2.21969E-07-2.84208E-19-5.99779E-18
 -1      1400 9.63095E-05-2.88502E-05-2.89170E-05-5.51758E-07-8.45365E-19-4.81873E-18
 -1      1401 9.57995E-05-2.87240E-05-2.87450E-05-1.62992E-07 3.16829E-19-5.66542E-18
 -1      1402 9.56559E-05-2.86830E-05-2.87017E-05-1.51998E-07 2.46470E-19-5.61791E-18
 -1      1403 9.59229E-05-2.87457E-05-2.87946E-05-3.84716E-07 3.63717E-19-5.72722E-18
 -1      1404 9.55410E-05-2.86508E-05-2.86659E-05-1.08987E-07-5.67654E-19-5.42931E-18
 -1      1405 9.54461E-05-2.86240E-05-2.86372E-05-1.01082E-07-1.03791E-18-6.57335E-18
 -1      1406 9.56498E-05-2.86725E-05-2.87078E-05-2.61979E-07 3.98614E-20-6.23089E-18
 -1      1407 9.53680E-05-2.86022E-05-2.86129E-05-7.01183E-08-7.00496E-19-6.18947E-18
 -1      1408 9.53079E-05-2.85855E-05-2.85946E-05-6.45225E-08-3.37401E-19-6.69642E-18
 -1      1409 9.54610E-05-2.86223E-05-2.86475E-05-1.72848E-07-6.66107E-19-4.77212E-18
 -1      1410 9.52566E-05-2.85712E-05-2.85787E-05-4.25873E-08 5.66050E-19-6.30557E-18
 -1      1411 9.52210E-05-2.85616E-05-2.85678E-05-3.87042E-08 1.03613E-18-5.53668E-18
 -1      1412 9.53342E-05-2.85891E-05-2.86068E-05-1.09035E-07 5.85207E-19-4.27186E-18
 -1      1413 9.51890E-05-2.85527E-05-2.85578E-05-2.34786E-08 2.46049E-19-5.32857E-18
 -1      1414 9.51702E-05-2.85479E-05-2.85519E-05-2.08538E-08-3.47804E-19-4.82093E-18
 -1      1415 9.52524E-05-2.85681E-05-2.85802E-05-6.41510E-08 1.01884E-18-3.97524E-18
 -1      1416 9.51516E-05-2.85428E-05-2.85462E-05-1.05627E-08-1.61776E-19-4.93152E-18
 -1      1417 9.51441E-05-2.85413E-05-2.85437E-05-8.85094E-09 9.17227E-20-4.59353E-18
 -1      1418 9.52026E-05-2.85557E-05-2.85638E-05-3.32869E-08 3.28735E-20-3.26434E-18
 -1      1419 9.51349E-05-2.85387E-05-2.85409E-05-2.14195E-09-2.93975E-19-5.42288E-18
 -1      1420 9.51346E-05-2.85392E-05-2.85406E-05-1.08220E-09-1.30152E-18-5.74476E-18
 -1      1421 9.51750E-05-2.85493E-05-2.85544E-05-1.26885E-08-1.10215E-18-4.61266E-18
 -1      1422 9.51315E-05-2.85384E-05-2.85397E-05 3.06894E-09-7.12585E-19-6.04178E-18
 -1      1423 9.51355E-05-2.85400E-05-2.85407E-05 3.67250E-09-1.94366E-19-6.67290E-18
 -1      1424 9.51626E-05-2.85469E-05-2.85500E-05 5.00864E-10-1.33271E-18-4.54045E-18
 -1      1425 9.51363E-05-2.85403E-05-2.85410E-05 6.03496E-09 8.08468E-19-6.65612E-18
 -1      1426 9.51428E-05-2.85426E-05-2.85428E-05 6.32784E-09 7.48547E-19-5.73312E-18
 -1      1427 9.51601E-05-2.85470E-05-2.85487E-05 8.43920E-09 4.06504E-19-4.31895E-18
 -1      1428 9.51460E-05-2.85435E-05-2.85438E-05 7.47301E-09-2.68483E-19-5.91650E-18
 -1      1429 9.51535E-05-2.85460E-05-2.85459E-05 7.56190E-09-4.80435E-19-6.01308E-18
 -1      1430 9.51637E-05-2.85487E-05-2.85494E-05 1.27412E-08 3.64817E-19-3.84172E-18
 -1      1431 9.51579E-05-2.85473E-05-2.85473E-05 7.90828E-09-5.02559E-20-4.83471E-18
 -1      1432 9.51656E-05-2.85498E-05-2.85496E-05 7.87005E-09 3.19203E-19-4.92416E-18
 -1      1433 9.51708E-05-2.85512E-05-2.85513E-05 1.46003E-08 8.26361E-20-2.28837E-18
 -1      1434 9.51705E-05-2.85512E-05-2.85511E-05 7.71843E-09 3.92119E-19-3.96410E-18
 -1      1435 9.51779E-05-2.85536E-05-2.85532E-05 7.60713E-09 1.20478E-18-3.01037E-18
 -1      1436 9.51797E-05-2.85541E-05-2.85538E-05 1.48845E-08 1.47268E-18-5.35733E-19
 -1      1437 9.51828E-05-2.85550E-05-2.85548E-05 7.16795E-09 9.71087E-19-2.28999E-18
 -1      1438 9.51896E-05-2.85571E-05-2.85567E-05 7.02029E-09 3.59729E-19-1.21071E-18
 -1      1439 9.51890E-05-2.85570E-05-2.85566E-05 1.42117E-08 1.05335E-18 1.33055E-18
 -1      1440 9.51942E-05-2.85585E-05-2.85582E-05 6.43466E-09 1.96785E-19-1.34606E-18
 -1      1441 9.52003E-05-2.85603E-05-2.85600E-05 6.27398E-09-1.33684E-19-1.52850E-18
 -1      1442 9.51982E-05-2.85598E-05-2.85593E-05 1.30072E-08 3.12263E-19 1.21012E-18
 -1      1443 9.52045E-05-2.85615E-05-2.85613E-05 5.62923E-09-3.91281E-19-1.63724E-18
 -1      1444 9.52098E-05-2.85632E-05-2.85628E-05 5.46847E-09-7.01100E-19-2.03943E-18
 -1      1445 9.52068E-05-2.85624E-05-2.85618E-05 1.15481E-08-1.68841E-19-7.22622E-19
 -1      1446 9.52135E-05-2.85642E-05-2.85640E-05 4.80903E-09-6.38643E-19-1.45019E-18
 -1      1447 9.52180E-05-2.85656E-05-2.85653E-05 4.65243E-09-6.33352E-19-1.35648E-18
 -1      1448 9.52144E-05-2.85647E-05-2.85641E-05 9.99527E-09-7.84956E-19-9.45485E-19
 -1      1449 9.52211E-05-2.85665E-05-2.85663E-05 3.98668E-09-7.12097E-19-2.09590E-18
 -1      1450 9.52248E-05-2.85677E-05-2.85673E-05 3.83037E-09-6.96941E-19-2.81001E-18
 -1      1451 9.52211E-05-2.85667E-05-2.85661E-05 8.41517E-09-1.39059E-18-2.48720E-19
 -1      1452 9.52274E-05-2.85684E-05-2.85681E-05 3.13508E-09-3.37642E-19-2.11997E-18
 -1      1453 9.52302E-05-2.85693E-05-2.85690E-05 2.96648E-09 2.90705E-20-1.76279E-18
 -1      1454 9.52267E-05-2.85684E-05-2.85678E-05 6.79357E-09-1.77654E-19-1.90094E-19
 -1      1455 9.52322E-05-2.85699E-05-2.85695E-05 2.19760E-09 4.10185E-19-2.08734E-18
 -1      1456 9.52341E-05-2.85705E-05-2.85701E-05 1.99611E-09 1.88008E-19-1.92336E-18
 -1      1457 9.52311E-05-2.85698E-05-2.85691E-05 5.05395E-09 2.21947E-20-6.55920E-19
 -1      1458 9.52355E-05-2.85709E-05-2.85705E-05 1.14080E-09-7.09827E-19-6.37925E-19
 -1      1459 9.52364E-05-2.85712E-05-2.85708E-05 8.81717E-10-9.82661E-19-1.16520E-18
 -1      1460 9.52344E-05-2.85708E-05-2.85700E-05 3.11663E-09 6.32363E-20 1.30364E-18
 -1      1461 9.52370E-05-2.85713E-05-2.85710E-05 2.30438E-10-4.48344E-19-2.57843E-18
 -1      1462 9.52371E-05-2.85712E-05-2.85712E-05 1.53725E-10 1.13277E-18-1.18492E-18
 -1      1463 9.52370E-05-2.85713E-05-2.85710E-05 2.27224E-10 3.50745E-18 1.07572E-18
 -1      1464 9.52363E-05-2.85715E-05-2.85706E-05 1.35956E-09-1.56247E-18 1.54826E-18
 -1      1465 1.07477E-04-3.17164E-05-3.29780E-05 2.29388E-06 8.93276E-19 1.18071E-17
 -1      1466 1.12559E-04-3.24300E-05-3.51706E-05 3.67196E-06 7.64924E-19 1.30877E-17
 -1      1467 1.11965E-04-2.97265E-05-3.55786E-05 1.13698E-05 1.45393E-18 9.34722E-18
 -1      1468 1.03693E-04-3.10177E-05-3.11862E-05 8.81660E-07 6.34123E-19 1.01226E-17
 -1      1469 1.05195E-04-3.10538E-05-3.19798E-05 1.10556E-06 6.06529E-19 1.10765E-17
 -1      1470 1.06944E-04-3.13574E-05-3.25807E-05 3.95921E-06 1.29218E-18 8.01690E-18
 -1      1471 1.01780E-04-3.05831E-05-3.04596E-05 5.90426E-07 4.15351E-19 8.95158E-18
 -1      1472 1.02503E-04-3.06761E-05-3.07624E-05 6.21059E-07 3.87154E-19 9.52256E-18
 -1      1473 1.03837E-04-3.10480E-05-3.12225E-05 1.77548E-06 9.09349E-19 6.97542E-18
 -1      1474 1.00089E-04-3.01252E-05-2.99268E-05 8.32149E-07 3.48590E-19 8.10497E-18
 -1      1475 1.00890E-04-3.03544E-05-3.01770E-05 7.46579E-07 3.08555E-19 8.52376E-18
 -1      1476 1.01892E-04-3.07028E-05-3.04957E-05 1.49350E-06 5.77787E-19 5.97647E-18
 -1      1477 9.78279E-05-2.94557E-05-2.92553E-05 1.30209E-06 2.95011E-19 7.66934E-18
 -1      1478 9.90665E-05-2.98669E-05-2.96166E-05 1.15156E-06 2.03963E-19 7.96470E-18
 -1      1479 1.00034E-04-3.02128E-05-2.98898E-05 2.05743E-06 4.28003E-19 5.50009E-18
 -1      1480 9.47420E-05-2.84968E-05-2.83609E-05 1.77605E-06 1.21312E-19 7.17868E-18
 -1      1481 9.65077E-05-2.90958E-05-2.88656E-05 1.61682E-06 1.49089E-19 7.37218E-18
 -1      1482 9.77482E-05-2.95107E-05-2.92047E-05 2.90783E-06 4.36745E-19 5.25385E-18
 -1      1483 9.10547E-05-2.73125E-05-2.73157E-05 2.00812E-06 3.65240E-19 6.50987E-18
 -1      1484 9.31738E-05-2.80265E-05-2.79106E-05 1.91092E-06 2.03380E-19 6.84061E-18
 -1      1485 9.49243E-05-2.85608E-05-2.84106E-05 3.57715E-06 4.14992E-19 4.47936E-18
 -1      1486 8.74336E-05-2.61202E-05-2.63098E-05 1.78692E-06 2.71732E-19 5.44692E-18
 -1      1487 8.94894E-05-2.67962E-05-2.68765E-05 1.81771E-06 3.23095E-19 6.13188E-18
 -1      1488 9.18597E-05-2.74668E-05-2.75924E-05 3.62272E-06 5.71527E-19 3.80422E-18
 -1      1489 8.48066E-05-2.52388E-05-2.55922E-05 1.04542E-06 5.10033E-19 4.48443E-18
 -1      1490 8.62531E-05-2.56845E-05-2.59827E-05 1.22958E-06 4.01500E-19 5.16600E-18
 -1      1491 8.91787E-05-2.64697E-05-2.69075E-05 2.76154E-06 6.72564E-19 3.32255E-18
 -1      1492 8.40017E-05-2.49620E-05-2.53766E-05-6.21875E-08 3.72125E-19 3.87293E-18
 -1      1493 8.43732E-05-2.50233E-05-2.54693E-05 2.35250E-07 3.09531E-19 4.27918E-18
 -1      1494 8.76141E-05-2.58687E-05-2.65264E-05 1.04863E-06 6.17434E-19 2.95695E-18
 -1      1495 8.53601E-05-2.54128E-05-2.57498E-05-1.20137E-06 1.07123E-19 3.36439E-18
 -1      1496 8.44848E-05-2.50483E-05-2.55021E-05-8.84361E-07 2.34013E-19 3.50380E-18
 -1      1497 8.76864E-05-2.58829E-05-2.65630E-05-1.07456E-06 4.58410E-19 2.51388E-18
 -1      1498 8.85548E-05-2.64729E-05-2.66294E-05-2.01847E-06 1.13294E-19 2.94529E-18
 -1      1499 8.66429E-05-2.57773E-05-2.60983E-05-1.78097E-06 1.00231E-19 3.15223E-18
 -1      1500 8.94394E-05-2.65305E-05-2.70236E-05-2.95857E-06 1.80537E-19 1.89718E-18
 -1      1501 9.27434E-05-2.78429E-05-2.77993E-05-2.31446E-06 2.32353E-19 2.86443E-18
 -1      1502 9.02897E-05-2.70011E-05-2.71162E-05-2.21160E-06 4.22094E-20 3.11118E-18
 -1      1503 9.24070E-05-2.76163E-05-2.78008E-05-4.06463E-06 4.57315E-20 1.38851E-18
 -1      1504 9.69430E-05-2.91861E-05-2.89972E-05-2.10915E-06 2.75018E-19 2.12131E-18
 -1      1505 9.45110E-05-2.83911E-05-2.83140E-05-2.13664E-06 2.70766E-19 2.82777E-18
 -1      1506 9.58300E-05-2.88323E-05-2.87157E-05-4.20234E-06 2.37680E-19 1.07617E-18
 -1      1507 1.00384E-04-3.02544E-05-3.00052E-05-1.57736E-06 1.97236E-19 1.99503E-18
 -1      1508 9.84077E-05-2.96404E-05-2.94426E-05-1.69067E-06 1.45670E-19 2.23686E-18
 -1      1509 9.89694E-05-2.98980E-05-2.95823E-05-3.54044E-06 3.73369E-19 1.37675E-18
 -1      1510 1.02678E-04-3.09378E-05-3.07008E-05-9.33219E-07-2.20361E-19 1.61261E-18
 -1      1511 1.01370E-04-3.05579E-05-3.03220E-05-1.07860E-06-8.16262E-21 1.78287E-18
 -1      1512 1.01331E-04-3.06486E-05-3.02627E-05-2.44130E-06 1.58726E-19 1.38824E-18
 -1      1513 1.03794E-04-3.12438E-05-3.10604E-05-3.42325E-07 2.73443E-19 1.35089E-18
 -1      1514 1.03163E-04-3.10851E-05-3.08723E-05-4.78811E-07 8.80650E-20 1.55503E-18
 -1      1515 1.02729E-04-3.10463E-05-3.06913E-05-1.26692E-06 4.67192E-21 1.25633E-18
 -1      1516 1.03928E-04-3.12482E-05-3.11296E-05 1.08467E-07-2.05361E-19 9.77380E-19
 -1      1517 1.03854E-04-3.12610E-05-3.11018E-05 2.38884E-09 2.81099E-19 1.40650E-18
 -1      1518 1.03222E-04-3.11390E-05-3.08685E-05-2.63307E-07 3.67354E-19 2.09185E-18
 -1      1519 1.03370E-04-3.10481E-05-3.09871E-05 3.99070E-07-2.40642E-19 1.34769E-18
 -1      1520 1.03682E-04-3.11732E-05-3.10729E-05 3.28865E-07-2.97957E-19 1.05192E-18
 -1      1521 1.03007E-04-3.10117E-05-3.08382E-05 4.60584E-07-2.83594E-19 1.86510E-18
 -1      1522 1.02403E-04-3.07334E-05-3.07151E-05 5.49221E-07 2.52406E-20 1.62376E-18
 -1      1523 1.02939E-04-3.09180E-05-3.08679E-05 5.10925E-07-1.63012E-19 1.67798E-18
 -1      1524 1.02319E-04-3.07510E-05-3.06621E-05 8.98530E-07-2.25698E-19 1.60967E-18
 -1      1525 1.01259E-04-3.03739E-05-3.03830E-05 5.94473E-07-2.01205E-19 1.45247E-18
 -1      1526 1.01887E-04-3.05784E-05-3.05648E-05 5.80351E-07-1.29264E-19 1.13751E-18
 -1      1527 1.01374E-04-3.04275E-05-3.04013E-05 1.09959E-06-4.41599E-20 1.36647E-18
 -1      1528 1.00100E-04-3.00171E-05-3.00411E-05 5.71101E-07 3.72233E-19 5.39262E-19
 -1      1529 1.00731E-04-3.02156E-05-3.02251E-05 5.73125E-07 3.49325E-19 1.34889E-18
 -1      1530 1.00340E-04-3.00916E-05-3.01060E-05 1.13076E-06 4.13228E-19 1.06674E-18
 -1      1531 9.90276E-05-2.96914E-05-2.97215E-05 5.09053E-07-1.28312E-20 6.54101E-19
 -1      1532 9.96060E-05-2.98691E-05-2.98911E-05 5.20518E-07-1.60490E-19 5.15916E-19
 -1      1533 9.93317E-05-2.97752E-05-2.98119E-05 1.05515E-06 7.16330E-20 9.50065E-19
 -1      1534 9.80946E-05-2.94108E-05-2.94413E-05 4.30061E-07-3.39875E-19 1.01077E-18
 -1      1535 9.85932E-05-2.95611E-05-2.95882E-05 4.46033E-07-4.33109E-19 2.37652E-19
 -1      1536 9.84178E-05-2.94953E-05-2.95415E-05 9.22816E-07-3.37431E-19 5.85765E-19
 -1      1537 9.73194E-05-2.91794E-05-2.92074E-05 3.48339E-07 2.59226E-19 1.65293E-18
 -1      1538 9.77296E-05-2.93011E-05-2.93286E-05 3.65528E-07 5.06338E-20 1.61956E-18
 -1      1539 9.76319E-05-2.92591E-05-2.93065E-05 7.69055E-07-5.00661E-19 6.29967E-19
 -1      1540 9.66993E-05-2.89956E-05-2.90195E-05 2.72220E-07 6.58105E-19 2.99072E-19
 -1      1541 9.70241E-05-2.90905E-05-2.91157E-05 2.88636E-07 4.42464E-19 1.27512E-18
 -1      1542 9.69835E-05-2.90672E-05-2.91109E-05 6.16342E-07 8.38731E-19 4.95268E-19
 -1      1543 9.62194E-05-2.88541E-05-2.88735E-05 2.05867E-07 5.99805E-20-9.67536E-19
 -1      1544 9.64680E-05-2.89256E-05-2.89474E-05 2.20458E-07 2.95024E-19-1.20629E-19
 -1      1545 9.64666E-05-2.89161E-05-2.89538E-05 4.77386E-07 8.99973E-19-6.00505E-20
 -1      1546 9.58596E-05-2.87486E-05-2.87638E-05 1.50723E-07-4.88253E-19-1.85432E-19
 -1      1547 9.60436E-05-2.88007E-05-2.88186E-05 1.63058E-07-4.15091E-19-4.61156E-19
 -1      1548 9.60672E-05-2.88006E-05-2.88317E-05 3.58113E-07-3.69562E-19 5.93875E-19
 -1      1549 9.55982E-05-2.86723E-05-2.86839E-05 1.06594E-07 1.68228E-19-3.10846E-19
 -1      1550 9.57300E-05-2.87090E-05-2.87232E-05 1.16628E-07-2.66608E-19-5.17629E-19
 -1      1551 9.57675E-05-2.87148E-05-2.87395E-05 2.60094E-07-2.90008E-19 5.16727E-19
 -1      1552 9.54149E-05-2.86191E-05-2.86276E-05 7.24094E-08-2.47472E-20-2.50638E-19
 -1      1553 9.55056E-05-2.86439E-05-2.86548E-05 8.03124E-08 3.01260E-19 8.72924E-20
 -1      1554 9.55495E-05-2.86531E-05-2.86720E-05 1.82349E-07-1.05019E-20 3.15240E-19
 -1      1555 9.52915E-05-2.85836E-05-2.85896E-05 4.67118E-08-2.18672E-19-3.55300E-19
 -1      1556 9.53511E-05-2.85994E-05-2.86075E-05 5.27598E-08-1.26385E-19-6.27105E-19
 -1      1557 9.53960E-05-2.86101E-05-2.86242E-05 1.22578E-07 2.46672E-19 9.71433E-19
 -1      1558 9.52129E-05-2.85612E-05-2.85653E-05 2.79638E-08-1.10663E-19-5.63631E-20
 -1      1559 9.52496E-05-2.85705E-05-2.85764E-05 3.24659E-08-2.15176E-19-4.25034E-19
 -1      1560 9.52921E-05-2.85815E-05-2.85916E-05 7.79616E-08-2.02155E-19-6.19147E-19
 -1      1561 9.51667E-05-2.85482E-05-2.85509E-05 1.47181E-08 6.09725E-21 2.39979E-19
 -1      1562 9.51870E-05-2.85530E-05-2.85571E-05 1.79757E-08 7.77707E-20 4.92330E-19
 -1      1563 9.52254E-05-2.85634E-05-2.85704E-05 4.56408E-08-1.63792E-19 1.42567E-19
 -1      1564 9.51433E-05-2.85419E-05-2.85435E-05 5.70174E-09-2.52762E-19-6.37688E-20
 -1      1565 9.51523E-05-2.85435E-05-2.85463E-05 7.98651E-09 4.83435E-21 6.08713E-19
 -1      1566 9.51857E-05-2.85529E-05-2.85576E-05 2.29815E-08 2.77441E-20 2.23434E-20
 -1      1567 9.51353E-05-2.85399E-05-2.85408E-05-1.53504E-10 1.28196E-18-1.45960E-18
 -1      1568 9.51368E-05-2.85396E-05-2.85414E-05 1.39111E-09 7.18270E-19-3.39999E-19
 -1      1569 9.51650E-05-2.85478E-05-2.85508E-05 7.69912E-09 4.34136E-19-3.43963E-20
 -1      1570 9.51372E-05-2.85408E-05-2.85412E-05-3.71221E-09 1.78139E-19-2.48876E-18
 -1      1571 9.51340E-05-2.85393E-05-2.85404E-05-2.71599E-09 5.46751E-19-1.41032E-18
 -1      1572 9.51572E-05-2.85462E-05-2.85479E-05-2.10447E-09 1.18207E-18-6.65290E-19
 -1      1573 9.51449E-05-2.85434E-05-2.85434E-05-5.65352E-09-1.60934E-18-4.21850E-19
 -1      1574 9.51392E-05-2.85412E-05-2.85418E-05-5.05246E-09-1.23704E-18-2.06686E-18
 -1      1575 9.51578E-05-2.85469E-05-2.85478E-05-7.95410E-09-1.05225E-18-1.07263E-19
 -1      1576 9.51559E-05-2.85468E-05-2.85466E-05-6.49656E-09 6.13245E-19-2.69766E-19
 -1      1577 9.51488E-05-2.85444E-05-2.85446E-05-6.17143E-09 3.37312E-19 1.56719E-19
 -1      1578 9.51635E-05-2.85489E-05-2.85492E-05-1.10396E-08-8.49953E-19-5.25921E-19
 -1      1579 9.51680E-05-2.85505E-05-2.85503E-05-6.62762E-09 7.49461E-19-1.99121E-18
 -1      1580 9.51607E-05-2.85481E-05-2.85481E-05-6.48801E-09 3.14850E-19-1.45581E-18
 -1      1581 9.51719E-05-2.85517E-05-2.85516E-05-1.22646E-08 1.02955E-18-1.10281E-18
 -1      1582 9.51803E-05-2.85542E-05-2.85539E-05-6.32565E-09-1.17912E-19-2.40266E-18
 -1      1583 9.51731E-05-2.85520E-05-2.85518E-05-6.30489E-09 3.12837E-19-1.77294E-18
 -1      1584 9.51816E-05-2.85547E-05-2.85544E-05-1.22968E-08 5.04446E-19-1.92019E-18
 -1      1585 9.51919E-05-2.85577E-05-2.85574E-05-5.78466E-09 2.84002E-19-1.30316E-18
 -1      1586 9.51853E-05-2.85557E-05-2.85555E-05-5.83521E-09-4.83537E-19-1.93250E-18
 -1      1587 9.51914E-05-2.85577E-05-2.85573E-05-1.16142E-08-3.20967E-19-9.36742E-19
 -1      1588 9.52024E-05-2.85609E-05-2.85606E-05-5.13187E-09-3.48017E-19-2.31559E-18
 -1      1589 9.51965E-05-2.85591E-05-2.85589E-05-5.22157E-09 3.25783E-19-1.68346E-18
 -1      1590 9.52008E-05-2.85605E-05-2.85601E-05-1.05441E-08 4.56318E-19-7.08190E-19
 -1      1591 9.52117E-05-2.85637E-05-2.85634E-05-4.44147E-09 3.32951E-19-2.61641E-18
 -1      1592 9.52066E-05-2.85621E-05-2.85619E-05-4.55084E-09 7.88158E-20-1.51018E-18
 -1      1593 9.52094E-05-2.85631E-05-2.85627E-05-9.29493E-09 5.82761E-19-1.08662E-18
 -1      1594 9.52197E-05-2.85661E-05-2.85658E-05-3.74383E-09-3.42644E-19-2.31584E-18
 -1      1595 9.52153E-05-2.85647E-05-2.85645E-05-3.86447E-09-2.20304E-19-2.93429E-18
 -1      1596 9.52169E-05-2.85654E-05-2.85649E-05-7.97973E-09-3.85888E-21-8.88288E-19
 -1      1597 9.52263E-05-2.85681E-05-2.85678E-05-3.03074E-09 1.42314E-19-2.33156E-18
 -1      1598 9.52227E-05-2.85670E-05-2.85667E-05-3.16511E-09 1.55045E-19-2.03958E-18
 -1      1599 9.52234E-05-2.85673E-05-2.85669E-05-6.63142E-09-2.44860E-19-1.59741E-18
 -1      1600 9.52315E-05-2.85696E-05-2.85693E-05-2.26040E-09 1.29136E-19-2.72430E-18
 -1      1601 9.52287E-05-2.85688E-05-2.85685E-05-2.42154E-09-3.70500E-19-2.90479E-18
 -1      1602 9.52287E-05-2.85689E-05-2.85685E-05-5.21390E-09-3.18496E-19-5.20107E-19
 -1      1603 9.52351E-05-2.85707E-05-2.85704E-05-1.36387E-09 1.90231E-19-3.96121E-18
 -1      1604 9.52332E-05-2.85702E-05-2.85699E-05-1.58053E-09 5.01651E-19-2.90373E-18
 -1      1605 9.52328E-05-2.85702E-05-2.85696E-05-3.64090E-09 5.38104E-19-1.54388E-18
 -1      1606 9.52368E-05-2.85712E-05-2.85710E-05-3.84181E-10-4.71266E-19-3.16074E-18
 -1      1607 9.52361E-05-2.85711E-05-2.85707E-05-6.35099E-10-1.98388E-19-4.02122E-18
 -1      1608 9.52355E-05-2.85711E-05-2.85704E-05-1.85922E-09-2.26666E-19-1.75227E-18
 -1      1609 9.52372E-05-2.85712E-05-2.85712E-05 4.74705E-11-1.51592E-18-1.73892E-18
 -1      1610 9.52373E-05-2.85727E-05-2.85705E-05-1.11343E-09-6.06382E-19 1.05563E-18
 -1      1611 9.52371E-05-2.85719E-05-2.85708E-05-8.62491E-10-1.90064E-18 4.09494E-19
 -1      1612 9.52383E-05-2.85757E-05-2.85697E-05-2.02483E-09 5.46969E-19 5.25525E-19
 -1      1613 9.52377E-05-2.85739E-05-2.85702E-05-1.84371E-09-4.12800E-19 1.84872E-19
 -1      1614 9.52375E-05-2.85738E-05-2.85701E-05-2.92912E-09-2.34151E-19 5.35072E-19
 -1      1615 9.52396E-05-2.85796E-05-2.85686E-05-2.51698E-09-7.15551E-19-6.18957E-19
 -1      1616 9.52389E-05-2.85773E-05-2.85692E-05-2.45442E-09-3.48956E-19 7.00811E-19
 -1      1617 9.52385E-05-2.85767E-05-2.85693E-05-4.35009E-09 6.38592E-21 2.80291E-20
 -1      1618 9.52410E-05-2.85838E-05-2.85674E-05-2.57346E-09-9.03055E-20-6.78450E-19
 -1      1619 9.52402E-05-2.85814E-05-2.85681E-05-2.59788E-09-1.04338E-18 9.59155E-19
 -1      1620 9.52398E-05-2.85801E-05-2.85684E-05-4.94415E-09-1.65899E-18-2.68002E-19
 -1      1621 9.52422E-05-2.85875E-05-2.85663E-05-2.25517E-09-1.38046E-18-1.80642E-19
 -1      1622 9.52415E-05-2.85854E-05-2.85669E-05-2.34527E-09-8.34279E-19-1.81794E-18
 -1      1623 9.52410E-05-2.85836E-05-2.85675E-05-4.75215E-09-9.80896E-19-1.87760E-18
 -1      1624 9.52432E-05-2.85905E-05-2.85654E-05-1.63665E-09 4.37922E-19 1.29676E-18
 -1      1625 9.52426E-05-2.85889E-05-2.85659E-05-1.77821E-09-7.88345E-19 1.66609E-18
 -1      1626 9.52421E-05-2.85867E-05-2.85666E-05-3.89745E-09-3.34664E-19 6.27542E-19
 -1      1627 9.52437E-05-2.85923E-05-2.85649E-05-8.18834E-10 4.23461E-20-1.11129E-18
 -1      1628 9.52434E-05-2.85914E-05-2.85652E-05-9.90385E-10-3.81066E-19 8.72321E-19
 -1      1629 9.52429E-05-2.85890E-05-2.85660E-05-2.53928E-09-4.97732E-19 4.93957E-19
 -1      1630 9.52438E-05-2.85926E-05-2.85648E-05 9.51116E-11 1.19912E-18 6.16553E-19
 -1      1631 9.52438E-05-2.85926E-05-2.85648E-05-8.66526E-11 5.42993E-19-8.71290E-19
 -1      1632 9.52433E-05-2.85903E-05-2.85656E-05-8.75449E-10-5.61161E-20-1.25526E-18
 -1      1633 9.52434E-05-2.85914E-05-2.85652E-05 9.99319E-10 7.85971E-19-4.13580E-19
 -1      1634 9.52437E-05-2.85923E-05-2.85649E-05 8.27633E-10 9.88191E-19 8.19845E-19
 -1      1635 9.52433E-05-2.85903E-05-2.85656E-05 8.91974E-10 9.53399E-19 2.77992E-19
 -1      1636 9.52426E-05-2.85889E-05-2.85659E-05 1.78749E-09-1.60078E-18-1.89119E-18
 -1      1637 9.52432E-05-2.85905E-05-2.85654E-05 1.64631E-09 5.26930E-19-1.32418E-18
 -1      1638 9.52429E-05-2.85890E-05-2.85660E-05 2.55717E-09-1.74524E-19-1.47232E-18
 -1      1639 9.52415E-05-2.85854E-05-2.85669E-05 2.34849E-09-2.00818E-18 1.02714E-18
 -1      1640 9.52422E-05-2.85875E-05-2.85663E-05 2.25903E-09-1.50438E-18-1.90694E-18
 -1      1641 9.52421E-05-2.85867E-05-2.85666E-05 3.90756E-09 1.76085E-19-2.35379E-18
 -1      1642 9.52402E-05-2.85813E-05-2.85681E-05 2.60320E-09-1.29200E-18-1.69056E-19
 -1      1643 9.52410E-05-2.85837E-05-2.85674E-05 2.57999E-09-2.60391E-18 2.17133E-18
 -1      1644 9.52410E-05-2.85836E-05-2.85675E-05 4.76174E-09 1.06886E-19 1.29477E-18
 -1      1645 9.52389E-05-2.85773E-05-2.85692E-05 2.45238E-09-1.59582E-18-2.29337E-19
 -1      1646 9.52396E-05-2.85795E-05-2.85686E-05 2.51774E-09-1.66259E-18 7.12039E-19
 -1      1647 9.52398E-05-2.85801E-05-2.85684E-05 4.95038E-09 2.52309E-19 7.35015E-19
 -1      1648 9.52377E-05-2.85739E-05-2.85702E-05 1.82186E-09-2.47076E-19-1.84277E-20
 -1      1649 9.52383E-05-2.85756E-05-2.85697E-05 2.01679E-09-1.36586E-18-2.76351E-19
 -1      1650 9.52385E-05-2.85766E-05-2.85693E-05 4.34310E-09-6.62509E-19-4.13688E-20
 -1      1651 9.52371E-05-2.85720E-05-2.85708E-05 9.23523E-10 2.15926E-18 1.53975E-18
 -1      1652 9.52374E-05-2.85729E-05-2.85705E-05 1.17938E-09-1.40214E-21 1.42865E-18
 -1      1653 9.52376E-05-2.85740E-05-2.85701E-05 3.00965E-09-5.47032E-19 6.92983E-19
 -1      1654 9.52370E-05-2.85722E-05-2.85706E-05 1.45050E-09-1.33937E-18 1.89160E-18
 -1      1655 2.10481E-05-6.76613E-05 1.39133E-05-4.66033E-06 9.65067E-18 5.03900E-18
 -1      1656 2.46737E-05-7.87401E-05 1.63331E-05 3.26352E-06 3.74833E-18 3.73309E-18
 -1      1657 1.92491E-05-3.85522E-05 3.92305E-06 3.18850E-06 1.42793E-17 7.41620E-18
 -1      1658 2.41561E-05-6.17548E-05 9.88035E-06-4.17988E-07 1.16086E-17 4.90313E-18
 -1      1659 3.53125E-05-9.67677E-06-1.27315E-05 3.09474E-05 1.47909E-17 1.04846E-17
 -1      1660 2.92005E-05-3.15561E-05-3.50365E-06 1.20751E-05 1.43496E-17 8.49151E-18
 -1      1661 7.41437E-05 1.00006E-06-3.12934E-05 6.18000E-05 1.29511E-17 1.27606E-17
 -1      1662 5.06657E-05-4.75180E-06-2.17816E-05 3.94886E-05 1.46393E-17 1.13358E-17
 -1      1663 1.37206E-04-1.27142E-05-4.98238E-05 8.09708E-05 8.91206E-18 1.09547E-17
 -1      1664 9.66525E-05-9.49536E-07-4.04372E-05 6.75419E-05 1.18458E-17 1.22464E-17
 -1      1665 2.04124E-04-3.99963E-05-6.48527E-05 7.12667E-05 4.82862E-18 5.41423E-18
 -1      1666 1.61876E-04-1.95876E-05-5.77735E-05 7.84227E-05 7.42848E-18 9.05902E-18
 -1      1667 2.49516E-04-6.19200E-05-7.39577E-05 3.30963E-05 2.25713E-18 1.77453E-19
 -1      1668 2.22730E-04-4.67552E-05-7.01269E-05 6.02752E-05 3.51296E-18 4.17672E-18
 -1      1669 2.51244E-04-6.18321E-05-7.52504E-05-2.10596E-05 3.14588E-18-6.24094E-18
 -1      1670 2.54177E-04-6.32411E-05-7.55450E-05 1.57160E-05 2.61204E-18-1.98915E-18
 -1      1671 2.07531E-04-4.00067E-05-6.75640E-05-6.01344E-05 5.63748E-18-1.09081E-17
 -1      1672 2.39197E-04-5.69697E-05-7.23417E-05-3.53634E-05 3.66892E-18-7.65083E-18
 -1      1673 1.46795E-04-1.49929E-05-5.41786E-05-7.58007E-05 8.78373E-18-1.34602E-17
 -1      1674 1.89835E-04-3.46314E-05-6.18652E-05-7.26652E-05 6.64286E-18-1.25090E-17
 -1      1675 8.45771E-05 4.35176E-07-3.65872E-05-6.20970E-05 1.16196E-17-1.29782E-17
 -1      1676 1.22343E-04-8.24947E-06-4.60419E-05-7.82552E-05 9.95518E-18-1.40040E-17
 -1      1677 4.43115E-05-7.49055E-06-1.83904E-05-3.38974E-05 1.19178E-17-1.01500E-17
 -1      1678 6.37362E-05 1.24314E-06-2.75858E-05-5.57783E-05 1.20922E-17-1.23294E-17
 -1      1679 2.63565E-05-3.31954E-05-1.85089E-06-9.21922E-06 9.14626E-18-6.29854E-18
 -1      1680 2.96491E-05-1.16593E-05-1.00079E-05-2.49128E-05 1.14671E-17-9.06706E-18
 -1      1681 2.39192E-05-6.25424E-05 1.04302E-05-8.87841E-07 3.58718E-18-3.38670E-18
 -1      1682 1.90145E-05-4.02771E-05 4.71890E-06-2.98160E-06 7.67158E-18-5.46739E-18
 -1      1683 2.33029E-05-7.61871E-05 1.60375E-05-5.10759E-06-3.11030E-18-2.71516E-18
 -1      1684 2.07852E-05-6.82542E-05 1.42360E-05 4.38057E-06 1.87703E-18-2.86255E-18
 -1      1685 1.93729E-05-6.10883E-05 1.23197E-05-6.57861E-06-9.21911E-18-4.86822E-18
 -1      1686 2.28989E-05-7.21050E-05 1.49434E-05-3.20172E-07-4.59706E-18-3.42159E-18
 -1      1687 1.95275E-05-3.57135E-05 2.30506E-06 1.99304E-06-1.39083E-17-8.28504E-18
 -1      1688 2.37317E-05-5.85725E-05 8.60153E-06-3.14425E-06-1.14307E-17-5.61448E-18
 -1      1689 4.65234E-05-1.56368E-05-1.50633E-05 3.33583E-05-1.31476E-17-1.08268E-17
 -1      1690 3.67584E-05-3.34944E-05-5.78098E-06 1.41518E-05-1.28453E-17-8.70157E-18
 -1      1691 9.12328E-05-6.84940E-06-3.51466E-05 6.33232E-05-1.21397E-17-1.33204E-17
 -1      1692 6.16199E-05-9.99470E-06-2.44406E-05 3.99659E-05-1.39616E-17-1.19855E-17
 -1      1693 1.60821E-04-2.44209E-05-5.46549E-05 7.78772E-05-8.60162E-18-1.21719E-17
 -1      1694 1.14905E-04-8.53950E-06-4.49239E-05 6.81882E-05-1.12139E-17-1.33924E-17
 -1      1695 2.30852E-04-5.32601E-05-7.00656E-05 5.13929E-05-4.66971E-18-6.90247E-18
 -1      1696 1.85508E-04-3.16291E-05-6.24393E-05 6.60380E-05-7.22307E-18-9.99245E-18
 -1      1697 2.68841E-04-6.87131E-05-7.80347E-05 8.93540E-06-3.03238E-18-8.64185E-19
 -1      1698 2.49541E-04-5.83219E-05-7.55209E-05 4.32824E-05-3.89318E-18-5.73526E-18
 -1      1699 2.56732E-04-6.22761E-05-7.62395E-05-3.96055E-05-3.34176E-18 5.71620E-18
 -1      1700 2.71614E-04-7.04828E-05-7.83595E-05-6.59817E-06-2.78420E-18 1.31587E-18
 -1      1701 2.04639E-04-3.85198E-05-6.63719E-05-6.99233E-05-5.13662E-18 9.90436E-18
 -1      1702 2.43404E-04-5.80035E-05-7.23655E-05-5.26280E-05-3.46733E-18 7.58687E-18
 -1      1703 1.38108E-04-1.50614E-05-5.08768E-05-7.25391E-05-8.64778E-18 1.13020E-17
 -1      1704 1.82138E-04-3.21910E-05-5.93888E-05-7.63370E-05-6.41416E-18 1.07455E-17
 -1      1705 7.97792E-05-6.24062E-06-3.26815E-05-5.25557E-05-1.09098E-17 1.07929E-17
 -1      1706 1.13810E-04-1.05882E-05-4.22134E-05-7.10445E-05-9.08443E-18 1.14121E-17
 -1      1707 4.18700E-05-1.74767E-05-1.41779E-05-2.40158E-05-1.24743E-17 9.08697E-18
 -1      1708 5.88927E-05-5.74618E-06-2.35771E-05-4.59539E-05-1.18187E-17 1.01314E-17
 -1      1709 2.65395E-05-4.30228E-05 1.61648E-06-2.44722E-06-1.06353E-17 6.25936E-18
 -1      1710 2.77888E-05-2.14983E-05-5.99805E-06-1.54474E-05-1.22574E-17 9.44526E-18
 -1      1711 2.45178E-05-6.69700E-05 1.20593E-05 2.86571E-06-5.40915E-18 4.03823E-18
 -1      1712 2.00362E-05-4.83229E-05 7.24336E-06 2.15831E-06-8.95144E-18 5.73838E-18
 -1      1713 2.41934E-05-7.91430E-05 1.67472E-05 4.82348E-07 1.36618E-18 2.92184E-18
 -1      1714 2.14992E-05-7.24734E-05 1.54634E-05 9.23419E-06-3.98953E-18 3.75723E-18
 -1      1715 7.20054E-05-3.25110E-05-1.80467E-05 4.17443E-05 8.88792E-18 6.96388E-18
 -1      1716 1.22786E-05-5.34624E-05 1.27115E-05 3.43853E-06 2.08688E-18 6.64582E-18
 -1      1717 9.52369E-05-2.85713E-05-2.85710E-05-3.47952E-10-2.33556E-18-1.83431E-19
 -1      1718 9.52367E-05-2.85720E-05-2.85706E-05-1.44435E-09-6.09381E-19 5.46658E-19
 -1      1719 1.90452E-05-4.91374E-05 8.49857E-06 1.56695E-05 5.63955E-18 6.80464E-18
 -1      1720 3.93976E-05-4.05895E-05-2.44133E-06 2.97587E-05 7.91806E-18 6.45826E-18
 -1      1721 1.12517E-04-2.75516E-05-3.54301E-05 4.93340E-05 8.78966E-18 6.90417E-18
 -1      1722 1.56416E-04-2.85103E-05-5.17361E-05 4.74202E-05 7.42446E-18 4.66969E-18
 -1      1723 1.93650E-04-3.26929E-05-6.43462E-05 3.46054E-05 5.40375E-18 1.93632E-18
 -1      1724 2.12928E-04-3.49373E-05-7.09002E-05 1.18334E-05 4.58414E-18-5.81065E-19
 -1      1725 2.05397E-04-3.16939E-05-6.95900E-05-1.13608E-05 4.95557E-18-3.56770E-18
 -1      1726 1.83484E-04-3.04491E-05-6.15298E-05-3.19554E-05 5.62800E-18-5.89111E-18
 -1      1727 1.47715E-04-2.84740E-05-4.83928E-05-4.72302E-05 6.27715E-18-8.11796E-18
 -1      1728 1.03554E-04-2.75224E-05-3.20693E-05-4.82793E-05 6.98167E-18-8.43730E-18
 -1      1729 6.41916E-05-3.15969E-05-1.54704E-05-3.98555E-05 6.24094E-18-7.54325E-18
 -1      1730 3.49509E-05-3.96329E-05-1.19279E-06-2.78370E-05 4.04204E-18-6.42575E-18
 -1      1731 1.68847E-05-4.70927E-05 8.61676E-06-1.48062E-05 1.02660E-18-5.49915E-18
 -1      1732 1.12820E-05-4.75606E-05 1.11826E-05 5.65131E-07-2.29355E-18-5.66707E-18
 -1      1733 2.04026E-05-4.55841E-05 6.68124E-06 1.39884E-05-5.25415E-18-6.27673E-18
 -1      1734 4.81148E-05-4.28869E-05-4.78084E-06 3.07022E-05-7.13032E-18-6.72872E-18
 -1      1735 8.70189E-05-4.17114E-05-2.09110E-05 3.94503E-05-7.44034E-18-7.24467E-18
 -1      1736 1.29267E-04-3.56359E-05-3.91518E-05 4.43258E-05-8.23274E-18-7.83505E-18
 -1      1737 1.75289E-04-3.65157E-05-5.60400E-05 3.46260E-05-7.13879E-18-5.73187E-18
 -1      1738 2.06035E-04-3.58974E-05-6.81978E-05 1.59828E-05-5.97624E-18-3.28733E-18
 -1      1739 2.25192E-04-3.80517E-05-7.37677E-05 6.34205E-07-5.28972E-18-6.82020E-19
 -1      1740 2.16972E-04-3.88648E-05-7.04003E-05-1.99306E-05-4.55746E-18 2.27682E-18
 -1      1741 1.86981E-04-3.70133E-05-6.00846E-05-3.58339E-05-5.16963E-18 4.88145E-18
 -1      1742 1.45437E-04-3.53859E-05-4.52150E-05-4.38362E-05-5.92330E-18 6.20790E-18
 -1      1743 1.01097E-04-3.56936E-05-2.83221E-05-4.21528E-05-6.91518E-18 5.51503E-18
 -1      1744 6.17547E-05-3.94802E-05-1.18680E-05-3.33405E-05-6.76695E-18 6.15920E-18
 -1      1745 3.38042E-05-4.54190E-05 1.30739E-06-2.21476E-05-4.34189E-18 6.01150E-18
 -1      1746 1.71633E-05-4.98791E-05 9.79026E-06-1.03451E-05-1.22396E-18 5.85723E-18
 -1      1747 1.21419E-04-2.77642E-05-4.02184E-05-1.23587E-05-1.47273E-18 4.65995E-18
 -1      1748 9.09038E-05-9.83813E-06-3.49079E-05-4.71874E-06-1.44501E-18-2.45735E-18
 -1      1749 9.57894E-05-1.20788E-05-3.59636E-05-6.44548E-06-1.75810E-18-1.91345E-18
 -1      1750 1.01414E-04-1.59947E-05-3.68007E-05-7.66194E-06-1.85492E-18-1.15562E-18
 -1      1751 1.06454E-04-1.91848E-05-3.78150E-05-9.77392E-06-2.09342E-18-1.67607E-19
 -1      1752 1.00753E-04-1.76578E-05-3.56063E-05-4.78932E-06-1.90927E-18-1.34101E-18
 -1      1753 7.56300E-05-2.18456E-06-3.15592E-05-2.75135E-06-5.29422E-19-3.38097E-18
 -1      1754 7.84345E-05-3.14722E-06-3.22826E-05-3.00354E-06-7.54428E-19-3.26317E-18
 -1      1755 7.16918E-05-5.16976E-07-3.05481E-05-3.33727E-06-8.96498E-20-3.44522E-18
 -1      1756 7.32275E-05-9.39518E-07-3.09991E-05-3.20382E-06-3.18359E-19-3.46014E-18
 -1      1757 7.47631E-05-2.61379E-06-3.09189E-05-2.61850E-06-4.79940E-19-3.30417E-18
 -1      1758 7.06580E-05-3.85684E-07-3.01289E-05-4.18288E-06 3.14173E-19-3.34788E-18
 -1      1759 7.08213E-05-2.67961E-07-3.02723E-05-4.00145E-06 1.08341E-19-3.41773E-18
 -1      1760 7.13805E-05-1.14436E-06-3.00940E-05-3.75221E-06 3.10300E-20-3.33443E-18
 -1      1761 7.22177E-05-1.56616E-06-3.02714E-05-4.54834E-06 6.67422E-19-3.11067E-18
 -1      1762 7.12224E-05-1.02556E-06-3.01367E-05-4.62934E-06 4.92960E-19-3.26120E-18
 -1      1763 7.11711E-05-1.56206E-06-2.98356E-05-4.85092E-06 4.42589E-19-3.20109E-18
 -1      1764 7.55953E-05-3.56419E-06-3.08588E-05-3.91849E-06 1.00065E-18-2.78401E-18
 -1      1765 7.38422E-05-2.79177E-06-3.05137E-05-4.45555E-06 8.22575E-19-2.96145E-18
 -1      1766 7.36125E-05-3.44977E-06-3.00934E-05-5.14070E-06 7.63984E-19-2.94500E-18
 -1      1767 7.98562E-05-5.81785E-06-3.17311E-05-2.13062E-06 1.32446E-18-2.51697E-18
 -1      1768 7.77784E-05-5.00249E-06-3.12581E-05-3.17013E-06 1.17773E-18-2.72039E-18
 -1      1769 7.77391E-05-6.11961E-06-3.07385E-05-4.18696E-06 1.12988E-18-2.63343E-18
 -1      1770 8.41771E-05-7.89276E-06-3.27160E-05 6.16188E-07 1.65032E-18-1.85300E-18
 -1      1771 8.21254E-05-7.16454E-06-3.21980E-05-8.30576E-07 1.50256E-18-2.23789E-18
 -1      1772 8.24909E-05-8.88556E-06-3.16016E-05-2.01334E-06 1.45549E-18-2.26678E-18
 -1      1773 8.83554E-05-9.76379E-06-3.37350E-05 4.12666E-06 2.12605E-18-9.47115E-19
 -1      1774 8.63767E-05-9.09538E-06-3.32013E-05 2.31951E-06 1.84800E-18-1.43556E-18
 -1      1775 8.71829E-05-1.13934E-05-3.25414E-05 1.08072E-06 1.82350E-18-1.51079E-18
 -1      1776 9.24356E-05-1.16644E-05-3.47135E-05 8.06644E-06 2.48351E-18 1.45160E-19
 -1      1777 9.04563E-05-1.09224E-05-3.41882E-05 6.00007E-06 2.28492E-18-4.65815E-19
 -1      1778 9.16225E-05-1.36851E-05-3.34565E-05 4.69099E-06 2.30291E-18-5.37112E-19
 -1      1779 9.70994E-05-1.43691E-05-3.56290E-05 1.21645E-05 2.61482E-18 1.68443E-18
 -1      1780 9.47289E-05-1.31551E-05-3.51031E-05 9.86728E-06 2.52867E-18 7.19687E-19
 -1      1781 9.60533E-05-1.61978E-05-3.42605E-05 8.30585E-06 2.60096E-18 5.91295E-19
 -1      1782 1.04056E-04-1.97909E-05-3.63490E-05 1.53968E-05 2.34065E-18 4.42802E-18
 -1      1783 1.00181E-04-1.68804E-05-3.58854E-05 1.34693E-05 2.44549E-18 2.81061E-18
 -1      1784 1.01227E-04-1.99410E-05-3.48439E-05 1.11619E-05 2.56565E-18 2.28164E-18
 -1      1785 1.11143E-04-2.80883E-05-3.60549E-05 1.27092E-05 1.80392E-18 7.59471E-18
 -1      1786 1.06735E-04-2.23263E-05-3.61659E-05 1.49607E-05 2.10182E-18 5.55887E-18
 -1      1787 1.06088E-04-2.50237E-05-3.47955E-05 1.12036E-05 2.36545E-18 4.50479E-18
 -1      1788 1.08435E-04-2.93511E-05-3.41076E-05 7.85522E-06 1.79701E-18 7.03608E-18
 -1      1789 1.15064E-04-2.41021E-05-3.87083E-05-1.23707E-05-1.93421E-18 1.61656E-18
 -1      1790 1.05561E-04-3.08050E-05-3.20659E-05 3.40997E-06 1.37567E-18 6.19519E-18
 -1      1791 1.07621E-04-3.07578E-05-3.30026E-05 5.30590E-06 1.47664E-18 6.63213E-18
 -1      1792 1.07010E-04-2.89698E-05-3.34285E-05 7.33726E-06 1.79672E-18 5.20437E-18
 -1      1793 1.13915E-04-2.66564E-05-3.71250E-05-7.09523E-06-1.99085E-18 9.44653E-19
 -1      1794 1.14824E-04-3.21121E-05-3.53270E-05 2.10242E-06-1.45245E-18 8.55010E-19
 -1      1795 1.15066E-04-3.28373E-05-3.51974E-05 4.03257E-06-1.24159E-18 4.33191E-19
 -1      1796 1.15632E-04-3.36130E-05-3.50519E-05 5.75049E-06-1.01702E-18 5.25266E-19
 -1      1797 1.17005E-04-3.46814E-05-3.52761E-05 6.42975E-06-7.01112E-19 2.71818E-19
 -1      1798 1.11876E-04-3.13660E-05-3.45618E-05 5.48699E-06-1.30312E-18-1.59464E-19
 -1      1799 1.18396E-04-3.58187E-05-3.53189E-05 6.83979E-06-2.88633E-19 4.67734E-19
 -1      1800 1.20086E-04-3.71865E-05-3.55932E-05 6.25723E-06-5.68968E-20 4.32874E-19
 -1      1801 1.14077E-04-3.41338E-05-3.43254E-05 8.04038E-06-6.09841E-19 4.49060E-20
 -1      1802 1.22314E-04-3.88558E-05-3.57028E-05 5.00480E-06 1.24858E-19 6.82761E-19
 -1      1803 1.23578E-04-4.02829E-05-3.58313E-05 2.84116E-06 1.65277E-19 8.11067E-19
 -1      1804 1.17937E-04-3.79460E-05-3.43566E-05 7.41283E-06 5.70159E-20 3.20625E-19
 -1      1805 1.26353E-04-4.21749E-05-3.60211E-05-4.79871E-07 1.01948E-19 1.31031E-18
 -1      1806 1.26268E-04-4.28354E-05-3.59198E-05-4.13745E-06-1.55285E-19 1.19909E-18
 -1      1807 1.23212E-04-4.26279E-05-3.46098E-05 2.79887E-06 2.21711E-19 6.44989E-19
 -1      1808 1.28558E-04-4.37593E-05-3.63626E-05-9.09312E-06-6.21338E-19 1.40145E-18
 -1      1809 1.26352E-04-4.22608E-05-3.61345E-05-1.28713E-05-9.95515E-19 1.11072E-18
 -1      1810 1.28573E-04-4.61418E-05-3.53859E-05-5.98464E-06-4.37804E-19 1.23442E-18
 -1      1811 1.26259E-04-4.03413E-05-3.70326E-05-1.66370E-05-1.53394E-18 1.11923E-18
 -1      1812 1.22217E-04-3.62705E-05-3.69056E-05-1.73616E-05-1.72276E-18 5.92830E-19
 -1      1813 1.30737E-04-4.40852E-05-3.72181E-05-1.61355E-05-1.41621E-18 1.57391E-18
 -1      1814 1.20045E-04-3.20924E-05-3.80163E-05-1.63119E-05-2.05850E-18-7.22757E-20
 -1      1815 1.16401E-04-2.78131E-05-3.80591E-05-1.22349E-05-2.17253E-18-5.05057E-19
 -1      1816 1.28377E-04-3.61861E-05-3.97286E-05-1.95868E-05-2.20496E-18 1.08388E-18
 -1      1817 1.14379E-04-2.50793E-05-3.86433E-05-3.84310E-06-2.02335E-18-1.42918E-18
 -1      1818 1.14515E-04-2.49250E-05-3.86520E-05 3.28529E-06-1.58427E-18-2.00043E-18
 -1      1819 1.22311E-04-2.36893E-05-4.27329E-05-1.05110E-05-2.67345E-18-3.32672E-19
 -1      1820 1.16001E-04-2.71156E-05-3.81904E-05 1.15320E-05-1.60852E-18-2.84199E-18
 -1      1821 1.19657E-04-3.13287E-05-3.82162E-05 1.63085E-05-1.26367E-18-3.44381E-18
 -1      1822 1.22860E-04-2.42798E-05-4.25900E-05 8.54072E-06-2.20864E-18-1.90635E-18
 -1      1823 1.22360E-04-3.58606E-05-3.70943E-05 1.83632E-05-6.40886E-19-4.00451E-18
 -1      1824 1.26664E-04-4.02469E-05-3.72581E-05 1.77575E-05-1.80100E-19-4.28216E-18
 -1      1825 1.27733E-04-3.42458E-05-4.02804E-05 2.00528E-05-1.47437E-18-3.62705E-18
 -1      1826 1.26919E-04-4.23706E-05-3.63317E-05 1.40305E-05 2.24044E-19-3.93664E-18
 -1      1827 1.29390E-04-4.41242E-05-3.65855E-05 1.02119E-05 5.42597E-19-3.70233E-18
 -1      1828 1.31242E-04-4.40555E-05-3.73967E-05 1.72979E-05 2.25125E-19-4.13283E-18
 -1      1829 1.27184E-04-4.33523E-05-3.60907E-05 5.03562E-06 5.58248E-19-3.60345E-18
 -1      1830 1.27366E-04-4.28359E-05-3.61954E-05 1.10713E-06 5.16995E-19-3.30420E-18
 -1      1831 1.29241E-04-4.65633E-05-3.54549E-05 7.04148E-06 8.59877E-19-3.26639E-18
 -1      1832 1.24410E-04-4.09454E-05-3.59198E-05-2.66975E-06 2.97031E-19-3.10431E-18
 -1      1833 1.23011E-04-3.95452E-05-3.57393E-05-5.22802E-06 5.55687E-19-2.51051E-18
 -1      1834 1.23789E-04-4.33715E-05-3.45100E-05-2.55086E-06 5.87563E-19-2.77499E-18
 -1      1835 1.20356E-04-3.78040E-05-3.54732E-05-7.09791E-06 3.95465E-19-2.26175E-18
 -1      1836 1.18199E-04-3.63877E-05-3.50471E-05-8.21028E-06 5.75890E-19-2.06019E-18
 -1      1837 1.17925E-04-3.87315E-05-3.39908E-05-8.38141E-06 7.76895E-19-1.88995E-18
 -1      1838 1.16088E-04-3.51623E-05-3.47197E-05-8.67650E-06 6.70728E-19-1.84513E-18
 -1      1839 1.13750E-04-3.40207E-05-3.41649E-05-8.80542E-06 3.12972E-19-1.84158E-18
 -1      1840 1.12998E-04-3.49307E-05-3.34968E-05-1.06990E-05 6.54088E-19-1.22400E-18
 -1      1841 1.12102E-04-3.32467E-05-3.37927E-05-8.48785E-06-3.38878E-19-1.26928E-18
 -1      1842 1.09908E-04-3.23963E-05-3.32167E-05-8.10901E-06-3.17927E-19-1.21951E-18
 -1      1843 1.09154E-04-3.24257E-05-3.29101E-05-1.07431E-05 4.07421E-19-1.53979E-18
 -1      1844 1.08598E-04-3.19175E-05-3.28388E-05-7.45494E-06-1.01974E-18-1.00523E-18
 -1      1845 1.06693E-04-3.12971E-05-3.23088E-05-6.88943E-06-9.01450E-19-1.46750E-18
 -1      1846 1.06162E-04-3.09326E-05-3.22591E-05-9.62993E-06-4.70534E-19-9.08704E-19
 -1      1847 1.05633E-04-3.09909E-05-3.19570E-05-6.15723E-06-9.47621E-19-1.47289E-18
 -1      1848 1.04058E-04-3.05377E-05-3.15034E-05-5.57892E-06-5.06999E-19-1.56179E-18
 -1      1849 1.03790E-04-3.00710E-05-3.16071E-05-8.09121E-06-8.32051E-19-6.50918E-19
 -1      1850 1.03196E-04-3.03299E-05-3.11956E-05-4.89487E-06 5.79235E-19-1.90423E-18
 -1      1851 1.01936E-04-2.99966E-05-3.08248E-05-4.38052E-06 1.41455E-18-1.53077E-18
 -1      1852 1.01884E-04-2.95650E-05-3.10047E-05-6.52825E-06-2.50957E-19-1.18758E-18
 -1      1853 1.01238E-04-2.98472E-05-3.05667E-05-3.79379E-06 9.93470E-19-1.60572E-18
 -1      1854 1.00252E-04-2.96009E-05-3.02728E-05-3.36707E-06 3.84771E-19-1.90235E-18
 -1      1855 1.00347E-04-2.92516E-05-3.04791E-05-5.12583E-06 7.90411E-19-1.64487E-18
 -1      1856 9.96934E-05-2.94892E-05-3.00630E-05-2.88721E-06-4.79566E-20-2.30640E-18
 -1      1857 9.89364E-05-2.93072E-05-2.98351E-05-2.54684E-06 7.43321E-20-1.94325E-18
 -1      1858 9.91157E-05-2.90442E-05-3.00390E-05-3.94657E-06 1.92166E-19-2.56064E-18
 -1      1859 9.84945E-05-2.92220E-05-2.96685E-05-2.16560E-06-2.26520E-19-1.14812E-18
 -1      1860 9.79215E-05-2.90881E-05-2.94948E-05-1.90052E-06-1.94847E-19-1.43155E-18
 -1      1861 9.81381E-05-2.88987E-05-2.96812E-05-2.99217E-06 2.47606E-19-1.77853E-18
 -1      1862 9.75770E-05-2.90229E-05-2.93648E-05-1.60338E-06-5.44583E-19-1.95929E-18
 -1      1863 9.71491E-05-2.89252E-05-2.92343E-05-1.40019E-06-9.80728E-19-2.03242E-18
 -1      1864 9.73718E-05-2.87931E-05-2.93970E-05-2.23836E-06-6.27316E-19-1.30244E-18
 -1      1865 9.68843E-05-2.88758E-05-2.91346E-05-1.17176E-06-1.43283E-18-2.49014E-18
 -1      1866 9.65690E-05-2.88054E-05-2.90378E-05-1.01783E-06-1.42659E-18-2.84046E-18
 -1      1867 9.67791E-05-2.87153E-05-2.91753E-05-1.65289E-06-1.14153E-18-1.32394E-18
 -1      1868 9.63686E-05-2.87684E-05-2.89625E-05-8.44187E-07-1.56626E-18-3.05972E-18
 -1      1869 9.61395E-05-2.87185E-05-2.88917E-05-7.28745E-07-8.73585E-19-3.20954E-18
 -1      1870 9.63273E-05-2.86585E-05-2.90051E-05-1.20394E-06-1.24666E-18-1.68247E-18
 -1      1871 9.59902E-05-2.86915E-05-2.88355E-05-5.98097E-07 6.30680E-20-3.59761E-18
 -1      1872 9.58265E-05-2.86569E-05-2.87846E-05-5.12376E-07 3.34712E-19-3.96592E-18
 -1      1873 9.59880E-05-2.86177E-05-2.88763E-05-8.63430E-07-9.67267E-19-1.21097E-18
 -1      1874 9.57170E-05-2.86375E-05-2.87434E-05-4.15115E-07 1.43280E-19-3.78689E-18
 -1      1875 9.56024E-05-2.86142E-05-2.87074E-05-3.52152E-07-2.92129E-19-3.66716E-18
 -1      1876 9.57373E-05-2.85893E-05-2.87804E-05-6.07867E-07 1.05991E-19-1.52926E-18
 -1      1877 9.55237E-05-2.86008E-05-2.86776E-05-2.80593E-07-6.15997E-20-3.74726E-18
 -1      1878 9.54454E-05-2.85857E-05-2.86527E-05-2.34931E-07 3.26488E-19-2.96479E-18
 -1      1879 9.55555E-05-2.85705E-05-2.87099E-05-4.18187E-07-2.34255E-19-2.04280E-18
 -1      1880 9.53901E-05-2.85767E-05-2.86317E-05-1.82998E-07 4.02732E-19-3.41255E-18
 -1      1881 9.53383E-05-2.85675E-05-2.86150E-05-1.50390E-07 1.06565E-18-3.64499E-18
 -1      1882 9.54263E-05-2.85587E-05-2.86591E-05-2.79163E-07 2.59253E-19-2.67223E-18
 -1      1883 9.53006E-05-2.85619E-05-2.86004E-05-1.13314E-07 1.07258E-18-4.32951E-18
 -1      1884 9.52679E-05-2.85568E-05-2.85896E-05-9.04699E-08 6.57451E-19-4.55625E-18
 -1      1885 9.53369E-05-2.85522E-05-2.86232E-05-1.78756E-07 6.42082E-19-3.52111E-18
 -1      1886 9.52430E-05-2.85535E-05-2.85799E-05-6.45325E-08 5.19469E-20-4.26377E-18
 -1      1887 9.52238E-05-2.85512E-05-2.85733E-05-4.89168E-08-1.14742E-19-3.87097E-18
 -1      1888 9.52770E-05-2.85493E-05-2.85985E-05-1.07517E-07 1.71455E-19-4.87733E-18
 -1      1889 9.52082E-05-2.85496E-05-2.85671E-05-3.12340E-08-5.06811E-19-3.62314E-18
 -1      1890 9.51983E-05-2.85491E-05-2.85635E-05-2.09012E-08-1.32795E-18-4.03370E-18
 -1      1891 9.52385E-05-2.85488E-05-2.85819E-05-5.80778E-08-3.07437E-19-4.20295E-18
 -1      1892 9.51893E-05-2.85486E-05-2.85597E-05-9.25166E-09-1.29367E-18-3.52131E-18
 -1      1893 9.51856E-05-2.85493E-05-2.85581E-05-2.71981E-09-3.04075E-19-2.90426E-18
 -1      1894 9.52154E-05-2.85499E-05-2.85714E-05-2.47282E-08-5.96631E-19-3.51129E-18
 -1      1895 9.51811E-05-2.85495E-05-2.85561E-05 4.59343E-09-9.46882E-20-1.67341E-18
 -1      1896 9.51814E-05-2.85508E-05-2.85557E-05 8.44384E-09 5.41600E-19-2.14312E-18
 -1      1897 9.52031E-05-2.85519E-05-2.85651E-05-3.07784E-09 2.12392E-19-1.07224E-18
 -1      1898 9.51800E-05-2.85514E-05-2.85549E-05 1.27044E-08 1.08395E-18-2.24380E-18
 -1      1899 9.51826E-05-2.85531E-05-2.85554E-05 1.47099E-08 3.77803E-19-1.35079E-18
 -1      1900 9.51980E-05-2.85544E-05-2.85617E-05 1.02188E-08 8.98965E-19-1.92367E-19
 -1      1901 9.51832E-05-2.85539E-05-2.85553E-05 1.68770E-08 8.97077E-19-9.54515E-19
 -1      1902 9.51871E-05-2.85556E-05-2.85562E-05 1.76540E-08 2.09942E-18 1.05005E-18
 -1      1903 9.51976E-05-2.85570E-05-2.85604E-05 1.76831E-08 1.42626E-18 1.01815E-18
 -1      1904 9.51888E-05-2.85565E-05-2.85566E-05 1.84332E-08 1.48504E-18 7.26773E-19
 -1      1905 9.51933E-05-2.85583E-05-2.85578E-05 1.84280E-08 1.46606E-18 5.64745E-19
 -1      1906 9.52000E-05-2.85595E-05-2.85603E-05 2.11899E-08 1.65816E-18 1.39296E-18
 -1      1907 9.51956E-05-2.85592E-05-2.85585E-05 1.83281E-08 1.63123E-18 1.47857E-18
 -1      1908 9.52002E-05-2.85608E-05-2.85597E-05 1.78553E-08 1.89243E-18 2.11975E-18
 -1      1909 9.52042E-05-2.85618E-05-2.85611E-05 2.21091E-08 1.88893E-18 7.32452E-19
 -1      1910 9.52027E-05-2.85616E-05-2.85605E-05 1.72327E-08 9.11267E-20 2.38881E-18
 -1      1911 9.52071E-05-2.85631E-05-2.85617E-05 1.65060E-08-2.66293E-19 2.50949E-18
 -1      1912 9.52090E-05-2.85639E-05-2.85622E-05 2.14186E-08 8.82650E-19 1.91237E-18
 -1      1913 9.52096E-05-2.85639E-05-2.85625E-05 1.55992E-08-6.60167E-19 1.88278E-18
 -1      1914 9.52136E-05-2.85651E-05-2.85636E-05 1.47535E-08-8.37029E-19 7.17871E-19
 -1      1915 9.52141E-05-2.85657E-05-2.85636E-05 1.97927E-08-1.06119E-18 3.01162E-18
 -1      1916 9.52159E-05-2.85658E-05-2.85644E-05 1.37093E-08-6.19951E-19 4.28788E-19
 -1      1917 9.52195E-05-2.85669E-05-2.85654E-05 1.28174E-08-6.80210E-19 2.02729E-19
 -1      1918 9.52190E-05-2.85673E-05-2.85650E-05 1.76702E-08-1.17029E-18 1.47314E-18
 -1      1919 9.52216E-05-2.85675E-05-2.85661E-05 1.17103E-08-1.14947E-18 4.28668E-19
 -1      1920 9.52247E-05-2.85685E-05-2.85670E-05 1.07943E-08-1.17002E-18 6.88404E-19
 -1      1921 9.52235E-05-2.85687E-05-2.85663E-05 1.53062E-08-4.46091E-19 1.03939E-18
 -1      1922 9.52265E-05-2.85691E-05-2.85675E-05 9.64231E-09-6.79021E-19 2.93055E-19
 -1      1923 9.52290E-05-2.85699E-05-2.85682E-05 8.68253E-09-1.15241E-20-5.82493E-20
 -1      1924 9.52275E-05-2.85699E-05-2.85675E-05 1.28119E-08-8.84808E-19 3.57721E-19
 -1      1925 9.52306E-05-2.85704E-05-2.85687E-05 7.46149E-09-3.46370E-20-4.16325E-19
 -1      1926 9.52326E-05-2.85710E-05-2.85693E-05 6.41311E-09 4.29177E-19-4.32922E-20
 -1      1927 9.52309E-05-2.85711E-05-2.85685E-05 1.02005E-08-1.84912E-19-4.85944E-19
 -1      1928 9.52339E-05-2.85715E-05-2.85696E-05 5.09382E-09 8.69646E-19 4.81475E-19
 -1      1929 9.52353E-05-2.85720E-05-2.85700E-05 3.96718E-09-4.71992E-19 7.51631E-19
 -1      1930 9.52338E-05-2.85721E-05-2.85693E-05 7.41629E-09 7.56082E-19 2.22989E-19
 -1      1931 9.52363E-05-2.85722E-05-2.85704E-05 2.26543E-09-2.37085E-18 2.30609E-18
 -1      1932 1.02454E-04-3.10347E-05-3.06061E-05 2.51603E-06 7.35487E-19 4.31926E-18
 -1      1933 1.03333E-04-3.10697E-05-3.09229E-05 2.41382E-06 8.52580E-19 4.75521E-18
 -1      1934 1.00803E-04-3.07918E-05-3.00152E-05 3.30348E-06 5.35111E-19 4.00175E-18
 -1      1935 1.01827E-04-3.10178E-05-3.03180E-05 2.87011E-06 5.15567E-19 4.14290E-18
 -1      1936 1.03216E-04-3.15332E-05-3.07216E-05 3.64498E-06 8.75975E-19 2.96176E-18
 -1      1937 9.87864E-05-3.01473E-05-2.94235E-05 4.37823E-06 7.08126E-19 3.48775E-18
 -1      1938 1.00068E-04-3.05934E-05-2.97671E-05 3.90070E-06 5.98028E-19 3.82335E-18
 -1      1939 1.01936E-04-3.14225E-05-3.02089E-05 4.67450E-06 8.17455E-19 2.60266E-18
 -1      1940 9.63422E-05-2.90693E-05-2.88211E-05 5.10345E-06 6.94807E-19 2.91339E-18
 -1      1941 9.78400E-05-2.97270E-05-2.91926E-05 4.86149E-06 6.79527E-19 3.25500E-18
 -1      1942 1.00264E-04-3.07292E-05-2.97853E-05 5.89909E-06 9.57700E-19 2.35572E-18
 -1      1943 9.37465E-05-2.77084E-05-2.82714E-05 4.87143E-06 8.07285E-19 2.53880E-18
 -1      1944 9.52276E-05-2.84569E-05-2.86163E-05 5.10237E-06 6.28242E-19 2.76179E-18
 -1      1945 9.81280E-05-2.94385E-05-2.94298E-05 6.49313E-06 8.34637E-19 1.78199E-18
 -1      1946 9.15783E-05-2.64419E-05-2.78722E-05 3.35478E-06 7.79816E-19 2.43800E-18
 -1      1947 9.26890E-05-2.70599E-05-2.81169E-05 4.14290E-06 7.87006E-19 2.52916E-18
 -1      1948 9.58216E-05-2.78112E-05-2.91580E-05 5.74142E-06 8.51882E-19 1.57504E-18
 -1      1949 9.05076E-05-2.57490E-05-2.77116E-05 7.50600E-07 8.13694E-19 2.20180E-18
 -1      1950 9.09129E-05-2.60027E-05-2.77924E-05 1.94106E-06 8.28306E-19 2.53763E-18
 -1      1951 9.39586E-05-2.63883E-05-2.89927E-05 3.38286E-06 9.02173E-19 1.74598E-18
 -1      1952 9.09552E-05-2.59492E-05-2.78311E-05-2.21103E-06 5.80039E-19 1.68629E-18
 -1      1953 9.05001E-05-2.57225E-05-2.77209E-05-9.73806E-07 7.27330E-19 1.81628E-18
 -1      1954 9.32068E-05-2.57691E-05-2.89483E-05-1.30615E-07 1.10657E-18 1.57690E-18
 -1      1955 9.28315E-05-2.69880E-05-2.82069E-05-4.59907E-06 4.08402E-19 9.43489E-19
 -1      1956 9.16250E-05-2.63570E-05-2.79277E-05-3.69849E-06 6.05794E-19 1.43111E-18
 -1      1957 9.38904E-05-2.62535E-05-2.90253E-05-3.74673E-06 8.84792E-19 1.09985E-18
 -1      1958 9.55617E-05-2.84655E-05-2.87565E-05-5.75835E-06 1.76514E-19 3.87484E-19
 -1      1959 9.39273E-05-2.76507E-05-2.83724E-05-5.41387E-06 9.07450E-20 6.65867E-19
 -1      1960 9.57635E-05-2.76389E-05-2.92106E-05-6.33438E-06 5.66541E-19 3.39184E-19
 -1      1961 9.83879E-05-2.98892E-05-2.93643E-05-5.57972E-06 5.11429E-20 6.36651E-19
 -1      1962 9.67172E-05-2.91281E-05-2.89582E-05-5.77592E-06 1.58767E-19 5.66553E-19
 -1      1963 9.81544E-05-2.93577E-05-2.94752E-05-7.26166E-06 1.58913E-19-1.03424E-19
 -1      1964 1.00699E-04-3.09182E-05-2.99159E-05-4.41755E-06 1.17347E-19 7.73818E-19
 -1      1965 9.93089E-05-3.03646E-05-2.95629E-05-4.97195E-06 1.26301E-19 8.55070E-19
 -1      1966 1.00348E-04-3.08260E-05-2.97724E-05-6.59931E-06-1.34433E-20 4.69802E-19
 -1      1967 1.02192E-04-3.14462E-05-3.03287E-05-2.80976E-06-3.72853E-19 7.82751E-19
 -1      1968 1.01250E-04-3.11448E-05-3.00766E-05-3.49560E-06 9.03017E-20 7.11428E-19
 -1      1969 1.01885E-04-3.17165E-05-3.00470E-05-4.90370E-06-9.47453E-21 1.47080E-19
 -1      1970 1.02843E-04-3.15424E-05-3.05654E-05-1.22317E-06-1.14502E-19 1.48834E-18
 -1      1971 1.02377E-04-3.14599E-05-3.04297E-05-1.86246E-06-3.44157E-19 1.16930E-18
 -1      1972 1.02635E-04-3.20006E-05-3.02512E-05-2.84610E-06-4.69018E-19 6.92229E-19
 -1      1973 1.02801E-04-3.13468E-05-3.06294E-05 6.17445E-08 2.52915E-19 1.77795E-18
 -1      1974 1.02740E-04-3.14180E-05-3.06005E-05-4.34328E-07 3.18918E-19 1.32772E-18
 -1      1975 1.02697E-04-3.18320E-05-3.03565E-05-9.44243E-07 2.00459E-19 8.25707E-19
 -1      1976 1.02273E-04-3.09955E-05-3.05519E-05 9.45322E-07-2.91667E-19 1.71547E-18
 -1      1977 1.02507E-04-3.11551E-05-3.06053E-05 6.18664E-07 1.93312E-20 2.16022E-18
 -1      1978 1.02264E-04-3.14100E-05-3.03576E-05 5.25579E-07-1.90802E-19 9.94001E-19
 -1      1979 1.01459E-04-3.05887E-05-3.03758E-05 1.44838E-06-2.73511E-19 1.92086E-18
 -1      1980 1.01874E-04-3.07864E-05-3.04828E-05 1.27388E-06-2.99865E-19 2.00509E-18
 -1      1981 1.01531E-04-3.08968E-05-3.02684E-05 1.49116E-06-4.16586E-19 1.46730E-18
 -1      1982 1.00522E-04-3.01890E-05-3.01436E-05 1.64935E-06 1.30431E-19 1.39797E-18
 -1      1983 1.01020E-04-3.03910E-05-3.02783E-05 1.59113E-06 1.04836E-19 1.89163E-18
 -1      1984 1.00658E-04-3.03939E-05-3.01133E-05 2.00463E-06-1.46134E-19 1.81519E-18
 -1      1985 9.95746E-05-2.98291E-05-2.98906E-05 1.64022E-06 5.22763E-19 1.20300E-18
 -1      1986 1.00087E-04-3.00159E-05-3.00328E-05 1.66006E-06 4.55265E-19 1.41491E-18
 -1      1987 9.97588E-05-2.99520E-05-2.99192E-05 2.17129E-06 4.35202E-19 1.61582E-18
 -1      1988 9.86908E-05-2.95226E-05-2.96422E-05 1.50304E-06-2.17784E-19 1.44276E-18
 -1      1989 9.91721E-05-2.96847E-05-2.97783E-05 1.56842E-06 2.31429E-19 1.49312E-18
 -1      1990 9.89042E-05-2.95879E-05-2.97102E-05 2.10348E-06 1.85177E-19 1.75353E-18
 -1      1991 9.79103E-05-2.92716E-05-2.94147E-05 1.30104E-06-5.35855E-19 1.35790E-18
 -1      1992 9.83354E-05-2.94060E-05-2.95366E-05 1.38772E-06-2.05516E-19 1.54541E-18
 -1      1993 9.81361E-05-2.93006E-05-2.95047E-05 1.89744E-06-3.46424E-19 1.76618E-18
 -1      1994 9.72496E-05-2.90724E-05-2.92166E-05 1.07805E-06 1.53470E-19 8.13826E-19
 -1      1995 9.76079E-05-2.91799E-05-2.93206E-05 1.16973E-06-6.37700E-19 9.16758E-19
 -1      1996 9.74735E-05-2.90807E-05-2.93151E-05 1.62567E-06-3.61222E-20 2.01623E-18
 -1      1997 9.67091E-05-2.89185E-05-2.90509E-05 8.61569E-07 1.24738E-18 2.51148E-19
 -1      1998 9.70001E-05-2.90018E-05-2.91362E-05 9.48371E-07 8.70114E-19 5.61763E-19
 -1      1999 9.69204E-05-2.89164E-05-2.91484E-05 1.33757E-06 4.75544E-19 6.64949E-19
 -1      2000 9.62800E-05-2.88024E-05-2.89169E-05 6.66860E-07 4.26476E-19 7.70115E-19
 -1      2001 9.65087E-05-2.88651E-05-2.89846E-05 7.43574E-07 9.90637E-19 4.71316E-19
 -1      2002 9.64718E-05-2.87964E-05-2.90072E-05 1.06357E-06 8.13238E-19 3.21495E-19
 -1      2003 9.59486E-05-2.87170E-05-2.88117E-05 5.00719E-07-6.50703E-19 6.64411E-19
 -1      2004 9.61231E-05-2.87629E-05-2.88638E-05 5.65283E-07 2.15057E-19 1.12522E-18
 -1      2005 9.61171E-05-2.87105E-05-2.88916E-05 8.20090E-07 1.02468E-19 4.92050E-19
 -1      2006 9.56996E-05-2.86559E-05-2.87314E-05 3.64553E-07-2.88049E-19 5.39583E-19
 -1      2007 9.58288E-05-2.86884E-05-2.87703E-05 4.16853E-07-6.90700E-19 6.71295E-19
 -1      2008 9.58434E-05-2.86505E-05-2.87995E-05 6.13935E-07-4.50943E-19 7.02852E-19
 -1      2009 9.55174E-05-2.86134E-05-2.86718E-05 2.56615E-07-4.75248E-19 1.20553E-18
 -1      2010 9.56102E-05-2.86357E-05-2.87000E-05 2.97635E-07-3.90959E-19 9.35226E-19
 -1      2011 9.56373E-05-2.86097E-05-2.87282E-05 4.45860E-07-7.08699E-19 1.29063E-18
 -1      2012 9.53883E-05-2.85850E-05-2.86288E-05 1.73559E-07 2.83727E-19 1.10902E-18
 -1      2013 9.54525E-05-2.85996E-05-2.86487E-05 2.04800E-07 2.37635E-19 1.34227E-18
 -1      2014 9.54859E-05-2.85830E-05-2.86744E-05 3.13127E-07-9.81450E-22 1.43358E-18
 -1      2015 9.52999E-05-2.85670E-05-2.85989E-05 1.11429E-07 3.92601E-20 1.13557E-18
 -1      2016 9.53425E-05-2.85759E-05-2.86123E-05 1.34554E-07 3.51578E-20 1.37628E-18
 -1      2017 9.53778E-05-2.85664E-05-2.86348E-05 2.11275E-07 6.34048E-20 1.83257E-18
 -1      2018 9.52422E-05-2.85564E-05-2.85789E-05 6.62712E-08-4.57029E-19 1.67861E-18
 -1      2019 9.52688E-05-2.85613E-05-2.85875E-05 8.28884E-08-1.34531E-20 1.57651E-18
 -1      2020 9.53030E-05-2.85568E-05-2.86066E-05 1.35253E-07-2.78903E-19 2.80681E-18
 -1      2021 9.52069E-05-2.85510E-05-2.85663E-05 3.44641E-08 2.33913E-19 4.16669E-19
 -1      2022 9.52220E-05-2.85531E-05-2.85713E-05 4.60143E-08 2.40854E-19 6.48580E-19
 -1      2023 9.52534E-05-2.85520E-05-2.85871E-05 8.00990E-08 6.15628E-20 1.89465E-18
 -1      2024 9.51875E-05-2.85490E-05-2.85590E-05 1.28712E-08 1.31970E-18 6.08498E-19
 -1      2025 9.51946E-05-2.85494E-05-2.85615E-05 2.05834E-08 4.60800E-19 5.45018E-19
 -1      2026 9.52224E-05-2.85504E-05-2.85743E-05 4.13153E-08 5.83078E-19 1.03497E-18
 -1      2027 9.51791E-05-2.85493E-05-2.85553E-05-1.11357E-09 1.69541E-19 5.64291E-19
 -1      2028 9.51809E-05-2.85485E-05-2.85562E-05 3.76933E-09 9.48337E-19 4.77653E-19
 -1      2029 9.52046E-05-2.85509E-05-2.85663E-05 1.50303E-08 1.31221E-18 1.07974E-18
 -1      2030 9.51778E-05-2.85509E-05-2.85542E-05-9.58597E-09-1.59798E-18 5.58581E-19
 -1      2031 9.51763E-05-2.85495E-05-2.85540E-05-6.72973E-09-1.77240E-19 2.02008E-19
 -1      2032 9.51960E-05-2.85525E-05-2.85618E-05-1.96053E-09-7.34031E-20 1.13395E-18
 -1      2033 9.51811E-05-2.85532E-05-2.85547E-05-1.41846E-08-1.19964E-19-2.66249E-19
 -1      2034 9.51776E-05-2.85516E-05-2.85539E-05-1.27337E-08-1.66876E-18 2.30801E-21
 -1      2035 9.51936E-05-2.85547E-05-2.85597E-05-1.22269E-08-9.55487E-19 6.33362E-19
 -1      2036 9.51870E-05-2.85559E-05-2.85561E-05-1.61570E-08 1.08480E-18-5.31157E-19
 -1      2037 9.51825E-05-2.85541E-05-2.85549E-05-1.56431E-08 1.20491E-18-6.62769E-19
 -1      2038 9.51951E-05-2.85571E-05-2.85593E-05-1.77735E-08 6.23805E-19-4.55812E-19
 -1      2039 9.51940E-05-2.85585E-05-2.85580E-05-1.64272E-08-1.32989E-19-9.79480E-19
 -1      2040 9.51892E-05-2.85568E-05-2.85567E-05-1.65071E-08 3.41235E-19-1.07221E-18
 -1      2041 9.51989E-05-2.85595E-05-2.85598E-05-2.01234E-08 9.99668E-19-7.16201E-19
 -1      2042 9.52014E-05-2.85611E-05-2.85601E-05-1.56581E-08 4.28472E-19-1.76176E-18
 -1      2043 9.51967E-05-2.85595E-05-2.85588E-05-1.60892E-08-1.72636E-19-1.48547E-18
 -1      2044 9.52040E-05-2.85618E-05-2.85610E-05-2.04019E-08 2.09165E-19-1.07916E-18
 -1      2045 9.52086E-05-2.85634E-05-2.85622E-05-1.43047E-08 4.03645E-19-1.45956E-18
 -1      2046 9.52042E-05-2.85619E-05-2.85610E-05-1.49239E-08 7.98732E-19-1.58551E-18
 -1      2047 9.52094E-05-2.85639E-05-2.85624E-05-1.94132E-08 2.92250E-19-2.67673E-18
 -1      2048 9.52153E-05-2.85654E-05-2.85642E-05-1.26571E-08-8.28437E-20-1.05642E-18
 -1      2049 9.52113E-05-2.85642E-05-2.85631E-05-1.33648E-08-1.51642E-19-1.24938E-18
 -1      2050 9.52149E-05-2.85657E-05-2.85639E-05-1.77056E-08 2.34969E-19-1.54732E-18
 -1      2051 9.52212E-05-2.85672E-05-2.85660E-05-1.08733E-08 2.61537E-20-9.08299E-19
 -1      2052 9.52177E-05-2.85662E-05-2.85650E-05-1.16219E-08 3.38137E-19-2.87348E-19
 -1      2053 9.52200E-05-2.85673E-05-2.85654E-05-1.56248E-08-2.87394E-19-1.01825E-18
 -1      2054 9.52263E-05-2.85688E-05-2.85675E-05-9.00332E-09-1.03716E-18 1.68334E-19
 -1      2055 9.52234E-05-2.85679E-05-2.85667E-05-9.78881E-09-4.31362E-19-1.43169E-19
 -1      2056 9.52246E-05-2.85688E-05-2.85668E-05-1.33549E-08-4.44251E-19 6.60616E-19
 -1      2057 9.52305E-05-2.85701E-05-2.85688E-05-7.01361E-09-1.47392E-19 5.37816E-19
 -1      2058 9.52282E-05-2.85694E-05-2.85681E-05-7.86782E-09-9.15757E-19 1.80463E-19
 -1      2059 9.52286E-05-2.85700E-05-2.85679E-05-1.09545E-08-1.33806E-18 1.79194E-19
 -1      2060 9.52338E-05-2.85713E-05-2.85697E-05-4.82174E-09-3.63692E-19 4.11423E-19
 -1      2061 9.52321E-05-2.85707E-05-2.85692E-05-5.79725E-09 1.42524E-20 4.95720E-19
 -1      2062 9.52320E-05-2.85712E-05-2.85689E-05-8.41768E-09-3.68812E-19 5.91517E-19
 -1      2063 9.52359E-05-2.85719E-05-2.85703E-05-2.62296E-09-2.62057E-19 3.74602E-19
 -1      2064 9.52348E-05-2.85715E-05-2.85700E-05-3.62471E-09-2.47735E-20 5.31066E-19
 -1      2065 9.52345E-05-2.85721E-05-2.85696E-05-5.80784E-09-3.94973E-19 4.24447E-19
 -1      2066 9.52362E-05-2.85725E-05-2.85702E-05-3.26313E-09 1.96040E-19 1.22008E-18
 -1      2067 9.52400E-05-2.85807E-05-2.85683E-05-6.74480E-09-2.15555E-18-5.38784E-19
 -1      2068 9.52392E-05-2.85789E-05-2.85687E-05-6.65184E-09-1.90240E-18-1.44611E-18
 -1      2069 9.52385E-05-2.85774E-05-2.85690E-05-6.27632E-09-1.26654E-18-8.24010E-19
 -1      2070 9.52377E-05-2.85757E-05-2.85694E-05-5.74825E-09-2.59104E-19-1.13261E-18
 -1      2071 9.52385E-05-2.85778E-05-2.85689E-05-8.20696E-09-1.52301E-18-1.58133E-18
 -1      2072 9.52368E-05-2.85738E-05-2.85698E-05-4.26056E-09-2.60064E-19-5.74794E-19
 -1      2073 9.52414E-05-2.85837E-05-2.85676E-05-6.23304E-09-8.58847E-19-9.08888E-19
 -1      2074 9.52407E-05-2.85821E-05-2.85680E-05-6.55856E-09-1.88301E-18 8.91221E-19
 -1      2075 9.52403E-05-2.85809E-05-2.85683E-05-8.38154E-09-2.15248E-18-4.31032E-19
 -1      2076 9.52426E-05-2.85863E-05-2.85669E-05-4.89115E-09-9.38320E-20 5.25381E-19
 -1      2077 9.52420E-05-2.85850E-05-2.85673E-05-5.56192E-09-1.68409E-19 4.62857E-19
 -1      2078 9.52418E-05-2.85836E-05-2.85678E-05-7.40797E-09-1.20210E-19 1.66586E-19
 -1      2079 9.52434E-05-2.85881E-05-2.85665E-05-2.94919E-09-7.08756E-19-7.82679E-19
 -1      2080 9.52430E-05-2.85872E-05-2.85667E-05-3.85538E-09-1.44669E-19-2.75477E-20
 -1      2081 9.52430E-05-2.85858E-05-2.85674E-05-5.48723E-09-6.08328E-20 4.23784E-20
 -1      2082 9.52437E-05-2.85889E-05-2.85663E-05-6.60182E-10-4.23871E-19-1.19248E-18
 -1      2083 9.52436E-05-2.85886E-05-2.85664E-05-1.68685E-09-9.10355E-19-8.45326E-19
 -1      2084 9.52437E-05-2.85872E-05-2.85671E-05-2.90795E-09-7.76235E-19-2.90092E-19
 -1      2085 9.52436E-05-2.85886E-05-2.85664E-05 1.70660E-09-6.82812E-19-2.97509E-19
 -1      2086 9.52437E-05-2.85889E-05-2.85663E-05 6.79531E-10-7.56332E-19 3.28106E-19
 -1      2087 9.52440E-05-2.85877E-05-2.85670E-05 1.11686E-11-1.87767E-18-3.97753E-19
 -1      2088 9.52430E-05-2.85872E-05-2.85667E-05 3.87715E-09-5.18762E-19-1.50507E-18
 -1      2089 9.52434E-05-2.85881E-05-2.85665E-05 2.97058E-09-8.52312E-19-6.29014E-19
 -1      2090 9.52438E-05-2.85872E-05-2.85671E-05 2.93197E-09-1.54124E-18-3.96440E-19
 -1      2091 9.52420E-05-2.85850E-05-2.85673E-05 5.56021E-09-2.21171E-19-1.21937E-18
 -1      2092 9.52426E-05-2.85863E-05-2.85669E-05 4.89921E-09-5.02238E-19-1.90551E-18
 -1      2093 9.52430E-05-2.85858E-05-2.85674E-05 5.49719E-09-8.17861E-19-1.94710E-18
 -1      2094 9.52407E-05-2.85821E-05-2.85680E-05 6.56707E-09 9.38656E-19 2.20611E-18
 -1      2095 9.52414E-05-2.85837E-05-2.85676E-05 6.23649E-09 4.50679E-19 1.72060E-18
 -1      2096 9.52418E-05-2.85836E-05-2.85678E-05 7.40866E-09 3.31727E-19 7.66587E-19
 -1      2097 9.52392E-05-2.85789E-05-2.85687E-05 6.65983E-09 4.59533E-19 3.83797E-19
 -1      2098 9.52400E-05-2.85806E-05-2.85683E-05 6.75755E-09 1.08202E-18 5.27121E-19
 -1      2099 9.52403E-05-2.85809E-05-2.85683E-05 8.38952E-09 1.07183E-18 1.41664E-18
 -1      2100 9.52377E-05-2.85757E-05-2.85694E-05 5.73080E-09 3.66463E-19 6.51501E-20
 -1      2101 9.52385E-05-2.85774E-05-2.85690E-05 6.27097E-09-9.00892E-20-2.26930E-19
 -1      2102 9.52385E-05-2.85778E-05-2.85689E-05 8.19738E-09-4.14310E-19-1.35596E-19
 -1      2103 1.03820E-04-3.09996E-05-3.11892E-05 2.39501E-06 1.12477E-18 5.19521E-18
 -1      2104 1.04932E-04-3.09525E-05-3.16579E-05 2.93989E-06 1.27068E-18 5.75069E-18
 -1      2105 1.05220E-04-3.05153E-05-3.20079E-05 4.16372E-06 1.52105E-18 4.47935E-18
 -1      2106 1.04159E-04-3.11325E-05-3.12963E-05 3.39847E-06 1.28501E-18 3.74623E-18
 -1      2107 5.56059E-05-3.78251E-05-8.12791E-06 4.17259E-05 4.75482E-18 4.67607E-18
 -1      2108 4.06460E-05-4.06557E-05-1.49946E-06 3.34717E-05 3.96920E-18 5.29925E-18
 -1      2109 1.31432E-04-3.91697E-05-3.89422E-05 4.00840E-05 5.94405E-18 2.55719E-18
 -1      2110 1.11041E-04-4.06103E-05-3.07654E-05 3.86570E-05 5.91441E-18 3.43302E-18
 -1      2111 1.23088E-05-3.46480E-05 8.18071E-06 8.75350E-06 2.45830E-18 7.10999E-18
 -1      2112 1.20537E-05-3.54863E-05 8.54885E-06-1.67884E-07 7.30566E-19 6.48192E-18
 -1      2113 9.47725E-05-4.01037E-05-2.33450E-05 4.52810E-05 5.70561E-18 4.28768E-18
 -1      2114 7.62149E-05-4.29507E-05-1.52945E-05 4.04579E-05 5.02545E-18 4.09816E-18
 -1      2115 8.21753E-05-5.29498E-06-3.30653E-05-3.08531E-06-9.74075E-19-3.09847E-18
 -1      2116 8.60953E-05-6.81318E-06-3.40113E-05-4.01835E-06-1.25333E-18-2.80770E-18
 -1      2117 8.99627E-05-1.10049E-05-3.39042E-05-3.09817E-06-1.41586E-18-2.38342E-18
 -1      2118 8.11653E-05-5.94160E-06-3.22473E-05-2.25619E-06-8.87922E-19-3.00469E-18
 -1      2119 1.61190E-04-3.54879E-05-5.28216E-05 2.71500E-05 5.89709E-18 7.28872E-19
 -1      2120 1.43355E-04-3.63941E-05-4.58204E-05 2.99519E-05 6.34639E-18 1.72287E-18
 -1      2121 1.80475E-04-2.95183E-05-6.33332E-05 1.49661E-05 4.70548E-18 4.05729E-19
 -1      2122 1.67542E-04-2.92841E-05-5.86127E-05 2.11883E-05 5.50974E-18 1.02703E-18
 -1      2123 1.84227E-04-2.42559E-05-6.75465E-05 1.11515E-06 5.02968E-18-1.34096E-18
 -1      2124 1.82436E-04-2.51081E-05-6.61842E-05 9.91440E-06 5.05467E-18-1.48231E-20
 -1      2125 1.71636E-04-2.15939E-05-6.39189E-05-6.84782E-06 4.89712E-18-1.91302E-18
 -1      2126 1.80386E-04-2.26582E-05-6.64360E-05-1.49050E-06 4.77727E-18-1.42254E-18
 -1      2127 1.60376E-04-3.11491E-05-5.51141E-05-1.83240E-05 4.49753E-18-3.26785E-18
 -1      2128 1.70418E-04-2.88711E-05-6.01121E-05-1.10924E-05 4.55704E-18-2.10149E-18
 -1      2129 1.37016E-04-3.87141E-05-4.24151E-05-3.04489E-05 3.79937E-18-4.39568E-18
 -1      2130 1.54698E-04-3.78969E-05-4.94960E-05-2.66283E-05 3.87083E-18-3.60201E-18
 -1      2131 1.07294E-04-4.11063E-05-2.89703E-05-3.84468E-05 3.76760E-18-4.99368E-18
 -1      2132 1.27406E-04-4.02246E-05-3.68863E-05-3.98151E-05 4.05644E-18-4.92677E-18
 -1      2133 1.40494E-04-4.87978E-05-3.87478E-05-2.21599E-05 1.55939E-18-1.57718E-18
 -1      2134 6.76283E-05-4.00389E-05-1.30428E-05-3.97817E-05 2.91379E-18-5.40576E-18
 -1      2135 8.54740E-05-3.76638E-05-2.06263E-05-4.55441E-05 3.83748E-18-5.90467E-18
 -1      2136 3.78117E-05-3.75347E-05-1.42904E-06-3.33216E-05 8.97008E-19-5.39009E-18
 -1      2137 5.13663E-05-3.58146E-05-7.22533E-06-4.04108E-05 2.46021E-18-5.75321E-18
 -1      2138 1.58186E-05-3.35096E-05 6.12487E-06-1.62714E-05-7.53224E-19-5.46040E-18
 -1      2139 2.23904E-05-3.10785E-05 2.81379E-06-2.61514E-05 8.33480E-19-5.61646E-18
 -1      2140 1.19650E-05-2.85990E-05 6.13188E-06 4.29377E-06-1.57580E-18-5.74034E-18
 -1      2141 1.16718E-05-3.20136E-05 7.25461E-06-6.40753E-06-6.08170E-19-5.63362E-18
 -1      2142 1.58758E-05-2.14303E-05 1.84144E-06-1.43671E-05-6.83344E-19-6.18419E-18
 -1      2143 3.13101E-05-3.67347E-05 9.96634E-07 2.66659E-05-3.83621E-18-5.72128E-18
 -1      2144 2.11241E-05-3.36403E-05 4.15362E-06 1.92122E-05-2.05363E-18-5.50656E-18
 -1      2145 6.69745E-05-4.34153E-05-1.08773E-05 3.97592E-05-3.30512E-18-4.67200E-18
 -1      2146 4.72224E-05-4.25276E-05-3.67279E-06 3.10841E-05-3.73372E-18-5.09596E-18
 -1      2147 4.82096E-05-3.68078E-05-5.19911E-06 3.58131E-05-8.05105E-19-4.85350E-18
 -1      2148 1.11486E-04-4.84083E-05-2.68351E-05 3.96171E-05-5.23636E-18-4.69934E-18
 -1      2149 9.26341E-05-4.99348E-05-1.87624E-05 3.75794E-05-3.94463E-18-4.23538E-18
 -1      2150 1.47562E-04-4.54824E-05-4.30052E-05 3.31017E-05-6.23670E-18-4.45582E-18
 -1      2151 1.25432E-04-4.69256E-05-3.42891E-05 3.21753E-05-6.03892E-18-4.82639E-18
 -1      2152 1.73280E-04-4.00914E-05-5.63820E-05 1.22807E-05-5.70456E-18-2.79479E-18
 -1      2153 1.59370E-04-4.19731E-05-4.97816E-05 2.24218E-05-6.36206E-18-4.04289E-18
 -1      2154 1.56142E-04-5.06438E-05-4.45392E-05 1.27581E-05-4.75281E-18-1.59708E-18
 -1      2155 1.87190E-04-2.85096E-05-6.61861E-05 3.21607E-06-5.88222E-18-1.00289E-18
 -1      2156 1.74371E-04-2.98965E-05-6.13595E-05 4.74661E-06-5.97328E-18-1.67797E-18
 -1      2157 1.93171E-04-2.80085E-05-6.90608E-05-1.99926E-06-5.13344E-18-5.16902E-19
 -1      2158 1.90417E-04-2.71500E-05-6.87182E-05 3.27243E-06-5.53240E-18-1.50454E-18
 -1      2159 1.85260E-04-3.20589E-05-6.44845E-05-9.95016E-06-4.54730E-18 8.55503E-19
 -1      2160 1.93696E-04-3.13318E-05-6.78858E-05-4.08781E-06-4.91491E-18-5.01655E-19
 -1      2161 1.66318E-04-3.98490E-05-5.38146E-05-1.78764E-05-4.25989E-18 2.07184E-18
 -1      2162 1.81784E-04-3.87267E-05-5.99199E-05-1.38133E-05-4.23951E-18 1.27817E-18
 -1      2163 1.37560E-04-4.51949E-05-3.99552E-05-2.91069E-05-3.84172E-18 2.97859E-18
 -1      2164 1.58022E-04-4.45267E-05-4.77205E-05-2.79843E-05-3.91160E-18 2.77234E-18
 -1      2165 1.04627E-04-4.94189E-05-2.46323E-05-3.44439E-05-3.93193E-18 1.82154E-18
 -1      2166 1.25129E-04-4.83875E-05-3.26050E-05-3.64137E-05-3.66977E-18 2.20059E-18
 -1      2167 6.66948E-05-4.64390E-05-1.01493E-05-3.46843E-05-3.46055E-18 3.94686E-18
 -1      2168 8.47495E-05-4.49953E-05-1.74302E-05-4.02762E-05-4.03230E-18 3.03746E-18
 -1      2169 3.80456E-05-4.13256E-05 1.54095E-07-2.90588E-05-1.34297E-18 5.15229E-18
 -1      2170 5.05295E-05-4.14908E-05-4.80345E-06-3.44013E-05-3.04339E-18 5.45997E-18
 -1      2171 7.10324E-05-4.77885E-05-1.04352E-05-3.96932E-05-3.54060E-19 3.34832E-18
 -1      2172 1.54813E-05-3.81914E-05 7.83067E-06-9.69776E-06 6.71697E-19 5.85088E-18
 -1      2173 2.17715E-05-3.56182E-05 4.65886E-06-1.94528E-05-2.86297E-19 5.39391E-18
 -1      2174 2.64072E-05-3.48683E-05 2.66568E-06 2.82604E-05 3.37924E-18 5.72743E-18
 -1      2175 1.87315E-05-3.66863E-05 6.20638E-06 1.95091E-05 1.74192E-18 6.19774E-18
 -1      2176 9.52362E-05-2.85729E-05-2.85700E-05 4.10947E-09-6.17714E-19 4.20355E-19
 -1      2177 1.15675E-04-5.14671E-05-2.73563E-05 3.73361E-05 3.27039E-18 1.20702E-18
 -1      2178 1.12949E-04-2.89036E-05-3.60756E-05-2.38838E-06-1.79695E-18 5.42816E-19
 -1      2179 7.76942E-05-4.66058E-05-1.35655E-05 4.46670E-05 1.94733E-18 3.10848E-18
 -1      2180 1.43185E-04-4.64272E-05-4.08864E-05 2.21411E-05 4.30769E-18-7.23366E-19
 -1      2181 1.09126E-04-2.65476E-05-3.54869E-05-1.09224E-06-1.87837E-18-3.31150E-19
 -1      2182 9.52365E-05-2.85743E-05-2.85695E-05-6.28387E-09-7.80160E-19-7.65613E-19
 -1      2183 1.81320E-05-2.60621E-05 2.76609E-06 1.80096E-05 6.48510E-19 6.51030E-18
 -1      2184 9.52366E-05-2.85740E-05-2.85697E-05 4.95311E-09-5.58264E-20 6.37150E-19
 -1      2185 4.07061E-05-3.50786E-05-2.92287E-06 3.77060E-05 7.28872E-19 5.20142E-18
 -1      2186 1.53130E-05-2.61092E-05 3.89652E-06-6.95871E-06 9.18607E-19 6.86901E-18
 -1      2187 3.46927E-05-3.61839E-05-4.38641E-08-2.76186E-05 2.00747E-19 5.19803E-18
 -1      2188 4.80692E-05-3.60618E-05-5.49968E-06-3.63995E-05 1.24133E-18 5.04874E-18
 -1      2189 3.13346E-05-2.78065E-05-1.34439E-06-2.69140E-05 1.46727E-18 5.01994E-18
 -1      2190 1.08952E-04-5.72047E-05-2.22387E-05-3.56816E-05-1.29088E-18 1.82112E-20
 -1      2191 1.41173E-04-5.73912E-05-3.56363E-05-2.16178E-05-1.65637E-18-7.41154E-20
 -1      2192 1.61762E-04-4.68722E-05-4.84445E-05-7.04721E-06-2.93984E-18-2.92226E-20
 -1      2193 1.70676E-04-3.19680E-05-5.82808E-05 2.59297E-06-4.50960E-18-9.72394E-19
 -1      2194 1.71405E-04-1.95412E-05-6.35564E-05 2.86356E-06-5.32995E-18-1.57188E-18
 -1      2195 1.69228E-04-3.58411E-05-5.67241E-05 2.07470E-07-5.56289E-18-1.06641E-18
 -1      2196 1.58858E-04-3.89627E-05-5.11825E-05-6.52456E-06-4.79992E-18 2.71051E-19
 -1      2197 1.55436E-04-2.76913E-05-5.55127E-05-1.10801E-05-5.18130E-18 7.13202E-19
 -1      2198 8.72805E-05-4.98941E-05-1.63188E-05 3.88252E-05-2.06718E-18-3.65346E-18
 -1      2199 8.43083E-05-4.84155E-05-1.48750E-05 4.07687E-05 6.07746E-20-2.60314E-18
 -1      2200 1.07066E-04-5.72233E-05-2.18871E-05 3.56604E-05-1.85288E-19-1.86967E-18
 -1      2201 1.93343E-05-2.62768E-05 2.40610E-06 1.34235E-05-1.07457E-18-5.72213E-18
 -1      2202 1.87461E-05-1.62191E-05-7.92666E-07 7.77038E-06-2.53739E-19-5.64463E-18
 -1      2203 2.73144E-05-2.20637E-05-2.42718E-06 2.28893E-05 2.45216E-19-5.34224E-18
 -1      2204 3.67440E-05-3.08974E-05-2.97776E-06-3.58817E-05-5.98641E-19-5.82610E-18
 -1      2205 1.10888E-04-5.00566E-05-2.59462E-05-3.89687E-05 1.28198E-18-3.68756E-18
 -1      2206 1.53173E-04-3.70329E-05-4.90440E-05-6.87545E-06 2.93857E-18-8.22893E-19
 -1      2207 1.57076E-04-2.00459E-05-5.80274E-05 1.04824E-06 4.56635E-18-3.37119E-19
 -1      2208 1.60181E-04-1.23407E-05-6.24222E-05 1.09821E-06 5.22831E-18-7.36336E-19
 -1      2209 1.57811E-04-3.29438E-05-5.26148E-05 7.89652E-06 5.16150E-18-8.14846E-19
 -1      2210 1.64092E-04-1.93503E-05-6.08029E-05 2.13835E-06 5.45574E-18-6.64921E-19
 -1      2211 7.10071E-05-4.28630E-05-1.24095E-05-4.46248E-05 2.68086E-19-4.92446E-18
 -1      2212 1.30565E-04-5.84077E-05-3.10937E-05 2.79555E-05-3.15181E-18-2.46360E-18
 -1      2213 1.66608E-04-1.84512E-05-6.23014E-05-4.11344E-06-5.79116E-18-6.72544E-19
 -1      2214 9.52363E-05-2.85744E-05-2.85694E-05 6.96193E-09 6.97831E-19 6.89646E-19
 -1      2215 7.03887E-05-1.75785E-06-2.94283E-05-4.08111E-06 1.65947E-19-3.18548E-18
 -1      2216 7.12390E-05-2.01001E-06-2.96937E-05-3.39940E-06-8.88863E-20-3.26697E-18
 -1      2217 7.30788E-05-2.99515E-06-3.00887E-05-2.04586E-06-2.18065E-19-3.21171E-18
 -1      2218 7.57182E-05-4.24437E-06-3.06373E-05-1.55626E-06-5.09791E-19-3.06843E-18
 -1      2219 7.20850E-05-3.48911E-06-2.93519E-05-2.30431E-06-6.20282E-20-3.04193E-18
 -1      2220 7.49935E-05-5.45969E-06-2.97684E-05-6.14206E-06 8.39893E-19-2.70753E-18
 -1      2221 7.29824E-05-4.24375E-06-2.95184E-05-6.31486E-06 6.05065E-19-2.88140E-18
 -1      2222 8.01338E-05-8.84812E-06-3.05263E-05-4.91076E-06 1.18174E-18-2.47772E-18
 -1      2223 7.75732E-05-7.41561E-06-3.01256E-05-5.77291E-06 9.90049E-19-2.61677E-18
 -1      2224 7.71527E-05-8.31667E-06-2.95187E-05-7.13788E-06 8.38381E-19-2.53808E-18
 -1      2225 8.54307E-05-1.20953E-05-3.14271E-05-2.32671E-06 1.51307E-18-2.05120E-18
 -1      2226 8.28890E-05-1.07473E-05-3.09679E-05-3.71972E-06 1.27798E-18-2.34123E-18
 -1      2227 8.29001E-05-1.21904E-05-3.03409E-05-5.43328E-06 1.10933E-18-2.22643E-18
 -1      2228 9.03684E-05-1.49493E-05-3.23511E-05 1.14646E-06 1.94309E-18-1.22284E-18
 -1      2229 8.80262E-05-1.37340E-05-3.18844E-05-5.98212E-07 1.66953E-18-1.66836E-18
 -1      2230 8.85289E-05-1.57031E-05-3.12500E-05-2.36158E-06 1.48376E-18-1.65406E-18
 -1      2231 9.47520E-05-1.75025E-05-3.31747E-05 4.82473E-06 2.33599E-18-2.53322E-19
 -1      2232 9.26400E-05-1.63218E-05-3.27548E-05 3.00507E-06 2.06152E-18-7.50445E-19
 -1      2233 9.34959E-05-1.86397E-05-3.21061E-05 1.31418E-06 1.86725E-18-8.11921E-19
 -1      2234 9.89599E-05-2.03456E-05-3.38112E-05 7.99183E-06 2.50004E-18 8.59752E-19
 -1      2235 9.68228E-05-1.88427E-05-3.34779E-05 6.43368E-06 2.36727E-18 2.12499E-19
 -1      2236 9.77420E-05-2.12370E-05-3.27907E-05 4.76223E-06 2.11782E-18 1.37014E-19
 -1      2237 1.03618E-04-2.43293E-05-3.40919E-05 9.60629E-06 2.34494E-18 2.61105E-18
 -1      2238 1.01141E-04-2.19967E-05-3.39545E-05 8.99560E-06 2.42218E-18 1.58464E-18
 -1      2239 1.01746E-04-2.41458E-05-3.32068E-05 7.09709E-06 2.16512E-18 1.22937E-18
 -1      2240 1.06533E-04-2.80483E-05-3.37105E-05 8.26004E-06 2.01731E-18 4.30049E-18
 -1      2241 1.04815E-04-2.56546E-05-3.39263E-05 9.26138E-06 2.18803E-18 3.32165E-18
 -1      2242 1.04305E-04-2.70435E-05-3.31255E-05 7.19970E-06 2.14986E-18 2.49635E-18
 -1      2243 1.05592E-04-2.93324E-05-3.27062E-05 5.78224E-06 1.81579E-18 3.94496E-18
 -1      2244 1.07210E-04-2.78002E-05-3.39607E-05 4.74249E-06-1.30293E-18-6.25275E-19
 -1      2245 1.07982E-04-2.93946E-05-3.36839E-05 6.95591E-06-9.84338E-19-5.56110E-19
 -1      2246 9.37271E-05-5.04771E-05-1.86013E-05 4.44751E-05 4.38340E-19 8.90020E-19
 -1      2247 7.38389E-05-4.45339E-05-1.23938E-05 4.43325E-05-9.06325E-20 2.05210E-18
 -1      2248 1.26963E-04-5.53949E-05-3.08653E-05 3.06451E-05 1.96808E-18-1.40544E-18
 -1      2249 1.11942E-04-5.50073E-05-2.43651E-05 3.59718E-05 1.23032E-18-5.03138E-19
 -1      2250 1.09107E-04-3.11328E-05-3.33236E-05 8.85690E-06-6.10248E-19-3.07877E-19
 -1      2251 1.10665E-04-3.31658E-05-3.32295E-05 9.60569E-06-2.22756E-19-2.60525E-19
 -1      2252 1.03890E-04-2.79359E-05-3.26109E-05 8.63504E-06-7.67427E-19-8.69502E-19
 -1      2253 1.12946E-04-3.56819E-05-3.29895E-05 1.02611E-05 1.34245E-19-1.64080E-20
 -1      2254 1.15390E-04-3.85287E-05-3.29943E-05 9.32427E-06 4.32351E-19 6.06489E-20
 -1      2255 1.07203E-04-3.30652E-05-3.18774E-05 1.16850E-05 2.75253E-20-6.47115E-19
 -1      2256 1.19485E-04-4.21214E-05-3.29880E-05 8.01344E-06 5.69474E-19 4.53149E-19
 -1      2257 1.22515E-04-4.53279E-05-3.31805E-05 5.00324E-06 4.46836E-19 5.44745E-19
 -1      2258 1.13509E-04-4.04235E-05-3.14874E-05 1.17643E-05 6.36830E-19 1.07732E-20
 -1      2259 1.28249E-04-4.90108E-05-3.38097E-05 9.02678E-07 2.57743E-19 1.01416E-18
 -1      2260 1.30708E-04-5.05597E-05-3.44871E-05-3.86787E-06-3.76943E-19 1.21028E-18
 -1      2261 1.23386E-04-4.92217E-05-3.20237E-05 7.16180E-06 4.83259E-19 6.59495E-19
 -1      2262 1.36456E-04-5.15698E-05-3.64579E-05-1.06550E-05-9.28745E-19 1.70264E-18
 -1      2263 1.35464E-04-4.76858E-05-3.77646E-05-1.50683E-05-1.52850E-18 1.83212E-18
 -1      2264 1.35456E-04-5.49847E-05-3.48196E-05-2.93192E-06-3.66077E-19 1.69908E-18
 -1      2265 1.39912E-04-3.87692E-05-4.37354E-05-1.85071E-05-3.05652E-18 1.83499E-18
 -1      2266 1.37174E-04-3.00695E-05-4.63849E-05-1.72055E-05-3.77840E-18 1.21067E-18
 -1      2267 1.35408E-04-2.33203E-05-4.84680E-05-9.86294E-06-3.89720E-18 2.90771E-19
 -1      2268 1.26602E-04-1.77614E-05-4.70792E-05 4.62482E-06-3.04847E-18-1.69788E-18
 -1      2269 1.29388E-04-2.33905E-05-4.62565E-05 1.35687E-05-3.02857E-18-2.61580E-18
 -1      2270 1.32465E-04-3.11107E-05-4.36588E-05 1.92947E-05-2.27407E-18-3.56278E-18
 -1      2271 1.36007E-04-4.03442E-05-4.16074E-05 2.07556E-05-1.08060E-18-4.05856E-18
 -1      2272 1.35695E-04-4.66406E-05-3.82935E-05 1.68001E-05 2.01382E-19-4.14903E-18
 -1      2273 1.36296E-04-5.10779E-05-3.66692E-05 1.24345E-05 8.71226E-19-3.77480E-18
 -1      2274 1.31237E-04-5.08073E-05-3.46271E-05 5.57766E-06 1.06993E-18-3.41900E-18
 -1      2275 1.28999E-04-4.97202E-05-3.38616E-05 3.80010E-07 1.31783E-18-3.10713E-18
 -1      2276 1.35624E-04-5.45524E-05-3.49967E-05 5.28000E-06 1.26585E-18-3.77779E-18
 -1      2277 1.23197E-04-4.62876E-05-3.30878E-05-4.45398E-06 1.11900E-18-2.56338E-18
 -1      2278 1.20052E-04-4.32347E-05-3.27839E-05-8.04614E-06 9.98304E-19-2.10836E-18
 -1      2279 1.24512E-04-5.02363E-05-3.20126E-05-6.07965E-06 1.41765E-18-2.62420E-18
 -1      2280 1.15679E-04-3.97932E-05-3.25978E-05-1.02031E-05 8.03616E-19-1.37529E-18
 -1      2281 1.12843E-04-3.70228E-05-3.24097E-05-1.19111E-05 9.33576E-19-1.18759E-18
 -1      2282 1.14293E-04-4.20368E-05-3.11169E-05-1.22940E-05 1.32393E-18-1.31072E-18
 -1      2283 1.10154E-04-3.46959E-05-3.23697E-05-1.23308E-05 7.42027E-19-9.10443E-19
 -1      2284 1.07922E-04-3.28107E-05-3.21514E-05-1.26862E-05 7.37817E-19-9.15040E-19
 -1      2285 1.07352E-04-3.52160E-05-3.10071E-05-1.43112E-05 7.48885E-19-4.48585E-19
 -1      2286 1.06412E-04-3.15349E-05-3.20900E-05-1.22070E-05 6.62049E-19-1.25908E-18
 -1      2287 1.04700E-04-3.04208E-05-3.18214E-05-1.17999E-05 2.77438E-19-9.61915E-19
 -1      2288 1.03249E-04-3.09733E-05-3.10199E-05-1.39526E-05 5.20790E-19-4.92690E-19
 -1      2289 1.03853E-04-2.98333E-05-3.17050E-05-1.09477E-05-3.99857E-19-1.43190E-18
 -1      2290 1.02516E-04-2.92212E-05-3.14116E-05-1.02040E-05-6.68234E-19-1.59819E-18
 -1      2291 1.00935E-04-2.87870E-05-3.09379E-05-1.24747E-05-1.24033E-19-1.38089E-18
 -1      2292 1.01998E-04-2.90083E-05-3.12560E-05-9.26155E-06-9.05907E-19-9.25922E-19
 -1      2293 1.00933E-04-2.86827E-05-3.09680E-05-8.43659E-06-6.18332E-19-4.14578E-19
 -1      2294 9.95758E-05-2.78573E-05-3.07411E-05-1.05968E-05-3.55712E-19-1.64212E-18
 -1      2295 1.00568E-04-2.86454E-05-3.07973E-05-7.54426E-06-5.90288E-19-3.80470E-19
 -1      2296 9.97102E-05-2.84719E-05-3.05352E-05-6.76869E-06-8.62352E-20-6.32511E-19
 -1      2297 9.86843E-05-2.75852E-05-3.04715E-05-8.70028E-06-4.31995E-19-7.66766E-19
 -1      2298 9.94212E-05-2.85034E-05-3.03683E-05-5.98629E-06-5.73418E-20-1.29275E-18
 -1      2299 9.87303E-05-2.84082E-05-3.01419E-05-5.31436E-06-2.20363E-19-2.10075E-18
 -1      2300 9.80195E-05-2.76102E-05-3.01754E-05-6.96991E-06-7.13720E-19-7.64902E-19
 -1      2301 9.84861E-05-2.84582E-05-2.99902E-05-4.65865E-06 2.05506E-19-2.68539E-18
 -1      2302 9.79341E-05-2.84032E-05-2.98019E-05-4.10325E-06 4.00616E-19-2.35509E-18
 -1      2303 9.74773E-05-2.77440E-05-2.98864E-05-5.47917E-06-2.92476E-19-1.49831E-18
 -1      2304 9.77247E-05-2.84512E-05-2.96705E-05-3.56959E-06 3.28652E-19-2.70823E-18
 -1      2305 9.72888E-05-2.84177E-05-2.95181E-05-3.12385E-06 2.94511E-19-2.40686E-18
 -1      2306 9.70183E-05-2.78988E-05-2.96242E-05-4.24093E-06 1.04844E-19-2.27401E-18
 -1      2307 9.71109E-05-2.84573E-05-2.94084E-05-2.69829E-06-7.74506E-20-2.45194E-18
 -1      2308 9.67711E-05-2.84363E-05-2.92876E-05-2.34760E-06-5.62021E-19-2.39429E-18
 -1      2309 9.66287E-05-2.80396E-05-2.93974E-05-3.23786E-06-7.52457E-20-2.76531E-18
 -1      2310 9.66232E-05-2.84670E-05-2.91982E-05-2.01339E-06-9.66874E-19-2.06885E-18
 -1      2311 9.63620E-05-2.84537E-05-2.91043E-05-1.74149E-06-1.41449E-18-2.35442E-18
 -1      2312 9.63027E-05-2.81563E-05-2.92079E-05-2.44005E-06-6.08045E-19-3.04597E-18
 -1      2313 9.62417E-05-2.84770E-05-2.90330E-05-1.48230E-06-1.36317E-18-1.69735E-18
 -1      2314 9.60439E-05-2.84691E-05-2.89610E-05-1.27398E-06-1.27649E-18-2.05991E-18
 -1      2315 9.60356E-05-2.82491E-05-2.90537E-05-1.81459E-06-1.27841E-18-2.49695E-18
 -1      2316 9.59483E-05-2.84866E-05-2.89052E-05-1.07522E-06-1.15630E-18-1.26151E-18
 -1      2317 9.58008E-05-2.84826E-05-2.88508E-05-9.17340E-07-6.16492E-19-9.71022E-19
 -1      2318 9.58214E-05-2.83215E-05-2.89306E-05-1.33026E-06-1.12619E-18-1.72678E-18
 -1      2319 9.57265E-05-2.84960E-05-2.88078E-05-7.66609E-07-1.59553E-19-9.12109E-19
 -1      2320 9.56184E-05-2.84947E-05-2.87673E-05-6.48256E-07-1.68517E-20-3.27717E-19
 -1      2321 9.56535E-05-2.83779E-05-2.88343E-05-9.59498E-07-6.55705E-19-1.54510E-18
 -1      2322 9.55619E-05-2.85050E-05-2.87347E-05-5.35268E-07-7.57914E-19-1.69702E-18
 -1      2323 9.54843E-05-2.85056E-05-2.87051E-05-4.47595E-07-8.27339E-19-2.02235E-18
 -1      2324 9.55248E-05-2.84218E-05-2.87600E-05-6.78920E-07-8.29901E-19-1.00416E-18
 -1      2325 9.54423E-05-2.85138E-05-2.86807E-05-3.63981E-07-3.29888E-19-2.93066E-18
 -1      2326 9.53877E-05-2.85156E-05-2.86594E-05-2.99907E-07 6.96160E-20-3.01806E-18
 -1      2327 9.54283E-05-2.84562E-05-2.87036E-05-4.69182E-07-1.01152E-18-2.75204E-18
 -1      2328 9.53573E-05-2.85221E-05-2.86415E-05-2.38935E-07 4.64104E-19-3.40852E-18
 -1      2329 9.53201E-05-2.85246E-05-2.86265E-05-1.92847E-07 7.96978E-19-3.89307E-18
 -1      2330 9.53576E-05-2.84832E-05-2.86615E-05-3.14523E-07-2.01664E-19-2.94539E-18
 -1      2331 9.52986E-05-2.85298E-05-2.86136E-05-1.49149E-07 6.10039E-19-4.32778E-18
 -1      2332 9.52741E-05-2.85327E-05-2.86034E-05-1.16632E-07-1.64345E-19-3.88959E-18
 -1      2333 9.53072E-05-2.85043E-05-2.86306E-05-2.02249E-07 2.64239E-19-3.96555E-18
 -1      2334 9.52594E-05-2.85369E-05-2.85943E-05-8.59650E-08-2.53473E-19-3.36242E-18
 -1      2335 9.52441E-05-2.85399E-05-2.85874E-05-6.35685E-08-2.82221E-19-3.03718E-18
 -1      2336 9.52722E-05-2.85209E-05-2.86083E-05-1.22242E-07 4.00722E-20-2.72923E-18
 -1      2337 9.52345E-05-2.85432E-05-2.85812E-05-4.26052E-08-5.46319E-19-2.70171E-18
 -1      2338 9.52257E-05-2.85461E-05-2.85769E-05-2.76542E-08 8.44395E-20-2.31673E-18
 -1      2339 9.52490E-05-2.85339E-05-2.85926E-05-6.65009E-08 2.11553E-19-1.45709E-18
 -1      2340 9.52198E-05-2.85488E-05-2.85728E-05-1.38100E-08 8.75530E-19-1.37384E-18
 -1      2341 9.52155E-05-2.85514E-05-2.85703E-05-4.24827E-09 1.10368E-18 1.05946E-19
 -1      2342 9.52342E-05-2.85440E-05-2.85819E-05-2.87605E-08 1.00510E-18-1.00728E-18
 -1      2343 9.52121E-05-2.85535E-05-2.85677E-05 4.46450E-09 1.06957E-18 2.73583E-19
 -1      2344 9.52108E-05-2.85558E-05-2.85664E-05 1.02012E-08 1.23020E-18 7.81451E-19
 -1      2345 9.52256E-05-2.85517E-05-2.85748E-05-4.16207E-09 1.06478E-18 4.81929E-19
 -1      2346 9.52093E-05-2.85575E-05-2.85648E-05 1.52935E-08 2.74776E-19 6.18256E-19
 -1      2347 9.52098E-05-2.85595E-05-2.85644E-05 1.83807E-08 9.77216E-19 6.04899E-19
 -1      2348 9.52213E-05-2.85575E-05-2.85703E-05 1.10206E-08 9.23250E-19 7.02307E-19
 -1      2349 9.52095E-05-2.85608E-05-2.85636E-05 2.09847E-08 1.32954E-18 6.49022E-22
 -1      2350 9.52111E-05-2.85625E-05-2.85637E-05 2.22924E-08 1.27825E-18 2.61172E-19
 -1      2351 9.52198E-05-2.85619E-05-2.85678E-05 1.96090E-08 6.50436E-19-1.95187E-19
 -1      2352 9.52115E-05-2.85634E-05-2.85634E-05 2.32426E-08 1.29972E-18 2.23834E-19
 -1      2353 9.52138E-05-2.85649E-05-2.85638E-05 2.34022E-08 1.42637E-18 1.97369E-19
 -1      2354 9.52201E-05-2.85652E-05-2.85665E-05 2.37074E-08 1.10378E-18-8.28403E-19
 -1      2355 9.52147E-05-2.85656E-05-2.85639E-05 2.32999E-08 7.75464E-19-5.03420E-19
 -1      2356 9.52171E-05-2.85668E-05-2.85644E-05 2.27573E-08 3.74232E-20-1.85722E-19
 -1      2357 9.52215E-05-2.85676E-05-2.85661E-05 2.48555E-08 8.03570E-19-1.19264E-18
 -1      2358 9.52182E-05-2.85674E-05-2.85647E-05 2.20226E-08-2.96169E-19 1.38725E-18
 -1      2359 9.52207E-05-2.85683E-05-2.85653E-05 2.10800E-08-9.59577E-19 1.81087E-18
 -1      2360 9.52236E-05-2.85693E-05-2.85662E-05 2.41518E-08 5.38611E-19-1.39314E-18
 -1      2361 9.52218E-05-2.85688E-05-2.85656E-05 1.99921E-08-1.84442E-18 2.00314E-18
 -1      2362 9.52242E-05-2.85696E-05-2.85663E-05 1.88397E-08-1.27619E-18 2.07304E-18
 -1      2363 9.52259E-05-2.85705E-05-2.85666E-05 2.23517E-08-7.12178E-19 1.39052E-18
 -1      2364 9.52253E-05-2.85700E-05-2.85666E-05 1.75692E-08-6.96471E-19 6.26957E-19
 -1      2365 9.52275E-05-2.85707E-05-2.85672E-05 1.63103E-08-5.98637E-19 5.14371E-19
 -1      2366 9.52283E-05-2.85715E-05-2.85672E-05 1.99449E-08-1.66587E-18 1.64096E-18
 -1      2367 9.52285E-05-2.85710E-05-2.85675E-05 1.49434E-08-7.70878E-19 3.02339E-19
 -1      2368 9.52304E-05-2.85716E-05-2.85680E-05 1.36156E-08-1.57775E-18 3.81611E-21
 -1      2369 9.52305E-05-2.85723E-05-2.85678E-05 1.72165E-08-1.34616E-18-5.54486E-19
 -1      2370 9.52314E-05-2.85720E-05-2.85683E-05 1.21671E-08-7.84365E-19 9.54923E-19
 -1      2371 9.52330E-05-2.85726E-05-2.85688E-05 1.07700E-08 6.14115E-20 7.28627E-19
 -1      2372 9.52327E-05-2.85731E-05-2.85684E-05 1.42999E-08-1.02258E-18 1.18280E-18
 -1      2373 9.52341E-05-2.85733E-05-2.85690E-05 9.69560E-09-2.61644E-19 1.64527E-18
 -1      2374 9.52354E-05-2.85738E-05-2.85693E-05 8.18085E-09 4.13321E-19 9.56842E-19
 -1      2375 9.52368E-05-2.85756E-05-2.85691E-05 9.09323E-09-4.28513E-19 1.78263E-18
 -1      2376 9.52349E-05-2.85742E-05-2.85688E-05 1.16070E-08 1.10214E-19 2.90898E-18
 -1      2377 1.01838E-04-3.14806E-05-3.01504E-05 6.91590E-06 1.01017E-18 1.86625E-18
 -1      2378 1.02810E-04-3.20922E-05-3.03104E-05 6.35721E-06 1.00644E-18 2.06100E-18
 -1      2379 1.03141E-04-3.22946E-05-3.03823E-05 5.53150E-06 9.14082E-19 1.97550E-18
 -1      2380 1.03875E-04-3.24355E-05-3.05921E-05 4.89297E-06 8.07964E-19 2.08935E-18
 -1      2381 1.04749E-04-3.30937E-05-3.06987E-05 6.57107E-06 9.89955E-19 1.65499E-18
 -1      2382 1.03897E-04-3.21545E-05-3.07703E-05 4.28904E-06 9.42463E-19 2.20333E-18
 -1      2383 1.04444E-04-3.19055E-05-3.10548E-05 4.00281E-06 1.05140E-18 2.46934E-18
 -1      2384 1.05036E-04-3.29477E-05-3.09047E-05 5.06082E-06 1.03120E-18 1.60406E-18
 -1      2385 9.99069E-05-2.97057E-05-3.00519E-05 7.45024E-06 9.31402E-19 1.53243E-18
 -1      2386 1.01068E-04-3.07312E-05-3.01653E-05 7.42048E-06 8.45545E-19 1.74497E-18
 -1      2387 1.03649E-04-3.19338E-05-3.07153E-05 8.02880E-06 1.05293E-18 1.71731E-18
 -1      2388 9.76800E-05-2.74114E-05-3.00578E-05 6.29335E-06 7.96314E-19 1.55256E-18
 -1      2389 9.87912E-05-2.85611E-05-3.01241E-05 7.10629E-06 8.35534E-19 1.60974E-18
 -1      2390 1.01701E-04-2.95741E-05-3.08960E-05 8.28575E-06 9.19673E-19 1.73143E-18
 -1      2391 9.58994E-05-2.54996E-05-3.01155E-05 3.20727E-06 9.39763E-19 1.60190E-18
 -1      2392 9.66067E-05-2.63038E-05-3.01400E-05 4.84261E-06 7.57454E-19 1.65381E-18
 -1      2393 9.94061E-05-2.67655E-05-3.11412E-05 6.43850E-06 8.07083E-19 1.65097E-18
 -1      2394 9.53670E-05-2.49162E-05-3.01648E-05-1.09732E-06 1.09638E-18 1.58435E-18
 -1      2395 9.53911E-05-2.49783E-05-3.01561E-05 9.22188E-07 1.20015E-18 1.58851E-18
 -1      2396 9.77385E-05-2.47379E-05-3.13222E-05 2.44362E-06 1.01366E-18 1.31395E-18
 -1      2397 9.63904E-05-2.60068E-05-3.01710E-05-5.19564E-06 1.01171E-18 1.08308E-18
 -1      2398 9.57074E-05-2.52790E-05-3.01339E-05-3.45754E-06 1.19997E-18 1.44459E-18
 -1      2399 9.75652E-05-2.45469E-05-3.13328E-05-2.57306E-06 1.14115E-18 1.21734E-18
 -1      2400 9.85118E-05-2.82379E-05-3.01462E-05-7.73695E-06 7.65466E-19 4.74380E-19
 -1      2401 9.73793E-05-2.70605E-05-3.00804E-05-6.80526E-06 1.12306E-18 9.00085E-19
 -1      2402 9.89778E-05-2.63247E-05-3.11510E-05-6.83083E-06 1.22901E-18 9.03898E-19
 -1      2403 1.00820E-04-3.06013E-05-3.01262E-05-8.18189E-06-1.03051E-19 4.10993E-20
 -1      2404 9.96198E-05-2.94510E-05-3.00358E-05-8.18526E-06 1.50688E-19 1.00208E-19
 -1      2405 1.01196E-04-2.91769E-05-3.08500E-05-8.95809E-06 6.09364E-19 5.10478E-19
 -1      2406 1.02546E-04-3.22916E-05-3.01319E-05-6.87765E-06 3.24536E-20-2.88839E-20
 -1      2407 1.01589E-04-3.15036E-05-3.00316E-05-7.59632E-06-8.94397E-20-7.33850E-20
 -1      2408 1.03168E-04-3.18485E-05-3.05357E-05-8.70417E-06 5.58124E-20-5.91953E-20
 -1      2409 1.03365E-04-3.30193E-05-3.01572E-05-4.63692E-06-1.43953E-19 5.09915E-20
 -1      2410 1.02793E-04-3.26843E-05-3.00683E-05-5.70029E-06 3.01061E-19-2.07510E-19
 -1      2411 1.04223E-04-3.35023E-05-3.02820E-05-6.74317E-06 2.19335E-19-4.64663E-19
 -1      2412 1.03350E-04-3.29325E-05-3.01782E-05-2.24463E-06-5.55116E-19 1.51805E-19
 -1      2413 1.03162E-04-3.29644E-05-3.01197E-05-3.32456E-06-6.78526E-19 2.32898E-19
 -1      2414 1.04264E-04-3.39622E-05-3.01129E-05-4.06860E-06-3.77986E-19-1.75725E-19
 -1      2415 1.02762E-04-3.23549E-05-3.01685E-05-2.10063E-07 2.53933E-19-4.73495E-20
 -1      2416 1.02872E-04-3.26052E-05-3.01512E-05-1.10410E-06 2.00487E-19 9.49579E-20
 -1      2417 1.03557E-04-3.35243E-05-3.00085E-05-1.48274E-06-1.61492E-19-4.05980E-19
 -1      2418 1.01868E-04-3.15871E-05-3.01127E-05 1.25465E-06-5.19814E-19 1.86561E-19
 -1      2419 1.02174E-04-3.19247E-05-3.01374E-05 6.24888E-07-2.43323E-20 1.50520E-19
 -1      2420 1.02460E-04-3.26190E-05-2.99332E-05 5.72244E-07-3.33354E-22-1.50016E-19
 -1      2421 1.00868E-04-3.08275E-05-3.00102E-05 2.14319E-06-7.10011E-19 5.29133E-19
 -1      2422 1.01279E-04-3.11669E-05-3.00697E-05 1.77201E-06-7.64753E-19 2.80856E-19
 -1      2423 1.01256E-04-3.15991E-05-2.98574E-05 1.96342E-06-6.65955E-19-6.86156E-20
 -1      2424 9.98859E-05-3.01750E-05-2.98703E-05 2.55383E-06-6.95866E-20 7.02039E-19
 -1      2425 1.00335E-04-3.04728E-05-2.99537E-05 2.39337E-06-1.99939E-19 7.31321E-19
 -1      2426 1.00113E-04-3.06731E-05-2.97654E-05 2.74209E-06-5.24912E-19-4.22702E-20
 -1      2427 9.89881E-05-2.96607E-05-2.97073E-05 2.61755E-06 1.91733E-19 1.13786E-18
 -1      2428 9.94297E-05-2.99017E-05-2.98032E-05 2.60772E-06 1.15778E-19 1.03853E-18
 -1      2429 9.91080E-05-2.99293E-05-2.96535E-05 3.03947E-06-1.65902E-19 4.37537E-20
 -1      2430 9.82030E-05-2.92784E-05-2.95359E-05 2.45800E-06-2.01767E-19 1.46981E-18
 -1      2431 9.86097E-05-2.94633E-05-2.96344E-05 2.54323E-06 5.93906E-20 1.19008E-18
 -1      2432 9.82629E-05-2.93796E-05-2.95265E-05 3.00148E-06-5.79866E-20 6.73579E-19
 -1      2433 9.75378E-05-2.90066E-05-2.93681E-05 2.17479E-06-4.16458E-19 1.39071E-18
 -1      2434 9.78954E-05-2.91429E-05-2.94623E-05 2.31090E-06-2.71589E-19 1.33057E-18
 -1      2435 9.75707E-05-2.89994E-05-2.93922E-05 2.75649E-06-3.00504E-19 1.19916E-18
 -1      2436 9.69879E-05-2.88205E-05-2.92128E-05 1.84003E-06 3.73600E-19 5.99831E-19
 -1      2437 9.72912E-05-2.89178E-05-2.92980E-05 1.99547E-06 1.08422E-19 1.02111E-18
 -1      2438 9.70135E-05-2.87520E-05-2.92589E-05 2.40395E-06 1.88194E-19-2.48010E-20
 -1      2439 9.65429E-05-2.86977E-05-2.90752E-05 1.50141E-06 5.73832E-19 7.86268E-20
 -1      2440 9.67924E-05-2.87651E-05-2.91490E-05 1.65568E-06 4.91790E-19 3.39839E-19
 -1      2441 9.65708E-05-2.86011E-05-2.91334E-05 2.01404E-06 6.80433E-19-2.66124E-19
 -1      2442 9.61898E-05-2.86197E-05-2.89576E-05 1.18735E-06 3.80286E-19 4.87513E-20
 -1      2443 9.63897E-05-2.86650E-05-2.90193E-05 1.32853E-06 5.85010E-19-1.51302E-19
 -1      2444 9.62232E-05-2.85168E-05-2.90201E-05 1.63205E-06 8.72127E-19-3.68260E-19
 -1      2445 9.59148E-05-2.85727E-05-2.88601E-05 9.12375E-07-8.93903E-20 5.29587E-19
 -1      2446 9.60711E-05-2.86021E-05-2.89102E-05 1.03466E-06-1.22413E-19 2.56943E-19
 -1      2447 9.59534E-05-2.84759E-05-2.89216E-05 1.28420E-06 1.23743E-19 1.75402E-19
 -1      2448 9.57047E-05-2.85465E-05-2.87815E-05 6.81691E-07-8.65063E-19 1.12632E-18
 -1      2449 9.58241E-05-2.85646E-05-2.88211E-05 7.83322E-07-1.46416E-19 8.89597E-19
 -1      2450 9.57465E-05-2.84621E-05-2.88384E-05 9.83111E-07-2.29370E-19 4.39246E-19
 -1      2451 9.55475E-05-2.85337E-05-2.87197E-05 4.94702E-07-8.19533E-19 1.65383E-18
 -1      2452 9.56364E-05-2.85440E-05-2.87502E-05 5.76363E-07-1.07773E-18 1.08727E-18
 -1      2453 9.55901E-05-2.84641E-05-2.87702E-05 7.32437E-07-9.39589E-19 6.25845E-19
 -1      2454 9.54324E-05-2.85293E-05-2.86723E-05 3.47556E-07-9.03128E-20 1.79835E-18
 -1      2455 9.54969E-05-2.85345E-05-2.86952E-05 4.11265E-07 3.18704E-20 2.35248E-18
 -1      2456 9.54736E-05-2.84742E-05-2.87156E-05 5.30311E-07-7.33149E-19 1.64529E-18
 -1      2457 9.53501E-05-2.85300E-05-2.86369E-05 2.34867E-07-3.24837E-19 2.28338E-18
 -1      2458 9.53956E-05-2.85318E-05-2.86536E-05 2.83224E-07-8.79841E-21 1.97339E-18
 -1      2459 9.53884E-05-2.84880E-05-2.86729E-05 3.71845E-07-3.90817E-19 1.81852E-18
 -1      2460 9.52931E-05-2.85334E-05-2.86111E-05 1.50822E-07-3.58025E-19 1.87629E-18
 -1      2461 9.53240E-05-2.85331E-05-2.86229E-05 1.86543E-07-2.23093E-19 1.96830E-18
 -1      2462 9.53275E-05-2.85025E-05-2.86403E-05 2.50817E-07-1.66778E-19 9.68684E-19
 -1      2463 9.52550E-05-2.85381E-05-2.85928E-05 8.98362E-08 5.08061E-19 8.85513E-19
 -1      2464 9.52751E-05-2.85366E-05-2.86009E-05 1.15476E-07 2.56176E-19 1.52390E-18
 -1      2465 9.52850E-05-2.85161E-05-2.86160E-05 1.60737E-07 6.08904E-19 9.57554E-19
 -1      2466 9.52309E-05-2.85432E-05-2.85803E-05 4.69033E-08 1.22103E-18-1.58964E-19
 -1      2467 9.52430E-05-2.85411E-05-2.85856E-05 6.47197E-08 6.20353E-19 8.24103E-19
 -1      2468 9.52563E-05-2.85282E-05-2.85983E-05 9.54767E-08 8.01316E-19 1.98514E-20
 -1      2469 9.52168E-05-2.85481E-05-2.85722E-05 1.77426E-08 1.04902E-18 1.05891E-18
 -1      2470 9.52233E-05-2.85459E-05-2.85754E-05 2.96445E-08 1.73167E-18 5.46114E-19
 -1      2471 9.52378E-05-2.85384E-05-2.85859E-05 4.95938E-08 1.09169E-18-7.86048E-19
 -1      2472 9.52096E-05-2.85526E-05-2.85672E-05-1.17586E-09-1.98592E-19 1.86183E-19
 -1      2473 9.52123E-05-2.85504E-05-2.85690E-05 6.36994E-09 4.94346E-19 1.01552E-18
 -1      2474 9.52266E-05-2.85468E-05-2.85774E-05 1.84649E-08 7.01057E-19-1.24605E-18
 -1      2475 9.52072E-05-2.85565E-05-2.85645E-05-1.26774E-08-3.58708E-19-1.65971E-18
 -1      2476 9.52074E-05-2.85545E-05-2.85652E-05-8.25175E-09-1.36453E-19-9.01998E-19
 -1      2477 9.52206E-05-2.85534E-05-2.85719E-05-1.70744E-09 4.68703E-19-1.62158E-18
 -1      2478 9.52077E-05-2.85599E-05-2.85633E-05-1.89637E-08 1.22363E-18-2.03813E-18
 -1      2479 9.52064E-05-2.85581E-05-2.85634E-05-1.67038E-08-3.26550E-20-1.55316E-18
 -1      2480 9.52181E-05-2.85586E-05-2.85685E-05-1.39541E-08-1.09559E-19-2.65651E-18
 -1      2481 9.52102E-05-2.85627E-05-2.85632E-05-2.17070E-08 2.40657E-19-1.57513E-18
 -1      2482 9.52080E-05-2.85611E-05-2.85629E-05-2.08949E-08 1.26419E-18-1.09179E-18
 -1      2483 9.52180E-05-2.85626E-05-2.85667E-05-2.06319E-08 4.46984E-19-2.03305E-18
 -1      2484 9.52136E-05-2.85650E-05-2.85637E-05-2.21426E-08 3.07799E-19-1.62461E-18
 -1      2485 9.52110E-05-2.85636E-05-2.85631E-05-2.22538E-08-9.08953E-20-1.12954E-18
 -1      2486 9.52192E-05-2.85655E-05-2.85659E-05-2.35271E-08-3.28958E-19-1.19204E-18
 -1      2487 9.52174E-05-2.85668E-05-2.85645E-05-2.11527E-08-1.92624E-19-1.69836E-18
 -1      2488 9.52147E-05-2.85657E-05-2.85639E-05-2.18185E-08 4.32818E-19-1.44082E-18
 -1      2489 9.52213E-05-2.85677E-05-2.85659E-05-2.39565E-08 4.34601E-19-1.20408E-18
 -1      2490 9.52213E-05-2.85683E-05-2.85655E-05-1.93391E-08-5.03246E-19-6.98118E-19
 -1      2491 9.52186E-05-2.85674E-05-2.85648E-05-2.03138E-08-3.76629E-19-8.04417E-19
 -1      2492 9.52237E-05-2.85693E-05-2.85662E-05-2.28582E-08-4.19405E-19-1.00905E-18
 -1      2493 9.52249E-05-2.85696E-05-2.85666E-05-1.70812E-08-4.68122E-19-1.34643E-19
 -1      2494 9.52225E-05-2.85688E-05-2.85659E-05-1.82170E-08-3.35567E-19-8.85431E-19
 -1      2495 9.52263E-05-2.85706E-05-2.85668E-05-2.08692E-08-7.40773E-19-3.86489E-19
 -1      2496 9.52283E-05-2.85707E-05-2.85675E-05-1.45841E-08-9.86677E-19 3.44173E-19
 -1      2497 9.52261E-05-2.85700E-05-2.85670E-05-1.58103E-08-8.91380E-19-8.53096E-20
 -1      2498 9.52288E-05-2.85715E-05-2.85674E-05-1.83911E-08-1.14913E-18-2.35765E-19
 -1      2499 9.52313E-05-2.85718E-05-2.85684E-05-1.19207E-08-1.46013E-18-2.14557E-19
 -1      2500 9.52294E-05-2.85711E-05-2.85679E-05-1.32213E-08-5.42808E-19 1.47878E-19
 -1      2501 9.52312E-05-2.85724E-05-2.85680E-05-1.56410E-08-8.90631E-19-7.05425E-19
 -1      2502 9.52338E-05-2.85727E-05-2.85691E-05-9.10210E-09 1.76265E-19-9.25818E-19
 -1      2503 9.52323E-05-2.85722E-05-2.85687E-05-1.04540E-08-9.40020E-19-8.40954E-19
 -1      2504 9.52333E-05-2.85733E-05-2.85686E-05-1.26947E-08-2.49086E-19-8.57967E-19
 -1      2505 9.52356E-05-2.85740E-05-2.85693E-05-7.60721E-09-4.27838E-19-9.10061E-19
 -1      2506 9.52427E-05-2.85837E-05-2.85681E-05-8.18999E-09 4.77272E-19 1.18382E-18
 -1      2507 9.52418E-05-2.85825E-05-2.85683E-05-8.99602E-09-3.56915E-19 1.47758E-18
 -1      2508 9.52409E-05-2.85812E-05-2.85684E-05-9.66341E-09-1.54053E-18 5.86110E-19
 -1      2509 9.52399E-05-2.85797E-05-2.85686E-05-9.90336E-09-1.70115E-18-1.24529E-18
 -1      2510 9.52416E-05-2.85815E-05-2.85686E-05-1.06406E-08-9.85672E-19 2.64330E-18
 -1      2511 9.52388E-05-2.85783E-05-2.85688E-05-9.88488E-09-1.21291E-18-2.20318E-18
 -1      2512 9.52377E-05-2.85767E-05-2.85690E-05-9.47730E-09-6.12354E-20-2.27711E-18
 -1      2513 9.52391E-05-2.85787E-05-2.85688E-05-1.13636E-08-7.52254E-19-1.74263E-18
 -1      2514 2.57347E-05-2.07546E-05-1.90779E-06 2.50203E-05-5.20290E-19 5.32064E-18
 -1      2515 1.95012E-05-1.82439E-05-2.18702E-07 1.14005E-05-9.58206E-20 5.78989E-18
 -1      2516 9.52440E-05-2.85856E-05-2.85678E-05-5.73096E-09 3.67498E-19-6.66459E-19
 -1      2517 9.52434E-05-2.85847E-05-2.85680E-05-6.96232E-09 1.01272E-18-3.36365E-19
 -1      2518 9.52436E-05-2.85838E-05-2.85685E-05-8.61859E-09 1.22761E-18 3.59691E-19
 -1      2519 9.52448E-05-2.85867E-05-2.85677E-05-2.61020E-09-7.14228E-19-9.01996E-19
 -1      2520 9.52445E-05-2.85863E-05-2.85678E-05-4.11033E-09-2.00632E-19-1.16514E-18
 -1      2521 9.52449E-05-2.85855E-05-2.85684E-05-5.58932E-09 6.29785E-19-1.48826E-18
 -1      2522 9.52449E-05-2.85870E-05-2.85677E-05 8.05400E-10-1.72909E-18-8.01130E-19
 -1      2523 9.52449E-05-2.85870E-05-2.85677E-05-7.85634E-10-1.86434E-18-6.54428E-19
 -1      2524 9.52457E-05-2.85863E-05-2.85683E-05-1.92855E-09-8.41192E-19-1.87383E-18
 -1      2525 9.52445E-05-2.85863E-05-2.85678E-05 4.13282E-09-1.11075E-18-4.42491E-20
 -1      2526 9.52448E-05-2.85867E-05-2.85677E-05 2.63170E-09-1.62857E-18 7.89858E-19
 -1      2527 9.52457E-05-2.85863E-05-2.85683E-05 1.94721E-09-1.15072E-18-8.55840E-20
 -1      2528 9.52434E-05-2.85848E-05-2.85680E-05 6.94978E-09 2.69613E-19-1.03936E-18
 -1      2529 9.52440E-05-2.85856E-05-2.85678E-05 5.73320E-09-7.31863E-19-9.97260E-19
 -1      2530 9.52450E-05-2.85855E-05-2.85684E-05 5.58614E-09-4.61190E-19 3.59498E-19
 -1      2531 9.52418E-05-2.85825E-05-2.85683E-05 8.99807E-09 4.73900E-19 1.58469E-18
 -1      2532 9.52427E-05-2.85838E-05-2.85681E-05 8.18885E-09 6.25318E-19-6.81632E-19
 -1      2533 9.52436E-05-2.85838E-05-2.85685E-05 8.60881E-09 5.06269E-20-7.33749E-19
 -1      2534 9.52398E-05-2.85797E-05-2.85686E-05 9.90813E-09-1.55783E-19 1.15532E-18
 -1      2535 9.52409E-05-2.85812E-05-2.85684E-05 9.67853E-09-7.83549E-20 2.27922E-18
 -1      2536 9.52416E-05-2.85815E-05-2.85686E-05 1.06591E-08-7.60643E-19 1.43853E-18
 -1      2537 9.52378E-05-2.85769E-05-2.85690E-05 9.55074E-09-1.02961E-18 4.93487E-19
 -1      2538 9.52389E-05-2.85785E-05-2.85687E-05 9.96647E-09-6.15468E-19-5.14877E-19
 -1      2539 9.52393E-05-2.85789E-05-2.85688E-05 1.14180E-08-1.49117E-18 3.12962E-19
 -1      2540 9.52370E-05-2.85763E-05-2.85689E-05 1.09718E-08-2.38195E-19 1.43189E-18
 -1      2541 1.03134E-04-2.14612E-05-3.50189E-05-2.04816E-06-1.74024E-18-1.12868E-18
 -1      2542 1.05479E-04-2.55367E-05-3.42759E-05 2.39207E-06-1.58451E-18-8.89805E-19
 -1      2543 1.01120E-04-2.32728E-05-3.33845E-05 3.91441E-06-1.33604E-18-1.26262E-18
 -1      2544 9.72770E-05-1.73488E-05-3.42595E-05-1.38304E-06-1.67333E-18-1.72038E-18
 -1      2545 1.45267E-04-4.76018E-05-4.22938E-05 1.14961E-05 3.42074E-18-2.41891E-18
 -1      2546 1.36906E-04-5.24016E-05-3.62711E-05 1.93130E-05 2.49991E-18-2.04940E-18
 -1      2547 1.82372E-05-1.78447E-05 9.53668E-08-1.96548E-06 1.10899E-18 6.13802E-18
 -1      2548 2.25145E-05-2.07127E-05-4.82719E-07-1.49373E-05 1.06853E-18 5.67724E-18
 -1      2549 1.03478E-04-5.70371E-05-1.98717E-05-3.53120E-05 4.85562E-19-1.29003E-18
 -1      2550 1.21289E-04-6.09221E-05-2.61309E-05-3.05096E-05 9.86793E-20-1.97242E-18
 -1      2551 3.59776E-05-2.23457E-05-5.38301E-06-3.26604E-05-1.17515E-18-5.26198E-18
 -1      2552 5.14617E-05-3.00183E-05-8.90578E-06-4.23729E-05-1.00564E-18-4.94117E-18
 -1      2553 1.44476E-04-4.23462E-05-4.40118E-05-2.36283E-06 1.56076E-18 2.01594E-19
 -1      2554 1.46688E-04-3.43291E-05-4.87730E-05 2.57079E-06 2.60674E-18 5.20925E-19
 -1      2555 7.13071E-05-2.78594E-06-2.93494E-05-5.74405E-06 5.19308E-19-3.02569E-18
 -1      2556 7.04843E-05-2.15306E-06-2.93312E-05-5.32258E-06 3.22336E-19-3.14269E-18
 -1      2557 7.03871E-05-2.93300E-06-2.88696E-05-5.07274E-06 2.07752E-19-2.99181E-18
 -1      2558 7.24623E-05-4.84659E-06-2.89642E-05-6.97771E-06 4.27208E-19-2.81435E-18
 -1      2559 1.50344E-04-1.46041E-05-5.85936E-05-2.94810E-06 5.25923E-18-1.26526E-18
 -1      2560 1.50273E-04-2.00758E-05-5.60968E-05-2.86405E-06 5.07415E-18-1.12317E-18
 -1      2561 6.88108E-05-4.03426E-05-1.20867E-05-4.44709E-05-1.01602E-18-4.20933E-18
 -1      2562 8.66081E-05-4.64016E-05-1.72735E-05-4.56377E-05-3.95988E-19-3.86800E-18
 -1      2563 1.50831E-04-2.93301E-05-5.24133E-05-1.42398E-06 4.64238E-18-1.73748E-18
 -1      2564 1.47184E-04-3.68870E-05-4.74621E-05 1.23724E-06 4.27561E-18-2.12478E-18
 -1      2565 1.43173E-04-8.92964E-06-5.81004E-05 8.96563E-07 5.05806E-18-5.49830E-19
 -1      2566 1.48183E-04-1.05900E-05-5.91552E-05-1.47683E-06 5.24186E-18-8.12093E-19
 -1      2567 1.44777E-04-2.22900E-05-5.28534E-05 6.03692E-06 3.81758E-18 4.84079E-19
 -1      2568 1.43488E-04-1.43813E-05-5.59655E-05 5.77879E-06 4.49499E-18 1.54584E-20
 -1      2569 1.34667E-04-5.36560E-05-3.47444E-05-1.94695E-05 2.19382E-19-7.09814E-19
 -1      2570 1.41435E-04-5.04857E-05-3.94613E-05-1.24594E-05 7.07537E-19-1.43572E-19
 -1      2571 1.41774E-04-6.02685E-05-3.50379E-05 1.82418E-05-2.43649E-18-3.16579E-19
 -1      2572 1.27649E-04-6.09561E-05-2.87060E-05 2.48639E-05-1.22375E-18-6.55074E-19
 -1      2573 1.04966E-04-5.20840E-05-2.26354E-05-3.85028E-05-3.96411E-19-2.65418E-18
 -1      2574 1.23542E-04-5.45462E-05-2.98008E-05-3.18012E-05 5.42101E-20-1.55431E-18
 -1      2575 1.29425E-04-5.62946E-05-3.12328E-05-2.23167E-05-7.74082E-19-4.25105E-19
 -1      2576 1.80401E-05-1.44962E-05-1.16863E-06-8.36488E-06-5.49221E-19-5.76533E-18
 -1      2577 2.20430E-05-1.68657E-05-2.07473E-06-2.15539E-05-6.03087E-19-5.66411E-18
 -1      2578 6.08380E-05-3.70139E-05-1.01494E-05 3.91748E-05 4.42151E-19-3.65092E-18
 -1      2579 4.50117E-05-3.02514E-05-6.04859E-06 3.25553E-05 5.30031E-19-4.51998E-18
 -1      2580 1.56602E-04-5.12452E-05-4.54299E-05 1.28368E-06-3.59775E-18 2.43945E-19
 -1      2581 1.49268E-04-5.72248E-05-3.96724E-05 7.85500E-06-3.06679E-18 1.82536E-19
 -1      2582 1.46602E-04-6.09110E-05-3.66746E-05 4.46630E-06-1.38924E-18 1.34763E-18
 -1      2583 1.51433E-04-2.04762E-05-5.65815E-05 9.75277E-06-4.45073E-18-1.88253E-18
 -1      2584 1.49085E-04-1.67922E-05-5.74228E-05 4.75303E-06-5.06187E-18-1.80055E-18
 -1      2585 1.53439E-04-5.30636E-05-4.32324E-05-1.77228E-06-1.49591E-18-1.76818E-18
 -1      2586 1.58269E-04-4.61156E-05-4.84131E-05 4.79781E-06-2.21414E-18-2.09937E-18
 -1      2587 1.36921E-04-6.15493E-05-3.23445E-05-1.75496E-05-1.19855E-19-1.83573E-18
 -1      2588 1.48524E-04-5.88542E-05-3.86603E-05-1.13849E-05-7.07061E-19-1.44356E-18
 -1      2589 1.50212E-04-5.79337E-05-3.94711E-05 1.57505E-06-5.93585E-20-2.50658E-18
 -1      2590 6.89533E-05-4.45760E-05-1.03135E-05-3.89248E-05 1.89312E-18 2.95498E-18
 -1      2591 8.54557E-05-5.05147E-05-1.50586E-05-4.08486E-05 1.05710E-18 4.73227E-19
 -1      2592 5.47650E-05-3.53873E-05-8.19250E-06 4.36390E-05-1.60301E-19 3.67401E-18
 -1      2593 3.98153E-05-2.83958E-05-4.57017E-06 3.56709E-05-9.04843E-19 4.89839E-18
 -1      2594 9.52362E-05-2.85750E-05-2.85690E-05-9.55214E-09-2.10533E-19-1.88333E-18
 -1      2595 7.77891E-05-6.75042E-06-3.04065E-05 1.08001E-07-5.04595E-19-2.79105E-18
 -1      2596 7.93620E-05-6.55358E-06-3.12887E-05-6.81312E-07-6.76711E-19-2.88812E-18
 -1      2597 8.33672E-05-8.68440E-06-3.20497E-05-8.14458E-07-1.01286E-18-2.72705E-18
 -1      2598 1.43749E-04-4.38389E-05-4.28951E-05 6.77351E-07 2.98161E-18-2.77700E-18
 -1      2599 1.05384E-04-3.01322E-05-3.22240E-05 4.84049E-06 1.60915E-18 3.67986E-18
 -1      2600 1.04966E-04-2.91506E-05-3.24654E-05 5.71381E-06 1.74487E-18 2.93771E-18
 -1      2601 1.04753E-04-3.05619E-05-3.17926E-05 4.11556E-06 1.56154E-18 3.37965E-18
 -1      2602 1.08201E-04-5.52414E-05-2.24110E-05 3.73176E-05-6.49674E-19-1.05927E-18
 -1      2603 7.23671E-05-4.04443E-05-1.32179E-05 4.31903E-05-1.47977E-18 2.01996E-18
 -1      2604 1.32686E-04-6.32989E-05-2.95649E-05-1.96085E-05 8.53068E-19-2.45565E-18
 -1      2605 1.46223E-04-4.61644E-05-4.32534E-05-1.40820E-05-2.66916E-18 2.05787E-18
 -1      2606 1.41817E-04-4.65260E-05-4.10722E-05 1.74218E-05-4.89426E-19-3.61524E-18
 -1      2607 2.56175E-05-1.46848E-05-4.06948E-06 4.62445E-06 1.68560E-19 5.44515E-18
 -1      2608 3.98927E-05-2.27524E-05-6.77693E-06 3.05268E-05-1.38320E-18 5.07140E-18
 -1      2609 1.00789E-04-5.50482E-05-1.92548E-05-3.59971E-05 2.08603E-18-1.21377E-18
 -1      2610 1.53975E-04-4.67665E-05-4.60857E-05-9.44812E-06-3.44700E-18 1.37050E-18
 -1      2611 9.21731E-05-1.42763E-05-3.34072E-05-7.53866E-07-1.42831E-18-2.15578E-18
 -1      2612 1.42137E-04-2.36215E-05-5.09297E-05-8.11844E-06 4.36730E-18-2.04431E-18
 -1      2613 1.04289E-04-3.14039E-05-3.12345E-05 3.77664E-06 1.21414E-18 2.67100E-18
 -1      2614 1.04651E-04-3.10224E-05-3.15212E-05 3.92867E-06 1.40298E-18 3.07082E-18
 -1      2615 1.04679E-04-3.07331E-05-3.17054E-05 4.43821E-06 1.48082E-18 2.44409E-18
 -1      2616 1.04831E-04-3.19728E-05-3.12581E-05 4.36881E-06 1.28852E-18 1.97943E-18
 -1      2617 7.73035E-05-4.30915E-05-1.42107E-05 3.90425E-05 8.20351E-19-2.51886E-18
 -1      2618 7.22007E-05-3.67429E-05-1.46289E-05 3.69256E-05 1.61434E-18-2.50097E-18
 -1      2619 9.20608E-05-4.87330E-05-1.88031E-05 3.71465E-05 1.48040E-18-1.34149E-18
 -1      2620 1.02772E-04-5.15171E-05-2.16751E-05-3.94200E-05-1.36118E-18-2.44094E-18
 -1      2621 9.52361E-05-2.85754E-05-2.85689E-05-1.13209E-08 3.13797E-19-1.63658E-18
 -1      2622 3.34822E-05-2.22057E-05-4.40575E-06-2.14894E-05 1.60587E-18 5.36722E-18
 -1      2623 6.69866E-05-3.49369E-05-1.33945E-05-4.22898E-05-1.78089E-18-4.23156E-18
 -1      2624 3.66503E-05-1.74478E-05-7.69911E-06-2.80717E-05-9.69853E-19-5.36341E-18
 -1      2625 1.39231E-04-2.79957E-05-4.78408E-05 9.23637E-06 2.54099E-18 1.29225E-18
 -1      2626 1.37063E-04-1.07236E-05-5.45144E-05 4.76805E-06 4.36053E-18 9.44971E-20
 -1      2627 1.27706E-04-7.94148E-06-5.19471E-05 3.22075E-06 4.36878E-18-5.38395E-20
 -1      2628 1.28761E-04-1.30260E-05-5.00282E-05 8.02320E-06 3.50333E-18 9.16278E-19
 -1      2629 1.22442E-04-6.13406E-05-2.61034E-05 2.80055E-05-6.69156E-20-8.90973E-19
 -1      2630 1.13966E-04-5.70743E-05-2.37220E-05 3.04973E-05 9.87429E-19-5.10364E-19
 -1      2631 1.32178E-04-6.32722E-05-3.01056E-05 1.82746E-05 4.16317E-19 7.91288E-19
 -1      2632 4.07465E-05-2.29556E-05-7.09161E-06 2.73434E-05 8.18446E-19-4.73682E-18
 -1      2633 1.40956E-04-4.78169E-05-3.99370E-05-1.88164E-06 4.69336E-19 5.75453E-19
 -1      2634 1.33963E-04-5.68959E-05-3.28936E-05 1.97973E-05 1.20258E-18-2.91443E-18
 -1      2635 1.38780E-04-2.69882E-05-4.83857E-05 1.71338E-05-3.05440E-18-3.37299E-18
 -1      2636 1.37998E-04-1.03238E-05-5.49350E-05-4.34183E-06 4.80797E-18-1.12041E-18
 -1      2637 2.19269E-05-1.32284E-05-3.23139E-06-3.78057E-07-2.02328E-19-5.55230E-18
 -1      2638 2.57885E-05-9.57354E-06-6.59674E-06-6.96961E-06-3.45881E-19-5.28527E-18
 -1      2639 2.65947E-05-1.11966E-05-6.19379E-06 8.55688E-06 4.10149E-19-5.05276E-18
 -1      2640 1.53613E-04-1.66105E-05-5.90532E-05-2.28955E-06-5.11989E-18-7.65241E-19
 -1      2641 1.51175E-04-1.86034E-05-5.70312E-05-8.52006E-06-4.78023E-18 8.70326E-20
 -1      2642 1.53955E-04-4.31381E-05-4.74907E-05 1.24644E-05-1.75971E-18-2.56460E-18
 -1      2643 1.59366E-04-3.73372E-05-5.25868E-05 8.87304E-06-3.24392E-18-1.72710E-18
 -1      2644 1.60916E-04-2.89637E-05-5.67477E-05 9.52969E-06-4.03061E-18-1.86983E-18
 -1      2645 6.34280E-05-3.90928E-05-1.00562E-05-3.82255E-05 2.53051E-18 3.13339E-18
 -1      2646 1.38413E-04-1.66782E-05-5.26809E-05 2.98594E-06-3.94082E-18-1.19770E-18
 -1      2647 8.61756E-05-1.57594E-05-3.01439E-05-6.23245E-06 1.02602E-18-1.94940E-18
 -1      2648 8.30122E-05-1.38579E-05-2.96832E-05-7.55346E-06 8.64618E-19-2.17753E-18
 -1      2649 7.95285E-05-1.13138E-05-2.91783E-05-8.54351E-06 7.52996E-19-2.32031E-18
 -1      2650 7.63698E-05-9.35806E-06-2.87892E-05-9.01389E-06 5.70389E-19-2.45069E-18
 -1      2651 8.25227E-05-1.50511E-05-2.89491E-05-9.66716E-06 6.17502E-19-2.11625E-18
 -1      2652 9.66951E-05-2.22890E-05-3.19240E-05 1.40686E-06 1.75940E-18-5.25359E-19
 -1      2653 9.45003E-05-2.09192E-05-3.15364E-05-4.38083E-07 1.61574E-18-9.26184E-19
 -1      2654 1.00388E-04-2.47370E-05-3.25043E-05 4.69249E-06 1.97938E-18 3.70828E-19
 -1      2655 9.86099E-05-2.33880E-05-3.22262E-05 3.18329E-06 1.83939E-18-8.52757E-20
 -1      2656 9.94749E-05-2.55502E-05-3.16810E-05 1.50350E-06 1.58221E-18-1.62428E-19
 -1      2657 1.04682E-04-2.85950E-05-3.26058E-05 6.07450E-06 1.78359E-18 2.27350E-18
 -1      2658 1.03728E-04-2.73920E-05-3.27581E-05 6.48297E-06 1.94950E-18 1.66613E-18
 -1      2659 1.04486E-04-2.95159E-05-3.21212E-05 5.06869E-06 1.56681E-18 2.10925E-18
 -1      2660 1.38195E-04-3.96943E-05-4.29464E-05-6.66150E-06 2.88182E-18-2.68626E-18
 -1      2661 1.38892E-04-4.89779E-05-3.85304E-05 4.92802E-07 1.78705E-18-3.12206E-18
 -1      2662 8.40746E-05-4.43759E-05-1.70596E-05 4.25692E-05-1.98460E-18 2.31981E-19
 -1      2663 6.72797E-05-3.46414E-05-1.34001E-05 4.02280E-05-2.33379E-18 2.04357E-18
 -1      2664 1.25586E-04-6.12919E-05-2.72031E-05-2.10141E-05 1.72604E-18-2.42299E-18
 -1      2665 1.38060E-04-6.29727E-05-3.25942E-05-1.02561E-05 1.15885E-18-2.52156E-18
 -1      2666 1.00523E-04-2.85573E-05-3.07507E-05 1.25586E-05 5.78249E-20-9.09354E-19
 -1      2667 1.02917E-04-3.19005E-05-3.03795E-05 1.37553E-05 4.34783E-19-8.28718E-19
 -1      2668 1.05810E-04-3.58722E-05-2.97909E-05 1.55243E-05 8.98934E-19-5.12227E-19
 -1      2669 1.10168E-04-4.07729E-05-2.96519E-05 1.51629E-05 1.03751E-18-2.43951E-19
 -1      2670 9.78290E-05-3.15145E-05-2.85218E-05 1.70463E-05 7.16861E-19-6.89571E-19
 -1      2671 1.16175E-04-4.66119E-05-2.94991E-05 1.53402E-05 9.71388E-19 1.49888E-19
 -1      2672 1.22888E-04-5.21053E-05-3.01536E-05 1.22636E-05 7.92373E-19 4.13974E-19
 -1      2673 1.05967E-04-4.21715E-05-2.74803E-05 2.04029E-05 1.18027E-18-5.36489E-19
 -1      2674 1.29443E-04-1.83249E-05-4.88412E-05-3.39434E-06-3.33138E-18-7.33054E-19
 -1      2675 9.54715E-05-1.92242E-05-3.26962E-05 3.12173E-06-1.25688E-18-1.61160E-18
 -1      2676 9.72494E-05-2.17847E-05-3.23242E-05 5.72505E-06-1.04351E-18-1.42730E-18
 -1      2677 1.23824E-04-5.34609E-05-3.01315E-05-1.09010E-05 2.19792E-18-2.51628E-18
 -1      2678 1.17650E-04-4.85014E-05-2.93593E-05-1.45444E-05 2.16667E-18-1.77462E-18
 -1      2679 1.11414E-04-4.30171E-05-2.92545E-05-1.56249E-05 1.89451E-18-1.23117E-18
 -1      2680 1.06837E-04-3.83850E-05-2.91740E-05-1.69195E-05 1.62271E-18-7.16246E-19
 -1      2681 1.08136E-04-4.52103E-05-2.71723E-05-2.04258E-05 2.44012E-18-1.23360E-18
 -1      2682 1.03645E-04-3.47312E-05-2.94851E-05-1.62843E-05 1.13455E-18-8.76472E-20
 -1      2683 1.00839E-04-3.17251E-05-2.95603E-05-1.62933E-05 9.04039E-19 2.13642E-19
 -1      2684 9.91883E-05-3.50702E-05-2.76058E-05-1.94767E-05 1.75475E-18-3.06123E-20
 -1      2685 9.95732E-05-2.97744E-05-2.98741E-05-1.51252E-05 3.80837E-19 1.07157E-19
 -1      2686 9.80029E-05-2.81725E-05-2.99163E-05-1.44945E-05 3.62514E-19-3.95526E-19
 -1      2687 9.50953E-05-2.89358E-05-2.84066E-05-1.70166E-05 4.51150E-19 1.15051E-19
 -1      2688 9.77037E-05-2.73592E-05-3.01187E-05-1.32746E-05-3.10201E-19-7.95016E-19
 -1      2689 9.68293E-05-2.66432E-05-3.00877E-05-1.23758E-05-3.44675E-19-9.04859E-19
 -1      2690 9.37385E-05-2.60103E-05-2.90403E-05-1.44302E-05-4.53593E-19-3.22273E-19
 -1      2691 9.69361E-05-2.64629E-05-3.01794E-05-1.12392E-05-2.14034E-19-1.14069E-18
 -1      2692 9.64077E-05-2.62288E-05-3.00904E-05-1.02822E-05 2.20210E-20-1.11272E-18
 -1      2693 9.36417E-05-2.49870E-05-2.94185E-05-1.20367E-05-5.70774E-19-5.06886E-19
 -1      2694 9.66298E-05-2.63465E-05-3.01014E-05-9.27136E-06-5.99218E-20-1.08342E-18
 -1      2695 9.62636E-05-2.63421E-05-2.99805E-05-8.36650E-06-1.68209E-19-6.98341E-19
 -1      2696 9.40072E-05-2.49546E-05-2.95832E-05-9.90724E-06 7.83776E-20-1.00876E-18
 -1      2697 9.64749E-05-2.65694E-05-2.99420E-05-7.49164E-06-3.39555E-19-3.84412E-19
 -1      2698 9.61876E-05-2.66572E-05-2.98112E-05-6.69074E-06-3.96771E-19-6.48843E-20
 -1      2699 9.44503E-05-2.53558E-05-2.96015E-05-8.04626E-06 6.71298E-20-6.89455E-19
 -1      2700 9.63467E-05-2.69005E-05-2.97473E-05-5.95013E-06-4.91578E-19 1.62624E-19
 -1      2701 9.61054E-05-2.70130E-05-2.96212E-05-5.27053E-06-1.23775E-20-4.23563E-19
 -1      2702 9.48208E-05-2.58927E-05-2.95326E-05-6.44708E-06-2.82858E-19 5.32664E-19
 -1      2703 9.62088E-05-2.72321E-05-2.95482E-05-4.65547E-06-2.74960E-19-7.14302E-19
 -1      2704 9.60023E-05-2.73399E-05-2.94347E-05-4.09531E-06-3.59640E-19-1.27068E-18
 -1      2705 9.50815E-05-2.64223E-05-2.94201E-05-5.09715E-06-3.24206E-19 1.48766E-19
 -1      2706 9.60608E-05-2.75222E-05-2.93625E-05-3.59299E-06-4.07798E-19-1.33843E-18
 -1      2707 9.58855E-05-2.76150E-05-2.92648E-05-3.14095E-06-4.55091E-19-1.50320E-18
 -1      2708 9.52423E-05-2.68865E-05-2.92923E-05-3.97725E-06-6.35316E-19-1.07617E-19
 -1      2709 9.59125E-05-2.77605E-05-2.91987E-05-2.73673E-06-5.16703E-19-2.21573E-18
 -1      2710 9.57665E-05-2.78365E-05-2.91173E-05-2.37787E-06-9.81580E-19-2.70171E-18
 -1      2711 9.53278E-05-2.72700E-05-2.91662E-05-3.06300E-06-8.27633E-19-4.41829E-19
 -1      2712 9.57736E-05-2.79500E-05-2.90597E-05-2.05689E-06-6.28693E-19-2.24023E-18
 -1      2713 9.56548E-05-2.80107E-05-2.89936E-05-1.77587E-06-5.45379E-19-1.62425E-18
 -1      2714 9.53630E-05-2.75767E-05-2.90509E-05-2.32752E-06-2.88093E-19-1.87072E-18
 -1      2715 9.56507E-05-2.80981E-05-2.89450E-05-1.52416E-06-8.22172E-19-1.37081E-18
 -1      2716 9.55561E-05-2.81461E-05-2.88924E-05-1.30677E-06-8.26299E-19-1.01135E-18
 -1      2717 9.53677E-05-2.78174E-05-2.89503E-05-1.74384E-06-4.22373E-19-8.84262E-19
 -1      2718 9.55466E-05-2.82129E-05-2.88525E-05-1.11178E-06-6.74471E-19-7.58370E-19
 -1      2719 9.54731E-05-2.82507E-05-2.88113E-05-9.45577E-07-3.97398E-19-8.36105E-19
 -1      2720 9.53560E-05-2.80043E-05-2.88656E-05-1.28659E-06-7.09256E-19 6.84794E-19
 -1      2721 9.54618E-05-2.83015E-05-2.87792E-05-7.96393E-07-5.84164E-19-1.28336E-18
 -1      2722 9.54059E-05-2.83312E-05-2.87475E-05-6.70858E-07-1.17538E-18-1.31840E-18
 -1      2723 9.53372E-05-2.81484E-05-2.87959E-05-9.32919E-07-4.28130E-19-4.09140E-19
 -1      2724 9.53949E-05-2.83698E-05-2.87221E-05-5.58208E-07-1.35165E-18-1.09210E-18
 -1      2725 9.53534E-05-2.83931E-05-2.86981E-05-4.64618E-07-1.33944E-18-1.30554E-18
 -1      2726 9.53168E-05-2.82588E-05-2.87398E-05-6.62919E-07-1.17325E-18-8.49285E-19
 -1      2727 9.53436E-05-2.84221E-05-2.86784E-05-3.80762E-07-1.13005E-18-1.09643E-18
 -1      2728 9.53135E-05-2.84404E-05-2.86605E-05-3.12001E-07 1.41307E-19-1.19891E-18
 -1      2729 9.52977E-05-2.83430E-05-2.86955E-05-4.59621E-07-9.77726E-19 6.27748E-19
 -1      2730 9.53054E-05-2.84622E-05-2.86454E-05-2.50570E-07 1.01923E-18-1.57528E-18
 -1      2731 9.52842E-05-2.84765E-05-2.86323E-05-2.00893E-07 7.24476E-19-1.12159E-18
 -1      2732 9.52813E-05-2.84069E-05-2.86611E-05-3.08833E-07 4.61420E-19 7.01734E-19
 -1      2733 9.52778E-05-2.84927E-05-2.86210E-05-1.56714E-07 4.07344E-19-2.83493E-19
 -1      2734 9.52633E-05-2.85037E-05-2.86115E-05-1.21535E-07 1.82106E-19-1.15376E-19
 -1      2735 9.52680E-05-2.84549E-05-2.86347E-05-1.98869E-07 1.25428E-18 1.59266E-18
 -1      2736 9.52584E-05-2.85157E-05-2.86032E-05-9.04535E-08 9.25514E-20 1.90564E-19
 -1      2737 9.52489E-05-2.85241E-05-2.85965E-05-6.61448E-08 5.53710E-19 4.73213E-19
 -1      2738 9.52577E-05-2.84907E-05-2.86149E-05-1.20231E-07-3.94041E-20 1.94419E-18
 -1      2739 9.52454E-05-2.85328E-05-2.85905E-05-4.48640E-08 1.40206E-18 2.48677E-19
 -1      2740 9.52395E-05-2.85393E-05-2.85859E-05-2.85870E-08 1.60522E-18 1.22193E-18
 -1      2741 9.52501E-05-2.85170E-05-2.86002E-05-6.52986E-08 1.12403E-18 3.02448E-18
 -1      2742 9.52370E-05-2.85455E-05-2.85816E-05-1.45209E-08 1.15941E-18 8.49823E-19
 -1      2743 9.52337E-05-2.85503E-05-2.85787E-05-4.07715E-09 8.26914E-19 7.19998E-19
 -1      2744 9.52446E-05-2.85361E-05-2.85896E-05-2.80334E-08 1.15583E-18 2.22832E-18
 -1      2745 9.52320E-05-2.85547E-05-2.85757E-05 4.77641E-09 7.79247E-19 9.70366E-19
 -1      2746 9.52305E-05-2.85583E-05-2.85738E-05 1.10683E-08 9.88653E-19 1.16418E-18
 -1      2747 9.52408E-05-2.85498E-05-2.85820E-05-3.71112E-09 7.96231E-19 1.09941E-18
 -1      2748 9.52294E-05-2.85612E-05-2.85719E-05 1.62382E-08 5.27645E-19 1.48805E-18
 -1      2749 9.52291E-05-2.85639E-05-2.85708E-05 1.96465E-08 8.99508E-19 1.21678E-18
 -1      2750 9.52383E-05-2.85593E-05-2.85768E-05 1.13149E-08 7.47395E-19 1.98664E-18
 -1      2751 9.52284E-05-2.85658E-05-2.85696E-05 2.22820E-08 8.25103E-19 5.20455E-19
 -1      2752 9.52288E-05-2.85677E-05-2.85691E-05 2.37471E-08 7.03996E-19 1.47444E-19
 -1      2753 9.52367E-05-2.85657E-05-2.85734E-05 1.98179E-08 4.68448E-19 1.75882E-18
 -1      2754 9.52284E-05-2.85689E-05-2.85683E-05 2.46957E-08 2.21128E-19-2.69512E-19
 -1      2755 9.52293E-05-2.85702E-05-2.85682E-05 2.49005E-08 9.95746E-20-8.90709E-19
 -1      2756 9.52358E-05-2.85699E-05-2.85712E-05 2.38711E-08 5.15310E-19 7.20951E-19
 -1      2757 9.52291E-05-2.85710E-05-2.85678E-05 2.47726E-08 6.68702E-19-1.54921E-18
 -1      2758 9.52302E-05-2.85719E-05-2.85678E-05 2.41986E-08 7.64844E-19-6.58740E-19
 -1      2759 9.52354E-05-2.85726E-05-2.85699E-05 2.49926E-08-1.60316E-19-4.32963E-19
 -1      2760 9.52302E-05-2.85723E-05-2.85677E-05 2.34196E-08 1.33395E-18-9.56333E-20
 -1      2761 9.52313E-05-2.85729E-05-2.85679E-05 2.23916E-08 2.76224E-19 1.29771E-18
 -1      2762 9.52354E-05-2.85741E-05-2.85691E-05 2.42651E-08 1.45592E-18-8.47711E-19
 -1      2763 9.52315E-05-2.85732E-05-2.85678E-05 2.12430E-08-2.07265E-18 2.65551E-18
 -1      2764 9.52326E-05-2.85737E-05-2.85681E-05 1.99649E-08-2.16637E-18 1.98599E-18
 -1      2765 9.52355E-05-2.85750E-05-2.85688E-05 2.24320E-08-5.21896E-19 1.28413E-18
 -1      2766 9.52328E-05-2.85738E-05-2.85681E-05 1.86186E-08-1.79746E-18 1.58378E-18
 -1      2767 9.52339E-05-2.85742E-05-2.85684E-05 1.72048E-08-1.82623E-18 9.53744E-19
 -1      2768 9.52359E-05-2.85755E-05-2.85687E-05 1.99711E-08-2.30340E-18 2.69827E-18
 -1      2769 9.52341E-05-2.85744E-05-2.85685E-05 1.57413E-08-7.84371E-19 1.61550E-18
 -1      2770 9.52351E-05-2.85749E-05-2.85687E-05 1.42468E-08 8.01844E-19 2.47252E-18
 -1      2771 9.52364E-05-2.85759E-05-2.85688E-05 1.71727E-08-6.25663E-19 2.74863E-18
 -1      2772 9.52355E-05-2.85752E-05-2.85687E-05 1.32527E-08 2.33907E-19 1.87501E-18
 -1      2773 9.52366E-05-2.85759E-05-2.85689E-05 1.19993E-08 1.30754E-19 2.11359E-18
 -1      2774 9.52379E-05-2.85772E-05-2.85688E-05 1.24903E-08-6.55104E-19 1.89656E-19
 -1      2775 9.52371E-05-2.85765E-05-2.85688E-05 1.46410E-08 4.26660E-19 3.55949E-18
 -1      2776 1.06386E-04-3.42049E-05-3.09559E-05 6.97095E-06 9.21204E-19 1.39723E-18
 -1      2777 1.06739E-04-3.44291E-05-3.09704E-05 6.11818E-06 8.53956E-19 1.27642E-18
 -1      2778 1.05555E-04-3.25952E-05-3.12565E-05 8.70198E-06 9.15370E-19 1.61353E-18
 -1      2779 1.06364E-04-3.37143E-05-3.11540E-05 8.11629E-06 9.37738E-19 1.56103E-18
 -1      2780 1.08386E-04-3.50016E-05-3.14255E-05 7.71130E-06 8.44916E-19 1.19717E-18
 -1      2781 1.06097E-04-3.39428E-05-3.09527E-05 5.10365E-06 9.84379E-19 1.19767E-18
 -1      2782 1.06173E-04-3.34604E-05-3.11016E-05 4.60203E-06 1.01658E-18 1.33597E-18
 -1      2783 1.07689E-04-3.50183E-05-3.11469E-05 5.42555E-06 9.22335E-19 1.06316E-18
 -1      2784 1.01014E-04-2.54973E-05-3.23004E-05 6.55343E-06 9.26871E-19 1.64691E-18
 -1      2785 1.02124E-04-2.72838E-05-3.21315E-05 8.06841E-06 9.45562E-19 1.84072E-18
 -1      2786 9.92786E-05-2.30673E-05-3.26306E-05 1.65925E-06 1.20032E-18 1.16316E-18
 -1      2787 9.98060E-05-2.39195E-05-3.25535E-05 4.13843E-06 1.09120E-18 1.37355E-18
 -1      2788 1.02466E-04-2.40689E-05-3.36142E-05 6.10904E-06 1.17795E-18 1.43061E-18
 -1      2789 9.94635E-05-2.35091E-05-3.25756E-05-4.11145E-06 1.16111E-18 7.20182E-19
 -1      2790 9.91127E-05-2.29049E-05-3.26407E-05-1.55001E-06 1.03886E-18 7.31614E-19
 -1      2791 1.01018E-04-2.19770E-05-3.39259E-05 1.67496E-07 1.38563E-18 1.06083E-18
 -1      2792 1.01471E-04-2.66207E-05-3.21393E-05-8.43591E-06 1.16159E-18 4.27474E-19
 -1      2793 1.00443E-04-2.48863E-05-3.23225E-05-6.75141E-06 1.32734E-18 4.93336E-19
 -1      2794 1.01886E-04-2.34613E-05-3.36416E-05-6.03387E-06 1.36481E-18 1.38490E-19
 -1      2795 1.04009E-04-3.06536E-05-3.15004E-05-9.88609E-06 5.30372E-19 2.16680E-19
 -1      2796 1.02855E-04-2.87011E-05-3.17258E-05-9.50815E-06 9.43399E-19 2.47721E-19
 -1      2797 1.04384E-04-2.76472E-05-3.28641E-05-9.83261E-06 1.18272E-18-2.98599E-19
 -1      2798 1.05759E-04-3.38418E-05-3.08598E-05-8.65197E-06 3.41225E-19-5.23432E-19
 -1      2799 1.04948E-04-3.24185E-05-3.10625E-05-9.38744E-06 3.86253E-19 6.85344E-20
 -1      2800 1.06798E-04-3.23308E-05-3.18791E-05-1.02163E-05 7.50374E-19-5.46934E-19
 -1      2801 1.06115E-04-3.53078E-05-3.03522E-05-5.88974E-06-1.53380E-19-1.85640E-19
 -1      2802 1.05841E-04-3.47049E-05-3.04978E-05-7.19166E-06 3.09730E-19-4.48624E-19
 -1      2803 1.07833E-04-3.55145E-05-3.09589E-05-7.97771E-06 4.24654E-19-6.53397E-19
 -1      2804 1.05302E-04-3.52338E-05-3.00152E-05-2.79968E-06-4.08232E-19-5.07517E-19
 -1      2805 1.05497E-04-3.53221E-05-3.01041E-05-4.19288E-06-4.09646E-19-4.32069E-19
 -1      2806 1.07253E-04-3.65916E-05-3.02655E-05-4.62505E-06-1.48256E-19-5.60072E-19
 -1      2807 1.03827E-04-3.42082E-05-2.98145E-05-1.58559E-07-2.55031E-19-3.89502E-19
 -1      2808 1.04310E-04-3.46964E-05-2.98674E-05-1.33620E-06-2.88130E-19-4.89871E-19
 -1      2809 1.05588E-04-3.60127E-05-2.98229E-05-1.38264E-06-1.51324E-19-1.08808E-18
 -1      2810 1.02172E-04-3.28308E-05-2.96954E-05 1.73512E-06-4.47335E-19-1.05730E-20
 -1      2811 1.02773E-04-3.34578E-05-2.97338E-05 8.90542E-07-1.99044E-19-1.16541E-19
 -1      2812 1.03504E-04-3.45328E-05-2.95742E-05 1.12287E-06-3.88048E-19-3.52295E-19
 -1      2813 1.00631E-04-3.14933E-05-2.96119E-05 2.88130E-06-1.22497E-18 2.96128E-19
 -1      2814 1.01233E-04-3.20932E-05-2.96504E-05 2.36934E-06-8.00945E-19 2.26860E-19
 -1      2815 1.01492E-04-3.28258E-05-2.94455E-05 2.76226E-06-8.01602E-19 4.16018E-19
 -1      2816 9.93311E-05-3.03860E-05-2.95345E-05 3.41501E-06-2.91500E-19 1.99361E-20
 -1      2817 9.98759E-05-3.08810E-05-2.95804E-05 3.17796E-06-6.68588E-19 3.04932E-19
 -1      2818 9.97917E-05-3.12836E-05-2.93759E-05 3.64017E-06-8.16225E-19 4.93391E-19
 -1      2819 9.82969E-05-2.95604E-05-2.94498E-05 3.50660E-06-4.44603E-19 2.77322E-19
 -1      2820 9.87623E-05-2.99313E-05-2.95039E-05 3.46996E-06-3.63454E-19 1.14989E-19
 -1      2821 9.84682E-05-3.00708E-05-2.93252E-05 3.94346E-06-5.76224E-19 5.28899E-19
 -1      2822 9.75015E-05-2.89940E-05-2.93552E-05 3.31209E-06-2.15584E-19 6.58827E-19
 -1      2823 9.78860E-05-2.92519E-05-2.94152E-05 3.40595E-06-2.20908E-19 6.45392E-19
 -1      2824 9.74910E-05-2.92084E-05-2.92729E-05 3.85783E-06-5.28310E-19 1.03754E-19
 -1      2825 9.69012E-05-2.86357E-05-2.92541E-05 2.95565E-06-2.75088E-19 5.84174E-19
 -1      2826 9.72124E-05-2.88028E-05-2.93162E-05 3.12336E-06 3.38900E-20 7.26009E-19
 -1      2827 9.67938E-05-2.86484E-05-2.92116E-05 3.53630E-06-4.10450E-19 3.24383E-19
 -1      2828 9.64528E-05-2.84300E-05-2.91517E-05 2.52752E-06 7.69111E-19-4.50838E-19
 -1      2829 9.67011E-05-2.85301E-05-2.92124E-05 2.72748E-06 2.16971E-20-2.13046E-19
 -1      2830 9.63072E-05-2.83209E-05-2.91416E-05 3.09340E-06 3.51856E-19-5.98790E-19
 -1      2831 9.61193E-05-2.83288E-05-2.90531E-05 2.08826E-06 8.54345E-19-1.03756E-18
 -1      2832 9.63153E-05-2.83824E-05-2.91096E-05 2.29246E-06 7.75791E-19-7.85019E-19
 -1      2833 9.59719E-05-2.81575E-05-2.90666E-05 2.60877E-06 9.03447E-19-1.26481E-18
 -1      2834 9.58719E-05-2.82945E-05-2.89623E-05 1.67512E-06 7.52644E-19-7.71583E-19
 -1      2835 9.60249E-05-2.83177E-05-2.90127E-05 1.86639E-06 9.77332E-19-8.47600E-19
 -1      2836 9.57420E-05-2.81019E-05-2.89911E-05 2.13394E-06 6.06874E-19-1.64637E-18
 -1      2837 9.56889E-05-2.82999E-05-2.88818E-05 1.30819E-06-1.90059E-19 4.43169E-19
 -1      2838 9.58069E-05-2.83044E-05-2.89253E-05 1.47735E-06-5.43869E-20 3.10627E-20
 -1      2839 9.55845E-05-2.81116E-05-2.89189E-05 1.69916E-06 1.21142E-19-8.41088E-19
 -1      2840 9.55538E-05-2.83265E-05-2.88125E-05 9.95779E-07-4.36144E-19 6.17058E-19
 -1      2841 9.56438E-05-2.83204E-05-2.88489E-05 1.13917E-06-2.26022E-21 3.39537E-19
 -1      2842 9.54762E-05-2.81566E-05-2.88528E-05 1.31958E-06-1.75525E-19-3.24726E-19
 -1      2843 9.54547E-05-2.83623E-05-2.87546E-05 7.38615E-07-8.55797E-19-4.03528E-19
 -1      2844 9.55223E-05-2.83510E-05-2.87843E-05 8.56102E-07-5.83369E-19-1.66168E-19
 -1      2845 9.54014E-05-2.82172E-05-2.87945E-05 1.00011E-06-1.91125E-19-6.71914E-19
 -1      2846 9.53826E-05-2.84000E-05-2.87074E-05 5.32919E-07-7.91070E-19 3.08981E-19
 -1      2847 9.54326E-05-2.83868E-05-2.87311E-05 6.26421E-07-1.11732E-18-1.35102E-19
 -1      2848 9.53493E-05-2.82811E-05-2.87445E-05 7.39261E-07-1.03198E-18-7.61290E-19
 -1      2849 9.53307E-05-2.84354E-05-2.86699E-05 3.72598E-07-7.08486E-19-1.54285E-19
 -1      2850 9.53669E-05-2.84223E-05-2.86883E-05 4.45075E-07-3.60110E-19-1.22922E-20
 -1      2851 9.53129E-05-2.83413E-05-2.87029E-05 5.31837E-07-3.60921E-19-1.28533E-18
 -1      2852 9.52939E-05-2.84666E-05-2.86406E-05 2.50683E-07 1.60903E-19-2.06862E-19
 -1      2853 9.53196E-05-2.84546E-05-2.86547E-05 3.05462E-07 2.24727E-20 1.60855E-19
 -1      2854 9.52874E-05-2.83944E-05-2.86691E-05 3.70869E-07-2.42236E-19-2.18244E-18
 -1      2855 9.52683E-05-2.84927E-05-2.86184E-05 1.60240E-07 5.24889E-19-6.06841E-19
 -1      2856 9.52860E-05-2.84823E-05-2.86288E-05 2.00596E-07 4.94874E-19-4.23214E-19
 -1      2857 9.52695E-05-2.84389E-05-2.86422E-05 2.48867E-07-1.38055E-21-1.30791E-18
 -1      2858 9.52511E-05-2.85139E-05-2.86018E-05 9.48810E-08 8.28892E-19-7.58550E-20
 -1      2859 9.52628E-05-2.85052E-05-2.86094E-05 1.23806E-07 7.49825E-19-7.50853E-20
 -1      2860 9.52570E-05-2.84750E-05-2.86213E-05 1.58596E-07 3.41240E-19 1.26734E-19
 -1      2861 9.52399E-05-2.85305E-05-2.85898E-05 4.90209E-08 1.32500E-18-3.27513E-19
 -1      2862 9.52473E-05-2.85236E-05-2.85951E-05 6.91124E-08 1.41410E-18-1.06529E-19
 -1      2863 9.52485E-05-2.85034E-05-2.86054E-05 9.35015E-08 1.31197E-18 1.03179E-18
 -1      2864 9.52330E-05-2.85433E-05-2.85814E-05 1.79595E-08 8.40935E-19-4.92118E-19
 -1      2865 9.52373E-05-2.85378E-05-2.85849E-05 3.13903E-08 1.32180E-18-8.81048E-19
 -1      2866 9.52427E-05-2.85251E-05-2.85935E-05 4.79131E-08 1.56542E-18 4.21772E-19
 -1      2867 9.52291E-05-2.85528E-05-2.85756E-05-2.13827E-09 7.79508E-20-7.03944E-19
 -1      2868 9.52313E-05-2.85486E-05-2.85779E-05 6.39352E-09 2.82592E-19-9.85607E-19
 -1      2869 9.52389E-05-2.85412E-05-2.85849E-05 1.70919E-08 1.03769E-18 3.09923E-19
 -1      2870 9.52274E-05-2.85598E-05-2.85719E-05-1.43190E-08 3.28345E-20-1.27150E-18
 -1      2871 9.52281E-05-2.85566E-05-2.85732E-05-9.29549E-09 5.10431E-20-8.18051E-19
 -1      2872 9.52365E-05-2.85529E-05-2.85789E-05-2.81034E-09 2.59963E-19 8.78277E-19
 -1      2873 9.52270E-05-2.85647E-05-2.85696E-05-2.09437E-08-4.21548E-19-5.17213E-19
 -1      2874 9.52268E-05-2.85624E-05-2.85703E-05-1.83578E-08 1.31770E-19-1.18811E-18
 -1      2875 9.52351E-05-2.85611E-05-2.85747E-05-1.48400E-08-6.52629E-20 4.43579E-20
 -1      2876 9.52275E-05-2.85681E-05-2.85683E-05-2.37969E-08-1.23489E-20-3.48504E-19
 -1      2877 9.52267E-05-2.85664E-05-2.85686E-05-2.28457E-08-5.77829E-19-1.07814E-19
 -1      2878 9.52345E-05-2.85667E-05-2.85720E-05-2.13513E-08-4.42619E-19 6.83690E-19
 -1      2879 9.52286E-05-2.85704E-05-2.85678E-05-2.41907E-08-2.63783E-19-1.33712E-20
 -1      2880 9.52275E-05-2.85692E-05-2.85678E-05-2.42893E-08 6.67441E-20-8.05870E-19
 -1      2881 9.52343E-05-2.85704E-05-2.85703E-05-2.41195E-08 2.74561E-19-4.79584E-19
 -1      2882 9.52299E-05-2.85719E-05-2.85677E-05-2.30574E-08-4.08877E-19-1.05467E-19
 -1      2883 9.52286E-05-2.85710E-05-2.85675E-05-2.37959E-08-2.63079E-19 4.16469E-19
 -1      2884 9.52344E-05-2.85727E-05-2.85693E-05-2.44469E-08-4.59418E-19 1.52351E-18
 -1      2885 9.52313E-05-2.85729E-05-2.85679E-05-2.10282E-08-5.73137E-19 4.64902E-19
 -1      2886 9.52300E-05-2.85722E-05-2.85676E-05-2.21349E-08-7.05590E-19 3.40369E-19
 -1      2887 9.52347E-05-2.85740E-05-2.85689E-05-2.32564E-08-1.33012E-18 2.01056E-18
 -1      2888 9.52327E-05-2.85736E-05-2.85682E-05-1.84998E-08-8.52841E-19-5.60730E-19
 -1      2889 9.52315E-05-2.85731E-05-2.85679E-05-1.98106E-08 1.90588E-19 1.45699E-19
 -1      2890 9.52351E-05-2.85748E-05-2.85687E-05-2.11712E-08 5.20965E-21 1.32217E-18
 -1      2891 9.52341E-05-2.85742E-05-2.85685E-05-1.56821E-08-6.59813E-19-1.22270E-18
 -1      2892 9.52330E-05-2.85738E-05-2.85683E-05-1.71224E-08-1.36606E-18-1.49078E-18
 -1      2893 9.52357E-05-2.85754E-05-2.85687E-05-1.85871E-08-1.68112E-19 7.08111E-19
 -1      2894 9.52356E-05-2.85751E-05-2.85688E-05-1.27630E-08-3.77849E-19-1.38538E-18
 -1      2895 9.52346E-05-2.85746E-05-2.85686E-05-1.43033E-08-4.76591E-19-9.07106E-19
 -1      2896 9.52365E-05-2.85760E-05-2.85688E-05-1.57730E-08-1.00902E-18-1.23315E-18
 -1      2897 9.52374E-05-2.85767E-05-2.85688E-05-1.28277E-08-1.10572E-19-2.29332E-18
 -1      2898 9.52427E-05-2.85819E-05-2.85689E-05-1.14427E-08 3.81179E-19 2.69058E-18
 -1      2899 9.52414E-05-2.85806E-05-2.85689E-05-1.21396E-08 7.02907E-20 2.20610E-18
 -1      2900 9.52464E-05-2.85855E-05-2.85689E-05-5.26326E-09 5.51885E-19-1.20503E-18
 -1      2901 9.52458E-05-2.85849E-05-2.85689E-05-7.03458E-09 1.05141E-18-9.69579E-19
 -1      2902 9.52403E-05-2.85795E-05-2.85689E-05-1.27092E-08 3.52133E-19 1.13675E-19
 -1      2903 9.52388E-05-2.85780E-05-2.85689E-05-1.27318E-08 5.83159E-19-2.47105E-18
 -1      2904 9.52383E-05-2.85776E-05-2.85689E-05-1.42844E-08 3.68367E-19-1.18844E-18
 -1      2905 9.52412E-05-2.85800E-05-2.85691E-05-1.36360E-08 7.14462E-19 1.43227E-18
 -1      2906 9.52449E-05-2.85841E-05-2.85689E-05-8.81640E-09 5.79225E-19 1.12464E-19
 -1      2907 9.52439E-05-2.85831E-05-2.85690E-05-1.01413E-08 2.39861E-19 2.07878E-18
 -1      2908 9.52441E-05-2.85824E-05-2.85693E-05-1.18013E-08-3.92283E-20 3.37112E-18
 -1      2909 9.52463E-05-2.85843E-05-2.85694E-05-8.66804E-09 5.06915E-19 7.31249E-21
 -1      2910 9.52469E-05-2.85860E-05-2.85689E-05 3.12619E-09-2.64988E-19 1.45562E-18
 -1      2911 9.52471E-05-2.85862E-05-2.85689E-05 1.13594E-09-1.51622E-19-9.00135E-19
 -1      2912 9.52458E-05-2.85850E-05-2.85689E-05 6.99033E-09 3.00428E-19-3.41627E-19
 -1      2913 9.52465E-05-2.85856E-05-2.85689E-05 5.24536E-09-1.76919E-19 1.28953E-18
 -1      2914 9.52478E-05-2.85857E-05-2.85695E-05 4.54137E-09 4.59607E-19 8.29678E-19
 -1      2915 9.52440E-05-2.85831E-05-2.85689E-05 1.01656E-08-2.41606E-19-1.31084E-18
 -1      2916 9.52450E-05-2.85841E-05-2.85689E-05 8.80677E-09 2.65877E-19-3.99295E-19
 -1      2917 9.52464E-05-2.85844E-05-2.85694E-05 8.61968E-09 5.28868E-19-6.38101E-19
 -1      2918 9.52414E-05-2.85806E-05-2.85689E-05 1.21617E-08-7.92740E-19 1.05797E-18
 -1      2919 9.52427E-05-2.85819E-05-2.85689E-05 1.14248E-08-3.79684E-19 4.39411E-19
 -1      2920 9.52440E-05-2.85824E-05-2.85693E-05 1.18312E-08-1.63476E-19-3.75086E-19
 -1      2921 1.17872E-04-5.76778E-05-2.60168E-05 3.06502E-05-6.86097E-19-2.62151E-18
 -1      2922 1.02611E-04-5.22195E-05-2.11613E-05 3.69079E-05-1.83245E-18-1.04665E-18
 -1      2923 5.04174E-05-2.44646E-05-1.09018E-05 3.49238E-05-1.84251E-18 4.20425E-18
 -1      2924 3.83549E-05-1.67166E-05-8.64735E-06 2.34893E-05-1.33302E-18 4.45201E-18
 -1      2925 6.44163E-05-2.95945E-05-1.45442E-05-3.95754E-05-1.83679E-18-3.71075E-18
 -1      2926 8.14418E-05-4.04826E-05-1.72969E-05-4.27830E-05-1.98661E-18-3.33747E-18
 -1      2927 1.47814E-04-2.27493E-05-5.34606E-05-1.21215E-05-4.72390E-18 8.82291E-19
 -1      2928 9.61515E-05-4.76162E-05-2.04495E-05-3.91784E-05-2.06125E-18-2.38162E-18
 -1      2929 1.11261E-04-5.34469E-05-2.49467E-05-3.37761E-05-1.70402E-18-1.14215E-18
 -1      2930 9.29750E-05-4.33925E-05-2.08597E-05-3.72625E-05-2.31769E-18-2.34300E-18
 -1      2931 1.33876E-04-3.26068E-05-4.36198E-05 1.08592E-05 1.73525E-18 1.75738E-18
 -1      2932 1.30372E-04-2.27062E-05-4.68784E-05 1.16062E-05 2.56312E-18 1.61820E-18
 -1      2933 9.52471E-05-2.85862E-05-2.85689E-05-1.12842E-09-9.87809E-19-2.34325E-18
 -1      2934 9.52469E-05-2.85860E-05-2.85689E-05-3.11384E-09 4.50471E-19-2.95075E-18
 -1      2935 9.52483E-05-2.85861E-05-2.85695E-05 5.94581E-13 3.66114E-20-1.38064E-18
 -1      2936 1.38233E-04-5.87904E-05-3.40807E-05-1.55800E-07 1.33241E-18-3.18998E-18
 -1      2937 1.32421E-04-5.78819E-05-3.16551E-05-6.36379E-06 1.94803E-18-3.09397E-18
 -1      2938 3.06934E-05-1.24743E-05-7.40286E-06 1.11381E-05-2.46725E-19 4.43231E-18
 -1      2939 3.02692E-05-1.22345E-05-7.14389E-06-3.07100E-06 7.05314E-19 4.92931E-18
 -1      2940 3.52748E-05-1.07857E-05-9.63195E-06-1.88895E-05-6.82814E-19-5.14276E-18
 -1      2941 4.61488E-05-1.63423E-05-1.24356E-05-2.95738E-05-1.08648E-18-4.53544E-18
 -1      2942 1.34017E-04-1.90364E-05-4.99854E-05-9.71052E-06 4.07740E-18-1.33471E-18
 -1      2943 1.35449E-04-2.67890E-05-4.68677E-05-1.09755E-05 3.59163E-18-2.12626E-18
 -1      2944 1.46987E-04-4.37742E-05-4.44996E-05 1.51605E-05-1.41740E-18-3.16314E-18
 -1      2945 1.47691E-04-3.68681E-05-4.82359E-05 1.75464E-05-2.22876E-18-3.26521E-18
 -1      2946 9.79604E-05-2.37562E-05-3.17727E-05 8.20350E-06-7.24552E-19-1.17976E-18
 -1      2947 9.91960E-05-2.61043E-05-3.13000E-05 1.04193E-05-3.78940E-19-1.09733E-18
 -1      2948 9.39993E-05-2.45684E-05-2.98207E-05 1.24797E-05-3.60138E-20-1.03872E-18
 -1      2949 9.20309E-05-1.96494E-05-3.10066E-05 7.62579E-06-6.71490E-19-1.45425E-18
 -1      2950 1.35913E-04-5.61850E-05-3.46968E-05 1.18348E-05 1.01885E-18-3.09114E-18
 -1      2951 1.28639E-04-5.82766E-05-3.00056E-05 2.06820E-05 3.63483E-19-3.03143E-18
 -1      2952 5.10416E-05-2.36565E-05-1.13411E-05 3.04055E-05 1.41687E-18-3.87475E-18
 -1      2953 3.63920E-05-1.59297E-05-8.10866E-06 2.00774E-05 9.88064E-19-4.72221E-18
 -1      2954 1.23247E-04-5.62097E-05-2.84388E-05-2.49289E-05-1.30305E-18-3.09379E-19
 -1      2955 1.31263E-04-5.58414E-05-3.27832E-05-1.49743E-05-8.01505E-19 1.71948E-19
 -1      2956 1.16803E-04-5.36864E-05-2.68588E-05-2.67582E-05-1.69534E-18-7.30037E-19
 -1      2957 1.35888E-04-5.07748E-05-3.63519E-05-2.25102E-06-4.06589E-19 8.41104E-19
 -1      2958 1.36039E-04-4.40838E-05-4.00569E-05 4.82856E-06 6.79638E-19 1.43726E-18
 -1      2959 9.20583E-05-1.94668E-05-3.11097E-05-2.54290E-06 1.53116E-18-1.29985E-18
 -1      2960 8.92933E-05-1.78193E-05-3.06502E-05-4.37019E-06 1.25725E-18-1.64880E-18
 -1      2961 8.95780E-05-1.96608E-05-3.00046E-05-6.57846E-06 9.99689E-19-1.61401E-18
 -1      2962 9.53133E-05-2.31213E-05-3.09567E-05-2.41878E-06 1.33390E-18-9.68862E-19
 -1      2963 1.44773E-04-2.44943E-05-5.17487E-05 1.35076E-05-3.73986E-18-2.43501E-18
 -1      2964 6.98903E-05-3.75307E-06-2.83778E-05-2.45933E-06 8.03718E-20-3.00891E-18
 -1      2965 7.18506E-05-4.73001E-06-2.87717E-05-9.49835E-07-6.47128E-20-2.92140E-18
 -1      2966 1.03554E-04-2.93215E-05-3.17640E-05 8.93432E-06 6.96666E-19 1.76597E-18
 -1      2967 1.04721E-04-3.11236E-05-3.15902E-05 9.21042E-06 7.22278E-19 1.63172E-18
 -1      2968 1.07547E-04-3.26821E-05-3.20595E-05 9.56483E-06 8.50408E-19 1.49461E-18
 -1      2969 1.05211E-04-2.84248E-05-3.28832E-05 9.43070E-06 8.14595E-19 1.71365E-18
 -1      2970 8.83344E-05-1.29140E-05-3.23332E-05 1.11309E-06-1.13882E-18-2.15983E-18
 -1      2971 5.63251E-05-3.15200E-05-1.00779E-05-3.42110E-05 2.74862E-18 3.27336E-18
 -1      2972 7.45113E-05-4.07972E-05-1.43886E-05-3.81936E-05 3.30766E-18 1.37156E-18
 -1      2973 9.46201E-05-4.99766E-05-1.85557E-05-3.54252E-05 2.93730E-18-6.61797E-19
 -1      2974 1.09544E-04-5.69018E-05-2.27689E-05-3.17519E-05 2.16724E-18-2.21737E-18
 -1      2975 1.27204E-04-8.37459E-06-5.16813E-05-3.96684E-06 4.64894E-18-4.56260E-19
 -1      2976 1.30738E-04-1.24577E-05-5.12566E-05-7.94573E-06 4.42892E-18-9.64453E-19
 -1      2977 1.25709E-04-1.61636E-05-4.73272E-05-9.97672E-06 3.91425E-18-4.46969E-19
 -1      2978 3.45236E-05-1.53306E-05-7.66148E-06-1.52377E-05 1.38315E-18 5.04832E-18
 -1      2979 4.33171E-05-2.29258E-05-8.36142E-06-2.74485E-05 1.81064E-18 4.08651E-18
 -1      2980 5.62276E-05-2.53979E-05-1.25959E-05-2.82125E-05 2.36555E-18 2.88754E-18
 -1      2981 1.46411E-04-5.40025E-05-4.02109E-05 1.04319E-05 3.47813E-20-3.09358E-18
 -1      2982 1.43754E-04-5.82194E-05-3.66201E-05 3.88298E-06 8.40733E-19-3.08786E-18
 -1      2983 7.52963E-05-9.94350E-06-2.80031E-05-1.04145E-05 3.04194E-19-2.41282E-18
 -1      2984 7.32870E-05-6.87741E-06-2.84087E-05-8.61444E-06 3.72909E-19-2.66523E-18
 -1      2985 7.10740E-05-5.42457E-06-2.82083E-05-8.03227E-06 2.56438E-19-2.78862E-18
 -1      2986 1.02243E-04-2.59090E-05-3.26899E-05 5.97727E-06 1.93120E-18 1.04325E-18
 -1      2987 1.32726E-04-3.38852E-05-4.25981E-05-1.06013E-05 2.62665E-18-2.05871E-18
 -1      2988 1.06864E-04-5.29233E-05-2.27197E-05 3.08083E-05 1.57770E-18-7.70105E-19
 -1      2989 6.43312E-05-2.89912E-05-1.45495E-05 3.48266E-05-2.44745E-18 2.34543E-18
 -1      2990 1.18255E-04-5.50986E-05-2.73142E-05 2.21448E-05 1.18209E-18 4.49986E-20
 -1      2991 1.29381E-04-5.74562E-05-3.05543E-05 1.15206E-05 8.24560E-19 9.89679E-19
 -1      2992 1.22569E-04-5.66253E-05-2.85232E-05-1.68123E-05 2.31865E-18-2.11685E-18
 -1      2993 1.36385E-04-5.92390E-05-3.29580E-05 6.22620E-06 6.67038E-21 1.34826E-18
 -1      2994 8.63842E-05-4.32704E-05-1.80640E-05-3.44221E-05 3.24054E-18 1.53525E-21
 -1      2995 7.65895E-05-3.47578E-05-1.75602E-05 3.27797E-05 2.10059E-18-1.96046E-18
 -1      2996 6.37245E-05-2.92164E-05-1.41074E-05 3.31305E-05 1.70529E-18-3.07494E-18
 -1      2997 5.67897E-05-2.19049E-05-1.46065E-05 2.76380E-05 1.58702E-18-3.24943E-18
 -1      2998 8.63371E-05-1.32811E-05-3.13270E-05 2.93790E-06-8.38952E-19-2.10749E-18
 -1      2999 9.52478E-05-2.85856E-05-2.85695E-05-4.56701E-09-6.98339E-21-2.52372E-18
 -1      3000 7.50493E-05-6.77000E-06-2.93386E-05 1.20017E-06-1.78793E-19-2.74474E-18
 -1      3001 7.91169E-05-9.00701E-06-3.00046E-05 2.23706E-06-4.90644E-19-2.50429E-18
 -1      3002 7.29926E-05-6.82167E-06-2.82980E-05 1.28015E-06-3.14130E-20-2.70172E-18
 -1      3003 9.73195E-05-4.79316E-05-2.08004E-05 3.60807E-05-2.22410E-18-9.16490E-19
 -1      3004 1.23533E-04-5.73944E-05-2.81327E-05 2.16761E-05-7.31201E-19-2.82676E-18
 -1      3005 9.52391E-05-2.85783E-05-2.85689E-05 1.25881E-08-1.91125E-18-1.94661E-19
 -1      3006 9.52403E-05-2.85796E-05-2.85689E-05 1.25163E-08-1.28640E-18 1.88076E-19
 -1      3007 9.52413E-05-2.85802E-05-2.85691E-05 1.34749E-08 1.78301E-19 9.02785E-19
 -1      3008 9.52388E-05-2.85780E-05-2.85689E-05 1.37005E-08-7.44603E-19 1.58308E-18
 -1      3009 1.06153E-04-3.33739E-05-3.12616E-05 4.00285E-06 1.06865E-18 9.09218E-19
 -1      3010 1.05199E-04-3.22673E-05-3.12740E-05 4.09728E-06 1.12646E-18 1.25991E-18
 -1      3011 4.20032E-05-1.43601E-05-1.11624E-05 1.64293E-05-8.25169E-19 4.21865E-18
 -1      3012 1.04876E-04-3.14397E-05-3.14549E-05 4.11021E-06 1.31331E-18 1.37841E-18
 -1      3013 3.61553E-05-8.89782E-06-1.11727E-05-1.13190E-05-1.58819E-19-4.86896E-18
 -1      3014 1.22488E-04-2.31343E-05-4.27894E-05 1.22011E-05 1.97957E-18 1.51185E-18
 -1      3015 1.26101E-04-1.82812E-05-4.66072E-05 1.12992E-05 2.60283E-18 1.47024E-18
 -1      3016 1.19870E-04-1.44248E-05-4.57823E-05 9.41123E-06 2.85969E-18 1.25803E-18
 -1      3017 5.75321E-05-2.17226E-05-1.47361E-05-3.38386E-05-1.45335E-18-3.91732E-18
 -1      3018 7.00698E-05-2.73706E-05-1.79966E-05-3.47922E-05-1.83743E-18-3.05901E-18
 -1      3019 5.30650E-05-1.51264E-05-1.60711E-05-2.64981E-05-9.08416E-19-3.92409E-18
 -1      3020 1.46389E-04-5.73757E-05-3.86855E-05-6.99358E-06-1.37971E-18 1.99667E-18
 -1      3021 1.30686E-04-3.79955E-05-3.99008E-05 9.61663E-06 7.81600E-19 1.70063E-18
 -1      3022 1.35116E-04-5.22987E-05-3.55180E-05 3.22682E-06 7.72600E-19-2.93264E-18
 -1      3023 1.02795E-04-2.77089E-05-3.21528E-05 4.56182E-06 1.68492E-18 8.79787E-19
 -1      3024 1.18123E-04-9.40243E-06-4.70415E-05 3.30216E-06 3.67951E-18 1.06496E-18
 -1      3025 1.23429E-04-8.55472E-06-4.97541E-05-3.08477E-07 4.39674E-18 3.27471E-19
 -1      3026 1.18227E-04-1.03280E-05-4.66591E-05-3.14866E-06 4.13649E-18 6.93495E-19
 -1      3027 1.19224E-04-5.77359E-05-2.61236E-05-2.26791E-05 2.37021E-18-2.08291E-18
 -1      3028 6.94910E-05-3.92710E-06-2.80846E-05-6.27460E-06 2.53690E-19-2.80112E-18
 -1      3029 6.91315E-05-3.53373E-06-2.81622E-05-4.91063E-06 5.05614E-20-2.91893E-18
 -1      3030 6.88713E-05-4.51805E-06-2.75089E-05-3.66544E-06 4.64450E-20-2.89748E-18
 -1      3031 7.00209E-05-5.86064E-06-2.74457E-05-8.16067E-06 1.15713E-19-2.73342E-18
 -1      3032 3.95799E-05-1.33944E-05-1.05356E-05-8.71486E-06 8.97114E-19 4.61601E-18
 -1      3033 1.42097E-04-5.90687E-05-3.52971E-05 9.51970E-07-7.91843E-19 1.86919E-18
 -1      3034 3.77161E-05-1.25770E-05-1.01275E-05 1.34006E-05 7.74823E-19-4.58922E-18
 -1      3035 1.30892E-04-5.23540E-05-3.36442E-05-6.86845E-06-8.77063E-19 7.03143E-19
 -1      3036 1.02213E-04-2.87529E-05-3.15569E-05 1.86508E-06 1.39709E-18 7.27013E-20
 -1      3037 1.00667E-04-2.76449E-05-3.12683E-05 1.86821E-07 1.27697E-18-3.09206E-19
 -1      3038 1.04559E-04-3.02011E-05-3.18324E-05 4.78646E-06 1.50633E-18 1.83770E-18
 -1      3039 1.25612E-04-2.80321E-05-4.23667E-05-1.28937E-05 2.83010E-18-1.42709E-18
 -1      3040 1.29316E-04-3.80552E-05-3.90775E-05-1.06260E-05 1.95723E-18-2.00366E-18
 -1      3041 1.00594E-04-4.60481E-05-2.30832E-05 2.86283E-05 1.50264E-18-7.15558E-19
 -1      3042 1.10717E-04-5.17494E-05-2.47350E-05-2.52935E-05 2.68721E-18-2.20332E-18
 -1      3043 3.69845E-05-6.94080E-06-1.22571E-05-6.44106E-07 2.53501E-19-4.59632E-18
 -1      3044 4.33237E-05-8.02261E-06-1.48058E-05-1.17843E-05-2.66015E-19-4.41304E-18
 -1      3045 9.33881E-05-3.33012E-05-2.55769E-05-2.14316E-05 2.21784E-18-5.66486E-19
 -1      3046 9.02102E-05-2.91853E-05-2.60680E-05-2.00018E-05 1.45525E-18-5.74580E-19
 -1      3047 9.01388E-05-2.70335E-05-2.69483E-05-1.75840E-05 8.18345E-19-4.25543E-19
 -1      3048 8.89108E-05-2.50406E-05-2.73893E-05-1.62077E-05 1.89891E-19-1.87419E-19
 -1      3049 8.35497E-05-2.51555E-05-2.50070E-05-1.92022E-05 1.20276E-18-8.36730E-19
 -1      3050 8.96682E-05-2.42062E-05-2.80048E-05-1.44216E-05-4.35746E-19 3.19376E-19
 -1      3051 8.93931E-05-2.34374E-05-2.82996E-05-1.31995E-05-3.89418E-19 2.96767E-19
 -1      3052 8.45173E-05-2.23083E-05-2.66442E-05-1.48541E-05 7.86744E-20-1.64534E-19
 -1      3053 9.03798E-05-2.33733E-05-2.86915E-05-1.18828E-05-5.52864E-19 7.62066E-19
 -1      3054 9.05078E-05-2.32563E-05-2.88529E-05-1.08118E-05-6.82084E-19 6.36531E-19
 -1      3055 8.63997E-05-2.16090E-05-2.77377E-05-1.18538E-05-1.97067E-19 1.02980E-18
 -1      3056 9.14468E-05-2.35544E-05-2.90824E-05-9.78834E-06-5.42729E-19 6.91296E-19
 -1      3057 9.16852E-05-2.37384E-05-2.91461E-05-8.84870E-06 1.89603E-19 5.57179E-19
 -1      3058 8.83634E-05-2.19855E-05-2.84179E-05-9.65259E-06-5.41449E-19 1.76381E-18
 -1      3059 9.24770E-05-2.41701E-05-2.92648E-05-8.01165E-06 7.17037E-20 4.02788E-19
 -1      3060 9.27014E-05-2.44646E-05-2.92655E-05-7.19272E-06-1.55395E-19 4.95733E-19
 -1      3061 9.00919E-05-2.28113E-05-2.88093E-05-7.91470E-06-2.20495E-19 1.25148E-18
 -1      3062 9.33253E-05-2.49103E-05-2.93130E-05-6.49067E-06-2.95421E-19 5.76078E-19
 -1      3063 9.34948E-05-2.52193E-05-2.92779E-05-5.78703E-06-7.93219E-20 6.24522E-19
 -1      3064 9.14932E-05-2.37628E-05-2.90076E-05-6.46961E-06 7.32566E-20 9.93723E-19
 -1      3065 9.39652E-05-2.56235E-05-2.92824E-05-5.19483E-06-6.38308E-19 6.70173E-19
 -1      3066 9.40772E-05-2.59043E-05-2.92302E-05-4.60057E-06-4.91185E-19 2.49413E-19
 -1      3067 9.25716E-05-2.46761E-05-2.90835E-05-5.24168E-06-3.03505E-19 9.16760E-19
 -1      3068 9.44211E-05-2.62475E-05-2.92109E-05-4.10386E-06-6.77277E-19-2.00125E-19
 -1      3069 9.44863E-05-2.64857E-05-2.91534E-05-3.61059E-06-7.30024E-19-2.00839E-19
 -1      3070 9.33726E-05-2.54803E-05-2.90865E-05-4.19650E-06-8.56098E-19 2.79556E-20
 -1      3071 9.47323E-05-2.67660E-05-2.91226E-05-3.19865E-06-8.60505E-19 1.60456E-19
 -1      3072 9.47645E-05-2.69605E-05-2.90667E-05-2.79582E-06-1.13471E-18 3.11482E-19
 -1      3073 9.39526E-05-2.61549E-05-2.90492E-05-3.31486E-06-8.41182E-19 4.22951E-19
 -1      3074 9.49374E-05-2.71842E-05-2.90319E-05-2.45878E-06-8.75207E-19-3.20739E-19
 -1      3075 9.49485E-05-2.73396E-05-2.89813E-05-2.13471E-06-4.15580E-19-1.11667E-18
 -1      3076 9.43649E-05-2.67043E-05-2.89929E-05-2.58131E-06-1.46062E-18 5.03408E-19
 -1      3077 9.50686E-05-2.75154E-05-2.89469E-05-1.86286E-06-3.18301E-19-1.04927E-18
 -1      3078 9.50675E-05-2.76379E-05-2.89029E-05-1.60581E-06-3.61063E-19-5.58233E-19
 -1      3079 9.46538E-05-2.71433E-05-2.89302E-05-1.98023E-06-2.81988E-19-6.71909E-19
 -1      3080 9.51499E-05-2.77747E-05-2.88713E-05-1.38966E-06-1.76592E-19 3.18275E-19
 -1      3081 9.51427E-05-2.78704E-05-2.88344E-05-1.18850E-06-3.78736E-19 7.68981E-19
 -1      3082 9.48540E-05-2.74896E-05-2.88687E-05-1.49527E-06-1.90436E-20-4.68888E-19
 -1      3083 9.51987E-05-2.79759E-05-2.88066E-05-1.01911E-06-1.08605E-18 8.77771E-19
 -1      3084 9.51890E-05-2.80501E-05-2.87763E-05-8.63792E-07-6.47648E-19 5.10241E-19
 -1      3085 9.49913E-05-2.77602E-05-2.88124E-05-1.10998E-06-5.11449E-19 1.16420E-19
 -1      3086 9.52267E-05-2.81310E-05-2.87528E-05-7.32978E-07-7.08956E-19 2.66191E-19
 -1      3087 9.52169E-05-2.81883E-05-2.87284E-05-6.14697E-07-7.08230E-19 5.97390E-19
 -1      3088 9.50845E-05-2.79698E-05-2.87630E-05-8.08511E-07-6.17197E-19 1.16255E-18
 -1      3089 9.52418E-05-2.82497E-05-2.87089E-05-5.15200E-07-7.55124E-19 6.44081E-19
 -1      3090 9.52329E-05-2.82936E-05-2.86896E-05-4.26432E-07-5.29301E-19 1.74559E-18
 -1      3091 9.51471E-05-2.81309E-05-2.87210E-05-5.76234E-07-5.77963E-19 1.28824E-18
 -1      3092 9.52491E-05-2.83399E-05-2.86738E-05-3.51970E-07-3.41300E-19 1.11975E-18
 -1      3093 9.52417E-05-2.83733E-05-2.86588E-05-2.86407E-07 6.01232E-19 6.80769E-19
 -1      3094 9.51885E-05-2.82537E-05-2.86863E-05-4.00095E-07-5.52506E-19 1.89960E-18
 -1      3095 9.52519E-05-2.84078E-05-2.86462E-05-2.31660E-07 1.56797E-18 4.05755E-20
 -1      3096 9.52459E-05-2.84330E-05-2.86348E-05-1.84100E-07 1.60444E-18 7.88765E-19
 -1      3097 9.52152E-05-2.83464E-05-2.86581E-05-2.68767E-07 6.50137E-19 4.01737E-19
 -1      3098 9.52521E-05-2.84585E-05-2.86249E-05-1.44644E-07 1.07439E-18 1.07053E-18
 -1      3099 9.52476E-05-2.84772E-05-2.86163E-05-1.10861E-07 1.85424E-20 1.68737E-18
 -1      3100 9.52320E-05-2.84157E-05-2.86357E-05-1.72650E-07 1.80832E-18-2.10523E-19
 -1      3101 9.52510E-05-2.84957E-05-2.86087E-05-8.30835E-08 6.87356E-19 2.63384E-18
 -1      3102 9.52477E-05-2.85095E-05-2.86024E-05-5.96864E-08 1.95865E-18 3.21224E-18
 -1      3103 9.52420E-05-2.84667E-05-2.86181E-05-1.03766E-07 1.35386E-18 1.86598E-18
 -1      3104 9.52493E-05-2.85227E-05-2.85966E-05-4.06822E-08 1.08353E-18 2.77733E-18
 -1      3105 9.52469E-05-2.85326E-05-2.85921E-05-2.49902E-08 6.55859E-19 2.19153E-18
 -1      3106 9.52475E-05-2.85038E-05-2.86046E-05-5.56085E-08 1.15930E-18 3.12419E-18
 -1      3107 9.52475E-05-2.85419E-05-2.85878E-05-1.24596E-08 8.13725E-19 1.69608E-18
 -1      3108 9.52458E-05-2.85489E-05-2.85845E-05-2.38023E-09 9.74206E-19 1.82745E-18
 -1      3109 9.52500E-05-2.85302E-05-2.85943E-05-2.29564E-08 6.55261E-19 2.15850E-18
 -1      3110 9.52457E-05-2.85552E-05-2.85814E-05 5.46899E-09 8.79796E-19 1.98657E-18
 -1      3111 9.52446E-05-2.85601E-05-2.85792E-05 1.15447E-08 1.10483E-20 2.04370E-18
 -1      3112 9.52506E-05-2.85486E-05-2.85867E-05-1.68975E-09 9.81855E-19 1.79281E-18
 -1      3113 9.52440E-05-2.85642E-05-2.85769E-05 1.60863E-08-4.42007E-19 1.51205E-18
 -1      3114 9.52433E-05-2.85674E-05-2.85754E-05 1.93763E-08 2.44609E-19 6.72442E-19
 -1      3115 9.52500E-05-2.85610E-05-2.85811E-05 1.13905E-08-2.24054E-19 7.02520E-19
 -1      3116 9.52426E-05-2.85700E-05-2.85739E-05 2.16449E-08 1.60804E-19 1.60698E-19
 -1      3117 9.52422E-05-2.85721E-05-2.85729E-05 2.30538E-08 2.52807E-19-3.67963E-19
 -1      3118 9.52488E-05-2.85690E-05-2.85771E-05 1.87260E-08-4.39651E-19-6.80410E-19
 -1      3119 9.52413E-05-2.85735E-05-2.85718E-05 2.38124E-08-2.88672E-19-8.62268E-19
 -1      3120 9.52412E-05-2.85748E-05-2.85713E-05 2.39970E-08-3.90173E-19-1.20029E-18
 -1      3121 9.52473E-05-2.85740E-05-2.85743E-05 2.21446E-08-8.51754E-19-1.52378E-18
 -1      3122 9.52403E-05-2.85756E-05-2.85706E-05 2.37939E-08 1.10058E-18-1.14498E-18
 -1      3123 9.52403E-05-2.85763E-05-2.85703E-05 2.32169E-08 1.71399E-18-6.07001E-19
 -1      3124 9.52456E-05-2.85768E-05-2.85724E-05 2.29847E-08 8.57274E-20-1.25242E-18
 -1      3125 9.52395E-05-2.85766E-05-2.85698E-05 2.24333E-08 8.95340E-19-1.26960E-18
 -1      3126 9.52396E-05-2.85770E-05-2.85697E-05 2.14057E-08-1.18100E-18-1.72088E-19
 -1      3127 9.52441E-05-2.85782E-05-2.85711E-05 2.21995E-08 8.35486E-19-1.90399E-18
 -1      3128 9.52389E-05-2.85771E-05-2.85694E-05 2.02979E-08-1.98910E-18 1.33490E-18
 -1      3129 9.52391E-05-2.85773E-05-2.85693E-05 1.90102E-08-1.68944E-18 1.50880E-18
 -1      3130 9.52426E-05-2.85788E-05-2.85703E-05 2.04441E-08-5.14547E-19-1.08474E-18
 -1      3131 9.52386E-05-2.85773E-05-2.85691E-05 1.77189E-08-7.84683E-19 1.73007E-18
 -1      3132 9.52389E-05-2.85776E-05-2.85691E-05 1.63036E-08 1.32533E-19 2.76981E-18
 -1      3133 9.52415E-05-2.85790E-05-2.85697E-05 1.81541E-08-5.70234E-19 1.55682E-18
 -1      3134 1.10510E-04-3.64096E-05-3.17859E-05 7.67138E-06 7.99480E-19 1.15647E-18
 -1      3135 1.10513E-04-3.69745E-05-3.15092E-05 6.42737E-06 7.56273E-19 1.08351E-18
 -1      3136 1.09230E-04-3.65566E-05-3.12087E-05 4.86018E-06 8.65045E-19 8.03613E-19
 -1      3137 1.08741E-04-3.59320E-05-3.11395E-05 3.84229E-06 7.24114E-19 7.24896E-19
 -1      3138 1.11317E-04-3.78852E-05-3.14781E-05 4.77268E-06 7.15257E-19 7.61292E-19
 -1      3139 1.02547E-04-1.98814E-05-3.54660E-05-1.36652E-06 1.82269E-18 6.92532E-19
 -1      3140 1.02687E-04-2.01080E-05-3.54510E-05 1.99056E-06 1.77335E-18 1.17853E-18
 -1      3141 1.03874E-04-2.17939E-05-3.51399E-05 5.81953E-06 1.35589E-18 1.37804E-18
 -1      3142 1.05118E-04-2.42253E-05-3.47885E-05 8.18939E-06 1.08912E-18 1.50542E-18
 -1      3143 1.05398E-04-1.97181E-05-3.67675E-05 4.60985E-06 1.73157E-18 1.27793E-18
 -1      3144 1.07619E-04-2.95010E-05-3.36001E-05-1.10317E-05 1.24011E-18-6.80452E-19
 -1      3145 1.06165E-04-2.63437E-05-3.41558E-05-1.01993E-05 1.50149E-18-4.15119E-19
 -1      3146 1.09968E-04-3.51154E-05-3.21495E-05-1.00954E-05 7.83770E-19-1.17541E-18
 -1      3147 1.08917E-04-3.24883E-05-3.27298E-05-1.07764E-05 1.10044E-18-8.08638E-19
 -1      3148 1.11027E-04-3.16114E-05-3.40079E-05-1.15127E-05 1.30693E-18-1.19338E-18
 -1      3149 1.10126E-04-3.80347E-05-3.09077E-05-6.47636E-06-7.68203E-21-6.98615E-19
 -1      3150 1.10072E-04-3.68983E-05-3.13665E-05-8.05841E-06 2.58114E-19-9.34732E-19
 -1      3151 1.12650E-04-3.77866E-05-3.20686E-05-8.76045E-06 2.72405E-19-8.73205E-19
 -1      3152 1.08450E-04-3.82848E-05-3.00474E-05-2.54134E-06-5.18229E-21-4.72172E-19
 -1      3153 1.09080E-04-3.83150E-05-3.03562E-05-4.29872E-06 5.31927E-20-2.06215E-19
 -1      3154 1.11372E-04-3.97219E-05-3.06743E-05-4.43582E-06-2.33287E-19-3.97032E-19
 -1      3155 1.05786E-04-3.67603E-05-2.95433E-05 6.78478E-07-3.57258E-19-1.04743E-19
 -1      3156 1.06784E-04-3.75188E-05-2.97199E-05-7.32830E-07-1.70235E-19-2.54964E-19
 -1      3157 1.08530E-04-3.91738E-05-2.97461E-05-2.94971E-07-3.00153E-19-2.69986E-20
 -1      3158 1.03040E-04-3.46152E-05-2.92875E-05 2.83849E-06-5.63206E-19 2.71462E-19
 -1      3159 1.04109E-04-3.56224E-05-2.93770E-05 1.87290E-06-1.02058E-19 2.68188E-19
 -1      3160 1.05135E-04-3.70034E-05-2.92344E-05 2.59911E-06-4.43310E-19 3.51041E-19
 -1      3161 1.00670E-04-3.25163E-05-2.91792E-05 4.02962E-06-9.11076E-19 5.05608E-19
 -1      3162 1.01625E-04-3.34763E-05-2.92206E-05 3.47694E-06-9.63800E-19 2.63915E-19
 -1      3163 1.02024E-04-3.44309E-05-2.90036E-05 4.27873E-06-8.19129E-19 2.28898E-19
 -1      3164 9.88357E-05-3.07922E-05-2.91410E-05 4.49139E-06-9.24517E-19 6.36013E-19
 -1      3165 9.96035E-05-3.15709E-05-2.91627E-05 4.26081E-06-7.97356E-19 7.79931E-19
 -1      3166 9.95511E-05-3.21108E-05-2.89318E-05 5.00682E-06-1.07467E-18 3.33313E-19
 -1      3167 9.75179E-05-2.95297E-05-2.91252E-05 4.46516E-06-8.49519E-19 1.12400E-18
 -1      3168 9.80961E-05-3.00966E-05-2.91434E-05 4.45894E-06-6.81438E-19 9.60108E-19
 -1      3169 9.77641E-05-3.03047E-05-2.89323E-05 5.09642E-06-1.03413E-18 1.19516E-18
 -1      3170 9.66221E-05-2.86897E-05-2.91071E-05 4.14326E-06-7.36705E-19 8.02643E-19
 -1      3171 9.70394E-05-2.90664E-05-2.91291E-05 4.27864E-06-7.02428E-19 8.42810E-19
 -1      3172 9.65650E-05-2.90414E-05-2.89531E-05 4.80149E-06-6.87834E-19 1.47810E-18
 -1      3173 9.60410E-05-2.81867E-05-2.90776E-05 3.66506E-06-4.71511E-21 2.00950E-20
 -1      3174 9.63340E-05-2.84133E-05-2.91052E-05 3.87859E-06-2.17887E-19 4.76267E-19
 -1      3175 9.58135E-05-2.82423E-05-2.89683E-05 4.30005E-06-1.65308E-19 9.13038E-19
 -1      3176 9.56800E-05-2.79285E-05-2.90361E-05 3.12595E-06 8.86871E-19-8.36184E-19
 -1      3177 9.58822E-05-2.80466E-05-2.90681E-05 3.37240E-06 4.68465E-19-6.51979E-19
 -1      3178 9.53774E-05-2.77981E-05-2.89682E-05 3.71055E-06 7.08085E-19 2.97073E-19
 -1      3179 9.54655E-05-2.78350E-05-2.89856E-05 2.58763E-06 8.57060E-19-1.11700E-18
 -1      3180 9.56039E-05-2.78802E-05-2.90200E-05 2.83681E-06 9.95028E-19-6.74386E-19
 -1      3181 9.51496E-05-2.76031E-05-2.89518E-05 3.10838E-06 6.61046E-19-3.17481E-19
 -1      3182 9.53444E-05-2.78437E-05-2.89307E-05 2.08707E-06 1.85221E-19-2.82714E-19
 -1      3183 9.54389E-05-2.78437E-05-2.89651E-05 2.32041E-06 5.64033E-19-6.78712E-19
 -1      3184 9.50513E-05-2.75700E-05-2.89223E-05 2.53895E-06 6.34226E-19 2.36811E-19
 -1      3185 9.52802E-05-2.79095E-05-2.88752E-05 1.64381E-06 1.41420E-19-1.98193E-19
 -1      3186 9.53449E-05-2.78840E-05-2.89079E-05 1.85122E-06 2.53403E-19-3.88028E-19
 -1      3187 9.50279E-05-2.76330E-05-2.88845E-05 2.02717E-06 4.19836E-19 3.65157E-19
 -1      3188 9.52493E-05-2.80017E-05-2.88224E-05 1.26557E-06-3.06706E-19-2.50737E-19
 -1      3189 9.52938E-05-2.79642E-05-2.88521E-05 1.44284E-06-1.33354E-19 2.09884E-19
 -1      3190 9.50437E-05-2.77454E-05-2.88426E-05 1.58419E-06-3.45522E-19 5.23056E-20
 -1      3191 9.52367E-05-2.81010E-05-2.87742E-05 9.52390E-07-5.75230E-21-4.20579E-19
 -1      3192 9.52676E-05-2.80599E-05-2.88003E-05 1.09917E-06 5.91397E-20-2.95198E-19
 -1      3193 9.50767E-05-2.78767E-05-2.88003E-05 1.21216E-06 4.30466E-20 3.42466E-19
 -1      3194 9.52335E-05-2.81959E-05-2.87319E-05 6.99740E-07-9.90832E-19-5.98884E-19
 -1      3195 9.52551E-05-2.81562E-05-2.87541E-05 8.18019E-07-5.75421E-19-1.66197E-19
 -1      3196 9.51141E-05-2.80077E-05-2.87601E-05 9.07640E-07-3.41615E-19 5.79531E-19
 -1      3197 9.52344E-05-2.82803E-05-2.86958E-05 5.00675E-07-3.84606E-19-4.82603E-19
 -1      3198 9.52496E-05-2.82448E-05-2.87142E-05 5.93673E-07-5.36349E-19-9.02229E-20
 -1      3199 9.51491E-05-2.81278E-05-2.87236E-05 6.64063E-07-7.58493E-19 3.23532E-19
 -1      3200 9.52368E-05-2.83519E-05-2.86659E-05 3.47305E-07-5.52039E-19-4.23312E-19
 -1      3201 9.52474E-05-2.83217E-05-2.86808E-05 4.18744E-07-3.51455E-19-3.21934E-19
 -1      3202 9.51787E-05-2.82319E-05-2.86916E-05 4.73381E-07-8.36318E-19 2.09018E-19
 -1      3203 9.52391E-05-2.84105E-05-2.86416E-05 2.31742E-07-1.06883E-19-4.12347E-19
 -1      3204 9.52466E-05-2.83856E-05-2.86534E-05 2.85365E-07-2.54260E-19-7.33439E-19
 -1      3205 9.52019E-05-2.83185E-05-2.86645E-05 3.27204E-07-5.78922E-19 4.13859E-19
 -1      3206 9.52409E-05-2.84568E-05-2.86223E-05 1.46657E-07-3.91560E-22 3.30684E-19
 -1      3207 9.52461E-05-2.84371E-05-2.86314E-05 1.85948E-07-1.10548E-19-4.63657E-19
 -1      3208 9.52192E-05-2.83882E-05-2.86420E-05 2.17501E-07-8.48013E-20-4.38974E-19
 -1      3209 9.52420E-05-2.84925E-05-2.86073E-05 8.55745E-08 1.34977E-18 4.83745E-19
 -1      3210 9.52456E-05-2.84772E-05-2.86143E-05 1.13612E-07 7.72268E-19 5.96440E-19
 -1      3211 9.52313E-05-2.84428E-05-2.86238E-05 1.36999E-07 4.61937E-20-1.15369E-19
 -1      3212 9.52425E-05-2.85193E-05-2.85959E-05 4.29784E-08 1.53998E-18 2.54221E-19
 -1      3213 9.52449E-05-2.85078E-05-2.86011E-05 6.23789E-08 1.79771E-18 4.73111E-19
 -1      3214 9.52393E-05-2.84843E-05-2.86094E-05 7.93731E-08 1.49525E-18 1.51529E-19
 -1      3215 9.52425E-05-2.85389E-05-2.85874E-05 1.43107E-08 6.41959E-19 3.46039E-19
 -1      3216 9.52441E-05-2.85304E-05-2.85912E-05 2.72321E-08 1.06308E-18 4.51494E-19
 -1      3217 9.52440E-05-2.85152E-05-2.85982E-05 3.92977E-08 8.45879E-19 5.01225E-19
 -1      3218 9.52422E-05-2.85528E-05-2.85813E-05-4.10003E-09 5.26994E-19 8.11322E-19
 -1      3219 9.52431E-05-2.85467E-05-2.85839E-05 4.07470E-09 1.20582E-18 1.23821E-18
 -1      3220 9.52465E-05-2.85374E-05-2.85897E-05 1.24035E-08 2.52438E-19 5.74467E-19
 -1      3221 9.52416E-05-2.85623E-05-2.85769E-05-1.51421E-08-2.90714E-19-7.04967E-20
 -1      3222 9.52422E-05-2.85581E-05-2.85787E-05-1.03563E-08 1.77854E-19 4.79626E-19
 -1      3223 9.52474E-05-2.85530E-05-2.85834E-05-4.80911E-09 6.72039E-19 4.91313E-19
 -1      3224 9.52410E-05-2.85686E-05-2.85739E-05-2.10366E-08-1.67837E-19-5.63366E-19
 -1      3225 9.52413E-05-2.85658E-05-2.85751E-05-1.86006E-08-3.54378E-19-7.93180E-20
 -1      3226 9.52472E-05-2.85636E-05-2.85788E-05-1.50819E-08-2.05184E-19-4.15569E-19
 -1      3227 9.52404E-05-2.85726E-05-2.85719E-05-2.34511E-08-6.97156E-19 1.22210E-18
 -1      3228 9.52404E-05-2.85708E-05-2.85726E-05-2.25893E-08-8.06381E-19 3.90421E-19
 -1      3229 9.52464E-05-2.85704E-05-2.85755E-05-2.05163E-08-1.35197E-18-1.03849E-19
 -1      3230 9.52397E-05-2.85749E-05-2.85706E-05-2.36036E-08-1.66665E-18 4.09193E-18
 -1      3231 9.52397E-05-2.85738E-05-2.85710E-05-2.37542E-08-9.50647E-19 3.07654E-18
 -1      3232 9.52452E-05-2.85745E-05-2.85732E-05-2.26852E-08-2.41872E-18 2.78421E-18
 -1      3233 9.52392E-05-2.85762E-05-2.85699E-05-2.23538E-08-1.66587E-18 3.06171E-18
 -1      3234 9.52391E-05-2.85755E-05-2.85701E-05-2.31251E-08-1.54537E-18 3.24053E-18
 -1      3235 9.52439E-05-2.85769E-05-2.85716E-05-2.27348E-08-1.43842E-18 4.33417E-18
 -1      3236 9.52388E-05-2.85768E-05-2.85694E-05-2.02812E-08 1.21823E-18 2.13420E-18
 -1      3237 9.52386E-05-2.85764E-05-2.85695E-05-2.14133E-08-2.69153E-19 2.37024E-18
 -1      3238 9.52427E-05-2.85780E-05-2.85706E-05-2.14725E-08-6.10536E-19 1.87767E-18
 -1      3239 9.52386E-05-2.85771E-05-2.85692E-05-1.77470E-08-1.92383E-19 2.06556E-18
 -1      3240 9.52383E-05-2.85769E-05-2.85692E-05-1.90779E-08 1.22129E-18 2.53095E-18
 -1      3241 9.52416E-05-2.85785E-05-2.85699E-05-1.94389E-08 2.99150E-19 2.81398E-18
 -1      3242 9.52386E-05-2.85775E-05-2.85690E-05-1.53144E-08-2.75879E-19-2.33588E-19
 -1      3243 9.52382E-05-2.85771E-05-2.85690E-05-1.67405E-08-7.36903E-19 2.21738E-19
 -1      3244 9.52407E-05-2.85786E-05-2.85695E-05-1.72442E-08 2.48177E-19 2.84834E-18
 -1      3245 9.52401E-05-2.85787E-05-2.85692E-05-1.52380E-08 4.82285E-19 1.24005E-18
 -1      3246 9.52471E-05-2.85840E-05-2.85699E-05 1.02047E-08 6.50921E-19-1.02257E-18
 -1      3247 9.52482E-05-2.85849E-05-2.85700E-05 8.30594E-09 3.93610E-19-3.12156E-19
 -1      3248 9.52496E-05-2.85859E-05-2.85701E-05-3.77868E-09-3.65986E-19-3.15245E-18
 -1      3249 9.52490E-05-2.85855E-05-2.85701E-05-6.02307E-09 2.23603E-19-2.81368E-18
 -1      3250 7.89056E-05-3.60071E-05-1.78766E-05-3.23252E-05 3.50529E-18 8.84991E-19
 -1      3251 9.51581E-05-4.53785E-05-2.14616E-05-3.11987E-05 3.12862E-18-1.52619E-18
 -1      3252 1.10395E-04-4.95091E-05-2.58058E-05-2.69999E-05-2.01186E-18-8.47761E-19
 -1      3253 1.19367E-04-5.30124E-05-2.87417E-05-2.01704E-05-1.51211E-18 8.20067E-20
 -1      3254 9.52441E-05-2.85818E-05-2.85696E-05 1.34207E-08 5.80900E-20-4.44810E-19
 -1      3255 9.52457E-05-2.85830E-05-2.85697E-05 1.20869E-08 7.29135E-19-2.00612E-18
 -1      3256 9.52475E-05-2.85835E-05-2.85703E-05 1.19267E-08 3.81668E-19-5.75964E-19
 -1      3257 9.52491E-05-2.85855E-05-2.85701E-05 5.97876E-09-1.46910E-19-1.17698E-19
 -1      3258 9.52496E-05-2.85859E-05-2.85701E-05 3.79075E-09 4.59404E-19 1.02562E-18
 -1      3259 9.52500E-05-2.85852E-05-2.85706E-05 7.62463E-09 6.02933E-19-4.37907E-19
 -1      3260 5.52758E-05-2.01485E-05-1.46016E-05-2.32658E-05 1.74764E-18 2.40324E-18
 -1      3261 6.65121E-05-2.86119E-05-1.60509E-05-3.04568E-05 2.31812E-18 1.26557E-18
 -1      3262 7.75455E-05-3.12174E-05-1.94430E-05-2.79075E-05 2.49229E-18 2.98579E-19
 -1      3263 4.88984E-05-1.56604E-05-1.41731E-05 2.06818E-05-1.58893E-18 3.39671E-18
 -1      3264 4.32668E-05-1.14316E-05-1.31545E-05 8.53131E-06-7.75485E-19 3.43874E-18
 -1      3265 1.27499E-04-4.11282E-05-3.70969E-05 8.28920E-06 1.62207E-19 1.88094E-18
 -1      3266 1.24597E-04-3.23203E-05-3.99419E-05 1.25073E-05 1.04413E-18 1.78787E-18
 -1      3267 1.04426E-04-3.02964E-05-3.18249E-05 4.47180E-06 1.41608E-18 1.07675E-18
 -1      3268 9.52499E-05-2.85861E-05-2.85702E-05 1.15630E-09 6.55612E-20-1.35938E-20
 -1      3269 9.52499E-05-2.85861E-05-2.85702E-05-1.20073E-09-9.19552E-20-1.37825E-18
 -1      3270 9.52512E-05-2.85860E-05-2.85708E-05-2.66085E-09-7.12010E-19-1.63921E-18
 -1      3271 9.52513E-05-2.85861E-05-2.85708E-05 2.63019E-09-3.48547E-19 1.28386E-18
 -1      3272 1.04268E-04-2.31180E-05-3.48841E-05-8.06825E-06 1.63110E-18-2.20526E-20
 -1      3273 1.03243E-04-2.09787E-05-3.52312E-05-5.35075E-06 1.79368E-18 3.03187E-19
 -1      3274 1.07742E-04-2.43576E-05-3.57634E-05-1.00804E-05 1.83319E-18-3.14739E-19
 -1      3275 8.82263E-05-3.82116E-05-2.12110E-05-3.48603E-05-2.05580E-18-2.27751E-18
 -1      3276 1.00888E-04-4.54593E-05-2.37707E-05-3.22222E-05-2.08227E-18-1.50690E-18
 -1      3277 1.06127E-04-4.55034E-05-2.58009E-05-2.58131E-05-1.85371E-18-1.00914E-18
 -1      3278 8.88131E-05-2.49097E-05-2.73104E-05 1.65704E-05 6.79539E-19-1.20588E-18
 -1      3279 9.14824E-05-2.92669E-05-2.65105E-05 1.91115E-05 1.08902E-18-1.23620E-18
 -1      3280 4.14423E-05-1.12452E-05-1.26542E-05-2.67467E-06 4.36937E-19 4.04501E-18
 -1      3281 4.61347E-05-1.45755E-05-1.31720E-05-1.48527E-05 8.62941E-19 4.15459E-18
 -1      3282 1.02482E-04-4.54052E-05-2.41976E-05-2.56081E-05 2.81993E-18-1.36679E-18
 -1      3283 1.26495E-04-5.66273E-05-3.02839E-05 1.41055E-05-7.83241E-19-3.25314E-18
 -1      3284 1.18399E-04-5.47311E-05-2.69349E-05 2.16822E-05-1.66164E-18-2.67950E-18
 -1      3285 8.36707E-05-1.32232E-05-3.02097E-05 4.58226E-06-5.03631E-19-2.02145E-18
 -1      3286 1.03415E-04-2.92958E-05-3.17042E-05 3.55831E-06 1.34398E-18 5.48857E-19
 -1      3287 7.46315E-05-3.34353E-05-1.77084E-05 3.57776E-05-2.93179E-18 2.35581E-19
 -1      3288 6.08369E-05-2.34183E-05-1.55539E-05 2.97286E-05-2.65749E-18 2.47699E-18
 -1      3289 1.26757E-04-5.27632E-05-3.14998E-05-1.01144E-05-1.23103E-18 5.55548E-19
 -1      3290 1.28380E-04-4.86101E-05-3.44668E-05 3.33338E-07-6.34242E-19 1.39951E-18
 -1      3291 1.20958E-04-5.04962E-05-3.01549E-05-1.22851E-05-1.42337E-18 2.44740E-19
 -1      3292 1.30956E-04-4.83938E-05-3.59905E-05-3.63530E-06 6.23946E-19-2.15808E-18
 -1      3293 1.30419E-04-5.35249E-05-3.28409E-05 4.88483E-06-2.75299E-19-2.59986E-18
 -1      3294 1.25771E-04-5.26445E-05-3.12622E-05 6.17857E-06-1.08710E-18-2.36907E-18
 -1      3295 4.99850E-05-1.36860E-05-1.49681E-05 1.90536E-05 1.15959E-18-3.61069E-18
 -1      3296 4.07642E-05-8.85339E-06-1.32217E-05 8.80651E-06 7.15293E-19-4.07317E-18
 -1      3297 4.81422E-05-8.49676E-06-1.66547E-05 5.84886E-06 5.87523E-19-3.79487E-18
 -1      3298 1.04728E-04-5.03615E-05-2.36111E-05 3.09564E-05-2.35274E-18-1.38763E-18
 -1      3299 9.00467E-05-4.18694E-05-2.01597E-05 3.47667E-05-2.75585E-18-7.93485E-19
 -1      3300 8.62926E-05-1.91172E-05-2.87187E-05-1.10209E-05 4.50665E-19-1.89808E-18
 -1      3301 8.21055E-05-1.65548E-05-2.81560E-05-1.22061E-05 2.81642E-19-2.11527E-18
 -1      3302 1.19353E-04-1.57610E-05-4.48390E-05-9.95218E-06 3.48109E-18-2.97441E-19
 -1      3303 1.22916E-04-2.17304E-05-4.37020E-05-1.30114E-05 3.10199E-18-1.12422E-18
 -1      3304 1.20622E-04-2.68638E-05-4.03060E-05-1.31328E-05 2.51706E-18-9.22604E-19
 -1      3305 1.01207E-04-4.13340E-05-2.54039E-05 2.37030E-05 1.36621E-18-9.71984E-19
 -1      3306 8.77735E-05-3.83073E-05-2.10384E-05 3.10724E-05 1.67014E-18-1.50047E-18
 -1      3307 7.83928E-05-3.01781E-05-2.04707E-05 2.81858E-05 1.70275E-18-1.87713E-18
 -1      3308 9.52015E-05-3.46138E-05-2.57415E-05 2.22240E-05 1.31053E-18-9.90062E-19
 -1      3309 1.04546E-04-3.12676E-05-3.13376E-05 2.36171E-06 1.11032E-18 4.44787E-19
 -1      3310 7.75002E-05-1.31343E-05-2.74835E-05-1.27059E-05 1.96576E-19-2.23959E-18
 -1      3311 7.34840E-05-1.06522E-05-2.70313E-05-1.23506E-05-6.25679E-21-2.44822E-18
 -1      3312 8.07713E-05-1.74012E-05-2.71906E-05-1.46400E-05 1.10710E-20-2.09103E-18
 -1      3313 4.79323E-05-6.93957E-06-1.74789E-05-9.01939E-06-1.39328E-19-4.03167E-18
 -1      3314 4.96678E-05-9.08932E-06-1.67336E-05-1.78690E-05-5.01417E-19-4.18990E-18
 -1      3315 1.05687E-04-3.30566E-05-3.11533E-05 2.53162E-06 9.04040E-19 4.29083E-19
 -1      3316 9.62395E-05-3.87202E-05-2.43848E-05-2.47688E-05 2.97866E-18-8.35399E-19
 -1      3317 8.51897E-05-3.24674E-05-2.26327E-05-2.58237E-05 2.56127E-18-5.95199E-19
 -1      3318 1.10636E-04-3.51469E-05-3.23897E-05 9.40777E-06 7.81616E-19 1.43263E-18
 -1      3319 1.13007E-04-3.72169E-05-3.24425E-05 8.35207E-06 5.90280E-19 1.19606E-18
 -1      3320 1.09716E-04-3.30880E-05-3.28416E-05 9.99445E-06 7.02429E-19 1.51413E-18
 -1      3321 9.52384E-05-2.85776E-05-2.85689E-05 1.47239E-08 1.43783E-19 2.60523E-18
 -1      3322 5.96833E-05-1.86938E-05-1.71728E-05 2.19982E-05 1.47431E-18-3.08076E-18
 -1      3323 1.06846E-04-3.43550E-05-3.10949E-05 1.67636E-06 8.03702E-19 2.13923E-19
 -1      3324 1.04989E-04-1.92142E-05-3.68444E-05-3.66502E-06 2.15102E-18 5.82355E-19
 -1      3325 9.52499E-05-2.85851E-05-2.85706E-05-7.69796E-09-3.70161E-20-1.06654E-18
 -1      3326 9.52482E-05-2.85848E-05-2.85700E-05-8.35191E-09 3.71202E-19-2.29338E-20
 -1      3327 9.52471E-05-2.85840E-05-2.85699E-05-1.02619E-08-9.55959E-20 1.16352E-18
 -1      3328 6.92747E-05-6.47661E-06-2.69661E-05 1.62663E-06 8.33566E-20-2.75110E-18
 -1      3329 7.29336E-05-8.57938E-06-2.75626E-05 3.89813E-06-3.69022E-20-2.52691E-18
 -1      3330 1.11367E-04-5.05734E-05-2.58802E-05 2.29203E-05-2.25440E-18-2.02872E-18
 -1      3331 8.47228E-05-2.78498E-05-2.43633E-05 2.22825E-05 1.16846E-18-1.62822E-18
 -1      3332 9.88771E-05-2.68139E-05-3.09025E-05-2.12129E-06 1.16315E-18-7.68959E-19
 -1      3333 9.65415E-05-2.53585E-05-3.04752E-05-4.21504E-06 1.05185E-18-1.11179E-18
 -1      3334 1.01742E-04-2.99055E-05-3.08197E-05-1.63287E-06 1.04149E-18-4.17409E-19
 -1      3335 8.41536E-05-1.51381E-05-2.95597E-05 7.01341E-06-2.82428E-19-1.83920E-18
 -1      3336 5.67532E-05-1.75678E-05-1.63084E-05-1.77223E-05 1.17227E-18 2.66286E-18
 -1      3337 6.06843E-05-1.98993E-05-1.70127E-05 2.27849E-05-2.63790E-18 1.82848E-18
 -1      3338 1.19994E-04-3.24662E-05-3.75183E-05 1.23298E-05 6.21299E-19 2.00460E-18
 -1      3339 1.21848E-04-2.85317E-05-4.01549E-05 1.32502E-05 1.33911E-18 1.77321E-18
 -1      3340 1.17047E-04-2.42215E-05-4.01390E-05 1.23325E-05 1.48159E-18 1.66963E-18
 -1      3341 4.89777E-05-1.19236E-05-1.53837E-05 2.50080E-06-5.28013E-19 3.17563E-18
 -1      3342 5.72435E-05-1.34696E-05-1.85037E-05-2.21798E-05-8.50633E-19-3.54504E-18
 -1      3343 9.52431E-05-2.85811E-05-2.85695E-05-1.39589E-08 7.44386E-19 2.79145E-18
 -1      3344 9.52418E-05-2.85800E-05-2.85694E-05-1.45395E-08 7.32955E-19 1.85232E-18
 -1      3345 9.52421E-05-2.85799E-05-2.85695E-05-1.55824E-08 6.84488E-19 2.14342E-18
 -1      3346 8.55344E-05-3.65720E-05-2.06295E-05 3.12624E-05-3.19141E-18-6.01976E-19
 -1      3347 8.01969E-05-3.14177E-05-2.05924E-05-3.38146E-05-1.74182E-18-2.55433E-18
 -1      3348 8.85556E-05-3.40276E-05-2.33208E-05-2.93264E-05-1.71338E-18-1.87295E-18
 -1      3349 7.14011E-05-2.33114E-05-2.05352E-05-2.93389E-05-1.27918E-18-2.62713E-18
 -1      3350 1.26686E-04-4.21268E-05-3.63301E-05-8.11986E-06 9.54474E-19-1.36494E-18
 -1      3351 8.84563E-05-2.21632E-05-2.83024E-05 1.34085E-05 2.36130E-19-1.29473E-18
 -1      3352 8.13125E-05-1.97850E-05-2.63883E-05 1.51969E-05 4.40834E-19-1.69144E-18
 -1      3353 8.70076E-05-1.94561E-05-2.89395E-05 1.10236E-05-9.55613E-20-1.42921E-18
 -1      3354 1.16198E-04-1.39190E-05-4.41882E-05 6.43707E-06 3.08648E-18 1.33368E-18
 -1      3355 9.02701E-05-2.17223E-05-2.93922E-05-8.97516E-06 6.64760E-19-1.53082E-18
 -1      3356 9.01355E-05-2.34759E-05-2.86277E-05-1.16796E-05 4.08275E-19-1.51672E-18
 -1      3357 9.37399E-05-2.38721E-05-2.99330E-05-6.96484E-06 9.44065E-19-1.24142E-18
 -1      3358 1.27314E-04-4.52427E-05-3.52631E-05 5.76325E-06-1.64420E-19 1.72825E-18
 -1      3359 1.22200E-04-3.91651E-05-3.56855E-05 9.64496E-06 1.82853E-19 1.83017E-18
 -1      3360 1.24132E-04-4.59957E-05-3.33149E-05 2.06620E-06-5.67717E-19 1.25322E-18
 -1      3361 9.52448E-05-2.85823E-05-2.85696E-05-1.26697E-08 1.83229E-19 2.96924E-18
 -1      3362 1.07072E-04-2.73416E-05-3.41024E-05 9.93301E-06 8.32920E-19 1.55485E-18
 -1      3363 1.08633E-04-3.04458E-05-3.35959E-05 1.06492E-05 6.89316E-19 1.55119E-18
 -1      3364 1.11958E-04-3.25855E-05-3.40538E-05 1.10186E-05 7.81944E-19 1.84139E-18
 -1      3365 1.08703E-04-2.54105E-05-3.56521E-05 1.02030E-05 1.08101E-18 1.60838E-18
 -1      3366 9.52420E-05-2.85801E-05-2.85693E-05 1.48991E-08 1.69941E-19 1.80390E-18
 -1      3367 9.52435E-05-2.85808E-05-2.85698E-05 1.54298E-08 4.54913E-19 6.19407E-19
 -1      3368 6.63512E-05-4.89317E-06-2.63299E-05-4.99575E-06 1.07022E-19-2.89380E-18
 -1      3369 6.69749E-05-5.15106E-06-2.65306E-05-2.34412E-06 3.71727E-20-2.98479E-18
 -1      3370 6.67841E-05-6.56240E-06-2.57178E-05 4.17115E-07 2.30965E-20-2.83140E-18
 -1      3371 9.52405E-05-2.85790E-05-2.85692E-05 1.53125E-08 8.33399E-20 1.65487E-18
 -1      3372 5.02798E-05-6.09152E-06-1.84474E-05-2.12166E-06 1.35055E-19-3.77226E-18
 -1      3373 5.40337E-05-6.99636E-06-2.00400E-05-7.52543E-06-2.22945E-19-3.63104E-18
 -1      3374 1.13216E-04-3.99219E-05-3.14665E-05 3.24821E-06 4.02789E-19 7.17007E-19
 -1      3375 1.12046E-04-3.90630E-05-3.11757E-05 1.97833E-06 3.56290E-19 4.19573E-19
 -1      3376 1.07510E-04-1.76256E-05-3.87127E-05-6.05977E-06 2.43363E-18 2.13989E-19
 -1      3377 1.06684E-04-1.58712E-05-3.90368E-05-1.98015E-06 2.59430E-18 4.71228E-19
 -1      3378 1.21350E-04-3.71218E-05-3.65124E-05-1.15091E-05 1.45737E-18-6.32363E-19
 -1      3379 1.23710E-04-4.43354E-05-3.39218E-05-6.25081E-06 5.09768E-19-8.34638E-19
 -1      3380 1.00921E-04-4.04298E-05-2.55882E-05-2.49435E-05-1.63447E-18-1.18626E-18
 -1      3381 1.07971E-04-4.47658E-05-2.73065E-05-2.09162E-05-1.53189E-18-5.57361E-19
 -1      3382 7.95928E-05-2.01392E-05-2.54322E-05-1.35144E-05 7.42269E-19-1.19481E-19
 -1      3383 8.04887E-05-1.96301E-05-2.61518E-05-1.18806E-05 1.59477E-19 3.18431E-19
 -1      3384 8.27404E-05-1.99329E-05-2.69000E-05-1.06128E-05-3.81578E-19 9.22169E-19
 -1      3385 8.37847E-05-2.00722E-05-2.73589E-05-9.50172E-06-4.39316E-20 1.05969E-18
 -1      3386 7.83789E-05-1.79710E-05-2.58144E-05-9.21269E-06 3.00499E-19 7.56726E-19
 -1      3387 8.55653E-05-2.06180E-05-2.78321E-05-8.67306E-06-5.52269E-19 1.15544E-18
 -1      3388 8.65351E-05-2.10317E-05-2.81112E-05-7.82764E-06-6.64156E-19 1.10492E-18
 -1      3389 8.23813E-05-1.90580E-05-2.70790E-05-7.49969E-06-4.39384E-19 5.02439E-19
 -1      3390 8.79358E-05-2.16664E-05-2.84030E-05-7.20179E-06-7.80597E-19 1.22905E-18
 -1      3391 8.87441E-05-2.21720E-05-2.85588E-05-6.50408E-06-2.92120E-19 7.26623E-19
 -1      3392 8.55127E-05-2.03625E-05-2.78774E-05-6.29454E-06-6.36010E-19 3.00488E-19
 -1      3393 8.98314E-05-2.27994E-05-2.87303E-05-5.98614E-06 7.62785E-20 8.10680E-19
 -1      3394 9.04653E-05-2.33010E-05-2.88057E-05-5.38653E-06-1.08085E-19 5.17567E-19
 -1      3395 8.79585E-05-2.16944E-05-2.83662E-05-5.33337E-06-3.01119E-19 3.46457E-19
 -1      3396 9.12978E-05-2.38704E-05-2.88987E-05-4.93648E-06-1.62647E-19 3.06203E-19
 -1      3397 9.17749E-05-2.43230E-05-2.89241E-05-4.41598E-06-3.58008E-19 1.60471E-19
 -1      3398 8.98436E-05-2.29360E-05-2.86506E-05-4.49618E-06-3.48608E-19-2.28727E-19
 -1      3399 9.24046E-05-2.48142E-05-2.89674E-05-4.02014E-06-7.58641E-19-1.32491E-19
 -1      3400 9.27535E-05-2.52015E-05-2.89634E-05-3.57154E-06-7.66093E-19 1.08864E-19
 -1      3401 9.12790E-05-2.40325E-05-2.88023E-05-3.74223E-06-6.27744E-19-2.25702E-19
 -1      3402 9.32247E-05-2.56115E-05-2.89761E-05-3.22615E-06-6.56901E-19-1.43004E-19
 -1      3403 9.34745E-05-2.59325E-05-2.89563E-05-2.84517E-06-9.80569E-19 2.15002E-19
 -1      3404 9.23599E-05-2.49668E-05-2.88701E-05-3.06450E-06-7.60974E-19-5.34933E-19
 -1      3405 9.38239E-05-2.62671E-05-2.89513E-05-2.54877E-06-1.48164E-18 5.64417E-19
 -1      3406 9.39999E-05-2.65276E-05-2.89243E-05-2.23074E-06-1.21421E-18 2.99734E-19
 -1      3407 9.31662E-05-2.57432E-05-2.88865E-05-2.46579E-06-9.79630E-19-1.02369E-20
 -1      3408 9.42570E-05-2.67964E-05-2.89097E-05-1.98131E-06-6.31603E-19-6.45258E-19
 -1      3409 9.43795E-05-2.70047E-05-2.88808E-05-1.72042E-06 6.40758E-20-3.76852E-19
 -1      3410 9.37626E-05-2.63767E-05-2.88733E-05-1.94865E-06-1.08807E-18 7.51556E-19
 -1      3411 9.45672E-05-2.72180E-05-2.88619E-05-1.51462E-06 4.75479E-20-7.93312E-19
 -1      3412 9.46515E-05-2.73828E-05-2.88340E-05-1.30422E-06-2.86221E-19-7.25552E-19
 -1      3413 9.42004E-05-2.68864E-05-2.88445E-05-1.51214E-06-5.44431E-19-7.33172E-19
 -1      3414 9.47876E-05-2.75504E-05-2.88140E-05-1.13766E-06 3.42097E-20 2.22582E-19
 -1      3415 9.48450E-05-2.76795E-05-2.87887E-05-9.70748E-07-1.88589E-19 1.77705E-19
 -1      3416 9.45195E-05-2.72919E-05-2.88088E-05-1.15172E-06 3.61939E-19-3.08121E-19
 -1      3417 9.49428E-05-2.78099E-05-2.87695E-05-8.38427E-07-6.54712E-19 4.07321E-19
 -1      3418 9.49815E-05-2.79103E-05-2.87474E-05-7.08131E-07-3.89040E-19 8.88939E-19
 -1      3419 9.47502E-05-2.76112E-05-2.87718E-05-8.60201E-07-2.69377E-20-9.16490E-23
 -1      3420 9.50510E-05-2.80109E-05-2.87300E-05-6.04902E-07-2.47859E-20 1.06092E-18
 -1      3421 9.50768E-05-2.80883E-05-2.87113E-05-5.04825E-07-1.06412E-19 1.22632E-18
 -1      3422 9.49155E-05-2.78603E-05-2.87366E-05-6.28994E-07-2.69395E-19 2.13058E-19
 -1      3423 9.51256E-05-2.81651E-05-2.86961E-05-4.25742E-07-6.77079E-19 1.37008E-18
 -1      3424 9.51424E-05-2.82241E-05-2.86807E-05-3.50148E-07-7.17663E-19 1.06946E-18
 -1      3425 9.50325E-05-2.80526E-05-2.87048E-05-4.49062E-07-1.42934E-19 7.89510E-19
 -1      3426 9.51760E-05-2.82821E-05-2.86678E-05-2.90684E-07-3.31258E-19 1.20704E-18
 -1      3427 9.51867E-05-2.83268E-05-2.86553E-05-2.34590E-07 1.01609E-18 1.00813E-18
 -1      3428 9.51142E-05-2.81995E-05-2.86772E-05-3.11644E-07-2.21453E-19 7.82336E-19
 -1      3429 9.52094E-05-2.83700E-05-2.86446E-05-1.90758E-07 2.17444E-18 9.98726E-19
 -1      3430 9.52159E-05-2.84033E-05-2.86347E-05-1.49941E-07 1.99694E-18 1.33140E-18
 -1      3431 9.51700E-05-2.83105E-05-2.86538E-05-2.08708E-07 1.18109E-18 1.81401E-18
 -1      3432 9.52307E-05-2.84351E-05-2.86260E-05-1.18334E-07 8.29015E-19 1.85163E-18
 -1      3433 9.52344E-05-2.84596E-05-2.86183E-05-8.92887E-08 8.18029E-19 1.76796E-18
 -1      3434 9.52073E-05-2.83931E-05-2.86345E-05-1.33176E-07 1.61702E-18 7.73531E-19
 -1      3435 9.52436E-05-2.84826E-05-2.86114E-05-6.70686E-08 1.39770E-18 1.54656E-18
 -1      3436 9.52455E-05-2.85003E-05-2.86054E-05-4.69427E-08 1.42271E-18 1.46990E-18
 -1      3437 9.52312E-05-2.84538E-05-2.86188E-05-7.90085E-08 9.21788E-19-4.76535E-19
 -1      3438 9.52508E-05-2.85166E-05-2.86000E-05-3.17945E-08 5.28623E-19 1.12398E-18
 -1      3439 9.52515E-05-2.85291E-05-2.85955E-05-1.83072E-08 5.57334E-19 1.64234E-18
 -1      3440 9.52458E-05-2.84975E-05-2.86064E-05-4.11832E-08 5.32367E-19 3.60019E-19
 -1      3441 9.52541E-05-2.85404E-05-2.85913E-05-8.38219E-09 4.88528E-19 1.49220E-18
 -1      3442 9.52540E-05-2.85490E-05-2.85880E-05 2.59849E-10 1.57983E-19 4.16453E-19
 -1      3443 9.52538E-05-2.85283E-05-2.85966E-05-1.56193E-08 8.76178E-19 8.52046E-19
 -1      3444 9.52549E-05-2.85566E-05-2.85848E-05 6.41072E-09-2.47627E-19-1.99617E-19
 -1      3445 9.52544E-05-2.85623E-05-2.85824E-05 1.15936E-08-9.85352E-19-5.35396E-19
 -1      3446 9.52574E-05-2.85495E-05-2.85892E-05 9.31985E-10-5.89790E-19-9.24183E-19
 -1      3447 9.52542E-05-2.85671E-05-2.85800E-05 1.50843E-08-1.25579E-18-8.64698E-19
 -1      3448 9.52534E-05-2.85708E-05-2.85783E-05 1.78601E-08-1.49290E-18-1.32970E-18
 -1      3449 9.52582E-05-2.85635E-05-2.85835E-05 1.10066E-08-1.21587E-18-1.51509E-18
 -1      3450 9.52525E-05-2.85737E-05-2.85766E-05 1.95301E-08-1.51010E-18-1.12048E-18
 -1      3451 9.52517E-05-2.85759E-05-2.85753E-05 2.06808E-08-8.86081E-19-1.26237E-18
 -1      3452 9.52571E-05-2.85723E-05-2.85793E-05 1.65449E-08-1.49105E-18-1.32871E-18
 -1      3453 9.52504E-05-2.85775E-05-2.85741E-05 2.11481E-08 2.86497E-19-9.98215E-19
 -1      3454 9.52496E-05-2.85787E-05-2.85732E-05 2.12410E-08 1.29427E-18 2.95867E-20
 -1      3455 9.52551E-05-2.85775E-05-2.85761E-05 1.90008E-08 1.07266E-19-1.54659E-18
 -1      3456 9.52482E-05-2.85794E-05-2.85723E-05 2.09479E-08 5.24993E-19-3.09906E-19
 -1      3457 9.52474E-05-2.85799E-05-2.85718E-05 2.03814E-08 2.82018E-19-1.15674E-18
 -1      3458 9.52525E-05-2.85802E-05-2.85739E-05 1.94363E-08 7.38790E-19-8.65232E-19
 -1      3459 9.52461E-05-2.85801E-05-2.85711E-05 1.96335E-08 6.25216E-19-1.90442E-18
 -1      3460 9.52454E-05-2.85804E-05-2.85707E-05 1.86631E-08-3.11072E-19-5.20149E-19
 -1      3461 9.52499E-05-2.85814E-05-2.85722E-05 1.86088E-08 9.98632E-20-9.67771E-19
 -1      3462 9.52447E-05-2.85805E-05-2.85704E-05 1.76597E-08-3.47568E-20-3.25798E-19
 -1      3463 9.52442E-05-2.85806E-05-2.85701E-05 1.64826E-08 5.36440E-19 7.54922E-19
 -1      3464 9.52466E-05-2.85823E-05-2.85704E-05 1.49022E-08 6.77011E-19-1.37388E-18
 -1      3465 9.52480E-05-2.85820E-05-2.85711E-05 1.69602E-08 7.67484E-19-1.20297E-18
 -1      3466 1.15827E-04-4.00747E-05-3.25446E-05-7.91583E-06 7.48598E-20-3.39865E-19
 -1      3467 1.15729E-04-3.74742E-05-3.36184E-05-1.04578E-05 5.52755E-19-8.41183E-19
 -1      3468 1.14635E-04-3.34294E-05-3.47727E-05-1.14285E-05 1.26097E-18-7.85623E-19
 -1      3469 1.08335E-04-3.98794E-05-2.92710E-05 2.72166E-06-7.51740E-19-1.74077E-19
 -1      3470 1.09977E-04-4.10043E-05-2.96081E-05 1.12868E-06-5.24846E-19-5.23003E-19
 -1      3471 1.04130E-04-3.67456E-05-2.88227E-05 4.97867E-06-7.81950E-19 4.39229E-19
 -1      3472 1.05838E-04-3.82476E-05-2.89918E-05 3.99176E-06-7.98905E-19 6.40536E-20
 -1      3473 1.06923E-04-3.98632E-05-2.88039E-05 5.44496E-06-1.00312E-18-3.03805E-19
 -1      3474 1.00696E-04-3.37021E-05-2.86710E-05 5.92227E-06-1.05070E-18 1.85305E-19
 -1      3475 1.02136E-04-3.51168E-05-2.87290E-05 5.46391E-06-4.90094E-19 4.85802E-19
 -1      3476 1.02419E-04-3.61694E-05-2.84515E-05 6.87596E-06-5.62195E-19 5.45496E-19
 -1      3477 9.81958E-05-3.12389E-05-2.86699E-05 6.02128E-06-1.35463E-18 5.92425E-19
 -1      3478 9.92781E-05-3.23671E-05-2.86730E-05 5.92576E-06-1.56167E-18 4.42316E-19
 -1      3479 9.90419E-05-3.29161E-05-2.83847E-05 7.10584E-06-1.29489E-18 7.22732E-19
 -1      3480 9.65311E-05-2.94674E-05-2.87271E-05 5.64517E-06-1.25315E-18 7.39787E-19
 -1      3481 9.72806E-05-3.02726E-05-2.87105E-05 5.76905E-06-1.17767E-18 6.27108E-19
 -1      3482 9.67553E-05-3.04440E-05-2.84505E-05 6.67010E-06-1.63341E-18 4.47329E-19
 -1      3483 9.55092E-05-2.83108E-05-2.87923E-05 5.03526E-06-7.57487E-19 1.31780E-18
 -1      3484 9.59934E-05-2.88332E-05-2.87749E-05 5.27970E-06-9.74874E-19 1.07872E-18
 -1      3485 9.53426E-05-2.87535E-05-2.85582E-05 5.93367E-06-1.42393E-18 8.58151E-19
 -1      3486 9.49429E-05-2.76386E-05-2.88427E-05 4.33675E-06 2.68058E-19 7.30143E-19
 -1      3487 9.52343E-05-2.79406E-05-2.88327E-05 4.63592E-06-2.43434E-19 1.02849E-18
 -1      3488 9.45599E-05-2.77094E-05-2.86621E-05 5.09744E-06-3.76921E-19 1.12689E-18
 -1      3489 9.46783E-05-2.73158E-05-2.88705E-05 3.63516E-06 3.06913E-19 1.15377E-18
 -1      3490 9.48387E-05-2.74600E-05-2.88701E-05 3.94729E-06 5.46047E-19 7.90640E-19
 -1      3491 9.42011E-05-2.71508E-05-2.87422E-05 4.26898E-06 5.09215E-19 3.77269E-19
 -1      3492 9.45998E-05-2.72267E-05-2.88766E-05 2.97835E-06 8.66648E-19 8.53163E-19
 -1      3493 9.46765E-05-2.72661E-05-2.88847E-05 3.27798E-06 7.10704E-19 1.07865E-18
 -1      3494 9.41079E-05-2.69299E-05-2.87935E-05 3.50252E-06 4.24643E-19 1.33207E-18
 -1      3495 9.46268E-05-2.72816E-05-2.88653E-05 2.39082E-06 2.69531E-19 1.00960E-18
 -1      3496 9.46535E-05-2.72568E-05-2.88796E-05 2.66353E-06 3.13848E-19 7.84730E-19
 -1      3497 9.41674E-05-2.69270E-05-2.88182E-05 2.82231E-06 6.17790E-19 8.02425E-19
 -1      3498 9.47059E-05-2.74153E-05-2.88420E-05 1.88257E-06 5.15376E-20 1.01895E-18
 -1      3499 9.47051E-05-2.73557E-05-2.88601E-05 2.12135E-06 7.65052E-19 1.01533E-18
 -1      3500 9.43034E-05-2.70523E-05-2.88216E-05 2.23609E-06 4.64668E-19 1.28821E-18
 -1      3501 9.48040E-05-2.75837E-05-2.88117E-05 1.45459E-06-3.48411E-19 3.30850E-19
 -1      3502 9.47899E-05-2.75089E-05-2.88315E-05 1.65734E-06-4.06458E-19 5.76024E-19
 -1      3503 9.44677E-05-2.72424E-05-2.88100E-05 1.74247E-06 9.37038E-20 1.59210E-18
 -1      3504 9.49018E-05-2.77583E-05-2.87785E-05 1.10245E-06-2.66712E-19 1.12806E-18
 -1      3505 9.48829E-05-2.76810E-05-2.87981E-05 1.27020E-06-3.28846E-19 7.83482E-19
 -1      3506 9.46313E-05-2.74551E-05-2.87889E-05 1.33505E-06-6.84323E-19 3.19346E-19
 -1      3507 9.49894E-05-2.79226E-05-2.87452E-05 8.18710E-07-9.41557E-19 1.74309E-18
 -1      3508 9.49705E-05-2.78500E-05-2.87637E-05 9.54353E-07-2.42106E-19 1.76022E-18
 -1      3509 9.47791E-05-2.76642E-05-2.87626E-05 1.00488E-06-1.03479E-18 1.31847E-18
 -1      3510 9.50626E-05-2.80678E-05-2.87139E-05 5.94539E-07-9.02300E-19 1.49205E-18
 -1      3511 9.50460E-05-2.80038E-05-2.87306E-05 7.01907E-07-6.63461E-19 1.14984E-18
 -1      3512 9.49043E-05-2.78548E-05-2.87347E-05 7.41916E-07-6.40340E-19 1.69909E-18
 -1      3513 9.51208E-05-2.81907E-05-2.86858E-05 4.20783E-07-1.36144E-18 9.75999E-19
 -1      3514 9.51073E-05-2.81366E-05-2.87003E-05 5.04050E-07-9.21955E-19 5.99312E-19
 -1      3515 9.50054E-05-2.80201E-05-2.87074E-05 5.36031E-07-9.00558E-19 8.80598E-19
 -1      3516 9.51650E-05-2.82911E-05-2.86614E-05 2.88675E-07 2.41881E-19-7.74351E-19
 -1      3517 9.51548E-05-2.82470E-05-2.86736E-05 3.51947E-07-5.08086E-19 3.28456E-19
 -1      3518 9.50838E-05-2.81579E-05-2.86821E-05 3.77587E-07-3.88834E-19-4.21988E-19
 -1      3519 9.51972E-05-2.83708E-05-2.86408E-05 1.90230E-07 9.89230E-20-4.00745E-19
 -1      3520 9.51899E-05-2.83358E-05-2.86509E-05 2.37304E-07 5.78955E-20-2.34677E-19
 -1      3521 9.51426E-05-2.82693E-05-2.86596E-05 2.57814E-07-3.17642E-19-1.62059E-18
 -1      3522 9.52198E-05-2.84323E-05-2.86238E-05 1.18450E-07 5.61305E-19-9.91355E-19
 -1      3523 9.52148E-05-2.84054E-05-2.86319E-05 1.52682E-07 4.19918E-19-5.58551E-19
 -1      3524 9.51849E-05-2.83569E-05-2.86404E-05 1.68989E-07 8.16903E-20-8.84917E-19
 -1      3525 9.52347E-05-2.84788E-05-2.86101E-05 6.73830E-08 1.05543E-18 3.90653E-19
 -1      3526 9.52317E-05-2.84584E-05-2.86166E-05 9.16431E-08 7.12270E-19-6.69247E-19
 -1      3527 9.52143E-05-2.84241E-05-2.86242E-05 1.04492E-07 2.62514E-19-1.30643E-18
 -1      3528 9.52440E-05-2.85128E-05-2.85994E-05 3.20937E-08 4.48082E-19 1.08710E-18
 -1      3529 9.52423E-05-2.84979E-05-2.86043E-05 4.87677E-08 1.29546E-18 1.36628E-18
 -1      3530 9.52338E-05-2.84744E-05-2.86111E-05 5.87793E-08-9.15569E-20 4.83374E-19
 -1      3531 9.52492E-05-2.85372E-05-2.85911E-05 8.58300E-09 2.69095E-19 4.30219E-19
 -1      3532 9.52484E-05-2.85266E-05-2.85948E-05 1.96064E-08 2.71905E-19 2.97993E-19
 -1      3533 9.52457E-05-2.85111E-05-2.86005E-05 2.73094E-08 6.42099E-19 1.26061E-18
 -1      3534 9.52515E-05-2.85541E-05-2.85847E-05-6.32364E-09 8.19898E-19 3.23950E-19
 -1      3535 9.52514E-05-2.85467E-05-2.85875E-05 5.84894E-10 6.15772E-19 2.95886E-19
 -1      3536 9.52524E-05-2.85371E-05-2.85923E-05 6.43040E-09 7.17694E-19 4.26056E-19
 -1      3537 9.52519E-05-2.85653E-05-2.85800E-05-1.50951E-08-3.46135E-19 5.02226E-19
 -1      3538 9.52522E-05-2.85604E-05-2.85821E-05-1.11090E-08 5.11420E-19 8.07743E-19
 -1      3539 9.52554E-05-2.85549E-05-2.85859E-05-6.73791E-09 3.92645E-19 8.93938E-19
 -1      3540 9.52510E-05-2.85724E-05-2.85766E-05-1.96119E-08-2.52561E-18 1.39289E-18
 -1      3541 9.52516E-05-2.85693E-05-2.85780E-05-1.76425E-08-1.66546E-18 2.53263E-19
 -1      3542 9.52558E-05-2.85667E-05-2.85811E-05-1.44247E-08-5.85230E-19 1.40908E-18
 -1      3543 9.52495E-05-2.85765E-05-2.85741E-05-2.12740E-08-2.97284E-18 2.65427E-18
 -1      3544 9.52502E-05-2.85747E-05-2.85751E-05-2.06498E-08-3.39241E-18 1.49856E-18
 -1      3545 9.52548E-05-2.85740E-05-2.85775E-05-1.83211E-08-3.25051E-18 1.38555E-18
 -1      3546 9.52477E-05-2.85787E-05-2.85724E-05-2.10957E-08-8.99044E-19 2.56111E-18
 -1      3547 9.52484E-05-2.85778E-05-2.85731E-05-2.13335E-08-1.47517E-18 2.74603E-18
 -1      3548 9.52528E-05-2.85782E-05-2.85749E-05-1.96825E-08-2.41713E-18 1.08641E-18
 -1      3549 9.52458E-05-2.85797E-05-2.85712E-05-1.97869E-08-7.24121E-19 1.95884E-18
 -1      3550 9.52465E-05-2.85793E-05-2.85716E-05-2.05500E-08-8.04017E-19 1.78743E-18
 -1      3551 9.52505E-05-2.85803E-05-2.85730E-05-1.94094E-08-7.53423E-19 1.97569E-18
 -1      3552 9.52441E-05-2.85801E-05-2.85703E-05-1.78639E-08 3.85593E-19 3.09627E-18
 -1      3553 9.52446E-05-2.85798E-05-2.85706E-05-1.88976E-08-4.07102E-19 2.54186E-18
 -1      3554 9.52481E-05-2.85812E-05-2.85716E-05-1.81438E-08-9.48607E-19 2.92283E-18
 -1      3555 9.19686E-05-3.94671E-05-2.28111E-05 2.84752E-05-2.81693E-18-1.48495E-18
 -1      3556 8.02218E-05-3.09889E-05-2.07847E-05 2.81081E-05-2.91455E-18-5.79476E-19
 -1      3557 1.11230E-04-2.63287E-05-3.66330E-05-1.20972E-05 2.09737E-18-6.09354E-19
 -1      3558 1.09115E-04-2.14489E-05-3.75242E-05-9.94121E-06 2.29853E-18-2.04608E-19
 -1      3559 7.50457E-05-1.24322E-05-2.67487E-05 8.39181E-06 1.16934E-19-2.22291E-18
 -1      3560 7.83434E-05-1.27657E-05-2.81449E-05 7.69633E-06-5.62119E-20-2.05315E-18
 -1      3561 1.15050E-04-5.10869E-05-2.77128E-05 1.67164E-05-1.70489E-18-1.77999E-18
 -1      3562 1.04945E-04-4.58890E-05-2.49556E-05 2.37302E-05-2.30654E-18-1.50401E-18
 -1      3563 7.53128E-05-2.54637E-05-2.10937E-05-2.33393E-05 1.92991E-18-4.31166E-19
 -1      3564 1.23399E-04-4.97153E-05-3.17892E-05 1.42617E-06-3.06788E-19-6.61109E-19
 -1      3565 1.21569E-04-5.15575E-05-2.97673E-05 8.38783E-06-9.41881E-19-1.43101E-18
 -1      3566 9.52486E-05-2.85835E-05-2.85708E-05 1.28151E-08 4.17889E-19-9.94150E-19
 -1      3567 9.52502E-05-2.85845E-05-2.85710E-05 1.08925E-08 5.09227E-19 1.23320E-19
 -1      3568 9.52493E-05-2.85833E-05-2.85712E-05 1.38756E-08 4.34077E-19-1.77485E-19
 -1      3569 9.52515E-05-2.85853E-05-2.85712E-05 8.33750E-09 3.90834E-20 5.40090E-19
 -1      3570 9.52524E-05-2.85859E-05-2.85714E-05 5.91096E-09-5.80676E-19 1.38023E-18
 -1      3571 9.52527E-05-2.85852E-05-2.85718E-05 9.18813E-09 6.34497E-21 4.35782E-19
 -1      3572 5.35186E-05-1.23125E-05-1.77276E-05 6.23811E-06-1.10111E-18 2.27227E-18
 -1      3573 5.32901E-05-1.21163E-05-1.74212E-05-4.57121E-06-5.06632E-20 2.68282E-18
 -1      3574 7.83069E-05-2.51205E-05-2.25350E-05 2.25676E-05 1.32984E-18-1.96096E-18
 -1      3575 6.79598E-05-2.17740E-05-1.94793E-05 2.43096E-05 1.42476E-18-2.42373E-18
 -1      3576 6.08760E-05-1.42814E-05-1.97667E-05 1.66536E-05 9.51827E-19-2.84391E-18
 -1      3577 7.49682E-05-1.98790E-05-2.35264E-05 1.84860E-05 9.90909E-19-1.98770E-18
 -1      3578 6.86150E-05-2.33065E-05-1.95221E-05 2.49521E-05-2.62709E-18 3.19596E-19
 -1      3579 5.94712E-05-1.59378E-05-1.83638E-05 1.62438E-05-2.05313E-18 2.21129E-18
 -1      3580 1.15494E-04-1.26391E-05-4.44761E-05-6.07912E-06 3.42572E-18 1.49316E-19
 -1      3581 1.13432E-04-1.71310E-05-4.14265E-05-8.62986E-06 2.69293E-18-3.75672E-19
 -1      3582 6.97553E-05-7.59021E-06-2.65651E-05-1.06044E-05-2.12503E-21-2.64413E-18
 -1      3583 6.74348E-05-6.05658E-06-2.63895E-05-8.70303E-06-7.00051E-20-2.75706E-18
 -1      3584 6.54906E-05-6.24735E-06-2.53096E-05-7.64152E-06-7.19184E-20-2.93951E-18
 -1      3585 5.93743E-05-1.07623E-05-2.08355E-05-1.76732E-05-5.11727E-19-3.19882E-18
 -1      3586 6.45387E-05-1.63788E-05-2.03288E-05-2.51202E-05-9.93543E-19-2.88322E-18
 -1      3587 7.28909E-05-2.00796E-05-2.25450E-05-2.41200E-05-1.08790E-18-2.45028E-18
 -1      3588 5.33395E-05-8.07028E-06-1.92900E-05 5.91573E-06 5.61675E-19-3.34673E-18
 -1      3589 5.65257E-05-1.43640E-05-1.78635E-05-1.18670E-05 1.00907E-18 2.80347E-18
 -1      3590 6.46539E-05-1.98925E-05-1.91231E-05-2.01166E-05 1.79240E-18 1.13307E-18
 -1      3591 6.13452E-05-1.42166E-05-1.99343E-05-7.51732E-06 2.09025E-19 1.72964E-18
 -1      3592 1.14748E-04-1.74990E-05-4.18466E-05 1.01038E-05 2.52882E-18 1.48988E-18
 -1      3593 1.12635E-04-1.29409E-05-4.30601E-05 4.24150E-06 3.29379E-18 1.27469E-18
 -1      3594 1.14213E-04-2.25516E-05-3.93642E-05 1.09945E-05 1.59067E-18 1.87729E-18
 -1      3595 1.16129E-04-4.76442E-05-2.90589E-05-1.41244E-05-1.42801E-18 8.58944E-21
 -1      3596 1.20765E-04-4.87071E-05-3.12646E-05-6.16135E-06-9.61660E-19 4.03174E-19
 -1      3597 1.10652E-04-4.36397E-05-2.86554E-05-1.45261E-05-1.12456E-18-4.17058E-19
 -1      3598 1.13298E-04-4.22794E-05-3.04180E-05-1.84993E-06-4.62092E-19-5.00472E-19
 -1      3599 1.14330E-04-4.18851E-05-3.10326E-05-4.15346E-06-2.51473E-19-3.71242E-19
 -1      3600 1.18155E-04-4.25875E-05-3.23640E-05-5.87386E-06 1.13165E-19-3.28698E-19
 -1      3601 1.12906E-04-4.33206E-05-2.98742E-05 1.51847E-06-5.32000E-19-6.40876E-19
 -1      3602 9.52466E-05-2.85829E-05-2.85701E-05-1.26573E-08 3.62447E-19 2.85326E-18
 -1      3603 1.08749E-04-3.70573E-05-3.08038E-05-9.45865E-08 4.09765E-19 6.88098E-20
 -1      3604 1.05395E-04-3.34852E-05-3.07665E-05-1.25030E-06 6.48051E-19-2.09625E-19
 -1      3605 1.03668E-04-3.27804E-05-3.03855E-05-3.76815E-06 5.68860E-19-5.66374E-19
 -1      3606 1.10435E-04-3.89098E-05-3.07566E-05-1.54672E-06 2.45216E-19 1.25996E-19
 -1      3607 1.11592E-04-1.18920E-05-4.30417E-05-2.11153E-06 3.34276E-18 6.78139E-19
 -1      3608 1.15325E-04-2.30172E-05-4.00212E-05-1.22959E-05 2.51759E-18-4.39928E-19
 -1      3609 1.18032E-04-2.72954E-05-3.88255E-05-1.31112E-05 2.46068E-18-9.17998E-19
 -1      3610 1.10224E-04-1.46942E-05-4.11458E-05 1.77938E-06 2.85262E-18 8.07007E-19
 -1      3611 1.07371E-04-1.66512E-05-3.89678E-05 4.13165E-06 2.46079E-18 1.22566E-18
 -1      3612 7.39613E-05-2.19692E-05-2.21581E-05-1.88587E-05 1.64961E-18-3.06388E-20
 -1      3613 1.11191E-04-1.85239E-05-3.98649E-05-8.82352E-06 2.57310E-18-4.28930E-19
 -1      3614 9.52533E-05-2.85863E-05-2.85715E-05-1.49750E-09-1.09548E-18-1.71771E-18
 -1      3615 9.52529E-05-2.85861E-05-2.85715E-05-4.14250E-09-8.55657E-19-2.43641E-18
 -1      3616 1.08788E-04-1.94792E-05-3.85114E-05 8.06245E-06 1.77138E-18 1.50830E-18
 -1      3617 1.21720E-04-4.75382E-05-3.19175E-05-1.29644E-06-1.55616E-19-6.12029E-19
 -1      3618 1.17243E-04-3.86676E-05-3.37063E-05 8.81468E-06 3.89046E-19 1.67360E-18
 -1      3619 1.17054E-04-4.05433E-05-3.27701E-05 6.53950E-06 1.42771E-19 1.32579E-18
 -1      3620 1.16851E-04-3.21232E-05-3.63958E-05-1.19783E-05 1.70346E-18-7.58386E-19
 -1      3621 9.52529E-05-2.85862E-05-2.85715E-05 3.21763E-09-1.30261E-18 1.28463E-18
 -1      3622 9.52521E-05-2.85856E-05-2.85713E-05-6.91918E-09-1.07556E-18-1.82989E-18
 -1      3623 9.52511E-05-2.85850E-05-2.85712E-05-9.27808E-09-1.75762E-18 5.71268E-20
 -1      3624 9.52541E-05-2.85859E-05-2.85721E-05-5.82590E-09-1.35371E-18-2.14490E-18
 -1      3625 7.75258E-05-2.65206E-05-2.16520E-05 2.28287E-05-2.08743E-18-2.99459E-19
 -1      3626 9.91700E-05-4.09379E-05-2.47895E-05 2.24323E-05-2.27665E-18-1.23299E-18
 -1      3627 9.52425E-05-2.85798E-05-2.85697E-05-1.64549E-08 8.81154E-19 3.20751E-18
 -1      3628 9.52453E-05-2.85812E-05-2.85703E-05-1.61065E-08 3.91897E-19 3.54393E-18
 -1      3629 1.11237E-04-2.45911E-05-3.71960E-05 1.05620E-05 1.08824E-18 1.89888E-18
 -1      3630 1.17786E-04-4.25018E-05-3.23682E-05 3.23486E-06-8.26420E-20 1.03192E-18
 -1      3631 1.13129E-04-2.91126E-05-3.63017E-05 1.18968E-05 9.34704E-19 1.96904E-18
 -1      3632 6.20982E-05-1.50395E-05-1.99301E-05 9.60285E-06-1.24846E-18 1.72689E-18
 -1      3633 1.15418E-04-4.87700E-05-2.85571E-05 1.11582E-05-1.13162E-18-6.24875E-19
 -1      3634 7.15761E-05-1.08419E-05-2.59659E-05-1.34197E-05-1.35737E-19-2.54117E-18
 -1      3635 9.75521E-05-2.77239E-05-2.99013E-05-6.64121E-06 6.85270E-19-1.04605E-18
 -1      3636 8.53161E-05-2.21804E-05-2.69008E-05-1.68424E-05-1.77520E-19-1.85432E-18
 -1      3637 7.94441E-05-1.86939E-05-2.61267E-05-1.76993E-05-3.36482E-19-2.13602E-18
 -1      3638 9.52483E-05-2.85830E-05-2.85708E-05-1.36479E-08-1.24340E-19 2.38273E-18
 -1      3639 9.23591E-05-3.41543E-05-2.49374E-05-2.50484E-05-1.34207E-18-1.58459E-18
 -1      3640 7.44904E-05-1.43353E-05-2.57989E-05 1.13671E-05 2.69469E-19-2.10375E-18
 -1      3641 7.46568E-05-1.67929E-05-2.46462E-05 1.44917E-05 6.35070E-19-2.15885E-18
 -1      3642 6.80296E-05-1.42655E-05-2.30373E-05 1.43421E-05 7.16550E-19-2.32135E-18
 -1      3643 6.86514E-05-1.00230E-05-2.51865E-05 7.63799E-06 2.55205E-19-2.44861E-18
 -1      3644 6.04220E-05-5.87854E-06-2.32764E-05-2.36497E-06 9.74154E-20-3.16210E-18
 -1      3645 6.24947E-05-6.99648E-06-2.37027E-05 2.19632E-06 1.38983E-19-2.90878E-18
 -1      3646 7.69499E-05-2.25997E-05-2.32507E-05-1.84447E-05 1.39612E-18-7.83876E-19
 -1      3647 7.73403E-05-2.06345E-05-2.43501E-05-1.57130E-05 7.68723E-19-4.51402E-19
 -1      3648 9.55119E-05-2.85260E-05-2.86736E-05-1.22256E-05 2.92640E-19-1.09722E-18
 -1      3649 9.08096E-05-2.56728E-05-2.79102E-05-1.44868E-05-2.66046E-20-1.43935E-18
 -1      3650 8.99187E-05-2.73986E-05-2.68568E-05-1.79143E-05-3.52683E-19-1.42192E-18
 -1      3651 6.15109E-05-8.58797E-06-2.25434E-05 5.33451E-06 2.55936E-19-2.89474E-18
 -1      3652 7.38600E-05-1.79417E-05-2.39106E-05-1.24007E-05 8.71570E-19-5.57176E-19
 -1      3653 1.16484E-04-3.55330E-05-3.47403E-05 1.01892E-05 4.43243E-19 1.73827E-18
 -1      3654 5.79517E-05-6.47265E-06-2.20141E-05-6.03576E-06-7.07405E-20-3.40526E-18
 -1      3655 5.76471E-05-7.44724E-06-2.12141E-05-1.22046E-05-3.22653E-19-3.53358E-18
 -1      3656 7.50140E-05-1.66907E-05-2.49544E-05-6.48748E-06 4.45465E-19-1.81775E-19
 -1      3657 7.71597E-05-1.72399E-05-2.57455E-05-5.78902E-06-9.19130E-20 1.27088E-20
 -1      3658 7.97365E-05-1.80211E-05-2.64678E-05-5.49317E-06-8.03664E-20-3.17826E-19
 -1      3659 8.15496E-05-1.87015E-05-2.69809E-05-4.99649E-06-1.66907E-19-2.53009E-19
 -1      3660 7.70347E-05-1.68073E-05-2.57066E-05-3.05747E-06-1.20526E-19-6.36927E-19
 -1      3661 8.34852E-05-1.94926E-05-2.74449E-05-4.83065E-06-4.97306E-19-2.85226E-20
 -1      3662 8.49043E-05-2.01862E-05-2.77667E-05-4.43961E-06-3.99302E-19 1.11855E-19
 -1      3663 8.14686E-05-1.85240E-05-2.69087E-05-2.99038E-06 9.73166E-20-5.44541E-20
 -1      3664 8.63738E-05-2.09331E-05-2.80617E-05-4.27986E-06-5.97649E-19 2.82972E-20
 -1      3665 8.74701E-05-2.15888E-05-2.82565E-05-3.93144E-06-4.41369E-19 6.35171E-20
 -1      3666 8.47865E-05-2.00939E-05-2.76807E-05-2.93625E-06-8.06765E-19 5.78880E-19
 -1      3667 8.85974E-05-2.22657E-05-2.84393E-05-3.75278E-06-3.59773E-19-4.00291E-19
 -1      3668 8.94348E-05-2.28546E-05-2.85505E-05-3.42438E-06-5.83290E-19-5.12633E-19
 -1      3669 8.73250E-05-2.15188E-05-2.81707E-05-2.78792E-06-7.87825E-19-3.86182E-20
 -1      3670 9.03014E-05-2.34483E-05-2.86591E-05-3.22897E-06-5.07740E-19-7.21849E-19
 -1      3671 9.09341E-05-2.39586E-05-2.87163E-05-2.91948E-06-8.15574E-19-7.85899E-19
 -1      3672 8.92785E-05-2.27873E-05-2.84728E-05-2.54859E-06-6.35809E-19-1.12183E-18
 -1      3673 9.15989E-05-2.44660E-05-2.87761E-05-2.71832E-06-9.47483E-19-5.51867E-19
 -1      3674 9.20723E-05-2.48969E-05-2.87993E-05-2.43338E-06-7.44259E-19-5.82370E-19
 -1      3675 9.07810E-05-2.38904E-05-2.86501E-05-2.24776E-06-7.58871E-19-1.23310E-18
 -1      3676 9.25800E-05-2.53218E-05-2.88277E-05-2.23822E-06-1.41262E-19 7.05806E-20
 -1      3677 9.29312E-05-2.56787E-05-2.88304E-05-1.98355E-06-1.07757E-19 8.66072E-19
 -1      3678 9.19328E-05-2.48303E-05-2.87455E-05-1.91939E-06 1.77982E-19-3.78843E-19
 -1      3679 9.33167E-05-2.60286E-05-2.88391E-05-1.80350E-06-1.68961E-18 1.39270E-18
 -1      3680 9.35753E-05-2.63198E-05-2.88301E-05-1.58242E-06-2.10526E-18 4.24727E-19
 -1      3681 9.28111E-05-2.56172E-05-2.87880E-05-1.59224E-06-7.34362E-19-2.18293E-19
 -1      3682 9.38660E-05-2.66040E-05-2.88269E-05-1.42305E-06-1.15451E-18 4.67628E-19
 -1      3683 9.40550E-05-2.68387E-05-2.88120E-05-1.23620E-06-4.17621E-19-4.82418E-19
 -1      3684 9.34766E-05-2.62661E-05-2.87977E-05-1.28663E-06-1.64794E-18 8.84645E-19
 -1      3685 9.42726E-05-2.70667E-05-2.88023E-05-1.09993E-06 3.57129E-20-6.33999E-19
 -1      3686 9.44097E-05-2.72537E-05-2.87851E-05-9.45765E-07 2.13237E-19-4.69608E-19
 -1      3687 9.39773E-05-2.67940E-05-2.87879E-05-1.01459E-06-2.52845E-19 8.64421E-20
 -1      3688 9.45711E-05-2.74346E-05-2.87723E-05-8.32639E-07 3.70113E-19-8.25995E-19
 -1      3689 9.46697E-05-2.75821E-05-2.87549E-05-7.08216E-07 2.14390E-19-5.45852E-19
 -1      3690 9.43509E-05-2.72182E-05-2.87676E-05-7.81530E-07 1.72306E-19-1.48842E-18
 -1      3691 9.47881E-05-2.77240E-05-2.87412E-05-6.16718E-07-1.27906E-20 3.97482E-21
 -1      3692 9.48583E-05-2.78391E-05-2.87248E-05-5.18334E-07-1.63402E-19-2.21210E-19
 -1      3693 9.46269E-05-2.75551E-05-2.87425E-05-5.88065E-07 3.42859E-19-4.93351E-19
 -1      3694 9.49441E-05-2.79492E-05-2.87115E-05-4.46064E-07 1.17900E-19-1.23205E-19
 -1      3695 9.49934E-05-2.80381E-05-2.86969E-05-3.69785E-07 2.51341E-19 4.28296E-19
 -1      3696 9.48286E-05-2.78195E-05-2.87164E-05-4.31794E-07 2.82640E-19 3.81832E-19
 -1      3697 9.50547E-05-2.81225E-05-2.86847E-05-3.13970E-07-2.05894E-19 2.04467E-19
 -1      3698 9.50888E-05-2.81903E-05-2.86721E-05-2.55970E-07 4.44540E-19 1.12086E-18
 -1      3699 9.49739E-05-2.80246E-05-2.86913E-05-3.08630E-07 2.95653E-19 1.22957E-18
 -1      3700 9.51317E-05-2.82541E-05-2.86613E-05-2.13808E-07 5.51992E-19 8.03645E-19
 -1      3701 9.51547E-05-2.83052E-05-2.86507E-05-1.70585E-07 1.02369E-18 4.61968E-19
 -1      3702 9.50768E-05-2.81816E-05-2.86686E-05-2.13776E-07 5.02989E-19 7.58288E-19
 -1      3703 9.51840E-05-2.83529E-05-2.86415E-05-1.39454E-07 9.78326E-19-1.52348E-19
 -1      3704 9.51990E-05-2.83908E-05-2.86328E-05-1.07928E-07 6.69711E-19-6.21502E-19
 -1      3705 9.51482E-05-2.83001E-05-2.86486E-05-1.42368E-07 2.84250E-19-8.26761E-19
 -1      3706 9.52184E-05-2.84257E-05-2.86251E-05-8.55013E-08 1.38263E-18-2.13078E-20
 -1      3707 9.52278E-05-2.84534E-05-2.86181E-05-6.30553E-08 1.61656E-18 7.88636E-20
 -1      3708 9.51964E-05-2.83882E-05-2.86317E-05-8.98561E-08 1.35480E-18-1.02417E-18
 -1      3709 9.52401E-05-2.84786E-05-2.86118E-05-4.73458E-08 4.30649E-19 1.86111E-19
 -1      3710 9.52455E-05-2.84984E-05-2.86062E-05-3.18109E-08 5.59500E-19 5.35843E-19
 -1      3711 9.52277E-05-2.84526E-05-2.86177E-05-5.22094E-08 1.18831E-18-8.82431E-20
 -1      3712 9.52527E-05-2.85161E-05-2.86012E-05-2.11733E-08 7.90750E-19 2.86331E-19
 -1      3713 9.52554E-05-2.85299E-05-2.85969E-05-1.07954E-08 6.22413E-19 1.44622E-19
 -1      3714 9.52469E-05-2.84987E-05-2.86062E-05-2.59951E-08 3.62811E-19 3.89789E-19
 -1      3715 9.52591E-05-2.85420E-05-2.85929E-05-3.90230E-09-4.01538E-19-1.38058E-18
 -1      3716 9.52601E-05-2.85514E-05-2.85896E-05 2.70835E-09-1.09269E-18-1.71613E-18
 -1      3717 9.52576E-05-2.85309E-05-2.85971E-05-8.37966E-09-4.77390E-19-1.56661E-18
 -1      3718 9.52614E-05-2.85594E-05-2.85865E-05 6.90294E-09-6.11738E-19-1.94767E-18
 -1      3719 9.52612E-05-2.85655E-05-2.85840E-05 1.08252E-08-1.03761E-18-1.70916E-18
 -1      3720 9.52626E-05-2.85527E-05-2.85899E-05 2.91446E-09-9.00150E-19-1.94793E-18
 -1      3721 9.52611E-05-2.85705E-05-2.85816E-05 1.31270E-08-1.36773E-18-1.32571E-18
 -1      3722 9.52602E-05-2.85742E-05-2.85797E-05 1.51813E-08-7.46813E-19-9.48286E-19
 -1      3723 9.52637E-05-2.85669E-05-2.85844E-05 9.67427E-09-9.65608E-19-2.08922E-18
 -1      3724 9.52591E-05-2.85771E-05-2.85780E-05 1.61980E-08-2.13789E-19-4.95389E-19
 -1      3725 9.52579E-05-2.85793E-05-2.85766E-05 1.69949E-08 4.38719E-19-5.86784E-19
 -1      3726 9.52625E-05-2.85757E-05-2.85801E-05 1.32705E-08 1.66870E-20-7.54614E-19
 -1      3727 9.52564E-05-2.85807E-05-2.85752E-05 1.71698E-08 8.23244E-19-6.87718E-19
 -1      3728 9.52550E-05-2.85818E-05-2.85742E-05 1.71485E-08 2.80791E-19-7.98983E-19
 -1      3729 9.52599E-05-2.85806E-05-2.85769E-05 1.47319E-08 3.92943E-19-6.88629E-19
 -1      3730 9.52533E-05-2.85824E-05-2.85732E-05 1.68020E-08-2.97855E-20-1.10626E-18
 -1      3731 9.52519E-05-2.85827E-05-2.85725E-05 1.62654E-08 1.93192E-19-1.64442E-18
 -1      3732 9.52566E-05-2.85830E-05-2.85745E-05 1.48023E-08-3.84021E-19-1.89243E-18
 -1      3733 9.52510E-05-2.85830E-05-2.85720E-05 1.55618E-08-3.21604E-19-7.46410E-19
 -1      3734 9.52503E-05-2.85832E-05-2.85716E-05 1.45974E-08-4.78467E-20-5.14284E-19
 -1      3735 9.52523E-05-2.85844E-05-2.85720E-05 1.25042E-08 5.26632E-19-1.55886E-18
 -1      3736 9.52541E-05-2.85840E-05-2.85729E-05 1.38930E-08 2.90399E-19-1.23713E-18
 -1      3737 9.70104E-05-3.14478E-05-2.80703E-05 8.17026E-06-1.52319E-18 9.17655E-19
 -1      3738 9.84518E-05-3.29682E-05-2.80445E-05 8.37987E-06-1.08526E-18 8.56516E-19
 -1      3739 9.52547E-05-2.85863E-05-2.85722E-05 1.82295E-09-1.30184E-18 1.37464E-19
 -1      3740 1.00160E-04-3.47253E-05-2.79968E-05 8.84100E-06-6.75601E-19 6.41563E-19
 -1      3741 1.02206E-04-3.66890E-05-2.80674E-05 8.65559E-06-6.41111E-19 4.37401E-19
 -1      3742 9.76576E-05-3.32990E-05-2.76419E-05 1.01032E-05-1.10123E-18 1.00770E-18
 -1      3743 1.04821E-04-3.89302E-05-2.81618E-05 8.60047E-06-1.16559E-18 2.97424E-19
 -1      3744 1.07405E-04-4.11361E-05-2.84194E-05 7.70986E-06-1.15492E-18-3.29019E-20
 -1      3745 1.01928E-04-3.76241E-05-2.76362E-05 1.09575E-05-8.95183E-19 2.47339E-19
 -1      3746 9.50736E-05-2.91704E-05-2.82317E-05 7.13250E-06-1.71199E-18 1.16631E-18
 -1      3747 9.59965E-05-3.02185E-05-2.81713E-05 7.52184E-06-1.56714E-18 1.02027E-18
 -1      3748 9.50298E-05-3.01913E-05-2.78306E-05 8.73650E-06-1.50255E-18 9.07746E-19
 -1      3749 9.40112E-05-2.77286E-05-2.84028E-05 6.02651E-06-1.49727E-18 1.36296E-18
 -1      3750 9.45528E-05-2.83908E-05-2.83385E-05 6.47329E-06-1.89692E-18 1.00887E-18
 -1      3751 9.35663E-05-2.81353E-05-2.80659E-05 7.26947E-06-1.81787E-18 1.07227E-18
 -1      3752 9.35335E-05-2.69202E-05-2.85495E-05 4.97817E-06-1.30598E-19 1.09160E-18
 -1      3753 9.38097E-05-2.72884E-05-2.84959E-05 5.42091E-06-7.20595E-19 1.01453E-18
 -1      3754 9.28902E-05-2.69193E-05-2.82859E-05 5.91921E-06-7.77907E-19 8.80004E-19
 -1      3755 9.34234E-05-2.65605E-05-2.86590E-05 4.04266E-06 3.42554E-19 1.18164E-18
 -1      3756 9.35277E-05-2.67219E-05-2.86211E-05 4.45201E-06 3.66268E-19 1.03959E-18
 -1      3757 9.27127E-05-2.63078E-05-2.84650E-05 4.74627E-06 2.46154E-19 1.28497E-18
 -1      3758 9.35258E-05-2.64975E-05-2.87310E-05 3.23577E-06 7.40590E-19 1.30280E-18
 -1      3759 9.35271E-05-2.65231E-05-2.87086E-05 3.59915E-06 8.33817E-19 1.58413E-18
 -1      3760 9.28286E-05-2.61072E-05-2.85965E-05 3.76189E-06 3.81298E-19 1.94540E-18
 -1      3761 9.37362E-05-2.66154E-05-2.87709E-05 2.55514E-06 5.28856E-19 1.29544E-18
 -1      3762 9.36819E-05-2.65590E-05-2.87616E-05 2.86889E-06 5.57599E-19 8.54293E-19
 -1      3763 9.30985E-05-2.61671E-05-2.86842E-05 2.95130E-06 6.73436E-19 1.80385E-18
 -1      3764 9.39873E-05-2.68309E-05-2.87859E-05 1.99071E-06-1.22836E-19 1.45709E-18
 -1      3765 9.39083E-05-2.67308E-05-2.87863E-05 2.25581E-06 4.55583E-19 1.29633E-18
 -1      3766 9.34317E-05-2.63777E-05-2.87356E-05 2.29210E-06 3.40789E-19 1.59329E-18
 -1      3767 9.42385E-05-2.70874E-05-2.87832E-05 1.52948E-06-1.94977E-19 1.79071E-18
 -1      3768 9.41538E-05-2.69694E-05-2.87903E-05 1.74937E-06-2.76632E-19 1.78659E-18
 -1      3769 9.37723E-05-2.66619E-05-2.87593E-05 1.76128E-06-6.55999E-19 1.39569E-18
 -1      3770 9.44674E-05-2.73482E-05-2.87690E-05 1.15776E-06-1.13400E-18 7.11236E-19
 -1      3771 9.43878E-05-2.72290E-05-2.87801E-05 1.33706E-06-3.63733E-19 1.08016E-18
 -1      3772 9.40884E-05-2.69686E-05-2.87633E-05 1.33771E-06-2.47311E-19 9.99311E-19
 -1      3773 9.46639E-05-2.75918E-05-2.87482E-05 8.62217E-07-1.33831E-18 9.70403E-19
 -1      3774 9.45946E-05-2.74810E-05-2.87612E-05 1.00606E-06-1.54984E-18 8.35900E-19
 -1      3775 9.43643E-05-2.72659E-05-2.87543E-05 1.00285E-06-1.10583E-18 7.48916E-19
 -1      3776 9.48249E-05-2.78069E-05-2.87244E-05 6.30482E-07-8.29406E-19 1.27941E-18
 -1      3777 9.47678E-05-2.77095E-05-2.87379E-05 7.44044E-07-6.98115E-19 1.21389E-18
 -1      3778 9.45943E-05-2.75357E-05-2.87376E-05 7.40735E-07-9.76945E-19 1.71011E-19
 -1      3779 9.49522E-05-2.79893E-05-2.87003E-05 4.51371E-07-7.64873E-19 2.79406E-19
 -1      3780 9.49071E-05-2.79070E-05-2.87132E-05 5.39582E-07-6.73903E-19 6.09711E-19
 -1      3781 9.47792E-05-2.77695E-05-2.87170E-05 5.37791E-07-5.61321E-19 4.50558E-19
 -1      3782 9.50496E-05-2.81390E-05-2.86774E-05 3.15024E-07 2.22236E-19-5.17812E-19
 -1      3783 9.50152E-05-2.80717E-05-2.86892E-05 3.82405E-07-4.23079E-20-2.66146E-19
 -1      3784 9.49233E-05-2.79651E-05-2.86952E-05 3.82537E-07-4.92625E-20 4.65809E-20
 -1      3785 9.51217E-05-2.82585E-05-2.86568E-05 2.12922E-07-7.39073E-19-4.83438E-19
 -1      3786 9.50964E-05-2.82049E-05-2.86671E-05 2.63488E-07-4.35492E-19-1.00977E-18
 -1      3787 9.50323E-05-2.81239E-05-2.86742E-05 2.65344E-07 1.32945E-19-3.02605E-19
 -1      3788 9.51733E-05-2.83515E-05-2.86388E-05 1.37842E-07 2.12334E-19-2.46754E-19
 -1      3789 9.51555E-05-2.83099E-05-2.86476E-05 1.75063E-07-2.20996E-19-8.01103E-19
 -1      3790 9.51123E-05-2.82497E-05-2.86548E-05 1.78199E-07-4.94353E-19-8.66294E-19
 -1      3791 9.52090E-05-2.84221E-05-2.86235E-05 8.37584E-08-5.31796E-19-1.99694E-19
 -1      3792 9.51969E-05-2.83907E-05-2.86308E-05 1.10568E-07 3.39582E-20-3.80420E-19
 -1      3793 9.51692E-05-2.83469E-05-2.86377E-05 1.14499E-07 4.74101E-20-4.38511E-19
 -1      3794 9.52325E-05-2.84746E-05-2.86109E-05 4.57341E-08-1.05121E-19-7.53102E-20
 -1      3795 9.52248E-05-2.84513E-05-2.86169E-05 6.45614E-08-5.15789E-19-2.09718E-19
 -1      3796 9.52082E-05-2.84203E-05-2.86231E-05 6.88573E-08-7.03690E-19-4.12742E-19
 -1      3797 9.52470E-05-2.85125E-05-2.86008E-05 1.97850E-08 6.97442E-19 3.19715E-19
 -1      3798 9.52424E-05-2.84957E-05-2.86055E-05 3.26025E-08 6.22573E-19 3.02405E-19
 -1      3799 9.52337E-05-2.84744E-05-2.86110E-05 3.69287E-08 2.08473E-19-6.77095E-19
 -1      3800 9.52550E-05-2.85391E-05-2.85927E-05 2.74894E-09 7.99445E-19 6.23375E-19
 -1      3801 9.52527E-05-2.85274E-05-2.85964E-05 1.11292E-08 7.40798E-19 1.01193E-18
 -1      3802 9.52493E-05-2.85133E-05-2.86010E-05 1.52515E-08 2.14901E-19 9.64875E-19
 -1      3803 9.52586E-05-2.85571E-05-2.85864E-05-7.84333E-09-1.09912E-19 1.56159E-18
 -1      3804 9.52578E-05-2.85492E-05-2.85893E-05-2.66930E-09-3.75993E-21 9.61010E-19
 -1      3805 9.52578E-05-2.85405E-05-2.85931E-05 1.10395E-09 1.97962E-19 2.10171E-18
 -1      3806 9.52592E-05-2.85688E-05-2.85816E-05-1.38866E-08-1.07498E-18 2.67593E-18
 -1      3807 9.52594E-05-2.85638E-05-2.85838E-05-1.09731E-08 4.50631E-19 2.53006E-18
 -1      3808 9.52615E-05-2.85587E-05-2.85869E-05-7.62332E-09-5.40235E-19 2.27699E-18
 -1      3809 9.52580E-05-2.85760E-05-2.85780E-05-1.68079E-08-3.13941E-18 1.63207E-18
 -1      3810 9.52588E-05-2.85729E-05-2.85796E-05-1.54431E-08-2.68381E-18 1.97986E-18
 -1      3811 9.52619E-05-2.85705E-05-2.85821E-05-1.25395E-08-1.28851E-18 2.66831E-18
 -1      3812 9.52557E-05-2.85800E-05-2.85753E-05-1.76564E-08-1.18178E-18 1.03945E-18
 -1      3813 9.52568E-05-2.85783E-05-2.85765E-05-1.73179E-08-2.41513E-18 8.63883E-19
 -1      3814 9.52603E-05-2.85775E-05-2.85784E-05-1.48504E-08-2.11575E-18 1.99529E-18
 -1      3815 9.52529E-05-2.85819E-05-2.85733E-05-1.71988E-08-1.73204E-18 2.23932E-18
 -1      3816 9.52541E-05-2.85811E-05-2.85741E-05-1.75151E-08-1.14763E-18 1.26954E-18
 -1      3817 9.52576E-05-2.85813E-05-2.85756E-05-1.54392E-08-1.06082E-18 1.39073E-18
 -1      3818 9.52501E-05-2.85826E-05-2.85718E-05-1.59115E-08-6.19723E-19 1.40647E-18
 -1      3819 9.52512E-05-2.85822E-05-2.85724E-05-1.66095E-08-1.30877E-18 1.84519E-18
 -1      3820 9.52545E-05-2.85831E-05-2.85735E-05-1.50000E-08-1.24699E-18 4.53445E-20
 -1      3821 9.52539E-05-2.85851E-05-2.85723E-05 9.77835E-09 6.31861E-19 5.67766E-19
 -1      3822 9.52551E-05-2.85858E-05-2.85726E-05 7.24215E-09-3.64528E-19 2.37341E-18
 -1      3823 9.52549E-05-2.85850E-05-2.85728E-05 1.04756E-08 5.13302E-19 4.51200E-19
 -1      3824 1.03134E-04-4.22615E-05-2.62245E-05 1.83000E-05-1.40042E-18-4.73478E-19
 -1      3825 9.35375E-05-3.60448E-05-2.44415E-05 2.19612E-05-1.97106E-18-9.26058E-19
 -1      3826 1.20491E-04-4.57003E-05-3.21227E-05-7.07405E-07-6.99940E-19 9.06484E-19
 -1      3827 6.15403E-05-1.14790E-05-2.11535E-05 1.20438E-05 6.30844E-19-2.74417E-18
 -1      3828 6.32353E-05-1.00032E-05-2.26939E-05-1.48921E-05-4.95499E-19-3.01815E-18
 -1      3829 1.15723E-04-4.36047E-05-3.07246E-05-3.50706E-06-5.78537E-19 3.97119E-19
 -1      3830 1.11597E-04-4.27596E-05-2.96847E-05-9.56060E-06-7.29501E-19-3.46443E-19
 -1      3831 1.11116E-04-4.04925E-05-3.02807E-05-4.86592E-06-7.92100E-20-1.35949E-19
 -1      3832 1.07755E-04-3.76929E-05-2.99241E-05-6.49269E-06 2.65757E-20-5.75794E-19
 -1      3833 1.05576E-04-3.93433E-05-2.82677E-05-1.48564E-05-8.13403E-19-6.65682E-19
 -1      3834 1.01368E-04-3.16270E-05-2.98678E-05-6.59150E-06 3.62775E-19-8.65158E-19
 -1      3835 9.52510E-05-2.85841E-05-2.85715E-05-1.22924E-08-1.25496E-18 7.05869E-19
 -1      3836 1.11438E-04-4.38036E-05-2.88794E-05 6.46119E-06-1.04527E-18-8.40316E-20
 -1      3837 1.15071E-04-4.58677E-05-2.97459E-05 3.77309E-06-5.31970E-19 2.22371E-20
 -1      3838 6.72677E-05-1.69669E-05-2.15902E-05 1.22740E-05-9.85371E-19 1.78216E-18
 -1      3839 6.29682E-05-1.33951E-05-2.10818E-05 3.39128E-06-4.55168E-19 1.59030E-18
 -1      3840 6.80451E-05-1.73146E-05-2.15710E-05-1.46274E-05 1.08904E-18 1.79042E-19
 -1      3841 7.52078E-05-1.88776E-05-2.41380E-05-2.09552E-05-6.23085E-19-2.31145E-18
 -1      3842 8.26814E-05-2.51849E-05-2.43430E-05-2.42938E-05-9.25913E-19-2.15094E-18
 -1      3843 1.16471E-04-3.21353E-05-3.61634E-05 1.19800E-05 6.86838E-19 2.04317E-18
 -1      3844 1.16416E-04-4.80253E-05-2.94697E-05 6.70543E-06-7.31517E-19 2.52422E-19
 -1      3845 1.11473E-04-4.64092E-05-2.77474E-05 1.32201E-05-1.38118E-18-4.19089E-19
 -1      3846 9.31164E-05-3.18465E-05-2.62653E-05-2.08422E-05-8.68066E-19-1.50980E-18
 -1      3847 8.36718E-05-2.98209E-05-2.32428E-05 2.24242E-05-2.12321E-18-1.35981E-18
 -1      3848 7.48587E-05-2.27375E-05-2.22703E-05 1.87141E-05-1.61318E-18-3.93400E-19
 -1      3849 6.58006E-05-1.54934E-05-2.15037E-05-1.06958E-05 7.06386E-19 1.16410E-18
 -1      3850 6.95959E-05-1.64840E-05-2.26203E-05-1.08382E-05 7.90694E-19 2.17436E-19
 -1      3851 7.15676E-05-1.61506E-05-2.38267E-05-8.73111E-06 9.14612E-19 1.70409E-19
 -1      3852 6.25379E-05-1.34843E-05-2.10716E-05-3.82422E-06-3.18349E-20 1.64743E-18
 -1      3853 7.16128E-05-1.38493E-05-2.46122E-05-1.75182E-05-4.23535E-19-2.47860E-18
 -1      3854 9.95200E-05-3.53154E-05-2.74721E-05-1.79657E-05-6.40198E-19-9.08251E-19
 -1      3855 6.23429E-05-6.07831E-06-2.41898E-05-6.83442E-06-5.18725E-20-3.13904E-18
 -1      3856 9.00868E-05-3.20846E-05-2.47356E-05 1.90642E-05-1.74802E-18-1.00086E-18
 -1      3857 1.08550E-04-4.29338E-05-2.81417E-05 9.90358E-06-1.10847E-18 4.63016E-19
 -1      3858 9.52564E-05-2.85861E-05-2.85730E-05-4.71660E-09-5.80550E-19-2.39225E-18
 -1      3859 9.52555E-05-2.85856E-05-2.85728E-05-7.45696E-09-1.16556E-18-9.14415E-19
 -1      3860 9.52564E-05-2.85862E-05-2.85729E-05 4.33830E-09-6.14092E-19 9.92892E-19
 -1      3861 9.52569E-05-2.85864E-05-2.85731E-05-4.68341E-10-6.62509E-19-1.91508E-18
 -1      3862 9.52576E-05-2.85860E-05-2.85735E-05 4.92590E-09 4.15249E-19 1.46111E-18
 -1      3863 6.73838E-05-1.46125E-05-2.24887E-05-9.93222E-08 1.24368E-19 1.17839E-18
 -1      3864 1.07188E-04-4.34343E-05-2.72722E-05 1.41049E-05-1.30360E-18 4.33683E-20
 -1      3865 1.18232E-04-4.64812E-05-3.05895E-05 1.07989E-06-7.53992E-20-1.38123E-19
 -1      3866 1.01588E-04-3.90235E-05-2.68285E-05 1.46824E-05-1.04896E-18 5.93353E-20
 -1      3867 1.01928E-04-3.49838E-05-2.86517E-05-1.26719E-05-2.59258E-19-9.21736E-19
 -1      3868 6.64014E-05-1.04462E-05-2.39878E-05-1.55195E-05-4.56653E-19-2.72558E-18
 -1      3869 7.29036E-05-1.96984E-05-2.26941E-05 1.44296E-05-9.96200E-19 1.69493E-19
 -1      3870 7.22149E-05-1.75155E-05-2.35193E-05 8.92686E-06-5.01209E-19 6.87672E-19
 -1      3871 7.87136E-05-2.25757E-05-2.40456E-05 1.44266E-05-1.44158E-18-1.00774E-18
 -1      3872 6.40631E-05-7.36724E-06-2.42713E-05-1.06217E-05-2.35985E-19-3.05046E-18
 -1      3873 7.09610E-05-1.51871E-05-2.38060E-05-4.91948E-06 2.75871E-19 3.55526E-19
 -1      3874 9.52584E-05-2.85861E-05-2.85738E-05-2.15325E-09-3.86491E-19-1.57734E-18
 -1      3875 7.07919E-05-1.54684E-05-2.37612E-05 1.33313E-06-4.48114E-19 8.64311E-19
 -1      3876 7.24396E-05-1.62158E-05-2.39861E-05 4.59755E-06-6.58183E-19 2.14183E-18
 -1      3877 7.48710E-05-1.65019E-05-2.50610E-05 1.68513E-07-5.76082E-19 8.53961E-19
 -1      3878 7.74837E-05-1.73676E-05-2.58016E-05-1.06513E-07-1.32620E-19 7.34967E-19
 -1      3879 7.60585E-05-1.82823E-05-2.47679E-05 6.78317E-06-4.65890E-19 9.82084E-19
 -1      3880 8.00044E-05-1.82487E-05-2.65158E-05-8.01172E-07 1.90223E-19 4.83484E-19
 -1      3881 8.19632E-05-1.90434E-05-2.69917E-05-9.77997E-07 1.11810E-20 4.09441E-19
 -1      3882 8.35903E-05-1.97544E-05-2.73907E-05-1.35583E-06-6.56685E-19 3.09528E-19
 -1      3883 8.50656E-05-2.04710E-05-2.77000E-05-1.42358E-06-9.65715E-19 4.46740E-19
 -1      3884 8.27134E-05-1.94746E-05-2.70497E-05 6.14355E-07-5.87973E-19-2.13011E-19
 -1      3885 8.63345E-05-2.11459E-05-2.79613E-05-1.63692E-06-1.25261E-18 7.48000E-19
 -1      3886 8.74634E-05-2.17935E-05-2.81566E-05-1.62061E-06-9.17220E-19 1.62514E-19
 -1      3887 8.55314E-05-2.07905E-05-2.77105E-05-1.94845E-07-9.43256E-19-5.15877E-19
 -1      3888 8.84591E-05-2.24063E-05-2.83247E-05-1.71447E-06-9.25488E-19 4.95742E-20
 -1      3889 8.93264E-05-2.29803E-05-2.84438E-05-1.63622E-06-9.78390E-19-5.79897E-19
 -1      3890 8.77462E-05-2.20174E-05-2.81432E-05-6.62950E-07-1.04464E-18 4.46725E-19
 -1      3891 9.01103E-05-2.35239E-05-2.85484E-05-1.64816E-06-5.78134E-19-2.34948E-19
 -1      3892 9.07755E-05-2.40221E-05-2.86166E-05-1.53168E-06-2.35711E-19 2.44373E-19
 -1      3893 8.94915E-05-2.31317E-05-2.84201E-05-8.84876E-07-7.70964E-19 6.18691E-19
 -1      3894 9.13916E-05-2.44939E-05-2.86781E-05-1.49255E-06-6.68877E-20-1.81051E-19
 -1      3895 9.18998E-05-2.49184E-05-2.87130E-05-1.35846E-06 2.76467E-19-2.65751E-19
 -1      3896 9.08672E-05-2.41215E-05-2.85903E-05-9.42261E-07-7.85822E-23 6.54986E-19
 -1      3897 9.23815E-05-2.53200E-05-2.87456E-05-1.29171E-06-1.43935E-19-3.80038E-19
 -1      3898 9.27675E-05-2.56756E-05-2.87593E-05-1.15547E-06-1.29448E-18-3.48916E-19
 -1      3899 9.19473E-05-2.49821E-05-2.86880E-05-8.98303E-07-1.19153E-19-1.32659E-19
 -1      3900 9.31413E-05-2.60116E-05-2.87731E-05-1.07765E-06-1.33350E-18 5.98530E-19
 -1      3901 9.34326E-05-2.63051E-05-2.87736E-05-9.49488E-07-8.67855E-19 9.19382E-19
 -1      3902 9.27898E-05-2.57159E-05-2.87373E-05-7.99108E-07-6.77384E-19 3.54719E-19
 -1      3903 9.37202E-05-2.65818E-05-2.87755E-05-8.71397E-07-1.01087E-18 9.20248E-19
 -1      3904 9.39383E-05-2.68208E-05-2.87685E-05-7.57152E-07-6.66949E-19 2.67212E-19
 -1      3905 9.34416E-05-2.63308E-05-2.87553E-05-6.76355E-07-1.02871E-18 1.03170E-18
 -1      3906 9.41573E-05-2.70455E-05-2.87633E-05-6.85158E-07-2.80138E-19-7.36645E-20
 -1      3907 9.43192E-05-2.72375E-05-2.87524E-05-5.87397E-07 1.66042E-19-5.06922E-19
 -1      3908 9.39410E-05-2.68377E-05-2.87537E-05-5.50362E-07-1.08819E-18 1.00170E-18
 -1      3909 9.44840E-05-2.74174E-05-2.87434E-05-5.24700E-07 5.27670E-19-3.72928E-19
 -1      3910 9.46029E-05-2.75699E-05-2.87309E-05-4.43760E-07 4.57859E-19 2.72740E-19
 -1      3911 9.43195E-05-2.72493E-05-2.87408E-05-4.33031E-07 6.02988E-19 1.15653E-21
 -1      3912 9.47253E-05-2.77119E-05-2.87202E-05-3.91442E-07 3.30384E-19 6.92843E-19
 -1      3913 9.48115E-05-2.78314E-05-2.87077E-05-3.26286E-07 7.44220E-19 1.19870E-18
 -1      3914 9.46028E-05-2.75787E-05-2.87220E-05-3.30386E-07 5.93493E-19 4.78674E-19
 -1      3915 9.49011E-05-2.79421E-05-2.86967E-05-2.84116E-07 8.53262E-19 1.07079E-18
 -1      3916 9.49627E-05-2.80346E-05-2.86849E-05-2.32968E-07 1.98430E-19 1.42762E-18
 -1      3917 9.48120E-05-2.78385E-05-2.87010E-05-2.44582E-07 7.23809E-19 7.65442E-19
 -1      3918 9.50270E-05-2.81196E-05-2.86746E-05-1.99987E-07-2.44116E-19 1.16746E-18
 -1      3919 9.50702E-05-2.81901E-05-2.86640E-05-1.60772E-07 1.27213E-19 6.99167E-19
 -1      3920 9.49638E-05-2.80406E-05-2.86800E-05-1.75410E-07-3.07399E-19 5.70313E-19
 -1      3921 9.51155E-05-2.82545E-05-2.86546E-05-1.35686E-07 1.59140E-19 3.04716E-19
 -1      3922 9.51450E-05-2.83075E-05-2.86454E-05-1.06312E-07 5.41287E-19 2.25322E-19
 -1      3923 9.50720E-05-2.81954E-05-2.86604E-05-1.21354E-07-4.25995E-19 1.23366E-18
 -1      3924 9.51760E-05-2.83554E-05-2.86372E-05-8.77464E-08 7.63933E-19-5.73463E-19
 -1      3925 9.51955E-05-2.83946E-05-2.86295E-05-6.62678E-08 1.39933E-18-5.24561E-19
 -1      3926 9.51472E-05-2.83122E-05-2.86429E-05-8.02984E-08 2.54744E-19 6.58689E-19
 -1      3927 9.52160E-05-2.84297E-05-2.86226E-05-5.29169E-08 1.58615E-18-1.01551E-18
 -1      3928 9.52283E-05-2.84581E-05-2.86162E-05-3.76204E-08 8.24845E-19-9.72687E-19
 -1      3929 9.51979E-05-2.83987E-05-2.86278E-05-4.99766E-08 8.44677E-19-5.82123E-19
 -1      3930 9.52412E-05-2.84832E-05-2.86105E-05-2.83228E-08 1.56715E-19-1.17473E-18
 -1      3931 9.52484E-05-2.85033E-05-2.86053E-05-1.77574E-08-1.26702E-19-1.43956E-18
 -1      3932 9.52307E-05-2.84617E-05-2.86151E-05-2.82268E-08-1.46188E-19-1.53887E-18
 -1      3933 9.52559E-05-2.85208E-05-2.86006E-05-1.15281E-08-1.21198E-19-1.51660E-18
 -1      3934 9.52596E-05-2.85347E-05-2.85966E-05-4.50250E-09-9.03621E-19-1.59215E-18
 -1      3935 9.52507E-05-2.85064E-05-2.86046E-05-1.31284E-08-2.15054E-19-1.61178E-18
 -1      3936 9.52633E-05-2.85466E-05-2.85928E-05-5.35960E-10-1.39091E-18-7.95522E-20
 -1      3937 9.52647E-05-2.85558E-05-2.85896E-05 3.90213E-09-6.32044E-19-6.23345E-19
 -1      3938 9.52616E-05-2.85373E-05-2.85961E-05-3.05463E-09-7.35557E-20-1.46738E-18
 -1      3939 9.52659E-05-2.85635E-05-2.85867E-05 6.24520E-09-3.99313E-19-2.08755E-19
 -1      3940 9.52658E-05-2.85694E-05-2.85842E-05 8.83859E-09-5.06423E-19 1.04727E-19
 -1      3941 9.52664E-05-2.85579E-05-2.85893E-05 3.32222E-09-7.52748E-19 1.01152E-18
 -1      3942 9.52654E-05-2.85741E-05-2.85819E-05 1.00508E-08-4.09989E-19 3.55954E-19
 -1      3943 9.52643E-05-2.85776E-05-2.85801E-05 1.13659E-08 3.74132E-19 5.87001E-19
 -1      3944 9.52672E-05-2.85711E-05-2.85841E-05 7.05186E-09 3.51826E-20 1.59038E-18
 -1      3945 9.52630E-05-2.85802E-05-2.85783E-05 1.18209E-08 6.09043E-19-4.45701E-19
 -1      3946 9.52614E-05-2.85821E-05-2.85769E-05 1.22873E-08 2.64854E-19-4.65069E-19
 -1      3947 9.52654E-05-2.85789E-05-2.85800E-05 8.93646E-09-9.78619E-20 1.26270E-18
 -1      3948 9.52596E-05-2.85833E-05-2.85755E-05 1.22399E-08 4.00456E-20-3.79255E-20
 -1      3949 9.52578E-05-2.85841E-05-2.85744E-05 1.21330E-08-4.96693E-19-2.60481E-19
 -1      3950 9.52622E-05-2.85831E-05-2.85768E-05 9.63376E-09 5.00887E-19 8.78038E-19
 -1      3951 9.52568E-05-2.85844E-05-2.85739E-05 1.16245E-08-7.33562E-19 5.46571E-20
 -1      3952 9.52559E-05-2.85848E-05-2.85733E-05 1.10015E-08 3.27182E-19 3.58779E-19
 -1      3953 9.52574E-05-2.85855E-05-2.85737E-05 8.29828E-09-9.64746E-20 2.53421E-18
 -1      3954 9.52594E-05-2.85849E-05-2.85748E-05 9.25809E-09-4.73437E-19 1.36519E-18
 -1      3955 9.52587E-05-2.85858E-05-2.85741E-05 5.34756E-09-1.96340E-19 8.12267E-19
 -1      3956 9.46684E-05-3.10438E-05-2.72527E-05 1.09191E-05-1.26953E-18 8.69616E-19
 -1      3957 9.64010E-05-3.28811E-05-2.71663E-05 1.16348E-05-8.90086E-19 7.32029E-19
 -1      3958 9.74074E-05-3.44529E-05-2.69578E-05 1.29551E-05-8.30161E-19 1.75179E-19
 -1      3959 1.00119E-04-3.70300E-05-2.69920E-05 1.33931E-05-1.06864E-18 3.45057E-19
 -1      3960 9.64618E-05-3.58196E-05-2.60603E-05 1.68176E-05-1.11168E-18 2.49289E-19
 -1      3961 9.38126E-05-3.19982E-05-2.65131E-05 1.39683E-05-1.19793E-18 6.53746E-19
 -1      3962 9.16941E-05-2.59227E-05-2.81952E-05 5.52922E-06-5.24330E-19 7.83038E-20
 -1      3963 9.18943E-05-2.63121E-05-2.80862E-05 6.17742E-06-1.17351E-18 2.23327E-19
 -1      3964 9.18680E-05-2.56087E-05-2.84053E-05 4.29583E-06-3.57751E-19 1.76503E-18
 -1      3965 9.18717E-05-2.57538E-05-2.83223E-05 4.83551E-06-3.06664E-19 1.48734E-18
 -1      3966 9.08262E-05-2.51759E-05-2.81369E-05 5.04792E-06-1.10568E-18 2.89967E-19
 -1      3967 9.22379E-05-2.56284E-05-2.85552E-05 3.31397E-06 3.70237E-19 2.64304E-18
 -1      3968 9.21322E-05-2.56170E-05-2.84972E-05 3.75498E-06 1.45408E-21 2.31552E-18
 -1      3969 9.12863E-05-2.50919E-05-2.83667E-05 3.81484E-06-5.55543E-19 2.30724E-18
 -1      3970 9.26890E-05-2.58470E-05-2.86540E-05 2.53937E-06 4.51103E-19 2.44392E-18
 -1      3971 9.25314E-05-2.57431E-05-2.86174E-05 2.89582E-06 8.28725E-19 2.52453E-18
 -1      3972 9.18530E-05-2.52786E-05-2.85279E-05 2.87066E-06 6.75393E-19 2.31712E-18
 -1      3973 9.31504E-05-2.61693E-05-2.87126E-05 1.93190E-06-1.79838E-19 2.09862E-18
 -1      3974 9.29770E-05-2.60178E-05-2.86927E-05 2.21777E-06 2.71509E-19 2.32909E-18
 -1      3975 9.24380E-05-2.56156E-05-2.86336E-05 2.15123E-06 7.38395E-19 2.07724E-18
 -1      3976 9.35810E-05-2.65305E-05-2.87414E-05 1.45779E-06-4.59327E-20 9.61845E-19
 -1      3977 9.34135E-05-2.63617E-05-2.87338E-05 1.68548E-06 6.67124E-20 1.39595E-18
 -1      3978 9.29895E-05-2.60200E-05-2.86967E-05 1.60454E-06 5.48954E-19 2.25024E-18
 -1      3979 9.39599E-05-2.68890E-05-2.87492E-05 1.08958E-06-9.01135E-20-1.96362E-19
 -1      3980 9.38098E-05-2.67223E-05-2.87500E-05 1.26964E-06 2.17784E-19-1.35263E-19
 -1      3981 9.34801E-05-2.64370E-05-2.87286E-05 1.18983E-06 7.46799E-19-3.51631E-19
 -1      3982 9.42792E-05-2.72204E-05-2.87431E-05 8.05190E-07-1.12413E-18-3.60448E-19
 -1      3983 9.41515E-05-2.70670E-05-2.87493E-05 9.46474E-07-4.63766E-19-1.07133E-19
 -1      3984 9.38984E-05-2.68328E-05-2.87388E-05 8.75835E-07 1.86225E-20-8.05975E-19
 -1      3985 9.45392E-05-2.75121E-05-2.87288E-05 5.87023E-07-9.15192E-19-8.74517E-20
 -1      3986 9.44347E-05-2.73776E-05-2.87380E-05 6.96883E-07-1.71102E-18-4.19423E-19
 -1      3987 9.42433E-05-2.71885E-05-2.87348E-05 6.38689E-07-7.94110E-19-6.65176E-19
 -1      3988 9.47446E-05-2.77595E-05-2.87101E-05 4.21006E-07-5.95289E-19-2.39703E-20
 -1      3989 9.46620E-05-2.76459E-05-2.87206E-05 5.05561E-07-1.72665E-19 2.59109E-19
 -1      3990 9.45195E-05-2.74957E-05-2.87221E-05 4.60252E-07-9.59791E-19-1.13462E-19
 -1      3991 9.49025E-05-2.79632E-05-2.86900E-05 2.95890E-07 7.19675E-19-3.29044E-19
 -1      3992 9.48392E-05-2.78700E-05-2.87007E-05 3.60217E-07-3.67278E-20 3.94701E-19
 -1      3993 9.47351E-05-2.77526E-05-2.87049E-05 3.26701E-07-3.30996E-19-4.46906E-19
 -1      3994 9.50207E-05-2.81265E-05-2.86703E-05 2.02679E-07 1.91306E-19-4.14409E-19
 -1      3995 9.49736E-05-2.80520E-05-2.86804E-05 2.50973E-07 6.03186E-19 2.11561E-19
 -1      3996 9.48992E-05-2.79619E-05-2.86860E-05 2.27457E-07 7.42653E-19-8.96701E-19
 -1      3997 9.51068E-05-2.82545E-05-2.86520E-05 1.34176E-07-1.13170E-19-1.21556E-18
 -1      3998 9.50727E-05-2.81963E-05-2.86611E-05 1.69891E-07-3.00374E-19-6.39430E-19
 -1      3999 9.50209E-05-2.81283E-05-2.86672E-05 1.54392E-07 3.10834E-19-4.89361E-19
 -1      4000 9.51675E-05-2.83525E-05-2.86357E-05 8.46447E-08-1.44875E-19-9.27860E-19
 -1      4001 9.51438E-05-2.83081E-05-2.86436E-05 1.10599E-07 6.79608E-19-1.36006E-18
 -1      4002 9.51089E-05-2.82578E-05-2.86497E-05 1.01235E-07 3.80079E-20-9.36422E-19
 -1      4003 9.52088E-05-2.84259E-05-2.86218E-05 4.95275E-08-3.66351E-19-1.57777E-18
 -1      4004 9.51929E-05-2.83928E-05-2.86285E-05 6.80031E-08-8.06854E-19-1.50061E-18
 -1      4005 9.51704E-05-2.83563E-05-2.86341E-05 6.31322E-08 1.30294E-19-6.44337E-19
 -1      4006 9.52356E-05-2.84796E-05-2.86101E-05 2.52289E-08 2.24125E-19-1.28237E-18
 -1      4007 9.52255E-05-2.84555E-05-2.86156E-05 3.80541E-08-9.78274E-20-1.56515E-18
 -1      4008 9.52120E-05-2.84297E-05-2.86206E-05 3.63274E-08-2.98565E-19-2.25836E-18
 -1      4009 9.52518E-05-2.85178E-05-2.86005E-05 8.93437E-09-8.97105E-19 1.24544E-18
 -1      4010 9.52459E-05-2.85007E-05-2.86050E-05 1.75573E-08-1.08590E-18-2.90019E-19
 -1      4011 9.52386E-05-2.84831E-05-2.86093E-05 1.79168E-08-1.14665E-18-8.95400E-19
 -1      4012 9.52604E-05-2.85442E-05-2.85928E-05-1.53700E-09-3.20845E-19 1.78799E-18
 -1      4013 9.52576E-05-2.85325E-05-2.85964E-05 4.01610E-09 1.68668E-19 1.75746E-18
 -1      4014 9.52545E-05-2.85209E-05-2.86000E-05 5.66471E-09-8.82512E-19-1.80343E-20
 -1      4015 9.52640E-05-2.85618E-05-2.85867E-05-7.85516E-09-9.44272E-19 2.32274E-18
 -1      4016 9.52631E-05-2.85541E-05-2.85895E-05-4.49895E-09-5.07423E-19 1.88149E-18
 -1      4017 9.52628E-05-2.85468E-05-2.85925E-05-2.13859E-09-3.64000E-19 1.68513E-18
 -1      4018 9.52641E-05-2.85729E-05-2.85820E-05-1.12804E-08-1.08764E-18 2.29735E-18
 -1      4019 9.52645E-05-2.85681E-05-2.85841E-05-9.45910E-09-1.24610E-18 2.39025E-18
 -1      4020 9.52659E-05-2.85639E-05-2.85866E-05-6.78845E-09-1.27112E-18 1.70916E-18
 -1      4021 9.52623E-05-2.85794E-05-2.85784E-05-1.27476E-08-1.15152E-18 9.23579E-19
 -1      4022 9.52634E-05-2.85766E-05-2.85800E-05-1.19696E-08-1.01024E-18 2.06795E-18
 -1      4023 9.52657E-05-2.85746E-05-2.85819E-05-9.25411E-09-6.30040E-19 9.42702E-19
 -1      4024 9.52592E-05-2.85828E-05-2.85756E-05-1.29020E-08-3.72879E-19 5.76601E-19
 -1      4025 9.52608E-05-2.85814E-05-2.85768E-05-1.28433E-08-7.03418E-19 9.79103E-19
 -1      4026 9.52634E-05-2.85807E-05-2.85783E-05-1.02555E-08-6.95952E-19 1.11645E-19
 -1      4027 9.52532E-05-2.85845E-05-2.85723E-05-1.15150E-08-1.82071E-18 2.95572E-19
 -1      4028 8.85344E-05-3.00914E-05-2.50453E-05 1.74461E-05-1.71617E-18-4.12290E-19
 -1      4029 9.18967E-05-2.67554E-05-2.79218E-05 7.05507E-06-1.53084E-18-8.89405E-21
 -1      4030 9.24201E-05-2.75090E-05-2.77930E-05 7.80989E-06-1.78477E-18 2.58608E-19
 -1      4031 9.06151E-05-2.57000E-05-2.78285E-05 6.64480E-06-1.33281E-18-9.86125E-19
 -1      4032 9.27399E-05-2.83221E-05-2.75983E-05 8.86424E-06-1.77335E-18 4.39066E-19
 -1      4033 9.37612E-05-2.95753E-05-2.74668E-05 9.72093E-06-1.48599E-18 6.10245E-19
 -1      4034 9.08900E-05-2.69122E-05-2.74425E-05 8.66202E-06-1.47087E-18-3.15600E-19
 -1      4035 9.52556E-05-2.85847E-05-2.85732E-05-1.05492E-08-7.41071E-19-5.98175E-20
 -1      4036 1.02699E-04-3.43069E-05-2.93119E-05-9.18598E-06 1.10743E-19-8.17650E-19
 -1      4037 9.52606E-05-2.85859E-05-2.85749E-05-1.22503E-10-3.22393E-19-1.31411E-18
 -1      4038 9.52602E-05-2.85856E-05-2.85748E-05-4.29142E-09-5.36248E-19-2.52724E-18
 -1      4039 9.52593E-05-2.85852E-05-2.85746E-05-7.86851E-09-1.60067E-19-3.50299E-19
 -1      4040 9.52569E-05-2.85841E-05-2.85740E-05-1.19201E-08-3.47050E-19 3.71647E-19
 -1      4041 9.52585E-05-2.85834E-05-2.85750E-05-1.22382E-08-5.73474E-19 6.91943E-19
 -1      4042 9.52615E-05-2.85847E-05-2.85758E-05-5.70304E-09-1.19392E-19-2.03870E-18
 -1      4043 9.52605E-05-2.85853E-05-2.85751E-05 6.25996E-09 1.90949E-19 1.91873E-18
 -1      4044 9.52605E-05-2.85858E-05-2.85749E-05 2.94520E-09 5.94255E-19 1.90624E-20
 -1      4045 9.52624E-05-2.85851E-05-2.85759E-05 7.27177E-10-4.68109E-19-8.19170E-19
 -1      4046 9.52615E-05-2.85847E-05-2.85757E-05 6.66148E-09 7.59374E-19 1.49685E-19
 -1      4047 9.20150E-05-2.91305E-05-2.70097E-05 1.11648E-05-1.11874E-18 4.56038E-19
 -1      4048 9.52613E-05-2.85836E-05-2.85762E-05-9.85137E-09 5.12794E-20 1.19237E-18
 -1      4049 7.86976E-05-1.79330E-05-2.59513E-05 2.03436E-06-1.19665E-19 1.70893E-18
 -1      4050 9.00484E-05-2.95993E-05-2.58684E-05 1.47179E-05-1.21941E-18-1.94922E-19
 -1      4051 8.35717E-05-2.58110E-05-2.46724E-05 1.61026E-05-1.61130E-18-1.32090E-18
 -1      4052 8.06686E-05-2.27995E-05-2.49100E-05 1.25603E-05-1.16869E-18-1.16990E-18
 -1      4053 8.92781E-05-2.82775E-05-2.61436E-05 1.32171E-05-1.10869E-18 1.18055E-19
 -1      4054 7.87219E-05-1.98117E-05-2.51141E-05 8.98454E-06-1.08124E-18-9.12041E-19
 -1      4055 7.80225E-05-1.87228E-05-2.55047E-05 5.37363E-06-4.72927E-19 2.66236E-19
 -1      4056 8.22113E-05-1.97647E-05-2.68267E-05 2.52329E-06-6.70770E-19-4.92032E-19
 -1      4057 8.38941E-05-2.03699E-05-2.72251E-05 1.90860E-06-9.27821E-19-7.42227E-19
 -1      4058 8.50396E-05-2.08769E-05-2.75377E-05 1.24520E-06-8.60241E-19-8.87622E-19
 -1      4059 8.63193E-05-2.14521E-05-2.78027E-05 8.41288E-07-8.13826E-19-4.89224E-19
 -1      4060 8.50009E-05-2.11015E-05-2.73451E-05 3.01632E-06-9.51081E-19-9.69684E-19
 -1      4061 8.72603E-05-2.19588E-05-2.80141E-05 4.15921E-07-6.29707E-19-8.06525E-19
 -1      4062 8.82637E-05-2.25016E-05-2.81870E-05 1.81418E-07-7.64797E-19-2.51752E-19
 -1      4063 8.70711E-05-2.19753E-05-2.78641E-05 1.73135E-06-6.83951E-19-1.44054E-18
 -1      4064 8.90410E-05-2.29902E-05-2.83270E-05-7.88058E-08-1.16104E-18 1.01351E-19
 -1      4065 8.98299E-05-2.34871E-05-2.84364E-05-1.94940E-07-7.56338E-19-1.25440E-19
 -1      4066 8.87776E-05-2.28790E-05-2.82147E-05 9.05068E-07-7.63140E-19-1.09591E-18
 -1      4067 9.04682E-05-2.39401E-05-2.85258E-05-3.42933E-07-5.54806E-19-5.71956E-20
 -1      4068 9.10875E-05-2.43833E-05-2.85915E-05-3.81311E-07-1.74717E-19-6.91704E-19
 -1      4069 9.01833E-05-2.37600E-05-2.84449E-05 3.92418E-07-1.19792E-18-1.65332E-18
 -1      4070 9.16066E-05-2.47898E-05-2.86453E-05-4.55747E-07 1.54373E-19-9.21692E-19
 -1      4071 9.20904E-05-2.51760E-05-2.86815E-05-4.46603E-07 2.02765E-19-6.25730E-19
 -1      4072 9.13319E-05-2.45812E-05-2.85896E-05 9.16531E-08-2.02066E-19-1.85824E-18
 -1      4073 9.25078E-05-2.55310E-05-2.87109E-05-4.75070E-07 2.00101E-19 2.26258E-19
 -1      4074 9.28829E-05-2.58606E-05-2.87275E-05-4.39867E-07-2.59641E-19 8.59854E-19
 -1      4075 9.22604E-05-2.53202E-05-2.86745E-05-7.00723E-08 5.87285E-19-6.42540E-19
 -1      4076 9.32143E-05-2.61636E-05-2.87405E-05-4.41464E-07-5.40702E-19 1.43317E-18
 -1      4077 9.35027E-05-2.64396E-05-2.87446E-05-3.94661E-07-7.27246E-19 1.47751E-18
 -1      4078 9.30021E-05-2.59664E-05-2.87185E-05-1.44148E-07 5.18439E-20 7.26992E-19
 -1      4079 9.37623E-05-2.66929E-05-2.87470E-05-3.82109E-07-1.23357E-18 1.62827E-18
 -1      4080 9.39817E-05-2.69202E-05-2.87434E-05-3.32856E-07-6.78453E-19 1.81128E-18
 -1      4081 9.35869E-05-2.65180E-05-2.87352E-05-1.65893E-07-4.40752E-19 1.67266E-18
 -1      4082 9.41822E-05-2.71282E-05-2.87394E-05-3.14237E-07-2.70747E-19 1.51206E-18
 -1      4083 9.43473E-05-2.73123E-05-2.87316E-05-2.67861E-07 2.81808E-20 8.95649E-19
 -1      4084 9.40417E-05-2.69788E-05-2.87346E-05-1.58776E-07-6.15058E-19 2.50143E-18
 -1      4085 9.44998E-05-2.74802E-05-2.87240E-05-2.48001E-07 6.52736E-19 4.47825E-19
 -1      4086 9.46223E-05-2.76271E-05-2.87141E-05-2.07213E-07 9.64935E-19 1.03696E-18
 -1      4087 9.43903E-05-2.73566E-05-2.87237E-05-1.37764E-07-2.09978E-19 9.88674E-19
 -1      4088 9.47364E-05-2.77604E-05-2.87048E-05-1.88747E-07 6.66988E-19 6.14774E-19
 -1      4089 9.48261E-05-2.78759E-05-2.86944E-05-1.54561E-07 2.91668E-19 3.02237E-20
 -1      4090 9.46533E-05-2.76608E-05-2.87074E-05-1.11919E-07 7.38973E-19-3.75064E-19
 -1      4091 9.49099E-05-2.79801E-05-2.86847E-05-1.38720E-07 1.32653E-19 9.31264E-19
 -1      4092 9.49743E-05-2.80695E-05-2.86746E-05-1.11125E-07-1.78284E-19 9.61607E-19
 -1      4093 9.48485E-05-2.79016E-05-2.86888E-05-8.63509E-08 6.22055E-19 6.29087E-19
 -1      4094 9.50347E-05-2.81496E-05-2.86653E-05-9.82800E-08-3.46471E-19 1.70073E-18
 -1      4095 9.50800E-05-2.82177E-05-2.86561E-05-7.67032E-08-2.70688E-20 1.96281E-18
 -1      4096 9.49905E-05-2.80892E-05-2.86701E-05-6.36259E-08 4.22140E-19 2.34225E-18
 -1      4097 9.51223E-05-2.82782E-05-2.86476E-05-6.67469E-08-5.91142E-19 2.58989E-18
 -1      4098 9.51533E-05-2.83292E-05-2.86395E-05-5.03557E-08 3.38172E-19 2.06563E-18
 -1      4099 9.50915E-05-2.82327E-05-2.86524E-05-4.47540E-08-3.03991E-19 3.13700E-18
 -1      4100 9.51822E-05-2.83742E-05-2.86321E-05-4.29414E-08 8.10489E-19 1.72204E-18
 -1      4101 9.52027E-05-2.84117E-05-2.86251E-05-3.08339E-08 3.87644E-19 1.28976E-18
 -1      4102 9.51615E-05-2.83406E-05-2.86366E-05-2.98504E-08-1.66002E-19 3.70137E-18
 -1      4103 9.52215E-05-2.84444E-05-2.86188E-05-2.55258E-08-3.91584E-19 9.60079E-19
 -1      4104 9.52344E-05-2.84713E-05-2.86130E-05-1.68394E-08-9.35287E-19 9.83110E-19
 -1      4105 9.52084E-05-2.84202E-05-2.86229E-05-1.85642E-08-3.38322E-19 3.36897E-18
 -1      4106 9.52460E-05-2.84946E-05-2.86078E-05-1.31984E-08-1.22640E-18 1.02448E-18
 -1      4107 9.52535E-05-2.85135E-05-2.86030E-05-7.16620E-09 2.82513E-19 5.32522E-19
 -1      4108 9.52382E-05-2.84777E-05-2.86113E-05-1.03440E-08-6.47274E-19 3.67952E-18
 -1      4109 9.52600E-05-2.85296E-05-2.85987E-05-4.79486E-09 5.53374E-19-1.22796E-18
 -1      4110 9.52637E-05-2.85425E-05-2.85949E-05-7.67564E-10-4.81937E-19-3.32253E-19
 -1      4111 9.52560E-05-2.85182E-05-2.86017E-05-4.59188E-09-5.11054E-19 1.91279E-18
 -1      4112 9.52667E-05-2.85532E-05-2.85915E-05 6.71022E-10-3.50523E-19-3.11197E-19
 -1      4113 9.52679E-05-2.85616E-05-2.85885E-05 3.22247E-09-2.05005E-20 7.31405E-19
 -1      4114 9.52652E-05-2.85458E-05-2.85939E-05-7.46645E-10-1.99616E-19-2.70706E-19
 -1      4115 9.52686E-05-2.85684E-05-2.85858E-05 4.00099E-09-1.67946E-19 1.01295E-18
 -1      4116 9.52682E-05-2.85736E-05-2.85834E-05 5.49308E-09 6.64083E-19 1.22962E-18
 -1      4117 9.52687E-05-2.85639E-05-2.85877E-05 1.67830E-09 4.42875E-19-1.16537E-19
 -1      4118 9.52674E-05-2.85777E-05-2.85813E-05 5.82379E-09-4.79139E-19 2.11486E-18
 -1      4119 9.52661E-05-2.85806E-05-2.85795E-05 6.54103E-09-9.85968E-19 1.73983E-18
 -1      4120 9.52685E-05-2.85752E-05-2.85829E-05 3.08683E-09 3.72301E-19 4.30989E-19
 -1      4121 9.52648E-05-2.85823E-05-2.85782E-05 6.51316E-09-3.59374E-19 1.68328E-18
 -1      4122 9.52630E-05-2.85839E-05-2.85768E-05 6.73358E-09-9.45220E-20 9.50893E-19
 -1      4123 9.52637E-05-2.85841E-05-2.85770E-05 3.83330E-09 2.11955E-21 9.19546E-19
 -1      4124 9.52664E-05-2.85813E-05-2.85794E-05 3.64751E-09-6.03754E-19 1.46247E-18
 -1      4125 8.85326E-05-2.68384E-05-2.64535E-05 1.15881E-05-1.06885E-18-4.78276E-20
 -1      4126 9.15107E-05-2.49847E-05-2.85238E-05 2.28723E-06 5.20516E-19 6.04337E-19
 -1      4127 9.12207E-05-2.48060E-05-2.84561E-05 2.67357E-06 4.70214E-19 5.34529E-19
 -1      4128 8.99679E-05-2.44117E-05-2.81151E-05 4.28187E-06-1.71909E-18 6.05662E-21
 -1      4129 8.97981E-05-2.44773E-05-2.79756E-05 4.95626E-06-1.70104E-18-7.69603E-19
 -1      4130 9.22310E-05-2.54497E-05-2.86305E-05 1.66437E-06 7.27588E-19 1.66096E-18
 -1      4131 9.19451E-05-2.52297E-05-2.85881E-05 1.95549E-06 9.24771E-19 1.17925E-18
 -1      4132 9.13646E-05-2.47724E-05-2.85238E-05 1.76057E-06 2.15641E-19-2.20459E-19
 -1      4133 9.28695E-05-2.59369E-05-2.86932E-05 1.20723E-06 8.72900E-19 1.51020E-18
 -1      4134 9.26077E-05-2.57069E-05-2.86695E-05 1.42651E-06 7.61886E-19 1.48650E-18
 -1      4135 9.21649E-05-2.53320E-05-2.86296E-05 1.23471E-06 1.20628E-18 5.95342E-19
 -1      4136 9.34149E-05-2.64054E-05-2.87244E-05 8.72047E-07 1.00327E-18 5.31401E-19
 -1      4137 9.31868E-05-2.61849E-05-2.87140E-05 1.03722E-06 1.36361E-18 1.10856E-18
 -1      4138 9.28500E-05-2.58796E-05-2.86909E-05 8.63726E-07 1.49104E-18 1.79234E-18
 -1      4139 9.38667E-05-2.68315E-05-2.87340E-05 6.26409E-07 1.33415E-20 5.43598E-19
 -1      4140 9.36754E-05-2.66315E-05-2.87327E-05 7.50801E-07 4.04624E-19 6.97469E-19
 -1      4141 9.34206E-05-2.63850E-05-2.87209E-05 6.02565E-07 5.14588E-19 1.79396E-18
 -1      4142 9.42312E-05-2.72034E-05-2.87297E-05 4.46521E-07-1.15554E-18 7.92143E-19
 -1      4143 9.40758E-05-2.70294E-05-2.87341E-05 5.40095E-07-4.82951E-19 5.79542E-19
 -1      4144 9.38844E-05-2.68322E-05-2.87298E-05 4.18874E-07-4.34976E-19 1.80994E-18
 -1      4145 9.45184E-05-2.75179E-05-2.87172E-05 3.14979E-07-9.54049E-19 9.77813E-19
 -1      4146 9.43955E-05-2.73713E-05-2.87248E-05 3.85191E-07-1.11965E-18 1.25698E-18
 -1      4147 9.42533E-05-2.72152E-05-2.87253E-05 2.89669E-07-1.28407E-18 1.93101E-18
 -1      4148 9.47396E-05-2.77769E-05-2.87003E-05 2.19057E-07-3.54631E-20 5.71406E-19
 -1      4149 9.46448E-05-2.76566E-05-2.87094E-05 2.71514E-07-3.17677E-19 6.67888E-19
 -1      4150 9.45404E-05-2.75345E-05-2.87127E-05 1.98760E-07-4.21739E-19 1.45133E-18
 -1      4151 9.49060E-05-2.79851E-05-2.86818E-05 1.49437E-07 4.61744E-20 8.52220E-19
 -1      4152 9.48348E-05-2.78887E-05-2.86914E-05 1.88379E-07 9.58751E-21 4.12175E-20
 -1      4153 9.47593E-05-2.77945E-05-2.86962E-05 1.34802E-07 3.82610E-19 1.74833E-18
 -1      4154 9.50283E-05-2.81489E-05-2.86636E-05 9.92625E-08 5.23036E-19-2.53949E-19
 -1      4155 9.49762E-05-2.80734E-05-2.86728E-05 1.27920E-07 6.15980E-19 2.37407E-19
 -1      4156 9.49226E-05-2.80016E-05-2.86782E-05 8.98651E-08 9.98087E-19 1.18933E-18
 -1      4157 9.51158E-05-2.82752E-05-2.86467E-05 6.34614E-08-3.69936E-20-4.30720E-19
 -1      4158 9.50787E-05-2.82173E-05-2.86550E-05 8.43108E-08-3.55723E-19-5.14333E-19
 -1      4159 9.50416E-05-2.81635E-05-2.86605E-05 5.83986E-08 3.05188E-19 5.55093E-19
 -1      4160 9.51765E-05-2.83706E-05-2.86316E-05 3.82630E-08 1.12300E-19-5.95683E-19
 -1      4161 9.51510E-05-2.83270E-05-2.86389E-05 5.32125E-08 5.60132E-19 5.25320E-20
 -1      4162 9.51261E-05-2.82874E-05-2.86441E-05 3.65049E-08 7.63177E-20 3.05390E-19
 -1      4163 9.52170E-05-2.84410E-05-2.86187E-05 2.08500E-08-2.39237E-19-3.04588E-19
 -1      4164 9.52002E-05-2.84090E-05-2.86249E-05 3.13722E-08-1.95576E-19-7.88549E-19
 -1      4165 9.51842E-05-2.83804E-05-2.86295E-05 2.14290E-08-1.04035E-19 1.22510E-18
 -1      4166 9.52427E-05-2.84918E-05-2.86078E-05 9.11172E-09-1.80047E-18 5.53580E-20
 -1      4167 9.52323E-05-2.84688E-05-2.86129E-05 1.63434E-08-1.00153E-18-3.08726E-19
 -1      4168 9.52226E-05-2.84487E-05-2.86169E-05 1.12101E-08-1.09256E-18 1.22252E-18
 -1      4169 9.52576E-05-2.85274E-05-2.85988E-05 1.46631E-09-1.21137E-18 6.45169E-19
 -1      4170 9.52518E-05-2.85114E-05-2.86030E-05 6.28195E-09-1.61652E-18 1.54655E-19
 -1      4171 9.52466E-05-2.84976E-05-2.86064E-05 4.44200E-09-1.73947E-18 8.92423E-19
 -1      4172 9.52651E-05-2.85516E-05-2.85916E-05-3.26882E-09-7.21256E-19 1.34457E-18
 -1      4173 9.52624E-05-2.85408E-05-2.85950E-05-2.00661E-10-3.91995E-19 9.84520E-19
 -1      4174 9.52602E-05-2.85317E-05-2.85978E-05 1.10309E-10-1.65470E-18 8.78265E-19
 -1      4175 9.52676E-05-2.85673E-05-2.85859E-05-5.97254E-09-1.09770E-18 5.11230E-19
 -1      4176 9.52670E-05-2.85604E-05-2.85885E-05-4.14564E-09-7.00391E-19 1.35768E-18
 -1      4177 9.52667E-05-2.85547E-05-2.85908E-05-2.51994E-09-7.15657E-19 1.34892E-18
 -1      4178 9.52668E-05-2.85769E-05-2.85814E-05-7.28999E-09-2.75369E-19-7.35002E-19
 -1      4179 9.52676E-05-2.85728E-05-2.85835E-05-6.32716E-09-5.03489E-19-3.82220E-19
 -1      4180 9.52685E-05-2.85695E-05-2.85853E-05-3.98286E-09-1.24417E-19-2.84910E-19
 -1      4181 9.52641E-05-2.85822E-05-2.85779E-05-7.63722E-09-2.24132E-19-1.37262E-18
 -1      4182 9.52657E-05-2.85800E-05-2.85795E-05-7.30685E-09-6.19843E-19-1.15259E-18
 -1      4183 9.52672E-05-2.85784E-05-2.85810E-05-4.67363E-09-1.42400E-19-2.15050E-18
 -1      4184 9.07377E-05-2.46065E-05-2.83578E-05 3.13426E-06-4.95394E-20 1.91819E-19
 -1      4185 9.04789E-05-2.45160E-05-2.82577E-05 3.64593E-06-9.57598E-19 1.02638E-20
 -1      4186 9.04602E-05-2.42507E-05-2.83571E-05 2.50328E-06-2.45610E-19-1.69912E-18
 -1      4187 8.92978E-05-2.45390E-05-2.77776E-05 5.82524E-06-1.30215E-18-8.23996E-19
 -1      4188 8.93087E-05-2.48554E-05-2.75939E-05 6.70493E-06-1.30998E-18-1.05344E-18
 -1      4189 8.84874E-05-2.36689E-05-2.77568E-05 5.00148E-06-1.56246E-18-1.15721E-18
 -1      4190 8.88865E-05-2.51868E-05-2.73296E-05 7.89371E-06-1.29546E-18-4.76074E-19
 -1      4191 8.93113E-05-2.59299E-05-2.71250E-05 8.96971E-06-1.03955E-18-4.60175E-19
 -1      4192 8.75812E-05-2.38855E-05-2.72761E-05 7.01184E-06-1.19009E-18-1.04006E-18
 -1      4193 9.52626E-05-2.85841E-05-2.85765E-05-6.38967E-09-3.74619E-19-2.20505E-18
 -1      4194 9.52633E-05-2.85832E-05-2.85772E-05-6.96878E-09-3.87565E-19-1.96158E-18
 -1      4195 9.52651E-05-2.85826E-05-2.85782E-05-4.25614E-09-4.24056E-19-3.90671E-18
 -1      4196 8.05588E-05-1.93717E-05-2.62234E-05 4.10968E-06-4.79747E-19-3.54250E-19
 -1      4197 8.63087E-05-2.48631E-05-2.63150E-05 1.07816E-05-8.32260E-19-5.49473E-19
 -1      4198 8.22711E-05-2.04375E-05-2.64604E-05 5.48432E-06-8.03158E-19-1.01903E-18
 -1      4199 8.94811E-05-2.38442E-05-2.81092E-05 3.54677E-06-1.45580E-18-1.70666E-18
 -1      4200 9.52633E-05-2.85845E-05-2.85767E-05-2.98388E-09-8.99452E-19-3.37178E-18
 -1      4201 8.25541E-05-2.26904E-05-2.56390E-05 1.05340E-05-9.69468E-19-1.02287E-18
 -1      4202 9.52638E-05-2.85844E-05-2.85769E-05 1.93222E-09-2.22234E-19 3.17935E-19
 -1      4203 9.52638E-05-2.85844E-05-2.85769E-05-1.05222E-09-1.04697E-18-1.32441E-18
 -1      4204 9.52648E-05-2.85836E-05-2.85776E-05-1.78736E-09-4.75985E-19-2.35286E-18
 -1      4205 9.52652E-05-2.85832E-05-2.85780E-05 1.93941E-09-9.64069E-19 4.91149E-19
 -1      4206 8.73866E-05-2.26325E-05-2.77875E-05 3.31065E-06-1.14777E-18-1.32910E-18
 -1      4207 8.83055E-05-2.29898E-05-2.79964E-05 2.73725E-06-1.17162E-18-1.48421E-18
 -1      4208 8.88509E-05-2.32340E-05-2.81491E-05 2.16215E-06-8.48040E-19-1.83993E-18
 -1      4209 8.96171E-05-2.36210E-05-2.82896E-05 1.78906E-06-1.03979E-18-1.76445E-18
 -1      4210 9.01241E-05-2.39210E-05-2.83939E-05 1.38465E-06-1.03500E-18-1.15939E-18
 -1      4211 9.07574E-05-2.43064E-05-2.84850E-05 1.14931E-06-9.28537E-19-1.47929E-18
 -1      4212 9.12085E-05-2.46228E-05-2.85528E-05 8.67138E-07-2.53742E-19-8.74137E-19
 -1      4213 9.17260E-05-2.49858E-05-2.86088E-05 7.25103E-07 5.60204E-19-1.10412E-20
 -1      4214 9.21145E-05-2.52932E-05-2.86499E-05 5.29424E-07 1.33039E-18-6.75406E-20
 -1      4215 9.25321E-05-2.56214E-05-2.86814E-05 4.48910E-07 1.60846E-18 4.57862E-19
 -1      4216 9.28576E-05-2.59043E-05-2.87035E-05 3.13785E-07 9.31839E-19 7.27415E-19
 -1      4217 9.31902E-05-2.61919E-05-2.87183E-05 2.72450E-07 2.74228E-19 9.89188E-19
 -1      4218 9.34566E-05-2.64421E-05-2.87274E-05 1.79344E-07-1.48587E-19 1.51737E-18
 -1      4219 9.37178E-05-2.66874E-05-2.87313E-05 1.61882E-07-2.28124E-19 1.90403E-18
 -1      4220 9.39310E-05-2.69020E-05-2.87319E-05 9.77416E-08-8.29489E-19 1.77491E-18
 -1      4221 9.41332E-05-2.71066E-05-2.87289E-05 9.39833E-08-8.56881E-19 1.25718E-18
 -1      4222 9.43004E-05-2.72859E-05-2.87243E-05 4.97294E-08-7.49527E-19 1.03747E-18
 -1      4223 9.44545E-05-2.74531E-05-2.87174E-05 5.31551E-08-5.74880E-19 1.13136E-18
 -1      4224 9.45830E-05-2.75996E-05-2.87099E-05 2.25410E-08-1.06476E-19 7.57633E-19
 -1      4225 9.46984E-05-2.77337E-05-2.87012E-05 2.91472E-08 5.44952E-19 2.31894E-19
 -1      4226 9.47952E-05-2.78509E-05-2.86924E-05 7.90538E-09 1.10342E-18-1.70650E-20
 -1      4227 9.48801E-05-2.79565E-05-2.86831E-05 1.53678E-08 1.51724E-18 1.07893E-18
 -1      4228 9.49513E-05-2.80485E-05-2.86740E-05 5.94014E-10 1.28924E-18 1.13247E-18
 -1      4229 9.50126E-05-2.81302E-05-2.86650E-05 7.66979E-09 9.29291E-19 1.65897E-18
 -1      4230 9.50637E-05-2.82011E-05-2.86564E-05-2.61269E-09 2.17223E-20 1.36144E-18
 -1      4231 9.51068E-05-2.82632E-05-2.86481E-05 3.50155E-09-6.38130E-19 1.76408E-18
 -1      4232 9.51425E-05-2.83167E-05-2.86403E-05-3.64044E-09-2.75210E-19 2.42411E-18
 -1      4233 9.51719E-05-2.83630E-05-2.86329E-05 1.32917E-09 8.95746E-20 2.61775E-18
 -1      4234 9.51960E-05-2.84026E-05-2.86262E-05-3.60242E-09-6.08526E-19 3.43815E-18
 -1      4235 9.52153E-05-2.84364E-05-2.86198E-05 2.52836E-10-9.11975E-19 2.49503E-18
 -1      4236 9.52307E-05-2.84651E-05-2.86141E-05-3.11530E-09-1.11147E-18 2.91676E-18
 -1      4237 9.52426E-05-2.84892E-05-2.86088E-05-2.41489E-10-8.03186E-19 2.53994E-18
 -1      4238 9.52519E-05-2.85094E-05-2.86040E-05-2.50132E-09-1.63758E-18 1.98280E-18
 -1      4239 9.52586E-05-2.85262E-05-2.85997E-05-4.38972E-10-1.34513E-18 9.10058E-19
 -1      4240 9.52635E-05-2.85400E-05-2.85959E-05-1.91433E-09-6.80383E-19 5.47681E-19
 -1      4241 9.52666E-05-2.85512E-05-2.85924E-05-4.92545E-10-8.41509E-19 2.52319E-19
 -1      4242 9.52685E-05-2.85602E-05-2.85893E-05-1.41631E-09-3.16176E-19-2.44688E-19
 -1      4243 9.52693E-05-2.85674E-05-2.85865E-05-4.80442E-10 8.63948E-19-1.11148E-20
 -1      4244 9.52692E-05-2.85730E-05-2.85841E-05-1.02375E-09 9.85096E-19-6.76612E-19
 -1      4245 9.52685E-05-2.85773E-05-2.85819E-05-4.33489E-10 9.09389E-20-3.65898E-19
 -1      4246 8.37369E-05-2.22416E-05-2.64302E-05 7.88688E-06-9.08799E-19-4.94708E-19
 -1      4247 8.52947E-05-2.22745E-05-2.69869E-05 6.08259E-06-9.99180E-19-8.94307E-19
 -1      4248 8.57499E-05-2.22313E-05-2.72705E-05 4.98131E-06-1.12642E-18-1.27694E-18
 -1      4249 9.52672E-05-2.85805E-05-2.85800E-05-6.99661E-10 1.02730E-19-1.39691E-18
 -1      4250 8.68409E-05-2.25035E-05-2.75728E-05 4.11891E-06-9.47403E-19-9.84144E-19
 -1      4251 9.52658E-05-2.85826E-05-2.85785E-05-2.33355E-09 2.71189E-19-1.90120E-18
 -1      4252 9.52665E-05-2.85815E-05-2.85793E-05 1.89413E-09-2.00023E-20 9.08220E-20
 -3
    1PSTEP                         4           1           1          
  100CL  101 1.000000000        4252                     0    1           1
 -4  ERROR       1    1
 -5  STR(%)      1    1    0    0
 -1         1 1.26458E+01
 -1         2 2.37815E+01
 -1         3 1.67296E-04
 -1         4 2.94037E-04
 -1         5 1.32087E+01
 -1         6 1.14983E+01
 -1         7 1.14983E+01
 -1         8 4.06375E+00
 -1         9 2.91653E+00
 -1        10 2.42808E+00
 -1        11 1.99926E+00
 -1        12 1.44509E+00
 -1        13 8.14961E-01
 -1        14 8.86491E-01
 -1        15 1.15980E+00
 -1        16 1.29098E+00
 -1        17 1.42031E+00
 -1        18 1.60266E+00
 -1        19 1.81139E+00
 -1        20 2.24544E+00
 -1        21 3.66953E+00
 -1        22 8.30524E+00
 -1        23 1.14983E+01
 -1        24 2.70087E+00
 -1        25 1.50144E+00
 -1        26 1.67170E+00
 -1        27 2.24561E+00
 -1        28 2.24561E+00
 -1        29 2.24151E+00
 -1        30 3.02731E+00
 -1        31 5.97716E+00
 -1        32 7.95584E+00
 -1        33 7.99049E+00
 -1        34 7.99049E+00
 -1        35 6.12299E+00
 -1        36 3.18462E+00
 -1        37 2.58416E+00
 -1        38 2.71539E+00
 -1        39 2.71539E+00
 -1        40 2.41436E+00
 -1        41 1.91509E+00
 -1        42 1.50031E+00
 -1        43 1.13665E+00
 -1        44 8.71622E-01
 -1        45 6.99209E-01
 -1        46 5.44305E-01
 -1        47 4.14180E-01
 -1        48 3.09335E-01
 -1        49 2.27170E-01
 -1        50 1.64048E-01
 -1        51 1.18036E-01
 -1        52 9.61855E-02
 -1        53 7.71340E-02
 -1        54 6.09366E-02
 -1        55 4.74396E-02
 -1        56 3.63846E-02
 -1        57 2.74697E-02
 -1        58 2.03853E-02
 -1        59 1.68159E-02
 -1        60 1.36487E-02
 -1        61 1.08770E-02
 -1        62 8.51271E-03
 -1        63 6.54375E-03
 -1        64 5.06823E-03
 -1        65 3.82473E-03
 -1        66 2.78621E-03
 -1        67 2.28268E-03
 -1        68 1.91999E-03
 -1        69 1.53960E-03
 -1        70 1.18527E-03
 -1        71 9.06600E-04
 -1        72 1.32087E+01
 -1        73 2.77860E+00
 -1        74 1.60117E+00
 -1        75 8.30610E-01
 -1        76 5.56001E-01
 -1        77 8.48804E-01
 -1        78 1.04743E+00
 -1        79 1.59924E+00
 -1        80 2.14010E+00
 -1        81 2.39890E+00
 -1        82 2.67318E+00
 -1        83 2.68765E+00
 -1        84 2.68765E+00
 -1        85 2.23401E+00
 -1        86 1.55690E+00
 -1        87 9.76889E-01
 -1        88 6.75497E-01
 -1        89 5.14508E-01
 -1        90 5.71851E-01
 -1        91 5.71851E-01
 -1        92 5.70157E-01
 -1        93 5.12515E-01
 -1        94 4.28474E-01
 -1        95 3.55721E-01
 -1        96 2.81047E-01
 -1        97 2.11821E-01
 -1        98 1.68987E-01
 -1        99 1.32527E-01
 -1       100 1.00477E-01
 -1       101 7.36688E-02
 -1       102 5.21178E-02
 -1       103 3.71173E-02
 -1       104 3.14920E-02
 -1       105 2.59821E-02
 -1       106 2.09241E-02
 -1       107 1.64841E-02
 -1       108 1.41080E-02
 -1       109 1.22786E-02
 -1       110 1.03832E-02
 -1       111 8.57097E-03
 -1       112 6.92323E-03
 -1       113 5.55601E-03
 -1       114 4.41670E-03
 -1       115 3.41482E-03
 -1       116 2.54075E-03
 -1       117 1.88218E-03
 -1       118 1.50772E-03
 -1       119 1.05945E-03
 -1       120 6.28575E-04
 -1       121 2.87230E-04
 -1       122 2.87230E-04
 -1       123 2.28815E-04
 -1       124 1.00538E-04
 -1       125 1.30279E-04
 -1       126 1.97961E-04
 -1       127 2.37637E-04
 -1       128 2.49150E-04
 -1       129 2.49150E-04
 -1       130 2.37858E-04
 -1       131 1.96424E-04
 -1       132 1.30657E-04
 -1       133 1.02322E-04
 -1       134 2.29792E-04
 -1       135 2.31049E-04
 -1       136 2.31049E-04
 -1       137 2.42075E+01
 -1       138 4.69471E+01
 -1       139 4.69471E+01
 -1       140 1.88105E+01
 -1       141 1.16387E+01
 -1       142 1.18749E+01
 -1       143 1.18749E+01
 -1       144 1.30110E+01
 -1       145 1.30110E+01
 -1       146 1.19544E+01
 -1       147 2.24368E+01
 -1       148 4.88993E+01
 -1       149 4.88993E+01
 -1       150 2.51444E+01
 -1       151 2.64883E+01
 -1       152 2.64883E+01
 -1       153 4.51781E+01
 -1       154 4.51781E+01
 -1       155 1.87937E+01
 -1       156 1.35322E+01
 -1       157 1.35322E+01
 -1       158 1.22068E+01
 -1       159 1.22068E+01
 -1       160 1.28742E+01
 -1       161 3.06957E+01
 -1       162 3.09564E+01
 -1       163 2.73128E+01
 -1       164 2.54564E+01
 -1       165 6.14998E+00
 -1       166 3.18772E+00
 -1       167 2.50778E+00
 -1       168 2.19992E+00
 -1       169 1.75458E+00
 -1       170 1.13262E+00
 -1       171 7.44398E-01
 -1       172 1.11527E+00
 -1       173 1.24820E+00
 -1       174 1.29692E+00
 -1       175 1.51098E+00
 -1       176 1.71528E+00
 -1       177 2.02815E+00
 -1       178 2.66565E+00
 -1       179 3.99717E+00
 -1       180 1.32087E+01
 -1       181 3.15146E+00
 -1       182 2.15149E+00
 -1       183 1.56406E+00
 -1       184 1.71622E+00
 -1       185 2.24561E+00
 -1       186 2.22056E+00
 -1       187 2.24151E+00
 -1       188 3.25350E+00
 -1       189 5.97716E+00
 -1       190 7.95584E+00
 -1       191 7.99049E+00
 -1       192 6.12299E+00
 -1       193 3.30383E+00
 -1       194 2.46472E+00
 -1       195 2.58416E+00
 -1       196 2.71539E+00
 -1       197 2.41436E+00
 -1       198 1.97793E+00
 -1       199 1.70830E+00
 -1       200 1.43055E+00
 -1       201 1.13022E+00
 -1       202 8.55603E-01
 -1       203 6.26429E-01
 -1       204 4.45769E-01
 -1       205 3.17606E-01
 -1       206 2.39862E-01
 -1       207 1.78374E-01
 -1       208 1.30625E-01
 -1       209 9.61855E-02
 -1       210 7.71340E-02
 -1       211 6.09366E-02
 -1       212 4.74396E-02
 -1       213 3.63846E-02
 -1       214 2.75987E-02
 -1       215 2.15145E-02
 -1       216 1.68159E-02
 -1       217 1.36487E-02
 -1       218 1.08770E-02
 -1       219 8.64171E-03
 -1       220 6.88187E-03
 -1       221 5.42865E-03
 -1       222 4.31695E-03
 -1       223 3.33504E-03
 -1       224 2.48657E-03
 -1       225 1.91999E-03
 -1       226 1.53960E-03
 -1       227 1.18527E-03
 -1       228 9.06600E-04
 -1       229 3.78102E-04
 -1       230 2.77860E+00
 -1       231 1.60117E+00
 -1       232 8.30610E-01
 -1       233 7.96057E-01
 -1       234 1.06054E+00
 -1       235 1.36539E+00
 -1       236 1.75419E+00
 -1       237 2.01381E+00
 -1       238 2.14010E+00
 -1       239 2.39890E+00
 -1       240 2.67318E+00
 -1       241 2.68765E+00
 -1       242 2.23401E+00
 -1       243 1.55690E+00
 -1       244 9.83821E-01
 -1       245 6.75497E-01
 -1       246 5.14508E-01
 -1       247 5.06854E-01
 -1       248 5.71851E-01
 -1       249 5.70157E-01
 -1       250 5.12515E-01
 -1       251 4.28474E-01
 -1       252 3.56868E-01
 -1       253 2.92085E-01
 -1       254 2.28169E-01
 -1       255 1.70595E-01
 -1       256 1.32527E-01
 -1       257 1.00477E-01
 -1       258 7.36688E-02
 -1       259 5.29385E-02
 -1       260 3.86134E-02
 -1       261 3.27620E-02
 -1       262 2.70607E-02
 -1       263 2.18295E-02
 -1       264 1.72291E-02
 -1       265 1.41080E-02
 -1       266 1.22786E-02
 -1       267 1.03832E-02
 -1       268 8.57097E-03
 -1       269 6.92323E-03
 -1       270 5.55601E-03
 -1       271 4.41670E-03
 -1       272 3.41482E-03
 -1       273 2.59931E-03
 -1       274 1.88597E-03
 -1       275 1.50772E-03
 -1       276 1.05945E-03
 -1       277 6.28575E-04
 -1       278 5.25609E-04
 -1       279 5.25609E-04
 -1       280 3.21414E-04
 -1       281 2.10650E-04
 -1       282 3.45019E-04
 -1       283 4.29113E-04
 -1       284 4.63504E-04
 -1       285 4.63504E-04
 -1       286 4.63476E-04
 -1       287 4.28478E-04
 -1       288 3.46623E-04
 -1       289 2.14832E-04
 -1       290 3.21100E-04
 -1       291 6.68815E-04
 -1       292 6.68815E-04
 -1       293 2.97973E+01
 -1       294 2.90196E+01
 -1       295 4.69471E+01
 -1       296 2.03299E+01
 -1       297 1.10627E+01
 -1       298 1.16387E+01
 -1       299 1.18749E+01
 -1       300 1.17331E+01
 -1       301 1.30110E+01
 -1       302 1.19544E+01
 -1       303 1.17896E+01
 -1       304 2.45971E+01
 -1       305 4.88993E+01
 -1       306 3.07734E+01
 -1       307 3.24270E+01
 -1       308 3.24270E+01
 -1       309 3.95128E+01
 -1       310 4.51781E+01
 -1       311 1.88407E+01
 -1       312 1.11330E+01
 -1       313 1.35322E+01
 -1       314 1.26458E+01
 -1       315 1.21819E+01
 -1       316 1.22068E+01
 -1       317 1.11309E+01
 -1       318 1.28742E+01
 -1       319 3.09564E+01
 -1       320 3.30504E+01
 -1       321 3.30504E+01
 -1       322 2.97973E+01
 -1       323 2.83276E+00
 -1       324 3.15146E+00
 -1       325 2.12325E+00
 -1       326 1.59815E+00
 -1       327 1.04887E+00
 -1       328 1.16205E+00
 -1       329 1.32606E+00
 -1       330 1.32606E+00
 -1       331 1.25262E+00
 -1       332 1.31427E+00
 -1       333 1.38440E+00
 -1       334 1.52581E+00
 -1       335 1.65508E+00
 -1       336 1.85983E+00
 -1       337 1.53674E+00
 -1       338 2.24767E+00
 -1       339 2.02962E+00
 -1       340 2.25670E+00
 -1       341 2.48413E+00
 -1       342 2.54731E+00
 -1       343 3.28029E+00
 -1       344 4.27511E+00
 -1       345 5.38600E+00
 -1       346 7.96907E+00
 -1       347 4.47607E+00
 -1       348 3.11242E+00
 -1       349 2.98509E+00
 -1       350 2.50909E+00
 -1       351 2.37156E+00
 -1       352 2.12867E+00
 -1       353 1.96672E+00
 -1       354 1.75708E+00
 -1       355 1.47797E+00
 -1       356 1.21339E+00
 -1       357 9.54958E-01
 -1       358 7.28300E-01
 -1       359 5.41839E-01
 -1       360 3.94673E-01
 -1       361 2.81806E-01
 -1       362 1.97078E-01
 -1       363 1.34581E-01
 -1       364 9.40863E-02
 -1       365 6.71250E-02
 -1       366 4.86879E-02
 -1       367 3.77691E-02
 -1       368 3.08665E-02
 -1       369 2.47733E-02
 -1       370 1.95441E-02
 -1       371 1.51574E-02
 -1       372 1.19912E-02
 -1       373 9.96862E-03
 -1       374 8.27084E-03
 -1       375 6.70798E-03
 -1       376 5.43207E-03
 -1       377 4.34800E-03
 -1       378 3.38103E-03
 -1       379 2.57396E-03
 -1       380 1.91289E-03
 -1       381 1.38131E-03
 -1       382 1.08622E-03
 -1       383 7.68156E-04
 -1       384 7.21958E-01
 -1       385 8.65269E-01
 -1       386 1.15611E+00
 -1       387 1.45167E+00
 -1       388 1.75419E+00
 -1       389 2.01381E+00
 -1       390 2.03059E+00
 -1       391 2.02700E+00
 -1       392 1.99105E+00
 -1       393 1.69067E+00
 -1       394 1.30071E+00
 -1       395 9.15007E-01
 -1       396 5.45732E-01
 -1       397 3.45283E-01
 -1       398 3.69398E-01
 -1       399 4.28826E-01
 -1       400 4.41411E-01
 -1       401 4.05240E-01
 -1       402 3.51969E-01
 -1       403 3.07488E-01
 -1       404 2.65720E-01
 -1       405 2.18035E-01
 -1       406 1.71061E-01
 -1       407 1.28685E-01
 -1       408 9.66269E-02
 -1       409 7.26568E-02
 -1       410 5.29385E-02
 -1       411 3.88122E-02
 -1       412 3.27620E-02
 -1       413 2.70607E-02
 -1       414 2.18295E-02
 -1       415 1.72291E-02
 -1       416 1.33127E-02
 -1       417 1.08833E-02
 -1       418 9.19350E-03
 -1       419 7.56794E-03
 -1       420 6.08106E-03
 -1       421 4.91319E-03
 -1       422 3.88066E-03
 -1       423 3.05422E-03
 -1       424 2.35721E-03
 -1       425 1.74731E-03
 -1       426 1.30673E-03
 -1       427 9.77732E-04
 -1       428 8.16000E-04
 -1       429 3.70928E-04
 -1       430 9.31123E-04
 -1       431 4.63961E-04
 -1       432 5.81807E-04
 -1       433 6.39396E-04
 -1       434 6.39396E-04
 -1       435 6.38431E-04
 -1       436 6.38431E-04
 -1       437 5.87099E-04
 -1       438 4.65488E-04
 -1       439 3.65508E-04
 -1       440 5.32945E-04
 -1       441 8.10969E-01
 -1       442 2.90196E+01
 -1       443 9.31292E+00
 -1       444 3.42952E+01
 -1       445 1.62820E+01
 -1       446 2.83276E+00
 -1       447 7.37012E+00
 -1       448 9.62570E+00
 -1       449 1.02110E+01
 -1       450 1.11245E+01
 -1       451 9.16190E+00
 -1       452 6.71718E+00
 -1       453 1.05791E+01
 -1       454 1.80374E+01
 -1       455 3.07734E+01
 -1       456 3.28119E+01
 -1       457 3.28119E+01
 -1       458 2.51918E+01
 -1       459 2.67464E+01
 -1       460 1.48667E+01
 -1       461 9.09054E+00
 -1       462 6.68540E+00
 -1       463 1.05956E+01
 -1       464 1.09696E+01
 -1       465 1.04141E+01
 -1       466 8.52697E+00
 -1       467 7.13978E+00
 -1       468 1.20645E+01
 -1       469 2.08261E+01
 -1       470 3.30504E+01
 -1       471 3.42952E+01
 -1       472 2.88882E+01
 -1       473 2.41078E+01
 -1       474 7.96907E+00
 -1       475 1.40190E+01
 -1       476 3.10277E+01
 -1       477 1.82465E+00
 -1       478 2.23322E+00
 -1       479 1.57920E+00
 -1       480 1.57920E+00
 -1       481 1.41292E+00
 -1       482 1.38527E+00
 -1       483 1.18159E+00
 -1       484 9.97703E-01
 -1       485 9.10791E-01
 -1       486 1.10474E+00
 -1       487 2.40451E+00
 -1       488 1.34687E+01
 -1       489 8.64670E+00
 -1       490 2.60652E+00
 -1       491 3.14181E+00
 -1       492 4.13217E+00
 -1       493 4.67174E+00
 -1       494 6.02704E+00
 -1       495 9.33270E+00
 -1       496 4.16507E+00
 -1       497 4.23524E+00
 -1       498 4.68954E+00
 -1       499 3.91529E+00
 -1       500 3.00139E+00
 -1       501 2.36279E+00
 -1       502 2.06060E+00
 -1       503 1.71732E+00
 -1       504 1.38406E+00
 -1       505 1.08729E+00
 -1       506 8.37008E-01
 -1       507 6.33413E-01
 -1       508 4.72014E-01
 -1       509 3.46538E-01
 -1       510 2.50516E-01
 -1       511 1.78035E-01
 -1       512 1.24022E-01
 -1       513 8.42904E-02
 -1       514 5.54704E-02
 -1       515 3.48959E-02
 -1       516 2.40430E-02
 -1       517 1.76270E-02
 -1       518 1.51407E-02
 -1       519 1.26714E-02
 -1       520 1.03683E-02
 -1       521 8.30848E-03
 -1       522 6.79962E-03
 -1       523 5.71020E-03
 -1       524 4.79403E-03
 -1       525 3.91072E-03
 -1       526 3.19733E-03
 -1       527 2.55279E-03
 -1       528 1.99292E-03
 -1       529 1.51735E-03
 -1       530 1.09805E-03
 -1       531 7.93807E-04
 -1       532 1.19063E+00
 -1       533 8.83362E-01
 -1       534 6.19685E-01
 -1       535 1.38989E+00
 -1       536 1.50820E+00
 -1       537 1.51725E+00
 -1       538 1.37925E+00
 -1       539 1.47615E+00
 -1       540 1.43376E+00
 -1       541 1.28295E+00
 -1       542 1.05797E+00
 -1       543 7.86285E-01
 -1       544 5.24487E-01
 -1       545 4.70563E-01
 -1       546 3.87891E-01
 -1       547 3.91695E-01
 -1       548 3.85474E-01
 -1       549 3.56366E-01
 -1       550 3.25826E-01
 -1       551 2.86547E-01
 -1       552 2.43377E-01
 -1       553 1.98204E-01
 -1       554 1.55547E-01
 -1       555 1.17894E-01
 -1       556 8.62745E-02
 -1       557 6.07694E-02
 -1       558 4.09048E-02
 -1       559 2.79438E-02
 -1       560 1.94761E-02
 -1       561 1.65127E-02
 -1       562 1.42839E-02
 -1       563 1.20069E-02
 -1       564 9.84206E-03
 -1       565 7.88023E-03
 -1       566 6.68695E-03
 -1       567 5.70836E-03
 -1       568 4.72545E-03
 -1       569 3.83050E-03
 -1       570 3.07381E-03
 -1       571 2.38085E-03
 -1       572 1.80073E-03
 -1       573 1.34346E-03
 -1       574 9.83622E-04
 -1       575 7.20124E-04
 -1       576 5.76066E-04
 -1       577 7.02025E-04
 -1       578 2.88882E+01
 -1       579 8.21043E-04
 -1       580 8.21043E-04
 -1       581 8.15501E-04
 -1       582 8.19705E-04
 -1       583 8.19705E-04
 -1       584 7.43314E-04
 -1       585 5.60048E-04
 -1       586 5.00287E-04
 -1       587 2.83276E+00
 -1       588 5.20341E+00
 -1       589 3.42952E+01
 -1       590 9.69702E+00
 -1       591 2.16559E+01
 -1       592 4.27192E+00
 -1       593 1.34384E+00
 -1       594 7.05592E+00
 -1       595 1.36411E+01
 -1       596 5.31891E+00
 -1       597 7.97352E+00
 -1       598 6.48712E+00
 -1       599 5.77610E+00
 -1       600 7.50679E+00
 -1       601 9.00469E+00
 -1       602 3.28119E+01
 -1       603 2.05748E+01
 -1       604 4.12763E+00
 -1       605 3.61828E+00
 -1       606 7.43565E+00
 -1       607 1.62128E+01
 -1       608 2.03044E+01
 -1       609 3.27534E+00
 -1       610 6.37933E-01
 -1       611 3.94460E-01
 -1       612 1.17557E+01
 -1       613 7.15970E+00
 -1       614 9.59235E+00
 -1       615 2.13238E+01
 -1       616 8.10643E+00
 -1       617 5.97658E+00
 -1       618 1.88576E+00
 -1       619 2.11497E+00
 -1       620 1.39991E+00
 -1       621 9.96237E-01
 -1       622 9.05157E-01
 -1       623 3.13794E+00
 -1       624 1.06890E+01
 -1       625 7.11485E+00
 -1       626 3.85444E+00
 -1       627 4.52584E+00
 -1       628 7.51239E+00
 -1       629 3.78935E+00
 -1       630 6.90033E+00
 -1       631 4.59419E+00
 -1       632 3.72129E+00
 -1       633 2.72817E+00
 -1       634 2.00187E+00
 -1       635 1.50931E+00
 -1       636 1.15842E+00
 -1       637 8.65179E-01
 -1       638 6.39189E-01
 -1       639 4.83094E-01
 -1       640 3.62463E-01
 -1       641 2.69215E-01
 -1       642 1.97466E-01
 -1       643 1.42683E-01
 -1       644 1.01262E-01
 -1       645 7.03001E-02
 -1       646 4.74604E-02
 -1       647 3.08671E-02
 -1       648 1.90266E-02
 -1       649 1.17143E-02
 -1       650 9.65494E-03
 -1       651 8.92668E-03
 -1       652 7.90101E-03
 -1       653 6.76117E-03
 -1       654 5.62240E-03
 -1       655 4.72759E-03
 -1       656 3.99460E-03
 -1       657 3.26786E-03
 -1       658 2.58680E-03
 -1       659 2.00620E-03
 -1       660 1.51735E-03
 -1       661 1.10178E-03
 -1       662 8.21234E-04
 -1       663 9.98490E-01
 -1       664 1.25006E+00
 -1       665 1.35635E+00
 -1       666 1.68090E+00
 -1       667 1.80581E+00
 -1       668 1.77214E+00
 -1       669 1.73370E+00
 -1       670 1.37443E+00
 -1       671 1.26276E+00
 -1       672 1.06937E+00
 -1       673 8.66577E-01
 -1       674 7.54131E-01
 -1       675 5.85251E-01
 -1       676 5.11918E-01
 -1       677 4.70143E-01
 -1       678 4.11184E-01
 -1       679 3.56366E-01
 -1       680 3.12562E-01
 -1       681 2.65146E-01
 -1       682 2.17353E-01
 -1       683 1.72831E-01
 -1       684 1.33620E-01
 -1       685 1.00507E-01
 -1       686 7.34780E-02
 -1       687 5.20536E-02
 -1       688 3.55242E-02
 -1       689 2.31034E-02
 -1       690 1.40218E-02
 -1       691 9.43924E-03
 -1       692 8.80538E-03
 -1       693 8.10132E-03
 -1       694 7.14415E-03
 -1       695 6.08867E-03
 -1       696 5.03602E-03
 -1       697 4.30773E-03
 -1       698 3.61079E-03
 -1       699 2.93870E-03
 -1       700 2.33333E-03
 -1       701 1.80893E-03
 -1       702 1.34353E-03
 -1       703 1.00658E-03
 -1       704 8.65666E-04
 -1       705 1.03810E-03
 -1       706 8.65666E-04
 -1       707 1.03810E-03
 -1       708 9.98330E-04
 -1       709 9.98330E-04
 -1       710 9.95908E-04
 -1       711 9.04204E-04
 -1       712 8.41060E+00
 -1       713 1.54001E+01
 -1       714 1.14662E+01
 -1       715 7.11790E+00
 -1       716 3.40736E+00
 -1       717 1.00576E-03
 -1       718 1.36757E+01
 -1       719 1.54019E+01
 -1       720 4.18507E+00
 -1       721 3.96833E+00
 -1       722 5.03728E+00
 -1       723 1.68272E+01
 -1       724 5.59974E+00
 -1       725 3.70970E+00
 -1       726 1.69532E+00
 -1       727 2.72366E+00
 -1       728 1.39202E+00
 -1       729 1.30839E+01
 -1       730 1.04821E+01
 -1       731 5.92442E+00
 -1       732 1.65313E+01
 -1       733 2.11497E+00
 -1       734 1.04501E+01
 -1       735 3.96833E+00
 -1       736 8.96648E-04
 -1       737 8.46943E-01
 -1       738 5.01689E+00
 -1       739 9.26445E+00
 -1       740 5.60738E+00
 -1       741 2.30505E+00
 -1       742 1.45817E+00
 -1       743 2.29369E+00
 -1       744 1.32748E+01
 -1       745 6.03780E+00
 -1       746 3.51885E+00
 -1       747 2.68334E+00
 -1       748 1.99045E+00
 -1       749 1.49398E+00
 -1       750 1.11552E+00
 -1       751 8.27717E-01
 -1       752 6.09930E-01
 -1       753 4.45680E-01
 -1       754 3.22385E-01
 -1       755 2.30351E-01
 -1       756 1.62125E-01
 -1       757 1.12666E-01
 -1       758 7.81215E-02
 -1       759 5.28750E-02
 -1       760 3.50827E-02
 -1       761 2.33342E-02
 -1       762 1.48074E-02
 -1       763 8.75443E-03
 -1       764 5.43750E-03
 -1       765 5.70434E-03
 -1       766 5.58178E-03
 -1       767 5.13176E-03
 -1       768 4.51147E-03
 -1       769 3.82506E-03
 -1       770 3.31888E-03
 -1       771 2.80619E-03
 -1       772 2.28494E-03
 -1       773 1.78654E-03
 -1       774 1.50051E-03
 -1       775 2.17460E+00
 -1       776 1.56807E+00
 -1       777 2.56375E+00
 -1       778 2.43136E+00
 -1       779 1.73370E+00
 -1       780 1.54066E+00
 -1       781 1.91801E+00
 -1       782 1.68335E+00
 -1       783 1.11379E+00
 -1       784 8.18865E-01
 -1       785 7.27275E-01
 -1       786 6.15059E-01
 -1       787 5.01967E-01
 -1       788 4.19273E-01
 -1       789 3.56438E-01
 -1       790 2.93853E-01
 -1       791 2.34940E-01
 -1       792 1.82972E-01
 -1       793 1.40037E-01
 -1       794 1.05657E-01
 -1       795 7.81203E-02
 -1       796 5.64823E-02
 -1       797 3.97891E-02
 -1       798 2.71491E-02
 -1       799 1.77667E-02
 -1       800 1.09547E-02
 -1       801 6.13448E-03
 -1       802 5.06557E-03
 -1       803 5.32433E-03
 -1       804 5.12965E-03
 -1       805 4.66645E-03
 -1       806 4.06528E-03
 -1       807 3.47488E-03
 -1       808 3.01893E-03
 -1       809 2.51956E-03
 -1       810 2.02006E-03
 -1       811 1.54964E-03
 -1       812 1.14379E-03
 -1       813 1.41167E-03
 -1       814 1.20587E-03
 -1       815 7.65518E+00
 -1       816 4.20938E+00
 -1       817 1.50051E-03
 -1       818 1.28702E-03
 -1       819 9.63384E+00
 -1       820 1.02483E+01
 -1       821 2.81747E+00
 -1       822 1.17783E-03
 -1       823 2.17595E+00
 -1       824 6.00319E+00
 -1       825 5.19104E+00
 -1       826 1.02483E+01
 -1       827 5.80375E+00
 -1       828 9.19930E+00
 -1       829 3.75172E+00
 -1       830 2.71652E+00
 -1       831 1.36930E+01
 -1       832 7.11691E+00
 -1       833 2.73222E+00
 -1       834 3.67302E+00
 -1       835 6.92488E+00
 -1       836 3.41593E+00
 -1       837 6.73342E+00
 -1       838 1.66309E+00
 -1       839 1.44461E-03
 -1       840 5.26015E+00
 -1       841 2.21249E+00
 -1       842 2.95978E+00
 -1       843 1.44461E-03
 -1       844 6.23011E+00
 -1       845 4.01014E+00
 -1       846 2.54229E+00
 -1       847 2.55715E+00
 -1       848 2.81747E+00
 -1       849 5.26015E+00
 -1       850 6.39341E+00
 -1       851 2.17460E+00
 -1       852 4.29859E+00
 -1       853 2.11723E+00
 -1       854 5.68110E+00
 -1       855 3.47924E+00
 -1       856 2.57653E+00
 -1       857 1.77173E+00
 -1       858 1.27278E+00
 -1       859 9.31100E-01
 -1       860 6.88522E-01
 -1       861 5.10611E-01
 -1       862 3.77818E-01
 -1       863 2.77783E-01
 -1       864 2.02247E-01
 -1       865 1.45342E-01
 -1       866 1.02721E-01
 -1       867 7.10731E-02
 -1       868 4.88846E-02
 -1       869 3.27972E-02
 -1       870 2.11329E-02
 -1       871 1.28962E-02
 -1       872 7.24043E-03
 -1       873 3.40299E-03
 -1       874 3.45426E-03
 -1       875 3.83886E-03
 -1       876 3.80702E-03
 -1       877 3.52489E-03
 -1       878 3.10731E-03
 -1       879 2.68164E-03
 -1       880 2.31777E-03
 -1       881 1.92280E-03
 -1       882 1.58772E-03
 -1       883 1.77042E+00
 -1       884 1.25296E+00
 -1       885 1.05077E+00
 -1       886 8.26047E-01
 -1       887 6.53129E-01
 -1       888 5.29186E-01
 -1       889 4.19459E-01
 -1       890 3.29923E-01
 -1       891 2.64891E-01
 -1       892 2.13883E-01
 -1       893 1.71620E-01
 -1       894 1.33521E-01
 -1       895 1.00884E-01
 -1       896 7.39928E-02
 -1       897 5.25375E-02
 -1       898 3.64618E-02
 -1       899 2.46039E-02
 -1       900 1.57661E-02
 -1       901 9.35633E-03
 -1       902 4.92244E-03
 -1       903 2.72351E-03
 -1       904 3.47616E-03
 -1       905 3.69909E-03
 -1       906 3.58189E-03
 -1       907 3.26203E-03
 -1       908 2.83601E-03
 -1       909 2.49235E-03
 -1       910 2.11861E-03
 -1       911 1.71299E-03
 -1       912 5.68453E+00
 -1       913 2.17595E+00
 -1       914 5.29972E+00
 -1       915 3.20377E+00
 -1       916 1.53659E-03
 -1       917 1.34983E-03
 -1       918 7.69824E+00
 -1       919 6.48368E+00
 -1       920 7.69824E+00
 -1       921 3.23956E+00
 -1       922 5.48671E+00
 -1       923 7.61199E+00
 -1       924 2.56375E+00
 -1       925 3.45315E+00
 -1       926 2.48285E+00
 -1       927 2.54229E+00
 -1       928 1.40259E-03
 -1       929 1.40259E-03
 -1       930 5.25272E+00
 -1       931 6.39341E+00
 -1       932 4.71226E+00
 -1       933 4.25137E+00
 -1       934 4.37805E+00
 -1       935 3.05380E+00
 -1       936 1.74085E+00
 -1       937 1.19864E+00
 -1       938 8.74914E-01
 -1       939 6.56595E-01
 -1       940 4.97857E-01
 -1       941 3.78503E-01
 -1       942 2.86680E-01
 -1       943 2.15368E-01
 -1       944 1.59941E-01
 -1       945 1.17070E-01
 -1       946 8.41883E-02
 -1       947 5.92489E-02
 -1       948 4.05844E-02
 -1       949 2.77219E-02
 -1       950 1.82763E-02
 -1       951 1.14427E-02
 -1       952 6.65143E-03
 -1       953 3.49185E-03
 -1       954 2.07630E-03
 -1       955 2.66299E-03
 -1       956 2.83141E-03
 -1       957 2.73543E-03
 -1       958 2.48356E-03
 -1       959 2.15014E-03
 -1       960 1.86297E-03
 -1       961 1.63533E-03
 -1       962 1.18012E+00
 -1       963 1.72711E+00
 -1       964 2.46066E+00
 -1       965 9.13141E-01
 -1       966 6.80838E-01
 -1       967 5.08534E-01
 -1       968 4.04960E-01
 -1       969 3.25477E-01
 -1       970 2.64891E-01
 -1       971 2.10208E-01
 -1       972 1.63093E-01
 -1       973 1.23825E-01
 -1       974 9.19506E-02
 -1       975 6.66631E-02
 -1       976 4.70226E-02
 -1       977 3.20833E-02
 -1       978 2.16852E-02
 -1       979 1.40487E-02
 -1       980 8.52563E-03
 -1       981 4.79839E-03
 -1       982 2.73212E-03
 -1       983 2.33168E-03
 -1       984 2.72019E-03
 -1       985 2.76806E-03
 -1       986 2.60337E-03
 -1       987 2.31623E-03
 -1       988 2.18500E-03
 -1       989 2.18500E-03
 -1       990 1.41060E-03
 -1       991 4.13892E+00
 -1       992 2.49848E+00
 -1       993 1.93716E+00
 -1       994 4.82314E+00
 -1       995 4.53531E+00
 -1       996 4.82314E+00
 -1       997 2.11245E-03
 -1       998 1.43078E-03
 -1       999 3.31971E+00
 -1      1000 2.62352E+00
 -1      1001 1.53841E+00
 -1      1002 9.50400E-01
 -1      1003 6.97740E-01
 -1      1004 5.14700E-01
 -1      1005 3.81816E-01
 -1      1006 2.83506E-01
 -1      1007 2.09945E-01
 -1      1008 1.54617E-01
 -1      1009 1.13982E-01
 -1      1010 8.46452E-02
 -1      1011 6.18043E-02
 -1      1012 4.40379E-02
 -1      1013 3.04769E-02
 -1      1014 2.08508E-02
 -1      1015 1.42048E-02
 -1      1016 9.42331E-03
 -1      1017 5.95654E-03
 -1      1018 3.49185E-03
 -1      1019 1.78113E-03
 -1      1020 1.88779E-03
 -1      1021 2.10949E-03
 -1      1022 2.09629E-03
 -1      1023 1.93817E-03
 -1      1024 1.74702E-03
 -1      1025 1.49333E-03
 -1      1026 2.17745E+00
 -1      1027 3.38154E+00
 -1      1028 6.61080E-01
 -1      1029 5.08534E-01
 -1      1030 4.04960E-01
 -1      1031 3.16869E-01
 -1      1032 2.44385E-01
 -1      1033 1.85980E-01
 -1      1034 1.39615E-01
 -1      1035 1.03260E-01
 -1      1036 7.50899E-02
 -1      1037 5.35256E-02
 -1      1038 3.72353E-02
 -1      1039 2.51097E-02
 -1      1040 1.68350E-02
 -1      1041 1.15999E-02
 -1      1042 7.68145E-03
 -1      1043 4.79839E-03
 -1      1044 2.73212E-03
 -1      1045 1.65959E-03
 -1      1046 2.04804E-03
 -1      1047 2.14210E-03
 -1      1048 2.04861E-03
 -1      1049 1.85274E-03
 -1      1050 8.81345E-01
 -1      1051 1.53783E+00
 -1      1052 1.43078E-03
 -1      1053 2.18500E-03
 -1      1054 1.49271E-03
 -1      1055 2.73854E+00
 -1      1056 1.94758E+00
 -1      1057 1.63821E+00
 -1      1058 9.27854E-01
 -1      1059 5.94099E-01
 -1      1060 4.04525E-01
 -1      1061 3.09969E-01
 -1      1062 2.38880E-01
 -1      1063 1.82465E-01
 -1      1064 1.37918E-01
 -1      1065 1.02980E-01
 -1      1066 7.58062E-02
 -1      1067 5.53198E-02
 -1      1068 3.96371E-02
 -1      1069 2.77077E-02
 -1      1070 1.92604E-02
 -1      1071 1.31728E-02
 -1      1072 8.66184E-03
 -1      1073 5.38424E-03
 -1      1074 3.05617E-03
 -1      1075 1.44690E-03
 -1      1076 1.35825E-03
 -1      1077 1.54944E-03
 -1      1078 1.56453E-03
 -1      1079 1.74702E-03
 -1      1080 4.04525E-01
 -1      1081 8.08513E-01
 -1      1082 2.87795E-01
 -1      1083 2.05269E-01
 -1      1084 1.46491E-01
 -1      1085 1.11577E-01
 -1      1086 8.51328E-02
 -1      1087 6.36415E-02
 -1      1088 4.65449E-02
 -1      1089 3.32133E-02
 -1      1090 2.30585E-02
 -1      1091 1.60902E-02
 -1      1092 1.08441E-02
 -1      1093 6.97444E-03
 -1      1094 4.18333E-03
 -1      1095 2.22117E-03
 -1      1096 1.25559E-03
 -1      1097 1.55408E-03
 -1      1098 1.63009E-03
 -1      1099 1.56296E-03
 -1      1100 5.70727E-01
 -1      1101 1.14707E+00
 -1      1102 1.79677E+00
 -1      1103 1.35058E-03
 -1      1104 1.25814E-03
 -1      1105 1.14983E+01
 -1      1106 7.78102E+00
 -1      1107 3.49014E+00
 -1      1108 2.67230E+00
 -1      1109 2.21367E+00
 -1      1110 1.72218E+00
 -1      1111 1.13003E+00
 -1      1112 8.50726E-01
 -1      1113 1.02315E+00
 -1      1114 1.22539E+00
 -1      1115 1.35565E+00
 -1      1116 1.51149E+00
 -1      1117 1.70702E+00
 -1      1118 2.02842E+00
 -1      1119 2.95749E+00
 -1      1120 5.98738E+00
 -1      1121 1.07569E+01
 -1      1122 1.14983E+01
 -1      1123 7.09959E+00
 -1      1124 2.10115E+00
 -1      1125 1.58657E+00
 -1      1126 1.95865E+00
 -1      1127 2.24561E+00
 -1      1128 2.24356E+00
 -1      1129 2.63441E+00
 -1      1130 4.50223E+00
 -1      1131 6.96650E+00
 -1      1132 7.97316E+00
 -1      1133 7.99049E+00
 -1      1134 7.05674E+00
 -1      1135 4.65381E+00
 -1      1136 2.88439E+00
 -1      1137 2.64977E+00
 -1      1138 2.71539E+00
 -1      1139 2.56487E+00
 -1      1140 2.16473E+00
 -1      1141 1.70770E+00
 -1      1142 1.31848E+00
 -1      1143 1.00413E+00
 -1      1144 7.85416E-01
 -1      1145 6.21757E-01
 -1      1146 4.79242E-01
 -1      1147 3.61757E-01
 -1      1148 2.68253E-01
 -1      1149 1.95609E-01
 -1      1150 1.41042E-01
 -1      1151 1.07111E-01
 -1      1152 8.66597E-02
 -1      1153 6.90353E-02
 -1      1154 5.41881E-02
 -1      1155 4.19121E-02
 -1      1156 3.19272E-02
 -1      1157 2.39275E-02
 -1      1158 1.86006E-02
 -1      1159 1.52323E-02
 -1      1160 1.22629E-02
 -1      1161 9.69487E-03
 -1      1162 7.52823E-03
 -1      1163 5.80599E-03
 -1      1164 4.44648E-03
 -1      1165 3.30547E-03
 -1      1166 2.53444E-03
 -1      1167 2.10134E-03
 -1      1168 1.72979E-03
 -1      1169 1.36244E-03
 -1      1170 1.04594E-03
 -1      1171 6.00319E-04
 -1      1172 1.32087E+01
 -1      1173 7.99363E+00
 -1      1174 2.18989E+00
 -1      1175 1.21589E+00
 -1      1176 6.93305E-01
 -1      1177 7.02403E-01
 -1      1178 9.48116E-01
 -1      1179 1.32333E+00
 -1      1180 1.86967E+00
 -1      1181 2.26950E+00
 -1      1182 2.53604E+00
 -1      1183 2.68041E+00
 -1      1184 2.68765E+00
 -1      1185 2.46083E+00
 -1      1186 1.89546E+00
 -1      1187 1.26690E+00
 -1      1188 8.26193E-01
 -1      1189 5.95002E-01
 -1      1190 5.43180E-01
 -1      1191 5.71851E-01
 -1      1192 5.71004E-01
 -1      1193 5.41336E-01
 -1      1194 4.70495E-01
 -1      1195 3.92098E-01
 -1      1196 3.18384E-01
 -1      1197 2.46434E-01
 -1      1198 1.90404E-01
 -1      1199 1.50757E-01
 -1      1200 1.16502E-01
 -1      1201 8.70727E-02
 -1      1202 6.28933E-02
 -1      1203 4.46175E-02
 -1      1204 3.43046E-02
 -1      1205 2.87371E-02
 -1      1206 2.34531E-02
 -1      1207 1.87041E-02
 -1      1208 1.52960E-02
 -1      1209 1.31933E-02
 -1      1210 1.13309E-02
 -1      1211 9.47711E-03
 -1      1212 7.74710E-03
 -1      1213 6.23962E-03
 -1      1214 4.98635E-03
 -1      1215 3.91576E-03
 -1      1216 2.97779E-03
 -1      1217 2.21146E-03
 -1      1218 1.69495E-03
 -1      1219 1.28358E-03
 -1      1220 8.44011E-04
 -1      1221 3.97935E-04
 -1      1222 2.27263E-04
 -1      1223 2.87230E-04
 -1      1224 2.58022E-04
 -1      1225 1.64677E-04
 -1      1226 1.15409E-04
 -1      1227 1.64120E-04
 -1      1228 2.17799E-04
 -1      1229 2.43393E-04
 -1      1230 2.49150E-04
 -1      1231 2.43504E-04
 -1      1232 2.17141E-04
 -1      1233 1.63541E-04
 -1      1234 1.16490E-04
 -1      1235 1.66057E-04
 -1      1236 2.30420E-04
 -1      1237 2.31049E-04
 -1      1238 2.62543E-04
 -1      1239 2.39945E+01
 -1      1240 3.55773E+01
 -1      1241 4.69471E+01
 -1      1242 3.28788E+01
 -1      1243 1.52246E+01
 -1      1244 1.17568E+01
 -1      1245 1.18749E+01
 -1      1246 1.24429E+01
 -1      1247 1.30110E+01
 -1      1248 1.24827E+01
 -1      1249 1.71956E+01
 -1      1250 3.56680E+01
 -1      1251 4.88993E+01
 -1      1252 3.70218E+01
 -1      1253 2.58163E+01
 -1      1254 2.64883E+01
 -1      1255 3.58332E+01
 -1      1256 4.51781E+01
 -1      1257 3.19859E+01
 -1      1258 1.61630E+01
 -1      1259 1.35322E+01
 -1      1260 1.30890E+01
 -1      1261 1.24263E+01
 -1      1262 1.22068E+01
 -1      1263 1.25405E+01
 -1      1264 2.17850E+01
 -1      1265 3.08261E+01
 -1      1266 2.91346E+01
 -1      1267 2.63846E+01
 -1      1268 2.46189E+01
 -1      1269 1.14983E+01
 -1      1270 5.10687E+00
 -1      1271 8.82414E+00
 -1      1272 3.05212E+00
 -1      1273 3.62574E+00
 -1      1274 4.66885E+00
 -1      1275 2.46793E+00
 -1      1276 2.71215E+00
 -1      1277 2.84775E+00
 -1      1278 2.09959E+00
 -1      1279 2.31400E+00
 -1      1280 2.35385E+00
 -1      1281 1.59984E+00
 -1      1282 1.87692E+00
 -1      1283 1.97725E+00
 -1      1284 9.73789E-01
 -1      1285 1.28885E+00
 -1      1286 1.44360E+00
 -1      1287 8.15445E-01
 -1      1288 7.79680E-01
 -1      1289 9.38508E-01
 -1      1290 1.13754E+00
 -1      1291 1.00088E+00
 -1      1292 9.29834E-01
 -1      1293 1.26959E+00
 -1      1294 1.20400E+00
 -1      1295 1.18174E+00
 -1      1296 1.35862E+00
 -1      1297 1.29395E+00
 -1      1298 1.27256E+00
 -1      1299 1.55682E+00
 -1      1300 1.46565E+00
 -1      1301 1.40395E+00
 -1      1302 1.76333E+00
 -1      1303 1.65897E+00
 -1      1304 1.61313E+00
 -1      1305 2.13680E+00
 -1      1306 1.91977E+00
 -1      1307 1.87171E+00
 -1      1308 3.16759E+00
 -1      1309 2.45555E+00
 -1      1310 2.34690E+00
 -1      1311 6.15120E+00
 -1      1312 3.83335E+00
 -1      1313 3.33141E+00
 -1      1314 1.32087E+01
 -1      1315 1.07569E+01
 -1      1316 8.60291E+00
 -1      1317 1.32087E+01
 -1      1318 7.32488E+00
 -1      1319 2.92617E+00
 -1      1320 2.42618E+00
 -1      1321 1.82646E+00
 -1      1322 2.65148E+00
 -1      1323 1.53275E+00
 -1      1324 1.61788E+00
 -1      1325 1.85777E+00
 -1      1326 1.69396E+00
 -1      1327 1.98092E+00
 -1      1328 1.64014E+00
 -1      1329 2.24561E+00
 -1      1330 2.24561E+00
 -1      1331 1.98092E+00
 -1      1332 2.23309E+00
 -1      1333 2.23104E+00
 -1      1334 2.23309E+00
 -1      1335 2.24151E+00
 -1      1336 2.63441E+00
 -1      1337 2.23104E+00
 -1      1338 3.14040E+00
 -1      1339 4.61533E+00
 -1      1340 2.74750E+00
 -1      1341 5.97716E+00
 -1      1342 6.96650E+00
 -1      1343 4.61533E+00
 -1      1344 7.95584E+00
 -1      1345 7.97316E+00
 -1      1346 6.96650E+00
 -1      1347 7.99049E+00
 -1      1348 7.99049E+00
 -1      1349 7.97316E+00
 -1      1350 7.05674E+00
 -1      1351 6.12299E+00
 -1      1352 7.05674E+00
 -1      1353 4.71341E+00
 -1      1354 3.24423E+00
 -1      1355 4.71341E+00
 -1      1356 2.82467E+00
 -1      1357 2.52444E+00
 -1      1358 2.88427E+00
 -1      1359 2.58416E+00
 -1      1360 2.64977E+00
 -1      1361 2.52444E+00
 -1      1362 2.71539E+00
 -1      1363 2.71539E+00
 -1      1364 2.64977E+00
 -1      1365 2.56487E+00
 -1      1366 2.41436E+00
 -1      1367 2.56487E+00
 -1      1368 2.19614E+00
 -1      1369 1.94651E+00
 -1      1370 2.19614E+00
 -1      1371 1.81170E+00
 -1      1372 1.60431E+00
 -1      1373 1.84311E+00
 -1      1374 1.46543E+00
 -1      1375 1.28360E+00
 -1      1376 1.56942E+00
 -1      1377 1.13343E+00
 -1      1378 1.00092E+00
 -1      1379 1.28038E+00
 -1      1380 8.63613E-01
 -1      1381 7.77406E-01
 -1      1382 9.92912E-01
 -1      1383 6.62819E-01
 -1      1384 5.85367E-01
 -1      1385 7.41016E-01
 -1      1386 4.95037E-01
 -1      1387 4.29974E-01
 -1      1388 5.36099E-01
 -1      1389 3.65893E-01
 -1      1390 3.13470E-01
 -1      1391 3.81687E-01
 -1      1392 2.74599E-01
 -1      1393 2.33516E-01
 -1      1394 2.78734E-01
 -1      1395 2.02772E-01
 -1      1396 1.71211E-01
 -1      1397 2.09118E-01
 -1      1398 1.47337E-01
 -1      1399 1.24331E-01
 -1      1400 1.54500E-01
 -1      1401 1.07111E-01
 -1      1402 9.61855E-02
 -1      1403 1.13405E-01
 -1      1404 8.66597E-02
 -1      1405 7.71340E-02
 -1      1406 8.66597E-02
 -1      1407 6.90353E-02
 -1      1408 6.09366E-02
 -1      1409 6.90353E-02
 -1      1410 5.41881E-02
 -1      1411 4.74396E-02
 -1      1412 5.41881E-02
 -1      1413 4.19121E-02
 -1      1414 3.63846E-02
 -1      1415 4.19121E-02
 -1      1416 3.19917E-02
 -1      1417 2.75342E-02
 -1      1418 3.19917E-02
 -1      1419 2.44921E-02
 -1      1420 2.09499E-02
 -1      1421 2.45566E-02
 -1      1422 1.86006E-02
 -1      1423 1.68159E-02
 -1      1424 1.91652E-02
 -1      1425 1.52323E-02
 -1      1426 1.36487E-02
 -1      1427 1.52323E-02
 -1      1428 1.22629E-02
 -1      1429 1.08770E-02
 -1      1430 1.22629E-02
 -1      1431 9.75937E-03
 -1      1432 8.57721E-03
 -1      1433 9.75937E-03
 -1      1434 7.69729E-03
 -1      1435 6.71281E-03
 -1      1436 7.76179E-03
 -1      1437 5.98620E-03
 -1      1438 5.24844E-03
 -1      1439 6.15526E-03
 -1      1440 4.69259E-03
 -1      1441 4.07084E-03
 -1      1442 4.87280E-03
 -1      1443 3.57988E-03
 -1      1444 3.06062E-03
 -1      1445 3.82599E-03
 -1      1446 2.63639E-03
 -1      1447 2.38463E-03
 -1      1448 2.91080E-03
 -1      1449 2.10134E-03
 -1      1450 1.91999E-03
 -1      1451 2.20328E-03
 -1      1452 1.72979E-03
 -1      1453 1.53960E-03
 -1      1454 1.72979E-03
 -1      1455 1.36244E-03
 -1      1456 1.18527E-03
 -1      1457 1.36244E-03
 -1      1458 1.04594E-03
 -1      1459 9.06600E-04
 -1      1460 1.04594E-03
 -1      1461 6.42351E-04
 -1      1462 3.36070E-04
 -1      1463 3.04575E-04
 -1      1464 6.42351E-04
 -1      1465 2.77860E+00
 -1      1466 7.99363E+00
 -1      1467 7.99363E+00
 -1      1468 1.60117E+00
 -1      1469 2.18989E+00
 -1      1470 2.18989E+00
 -1      1471 8.30610E-01
 -1      1472 1.21589E+00
 -1      1473 1.21589E+00
 -1      1474 6.76029E-01
 -1      1475 8.13333E-01
 -1      1476 8.13333E-01
 -1      1477 9.54670E-01
 -1      1478 8.08269E-01
 -1      1479 9.28297E-01
 -1      1480 1.20641E+00
 -1      1481 1.10710E+00
 -1      1482 1.21297E+00
 -1      1483 1.67672E+00
 -1      1484 1.40081E+00
 -1      1485 1.55979E+00
 -1      1486 2.07695E+00
 -1      1487 1.80652E+00
 -1      1488 1.88400E+00
 -1      1489 2.26950E+00
 -1      1490 2.14010E+00
 -1      1491 2.07695E+00
 -1      1492 2.53604E+00
 -1      1493 2.39890E+00
 -1      1494 2.26950E+00
 -1      1495 2.68041E+00
 -1      1496 2.67318E+00
 -1      1497 2.53604E+00
 -1      1498 2.68765E+00
 -1      1499 2.68765E+00
 -1      1500 2.68041E+00
 -1      1501 2.23401E+00
 -1      1502 2.46083E+00
 -1      1503 2.46083E+00
 -1      1504 1.55690E+00
 -1      1505 1.89546E+00
 -1      1506 1.89546E+00
 -1      1507 9.80355E-01
 -1      1508 1.27036E+00
 -1      1509 1.27036E+00
 -1      1510 6.75497E-01
 -1      1511 8.26193E-01
 -1      1512 8.29659E-01
 -1      1513 5.14508E-01
 -1      1514 5.95002E-01
 -1      1515 5.95002E-01
 -1      1516 5.39352E-01
 -1      1517 5.10681E-01
 -1      1518 5.10681E-01
 -1      1519 5.71851E-01
 -1      1520 5.71851E-01
 -1      1521 5.39352E-01
 -1      1522 5.70157E-01
 -1      1523 5.71004E-01
 -1      1524 5.71004E-01
 -1      1525 5.12515E-01
 -1      1526 5.41336E-01
 -1      1527 5.41336E-01
 -1      1528 4.28474E-01
 -1      1529 4.70495E-01
 -1      1530 4.70495E-01
 -1      1531 3.56295E-01
 -1      1532 3.92671E-01
 -1      1533 3.92671E-01
 -1      1534 2.86566E-01
 -1      1535 3.23903E-01
 -1      1536 3.24477E-01
 -1      1537 2.19995E-01
 -1      1538 2.54608E-01
 -1      1539 2.60127E-01
 -1      1540 1.69791E-01
 -1      1541 1.91208E-01
 -1      1542 1.99382E-01
 -1      1543 1.32527E-01
 -1      1544 1.50757E-01
 -1      1545 1.51561E-01
 -1      1546 1.00477E-01
 -1      1547 1.16502E-01
 -1      1548 1.16502E-01
 -1      1549 7.36688E-02
 -1      1550 8.70727E-02
 -1      1551 8.70727E-02
 -1      1552 5.25281E-02
 -1      1553 6.33036E-02
 -1      1554 6.33036E-02
 -1      1555 3.78653E-02
 -1      1556 4.53656E-02
 -1      1557 4.57759E-02
 -1      1558 3.21270E-02
 -1      1559 3.49396E-02
 -1      1560 3.56877E-02
 -1      1561 2.65214E-02
 -1      1562 2.92764E-02
 -1      1563 2.99113E-02
 -1      1564 2.13768E-02
 -1      1565 2.39058E-02
 -1      1566 2.44451E-02
 -1      1567 1.68566E-02
 -1      1568 1.90766E-02
 -1      1569 1.95293E-02
 -1      1570 1.41080E-02
 -1      1571 1.52960E-02
 -1      1572 1.56685E-02
 -1      1573 1.22786E-02
 -1      1574 1.31933E-02
 -1      1575 1.31933E-02
 -1      1576 1.03832E-02
 -1      1577 1.13309E-02
 -1      1578 1.13309E-02
 -1      1579 8.57097E-03
 -1      1580 9.47711E-03
 -1      1581 9.47711E-03
 -1      1582 6.92323E-03
 -1      1583 7.74710E-03
 -1      1584 7.74710E-03
 -1      1585 5.55601E-03
 -1      1586 6.23962E-03
 -1      1587 6.23962E-03
 -1      1588 4.41670E-03
 -1      1589 4.98635E-03
 -1      1590 4.98635E-03
 -1      1591 3.41482E-03
 -1      1592 3.91576E-03
 -1      1593 3.91576E-03
 -1      1594 2.57003E-03
 -1      1595 3.00707E-03
 -1      1596 3.00707E-03
 -1      1597 1.88407E-03
 -1      1598 2.21336E-03
 -1      1599 2.24264E-03
 -1      1600 1.50772E-03
 -1      1601 1.69495E-03
 -1      1602 1.69684E-03
 -1      1603 1.05945E-03
 -1      1604 1.28358E-03
 -1      1605 1.28358E-03
 -1      1606 6.28575E-04
 -1      1607 8.44011E-04
 -1      1608 8.44011E-04
 -1      1609 4.57902E-04
 -1      1610 4.06420E-04
 -1      1611 4.06420E-04
 -1      1612 3.77212E-04
 -1      1613 4.06420E-04
 -1      1614 5.25609E-04
 -1      1615 2.10976E-04
 -1      1616 2.75114E-04
 -1      1617 4.23511E-04
 -1      1618 1.70465E-04
 -1      1619 1.55594E-04
 -1      1620 2.66032E-04
 -1      1621 2.71490E-04
 -1      1622 2.37649E-04
 -1      1623 2.77835E-04
 -1      1624 3.33375E-04
 -1      1625 3.13537E-04
 -1      1626 3.87066E-04
 -1      1627 3.56327E-04
 -1      1628 3.50570E-04
 -1      1629 4.46309E-04
 -1      1630 3.56327E-04
 -1      1631 3.56327E-04
 -1      1632 4.63504E-04
 -1      1633 3.50667E-04
 -1      1634 3.56313E-04
 -1      1635 4.63490E-04
 -1      1636 3.12451E-04
 -1      1637 3.33168E-04
 -1      1638 4.45977E-04
 -1      1639 2.38640E-04
 -1      1640 2.71523E-04
 -1      1641 3.87550E-04
 -1      1642 1.58577E-04
 -1      1643 1.72745E-04
 -1      1644 2.80727E-04
 -1      1645 2.75446E-04
 -1      1646 2.11711E-04
 -1      1647 2.67966E-04
 -1      1648 4.49932E-04
 -1      1649 4.49304E-04
 -1      1650 4.94957E-04
 -1      1651 4.49932E-04
 -1      1652 4.49932E-04
 -1      1653 6.68815E-04
 -1      1654 5.23459E-04
 -1      1655 2.70024E+01
 -1      1656 2.67894E+01
 -1      1657 3.79833E+01
 -1      1658 2.66135E+01
 -1      1659 4.69471E+01
 -1      1660 4.69471E+01
 -1      1661 1.95702E+01
 -1      1662 3.36385E+01
 -1      1663 1.13507E+01
 -1      1664 1.49366E+01
 -1      1665 1.17568E+01
 -1      1666 1.16387E+01
 -1      1667 1.18749E+01
 -1      1668 1.18749E+01
 -1      1669 1.23721E+01
 -1      1670 1.18040E+01
 -1      1671 1.30110E+01
 -1      1672 1.30110E+01
 -1      1673 1.19544E+01
 -1      1674 1.24827E+01
 -1      1675 1.71132E+01
 -1      1676 1.18720E+01
 -1      1677 3.67482E+01
 -1      1678 2.35170E+01
 -1      1679 4.88993E+01
 -1      1680 4.88993E+01
 -1      1681 2.79589E+01
 -1      1682 3.98363E+01
 -1      1683 2.94577E+01
 -1      1684 2.87857E+01
 -1      1685 2.94577E+01
 -1      1686 2.94577E+01
 -1      1687 4.23454E+01
 -1      1688 3.30005E+01
 -1      1689 4.51781E+01
 -1      1690 4.51781E+01
 -1      1691 1.88172E+01
 -1      1692 3.20094E+01
 -1      1693 1.23326E+01
 -1      1694 1.49634E+01
 -1      1695 1.35322E+01
 -1      1696 1.35322E+01
 -1      1697 1.26458E+01
 -1      1698 1.30890E+01
 -1      1699 1.21943E+01
 -1      1700 1.24138E+01
 -1      1701 1.22068E+01
 -1      1702 1.22068E+01
 -1      1703 1.20026E+01
 -1      1704 1.16689E+01
 -1      1705 2.17850E+01
 -1      1706 1.28742E+01
 -1      1707 3.09564E+01
 -1      1708 3.08261E+01
 -1      1709 3.01816E+01
 -1      1710 3.20034E+01
 -1      1711 2.92534E+01
 -1      1712 3.01816E+01
 -1      1713 2.67894E+01
 -1      1714 2.76269E+01
 -1      1715 3.36385E+01
 -1      1716 2.97973E+01
 -1      1717 4.57902E-04
 -1      1718 5.77092E-04
 -1      1719 2.94084E+01
 -1      1720 3.79833E+01
 -1      1721 1.56963E+01
 -1      1722 1.13507E+01
 -1      1723 1.17568E+01
 -1      1724 1.18040E+01
 -1      1725 1.23721E+01
 -1      1726 1.24827E+01
 -1      1727 1.18720E+01
 -1      1728 1.81934E+01
 -1      1729 3.67482E+01
 -1      1730 3.98363E+01
 -1      1731 3.16002E+01
 -1      1732 3.24270E+01
 -1      1733 3.59699E+01
 -1      1734 4.23454E+01
 -1      1735 3.20094E+01
 -1      1736 1.49868E+01
 -1      1737 1.23326E+01
 -1      1738 1.30890E+01
 -1      1739 1.24138E+01
 -1      1740 1.21943E+01
 -1      1741 1.16689E+01
 -1      1742 1.20026E+01
 -1      1743 2.19153E+01
 -1      1744 3.20034E+01
 -1      1745 3.30504E+01
 -1      1746 3.14239E+01
 -1      1747 8.82414E+00
 -1      1748 2.67027E+00
 -1      1749 3.01024E+00
 -1      1750 3.16959E+00
 -1      1751 4.65072E+00
 -1      1752 2.99211E+00
 -1      1753 1.93892E+00
 -1      1754 2.16159E+00
 -1      1755 1.36538E+00
 -1      1756 1.67636E+00
 -1      1757 1.86070E+00
 -1      1758 8.96636E-01
 -1      1759 1.09075E+00
 -1      1760 1.32351E+00
 -1      1761 1.13866E+00
 -1      1762 9.53225E-01
 -1      1763 1.10546E+00
 -1      1764 1.28713E+00
 -1      1765 1.22067E+00
 -1      1766 1.24406E+00
 -1      1767 1.31149E+00
 -1      1768 1.28713E+00
 -1      1769 1.32606E+00
 -1      1770 1.38180E+00
 -1      1771 1.27477E+00
 -1      1772 1.28934E+00
 -1      1773 1.51477E+00
 -1      1774 1.41262E+00
 -1      1775 1.28344E+00
 -1      1776 1.70627E+00
 -1      1777 1.54984E+00
 -1      1778 1.34933E+00
 -1      1779 2.09573E+00
 -1      1780 1.77698E+00
 -1      1781 1.45511E+00
 -1      1782 2.82612E+00
 -1      1783 2.16037E+00
 -1      1784 1.59045E+00
 -1      1785 7.53425E+00
 -1      1786 2.92850E+00
 -1      1787 1.75746E+00
 -1      1788 2.31922E+00
 -1      1789 4.65072E+00
 -1      1790 1.56895E+00
 -1      1791 2.15767E+00
 -1      1792 1.69829E+00
 -1      1793 3.15146E+00
 -1      1794 2.19958E+00
 -1      1795 1.90586E+00
 -1      1796 1.79684E+00
 -1      1797 1.87292E+00
 -1      1798 2.13864E+00
 -1      1799 1.98646E+00
 -1      1800 2.25116E+00
 -1      1801 2.14316E+00
 -1      1802 2.36487E+00
 -1      1803 2.35234E+00
 -1      1804 2.37042E+00
 -1      1805 2.38393E+00
 -1      1806 2.39441E+00
 -1      1807 2.51572E+00
 -1      1808 2.76090E+00
 -1      1809 3.26690E+00
 -1      1810 2.91380E+00
 -1      1811 3.76430E+00
 -1      1812 5.12613E+00
 -1      1813 3.77770E+00
 -1      1814 5.68158E+00
 -1      1815 6.67092E+00
 -1      1816 4.83055E+00
 -1      1817 7.96246E+00
 -1      1818 7.97978E+00
 -1      1819 6.67753E+00
 -1      1820 6.23328E+00
 -1      1821 5.29953E+00
 -1      1822 6.22257E+00
 -1      1823 4.61771E+00
 -1      1824 3.20812E+00
 -1      1825 3.79424E+00
 -1      1826 3.14446E+00
 -1      1827 2.72490E+00
 -1      1828 3.04876E+00
 -1      1829 2.48690E+00
 -1      1830 2.54662E+00
 -1      1831 2.74709E+00
 -1      1832 2.47786E+00
 -1      1833 2.54347E+00
 -1      1834 2.44033E+00
 -1      1835 2.42203E+00
 -1      1836 2.27152E+00
 -1      1837 2.25012E+00
 -1      1838 2.19054E+00
 -1      1839 1.97233E+00
 -1      1840 2.04770E+00
 -1      1841 1.86750E+00
 -1      1842 1.73269E+00
 -1      1843 1.86190E+00
 -1      1844 1.59313E+00
 -1      1845 1.45426E+00
 -1      1846 1.61752E+00
 -1      1847 1.32197E+00
 -1      1848 1.17181E+00
 -1      1849 1.34568E+00
 -1      1850 1.04259E+00
 -1      1851 9.05280E-01
 -1      1852 1.08418E+00
 -1      1853 7.91951E-01
 -1      1854 6.77364E-01
 -1      1855 8.41629E-01
 -1      1856 5.84134E-01
 -1      1857 4.93804E-01
 -1      1858 6.35069E-01
 -1      1859 4.20221E-01
 -1      1860 3.56140E-01
 -1      1861 4.68256E-01
 -1      1862 2.99706E-01
 -1      1863 2.60834E-01
 -1      1864 3.38240E-01
 -1      1865 2.18470E-01
 -1      1866 1.87726E-01
 -1      1867 2.39442E-01
 -1      1868 1.56478E-01
 -1      1869 1.32603E-01
 -1      1870 1.65830E-01
 -1      1871 1.12356E-01
 -1      1872 9.51359E-02
 -1      1873 1.14334E-01
 -1      1874 8.16553E-02
 -1      1875 7.21295E-02
 -1      1876 8.06057E-02
 -1      1877 6.29110E-02
 -1      1878 5.48122E-02
 -1      1879 5.79065E-02
 -1      1880 4.93529E-02
 -1      1881 4.26044E-02
 -1      1882 4.32285E-02
 -1      1883 3.91531E-02
 -1      1884 3.36256E-02
 -1      1885 3.43178E-02
 -1      1886 3.05790E-02
 -1      1887 2.61860E-02
 -1      1888 2.78199E-02
 -1      1889 2.35714E-02
 -1      1890 2.05293E-02
 -1      1891 2.21587E-02
 -1      1892 1.83359E-02
 -1      1893 1.59866E-02
 -1      1894 1.73507E-02
 -1      1895 1.44035E-02
 -1      1896 1.28199E-02
 -1      1897 1.35743E-02
 -1      1898 1.18087E-02
 -1      1899 1.04228E-02
 -1      1900 1.09799E-02
 -1      1901 9.57393E-03
 -1      1902 8.45627E-03
 -1      1903 9.11973E-03
 -1      1904 7.67485E-03
 -1      1905 6.79492E-03
 -1      1906 7.48941E-03
 -1      1907 6.15697E-03
 -1      1908 5.43036E-03
 -1      1909 6.07003E-03
 -1      1910 4.88833E-03
 -1      1911 4.33248E-03
 -1      1912 4.89004E-03
 -1      1913 3.84899E-03
 -1      1914 3.35803E-03
 -1      1915 3.86452E-03
 -1      1916 2.95450E-03
 -1      1917 2.53026E-03
 -1      1918 2.97749E-03
 -1      1919 2.19973E-03
 -1      1920 1.91644E-03
 -1      1921 2.24342E-03
 -1      1922 1.65065E-03
 -1      1923 1.46045E-03
 -1      1924 1.64710E-03
 -1      1925 1.31291E-03
 -1      1926 1.13575E-03
 -1      1927 1.23376E-03
 -1      1928 9.76715E-04
 -1      1929 8.37378E-04
 -1      1930 9.27186E-04
 -1      1931 7.87708E-04
 -1      1932 7.59007E-01
 -1      1933 7.76284E-01
 -1      1934 9.62903E-01
 -1      1935 8.30663E-01
 -1      1936 7.93613E-01
 -1      1937 1.26075E+00
 -1      1938 1.10833E+00
 -1      1939 1.01069E+00
 -1      1940 1.60293E+00
 -1      1941 1.40853E+00
 -1      1942 1.30389E+00
 -1      1943 1.88400E+00
 -1      1944 1.75419E+00
 -1      1945 1.60293E+00
 -1      1946 2.07695E+00
 -1      1947 2.01381E+00
 -1      1948 1.88400E+00
 -1      1949 2.21474E+00
 -1      1950 2.08535E+00
 -1      1951 2.02220E+00
 -1      1952 2.35009E+00
 -1      1953 2.21295E+00
 -1      1954 2.02880E+00
 -1      1955 2.33935E+00
 -1      1956 2.33212E+00
 -1      1957 2.00903E+00
 -1      1958 1.96234E+00
 -1      1959 2.18916E+00
 -1      1960 1.84086E+00
 -1      1961 1.42881E+00
 -1      1962 1.76736E+00
 -1      1963 1.49569E+00
 -1      1964 9.49414E-01
 -1      1965 1.23596E+00
 -1      1966 1.10786E+00
 -1      1967 6.10614E-01
 -1      1968 7.64776E-01
 -1      1969 7.30369E-01
 -1      1970 4.29895E-01
 -1      1971 5.10390E-01
 -1      1972 4.45507E-01
 -1      1973 4.38126E-01
 -1      1974 4.41953E-01
 -1      1975 3.57340E-01
 -1      1976 5.00339E-01
 -1      1977 4.67840E-01
 -1      1978 3.99112E-01
 -1      1979 5.05784E-01
 -1      1980 5.06631E-01
 -1      1981 4.35119E-01
 -1      1982 4.58877E-01
 -1      1983 4.87698E-01
 -1      1984 4.23325E-01
 -1      1985 3.90221E-01
 -1      1986 4.32242E-01
 -1      1987 3.78604E-01
 -1      1988 3.32178E-01
 -1      1989 3.67981E-01
 -1      1990 3.29728E-01
 -1      1991 2.78903E-01
 -1      1992 3.11294E-01
 -1      1993 2.86604E-01
 -1      1994 2.23102E-01
 -1      1995 2.55060E-01
 -1      1996 2.41877E-01
 -1      1997 1.70828E-01
 -1      1998 1.99615E-01
 -1      1999 1.94548E-01
 -1      2000 1.30606E-01
 -1      2001 1.49640E-01
 -1      2002 1.49873E-01
 -1      2003 9.85518E-02
 -1      2004 1.14577E-01
 -1      2005 1.12656E-01
 -1      2006 7.31628E-02
 -1      2007 8.65668E-02
 -1      2008 8.46419E-02
 -1      2009 5.29385E-02
 -1      2010 6.33036E-02
 -1      2011 6.27977E-02
 -1      2012 3.87128E-02
 -1      2013 4.58753E-02
 -1      2014 4.58753E-02
 -1      2015 3.27620E-02
 -1      2016 3.56877E-02
 -1      2017 3.57871E-02
 -1      2018 2.70607E-02
 -1      2019 2.99113E-02
 -1      2020 2.99113E-02
 -1      2021 2.18295E-02
 -1      2022 2.44451E-02
 -1      2023 2.44451E-02
 -1      2024 1.72291E-02
 -1      2025 1.95293E-02
 -1      2026 1.95293E-02
 -1      2027 1.37104E-02
 -1      2028 1.52709E-02
 -1      2029 1.52709E-02
 -1      2030 1.15809E-02
 -1      2031 1.24956E-02
 -1      2032 1.20980E-02
 -1      2033 9.78837E-03
 -1      2034 1.07360E-02
 -1      2035 1.00384E-02
 -1      2036 8.06946E-03
 -1      2037 8.97559E-03
 -1      2038 8.38072E-03
 -1      2039 6.50214E-03
 -1      2040 7.32602E-03
 -1      2041 6.82450E-03
 -1      2042 5.23460E-03
 -1      2043 5.91821E-03
 -1      2044 5.49713E-03
 -1      2045 4.14868E-03
 -1      2046 4.71834E-03
 -1      2047 4.39693E-03
 -1      2048 3.23452E-03
 -1      2049 3.73546E-03
 -1      2050 3.46744E-03
 -1      2051 2.47826E-03
 -1      2052 2.88602E-03
 -1      2053 2.70571E-03
 -1      2054 1.81664E-03
 -1      2055 2.17331E-03
 -1      2056 2.05226E-03
 -1      2057 1.40722E-03
 -1      2058 1.59635E-03
 -1      2059 1.52702E-03
 -1      2060 1.01859E-03
 -1      2061 1.24272E-03
 -1      2062 1.14223E-03
 -1      2063 7.22288E-04
 -1      2064 9.37724E-04
 -1      2065 8.96866E-04
 -1      2066 6.70805E-04
 -1      2067 2.90789E-04
 -1      2068 3.46171E-04
 -1      2069 6.26268E-04
 -1      2070 7.28366E-04
 -1      2071 6.51026E-04
 -1      2072 6.70805E-04
 -1      2073 4.04490E-04
 -1      2074 3.37305E-04
 -1      2075 4.17445E-04
 -1      2076 5.05460E-04
 -1      2077 4.63413E-04
 -1      2078 5.22884E-04
 -1      2079 5.51450E-04
 -1      2080 5.34254E-04
 -1      2081 6.10601E-04
 -1      2082 5.51450E-04
 -1      2083 5.51450E-04
 -1      2084 6.39396E-04
 -1      2085 5.50953E-04
 -1      2086 5.50968E-04
 -1      2087 6.38914E-04
 -1      2088 5.33454E-04
 -1      2089 5.50953E-04
 -1      2090 6.38431E-04
 -1      2091 4.66861E-04
 -1      2092 5.07788E-04
 -1      2093 6.12765E-04
 -1      2094 3.40160E-04
 -1      2095 4.06055E-04
 -1      2096 5.26294E-04
 -1      2097 3.43304E-04
 -1      2098 2.90170E-04
 -1      2099 4.15498E-04
 -1      2100 6.00880E-04
 -1      2101 4.27022E-04
 -1      2102 4.49226E-04
 -1      2103 8.20789E-01
 -1      2104 1.20607E+00
 -1      2105 1.17385E+00
 -1      2106 7.66463E-01
 -1      2107 3.79833E+01
 -1      2108 2.90196E+01
 -1      2109 1.01878E+01
 -1      2110 1.48214E+01
 -1      2111 3.20462E+01
 -1      2112 3.20462E+01
 -1      2113 1.83059E+01
 -1      2114 3.16145E+01
 -1      2115 2.51634E+00
 -1      2116 2.67027E+00
 -1      2117 2.83276E+00
 -1      2118 2.47801E+00
 -1      2119 9.50443E+00
 -1      2120 9.21643E+00
 -1      2121 1.07503E+01
 -1      2122 1.06322E+01
 -1      2123 1.09720E+01
 -1      2124 1.10429E+01
 -1      2125 1.20678E+01
 -1      2126 1.14288E+01
 -1      2127 1.05581E+01
 -1      2128 1.10865E+01
 -1      2129 9.25338E+00
 -1      2130 9.33578E+00
 -1      2131 1.75881E+01
 -1      2132 1.11843E+01
 -1      2133 8.64814E+00
 -1      2134 3.34684E+01
 -1      2135 2.13173E+01
 -1      2136 3.07734E+01
 -1      2137 3.98363E+01
 -1      2138 3.26195E+01
 -1      2139 3.17926E+01
 -1      2140 3.26195E+01
 -1      2141 3.26195E+01
 -1      2142 3.28119E+01
 -1      2143 3.23523E+01
 -1      2144 2.88094E+01
 -1      2145 3.59622E+01
 -1      2146 3.31296E+01
 -1      2147 2.59691E+01
 -1      2148 1.68537E+01
 -1      2149 3.00224E+01
 -1      2150 1.01118E+01
 -1      2151 1.39656E+01
 -1      2152 1.01088E+01
 -1      2153 8.90920E+00
 -1      2154 7.88797E+00
 -1      2155 1.16207E+01
 -1      2156 1.20639E+01
 -1      2157 1.15757E+01
 -1      2158 1.18077E+01
 -1      2159 1.13104E+01
 -1      2160 1.12980E+01
 -1      2161 9.82895E+00
 -1      2162 1.03669E+01
 -1      2163 1.00070E+01
 -1      2164 9.13535E+00
 -1      2165 2.15105E+01
 -1      2166 1.24693E+01
 -1      2167 2.69383E+01
 -1      2168 2.58913E+01
 -1      2169 3.30504E+01
 -1      2170 3.30504E+01
 -1      2171 2.69383E+01
 -1      2172 3.20462E+01
 -1      2173 3.36728E+01
 -1      2174 2.89539E+01
 -1      2175 2.93428E+01
 -1      2176 7.18485E-04
 -1      2177 1.27974E+01
 -1      2178 2.65148E+00
 -1      2179 2.26508E+01
 -1      2180 8.34152E+00
 -1      2181 2.69956E+00
 -1      2182 8.73562E-04
 -1      2183 3.15917E+01
 -1      2184 7.18485E-04
 -1      2185 2.89539E+01
 -1      2186 3.42952E+01
 -1      2187 2.85791E+01
 -1      2188 2.85791E+01
 -1      2189 2.92015E+01
 -1      2190 1.64453E+01
 -1      2191 9.60214E+00
 -1      2192 7.83337E+00
 -1      2193 9.47051E+00
 -1      2194 1.06918E+01
 -1      2195 1.07506E+01
 -1      2196 7.32723E+00
 -1      2197 9.28232E+00
 -1      2198 2.95985E+01
 -1      2199 2.03827E+01
 -1      2200 1.44428E+01
 -1      2201 3.17274E+01
 -1      2202 3.19198E+01
 -1      2203 2.81098E+01
 -1      2204 3.17926E+01
 -1      2205 1.43083E+01
 -1      2206 7.93954E+00
 -1      2207 1.01432E+01
 -1      2208 1.06678E+01
 -1      2209 8.49791E+00
 -1      2210 9.91835E+00
 -1      2211 2.44054E+01
 -1      2212 1.19786E+01
 -1      2213 1.07826E+01
 -1      2214 6.50550E-04
 -1      2215 1.43676E+00
 -1      2216 1.71140E+00
 -1      2217 1.91568E+00
 -1      2218 2.17823E+00
 -1      2219 2.02893E+00
 -1      2220 1.45263E+00
 -1      2221 1.37062E+00
 -1      2222 1.45263E+00
 -1      2223 1.45263E+00
 -1      2224 1.57920E+00
 -1      2225 1.33277E+00
 -1      2226 1.36949E+00
 -1      2227 1.49606E+00
 -1      2228 1.34977E+00
 -1      2229 1.31894E+00
 -1      2230 1.39910E+00
 -1      2231 1.28299E+00
 -1      2232 1.24793E+00
 -1      2233 1.28343E+00
 -1      2234 1.26176E+00
 -1      2235 1.19105E+00
 -1      2236 1.08965E+00
 -1      2237 1.28294E+00
 -1      2238 1.21830E+00
 -1      2239 9.54247E-01
 -1      2240 1.48228E+00
 -1      2241 1.37991E+00
 -1      2242 1.00776E+00
 -1      2243 1.32074E+00
 -1      2244 2.32609E+00
 -1      2245 2.21707E+00
 -1      2246 1.48753E+01
 -1      2247 2.12442E+01
 -1      2248 8.97981E+00
 -1      2249 1.24643E+01
 -1      2250 2.31807E+00
 -1      2251 2.43161E+00
 -1      2252 2.50552E+00
 -1      2253 2.69926E+00
 -1      2254 2.81297E+00
 -1      2255 2.87417E+00
 -1      2256 3.30815E+00
 -1      2257 3.33974E+00
 -1      2258 3.63699E+00
 -1      2259 3.60952E+00
 -1      2260 3.97601E+00
 -1      2261 4.40195E+00
 -1      2262 4.65367E+00
 -1      2263 5.15108E+00
 -1      2264 5.34939E+00
 -1      2265 6.12209E+00
 -1      2266 6.67753E+00
 -1      2267 7.96907E+00
 -1      2268 8.65088E+00
 -1      2269 6.90438E+00
 -1      2270 4.32057E+00
 -1      2271 3.63875E+00
 -1      2272 3.67383E+00
 -1      2273 3.61016E+00
 -1      2274 3.83731E+00
 -1      2275 3.59931E+00
 -1      2276 4.46239E+00
 -1      2277 3.21219E+00
 -1      2278 3.14342E+00
 -1      2279 4.30241E+00
 -1      2280 2.68647E+00
 -1      2281 2.56503E+00
 -1      2282 3.45834E+00
 -1      2283 2.24573E+00
 -1      2284 2.16476E+00
 -1      2285 2.68209E+00
 -1      2286 2.01366E+00
 -1      2287 1.90884E+00
 -1      2288 2.21170E+00
 -1      2289 1.73720E+00
 -1      2290 1.59765E+00
 -1      2291 1.88896E+00
 -1      2292 1.43102E+00
 -1      2293 1.29873E+00
 -1      2294 1.55069E+00
 -1      2295 1.15034E+00
 -1      2296 1.02112E+00
 -1      2297 1.23568E+00
 -1      2298 8.95983E-01
 -1      2299 7.82654E-01
 -1      2300 9.62148E-01
 -1      2301 6.80856E-01
 -1      2302 5.87626E-01
 -1      2303 7.35211E-01
 -1      2304 5.06927E-01
 -1      2305 4.33344E-01
 -1      2306 5.52714E-01
 -1      2307 3.70606E-01
 -1      2308 3.14172E-01
 -1      2309 4.09276E-01
 -1      2310 2.66161E-01
 -1      2311 2.23797E-01
 -1      2312 2.98527E-01
 -1      2313 1.87557E-01
 -1      2314 1.56308E-01
 -1      2315 2.14276E-01
 -1      2316 1.29302E-01
 -1      2317 1.09054E-01
 -1      2318 1.51029E-01
 -1      2319 8.91884E-02
 -1      2320 7.57077E-02
 -1      2321 1.04156E-01
 -1      2322 6.12977E-02
 -1      2323 5.20792E-02
 -1      2324 6.98804E-02
 -1      2325 4.17919E-02
 -1      2326 3.63325E-02
 -1      2327 4.51832E-02
 -1      2328 3.09061E-02
 -1      2329 2.74548E-02
 -1      2330 2.94695E-02
 -1      2331 2.42468E-02
 -1      2332 2.12002E-02
 -1      2333 2.08350E-02
 -1      2334 1.99570E-02
 -1      2335 1.73424E-02
 -1      2336 1.63839E-02
 -1      2337 1.61077E-02
 -1      2338 1.39144E-02
 -1      2339 1.39060E-02
 -1      2340 1.27628E-02
 -1      2341 1.11797E-02
 -1      2342 1.15198E-02
 -1      2343 1.01498E-02
 -1      2344 9.13855E-03
 -1      2345 9.33838E-03
 -1      2346 8.38412E-03
 -1      2347 7.53523E-03
 -1      2348 7.55405E-03
 -1      2349 6.99052E-03
 -1      2350 6.20909E-03
 -1      2351 6.25491E-03
 -1      2352 5.75100E-03
 -1      2353 5.11305E-03
 -1      2354 5.25212E-03
 -1      2355 4.67140E-03
 -1      2356 4.12936E-03
 -1      2357 4.35238E-03
 -1      2358 3.77267E-03
 -1      2359 3.28918E-03
 -1      2360 3.55403E-03
 -1      2361 2.96691E-03
 -1      2362 2.56337E-03
 -1      2363 2.87506E-03
 -1      2364 2.28344E-03
 -1      2365 1.95291E-03
 -1      2366 2.27286E-03
 -1      2367 1.71512E-03
 -1      2368 1.44933E-03
 -1      2369 1.75514E-03
 -1      2370 1.23968E-03
 -1      2371 1.09213E-03
 -1      2372 1.30770E-03
 -1      2373 9.40012E-04
 -1      2374 7.80981E-04
 -1      2375 6.63376E-04
 -1      2376 9.45930E-04
 -1      2377 1.32115E+00
 -1      2378 1.17337E+00
 -1      2379 1.01974E+00
 -1      2380 8.74316E-01
 -1      2381 1.03699E+00
 -1      2382 7.42477E-01
 -1      2383 6.70821E-01
 -1      2384 7.51524E-01
 -1      2385 1.57204E+00
 -1      2386 1.42078E+00
 -1      2387 1.29026E+00
 -1      2388 1.76100E+00
 -1      2389 1.63120E+00
 -1      2390 1.44904E+00
 -1      2391 1.77392E+00
 -1      2392 1.76553E+00
 -1      2393 1.51273E+00
 -1      2394 1.70313E+00
 -1      2395 1.70492E+00
 -1      2396 1.44825E+00
 -1      2397 1.73360E+00
 -1      2398 1.75158E+00
 -1      2399 1.42770E+00
 -1      2400 1.56221E+00
 -1      2401 1.71240E+00
 -1      2402 1.45495E+00
 -1      2403 1.29183E+00
 -1      2404 1.48681E+00
 -1      2405 1.35835E+00
 -1      2406 9.86488E-01
 -1      2407 1.17934E+00
 -1      2408 1.17046E+00
 -1      2409 6.66008E-01
 -1      2410 8.50646E-01
 -1      2411 9.22127E-01
 -1      2412 4.34885E-01
 -1      2413 5.35110E-01
 -1      2414 6.55386E-01
 -1      2415 4.19981E-01
 -1      2416 4.07923E-01
 -1      2417 4.97525E-01
 -1      2418 4.08359E-01
 -1      2419 3.78644E-01
 -1      2420 4.29227E-01
 -1      2421 4.16553E-01
 -1      2422 4.10260E-01
 -1      2423 3.89793E-01
 -1      2424 3.95357E-01
 -1      2425 4.13442E-01
 -1      2426 3.88584E-01
 -1      2427 3.54167E-01
 -1      2428 3.80803E-01
 -1      2429 3.70920E-01
 -1      2430 3.16657E-01
 -1      2431 3.38897E-01
 -1      2432 3.41096E-01
 -1      2433 2.76133E-01
 -1      2434 2.97018E-01
 -1      2435 3.06186E-01
 -1      2436 2.30706E-01
 -1      2437 2.54549E-01
 -1      2438 2.64962E-01
 -1      2439 1.84632E-01
 -1      2440 2.08119E-01
 -1      2441 2.20791E-01
 -1      2442 1.42116E-01
 -1      2443 1.63304E-01
 -1      2444 1.76876E-01
 -1      2445 1.07261E-01
 -1      2446 1.23289E-01
 -1      2447 1.36721E-01
 -1      2448 7.94657E-02
 -1      2449 9.14507E-02
 -1      2450 1.02084E-01
 -1      2451 5.68539E-02
 -1      2452 6.67131E-02
 -1      2453 7.35220E-02
 -1      2454 3.98585E-02
 -1      2455 4.69216E-02
 -1      2456 5.08371E-02
 -1      2457 3.03529E-02
 -1      2458 3.33780E-02
 -1      2459 3.44243E-02
 -1      2460 2.32684E-02
 -1      2461 2.61190E-02
 -1      2462 2.37099E-02
 -1      2463 1.91711E-02
 -1      2464 2.17867E-02
 -1      2465 1.79944E-02
 -1      2466 1.57565E-02
 -1      2467 1.80567E-02
 -1      2468 1.53983E-02
 -1      2469 1.26598E-02
 -1      2470 1.46180E-02
 -1      2471 1.31454E-02
 -1      2472 1.03627E-02
 -1      2473 1.15774E-02
 -1      2474 1.09245E-02
 -1      2475 8.53686E-03
 -1      2476 9.38175E-03
 -1      2477 8.86115E-03
 -1      2478 7.12745E-03
 -1      2479 7.94022E-03
 -1      2480 7.28359E-03
 -1      2481 5.89471E-03
 -1      2482 6.63815E-03
 -1      2483 6.19765E-03
 -1      2484 4.81932E-03
 -1      2485 5.40325E-03
 -1      2486 5.21690E-03
 -1      2487 3.85558E-03
 -1      2488 4.37184E-03
 -1      2489 4.27797E-03
 -1      2490 3.06401E-03
 -1      2491 3.47723E-03
 -1      2492 3.45215E-03
 -1      2493 2.36903E-03
 -1      2494 2.71753E-03
 -1      2495 2.72733E-03
 -1      2496 1.77402E-03
 -1      2497 2.07897E-03
 -1      2498 2.09079E-03
 -1      2499 1.32510E-03
 -1      2500 1.54539E-03
 -1      2501 1.57210E-03
 -1      2502 9.80677E-04
 -1      2503 1.14518E-03
 -1      2504 1.16354E-03
 -1      2505 9.54428E-04
 -1      2506 6.50965E-04
 -1      2507 5.92043E-04
 -1      2508 5.20013E-04
 -1      2509 4.73497E-04
 -1      2510 6.48095E-04
 -1      2511 5.36477E-04
 -1      2512 8.16574E-04
 -1      2513 6.39046E-04
 -1      2514 2.88882E+01
 -1      2515 3.15917E+01
 -1      2516 7.30220E-04
 -1      2517 7.01425E-04
 -1      2518 7.70584E-04
 -1      2519 7.30220E-04
 -1      2520 7.30220E-04
 -1      2521 8.21043E-04
 -1      2522 7.26966E-04
 -1      2523 7.27448E-04
 -1      2524 8.18272E-04
 -1      2525 7.29068E-04
 -1      2526 7.29068E-04
 -1      2527 8.17603E-04
 -1      2528 7.03402E-04
 -1      2529 7.29068E-04
 -1      2530 8.19705E-04
 -1      2531 6.04401E-04
 -1      2532 6.65207E-04
 -1      2533 7.81509E-04
 -1      2534 4.62778E-04
 -1      2535 5.12768E-04
 -1      2536 6.51681E-04
 -1      2537 5.16616E-04
 -1      2538 4.32897E-04
 -1      2539 5.30167E-04
 -1      2540 6.47047E-04
 -1      2541 2.99211E+00
 -1      2542 2.54021E+00
 -1      2543 2.61864E+00
 -1      2544 2.83276E+00
 -1      2545 6.28677E+00
 -1      2546 7.25816E+00
 -1      2547 3.42952E+01
 -1      2548 3.42952E+01
 -1      2549 1.52616E+01
 -1      2550 1.08808E+01
 -1      2551 2.72339E+01
 -1      2552 2.62146E+01
 -1      2553 5.49455E+00
 -1      2554 6.71691E+00
 -1      2555 1.25294E+00
 -1      2556 1.19636E+00
 -1      2557 1.58424E+00
 -1      2558 1.46152E+00
 -1      2559 8.63345E+00
 -1      2560 8.34081E+00
 -1      2561 2.22073E+01
 -1      2562 1.58393E+01
 -1      2563 7.47231E+00
 -1      2564 6.34451E+00
 -1      2565 9.54903E+00
 -1      2566 9.09225E+00
 -1      2567 7.82451E+00
 -1      2568 8.80583E+00
 -1      2569 8.17760E+00
 -1      2570 6.24664E+00
 -1      2571 8.29867E+00
 -1      2572 1.11868E+01
 -1      2573 1.35211E+01
 -1      2574 9.79189E+00
 -1      2575 7.39039E+00
 -1      2576 3.28119E+01
 -1      2577 3.28119E+01
 -1      2578 2.36606E+01
 -1      2579 2.28833E+01
 -1      2580 5.40651E+00
 -1      2581 6.60908E+00
 -1      2582 5.81721E+00
 -1      2583 9.87337E+00
 -1      2584 1.01512E+01
 -1      2585 5.37903E+00
 -1      2586 6.07263E+00
 -1      2587 9.75007E+00
 -1      2588 7.28771E+00
 -1      2589 5.52696E+00
 -1      2590 2.46316E+01
 -1      2591 1.85195E+01
 -1      2592 2.46620E+01
 -1      2593 2.45963E+01
 -1      2594 9.57373E-04
 -1      2595 2.75428E+00
 -1      2596 2.69929E+00
 -1      2597 3.05405E+00
 -1      2598 5.26116E+00
 -1      2599 1.08734E+00
 -1      2600 8.71334E-01
 -1      2601 7.24451E-01
 -1      2602 1.10577E+01
 -1      2603 1.68866E+01
 -1      2604 8.56633E+00
 -1      2605 6.99806E+00
 -1      2606 4.20016E+00
 -1      2607 3.15917E+01
 -1      2608 2.45963E+01
 -1      2609 1.29549E+01
 -1      2610 6.04835E+00
 -1      2611 2.83276E+00
 -1      2612 6.18741E+00
 -1      2613 5.58209E-01
 -1      2614 6.02715E-01
 -1      2615 5.16197E-01
 -1      2616 5.07073E-01
 -1      2617 1.92510E+01
 -1      2618 1.61652E+01
 -1      2619 1.28873E+01
 -1      2620 1.13229E+01
 -1      2621 8.42824E-04
 -1      2622 2.92015E+01
 -1      2623 1.76485E+01
 -1      2624 2.72339E+01
 -1      2625 5.37952E+00
 -1      2626 9.14212E+00
 -1      2627 7.56661E+00
 -1      2628 6.82341E+00
 -1      2629 1.22295E+01
 -1      2630 1.18057E+01
 -1      2631 8.54957E+00
 -1      2632 2.58012E+01
 -1      2633 5.02401E+00
 -1      2634 6.92506E+00
 -1      2635 6.74888E+00
 -1      2636 7.51472E+00
 -1      2637 2.70679E+01
 -1      2638 2.70679E+01
 -1      2639 2.61758E+01
 -1      2640 9.53802E+00
 -1      2641 9.35100E+00
 -1      2642 4.79743E+00
 -1      2643 7.25177E+00
 -1      2644 8.19531E+00
 -1      2645 2.01603E+01
 -1      2646 8.71957E+00
 -1      2647 1.64934E+00
 -1      2648 1.73248E+00
 -1      2649 1.84708E+00
 -1      2650 1.84708E+00
 -1      2651 2.00036E+00
 -1      2652 1.29075E+00
 -1      2653 1.39259E+00
 -1      2654 9.96970E-01
 -1      2655 1.08891E+00
 -1      2656 1.19807E+00
 -1      2657 1.00495E+00
 -1      2658 9.07974E-01
 -1      2659 7.71545E-01
 -1      2660 4.22842E+00
 -1      2661 4.17067E+00
 -1      2662 1.20788E+01
 -1      2663 1.54967E+01
 -1      2664 8.40594E+00
 -1      2665 7.27525E+00
 -1      2666 3.23048E+00
 -1      2667 3.49812E+00
 -1      2668 3.83383E+00
 -1      2669 4.32900E+00
 -1      2670 4.19014E+00
 -1      2671 5.82228E+00
 -1      2672 6.09206E+00
 -1      2673 6.01911E+00
 -1      2674 8.03775E+00
 -1      2675 3.31105E+00
 -1      2676 3.09693E+00
 -1      2677 5.79493E+00
 -1      2678 5.40781E+00
 -1      2679 4.25474E+00
 -1      2680 3.79779E+00
 -1      2681 5.74726E+00
 -1      2682 3.36134E+00
 -1      2683 3.04204E+00
 -1      2684 4.15774E+00
 -1      2685 2.54548E+00
 -1      2686 2.39439E+00
 -1      2687 3.22473E+00
 -1      2688 2.03124E+00
 -1      2689 1.85960E+00
 -1      2690 2.36502E+00
 -1      2691 1.61332E+00
 -1      2692 1.44669E+00
 -1      2693 1.75559E+00
 -1      2694 1.27124E+00
 -1      2695 1.12285E+00
 -1      2696 1.33386E+00
 -1      2697 9.76234E-01
 -1      2698 8.51094E-01
 -1      2699 1.01180E+00
 -1      2700 7.38098E-01
 -1      2701 6.36301E-01
 -1      2702 7.52184E-01
 -1      2703 5.58254E-01
 -1      2704 4.77554E-01
 -1      2705 5.61141E-01
 -1      2706 4.17239E-01
 -1      2707 3.54501E-01
 -1      2708 4.22779E-01
 -1      2709 3.07876E-01
 -1      2710 2.59866E-01
 -1      2711 3.15839E-01
 -1      2712 2.23991E-01
 -1      2713 1.87751E-01
 -1      2714 2.33341E-01
 -1      2715 1.60359E-01
 -1      2716 1.33353E-01
 -1      2717 1.70075E-01
 -1      2718 1.12642E-01
 -1      2719 9.27761E-02
 -1      2720 1.21973E-01
 -1      2721 7.72953E-02
 -1      2722 6.28852E-02
 -1      2723 8.57809E-02
 -1      2724 5.14654E-02
 -1      2725 4.11782E-02
 -1      2726 5.88803E-02
 -1      2727 3.28815E-02
 -1      2728 2.74551E-02
 -1      2729 3.91638E-02
 -1      2730 2.15348E-02
 -1      2731 1.83268E-02
 -1      2732 2.49468E-02
 -1      2733 1.46707E-02
 -1      2734 1.34275E-02
 -1      2735 1.53704E-02
 -1      2736 1.23978E-02
 -1      2737 1.11632E-02
 -1      2738 1.06846E-02
 -1      2739 1.07990E-02
 -1      2740 9.64748E-03
 -1      2741 9.29081E-03
 -1      2742 9.13465E-03
 -1      2743 8.10475E-03
 -1      2744 8.41385E-03
 -1      2745 7.53483E-03
 -1      2746 6.78039E-03
 -1      2747 7.33109E-03
 -1      2748 6.21101E-03
 -1      2749 5.66630E-03
 -1      2750 6.19179E-03
 -1      2751 5.21890E-03
 -1      2752 4.76081E-03
 -1      2753 5.17500E-03
 -1      2754 4.39432E-03
 -1      2755 3.95266E-03
 -1      2756 4.36110E-03
 -1      2757 3.58929E-03
 -1      2758 3.23259E-03
 -1      2759 3.63123E-03
 -1      2760 2.89206E-03
 -1      2761 2.56979E-03
 -1      2762 2.92733E-03
 -1      2763 2.27950E-03
 -1      2764 1.99956E-03
 -1      2765 2.29650E-03
 -1      2766 1.75514E-03
 -1      2767 1.51735E-03
 -1      2768 1.76178E-03
 -1      2769 1.30957E-03
 -1      2770 1.09991E-03
 -1      2771 1.30957E-03
 -1      2772 9.59643E-04
 -1      2773 8.07521E-04
 -1      2774 6.60760E-04
 -1      2775 9.61506E-04
 -1      2776 1.09456E+00
 -1      2777 9.40926E-01
 -1      2778 1.31997E+00
 -1      2779 1.22034E+00
 -1      2780 1.12428E+00
 -1      2781 1.11985E+00
 -1      2782 9.88015E-01
 -1      2783 1.17742E+00
 -1      2784 1.59908E+00
 -1      2785 1.59455E+00
 -1      2786 1.59253E+00
 -1      2787 1.66153E+00
 -1      2788 1.74336E+00
 -1      2789 1.62414E+00
 -1      2790 1.57569E+00
 -1      2791 1.78897E+00
 -1      2792 1.58373E+00
 -1      2793 1.60492E+00
 -1      2794 1.75292E+00
 -1      2795 1.32869E+00
 -1      2796 1.40409E+00
 -1      2797 1.55406E+00
 -1      2798 1.16037E+00
 -1      2799 1.27286E+00
 -1      2800 1.31860E+00
 -1      2801 9.27828E-01
 -1      2802 1.06367E+00
 -1      2803 1.16607E+00
 -1      2804 6.95532E-01
 -1      2805 8.26431E-01
 -1      2806 9.67973E-01
 -1      2807 6.12347E-01
 -1      2808 6.39309E-01
 -1      2809 8.10354E-01
 -1      2810 4.86571E-01
 -1      2811 5.27907E-01
 -1      2812 6.69691E-01
 -1      2813 4.51806E-01
 -1      2814 4.49904E-01
 -1      2815 5.48585E-01
 -1      2816 4.27808E-01
 -1      2817 4.30919E-01
 -1      2818 4.91030E-01
 -1      2819 3.83775E-01
 -1      2820 3.98329E-01
 -1      2821 4.40664E-01
 -1      2822 3.41096E-01
 -1      2823 3.56366E-01
 -1      2824 3.83775E-01
 -1      2825 2.99554E-01
 -1      2826 3.19194E-01
 -1      2827 3.34464E-01
 -1      2828 2.54262E-01
 -1      2829 2.75846E-01
 -1      2830 2.88854E-01
 -1      2831 2.07778E-01
 -1      2832 2.30365E-01
 -1      2833 2.41249E-01
 -1      2834 1.64189E-01
 -1      2835 1.85518E-01
 -1      2836 1.95092E-01
 -1      2837 1.25757E-01
 -1      2838 1.44584E-01
 -1      2839 1.53226E-01
 -1      2840 9.33908E-02
 -1      2841 1.09201E-01
 -1      2842 1.17064E-01
 -1      2843 6.71237E-02
 -1      2844 7.98763E-02
 -1      2845 8.69926E-02
 -1      2846 4.64792E-02
 -1      2847 5.64115E-02
 -1      2848 6.27658E-02
 -1      2849 3.17340E-02
 -1      2850 3.82145E-02
 -1      2851 4.37889E-02
 -1      2852 2.12897E-02
 -1      2853 2.55236E-02
 -1      2854 2.93138E-02
 -1      2855 1.52672E-02
 -1      2856 1.67490E-02
 -1      2857 1.85626E-02
 -1      2858 1.18616E-02
 -1      2859 1.29759E-02
 -1      2860 1.17305E-02
 -1      2861 1.04061E-02
 -1      2862 1.15447E-02
 -1      2863 9.12231E-03
 -1      2864 8.97169E-03
 -1      2865 1.00541E-02
 -1      2866 8.45335E-03
 -1      2867 7.51219E-03
 -1      2868 8.49311E-03
 -1      2869 7.62274E-03
 -1      2870 6.38781E-03
 -1      2871 6.98445E-03
 -1      2872 6.61641E-03
 -1      2873 5.37219E-03
 -1      2874 5.86149E-03
 -1      2875 5.56235E-03
 -1      2876 4.51659E-03
 -1      2877 5.00805E-03
 -1      2878 4.67188E-03
 -1      2879 3.72065E-03
 -1      2880 4.16812E-03
 -1      2881 3.95926E-03
 -1      2882 3.00626E-03
 -1      2883 3.38460E-03
 -1      2884 3.27475E-03
 -1      2885 2.35709E-03
 -1      2886 2.70357E-03
 -1      2887 2.63602E-03
 -1      2888 1.80483E-03
 -1      2889 2.09489E-03
 -1      2890 2.07113E-03
 -1      2891 1.34350E-03
 -1      2892 1.57213E-03
 -1      2893 1.57623E-03
 -1      2894 9.95101E-04
 -1      2895 1.17502E-03
 -1      2896 1.17506E-03
 -1      2897 8.54303E-04
 -1      2898 7.92895E-04
 -1      2899 7.20866E-04
 -1      2900 9.29572E-04
 -1      2901 9.29572E-04
 -1      2902 7.20866E-04
 -1      2903 7.83846E-04
 -1      2904 9.36123E-04
 -1      2905 8.65666E-04
 -1      2906 9.29572E-04
 -1      2907 8.79112E-04
 -1      2908 9.51884E-04
 -1      2909 1.03810E-03
 -1      2910 9.09017E-04
 -1      2911 9.06915E-04
 -1      2912 9.09017E-04
 -1      2913 9.09017E-04
 -1      2914 9.98330E-04
 -1      2915 8.69611E-04
 -1      2916 9.07806E-04
 -1      2917 9.97119E-04
 -1      2918 7.32126E-04
 -1      2919 8.23759E-04
 -1      2920 9.50056E-04
 -1      2921 8.52865E+00
 -1      2922 1.09397E+01
 -1      2923 1.78522E+01
 -1      2924 2.21441E+01
 -1      2925 1.65611E+01
 -1      2926 1.25537E+01
 -1      2927 8.03775E+00
 -1      2928 1.03795E+01
 -1      2929 8.06129E+00
 -1      2930 9.29205E+00
 -1      2931 3.83964E+00
 -1      2932 4.94724E+00
 -1      2933 9.10628E-04
 -1      2934 9.13399E-04
 -1      2935 1.00204E-03
 -1      2936 5.67505E+00
 -1      2937 5.90219E+00
 -1      2938 2.12819E+01
 -1      2939 2.39854E+01
 -1      2940 2.41069E+01
 -1      2941 1.85289E+01
 -1      2942 5.62050E+00
 -1      2943 4.75199E+00
 -1      2944 3.89168E+00
 -1      2945 5.07082E+00
 -1      2946 3.18642E+00
 -1      2947 3.28743E+00
 -1      2948 3.91138E+00
 -1      2949 3.87884E+00
 -1      2950 5.12034E+00
 -1      2951 6.84199E+00
 -1      2952 1.87010E+01
 -1      2953 2.39274E+01
 -1      2954 7.30221E+00
 -1      2955 5.68792E+00
 -1      2956 6.35882E+00
 -1      2957 4.74290E+00
 -1      2958 3.99081E+00
 -1      2959 1.54030E+00
 -1      2960 1.55412E+00
 -1      2961 1.79054E+00
 -1      2962 1.54761E+00
 -1      2963 7.65464E+00
 -1      2964 2.27415E+00
 -1      2965 2.47844E+00
 -1      2966 1.45011E+00
 -1      2967 1.39096E+00
 -1      2968 1.32104E+00
 -1      2969 1.53646E+00
 -1      2970 3.31105E+00
 -1      2971 1.85959E+01
 -1      2972 1.46484E+01
 -1      2973 1.33474E+01
 -1      2974 1.00895E+01
 -1      2975 6.94897E+00
 -1      2976 6.49017E+00
 -1      2977 5.05475E+00
 -1      2978 2.54133E+01
 -1      2979 2.03196E+01
 -1      2980 1.48076E+01
 -1      2981 3.92676E+00
 -1      2982 5.83544E+00
 -1      2983 2.11497E+00
 -1      2984 1.84708E+00
 -1      2985 1.72940E+00
 -1      2986 9.51430E-01
 -1      2987 3.66150E+00
 -1      2988 1.06740E+01
 -1      2989 1.30445E+01
 -1      2990 8.55237E+00
 -1      2991 7.13205E+00
 -1      2992 7.00759E+00
 -1      2993 7.80970E+00
 -1      2994 1.17830E+01
 -1      2995 1.11029E+01
 -1      2996 1.55124E+01
 -1      2997 1.36386E+01
 -1      2998 3.53234E+00
 -1      2999 1.02193E-03
 -1      3000 3.10077E+00
 -1      3001 3.62183E+00
 -1      3002 3.34599E+00
 -1      3003 9.54979E+00
 -1      3004 6.72394E+00
 -1      3005 6.98467E-04
 -1      3006 7.28348E-04
 -1      3007 9.00426E-04
 -1      3008 8.58941E-04
 -1      3009 1.10164E+00
 -1      3010 7.33314E-01
 -1      3011 1.45379E+01
 -1      3012 6.20702E-01
 -1      3013 1.83629E+01
 -1      3014 4.21212E+00
 -1      3015 5.75200E+00
 -1      3016 6.08830E+00
 -1      3017 1.54602E+01
 -1      3018 1.03653E+01
 -1      3019 1.23332E+01
 -1      3020 5.07734E+00
 -1      3021 3.55853E+00
 -1      3022 4.08761E+00
 -1      3023 9.50697E-01
 -1      3024 6.38354E+00
 -1      3025 6.79045E+00
 -1      3026 5.76590E+00
 -1      3027 8.79845E+00
 -1      3028 1.82444E+00
 -1      3029 2.06485E+00
 -1      3030 2.51435E+00
 -1      3031 2.21001E+00
 -1      3032 1.51035E+01
 -1      3033 6.76692E+00
 -1      3034 1.90755E+01
 -1      3035 4.65472E+00
 -1      3036 1.22720E+00
 -1      3037 1.42904E+00
 -1      3038 6.49809E-01
 -1      3039 3.23938E+00
 -1      3040 2.71581E+00
 -1      3041 9.63405E+00
 -1      3042 8.69119E+00
 -1      3043 1.72993E+01
 -1      3044 1.43384E+01
 -1      3045 5.31600E+00
 -1      3046 4.87955E+00
 -1      3047 3.62007E+00
 -1      3048 3.12351E+00
 -1      3049 4.77833E+00
 -1      3050 2.70575E+00
 -1      3051 2.34260E+00
 -1      3052 3.10109E+00
 -1      3053 1.99616E+00
 -1      3054 1.74988E+00
 -1      3055 2.33689E+00
 -1      3056 1.50164E+00
 -1      3057 1.32620E+00
 -1      3058 1.74222E+00
 -1      3059 1.13697E+00
 -1      3060 9.90351E-01
 -1      3061 1.30475E+00
 -1      3062 8.46448E-01
 -1      3063 7.33453E-01
 -1      3064 9.71620E-01
 -1      3065 6.24559E-01
 -1      3066 5.46512E-01
 -1      3067 7.18823E-01
 -1      3068 4.64387E-01
 -1      3069 4.04072E-01
 -1      3070 5.27805E-01
 -1      3071 3.42424E-01
 -1      3072 2.95800E-01
 -1      3073 3.84033E-01
 -1      3074 2.49783E-01
 -1      3075 2.13909E-01
 -1      3076 2.76368E-01
 -1      3077 1.79795E-01
 -1      3078 1.52404E-01
 -1      3079 1.96238E-01
 -1      3080 1.27675E-01
 -1      3081 1.06964E-01
 -1      3082 1.37395E-01
 -1      3083 8.96916E-02
 -1      3084 7.42108E-02
 -1      3085 9.53938E-02
 -1      3086 6.15876E-02
 -1      3087 5.01677E-02
 -1      3088 6.54982E-02
 -1      3089 4.12716E-02
 -1      3090 3.29749E-02
 -1      3091 4.39789E-02
 -1      3092 2.71006E-02
 -1      3093 2.11804E-02
 -1      3094 2.92085E-02
 -1      3095 1.69170E-02
 -1      3096 1.32608E-02
 -1      3097 1.90708E-02
 -1      3098 1.02343E-02
 -1      3099 9.20469E-03
 -1      3100 1.17809E-02
 -1      3101 7.54622E-03
 -1      3102 7.18209E-03
 -1      3103 7.09596E-03
 -1      3104 7.31551E-03
 -1      3105 6.80268E-03
 -1      3106 5.57092E-03
 -1      3107 6.74140E-03
 -1      3108 6.17148E-03
 -1      3109 5.64306E-03
 -1      3110 5.94647E-03
 -1      3111 5.37708E-03
 -1      3112 5.35677E-03
 -1      3113 5.06694E-03
 -1      3114 4.61953E-03
 -1      3115 4.82162E-03
 -1      3116 4.27633E-03
 -1      3117 3.90983E-03
 -1      3118 4.16827E-03
 -1      3119 3.65674E-03
 -1      3120 3.29337E-03
 -1      3121 3.57197E-03
 -1      3122 3.03702E-03
 -1      3123 2.69649E-03
 -1      3124 3.06254E-03
 -1      3125 2.43587E-03
 -1      3126 2.14557E-03
 -1      3127 2.54557E-03
 -1      3128 1.89637E-03
 -1      3129 1.65195E-03
 -1      3130 2.03574E-03
 -1      3131 1.50893E-03
 -1      3132 1.30114E-03
 -1      3133 1.64352E-03
 -1      3134 1.71233E+00
 -1      3135 1.58654E+00
 -1      3136 1.28328E+00
 -1      3137 1.46221E+00
 -1      3138 1.87133E+00
 -1      3139 2.16794E+00
 -1      3140 2.18478E+00
 -1      3141 2.11858E+00
 -1      3142 2.05613E+00
 -1      3143 2.49755E+00
 -1      3144 1.55406E+00
 -1      3145 1.73370E+00
 -1      3146 1.40171E+00
 -1      3147 1.45754E+00
 -1      3148 1.63718E+00
 -1      3149 1.49369E+00
 -1      3150 1.59039E+00
 -1      3151 1.72934E+00
 -1      3152 1.27496E+00
 -1      3153 1.37636E+00
 -1      3154 1.80068E+00
 -1      3155 9.33962E-01
 -1      3156 9.90185E-01
 -1      3157 1.39857E+00
 -1      3158 7.02058E-01
 -1      3159 7.86498E-01
 -1      3160 9.66329E-01
 -1      3161 6.19596E-01
 -1      3162 6.56263E-01
 -1      3163 7.73070E-01
 -1      3164 5.42601E-01
 -1      3165 5.63488E-01
 -1      3166 6.71167E-01
 -1      3167 4.56576E-01
 -1      3168 4.86055E-01
 -1      3169 5.58513E-01
 -1      3170 3.87820E-01
 -1      3171 4.15229E-01
 -1      3172 4.60620E-01
 -1      3173 3.34500E-01
 -1      3174 3.56402E-01
 -1      3175 3.87855E-01
 -1      3176 2.79499E-01
 -1      3177 3.03207E-01
 -1      3178 3.25146E-01
 -1      3179 2.26146E-01
 -1      3180 2.50043E-01
 -1      3181 2.64396E-01
 -1      3182 1.77902E-01
 -1      3183 2.00162E-01
 -1      3184 2.08956E-01
 -1      3185 1.36829E-01
 -1      3186 1.56434E-01
 -1      3187 1.61505E-01
 -1      3188 1.03082E-01
 -1      3189 1.19638E-01
 -1      3190 1.22847E-01
 -1      3191 7.57991E-02
 -1      3192 8.93137E-02
 -1      3193 9.18885E-02
 -1      3194 5.42679E-02
 -1      3195 6.49801E-02
 -1      3196 6.73013E-02
 -1      3197 3.76566E-02
 -1      3198 4.59213E-02
 -1      3199 4.81357E-02
 -1      3200 2.51262E-02
 -1      3201 3.13367E-02
 -1      3202 3.34691E-02
 -1      3203 1.58943E-02
 -1      3204 2.04351E-02
 -1      3205 2.24579E-02
 -1      3206 1.01970E-02
 -1      3207 1.24883E-02
 -1      3208 1.43607E-02
 -1      3209 7.46993E-03
 -1      3210 7.78686E-03
 -1      3211 8.54458E-03
 -1      3212 6.58344E-03
 -1      3213 6.93547E-03
 -1      3214 5.60003E-03
 -1      3215 6.23424E-03
 -1      3216 6.71283E-03
 -1      3217 5.19495E-03
 -1      3218 5.60916E-03
 -1      3219 6.13690E-03
 -1      3220 5.22699E-03
 -1      3221 4.85124E-03
 -1      3222 5.37756E-03
 -1      3223 4.89805E-03
 -1      3224 4.18651E-03
 -1      3225 4.55065E-03
 -1      3226 4.36587E-03
 -1      3227 3.54284E-03
 -1      3228 3.89131E-03
 -1      3229 3.77008E-03
 -1      3230 2.97882E-03
 -1      3231 3.31486E-03
 -1      3232 3.24691E-03
 -1      3233 2.42644E-03
 -1      3234 2.72913E-03
 -1      3235 2.76925E-03
 -1      3236 1.91449E-03
 -1      3237 2.17669E-03
 -1      3238 2.26981E-03
 -1      3239 1.44659E-03
 -1      3240 1.67928E-03
 -1      3241 1.78485E-03
 -1      3242 1.07518E-03
 -1      3243 1.24366E-03
 -1      3244 1.34671E-03
 -1      3245 1.00473E-03
 -1      3246 1.20379E-03
 -1      3247 1.20500E-03
 -1      3248 1.10581E-03
 -1      3249 1.12199E-03
 -1      3250 1.03696E+01
 -1      3251 9.06862E+00
 -1      3252 5.66364E+00
 -1      3253 4.90456E+00
 -1      3254 1.20236E-03
 -1      3255 1.24821E-03
 -1      3256 1.45609E-03
 -1      3257 1.14267E-03
 -1      3258 1.14267E-03
 -1      3259 1.34934E-03
 -1      3260 1.30826E+01
 -1      3261 1.13589E+01
 -1      3262 8.64451E+00
 -1      3263 1.28242E+01
 -1      3264 1.19620E+01
 -1      3265 3.26358E+00
 -1      3266 3.11242E+00
 -1      3267 8.76050E-01
 -1      3268 1.08808E-03
 -1      3269 1.09180E-03
 -1      3270 1.19185E-03
 -1      3271 1.23243E-03
 -1      3272 1.95482E+00
 -1      3273 1.97404E+00
 -1      3274 1.95482E+00
 -1      3275 8.73470E+00
 -1      3276 6.56054E+00
 -1      3277 5.10629E+00
 -1      3278 4.52274E+00
 -1      3279 4.85844E+00
 -1      3280 1.19620E+01
 -1      3281 1.33898E+01
 -1      3282 7.27776E+00
 -1      3283 5.42051E+00
 -1      3284 7.10718E+00
 -1      3285 3.87884E+00
 -1      3286 9.21590E-01
 -1      3287 9.94414E+00
 -1      3288 1.22997E+01
 -1      3289 4.67573E+00
 -1      3290 3.73071E+00
 -1      3291 3.98055E+00
 -1      3292 2.92723E+00
 -1      3293 3.87690E+00
 -1      3294 4.26013E+00
 -1      3295 1.52601E+01
 -1      3296 1.75084E+01
 -1      3297 1.34839E+01
 -1      3298 7.76376E+00
 -1      3299 8.90294E+00
 -1      3300 2.30899E+00
 -1      3301 2.42359E+00
 -1      3302 4.79872E+00
 -1      3303 3.92904E+00
 -1      3304 2.98335E+00
 -1      3305 7.21864E+00
 -1      3306 9.34029E+00
 -1      3307 8.68749E+00
 -1      3308 5.72536E+00
 -1      3309 1.15256E+00
 -1      3310 2.76545E+00
 -1      3311 2.76545E+00
 -1      3312 3.07408E+00
 -1      3313 1.00041E+01
 -1      3314 1.10677E+01
 -1      3315 1.40726E+00
 -1      3316 6.12469E+00
 -1      3317 6.84649E+00
 -1      3318 1.45658E+00
 -1      3319 1.91885E+00
 -1      3320 1.52756E+00
 -1      3321 9.99213E-04
 -1      3322 1.20716E+01
 -1      3323 1.51312E+00
 -1      3324 2.36985E+00
 -1      3325 1.32524E-03
 -1      3326 1.24135E-03
 -1      3327 1.24135E-03
 -1      3328 3.99191E+00
 -1      3329 4.61424E+00
 -1      3330 6.46033E+00
 -1      3331 6.05796E+00
 -1      3332 1.80620E+00
 -1      3333 1.95391E+00
 -1      3334 1.83533E+00
 -1      3335 3.96833E+00
 -1      3336 9.94107E+00
 -1      3337 9.72380E+00
 -1      3338 2.88863E+00
 -1      3339 3.18357E+00
 -1      3340 3.98833E+00
 -1      3341 1.02483E+01
 -1      3342 7.99893E+00
 -1      3343 1.15514E-03
 -1      3344 1.15514E-03
 -1      3345 1.29420E-03
 -1      3346 8.15811E+00
 -1      3347 8.84816E+00
 -1      3348 6.11665E+00
 -1      3349 7.74728E+00
 -1      3350 2.50510E+00
 -1      3351 3.93229E+00
 -1      3352 4.60059E+00
 -1      3353 3.98924E+00
 -1      3354 5.31214E+00
 -1      3355 2.21403E+00
 -1      3356 2.63726E+00
 -1      3357 2.11881E+00
 -1      3358 3.13342E+00
 -1      3359 2.68731E+00
 -1      3360 3.15443E+00
 -1      3361 1.24135E-03
 -1      3362 2.24919E+00
 -1      3363 2.10475E+00
 -1      3364 2.24028E+00
 -1      3365 2.62442E+00
 -1      3366 1.20236E-03
 -1      3367 1.50051E-03
 -1      3368 3.78260E+00
 -1      3369 3.99191E+00
 -1      3370 5.26015E+00
 -1      3371 1.19858E-03
 -1      3372 9.83413E+00
 -1      3373 6.56341E+00
 -1      3374 2.17460E+00
 -1      3375 1.87133E+00
 -1      3376 3.23727E+00
 -1      3377 3.43117E+00
 -1      3378 2.20546E+00
 -1      3379 2.41687E+00
 -1      3380 5.84215E+00
 -1      3381 4.94524E+00
 -1      3382 3.49904E+00
 -1      3383 3.08129E+00
 -1      3384 2.62993E+00
 -1      3385 2.28349E+00
 -1      3386 3.02788E+00
 -1      3387 1.88109E+00
 -1      3388 1.63285E+00
 -1      3389 2.17413E+00
 -1      3390 1.38338E+00
 -1      3391 1.19415E+00
 -1      3392 1.52226E+00
 -1      3393 1.02331E+00
 -1      3394 8.79408E-01
 -1      3395 1.10194E+00
 -1      3396 7.58119E-01
 -1      3397 6.49226E-01
 -1      3398 8.09811E-01
 -1      3399 5.60271E-01
 -1      3400 4.78146E-01
 -1      3401 5.99567E-01
 -1      3402 4.11749E-01
 -1      3403 3.50101E-01
 -1      3404 4.44214E-01
 -1      3405 3.00084E-01
 -1      3406 2.54067E-01
 -1      3407 3.27800E-01
 -1      3408 2.16299E-01
 -1      3409 1.82186E-01
 -1      3410 2.40015E-01
 -1      3411 1.53733E-01
 -1      3412 1.29004E-01
 -1      3413 1.73794E-01
 -1      3414 1.07694E-01
 -1      3415 9.04215E-02
 -1      3416 1.24032E-01
 -1      3417 7.45973E-02
 -1      3418 6.19740E-02
 -1      3419 8.68972E-02
 -1      3420 5.08798E-02
 -1      3421 4.19837E-02
 -1      3422 5.99788E-02
 -1      3423 3.39400E-02
 -1      3424 2.80657E-02
 -1      3425 4.08409E-02
 -1      3426 2.22335E-02
 -1      3427 1.79701E-02
 -1      3428 2.69650E-02
 -1      3429 1.38518E-02
 -1      3430 1.08253E-02
 -1      3431 1.70145E-02
 -1      3432 7.99743E-03
 -1      3433 6.33896E-03
 -1      3434 1.00683E-02
 -1      3435 4.42024E-03
 -1      3436 4.55366E-03
 -1      3437 5.32171E-03
 -1      3438 4.57930E-03
 -1      3439 4.51802E-03
 -1      3440 3.42863E-03
 -1      3441 4.71032E-03
 -1      3442 4.48531E-03
 -1      3443 3.64656E-03
 -1      3444 4.46939E-03
 -1      3445 4.15925E-03
 -1      3446 3.82294E-03
 -1      3447 4.01818E-03
 -1      3448 3.67498E-03
 -1      3449 3.66596E-03
 -1      3450 3.46619E-03
 -1      3451 3.21309E-03
 -1      3452 3.31610E-03
 -1      3453 3.00026E-03
 -1      3454 2.74392E-03
 -1      3455 2.89448E-03
 -1      3456 2.56198E-03
 -1      3457 2.30135E-03
 -1      3458 2.49970E-03
 -1      3459 2.10387E-03
 -1      3460 1.85467E-03
 -1      3461 2.12028E-03
 -1      3462 1.68713E-03
 -1      3463 1.54411E-03
 -1      3464 1.54411E-03
 -1      3465 1.75526E-03
 -1      3466 2.01762E+00
 -1      3467 1.82894E+00
 -1      3468 1.92546E+00
 -1      3469 1.44211E+00
 -1      3470 1.72688E+00
 -1      3471 1.03591E+00
 -1      3472 1.18338E+00
 -1      3473 1.51169E+00
 -1      3474 8.89023E-01
 -1      3475 9.34818E-01
 -1      3476 1.15187E+00
 -1      3477 7.20553E-01
 -1      3478 7.76661E-01
 -1      3479 9.38410E-01
 -1      3480 5.77548E-01
 -1      3481 6.34094E-01
 -1      3482 7.39588E-01
 -1      3483 4.74229E-01
 -1      3484 5.15577E-01
 -1      3485 5.91158E-01
 -1      3486 3.87948E-01
 -1      3487 4.19366E-01
 -1      3488 4.74323E-01
 -1      3489 3.11888E-01
 -1      3490 3.43181E-01
 -1      3491 3.74691E-01
 -1      3492 2.49915E-01
 -1      3493 2.79372E-01
 -1      3494 2.97407E-01
 -1      3495 1.98428E-01
 -1      3496 2.24411E-01
 -1      3497 2.39387E-01
 -1      3498 1.55829E-01
 -1      3499 1.77296E-01
 -1      3500 1.92752E-01
 -1      3501 1.19589E-01
 -1      3502 1.36779E-01
 -1      3503 1.52570E-01
 -1      3504 8.95024E-02
 -1      3505 1.03271E-01
 -1      3506 1.17203E-01
 -1      3507 6.52375E-02
 -1      3508 7.60565E-02
 -1      3509 8.74386E-02
 -1      3510 4.61633E-02
 -1      3511 5.45099E-02
 -1      3512 6.32652E-02
 -1      3513 3.18055E-02
 -1      3514 3.81255E-02
 -1      3515 4.44997E-02
 -1      3516 2.11853E-02
 -1      3517 2.58765E-02
 -1      3518 3.05328E-02
 -1      3519 1.33604E-02
 -1      3520 1.67664E-02
 -1      3521 2.01850E-02
 -1      3522 7.74541E-03
 -1      3523 1.01555E-02
 -1      3524 1.25612E-02
 -1      3525 4.99400E-03
 -1      3526 5.52846E-03
 -1      3527 7.13938E-03
 -1      3528 4.02392E-03
 -1      3529 3.89454E-03
 -1      3530 3.82297E-03
 -1      3531 4.30291E-03
 -1      3532 4.40025E-03
 -1      3533 3.09983E-03
 -1      3534 4.18277E-03
 -1      3535 4.41437E-03
 -1      3536 3.58763E-03
 -1      3537 3.82359E-03
 -1      3538 4.12417E-03
 -1      3539 3.64049E-03
 -1      3540 3.36846E-03
 -1      3541 3.66366E-03
 -1      3542 3.42196E-03
 -1      3543 2.92747E-03
 -1      3544 3.15545E-03
 -1      3545 3.04902E-03
 -1      3546 2.50596E-03
 -1      3547 2.75564E-03
 -1      3548 2.66418E-03
 -1      3549 2.06933E-03
 -1      3550 2.31909E-03
 -1      3551 2.30548E-03
 -1      3552 1.63131E-03
 -1      3553 1.86652E-03
 -1      3554 1.91580E-03
 -1      3555 6.40072E+00
 -1      3556 7.44192E+00
 -1      3557 1.95482E+00
 -1      3558 2.17595E+00
 -1      3559 4.63515E+00
 -1      3560 3.98924E+00
 -1      3561 5.55173E+00
 -1      3562 6.20832E+00
 -1      3563 7.83582E+00
 -1      3564 2.96015E+00
 -1      3565 4.50376E+00
 -1      3566 1.51855E-03
 -1      3567 1.47413E-03
 -1      3568 1.56215E-03
 -1      3569 1.38075E-03
 -1      3570 1.31842E-03
 -1      3571 1.44321E-03
 -1      3572 8.97326E+00
 -1      3573 8.97326E+00
 -1      3574 6.70428E+00
 -1      3575 8.46688E+00
 -1      3576 1.00884E+01
 -1      3577 5.83736E+00
 -1      3578 8.44877E+00
 -1      3579 8.97326E+00
 -1      3580 5.11151E+00
 -1      3581 3.98580E+00
 -1      3582 2.67726E+00
 -1      3583 2.77230E+00
 -1      3584 4.24986E+00
 -1      3585 6.11007E+00
 -1      3586 7.37558E+00
 -1      3587 5.85841E+00
 -1      3588 1.00432E+01
 -1      3589 8.93014E+00
 -1      3590 8.62292E+00
 -1      3591 7.65512E+00
 -1      3592 3.79032E+00
 -1      3593 4.08557E+00
 -1      3594 2.76176E+00
 -1      3595 3.83126E+00
 -1      3596 3.60243E+00
 -1      3597 4.56712E+00
 -1      3598 2.08310E+00
 -1      3599 2.20043E+00
 -1      3600 2.30004E+00
 -1      3601 2.12664E+00
 -1      3602 1.44461E-03
 -1      3603 2.05518E+00
 -1      3604 2.00023E+00
 -1      3605 2.37739E+00
 -1      3606 2.35844E+00
 -1      3607 4.95299E+00
 -1      3608 2.92448E+00
 -1      3609 2.23482E+00
 -1      3610 3.43117E+00
 -1      3611 2.56375E+00
 -1      3612 6.82490E+00
 -1      3613 3.23727E+00
 -1      3614 1.29021E-03
 -1      3615 1.30423E-03
 -1      3616 2.49755E+00
 -1      3617 2.59968E+00
 -1      3618 2.11012E+00
 -1      3619 2.36587E+00
 -1      3620 2.14659E+00
 -1      3621 1.26383E-03
 -1      3622 1.30423E-03
 -1      3623 1.42360E-03
 -1      3624 1.40259E-03
 -1      3625 6.69138E+00
 -1      3626 5.49212E+00
 -1      3627 1.49712E-03
 -1      3628 1.57880E-03
 -1      3629 2.69557E+00
 -1      3630 2.36587E+00
 -1      3631 2.88863E+00
 -1      3632 7.69824E+00
 -1      3633 4.25175E+00
 -1      3634 3.32775E+00
 -1      3635 2.37739E+00
 -1      3636 3.99247E+00
 -1      3637 4.33433E+00
 -1      3638 1.57880E-03
 -1      3639 5.95560E+00
 -1      3640 5.20178E+00
 -1      3641 5.79223E+00
 -1      3642 6.43855E+00
 -1      3643 5.82678E+00
 -1      3644 5.82678E+00
 -1      3645 5.82678E+00
 -1      3646 5.37503E+00
 -1      3647 4.11555E+00
 -1      3648 3.39683E+00
 -1      3649 3.49179E+00
 -1      3650 4.75204E+00
 -1      3651 6.39341E+00
 -1      3652 4.09575E+00
 -1      3653 2.68731E+00
 -1      3654 5.38573E+00
 -1      3655 5.55573E+00
 -1      3656 3.26652E+00
 -1      3657 2.81517E+00
 -1      3658 2.15869E+00
 -1      3659 1.75629E+00
 -1      3660 2.39733E+00
 -1      3661 1.48519E+00
 -1      3662 1.23571E+00
 -1      3663 1.46975E+00
 -1      3664 1.07385E+00
 -1      3665 9.03007E-01
 -1      3666 1.03678E+00
 -1      3667 7.93847E-01
 -1      3668 6.72558E-01
 -1      3669 7.65754E-01
 -1      3670 5.93189E-01
 -1      3671 5.04234E-01
 -1      3672 5.77226E-01
 -1      3673 4.44557E-01
 -1      3674 3.78160E-01
 -1      3675 4.38180E-01
 -1      3676 3.32249E-01
 -1      3677 2.82232E-01
 -1      3678 3.32591E-01
 -1      3679 2.46575E-01
 -1      3680 2.08807E-01
 -1      3681 2.51024E-01
 -1      3682 1.81094E-01
 -1      3683 1.52642E-01
 -1      3684 1.87655E-01
 -1      3685 1.31206E-01
 -1      3686 1.09895E-01
 -1      3687 1.38505E-01
 -1      3688 9.34549E-02
 -1      3689 7.76307E-02
 -1      3690 1.00629E-01
 -1      3691 6.51610E-02
 -1      3692 5.40668E-02
 -1      3693 7.17186E-02
 -1      3694 4.47345E-02
 -1      3695 3.66908E-02
 -1      3696 4.99167E-02
 -1      3697 3.02595E-02
 -1      3698 2.44274E-02
 -1      3699 3.41532E-02
 -1      3700 1.97046E-02
 -1      3701 1.55862E-02
 -1      3702 2.29991E-02
 -1      3703 1.21695E-02
 -1      3704 9.34159E-03
 -1      3705 1.48595E-02
 -1      3706 6.94593E-03
 -1      3707 5.02721E-03
 -1      3708 9.04709E-03
 -1      3709 3.44742E-03
 -1      3710 3.47306E-03
 -1      3711 5.07164E-03
 -1      3712 2.76528E-03
 -1      3713 2.95758E-03
 -1      3714 2.78407E-03
 -1      3715 3.25092E-03
 -1      3716 3.23501E-03
 -1      3717 2.36964E-03
 -1      3718 3.31922E-03
 -1      3719 3.17815E-03
 -1      3720 2.74720E-03
 -1      3721 3.13016E-03
 -1      3722 2.92137E-03
 -1      3723 2.78342E-03
 -1      3724 2.79543E-03
 -1      3725 2.58260E-03
 -1      3726 2.60949E-03
 -1      3727 2.41589E-03
 -1      3728 2.23395E-03
 -1      3729 2.31685E-03
 -1      3730 2.09037E-03
 -1      3731 1.89289E-03
 -1      3732 2.00655E-03
 -1      3733 1.77907E-03
 -1      3734 1.61152E-03
 -1      3735 1.58596E-03
 -1      3736 1.74915E-03
 -1      3737 1.00308E+00
 -1      3738 1.11545E+00
 -1      3739 1.37621E-03
 -1      3740 1.38894E+00
 -1      3741 1.49004E+00
 -1      3742 1.45362E+00
 -1      3743 1.85681E+00
 -1      3744 2.11554E+00
 -1      3745 2.09388E+00
 -1      3746 7.83135E-01
 -1      3747 8.69594E-01
 -1      3748 1.04663E+00
 -1      3749 6.05012E-01
 -1      3750 6.66984E-01
 -1      3751 7.96990E-01
 -1      3752 4.63997E-01
 -1      3753 5.18860E-01
 -1      3754 5.94686E-01
 -1      3755 3.67441E-01
 -1      3756 4.12209E-01
 -1      3757 4.56747E-01
 -1      3758 2.95184E-01
 -1      3759 3.27700E-01
 -1      3760 3.65218E-01
 -1      3761 2.39387E-01
 -1      3762 2.64891E-01
 -1      3763 2.95184E-01
 -1      3764 1.90914E-01
 -1      3765 2.12045E-01
 -1      3766 2.37550E-01
 -1      3767 1.48307E-01
 -1      3768 1.67356E-01
 -1      3769 1.86650E-01
 -1      3770 1.12355E-01
 -1      3771 1.28673E-01
 -1      3772 1.43459E-01
 -1      3773 8.29717E-02
 -1      3774 9.64175E-02
 -1      3775 1.07888E-01
 -1      3776 5.96003E-02
 -1      3777 7.03279E-02
 -1      3778 7.93069E-02
 -1      3779 4.17422E-02
 -1      3780 4.97801E-02
 -1      3781 5.68429E-02
 -1      3782 2.83436E-02
 -1      3783 3.42725E-02
 -1      3784 3.95529E-02
 -1      3785 1.87256E-02
 -1      3786 2.31445E-02
 -1      3787 2.68842E-02
 -1      3788 1.17025E-02
 -1      3789 1.49074E-02
 -1      3790 1.78669E-02
 -1      3791 6.72403E-03
 -1      3792 8.94098E-03
 -1      3793 1.12871E-02
 -1      3794 3.76095E-03
 -1      3795 4.86042E-03
 -1      3796 6.66201E-03
 -1      3797 3.10414E-03
 -1      3798 2.72781E-03
 -1      3799 3.76526E-03
 -1      3800 3.01539E-03
 -1      3801 2.90392E-03
 -1      3802 2.53190E-03
 -1      3803 3.15104E-03
 -1      3804 3.20964E-03
 -1      3805 2.52593E-03
 -1      3806 3.01505E-03
 -1      3807 3.17498E-03
 -1      3808 2.74412E-03
 -1      3809 2.71969E-03
 -1      3810 2.93270E-03
 -1      3811 2.68572E-03
 -1      3812 2.40429E-03
 -1      3813 2.57612E-03
 -1      3814 2.45980E-03
 -1      3815 2.15181E-03
 -1      3816 2.33867E-03
 -1      3817 2.25062E-03
 -1      3818 1.94899E-03
 -1      3819 2.15181E-03
 -1      3820 2.18500E-03
 -1      3821 1.47359E-03
 -1      3822 1.38022E-03
 -1      3823 1.52297E-03
 -1      3824 4.71932E+00
 -1      3825 4.91172E+00
 -1      3826 3.00515E+00
 -1      3827 1.00432E+01
 -1      3828 4.93238E+00
 -1      3829 2.81387E+00
 -1      3830 2.97581E+00
 -1      3831 2.33654E+00
 -1      3832 2.52038E+00
 -1      3833 4.08979E+00
 -1      3834 2.54229E+00
 -1      3835 1.81480E-03
 -1      3836 1.85379E+00
 -1      3837 2.21001E+00
 -1      3838 6.26069E+00
 -1      3839 6.26069E+00
 -1      3840 6.16213E+00
 -1      3841 5.36972E+00
 -1      3842 5.74141E+00
 -1      3843 2.81747E+00
 -1      3844 2.57047E+00
 -1      3845 3.61844E+00
 -1      3846 5.46691E+00
 -1      3847 5.10992E+00
 -1      3848 6.11677E+00
 -1      3849 6.21757E+00
 -1      3850 4.76770E+00
 -1      3851 4.15119E+00
 -1      3852 6.26069E+00
 -1      3853 4.45132E+00
 -1      3854 4.96623E+00
 -1      3855 4.81910E+00
 -1      3856 4.33711E+00
 -1      3857 2.19891E+00
 -1      3858 1.75752E-03
 -1      3859 1.75752E-03
 -1      3860 1.39031E-03
 -1      3861 1.41669E-03
 -1      3862 1.42069E-03
 -1      3863 4.82314E+00
 -1      3864 3.88019E+00
 -1      3865 2.84331E+00
 -1      3866 3.29979E+00
 -1      3867 3.37492E+00
 -1      3868 4.36314E+00
 -1      3869 5.50897E+00
 -1      3870 4.07143E+00
 -1      3871 3.92751E+00
 -1      3872 3.80880E+00
 -1      3873 3.93847E+00
 -1      3874 1.77162E-03
 -1      3875 3.93847E+00
 -1      3876 3.72333E+00
 -1      3877 2.83866E+00
 -1      3878 2.18218E+00
 -1      3879 2.97161E+00
 -1      3880 1.63963E+00
 -1      3881 1.36853E+00
 -1      3882 1.07452E+00
 -1      3883 9.12657E-01
 -1      3884 1.24441E+00
 -1      3885 7.86327E-01
 -1      3886 6.77167E-01
 -1      3887 8.24070E-01
 -1      3888 5.85647E-01
 -1      3889 5.06278E-01
 -1      3890 6.06220E-01
 -1      3891 4.39837E-01
 -1      3892 3.80159E-01
 -1      3893 4.48258E-01
 -1      3894 3.31004E-01
 -1      3895 2.85093E-01
 -1      3896 3.32661E-01
 -1      3897 2.48312E-01
 -1      3898 2.12656E-01
 -1      3899 2.46725E-01
 -1      3900 1.84992E-01
 -1      3901 1.57279E-01
 -1      3902 1.82281E-01
 -1      3903 1.36962E-01
 -1      3904 1.15526E-01
 -1      3905 1.34299E-01
 -1      3906 1.00857E-01
 -1      3907 8.44168E-02
 -1      3908 9.93135E-02
 -1      3909 7.29963E-02
 -1      3910 6.05266E-02
 -1      3911 7.32248E-02
 -1      3912 5.16434E-02
 -1      3913 4.23112E-02
 -1      3914 5.29211E-02
 -1      3915 3.55307E-02
 -1      3916 2.90994E-02
 -1      3917 3.72574E-02
 -1      3918 2.42864E-02
 -1      3919 1.95635E-02
 -1      3920 2.56639E-02
 -1      3921 1.62406E-02
 -1      3922 1.28238E-02
 -1      3923 1.75278E-02
 -1      3924 1.04330E-02
 -1      3925 8.03737E-03
 -1      3926 1.18141E-02
 -1      3927 6.30398E-03
 -1      3928 4.72419E-03
 -1      3929 7.68993E-03
 -1      3930 3.49185E-03
 -1      3931 2.78407E-03
 -1      3932 4.72419E-03
 -1      3933 1.92872E-03
 -1      3934 2.22206E-03
 -1      3935 2.63649E-03
 -1      3936 2.27539E-03
 -1      3937 2.35960E-03
 -1      3938 1.83446E-03
 -1      3939 2.47045E-03
 -1      3940 2.42246E-03
 -1      3941 1.99864E-03
 -1      3942 2.41586E-03
 -1      3943 2.28992E-03
 -1      3944 2.10289E-03
 -1      3945 2.21087E-03
 -1      3946 2.04415E-03
 -1      3947 2.01723E-03
 -1      3948 1.94858E-03
 -1      3949 1.80499E-03
 -1      3950 1.84260E-03
 -1      3951 1.67815E-03
 -1      3952 1.56433E-03
 -1      3953 1.45197E-03
 -1      3954 1.62018E-03
 -1      3955 1.46206E-03
 -1      3956 1.67878E+00
 -1      3957 1.95228E+00
 -1      3958 2.55433E+00
 -1      3959 2.92110E+00
 -1      3960 3.76023E+00
 -1      3961 2.77949E+00
 -1      3962 5.84807E-01
 -1      3963 6.70959E-01
 -1      3964 4.56747E-01
 -1      3965 5.08534E-01
 -1      3966 5.84807E-01
 -1      3967 3.65218E-01
 -1      3968 4.04960E-01
 -1      3969 4.56747E-01
 -1      3970 2.90880E-01
 -1      3971 3.21173E-01
 -1      3972 3.60914E-01
 -1      3973 2.27297E-01
 -1      3974 2.54638E-01
 -1      3975 2.80627E-01
 -1      3976 1.74537E-01
 -1      3977 1.98094E-01
 -1      3978 2.15183E-01
 -1      3979 1.31720E-01
 -1      3980 1.51354E-01
 -1      3981 1.62798E-01
 -1      3982 9.76055E-02
 -1      3983 1.13543E-01
 -1      3984 1.21438E-01
 -1      3985 7.08765E-02
 -1      3986 8.35203E-02
 -1      3987 8.91751E-02
 -1      3988 5.02741E-02
 -1      3989 6.00944E-02
 -1      3990 6.43078E-02
 -1      3991 3.46593E-02
 -1      3992 4.21289E-02
 -1      3993 4.53804E-02
 -1      3994 2.33975E-02
 -1      3995 2.85965E-02
 -1      3996 3.11725E-02
 -1      3997 1.54418E-02
 -1      3998 1.92601E-02
 -1      3999 2.09723E-02
 -1      4000 1.00628E-02
 -1      4001 1.28243E-02
 -1      4002 1.42174E-02
 -1      4003 6.23992E-03
 -1      4004 8.10354E-03
 -1      4005 9.64067E-03
 -1      4006 3.76526E-03
 -1      4007 4.79839E-03
 -1      4008 6.23992E-03
 -1      4009 2.53190E-03
 -1      4010 2.73212E-03
 -1      4011 3.76526E-03
 -1      4012 2.18989E-03
 -1      4013 1.99564E-03
 -1      4014 2.19586E-03
 -1      4015 2.40805E-03
 -1      4016 2.38411E-03
 -1      4017 1.85382E-03
 -1      4018 2.37274E-03
 -1      4019 2.45508E-03
 -1      4020 2.09507E-03
 -1      4021 2.18242E-03
 -1      4022 2.32599E-03
 -1      4023 2.09535E-03
 -1      4024 2.01887E-03
 -1      4025 2.08449E-03
 -1      4026 1.95067E-03
 -1      4027 1.79380E-03
 -1      4028 3.95842E+00
 -1      4029 7.81092E-01
 -1      4030 8.97243E-01
 -1      4031 7.71213E-01
 -1      4032 1.22549E+00
 -1      4033 1.35898E+00
 -1      4034 1.20959E+00
 -1      4035 2.14873E-03
 -1      4036 3.39683E+00
 -1      4037 1.43078E-03
 -1      4038 1.77162E-03
 -1      4039 2.14873E-03
 -1      4040 2.18500E-03
 -1      4041 2.18500E-03
 -1      4042 1.80789E-03
 -1      4043 1.49302E-03
 -1      4044 1.46174E-03
 -1      4045 1.46174E-03
 -1      4046 1.61986E-03
 -1      4047 1.85764E+00
 -1      4048 2.01887E-03
 -1      4049 2.08096E+00
 -1      4050 3.06004E+00
 -1      4051 3.63692E+00
 -1      4052 3.02912E+00
 -1      4053 2.45799E+00
 -1      4054 2.63365E+00
 -1      4055 2.28555E+00
 -1      4056 1.58831E+00
 -1      4057 1.29430E+00
 -1      4058 9.39127E-01
 -1      4059 8.12797E-01
 -1      4060 1.28303E+00
 -1      4061 6.45919E-01
 -1      4062 5.54399E-01
 -1      4063 7.60976E-01
 -1      4064 4.59612E-01
 -1      4065 3.93170E-01
 -1      4066 4.99312E-01
 -1      4067 3.45892E-01
 -1      4068 2.96737E-01
 -1      4069 3.57247E-01
 -1      4070 2.61193E-01
 -1      4071 2.24412E-01
 -1      4072 2.74424E-01
 -1      4073 1.96205E-01
 -1      4074 1.68541E-01
 -1      4075 2.10673E-01
 -1      4076 1.46267E-01
 -1      4077 1.25950E-01
 -1      4078 1.60191E-01
 -1      4079 1.08481E-01
 -1      4080 9.38125E-02
 -1      4081 1.20449E-01
 -1      4082 8.02257E-02
 -1      4083 6.88052E-02
 -1      4084 8.93929E-02
 -1      4085 5.85620E-02
 -1      4086 4.96788E-02
 -1      4087 6.55630E-02
 -1      4088 4.18375E-02
 -1      4089 3.50570E-02
 -1      4090 4.74785E-02
 -1      4091 2.90923E-02
 -1      4092 2.42793E-02
 -1      4093 3.36724E-02
 -1      4094 2.00556E-02
 -1      4095 1.67326E-02
 -1      4096 2.34840E-02
 -1      4097 1.36888E-02
 -1      4098 1.12980E-02
 -1      4099 1.62166E-02
 -1      4100 9.04258E-03
 -1      4101 7.30919E-03
 -1      4102 1.09173E-02
 -1      4103 5.67039E-03
 -1      4104 4.43805E-03
 -1      4105 7.02304E-03
 -1      4106 3.27401E-03
 -1      4107 2.41865E-03
 -1      4108 4.22021E-03
 -1      4109 1.61402E-03
 -1      4110 1.66735E-03
 -1      4111 2.25154E-03
 -1      4112 1.62302E-03
 -1      4113 1.73387E-03
 -1      4114 1.40257E-03
 -1      4115 1.82947E-03
 -1      4116 1.82286E-03
 -1      4117 1.45384E-03
 -1      4118 1.83041E-03
 -1      4119 1.75135E-03
 -1      4120 1.55698E-03
 -1      4121 1.84260E-03
 -1      4122 1.74702E-03
 -1      4123 1.61986E-03
 -1      4124 1.65577E-03
 -1      4125 2.13818E+00
 -1      4126 3.60697E-01
 -1      4127 4.04742E-01
 -1      4128 6.58524E-01
 -1      4129 7.34797E-01
 -1      4130 2.66090E-01
 -1      4131 3.02332E-01
 -1      4132 3.46160E-01
 -1      4133 1.95625E-01
 -1      4134 2.24827E-01
 -1      4135 2.46532E-01
 -1      4136 1.43053E-01
 -1      4137 1.66236E-01
 -1      4138 1.75880E-01
 -1      4139 1.07419E-01
 -1      4140 1.25596E-01
 -1      4141 1.29034E-01
 -1      4142 8.01114E-02
 -1      4143 9.41966E-02
 -1      4144 9.83548E-02
 -1      4145 5.85836E-02
 -1      4146 6.93657E-02
 -1      4147 7.43872E-02
 -1      4148 4.18901E-02
 -1      4149 5.00353E-02
 -1      4150 5.50932E-02
 -1      4151 2.91615E-02
 -1      4152 3.52243E-02
 -1      4153 3.98791E-02
 -1      4154 1.99467E-02
 -1      4155 2.40841E-02
 -1      4156 2.81359E-02
 -1      4157 1.38450E-02
 -1      4158 1.64626E-02
 -1      4159 1.95743E-02
 -1      4160 9.26278E-03
 -1      4161 1.12220E-02
 -1      4162 1.34671E-02
 -1      4163 5.88641E-03
 -1      4164 7.32795E-03
 -1      4165 8.90927E-03
 -1      4166 3.45772E-03
 -1      4167 4.49086E-03
 -1      4168 5.57888E-03
 -1      4169 1.94038E-03
 -1      4170 2.47665E-03
 -1      4171 3.20225E-03
 -1      4172 1.65182E-03
 -1      4173 1.45759E-03
 -1      4174 1.73838E-03
 -1      4175 1.84809E-03
 -1      4176 1.80106E-03
 -1      4177 1.40483E-03
 -1      4178 1.83935E-03
 -1      4179 1.88609E-03
 -1      4180 1.59208E-03
 -1      4181 1.70785E-03
 -1      4182 1.80578E-03
 -1      4183 1.59652E-03
 -1      4184 4.87843E-01
 -1      4185 5.39631E-01
 -1      4186 4.87626E-01
 -1      4187 9.04073E-01
 -1      4188 1.01420E+00
 -1      4189 9.77789E-01
 -1      4190 1.33906E+00
 -1      4191 1.66730E+00
 -1      4192 1.47192E+00
 -1      4193 1.76779E-03
 -1      4194 1.60166E-03
 -1      4195 1.45677E-03
 -1      4196 1.74300E+00
 -1      4197 2.26765E+00
 -1      4198 1.79290E+00
 -1      4199 6.89620E-01
 -1      4200 1.39068E-03
 -1      4201 2.34306E+00
 -1      4202 1.37542E-03
 -1      4203 1.34446E-03
 -1      4204 1.30436E-03
 -1      4205 1.50258E-03
 -1      4206 8.68184E-01
 -1      4207 7.01306E-01
 -1      4208 5.82413E-01
 -1      4209 4.87626E-01
 -1      4210 4.04525E-01
 -1      4211 3.57247E-01
 -1      4212 2.98882E-01
 -1      4213 2.63338E-01
 -1      4214 2.22075E-01
 -1      4215 1.93867E-01
 -1      4216 1.64478E-01
 -1      4217 1.42204E-01
 -1      4218 1.24747E-01
 -1      4219 1.07278E-01
 -1      4220 9.40563E-02
 -1      4221 8.04695E-02
 -1      4222 6.97238E-02
 -1      4223 5.94807E-02
 -1      4224 5.09323E-02
 -1      4225 4.30910E-02
 -1      4226 3.64252E-02
 -1      4227 3.04605E-02
 -1      4228 2.53831E-02
 -1      4229 2.11594E-02
 -1      4230 1.76753E-02
 -1      4231 1.46315E-02
 -1      4232 1.20084E-02
 -1      4233 9.75297E-03
 -1      4234 7.81814E-03
 -1      4235 6.17934E-03
 -1      4236 4.78378E-03
 -1      4237 3.61975E-03
 -1      4238 2.63867E-03
 -1      4239 1.83404E-03
 -1      4240 1.35125E-03
 -1      4241 1.30692E-03
 -1      4242 1.45616E-03
 -1      4243 1.55176E-03
 -1      4244 1.58976E-03
 -1      4245 1.59731E-03
 -1      4246 1.87217E+00
 -1      4247 1.71749E+00
 -1      4248 1.39264E+00
 -1      4249 1.56374E-03
 -1      4250 1.03746E+00
 -1      4251 1.41055E-03
 -1      4252 1.41133E-03
 -3
 9999
