    1C
    1UUSER                                                              
    1UDATE              27.october.2022                                 
    1UTIME              00:29:49                                        
    1UHOST                                                              
    1UPGM               CalculiX                                        
    1UVERSION           Version 2.17                             
    1UCOMPILETIME       Thu Jul 23 21:43:50 CEST 2020                    
    1UDIR                                                               
    1UDBN                                                               
    1UMAT    1SOLIDMATERIAL                                             
    2C                          4293                                     1
 -1         1 2.05571E+01 3.52744E+01 0.00000E+00
 -1         2 2.75599E+01 2.82744E+01 0.00000E+00
 -1         3 1.50000E+02 0.00000E+00 0.00000E+00
 -1         4 1.50000E+02 5.00000E+01 0.00000E+00
 -1         5 0.00000E+00 0.00000E+00 0.00000E+00
 -1         6 0.00000E+00 5.00000E+01 0.00000E+00
 -1         7 0.00000E+00 4.70000E+01 0.00000E+00
 -1         8 0.00000E+00 4.40500E+01 0.00000E+00
 -1         9 0.00000E+00 4.11000E+01 0.00000E+00
 -1        10 0.00000E+00 3.81500E+01 0.00000E+00
 -1        11 0.00000E+00 3.52000E+01 0.00000E+00
 -1        12 0.00000E+00 3.23000E+01 0.00000E+00
 -1        13 0.00000E+00 2.93500E+01 0.00000E+00
 -1        14 0.00000E+00 2.65500E+01 0.00000E+00
 -1        15 0.00000E+00 2.36000E+01 0.00000E+00
 -1        16 0.00000E+00 2.06500E+01 0.00000E+00
 -1        17 0.00000E+00 1.77000E+01 0.00000E+00
 -1        18 0.00000E+00 1.47500E+01 0.00000E+00
 -1        19 0.00000E+00 1.18000E+01 0.00000E+00
 -1        20 0.00000E+00 8.85000E+00 0.00000E+00
 -1        21 0.00000E+00 5.90000E+00 0.00000E+00
 -1        22 0.00000E+00 2.95000E+00 0.00000E+00
 -1        23 3.15000E+00 5.00000E+01 0.00000E+00
 -1        24 6.15000E+00 5.00000E+01 0.00000E+00
 -1        25 9.15000E+00 5.00000E+01 0.00000E+00
 -1        26 1.21500E+01 5.00000E+01 0.00000E+00
 -1        27 1.51500E+01 5.00000E+01 0.00000E+00
 -1        28 1.81500E+01 5.00000E+01 0.00000E+00
 -1        29 2.11500E+01 5.00000E+01 0.00000E+00
 -1        30 2.41500E+01 5.00000E+01 0.00000E+00
 -1        31 2.71500E+01 5.00000E+01 0.00000E+00
 -1        32 3.01500E+01 5.00000E+01 0.00000E+00
 -1        33 3.31500E+01 5.00000E+01 0.00000E+00
 -1        34 3.61500E+01 5.00000E+01 0.00000E+00
 -1        35 3.91500E+01 5.00000E+01 0.00000E+00
 -1        36 4.21500E+01 5.00000E+01 0.00000E+00
 -1        37 4.51500E+01 5.00000E+01 0.00000E+00
 -1        38 4.81500E+01 5.00000E+01 0.00000E+00
 -1        39 5.11500E+01 5.00000E+01 0.00000E+00
 -1        40 5.41500E+01 5.00000E+01 0.00000E+00
 -1        41 5.71500E+01 5.00000E+01 0.00000E+00
 -1        42 6.01500E+01 5.00000E+01 0.00000E+00
 -1        43 6.31500E+01 5.00000E+01 0.00000E+00
 -1        44 6.61500E+01 5.00000E+01 0.00000E+00
 -1        45 6.91500E+01 5.00000E+01 0.00000E+00
 -1        46 7.21500E+01 5.00000E+01 0.00000E+00
 -1        47 7.51500E+01 5.00000E+01 0.00000E+00
 -1        48 7.81500E+01 5.00000E+01 0.00000E+00
 -1        49 8.11500E+01 5.00000E+01 0.00000E+00
 -1        50 8.41500E+01 5.00000E+01 0.00000E+00
 -1        51 8.71500E+01 5.00000E+01 0.00000E+00
 -1        52 9.01500E+01 5.00000E+01 0.00000E+00
 -1        53 9.31500E+01 5.00000E+01 0.00000E+00
 -1        54 9.61500E+01 5.00000E+01 0.00000E+00
 -1        55 9.91500E+01 5.00000E+01 0.00000E+00
 -1        56 1.02150E+02 5.00000E+01 0.00000E+00
 -1        57 1.05150E+02 5.00000E+01 0.00000E+00
 -1        58 1.08150E+02 5.00000E+01 0.00000E+00
 -1        59 1.11150E+02 5.00000E+01 0.00000E+00
 -1        60 1.14150E+02 5.00000E+01 0.00000E+00
 -1        61 1.17150E+02 5.00000E+01 0.00000E+00
 -1        62 1.20150E+02 5.00000E+01 0.00000E+00
 -1        63 1.23150E+02 5.00000E+01 0.00000E+00
 -1        64 1.26150E+02 5.00000E+01 0.00000E+00
 -1        65 1.29150E+02 5.00000E+01 0.00000E+00
 -1        66 1.32150E+02 5.00000E+01 0.00000E+00
 -1        67 1.35150E+02 5.00000E+01 0.00000E+00
 -1        68 1.38150E+02 5.00000E+01 0.00000E+00
 -1        69 1.41150E+02 5.00000E+01 0.00000E+00
 -1        70 1.44150E+02 5.00000E+01 0.00000E+00
 -1        71 1.47150E+02 5.00000E+01 0.00000E+00
 -1        72 3.15000E+00 0.00000E+00 0.00000E+00
 -1        73 6.15000E+00 0.00000E+00 0.00000E+00
 -1        74 9.15000E+00 0.00000E+00 0.00000E+00
 -1        75 1.21500E+01 0.00000E+00 0.00000E+00
 -1        76 1.51500E+01 0.00000E+00 0.00000E+00
 -1        77 1.81500E+01 0.00000E+00 0.00000E+00
 -1        78 2.11500E+01 0.00000E+00 0.00000E+00
 -1        79 2.41500E+01 0.00000E+00 0.00000E+00
 -1        80 2.71500E+01 0.00000E+00 0.00000E+00
 -1        81 3.01500E+01 0.00000E+00 0.00000E+00
 -1        82 3.31500E+01 0.00000E+00 0.00000E+00
 -1        83 3.61500E+01 0.00000E+00 0.00000E+00
 -1        84 3.91500E+01 0.00000E+00 0.00000E+00
 -1        85 4.21500E+01 0.00000E+00 0.00000E+00
 -1        86 4.51500E+01 0.00000E+00 0.00000E+00
 -1        87 4.81500E+01 0.00000E+00 0.00000E+00
 -1        88 5.11500E+01 0.00000E+00 0.00000E+00
 -1        89 5.41500E+01 0.00000E+00 0.00000E+00
 -1        90 5.71500E+01 0.00000E+00 0.00000E+00
 -1        91 6.01500E+01 0.00000E+00 0.00000E+00
 -1        92 6.31500E+01 0.00000E+00 0.00000E+00
 -1        93 6.61500E+01 0.00000E+00 0.00000E+00
 -1        94 6.91500E+01 0.00000E+00 0.00000E+00
 -1        95 7.21500E+01 0.00000E+00 0.00000E+00
 -1        96 7.51500E+01 0.00000E+00 0.00000E+00
 -1        97 7.81500E+01 0.00000E+00 0.00000E+00
 -1        98 8.11500E+01 0.00000E+00 0.00000E+00
 -1        99 8.41500E+01 0.00000E+00 0.00000E+00
 -1       100 8.71500E+01 0.00000E+00 0.00000E+00
 -1       101 9.01500E+01 0.00000E+00 0.00000E+00
 -1       102 9.31500E+01 0.00000E+00 0.00000E+00
 -1       103 9.61500E+01 0.00000E+00 0.00000E+00
 -1       104 9.91500E+01 0.00000E+00 0.00000E+00
 -1       105 1.02150E+02 0.00000E+00 0.00000E+00
 -1       106 1.05150E+02 0.00000E+00 0.00000E+00
 -1       107 1.08150E+02 0.00000E+00 0.00000E+00
 -1       108 1.11150E+02 0.00000E+00 0.00000E+00
 -1       109 1.14150E+02 0.00000E+00 0.00000E+00
 -1       110 1.17150E+02 0.00000E+00 0.00000E+00
 -1       111 1.20150E+02 0.00000E+00 0.00000E+00
 -1       112 1.23150E+02 0.00000E+00 0.00000E+00
 -1       113 1.26150E+02 0.00000E+00 0.00000E+00
 -1       114 1.29150E+02 0.00000E+00 0.00000E+00
 -1       115 1.32150E+02 0.00000E+00 0.00000E+00
 -1       116 1.35150E+02 0.00000E+00 0.00000E+00
 -1       117 1.38150E+02 0.00000E+00 0.00000E+00
 -1       118 1.41150E+02 0.00000E+00 0.00000E+00
 -1       119 1.44150E+02 0.00000E+00 0.00000E+00
 -1       120 1.47150E+02 0.00000E+00 0.00000E+00
 -1       121 1.50000E+02 2.95000E+00 0.00000E+00
 -1       122 1.50000E+02 5.90000E+00 0.00000E+00
 -1       123 1.50000E+02 8.85000E+00 0.00000E+00
 -1       124 1.50000E+02 1.18000E+01 0.00000E+00
 -1       125 1.50000E+02 1.47500E+01 0.00000E+00
 -1       126 1.50000E+02 1.76500E+01 0.00000E+00
 -1       127 1.50000E+02 2.06000E+01 0.00000E+00
 -1       128 1.50000E+02 2.35500E+01 0.00000E+00
 -1       129 1.50000E+02 2.65000E+01 0.00000E+00
 -1       130 1.50000E+02 2.94500E+01 0.00000E+00
 -1       131 1.50000E+02 3.24000E+01 0.00000E+00
 -1       132 1.50000E+02 3.53000E+01 0.00000E+00
 -1       133 1.50000E+02 3.82500E+01 0.00000E+00
 -1       134 1.50000E+02 4.12000E+01 0.00000E+00
 -1       135 1.50000E+02 4.41500E+01 0.00000E+00
 -1       136 1.50000E+02 4.71000E+01 0.00000E+00
 -1       137 2.73912E+01 2.67468E+01 0.00000E+00
 -1       138 2.69151E+01 2.53399E+01 0.00000E+00
 -1       139 2.60731E+01 2.39612E+01 0.00000E+00
 -1       140 2.50562E+01 2.29094E+01 0.00000E+00
 -1       141 2.37757E+01 2.20568E+01 0.00000E+00
 -1       142 2.23761E+01 2.15141E+01 0.00000E+00
 -1       143 2.07373E+01 2.12767E+01 0.00000E+00
 -1       144 1.92716E+01 2.13940E+01 0.00000E+00
 -1       145 1.77716E+01 2.18537E+01 0.00000E+00
 -1       146 1.62985E+01 2.27210E+01 0.00000E+00
 -1       147 1.52035E+01 2.37679E+01 0.00000E+00
 -1       148 1.43611E+01 2.50225E+01 0.00000E+00
 -1       149 1.37886E+01 2.64997E+01 0.00000E+00
 -1       150 1.35644E+01 2.80238E+01 0.00000E+00
 -1       151 1.36886E+01 2.96105E+01 0.00000E+00
 -1       152 1.41702E+01 3.11331E+01 0.00000E+00
 -1       153 1.49930E+01 3.25182E+01 0.00000E+00
 -1       154 1.61740E+01 3.37300E+01 0.00000E+00
 -1       155 1.74500E+01 3.45457E+01 0.00000E+00
 -1       156 1.90586E+01 3.51115E+01 0.00000E+00
 -1       157 2.19015E+01 3.51446E+01 0.00000E+00
 -1       158 2.32711E+01 3.47281E+01 0.00000E+00
 -1       159 2.44388E+01 3.41015E+01 0.00000E+00
 -1       160 2.54801E+01 3.32535E+01 0.00000E+00
 -1       161 2.63245E+01 3.22454E+01 0.00000E+00
 -1       162 2.70254E+01 3.09571E+01 0.00000E+00
 -1       163 2.74228E+01 2.96528E+01 0.00000E+00
 -1       164 2.59800E+00 4.55250E+01 0.00000E+00
 -1       165 2.59800E+00 4.25750E+01 0.00000E+00
 -1       166 2.59800E+00 3.96250E+01 0.00000E+00
 -1       167 2.59800E+00 3.66750E+01 0.00000E+00
 -1       168 2.59800E+00 3.37750E+01 0.00000E+00
 -1       169 2.59800E+00 3.08250E+01 0.00000E+00
 -1       170 2.59800E+00 2.80250E+01 0.00000E+00
 -1       171 2.59800E+00 2.50750E+01 0.00000E+00
 -1       172 2.59800E+00 2.21250E+01 0.00000E+00
 -1       173 2.59800E+00 1.91750E+01 0.00000E+00
 -1       174 2.59800E+00 1.62250E+01 0.00000E+00
 -1       175 2.59800E+00 1.32750E+01 0.00000E+00
 -1       176 2.59800E+00 1.03250E+01 0.00000E+00
 -1       177 2.59800E+00 7.37500E+00 0.00000E+00
 -1       178 2.59800E+00 4.42500E+00 0.00000E+00
 -1       179 2.87400E+00 2.21250E+00 0.00000E+00
 -1       180 4.65000E+00 4.74020E+01 0.00000E+00
 -1       181 7.65000E+00 4.74020E+01 0.00000E+00
 -1       182 1.06500E+01 4.74020E+01 0.00000E+00
 -1       183 1.36500E+01 4.74020E+01 0.00000E+00
 -1       184 1.66500E+01 4.74020E+01 0.00000E+00
 -1       185 1.96500E+01 4.74020E+01 0.00000E+00
 -1       186 2.26500E+01 4.74020E+01 0.00000E+00
 -1       187 2.56500E+01 4.74020E+01 0.00000E+00
 -1       188 2.86500E+01 4.74020E+01 0.00000E+00
 -1       189 3.16500E+01 4.74020E+01 0.00000E+00
 -1       190 3.46500E+01 4.74020E+01 0.00000E+00
 -1       191 3.76500E+01 4.74020E+01 0.00000E+00
 -1       192 4.06500E+01 4.74020E+01 0.00000E+00
 -1       193 4.36500E+01 4.74020E+01 0.00000E+00
 -1       194 4.66500E+01 4.74020E+01 0.00000E+00
 -1       195 4.96500E+01 4.74020E+01 0.00000E+00
 -1       196 5.26500E+01 4.74020E+01 0.00000E+00
 -1       197 5.56500E+01 4.74020E+01 0.00000E+00
 -1       198 5.86500E+01 4.74020E+01 0.00000E+00
 -1       199 6.16500E+01 4.74020E+01 0.00000E+00
 -1       200 6.46500E+01 4.74020E+01 0.00000E+00
 -1       201 6.76500E+01 4.74020E+01 0.00000E+00
 -1       202 7.06500E+01 4.74020E+01 0.00000E+00
 -1       203 7.36500E+01 4.74020E+01 0.00000E+00
 -1       204 7.66500E+01 4.74020E+01 0.00000E+00
 -1       205 7.96500E+01 4.74020E+01 0.00000E+00
 -1       206 8.26500E+01 4.74020E+01 0.00000E+00
 -1       207 8.56500E+01 4.74020E+01 0.00000E+00
 -1       208 8.86500E+01 4.74020E+01 0.00000E+00
 -1       209 9.16500E+01 4.74020E+01 0.00000E+00
 -1       210 9.46500E+01 4.74020E+01 0.00000E+00
 -1       211 9.76500E+01 4.74020E+01 0.00000E+00
 -1       212 1.00650E+02 4.74020E+01 0.00000E+00
 -1       213 1.03650E+02 4.74020E+01 0.00000E+00
 -1       214 1.06650E+02 4.74020E+01 0.00000E+00
 -1       215 1.09650E+02 4.74020E+01 0.00000E+00
 -1       216 1.12650E+02 4.74020E+01 0.00000E+00
 -1       217 1.15650E+02 4.74020E+01 0.00000E+00
 -1       218 1.18650E+02 4.74020E+01 0.00000E+00
 -1       219 1.21650E+02 4.74020E+01 0.00000E+00
 -1       220 1.24650E+02 4.74020E+01 0.00000E+00
 -1       221 1.27650E+02 4.74020E+01 0.00000E+00
 -1       222 1.30650E+02 4.74020E+01 0.00000E+00
 -1       223 1.33650E+02 4.74020E+01 0.00000E+00
 -1       224 1.36650E+02 4.74020E+01 0.00000E+00
 -1       225 1.39650E+02 4.74020E+01 0.00000E+00
 -1       226 1.42650E+02 4.74020E+01 0.00000E+00
 -1       227 1.45650E+02 4.74020E+01 0.00000E+00
 -1       228 5.87400E+00 2.21250E+00 0.00000E+00
 -1       229 8.87400E+00 2.21250E+00 0.00000E+00
 -1       230 1.18740E+01 2.21250E+00 0.00000E+00
 -1       231 1.48740E+01 2.21250E+00 0.00000E+00
 -1       232 1.78740E+01 2.21250E+00 0.00000E+00
 -1       233 2.08740E+01 2.21250E+00 0.00000E+00
 -1       234 2.38740E+01 2.21250E+00 0.00000E+00
 -1       235 2.68740E+01 2.21250E+00 0.00000E+00
 -1       236 2.98740E+01 2.21250E+00 0.00000E+00
 -1       237 3.28740E+01 2.21250E+00 0.00000E+00
 -1       238 3.58740E+01 2.21250E+00 0.00000E+00
 -1       239 3.88740E+01 2.21250E+00 0.00000E+00
 -1       240 4.18740E+01 2.21250E+00 0.00000E+00
 -1       241 4.48740E+01 2.21250E+00 0.00000E+00
 -1       242 4.78740E+01 2.21250E+00 0.00000E+00
 -1       243 5.08740E+01 2.21250E+00 0.00000E+00
 -1       244 5.38740E+01 2.21250E+00 0.00000E+00
 -1       245 5.68740E+01 2.21250E+00 0.00000E+00
 -1       246 5.98740E+01 2.21250E+00 0.00000E+00
 -1       247 6.28740E+01 2.21250E+00 0.00000E+00
 -1       248 6.58740E+01 2.21250E+00 0.00000E+00
 -1       249 6.88740E+01 2.21250E+00 0.00000E+00
 -1       250 7.18740E+01 2.21250E+00 0.00000E+00
 -1       251 7.48740E+01 2.21250E+00 0.00000E+00
 -1       252 7.78740E+01 2.21250E+00 0.00000E+00
 -1       253 8.08740E+01 2.21250E+00 0.00000E+00
 -1       254 8.38740E+01 2.21250E+00 0.00000E+00
 -1       255 8.68740E+01 2.21250E+00 0.00000E+00
 -1       256 8.98740E+01 2.21250E+00 0.00000E+00
 -1       257 9.28740E+01 2.21250E+00 0.00000E+00
 -1       258 9.58740E+01 2.21250E+00 0.00000E+00
 -1       259 9.88740E+01 2.21250E+00 0.00000E+00
 -1       260 1.01874E+02 2.21250E+00 0.00000E+00
 -1       261 1.04874E+02 2.21250E+00 0.00000E+00
 -1       262 1.07874E+02 2.21250E+00 0.00000E+00
 -1       263 1.10874E+02 2.21250E+00 0.00000E+00
 -1       264 1.13874E+02 2.21250E+00 0.00000E+00
 -1       265 1.16874E+02 2.21250E+00 0.00000E+00
 -1       266 1.19874E+02 2.21250E+00 0.00000E+00
 -1       267 1.22874E+02 2.21250E+00 0.00000E+00
 -1       268 1.25874E+02 2.21250E+00 0.00000E+00
 -1       269 1.28874E+02 2.21250E+00 0.00000E+00
 -1       270 1.31874E+02 2.21250E+00 0.00000E+00
 -1       271 1.34874E+02 2.21250E+00 0.00000E+00
 -1       272 1.37874E+02 2.21250E+00 0.00000E+00
 -1       273 1.40874E+02 2.21250E+00 0.00000E+00
 -1       274 1.43874E+02 2.21250E+00 0.00000E+00
 -1       275 1.46874E+02 2.21250E+00 0.00000E+00
 -1       276 1.47402E+02 4.42500E+00 0.00000E+00
 -1       277 1.47402E+02 7.37500E+00 0.00000E+00
 -1       278 1.47402E+02 1.03250E+01 0.00000E+00
 -1       279 1.47402E+02 1.32750E+01 0.00000E+00
 -1       280 1.47402E+02 1.61750E+01 0.00000E+00
 -1       281 1.47402E+02 1.91250E+01 0.00000E+00
 -1       282 1.47402E+02 2.20750E+01 0.00000E+00
 -1       283 1.47402E+02 2.50250E+01 0.00000E+00
 -1       284 1.47402E+02 2.79750E+01 0.00000E+00
 -1       285 1.47402E+02 3.09250E+01 0.00000E+00
 -1       286 1.47402E+02 3.38250E+01 0.00000E+00
 -1       287 1.47402E+02 3.67750E+01 0.00000E+00
 -1       288 1.47402E+02 3.97250E+01 0.00000E+00
 -1       289 1.47402E+02 4.26750E+01 0.00000E+00
 -1       290 1.46526E+02 4.50385E+01 0.00000E+00
 -1       291 2.87639E+01 2.73683E+01 0.00000E+00
 -1       292 2.83016E+01 2.56548E+01 0.00000E+00
 -1       293 2.77434E+01 2.38877E+01 0.00000E+00
 -1       294 2.64363E+01 2.25925E+01 0.00000E+00
 -1       295 2.51808E+01 2.13345E+01 0.00000E+00
 -1       296 2.35445E+01 2.05770E+01 0.00000E+00
 -1       297 2.17546E+01 2.00297E+01 0.00000E+00
 -1       298 1.99077E+01 2.01268E+01 0.00000E+00
 -1       299 1.81172E+01 2.03044E+01 0.00000E+00
 -1       300 1.62499E+01 2.09538E+01 0.00000E+00
 -1       301 1.47395E+01 2.21864E+01 0.00000E+00
 -1       302 1.37062E+01 2.36727E+01 0.00000E+00
 -1       303 1.27100E+01 2.52322E+01 0.00000E+00
 -1       304 1.23112E+01 2.70609E+01 0.00000E+00
 -1       305 1.21672E+01 2.89314E+01 0.00000E+00
 -1       306 1.26137E+01 3.07880E+01 0.00000E+00
 -1       307 1.33231E+01 3.25732E+01 0.00000E+00
 -1       308 1.45952E+01 3.40872E+01 0.00000E+00
 -1       309 1.61590E+01 3.51594E+01 0.00000E+00
 -1       310 1.77686E+01 3.62094E+01 0.00000E+00
 -1       311 1.96678E+01 3.64816E+01 0.00000E+00
 -1       312 2.13458E+01 3.64163E+01 0.00000E+00
 -1       313 2.29879E+01 3.62566E+01 0.00000E+00
 -1       314 2.44282E+01 3.54831E+01 0.00000E+00
 -1       315 2.57250E+01 3.46176E+01 0.00000E+00
 -1       316 2.68318E+01 3.35280E+01 0.00000E+00
 -1       317 2.78872E+01 3.22607E+01 0.00000E+00
 -1       318 2.83839E+01 3.06583E+01 0.00000E+00
 -1       319 2.86978E+01 2.90836E+01 0.00000E+00
 -1       320 5.19600E+00 4.11000E+01 0.00000E+00
 -1       321 5.19600E+00 4.40500E+01 0.00000E+00
 -1       322 4.98339E+00 3.52250E+01 0.00000E+00
 -1       323 4.98339E+00 3.22750E+01 0.00000E+00
 -1       324 4.98339E+00 2.94750E+01 0.00000E+00
 -1       325 4.98339E+00 2.65250E+01 0.00000E+00
 -1       326 4.98339E+00 2.35750E+01 0.00000E+00
 -1       327 4.98339E+00 2.06250E+01 0.00000E+00
 -1       328 4.98339E+00 1.76750E+01 0.00000E+00
 -1       329 4.98339E+00 1.47250E+01 0.00000E+00
 -1       330 4.98339E+00 1.17750E+01 0.00000E+00
 -1       331 4.98339E+00 8.82500E+00 0.00000E+00
 -1       332 4.98339E+00 5.87500E+00 0.00000E+00
 -1       333 5.42869E+00 4.04375E+00 0.00000E+00
 -1       334 8.42869E+00 4.04375E+00 0.00000E+00
 -1       335 9.15000E+00 4.48040E+01 0.00000E+00
 -1       336 1.21500E+01 4.48040E+01 0.00000E+00
 -1       337 1.51500E+01 4.48040E+01 0.00000E+00
 -1       338 1.81500E+01 4.48040E+01 0.00000E+00
 -1       339 2.11500E+01 4.48040E+01 0.00000E+00
 -1       340 2.41500E+01 4.48040E+01 0.00000E+00
 -1       341 2.71500E+01 4.48040E+01 0.00000E+00
 -1       342 3.01500E+01 4.48040E+01 0.00000E+00
 -1       343 3.31500E+01 4.48040E+01 0.00000E+00
 -1       344 3.61500E+01 4.48040E+01 0.00000E+00
 -1       345 3.91500E+01 4.48040E+01 0.00000E+00
 -1       346 4.21500E+01 4.48040E+01 0.00000E+00
 -1       347 4.51500E+01 4.48040E+01 0.00000E+00
 -1       348 4.81500E+01 4.48040E+01 0.00000E+00
 -1       349 5.11500E+01 4.48040E+01 0.00000E+00
 -1       350 5.41500E+01 4.48040E+01 0.00000E+00
 -1       351 5.71500E+01 4.48040E+01 0.00000E+00
 -1       352 6.01500E+01 4.48040E+01 0.00000E+00
 -1       353 6.31500E+01 4.48040E+01 0.00000E+00
 -1       354 6.61500E+01 4.48040E+01 0.00000E+00
 -1       355 6.91500E+01 4.48040E+01 0.00000E+00
 -1       356 7.21500E+01 4.48040E+01 0.00000E+00
 -1       357 7.51500E+01 4.48040E+01 0.00000E+00
 -1       358 7.81500E+01 4.48040E+01 0.00000E+00
 -1       359 8.11500E+01 4.48040E+01 0.00000E+00
 -1       360 8.41500E+01 4.48040E+01 0.00000E+00
 -1       361 8.71500E+01 4.48040E+01 0.00000E+00
 -1       362 9.01500E+01 4.48040E+01 0.00000E+00
 -1       363 9.31500E+01 4.48040E+01 0.00000E+00
 -1       364 9.61500E+01 4.48040E+01 0.00000E+00
 -1       365 9.91500E+01 4.48040E+01 0.00000E+00
 -1       366 1.02150E+02 4.48040E+01 0.00000E+00
 -1       367 1.05150E+02 4.48040E+01 0.00000E+00
 -1       368 1.08150E+02 4.48040E+01 0.00000E+00
 -1       369 1.11150E+02 4.48040E+01 0.00000E+00
 -1       370 1.14150E+02 4.48040E+01 0.00000E+00
 -1       371 1.17150E+02 4.48040E+01 0.00000E+00
 -1       372 1.20150E+02 4.48040E+01 0.00000E+00
 -1       373 1.23150E+02 4.48040E+01 0.00000E+00
 -1       374 1.26150E+02 4.48040E+01 0.00000E+00
 -1       375 1.29150E+02 4.48040E+01 0.00000E+00
 -1       376 1.32150E+02 4.48040E+01 0.00000E+00
 -1       377 1.35150E+02 4.48040E+01 0.00000E+00
 -1       378 1.38150E+02 4.48040E+01 0.00000E+00
 -1       379 1.41150E+02 4.48040E+01 0.00000E+00
 -1       380 1.43838E+02 4.49212E+01 0.00000E+00
 -1       381 1.14287E+01 4.04375E+00 0.00000E+00
 -1       382 1.44287E+01 4.04375E+00 0.00000E+00
 -1       383 1.74287E+01 4.04375E+00 0.00000E+00
 -1       384 2.04287E+01 4.04375E+00 0.00000E+00
 -1       385 2.34287E+01 4.04375E+00 0.00000E+00
 -1       386 2.64287E+01 4.04375E+00 0.00000E+00
 -1       387 2.94287E+01 4.04375E+00 0.00000E+00
 -1       388 3.24287E+01 4.04375E+00 0.00000E+00
 -1       389 3.54287E+01 4.04375E+00 0.00000E+00
 -1       390 3.84287E+01 4.04375E+00 0.00000E+00
 -1       391 4.14287E+01 4.04375E+00 0.00000E+00
 -1       392 4.44287E+01 4.04375E+00 0.00000E+00
 -1       393 4.74287E+01 4.04375E+00 0.00000E+00
 -1       394 5.04287E+01 4.04375E+00 0.00000E+00
 -1       395 5.34287E+01 4.04375E+00 0.00000E+00
 -1       396 5.64287E+01 4.04375E+00 0.00000E+00
 -1       397 5.94287E+01 4.04375E+00 0.00000E+00
 -1       398 6.24287E+01 4.04375E+00 0.00000E+00
 -1       399 6.54287E+01 4.04375E+00 0.00000E+00
 -1       400 6.84287E+01 4.04375E+00 0.00000E+00
 -1       401 7.14287E+01 4.04375E+00 0.00000E+00
 -1       402 7.44287E+01 4.04375E+00 0.00000E+00
 -1       403 7.74287E+01 4.04375E+00 0.00000E+00
 -1       404 8.04287E+01 4.04375E+00 0.00000E+00
 -1       405 8.34287E+01 4.04375E+00 0.00000E+00
 -1       406 8.64287E+01 4.04375E+00 0.00000E+00
 -1       407 8.94287E+01 4.04375E+00 0.00000E+00
 -1       408 9.24287E+01 4.04375E+00 0.00000E+00
 -1       409 9.54287E+01 4.04375E+00 0.00000E+00
 -1       410 9.84287E+01 4.04375E+00 0.00000E+00
 -1       411 1.01429E+02 4.04375E+00 0.00000E+00
 -1       412 1.04429E+02 4.04375E+00 0.00000E+00
 -1       413 1.07429E+02 4.04375E+00 0.00000E+00
 -1       414 1.10429E+02 4.04375E+00 0.00000E+00
 -1       415 1.13429E+02 4.04375E+00 0.00000E+00
 -1       416 1.16429E+02 4.04375E+00 0.00000E+00
 -1       417 1.19429E+02 4.04375E+00 0.00000E+00
 -1       418 1.22429E+02 4.04375E+00 0.00000E+00
 -1       419 1.25429E+02 4.04375E+00 0.00000E+00
 -1       420 1.28429E+02 4.04375E+00 0.00000E+00
 -1       421 1.31429E+02 4.04375E+00 0.00000E+00
 -1       422 1.34429E+02 4.04375E+00 0.00000E+00
 -1       423 1.37429E+02 4.04375E+00 0.00000E+00
 -1       424 1.40429E+02 4.04375E+00 0.00000E+00
 -1       425 1.43429E+02 4.04375E+00 0.00000E+00
 -1       426 1.45415E+02 4.23438E+00 0.00000E+00
 -1       427 1.44804E+02 1.18000E+01 0.00000E+00
 -1       428 1.44804E+02 8.85000E+00 0.00000E+00
 -1       429 1.45110E+02 6.54219E+00 0.00000E+00
 -1       430 1.44804E+02 1.47000E+01 0.00000E+00
 -1       431 1.44804E+02 1.76500E+01 0.00000E+00
 -1       432 1.44804E+02 2.06000E+01 0.00000E+00
 -1       433 1.44804E+02 2.35500E+01 0.00000E+00
 -1       434 1.44804E+02 2.65000E+01 0.00000E+00
 -1       435 1.44804E+02 2.94500E+01 0.00000E+00
 -1       436 1.44804E+02 3.23500E+01 0.00000E+00
 -1       437 1.44804E+02 3.53000E+01 0.00000E+00
 -1       438 1.44804E+02 3.82500E+01 0.00000E+00
 -1       439 1.44804E+02 4.12000E+01 0.00000E+00
 -1       440 2.94981E+01 2.43051E+01 0.00000E+00
 -1       441 3.00261E+01 2.82759E+01 0.00000E+00
 -1       442 2.99604E+01 2.60186E+01 0.00000E+00
 -1       443 2.81791E+01 2.21408E+01 0.00000E+00
 -1       444 2.69235E+01 2.08827E+01 0.00000E+00
 -1       445 5.19600E+00 3.81500E+01 0.00000E+00
 -1       446 2.31020E+01 1.88234E+01 0.00000E+00
 -1       447 2.07455E+01 1.84492E+01 0.00000E+00
 -1       448 1.89550E+01 1.86268E+01 0.00000E+00
 -1       449 1.66203E+01 1.90091E+01 0.00000E+00
 -1       450 1.46222E+01 2.05010E+01 0.00000E+00
 -1       451 1.30898E+01 2.21418E+01 0.00000E+00
 -1       452 1.20936E+01 2.37013E+01 0.00000E+00
 -1       453 1.09986E+01 2.58168E+01 0.00000E+00
 -1       454 1.07798E+01 2.78838E+01 0.00000E+00
 -1       455 1.11302E+01 3.01627E+01 0.00000E+00
 -1       456 1.15303E+01 3.22521E+01 0.00000E+00
 -1       457 1.29667E+01 3.41640E+01 0.00000E+00
 -1       458 1.45494E+01 3.58306E+01 0.00000E+00
 -1       459 1.61183E+01 3.69805E+01 0.00000E+00
 -1       460 1.84868E+01 3.79603E+01 0.00000E+00
 -1       461 2.05572E+01 3.77441E+01 0.00000E+00
 -1       462 2.23004E+01 3.77099E+01 0.00000E+00
 -1       463 2.45195E+01 3.73808E+01 0.00000E+00
 -1       464 2.58163E+01 3.65154E+01 0.00000E+00
 -1       465 2.74816E+01 3.52950E+01 0.00000E+00
 -1       466 2.85371E+01 3.40277E+01 0.00000E+00
 -1       467 2.93736E+01 3.18433E+01 0.00000E+00
 -1       468 2.98942E+01 3.01407E+01 0.00000E+00
 -1       469 2.50128E+01 1.95514E+01 0.00000E+00
 -1       470 9.92869E+00 6.64175E+00 0.00000E+00
 -1       471 7.36878E+00 3.08750E+01 0.00000E+00
 -1       472 7.36878E+00 3.38250E+01 0.00000E+00
 -1       473 7.36878E+00 2.50500E+01 0.00000E+00
 -1       474 7.36878E+00 2.21000E+01 0.00000E+00
 -1       475 7.36878E+00 1.91500E+01 0.00000E+00
 -1       476 7.36878E+00 1.62000E+01 0.00000E+00
 -1       477 7.36878E+00 1.32500E+01 0.00000E+00
 -1       478 7.36878E+00 1.03000E+01 0.00000E+00
 -1       479 6.70604E+00 6.43437E+00 0.00000E+00
 -1       480 1.29287E+01 6.64175E+00 0.00000E+00
 -1       481 1.06500E+01 4.22060E+01 0.00000E+00
 -1       482 1.74834E+01 1.69601E+01 0.00000E+00
 -1       483 1.36500E+01 4.22060E+01 0.00000E+00
 -1       484 1.66500E+01 4.22060E+01 0.00000E+00
 -1       485 1.96500E+01 4.22060E+01 0.00000E+00
 -1       486 2.26500E+01 4.22060E+01 0.00000E+00
 -1       487 2.56500E+01 4.22060E+01 0.00000E+00
 -1       488 2.86500E+01 4.22060E+01 0.00000E+00
 -1       489 3.16500E+01 4.22060E+01 0.00000E+00
 -1       490 3.46500E+01 4.22060E+01 0.00000E+00
 -1       491 3.76500E+01 4.22060E+01 0.00000E+00
 -1       492 4.06500E+01 4.22060E+01 0.00000E+00
 -1       493 4.36500E+01 4.22060E+01 0.00000E+00
 -1       494 4.66500E+01 4.22060E+01 0.00000E+00
 -1       495 4.96500E+01 4.22060E+01 0.00000E+00
 -1       496 5.26500E+01 4.22060E+01 0.00000E+00
 -1       497 5.56500E+01 4.22060E+01 0.00000E+00
 -1       498 5.86500E+01 4.22060E+01 0.00000E+00
 -1       499 6.16500E+01 4.22060E+01 0.00000E+00
 -1       500 6.46500E+01 4.22060E+01 0.00000E+00
 -1       501 6.76500E+01 4.22060E+01 0.00000E+00
 -1       502 7.06500E+01 4.22060E+01 0.00000E+00
 -1       503 7.36500E+01 4.22060E+01 0.00000E+00
 -1       504 7.66500E+01 4.22060E+01 0.00000E+00
 -1       505 7.96500E+01 4.22060E+01 0.00000E+00
 -1       506 8.26500E+01 4.22060E+01 0.00000E+00
 -1       507 8.56500E+01 4.22060E+01 0.00000E+00
 -1       508 8.86500E+01 4.22060E+01 0.00000E+00
 -1       509 9.16500E+01 4.22060E+01 0.00000E+00
 -1       510 9.46500E+01 4.22060E+01 0.00000E+00
 -1       511 9.76500E+01 4.22060E+01 0.00000E+00
 -1       512 1.00650E+02 4.22060E+01 0.00000E+00
 -1       513 1.03650E+02 4.22060E+01 0.00000E+00
 -1       514 1.06650E+02 4.22060E+01 0.00000E+00
 -1       515 1.09650E+02 4.22060E+01 0.00000E+00
 -1       516 1.12650E+02 4.22060E+01 0.00000E+00
 -1       517 1.15650E+02 4.22060E+01 0.00000E+00
 -1       518 1.18650E+02 4.22060E+01 0.00000E+00
 -1       519 1.21650E+02 4.22060E+01 0.00000E+00
 -1       520 1.24650E+02 4.22060E+01 0.00000E+00
 -1       521 1.27650E+02 4.22060E+01 0.00000E+00
 -1       522 1.30650E+02 4.22060E+01 0.00000E+00
 -1       523 1.33650E+02 4.22060E+01 0.00000E+00
 -1       524 1.36650E+02 4.22060E+01 0.00000E+00
 -1       525 1.39650E+02 4.22060E+01 0.00000E+00
 -1       526 3.13043E+01 2.47369E+01 0.00000E+00
 -1       527 1.89287E+01 6.64175E+00 0.00000E+00
 -1       528 2.19287E+01 6.64175E+00 0.00000E+00
 -1       529 2.49287E+01 6.64175E+00 0.00000E+00
 -1       530 2.79287E+01 6.64175E+00 0.00000E+00
 -1       531 3.09287E+01 6.64175E+00 0.00000E+00
 -1       532 3.39287E+01 6.64175E+00 0.00000E+00
 -1       533 3.69287E+01 6.64175E+00 0.00000E+00
 -1       534 3.99287E+01 6.64175E+00 0.00000E+00
 -1       535 4.29287E+01 6.64175E+00 0.00000E+00
 -1       536 4.59287E+01 6.64175E+00 0.00000E+00
 -1       537 4.89287E+01 6.64175E+00 0.00000E+00
 -1       538 5.19287E+01 6.64175E+00 0.00000E+00
 -1       539 5.49287E+01 6.64175E+00 0.00000E+00
 -1       540 5.79287E+01 6.64175E+00 0.00000E+00
 -1       541 6.09287E+01 6.64175E+00 0.00000E+00
 -1       542 6.39287E+01 6.64175E+00 0.00000E+00
 -1       543 6.69287E+01 6.64175E+00 0.00000E+00
 -1       544 6.99287E+01 6.64175E+00 0.00000E+00
 -1       545 7.29287E+01 6.64175E+00 0.00000E+00
 -1       546 7.59287E+01 6.64175E+00 0.00000E+00
 -1       547 7.89287E+01 6.64175E+00 0.00000E+00
 -1       548 8.19287E+01 6.64175E+00 0.00000E+00
 -1       549 8.49287E+01 6.64175E+00 0.00000E+00
 -1       550 8.79287E+01 6.64175E+00 0.00000E+00
 -1       551 9.09287E+01 6.64175E+00 0.00000E+00
 -1       552 9.39287E+01 6.64175E+00 0.00000E+00
 -1       553 9.69287E+01 6.64175E+00 0.00000E+00
 -1       554 9.99287E+01 6.64175E+00 0.00000E+00
 -1       555 1.02929E+02 6.64175E+00 0.00000E+00
 -1       556 1.05929E+02 6.64175E+00 0.00000E+00
 -1       557 1.08929E+02 6.64175E+00 0.00000E+00
 -1       558 1.11929E+02 6.64175E+00 0.00000E+00
 -1       559 1.14929E+02 6.64175E+00 0.00000E+00
 -1       560 1.17929E+02 6.64175E+00 0.00000E+00
 -1       561 1.20929E+02 6.64175E+00 0.00000E+00
 -1       562 1.23929E+02 6.64175E+00 0.00000E+00
 -1       563 1.26929E+02 6.64175E+00 0.00000E+00
 -1       564 1.29929E+02 6.64175E+00 0.00000E+00
 -1       565 1.32929E+02 6.64175E+00 0.00000E+00
 -1       566 1.35929E+02 6.64175E+00 0.00000E+00
 -1       567 1.38929E+02 6.64175E+00 0.00000E+00
 -1       568 1.41929E+02 6.64175E+00 0.00000E+00
 -1       569 1.42206E+02 1.61750E+01 0.00000E+00
 -1       570 1.42206E+02 1.91250E+01 0.00000E+00
 -1       571 1.42206E+02 1.03250E+01 0.00000E+00
 -1       572 1.42206E+02 1.32500E+01 0.00000E+00
 -1       573 1.42206E+02 2.20750E+01 0.00000E+00
 -1       574 1.42206E+02 2.50250E+01 0.00000E+00
 -1       575 1.42206E+02 2.79750E+01 0.00000E+00
 -1       576 1.42206E+02 3.08750E+01 0.00000E+00
 -1       577 1.42206E+02 3.38250E+01 0.00000E+00
 -1       578 1.42206E+02 3.67750E+01 0.00000E+00
 -1       579 1.42206E+02 3.97250E+01 0.00000E+00
 -1       580 3.16710E+01 2.93293E+01 0.00000E+00
 -1       581 1.59287E+01 6.64175E+00 0.00000E+00
 -1       582 3.03031E+01 2.23303E+01 0.00000E+00
 -1       583 7.74896E+00 3.96250E+01 0.00000E+00
 -1       584 2.90025E+01 2.00635E+01 0.00000E+00
 -1       585 2.45785E+01 1.78195E+01 0.00000E+00
 -1       586 2.36616E+01 3.92419E+01 0.00000E+00
 -1       587 1.26637E+01 2.02079E+01 0.00000E+00
 -1       588 7.55887E+00 3.67250E+01 0.00000E+00
 -1       589 7.36878E+00 2.79625E+01 0.00000E+00
 -1       590 7.92300E+00 4.16530E+01 0.00000E+00
 -1       591 3.05570E+01 3.35489E+01 0.00000E+00
 -1       592 1.46954E+01 1.85150E+01 0.00000E+00
 -1       593 1.92739E+01 1.67824E+01 0.00000E+00
 -1       594 9.01699E+00 2.66520E+01 0.00000E+00
 -1       595 2.21796E+01 1.70252E+01 0.00000E+00
 -1       596 1.12875E+01 2.20885E+01 0.00000E+00
 -1       597 3.11939E+01 3.14690E+01 0.00000E+00
 -1       598 1.02462E+01 2.40862E+01 0.00000E+00
 -1       599 9.36741E+00 2.89310E+01 0.00000E+00
 -1       600 9.64571E+00 3.15300E+01 0.00000E+00
 -1       601 1.10783E+01 3.40873E+01 0.00000E+00
 -1       602 1.25144E+01 3.61783E+01 0.00000E+00
 -1       603 1.43199E+01 3.77888E+01 0.00000E+00
 -1       604 1.66790E+01 3.89779E+01 0.00000E+00
 -1       605 1.96827E+01 3.93914E+01 0.00000E+00
 -1       606 2.14260E+01 3.93572E+01 0.00000E+00
 -1       607 2.63060E+01 3.86534E+01 0.00000E+00
 -1       608 2.79714E+01 3.74331E+01 0.00000E+00
 -1       609 2.90268E+01 3.61658E+01 0.00000E+00
 -1       610 3.16053E+01 2.70721E+01 0.00000E+00
 -1       611 2.70917E+01 1.87321E+01 0.00000E+00
 -1       612 1.55585E+01 1.64659E+01 0.00000E+00
 -1       613 1.41678E+02 4.22645E+01 0.00000E+00
 -1       614 3.10467E+01 3.56870E+01 0.00000E+00
 -1       615 1.04760E+01 4.01780E+01 0.00000E+00
 -1       616 9.41903E+00 2.06250E+01 0.00000E+00
 -1       617 9.92174E+00 1.47250E+01 0.00000E+00
 -1       618 9.92174E+00 1.17750E+01 0.00000E+00
 -1       619 3.36875E+01 2.81411E+01 0.00000E+00
 -1       620 2.71500E+01 3.98206E+01 0.00000E+00
 -1       621 3.01500E+01 3.98206E+01 0.00000E+00
 -1       622 3.31500E+01 3.98206E+01 0.00000E+00
 -1       623 3.61500E+01 3.98206E+01 0.00000E+00
 -1       624 3.91500E+01 3.98206E+01 0.00000E+00
 -1       625 4.21500E+01 3.98206E+01 0.00000E+00
 -1       626 4.51500E+01 3.98206E+01 0.00000E+00
 -1       627 4.81500E+01 3.98206E+01 0.00000E+00
 -1       628 5.11500E+01 3.98206E+01 0.00000E+00
 -1       629 5.41500E+01 3.98206E+01 0.00000E+00
 -1       630 5.71500E+01 3.98206E+01 0.00000E+00
 -1       631 6.01500E+01 3.98206E+01 0.00000E+00
 -1       632 6.31500E+01 3.98206E+01 0.00000E+00
 -1       633 6.61500E+01 3.98206E+01 0.00000E+00
 -1       634 6.91500E+01 3.98206E+01 0.00000E+00
 -1       635 7.21500E+01 3.98206E+01 0.00000E+00
 -1       636 7.51500E+01 3.98206E+01 0.00000E+00
 -1       637 7.81500E+01 3.98206E+01 0.00000E+00
 -1       638 8.11500E+01 3.98206E+01 0.00000E+00
 -1       639 8.41500E+01 3.98206E+01 0.00000E+00
 -1       640 8.71500E+01 3.98206E+01 0.00000E+00
 -1       641 9.01500E+01 3.98206E+01 0.00000E+00
 -1       642 9.31500E+01 3.98206E+01 0.00000E+00
 -1       643 9.61500E+01 3.98206E+01 0.00000E+00
 -1       644 9.91500E+01 3.98206E+01 0.00000E+00
 -1       645 1.02150E+02 3.98206E+01 0.00000E+00
 -1       646 1.05150E+02 3.98206E+01 0.00000E+00
 -1       647 1.08150E+02 3.98206E+01 0.00000E+00
 -1       648 1.11150E+02 3.98206E+01 0.00000E+00
 -1       649 1.14150E+02 3.98206E+01 0.00000E+00
 -1       650 1.17150E+02 3.98206E+01 0.00000E+00
 -1       651 1.20150E+02 3.98206E+01 0.00000E+00
 -1       652 1.23150E+02 3.98206E+01 0.00000E+00
 -1       653 1.26150E+02 3.98206E+01 0.00000E+00
 -1       654 1.29150E+02 3.98206E+01 0.00000E+00
 -1       655 1.32150E+02 3.98206E+01 0.00000E+00
 -1       656 1.35150E+02 3.98206E+01 0.00000E+00
 -1       657 1.38150E+02 3.98206E+01 0.00000E+00
 -1       658 2.04287E+01 9.23975E+00 0.00000E+00
 -1       659 2.94287E+01 9.23975E+00 0.00000E+00
 -1       660 3.24287E+01 9.23975E+00 0.00000E+00
 -1       661 3.54287E+01 9.23975E+00 0.00000E+00
 -1       662 3.84287E+01 9.23975E+00 0.00000E+00
 -1       663 4.14287E+01 9.23975E+00 0.00000E+00
 -1       664 4.44287E+01 9.23975E+00 0.00000E+00
 -1       665 4.74287E+01 9.23975E+00 0.00000E+00
 -1       666 5.04287E+01 9.23975E+00 0.00000E+00
 -1       667 5.34287E+01 9.23975E+00 0.00000E+00
 -1       668 5.64287E+01 9.23975E+00 0.00000E+00
 -1       669 5.94287E+01 9.23975E+00 0.00000E+00
 -1       670 6.24287E+01 9.23975E+00 0.00000E+00
 -1       671 6.54287E+01 9.23975E+00 0.00000E+00
 -1       672 6.84287E+01 9.23975E+00 0.00000E+00
 -1       673 7.14287E+01 9.23975E+00 0.00000E+00
 -1       674 7.44287E+01 9.23975E+00 0.00000E+00
 -1       675 7.74287E+01 9.23975E+00 0.00000E+00
 -1       676 8.04287E+01 9.23975E+00 0.00000E+00
 -1       677 8.34287E+01 9.23975E+00 0.00000E+00
 -1       678 8.64287E+01 9.23975E+00 0.00000E+00
 -1       679 8.94287E+01 9.23975E+00 0.00000E+00
 -1       680 9.24287E+01 9.23975E+00 0.00000E+00
 -1       681 9.54287E+01 9.23975E+00 0.00000E+00
 -1       682 9.84287E+01 9.23975E+00 0.00000E+00
 -1       683 1.01429E+02 9.23975E+00 0.00000E+00
 -1       684 1.04429E+02 9.23975E+00 0.00000E+00
 -1       685 1.07429E+02 9.23975E+00 0.00000E+00
 -1       686 1.10429E+02 9.23975E+00 0.00000E+00
 -1       687 1.13429E+02 9.23975E+00 0.00000E+00
 -1       688 1.16429E+02 9.23975E+00 0.00000E+00
 -1       689 1.19429E+02 9.23975E+00 0.00000E+00
 -1       690 1.22429E+02 9.23975E+00 0.00000E+00
 -1       691 1.25429E+02 9.23975E+00 0.00000E+00
 -1       692 1.28429E+02 9.23975E+00 0.00000E+00
 -1       693 1.31429E+02 9.23975E+00 0.00000E+00
 -1       694 1.34429E+02 9.23975E+00 0.00000E+00
 -1       695 1.37429E+02 9.23975E+00 0.00000E+00
 -1       696 1.39817E+02 9.78238E+00 0.00000E+00
 -1       697 1.14252E+01 9.20837E+00 0.00000E+00
 -1       698 1.39608E+02 2.35500E+01 0.00000E+00
 -1       699 1.40178E+02 3.97728E+01 0.00000E+00
 -1       700 1.39608E+02 1.76500E+01 0.00000E+00
 -1       701 1.39608E+02 2.65000E+01 0.00000E+00
 -1       702 1.39608E+02 2.06000E+01 0.00000E+00
 -1       703 1.39608E+02 2.94000E+01 0.00000E+00
 -1       704 1.39608E+02 3.23500E+01 0.00000E+00
 -1       705 1.39608E+02 3.53000E+01 0.00000E+00
 -1       706 1.39893E+02 3.75364E+01 0.00000E+00
 -1       707 1.74287E+01 9.23975E+00 0.00000E+00
 -1       708 1.84241E+01 3.99637E+01 0.00000E+00
 -1       709 2.90276E+01 1.79906E+01 0.00000E+00
 -1       710 1.21639E+01 3.83885E+01 0.00000E+00
 -1       711 3.29429E+01 3.07359E+01 0.00000E+00
 -1       712 3.28514E+01 2.26818E+01 0.00000E+00
 -1       713 2.64287E+01 9.23975E+00 0.00000E+00
 -1       714 2.34287E+01 9.23975E+00 0.00000E+00
 -1       715 1.81928E+01 1.49977E+01 0.00000E+00
 -1       716 9.24597E+00 2.22946E+01 0.00000E+00
 -1       717 3.24353E+01 3.29866E+01 0.00000E+00
 -1       718 9.92174E+00 1.76750E+01 0.00000E+00
 -1       719 1.25816E+01 1.80438E+01 0.00000E+00
 -1       720 2.08696E+01 1.51946E+01 0.00000E+00
 -1       721 2.39182E+01 1.57942E+01 0.00000E+00
 -1       722 2.64777E+01 1.65062E+01 0.00000E+00
 -1       723 1.05916E+01 2.01353E+01 0.00000E+00
 -1       724 3.33865E+01 2.58060E+01 0.00000E+00
 -1       725 3.15508E+01 2.04149E+01 0.00000E+00
 -1       726 2.05847E+01 4.09215E+01 0.00000E+00
 -1       727 9.01185E+00 3.35649E+01 0.00000E+00
 -1       728 1.44287E+01 9.23975E+00 0.00000E+00
 -1       729 1.03826E+01 3.61038E+01 0.00000E+00
 -1       730 1.34448E+01 1.59948E+01 0.00000E+00
 -1       731 9.25146E+00 2.35750E+01 0.00000E+00
 -1       732 1.17922E+01 3.96649E+01 0.00000E+00
 -1       733 1.39608E+02 1.47250E+01 0.00000E+00
 -1       734 1.39713E+02 1.22537E+01 0.00000E+00
 -1       735 3.15759E+01 1.83420E+01 0.00000E+00
 -1       736 1.62679E+01 1.45036E+01 0.00000E+00
 -1       737 2.26082E+01 1.39636E+01 0.00000E+00
 -1       738 3.29250E+01 3.51247E+01 0.00000E+00
 -1       739 3.05984E+01 3.77538E+01 0.00000E+00
 -1       740 1.96815E+01 1.30515E+01 0.00000E+00
 -1       741 1.25197E+01 1.32500E+01 0.00000E+00
 -1       742 3.46500E+01 3.72226E+01 0.00000E+00
 -1       743 3.76500E+01 3.72226E+01 0.00000E+00
 -1       744 4.06500E+01 3.72226E+01 0.00000E+00
 -1       745 4.36500E+01 3.72226E+01 0.00000E+00
 -1       746 4.66500E+01 3.72226E+01 0.00000E+00
 -1       747 4.96500E+01 3.72226E+01 0.00000E+00
 -1       748 5.26500E+01 3.72226E+01 0.00000E+00
 -1       749 5.56500E+01 3.72226E+01 0.00000E+00
 -1       750 5.86500E+01 3.72226E+01 0.00000E+00
 -1       751 6.16500E+01 3.72226E+01 0.00000E+00
 -1       752 6.46500E+01 3.72226E+01 0.00000E+00
 -1       753 6.76500E+01 3.72226E+01 0.00000E+00
 -1       754 7.06500E+01 3.72226E+01 0.00000E+00
 -1       755 7.36500E+01 3.72226E+01 0.00000E+00
 -1       756 7.66500E+01 3.72226E+01 0.00000E+00
 -1       757 7.96500E+01 3.72226E+01 0.00000E+00
 -1       758 8.26500E+01 3.72226E+01 0.00000E+00
 -1       759 8.56500E+01 3.72226E+01 0.00000E+00
 -1       760 8.86500E+01 3.72226E+01 0.00000E+00
 -1       761 9.16500E+01 3.72226E+01 0.00000E+00
 -1       762 9.46500E+01 3.72226E+01 0.00000E+00
 -1       763 9.76500E+01 3.72226E+01 0.00000E+00
 -1       764 1.00650E+02 3.72226E+01 0.00000E+00
 -1       765 1.03650E+02 3.72226E+01 0.00000E+00
 -1       766 1.06650E+02 3.72226E+01 0.00000E+00
 -1       767 1.09650E+02 3.72226E+01 0.00000E+00
 -1       768 1.12650E+02 3.72226E+01 0.00000E+00
 -1       769 1.15650E+02 3.72226E+01 0.00000E+00
 -1       770 1.18650E+02 3.72226E+01 0.00000E+00
 -1       771 1.21650E+02 3.72226E+01 0.00000E+00
 -1       772 1.24650E+02 3.72226E+01 0.00000E+00
 -1       773 1.27650E+02 3.72226E+01 0.00000E+00
 -1       774 1.30650E+02 3.72226E+01 0.00000E+00
 -1       775 1.33650E+02 3.72226E+01 0.00000E+00
 -1       776 1.36650E+02 3.72226E+01 0.00000E+00
 -1       777 3.39287E+01 1.18378E+01 0.00000E+00
 -1       778 3.09287E+01 1.18378E+01 0.00000E+00
 -1       779 3.99287E+01 1.18378E+01 0.00000E+00
 -1       780 4.29287E+01 1.18378E+01 0.00000E+00
 -1       781 4.59287E+01 1.18378E+01 0.00000E+00
 -1       782 4.89287E+01 1.18378E+01 0.00000E+00
 -1       783 5.19287E+01 1.18378E+01 0.00000E+00
 -1       784 5.49287E+01 1.18378E+01 0.00000E+00
 -1       785 5.79287E+01 1.18378E+01 0.00000E+00
 -1       786 6.09287E+01 1.18378E+01 0.00000E+00
 -1       787 6.39287E+01 1.18378E+01 0.00000E+00
 -1       788 6.69287E+01 1.18378E+01 0.00000E+00
 -1       789 6.99287E+01 1.18378E+01 0.00000E+00
 -1       790 7.29287E+01 1.18378E+01 0.00000E+00
 -1       791 7.59287E+01 1.18378E+01 0.00000E+00
 -1       792 7.89287E+01 1.18378E+01 0.00000E+00
 -1       793 8.19287E+01 1.18378E+01 0.00000E+00
 -1       794 8.49287E+01 1.18378E+01 0.00000E+00
 -1       795 8.79287E+01 1.18378E+01 0.00000E+00
 -1       796 9.09287E+01 1.18378E+01 0.00000E+00
 -1       797 9.39287E+01 1.18378E+01 0.00000E+00
 -1       798 9.69287E+01 1.18378E+01 0.00000E+00
 -1       799 9.99287E+01 1.18378E+01 0.00000E+00
 -1       800 1.02929E+02 1.18378E+01 0.00000E+00
 -1       801 1.05929E+02 1.18378E+01 0.00000E+00
 -1       802 1.08929E+02 1.18378E+01 0.00000E+00
 -1       803 1.11929E+02 1.18378E+01 0.00000E+00
 -1       804 1.14929E+02 1.18378E+01 0.00000E+00
 -1       805 1.17929E+02 1.18378E+01 0.00000E+00
 -1       806 1.20929E+02 1.18378E+01 0.00000E+00
 -1       807 1.23929E+02 1.18378E+01 0.00000E+00
 -1       808 1.26929E+02 1.18378E+01 0.00000E+00
 -1       809 1.29929E+02 1.18378E+01 0.00000E+00
 -1       810 1.32929E+02 1.18378E+01 0.00000E+00
 -1       811 1.35929E+02 1.18378E+01 0.00000E+00
 -1       812 1.37821E+02 1.20457E+01 0.00000E+00
 -1       813 1.59287E+01 1.18378E+01 0.00000E+00
 -1       814 1.37010E+02 3.08750E+01 0.00000E+00
 -1       815 1.37010E+02 2.50250E+01 0.00000E+00
 -1       816 2.87841E+01 1.54765E+01 0.00000E+00
 -1       817 3.49746E+01 2.39260E+01 0.00000E+00
 -1       818 2.79287E+01 1.18378E+01 0.00000E+00
 -1       819 3.69287E+01 1.18378E+01 0.00000E+00
 -1       820 1.37010E+02 3.38250E+01 0.00000E+00
 -1       821 2.52684E+01 1.29007E+01 0.00000E+00
 -1       822 2.57474E+01 1.41749E+01 0.00000E+00
 -1       823 3.43622E+01 3.22386E+01 0.00000E+00
 -1       824 3.52381E+01 2.67542E+01 0.00000E+00
 -1       825 3.41248E+01 2.04446E+01 0.00000E+00
 -1       826 3.49638E+01 2.99116E+01 0.00000E+00
 -1       827 1.37010E+02 2.79500E+01 0.00000E+00
 -1       828 1.12782E+01 1.62885E+01 0.00000E+00
 -1       829 1.37010E+02 1.61875E+01 0.00000E+00
 -1       830 1.37010E+02 2.20750E+01 0.00000E+00
 -1       831 3.13324E+01 1.58279E+01 0.00000E+00
 -1       832 3.65143E+01 2.85247E+01 0.00000E+00
 -1       833 3.48519E+01 3.43767E+01 0.00000E+00
 -1       834 3.62480E+01 2.16889E+01 0.00000E+00
 -1       835 1.37010E+02 1.91313E+01 0.00000E+00
 -1       836 3.71478E+01 2.51500E+01 0.00000E+00
 -1       837 4.74287E+01 1.44358E+01 0.00000E+00
 -1       838 1.34412E+02 3.23500E+01 0.00000E+00
 -1       839 3.91500E+01 3.46246E+01 0.00000E+00
 -1       840 4.21500E+01 3.46246E+01 0.00000E+00
 -1       841 4.51500E+01 3.46246E+01 0.00000E+00
 -1       842 4.81500E+01 3.46246E+01 0.00000E+00
 -1       843 5.11500E+01 3.46246E+01 0.00000E+00
 -1       844 5.41500E+01 3.46246E+01 0.00000E+00
 -1       845 5.71500E+01 3.46246E+01 0.00000E+00
 -1       846 6.01500E+01 3.46246E+01 0.00000E+00
 -1       847 6.31500E+01 3.46246E+01 0.00000E+00
 -1       848 6.61500E+01 3.46246E+01 0.00000E+00
 -1       849 6.91500E+01 3.46246E+01 0.00000E+00
 -1       850 7.21500E+01 3.46246E+01 0.00000E+00
 -1       851 7.51500E+01 3.46246E+01 0.00000E+00
 -1       852 7.81500E+01 3.46246E+01 0.00000E+00
 -1       853 8.11500E+01 3.46246E+01 0.00000E+00
 -1       854 8.41500E+01 3.46246E+01 0.00000E+00
 -1       855 8.71500E+01 3.46246E+01 0.00000E+00
 -1       856 9.01500E+01 3.46246E+01 0.00000E+00
 -1       857 9.31500E+01 3.46246E+01 0.00000E+00
 -1       858 9.61500E+01 3.46246E+01 0.00000E+00
 -1       859 9.91500E+01 3.46246E+01 0.00000E+00
 -1       860 1.02150E+02 3.46246E+01 0.00000E+00
 -1       861 1.05150E+02 3.46246E+01 0.00000E+00
 -1       862 1.08150E+02 3.46246E+01 0.00000E+00
 -1       863 1.11150E+02 3.46246E+01 0.00000E+00
 -1       864 1.14150E+02 3.46246E+01 0.00000E+00
 -1       865 1.17150E+02 3.46246E+01 0.00000E+00
 -1       866 1.20150E+02 3.46246E+01 0.00000E+00
 -1       867 1.23150E+02 3.46246E+01 0.00000E+00
 -1       868 1.26150E+02 3.46246E+01 0.00000E+00
 -1       869 1.29150E+02 3.46246E+01 0.00000E+00
 -1       870 1.32150E+02 3.46246E+01 0.00000E+00
 -1       871 4.44287E+01 1.44358E+01 0.00000E+00
 -1       872 4.14287E+01 1.44358E+01 0.00000E+00
 -1       873 5.04287E+01 1.44358E+01 0.00000E+00
 -1       874 5.34287E+01 1.44358E+01 0.00000E+00
 -1       875 5.64287E+01 1.44358E+01 0.00000E+00
 -1       876 5.94287E+01 1.44358E+01 0.00000E+00
 -1       877 6.24287E+01 1.44358E+01 0.00000E+00
 -1       878 6.54287E+01 1.44358E+01 0.00000E+00
 -1       879 6.84287E+01 1.44358E+01 0.00000E+00
 -1       880 7.14287E+01 1.44358E+01 0.00000E+00
 -1       881 7.44287E+01 1.44358E+01 0.00000E+00
 -1       882 7.74287E+01 1.44358E+01 0.00000E+00
 -1       883 8.04287E+01 1.44358E+01 0.00000E+00
 -1       884 8.34287E+01 1.44358E+01 0.00000E+00
 -1       885 8.64287E+01 1.44358E+01 0.00000E+00
 -1       886 8.94287E+01 1.44358E+01 0.00000E+00
 -1       887 9.24287E+01 1.44358E+01 0.00000E+00
 -1       888 9.54287E+01 1.44358E+01 0.00000E+00
 -1       889 9.84287E+01 1.44358E+01 0.00000E+00
 -1       890 1.01429E+02 1.44358E+01 0.00000E+00
 -1       891 1.04429E+02 1.44358E+01 0.00000E+00
 -1       892 1.07429E+02 1.44358E+01 0.00000E+00
 -1       893 1.10429E+02 1.44358E+01 0.00000E+00
 -1       894 1.13429E+02 1.44358E+01 0.00000E+00
 -1       895 1.16429E+02 1.44358E+01 0.00000E+00
 -1       896 1.19429E+02 1.44358E+01 0.00000E+00
 -1       897 1.22429E+02 1.44358E+01 0.00000E+00
 -1       898 1.25429E+02 1.44358E+01 0.00000E+00
 -1       899 1.28429E+02 1.44358E+01 0.00000E+00
 -1       900 1.31429E+02 1.44358E+01 0.00000E+00
 -1       901 1.34429E+02 1.44358E+01 0.00000E+00
 -1       902 1.37415E+02 1.41166E+01 0.00000E+00
 -1       903 3.24287E+01 1.44358E+01 0.00000E+00
 -1       904 3.43683E+01 1.75532E+01 0.00000E+00
 -1       905 3.68102E+01 3.16302E+01 0.00000E+00
 -1       906 2.88486E+01 1.36682E+01 0.00000E+00
 -1       907 1.34412E+02 2.94250E+01 0.00000E+00
 -1       908 3.64915E+01 1.87975E+01 0.00000E+00
 -1       909 1.34412E+02 1.76594E+01 0.00000E+00
 -1       910 3.54287E+01 1.44358E+01 0.00000E+00
 -1       911 1.34412E+02 2.35500E+01 0.00000E+00
 -1       912 3.84240E+01 2.69205E+01 0.00000E+00
 -1       913 3.84287E+01 1.44358E+01 0.00000E+00
 -1       914 1.34412E+02 2.64750E+01 0.00000E+00
 -1       915 1.34412E+02 2.06063E+01 0.00000E+00
 -1       916 4.06500E+01 3.20266E+01 0.00000E+00
 -1       917 5.19287E+01 1.70338E+01 0.00000E+00
 -1       918 4.36500E+01 3.20266E+01 0.00000E+00
 -1       919 4.66500E+01 3.20266E+01 0.00000E+00
 -1       920 4.96500E+01 3.20266E+01 0.00000E+00
 -1       921 5.26500E+01 3.20266E+01 0.00000E+00
 -1       922 5.56500E+01 3.20266E+01 0.00000E+00
 -1       923 5.86500E+01 3.20266E+01 0.00000E+00
 -1       924 6.16500E+01 3.20266E+01 0.00000E+00
 -1       925 6.46500E+01 3.20266E+01 0.00000E+00
 -1       926 6.76500E+01 3.20266E+01 0.00000E+00
 -1       927 7.06500E+01 3.20266E+01 0.00000E+00
 -1       928 7.36500E+01 3.20266E+01 0.00000E+00
 -1       929 7.66500E+01 3.20266E+01 0.00000E+00
 -1       930 7.96500E+01 3.20266E+01 0.00000E+00
 -1       931 8.26500E+01 3.20266E+01 0.00000E+00
 -1       932 8.56500E+01 3.20266E+01 0.00000E+00
 -1       933 8.86500E+01 3.20266E+01 0.00000E+00
 -1       934 9.16500E+01 3.20266E+01 0.00000E+00
 -1       935 9.46500E+01 3.20266E+01 0.00000E+00
 -1       936 9.76500E+01 3.20266E+01 0.00000E+00
 -1       937 1.00650E+02 3.20266E+01 0.00000E+00
 -1       938 1.03650E+02 3.20266E+01 0.00000E+00
 -1       939 1.06650E+02 3.20266E+01 0.00000E+00
 -1       940 1.09650E+02 3.20266E+01 0.00000E+00
 -1       941 1.12650E+02 3.20266E+01 0.00000E+00
 -1       942 1.15650E+02 3.20266E+01 0.00000E+00
 -1       943 1.18650E+02 3.20266E+01 0.00000E+00
 -1       944 1.21650E+02 3.20266E+01 0.00000E+00
 -1       945 1.24650E+02 3.20266E+01 0.00000E+00
 -1       946 1.27650E+02 3.20266E+01 0.00000E+00
 -1       947 1.30650E+02 3.20266E+01 0.00000E+00
 -1       948 4.59287E+01 1.70338E+01 0.00000E+00
 -1       949 4.29287E+01 1.70338E+01 0.00000E+00
 -1       950 5.49287E+01 1.70338E+01 0.00000E+00
 -1       951 5.79287E+01 1.70338E+01 0.00000E+00
 -1       952 6.09287E+01 1.70338E+01 0.00000E+00
 -1       953 6.39287E+01 1.70338E+01 0.00000E+00
 -1       954 6.69287E+01 1.70338E+01 0.00000E+00
 -1       955 6.99287E+01 1.70338E+01 0.00000E+00
 -1       956 7.29287E+01 1.70338E+01 0.00000E+00
 -1       957 7.59287E+01 1.70338E+01 0.00000E+00
 -1       958 7.89287E+01 1.70338E+01 0.00000E+00
 -1       959 8.19287E+01 1.70338E+01 0.00000E+00
 -1       960 8.49287E+01 1.70338E+01 0.00000E+00
 -1       961 8.79287E+01 1.70338E+01 0.00000E+00
 -1       962 9.09287E+01 1.70338E+01 0.00000E+00
 -1       963 9.39287E+01 1.70338E+01 0.00000E+00
 -1       964 9.69287E+01 1.70338E+01 0.00000E+00
 -1       965 9.99287E+01 1.70338E+01 0.00000E+00
 -1       966 1.02929E+02 1.70338E+01 0.00000E+00
 -1       967 1.05929E+02 1.70338E+01 0.00000E+00
 -1       968 1.08929E+02 1.70338E+01 0.00000E+00
 -1       969 1.11929E+02 1.70338E+01 0.00000E+00
 -1       970 1.14929E+02 1.70338E+01 0.00000E+00
 -1       971 1.17929E+02 1.70338E+01 0.00000E+00
 -1       972 1.20929E+02 1.70338E+01 0.00000E+00
 -1       973 1.23929E+02 1.70338E+01 0.00000E+00
 -1       974 1.26929E+02 1.70338E+01 0.00000E+00
 -1       975 1.29929E+02 1.70338E+01 0.00000E+00
 -1       976 1.32170E+02 1.73466E+01 0.00000E+00
 -1       977 3.90065E+01 2.28193E+01 0.00000E+00
 -1       978 4.89287E+01 1.70338E+01 0.00000E+00
 -1       979 3.95370E+01 2.94735E+01 0.00000E+00
 -1       980 1.32170E+02 2.02934E+01 0.00000E+00
 -1       981 3.99287E+01 1.70338E+01 0.00000E+00
 -1       982 1.32170E+02 2.32372E+01 0.00000E+00
 -1       983 4.02828E+01 2.45898E+01 0.00000E+00
 -1       984 3.92500E+01 1.99279E+01 0.00000E+00
 -1       985 1.32170E+02 2.61622E+01 0.00000E+00
 -1       986 3.74601E+01 1.66166E+01 0.00000E+00
 -1       987 4.44287E+01 1.96318E+01 0.00000E+00
 -1       988 4.25370E+01 2.94735E+01 0.00000E+00
 -1       989 4.55370E+01 2.94735E+01 0.00000E+00
 -1       990 4.85370E+01 2.94735E+01 0.00000E+00
 -1       991 5.15370E+01 2.94735E+01 0.00000E+00
 -1       992 5.45370E+01 2.94735E+01 0.00000E+00
 -1       993 5.75370E+01 2.94735E+01 0.00000E+00
 -1       994 6.05370E+01 2.94735E+01 0.00000E+00
 -1       995 6.35370E+01 2.94735E+01 0.00000E+00
 -1       996 6.65370E+01 2.94735E+01 0.00000E+00
 -1       997 6.95370E+01 2.94735E+01 0.00000E+00
 -1       998 7.25370E+01 2.94735E+01 0.00000E+00
 -1       999 7.55370E+01 2.94735E+01 0.00000E+00
 -1      1000 7.85370E+01 2.94735E+01 0.00000E+00
 -1      1001 8.15370E+01 2.94735E+01 0.00000E+00
 -1      1002 8.45370E+01 2.94735E+01 0.00000E+00
 -1      1003 8.75370E+01 2.94735E+01 0.00000E+00
 -1      1004 9.05370E+01 2.94735E+01 0.00000E+00
 -1      1005 9.35370E+01 2.94735E+01 0.00000E+00
 -1      1006 9.65370E+01 2.94735E+01 0.00000E+00
 -1      1007 9.95370E+01 2.94735E+01 0.00000E+00
 -1      1008 1.02537E+02 2.94735E+01 0.00000E+00
 -1      1009 1.05537E+02 2.94735E+01 0.00000E+00
 -1      1010 1.08537E+02 2.94735E+01 0.00000E+00
 -1      1011 1.11537E+02 2.94735E+01 0.00000E+00
 -1      1012 1.14537E+02 2.94735E+01 0.00000E+00
 -1      1013 1.17537E+02 2.94735E+01 0.00000E+00
 -1      1014 1.20537E+02 2.94735E+01 0.00000E+00
 -1      1015 1.23537E+02 2.94735E+01 0.00000E+00
 -1      1016 1.26537E+02 2.94735E+01 0.00000E+00
 -1      1017 1.29537E+02 2.94735E+01 0.00000E+00
 -1      1018 5.94287E+01 1.96318E+01 0.00000E+00
 -1      1019 6.24287E+01 1.96318E+01 0.00000E+00
 -1      1020 6.54287E+01 1.96318E+01 0.00000E+00
 -1      1021 6.84287E+01 1.96318E+01 0.00000E+00
 -1      1022 7.14287E+01 1.96318E+01 0.00000E+00
 -1      1023 7.44287E+01 1.96318E+01 0.00000E+00
 -1      1024 7.74287E+01 1.96318E+01 0.00000E+00
 -1      1025 8.04287E+01 1.96318E+01 0.00000E+00
 -1      1026 8.34287E+01 1.96318E+01 0.00000E+00
 -1      1027 8.64287E+01 1.96318E+01 0.00000E+00
 -1      1028 8.94287E+01 1.96318E+01 0.00000E+00
 -1      1029 9.24287E+01 1.96318E+01 0.00000E+00
 -1      1030 9.54287E+01 1.96318E+01 0.00000E+00
 -1      1031 9.84287E+01 1.96318E+01 0.00000E+00
 -1      1032 1.01429E+02 1.96318E+01 0.00000E+00
 -1      1033 1.04429E+02 1.96318E+01 0.00000E+00
 -1      1034 1.07429E+02 1.96318E+01 0.00000E+00
 -1      1035 1.10429E+02 1.96318E+01 0.00000E+00
 -1      1036 1.13429E+02 1.96318E+01 0.00000E+00
 -1      1037 1.16429E+02 1.96318E+01 0.00000E+00
 -1      1038 1.19429E+02 1.96318E+01 0.00000E+00
 -1      1039 1.22429E+02 1.96318E+01 0.00000E+00
 -1      1040 1.25429E+02 1.96318E+01 0.00000E+00
 -1      1041 1.28429E+02 1.96318E+01 0.00000E+00
 -1      1042 1.30300E+02 1.99626E+01 0.00000E+00
 -1      1043 5.04287E+01 1.96318E+01 0.00000E+00
 -1      1044 4.74287E+01 1.96318E+01 0.00000E+00
 -1      1045 5.64287E+01 1.96318E+01 0.00000E+00
 -1      1046 5.34287E+01 1.96318E+01 0.00000E+00
 -1      1047 4.17522E+01 2.21853E+01 0.00000E+00
 -1      1048 1.30300E+02 2.29063E+01 0.00000E+00
 -1      1049 4.14099E+01 2.70317E+01 0.00000E+00
 -1      1050 4.44099E+01 2.70317E+01 0.00000E+00
 -1      1051 4.14287E+01 1.96318E+01 0.00000E+00
 -1      1052 4.74099E+01 2.70317E+01 0.00000E+00
 -1      1053 5.04099E+01 2.70317E+01 0.00000E+00
 -1      1054 5.34099E+01 2.70317E+01 0.00000E+00
 -1      1055 5.64099E+01 2.70317E+01 0.00000E+00
 -1      1056 5.94099E+01 2.70317E+01 0.00000E+00
 -1      1057 6.24099E+01 2.70317E+01 0.00000E+00
 -1      1058 6.54099E+01 2.70317E+01 0.00000E+00
 -1      1059 6.84099E+01 2.70317E+01 0.00000E+00
 -1      1060 7.14099E+01 2.70317E+01 0.00000E+00
 -1      1061 7.44099E+01 2.70317E+01 0.00000E+00
 -1      1062 7.74099E+01 2.70317E+01 0.00000E+00
 -1      1063 8.04099E+01 2.70317E+01 0.00000E+00
 -1      1064 8.34099E+01 2.70317E+01 0.00000E+00
 -1      1065 8.64099E+01 2.70317E+01 0.00000E+00
 -1      1066 8.94099E+01 2.70317E+01 0.00000E+00
 -1      1067 9.24099E+01 2.70317E+01 0.00000E+00
 -1      1068 9.54099E+01 2.70317E+01 0.00000E+00
 -1      1069 9.84099E+01 2.70317E+01 0.00000E+00
 -1      1070 1.01410E+02 2.70317E+01 0.00000E+00
 -1      1071 1.04410E+02 2.70317E+01 0.00000E+00
 -1      1072 1.07410E+02 2.70317E+01 0.00000E+00
 -1      1073 1.10410E+02 2.70317E+01 0.00000E+00
 -1      1074 1.13410E+02 2.70317E+01 0.00000E+00
 -1      1075 1.16410E+02 2.70317E+01 0.00000E+00
 -1      1076 1.19410E+02 2.70317E+01 0.00000E+00
 -1      1077 1.22410E+02 2.70317E+01 0.00000E+00
 -1      1078 1.25410E+02 2.70317E+01 0.00000E+00
 -1      1079 1.28410E+02 2.70317E+01 0.00000E+00
 -1      1080 6.39287E+01 2.22297E+01 0.00000E+00
 -1      1081 6.09287E+01 2.22297E+01 0.00000E+00
 -1      1082 6.99287E+01 2.22297E+01 0.00000E+00
 -1      1083 7.29287E+01 2.22297E+01 0.00000E+00
 -1      1084 7.59287E+01 2.22297E+01 0.00000E+00
 -1      1085 7.89287E+01 2.22297E+01 0.00000E+00
 -1      1086 8.19287E+01 2.22297E+01 0.00000E+00
 -1      1087 8.49287E+01 2.22297E+01 0.00000E+00
 -1      1088 8.79287E+01 2.22297E+01 0.00000E+00
 -1      1089 9.09287E+01 2.22297E+01 0.00000E+00
 -1      1090 9.39287E+01 2.22297E+01 0.00000E+00
 -1      1091 9.69287E+01 2.22297E+01 0.00000E+00
 -1      1092 9.99287E+01 2.22297E+01 0.00000E+00
 -1      1093 1.02929E+02 2.22297E+01 0.00000E+00
 -1      1094 1.05929E+02 2.22297E+01 0.00000E+00
 -1      1095 1.08929E+02 2.22297E+01 0.00000E+00
 -1      1096 1.11929E+02 2.22297E+01 0.00000E+00
 -1      1097 1.14929E+02 2.22297E+01 0.00000E+00
 -1      1098 1.17929E+02 2.22297E+01 0.00000E+00
 -1      1099 1.20929E+02 2.22297E+01 0.00000E+00
 -1      1100 1.23929E+02 2.22297E+01 0.00000E+00
 -1      1101 1.26929E+02 2.22297E+01 0.00000E+00
 -1      1102 4.59287E+01 2.22297E+01 0.00000E+00
 -1      1103 5.19287E+01 2.22297E+01 0.00000E+00
 -1      1104 4.89287E+01 2.22297E+01 0.00000E+00
 -1      1105 5.79287E+01 2.22297E+01 0.00000E+00
 -1      1106 6.69287E+01 2.22297E+01 0.00000E+00
 -1      1107 5.49287E+01 2.22297E+01 0.00000E+00
 -1      1108 1.26993E+02 2.38871E+01 0.00000E+00
 -1      1109 4.38128E+01 2.48054E+01 0.00000E+00
 -1      1110 7.74287E+01 2.48277E+01 0.00000E+00
 -1      1111 5.34287E+01 2.48277E+01 0.00000E+00
 -1      1112 4.89099E+01 2.44337E+01 0.00000E+00
 -1      1113 5.79099E+01 2.44337E+01 0.00000E+00
 -1      1114 8.19099E+01 2.44337E+01 0.00000E+00
 -1      1115 0.00000E+00 4.85000E+01 0.00000E+00
 -1      1116 0.00000E+00 4.55250E+01 0.00000E+00
 -1      1117 0.00000E+00 4.25750E+01 0.00000E+00
 -1      1118 0.00000E+00 3.96250E+01 0.00000E+00
 -1      1119 0.00000E+00 3.66750E+01 0.00000E+00
 -1      1120 0.00000E+00 3.37500E+01 0.00000E+00
 -1      1121 0.00000E+00 3.08250E+01 0.00000E+00
 -1      1122 0.00000E+00 2.79500E+01 0.00000E+00
 -1      1123 0.00000E+00 2.50750E+01 0.00000E+00
 -1      1124 0.00000E+00 2.21250E+01 0.00000E+00
 -1      1125 0.00000E+00 1.91750E+01 0.00000E+00
 -1      1126 0.00000E+00 1.62250E+01 0.00000E+00
 -1      1127 0.00000E+00 1.32750E+01 0.00000E+00
 -1      1128 0.00000E+00 1.03250E+01 0.00000E+00
 -1      1129 0.00000E+00 7.37500E+00 0.00000E+00
 -1      1130 0.00000E+00 4.42500E+00 0.00000E+00
 -1      1131 0.00000E+00 1.47500E+00 0.00000E+00
 -1      1132 1.57500E+00 5.00000E+01 0.00000E+00
 -1      1133 4.65000E+00 5.00000E+01 0.00000E+00
 -1      1134 7.65000E+00 5.00000E+01 0.00000E+00
 -1      1135 1.06500E+01 5.00000E+01 0.00000E+00
 -1      1136 1.36500E+01 5.00000E+01 0.00000E+00
 -1      1137 1.66500E+01 5.00000E+01 0.00000E+00
 -1      1138 1.96500E+01 5.00000E+01 0.00000E+00
 -1      1139 2.26500E+01 5.00000E+01 0.00000E+00
 -1      1140 2.56500E+01 5.00000E+01 0.00000E+00
 -1      1141 2.86500E+01 5.00000E+01 0.00000E+00
 -1      1142 3.16500E+01 5.00000E+01 0.00000E+00
 -1      1143 3.46500E+01 5.00000E+01 0.00000E+00
 -1      1144 3.76500E+01 5.00000E+01 0.00000E+00
 -1      1145 4.06500E+01 5.00000E+01 0.00000E+00
 -1      1146 4.36500E+01 5.00000E+01 0.00000E+00
 -1      1147 4.66500E+01 5.00000E+01 0.00000E+00
 -1      1148 4.96500E+01 5.00000E+01 0.00000E+00
 -1      1149 5.26500E+01 5.00000E+01 0.00000E+00
 -1      1150 5.56500E+01 5.00000E+01 0.00000E+00
 -1      1151 5.86500E+01 5.00000E+01 0.00000E+00
 -1      1152 6.16500E+01 5.00000E+01 0.00000E+00
 -1      1153 6.46500E+01 5.00000E+01 0.00000E+00
 -1      1154 6.76500E+01 5.00000E+01 0.00000E+00
 -1      1155 7.06500E+01 5.00000E+01 0.00000E+00
 -1      1156 7.36500E+01 5.00000E+01 0.00000E+00
 -1      1157 7.66500E+01 5.00000E+01 0.00000E+00
 -1      1158 7.96500E+01 5.00000E+01 0.00000E+00
 -1      1159 8.26500E+01 5.00000E+01 0.00000E+00
 -1      1160 8.56500E+01 5.00000E+01 0.00000E+00
 -1      1161 8.86500E+01 5.00000E+01 0.00000E+00
 -1      1162 9.16500E+01 5.00000E+01 0.00000E+00
 -1      1163 9.46500E+01 5.00000E+01 0.00000E+00
 -1      1164 9.76500E+01 5.00000E+01 0.00000E+00
 -1      1165 1.00650E+02 5.00000E+01 0.00000E+00
 -1      1166 1.03650E+02 5.00000E+01 0.00000E+00
 -1      1167 1.06650E+02 5.00000E+01 0.00000E+00
 -1      1168 1.09650E+02 5.00000E+01 0.00000E+00
 -1      1169 1.12650E+02 5.00000E+01 0.00000E+00
 -1      1170 1.15650E+02 5.00000E+01 0.00000E+00
 -1      1171 1.18650E+02 5.00000E+01 0.00000E+00
 -1      1172 1.21650E+02 5.00000E+01 0.00000E+00
 -1      1173 1.24650E+02 5.00000E+01 0.00000E+00
 -1      1174 1.27650E+02 5.00000E+01 0.00000E+00
 -1      1175 1.30650E+02 5.00000E+01 0.00000E+00
 -1      1176 1.33650E+02 5.00000E+01 0.00000E+00
 -1      1177 1.36650E+02 5.00000E+01 0.00000E+00
 -1      1178 1.39650E+02 5.00000E+01 0.00000E+00
 -1      1179 1.42650E+02 5.00000E+01 0.00000E+00
 -1      1180 1.45650E+02 5.00000E+01 0.00000E+00
 -1      1181 1.48575E+02 5.00000E+01 0.00000E+00
 -1      1182 1.57500E+00 0.00000E+00 0.00000E+00
 -1      1183 4.65000E+00 0.00000E+00 0.00000E+00
 -1      1184 7.65000E+00 0.00000E+00 0.00000E+00
 -1      1185 1.06500E+01 0.00000E+00 0.00000E+00
 -1      1186 1.36500E+01 0.00000E+00 0.00000E+00
 -1      1187 1.66500E+01 0.00000E+00 0.00000E+00
 -1      1188 1.96500E+01 0.00000E+00 0.00000E+00
 -1      1189 2.26500E+01 0.00000E+00 0.00000E+00
 -1      1190 2.56500E+01 0.00000E+00 0.00000E+00
 -1      1191 2.86500E+01 0.00000E+00 0.00000E+00
 -1      1192 3.16500E+01 0.00000E+00 0.00000E+00
 -1      1193 3.46500E+01 0.00000E+00 0.00000E+00
 -1      1194 3.76500E+01 0.00000E+00 0.00000E+00
 -1      1195 4.06500E+01 0.00000E+00 0.00000E+00
 -1      1196 4.36500E+01 0.00000E+00 0.00000E+00
 -1      1197 4.66500E+01 0.00000E+00 0.00000E+00
 -1      1198 4.96500E+01 0.00000E+00 0.00000E+00
 -1      1199 5.26500E+01 0.00000E+00 0.00000E+00
 -1      1200 5.56500E+01 0.00000E+00 0.00000E+00
 -1      1201 5.86500E+01 0.00000E+00 0.00000E+00
 -1      1202 6.16500E+01 0.00000E+00 0.00000E+00
 -1      1203 6.46500E+01 0.00000E+00 0.00000E+00
 -1      1204 6.76500E+01 0.00000E+00 0.00000E+00
 -1      1205 7.06500E+01 0.00000E+00 0.00000E+00
 -1      1206 7.36500E+01 0.00000E+00 0.00000E+00
 -1      1207 7.66500E+01 0.00000E+00 0.00000E+00
 -1      1208 7.96500E+01 0.00000E+00 0.00000E+00
 -1      1209 8.26500E+01 0.00000E+00 0.00000E+00
 -1      1210 8.56500E+01 0.00000E+00 0.00000E+00
 -1      1211 8.86500E+01 0.00000E+00 0.00000E+00
 -1      1212 9.16500E+01 0.00000E+00 0.00000E+00
 -1      1213 9.46500E+01 0.00000E+00 0.00000E+00
 -1      1214 9.76500E+01 0.00000E+00 0.00000E+00
 -1      1215 1.00650E+02 0.00000E+00 0.00000E+00
 -1      1216 1.03650E+02 0.00000E+00 0.00000E+00
 -1      1217 1.06650E+02 0.00000E+00 0.00000E+00
 -1      1218 1.09650E+02 0.00000E+00 0.00000E+00
 -1      1219 1.12650E+02 0.00000E+00 0.00000E+00
 -1      1220 1.15650E+02 0.00000E+00 0.00000E+00
 -1      1221 1.18650E+02 0.00000E+00 0.00000E+00
 -1      1222 1.21650E+02 0.00000E+00 0.00000E+00
 -1      1223 1.24650E+02 0.00000E+00 0.00000E+00
 -1      1224 1.27650E+02 0.00000E+00 0.00000E+00
 -1      1225 1.30650E+02 0.00000E+00 0.00000E+00
 -1      1226 1.33650E+02 0.00000E+00 0.00000E+00
 -1      1227 1.36650E+02 0.00000E+00 0.00000E+00
 -1      1228 1.39650E+02 0.00000E+00 0.00000E+00
 -1      1229 1.42650E+02 0.00000E+00 0.00000E+00
 -1      1230 1.45650E+02 0.00000E+00 0.00000E+00
 -1      1231 1.48575E+02 0.00000E+00 0.00000E+00
 -1      1232 1.50000E+02 1.47500E+00 0.00000E+00
 -1      1233 1.50000E+02 4.42500E+00 0.00000E+00
 -1      1234 1.50000E+02 7.37500E+00 0.00000E+00
 -1      1235 1.50000E+02 1.03250E+01 0.00000E+00
 -1      1236 1.50000E+02 1.32750E+01 0.00000E+00
 -1      1237 1.50000E+02 1.62000E+01 0.00000E+00
 -1      1238 1.50000E+02 1.91250E+01 0.00000E+00
 -1      1239 1.50000E+02 2.20750E+01 0.00000E+00
 -1      1240 1.50000E+02 2.50250E+01 0.00000E+00
 -1      1241 1.50000E+02 2.79750E+01 0.00000E+00
 -1      1242 1.50000E+02 3.09250E+01 0.00000E+00
 -1      1243 1.50000E+02 3.38500E+01 0.00000E+00
 -1      1244 1.50000E+02 3.67750E+01 0.00000E+00
 -1      1245 1.50000E+02 3.97250E+01 0.00000E+00
 -1      1246 1.50000E+02 4.26750E+01 0.00000E+00
 -1      1247 1.50000E+02 4.56250E+01 0.00000E+00
 -1      1248 1.50000E+02 4.85500E+01 0.00000E+00
 -1      1249 2.75176E+01 2.75060E+01 0.00000E+00
 -1      1250 2.71906E+01 2.60307E+01 0.00000E+00
 -1      1251 2.65340E+01 2.46262E+01 0.00000E+00
 -1      1252 2.55922E+01 2.34086E+01 0.00000E+00
 -1      1253 2.44394E+01 2.24478E+01 0.00000E+00
 -1      1254 2.30905E+01 2.17478E+01 0.00000E+00
 -1      1255 2.15637E+01 2.13468E+01 0.00000E+00
 -1      1256 2.00014E+01 2.12967E+01 0.00000E+00
 -1      1257 1.85087E+01 2.15817E+01 0.00000E+00
 -1      1258 1.70085E+01 2.22422E+01 0.00000E+00
 -1      1259 1.57226E+01 2.32147E+01 0.00000E+00
 -1      1260 1.47483E+01 2.43724E+01 0.00000E+00
 -1      1261 1.40329E+01 2.57449E+01 0.00000E+00
 -1      1262 1.36344E+01 2.72556E+01 0.00000E+00
 -1      1263 1.35812E+01 2.88207E+01 0.00000E+00
 -1      1264 1.38858E+01 3.03855E+01 0.00000E+00
 -1      1265 1.45416E+01 3.18494E+01 0.00000E+00
 -1      1266 1.55467E+01 3.31599E+01 0.00000E+00
 -1      1267 1.67899E+01 3.41725E+01 0.00000E+00
 -1      1268 1.82370E+01 3.48778E+01 0.00000E+00
 -1      1269 1.98035E+01 3.52334E+01 0.00000E+00
 -1      1270 2.12325E+01 3.52420E+01 0.00000E+00
 -1      1271 2.25970E+01 3.49715E+01 0.00000E+00
 -1      1272 2.38698E+01 3.44424E+01 0.00000E+00
 -1      1273 2.49798E+01 3.37025E+01 0.00000E+00
 -1      1274 2.59261E+01 3.27693E+01 0.00000E+00
 -1      1275 2.67088E+01 3.16197E+01 0.00000E+00
 -1      1276 2.72560E+01 3.03146E+01 0.00000E+00
 -1      1277 2.75255E+01 2.89670E+01 0.00000E+00
 -1      1278 1.57500E+00 4.85000E+01 0.00000E+00
 -1      1279 1.29900E+00 4.47875E+01 0.00000E+00
 -1      1280 1.29900E+00 4.62625E+01 0.00000E+00
 -1      1281 1.29900E+00 4.18375E+01 0.00000E+00
 -1      1282 1.29900E+00 4.33125E+01 0.00000E+00
 -1      1283 2.59800E+00 4.40500E+01 0.00000E+00
 -1      1284 1.29900E+00 3.88875E+01 0.00000E+00
 -1      1285 1.29900E+00 4.03625E+01 0.00000E+00
 -1      1286 2.59800E+00 4.11000E+01 0.00000E+00
 -1      1287 1.29900E+00 3.59375E+01 0.00000E+00
 -1      1288 1.29900E+00 3.74125E+01 0.00000E+00
 -1      1289 2.59800E+00 3.81500E+01 0.00000E+00
 -1      1290 1.29900E+00 3.30375E+01 0.00000E+00
 -1      1291 1.29900E+00 3.44875E+01 0.00000E+00
 -1      1292 2.59800E+00 3.52250E+01 0.00000E+00
 -1      1293 1.29900E+00 3.00875E+01 0.00000E+00
 -1      1294 1.29900E+00 3.15625E+01 0.00000E+00
 -1      1295 2.59800E+00 3.23000E+01 0.00000E+00
 -1      1296 1.29900E+00 2.72875E+01 0.00000E+00
 -1      1297 1.29900E+00 2.86875E+01 0.00000E+00
 -1      1298 2.59800E+00 2.94250E+01 0.00000E+00
 -1      1299 1.29900E+00 2.43375E+01 0.00000E+00
 -1      1300 1.29900E+00 2.58125E+01 0.00000E+00
 -1      1301 2.59800E+00 2.65500E+01 0.00000E+00
 -1      1302 1.29900E+00 2.13875E+01 0.00000E+00
 -1      1303 1.29900E+00 2.28625E+01 0.00000E+00
 -1      1304 2.59800E+00 2.36000E+01 0.00000E+00
 -1      1305 1.29900E+00 1.84375E+01 0.00000E+00
 -1      1306 1.29900E+00 1.99125E+01 0.00000E+00
 -1      1307 2.59800E+00 2.06500E+01 0.00000E+00
 -1      1308 1.29900E+00 1.54875E+01 0.00000E+00
 -1      1309 1.29900E+00 1.69625E+01 0.00000E+00
 -1      1310 2.59800E+00 1.77000E+01 0.00000E+00
 -1      1311 1.29900E+00 1.25375E+01 0.00000E+00
 -1      1312 1.29900E+00 1.40125E+01 0.00000E+00
 -1      1313 2.59800E+00 1.47500E+01 0.00000E+00
 -1      1314 1.29900E+00 9.58750E+00 0.00000E+00
 -1      1315 1.29900E+00 1.10625E+01 0.00000E+00
 -1      1316 2.59800E+00 1.18000E+01 0.00000E+00
 -1      1317 1.29900E+00 6.63750E+00 0.00000E+00
 -1      1318 1.29900E+00 8.11250E+00 0.00000E+00
 -1      1319 2.59800E+00 8.85000E+00 0.00000E+00
 -1      1320 1.29900E+00 3.68750E+00 0.00000E+00
 -1      1321 1.29900E+00 5.16250E+00 0.00000E+00
 -1      1322 2.59800E+00 5.90000E+00 0.00000E+00
 -1      1323 1.43700E+00 1.10625E+00 0.00000E+00
 -1      1324 1.43700E+00 2.58125E+00 0.00000E+00
 -1      1325 2.73600E+00 3.31875E+00 0.00000E+00
 -1      1326 3.01200E+00 1.10625E+00 0.00000E+00
 -1      1327 3.90000E+00 4.87010E+01 0.00000E+00
 -1      1328 5.40000E+00 4.87010E+01 0.00000E+00
 -1      1329 6.90000E+00 4.87010E+01 0.00000E+00
 -1      1330 8.40000E+00 4.87010E+01 0.00000E+00
 -1      1331 6.15000E+00 4.74020E+01 0.00000E+00
 -1      1332 9.90000E+00 4.87010E+01 0.00000E+00
 -1      1333 1.14000E+01 4.87010E+01 0.00000E+00
 -1      1334 9.15000E+00 4.74020E+01 0.00000E+00
 -1      1335 1.29000E+01 4.87010E+01 0.00000E+00
 -1      1336 1.44000E+01 4.87010E+01 0.00000E+00
 -1      1337 1.21500E+01 4.74020E+01 0.00000E+00
 -1      1338 1.59000E+01 4.87010E+01 0.00000E+00
 -1      1339 1.74000E+01 4.87010E+01 0.00000E+00
 -1      1340 1.51500E+01 4.74020E+01 0.00000E+00
 -1      1341 1.89000E+01 4.87010E+01 0.00000E+00
 -1      1342 2.04000E+01 4.87010E+01 0.00000E+00
 -1      1343 1.81500E+01 4.74020E+01 0.00000E+00
 -1      1344 2.19000E+01 4.87010E+01 0.00000E+00
 -1      1345 2.34000E+01 4.87010E+01 0.00000E+00
 -1      1346 2.11500E+01 4.74020E+01 0.00000E+00
 -1      1347 2.49000E+01 4.87010E+01 0.00000E+00
 -1      1348 2.64000E+01 4.87010E+01 0.00000E+00
 -1      1349 2.41500E+01 4.74020E+01 0.00000E+00
 -1      1350 2.79000E+01 4.87010E+01 0.00000E+00
 -1      1351 2.94000E+01 4.87010E+01 0.00000E+00
 -1      1352 2.71500E+01 4.74020E+01 0.00000E+00
 -1      1353 3.09000E+01 4.87010E+01 0.00000E+00
 -1      1354 3.24000E+01 4.87010E+01 0.00000E+00
 -1      1355 3.01500E+01 4.74020E+01 0.00000E+00
 -1      1356 3.39000E+01 4.87010E+01 0.00000E+00
 -1      1357 3.54000E+01 4.87010E+01 0.00000E+00
 -1      1358 3.31500E+01 4.74020E+01 0.00000E+00
 -1      1359 3.69000E+01 4.87010E+01 0.00000E+00
 -1      1360 3.84000E+01 4.87010E+01 0.00000E+00
 -1      1361 3.61500E+01 4.74020E+01 0.00000E+00
 -1      1362 3.99000E+01 4.87010E+01 0.00000E+00
 -1      1363 4.14000E+01 4.87010E+01 0.00000E+00
 -1      1364 3.91500E+01 4.74020E+01 0.00000E+00
 -1      1365 4.29000E+01 4.87010E+01 0.00000E+00
 -1      1366 4.44000E+01 4.87010E+01 0.00000E+00
 -1      1367 4.21500E+01 4.74020E+01 0.00000E+00
 -1      1368 4.59000E+01 4.87010E+01 0.00000E+00
 -1      1369 4.74000E+01 4.87010E+01 0.00000E+00
 -1      1370 4.51500E+01 4.74020E+01 0.00000E+00
 -1      1371 4.89000E+01 4.87010E+01 0.00000E+00
 -1      1372 5.04000E+01 4.87010E+01 0.00000E+00
 -1      1373 4.81500E+01 4.74020E+01 0.00000E+00
 -1      1374 5.19000E+01 4.87010E+01 0.00000E+00
 -1      1375 5.34000E+01 4.87010E+01 0.00000E+00
 -1      1376 5.11500E+01 4.74020E+01 0.00000E+00
 -1      1377 5.49000E+01 4.87010E+01 0.00000E+00
 -1      1378 5.64000E+01 4.87010E+01 0.00000E+00
 -1      1379 5.41500E+01 4.74020E+01 0.00000E+00
 -1      1380 5.79000E+01 4.87010E+01 0.00000E+00
 -1      1381 5.94000E+01 4.87010E+01 0.00000E+00
 -1      1382 5.71500E+01 4.74020E+01 0.00000E+00
 -1      1383 6.09000E+01 4.87010E+01 0.00000E+00
 -1      1384 6.24000E+01 4.87010E+01 0.00000E+00
 -1      1385 6.01500E+01 4.74020E+01 0.00000E+00
 -1      1386 6.39000E+01 4.87010E+01 0.00000E+00
 -1      1387 6.54000E+01 4.87010E+01 0.00000E+00
 -1      1388 6.31500E+01 4.74020E+01 0.00000E+00
 -1      1389 6.69000E+01 4.87010E+01 0.00000E+00
 -1      1390 6.84000E+01 4.87010E+01 0.00000E+00
 -1      1391 6.61500E+01 4.74020E+01 0.00000E+00
 -1      1392 6.99000E+01 4.87010E+01 0.00000E+00
 -1      1393 7.14000E+01 4.87010E+01 0.00000E+00
 -1      1394 6.91500E+01 4.74020E+01 0.00000E+00
 -1      1395 7.29000E+01 4.87010E+01 0.00000E+00
 -1      1396 7.44000E+01 4.87010E+01 0.00000E+00
 -1      1397 7.21500E+01 4.74020E+01 0.00000E+00
 -1      1398 7.59000E+01 4.87010E+01 0.00000E+00
 -1      1399 7.74000E+01 4.87010E+01 0.00000E+00
 -1      1400 7.51500E+01 4.74020E+01 0.00000E+00
 -1      1401 7.89000E+01 4.87010E+01 0.00000E+00
 -1      1402 8.04000E+01 4.87010E+01 0.00000E+00
 -1      1403 7.81500E+01 4.74020E+01 0.00000E+00
 -1      1404 8.19000E+01 4.87010E+01 0.00000E+00
 -1      1405 8.34000E+01 4.87010E+01 0.00000E+00
 -1      1406 8.11500E+01 4.74020E+01 0.00000E+00
 -1      1407 8.49000E+01 4.87010E+01 0.00000E+00
 -1      1408 8.64000E+01 4.87010E+01 0.00000E+00
 -1      1409 8.41500E+01 4.74020E+01 0.00000E+00
 -1      1410 8.79000E+01 4.87010E+01 0.00000E+00
 -1      1411 8.94000E+01 4.87010E+01 0.00000E+00
 -1      1412 8.71500E+01 4.74020E+01 0.00000E+00
 -1      1413 9.09000E+01 4.87010E+01 0.00000E+00
 -1      1414 9.24000E+01 4.87010E+01 0.00000E+00
 -1      1415 9.01500E+01 4.74020E+01 0.00000E+00
 -1      1416 9.39000E+01 4.87010E+01 0.00000E+00
 -1      1417 9.54000E+01 4.87010E+01 0.00000E+00
 -1      1418 9.31500E+01 4.74020E+01 0.00000E+00
 -1      1419 9.69000E+01 4.87010E+01 0.00000E+00
 -1      1420 9.84000E+01 4.87010E+01 0.00000E+00
 -1      1421 9.61500E+01 4.74020E+01 0.00000E+00
 -1      1422 9.99000E+01 4.87010E+01 0.00000E+00
 -1      1423 1.01400E+02 4.87010E+01 0.00000E+00
 -1      1424 9.91500E+01 4.74020E+01 0.00000E+00
 -1      1425 1.02900E+02 4.87010E+01 0.00000E+00
 -1      1426 1.04400E+02 4.87010E+01 0.00000E+00
 -1      1427 1.02150E+02 4.74020E+01 0.00000E+00
 -1      1428 1.05900E+02 4.87010E+01 0.00000E+00
 -1      1429 1.07400E+02 4.87010E+01 0.00000E+00
 -1      1430 1.05150E+02 4.74020E+01 0.00000E+00
 -1      1431 1.08900E+02 4.87010E+01 0.00000E+00
 -1      1432 1.10400E+02 4.87010E+01 0.00000E+00
 -1      1433 1.08150E+02 4.74020E+01 0.00000E+00
 -1      1434 1.11900E+02 4.87010E+01 0.00000E+00
 -1      1435 1.13400E+02 4.87010E+01 0.00000E+00
 -1      1436 1.11150E+02 4.74020E+01 0.00000E+00
 -1      1437 1.14900E+02 4.87010E+01 0.00000E+00
 -1      1438 1.16400E+02 4.87010E+01 0.00000E+00
 -1      1439 1.14150E+02 4.74020E+01 0.00000E+00
 -1      1440 1.17900E+02 4.87010E+01 0.00000E+00
 -1      1441 1.19400E+02 4.87010E+01 0.00000E+00
 -1      1442 1.17150E+02 4.74020E+01 0.00000E+00
 -1      1443 1.20900E+02 4.87010E+01 0.00000E+00
 -1      1444 1.22400E+02 4.87010E+01 0.00000E+00
 -1      1445 1.20150E+02 4.74020E+01 0.00000E+00
 -1      1446 1.23900E+02 4.87010E+01 0.00000E+00
 -1      1447 1.25400E+02 4.87010E+01 0.00000E+00
 -1      1448 1.23150E+02 4.74020E+01 0.00000E+00
 -1      1449 1.26900E+02 4.87010E+01 0.00000E+00
 -1      1450 1.28400E+02 4.87010E+01 0.00000E+00
 -1      1451 1.26150E+02 4.74020E+01 0.00000E+00
 -1      1452 1.29900E+02 4.87010E+01 0.00000E+00
 -1      1453 1.31400E+02 4.87010E+01 0.00000E+00
 -1      1454 1.29150E+02 4.74020E+01 0.00000E+00
 -1      1455 1.32900E+02 4.87010E+01 0.00000E+00
 -1      1456 1.34400E+02 4.87010E+01 0.00000E+00
 -1      1457 1.32150E+02 4.74020E+01 0.00000E+00
 -1      1458 1.35900E+02 4.87010E+01 0.00000E+00
 -1      1459 1.37400E+02 4.87010E+01 0.00000E+00
 -1      1460 1.35150E+02 4.74020E+01 0.00000E+00
 -1      1461 1.38900E+02 4.87010E+01 0.00000E+00
 -1      1462 1.40400E+02 4.87010E+01 0.00000E+00
 -1      1463 1.38150E+02 4.74020E+01 0.00000E+00
 -1      1464 1.41900E+02 4.87010E+01 0.00000E+00
 -1      1465 1.43400E+02 4.87010E+01 0.00000E+00
 -1      1466 1.41150E+02 4.74020E+01 0.00000E+00
 -1      1467 1.44900E+02 4.87010E+01 0.00000E+00
 -1      1468 1.46400E+02 4.87010E+01 0.00000E+00
 -1      1469 1.44150E+02 4.74020E+01 0.00000E+00
 -1      1470 1.48575E+02 4.85500E+01 0.00000E+00
 -1      1471 1.47825E+02 4.72510E+01 0.00000E+00
 -1      1472 6.01200E+00 1.10625E+00 0.00000E+00
 -1      1473 4.51200E+00 1.10625E+00 0.00000E+00
 -1      1474 4.37400E+00 2.21250E+00 0.00000E+00
 -1      1475 9.01200E+00 1.10625E+00 0.00000E+00
 -1      1476 7.51200E+00 1.10625E+00 0.00000E+00
 -1      1477 7.37400E+00 2.21250E+00 0.00000E+00
 -1      1478 1.20120E+01 1.10625E+00 0.00000E+00
 -1      1479 1.05120E+01 1.10625E+00 0.00000E+00
 -1      1480 1.03740E+01 2.21250E+00 0.00000E+00
 -1      1481 1.50120E+01 1.10625E+00 0.00000E+00
 -1      1482 1.35120E+01 1.10625E+00 0.00000E+00
 -1      1483 1.33740E+01 2.21250E+00 0.00000E+00
 -1      1484 1.80120E+01 1.10625E+00 0.00000E+00
 -1      1485 1.65120E+01 1.10625E+00 0.00000E+00
 -1      1486 1.63740E+01 2.21250E+00 0.00000E+00
 -1      1487 2.10120E+01 1.10625E+00 0.00000E+00
 -1      1488 1.95120E+01 1.10625E+00 0.00000E+00
 -1      1489 1.93740E+01 2.21250E+00 0.00000E+00
 -1      1490 2.40120E+01 1.10625E+00 0.00000E+00
 -1      1491 2.25120E+01 1.10625E+00 0.00000E+00
 -1      1492 2.23740E+01 2.21250E+00 0.00000E+00
 -1      1493 2.70120E+01 1.10625E+00 0.00000E+00
 -1      1494 2.55120E+01 1.10625E+00 0.00000E+00
 -1      1495 2.53740E+01 2.21250E+00 0.00000E+00
 -1      1496 3.00120E+01 1.10625E+00 0.00000E+00
 -1      1497 2.85120E+01 1.10625E+00 0.00000E+00
 -1      1498 2.83740E+01 2.21250E+00 0.00000E+00
 -1      1499 3.30120E+01 1.10625E+00 0.00000E+00
 -1      1500 3.15120E+01 1.10625E+00 0.00000E+00
 -1      1501 3.13740E+01 2.21250E+00 0.00000E+00
 -1      1502 3.60120E+01 1.10625E+00 0.00000E+00
 -1      1503 3.45120E+01 1.10625E+00 0.00000E+00
 -1      1504 3.43740E+01 2.21250E+00 0.00000E+00
 -1      1505 3.90120E+01 1.10625E+00 0.00000E+00
 -1      1506 3.75120E+01 1.10625E+00 0.00000E+00
 -1      1507 3.73740E+01 2.21250E+00 0.00000E+00
 -1      1508 4.20120E+01 1.10625E+00 0.00000E+00
 -1      1509 4.05120E+01 1.10625E+00 0.00000E+00
 -1      1510 4.03740E+01 2.21250E+00 0.00000E+00
 -1      1511 4.50120E+01 1.10625E+00 0.00000E+00
 -1      1512 4.35120E+01 1.10625E+00 0.00000E+00
 -1      1513 4.33740E+01 2.21250E+00 0.00000E+00
 -1      1514 4.80120E+01 1.10625E+00 0.00000E+00
 -1      1515 4.65120E+01 1.10625E+00 0.00000E+00
 -1      1516 4.63740E+01 2.21250E+00 0.00000E+00
 -1      1517 5.10120E+01 1.10625E+00 0.00000E+00
 -1      1518 4.95120E+01 1.10625E+00 0.00000E+00
 -1      1519 4.93740E+01 2.21250E+00 0.00000E+00
 -1      1520 5.40120E+01 1.10625E+00 0.00000E+00
 -1      1521 5.25120E+01 1.10625E+00 0.00000E+00
 -1      1522 5.23740E+01 2.21250E+00 0.00000E+00
 -1      1523 5.70120E+01 1.10625E+00 0.00000E+00
 -1      1524 5.55120E+01 1.10625E+00 0.00000E+00
 -1      1525 5.53740E+01 2.21250E+00 0.00000E+00
 -1      1526 6.00120E+01 1.10625E+00 0.00000E+00
 -1      1527 5.85120E+01 1.10625E+00 0.00000E+00
 -1      1528 5.83740E+01 2.21250E+00 0.00000E+00
 -1      1529 6.30120E+01 1.10625E+00 0.00000E+00
 -1      1530 6.15120E+01 1.10625E+00 0.00000E+00
 -1      1531 6.13740E+01 2.21250E+00 0.00000E+00
 -1      1532 6.60120E+01 1.10625E+00 0.00000E+00
 -1      1533 6.45120E+01 1.10625E+00 0.00000E+00
 -1      1534 6.43740E+01 2.21250E+00 0.00000E+00
 -1      1535 6.90120E+01 1.10625E+00 0.00000E+00
 -1      1536 6.75120E+01 1.10625E+00 0.00000E+00
 -1      1537 6.73740E+01 2.21250E+00 0.00000E+00
 -1      1538 7.20120E+01 1.10625E+00 0.00000E+00
 -1      1539 7.05120E+01 1.10625E+00 0.00000E+00
 -1      1540 7.03740E+01 2.21250E+00 0.00000E+00
 -1      1541 7.50120E+01 1.10625E+00 0.00000E+00
 -1      1542 7.35120E+01 1.10625E+00 0.00000E+00
 -1      1543 7.33740E+01 2.21250E+00 0.00000E+00
 -1      1544 7.80120E+01 1.10625E+00 0.00000E+00
 -1      1545 7.65120E+01 1.10625E+00 0.00000E+00
 -1      1546 7.63740E+01 2.21250E+00 0.00000E+00
 -1      1547 8.10120E+01 1.10625E+00 0.00000E+00
 -1      1548 7.95120E+01 1.10625E+00 0.00000E+00
 -1      1549 7.93740E+01 2.21250E+00 0.00000E+00
 -1      1550 8.40120E+01 1.10625E+00 0.00000E+00
 -1      1551 8.25120E+01 1.10625E+00 0.00000E+00
 -1      1552 8.23740E+01 2.21250E+00 0.00000E+00
 -1      1553 8.70120E+01 1.10625E+00 0.00000E+00
 -1      1554 8.55120E+01 1.10625E+00 0.00000E+00
 -1      1555 8.53740E+01 2.21250E+00 0.00000E+00
 -1      1556 9.00120E+01 1.10625E+00 0.00000E+00
 -1      1557 8.85120E+01 1.10625E+00 0.00000E+00
 -1      1558 8.83740E+01 2.21250E+00 0.00000E+00
 -1      1559 9.30120E+01 1.10625E+00 0.00000E+00
 -1      1560 9.15120E+01 1.10625E+00 0.00000E+00
 -1      1561 9.13740E+01 2.21250E+00 0.00000E+00
 -1      1562 9.60120E+01 1.10625E+00 0.00000E+00
 -1      1563 9.45120E+01 1.10625E+00 0.00000E+00
 -1      1564 9.43740E+01 2.21250E+00 0.00000E+00
 -1      1565 9.90120E+01 1.10625E+00 0.00000E+00
 -1      1566 9.75120E+01 1.10625E+00 0.00000E+00
 -1      1567 9.73740E+01 2.21250E+00 0.00000E+00
 -1      1568 1.02012E+02 1.10625E+00 0.00000E+00
 -1      1569 1.00512E+02 1.10625E+00 0.00000E+00
 -1      1570 1.00374E+02 2.21250E+00 0.00000E+00
 -1      1571 1.05012E+02 1.10625E+00 0.00000E+00
 -1      1572 1.03512E+02 1.10625E+00 0.00000E+00
 -1      1573 1.03374E+02 2.21250E+00 0.00000E+00
 -1      1574 1.08012E+02 1.10625E+00 0.00000E+00
 -1      1575 1.06512E+02 1.10625E+00 0.00000E+00
 -1      1576 1.06374E+02 2.21250E+00 0.00000E+00
 -1      1577 1.11012E+02 1.10625E+00 0.00000E+00
 -1      1578 1.09512E+02 1.10625E+00 0.00000E+00
 -1      1579 1.09374E+02 2.21250E+00 0.00000E+00
 -1      1580 1.14012E+02 1.10625E+00 0.00000E+00
 -1      1581 1.12512E+02 1.10625E+00 0.00000E+00
 -1      1582 1.12374E+02 2.21250E+00 0.00000E+00
 -1      1583 1.17012E+02 1.10625E+00 0.00000E+00
 -1      1584 1.15512E+02 1.10625E+00 0.00000E+00
 -1      1585 1.15374E+02 2.21250E+00 0.00000E+00
 -1      1586 1.20012E+02 1.10625E+00 0.00000E+00
 -1      1587 1.18512E+02 1.10625E+00 0.00000E+00
 -1      1588 1.18374E+02 2.21250E+00 0.00000E+00
 -1      1589 1.23012E+02 1.10625E+00 0.00000E+00
 -1      1590 1.21512E+02 1.10625E+00 0.00000E+00
 -1      1591 1.21374E+02 2.21250E+00 0.00000E+00
 -1      1592 1.26012E+02 1.10625E+00 0.00000E+00
 -1      1593 1.24512E+02 1.10625E+00 0.00000E+00
 -1      1594 1.24374E+02 2.21250E+00 0.00000E+00
 -1      1595 1.29012E+02 1.10625E+00 0.00000E+00
 -1      1596 1.27512E+02 1.10625E+00 0.00000E+00
 -1      1597 1.27374E+02 2.21250E+00 0.00000E+00
 -1      1598 1.32012E+02 1.10625E+00 0.00000E+00
 -1      1599 1.30512E+02 1.10625E+00 0.00000E+00
 -1      1600 1.30374E+02 2.21250E+00 0.00000E+00
 -1      1601 1.35012E+02 1.10625E+00 0.00000E+00
 -1      1602 1.33512E+02 1.10625E+00 0.00000E+00
 -1      1603 1.33374E+02 2.21250E+00 0.00000E+00
 -1      1604 1.38012E+02 1.10625E+00 0.00000E+00
 -1      1605 1.36512E+02 1.10625E+00 0.00000E+00
 -1      1606 1.36374E+02 2.21250E+00 0.00000E+00
 -1      1607 1.41012E+02 1.10625E+00 0.00000E+00
 -1      1608 1.39512E+02 1.10625E+00 0.00000E+00
 -1      1609 1.39374E+02 2.21250E+00 0.00000E+00
 -1      1610 1.44012E+02 1.10625E+00 0.00000E+00
 -1      1611 1.42512E+02 1.10625E+00 0.00000E+00
 -1      1612 1.42374E+02 2.21250E+00 0.00000E+00
 -1      1613 1.47012E+02 1.10625E+00 0.00000E+00
 -1      1614 1.45512E+02 1.10625E+00 0.00000E+00
 -1      1615 1.45374E+02 2.21250E+00 0.00000E+00
 -1      1616 1.48575E+02 1.47500E+00 0.00000E+00
 -1      1617 1.48701E+02 5.16250E+00 0.00000E+00
 -1      1618 1.48701E+02 3.68750E+00 0.00000E+00
 -1      1619 1.48701E+02 8.11250E+00 0.00000E+00
 -1      1620 1.48701E+02 6.63750E+00 0.00000E+00
 -1      1621 1.47402E+02 5.90000E+00 0.00000E+00
 -1      1622 1.48701E+02 1.10625E+01 0.00000E+00
 -1      1623 1.48701E+02 9.58750E+00 0.00000E+00
 -1      1624 1.47402E+02 8.85000E+00 0.00000E+00
 -1      1625 1.48701E+02 1.40125E+01 0.00000E+00
 -1      1626 1.48701E+02 1.25375E+01 0.00000E+00
 -1      1627 1.47402E+02 1.18000E+01 0.00000E+00
 -1      1628 1.48701E+02 1.69125E+01 0.00000E+00
 -1      1629 1.48701E+02 1.54625E+01 0.00000E+00
 -1      1630 1.47402E+02 1.47250E+01 0.00000E+00
 -1      1631 1.48701E+02 1.98625E+01 0.00000E+00
 -1      1632 1.48701E+02 1.83875E+01 0.00000E+00
 -1      1633 1.47402E+02 1.76500E+01 0.00000E+00
 -1      1634 1.48701E+02 2.28125E+01 0.00000E+00
 -1      1635 1.48701E+02 2.13375E+01 0.00000E+00
 -1      1636 1.47402E+02 2.06000E+01 0.00000E+00
 -1      1637 1.48701E+02 2.57625E+01 0.00000E+00
 -1      1638 1.48701E+02 2.42875E+01 0.00000E+00
 -1      1639 1.47402E+02 2.35500E+01 0.00000E+00
 -1      1640 1.48701E+02 2.87125E+01 0.00000E+00
 -1      1641 1.48701E+02 2.72375E+01 0.00000E+00
 -1      1642 1.47402E+02 2.65000E+01 0.00000E+00
 -1      1643 1.48701E+02 3.16625E+01 0.00000E+00
 -1      1644 1.48701E+02 3.01875E+01 0.00000E+00
 -1      1645 1.47402E+02 2.94500E+01 0.00000E+00
 -1      1646 1.48701E+02 3.45625E+01 0.00000E+00
 -1      1647 1.48701E+02 3.31125E+01 0.00000E+00
 -1      1648 1.47402E+02 3.23750E+01 0.00000E+00
 -1      1649 1.48701E+02 3.75125E+01 0.00000E+00
 -1      1650 1.48701E+02 3.60375E+01 0.00000E+00
 -1      1651 1.47402E+02 3.53000E+01 0.00000E+00
 -1      1652 1.48701E+02 4.04625E+01 0.00000E+00
 -1      1653 1.48701E+02 3.89875E+01 0.00000E+00
 -1      1654 1.47402E+02 3.82500E+01 0.00000E+00
 -1      1655 1.48701E+02 4.34125E+01 0.00000E+00
 -1      1656 1.48701E+02 4.19375E+01 0.00000E+00
 -1      1657 1.47402E+02 4.12000E+01 0.00000E+00
 -1      1658 1.48263E+02 4.60692E+01 0.00000E+00
 -1      1659 1.48263E+02 4.45942E+01 0.00000E+00
 -1      1660 1.46964E+02 4.38568E+01 0.00000E+00
 -1      1661 1.46088E+02 4.62202E+01 0.00000E+00
 -1      1662 2.80775E+01 2.70576E+01 0.00000E+00
 -1      1663 2.81619E+01 2.78214E+01 0.00000E+00
 -1      1664 2.76084E+01 2.54974E+01 0.00000E+00
 -1      1665 2.78464E+01 2.62008E+01 0.00000E+00
 -1      1666 2.69083E+01 2.39244E+01 0.00000E+00
 -1      1667 2.73292E+01 2.46138E+01 0.00000E+00
 -1      1668 2.57462E+01 2.27510E+01 0.00000E+00
 -1      1669 2.62547E+01 2.32768E+01 0.00000E+00
 -1      1670 2.44782E+01 2.16956E+01 0.00000E+00
 -1      1671 2.51185E+01 2.21219E+01 0.00000E+00
 -1      1672 2.29603E+01 2.10455E+01 0.00000E+00
 -1      1673 2.36601E+01 2.13169E+01 0.00000E+00
 -1      1674 2.12459E+01 2.06532E+01 0.00000E+00
 -1      1675 2.20653E+01 2.07719E+01 0.00000E+00
 -1      1676 1.95897E+01 2.07604E+01 0.00000E+00
 -1      1677 2.03225E+01 2.07017E+01 0.00000E+00
 -1      1678 1.79444E+01 2.10791E+01 0.00000E+00
 -1      1679 1.86944E+01 2.08492E+01 0.00000E+00
 -1      1680 1.62742E+01 2.18374E+01 0.00000E+00
 -1      1681 1.70108E+01 2.14037E+01 0.00000E+00
 -1      1682 1.49715E+01 2.29771E+01 0.00000E+00
 -1      1683 1.55190E+01 2.24537E+01 0.00000E+00
 -1      1684 1.40336E+01 2.43476E+01 0.00000E+00
 -1      1685 1.44548E+01 2.37203E+01 0.00000E+00
 -1      1686 1.32493E+01 2.58659E+01 0.00000E+00
 -1      1687 1.35356E+01 2.51273E+01 0.00000E+00
 -1      1688 1.29378E+01 2.75424E+01 0.00000E+00
 -1      1689 1.30499E+01 2.67803E+01 0.00000E+00
 -1      1690 1.29279E+01 2.92709E+01 0.00000E+00
 -1      1691 1.28658E+01 2.84776E+01 0.00000E+00
 -1      1692 1.33919E+01 3.09605E+01 0.00000E+00
 -1      1693 1.31511E+01 3.01992E+01 0.00000E+00
 -1      1694 1.41581E+01 3.25457E+01 0.00000E+00
 -1      1695 1.37467E+01 3.18531E+01 0.00000E+00
 -1      1696 1.53846E+01 3.39086E+01 0.00000E+00
 -1      1697 1.47941E+01 3.33027E+01 0.00000E+00
 -1      1698 1.68045E+01 3.48525E+01 0.00000E+00
 -1      1699 1.61665E+01 3.44447E+01 0.00000E+00
 -1      1700 1.84136E+01 3.56605E+01 0.00000E+00
 -1      1701 1.76093E+01 3.53775E+01 0.00000E+00
 -1      1702 2.01125E+01 3.58780E+01 0.00000E+00
 -1      1703 1.93632E+01 3.57966E+01 0.00000E+00
 -1      1704 2.16237E+01 3.57805E+01 0.00000E+00
 -1      1705 2.09515E+01 3.58454E+01 0.00000E+00
 -1      1706 2.31295E+01 3.54923E+01 0.00000E+00
 -1      1707 2.24447E+01 3.57006E+01 0.00000E+00
 -1      1708 2.44335E+01 3.47923E+01 0.00000E+00
 -1      1709 2.38496E+01 3.51056E+01 0.00000E+00
 -1      1710 2.56026E+01 3.39356E+01 0.00000E+00
 -1      1711 2.50819E+01 3.43595E+01 0.00000E+00
 -1      1712 2.65781E+01 3.28867E+01 0.00000E+00
 -1      1713 2.61559E+01 3.33907E+01 0.00000E+00
 -1      1714 2.74563E+01 3.16089E+01 0.00000E+00
 -1      1715 2.71059E+01 3.22531E+01 0.00000E+00
 -1      1716 2.79034E+01 3.01556E+01 0.00000E+00
 -1      1717 2.77047E+01 3.08077E+01 0.00000E+00
 -1      1718 2.81289E+01 2.86790E+01 0.00000E+00
 -1      1719 2.80603E+01 2.93682E+01 0.00000E+00
 -1      1720 2.58085E+01 2.19635E+01 0.00000E+00
 -1      1721 2.70898E+01 2.32401E+01 0.00000E+00
 -1      1722 1.48437E+02 2.58125E+00 0.00000E+00
 -1      1723 1.47138E+02 3.31875E+00 0.00000E+00
 -1      1724 2.85327E+01 2.65116E+01 0.00000E+00
 -1      1725 2.80225E+01 2.47712E+01 0.00000E+00
 -1      1726 2.87309E+01 2.82260E+01 0.00000E+00
 -1      1727 2.43626E+01 2.09557E+01 0.00000E+00
 -1      1728 2.26495E+01 2.03033E+01 0.00000E+00
 -1      1729 2.08312E+01 2.00782E+01 0.00000E+00
 -1      1730 1.90125E+01 2.02156E+01 0.00000E+00
 -1      1731 1.71836E+01 2.06291E+01 0.00000E+00
 -1      1732 1.54947E+01 2.15701E+01 0.00000E+00
 -1      1733 1.42228E+01 2.29295E+01 0.00000E+00
 -1      1734 1.32081E+01 2.44524E+01 0.00000E+00
 -1      1735 1.25106E+01 2.61465E+01 0.00000E+00
 -1      1736 1.22392E+01 2.79961E+01 0.00000E+00
 -1      1737 1.23904E+01 2.98597E+01 0.00000E+00
 -1      1738 1.29684E+01 3.16806E+01 0.00000E+00
 -1      1739 1.39592E+01 3.33302E+01 0.00000E+00
 -1      1740 1.53771E+01 3.46233E+01 0.00000E+00
 -1      1741 1.69638E+01 3.56844E+01 0.00000E+00
 -1      1742 1.87182E+01 3.63455E+01 0.00000E+00
 -1      1743 2.05068E+01 3.64489E+01 0.00000E+00
 -1      1744 2.21668E+01 3.63365E+01 0.00000E+00
 -1      1745 2.37080E+01 3.58698E+01 0.00000E+00
 -1      1746 2.50766E+01 3.50503E+01 0.00000E+00
 -1      1747 2.62784E+01 3.40728E+01 0.00000E+00
 -1      1748 2.73595E+01 3.28943E+01 0.00000E+00
 -1      1749 2.81355E+01 3.14595E+01 0.00000E+00
 -1      1750 2.85409E+01 2.98710E+01 0.00000E+00
 -1      1751 2.87400E+00 4.77625E+01 0.00000E+00
 -1      1752 3.89700E+00 4.03625E+01 0.00000E+00
 -1      1753 3.89700E+00 4.18375E+01 0.00000E+00
 -1      1754 3.89700E+00 4.33125E+01 0.00000E+00
 -1      1755 3.89700E+00 4.47875E+01 0.00000E+00
 -1      1756 5.19600E+00 4.25750E+01 0.00000E+00
 -1      1757 3.79069E+00 3.45000E+01 0.00000E+00
 -1      1758 3.79069E+00 3.59500E+01 0.00000E+00
 -1      1759 3.79069E+00 3.15500E+01 0.00000E+00
 -1      1760 3.79069E+00 3.30250E+01 0.00000E+00
 -1      1761 4.98339E+00 3.37500E+01 0.00000E+00
 -1      1762 3.79069E+00 2.87500E+01 0.00000E+00
 -1      1763 3.79069E+00 3.01500E+01 0.00000E+00
 -1      1764 4.98339E+00 3.08750E+01 0.00000E+00
 -1      1765 3.79069E+00 2.58000E+01 0.00000E+00
 -1      1766 3.79069E+00 2.72750E+01 0.00000E+00
 -1      1767 4.98339E+00 2.80000E+01 0.00000E+00
 -1      1768 3.79069E+00 2.28500E+01 0.00000E+00
 -1      1769 3.79069E+00 2.43250E+01 0.00000E+00
 -1      1770 4.98339E+00 2.50500E+01 0.00000E+00
 -1      1771 3.79069E+00 1.99000E+01 0.00000E+00
 -1      1772 3.79069E+00 2.13750E+01 0.00000E+00
 -1      1773 4.98339E+00 2.21000E+01 0.00000E+00
 -1      1774 3.79069E+00 1.69500E+01 0.00000E+00
 -1      1775 3.79069E+00 1.84250E+01 0.00000E+00
 -1      1776 4.98339E+00 1.91500E+01 0.00000E+00
 -1      1777 3.79069E+00 1.40000E+01 0.00000E+00
 -1      1778 3.79069E+00 1.54750E+01 0.00000E+00
 -1      1779 4.98339E+00 1.62000E+01 0.00000E+00
 -1      1780 3.79069E+00 1.10500E+01 0.00000E+00
 -1      1781 3.79069E+00 1.25250E+01 0.00000E+00
 -1      1782 4.98339E+00 1.32500E+01 0.00000E+00
 -1      1783 3.79069E+00 8.10000E+00 0.00000E+00
 -1      1784 3.79069E+00 9.57500E+00 0.00000E+00
 -1      1785 4.98339E+00 1.03000E+01 0.00000E+00
 -1      1786 3.79069E+00 5.15000E+00 0.00000E+00
 -1      1787 3.79069E+00 6.62500E+00 0.00000E+00
 -1      1788 4.98339E+00 7.35000E+00 0.00000E+00
 -1      1789 4.15135E+00 3.12812E+00 0.00000E+00
 -1      1790 4.01335E+00 4.23438E+00 0.00000E+00
 -1      1791 5.20604E+00 4.95937E+00 0.00000E+00
 -1      1792 5.65135E+00 3.12812E+00 0.00000E+00
 -1      1793 3.62400E+00 4.64635E+01 0.00000E+00
 -1      1794 8.65135E+00 3.12812E+00 0.00000E+00
 -1      1795 7.15135E+00 3.12812E+00 0.00000E+00
 -1      1796 6.92869E+00 4.04375E+00 0.00000E+00
 -1      1797 4.92300E+00 4.57260E+01 0.00000E+00
 -1      1798 8.40000E+00 4.61030E+01 0.00000E+00
 -1      1799 9.90000E+00 4.61030E+01 0.00000E+00
 -1      1800 1.14000E+01 4.61030E+01 0.00000E+00
 -1      1801 1.29000E+01 4.61030E+01 0.00000E+00
 -1      1802 1.06500E+01 4.48040E+01 0.00000E+00
 -1      1803 1.44000E+01 4.61030E+01 0.00000E+00
 -1      1804 1.59000E+01 4.61030E+01 0.00000E+00
 -1      1805 1.36500E+01 4.48040E+01 0.00000E+00
 -1      1806 1.74000E+01 4.61030E+01 0.00000E+00
 -1      1807 1.89000E+01 4.61030E+01 0.00000E+00
 -1      1808 1.66500E+01 4.48040E+01 0.00000E+00
 -1      1809 2.04000E+01 4.61030E+01 0.00000E+00
 -1      1810 2.19000E+01 4.61030E+01 0.00000E+00
 -1      1811 1.96500E+01 4.48040E+01 0.00000E+00
 -1      1812 2.34000E+01 4.61030E+01 0.00000E+00
 -1      1813 2.49000E+01 4.61030E+01 0.00000E+00
 -1      1814 2.26500E+01 4.48040E+01 0.00000E+00
 -1      1815 2.64000E+01 4.61030E+01 0.00000E+00
 -1      1816 2.79000E+01 4.61030E+01 0.00000E+00
 -1      1817 2.56500E+01 4.48040E+01 0.00000E+00
 -1      1818 2.94000E+01 4.61030E+01 0.00000E+00
 -1      1819 3.09000E+01 4.61030E+01 0.00000E+00
 -1      1820 2.86500E+01 4.48040E+01 0.00000E+00
 -1      1821 3.24000E+01 4.61030E+01 0.00000E+00
 -1      1822 3.39000E+01 4.61030E+01 0.00000E+00
 -1      1823 3.16500E+01 4.48040E+01 0.00000E+00
 -1      1824 3.54000E+01 4.61030E+01 0.00000E+00
 -1      1825 3.69000E+01 4.61030E+01 0.00000E+00
 -1      1826 3.46500E+01 4.48040E+01 0.00000E+00
 -1      1827 3.84000E+01 4.61030E+01 0.00000E+00
 -1      1828 3.99000E+01 4.61030E+01 0.00000E+00
 -1      1829 3.76500E+01 4.48040E+01 0.00000E+00
 -1      1830 4.14000E+01 4.61030E+01 0.00000E+00
 -1      1831 4.29000E+01 4.61030E+01 0.00000E+00
 -1      1832 4.06500E+01 4.48040E+01 0.00000E+00
 -1      1833 4.44000E+01 4.61030E+01 0.00000E+00
 -1      1834 4.59000E+01 4.61030E+01 0.00000E+00
 -1      1835 4.36500E+01 4.48040E+01 0.00000E+00
 -1      1836 4.74000E+01 4.61030E+01 0.00000E+00
 -1      1837 4.89000E+01 4.61030E+01 0.00000E+00
 -1      1838 4.66500E+01 4.48040E+01 0.00000E+00
 -1      1839 5.04000E+01 4.61030E+01 0.00000E+00
 -1      1840 5.19000E+01 4.61030E+01 0.00000E+00
 -1      1841 4.96500E+01 4.48040E+01 0.00000E+00
 -1      1842 5.34000E+01 4.61030E+01 0.00000E+00
 -1      1843 5.49000E+01 4.61030E+01 0.00000E+00
 -1      1844 5.26500E+01 4.48040E+01 0.00000E+00
 -1      1845 5.64000E+01 4.61030E+01 0.00000E+00
 -1      1846 5.79000E+01 4.61030E+01 0.00000E+00
 -1      1847 5.56500E+01 4.48040E+01 0.00000E+00
 -1      1848 5.94000E+01 4.61030E+01 0.00000E+00
 -1      1849 6.09000E+01 4.61030E+01 0.00000E+00
 -1      1850 5.86500E+01 4.48040E+01 0.00000E+00
 -1      1851 6.24000E+01 4.61030E+01 0.00000E+00
 -1      1852 6.39000E+01 4.61030E+01 0.00000E+00
 -1      1853 6.16500E+01 4.48040E+01 0.00000E+00
 -1      1854 6.54000E+01 4.61030E+01 0.00000E+00
 -1      1855 6.69000E+01 4.61030E+01 0.00000E+00
 -1      1856 6.46500E+01 4.48040E+01 0.00000E+00
 -1      1857 6.84000E+01 4.61030E+01 0.00000E+00
 -1      1858 6.99000E+01 4.61030E+01 0.00000E+00
 -1      1859 6.76500E+01 4.48040E+01 0.00000E+00
 -1      1860 7.14000E+01 4.61030E+01 0.00000E+00
 -1      1861 7.29000E+01 4.61030E+01 0.00000E+00
 -1      1862 7.06500E+01 4.48040E+01 0.00000E+00
 -1      1863 7.44000E+01 4.61030E+01 0.00000E+00
 -1      1864 7.59000E+01 4.61030E+01 0.00000E+00
 -1      1865 7.36500E+01 4.48040E+01 0.00000E+00
 -1      1866 7.74000E+01 4.61030E+01 0.00000E+00
 -1      1867 7.89000E+01 4.61030E+01 0.00000E+00
 -1      1868 7.66500E+01 4.48040E+01 0.00000E+00
 -1      1869 8.04000E+01 4.61030E+01 0.00000E+00
 -1      1870 8.19000E+01 4.61030E+01 0.00000E+00
 -1      1871 7.96500E+01 4.48040E+01 0.00000E+00
 -1      1872 8.34000E+01 4.61030E+01 0.00000E+00
 -1      1873 8.49000E+01 4.61030E+01 0.00000E+00
 -1      1874 8.26500E+01 4.48040E+01 0.00000E+00
 -1      1875 8.64000E+01 4.61030E+01 0.00000E+00
 -1      1876 8.79000E+01 4.61030E+01 0.00000E+00
 -1      1877 8.56500E+01 4.48040E+01 0.00000E+00
 -1      1878 8.94000E+01 4.61030E+01 0.00000E+00
 -1      1879 9.09000E+01 4.61030E+01 0.00000E+00
 -1      1880 8.86500E+01 4.48040E+01 0.00000E+00
 -1      1881 9.24000E+01 4.61030E+01 0.00000E+00
 -1      1882 9.39000E+01 4.61030E+01 0.00000E+00
 -1      1883 9.16500E+01 4.48040E+01 0.00000E+00
 -1      1884 9.54000E+01 4.61030E+01 0.00000E+00
 -1      1885 9.69000E+01 4.61030E+01 0.00000E+00
 -1      1886 9.46500E+01 4.48040E+01 0.00000E+00
 -1      1887 9.84000E+01 4.61030E+01 0.00000E+00
 -1      1888 9.99000E+01 4.61030E+01 0.00000E+00
 -1      1889 9.76500E+01 4.48040E+01 0.00000E+00
 -1      1890 1.01400E+02 4.61030E+01 0.00000E+00
 -1      1891 1.02900E+02 4.61030E+01 0.00000E+00
 -1      1892 1.00650E+02 4.48040E+01 0.00000E+00
 -1      1893 1.04400E+02 4.61030E+01 0.00000E+00
 -1      1894 1.05900E+02 4.61030E+01 0.00000E+00
 -1      1895 1.03650E+02 4.48040E+01 0.00000E+00
 -1      1896 1.07400E+02 4.61030E+01 0.00000E+00
 -1      1897 1.08900E+02 4.61030E+01 0.00000E+00
 -1      1898 1.06650E+02 4.48040E+01 0.00000E+00
 -1      1899 1.10400E+02 4.61030E+01 0.00000E+00
 -1      1900 1.11900E+02 4.61030E+01 0.00000E+00
 -1      1901 1.09650E+02 4.48040E+01 0.00000E+00
 -1      1902 1.13400E+02 4.61030E+01 0.00000E+00
 -1      1903 1.14900E+02 4.61030E+01 0.00000E+00
 -1      1904 1.12650E+02 4.48040E+01 0.00000E+00
 -1      1905 1.16400E+02 4.61030E+01 0.00000E+00
 -1      1906 1.17900E+02 4.61030E+01 0.00000E+00
 -1      1907 1.15650E+02 4.48040E+01 0.00000E+00
 -1      1908 1.19400E+02 4.61030E+01 0.00000E+00
 -1      1909 1.20900E+02 4.61030E+01 0.00000E+00
 -1      1910 1.18650E+02 4.48040E+01 0.00000E+00
 -1      1911 1.22400E+02 4.61030E+01 0.00000E+00
 -1      1912 1.23900E+02 4.61030E+01 0.00000E+00
 -1      1913 1.21650E+02 4.48040E+01 0.00000E+00
 -1      1914 1.25400E+02 4.61030E+01 0.00000E+00
 -1      1915 1.26900E+02 4.61030E+01 0.00000E+00
 -1      1916 1.24650E+02 4.48040E+01 0.00000E+00
 -1      1917 1.28400E+02 4.61030E+01 0.00000E+00
 -1      1918 1.29900E+02 4.61030E+01 0.00000E+00
 -1      1919 1.27650E+02 4.48040E+01 0.00000E+00
 -1      1920 1.31400E+02 4.61030E+01 0.00000E+00
 -1      1921 1.32900E+02 4.61030E+01 0.00000E+00
 -1      1922 1.30650E+02 4.48040E+01 0.00000E+00
 -1      1923 1.34400E+02 4.61030E+01 0.00000E+00
 -1      1924 1.35900E+02 4.61030E+01 0.00000E+00
 -1      1925 1.33650E+02 4.48040E+01 0.00000E+00
 -1      1926 1.37400E+02 4.61030E+01 0.00000E+00
 -1      1927 1.38900E+02 4.61030E+01 0.00000E+00
 -1      1928 1.36650E+02 4.48040E+01 0.00000E+00
 -1      1929 1.40400E+02 4.61030E+01 0.00000E+00
 -1      1930 1.41900E+02 4.61030E+01 0.00000E+00
 -1      1931 1.39650E+02 4.48040E+01 0.00000E+00
 -1      1932 1.43244E+02 4.61616E+01 0.00000E+00
 -1      1933 1.44744E+02 4.61616E+01 0.00000E+00
 -1      1934 1.45182E+02 4.49799E+01 0.00000E+00
 -1      1935 1.42494E+02 4.48626E+01 0.00000E+00
 -1      1936 1.16513E+01 3.12812E+00 0.00000E+00
 -1      1937 1.01513E+01 3.12812E+00 0.00000E+00
 -1      1938 9.92869E+00 4.04375E+00 0.00000E+00
 -1      1939 1.46513E+01 3.12812E+00 0.00000E+00
 -1      1940 1.31513E+01 3.12812E+00 0.00000E+00
 -1      1941 1.29287E+01 4.04375E+00 0.00000E+00
 -1      1942 1.76513E+01 3.12812E+00 0.00000E+00
 -1      1943 1.61513E+01 3.12812E+00 0.00000E+00
 -1      1944 1.59287E+01 4.04375E+00 0.00000E+00
 -1      1945 2.06513E+01 3.12812E+00 0.00000E+00
 -1      1946 1.91513E+01 3.12812E+00 0.00000E+00
 -1      1947 1.89287E+01 4.04375E+00 0.00000E+00
 -1      1948 2.36513E+01 3.12812E+00 0.00000E+00
 -1      1949 2.21513E+01 3.12812E+00 0.00000E+00
 -1      1950 2.19287E+01 4.04375E+00 0.00000E+00
 -1      1951 2.66513E+01 3.12812E+00 0.00000E+00
 -1      1952 2.51513E+01 3.12812E+00 0.00000E+00
 -1      1953 2.49287E+01 4.04375E+00 0.00000E+00
 -1      1954 2.96513E+01 3.12812E+00 0.00000E+00
 -1      1955 2.81513E+01 3.12812E+00 0.00000E+00
 -1      1956 2.79287E+01 4.04375E+00 0.00000E+00
 -1      1957 3.26513E+01 3.12812E+00 0.00000E+00
 -1      1958 3.11513E+01 3.12812E+00 0.00000E+00
 -1      1959 3.09287E+01 4.04375E+00 0.00000E+00
 -1      1960 3.56513E+01 3.12812E+00 0.00000E+00
 -1      1961 3.41513E+01 3.12812E+00 0.00000E+00
 -1      1962 3.39287E+01 4.04375E+00 0.00000E+00
 -1      1963 3.86513E+01 3.12812E+00 0.00000E+00
 -1      1964 3.71513E+01 3.12812E+00 0.00000E+00
 -1      1965 3.69287E+01 4.04375E+00 0.00000E+00
 -1      1966 4.16513E+01 3.12812E+00 0.00000E+00
 -1      1967 4.01513E+01 3.12812E+00 0.00000E+00
 -1      1968 3.99287E+01 4.04375E+00 0.00000E+00
 -1      1969 4.46513E+01 3.12812E+00 0.00000E+00
 -1      1970 4.31513E+01 3.12812E+00 0.00000E+00
 -1      1971 4.29287E+01 4.04375E+00 0.00000E+00
 -1      1972 4.76513E+01 3.12812E+00 0.00000E+00
 -1      1973 4.61513E+01 3.12812E+00 0.00000E+00
 -1      1974 4.59287E+01 4.04375E+00 0.00000E+00
 -1      1975 5.06513E+01 3.12812E+00 0.00000E+00
 -1      1976 4.91513E+01 3.12812E+00 0.00000E+00
 -1      1977 4.89287E+01 4.04375E+00 0.00000E+00
 -1      1978 5.36513E+01 3.12812E+00 0.00000E+00
 -1      1979 5.21513E+01 3.12812E+00 0.00000E+00
 -1      1980 5.19287E+01 4.04375E+00 0.00000E+00
 -1      1981 5.66513E+01 3.12812E+00 0.00000E+00
 -1      1982 5.51513E+01 3.12812E+00 0.00000E+00
 -1      1983 5.49287E+01 4.04375E+00 0.00000E+00
 -1      1984 5.96513E+01 3.12812E+00 0.00000E+00
 -1      1985 5.81513E+01 3.12812E+00 0.00000E+00
 -1      1986 5.79287E+01 4.04375E+00 0.00000E+00
 -1      1987 6.26513E+01 3.12812E+00 0.00000E+00
 -1      1988 6.11513E+01 3.12812E+00 0.00000E+00
 -1      1989 6.09287E+01 4.04375E+00 0.00000E+00
 -1      1990 6.56513E+01 3.12812E+00 0.00000E+00
 -1      1991 6.41513E+01 3.12812E+00 0.00000E+00
 -1      1992 6.39287E+01 4.04375E+00 0.00000E+00
 -1      1993 6.86513E+01 3.12812E+00 0.00000E+00
 -1      1994 6.71513E+01 3.12812E+00 0.00000E+00
 -1      1995 6.69287E+01 4.04375E+00 0.00000E+00
 -1      1996 7.16513E+01 3.12812E+00 0.00000E+00
 -1      1997 7.01513E+01 3.12812E+00 0.00000E+00
 -1      1998 6.99287E+01 4.04375E+00 0.00000E+00
 -1      1999 7.46513E+01 3.12812E+00 0.00000E+00
 -1      2000 7.31513E+01 3.12812E+00 0.00000E+00
 -1      2001 7.29287E+01 4.04375E+00 0.00000E+00
 -1      2002 7.76513E+01 3.12812E+00 0.00000E+00
 -1      2003 7.61513E+01 3.12812E+00 0.00000E+00
 -1      2004 7.59287E+01 4.04375E+00 0.00000E+00
 -1      2005 8.06513E+01 3.12812E+00 0.00000E+00
 -1      2006 7.91513E+01 3.12812E+00 0.00000E+00
 -1      2007 7.89287E+01 4.04375E+00 0.00000E+00
 -1      2008 8.36513E+01 3.12812E+00 0.00000E+00
 -1      2009 8.21513E+01 3.12812E+00 0.00000E+00
 -1      2010 8.19287E+01 4.04375E+00 0.00000E+00
 -1      2011 8.66513E+01 3.12812E+00 0.00000E+00
 -1      2012 8.51513E+01 3.12812E+00 0.00000E+00
 -1      2013 8.49287E+01 4.04375E+00 0.00000E+00
 -1      2014 8.96513E+01 3.12812E+00 0.00000E+00
 -1      2015 8.81513E+01 3.12812E+00 0.00000E+00
 -1      2016 8.79287E+01 4.04375E+00 0.00000E+00
 -1      2017 9.26513E+01 3.12812E+00 0.00000E+00
 -1      2018 9.11513E+01 3.12812E+00 0.00000E+00
 -1      2019 9.09287E+01 4.04375E+00 0.00000E+00
 -1      2020 9.56513E+01 3.12812E+00 0.00000E+00
 -1      2021 9.41513E+01 3.12812E+00 0.00000E+00
 -1      2022 9.39287E+01 4.04375E+00 0.00000E+00
 -1      2023 9.86513E+01 3.12812E+00 0.00000E+00
 -1      2024 9.71513E+01 3.12812E+00 0.00000E+00
 -1      2025 9.69287E+01 4.04375E+00 0.00000E+00
 -1      2026 1.01651E+02 3.12812E+00 0.00000E+00
 -1      2027 1.00151E+02 3.12812E+00 0.00000E+00
 -1      2028 9.99287E+01 4.04375E+00 0.00000E+00
 -1      2029 1.04651E+02 3.12812E+00 0.00000E+00
 -1      2030 1.03151E+02 3.12812E+00 0.00000E+00
 -1      2031 1.02929E+02 4.04375E+00 0.00000E+00
 -1      2032 1.07651E+02 3.12812E+00 0.00000E+00
 -1      2033 1.06151E+02 3.12812E+00 0.00000E+00
 -1      2034 1.05929E+02 4.04375E+00 0.00000E+00
 -1      2035 1.10651E+02 3.12812E+00 0.00000E+00
 -1      2036 1.09151E+02 3.12812E+00 0.00000E+00
 -1      2037 1.08929E+02 4.04375E+00 0.00000E+00
 -1      2038 1.13651E+02 3.12812E+00 0.00000E+00
 -1      2039 1.12151E+02 3.12812E+00 0.00000E+00
 -1      2040 1.11929E+02 4.04375E+00 0.00000E+00
 -1      2041 1.16651E+02 3.12812E+00 0.00000E+00
 -1      2042 1.15151E+02 3.12812E+00 0.00000E+00
 -1      2043 1.14929E+02 4.04375E+00 0.00000E+00
 -1      2044 1.19651E+02 3.12812E+00 0.00000E+00
 -1      2045 1.18151E+02 3.12812E+00 0.00000E+00
 -1      2046 1.17929E+02 4.04375E+00 0.00000E+00
 -1      2047 1.22651E+02 3.12812E+00 0.00000E+00
 -1      2048 1.21151E+02 3.12812E+00 0.00000E+00
 -1      2049 1.20929E+02 4.04375E+00 0.00000E+00
 -1      2050 1.25651E+02 3.12812E+00 0.00000E+00
 -1      2051 1.24151E+02 3.12812E+00 0.00000E+00
 -1      2052 1.23929E+02 4.04375E+00 0.00000E+00
 -1      2053 1.28651E+02 3.12812E+00 0.00000E+00
 -1      2054 1.27151E+02 3.12812E+00 0.00000E+00
 -1      2055 1.26929E+02 4.04375E+00 0.00000E+00
 -1      2056 1.31651E+02 3.12812E+00 0.00000E+00
 -1      2057 1.30151E+02 3.12812E+00 0.00000E+00
 -1      2058 1.29929E+02 4.04375E+00 0.00000E+00
 -1      2059 1.34651E+02 3.12812E+00 0.00000E+00
 -1      2060 1.33151E+02 3.12812E+00 0.00000E+00
 -1      2061 1.32929E+02 4.04375E+00 0.00000E+00
 -1      2062 1.37651E+02 3.12812E+00 0.00000E+00
 -1      2063 1.36151E+02 3.12812E+00 0.00000E+00
 -1      2064 1.35929E+02 4.04375E+00 0.00000E+00
 -1      2065 1.40651E+02 3.12812E+00 0.00000E+00
 -1      2066 1.39151E+02 3.12812E+00 0.00000E+00
 -1      2067 1.38929E+02 4.04375E+00 0.00000E+00
 -1      2068 1.43651E+02 3.12812E+00 0.00000E+00
 -1      2069 1.42151E+02 3.12812E+00 0.00000E+00
 -1      2070 1.41929E+02 4.04375E+00 0.00000E+00
 -1      2071 1.46145E+02 3.22344E+00 0.00000E+00
 -1      2072 1.44645E+02 3.22344E+00 0.00000E+00
 -1      2073 1.44422E+02 4.13906E+00 0.00000E+00
 -1      2074 1.46409E+02 4.32969E+00 0.00000E+00
 -1      2075 1.46103E+02 1.25375E+01 0.00000E+00
 -1      2076 1.46103E+02 1.10625E+01 0.00000E+00
 -1      2077 1.46103E+02 9.58750E+00 0.00000E+00
 -1      2078 1.46103E+02 8.11250E+00 0.00000E+00
 -1      2079 1.44804E+02 1.03250E+01 0.00000E+00
 -1      2080 1.46256E+02 6.95859E+00 0.00000E+00
 -1      2081 1.46256E+02 5.48359E+00 0.00000E+00
 -1      2082 1.45263E+02 5.38828E+00 0.00000E+00
 -1      2083 1.44957E+02 7.69609E+00 0.00000E+00
 -1      2084 1.46103E+02 1.54375E+01 0.00000E+00
 -1      2085 1.46103E+02 1.39875E+01 0.00000E+00
 -1      2086 1.44804E+02 1.32500E+01 0.00000E+00
 -1      2087 1.46103E+02 1.83875E+01 0.00000E+00
 -1      2088 1.46103E+02 1.69125E+01 0.00000E+00
 -1      2089 1.44804E+02 1.61750E+01 0.00000E+00
 -1      2090 1.46103E+02 2.13375E+01 0.00000E+00
 -1      2091 1.46103E+02 1.98625E+01 0.00000E+00
 -1      2092 1.44804E+02 1.91250E+01 0.00000E+00
 -1      2093 1.46103E+02 2.42875E+01 0.00000E+00
 -1      2094 1.46103E+02 2.28125E+01 0.00000E+00
 -1      2095 1.44804E+02 2.20750E+01 0.00000E+00
 -1      2096 1.46103E+02 2.72375E+01 0.00000E+00
 -1      2097 1.46103E+02 2.57625E+01 0.00000E+00
 -1      2098 1.44804E+02 2.50250E+01 0.00000E+00
 -1      2099 1.46103E+02 3.01875E+01 0.00000E+00
 -1      2100 1.46103E+02 2.87125E+01 0.00000E+00
 -1      2101 1.44804E+02 2.79750E+01 0.00000E+00
 -1      2102 1.46103E+02 3.30875E+01 0.00000E+00
 -1      2103 1.46103E+02 3.16375E+01 0.00000E+00
 -1      2104 1.44804E+02 3.09000E+01 0.00000E+00
 -1      2105 1.46103E+02 3.60375E+01 0.00000E+00
 -1      2106 1.46103E+02 3.45625E+01 0.00000E+00
 -1      2107 1.44804E+02 3.38250E+01 0.00000E+00
 -1      2108 1.46103E+02 3.89875E+01 0.00000E+00
 -1      2109 1.46103E+02 3.75125E+01 0.00000E+00
 -1      2110 1.44804E+02 3.67750E+01 0.00000E+00
 -1      2111 1.46103E+02 4.19375E+01 0.00000E+00
 -1      2112 1.46103E+02 4.04625E+01 0.00000E+00
 -1      2113 1.44804E+02 3.97250E+01 0.00000E+00
 -1      2114 2.86208E+01 2.40964E+01 0.00000E+00
 -1      2115 2.88999E+01 2.49799E+01 0.00000E+00
 -1      2116 2.93950E+01 2.78221E+01 0.00000E+00
 -1      2117 2.93619E+01 2.86797E+01 0.00000E+00
 -1      2118 2.91310E+01 2.58367E+01 0.00000E+00
 -1      2119 2.93622E+01 2.66935E+01 0.00000E+00
 -1      2120 2.97293E+01 2.51619E+01 0.00000E+00
 -1      2121 2.73077E+01 2.23667E+01 0.00000E+00
 -1      2122 2.79612E+01 2.30142E+01 0.00000E+00
 -1      2123 2.60522E+01 2.11086E+01 0.00000E+00
 -1      2124 2.66799E+01 2.17376E+01 0.00000E+00
 -1      2125 2.75513E+01 2.15118E+01 0.00000E+00
 -1      2126 3.89700E+00 3.74125E+01 0.00000E+00
 -1      2127 3.89700E+00 3.88875E+01 0.00000E+00
 -1      2128 5.19600E+00 3.96250E+01 0.00000E+00
 -1      2129 2.24283E+01 1.94265E+01 0.00000E+00
 -1      2130 2.33232E+01 1.97002E+01 0.00000E+00
 -1      2131 2.03266E+01 1.92880E+01 0.00000E+00
 -1      2132 2.12500E+01 1.92394E+01 0.00000E+00
 -1      2133 1.85361E+01 1.94656E+01 0.00000E+00
 -1      2134 1.94314E+01 1.93768E+01 0.00000E+00
 -1      2135 1.98503E+01 1.85380E+01 0.00000E+00
 -1      2136 1.64351E+01 1.99815E+01 0.00000E+00
 -1      2137 1.73688E+01 1.96568E+01 0.00000E+00
 -1      2138 1.46808E+01 2.13437E+01 0.00000E+00
 -1      2139 1.54360E+01 2.07274E+01 0.00000E+00
 -1      2140 1.33980E+01 2.29072E+01 0.00000E+00
 -1      2141 1.39146E+01 2.21641E+01 0.00000E+00
 -1      2142 1.24018E+01 2.44667E+01 0.00000E+00
 -1      2143 1.28999E+01 2.36870E+01 0.00000E+00
 -1      2144 1.25917E+01 2.29215E+01 0.00000E+00
 -1      2145 1.16549E+01 2.64388E+01 0.00000E+00
 -1      2146 1.18543E+01 2.55245E+01 0.00000E+00
 -1      2147 1.14735E+01 2.84076E+01 0.00000E+00
 -1      2148 1.15455E+01 2.74723E+01 0.00000E+00
 -1      2149 1.18719E+01 3.04754E+01 0.00000E+00
 -1      2150 1.16487E+01 2.95471E+01 0.00000E+00
 -1      2151 1.24267E+01 3.24126E+01 0.00000E+00
 -1      2152 1.20720E+01 3.15200E+01 0.00000E+00
 -1      2153 1.37810E+01 3.41256E+01 0.00000E+00
 -1      2154 1.31449E+01 3.33686E+01 0.00000E+00
 -1      2155 1.53542E+01 3.54950E+01 0.00000E+00
 -1      2156 1.45723E+01 3.49589E+01 0.00000E+00
 -1      2157 1.69434E+01 3.65950E+01 0.00000E+00
 -1      2158 1.61386E+01 3.60700E+01 0.00000E+00
 -1      2159 1.90773E+01 3.72209E+01 0.00000E+00
 -1      2160 1.81277E+01 3.70849E+01 0.00000E+00
 -1      2161 2.09515E+01 3.70802E+01 0.00000E+00
 -1      2162 2.01125E+01 3.71129E+01 0.00000E+00
 -1      2163 2.26442E+01 3.69833E+01 0.00000E+00
 -1      2164 2.18231E+01 3.70631E+01 0.00000E+00
 -1      2165 2.44739E+01 3.64319E+01 0.00000E+00
 -1      2166 2.37537E+01 3.68187E+01 0.00000E+00
 -1      2167 2.57706E+01 3.55665E+01 0.00000E+00
 -1      2168 2.51223E+01 3.59992E+01 0.00000E+00
 -1      2169 2.51679E+01 3.69481E+01 0.00000E+00
 -1      2170 2.71567E+01 3.44115E+01 0.00000E+00
 -1      2171 2.66033E+01 3.49563E+01 0.00000E+00
 -1      2172 2.82121E+01 3.31442E+01 0.00000E+00
 -1      2173 2.76844E+01 3.37779E+01 0.00000E+00
 -1      2174 2.80093E+01 3.46614E+01 0.00000E+00
 -1      2175 2.88788E+01 3.12508E+01 0.00000E+00
 -1      2176 2.86304E+01 3.20520E+01 0.00000E+00
 -1      2177 2.92960E+01 2.96122E+01 0.00000E+00
 -1      2178 2.91391E+01 3.03995E+01 0.00000E+00
 -1      2179 2.42786E+01 2.00642E+01 0.00000E+00
 -1      2180 2.50968E+01 2.04429E+01 0.00000E+00
 -1      2181 2.59682E+01 2.02170E+01 0.00000E+00
 -1      2182 6.42300E+00 4.57260E+01 0.00000E+00
 -1      2183 1.77876E+01 1.88180E+01 0.00000E+00
 -1      2184 5.08969E+00 3.66875E+01 0.00000E+00
 -1      2185 7.17300E+00 4.44270E+01 0.00000E+00
 -1      2186 2.99933E+01 2.71472E+01 0.00000E+00
 -1      2187 2.88386E+01 2.32229E+01 0.00000E+00
 -1      2188 1.45665E+02 4.31193E+01 0.00000E+00
 -1      2189 2.99601E+01 2.92083E+01 0.00000E+00
 -1      2190 2.40574E+01 1.91874E+01 0.00000E+00
 -1      2191 2.89553E+01 3.29355E+01 0.00000E+00
 -1      2192 2.66490E+01 3.59052E+01 0.00000E+00
 -1      2193 2.34100E+01 3.75454E+01 0.00000E+00
 -1      2194 2.14288E+01 3.77270E+01 0.00000E+00
 -1      2195 1.95220E+01 3.78522E+01 0.00000E+00
 -1      2196 1.73025E+01 3.74704E+01 0.00000E+00
 -1      2197 1.53338E+01 3.64055E+01 0.00000E+00
 -1      2198 1.37581E+01 3.49973E+01 0.00000E+00
 -1      2199 1.22485E+01 3.32080E+01 0.00000E+00
 -1      2200 1.13302E+01 3.12074E+01 0.00000E+00
 -1      2201 1.09550E+01 2.90233E+01 0.00000E+00
 -1      2202 1.15461E+01 2.47590E+01 0.00000E+00
 -1      2203 1.38560E+01 2.13214E+01 0.00000E+00
 -1      2204 2.19238E+01 1.86363E+01 0.00000E+00
 -1      2205 1.56212E+01 1.97550E+01 0.00000E+00
 -1      2206 1.08892E+01 2.68503E+01 0.00000E+00
 -1      2207 2.96339E+01 3.09920E+01 0.00000E+00
 -1      2208 1.06787E+01 5.34275E+00 0.00000E+00
 -1      2209 9.17869E+00 5.34275E+00 0.00000E+00
 -1      2210 6.17608E+00 3.01750E+01 0.00000E+00
 -1      2211 6.17608E+00 3.15750E+01 0.00000E+00
 -1      2212 6.17608E+00 3.30500E+01 0.00000E+00
 -1      2213 6.17608E+00 3.45250E+01 0.00000E+00
 -1      2214 7.36878E+00 3.23500E+01 0.00000E+00
 -1      2215 6.17608E+00 2.43125E+01 0.00000E+00
 -1      2216 6.17608E+00 2.57875E+01 0.00000E+00
 -1      2217 6.17608E+00 2.13625E+01 0.00000E+00
 -1      2218 6.17608E+00 2.28375E+01 0.00000E+00
 -1      2219 7.36878E+00 2.35750E+01 0.00000E+00
 -1      2220 6.17608E+00 1.84125E+01 0.00000E+00
 -1      2221 6.17608E+00 1.98875E+01 0.00000E+00
 -1      2222 7.36878E+00 2.06250E+01 0.00000E+00
 -1      2223 6.17608E+00 1.54625E+01 0.00000E+00
 -1      2224 6.17608E+00 1.69375E+01 0.00000E+00
 -1      2225 7.36878E+00 1.76750E+01 0.00000E+00
 -1      2226 6.17608E+00 1.25125E+01 0.00000E+00
 -1      2227 6.17608E+00 1.39875E+01 0.00000E+00
 -1      2228 7.36878E+00 1.47250E+01 0.00000E+00
 -1      2229 6.17608E+00 9.56250E+00 0.00000E+00
 -1      2230 6.17608E+00 1.10375E+01 0.00000E+00
 -1      2231 7.36878E+00 1.17750E+01 0.00000E+00
 -1      2232 6.06737E+00 5.23906E+00 0.00000E+00
 -1      2233 5.84471E+00 6.15469E+00 0.00000E+00
 -1      2234 5.84471E+00 7.62969E+00 0.00000E+00
 -1      2235 7.56737E+00 5.23906E+00 0.00000E+00
 -1      2236 1.36787E+01 5.34275E+00 0.00000E+00
 -1      2237 1.21787E+01 5.34275E+00 0.00000E+00
 -1      2238 1.14287E+01 6.64175E+00 0.00000E+00
 -1      2239 9.90000E+00 4.35050E+01 0.00000E+00
 -1      2240 1.14000E+01 4.35050E+01 0.00000E+00
 -1      2241 1.70518E+01 1.79846E+01 0.00000E+00
 -1      2242 1.82192E+01 1.77934E+01 0.00000E+00
 -1      2243 1.29000E+01 4.35050E+01 0.00000E+00
 -1      2244 1.44000E+01 4.35050E+01 0.00000E+00
 -1      2245 1.21500E+01 4.22060E+01 0.00000E+00
 -1      2246 1.59000E+01 4.35050E+01 0.00000E+00
 -1      2247 1.74000E+01 4.35050E+01 0.00000E+00
 -1      2248 1.51500E+01 4.22060E+01 0.00000E+00
 -1      2249 1.89000E+01 4.35050E+01 0.00000E+00
 -1      2250 2.04000E+01 4.35050E+01 0.00000E+00
 -1      2251 1.81500E+01 4.22060E+01 0.00000E+00
 -1      2252 2.19000E+01 4.35050E+01 0.00000E+00
 -1      2253 2.34000E+01 4.35050E+01 0.00000E+00
 -1      2254 2.11500E+01 4.22060E+01 0.00000E+00
 -1      2255 2.49000E+01 4.35050E+01 0.00000E+00
 -1      2256 2.64000E+01 4.35050E+01 0.00000E+00
 -1      2257 2.41500E+01 4.22060E+01 0.00000E+00
 -1      2258 2.79000E+01 4.35050E+01 0.00000E+00
 -1      2259 2.94000E+01 4.35050E+01 0.00000E+00
 -1      2260 2.71500E+01 4.22060E+01 0.00000E+00
 -1      2261 3.09000E+01 4.35050E+01 0.00000E+00
 -1      2262 3.24000E+01 4.35050E+01 0.00000E+00
 -1      2263 3.01500E+01 4.22060E+01 0.00000E+00
 -1      2264 3.39000E+01 4.35050E+01 0.00000E+00
 -1      2265 3.54000E+01 4.35050E+01 0.00000E+00
 -1      2266 3.31500E+01 4.22060E+01 0.00000E+00
 -1      2267 3.69000E+01 4.35050E+01 0.00000E+00
 -1      2268 3.84000E+01 4.35050E+01 0.00000E+00
 -1      2269 3.61500E+01 4.22060E+01 0.00000E+00
 -1      2270 3.99000E+01 4.35050E+01 0.00000E+00
 -1      2271 4.14000E+01 4.35050E+01 0.00000E+00
 -1      2272 3.91500E+01 4.22060E+01 0.00000E+00
 -1      2273 4.29000E+01 4.35050E+01 0.00000E+00
 -1      2274 4.44000E+01 4.35050E+01 0.00000E+00
 -1      2275 4.21500E+01 4.22060E+01 0.00000E+00
 -1      2276 4.59000E+01 4.35050E+01 0.00000E+00
 -1      2277 4.74000E+01 4.35050E+01 0.00000E+00
 -1      2278 4.51500E+01 4.22060E+01 0.00000E+00
 -1      2279 4.89000E+01 4.35050E+01 0.00000E+00
 -1      2280 5.04000E+01 4.35050E+01 0.00000E+00
 -1      2281 4.81500E+01 4.22060E+01 0.00000E+00
 -1      2282 5.19000E+01 4.35050E+01 0.00000E+00
 -1      2283 5.34000E+01 4.35050E+01 0.00000E+00
 -1      2284 5.11500E+01 4.22060E+01 0.00000E+00
 -1      2285 5.49000E+01 4.35050E+01 0.00000E+00
 -1      2286 5.64000E+01 4.35050E+01 0.00000E+00
 -1      2287 5.41500E+01 4.22060E+01 0.00000E+00
 -1      2288 5.79000E+01 4.35050E+01 0.00000E+00
 -1      2289 5.94000E+01 4.35050E+01 0.00000E+00
 -1      2290 5.71500E+01 4.22060E+01 0.00000E+00
 -1      2291 6.09000E+01 4.35050E+01 0.00000E+00
 -1      2292 6.24000E+01 4.35050E+01 0.00000E+00
 -1      2293 6.01500E+01 4.22060E+01 0.00000E+00
 -1      2294 6.39000E+01 4.35050E+01 0.00000E+00
 -1      2295 6.54000E+01 4.35050E+01 0.00000E+00
 -1      2296 6.31500E+01 4.22060E+01 0.00000E+00
 -1      2297 6.69000E+01 4.35050E+01 0.00000E+00
 -1      2298 6.84000E+01 4.35050E+01 0.00000E+00
 -1      2299 6.61500E+01 4.22060E+01 0.00000E+00
 -1      2300 6.99000E+01 4.35050E+01 0.00000E+00
 -1      2301 7.14000E+01 4.35050E+01 0.00000E+00
 -1      2302 6.91500E+01 4.22060E+01 0.00000E+00
 -1      2303 7.29000E+01 4.35050E+01 0.00000E+00
 -1      2304 7.44000E+01 4.35050E+01 0.00000E+00
 -1      2305 7.21500E+01 4.22060E+01 0.00000E+00
 -1      2306 7.59000E+01 4.35050E+01 0.00000E+00
 -1      2307 7.74000E+01 4.35050E+01 0.00000E+00
 -1      2308 7.51500E+01 4.22060E+01 0.00000E+00
 -1      2309 7.89000E+01 4.35050E+01 0.00000E+00
 -1      2310 8.04000E+01 4.35050E+01 0.00000E+00
 -1      2311 7.81500E+01 4.22060E+01 0.00000E+00
 -1      2312 8.19000E+01 4.35050E+01 0.00000E+00
 -1      2313 8.34000E+01 4.35050E+01 0.00000E+00
 -1      2314 8.11500E+01 4.22060E+01 0.00000E+00
 -1      2315 8.49000E+01 4.35050E+01 0.00000E+00
 -1      2316 8.64000E+01 4.35050E+01 0.00000E+00
 -1      2317 8.41500E+01 4.22060E+01 0.00000E+00
 -1      2318 8.79000E+01 4.35050E+01 0.00000E+00
 -1      2319 8.94000E+01 4.35050E+01 0.00000E+00
 -1      2320 8.71500E+01 4.22060E+01 0.00000E+00
 -1      2321 9.09000E+01 4.35050E+01 0.00000E+00
 -1      2322 9.24000E+01 4.35050E+01 0.00000E+00
 -1      2323 9.01500E+01 4.22060E+01 0.00000E+00
 -1      2324 9.39000E+01 4.35050E+01 0.00000E+00
 -1      2325 9.54000E+01 4.35050E+01 0.00000E+00
 -1      2326 9.31500E+01 4.22060E+01 0.00000E+00
 -1      2327 9.69000E+01 4.35050E+01 0.00000E+00
 -1      2328 9.84000E+01 4.35050E+01 0.00000E+00
 -1      2329 9.61500E+01 4.22060E+01 0.00000E+00
 -1      2330 9.99000E+01 4.35050E+01 0.00000E+00
 -1      2331 1.01400E+02 4.35050E+01 0.00000E+00
 -1      2332 9.91500E+01 4.22060E+01 0.00000E+00
 -1      2333 1.02900E+02 4.35050E+01 0.00000E+00
 -1      2334 1.04400E+02 4.35050E+01 0.00000E+00
 -1      2335 1.02150E+02 4.22060E+01 0.00000E+00
 -1      2336 1.05900E+02 4.35050E+01 0.00000E+00
 -1      2337 1.07400E+02 4.35050E+01 0.00000E+00
 -1      2338 1.05150E+02 4.22060E+01 0.00000E+00
 -1      2339 1.08900E+02 4.35050E+01 0.00000E+00
 -1      2340 1.10400E+02 4.35050E+01 0.00000E+00
 -1      2341 1.08150E+02 4.22060E+01 0.00000E+00
 -1      2342 1.11900E+02 4.35050E+01 0.00000E+00
 -1      2343 1.13400E+02 4.35050E+01 0.00000E+00
 -1      2344 1.11150E+02 4.22060E+01 0.00000E+00
 -1      2345 1.14900E+02 4.35050E+01 0.00000E+00
 -1      2346 1.16400E+02 4.35050E+01 0.00000E+00
 -1      2347 1.14150E+02 4.22060E+01 0.00000E+00
 -1      2348 1.17900E+02 4.35050E+01 0.00000E+00
 -1      2349 1.19400E+02 4.35050E+01 0.00000E+00
 -1      2350 1.17150E+02 4.22060E+01 0.00000E+00
 -1      2351 1.20900E+02 4.35050E+01 0.00000E+00
 -1      2352 1.22400E+02 4.35050E+01 0.00000E+00
 -1      2353 1.20150E+02 4.22060E+01 0.00000E+00
 -1      2354 1.23900E+02 4.35050E+01 0.00000E+00
 -1      2355 1.25400E+02 4.35050E+01 0.00000E+00
 -1      2356 1.23150E+02 4.22060E+01 0.00000E+00
 -1      2357 1.26900E+02 4.35050E+01 0.00000E+00
 -1      2358 1.28400E+02 4.35050E+01 0.00000E+00
 -1      2359 1.26150E+02 4.22060E+01 0.00000E+00
 -1      2360 1.29900E+02 4.35050E+01 0.00000E+00
 -1      2361 1.31400E+02 4.35050E+01 0.00000E+00
 -1      2362 1.29150E+02 4.22060E+01 0.00000E+00
 -1      2363 1.32900E+02 4.35050E+01 0.00000E+00
 -1      2364 1.34400E+02 4.35050E+01 0.00000E+00
 -1      2365 1.32150E+02 4.22060E+01 0.00000E+00
 -1      2366 1.35900E+02 4.35050E+01 0.00000E+00
 -1      2367 1.37400E+02 4.35050E+01 0.00000E+00
 -1      2368 1.35150E+02 4.22060E+01 0.00000E+00
 -1      2369 1.38900E+02 4.35050E+01 0.00000E+00
 -1      2370 1.40400E+02 4.35050E+01 0.00000E+00
 -1      2371 1.38150E+02 4.22060E+01 0.00000E+00
 -1      2372 3.04012E+01 2.45210E+01 0.00000E+00
 -1      2373 3.06324E+01 2.53778E+01 0.00000E+00
 -1      2374 1.96787E+01 5.34275E+00 0.00000E+00
 -1      2375 1.81787E+01 5.34275E+00 0.00000E+00
 -1      2376 2.26787E+01 5.34275E+00 0.00000E+00
 -1      2377 2.11787E+01 5.34275E+00 0.00000E+00
 -1      2378 2.04287E+01 6.64175E+00 0.00000E+00
 -1      2379 2.56787E+01 5.34275E+00 0.00000E+00
 -1      2380 2.41787E+01 5.34275E+00 0.00000E+00
 -1      2381 2.34287E+01 6.64175E+00 0.00000E+00
 -1      2382 2.86787E+01 5.34275E+00 0.00000E+00
 -1      2383 2.71787E+01 5.34275E+00 0.00000E+00
 -1      2384 2.64287E+01 6.64175E+00 0.00000E+00
 -1      2385 3.16787E+01 5.34275E+00 0.00000E+00
 -1      2386 3.01787E+01 5.34275E+00 0.00000E+00
 -1      2387 2.94287E+01 6.64175E+00 0.00000E+00
 -1      2388 3.46787E+01 5.34275E+00 0.00000E+00
 -1      2389 3.31787E+01 5.34275E+00 0.00000E+00
 -1      2390 3.24287E+01 6.64175E+00 0.00000E+00
 -1      2391 3.76787E+01 5.34275E+00 0.00000E+00
 -1      2392 3.61787E+01 5.34275E+00 0.00000E+00
 -1      2393 3.54287E+01 6.64175E+00 0.00000E+00
 -1      2394 4.06787E+01 5.34275E+00 0.00000E+00
 -1      2395 3.91787E+01 5.34275E+00 0.00000E+00
 -1      2396 3.84287E+01 6.64175E+00 0.00000E+00
 -1      2397 4.36787E+01 5.34275E+00 0.00000E+00
 -1      2398 4.21787E+01 5.34275E+00 0.00000E+00
 -1      2399 4.14287E+01 6.64175E+00 0.00000E+00
 -1      2400 4.66787E+01 5.34275E+00 0.00000E+00
 -1      2401 4.51787E+01 5.34275E+00 0.00000E+00
 -1      2402 4.44287E+01 6.64175E+00 0.00000E+00
 -1      2403 4.96787E+01 5.34275E+00 0.00000E+00
 -1      2404 4.81787E+01 5.34275E+00 0.00000E+00
 -1      2405 4.74287E+01 6.64175E+00 0.00000E+00
 -1      2406 5.26787E+01 5.34275E+00 0.00000E+00
 -1      2407 5.11787E+01 5.34275E+00 0.00000E+00
 -1      2408 5.04287E+01 6.64175E+00 0.00000E+00
 -1      2409 5.56787E+01 5.34275E+00 0.00000E+00
 -1      2410 5.41787E+01 5.34275E+00 0.00000E+00
 -1      2411 5.34287E+01 6.64175E+00 0.00000E+00
 -1      2412 5.86787E+01 5.34275E+00 0.00000E+00
 -1      2413 5.71787E+01 5.34275E+00 0.00000E+00
 -1      2414 5.64287E+01 6.64175E+00 0.00000E+00
 -1      2415 6.16787E+01 5.34275E+00 0.00000E+00
 -1      2416 6.01787E+01 5.34275E+00 0.00000E+00
 -1      2417 5.94287E+01 6.64175E+00 0.00000E+00
 -1      2418 6.46787E+01 5.34275E+00 0.00000E+00
 -1      2419 6.31787E+01 5.34275E+00 0.00000E+00
 -1      2420 6.24287E+01 6.64175E+00 0.00000E+00
 -1      2421 6.76787E+01 5.34275E+00 0.00000E+00
 -1      2422 6.61787E+01 5.34275E+00 0.00000E+00
 -1      2423 6.54287E+01 6.64175E+00 0.00000E+00
 -1      2424 7.06787E+01 5.34275E+00 0.00000E+00
 -1      2425 6.91787E+01 5.34275E+00 0.00000E+00
 -1      2426 6.84287E+01 6.64175E+00 0.00000E+00
 -1      2427 7.36787E+01 5.34275E+00 0.00000E+00
 -1      2428 7.21787E+01 5.34275E+00 0.00000E+00
 -1      2429 7.14287E+01 6.64175E+00 0.00000E+00
 -1      2430 7.66787E+01 5.34275E+00 0.00000E+00
 -1      2431 7.51787E+01 5.34275E+00 0.00000E+00
 -1      2432 7.44287E+01 6.64175E+00 0.00000E+00
 -1      2433 7.96787E+01 5.34275E+00 0.00000E+00
 -1      2434 7.81787E+01 5.34275E+00 0.00000E+00
 -1      2435 7.74287E+01 6.64175E+00 0.00000E+00
 -1      2436 8.26787E+01 5.34275E+00 0.00000E+00
 -1      2437 8.11787E+01 5.34275E+00 0.00000E+00
 -1      2438 8.04287E+01 6.64175E+00 0.00000E+00
 -1      2439 8.56787E+01 5.34275E+00 0.00000E+00
 -1      2440 8.41787E+01 5.34275E+00 0.00000E+00
 -1      2441 8.34287E+01 6.64175E+00 0.00000E+00
 -1      2442 8.86787E+01 5.34275E+00 0.00000E+00
 -1      2443 8.71787E+01 5.34275E+00 0.00000E+00
 -1      2444 8.64287E+01 6.64175E+00 0.00000E+00
 -1      2445 9.16787E+01 5.34275E+00 0.00000E+00
 -1      2446 9.01787E+01 5.34275E+00 0.00000E+00
 -1      2447 8.94287E+01 6.64175E+00 0.00000E+00
 -1      2448 9.46787E+01 5.34275E+00 0.00000E+00
 -1      2449 9.31787E+01 5.34275E+00 0.00000E+00
 -1      2450 9.24287E+01 6.64175E+00 0.00000E+00
 -1      2451 9.76787E+01 5.34275E+00 0.00000E+00
 -1      2452 9.61787E+01 5.34275E+00 0.00000E+00
 -1      2453 9.54287E+01 6.64175E+00 0.00000E+00
 -1      2454 1.00679E+02 5.34275E+00 0.00000E+00
 -1      2455 9.91787E+01 5.34275E+00 0.00000E+00
 -1      2456 9.84287E+01 6.64175E+00 0.00000E+00
 -1      2457 1.03679E+02 5.34275E+00 0.00000E+00
 -1      2458 1.02179E+02 5.34275E+00 0.00000E+00
 -1      2459 1.01429E+02 6.64175E+00 0.00000E+00
 -1      2460 1.06679E+02 5.34275E+00 0.00000E+00
 -1      2461 1.05179E+02 5.34275E+00 0.00000E+00
 -1      2462 1.04429E+02 6.64175E+00 0.00000E+00
 -1      2463 1.09679E+02 5.34275E+00 0.00000E+00
 -1      2464 1.08179E+02 5.34275E+00 0.00000E+00
 -1      2465 1.07429E+02 6.64175E+00 0.00000E+00
 -1      2466 1.12679E+02 5.34275E+00 0.00000E+00
 -1      2467 1.11179E+02 5.34275E+00 0.00000E+00
 -1      2468 1.10429E+02 6.64175E+00 0.00000E+00
 -1      2469 1.15679E+02 5.34275E+00 0.00000E+00
 -1      2470 1.14179E+02 5.34275E+00 0.00000E+00
 -1      2471 1.13429E+02 6.64175E+00 0.00000E+00
 -1      2472 1.18679E+02 5.34275E+00 0.00000E+00
 -1      2473 1.17179E+02 5.34275E+00 0.00000E+00
 -1      2474 1.16429E+02 6.64175E+00 0.00000E+00
 -1      2475 1.21679E+02 5.34275E+00 0.00000E+00
 -1      2476 1.20179E+02 5.34275E+00 0.00000E+00
 -1      2477 1.19429E+02 6.64175E+00 0.00000E+00
 -1      2478 1.24679E+02 5.34275E+00 0.00000E+00
 -1      2479 1.23179E+02 5.34275E+00 0.00000E+00
 -1      2480 1.22429E+02 6.64175E+00 0.00000E+00
 -1      2481 1.27679E+02 5.34275E+00 0.00000E+00
 -1      2482 1.26179E+02 5.34275E+00 0.00000E+00
 -1      2483 1.25429E+02 6.64175E+00 0.00000E+00
 -1      2484 1.30679E+02 5.34275E+00 0.00000E+00
 -1      2485 1.29179E+02 5.34275E+00 0.00000E+00
 -1      2486 1.28429E+02 6.64175E+00 0.00000E+00
 -1      2487 1.33679E+02 5.34275E+00 0.00000E+00
 -1      2488 1.32179E+02 5.34275E+00 0.00000E+00
 -1      2489 1.31429E+02 6.64175E+00 0.00000E+00
 -1      2490 1.36679E+02 5.34275E+00 0.00000E+00
 -1      2491 1.35179E+02 5.34275E+00 0.00000E+00
 -1      2492 1.34429E+02 6.64175E+00 0.00000E+00
 -1      2493 1.39679E+02 5.34275E+00 0.00000E+00
 -1      2494 1.38179E+02 5.34275E+00 0.00000E+00
 -1      2495 1.37429E+02 6.64175E+00 0.00000E+00
 -1      2496 1.42679E+02 5.34275E+00 0.00000E+00
 -1      2497 1.41179E+02 5.34275E+00 0.00000E+00
 -1      2498 1.40429E+02 6.64175E+00 0.00000E+00
 -1      2499 1.44269E+02 5.29297E+00 0.00000E+00
 -1      2500 1.43505E+02 1.69125E+01 0.00000E+00
 -1      2501 1.43505E+02 1.54375E+01 0.00000E+00
 -1      2502 1.43505E+02 1.98625E+01 0.00000E+00
 -1      2503 1.43505E+02 1.83875E+01 0.00000E+00
 -1      2504 1.42206E+02 1.76500E+01 0.00000E+00
 -1      2505 1.43505E+02 1.10625E+01 0.00000E+00
 -1      2506 1.43505E+02 9.58750E+00 0.00000E+00
 -1      2507 1.43505E+02 1.39750E+01 0.00000E+00
 -1      2508 1.43505E+02 1.25250E+01 0.00000E+00
 -1      2509 1.42206E+02 1.17875E+01 0.00000E+00
 -1      2510 1.42206E+02 1.47125E+01 0.00000E+00
 -1      2511 1.43505E+02 2.28125E+01 0.00000E+00
 -1      2512 1.43505E+02 2.13375E+01 0.00000E+00
 -1      2513 1.42206E+02 2.06000E+01 0.00000E+00
 -1      2514 1.43505E+02 2.57625E+01 0.00000E+00
 -1      2515 1.43505E+02 2.42875E+01 0.00000E+00
 -1      2516 1.42206E+02 2.35500E+01 0.00000E+00
 -1      2517 1.43505E+02 2.87125E+01 0.00000E+00
 -1      2518 1.43505E+02 2.72375E+01 0.00000E+00
 -1      2519 1.42206E+02 2.65000E+01 0.00000E+00
 -1      2520 1.43505E+02 3.16125E+01 0.00000E+00
 -1      2521 1.43505E+02 3.01625E+01 0.00000E+00
 -1      2522 1.42206E+02 2.94250E+01 0.00000E+00
 -1      2523 1.43505E+02 3.45625E+01 0.00000E+00
 -1      2524 1.43505E+02 3.30875E+01 0.00000E+00
 -1      2525 1.42206E+02 3.23500E+01 0.00000E+00
 -1      2526 1.43505E+02 3.75125E+01 0.00000E+00
 -1      2527 1.43505E+02 3.60375E+01 0.00000E+00
 -1      2528 1.42206E+02 3.53000E+01 0.00000E+00
 -1      2529 1.43505E+02 4.04625E+01 0.00000E+00
 -1      2530 1.43505E+02 3.89875E+01 0.00000E+00
 -1      2531 1.42206E+02 3.82500E+01 0.00000E+00
 -1      2532 1.44321E+02 4.30606E+01 0.00000E+00
 -1      2533 3.08485E+01 2.88026E+01 0.00000E+00
 -1      2534 3.07826E+01 2.97350E+01 0.00000E+00
 -1      2535 1.66787E+01 5.34275E+00 0.00000E+00
 -1      2536 1.51787E+01 5.34275E+00 0.00000E+00
 -1      2537 1.74287E+01 6.64175E+00 0.00000E+00
 -1      2538 2.92411E+01 2.22356E+01 0.00000E+00
 -1      2539 2.99006E+01 2.33177E+01 0.00000E+00
 -1      2540 6.47248E+00 3.88875E+01 0.00000E+00
 -1      2541 6.47248E+00 4.03625E+01 0.00000E+00
 -1      2542 2.79630E+01 2.04731E+01 0.00000E+00
 -1      2543 2.85908E+01 2.11022E+01 0.00000E+00
 -1      2544 2.38403E+01 1.83215E+01 0.00000E+00
 -1      2545 2.47956E+01 1.86854E+01 0.00000E+00
 -1      2546 2.40906E+01 3.83114E+01 0.00000E+00
 -1      2547 2.29810E+01 3.84759E+01 0.00000E+00
 -1      2548 1.28768E+01 2.11749E+01 0.00000E+00
 -1      2549 1.36430E+01 2.03544E+01 0.00000E+00
 -1      2550 6.27113E+00 3.59750E+01 0.00000E+00
 -1      2551 6.37743E+00 3.74375E+01 0.00000E+00
 -1      2552 7.65391E+00 3.81750E+01 0.00000E+00
 -1      2553 7.46382E+00 3.52750E+01 0.00000E+00
 -1      2554 6.17608E+00 2.72437E+01 0.00000E+00
 -1      2555 6.17608E+00 2.87188E+01 0.00000E+00
 -1      2556 7.36878E+00 2.94188E+01 0.00000E+00
 -1      2557 7.36878E+00 2.65063E+01 0.00000E+00
 -1      2558 6.55950E+00 4.28515E+01 0.00000E+00
 -1      2559 8.53650E+00 4.32285E+01 0.00000E+00
 -1      2560 9.28650E+00 4.19295E+01 0.00000E+00
 -1      2561 6.55950E+00 4.13765E+01 0.00000E+00
 -1      2562 2.99653E+01 3.26961E+01 0.00000E+00
 -1      2563 2.95470E+01 3.37883E+01 0.00000E+00
 -1      2564 1.46588E+01 1.95080E+01 0.00000E+00
 -1      2565 1.56578E+01 1.87621E+01 0.00000E+00
 -1      2566 1.91145E+01 1.77046E+01 0.00000E+00
 -1      2567 2.00097E+01 1.76158E+01 0.00000E+00
 -1      2568 1.83787E+01 1.68712E+01 0.00000E+00
 -1      2569 9.89838E+00 2.72679E+01 0.00000E+00
 -1      2570 1.00078E+01 2.62344E+01 0.00000E+00
 -1      2571 2.14626E+01 1.77372E+01 0.00000E+00
 -1      2572 2.26408E+01 1.79243E+01 0.00000E+00
 -1      2573 1.16906E+01 2.28949E+01 0.00000E+00
 -1      2574 1.21887E+01 2.21151E+01 0.00000E+00
 -1      2575 3.05441E+01 3.08049E+01 0.00000E+00
 -1      2576 3.02838E+01 3.16562E+01 0.00000E+00
 -1      2577 1.06224E+01 2.49515E+01 0.00000E+00
 -1      2578 1.11699E+01 2.38937E+01 0.00000E+00
 -1      2579 1.02488E+01 2.95469E+01 0.00000E+00
 -1      2580 1.00736E+01 2.84074E+01 0.00000E+00
 -1      2581 9.19220E+00 2.77915E+01 0.00000E+00
 -1      2582 1.05880E+01 3.18910E+01 0.00000E+00
 -1      2583 1.03879E+01 3.08464E+01 0.00000E+00
 -1      2584 1.20225E+01 3.41256E+01 0.00000E+00
 -1      2585 1.13043E+01 3.31697E+01 0.00000E+00
 -1      2586 1.35319E+01 3.60044E+01 0.00000E+00
 -1      2587 1.27406E+01 3.51711E+01 0.00000E+00
 -1      2588 1.52191E+01 3.73847E+01 0.00000E+00
 -1      2589 1.44346E+01 3.68097E+01 0.00000E+00
 -1      2590 1.75829E+01 3.84691E+01 0.00000E+00
 -1      2591 1.63986E+01 3.79792E+01 0.00000E+00
 -1      2592 2.01200E+01 3.85678E+01 0.00000E+00
 -1      2593 1.90848E+01 3.86759E+01 0.00000E+00
 -1      2594 2.18632E+01 3.85336E+01 0.00000E+00
 -1      2595 2.09916E+01 3.85507E+01 0.00000E+00
 -1      2596 2.05543E+01 3.93743E+01 0.00000E+00
 -1      2597 2.60612E+01 3.75844E+01 0.00000E+00
 -1      2598 2.54128E+01 3.80171E+01 0.00000E+00
 -1      2599 2.77265E+01 3.63640E+01 0.00000E+00
 -1      2600 2.68938E+01 3.69742E+01 0.00000E+00
 -1      2601 2.71387E+01 3.80433E+01 0.00000E+00
 -1      2602 2.87819E+01 3.50968E+01 0.00000E+00
 -1      2603 2.82542E+01 3.57304E+01 0.00000E+00
 -1      2604 2.84991E+01 3.67994E+01 0.00000E+00
 -1      2605 3.07829E+01 2.65453E+01 0.00000E+00
 -1      2606 3.08157E+01 2.76740E+01 0.00000E+00
 -1      2607 3.16382E+01 2.82007E+01 0.00000E+00
 -1      2608 2.60522E+01 1.91417E+01 0.00000E+00
 -1      2609 2.70076E+01 1.98074E+01 0.00000E+00
 -1      2610 2.80471E+01 1.93978E+01 0.00000E+00
 -1      2611 7.03741E+00 8.36719E+00 0.00000E+00
 -1      2612 8.31737E+00 6.53806E+00 0.00000E+00
 -1      2613 1.44287E+01 6.64175E+00 0.00000E+00
 -1      2614 1.60894E+01 1.77375E+01 0.00000E+00
 -1      2615 1.65210E+01 1.67130E+01 0.00000E+00
 -1      2616 1.51270E+01 1.74905E+01 0.00000E+00
 -1      2617 3.08755E+01 3.25090E+01 0.00000E+00
 -1      2618 9.63159E+00 2.53691E+01 0.00000E+00
 -1      2619 2.25438E+01 3.92996E+01 0.00000E+00
 -1      2620 3.14325E+01 3.03992E+01 0.00000E+00
 -1      2621 3.08037E+01 2.35336E+01 0.00000E+00
 -1      2622 1.43519E+02 6.59197E+00 0.00000E+00
 -1      2623 1.43366E+02 7.74587E+00 0.00000E+00
 -1      2624 2.49838E+01 3.89477E+01 0.00000E+00
 -1      2625 1.42758E+02 4.35929E+01 0.00000E+00
 -1      2626 1.43241E+02 4.17323E+01 0.00000E+00
 -1      2627 1.41942E+02 4.09948E+01 0.00000E+00
 -1      2628 1.41414E+02 4.35342E+01 0.00000E+00
 -1      2629 1.54994E+01 3.83833E+01 0.00000E+00
 -1      2630 2.96528E+01 2.11969E+01 0.00000E+00
 -1      2631 1.34171E+01 3.69836E+01 0.00000E+00
 -1      2632 7.83598E+00 4.06390E+01 0.00000E+00
 -1      2633 2.58351E+01 1.82758E+01 0.00000E+00
 -1      2634 1.17963E+01 3.51328E+01 0.00000E+00
 -1      2635 9.50656E+00 3.02305E+01 0.00000E+00
 -1      2636 1.36796E+01 1.93615E+01 0.00000E+00
 -1      2637 1.07669E+01 2.30873E+01 0.00000E+00
 -1      2638 1.19756E+01 2.11482E+01 0.00000E+00
 -1      2639 2.33791E+01 1.74223E+01 0.00000E+00
 -1      2640 2.07268E+01 1.69038E+01 0.00000E+00
 -1      2641 3.08019E+01 3.46179E+01 0.00000E+00
 -1      2642 2.97919E+01 3.48574E+01 0.00000E+00
 -1      2643 3.00368E+01 3.59264E+01 0.00000E+00
 -1      2644 1.03620E+01 3.28086E+01 0.00000E+00
 -1      2645 3.14548E+01 2.59045E+01 0.00000E+00
 -1      2646 1.42067E+02 8.48337E+00 0.00000E+00
 -1      2647 1.40664E+02 4.22352E+01 0.00000E+00
 -1      2648 9.19948E+00 4.09155E+01 0.00000E+00
 -1      2649 1.05630E+01 4.11920E+01 0.00000E+00
 -1      2650 9.11246E+00 3.99015E+01 0.00000E+00
 -1      2651 8.39390E+00 1.98875E+01 0.00000E+00
 -1      2652 8.39390E+00 2.13625E+01 0.00000E+00
 -1      2653 8.64526E+00 1.39875E+01 0.00000E+00
 -1      2654 8.64526E+00 1.54625E+01 0.00000E+00
 -1      2655 8.64526E+00 1.10375E+01 0.00000E+00
 -1      2656 8.64526E+00 1.25125E+01 0.00000E+00
 -1      2657 9.92174E+00 1.32500E+01 0.00000E+00
 -1      2658 8.64874E+00 8.47087E+00 0.00000E+00
 -1      2659 3.26464E+01 2.76066E+01 0.00000E+00
 -1      2660 3.26793E+01 2.87352E+01 0.00000E+00
 -1      2661 1.51645E+01 4.05919E+01 0.00000E+00
 -1      2662 1.66645E+01 4.05919E+01 0.00000E+00
 -1      2663 2.31558E+01 4.07240E+01 0.00000E+00
 -1      2664 2.46558E+01 4.07240E+01 0.00000E+00
 -1      2665 2.64000E+01 4.10133E+01 0.00000E+00
 -1      2666 2.79000E+01 4.10133E+01 0.00000E+00
 -1      2667 2.94000E+01 4.10133E+01 0.00000E+00
 -1      2668 3.09000E+01 4.10133E+01 0.00000E+00
 -1      2669 2.86500E+01 3.98206E+01 0.00000E+00
 -1      2670 3.24000E+01 4.10133E+01 0.00000E+00
 -1      2671 3.39000E+01 4.10133E+01 0.00000E+00
 -1      2672 3.16500E+01 3.98206E+01 0.00000E+00
 -1      2673 3.54000E+01 4.10133E+01 0.00000E+00
 -1      2674 3.69000E+01 4.10133E+01 0.00000E+00
 -1      2675 3.46500E+01 3.98206E+01 0.00000E+00
 -1      2676 3.84000E+01 4.10133E+01 0.00000E+00
 -1      2677 3.99000E+01 4.10133E+01 0.00000E+00
 -1      2678 3.76500E+01 3.98206E+01 0.00000E+00
 -1      2679 4.14000E+01 4.10133E+01 0.00000E+00
 -1      2680 4.29000E+01 4.10133E+01 0.00000E+00
 -1      2681 4.06500E+01 3.98206E+01 0.00000E+00
 -1      2682 4.44000E+01 4.10133E+01 0.00000E+00
 -1      2683 4.59000E+01 4.10133E+01 0.00000E+00
 -1      2684 4.36500E+01 3.98206E+01 0.00000E+00
 -1      2685 4.74000E+01 4.10133E+01 0.00000E+00
 -1      2686 4.89000E+01 4.10133E+01 0.00000E+00
 -1      2687 4.66500E+01 3.98206E+01 0.00000E+00
 -1      2688 5.04000E+01 4.10133E+01 0.00000E+00
 -1      2689 5.19000E+01 4.10133E+01 0.00000E+00
 -1      2690 4.96500E+01 3.98206E+01 0.00000E+00
 -1      2691 5.34000E+01 4.10133E+01 0.00000E+00
 -1      2692 5.49000E+01 4.10133E+01 0.00000E+00
 -1      2693 5.26500E+01 3.98206E+01 0.00000E+00
 -1      2694 5.64000E+01 4.10133E+01 0.00000E+00
 -1      2695 5.79000E+01 4.10133E+01 0.00000E+00
 -1      2696 5.56500E+01 3.98206E+01 0.00000E+00
 -1      2697 5.94000E+01 4.10133E+01 0.00000E+00
 -1      2698 6.09000E+01 4.10133E+01 0.00000E+00
 -1      2699 5.86500E+01 3.98206E+01 0.00000E+00
 -1      2700 6.24000E+01 4.10133E+01 0.00000E+00
 -1      2701 6.39000E+01 4.10133E+01 0.00000E+00
 -1      2702 6.16500E+01 3.98206E+01 0.00000E+00
 -1      2703 6.54000E+01 4.10133E+01 0.00000E+00
 -1      2704 6.69000E+01 4.10133E+01 0.00000E+00
 -1      2705 6.46500E+01 3.98206E+01 0.00000E+00
 -1      2706 6.84000E+01 4.10133E+01 0.00000E+00
 -1      2707 6.99000E+01 4.10133E+01 0.00000E+00
 -1      2708 6.76500E+01 3.98206E+01 0.00000E+00
 -1      2709 7.14000E+01 4.10133E+01 0.00000E+00
 -1      2710 7.29000E+01 4.10133E+01 0.00000E+00
 -1      2711 7.06500E+01 3.98206E+01 0.00000E+00
 -1      2712 7.44000E+01 4.10133E+01 0.00000E+00
 -1      2713 7.59000E+01 4.10133E+01 0.00000E+00
 -1      2714 7.36500E+01 3.98206E+01 0.00000E+00
 -1      2715 7.74000E+01 4.10133E+01 0.00000E+00
 -1      2716 7.89000E+01 4.10133E+01 0.00000E+00
 -1      2717 7.66500E+01 3.98206E+01 0.00000E+00
 -1      2718 8.04000E+01 4.10133E+01 0.00000E+00
 -1      2719 8.19000E+01 4.10133E+01 0.00000E+00
 -1      2720 7.96500E+01 3.98206E+01 0.00000E+00
 -1      2721 8.34000E+01 4.10133E+01 0.00000E+00
 -1      2722 8.49000E+01 4.10133E+01 0.00000E+00
 -1      2723 8.26500E+01 3.98206E+01 0.00000E+00
 -1      2724 8.64000E+01 4.10133E+01 0.00000E+00
 -1      2725 8.79000E+01 4.10133E+01 0.00000E+00
 -1      2726 8.56500E+01 3.98206E+01 0.00000E+00
 -1      2727 8.94000E+01 4.10133E+01 0.00000E+00
 -1      2728 9.09000E+01 4.10133E+01 0.00000E+00
 -1      2729 8.86500E+01 3.98206E+01 0.00000E+00
 -1      2730 9.24000E+01 4.10133E+01 0.00000E+00
 -1      2731 9.39000E+01 4.10133E+01 0.00000E+00
 -1      2732 9.16500E+01 3.98206E+01 0.00000E+00
 -1      2733 9.54000E+01 4.10133E+01 0.00000E+00
 -1      2734 9.69000E+01 4.10133E+01 0.00000E+00
 -1      2735 9.46500E+01 3.98206E+01 0.00000E+00
 -1      2736 9.84000E+01 4.10133E+01 0.00000E+00
 -1      2737 9.99000E+01 4.10133E+01 0.00000E+00
 -1      2738 9.76500E+01 3.98206E+01 0.00000E+00
 -1      2739 1.01400E+02 4.10133E+01 0.00000E+00
 -1      2740 1.02900E+02 4.10133E+01 0.00000E+00
 -1      2741 1.00650E+02 3.98206E+01 0.00000E+00
 -1      2742 1.04400E+02 4.10133E+01 0.00000E+00
 -1      2743 1.05900E+02 4.10133E+01 0.00000E+00
 -1      2744 1.03650E+02 3.98206E+01 0.00000E+00
 -1      2745 1.07400E+02 4.10133E+01 0.00000E+00
 -1      2746 1.08900E+02 4.10133E+01 0.00000E+00
 -1      2747 1.06650E+02 3.98206E+01 0.00000E+00
 -1      2748 1.10400E+02 4.10133E+01 0.00000E+00
 -1      2749 1.11900E+02 4.10133E+01 0.00000E+00
 -1      2750 1.09650E+02 3.98206E+01 0.00000E+00
 -1      2751 1.13400E+02 4.10133E+01 0.00000E+00
 -1      2752 1.14900E+02 4.10133E+01 0.00000E+00
 -1      2753 1.12650E+02 3.98206E+01 0.00000E+00
 -1      2754 1.16400E+02 4.10133E+01 0.00000E+00
 -1      2755 1.17900E+02 4.10133E+01 0.00000E+00
 -1      2756 1.15650E+02 3.98206E+01 0.00000E+00
 -1      2757 1.19400E+02 4.10133E+01 0.00000E+00
 -1      2758 1.20900E+02 4.10133E+01 0.00000E+00
 -1      2759 1.18650E+02 3.98206E+01 0.00000E+00
 -1      2760 1.22400E+02 4.10133E+01 0.00000E+00
 -1      2761 1.23900E+02 4.10133E+01 0.00000E+00
 -1      2762 1.21650E+02 3.98206E+01 0.00000E+00
 -1      2763 1.25400E+02 4.10133E+01 0.00000E+00
 -1      2764 1.26900E+02 4.10133E+01 0.00000E+00
 -1      2765 1.24650E+02 3.98206E+01 0.00000E+00
 -1      2766 1.28400E+02 4.10133E+01 0.00000E+00
 -1      2767 1.29900E+02 4.10133E+01 0.00000E+00
 -1      2768 1.27650E+02 3.98206E+01 0.00000E+00
 -1      2769 1.31400E+02 4.10133E+01 0.00000E+00
 -1      2770 1.32900E+02 4.10133E+01 0.00000E+00
 -1      2771 1.30650E+02 3.98206E+01 0.00000E+00
 -1      2772 1.34400E+02 4.10133E+01 0.00000E+00
 -1      2773 1.35900E+02 4.10133E+01 0.00000E+00
 -1      2774 1.33650E+02 3.98206E+01 0.00000E+00
 -1      2775 1.37400E+02 4.10133E+01 0.00000E+00
 -1      2776 1.38900E+02 4.10133E+01 0.00000E+00
 -1      2777 1.36650E+02 3.98206E+01 0.00000E+00
 -1      2778 1.39849E+01 3.99974E+01 0.00000E+00
 -1      2779 2.11787E+01 7.94075E+00 0.00000E+00
 -1      2780 1.96787E+01 7.94075E+00 0.00000E+00
 -1      2781 3.01787E+01 7.94075E+00 0.00000E+00
 -1      2782 2.86787E+01 7.94075E+00 0.00000E+00
 -1      2783 3.31787E+01 7.94075E+00 0.00000E+00
 -1      2784 3.16787E+01 7.94075E+00 0.00000E+00
 -1      2785 3.09287E+01 9.23975E+00 0.00000E+00
 -1      2786 3.61787E+01 7.94075E+00 0.00000E+00
 -1      2787 3.46787E+01 7.94075E+00 0.00000E+00
 -1      2788 3.39287E+01 9.23975E+00 0.00000E+00
 -1      2789 3.91787E+01 7.94075E+00 0.00000E+00
 -1      2790 3.76787E+01 7.94075E+00 0.00000E+00
 -1      2791 3.69287E+01 9.23975E+00 0.00000E+00
 -1      2792 4.21787E+01 7.94075E+00 0.00000E+00
 -1      2793 4.06787E+01 7.94075E+00 0.00000E+00
 -1      2794 3.99287E+01 9.23975E+00 0.00000E+00
 -1      2795 4.51787E+01 7.94075E+00 0.00000E+00
 -1      2796 4.36787E+01 7.94075E+00 0.00000E+00
 -1      2797 4.29287E+01 9.23975E+00 0.00000E+00
 -1      2798 4.81787E+01 7.94075E+00 0.00000E+00
 -1      2799 4.66787E+01 7.94075E+00 0.00000E+00
 -1      2800 4.59287E+01 9.23975E+00 0.00000E+00
 -1      2801 5.11787E+01 7.94075E+00 0.00000E+00
 -1      2802 4.96787E+01 7.94075E+00 0.00000E+00
 -1      2803 4.89287E+01 9.23975E+00 0.00000E+00
 -1      2804 5.41787E+01 7.94075E+00 0.00000E+00
 -1      2805 5.26787E+01 7.94075E+00 0.00000E+00
 -1      2806 5.19287E+01 9.23975E+00 0.00000E+00
 -1      2807 5.71787E+01 7.94075E+00 0.00000E+00
 -1      2808 5.56787E+01 7.94075E+00 0.00000E+00
 -1      2809 5.49287E+01 9.23975E+00 0.00000E+00
 -1      2810 6.01787E+01 7.94075E+00 0.00000E+00
 -1      2811 5.86787E+01 7.94075E+00 0.00000E+00
 -1      2812 5.79287E+01 9.23975E+00 0.00000E+00
 -1      2813 6.31787E+01 7.94075E+00 0.00000E+00
 -1      2814 6.16787E+01 7.94075E+00 0.00000E+00
 -1      2815 6.09287E+01 9.23975E+00 0.00000E+00
 -1      2816 6.61787E+01 7.94075E+00 0.00000E+00
 -1      2817 6.46787E+01 7.94075E+00 0.00000E+00
 -1      2818 6.39287E+01 9.23975E+00 0.00000E+00
 -1      2819 6.91787E+01 7.94075E+00 0.00000E+00
 -1      2820 6.76787E+01 7.94075E+00 0.00000E+00
 -1      2821 6.69287E+01 9.23975E+00 0.00000E+00
 -1      2822 7.21787E+01 7.94075E+00 0.00000E+00
 -1      2823 7.06787E+01 7.94075E+00 0.00000E+00
 -1      2824 6.99287E+01 9.23975E+00 0.00000E+00
 -1      2825 7.51787E+01 7.94075E+00 0.00000E+00
 -1      2826 7.36787E+01 7.94075E+00 0.00000E+00
 -1      2827 7.29287E+01 9.23975E+00 0.00000E+00
 -1      2828 7.81787E+01 7.94075E+00 0.00000E+00
 -1      2829 7.66787E+01 7.94075E+00 0.00000E+00
 -1      2830 7.59287E+01 9.23975E+00 0.00000E+00
 -1      2831 8.11787E+01 7.94075E+00 0.00000E+00
 -1      2832 7.96787E+01 7.94075E+00 0.00000E+00
 -1      2833 7.89287E+01 9.23975E+00 0.00000E+00
 -1      2834 8.41787E+01 7.94075E+00 0.00000E+00
 -1      2835 8.26787E+01 7.94075E+00 0.00000E+00
 -1      2836 8.19287E+01 9.23975E+00 0.00000E+00
 -1      2837 8.71787E+01 7.94075E+00 0.00000E+00
 -1      2838 8.56787E+01 7.94075E+00 0.00000E+00
 -1      2839 8.49287E+01 9.23975E+00 0.00000E+00
 -1      2840 9.01787E+01 7.94075E+00 0.00000E+00
 -1      2841 8.86787E+01 7.94075E+00 0.00000E+00
 -1      2842 8.79287E+01 9.23975E+00 0.00000E+00
 -1      2843 9.31787E+01 7.94075E+00 0.00000E+00
 -1      2844 9.16787E+01 7.94075E+00 0.00000E+00
 -1      2845 9.09287E+01 9.23975E+00 0.00000E+00
 -1      2846 9.61787E+01 7.94075E+00 0.00000E+00
 -1      2847 9.46787E+01 7.94075E+00 0.00000E+00
 -1      2848 9.39287E+01 9.23975E+00 0.00000E+00
 -1      2849 9.91787E+01 7.94075E+00 0.00000E+00
 -1      2850 9.76787E+01 7.94075E+00 0.00000E+00
 -1      2851 9.69287E+01 9.23975E+00 0.00000E+00
 -1      2852 1.02179E+02 7.94075E+00 0.00000E+00
 -1      2853 1.00679E+02 7.94075E+00 0.00000E+00
 -1      2854 9.99287E+01 9.23975E+00 0.00000E+00
 -1      2855 1.05179E+02 7.94075E+00 0.00000E+00
 -1      2856 1.03679E+02 7.94075E+00 0.00000E+00
 -1      2857 1.02929E+02 9.23975E+00 0.00000E+00
 -1      2858 1.08179E+02 7.94075E+00 0.00000E+00
 -1      2859 1.06679E+02 7.94075E+00 0.00000E+00
 -1      2860 1.05929E+02 9.23975E+00 0.00000E+00
 -1      2861 1.11179E+02 7.94075E+00 0.00000E+00
 -1      2862 1.09679E+02 7.94075E+00 0.00000E+00
 -1      2863 1.08929E+02 9.23975E+00 0.00000E+00
 -1      2864 1.14179E+02 7.94075E+00 0.00000E+00
 -1      2865 1.12679E+02 7.94075E+00 0.00000E+00
 -1      2866 1.11929E+02 9.23975E+00 0.00000E+00
 -1      2867 1.17179E+02 7.94075E+00 0.00000E+00
 -1      2868 1.15679E+02 7.94075E+00 0.00000E+00
 -1      2869 1.14929E+02 9.23975E+00 0.00000E+00
 -1      2870 1.20179E+02 7.94075E+00 0.00000E+00
 -1      2871 1.18679E+02 7.94075E+00 0.00000E+00
 -1      2872 1.17929E+02 9.23975E+00 0.00000E+00
 -1      2873 1.23179E+02 7.94075E+00 0.00000E+00
 -1      2874 1.21679E+02 7.94075E+00 0.00000E+00
 -1      2875 1.20929E+02 9.23975E+00 0.00000E+00
 -1      2876 1.26179E+02 7.94075E+00 0.00000E+00
 -1      2877 1.24679E+02 7.94075E+00 0.00000E+00
 -1      2878 1.23929E+02 9.23975E+00 0.00000E+00
 -1      2879 1.29179E+02 7.94075E+00 0.00000E+00
 -1      2880 1.27679E+02 7.94075E+00 0.00000E+00
 -1      2881 1.26929E+02 9.23975E+00 0.00000E+00
 -1      2882 1.32179E+02 7.94075E+00 0.00000E+00
 -1      2883 1.30679E+02 7.94075E+00 0.00000E+00
 -1      2884 1.29929E+02 9.23975E+00 0.00000E+00
 -1      2885 1.35179E+02 7.94075E+00 0.00000E+00
 -1      2886 1.33679E+02 7.94075E+00 0.00000E+00
 -1      2887 1.32929E+02 9.23975E+00 0.00000E+00
 -1      2888 1.38179E+02 7.94075E+00 0.00000E+00
 -1      2889 1.36679E+02 7.94075E+00 0.00000E+00
 -1      2890 1.35929E+02 9.23975E+00 0.00000E+00
 -1      2891 1.40873E+02 8.21206E+00 0.00000E+00
 -1      2892 1.39373E+02 8.21206E+00 0.00000E+00
 -1      2893 1.38623E+02 9.51106E+00 0.00000E+00
 -1      2894 1.41012E+02 1.00537E+01 0.00000E+00
 -1      2895 1.06770E+01 7.92506E+00 0.00000E+00
 -1      2896 9.39700E+00 9.75419E+00 0.00000E+00
 -1      2897 1.06735E+01 1.04917E+01 0.00000E+00
 -1      2898 1.21770E+01 7.92506E+00 0.00000E+00
 -1      2899 1.40907E+02 2.42875E+01 0.00000E+00
 -1      2900 1.40907E+02 2.28125E+01 0.00000E+00
 -1      2901 1.39914E+02 4.09894E+01 0.00000E+00
 -1      2902 1.40928E+02 4.10187E+01 0.00000E+00
 -1      2903 1.41192E+02 3.97489E+01 0.00000E+00
 -1      2904 1.39164E+02 3.97967E+01 0.00000E+00
 -1      2905 1.40907E+02 1.83875E+01 0.00000E+00
 -1      2906 1.40907E+02 1.69125E+01 0.00000E+00
 -1      2907 1.40907E+02 2.72375E+01 0.00000E+00
 -1      2908 1.40907E+02 2.57625E+01 0.00000E+00
 -1      2909 1.39608E+02 2.50250E+01 0.00000E+00
 -1      2910 1.40907E+02 2.13375E+01 0.00000E+00
 -1      2911 1.40907E+02 1.98625E+01 0.00000E+00
 -1      2912 1.39608E+02 1.91250E+01 0.00000E+00
 -1      2913 1.39608E+02 2.20750E+01 0.00000E+00
 -1      2914 1.40907E+02 3.01375E+01 0.00000E+00
 -1      2915 1.40907E+02 2.86875E+01 0.00000E+00
 -1      2916 1.39608E+02 2.79500E+01 0.00000E+00
 -1      2917 1.40907E+02 3.30875E+01 0.00000E+00
 -1      2918 1.40907E+02 3.16125E+01 0.00000E+00
 -1      2919 1.39608E+02 3.08750E+01 0.00000E+00
 -1      2920 1.40907E+02 3.60375E+01 0.00000E+00
 -1      2921 1.40907E+02 3.45625E+01 0.00000E+00
 -1      2922 1.39608E+02 3.38250E+01 0.00000E+00
 -1      2923 1.41049E+02 3.86307E+01 0.00000E+00
 -1      2924 1.41049E+02 3.71557E+01 0.00000E+00
 -1      2925 1.39751E+02 3.64182E+01 0.00000E+00
 -1      2926 1.40036E+02 3.86546E+01 0.00000E+00
 -1      2927 1.81787E+01 7.94075E+00 0.00000E+00
 -1      2928 1.66787E+01 7.94075E+00 0.00000E+00
 -1      2929 1.89287E+01 9.23975E+00 0.00000E+00
 -1      2930 1.84555E+01 3.89620E+01 0.00000E+00
 -1      2931 1.75515E+01 3.94708E+01 0.00000E+00
 -1      2932 2.80597E+01 1.83614E+01 0.00000E+00
 -1      2933 2.90151E+01 1.90271E+01 0.00000E+00
 -1      2934 1.32419E+01 3.80887E+01 0.00000E+00
 -1      2935 1.23392E+01 3.72834E+01 0.00000E+00
 -1      2936 3.23069E+01 3.00326E+01 0.00000E+00
 -1      2937 3.20684E+01 3.11025E+01 0.00000E+00
 -1      2938 3.15773E+01 2.25061E+01 0.00000E+00
 -1      2939 3.20779E+01 2.37094E+01 0.00000E+00
 -1      2940 2.71787E+01 7.94075E+00 0.00000E+00
 -1      2941 2.56787E+01 7.94075E+00 0.00000E+00
 -1      2942 2.79287E+01 9.23975E+00 0.00000E+00
 -1      2943 2.41787E+01 7.94075E+00 0.00000E+00
 -1      2944 2.26787E+01 7.94075E+00 0.00000E+00
 -1      2945 2.49287E+01 9.23975E+00 0.00000E+00
 -1      2946 1.20630E+01 4.11920E+01 0.00000E+00
 -1      2947 1.78381E+01 1.59789E+01 0.00000E+00
 -1      2948 1.87333E+01 1.58901E+01 0.00000E+00
 -1      2949 9.74608E+00 2.31904E+01 0.00000E+00
 -1      2950 1.02667E+01 2.21915E+01 0.00000E+00
 -1      2951 3.18146E+01 3.22278E+01 0.00000E+00
 -1      2952 3.14961E+01 3.32678E+01 0.00000E+00
 -1      2953 8.64526E+00 1.69375E+01 0.00000E+00
 -1      2954 8.64526E+00 1.84125E+01 0.00000E+00
 -1      2955 9.92174E+00 1.62000E+01 0.00000E+00
 -1      2956 1.26227E+01 1.91259E+01 0.00000E+00
 -1      2957 1.36385E+01 1.82794E+01 0.00000E+00
 -1      2958 2.00717E+01 1.59885E+01 0.00000E+00
 -1      2959 2.15246E+01 1.61099E+01 0.00000E+00
 -1      2960 2.30489E+01 1.64097E+01 0.00000E+00
 -1      2961 2.42484E+01 1.68069E+01 0.00000E+00
 -1      2962 2.55281E+01 1.71629E+01 0.00000E+00
 -1      2963 2.67847E+01 1.76192E+01 0.00000E+00
 -1      2964 1.09395E+01 2.11119E+01 0.00000E+00
 -1      2965 1.16276E+01 2.01716E+01 0.00000E+00
 -1      2966 8.36809E+00 2.84468E+01 0.00000E+00
 -1      2967 8.19288E+00 2.73073E+01 0.00000E+00
 -1      2968 3.23454E+01 2.52714E+01 0.00000E+00
 -1      2969 3.24959E+01 2.64390E+01 0.00000E+00
 -1      2970 3.35370E+01 2.69735E+01 0.00000E+00
 -1      2971 8.50725E+00 3.12025E+01 0.00000E+00
 -1      2972 8.36810E+00 2.99030E+01 0.00000E+00
 -1      2973 3.02767E+01 2.02392E+01 0.00000E+00
 -1      2974 3.09270E+01 2.13726E+01 0.00000E+00
 -1      2975 3.22011E+01 2.15484E+01 0.00000E+00
 -1      2976 1.90534E+01 3.96776E+01 0.00000E+00
 -1      2977 2.10053E+01 4.01394E+01 0.00000E+00
 -1      2978 2.01337E+01 4.01565E+01 0.00000E+00
 -1      2979 2.75607E+01 3.86268E+01 0.00000E+00
 -1      2980 2.67280E+01 3.92370E+01 0.00000E+00
 -1      2981 1.00451E+01 3.38261E+01 0.00000E+00
 -1      2982 9.32878E+00 3.25475E+01 0.00000E+00
 -1      2983 1.51787E+01 7.94075E+00 0.00000E+00
 -1      2984 1.36787E+01 7.94075E+00 0.00000E+00
 -1      2985 1.59287E+01 9.23975E+00 0.00000E+00
 -1      2986 1.14485E+01 3.61411E+01 0.00000E+00
 -1      2987 1.07304E+01 3.50955E+01 0.00000E+00
 -1      2988 1.75371E+01 4.10849E+01 0.00000E+00
 -1      2989 1.95044E+01 4.04426E+01 0.00000E+00
 -1      2990 9.67038E+00 1.91500E+01 0.00000E+00
 -1      2991 1.30132E+01 1.70193E+01 0.00000E+00
 -1      2992 1.40701E+01 1.72549E+01 0.00000E+00
 -1      2993 1.45016E+01 1.62303E+01 0.00000E+00
 -1      2994 8.31012E+00 2.28375E+01 0.00000E+00
 -1      2995 8.31012E+00 2.43125E+01 0.00000E+00
 -1      2996 1.95312E+01 1.50962E+01 0.00000E+00
 -1      2997 2.59780E+01 4.04297E+01 0.00000E+00
 -1      2998 1.90371E+01 4.10849E+01 0.00000E+00
 -1      2999 2.01174E+01 4.15638E+01 0.00000E+00
 -1      3000 2.16174E+01 4.15638E+01 0.00000E+00
 -1      3001 1.27211E+01 4.09354E+01 0.00000E+00
 -1      3002 1.30560E+01 3.87269E+01 0.00000E+00
 -1      3003 1.39608E+02 1.61875E+01 0.00000E+00
 -1      3004 1.40907E+02 1.54500E+01 0.00000E+00
 -1      3005 1.40907E+02 1.39875E+01 0.00000E+00
 -1      3006 2.19287E+01 9.23975E+00 0.00000E+00
 -1      3007 1.29270E+01 9.22406E+00 0.00000E+00
 -1      3008 3.33152E+01 2.94385E+01 0.00000E+00
 -1      3009 9.69721E+00 3.48344E+01 0.00000E+00
 -1      3010 1.40959E+02 1.27518E+01 0.00000E+00
 -1      3011 1.40959E+02 1.12893E+01 0.00000E+00
 -1      3012 1.39765E+02 1.10180E+01 0.00000E+00
 -1      3013 1.39660E+02 1.34893E+01 0.00000E+00
 -1      3014 8.19288E+00 2.58510E+01 0.00000E+00
 -1      3015 9.06576E+00 3.78644E+01 0.00000E+00
 -1      3016 1.04293E+01 3.81409E+01 0.00000E+00
 -1      3017 2.77527E+01 1.72484E+01 0.00000E+00
 -1      3018 3.02892E+01 1.92028E+01 0.00000E+00
 -1      3019 3.15634E+01 1.93785E+01 0.00000E+00
 -1      3020 3.03018E+01 1.81663E+01 0.00000E+00
 -1      3021 3.31190E+01 2.42439E+01 0.00000E+00
 -1      3022 1.12732E+01 3.72462E+01 0.00000E+00
 -1      3023 1.59132E+01 1.54848E+01 0.00000E+00
 -1      3024 1.68756E+01 1.57318E+01 0.00000E+00
 -1      3025 1.72303E+01 1.47507E+01 0.00000E+00
 -1      3026 9.91876E+00 2.12149E+01 0.00000E+00
 -1      3027 2.51980E+01 1.61502E+01 0.00000E+00
 -1      3028 2.23939E+01 1.54944E+01 0.00000E+00
 -1      3029 2.32632E+01 1.48789E+01 0.00000E+00
 -1      3030 2.17389E+01 1.45791E+01 0.00000E+00
 -1      3031 3.26891E+01 3.18613E+01 0.00000E+00
 -1      3032 2.20380E+01 4.07816E+01 0.00000E+00
 -1      3033 8.97071E+00 3.64144E+01 0.00000E+00
 -1      3034 3.17410E+01 3.43368E+01 0.00000E+00
 -1      3035 3.19859E+01 3.54058E+01 0.00000E+00
 -1      3036 3.26802E+01 3.40557E+01 0.00000E+00
 -1      3037 1.15866E+01 1.90896E+01 0.00000E+00
 -1      3038 8.50725E+00 3.26775E+01 0.00000E+00
 -1      3039 8.80749E+00 2.45681E+01 0.00000E+00
 -1      3040 2.90607E+01 3.86268E+01 0.00000E+00
 -1      3041 2.98126E+01 3.69598E+01 0.00000E+00
 -1      3042 2.92849E+01 3.75934E+01 0.00000E+00
 -1      3043 3.03742E+01 3.87872E+01 0.00000E+00
 -1      3044 3.08225E+01 3.67204E+01 0.00000E+00
 -1      3045 1.89372E+01 1.40246E+01 0.00000E+00
 -1      3046 2.02756E+01 1.41230E+01 0.00000E+00
 -1      3047 1.12207E+01 1.25125E+01 0.00000E+00
 -1      3048 1.12207E+01 1.39875E+01 0.00000E+00
 -1      3049 3.18742E+01 3.87872E+01 0.00000E+00
 -1      3050 3.39000E+01 3.85216E+01 0.00000E+00
 -1      3051 3.54000E+01 3.85216E+01 0.00000E+00
 -1      3052 3.69000E+01 3.85216E+01 0.00000E+00
 -1      3053 3.84000E+01 3.85216E+01 0.00000E+00
 -1      3054 3.61500E+01 3.72226E+01 0.00000E+00
 -1      3055 3.99000E+01 3.85216E+01 0.00000E+00
 -1      3056 4.14000E+01 3.85216E+01 0.00000E+00
 -1      3057 3.91500E+01 3.72226E+01 0.00000E+00
 -1      3058 4.29000E+01 3.85216E+01 0.00000E+00
 -1      3059 4.44000E+01 3.85216E+01 0.00000E+00
 -1      3060 4.21500E+01 3.72226E+01 0.00000E+00
 -1      3061 4.59000E+01 3.85216E+01 0.00000E+00
 -1      3062 4.74000E+01 3.85216E+01 0.00000E+00
 -1      3063 4.51500E+01 3.72226E+01 0.00000E+00
 -1      3064 4.89000E+01 3.85216E+01 0.00000E+00
 -1      3065 5.04000E+01 3.85216E+01 0.00000E+00
 -1      3066 4.81500E+01 3.72226E+01 0.00000E+00
 -1      3067 5.19000E+01 3.85216E+01 0.00000E+00
 -1      3068 5.34000E+01 3.85216E+01 0.00000E+00
 -1      3069 5.11500E+01 3.72226E+01 0.00000E+00
 -1      3070 5.49000E+01 3.85216E+01 0.00000E+00
 -1      3071 5.64000E+01 3.85216E+01 0.00000E+00
 -1      3072 5.41500E+01 3.72226E+01 0.00000E+00
 -1      3073 5.79000E+01 3.85216E+01 0.00000E+00
 -1      3074 5.94000E+01 3.85216E+01 0.00000E+00
 -1      3075 5.71500E+01 3.72226E+01 0.00000E+00
 -1      3076 6.09000E+01 3.85216E+01 0.00000E+00
 -1      3077 6.24000E+01 3.85216E+01 0.00000E+00
 -1      3078 6.01500E+01 3.72226E+01 0.00000E+00
 -1      3079 6.39000E+01 3.85216E+01 0.00000E+00
 -1      3080 6.54000E+01 3.85216E+01 0.00000E+00
 -1      3081 6.31500E+01 3.72226E+01 0.00000E+00
 -1      3082 6.69000E+01 3.85216E+01 0.00000E+00
 -1      3083 6.84000E+01 3.85216E+01 0.00000E+00
 -1      3084 6.61500E+01 3.72226E+01 0.00000E+00
 -1      3085 6.99000E+01 3.85216E+01 0.00000E+00
 -1      3086 7.14000E+01 3.85216E+01 0.00000E+00
 -1      3087 6.91500E+01 3.72226E+01 0.00000E+00
 -1      3088 7.29000E+01 3.85216E+01 0.00000E+00
 -1      3089 7.44000E+01 3.85216E+01 0.00000E+00
 -1      3090 7.21500E+01 3.72226E+01 0.00000E+00
 -1      3091 7.59000E+01 3.85216E+01 0.00000E+00
 -1      3092 7.74000E+01 3.85216E+01 0.00000E+00
 -1      3093 7.51500E+01 3.72226E+01 0.00000E+00
 -1      3094 7.89000E+01 3.85216E+01 0.00000E+00
 -1      3095 8.04000E+01 3.85216E+01 0.00000E+00
 -1      3096 7.81500E+01 3.72226E+01 0.00000E+00
 -1      3097 8.19000E+01 3.85216E+01 0.00000E+00
 -1      3098 8.34000E+01 3.85216E+01 0.00000E+00
 -1      3099 8.11500E+01 3.72226E+01 0.00000E+00
 -1      3100 8.49000E+01 3.85216E+01 0.00000E+00
 -1      3101 8.64000E+01 3.85216E+01 0.00000E+00
 -1      3102 8.41500E+01 3.72226E+01 0.00000E+00
 -1      3103 8.79000E+01 3.85216E+01 0.00000E+00
 -1      3104 8.94000E+01 3.85216E+01 0.00000E+00
 -1      3105 8.71500E+01 3.72226E+01 0.00000E+00
 -1      3106 9.09000E+01 3.85216E+01 0.00000E+00
 -1      3107 9.24000E+01 3.85216E+01 0.00000E+00
 -1      3108 9.01500E+01 3.72226E+01 0.00000E+00
 -1      3109 9.39000E+01 3.85216E+01 0.00000E+00
 -1      3110 9.54000E+01 3.85216E+01 0.00000E+00
 -1      3111 9.31500E+01 3.72226E+01 0.00000E+00
 -1      3112 9.69000E+01 3.85216E+01 0.00000E+00
 -1      3113 9.84000E+01 3.85216E+01 0.00000E+00
 -1      3114 9.61500E+01 3.72226E+01 0.00000E+00
 -1      3115 9.99000E+01 3.85216E+01 0.00000E+00
 -1      3116 1.01400E+02 3.85216E+01 0.00000E+00
 -1      3117 9.91500E+01 3.72226E+01 0.00000E+00
 -1      3118 1.02900E+02 3.85216E+01 0.00000E+00
 -1      3119 1.04400E+02 3.85216E+01 0.00000E+00
 -1      3120 1.02150E+02 3.72226E+01 0.00000E+00
 -1      3121 1.05900E+02 3.85216E+01 0.00000E+00
 -1      3122 1.07400E+02 3.85216E+01 0.00000E+00
 -1      3123 1.05150E+02 3.72226E+01 0.00000E+00
 -1      3124 1.08900E+02 3.85216E+01 0.00000E+00
 -1      3125 1.10400E+02 3.85216E+01 0.00000E+00
 -1      3126 1.08150E+02 3.72226E+01 0.00000E+00
 -1      3127 1.11900E+02 3.85216E+01 0.00000E+00
 -1      3128 1.13400E+02 3.85216E+01 0.00000E+00
 -1      3129 1.11150E+02 3.72226E+01 0.00000E+00
 -1      3130 1.14900E+02 3.85216E+01 0.00000E+00
 -1      3131 1.16400E+02 3.85216E+01 0.00000E+00
 -1      3132 1.14150E+02 3.72226E+01 0.00000E+00
 -1      3133 1.17900E+02 3.85216E+01 0.00000E+00
 -1      3134 1.19400E+02 3.85216E+01 0.00000E+00
 -1      3135 1.17150E+02 3.72226E+01 0.00000E+00
 -1      3136 1.20900E+02 3.85216E+01 0.00000E+00
 -1      3137 1.22400E+02 3.85216E+01 0.00000E+00
 -1      3138 1.20150E+02 3.72226E+01 0.00000E+00
 -1      3139 1.23900E+02 3.85216E+01 0.00000E+00
 -1      3140 1.25400E+02 3.85216E+01 0.00000E+00
 -1      3141 1.23150E+02 3.72226E+01 0.00000E+00
 -1      3142 1.26900E+02 3.85216E+01 0.00000E+00
 -1      3143 1.28400E+02 3.85216E+01 0.00000E+00
 -1      3144 1.26150E+02 3.72226E+01 0.00000E+00
 -1      3145 1.29900E+02 3.85216E+01 0.00000E+00
 -1      3146 1.31400E+02 3.85216E+01 0.00000E+00
 -1      3147 1.29150E+02 3.72226E+01 0.00000E+00
 -1      3148 1.32900E+02 3.85216E+01 0.00000E+00
 -1      3149 1.34400E+02 3.85216E+01 0.00000E+00
 -1      3150 1.32150E+02 3.72226E+01 0.00000E+00
 -1      3151 1.35900E+02 3.85216E+01 0.00000E+00
 -1      3152 1.37400E+02 3.85216E+01 0.00000E+00
 -1      3153 1.35150E+02 3.72226E+01 0.00000E+00
 -1      3154 3.46787E+01 1.05387E+01 0.00000E+00
 -1      3155 3.31787E+01 1.05387E+01 0.00000E+00
 -1      3156 3.16787E+01 1.05387E+01 0.00000E+00
 -1      3157 3.01787E+01 1.05387E+01 0.00000E+00
 -1      3158 3.24287E+01 1.18378E+01 0.00000E+00
 -1      3159 4.06787E+01 1.05387E+01 0.00000E+00
 -1      3160 3.91787E+01 1.05387E+01 0.00000E+00
 -1      3161 4.36787E+01 1.05387E+01 0.00000E+00
 -1      3162 4.21787E+01 1.05387E+01 0.00000E+00
 -1      3163 4.14287E+01 1.18378E+01 0.00000E+00
 -1      3164 4.66787E+01 1.05387E+01 0.00000E+00
 -1      3165 4.51787E+01 1.05387E+01 0.00000E+00
 -1      3166 4.44287E+01 1.18378E+01 0.00000E+00
 -1      3167 4.96787E+01 1.05387E+01 0.00000E+00
 -1      3168 4.81787E+01 1.05387E+01 0.00000E+00
 -1      3169 4.74287E+01 1.18378E+01 0.00000E+00
 -1      3170 5.26787E+01 1.05387E+01 0.00000E+00
 -1      3171 5.11787E+01 1.05387E+01 0.00000E+00
 -1      3172 5.04287E+01 1.18378E+01 0.00000E+00
 -1      3173 5.56787E+01 1.05387E+01 0.00000E+00
 -1      3174 5.41787E+01 1.05387E+01 0.00000E+00
 -1      3175 5.34287E+01 1.18378E+01 0.00000E+00
 -1      3176 5.86787E+01 1.05387E+01 0.00000E+00
 -1      3177 5.71787E+01 1.05387E+01 0.00000E+00
 -1      3178 5.64287E+01 1.18378E+01 0.00000E+00
 -1      3179 6.16787E+01 1.05387E+01 0.00000E+00
 -1      3180 6.01787E+01 1.05387E+01 0.00000E+00
 -1      3181 5.94287E+01 1.18378E+01 0.00000E+00
 -1      3182 6.46787E+01 1.05387E+01 0.00000E+00
 -1      3183 6.31787E+01 1.05387E+01 0.00000E+00
 -1      3184 6.24287E+01 1.18378E+01 0.00000E+00
 -1      3185 6.76787E+01 1.05387E+01 0.00000E+00
 -1      3186 6.61787E+01 1.05387E+01 0.00000E+00
 -1      3187 6.54287E+01 1.18378E+01 0.00000E+00
 -1      3188 7.06787E+01 1.05387E+01 0.00000E+00
 -1      3189 6.91787E+01 1.05387E+01 0.00000E+00
 -1      3190 6.84287E+01 1.18378E+01 0.00000E+00
 -1      3191 7.36787E+01 1.05387E+01 0.00000E+00
 -1      3192 7.21787E+01 1.05387E+01 0.00000E+00
 -1      3193 7.14287E+01 1.18378E+01 0.00000E+00
 -1      3194 7.66787E+01 1.05387E+01 0.00000E+00
 -1      3195 7.51787E+01 1.05387E+01 0.00000E+00
 -1      3196 7.44287E+01 1.18378E+01 0.00000E+00
 -1      3197 7.96787E+01 1.05387E+01 0.00000E+00
 -1      3198 7.81787E+01 1.05387E+01 0.00000E+00
 -1      3199 7.74287E+01 1.18378E+01 0.00000E+00
 -1      3200 8.26787E+01 1.05387E+01 0.00000E+00
 -1      3201 8.11787E+01 1.05387E+01 0.00000E+00
 -1      3202 8.04287E+01 1.18378E+01 0.00000E+00
 -1      3203 8.56787E+01 1.05387E+01 0.00000E+00
 -1      3204 8.41787E+01 1.05387E+01 0.00000E+00
 -1      3205 8.34287E+01 1.18378E+01 0.00000E+00
 -1      3206 8.86787E+01 1.05387E+01 0.00000E+00
 -1      3207 8.71787E+01 1.05387E+01 0.00000E+00
 -1      3208 8.64287E+01 1.18378E+01 0.00000E+00
 -1      3209 9.16787E+01 1.05387E+01 0.00000E+00
 -1      3210 9.01787E+01 1.05387E+01 0.00000E+00
 -1      3211 8.94287E+01 1.18378E+01 0.00000E+00
 -1      3212 9.46787E+01 1.05387E+01 0.00000E+00
 -1      3213 9.31787E+01 1.05387E+01 0.00000E+00
 -1      3214 9.24287E+01 1.18378E+01 0.00000E+00
 -1      3215 9.76787E+01 1.05387E+01 0.00000E+00
 -1      3216 9.61787E+01 1.05387E+01 0.00000E+00
 -1      3217 9.54287E+01 1.18378E+01 0.00000E+00
 -1      3218 1.00679E+02 1.05387E+01 0.00000E+00
 -1      3219 9.91787E+01 1.05387E+01 0.00000E+00
 -1      3220 9.84287E+01 1.18378E+01 0.00000E+00
 -1      3221 1.03679E+02 1.05387E+01 0.00000E+00
 -1      3222 1.02179E+02 1.05387E+01 0.00000E+00
 -1      3223 1.01429E+02 1.18378E+01 0.00000E+00
 -1      3224 1.06679E+02 1.05387E+01 0.00000E+00
 -1      3225 1.05179E+02 1.05387E+01 0.00000E+00
 -1      3226 1.04429E+02 1.18378E+01 0.00000E+00
 -1      3227 1.09679E+02 1.05387E+01 0.00000E+00
 -1      3228 1.08179E+02 1.05387E+01 0.00000E+00
 -1      3229 1.07429E+02 1.18378E+01 0.00000E+00
 -1      3230 1.12679E+02 1.05387E+01 0.00000E+00
 -1      3231 1.11179E+02 1.05387E+01 0.00000E+00
 -1      3232 1.10429E+02 1.18378E+01 0.00000E+00
 -1      3233 1.15679E+02 1.05387E+01 0.00000E+00
 -1      3234 1.14179E+02 1.05387E+01 0.00000E+00
 -1      3235 1.13429E+02 1.18378E+01 0.00000E+00
 -1      3236 1.18679E+02 1.05387E+01 0.00000E+00
 -1      3237 1.17179E+02 1.05387E+01 0.00000E+00
 -1      3238 1.16429E+02 1.18378E+01 0.00000E+00
 -1      3239 1.21679E+02 1.05387E+01 0.00000E+00
 -1      3240 1.20179E+02 1.05387E+01 0.00000E+00
 -1      3241 1.19429E+02 1.18378E+01 0.00000E+00
 -1      3242 1.24679E+02 1.05387E+01 0.00000E+00
 -1      3243 1.23179E+02 1.05387E+01 0.00000E+00
 -1      3244 1.22429E+02 1.18378E+01 0.00000E+00
 -1      3245 1.27679E+02 1.05387E+01 0.00000E+00
 -1      3246 1.26179E+02 1.05387E+01 0.00000E+00
 -1      3247 1.25429E+02 1.18378E+01 0.00000E+00
 -1      3248 1.30679E+02 1.05387E+01 0.00000E+00
 -1      3249 1.29179E+02 1.05387E+01 0.00000E+00
 -1      3250 1.28429E+02 1.18378E+01 0.00000E+00
 -1      3251 1.33679E+02 1.05387E+01 0.00000E+00
 -1      3252 1.32179E+02 1.05387E+01 0.00000E+00
 -1      3253 1.31429E+02 1.18378E+01 0.00000E+00
 -1      3254 1.36679E+02 1.05387E+01 0.00000E+00
 -1      3255 1.35179E+02 1.05387E+01 0.00000E+00
 -1      3256 1.34429E+02 1.18378E+01 0.00000E+00
 -1      3257 1.38819E+02 1.09140E+01 0.00000E+00
 -1      3258 1.37625E+02 1.06427E+01 0.00000E+00
 -1      3259 1.36875E+02 1.19417E+01 0.00000E+00
 -1      3260 1.38767E+02 1.21497E+01 0.00000E+00
 -1      3261 1.66787E+01 1.05387E+01 0.00000E+00
 -1      3262 1.51787E+01 1.05387E+01 0.00000E+00
 -1      3263 1.39021E+02 3.86785E+01 0.00000E+00
 -1      3264 1.38309E+02 3.16125E+01 0.00000E+00
 -1      3265 1.38309E+02 3.01375E+01 0.00000E+00
 -1      3266 1.38309E+02 2.57625E+01 0.00000E+00
 -1      3267 1.38309E+02 2.42875E+01 0.00000E+00
 -1      3268 2.76309E+01 1.59914E+01 0.00000E+00
 -1      3269 2.89059E+01 1.67336E+01 0.00000E+00
 -1      3270 2.00551E+01 1.11456E+01 0.00000E+00
 -1      3271 1.85551E+01 1.11456E+01 0.00000E+00
 -1      3272 3.39130E+01 2.33039E+01 0.00000E+00
 -1      3273 3.41806E+01 2.48660E+01 0.00000E+00
 -1      3274 2.86787E+01 1.05387E+01 0.00000E+00
 -1      3275 2.71787E+01 1.05387E+01 0.00000E+00
 -1      3276 2.94287E+01 1.18378E+01 0.00000E+00
 -1      3277 3.76787E+01 1.05387E+01 0.00000E+00
 -1      3278 3.61787E+01 1.05387E+01 0.00000E+00
 -1      3279 3.54287E+01 1.18378E+01 0.00000E+00
 -1      3280 3.84287E+01 1.18378E+01 0.00000E+00
 -1      3281 1.38309E+02 3.45625E+01 0.00000E+00
 -1      3282 1.38309E+02 3.30875E+01 0.00000E+00
 -1      3283 1.37010E+02 3.23500E+01 0.00000E+00
 -1      3284 2.30184E+01 1.16017E+01 0.00000E+00
 -1      3285 2.15184E+01 1.16017E+01 0.00000E+00
 -1      3286 2.58486E+01 1.10702E+01 0.00000E+00
 -1      3287 2.43486E+01 1.10702E+01 0.00000E+00
 -1      3288 2.39383E+01 1.34322E+01 0.00000E+00
 -1      3289 2.65986E+01 1.23692E+01 0.00000E+00
 -1      3290 2.48328E+01 1.49846E+01 0.00000E+00
 -1      3291 2.61126E+01 1.53406E+01 0.00000E+00
 -1      3292 3.36525E+01 3.14873E+01 0.00000E+00
 -1      3293 3.33987E+01 3.26126E+01 0.00000E+00
 -1      3294 8.19032E+00 3.36950E+01 0.00000E+00
 -1      3295 3.43123E+01 2.62801E+01 0.00000E+00
 -1      3296 3.44628E+01 2.74477E+01 0.00000E+00
 -1      3297 3.28378E+01 2.04298E+01 0.00000E+00
 -1      3298 3.34881E+01 2.15632E+01 0.00000E+00
 -1      3299 3.43257E+01 2.90263E+01 0.00000E+00
 -1      3300 3.39534E+01 3.03237E+01 0.00000E+00
 -1      3301 1.19725E+01 1.12292E+01 0.00000E+00
 -1      3302 1.38309E+02 2.86750E+01 0.00000E+00
 -1      3303 1.38309E+02 2.72250E+01 0.00000E+00
 -1      3304 1.37010E+02 2.64875E+01 0.00000E+00
 -1      3305 1.37010E+02 2.94125E+01 0.00000E+00
 -1      3306 8.28536E+00 3.51450E+01 0.00000E+00
 -1      3307 1.19299E+01 1.71662E+01 0.00000E+00
 -1      3308 1.23615E+01 1.61416E+01 0.00000E+00
 -1      3309 8.30737E+00 2.21973E+01 0.00000E+00
 -1      3310 9.24871E+00 2.29348E+01 0.00000E+00
 -1      3311 3.26242E+01 3.74882E+01 0.00000E+00
 -1      3312 1.38309E+02 1.69188E+01 0.00000E+00
 -1      3313 1.38309E+02 1.54563E+01 0.00000E+00
 -1      3314 1.11341E+01 3.99214E+01 0.00000E+00
 -1      3315 1.34742E+01 1.12449E+01 0.00000E+00
 -1      3316 1.38129E+02 3.62613E+01 0.00000E+00
 -1      3317 1.36830E+02 3.55238E+01 0.00000E+00
 -1      3318 1.78051E+01 1.24446E+01 0.00000E+00
 -1      3319 1.38271E+02 3.73795E+01 0.00000E+00
 -1      3320 1.37010E+02 2.35500E+01 0.00000E+00
 -1      3321 1.38309E+02 2.28125E+01 0.00000E+00
 -1      3322 1.38309E+02 2.13375E+01 0.00000E+00
 -1      3323 3.00583E+01 1.56522E+01 0.00000E+00
 -1      3324 3.01800E+01 1.69093E+01 0.00000E+00
 -1      3325 3.14542E+01 1.70850E+01 0.00000E+00
 -1      3326 1.42242E+01 1.25439E+01 0.00000E+00
 -1      3327 3.51063E+01 2.53401E+01 0.00000E+00
 -1      3328 9.33250E+00 2.14598E+01 0.00000E+00
 -1      3329 3.51009E+01 2.83329E+01 0.00000E+00
 -1      3330 3.57391E+01 2.92182E+01 0.00000E+00
 -1      3331 3.58762E+01 2.76395E+01 0.00000E+00
 -1      3332 1.48563E+01 1.52492E+01 0.00000E+00
 -1      3333 2.11449E+01 1.35076E+01 0.00000E+00
 -1      3334 3.28504E+01 1.93933E+01 0.00000E+00
 -1      3335 1.05999E+01 1.55067E+01 0.00000E+00
 -1      3336 1.05999E+01 1.69817E+01 0.00000E+00
 -1      3337 1.12517E+01 1.78594E+01 0.00000E+00
 -1      3338 3.46630E+01 3.10751E+01 0.00000E+00
 -1      3339 9.74883E+00 2.38306E+01 0.00000E+00
 -1      3340 3.36436E+01 3.36817E+01 0.00000E+00
 -1      3341 3.38885E+01 3.47507E+01 0.00000E+00
 -1      3342 3.46070E+01 3.33076E+01 0.00000E+00
 -1      3343 2.72658E+01 1.48257E+01 0.00000E+00
 -1      3344 3.45497E+01 2.21853E+01 0.00000E+00
 -1      3345 3.56113E+01 2.28075E+01 0.00000E+00
 -1      3346 3.51864E+01 2.10668E+01 0.00000E+00
 -1      3347 1.70607E+01 1.34177E+01 0.00000E+00
 -1      3348 1.38309E+02 1.98656E+01 0.00000E+00
 -1      3349 1.38309E+02 1.83906E+01 0.00000E+00
 -1      3350 1.37010E+02 1.76594E+01 0.00000E+00
 -1      3351 1.37010E+02 2.06031E+01 0.00000E+00
 -1      3352 1.18989E+01 1.47692E+01 0.00000E+00
 -1      3353 3.28484E+01 3.64548E+01 0.00000E+00
 -1      3354 1.10874E+01 3.78843E+01 0.00000E+00
 -1      3355 3.60612E+01 2.45380E+01 0.00000E+00
 -1      3356 3.61929E+01 2.59521E+01 0.00000E+00
 -1      3357 1.19781E+01 3.90267E+01 0.00000E+00
 -1      3358 4.81787E+01 1.31368E+01 0.00000E+00
 -1      3359 4.66787E+01 1.31368E+01 0.00000E+00
 -1      3360 1.35711E+02 3.30875E+01 0.00000E+00
 -1      3361 1.35711E+02 3.16125E+01 0.00000E+00
 -1      3362 3.84000E+01 3.59236E+01 0.00000E+00
 -1      3363 3.99000E+01 3.59236E+01 0.00000E+00
 -1      3364 4.14000E+01 3.59236E+01 0.00000E+00
 -1      3365 4.29000E+01 3.59236E+01 0.00000E+00
 -1      3366 4.06500E+01 3.46246E+01 0.00000E+00
 -1      3367 4.44000E+01 3.59236E+01 0.00000E+00
 -1      3368 4.59000E+01 3.59236E+01 0.00000E+00
 -1      3369 4.36500E+01 3.46246E+01 0.00000E+00
 -1      3370 4.74000E+01 3.59236E+01 0.00000E+00
 -1      3371 4.89000E+01 3.59236E+01 0.00000E+00
 -1      3372 4.66500E+01 3.46246E+01 0.00000E+00
 -1      3373 5.04000E+01 3.59236E+01 0.00000E+00
 -1      3374 5.19000E+01 3.59236E+01 0.00000E+00
 -1      3375 4.96500E+01 3.46246E+01 0.00000E+00
 -1      3376 5.34000E+01 3.59236E+01 0.00000E+00
 -1      3377 5.49000E+01 3.59236E+01 0.00000E+00
 -1      3378 5.26500E+01 3.46246E+01 0.00000E+00
 -1      3379 5.64000E+01 3.59236E+01 0.00000E+00
 -1      3380 5.79000E+01 3.59236E+01 0.00000E+00
 -1      3381 5.56500E+01 3.46246E+01 0.00000E+00
 -1      3382 5.94000E+01 3.59236E+01 0.00000E+00
 -1      3383 6.09000E+01 3.59236E+01 0.00000E+00
 -1      3384 5.86500E+01 3.46246E+01 0.00000E+00
 -1      3385 6.24000E+01 3.59236E+01 0.00000E+00
 -1      3386 6.39000E+01 3.59236E+01 0.00000E+00
 -1      3387 6.16500E+01 3.46246E+01 0.00000E+00
 -1      3388 6.54000E+01 3.59236E+01 0.00000E+00
 -1      3389 6.69000E+01 3.59236E+01 0.00000E+00
 -1      3390 6.46500E+01 3.46246E+01 0.00000E+00
 -1      3391 6.84000E+01 3.59236E+01 0.00000E+00
 -1      3392 6.99000E+01 3.59236E+01 0.00000E+00
 -1      3393 6.76500E+01 3.46246E+01 0.00000E+00
 -1      3394 7.14000E+01 3.59236E+01 0.00000E+00
 -1      3395 7.29000E+01 3.59236E+01 0.00000E+00
 -1      3396 7.06500E+01 3.46246E+01 0.00000E+00
 -1      3397 7.44000E+01 3.59236E+01 0.00000E+00
 -1      3398 7.59000E+01 3.59236E+01 0.00000E+00
 -1      3399 7.36500E+01 3.46246E+01 0.00000E+00
 -1      3400 7.74000E+01 3.59236E+01 0.00000E+00
 -1      3401 7.89000E+01 3.59236E+01 0.00000E+00
 -1      3402 7.66500E+01 3.46246E+01 0.00000E+00
 -1      3403 8.04000E+01 3.59236E+01 0.00000E+00
 -1      3404 8.19000E+01 3.59236E+01 0.00000E+00
 -1      3405 7.96500E+01 3.46246E+01 0.00000E+00
 -1      3406 8.34000E+01 3.59236E+01 0.00000E+00
 -1      3407 8.49000E+01 3.59236E+01 0.00000E+00
 -1      3408 8.26500E+01 3.46246E+01 0.00000E+00
 -1      3409 8.64000E+01 3.59236E+01 0.00000E+00
 -1      3410 8.79000E+01 3.59236E+01 0.00000E+00
 -1      3411 8.56500E+01 3.46246E+01 0.00000E+00
 -1      3412 8.94000E+01 3.59236E+01 0.00000E+00
 -1      3413 9.09000E+01 3.59236E+01 0.00000E+00
 -1      3414 8.86500E+01 3.46246E+01 0.00000E+00
 -1      3415 9.24000E+01 3.59236E+01 0.00000E+00
 -1      3416 9.39000E+01 3.59236E+01 0.00000E+00
 -1      3417 9.16500E+01 3.46246E+01 0.00000E+00
 -1      3418 9.54000E+01 3.59236E+01 0.00000E+00
 -1      3419 9.69000E+01 3.59236E+01 0.00000E+00
 -1      3420 9.46500E+01 3.46246E+01 0.00000E+00
 -1      3421 9.84000E+01 3.59236E+01 0.00000E+00
 -1      3422 9.99000E+01 3.59236E+01 0.00000E+00
 -1      3423 9.76500E+01 3.46246E+01 0.00000E+00
 -1      3424 1.01400E+02 3.59236E+01 0.00000E+00
 -1      3425 1.02900E+02 3.59236E+01 0.00000E+00
 -1      3426 1.00650E+02 3.46246E+01 0.00000E+00
 -1      3427 1.04400E+02 3.59236E+01 0.00000E+00
 -1      3428 1.05900E+02 3.59236E+01 0.00000E+00
 -1      3429 1.03650E+02 3.46246E+01 0.00000E+00
 -1      3430 1.07400E+02 3.59236E+01 0.00000E+00
 -1      3431 1.08900E+02 3.59236E+01 0.00000E+00
 -1      3432 1.06650E+02 3.46246E+01 0.00000E+00
 -1      3433 1.10400E+02 3.59236E+01 0.00000E+00
 -1      3434 1.11900E+02 3.59236E+01 0.00000E+00
 -1      3435 1.09650E+02 3.46246E+01 0.00000E+00
 -1      3436 1.13400E+02 3.59236E+01 0.00000E+00
 -1      3437 1.14900E+02 3.59236E+01 0.00000E+00
 -1      3438 1.12650E+02 3.46246E+01 0.00000E+00
 -1      3439 1.16400E+02 3.59236E+01 0.00000E+00
 -1      3440 1.17900E+02 3.59236E+01 0.00000E+00
 -1      3441 1.15650E+02 3.46246E+01 0.00000E+00
 -1      3442 1.19400E+02 3.59236E+01 0.00000E+00
 -1      3443 1.20900E+02 3.59236E+01 0.00000E+00
 -1      3444 1.18650E+02 3.46246E+01 0.00000E+00
 -1      3445 1.22400E+02 3.59236E+01 0.00000E+00
 -1      3446 1.23900E+02 3.59236E+01 0.00000E+00
 -1      3447 1.21650E+02 3.46246E+01 0.00000E+00
 -1      3448 1.25400E+02 3.59236E+01 0.00000E+00
 -1      3449 1.26900E+02 3.59236E+01 0.00000E+00
 -1      3450 1.24650E+02 3.46246E+01 0.00000E+00
 -1      3451 1.28400E+02 3.59236E+01 0.00000E+00
 -1      3452 1.29900E+02 3.59236E+01 0.00000E+00
 -1      3453 1.27650E+02 3.46246E+01 0.00000E+00
 -1      3454 1.31400E+02 3.59236E+01 0.00000E+00
 -1      3455 1.32900E+02 3.59236E+01 0.00000E+00
 -1      3456 1.30650E+02 3.46246E+01 0.00000E+00
 -1      3457 1.35330E+02 3.55238E+01 0.00000E+00
 -1      3458 4.51787E+01 1.31368E+01 0.00000E+00
 -1      3459 4.36787E+01 1.31368E+01 0.00000E+00
 -1      3460 4.59287E+01 1.44358E+01 0.00000E+00
 -1      3461 4.21787E+01 1.31368E+01 0.00000E+00
 -1      3462 4.06787E+01 1.31368E+01 0.00000E+00
 -1      3463 4.29287E+01 1.44358E+01 0.00000E+00
 -1      3464 5.11787E+01 1.31368E+01 0.00000E+00
 -1      3465 4.96787E+01 1.31368E+01 0.00000E+00
 -1      3466 4.89287E+01 1.44358E+01 0.00000E+00
 -1      3467 5.41787E+01 1.31368E+01 0.00000E+00
 -1      3468 5.26787E+01 1.31368E+01 0.00000E+00
 -1      3469 5.19287E+01 1.44358E+01 0.00000E+00
 -1      3470 5.71787E+01 1.31368E+01 0.00000E+00
 -1      3471 5.56787E+01 1.31368E+01 0.00000E+00
 -1      3472 5.49287E+01 1.44358E+01 0.00000E+00
 -1      3473 6.01787E+01 1.31368E+01 0.00000E+00
 -1      3474 5.86787E+01 1.31368E+01 0.00000E+00
 -1      3475 5.79287E+01 1.44358E+01 0.00000E+00
 -1      3476 6.31787E+01 1.31368E+01 0.00000E+00
 -1      3477 6.16787E+01 1.31368E+01 0.00000E+00
 -1      3478 6.09287E+01 1.44358E+01 0.00000E+00
 -1      3479 6.61787E+01 1.31368E+01 0.00000E+00
 -1      3480 6.46787E+01 1.31368E+01 0.00000E+00
 -1      3481 6.39287E+01 1.44358E+01 0.00000E+00
 -1      3482 6.91787E+01 1.31368E+01 0.00000E+00
 -1      3483 6.76787E+01 1.31368E+01 0.00000E+00
 -1      3484 6.69287E+01 1.44358E+01 0.00000E+00
 -1      3485 7.21787E+01 1.31368E+01 0.00000E+00
 -1      3486 7.06787E+01 1.31368E+01 0.00000E+00
 -1      3487 6.99287E+01 1.44358E+01 0.00000E+00
 -1      3488 7.51787E+01 1.31368E+01 0.00000E+00
 -1      3489 7.36787E+01 1.31368E+01 0.00000E+00
 -1      3490 7.29287E+01 1.44358E+01 0.00000E+00
 -1      3491 7.81787E+01 1.31368E+01 0.00000E+00
 -1      3492 7.66787E+01 1.31368E+01 0.00000E+00
 -1      3493 7.59287E+01 1.44358E+01 0.00000E+00
 -1      3494 8.11787E+01 1.31368E+01 0.00000E+00
 -1      3495 7.96787E+01 1.31368E+01 0.00000E+00
 -1      3496 7.89287E+01 1.44358E+01 0.00000E+00
 -1      3497 8.41787E+01 1.31368E+01 0.00000E+00
 -1      3498 8.26787E+01 1.31368E+01 0.00000E+00
 -1      3499 8.19287E+01 1.44358E+01 0.00000E+00
 -1      3500 8.71787E+01 1.31368E+01 0.00000E+00
 -1      3501 8.56787E+01 1.31368E+01 0.00000E+00
 -1      3502 8.49287E+01 1.44358E+01 0.00000E+00
 -1      3503 9.01787E+01 1.31368E+01 0.00000E+00
 -1      3504 8.86787E+01 1.31368E+01 0.00000E+00
 -1      3505 8.79287E+01 1.44358E+01 0.00000E+00
 -1      3506 9.31787E+01 1.31368E+01 0.00000E+00
 -1      3507 9.16787E+01 1.31368E+01 0.00000E+00
 -1      3508 9.09287E+01 1.44358E+01 0.00000E+00
 -1      3509 9.61787E+01 1.31368E+01 0.00000E+00
 -1      3510 9.46787E+01 1.31368E+01 0.00000E+00
 -1      3511 9.39287E+01 1.44358E+01 0.00000E+00
 -1      3512 9.91787E+01 1.31368E+01 0.00000E+00
 -1      3513 9.76787E+01 1.31368E+01 0.00000E+00
 -1      3514 9.69287E+01 1.44358E+01 0.00000E+00
 -1      3515 1.02179E+02 1.31368E+01 0.00000E+00
 -1      3516 1.00679E+02 1.31368E+01 0.00000E+00
 -1      3517 9.99287E+01 1.44358E+01 0.00000E+00
 -1      3518 1.05179E+02 1.31368E+01 0.00000E+00
 -1      3519 1.03679E+02 1.31368E+01 0.00000E+00
 -1      3520 1.02929E+02 1.44358E+01 0.00000E+00
 -1      3521 1.08179E+02 1.31368E+01 0.00000E+00
 -1      3522 1.06679E+02 1.31368E+01 0.00000E+00
 -1      3523 1.05929E+02 1.44358E+01 0.00000E+00
 -1      3524 1.11179E+02 1.31368E+01 0.00000E+00
 -1      3525 1.09679E+02 1.31368E+01 0.00000E+00
 -1      3526 1.08929E+02 1.44358E+01 0.00000E+00
 -1      3527 1.14179E+02 1.31368E+01 0.00000E+00
 -1      3528 1.12679E+02 1.31368E+01 0.00000E+00
 -1      3529 1.11929E+02 1.44358E+01 0.00000E+00
 -1      3530 1.17179E+02 1.31368E+01 0.00000E+00
 -1      3531 1.15679E+02 1.31368E+01 0.00000E+00
 -1      3532 1.14929E+02 1.44358E+01 0.00000E+00
 -1      3533 1.20179E+02 1.31368E+01 0.00000E+00
 -1      3534 1.18679E+02 1.31368E+01 0.00000E+00
 -1      3535 1.17929E+02 1.44358E+01 0.00000E+00
 -1      3536 1.23179E+02 1.31368E+01 0.00000E+00
 -1      3537 1.21679E+02 1.31368E+01 0.00000E+00
 -1      3538 1.20929E+02 1.44358E+01 0.00000E+00
 -1      3539 1.26179E+02 1.31368E+01 0.00000E+00
 -1      3540 1.24679E+02 1.31368E+01 0.00000E+00
 -1      3541 1.23929E+02 1.44358E+01 0.00000E+00
 -1      3542 1.29179E+02 1.31368E+01 0.00000E+00
 -1      3543 1.27679E+02 1.31368E+01 0.00000E+00
 -1      3544 1.26929E+02 1.44358E+01 0.00000E+00
 -1      3545 1.32179E+02 1.31368E+01 0.00000E+00
 -1      3546 1.30679E+02 1.31368E+01 0.00000E+00
 -1      3547 1.29929E+02 1.44358E+01 0.00000E+00
 -1      3548 1.35179E+02 1.31368E+01 0.00000E+00
 -1      3549 1.33679E+02 1.31368E+01 0.00000E+00
 -1      3550 1.32929E+02 1.44358E+01 0.00000E+00
 -1      3551 1.38512E+02 1.44208E+01 0.00000E+00
 -1      3552 1.38564E+02 1.31851E+01 0.00000E+00
 -1      3553 1.37618E+02 1.30812E+01 0.00000E+00
 -1      3554 1.37213E+02 1.51521E+01 0.00000E+00
 -1      3555 1.02566E+01 1.89052E+01 0.00000E+00
 -1      3556 1.00053E+01 2.03802E+01 0.00000E+00
 -1      3557 3.31787E+01 1.31368E+01 0.00000E+00
 -1      3558 3.16787E+01 1.31368E+01 0.00000E+00
 -1      3559 2.41778E+01 1.40693E+01 0.00000E+00
 -1      3560 1.29822E+01 1.46224E+01 0.00000E+00
 -1      3561 3.29721E+01 1.79476E+01 0.00000E+00
 -1      3562 3.42465E+01 1.89989E+01 0.00000E+00
 -1      3563 1.43938E+01 1.38768E+01 0.00000E+00
 -1      3564 3.58870E+01 3.07709E+01 0.00000E+00
 -1      3565 3.55862E+01 3.19344E+01 0.00000E+00
 -1      3566 1.34580E+02 3.42248E+01 0.00000E+00
 -1      3567 2.98886E+01 1.27530E+01 0.00000E+00
 -1      3568 2.83886E+01 1.27530E+01 0.00000E+00
 -1      3569 2.70585E+01 1.32845E+01 0.00000E+00
 -1      3570 3.06386E+01 1.40520E+01 0.00000E+00
 -1      3571 3.37875E+01 3.61737E+01 0.00000E+00
 -1      3572 3.66979E+01 2.34194E+01 0.00000E+00
 -1      3573 1.34412E+02 3.08875E+01 0.00000E+00
 -1      3574 1.35711E+02 3.01500E+01 0.00000E+00
 -1      3575 1.35711E+02 2.86875E+01 0.00000E+00
 -1      3576 3.54299E+01 1.81754E+01 0.00000E+00
 -1      3577 3.53081E+01 1.96211E+01 0.00000E+00
 -1      3578 3.63697E+01 2.02432E+01 0.00000E+00
 -1      3579 1.35711E+02 1.83953E+01 0.00000E+00
 -1      3580 1.35711E+02 1.69234E+01 0.00000E+00
 -1      3581 3.61787E+01 1.31368E+01 0.00000E+00
 -1      3582 3.46787E+01 1.31368E+01 0.00000E+00
 -1      3583 3.39287E+01 1.44358E+01 0.00000E+00
 -1      3584 1.36672E+02 1.29772E+01 0.00000E+00
 -1      3585 3.47510E+01 3.57996E+01 0.00000E+00
 -1      3586 1.35711E+02 2.42875E+01 0.00000E+00
 -1      3587 1.35711E+02 2.28125E+01 0.00000E+00
 -1      3588 2.88163E+01 1.45724E+01 0.00000E+00
 -1      3589 3.00905E+01 1.47481E+01 0.00000E+00
 -1      3590 3.28503E+01 1.66906E+01 0.00000E+00
 -1      3591 3.68310E+01 2.68374E+01 0.00000E+00
 -1      3592 3.74692E+01 2.77226E+01 0.00000E+00
 -1      3593 3.77859E+01 2.60352E+01 0.00000E+00
 -1      3594 2.55079E+01 1.35378E+01 0.00000E+00
 -1      3595 3.91787E+01 1.31368E+01 0.00000E+00
 -1      3596 3.76787E+01 1.31368E+01 0.00000E+00
 -1      3597 3.69287E+01 1.44358E+01 0.00000E+00
 -1      3598 3.99287E+01 1.44358E+01 0.00000E+00
 -1      3599 3.58311E+01 3.30034E+01 0.00000E+00
 -1      3600 2.72980E+01 1.39216E+01 0.00000E+00
 -1      3601 1.34420E+02 1.60476E+01 0.00000E+00
 -1      3602 1.35719E+02 1.53116E+01 0.00000E+00
 -1      3603 1.35922E+02 1.42762E+01 0.00000E+00
 -1      3604 3.62510E+01 3.57996E+01 0.00000E+00
 -1      3605 3.66623E+01 3.00775E+01 0.00000E+00
 -1      3606 1.60983E+01 1.31707E+01 0.00000E+00
 -1      3607 3.70010E+01 3.45006E+01 0.00000E+00
 -1      3608 1.35711E+02 2.57500E+01 0.00000E+00
 -1      3609 1.34412E+02 2.50125E+01 0.00000E+00
 -1      3610 1.35711E+02 2.72125E+01 0.00000E+00
 -1      3611 1.34412E+02 2.20781E+01 0.00000E+00
 -1      3612 1.35711E+02 2.13406E+01 0.00000E+00
 -1      3613 1.35711E+02 1.98687E+01 0.00000E+00
 -1      3614 1.33281E+02 3.34873E+01 0.00000E+00
 -1      3615 3.99000E+01 3.33256E+01 0.00000E+00
 -1      3616 4.14000E+01 3.33256E+01 0.00000E+00
 -1      3617 5.26787E+01 1.57347E+01 0.00000E+00
 -1      3618 5.11787E+01 1.57347E+01 0.00000E+00
 -1      3619 1.34412E+02 1.91328E+01 0.00000E+00
 -1      3620 4.29000E+01 3.33256E+01 0.00000E+00
 -1      3621 4.44000E+01 3.33256E+01 0.00000E+00
 -1      3622 4.21500E+01 3.20266E+01 0.00000E+00
 -1      3623 4.59000E+01 3.33256E+01 0.00000E+00
 -1      3624 4.74000E+01 3.33256E+01 0.00000E+00
 -1      3625 4.51500E+01 3.20266E+01 0.00000E+00
 -1      3626 4.89000E+01 3.33256E+01 0.00000E+00
 -1      3627 5.04000E+01 3.33256E+01 0.00000E+00
 -1      3628 4.81500E+01 3.20266E+01 0.00000E+00
 -1      3629 5.19000E+01 3.33256E+01 0.00000E+00
 -1      3630 5.34000E+01 3.33256E+01 0.00000E+00
 -1      3631 5.11500E+01 3.20266E+01 0.00000E+00
 -1      3632 5.49000E+01 3.33256E+01 0.00000E+00
 -1      3633 5.64000E+01 3.33256E+01 0.00000E+00
 -1      3634 5.41500E+01 3.20266E+01 0.00000E+00
 -1      3635 5.79000E+01 3.33256E+01 0.00000E+00
 -1      3636 5.94000E+01 3.33256E+01 0.00000E+00
 -1      3637 5.71500E+01 3.20266E+01 0.00000E+00
 -1      3638 6.09000E+01 3.33256E+01 0.00000E+00
 -1      3639 6.24000E+01 3.33256E+01 0.00000E+00
 -1      3640 6.01500E+01 3.20266E+01 0.00000E+00
 -1      3641 6.39000E+01 3.33256E+01 0.00000E+00
 -1      3642 6.54000E+01 3.33256E+01 0.00000E+00
 -1      3643 6.31500E+01 3.20266E+01 0.00000E+00
 -1      3644 6.69000E+01 3.33256E+01 0.00000E+00
 -1      3645 6.84000E+01 3.33256E+01 0.00000E+00
 -1      3646 6.61500E+01 3.20266E+01 0.00000E+00
 -1      3647 6.99000E+01 3.33256E+01 0.00000E+00
 -1      3648 7.14000E+01 3.33256E+01 0.00000E+00
 -1      3649 6.91500E+01 3.20266E+01 0.00000E+00
 -1      3650 7.29000E+01 3.33256E+01 0.00000E+00
 -1      3651 7.44000E+01 3.33256E+01 0.00000E+00
 -1      3652 7.21500E+01 3.20266E+01 0.00000E+00
 -1      3653 7.59000E+01 3.33256E+01 0.00000E+00
 -1      3654 7.74000E+01 3.33256E+01 0.00000E+00
 -1      3655 7.51500E+01 3.20266E+01 0.00000E+00
 -1      3656 7.89000E+01 3.33256E+01 0.00000E+00
 -1      3657 8.04000E+01 3.33256E+01 0.00000E+00
 -1      3658 7.81500E+01 3.20266E+01 0.00000E+00
 -1      3659 8.19000E+01 3.33256E+01 0.00000E+00
 -1      3660 8.34000E+01 3.33256E+01 0.00000E+00
 -1      3661 8.11500E+01 3.20266E+01 0.00000E+00
 -1      3662 8.49000E+01 3.33256E+01 0.00000E+00
 -1      3663 8.64000E+01 3.33256E+01 0.00000E+00
 -1      3664 8.41500E+01 3.20266E+01 0.00000E+00
 -1      3665 8.79000E+01 3.33256E+01 0.00000E+00
 -1      3666 8.94000E+01 3.33256E+01 0.00000E+00
 -1      3667 8.71500E+01 3.20266E+01 0.00000E+00
 -1      3668 9.09000E+01 3.33256E+01 0.00000E+00
 -1      3669 9.24000E+01 3.33256E+01 0.00000E+00
 -1      3670 9.01500E+01 3.20266E+01 0.00000E+00
 -1      3671 9.39000E+01 3.33256E+01 0.00000E+00
 -1      3672 9.54000E+01 3.33256E+01 0.00000E+00
 -1      3673 9.31500E+01 3.20266E+01 0.00000E+00
 -1      3674 9.69000E+01 3.33256E+01 0.00000E+00
 -1      3675 9.84000E+01 3.33256E+01 0.00000E+00
 -1      3676 9.61500E+01 3.20266E+01 0.00000E+00
 -1      3677 9.99000E+01 3.33256E+01 0.00000E+00
 -1      3678 1.01400E+02 3.33256E+01 0.00000E+00
 -1      3679 9.91500E+01 3.20266E+01 0.00000E+00
 -1      3680 1.02900E+02 3.33256E+01 0.00000E+00
 -1      3681 1.04400E+02 3.33256E+01 0.00000E+00
 -1      3682 1.02150E+02 3.20266E+01 0.00000E+00
 -1      3683 1.05900E+02 3.33256E+01 0.00000E+00
 -1      3684 1.07400E+02 3.33256E+01 0.00000E+00
 -1      3685 1.05150E+02 3.20266E+01 0.00000E+00
 -1      3686 1.08900E+02 3.33256E+01 0.00000E+00
 -1      3687 1.10400E+02 3.33256E+01 0.00000E+00
 -1      3688 1.08150E+02 3.20266E+01 0.00000E+00
 -1      3689 1.11900E+02 3.33256E+01 0.00000E+00
 -1      3690 1.13400E+02 3.33256E+01 0.00000E+00
 -1      3691 1.11150E+02 3.20266E+01 0.00000E+00
 -1      3692 1.14900E+02 3.33256E+01 0.00000E+00
 -1      3693 1.16400E+02 3.33256E+01 0.00000E+00
 -1      3694 1.14150E+02 3.20266E+01 0.00000E+00
 -1      3695 1.17900E+02 3.33256E+01 0.00000E+00
 -1      3696 1.19400E+02 3.33256E+01 0.00000E+00
 -1      3697 1.17150E+02 3.20266E+01 0.00000E+00
 -1      3698 1.20900E+02 3.33256E+01 0.00000E+00
 -1      3699 1.22400E+02 3.33256E+01 0.00000E+00
 -1      3700 1.20150E+02 3.20266E+01 0.00000E+00
 -1      3701 1.23900E+02 3.33256E+01 0.00000E+00
 -1      3702 1.25400E+02 3.33256E+01 0.00000E+00
 -1      3703 1.23150E+02 3.20266E+01 0.00000E+00
 -1      3704 1.26900E+02 3.33256E+01 0.00000E+00
 -1      3705 1.28400E+02 3.33256E+01 0.00000E+00
 -1      3706 1.26150E+02 3.20266E+01 0.00000E+00
 -1      3707 1.29900E+02 3.33256E+01 0.00000E+00
 -1      3708 1.31400E+02 3.33256E+01 0.00000E+00
 -1      3709 1.29150E+02 3.20266E+01 0.00000E+00
 -1      3710 4.66787E+01 1.57347E+01 0.00000E+00
 -1      3711 4.51787E+01 1.57347E+01 0.00000E+00
 -1      3712 4.36787E+01 1.57347E+01 0.00000E+00
 -1      3713 4.21787E+01 1.57347E+01 0.00000E+00
 -1      3714 4.44287E+01 1.70338E+01 0.00000E+00
 -1      3715 5.56787E+01 1.57347E+01 0.00000E+00
 -1      3716 5.41787E+01 1.57347E+01 0.00000E+00
 -1      3717 5.34287E+01 1.70338E+01 0.00000E+00
 -1      3718 5.86787E+01 1.57347E+01 0.00000E+00
 -1      3719 5.71787E+01 1.57347E+01 0.00000E+00
 -1      3720 5.64287E+01 1.70338E+01 0.00000E+00
 -1      3721 6.16787E+01 1.57347E+01 0.00000E+00
 -1      3722 6.01787E+01 1.57347E+01 0.00000E+00
 -1      3723 5.94287E+01 1.70338E+01 0.00000E+00
 -1      3724 6.46787E+01 1.57347E+01 0.00000E+00
 -1      3725 6.31787E+01 1.57347E+01 0.00000E+00
 -1      3726 6.24287E+01 1.70338E+01 0.00000E+00
 -1      3727 6.76787E+01 1.57347E+01 0.00000E+00
 -1      3728 6.61787E+01 1.57347E+01 0.00000E+00
 -1      3729 6.54287E+01 1.70338E+01 0.00000E+00
 -1      3730 7.06787E+01 1.57347E+01 0.00000E+00
 -1      3731 6.91787E+01 1.57347E+01 0.00000E+00
 -1      3732 6.84287E+01 1.70338E+01 0.00000E+00
 -1      3733 7.36787E+01 1.57347E+01 0.00000E+00
 -1      3734 7.21787E+01 1.57347E+01 0.00000E+00
 -1      3735 7.14287E+01 1.70338E+01 0.00000E+00
 -1      3736 7.66787E+01 1.57347E+01 0.00000E+00
 -1      3737 7.51787E+01 1.57347E+01 0.00000E+00
 -1      3738 7.44287E+01 1.70338E+01 0.00000E+00
 -1      3739 7.96787E+01 1.57347E+01 0.00000E+00
 -1      3740 7.81787E+01 1.57347E+01 0.00000E+00
 -1      3741 7.74287E+01 1.70338E+01 0.00000E+00
 -1      3742 8.26787E+01 1.57347E+01 0.00000E+00
 -1      3743 8.11787E+01 1.57347E+01 0.00000E+00
 -1      3744 8.04287E+01 1.70338E+01 0.00000E+00
 -1      3745 8.56787E+01 1.57347E+01 0.00000E+00
 -1      3746 8.41787E+01 1.57347E+01 0.00000E+00
 -1      3747 8.34287E+01 1.70338E+01 0.00000E+00
 -1      3748 8.86787E+01 1.57347E+01 0.00000E+00
 -1      3749 8.71787E+01 1.57347E+01 0.00000E+00
 -1      3750 8.64287E+01 1.70338E+01 0.00000E+00
 -1      3751 9.16787E+01 1.57347E+01 0.00000E+00
 -1      3752 9.01787E+01 1.57347E+01 0.00000E+00
 -1      3753 8.94287E+01 1.70338E+01 0.00000E+00
 -1      3754 9.46787E+01 1.57347E+01 0.00000E+00
 -1      3755 9.31787E+01 1.57347E+01 0.00000E+00
 -1      3756 9.24287E+01 1.70338E+01 0.00000E+00
 -1      3757 9.76787E+01 1.57347E+01 0.00000E+00
 -1      3758 9.61787E+01 1.57347E+01 0.00000E+00
 -1      3759 9.54287E+01 1.70338E+01 0.00000E+00
 -1      3760 1.00679E+02 1.57347E+01 0.00000E+00
 -1      3761 9.91787E+01 1.57347E+01 0.00000E+00
 -1      3762 9.84287E+01 1.70338E+01 0.00000E+00
 -1      3763 1.03679E+02 1.57347E+01 0.00000E+00
 -1      3764 1.02179E+02 1.57347E+01 0.00000E+00
 -1      3765 1.01429E+02 1.70338E+01 0.00000E+00
 -1      3766 1.06679E+02 1.57347E+01 0.00000E+00
 -1      3767 1.05179E+02 1.57347E+01 0.00000E+00
 -1      3768 1.04429E+02 1.70338E+01 0.00000E+00
 -1      3769 1.09679E+02 1.57347E+01 0.00000E+00
 -1      3770 1.08179E+02 1.57347E+01 0.00000E+00
 -1      3771 1.07429E+02 1.70338E+01 0.00000E+00
 -1      3772 1.12679E+02 1.57347E+01 0.00000E+00
 -1      3773 1.11179E+02 1.57347E+01 0.00000E+00
 -1      3774 1.10429E+02 1.70338E+01 0.00000E+00
 -1      3775 1.15679E+02 1.57347E+01 0.00000E+00
 -1      3776 1.14179E+02 1.57347E+01 0.00000E+00
 -1      3777 1.13429E+02 1.70338E+01 0.00000E+00
 -1      3778 1.18679E+02 1.57347E+01 0.00000E+00
 -1      3779 1.17179E+02 1.57347E+01 0.00000E+00
 -1      3780 1.16429E+02 1.70338E+01 0.00000E+00
 -1      3781 1.21679E+02 1.57347E+01 0.00000E+00
 -1      3782 1.20179E+02 1.57347E+01 0.00000E+00
 -1      3783 1.19429E+02 1.70338E+01 0.00000E+00
 -1      3784 1.24679E+02 1.57347E+01 0.00000E+00
 -1      3785 1.23179E+02 1.57347E+01 0.00000E+00
 -1      3786 1.22429E+02 1.70338E+01 0.00000E+00
 -1      3787 1.27679E+02 1.57347E+01 0.00000E+00
 -1      3788 1.26179E+02 1.57347E+01 0.00000E+00
 -1      3789 1.25429E+02 1.70338E+01 0.00000E+00
 -1      3790 1.30679E+02 1.57347E+01 0.00000E+00
 -1      3791 1.29179E+02 1.57347E+01 0.00000E+00
 -1      3792 1.28429E+02 1.70338E+01 0.00000E+00
 -1      3793 1.33300E+02 1.58912E+01 0.00000E+00
 -1      3794 1.31800E+02 1.58912E+01 0.00000E+00
 -1      3795 1.31050E+02 1.71902E+01 0.00000E+00
 -1      3796 1.33291E+02 1.75030E+01 0.00000E+00
 -1      3797 3.79801E+01 3.31274E+01 0.00000E+00
 -1      3798 3.76273E+01 2.22541E+01 0.00000E+00
 -1      3799 3.80771E+01 2.39846E+01 0.00000E+00
 -1      3800 3.87301E+01 3.18284E+01 0.00000E+00
 -1      3801 1.32531E+02 3.21883E+01 0.00000E+00
 -1      3802 4.96787E+01 1.57347E+01 0.00000E+00
 -1      3803 4.81787E+01 1.57347E+01 0.00000E+00
 -1      3804 4.74287E+01 1.70338E+01 0.00000E+00
 -1      3805 3.80257E+01 2.89991E+01 0.00000E+00
 -1      3806 3.81736E+01 3.05519E+01 0.00000E+00
 -1      3807 4.00935E+01 3.07501E+01 0.00000E+00
 -1      3808 3.89805E+01 2.81970E+01 0.00000E+00
 -1      3809 1.32531E+02 3.07258E+01 0.00000E+00
 -1      3810 1.33291E+02 2.04498E+01 0.00000E+00
 -1      3811 1.33291E+02 1.89764E+01 0.00000E+00
 -1      3812 1.32170E+02 1.88200E+01 0.00000E+00
 -1      3813 3.18806E+01 1.51318E+01 0.00000E+00
 -1      3814 4.14287E+01 1.70338E+01 0.00000E+00
 -1      3815 4.06787E+01 1.57347E+01 0.00000E+00
 -1      3816 3.91787E+01 1.57347E+01 0.00000E+00
 -1      3817 3.33985E+01 1.59945E+01 0.00000E+00
 -1      3818 1.34412E+02 2.79500E+01 0.00000E+00
 -1      3819 1.33291E+02 2.33936E+01 0.00000E+00
 -1      3820 1.33291E+02 2.19217E+01 0.00000E+00
 -1      3821 1.32170E+02 2.17653E+01 0.00000E+00
 -1      3822 3.87153E+01 2.48699E+01 0.00000E+00
 -1      3823 3.93534E+01 2.57551E+01 0.00000E+00
 -1      3824 3.96447E+01 2.37045E+01 0.00000E+00
 -1      3825 3.77490E+01 2.08084E+01 0.00000E+00
 -1      3826 3.91283E+01 2.13736E+01 0.00000E+00
 -1      3827 3.78708E+01 1.93627E+01 0.00000E+00
 -1      3828 1.33291E+02 2.63186E+01 0.00000E+00
 -1      3829 1.33291E+02 2.48561E+01 0.00000E+00
 -1      3830 1.32170E+02 2.46997E+01 0.00000E+00
 -1      3831 5.04287E+01 1.70338E+01 0.00000E+00
 -1      3832 3.48985E+01 1.59945E+01 0.00000E+00
 -1      3833 3.64444E+01 1.55262E+01 0.00000E+00
 -1      3834 3.59142E+01 1.70849E+01 0.00000E+00
 -1      3835 3.69758E+01 1.77071E+01 0.00000E+00
 -1      3836 3.79444E+01 1.55262E+01 0.00000E+00
 -1      3837 4.51787E+01 1.83328E+01 0.00000E+00
 -1      3838 4.36787E+01 1.83328E+01 0.00000E+00
 -1      3839 4.15935E+01 3.07501E+01 0.00000E+00
 -1      3840 4.30935E+01 3.07501E+01 0.00000E+00
 -1      3841 4.10370E+01 2.94735E+01 0.00000E+00
 -1      3842 4.45935E+01 3.07501E+01 0.00000E+00
 -1      3843 4.60935E+01 3.07501E+01 0.00000E+00
 -1      3844 4.40370E+01 2.94735E+01 0.00000E+00
 -1      3845 4.75935E+01 3.07501E+01 0.00000E+00
 -1      3846 4.90935E+01 3.07501E+01 0.00000E+00
 -1      3847 4.70370E+01 2.94735E+01 0.00000E+00
 -1      3848 5.05935E+01 3.07501E+01 0.00000E+00
 -1      3849 5.20935E+01 3.07501E+01 0.00000E+00
 -1      3850 5.00370E+01 2.94735E+01 0.00000E+00
 -1      3851 5.35935E+01 3.07501E+01 0.00000E+00
 -1      3852 5.50935E+01 3.07501E+01 0.00000E+00
 -1      3853 5.30370E+01 2.94735E+01 0.00000E+00
 -1      3854 5.65935E+01 3.07501E+01 0.00000E+00
 -1      3855 5.80935E+01 3.07501E+01 0.00000E+00
 -1      3856 5.60370E+01 2.94735E+01 0.00000E+00
 -1      3857 5.95935E+01 3.07501E+01 0.00000E+00
 -1      3858 6.10935E+01 3.07501E+01 0.00000E+00
 -1      3859 5.90370E+01 2.94735E+01 0.00000E+00
 -1      3860 6.25935E+01 3.07501E+01 0.00000E+00
 -1      3861 6.40935E+01 3.07501E+01 0.00000E+00
 -1      3862 6.20370E+01 2.94735E+01 0.00000E+00
 -1      3863 6.55935E+01 3.07501E+01 0.00000E+00
 -1      3864 6.70935E+01 3.07501E+01 0.00000E+00
 -1      3865 6.50370E+01 2.94735E+01 0.00000E+00
 -1      3866 6.85935E+01 3.07501E+01 0.00000E+00
 -1      3867 7.00935E+01 3.07501E+01 0.00000E+00
 -1      3868 6.80370E+01 2.94735E+01 0.00000E+00
 -1      3869 7.15935E+01 3.07501E+01 0.00000E+00
 -1      3870 7.30935E+01 3.07501E+01 0.00000E+00
 -1      3871 7.10370E+01 2.94735E+01 0.00000E+00
 -1      3872 7.45935E+01 3.07501E+01 0.00000E+00
 -1      3873 7.60935E+01 3.07501E+01 0.00000E+00
 -1      3874 7.40370E+01 2.94735E+01 0.00000E+00
 -1      3875 7.75935E+01 3.07501E+01 0.00000E+00
 -1      3876 7.90935E+01 3.07501E+01 0.00000E+00
 -1      3877 7.70370E+01 2.94735E+01 0.00000E+00
 -1      3878 8.05935E+01 3.07501E+01 0.00000E+00
 -1      3879 8.20935E+01 3.07501E+01 0.00000E+00
 -1      3880 8.00370E+01 2.94735E+01 0.00000E+00
 -1      3881 8.35935E+01 3.07501E+01 0.00000E+00
 -1      3882 8.50935E+01 3.07501E+01 0.00000E+00
 -1      3883 8.30370E+01 2.94735E+01 0.00000E+00
 -1      3884 8.65935E+01 3.07501E+01 0.00000E+00
 -1      3885 8.80935E+01 3.07501E+01 0.00000E+00
 -1      3886 8.60370E+01 2.94735E+01 0.00000E+00
 -1      3887 8.95935E+01 3.07501E+01 0.00000E+00
 -1      3888 9.10935E+01 3.07501E+01 0.00000E+00
 -1      3889 8.90370E+01 2.94735E+01 0.00000E+00
 -1      3890 9.25935E+01 3.07501E+01 0.00000E+00
 -1      3891 9.40935E+01 3.07501E+01 0.00000E+00
 -1      3892 9.20370E+01 2.94735E+01 0.00000E+00
 -1      3893 9.55935E+01 3.07501E+01 0.00000E+00
 -1      3894 9.70935E+01 3.07501E+01 0.00000E+00
 -1      3895 9.50370E+01 2.94735E+01 0.00000E+00
 -1      3896 9.85935E+01 3.07501E+01 0.00000E+00
 -1      3897 1.00094E+02 3.07501E+01 0.00000E+00
 -1      3898 9.80370E+01 2.94735E+01 0.00000E+00
 -1      3899 1.01594E+02 3.07501E+01 0.00000E+00
 -1      3900 1.03094E+02 3.07501E+01 0.00000E+00
 -1      3901 1.01037E+02 2.94735E+01 0.00000E+00
 -1      3902 1.04594E+02 3.07501E+01 0.00000E+00
 -1      3903 1.06094E+02 3.07501E+01 0.00000E+00
 -1      3904 1.04037E+02 2.94735E+01 0.00000E+00
 -1      3905 1.07594E+02 3.07501E+01 0.00000E+00
 -1      3906 1.09094E+02 3.07501E+01 0.00000E+00
 -1      3907 1.07037E+02 2.94735E+01 0.00000E+00
 -1      3908 1.10594E+02 3.07501E+01 0.00000E+00
 -1      3909 1.12094E+02 3.07501E+01 0.00000E+00
 -1      3910 1.10037E+02 2.94735E+01 0.00000E+00
 -1      3911 1.13594E+02 3.07501E+01 0.00000E+00
 -1      3912 1.15094E+02 3.07501E+01 0.00000E+00
 -1      3913 1.13037E+02 2.94735E+01 0.00000E+00
 -1      3914 1.16594E+02 3.07501E+01 0.00000E+00
 -1      3915 1.18094E+02 3.07501E+01 0.00000E+00
 -1      3916 1.16037E+02 2.94735E+01 0.00000E+00
 -1      3917 1.19594E+02 3.07501E+01 0.00000E+00
 -1      3918 1.21094E+02 3.07501E+01 0.00000E+00
 -1      3919 1.19037E+02 2.94735E+01 0.00000E+00
 -1      3920 1.22594E+02 3.07501E+01 0.00000E+00
 -1      3921 1.24094E+02 3.07501E+01 0.00000E+00
 -1      3922 1.22037E+02 2.94735E+01 0.00000E+00
 -1      3923 1.25594E+02 3.07501E+01 0.00000E+00
 -1      3924 1.27094E+02 3.07501E+01 0.00000E+00
 -1      3925 1.25037E+02 2.94735E+01 0.00000E+00
 -1      3926 1.28594E+02 3.07501E+01 0.00000E+00
 -1      3927 1.30094E+02 3.07501E+01 0.00000E+00
 -1      3928 1.28037E+02 2.94735E+01 0.00000E+00
 -1      3929 6.01787E+01 1.83328E+01 0.00000E+00
 -1      3930 5.86787E+01 1.83328E+01 0.00000E+00
 -1      3931 6.31787E+01 1.83328E+01 0.00000E+00
 -1      3932 6.16787E+01 1.83328E+01 0.00000E+00
 -1      3933 6.09287E+01 1.96318E+01 0.00000E+00
 -1      3934 6.61787E+01 1.83328E+01 0.00000E+00
 -1      3935 6.46787E+01 1.83328E+01 0.00000E+00
 -1      3936 6.39287E+01 1.96318E+01 0.00000E+00
 -1      3937 6.91787E+01 1.83328E+01 0.00000E+00
 -1      3938 6.76787E+01 1.83328E+01 0.00000E+00
 -1      3939 6.69287E+01 1.96318E+01 0.00000E+00
 -1      3940 7.21787E+01 1.83328E+01 0.00000E+00
 -1      3941 7.06787E+01 1.83328E+01 0.00000E+00
 -1      3942 6.99287E+01 1.96318E+01 0.00000E+00
 -1      3943 7.51787E+01 1.83328E+01 0.00000E+00
 -1      3944 7.36787E+01 1.83328E+01 0.00000E+00
 -1      3945 7.29287E+01 1.96318E+01 0.00000E+00
 -1      3946 7.81787E+01 1.83328E+01 0.00000E+00
 -1      3947 7.66787E+01 1.83328E+01 0.00000E+00
 -1      3948 7.59287E+01 1.96318E+01 0.00000E+00
 -1      3949 8.11787E+01 1.83328E+01 0.00000E+00
 -1      3950 7.96787E+01 1.83328E+01 0.00000E+00
 -1      3951 7.89287E+01 1.96318E+01 0.00000E+00
 -1      3952 8.41787E+01 1.83328E+01 0.00000E+00
 -1      3953 8.26787E+01 1.83328E+01 0.00000E+00
 -1      3954 8.19287E+01 1.96318E+01 0.00000E+00
 -1      3955 8.71787E+01 1.83328E+01 0.00000E+00
 -1      3956 8.56787E+01 1.83328E+01 0.00000E+00
 -1      3957 8.49287E+01 1.96318E+01 0.00000E+00
 -1      3958 9.01787E+01 1.83328E+01 0.00000E+00
 -1      3959 8.86787E+01 1.83328E+01 0.00000E+00
 -1      3960 8.79287E+01 1.96318E+01 0.00000E+00
 -1      3961 9.31787E+01 1.83328E+01 0.00000E+00
 -1      3962 9.16787E+01 1.83328E+01 0.00000E+00
 -1      3963 9.09287E+01 1.96318E+01 0.00000E+00
 -1      3964 9.61787E+01 1.83328E+01 0.00000E+00
 -1      3965 9.46787E+01 1.83328E+01 0.00000E+00
 -1      3966 9.39287E+01 1.96318E+01 0.00000E+00
 -1      3967 9.91787E+01 1.83328E+01 0.00000E+00
 -1      3968 9.76787E+01 1.83328E+01 0.00000E+00
 -1      3969 9.69287E+01 1.96318E+01 0.00000E+00
 -1      3970 1.02179E+02 1.83328E+01 0.00000E+00
 -1      3971 1.00679E+02 1.83328E+01 0.00000E+00
 -1      3972 9.99287E+01 1.96318E+01 0.00000E+00
 -1      3973 1.05179E+02 1.83328E+01 0.00000E+00
 -1      3974 1.03679E+02 1.83328E+01 0.00000E+00
 -1      3975 1.02929E+02 1.96318E+01 0.00000E+00
 -1      3976 1.08179E+02 1.83328E+01 0.00000E+00
 -1      3977 1.06679E+02 1.83328E+01 0.00000E+00
 -1      3978 1.05929E+02 1.96318E+01 0.00000E+00
 -1      3979 1.11179E+02 1.83328E+01 0.00000E+00
 -1      3980 1.09679E+02 1.83328E+01 0.00000E+00
 -1      3981 1.08929E+02 1.96318E+01 0.00000E+00
 -1      3982 1.14179E+02 1.83328E+01 0.00000E+00
 -1      3983 1.12679E+02 1.83328E+01 0.00000E+00
 -1      3984 1.11929E+02 1.96318E+01 0.00000E+00
 -1      3985 1.17179E+02 1.83328E+01 0.00000E+00
 -1      3986 1.15679E+02 1.83328E+01 0.00000E+00
 -1      3987 1.14929E+02 1.96318E+01 0.00000E+00
 -1      3988 1.20179E+02 1.83328E+01 0.00000E+00
 -1      3989 1.18679E+02 1.83328E+01 0.00000E+00
 -1      3990 1.17929E+02 1.96318E+01 0.00000E+00
 -1      3991 1.23179E+02 1.83328E+01 0.00000E+00
 -1      3992 1.21679E+02 1.83328E+01 0.00000E+00
 -1      3993 1.20929E+02 1.96318E+01 0.00000E+00
 -1      3994 1.26179E+02 1.83328E+01 0.00000E+00
 -1      3995 1.24679E+02 1.83328E+01 0.00000E+00
 -1      3996 1.23929E+02 1.96318E+01 0.00000E+00
 -1      3997 1.29179E+02 1.83328E+01 0.00000E+00
 -1      3998 1.27679E+02 1.83328E+01 0.00000E+00
 -1      3999 1.26929E+02 1.96318E+01 0.00000E+00
 -1      4000 1.31235E+02 1.86546E+01 0.00000E+00
 -1      4001 1.30114E+02 1.84982E+01 0.00000E+00
 -1      4002 1.29364E+02 1.97972E+01 0.00000E+00
 -1      4003 1.31235E+02 2.01280E+01 0.00000E+00
 -1      4004 5.11787E+01 1.83328E+01 0.00000E+00
 -1      4005 4.96787E+01 1.83328E+01 0.00000E+00
 -1      4006 1.33291E+02 2.77936E+01 0.00000E+00
 -1      4007 4.81787E+01 1.83328E+01 0.00000E+00
 -1      4008 4.66787E+01 1.83328E+01 0.00000E+00
 -1      4009 4.89287E+01 1.96318E+01 0.00000E+00
 -1      4010 1.31975E+02 2.94493E+01 0.00000E+00
 -1      4011 5.71787E+01 1.83328E+01 0.00000E+00
 -1      4012 5.56787E+01 1.83328E+01 0.00000E+00
 -1      4013 5.79287E+01 1.96318E+01 0.00000E+00
 -1      4014 5.41787E+01 1.83328E+01 0.00000E+00
 -1      4015 5.26787E+01 1.83328E+01 0.00000E+00
 -1      4016 5.49287E+01 1.96318E+01 0.00000E+00
 -1      4017 1.30854E+02 2.78179E+01 0.00000E+00
 -1      4018 5.19287E+01 1.96318E+01 0.00000E+00
 -1      4019 4.59287E+01 1.96318E+01 0.00000E+00
 -1      4020 3.86944E+01 1.68252E+01 0.00000E+00
 -1      4021 4.03794E+01 2.25023E+01 0.00000E+00
 -1      4022 4.10175E+01 2.33876E+01 0.00000E+00
 -1      4023 3.82101E+01 1.79156E+01 0.00000E+00
 -1      4024 3.95894E+01 1.84808E+01 0.00000E+00
 -1      4025 4.05011E+01 2.10566E+01 0.00000E+00
 -1      4026 1.31235E+02 2.30718E+01 0.00000E+00
 -1      4027 1.31235E+02 2.15999E+01 0.00000E+00
 -1      4028 1.30300E+02 2.14345E+01 0.00000E+00
 -1      4029 3.99170E+01 2.69761E+01 0.00000E+00
 -1      4030 4.04735E+01 2.82526E+01 0.00000E+00
 -1      4031 4.19735E+01 2.82526E+01 0.00000E+00
 -1      4032 4.08463E+01 2.58107E+01 0.00000E+00
 -1      4033 4.34735E+01 2.82526E+01 0.00000E+00
 -1      4034 4.49735E+01 2.82526E+01 0.00000E+00
 -1      4035 4.29099E+01 2.70317E+01 0.00000E+00
 -1      4036 4.21787E+01 1.83328E+01 0.00000E+00
 -1      4037 4.06787E+01 1.83328E+01 0.00000E+00
 -1      4038 4.64735E+01 2.82526E+01 0.00000E+00
 -1      4039 4.79735E+01 2.82526E+01 0.00000E+00
 -1      4040 4.59099E+01 2.70317E+01 0.00000E+00
 -1      4041 4.94735E+01 2.82526E+01 0.00000E+00
 -1      4042 5.09735E+01 2.82526E+01 0.00000E+00
 -1      4043 4.89099E+01 2.70317E+01 0.00000E+00
 -1      4044 5.24735E+01 2.82526E+01 0.00000E+00
 -1      4045 5.39735E+01 2.82526E+01 0.00000E+00
 -1      4046 5.19099E+01 2.70317E+01 0.00000E+00
 -1      4047 5.54735E+01 2.82526E+01 0.00000E+00
 -1      4048 5.69735E+01 2.82526E+01 0.00000E+00
 -1      4049 5.49099E+01 2.70317E+01 0.00000E+00
 -1      4050 5.84735E+01 2.82526E+01 0.00000E+00
 -1      4051 5.99735E+01 2.82526E+01 0.00000E+00
 -1      4052 5.79099E+01 2.70317E+01 0.00000E+00
 -1      4053 6.14735E+01 2.82526E+01 0.00000E+00
 -1      4054 6.29735E+01 2.82526E+01 0.00000E+00
 -1      4055 6.09099E+01 2.70317E+01 0.00000E+00
 -1      4056 6.44734E+01 2.82526E+01 0.00000E+00
 -1      4057 6.59734E+01 2.82526E+01 0.00000E+00
 -1      4058 6.39099E+01 2.70317E+01 0.00000E+00
 -1      4059 6.74734E+01 2.82526E+01 0.00000E+00
 -1      4060 6.89734E+01 2.82526E+01 0.00000E+00
 -1      4061 6.69099E+01 2.70317E+01 0.00000E+00
 -1      4062 7.04734E+01 2.82526E+01 0.00000E+00
 -1      4063 7.19734E+01 2.82526E+01 0.00000E+00
 -1      4064 6.99099E+01 2.70317E+01 0.00000E+00
 -1      4065 7.34734E+01 2.82526E+01 0.00000E+00
 -1      4066 7.49734E+01 2.82526E+01 0.00000E+00
 -1      4067 7.29099E+01 2.70317E+01 0.00000E+00
 -1      4068 7.64734E+01 2.82526E+01 0.00000E+00
 -1      4069 7.79734E+01 2.82526E+01 0.00000E+00
 -1      4070 7.59099E+01 2.70317E+01 0.00000E+00
 -1      4071 7.94734E+01 2.82526E+01 0.00000E+00
 -1      4072 8.09734E+01 2.82526E+01 0.00000E+00
 -1      4073 7.89099E+01 2.70317E+01 0.00000E+00
 -1      4074 8.24734E+01 2.82526E+01 0.00000E+00
 -1      4075 8.39734E+01 2.82526E+01 0.00000E+00
 -1      4076 8.19099E+01 2.70317E+01 0.00000E+00
 -1      4077 8.54734E+01 2.82526E+01 0.00000E+00
 -1      4078 8.69734E+01 2.82526E+01 0.00000E+00
 -1      4079 8.49099E+01 2.70317E+01 0.00000E+00
 -1      4080 8.84734E+01 2.82526E+01 0.00000E+00
 -1      4081 8.99734E+01 2.82526E+01 0.00000E+00
 -1      4082 8.79099E+01 2.70317E+01 0.00000E+00
 -1      4083 9.14734E+01 2.82526E+01 0.00000E+00
 -1      4084 9.29734E+01 2.82526E+01 0.00000E+00
 -1      4085 9.09099E+01 2.70317E+01 0.00000E+00
 -1      4086 9.44734E+01 2.82526E+01 0.00000E+00
 -1      4087 9.59734E+01 2.82526E+01 0.00000E+00
 -1      4088 9.39099E+01 2.70317E+01 0.00000E+00
 -1      4089 9.74734E+01 2.82526E+01 0.00000E+00
 -1      4090 9.89734E+01 2.82526E+01 0.00000E+00
 -1      4091 9.69099E+01 2.70317E+01 0.00000E+00
 -1      4092 1.00473E+02 2.82526E+01 0.00000E+00
 -1      4093 1.01973E+02 2.82526E+01 0.00000E+00
 -1      4094 9.99099E+01 2.70317E+01 0.00000E+00
 -1      4095 1.03473E+02 2.82526E+01 0.00000E+00
 -1      4096 1.04973E+02 2.82526E+01 0.00000E+00
 -1      4097 1.02910E+02 2.70317E+01 0.00000E+00
 -1      4098 1.06473E+02 2.82526E+01 0.00000E+00
 -1      4099 1.07973E+02 2.82526E+01 0.00000E+00
 -1      4100 1.05910E+02 2.70317E+01 0.00000E+00
 -1      4101 1.09473E+02 2.82526E+01 0.00000E+00
 -1      4102 1.10973E+02 2.82526E+01 0.00000E+00
 -1      4103 1.08910E+02 2.70317E+01 0.00000E+00
 -1      4104 1.12473E+02 2.82526E+01 0.00000E+00
 -1      4105 1.13973E+02 2.82526E+01 0.00000E+00
 -1      4106 1.11910E+02 2.70317E+01 0.00000E+00
 -1      4107 1.15473E+02 2.82526E+01 0.00000E+00
 -1      4108 1.16973E+02 2.82526E+01 0.00000E+00
 -1      4109 1.14910E+02 2.70317E+01 0.00000E+00
 -1      4110 1.18473E+02 2.82526E+01 0.00000E+00
 -1      4111 1.19973E+02 2.82526E+01 0.00000E+00
 -1      4112 1.17910E+02 2.70317E+01 0.00000E+00
 -1      4113 1.21473E+02 2.82526E+01 0.00000E+00
 -1      4114 1.22973E+02 2.82526E+01 0.00000E+00
 -1      4115 1.20910E+02 2.70317E+01 0.00000E+00
 -1      4116 1.24473E+02 2.82526E+01 0.00000E+00
 -1      4117 1.25973E+02 2.82526E+01 0.00000E+00
 -1      4118 1.23910E+02 2.70317E+01 0.00000E+00
 -1      4119 1.27473E+02 2.82526E+01 0.00000E+00
 -1      4120 1.28973E+02 2.82526E+01 0.00000E+00
 -1      4121 1.26910E+02 2.70317E+01 0.00000E+00
 -1      4122 6.46787E+01 2.09307E+01 0.00000E+00
 -1      4123 6.31787E+01 2.09307E+01 0.00000E+00
 -1      4124 1.30290E+02 2.65969E+01 0.00000E+00
 -1      4125 6.16787E+01 2.09307E+01 0.00000E+00
 -1      4126 6.01787E+01 2.09307E+01 0.00000E+00
 -1      4127 6.24287E+01 2.22297E+01 0.00000E+00
 -1      4128 7.06787E+01 2.09307E+01 0.00000E+00
 -1      4129 6.91787E+01 2.09307E+01 0.00000E+00
 -1      4130 7.36787E+01 2.09307E+01 0.00000E+00
 -1      4131 7.21787E+01 2.09307E+01 0.00000E+00
 -1      4132 7.14287E+01 2.22297E+01 0.00000E+00
 -1      4133 7.66787E+01 2.09307E+01 0.00000E+00
 -1      4134 7.51787E+01 2.09307E+01 0.00000E+00
 -1      4135 7.44287E+01 2.22297E+01 0.00000E+00
 -1      4136 7.96787E+01 2.09307E+01 0.00000E+00
 -1      4137 7.81787E+01 2.09307E+01 0.00000E+00
 -1      4138 7.74287E+01 2.22297E+01 0.00000E+00
 -1      4139 8.26787E+01 2.09307E+01 0.00000E+00
 -1      4140 8.11787E+01 2.09307E+01 0.00000E+00
 -1      4141 8.04287E+01 2.22297E+01 0.00000E+00
 -1      4142 8.56787E+01 2.09307E+01 0.00000E+00
 -1      4143 8.41787E+01 2.09307E+01 0.00000E+00
 -1      4144 8.34287E+01 2.22297E+01 0.00000E+00
 -1      4145 8.86787E+01 2.09307E+01 0.00000E+00
 -1      4146 8.71787E+01 2.09307E+01 0.00000E+00
 -1      4147 8.64287E+01 2.22297E+01 0.00000E+00
 -1      4148 9.16787E+01 2.09307E+01 0.00000E+00
 -1      4149 9.01787E+01 2.09307E+01 0.00000E+00
 -1      4150 8.94287E+01 2.22297E+01 0.00000E+00
 -1      4151 9.46787E+01 2.09307E+01 0.00000E+00
 -1      4152 9.31787E+01 2.09307E+01 0.00000E+00
 -1      4153 9.24287E+01 2.22297E+01 0.00000E+00
 -1      4154 9.76787E+01 2.09307E+01 0.00000E+00
 -1      4155 9.61787E+01 2.09307E+01 0.00000E+00
 -1      4156 9.54287E+01 2.22297E+01 0.00000E+00
 -1      4157 1.00679E+02 2.09307E+01 0.00000E+00
 -1      4158 9.91787E+01 2.09307E+01 0.00000E+00
 -1      4159 9.84287E+01 2.22297E+01 0.00000E+00
 -1      4160 1.03679E+02 2.09307E+01 0.00000E+00
 -1      4161 1.02179E+02 2.09307E+01 0.00000E+00
 -1      4162 1.01429E+02 2.22297E+01 0.00000E+00
 -1      4163 1.06679E+02 2.09307E+01 0.00000E+00
 -1      4164 1.05179E+02 2.09307E+01 0.00000E+00
 -1      4165 1.04429E+02 2.22297E+01 0.00000E+00
 -1      4166 1.09679E+02 2.09307E+01 0.00000E+00
 -1      4167 1.08179E+02 2.09307E+01 0.00000E+00
 -1      4168 1.07429E+02 2.22297E+01 0.00000E+00
 -1      4169 1.12679E+02 2.09307E+01 0.00000E+00
 -1      4170 1.11179E+02 2.09307E+01 0.00000E+00
 -1      4171 1.10429E+02 2.22297E+01 0.00000E+00
 -1      4172 1.15679E+02 2.09307E+01 0.00000E+00
 -1      4173 1.14179E+02 2.09307E+01 0.00000E+00
 -1      4174 1.13429E+02 2.22297E+01 0.00000E+00
 -1      4175 1.18679E+02 2.09307E+01 0.00000E+00
 -1      4176 1.17179E+02 2.09307E+01 0.00000E+00
 -1      4177 1.16429E+02 2.22297E+01 0.00000E+00
 -1      4178 1.21679E+02 2.09307E+01 0.00000E+00
 -1      4179 1.20179E+02 2.09307E+01 0.00000E+00
 -1      4180 1.19429E+02 2.22297E+01 0.00000E+00
 -1      4181 1.24679E+02 2.09307E+01 0.00000E+00
 -1      4182 1.23179E+02 2.09307E+01 0.00000E+00
 -1      4183 1.22429E+02 2.22297E+01 0.00000E+00
 -1      4184 1.27679E+02 2.09307E+01 0.00000E+00
 -1      4185 1.26179E+02 2.09307E+01 0.00000E+00
 -1      4186 1.25429E+02 2.22297E+01 0.00000E+00
 -1      4187 4.66787E+01 2.09307E+01 0.00000E+00
 -1      4188 4.51787E+01 2.09307E+01 0.00000E+00
 -1      4189 5.26787E+01 2.09307E+01 0.00000E+00
 -1      4190 5.11787E+01 2.09307E+01 0.00000E+00
 -1      4191 4.96787E+01 2.09307E+01 0.00000E+00
 -1      4192 4.81787E+01 2.09307E+01 0.00000E+00
 -1      4193 5.04287E+01 2.22297E+01 0.00000E+00
 -1      4194 1.31235E+02 2.45343E+01 0.00000E+00
 -1      4195 4.29287E+01 1.96318E+01 0.00000E+00
 -1      4196 5.86787E+01 2.09307E+01 0.00000E+00
 -1      4197 5.71787E+01 2.09307E+01 0.00000E+00
 -1      4198 5.94287E+01 2.22297E+01 0.00000E+00
 -1      4199 6.76787E+01 2.09307E+01 0.00000E+00
 -1      4200 6.61787E+01 2.09307E+01 0.00000E+00
 -1      4201 6.54287E+01 2.22297E+01 0.00000E+00
 -1      4202 6.84287E+01 2.22297E+01 0.00000E+00
 -1      4203 5.56787E+01 2.09307E+01 0.00000E+00
 -1      4204 5.41787E+01 2.09307E+01 0.00000E+00
 -1      4205 5.64287E+01 2.22297E+01 0.00000E+00
 -1      4206 1.29355E+02 2.49690E+01 0.00000E+00
 -1      4207 1.27701E+02 2.54594E+01 0.00000E+00
 -1      4208 1.28646E+02 2.33967E+01 0.00000E+00
 -1      4209 5.34287E+01 2.22297E+01 0.00000E+00
 -1      4210 4.38404E+01 2.22075E+01 0.00000E+00
 -1      4211 4.30904E+01 2.09085E+01 0.00000E+00
 -1      4212 4.74287E+01 2.22297E+01 0.00000E+00
 -1      4213 4.03394E+01 1.97798E+01 0.00000E+00
 -1      4214 4.48708E+01 2.35176E+01 0.00000E+00
 -1      4215 4.27825E+01 2.34954E+01 0.00000E+00
 -1      4216 4.15904E+01 2.09085E+01 0.00000E+00
 -1      4217 4.20478E+01 2.46976E+01 0.00000E+00
 -1      4218 4.26114E+01 2.59185E+01 0.00000E+00
 -1      4219 7.81787E+01 2.35287E+01 0.00000E+00
 -1      4220 7.66787E+01 2.35287E+01 0.00000E+00
 -1      4221 5.41787E+01 2.35287E+01 0.00000E+00
 -1      4222 5.26787E+01 2.35287E+01 0.00000E+00
 -1      4223 1.28614E+02 2.25680E+01 0.00000E+00
 -1      4224 1.28614E+02 2.10962E+01 0.00000E+00
 -1      4225 4.81599E+01 2.57327E+01 0.00000E+00
 -1      4226 4.96599E+01 2.57327E+01 0.00000E+00
 -1      4227 5.19193E+01 2.59297E+01 0.00000E+00
 -1      4228 5.34193E+01 2.59297E+01 0.00000E+00
 -1      4229 5.49193E+01 2.59297E+01 0.00000E+00
 -1      4230 5.71599E+01 2.57327E+01 0.00000E+00
 -1      4231 5.86599E+01 2.57327E+01 0.00000E+00
 -1      4232 6.01693E+01 2.46307E+01 0.00000E+00
 -1      4233 6.16693E+01 2.46307E+01 0.00000E+00
 -1      4234 6.31693E+01 2.46307E+01 0.00000E+00
 -1      4235 6.46693E+01 2.46307E+01 0.00000E+00
 -1      4236 6.61693E+01 2.46307E+01 0.00000E+00
 -1      4237 6.76693E+01 2.46307E+01 0.00000E+00
 -1      4238 6.91693E+01 2.46307E+01 0.00000E+00
 -1      4239 7.06693E+01 2.46307E+01 0.00000E+00
 -1      4240 7.21693E+01 2.46307E+01 0.00000E+00
 -1      4241 7.36693E+01 2.46307E+01 0.00000E+00
 -1      4242 7.59193E+01 2.59297E+01 0.00000E+00
 -1      4243 7.74193E+01 2.59297E+01 0.00000E+00
 -1      4244 7.89193E+01 2.59297E+01 0.00000E+00
 -1      4245 8.11599E+01 2.57327E+01 0.00000E+00
 -1      4246 8.26599E+01 2.57327E+01 0.00000E+00
 -1      4247 8.41693E+01 2.46307E+01 0.00000E+00
 -1      4248 8.56693E+01 2.46307E+01 0.00000E+00
 -1      4249 8.71693E+01 2.46307E+01 0.00000E+00
 -1      4250 8.86693E+01 2.46307E+01 0.00000E+00
 -1      4251 9.01693E+01 2.46307E+01 0.00000E+00
 -1      4252 9.16693E+01 2.46307E+01 0.00000E+00
 -1      4253 9.31693E+01 2.46307E+01 0.00000E+00
 -1      4254 9.46693E+01 2.46307E+01 0.00000E+00
 -1      4255 9.61693E+01 2.46307E+01 0.00000E+00
 -1      4256 9.76693E+01 2.46307E+01 0.00000E+00
 -1      4257 9.91693E+01 2.46307E+01 0.00000E+00
 -1      4258 1.00669E+02 2.46307E+01 0.00000E+00
 -1      4259 1.02169E+02 2.46307E+01 0.00000E+00
 -1      4260 1.03669E+02 2.46307E+01 0.00000E+00
 -1      4261 1.05169E+02 2.46307E+01 0.00000E+00
 -1      4262 1.06669E+02 2.46307E+01 0.00000E+00
 -1      4263 1.08169E+02 2.46307E+01 0.00000E+00
 -1      4264 1.09669E+02 2.46307E+01 0.00000E+00
 -1      4265 1.11169E+02 2.46307E+01 0.00000E+00
 -1      4266 1.12669E+02 2.46307E+01 0.00000E+00
 -1      4267 1.14169E+02 2.46307E+01 0.00000E+00
 -1      4268 1.15669E+02 2.46307E+01 0.00000E+00
 -1      4269 1.17169E+02 2.46307E+01 0.00000E+00
 -1      4270 1.18669E+02 2.46307E+01 0.00000E+00
 -1      4271 1.20169E+02 2.46307E+01 0.00000E+00
 -1      4272 1.21669E+02 2.46307E+01 0.00000E+00
 -1      4273 1.23169E+02 2.46307E+01 0.00000E+00
 -1      4274 1.24669E+02 2.46307E+01 0.00000E+00
 -1      4275 1.26201E+02 2.54594E+01 0.00000E+00
 -1      4276 5.79193E+01 2.33317E+01 0.00000E+00
 -1      4277 5.64193E+01 2.33317E+01 0.00000E+00
 -1      4278 1.26961E+02 2.30584E+01 0.00000E+00
 -1      4279 8.19193E+01 2.33317E+01 0.00000E+00
 -1      4280 8.04193E+01 2.33317E+01 0.00000E+00
 -1      4281 8.34193E+01 2.33317E+01 0.00000E+00
 -1      4282 4.89193E+01 2.33317E+01 0.00000E+00
 -1      4283 4.74193E+01 2.33317E+01 0.00000E+00
 -1      4284 4.63614E+01 2.46195E+01 0.00000E+00
 -1      4285 4.41114E+01 2.59185E+01 0.00000E+00
 -1      4286 5.94193E+01 2.33317E+01 0.00000E+00
 -1      4287 5.04193E+01 2.33317E+01 0.00000E+00
 -1      4288 5.11693E+01 2.46307E+01 0.00000E+00
 -1      4289 4.56114E+01 2.59185E+01 0.00000E+00
 -1      4290 7.96693E+01 2.46307E+01 0.00000E+00
 -1      4291 5.56693E+01 2.46307E+01 0.00000E+00
 -1      4292 7.51787E+01 2.35287E+01 0.00000E+00
 -1      4293 1.25461E+02 2.30584E+01 0.00000E+00
 -3
    3C                          2065                                     1
 -1       164    8    0    1
 -2         6         7        23      1115      1278      1132
 -1       165    8    0    1
 -2         7         8       164      1116      1279      1280
 -1       166    8    0    1
 -2         8         9       165      1117      1281      1282
 -1       167    8    0    1
 -2         8       165       164      1282      1283      1279
 -1       168    8    0    1
 -2         9        10       166      1118      1284      1285
 -1       169    8    0    1
 -2         9       166       165      1285      1286      1281
 -1       170    8    0    1
 -2        10        11       167      1119      1287      1288
 -1       171    8    0    1
 -2        10       167       166      1288      1289      1284
 -1       172    8    0    1
 -2        11        12       168      1120      1290      1291
 -1       173    8    0    1
 -2        11       168       167      1291      1292      1287
 -1       174    8    0    1
 -2        12        13       169      1121      1293      1294
 -1       175    8    0    1
 -2        12       169       168      1294      1295      1290
 -1       176    8    0    1
 -2        13        14       170      1122      1296      1297
 -1       177    8    0    1
 -2        13       170       169      1297      1298      1293
 -1       178    8    0    1
 -2        14        15       171      1123      1299      1300
 -1       179    8    0    1
 -2        14       171       170      1300      1301      1296
 -1       180    8    0    1
 -2        15        16       172      1124      1302      1303
 -1       181    8    0    1
 -2        15       172       171      1303      1304      1299
 -1       182    8    0    1
 -2        16        17       173      1125      1305      1306
 -1       183    8    0    1
 -2        16       173       172      1306      1307      1302
 -1       184    8    0    1
 -2        17        18       174      1126      1308      1309
 -1       185    8    0    1
 -2        17       174       173      1309      1310      1305
 -1       186    8    0    1
 -2        18        19       175      1127      1311      1312
 -1       187    8    0    1
 -2        18       175       174      1312      1313      1308
 -1       188    8    0    1
 -2        19        20       176      1128      1314      1315
 -1       189    8    0    1
 -2        19       176       175      1315      1316      1311
 -1       190    8    0    1
 -2        20        21       177      1129      1317      1318
 -1       191    8    0    1
 -2        20       177       176      1318      1319      1314
 -1       192    8    0    1
 -2        21        22       178      1130      1320      1321
 -1       193    8    0    1
 -2        21       178       177      1321      1322      1317
 -1       194    8    0    1
 -2        22         5       179      1131      1323      1324
 -1       195    8    0    1
 -2       178        22       179      1320      1324      1325
 -1       196    8    0    1
 -2         5        72       179      1182      1326      1323
 -1       197    8    0    1
 -2        24        23       180      1133      1327      1328
 -1       198    8    0    1
 -2        25        24       181      1134      1329      1330
 -1       199    8    0    1
 -2        24       180       181      1328      1331      1329
 -1       200    8    0    1
 -2        26        25       182      1135      1332      1333
 -1       201    8    0    1
 -2        25       181       182      1330      1334      1332
 -1       202    8    0    1
 -2        27        26       183      1136      1335      1336
 -1       203    8    0    1
 -2        26       182       183      1333      1337      1335
 -1       204    8    0    1
 -2        28        27       184      1137      1338      1339
 -1       205    8    0    1
 -2        27       183       184      1336      1340      1338
 -1       206    8    0    1
 -2        29        28       185      1138      1341      1342
 -1       207    8    0    1
 -2        28       184       185      1339      1343      1341
 -1       208    8    0    1
 -2        30        29       186      1139      1344      1345
 -1       209    8    0    1
 -2        29       185       186      1342      1346      1344
 -1       210    8    0    1
 -2        31        30       187      1140      1347      1348
 -1       211    8    0    1
 -2        30       186       187      1345      1349      1347
 -1       212    8    0    1
 -2        32        31       188      1141      1350      1351
 -1       213    8    0    1
 -2        31       187       188      1348      1352      1350
 -1       214    8    0    1
 -2        33        32       189      1142      1353      1354
 -1       215    8    0    1
 -2        32       188       189      1351      1355      1353
 -1       216    8    0    1
 -2        34        33       190      1143      1356      1357
 -1       217    8    0    1
 -2        33       189       190      1354      1358      1356
 -1       218    8    0    1
 -2        35        34       191      1144      1359      1360
 -1       219    8    0    1
 -2        34       190       191      1357      1361      1359
 -1       220    8    0    1
 -2        36        35       192      1145      1362      1363
 -1       221    8    0    1
 -2        35       191       192      1360      1364      1362
 -1       222    8    0    1
 -2        37        36       193      1146      1365      1366
 -1       223    8    0    1
 -2        36       192       193      1363      1367      1365
 -1       224    8    0    1
 -2        38        37       194      1147      1368      1369
 -1       225    8    0    1
 -2        37       193       194      1366      1370      1368
 -1       226    8    0    1
 -2        39        38       195      1148      1371      1372
 -1       227    8    0    1
 -2        38       194       195      1369      1373      1371
 -1       228    8    0    1
 -2        40        39       196      1149      1374      1375
 -1       229    8    0    1
 -2        39       195       196      1372      1376      1374
 -1       230    8    0    1
 -2        41        40       197      1150      1377      1378
 -1       231    8    0    1
 -2        40       196       197      1375      1379      1377
 -1       232    8    0    1
 -2        42        41       198      1151      1380      1381
 -1       233    8    0    1
 -2        41       197       198      1378      1382      1380
 -1       234    8    0    1
 -2        43        42       199      1152      1383      1384
 -1       235    8    0    1
 -2        42       198       199      1381      1385      1383
 -1       236    8    0    1
 -2        44        43       200      1153      1386      1387
 -1       237    8    0    1
 -2        43       199       200      1384      1388      1386
 -1       238    8    0    1
 -2        45        44       201      1154      1389      1390
 -1       239    8    0    1
 -2        44       200       201      1387      1391      1389
 -1       240    8    0    1
 -2        46        45       202      1155      1392      1393
 -1       241    8    0    1
 -2        45       201       202      1390      1394      1392
 -1       242    8    0    1
 -2        47        46       203      1156      1395      1396
 -1       243    8    0    1
 -2        46       202       203      1393      1397      1395
 -1       244    8    0    1
 -2        48        47       204      1157      1398      1399
 -1       245    8    0    1
 -2        47       203       204      1396      1400      1398
 -1       246    8    0    1
 -2        49        48       205      1158      1401      1402
 -1       247    8    0    1
 -2        48       204       205      1399      1403      1401
 -1       248    8    0    1
 -2        50        49       206      1159      1404      1405
 -1       249    8    0    1
 -2        49       205       206      1402      1406      1404
 -1       250    8    0    1
 -2        51        50       207      1160      1407      1408
 -1       251    8    0    1
 -2        50       206       207      1405      1409      1407
 -1       252    8    0    1
 -2        52        51       208      1161      1410      1411
 -1       253    8    0    1
 -2        51       207       208      1408      1412      1410
 -1       254    8    0    1
 -2        53        52       209      1162      1413      1414
 -1       255    8    0    1
 -2        52       208       209      1411      1415      1413
 -1       256    8    0    1
 -2        54        53       210      1163      1416      1417
 -1       257    8    0    1
 -2        53       209       210      1414      1418      1416
 -1       258    8    0    1
 -2        55        54       211      1164      1419      1420
 -1       259    8    0    1
 -2        54       210       211      1417      1421      1419
 -1       260    8    0    1
 -2        56        55       212      1165      1422      1423
 -1       261    8    0    1
 -2        55       211       212      1420      1424      1422
 -1       262    8    0    1
 -2        57        56       213      1166      1425      1426
 -1       263    8    0    1
 -2        56       212       213      1423      1427      1425
 -1       264    8    0    1
 -2        58        57       214      1167      1428      1429
 -1       265    8    0    1
 -2        57       213       214      1426      1430      1428
 -1       266    8    0    1
 -2        59        58       215      1168      1431      1432
 -1       267    8    0    1
 -2        58       214       215      1429      1433      1431
 -1       268    8    0    1
 -2        60        59       216      1169      1434      1435
 -1       269    8    0    1
 -2        59       215       216      1432      1436      1434
 -1       270    8    0    1
 -2        61        60       217      1170      1437      1438
 -1       271    8    0    1
 -2        60       216       217      1435      1439      1437
 -1       272    8    0    1
 -2        62        61       218      1171      1440      1441
 -1       273    8    0    1
 -2        61       217       218      1438      1442      1440
 -1       274    8    0    1
 -2        63        62       219      1172      1443      1444
 -1       275    8    0    1
 -2        62       218       219      1441      1445      1443
 -1       276    8    0    1
 -2        64        63       220      1173      1446      1447
 -1       277    8    0    1
 -2        63       219       220      1444      1448      1446
 -1       278    8    0    1
 -2        65        64       221      1174      1449      1450
 -1       279    8    0    1
 -2        64       220       221      1447      1451      1449
 -1       280    8    0    1
 -2        66        65       222      1175      1452      1453
 -1       281    8    0    1
 -2        65       221       222      1450      1454      1452
 -1       282    8    0    1
 -2        67        66       223      1176      1455      1456
 -1       283    8    0    1
 -2        66       222       223      1453      1457      1455
 -1       284    8    0    1
 -2        68        67       224      1177      1458      1459
 -1       285    8    0    1
 -2        67       223       224      1456      1460      1458
 -1       286    8    0    1
 -2        69        68       225      1178      1461      1462
 -1       287    8    0    1
 -2        68       224       225      1459      1463      1461
 -1       288    8    0    1
 -2        70        69       226      1179      1464      1465
 -1       289    8    0    1
 -2        69       225       226      1462      1466      1464
 -1       290    8    0    1
 -2        71        70       227      1180      1467      1468
 -1       291    8    0    1
 -2        70       226       227      1465      1469      1467
 -1       292    8    0    1
 -2         4        71       136      1181      1470      1248
 -1       293    8    0    1
 -2       136        71       227      1470      1468      1471
 -1       294    8    0    1
 -2        72        73       228      1183      1472      1473
 -1       295    8    0    1
 -2        72       228       179      1473      1474      1326
 -1       296    8    0    1
 -2        73        74       229      1184      1475      1476
 -1       297    8    0    1
 -2        73       229       228      1476      1477      1472
 -1       298    8    0    1
 -2        74        75       230      1185      1478      1479
 -1       299    8    0    1
 -2        74       230       229      1479      1480      1475
 -1       300    8    0    1
 -2        75        76       231      1186      1481      1482
 -1       301    8    0    1
 -2        75       231       230      1482      1483      1478
 -1       302    8    0    1
 -2        76        77       232      1187      1484      1485
 -1       303    8    0    1
 -2        76       232       231      1485      1486      1481
 -1       304    8    0    1
 -2        77        78       233      1188      1487      1488
 -1       305    8    0    1
 -2        77       233       232      1488      1489      1484
 -1       306    8    0    1
 -2        78        79       234      1189      1490      1491
 -1       307    8    0    1
 -2        78       234       233      1491      1492      1487
 -1       308    8    0    1
 -2        79        80       235      1190      1493      1494
 -1       309    8    0    1
 -2        79       235       234      1494      1495      1490
 -1       310    8    0    1
 -2        80        81       236      1191      1496      1497
 -1       311    8    0    1
 -2        80       236       235      1497      1498      1493
 -1       312    8    0    1
 -2        81        82       237      1192      1499      1500
 -1       313    8    0    1
 -2        81       237       236      1500      1501      1496
 -1       314    8    0    1
 -2        82        83       238      1193      1502      1503
 -1       315    8    0    1
 -2        82       238       237      1503      1504      1499
 -1       316    8    0    1
 -2        83        84       239      1194      1505      1506
 -1       317    8    0    1
 -2        83       239       238      1506      1507      1502
 -1       318    8    0    1
 -2        84        85       240      1195      1508      1509
 -1       319    8    0    1
 -2        84       240       239      1509      1510      1505
 -1       320    8    0    1
 -2        85        86       241      1196      1511      1512
 -1       321    8    0    1
 -2        85       241       240      1512      1513      1508
 -1       322    8    0    1
 -2        86        87       242      1197      1514      1515
 -1       323    8    0    1
 -2        86       242       241      1515      1516      1511
 -1       324    8    0    1
 -2        87        88       243      1198      1517      1518
 -1       325    8    0    1
 -2        87       243       242      1518      1519      1514
 -1       326    8    0    1
 -2        88        89       244      1199      1520      1521
 -1       327    8    0    1
 -2        88       244       243      1521      1522      1517
 -1       328    8    0    1
 -2        89        90       245      1200      1523      1524
 -1       329    8    0    1
 -2        89       245       244      1524      1525      1520
 -1       330    8    0    1
 -2        90        91       246      1201      1526      1527
 -1       331    8    0    1
 -2        90       246       245      1527      1528      1523
 -1       332    8    0    1
 -2        91        92       247      1202      1529      1530
 -1       333    8    0    1
 -2        91       247       246      1530      1531      1526
 -1       334    8    0    1
 -2        92        93       248      1203      1532      1533
 -1       335    8    0    1
 -2        92       248       247      1533      1534      1529
 -1       336    8    0    1
 -2        93        94       249      1204      1535      1536
 -1       337    8    0    1
 -2        93       249       248      1536      1537      1532
 -1       338    8    0    1
 -2        94        95       250      1205      1538      1539
 -1       339    8    0    1
 -2        94       250       249      1539      1540      1535
 -1       340    8    0    1
 -2        95        96       251      1206      1541      1542
 -1       341    8    0    1
 -2        95       251       250      1542      1543      1538
 -1       342    8    0    1
 -2        96        97       252      1207      1544      1545
 -1       343    8    0    1
 -2        96       252       251      1545      1546      1541
 -1       344    8    0    1
 -2        97        98       253      1208      1547      1548
 -1       345    8    0    1
 -2        97       253       252      1548      1549      1544
 -1       346    8    0    1
 -2        98        99       254      1209      1550      1551
 -1       347    8    0    1
 -2        98       254       253      1551      1552      1547
 -1       348    8    0    1
 -2        99       100       255      1210      1553      1554
 -1       349    8    0    1
 -2        99       255       254      1554      1555      1550
 -1       350    8    0    1
 -2       100       101       256      1211      1556      1557
 -1       351    8    0    1
 -2       100       256       255      1557      1558      1553
 -1       352    8    0    1
 -2       101       102       257      1212      1559      1560
 -1       353    8    0    1
 -2       101       257       256      1560      1561      1556
 -1       354    8    0    1
 -2       102       103       258      1213      1562      1563
 -1       355    8    0    1
 -2       102       258       257      1563      1564      1559
 -1       356    8    0    1
 -2       103       104       259      1214      1565      1566
 -1       357    8    0    1
 -2       103       259       258      1566      1567      1562
 -1       358    8    0    1
 -2       104       105       260      1215      1568      1569
 -1       359    8    0    1
 -2       104       260       259      1569      1570      1565
 -1       360    8    0    1
 -2       105       106       261      1216      1571      1572
 -1       361    8    0    1
 -2       105       261       260      1572      1573      1568
 -1       362    8    0    1
 -2       106       107       262      1217      1574      1575
 -1       363    8    0    1
 -2       106       262       261      1575      1576      1571
 -1       364    8    0    1
 -2       107       108       263      1218      1577      1578
 -1       365    8    0    1
 -2       107       263       262      1578      1579      1574
 -1       366    8    0    1
 -2       108       109       264      1219      1580      1581
 -1       367    8    0    1
 -2       108       264       263      1581      1582      1577
 -1       368    8    0    1
 -2       109       110       265      1220      1583      1584
 -1       369    8    0    1
 -2       109       265       264      1584      1585      1580
 -1       370    8    0    1
 -2       110       111       266      1221      1586      1587
 -1       371    8    0    1
 -2       110       266       265      1587      1588      1583
 -1       372    8    0    1
 -2       111       112       267      1222      1589      1590
 -1       373    8    0    1
 -2       111       267       266      1590      1591      1586
 -1       374    8    0    1
 -2       112       113       268      1223      1592      1593
 -1       375    8    0    1
 -2       112       268       267      1593      1594      1589
 -1       376    8    0    1
 -2       113       114       269      1224      1595      1596
 -1       377    8    0    1
 -2       113       269       268      1596      1597      1592
 -1       378    8    0    1
 -2       114       115       270      1225      1598      1599
 -1       379    8    0    1
 -2       114       270       269      1599      1600      1595
 -1       380    8    0    1
 -2       115       116       271      1226      1601      1602
 -1       381    8    0    1
 -2       115       271       270      1602      1603      1598
 -1       382    8    0    1
 -2       116       117       272      1227      1604      1605
 -1       383    8    0    1
 -2       116       272       271      1605      1606      1601
 -1       384    8    0    1
 -2       117       118       273      1228      1607      1608
 -1       385    8    0    1
 -2       117       273       272      1608      1609      1604
 -1       386    8    0    1
 -2       118       119       274      1229      1610      1611
 -1       387    8    0    1
 -2       118       274       273      1611      1612      1607
 -1       388    8    0    1
 -2       119       120       275      1230      1613      1614
 -1       389    8    0    1
 -2       119       275       274      1614      1615      1610
 -1       390    8    0    1
 -2       120         3       121      1231      1232      1616
 -1       391    8    0    1
 -2       121       122       276      1233      1617      1618
 -1       392    8    0    1
 -2       122       123       277      1234      1619      1620
 -1       393    8    0    1
 -2       122       277       276      1620      1621      1617
 -1       394    8    0    1
 -2       123       124       278      1235      1622      1623
 -1       395    8    0    1
 -2       123       278       277      1623      1624      1619
 -1       396    8    0    1
 -2       124       125       279      1236      1625      1626
 -1       397    8    0    1
 -2       124       279       278      1626      1627      1622
 -1       398    8    0    1
 -2       125       126       280      1237      1628      1629
 -1       399    8    0    1
 -2       125       280       279      1629      1630      1625
 -1       400    8    0    1
 -2       126       127       281      1238      1631      1632
 -1       401    8    0    1
 -2       126       281       280      1632      1633      1628
 -1       402    8    0    1
 -2       127       128       282      1239      1634      1635
 -1       403    8    0    1
 -2       127       282       281      1635      1636      1631
 -1       404    8    0    1
 -2       128       129       283      1240      1637      1638
 -1       405    8    0    1
 -2       128       283       282      1638      1639      1634
 -1       406    8    0    1
 -2       129       130       284      1241      1640      1641
 -1       407    8    0    1
 -2       129       284       283      1641      1642      1637
 -1       408    8    0    1
 -2       130       131       285      1242      1643      1644
 -1       409    8    0    1
 -2       130       285       284      1644      1645      1640
 -1       410    8    0    1
 -2       131       132       286      1243      1646      1647
 -1       411    8    0    1
 -2       131       286       285      1647      1648      1643
 -1       412    8    0    1
 -2       132       133       287      1244      1649      1650
 -1       413    8    0    1
 -2       132       287       286      1650      1651      1646
 -1       414    8    0    1
 -2       133       134       288      1245      1652      1653
 -1       415    8    0    1
 -2       133       288       287      1653      1654      1649
 -1       416    8    0    1
 -2       134       135       289      1246      1655      1656
 -1       417    8    0    1
 -2       134       289       288      1656      1657      1652
 -1       418    8    0    1
 -2       135       136       290      1247      1658      1659
 -1       419    8    0    1
 -2       289       135       290      1655      1659      1660
 -1       420    8    0    1
 -2       136       227       290      1471      1661      1658
 -1       421    8    0    1
 -2         2       137       291      1249      1662      1663
 -1       422    8    0    1
 -2       137       138       292      1250      1664      1665
 -1       423    8    0    1
 -2       138       139       293      1251      1666      1667
 -1       424    8    0    1
 -2       139       140       294      1252      1668      1669
 -1       425    8    0    1
 -2       140       141       295      1253      1670      1671
 -1       426    8    0    1
 -2       141       142       296      1254      1672      1673
 -1       427    8    0    1
 -2       142       143       297      1255      1674      1675
 -1       428    8    0    1
 -2       143       144       298      1256      1676      1677
 -1       429    8    0    1
 -2       144       145       299      1257      1678      1679
 -1       430    8    0    1
 -2       145       146       300      1258      1680      1681
 -1       431    8    0    1
 -2       146       147       301      1259      1682      1683
 -1       432    8    0    1
 -2       147       148       302      1260      1684      1685
 -1       433    8    0    1
 -2       148       149       303      1261      1686      1687
 -1       434    8    0    1
 -2       149       150       304      1262      1688      1689
 -1       435    8    0    1
 -2       150       151       305      1263      1690      1691
 -1       436    8    0    1
 -2       151       152       306      1264      1692      1693
 -1       437    8    0    1
 -2       152       153       307      1265      1694      1695
 -1       438    8    0    1
 -2       153       154       308      1266      1696      1697
 -1       439    8    0    1
 -2       154       155       309      1267      1698      1699
 -1       440    8    0    1
 -2       155       156       310      1268      1700      1701
 -1       441    8    0    1
 -2       156         1       311      1269      1702      1703
 -1       442    8    0    1
 -2         1       157       312      1270      1704      1705
 -1       443    8    0    1
 -2       157       158       313      1271      1706      1707
 -1       444    8    0    1
 -2       158       159       314      1272      1708      1709
 -1       445    8    0    1
 -2       159       160       315      1273      1710      1711
 -1       446    8    0    1
 -2       160       161       316      1274      1712      1713
 -1       447    8    0    1
 -2       161       162       317      1275      1714      1715
 -1       448    8    0    1
 -2       162       163       318      1276      1716      1717
 -1       449    8    0    1
 -2       163         2       319      1277      1718      1719
 -1       450    8    0    1
 -2       294       140       295      1668      1671      1720
 -1       451    8    0    1
 -2       293       139       294      1666      1669      1721
 -1       452    8    0    1
 -2       120       121       275      1616      1722      1613
 -1       453    8    0    1
 -2       121       276       275      1618      1723      1722
 -1       454    8    0    1
 -2       291       137       292      1662      1665      1724
 -1       455    8    0    1
 -2       292       138       293      1664      1667      1725
 -1       456    8    0    1
 -2         2       291       319      1663      1726      1718
 -1       457    8    0    1
 -2       141       296       295      1673      1727      1670
 -1       458    8    0    1
 -2       142       297       296      1675      1728      1672
 -1       459    8    0    1
 -2       143       298       297      1677      1729      1674
 -1       460    8    0    1
 -2       144       299       298      1679      1730      1676
 -1       461    8    0    1
 -2       145       300       299      1681      1731      1678
 -1       462    8    0    1
 -2       146       301       300      1683      1732      1680
 -1       463    8    0    1
 -2       147       302       301      1685      1733      1682
 -1       464    8    0    1
 -2       148       303       302      1687      1734      1684
 -1       465    8    0    1
 -2       149       304       303      1689      1735      1686
 -1       466    8    0    1
 -2       150       305       304      1691      1736      1688
 -1       467    8    0    1
 -2       151       306       305      1693      1737      1690
 -1       468    8    0    1
 -2       152       307       306      1695      1738      1692
 -1       469    8    0    1
 -2       153       308       307      1697      1739      1694
 -1       470    8    0    1
 -2       154       309       308      1699      1740      1696
 -1       471    8    0    1
 -2       155       310       309      1701      1741      1698
 -1       472    8    0    1
 -2       156       311       310      1703      1742      1700
 -1       473    8    0    1
 -2         1       312       311      1705      1743      1702
 -1       474    8    0    1
 -2       157       313       312      1707      1744      1704
 -1       475    8    0    1
 -2       158       314       313      1709      1745      1706
 -1       476    8    0    1
 -2       159       315       314      1711      1746      1708
 -1       477    8    0    1
 -2       160       316       315      1713      1747      1710
 -1       478    8    0    1
 -2       161       317       316      1715      1748      1712
 -1       479    8    0    1
 -2       162       318       317      1717      1749      1714
 -1       480    8    0    1
 -2       163       319       318      1719      1750      1716
 -1       481    8    0    1
 -2        23         7       164      1278      1280      1751
 -1       482    8    0    1
 -2       165       166       320      1286      1752      1753
 -1       483    8    0    1
 -2       164       165       321      1283      1754      1755
 -1       484    8    0    1
 -2       165       320       321      1753      1756      1754
 -1       485    8    0    1
 -2       167       168       322      1292      1757      1758
 -1       486    8    0    1
 -2       168       169       323      1295      1759      1760
 -1       487    8    0    1
 -2       168       323       322      1760      1761      1757
 -1       488    8    0    1
 -2       169       170       324      1298      1762      1763
 -1       489    8    0    1
 -2       169       324       323      1763      1764      1759
 -1       490    8    0    1
 -2       170       171       325      1301      1765      1766
 -1       491    8    0    1
 -2       170       325       324      1766      1767      1762
 -1       492    8    0    1
 -2       171       172       326      1304      1768      1769
 -1       493    8    0    1
 -2       171       326       325      1769      1770      1765
 -1       494    8    0    1
 -2       172       173       327      1307      1771      1772
 -1       495    8    0    1
 -2       172       327       326      1772      1773      1768
 -1       496    8    0    1
 -2       173       174       328      1310      1774      1775
 -1       497    8    0    1
 -2       173       328       327      1775      1776      1771
 -1       498    8    0    1
 -2       174       175       329      1313      1777      1778
 -1       499    8    0    1
 -2       174       329       328      1778      1779      1774
 -1       500    8    0    1
 -2       175       176       330      1316      1780      1781
 -1       501    8    0    1
 -2       175       330       329      1781      1782      1777
 -1       502    8    0    1
 -2       176       177       331      1319      1783      1784
 -1       503    8    0    1
 -2       176       331       330      1784      1785      1780
 -1       504    8    0    1
 -2       177       178       332      1322      1786      1787
 -1       505    8    0    1
 -2       177       332       331      1787      1788      1783
 -1       506    8    0    1
 -2       178       179       333      1325      1789      1790
 -1       507    8    0    1
 -2       332       178       333      1786      1790      1791
 -1       508    8    0    1
 -2       179       228       333      1474      1792      1789
 -1       509    8    0    1
 -2       180        23       164      1327      1751      1793
 -1       510    8    0    1
 -2       228       229       334      1477      1794      1795
 -1       511    8    0    1
 -2       228       334       333      1795      1796      1792
 -1       512    8    0    1
 -2       180       164       321      1793      1755      1797
 -1       513    8    0    1
 -2       182       181       335      1334      1798      1799
 -1       514    8    0    1
 -2       183       182       336      1337      1800      1801
 -1       515    8    0    1
 -2       182       335       336      1799      1802      1800
 -1       516    8    0    1
 -2       184       183       337      1340      1803      1804
 -1       517    8    0    1
 -2       183       336       337      1801      1805      1803
 -1       518    8    0    1
 -2       185       184       338      1343      1806      1807
 -1       519    8    0    1
 -2       184       337       338      1804      1808      1806
 -1       520    8    0    1
 -2       186       185       339      1346      1809      1810
 -1       521    8    0    1
 -2       185       338       339      1807      1811      1809
 -1       522    8    0    1
 -2       187       186       340      1349      1812      1813
 -1       523    8    0    1
 -2       186       339       340      1810      1814      1812
 -1       524    8    0    1
 -2       188       187       341      1352      1815      1816
 -1       525    8    0    1
 -2       187       340       341      1813      1817      1815
 -1       526    8    0    1
 -2       189       188       342      1355      1818      1819
 -1       527    8    0    1
 -2       188       341       342      1816      1820      1818
 -1       528    8    0    1
 -2       190       189       343      1358      1821      1822
 -1       529    8    0    1
 -2       189       342       343      1819      1823      1821
 -1       530    8    0    1
 -2       191       190       344      1361      1824      1825
 -1       531    8    0    1
 -2       190       343       344      1822      1826      1824
 -1       532    8    0    1
 -2       192       191       345      1364      1827      1828
 -1       533    8    0    1
 -2       191       344       345      1825      1829      1827
 -1       534    8    0    1
 -2       193       192       346      1367      1830      1831
 -1       535    8    0    1
 -2       192       345       346      1828      1832      1830
 -1       536    8    0    1
 -2       194       193       347      1370      1833      1834
 -1       537    8    0    1
 -2       193       346       347      1831      1835      1833
 -1       538    8    0    1
 -2       195       194       348      1373      1836      1837
 -1       539    8    0    1
 -2       194       347       348      1834      1838      1836
 -1       540    8    0    1
 -2       196       195       349      1376      1839      1840
 -1       541    8    0    1
 -2       195       348       349      1837      1841      1839
 -1       542    8    0    1
 -2       197       196       350      1379      1842      1843
 -1       543    8    0    1
 -2       196       349       350      1840      1844      1842
 -1       544    8    0    1
 -2       198       197       351      1382      1845      1846
 -1       545    8    0    1
 -2       197       350       351      1843      1847      1845
 -1       546    8    0    1
 -2       199       198       352      1385      1848      1849
 -1       547    8    0    1
 -2       198       351       352      1846      1850      1848
 -1       548    8    0    1
 -2       200       199       353      1388      1851      1852
 -1       549    8    0    1
 -2       199       352       353      1849      1853      1851
 -1       550    8    0    1
 -2       201       200       354      1391      1854      1855
 -1       551    8    0    1
 -2       200       353       354      1852      1856      1854
 -1       552    8    0    1
 -2       202       201       355      1394      1857      1858
 -1       553    8    0    1
 -2       201       354       355      1855      1859      1857
 -1       554    8    0    1
 -2       203       202       356      1397      1860      1861
 -1       555    8    0    1
 -2       202       355       356      1858      1862      1860
 -1       556    8    0    1
 -2       204       203       357      1400      1863      1864
 -1       557    8    0    1
 -2       203       356       357      1861      1865      1863
 -1       558    8    0    1
 -2       205       204       358      1403      1866      1867
 -1       559    8    0    1
 -2       204       357       358      1864      1868      1866
 -1       560    8    0    1
 -2       206       205       359      1406      1869      1870
 -1       561    8    0    1
 -2       205       358       359      1867      1871      1869
 -1       562    8    0    1
 -2       207       206       360      1409      1872      1873
 -1       563    8    0    1
 -2       206       359       360      1870      1874      1872
 -1       564    8    0    1
 -2       208       207       361      1412      1875      1876
 -1       565    8    0    1
 -2       207       360       361      1873      1877      1875
 -1       566    8    0    1
 -2       209       208       362      1415      1878      1879
 -1       567    8    0    1
 -2       208       361       362      1876      1880      1878
 -1       568    8    0    1
 -2       210       209       363      1418      1881      1882
 -1       569    8    0    1
 -2       209       362       363      1879      1883      1881
 -1       570    8    0    1
 -2       211       210       364      1421      1884      1885
 -1       571    8    0    1
 -2       210       363       364      1882      1886      1884
 -1       572    8    0    1
 -2       212       211       365      1424      1887      1888
 -1       573    8    0    1
 -2       211       364       365      1885      1889      1887
 -1       574    8    0    1
 -2       213       212       366      1427      1890      1891
 -1       575    8    0    1
 -2       212       365       366      1888      1892      1890
 -1       576    8    0    1
 -2       214       213       367      1430      1893      1894
 -1       577    8    0    1
 -2       213       366       367      1891      1895      1893
 -1       578    8    0    1
 -2       215       214       368      1433      1896      1897
 -1       579    8    0    1
 -2       214       367       368      1894      1898      1896
 -1       580    8    0    1
 -2       216       215       369      1436      1899      1900
 -1       581    8    0    1
 -2       215       368       369      1897      1901      1899
 -1       582    8    0    1
 -2       217       216       370      1439      1902      1903
 -1       583    8    0    1
 -2       216       369       370      1900      1904      1902
 -1       584    8    0    1
 -2       218       217       371      1442      1905      1906
 -1       585    8    0    1
 -2       217       370       371      1903      1907      1905
 -1       586    8    0    1
 -2       219       218       372      1445      1908      1909
 -1       587    8    0    1
 -2       218       371       372      1906      1910      1908
 -1       588    8    0    1
 -2       220       219       373      1448      1911      1912
 -1       589    8    0    1
 -2       219       372       373      1909      1913      1911
 -1       590    8    0    1
 -2       221       220       374      1451      1914      1915
 -1       591    8    0    1
 -2       220       373       374      1912      1916      1914
 -1       592    8    0    1
 -2       222       221       375      1454      1917      1918
 -1       593    8    0    1
 -2       221       374       375      1915      1919      1917
 -1       594    8    0    1
 -2       223       222       376      1457      1920      1921
 -1       595    8    0    1
 -2       222       375       376      1918      1922      1920
 -1       596    8    0    1
 -2       224       223       377      1460      1923      1924
 -1       597    8    0    1
 -2       223       376       377      1921      1925      1923
 -1       598    8    0    1
 -2       225       224       378      1463      1926      1927
 -1       599    8    0    1
 -2       224       377       378      1924      1928      1926
 -1       600    8    0    1
 -2       226       225       379      1466      1929      1930
 -1       601    8    0    1
 -2       225       378       379      1927      1931      1929
 -1       602    8    0    1
 -2       227       226       380      1469      1932      1933
 -1       603    8    0    1
 -2       290       227       380      1661      1933      1934
 -1       604    8    0    1
 -2       226       379       380      1930      1935      1932
 -1       605    8    0    1
 -2       229       230       381      1480      1936      1937
 -1       606    8    0    1
 -2       229       381       334      1937      1938      1794
 -1       607    8    0    1
 -2       230       231       382      1483      1939      1940
 -1       608    8    0    1
 -2       230       382       381      1940      1941      1936
 -1       609    8    0    1
 -2       231       232       383      1486      1942      1943
 -1       610    8    0    1
 -2       231       383       382      1943      1944      1939
 -1       611    8    0    1
 -2       232       233       384      1489      1945      1946
 -1       612    8    0    1
 -2       232       384       383      1946      1947      1942
 -1       613    8    0    1
 -2       233       234       385      1492      1948      1949
 -1       614    8    0    1
 -2       233       385       384      1949      1950      1945
 -1       615    8    0    1
 -2       234       235       386      1495      1951      1952
 -1       616    8    0    1
 -2       234       386       385      1952      1953      1948
 -1       617    8    0    1
 -2       235       236       387      1498      1954      1955
 -1       618    8    0    1
 -2       235       387       386      1955      1956      1951
 -1       619    8    0    1
 -2       236       237       388      1501      1957      1958
 -1       620    8    0    1
 -2       236       388       387      1958      1959      1954
 -1       621    8    0    1
 -2       237       238       389      1504      1960      1961
 -1       622    8    0    1
 -2       237       389       388      1961      1962      1957
 -1       623    8    0    1
 -2       238       239       390      1507      1963      1964
 -1       624    8    0    1
 -2       238       390       389      1964      1965      1960
 -1       625    8    0    1
 -2       239       240       391      1510      1966      1967
 -1       626    8    0    1
 -2       239       391       390      1967      1968      1963
 -1       627    8    0    1
 -2       240       241       392      1513      1969      1970
 -1       628    8    0    1
 -2       240       392       391      1970      1971      1966
 -1       629    8    0    1
 -2       241       242       393      1516      1972      1973
 -1       630    8    0    1
 -2       241       393       392      1973      1974      1969
 -1       631    8    0    1
 -2       242       243       394      1519      1975      1976
 -1       632    8    0    1
 -2       242       394       393      1976      1977      1972
 -1       633    8    0    1
 -2       243       244       395      1522      1978      1979
 -1       634    8    0    1
 -2       243       395       394      1979      1980      1975
 -1       635    8    0    1
 -2       244       245       396      1525      1981      1982
 -1       636    8    0    1
 -2       244       396       395      1982      1983      1978
 -1       637    8    0    1
 -2       245       246       397      1528      1984      1985
 -1       638    8    0    1
 -2       245       397       396      1985      1986      1981
 -1       639    8    0    1
 -2       246       247       398      1531      1987      1988
 -1       640    8    0    1
 -2       246       398       397      1988      1989      1984
 -1       641    8    0    1
 -2       247       248       399      1534      1990      1991
 -1       642    8    0    1
 -2       247       399       398      1991      1992      1987
 -1       643    8    0    1
 -2       248       249       400      1537      1993      1994
 -1       644    8    0    1
 -2       248       400       399      1994      1995      1990
 -1       645    8    0    1
 -2       249       250       401      1540      1996      1997
 -1       646    8    0    1
 -2       249       401       400      1997      1998      1993
 -1       647    8    0    1
 -2       250       251       402      1543      1999      2000
 -1       648    8    0    1
 -2       250       402       401      2000      2001      1996
 -1       649    8    0    1
 -2       251       252       403      1546      2002      2003
 -1       650    8    0    1
 -2       251       403       402      2003      2004      1999
 -1       651    8    0    1
 -2       252       253       404      1549      2005      2006
 -1       652    8    0    1
 -2       252       404       403      2006      2007      2002
 -1       653    8    0    1
 -2       253       254       405      1552      2008      2009
 -1       654    8    0    1
 -2       253       405       404      2009      2010      2005
 -1       655    8    0    1
 -2       254       255       406      1555      2011      2012
 -1       656    8    0    1
 -2       254       406       405      2012      2013      2008
 -1       657    8    0    1
 -2       255       256       407      1558      2014      2015
 -1       658    8    0    1
 -2       255       407       406      2015      2016      2011
 -1       659    8    0    1
 -2       256       257       408      1561      2017      2018
 -1       660    8    0    1
 -2       256       408       407      2018      2019      2014
 -1       661    8    0    1
 -2       257       258       409      1564      2020      2021
 -1       662    8    0    1
 -2       257       409       408      2021      2022      2017
 -1       663    8    0    1
 -2       258       259       410      1567      2023      2024
 -1       664    8    0    1
 -2       258       410       409      2024      2025      2020
 -1       665    8    0    1
 -2       259       260       411      1570      2026      2027
 -1       666    8    0    1
 -2       259       411       410      2027      2028      2023
 -1       667    8    0    1
 -2       260       261       412      1573      2029      2030
 -1       668    8    0    1
 -2       260       412       411      2030      2031      2026
 -1       669    8    0    1
 -2       261       262       413      1576      2032      2033
 -1       670    8    0    1
 -2       261       413       412      2033      2034      2029
 -1       671    8    0    1
 -2       262       263       414      1579      2035      2036
 -1       672    8    0    1
 -2       262       414       413      2036      2037      2032
 -1       673    8    0    1
 -2       263       264       415      1582      2038      2039
 -1       674    8    0    1
 -2       263       415       414      2039      2040      2035
 -1       675    8    0    1
 -2       264       265       416      1585      2041      2042
 -1       676    8    0    1
 -2       264       416       415      2042      2043      2038
 -1       677    8    0    1
 -2       265       266       417      1588      2044      2045
 -1       678    8    0    1
 -2       265       417       416      2045      2046      2041
 -1       679    8    0    1
 -2       266       267       418      1591      2047      2048
 -1       680    8    0    1
 -2       266       418       417      2048      2049      2044
 -1       681    8    0    1
 -2       267       268       419      1594      2050      2051
 -1       682    8    0    1
 -2       267       419       418      2051      2052      2047
 -1       683    8    0    1
 -2       268       269       420      1597      2053      2054
 -1       684    8    0    1
 -2       268       420       419      2054      2055      2050
 -1       685    8    0    1
 -2       269       270       421      1600      2056      2057
 -1       686    8    0    1
 -2       269       421       420      2057      2058      2053
 -1       687    8    0    1
 -2       270       271       422      1603      2059      2060
 -1       688    8    0    1
 -2       270       422       421      2060      2061      2056
 -1       689    8    0    1
 -2       271       272       423      1606      2062      2063
 -1       690    8    0    1
 -2       271       423       422      2063      2064      2059
 -1       691    8    0    1
 -2       272       273       424      1609      2065      2066
 -1       692    8    0    1
 -2       272       424       423      2066      2067      2062
 -1       693    8    0    1
 -2       273       274       425      1612      2068      2069
 -1       694    8    0    1
 -2       273       425       424      2069      2070      2065
 -1       695    8    0    1
 -2       274       275       426      1615      2071      2072
 -1       696    8    0    1
 -2       425       274       426      2068      2072      2073
 -1       697    8    0    1
 -2       275       276       426      1723      2074      2071
 -1       698    8    0    1
 -2       278       279       427      1627      2075      2076
 -1       699    8    0    1
 -2       277       278       428      1624      2077      2078
 -1       700    8    0    1
 -2       278       427       428      2076      2079      2077
 -1       701    8    0    1
 -2       276       277       429      1621      2080      2081
 -1       702    8    0    1
 -2       426       276       429      2074      2081      2082
 -1       703    8    0    1
 -2       277       428       429      2078      2083      2080
 -1       704    8    0    1
 -2       279       280       430      1630      2084      2085
 -1       705    8    0    1
 -2       279       430       427      2085      2086      2075
 -1       706    8    0    1
 -2       280       281       431      1633      2087      2088
 -1       707    8    0    1
 -2       280       431       430      2088      2089      2084
 -1       708    8    0    1
 -2       281       282       432      1636      2090      2091
 -1       709    8    0    1
 -2       281       432       431      2091      2092      2087
 -1       710    8    0    1
 -2       282       283       433      1639      2093      2094
 -1       711    8    0    1
 -2       282       433       432      2094      2095      2090
 -1       712    8    0    1
 -2       283       284       434      1642      2096      2097
 -1       713    8    0    1
 -2       283       434       433      2097      2098      2093
 -1       714    8    0    1
 -2       284       285       435      1645      2099      2100
 -1       715    8    0    1
 -2       284       435       434      2100      2101      2096
 -1       716    8    0    1
 -2       285       286       436      1648      2102      2103
 -1       717    8    0    1
 -2       285       436       435      2103      2104      2099
 -1       718    8    0    1
 -2       286       287       437      1651      2105      2106
 -1       719    8    0    1
 -2       286       437       436      2106      2107      2102
 -1       720    8    0    1
 -2       287       288       438      1654      2108      2109
 -1       721    8    0    1
 -2       287       438       437      2109      2110      2105
 -1       722    8    0    1
 -2       288       289       439      1657      2111      2112
 -1       723    8    0    1
 -2       288       439       438      2112      2113      2108
 -1       724    8    0    1
 -2       292       293       440      1725      2114      2115
 -1       725    8    0    1
 -2       319       291       441      1726      2116      2117
 -1       726    8    0    1
 -2       291       292       442      1724      2118      2119
 -1       727    8    0    1
 -2       292       440       442      2115      2120      2118
 -1       728    8    0    1
 -2       293       294       443      1721      2121      2122
 -1       729    8    0    1
 -2       294       295       444      1720      2123      2124
 -1       730    8    0    1
 -2       294       444       443      2124      2125      2121
 -1       731    8    0    1
 -2       166       167       445      1289      2126      2127
 -1       732    8    0    1
 -2       166       445       320      2127      2128      1752
 -1       733    8    0    1
 -2       296       297       446      1728      2129      2130
 -1       734    8    0    1
 -2       297       298       447      1729      2131      2132
 -1       735    8    0    1
 -2       298       299       448      1730      2133      2134
 -1       736    8    0    1
 -2       298       448       447      2134      2135      2131
 -1       737    8    0    1
 -2       299       300       449      1731      2136      2137
 -1       738    8    0    1
 -2       300       301       450      1732      2138      2139
 -1       739    8    0    1
 -2       301       302       451      1733      2140      2141
 -1       740    8    0    1
 -2       302       303       452      1734      2142      2143
 -1       741    8    0    1
 -2       302       452       451      2143      2144      2140
 -1       742    8    0    1
 -2       303       304       453      1735      2145      2146
 -1       743    8    0    1
 -2       304       305       454      1736      2147      2148
 -1       744    8    0    1
 -2       305       306       455      1737      2149      2150
 -1       745    8    0    1
 -2       306       307       456      1738      2151      2152
 -1       746    8    0    1
 -2       307       308       457      1739      2153      2154
 -1       747    8    0    1
 -2       308       309       458      1740      2155      2156
 -1       748    8    0    1
 -2       309       310       459      1741      2157      2158
 -1       749    8    0    1
 -2       310       311       460      1742      2159      2160
 -1       750    8    0    1
 -2       311       312       461      1743      2161      2162
 -1       751    8    0    1
 -2       312       313       462      1744      2163      2164
 -1       752    8    0    1
 -2       313       314       463      1745      2165      2166
 -1       753    8    0    1
 -2       314       315       464      1746      2167      2168
 -1       754    8    0    1
 -2       314       464       463      2168      2169      2165
 -1       755    8    0    1
 -2       315       316       465      1747      2170      2171
 -1       756    8    0    1
 -2       316       317       466      1748      2172      2173
 -1       757    8    0    1
 -2       316       466       465      2173      2174      2170
 -1       758    8    0    1
 -2       317       318       467      1749      2175      2176
 -1       759    8    0    1
 -2       318       319       468      1750      2177      2178
 -1       760    8    0    1
 -2       295       296       469      1727      2179      2180
 -1       761    8    0    1
 -2       444       295       469      2123      2180      2181
 -1       762    8    0    1
 -2       180       321       181      1797      2182      1331
 -1       763    8    0    1
 -2       299       449       448      2137      2183      2133
 -1       764    8    0    1
 -2       167       322       445      1758      2184      2126
 -1       765    8    0    1
 -2       335       181       321      1798      2182      2185
 -1       766    8    0    1
 -2       441       291       442      2116      2119      2186
 -1       767    8    0    1
 -2       293       443       440      2122      2187      2114
 -1       768    8    0    1
 -2       439       289       290      2111      1660      2188
 -1       769    8    0    1
 -2       319       441       468      2117      2189      2177
 -1       770    8    0    1
 -2       469       296       446      2179      2130      2190
 -1       771    8    0    1
 -2       466       317       467      2172      2176      2191
 -1       772    8    0    1
 -2       464       315       465      2167      2171      2192
 -1       773    8    0    1
 -2       462       313       463      2163      2166      2193
 -1       774    8    0    1
 -2       461       312       462      2161      2164      2194
 -1       775    8    0    1
 -2       460       311       461      2159      2162      2195
 -1       776    8    0    1
 -2       459       310       460      2157      2160      2196
 -1       777    8    0    1
 -2       458       309       459      2155      2158      2197
 -1       778    8    0    1
 -2       457       308       458      2153      2156      2198
 -1       779    8    0    1
 -2       456       307       457      2151      2154      2199
 -1       780    8    0    1
 -2       455       306       456      2149      2152      2200
 -1       781    8    0    1
 -2       454       305       455      2147      2150      2201
 -1       782    8    0    1
 -2       452       303       453      2142      2146      2202
 -1       783    8    0    1
 -2       450       301       451      2138      2141      2203
 -1       784    8    0    1
 -2       446       297       447      2129      2132      2204
 -1       785    8    0    1
 -2       449       300       450      2136      2139      2205
 -1       786    8    0    1
 -2       453       304       454      2145      2148      2206
 -1       787    8    0    1
 -2       467       318       468      2175      2178      2207
 -1       788    8    0    1
 -2       334       381       470      1938      2208      2209
 -1       789    8    0    1
 -2       323       324       471      1764      2210      2211
 -1       790    8    0    1
 -2       322       323       472      1761      2212      2213
 -1       791    8    0    1
 -2       323       471       472      2211      2214      2212
 -1       792    8    0    1
 -2       325       326       473      1770      2215      2216
 -1       793    8    0    1
 -2       326       327       474      1773      2217      2218
 -1       794    8    0    1
 -2       326       474       473      2218      2219      2215
 -1       795    8    0    1
 -2       327       328       475      1776      2220      2221
 -1       796    8    0    1
 -2       327       475       474      2221      2222      2217
 -1       797    8    0    1
 -2       328       329       476      1779      2223      2224
 -1       798    8    0    1
 -2       328       476       475      2224      2225      2220
 -1       799    8    0    1
 -2       329       330       477      1782      2226      2227
 -1       800    8    0    1
 -2       329       477       476      2227      2228      2223
 -1       801    8    0    1
 -2       330       331       478      1785      2229      2230
 -1       802    8    0    1
 -2       330       478       477      2230      2231      2226
 -1       803    8    0    1
 -2       332       333       479      1791      2232      2233
 -1       804    8    0    1
 -2       331       332       479      1788      2233      2234
 -1       805    8    0    1
 -2       333       334       479      1796      2235      2232
 -1       806    8    0    1
 -2       381       382       480      1941      2236      2237
 -1       807    8    0    1
 -2       381       480       470      2237      2238      2208
 -1       808    8    0    1
 -2       336       335       481      1802      2239      2240
 -1       809    8    0    1
 -2       448       449       482      2183      2241      2242
 -1       810    8    0    1
 -2       337       336       483      1805      2243      2244
 -1       811    8    0    1
 -2       336       481       483      2240      2245      2243
 -1       812    8    0    1
 -2       338       337       484      1808      2246      2247
 -1       813    8    0    1
 -2       337       483       484      2244      2248      2246
 -1       814    8    0    1
 -2       339       338       485      1811      2249      2250
 -1       815    8    0    1
 -2       338       484       485      2247      2251      2249
 -1       816    8    0    1
 -2       340       339       486      1814      2252      2253
 -1       817    8    0    1
 -2       339       485       486      2250      2254      2252
 -1       818    8    0    1
 -2       341       340       487      1817      2255      2256
 -1       819    8    0    1
 -2       340       486       487      2253      2257      2255
 -1       820    8    0    1
 -2       342       341       488      1820      2258      2259
 -1       821    8    0    1
 -2       341       487       488      2256      2260      2258
 -1       822    8    0    1
 -2       343       342       489      1823      2261      2262
 -1       823    8    0    1
 -2       342       488       489      2259      2263      2261
 -1       824    8    0    1
 -2       344       343       490      1826      2264      2265
 -1       825    8    0    1
 -2       343       489       490      2262      2266      2264
 -1       826    8    0    1
 -2       345       344       491      1829      2267      2268
 -1       827    8    0    1
 -2       344       490       491      2265      2269      2267
 -1       828    8    0    1
 -2       346       345       492      1832      2270      2271
 -1       829    8    0    1
 -2       345       491       492      2268      2272      2270
 -1       830    8    0    1
 -2       347       346       493      1835      2273      2274
 -1       831    8    0    1
 -2       346       492       493      2271      2275      2273
 -1       832    8    0    1
 -2       348       347       494      1838      2276      2277
 -1       833    8    0    1
 -2       347       493       494      2274      2278      2276
 -1       834    8    0    1
 -2       349       348       495      1841      2279      2280
 -1       835    8    0    1
 -2       348       494       495      2277      2281      2279
 -1       836    8    0    1
 -2       350       349       496      1844      2282      2283
 -1       837    8    0    1
 -2       349       495       496      2280      2284      2282
 -1       838    8    0    1
 -2       351       350       497      1847      2285      2286
 -1       839    8    0    1
 -2       350       496       497      2283      2287      2285
 -1       840    8    0    1
 -2       352       351       498      1850      2288      2289
 -1       841    8    0    1
 -2       351       497       498      2286      2290      2288
 -1       842    8    0    1
 -2       353       352       499      1853      2291      2292
 -1       843    8    0    1
 -2       352       498       499      2289      2293      2291
 -1       844    8    0    1
 -2       354       353       500      1856      2294      2295
 -1       845    8    0    1
 -2       353       499       500      2292      2296      2294
 -1       846    8    0    1
 -2       355       354       501      1859      2297      2298
 -1       847    8    0    1
 -2       354       500       501      2295      2299      2297
 -1       848    8    0    1
 -2       356       355       502      1862      2300      2301
 -1       849    8    0    1
 -2       355       501       502      2298      2302      2300
 -1       850    8    0    1
 -2       357       356       503      1865      2303      2304
 -1       851    8    0    1
 -2       356       502       503      2301      2305      2303
 -1       852    8    0    1
 -2       358       357       504      1868      2306      2307
 -1       853    8    0    1
 -2       357       503       504      2304      2308      2306
 -1       854    8    0    1
 -2       359       358       505      1871      2309      2310
 -1       855    8    0    1
 -2       358       504       505      2307      2311      2309
 -1       856    8    0    1
 -2       360       359       506      1874      2312      2313
 -1       857    8    0    1
 -2       359       505       506      2310      2314      2312
 -1       858    8    0    1
 -2       361       360       507      1877      2315      2316
 -1       859    8    0    1
 -2       360       506       507      2313      2317      2315
 -1       860    8    0    1
 -2       362       361       508      1880      2318      2319
 -1       861    8    0    1
 -2       361       507       508      2316      2320      2318
 -1       862    8    0    1
 -2       363       362       509      1883      2321      2322
 -1       863    8    0    1
 -2       362       508       509      2319      2323      2321
 -1       864    8    0    1
 -2       364       363       510      1886      2324      2325
 -1       865    8    0    1
 -2       363       509       510      2322      2326      2324
 -1       866    8    0    1
 -2       365       364       511      1889      2327      2328
 -1       867    8    0    1
 -2       364       510       511      2325      2329      2327
 -1       868    8    0    1
 -2       366       365       512      1892      2330      2331
 -1       869    8    0    1
 -2       365       511       512      2328      2332      2330
 -1       870    8    0    1
 -2       367       366       513      1895      2333      2334
 -1       871    8    0    1
 -2       366       512       513      2331      2335      2333
 -1       872    8    0    1
 -2       368       367       514      1898      2336      2337
 -1       873    8    0    1
 -2       367       513       514      2334      2338      2336
 -1       874    8    0    1
 -2       369       368       515      1901      2339      2340
 -1       875    8    0    1
 -2       368       514       515      2337      2341      2339
 -1       876    8    0    1
 -2       370       369       516      1904      2342      2343
 -1       877    8    0    1
 -2       369       515       516      2340      2344      2342
 -1       878    8    0    1
 -2       371       370       517      1907      2345      2346
 -1       879    8    0    1
 -2       370       516       517      2343      2347      2345
 -1       880    8    0    1
 -2       372       371       518      1910      2348      2349
 -1       881    8    0    1
 -2       371       517       518      2346      2350      2348
 -1       882    8    0    1
 -2       373       372       519      1913      2351      2352
 -1       883    8    0    1
 -2       372       518       519      2349      2353      2351
 -1       884    8    0    1
 -2       374       373       520      1916      2354      2355
 -1       885    8    0    1
 -2       373       519       520      2352      2356      2354
 -1       886    8    0    1
 -2       375       374       521      1919      2357      2358
 -1       887    8    0    1
 -2       374       520       521      2355      2359      2357
 -1       888    8    0    1
 -2       376       375       522      1922      2360      2361
 -1       889    8    0    1
 -2       375       521       522      2358      2362      2360
 -1       890    8    0    1
 -2       377       376       523      1925      2363      2364
 -1       891    8    0    1
 -2       376       522       523      2361      2365      2363
 -1       892    8    0    1
 -2       378       377       524      1928      2366      2367
 -1       893    8    0    1
 -2       377       523       524      2364      2368      2366
 -1       894    8    0    1
 -2       379       378       525      1931      2369      2370
 -1       895    8    0    1
 -2       378       524       525      2367      2371      2369
 -1       896    8    0    1
 -2       442       440       526      2120      2372      2373
 -1       897    8    0    1
 -2       383       384       527      1947      2374      2375
 -1       898    8    0    1
 -2       384       385       528      1950      2376      2377
 -1       899    8    0    1
 -2       384       528       527      2377      2378      2374
 -1       900    8    0    1
 -2       385       386       529      1953      2379      2380
 -1       901    8    0    1
 -2       385       529       528      2380      2381      2376
 -1       902    8    0    1
 -2       386       387       530      1956      2382      2383
 -1       903    8    0    1
 -2       386       530       529      2383      2384      2379
 -1       904    8    0    1
 -2       387       388       531      1959      2385      2386
 -1       905    8    0    1
 -2       387       531       530      2386      2387      2382
 -1       906    8    0    1
 -2       388       389       532      1962      2388      2389
 -1       907    8    0    1
 -2       388       532       531      2389      2390      2385
 -1       908    8    0    1
 -2       389       390       533      1965      2391      2392
 -1       909    8    0    1
 -2       389       533       532      2392      2393      2388
 -1       910    8    0    1
 -2       390       391       534      1968      2394      2395
 -1       911    8    0    1
 -2       390       534       533      2395      2396      2391
 -1       912    8    0    1
 -2       391       392       535      1971      2397      2398
 -1       913    8    0    1
 -2       391       535       534      2398      2399      2394
 -1       914    8    0    1
 -2       392       393       536      1974      2400      2401
 -1       915    8    0    1
 -2       392       536       535      2401      2402      2397
 -1       916    8    0    1
 -2       393       394       537      1977      2403      2404
 -1       917    8    0    1
 -2       393       537       536      2404      2405      2400
 -1       918    8    0    1
 -2       394       395       538      1980      2406      2407
 -1       919    8    0    1
 -2       394       538       537      2407      2408      2403
 -1       920    8    0    1
 -2       395       396       539      1983      2409      2410
 -1       921    8    0    1
 -2       395       539       538      2410      2411      2406
 -1       922    8    0    1
 -2       396       397       540      1986      2412      2413
 -1       923    8    0    1
 -2       396       540       539      2413      2414      2409
 -1       924    8    0    1
 -2       397       398       541      1989      2415      2416
 -1       925    8    0    1
 -2       397       541       540      2416      2417      2412
 -1       926    8    0    1
 -2       398       399       542      1992      2418      2419
 -1       927    8    0    1
 -2       398       542       541      2419      2420      2415
 -1       928    8    0    1
 -2       399       400       543      1995      2421      2422
 -1       929    8    0    1
 -2       399       543       542      2422      2423      2418
 -1       930    8    0    1
 -2       400       401       544      1998      2424      2425
 -1       931    8    0    1
 -2       400       544       543      2425      2426      2421
 -1       932    8    0    1
 -2       401       402       545      2001      2427      2428
 -1       933    8    0    1
 -2       401       545       544      2428      2429      2424
 -1       934    8    0    1
 -2       402       403       546      2004      2430      2431
 -1       935    8    0    1
 -2       402       546       545      2431      2432      2427
 -1       936    8    0    1
 -2       403       404       547      2007      2433      2434
 -1       937    8    0    1
 -2       403       547       546      2434      2435      2430
 -1       938    8    0    1
 -2       404       405       548      2010      2436      2437
 -1       939    8    0    1
 -2       404       548       547      2437      2438      2433
 -1       940    8    0    1
 -2       405       406       549      2013      2439      2440
 -1       941    8    0    1
 -2       405       549       548      2440      2441      2436
 -1       942    8    0    1
 -2       406       407       550      2016      2442      2443
 -1       943    8    0    1
 -2       406       550       549      2443      2444      2439
 -1       944    8    0    1
 -2       407       408       551      2019      2445      2446
 -1       945    8    0    1
 -2       407       551       550      2446      2447      2442
 -1       946    8    0    1
 -2       408       409       552      2022      2448      2449
 -1       947    8    0    1
 -2       408       552       551      2449      2450      2445
 -1       948    8    0    1
 -2       409       410       553      2025      2451      2452
 -1       949    8    0    1
 -2       409       553       552      2452      2453      2448
 -1       950    8    0    1
 -2       410       411       554      2028      2454      2455
 -1       951    8    0    1
 -2       410       554       553      2455      2456      2451
 -1       952    8    0    1
 -2       411       412       555      2031      2457      2458
 -1       953    8    0    1
 -2       411       555       554      2458      2459      2454
 -1       954    8    0    1
 -2       412       413       556      2034      2460      2461
 -1       955    8    0    1
 -2       412       556       555      2461      2462      2457
 -1       956    8    0    1
 -2       413       414       557      2037      2463      2464
 -1       957    8    0    1
 -2       413       557       556      2464      2465      2460
 -1       958    8    0    1
 -2       414       415       558      2040      2466      2467
 -1       959    8    0    1
 -2       414       558       557      2467      2468      2463
 -1       960    8    0    1
 -2       415       416       559      2043      2469      2470
 -1       961    8    0    1
 -2       415       559       558      2470      2471      2466
 -1       962    8    0    1
 -2       416       417       560      2046      2472      2473
 -1       963    8    0    1
 -2       416       560       559      2473      2474      2469
 -1       964    8    0    1
 -2       417       418       561      2049      2475      2476
 -1       965    8    0    1
 -2       417       561       560      2476      2477      2472
 -1       966    8    0    1
 -2       418       419       562      2052      2478      2479
 -1       967    8    0    1
 -2       418       562       561      2479      2480      2475
 -1       968    8    0    1
 -2       419       420       563      2055      2481      2482
 -1       969    8    0    1
 -2       419       563       562      2482      2483      2478
 -1       970    8    0    1
 -2       420       421       564      2058      2484      2485
 -1       971    8    0    1
 -2       420       564       563      2485      2486      2481
 -1       972    8    0    1
 -2       421       422       565      2061      2487      2488
 -1       973    8    0    1
 -2       421       565       564      2488      2489      2484
 -1       974    8    0    1
 -2       422       423       566      2064      2490      2491
 -1       975    8    0    1
 -2       422       566       565      2491      2492      2487
 -1       976    8    0    1
 -2       423       424       567      2067      2493      2494
 -1       977    8    0    1
 -2       423       567       566      2494      2495      2490
 -1       978    8    0    1
 -2       424       425       568      2070      2496      2497
 -1       979    8    0    1
 -2       424       568       567      2497      2498      2493
 -1       980    8    0    1
 -2       425       426       429      2073      2082      2499
 -1       981    8    0    1
 -2       430       431       569      2089      2500      2501
 -1       982    8    0    1
 -2       431       432       570      2092      2502      2503
 -1       983    8    0    1
 -2       431       570       569      2503      2504      2500
 -1       984    8    0    1
 -2       428       427       571      2079      2505      2506
 -1       985    8    0    1
 -2       427       430       572      2086      2507      2508
 -1       986    8    0    1
 -2       571       427       572      2505      2508      2509
 -1       987    8    0    1
 -2       430       569       572      2501      2510      2507
 -1       988    8    0    1
 -2       432       433       573      2095      2511      2512
 -1       989    8    0    1
 -2       432       573       570      2512      2513      2502
 -1       990    8    0    1
 -2       433       434       574      2098      2514      2515
 -1       991    8    0    1
 -2       433       574       573      2515      2516      2511
 -1       992    8    0    1
 -2       434       435       575      2101      2517      2518
 -1       993    8    0    1
 -2       434       575       574      2518      2519      2514
 -1       994    8    0    1
 -2       435       436       576      2104      2520      2521
 -1       995    8    0    1
 -2       435       576       575      2521      2522      2517
 -1       996    8    0    1
 -2       436       437       577      2107      2523      2524
 -1       997    8    0    1
 -2       436       577       576      2524      2525      2520
 -1       998    8    0    1
 -2       437       438       578      2110      2526      2527
 -1       999    8    0    1
 -2       437       578       577      2527      2528      2523
 -1      1000    8    0    1
 -2       438       439       579      2113      2529      2530
 -1      1001    8    0    1
 -2       438       579       578      2530      2531      2526
 -1      1002    8    0    1
 -2       439       290       380      2188      1934      2532
 -1      1003    8    0    1
 -2       468       441       580      2189      2533      2534
 -1      1004    8    0    1
 -2       382       383       581      1944      2535      2536
 -1      1005    8    0    1
 -2       383       527       581      2375      2537      2535
 -1      1006    8    0    1
 -2       440       443       582      2187      2538      2539
 -1      1007    8    0    1
 -2       320       445       583      2128      2540      2541
 -1      1008    8    0    1
 -2       443       444       584      2125      2542      2543
 -1      1009    8    0    1
 -2       469       446       585      2190      2544      2545
 -1      1010    8    0    1
 -2       462       463       586      2193      2546      2547
 -1      1011    8    0    1
 -2       450       451       587      2203      2548      2549
 -1      1012    8    0    1
 -2       445       322       588      2184      2550      2551
 -1      1013    8    0    1
 -2       583       445       588      2540      2551      2552
 -1      1014    8    0    1
 -2       322       472       588      2213      2553      2550
 -1      1015    8    0    1
 -2       324       325       589      1767      2554      2555
 -1      1016    8    0    1
 -2       471       324       589      2210      2555      2556
 -1      1017    8    0    1
 -2       325       473       589      2216      2557      2554
 -1      1018    8    0    1
 -2       335       321       590      2185      2558      2559
 -1      1019    8    0    1
 -2       481       335       590      2239      2559      2560
 -1      1020    8    0    1
 -2       321       320       590      1756      2561      2558
 -1      1021    8    0    1
 -2       466       467       591      2191      2562      2563
 -1      1022    8    0    1
 -2       449       450       592      2205      2564      2565
 -1      1023    8    0    1
 -2       447       448       593      2135      2566      2567
 -1      1024    8    0    1
 -2       448       482       593      2242      2568      2566
 -1      1025    8    0    1
 -2       453       454       594      2206      2569      2570
 -1      1026    8    0    1
 -2       446       447       595      2204      2571      2572
 -1      1027    8    0    1
 -2       451       452       596      2144      2573      2574
 -1      1028    8    0    1
 -2       467       468       597      2207      2575      2576
 -1      1029    8    0    1
 -2       452       453       598      2202      2577      2578
 -1      1030    8    0    1
 -2       454       455       599      2201      2579      2580
 -1      1031    8    0    1
 -2       454       599       594      2580      2581      2569
 -1      1032    8    0    1
 -2       455       456       600      2200      2582      2583
 -1      1033    8    0    1
 -2       456       457       601      2199      2584      2585
 -1      1034    8    0    1
 -2       457       458       602      2198      2586      2587
 -1      1035    8    0    1
 -2       458       459       603      2197      2588      2589
 -1      1036    8    0    1
 -2       459       460       604      2196      2590      2591
 -1      1037    8    0    1
 -2       460       461       605      2195      2592      2593
 -1      1038    8    0    1
 -2       461       462       606      2194      2594      2595
 -1      1039    8    0    1
 -2       461       606       605      2595      2596      2592
 -1      1040    8    0    1
 -2       463       464       607      2169      2597      2598
 -1      1041    8    0    1
 -2       464       465       608      2192      2599      2600
 -1      1042    8    0    1
 -2       464       608       607      2600      2601      2597
 -1      1043    8    0    1
 -2       465       466       609      2174      2602      2603
 -1      1044    8    0    1
 -2       465       609       608      2603      2604      2599
 -1      1045    8    0    1
 -2       441       442       610      2186      2605      2606
 -1      1046    8    0    1
 -2       441       610       580      2606      2607      2533
 -1      1047    8    0    1
 -2       444       469       611      2181      2608      2609
 -1      1048    8    0    1
 -2       444       611       584      2609      2610      2542
 -1      1049    8    0    1
 -2       331       479       478      2234      2611      2229
 -1      1050    8    0    1
 -2       479       334       470      2235      2209      2612
 -1      1051    8    0    1
 -2       480       382       581      2236      2536      2613
 -1      1052    8    0    1
 -2       482       449       612      2241      2614      2615
 -1      1053    8    0    1
 -2       449       592       612      2565      2616      2614
 -1      1054    8    0    1
 -2       591       467       597      2562      2576      2617
 -1      1055    8    0    1
 -2       453       594       598      2570      2618      2577
 -1      1056    8    0    1
 -2       606       462       586      2594      2547      2619
 -1      1057    8    0    1
 -2       468       580       597      2534      2620      2575
 -1      1058    8    0    1
 -2       526       440       582      2372      2539      2621
 -1      1059    8    0    1
 -2       425       429       568      2499      2622      2496
 -1      1060    8    0    1
 -2       429       428       568      2083      2623      2622
 -1      1061    8    0    1
 -2       463       607       586      2598      2624      2546
 -1      1062    8    0    1
 -2       439       380       613      2532      2625      2626
 -1      1063    8    0    1
 -2       579       439       613      2529      2626      2627
 -1      1064    8    0    1
 -2       380       379       613      1935      2628      2625
 -1      1065    8    0    1
 -2       603       459       604      2588      2591      2629
 -1      1066    8    0    1
 -2       582       443       584      2538      2543      2630
 -1      1067    8    0    1
 -2       602       458       603      2586      2589      2631
 -1      1068    8    0    1
 -2       320       583       590      2541      2632      2561
 -1      1069    8    0    1
 -2       469       585       611      2545      2633      2608
 -1      1070    8    0    1
 -2       601       457       602      2584      2587      2634
 -1      1071    8    0    1
 -2       599       455       600      2579      2583      2635
 -1      1072    8    0    1
 -2       450       587       592      2549      2636      2564
 -1      1073    8    0    1
 -2       596       452       598      2573      2578      2637
 -1      1074    8    0    1
 -2       587       451       596      2548      2574      2638
 -1      1075    8    0    1
 -2       585       446       595      2544      2572      2639
 -1      1076    8    0    1
 -2       595       447       593      2571      2567      2640
 -1      1077    8    0    1
 -2       466       591       614      2563      2641      2642
 -1      1078    8    0    1
 -2       466       614       609      2642      2643      2602
 -1      1079    8    0    1
 -2       600       456       601      2582      2585      2644
 -1      1080    8    0    1
 -2       610       442       526      2605      2373      2645
 -1      1081    8    0    1
 -2       568       428       571      2623      2506      2646
 -1      1082    8    0    1
 -2       613       379       525      2628      2370      2647
 -1      1083    8    0    1
 -2       481       590       615      2560      2648      2649
 -1      1084    8    0    1
 -2       590       583       615      2632      2650      2648
 -1      1085    8    0    1
 -2       474       475       616      2222      2651      2652
 -1      1086    8    0    1
 -2       476       477       617      2228      2653      2654
 -1      1087    8    0    1
 -2       477       478       618      2231      2655      2656
 -1      1088    8    0    1
 -2       477       618       617      2656      2657      2653
 -1      1089    8    0    1
 -2       479       470       478      2612      2658      2611
 -1      1090    8    0    1
 -2       580       610       619      2607      2659      2660
 -1      1091    8    0    1
 -2       484       483       604      2248      2661      2662
 -1      1092    8    0    1
 -2       487       486       586      2257      2663      2664
 -1      1093    8    0    1
 -2       488       487       620      2260      2665      2666
 -1      1094    8    0    1
 -2       489       488       621      2263      2667      2668
 -1      1095    8    0    1
 -2       488       620       621      2666      2669      2667
 -1      1096    8    0    1
 -2       490       489       622      2266      2670      2671
 -1      1097    8    0    1
 -2       489       621       622      2668      2672      2670
 -1      1098    8    0    1
 -2       491       490       623      2269      2673      2674
 -1      1099    8    0    1
 -2       490       622       623      2671      2675      2673
 -1      1100    8    0    1
 -2       492       491       624      2272      2676      2677
 -1      1101    8    0    1
 -2       491       623       624      2674      2678      2676
 -1      1102    8    0    1
 -2       493       492       625      2275      2679      2680
 -1      1103    8    0    1
 -2       492       624       625      2677      2681      2679
 -1      1104    8    0    1
 -2       494       493       626      2278      2682      2683
 -1      1105    8    0    1
 -2       493       625       626      2680      2684      2682
 -1      1106    8    0    1
 -2       495       494       627      2281      2685      2686
 -1      1107    8    0    1
 -2       494       626       627      2683      2687      2685
 -1      1108    8    0    1
 -2       496       495       628      2284      2688      2689
 -1      1109    8    0    1
 -2       495       627       628      2686      2690      2688
 -1      1110    8    0    1
 -2       497       496       629      2287      2691      2692
 -1      1111    8    0    1
 -2       496       628       629      2689      2693      2691
 -1      1112    8    0    1
 -2       498       497       630      2290      2694      2695
 -1      1113    8    0    1
 -2       497       629       630      2692      2696      2694
 -1      1114    8    0    1
 -2       499       498       631      2293      2697      2698
 -1      1115    8    0    1
 -2       498       630       631      2695      2699      2697
 -1      1116    8    0    1
 -2       500       499       632      2296      2700      2701
 -1      1117    8    0    1
 -2       499       631       632      2698      2702      2700
 -1      1118    8    0    1
 -2       501       500       633      2299      2703      2704
 -1      1119    8    0    1
 -2       500       632       633      2701      2705      2703
 -1      1120    8    0    1
 -2       502       501       634      2302      2706      2707
 -1      1121    8    0    1
 -2       501       633       634      2704      2708      2706
 -1      1122    8    0    1
 -2       503       502       635      2305      2709      2710
 -1      1123    8    0    1
 -2       502       634       635      2707      2711      2709
 -1      1124    8    0    1
 -2       504       503       636      2308      2712      2713
 -1      1125    8    0    1
 -2       503       635       636      2710      2714      2712
 -1      1126    8    0    1
 -2       505       504       637      2311      2715      2716
 -1      1127    8    0    1
 -2       504       636       637      2713      2717      2715
 -1      1128    8    0    1
 -2       506       505       638      2314      2718      2719
 -1      1129    8    0    1
 -2       505       637       638      2716      2720      2718
 -1      1130    8    0    1
 -2       507       506       639      2317      2721      2722
 -1      1131    8    0    1
 -2       506       638       639      2719      2723      2721
 -1      1132    8    0    1
 -2       508       507       640      2320      2724      2725
 -1      1133    8    0    1
 -2       507       639       640      2722      2726      2724
 -1      1134    8    0    1
 -2       509       508       641      2323      2727      2728
 -1      1135    8    0    1
 -2       508       640       641      2725      2729      2727
 -1      1136    8    0    1
 -2       510       509       642      2326      2730      2731
 -1      1137    8    0    1
 -2       509       641       642      2728      2732      2730
 -1      1138    8    0    1
 -2       511       510       643      2329      2733      2734
 -1      1139    8    0    1
 -2       510       642       643      2731      2735      2733
 -1      1140    8    0    1
 -2       512       511       644      2332      2736      2737
 -1      1141    8    0    1
 -2       511       643       644      2734      2738      2736
 -1      1142    8    0    1
 -2       513       512       645      2335      2739      2740
 -1      1143    8    0    1
 -2       512       644       645      2737      2741      2739
 -1      1144    8    0    1
 -2       514       513       646      2338      2742      2743
 -1      1145    8    0    1
 -2       513       645       646      2740      2744      2742
 -1      1146    8    0    1
 -2       515       514       647      2341      2745      2746
 -1      1147    8    0    1
 -2       514       646       647      2743      2747      2745
 -1      1148    8    0    1
 -2       516       515       648      2344      2748      2749
 -1      1149    8    0    1
 -2       515       647       648      2746      2750      2748
 -1      1150    8    0    1
 -2       517       516       649      2347      2751      2752
 -1      1151    8    0    1
 -2       516       648       649      2749      2753      2751
 -1      1152    8    0    1
 -2       518       517       650      2350      2754      2755
 -1      1153    8    0    1
 -2       517       649       650      2752      2756      2754
 -1      1154    8    0    1
 -2       519       518       651      2353      2757      2758
 -1      1155    8    0    1
 -2       518       650       651      2755      2759      2757
 -1      1156    8    0    1
 -2       520       519       652      2356      2760      2761
 -1      1157    8    0    1
 -2       519       651       652      2758      2762      2760
 -1      1158    8    0    1
 -2       521       520       653      2359      2763      2764
 -1      1159    8    0    1
 -2       520       652       653      2761      2765      2763
 -1      1160    8    0    1
 -2       522       521       654      2362      2766      2767
 -1      1161    8    0    1
 -2       521       653       654      2764      2768      2766
 -1      1162    8    0    1
 -2       523       522       655      2365      2769      2770
 -1      1163    8    0    1
 -2       522       654       655      2767      2771      2769
 -1      1164    8    0    1
 -2       524       523       656      2368      2772      2773
 -1      1165    8    0    1
 -2       523       655       656      2770      2774      2772
 -1      1166    8    0    1
 -2       525       524       657      2371      2775      2776
 -1      1167    8    0    1
 -2       524       656       657      2773      2777      2775
 -1      1168    8    0    1
 -2       603       604       483      2629      2661      2778
 -1      1169    8    0    1
 -2       527       528       658      2378      2779      2780
 -1      1170    8    0    1
 -2       530       531       659      2387      2781      2782
 -1      1171    8    0    1
 -2       531       532       660      2390      2783      2784
 -1      1172    8    0    1
 -2       531       660       659      2784      2785      2781
 -1      1173    8    0    1
 -2       532       533       661      2393      2786      2787
 -1      1174    8    0    1
 -2       532       661       660      2787      2788      2783
 -1      1175    8    0    1
 -2       533       534       662      2396      2789      2790
 -1      1176    8    0    1
 -2       533       662       661      2790      2791      2786
 -1      1177    8    0    1
 -2       534       535       663      2399      2792      2793
 -1      1178    8    0    1
 -2       534       663       662      2793      2794      2789
 -1      1179    8    0    1
 -2       535       536       664      2402      2795      2796
 -1      1180    8    0    1
 -2       535       664       663      2796      2797      2792
 -1      1181    8    0    1
 -2       536       537       665      2405      2798      2799
 -1      1182    8    0    1
 -2       536       665       664      2799      2800      2795
 -1      1183    8    0    1
 -2       537       538       666      2408      2801      2802
 -1      1184    8    0    1
 -2       537       666       665      2802      2803      2798
 -1      1185    8    0    1
 -2       538       539       667      2411      2804      2805
 -1      1186    8    0    1
 -2       538       667       666      2805      2806      2801
 -1      1187    8    0    1
 -2       539       540       668      2414      2807      2808
 -1      1188    8    0    1
 -2       539       668       667      2808      2809      2804
 -1      1189    8    0    1
 -2       540       541       669      2417      2810      2811
 -1      1190    8    0    1
 -2       540       669       668      2811      2812      2807
 -1      1191    8    0    1
 -2       541       542       670      2420      2813      2814
 -1      1192    8    0    1
 -2       541       670       669      2814      2815      2810
 -1      1193    8    0    1
 -2       542       543       671      2423      2816      2817
 -1      1194    8    0    1
 -2       542       671       670      2817      2818      2813
 -1      1195    8    0    1
 -2       543       544       672      2426      2819      2820
 -1      1196    8    0    1
 -2       543       672       671      2820      2821      2816
 -1      1197    8    0    1
 -2       544       545       673      2429      2822      2823
 -1      1198    8    0    1
 -2       544       673       672      2823      2824      2819
 -1      1199    8    0    1
 -2       545       546       674      2432      2825      2826
 -1      1200    8    0    1
 -2       545       674       673      2826      2827      2822
 -1      1201    8    0    1
 -2       546       547       675      2435      2828      2829
 -1      1202    8    0    1
 -2       546       675       674      2829      2830      2825
 -1      1203    8    0    1
 -2       547       548       676      2438      2831      2832
 -1      1204    8    0    1
 -2       547       676       675      2832      2833      2828
 -1      1205    8    0    1
 -2       548       549       677      2441      2834      2835
 -1      1206    8    0    1
 -2       548       677       676      2835      2836      2831
 -1      1207    8    0    1
 -2       549       550       678      2444      2837      2838
 -1      1208    8    0    1
 -2       549       678       677      2838      2839      2834
 -1      1209    8    0    1
 -2       550       551       679      2447      2840      2841
 -1      1210    8    0    1
 -2       550       679       678      2841      2842      2837
 -1      1211    8    0    1
 -2       551       552       680      2450      2843      2844
 -1      1212    8    0    1
 -2       551       680       679      2844      2845      2840
 -1      1213    8    0    1
 -2       552       553       681      2453      2846      2847
 -1      1214    8    0    1
 -2       552       681       680      2847      2848      2843
 -1      1215    8    0    1
 -2       553       554       682      2456      2849      2850
 -1      1216    8    0    1
 -2       553       682       681      2850      2851      2846
 -1      1217    8    0    1
 -2       554       555       683      2459      2852      2853
 -1      1218    8    0    1
 -2       554       683       682      2853      2854      2849
 -1      1219    8    0    1
 -2       555       556       684      2462      2855      2856
 -1      1220    8    0    1
 -2       555       684       683      2856      2857      2852
 -1      1221    8    0    1
 -2       556       557       685      2465      2858      2859
 -1      1222    8    0    1
 -2       556       685       684      2859      2860      2855
 -1      1223    8    0    1
 -2       557       558       686      2468      2861      2862
 -1      1224    8    0    1
 -2       557       686       685      2862      2863      2858
 -1      1225    8    0    1
 -2       558       559       687      2471      2864      2865
 -1      1226    8    0    1
 -2       558       687       686      2865      2866      2861
 -1      1227    8    0    1
 -2       559       560       688      2474      2867      2868
 -1      1228    8    0    1
 -2       559       688       687      2868      2869      2864
 -1      1229    8    0    1
 -2       560       561       689      2477      2870      2871
 -1      1230    8    0    1
 -2       560       689       688      2871      2872      2867
 -1      1231    8    0    1
 -2       561       562       690      2480      2873      2874
 -1      1232    8    0    1
 -2       561       690       689      2874      2875      2870
 -1      1233    8    0    1
 -2       562       563       691      2483      2876      2877
 -1      1234    8    0    1
 -2       562       691       690      2877      2878      2873
 -1      1235    8    0    1
 -2       563       564       692      2486      2879      2880
 -1      1236    8    0    1
 -2       563       692       691      2880      2881      2876
 -1      1237    8    0    1
 -2       564       565       693      2489      2882      2883
 -1      1238    8    0    1
 -2       564       693       692      2883      2884      2879
 -1      1239    8    0    1
 -2       565       566       694      2492      2885      2886
 -1      1240    8    0    1
 -2       565       694       693      2886      2887      2882
 -1      1241    8    0    1
 -2       566       567       695      2495      2888      2889
 -1      1242    8    0    1
 -2       566       695       694      2889      2890      2885
 -1      1243    8    0    1
 -2       567       568       696      2498      2891      2892
 -1      1244    8    0    1
 -2       695       567       696      2888      2892      2893
 -1      1245    8    0    1
 -2       568       571       696      2646      2894      2891
 -1      1246    8    0    1
 -2       478       470       697      2658      2895      2896
 -1      1247    8    0    1
 -2       618       478       697      2655      2896      2897
 -1      1248    8    0    1
 -2       470       480       697      2238      2898      2895
 -1      1249    8    0    1
 -2       573       574       698      2516      2899      2900
 -1      1250    8    0    1
 -2       613       525       699      2647      2901      2902
 -1      1251    8    0    1
 -2       579       613       699      2627      2902      2903
 -1      1252    8    0    1
 -2       525       657       699      2776      2904      2901
 -1      1253    8    0    1
 -2       569       570       700      2504      2905      2906
 -1      1254    8    0    1
 -2       574       575       701      2519      2907      2908
 -1      1255    8    0    1
 -2       574       701       698      2908      2909      2899
 -1      1256    8    0    1
 -2       570       573       702      2513      2910      2911
 -1      1257    8    0    1
 -2       700       570       702      2905      2911      2912
 -1      1258    8    0    1
 -2       573       698       702      2900      2913      2910
 -1      1259    8    0    1
 -2       575       576       703      2522      2914      2915
 -1      1260    8    0    1
 -2       575       703       701      2915      2916      2907
 -1      1261    8    0    1
 -2       576       577       704      2525      2917      2918
 -1      1262    8    0    1
 -2       576       704       703      2918      2919      2914
 -1      1263    8    0    1
 -2       577       578       705      2528      2920      2921
 -1      1264    8    0    1
 -2       577       705       704      2921      2922      2917
 -1      1265    8    0    1
 -2       578       579       706      2531      2923      2924
 -1      1266    8    0    1
 -2       705       578       706      2920      2924      2925
 -1      1267    8    0    1
 -2       579       699       706      2903      2926      2923
 -1      1268    8    0    1
 -2       581       527       707      2537      2927      2928
 -1      1269    8    0    1
 -2       527       658       707      2780      2929      2927
 -1      1270    8    0    1
 -2       604       460       708      2590      2930      2931
 -1      1271    8    0    1
 -2       584       611       709      2610      2932      2933
 -1      1272    8    0    1
 -2       602       603       710      2631      2934      2935
 -1      1273    8    0    1
 -2       597       580       711      2620      2936      2937
 -1      1274    8    0    1
 -2       526       582       712      2621      2938      2939
 -1      1275    8    0    1
 -2       529       530       713      2384      2940      2941
 -1      1276    8    0    1
 -2       530       659       713      2782      2942      2940
 -1      1277    8    0    1
 -2       528       529       714      2381      2943      2944
 -1      1278    8    0    1
 -2       529       713       714      2941      2945      2943
 -1      1279    8    0    1
 -2       483       481       615      2245      2649      2946
 -1      1280    8    0    1
 -2       593       482       715      2568      2947      2948
 -1      1281    8    0    1
 -2       596       598       716      2637      2949      2950
 -1      1282    8    0    1
 -2       591       597       717      2617      2951      2952
 -1      1283    8    0    1
 -2       475       476       718      2225      2953      2954
 -1      1284    8    0    1
 -2       476       617       718      2654      2955      2953
 -1      1285    8    0    1
 -2       592       587       719      2636      2956      2957
 -1      1286    8    0    1
 -2       595       593       720      2640      2958      2959
 -1      1287    8    0    1
 -2       585       595       721      2639      2960      2961
 -1      1288    8    0    1
 -2       611       585       722      2633      2962      2963
 -1      1289    8    0    1
 -2       587       596       723      2638      2964      2965
 -1      1290    8    0    1
 -2       594       599       589      2581      2966      2967
 -1      1291    8    0    1
 -2       610       526       724      2645      2968      2969
 -1      1292    8    0    1
 -2       610       724       619      2969      2970      2659
 -1      1293    8    0    1
 -2       599       600       471      2635      2971      2972
 -1      1294    8    0    1
 -2       582       584       725      2630      2973      2974
 -1      1295    8    0    1
 -2       582       725       712      2974      2975      2938
 -1      1296    8    0    1
 -2       460       605       708      2593      2976      2930
 -1      1297    8    0    1
 -2       605       606       726      2596      2977      2978
 -1      1298    8    0    1
 -2       607       608       620      2601      2979      2980
 -1      1299    8    0    1
 -2       600       601       727      2644      2981      2982
 -1      1300    8    0    1
 -2       480       581       728      2613      2983      2984
 -1      1301    8    0    1
 -2       581       707       728      2928      2985      2983
 -1      1302    8    0    1
 -2       601       602       729      2634      2986      2987
 -1      1303    8    0    1
 -2       604       708       484      2931      2988      2662
 -1      1304    8    0    1
 -2       599       471       589      2972      2556      2966
 -1      1305    8    0    1
 -2       708       605       726      2976      2978      2989
 -1      1306    8    0    1
 -2       616       475       718      2651      2954      2990
 -1      1307    8    0    1
 -2       592       719       730      2957      2991      2992
 -1      1308    8    0    1
 -2       592       730       612      2992      2993      2616
 -1      1309    8    0    1
 -2       473       474       731      2219      2994      2995
 -1      1310    8    0    1
 -2       593       715       720      2948      2996      2958
 -1      1311    8    0    1
 -2       487       586       607      2664      2624      2997
 -1      1312    8    0    1
 -2       485       484       708      2251      2988      2998
 -1      1313    8    0    1
 -2       486       485       726      2254      2999      3000
 -1      1314    8    0    1
 -2       603       483       732      2778      3001      3002
 -1      1315    8    0    1
 -2       569       700       733      2906      3003      3004
 -1      1316    8    0    1
 -2       569       733       572      3004      3005      2510
 -1      1317    8    0    1
 -2       658       528       714      2779      2944      3006
 -1      1318    8    0    1
 -2       485       708       726      2998      2989      2999
 -1      1319    8    0    1
 -2       697       480       728      2898      2984      3007
 -1      1320    8    0    1
 -2       711       580       619      2936      2660      3008
 -1      1321    8    0    1
 -2       601       729       727      2987      3009      2981
 -1      1322    8    0    1
 -2       571       572       734      2509      3010      3011
 -1      1323    8    0    1
 -2       696       571       734      2894      3011      3012
 -1      1324    8    0    1
 -2       572       733       734      3005      3013      3010
 -1      1325    8    0    1
 -2       589       473       594      2557      3014      2967
 -1      1326    8    0    1
 -2       615       583       729      2650      3015      3016
 -1      1327    8    0    1
 -2       709       611       722      2932      2963      3017
 -1      1328    8    0    1
 -2       725       584       735      2973      3018      3019
 -1      1329    8    0    1
 -2       584       709       735      2933      3020      3018
 -1      1330    8    0    1
 -2       724       526       712      2968      2939      3021
 -1      1331    8    0    1
 -2       602       710       729      2935      3022      2986
 -1      1332    8    0    1
 -2       482       612       736      2615      3023      3024
 -1      1333    8    0    1
 -2       482       736       715      3024      3025      2947
 -1      1334    8    0    1
 -2       723       596       716      2964      2950      3026
 -1      1335    8    0    1
 -2       722       585       721      2962      2961      3027
 -1      1336    8    0    1
 -2       721       595       737      2960      3028      3029
 -1      1337    8    0    1
 -2       595       720       737      2959      3030      3028
 -1      1338    8    0    1
 -2       597       711       717      2937      3031      2951
 -1      1339    8    0    1
 -2       606       586       486      2619      2663      3032
 -1      1340    8    0    1
 -2       583       588       729      2552      3033      3015
 -1      1341    8    0    1
 -2       614       591       738      2641      3034      3035
 -1      1342    8    0    1
 -2       591       717       738      2952      3036      3034
 -1      1343    8    0    1
 -2       719       587       723      2956      2965      3037
 -1      1344    8    0    1
 -2       472       471       600      2214      2971      3038
 -1      1345    8    0    1
 -2       598       594       473      2618      3014      3039
 -1      1346    8    0    1
 -2       606       486       726      3032      3000      2977
 -1      1347    8    0    1
 -2       620       608       621      2979      3040      2669
 -1      1348    8    0    1
 -2       608       609       739      2604      3041      3042
 -1      1349    8    0    1
 -2       621       608       739      3040      3042      3043
 -1      1350    8    0    1
 -2       609       614       739      2643      3044      3041
 -1      1351    8    0    1
 -2       720       715       740      2996      3045      3046
 -1      1352    8    0    1
 -2       617       618       741      2657      3047      3048
 -1      1353    8    0    1
 -2       622       621       739      2672      3043      3049
 -1      1354    8    0    1
 -2       623       622       742      2675      3050      3051
 -1      1355    8    0    1
 -2       624       623       743      2678      3052      3053
 -1      1356    8    0    1
 -2       623       742       743      3051      3054      3052
 -1      1357    8    0    1
 -2       625       624       744      2681      3055      3056
 -1      1358    8    0    1
 -2       624       743       744      3053      3057      3055
 -1      1359    8    0    1
 -2       626       625       745      2684      3058      3059
 -1      1360    8    0    1
 -2       625       744       745      3056      3060      3058
 -1      1361    8    0    1
 -2       627       626       746      2687      3061      3062
 -1      1362    8    0    1
 -2       626       745       746      3059      3063      3061
 -1      1363    8    0    1
 -2       628       627       747      2690      3064      3065
 -1      1364    8    0    1
 -2       627       746       747      3062      3066      3064
 -1      1365    8    0    1
 -2       629       628       748      2693      3067      3068
 -1      1366    8    0    1
 -2       628       747       748      3065      3069      3067
 -1      1367    8    0    1
 -2       630       629       749      2696      3070      3071
 -1      1368    8    0    1
 -2       629       748       749      3068      3072      3070
 -1      1369    8    0    1
 -2       631       630       750      2699      3073      3074
 -1      1370    8    0    1
 -2       630       749       750      3071      3075      3073
 -1      1371    8    0    1
 -2       632       631       751      2702      3076      3077
 -1      1372    8    0    1
 -2       631       750       751      3074      3078      3076
 -1      1373    8    0    1
 -2       633       632       752      2705      3079      3080
 -1      1374    8    0    1
 -2       632       751       752      3077      3081      3079
 -1      1375    8    0    1
 -2       634       633       753      2708      3082      3083
 -1      1376    8    0    1
 -2       633       752       753      3080      3084      3082
 -1      1377    8    0    1
 -2       635       634       754      2711      3085      3086
 -1      1378    8    0    1
 -2       634       753       754      3083      3087      3085
 -1      1379    8    0    1
 -2       636       635       755      2714      3088      3089
 -1      1380    8    0    1
 -2       635       754       755      3086      3090      3088
 -1      1381    8    0    1
 -2       637       636       756      2717      3091      3092
 -1      1382    8    0    1
 -2       636       755       756      3089      3093      3091
 -1      1383    8    0    1
 -2       638       637       757      2720      3094      3095
 -1      1384    8    0    1
 -2       637       756       757      3092      3096      3094
 -1      1385    8    0    1
 -2       639       638       758      2723      3097      3098
 -1      1386    8    0    1
 -2       638       757       758      3095      3099      3097
 -1      1387    8    0    1
 -2       640       639       759      2726      3100      3101
 -1      1388    8    0    1
 -2       639       758       759      3098      3102      3100
 -1      1389    8    0    1
 -2       641       640       760      2729      3103      3104
 -1      1390    8    0    1
 -2       640       759       760      3101      3105      3103
 -1      1391    8    0    1
 -2       642       641       761      2732      3106      3107
 -1      1392    8    0    1
 -2       641       760       761      3104      3108      3106
 -1      1393    8    0    1
 -2       643       642       762      2735      3109      3110
 -1      1394    8    0    1
 -2       642       761       762      3107      3111      3109
 -1      1395    8    0    1
 -2       644       643       763      2738      3112      3113
 -1      1396    8    0    1
 -2       643       762       763      3110      3114      3112
 -1      1397    8    0    1
 -2       645       644       764      2741      3115      3116
 -1      1398    8    0    1
 -2       644       763       764      3113      3117      3115
 -1      1399    8    0    1
 -2       646       645       765      2744      3118      3119
 -1      1400    8    0    1
 -2       645       764       765      3116      3120      3118
 -1      1401    8    0    1
 -2       647       646       766      2747      3121      3122
 -1      1402    8    0    1
 -2       646       765       766      3119      3123      3121
 -1      1403    8    0    1
 -2       648       647       767      2750      3124      3125
 -1      1404    8    0    1
 -2       647       766       767      3122      3126      3124
 -1      1405    8    0    1
 -2       649       648       768      2753      3127      3128
 -1      1406    8    0    1
 -2       648       767       768      3125      3129      3127
 -1      1407    8    0    1
 -2       650       649       769      2756      3130      3131
 -1      1408    8    0    1
 -2       649       768       769      3128      3132      3130
 -1      1409    8    0    1
 -2       651       650       770      2759      3133      3134
 -1      1410    8    0    1
 -2       650       769       770      3131      3135      3133
 -1      1411    8    0    1
 -2       652       651       771      2762      3136      3137
 -1      1412    8    0    1
 -2       651       770       771      3134      3138      3136
 -1      1413    8    0    1
 -2       653       652       772      2765      3139      3140
 -1      1414    8    0    1
 -2       652       771       772      3137      3141      3139
 -1      1415    8    0    1
 -2       654       653       773      2768      3142      3143
 -1      1416    8    0    1
 -2       653       772       773      3140      3144      3142
 -1      1417    8    0    1
 -2       655       654       774      2771      3145      3146
 -1      1418    8    0    1
 -2       654       773       774      3143      3147      3145
 -1      1419    8    0    1
 -2       656       655       775      2774      3148      3149
 -1      1420    8    0    1
 -2       655       774       775      3146      3150      3148
 -1      1421    8    0    1
 -2       657       656       776      2777      3151      3152
 -1      1422    8    0    1
 -2       656       775       776      3149      3153      3151
 -1      1423    8    0    1
 -2       660       661       777      2788      3154      3155
 -1      1424    8    0    1
 -2       659       660       778      2785      3156      3157
 -1      1425    8    0    1
 -2       660       777       778      3155      3158      3156
 -1      1426    8    0    1
 -2       662       663       779      2794      3159      3160
 -1      1427    8    0    1
 -2       663       664       780      2797      3161      3162
 -1      1428    8    0    1
 -2       663       780       779      3162      3163      3159
 -1      1429    8    0    1
 -2       664       665       781      2800      3164      3165
 -1      1430    8    0    1
 -2       664       781       780      3165      3166      3161
 -1      1431    8    0    1
 -2       665       666       782      2803      3167      3168
 -1      1432    8    0    1
 -2       665       782       781      3168      3169      3164
 -1      1433    8    0    1
 -2       666       667       783      2806      3170      3171
 -1      1434    8    0    1
 -2       666       783       782      3171      3172      3167
 -1      1435    8    0    1
 -2       667       668       784      2809      3173      3174
 -1      1436    8    0    1
 -2       667       784       783      3174      3175      3170
 -1      1437    8    0    1
 -2       668       669       785      2812      3176      3177
 -1      1438    8    0    1
 -2       668       785       784      3177      3178      3173
 -1      1439    8    0    1
 -2       669       670       786      2815      3179      3180
 -1      1440    8    0    1
 -2       669       786       785      3180      3181      3176
 -1      1441    8    0    1
 -2       670       671       787      2818      3182      3183
 -1      1442    8    0    1
 -2       670       787       786      3183      3184      3179
 -1      1443    8    0    1
 -2       671       672       788      2821      3185      3186
 -1      1444    8    0    1
 -2       671       788       787      3186      3187      3182
 -1      1445    8    0    1
 -2       672       673       789      2824      3188      3189
 -1      1446    8    0    1
 -2       672       789       788      3189      3190      3185
 -1      1447    8    0    1
 -2       673       674       790      2827      3191      3192
 -1      1448    8    0    1
 -2       673       790       789      3192      3193      3188
 -1      1449    8    0    1
 -2       674       675       791      2830      3194      3195
 -1      1450    8    0    1
 -2       674       791       790      3195      3196      3191
 -1      1451    8    0    1
 -2       675       676       792      2833      3197      3198
 -1      1452    8    0    1
 -2       675       792       791      3198      3199      3194
 -1      1453    8    0    1
 -2       676       677       793      2836      3200      3201
 -1      1454    8    0    1
 -2       676       793       792      3201      3202      3197
 -1      1455    8    0    1
 -2       677       678       794      2839      3203      3204
 -1      1456    8    0    1
 -2       677       794       793      3204      3205      3200
 -1      1457    8    0    1
 -2       678       679       795      2842      3206      3207
 -1      1458    8    0    1
 -2       678       795       794      3207      3208      3203
 -1      1459    8    0    1
 -2       679       680       796      2845      3209      3210
 -1      1460    8    0    1
 -2       679       796       795      3210      3211      3206
 -1      1461    8    0    1
 -2       680       681       797      2848      3212      3213
 -1      1462    8    0    1
 -2       680       797       796      3213      3214      3209
 -1      1463    8    0    1
 -2       681       682       798      2851      3215      3216
 -1      1464    8    0    1
 -2       681       798       797      3216      3217      3212
 -1      1465    8    0    1
 -2       682       683       799      2854      3218      3219
 -1      1466    8    0    1
 -2       682       799       798      3219      3220      3215
 -1      1467    8    0    1
 -2       683       684       800      2857      3221      3222
 -1      1468    8    0    1
 -2       683       800       799      3222      3223      3218
 -1      1469    8    0    1
 -2       684       685       801      2860      3224      3225
 -1      1470    8    0    1
 -2       684       801       800      3225      3226      3221
 -1      1471    8    0    1
 -2       685       686       802      2863      3227      3228
 -1      1472    8    0    1
 -2       685       802       801      3228      3229      3224
 -1      1473    8    0    1
 -2       686       687       803      2866      3230      3231
 -1      1474    8    0    1
 -2       686       803       802      3231      3232      3227
 -1      1475    8    0    1
 -2       687       688       804      2869      3233      3234
 -1      1476    8    0    1
 -2       687       804       803      3234      3235      3230
 -1      1477    8    0    1
 -2       688       689       805      2872      3236      3237
 -1      1478    8    0    1
 -2       688       805       804      3237      3238      3233
 -1      1479    8    0    1
 -2       689       690       806      2875      3239      3240
 -1      1480    8    0    1
 -2       689       806       805      3240      3241      3236
 -1      1481    8    0    1
 -2       690       691       807      2878      3242      3243
 -1      1482    8    0    1
 -2       690       807       806      3243      3244      3239
 -1      1483    8    0    1
 -2       691       692       808      2881      3245      3246
 -1      1484    8    0    1
 -2       691       808       807      3246      3247      3242
 -1      1485    8    0    1
 -2       692       693       809      2884      3248      3249
 -1      1486    8    0    1
 -2       692       809       808      3249      3250      3245
 -1      1487    8    0    1
 -2       693       694       810      2887      3251      3252
 -1      1488    8    0    1
 -2       693       810       809      3252      3253      3248
 -1      1489    8    0    1
 -2       694       695       811      2890      3254      3255
 -1      1490    8    0    1
 -2       694       811       810      3255      3256      3251
 -1      1491    8    0    1
 -2       695       696       812      2893      3257      3258
 -1      1492    8    0    1
 -2       811       695       812      3254      3258      3259
 -1      1493    8    0    1
 -2       696       734       812      3012      3260      3257
 -1      1494    8    0    1
 -2       728       707       813      2985      3261      3262
 -1      1495    8    0    1
 -2       699       657       706      2904      3263      2926
 -1      1496    8    0    1
 -2       703       704       814      2919      3264      3265
 -1      1497    8    0    1
 -2       698       701       815      2909      3266      3267
 -1      1498    8    0    1
 -2       709       722       816      3017      3268      3269
 -1      1499    8    0    1
 -2       707       658       740      2929      3270      3271
 -1      1500    8    0    1
 -2       724       712       817      3021      3272      3273
 -1      1501    8    0    1
 -2       487       607       620      2997      2980      2665
 -1      1502    8    0    1
 -2       713       659       818      2942      3274      3275
 -1      1503    8    0    1
 -2       659       778       818      3157      3276      3274
 -1      1504    8    0    1
 -2       661       662       819      2791      3277      3278
 -1      1505    8    0    1
 -2       777       661       819      3154      3278      3279
 -1      1506    8    0    1
 -2       662       779       819      3160      3280      3277
 -1      1507    8    0    1
 -2       704       705       820      2922      3281      3282
 -1      1508    8    0    1
 -2       704       820       814      3282      3283      3264
 -1      1509    8    0    1
 -2       658       714       737      3006      3284      3285
 -1      1510    8    0    1
 -2       714       713       821      2945      3286      3287
 -1      1511    8    0    1
 -2       737       714       821      3284      3287      3288
 -1      1512    8    0    1
 -2       713       818       821      3275      3289      3286
 -1      1513    8    0    1
 -2       722       721       822      3027      3290      3291
 -1      1514    8    0    1
 -2       717       711       823      3031      3292      3293
 -1      1515    8    0    1
 -2       472       600       727      3038      2982      3294
 -1      1516    8    0    1
 -2       619       724       824      2970      3295      3296
 -1      1517    8    0    1
 -2       712       725       825      2975      3297      3298
 -1      1518    8    0    1
 -2       711       619       826      3008      3299      3300
 -1      1519    8    0    1
 -2       618       697       741      2897      3301      3047
 -1      1520    8    0    1
 -2       701       703       827      2916      3302      3303
 -1      1521    8    0    1
 -2       815       701       827      3266      3303      3304
 -1      1522    8    0    1
 -2       703       814       827      3265      3305      3302
 -1      1523    8    0    1
 -2       472       727       588      3294      3306      2553
 -1      1524    8    0    1
 -2       588       727       729      3306      3009      3033
 -1      1525    8    0    1
 -2       730       719       828      2991      3307      3308
 -1      1526    8    0    1
 -2       731       474       716      2994      3309      3310
 -1      1527    8    0    1
 -2       622       739       742      3049      3311      3050
 -1      1528    8    0    1
 -2       733       700       829      3003      3312      3313
 -1      1529    8    0    1
 -2       732       483       615      3001      2946      3314
 -1      1530    8    0    1
 -2       697       728       741      3007      3315      3301
 -1      1531    8    0    1
 -2       820       705       776      3281      3316      3317
 -1      1532    8    0    1
 -2       813       707       740      3261      3271      3318
 -1      1533    8    0    1
 -2       706       657       776      3263      3152      3319
 -1      1534    8    0    1
 -2       698       815       830      3267      3320      3321
 -1      1535    8    0    1
 -2       698       830       702      3321      3322      2913
 -1      1536    8    0    1
 -2       709       816       831      3269      3323      3324
 -1      1537    8    0    1
 -2       709       831       735      3324      3325      3020
 -1      1538    8    0    1
 -2       728       813       741      3262      3326      3315
 -1      1539    8    0    1
 -2       705       706       776      2925      3319      3316
 -1      1540    8    0    1
 -2       724       817       824      3273      3327      3295
 -1      1541    8    0    1
 -2       716       474       616      3309      2652      3328
 -1      1542    8    0    1
 -2       826       619       832      3299      3329      3330
 -1      1543    8    0    1
 -2       619       824       832      3296      3331      3329
 -1      1544    8    0    1
 -2       736       612       730      3023      2993      3332
 -1      1545    8    0    1
 -2       737       720       740      3030      3046      3333
 -1      1546    8    0    1
 -2       825       725       735      3297      3019      3334
 -1      1547    8    0    1
 -2       718       617       828      2955      3335      3336
 -1      1548    8    0    1
 -2       828       719       718      3307      3337      3336
 -1      1549    8    0    1
 -2       823       711       826      3292      3300      3338
 -1      1550    8    0    1
 -2       716       598       731      2949      3339      3310
 -1      1551    8    0    1
 -2       738       717       833      3036      3340      3341
 -1      1552    8    0    1
 -2       717       823       833      3293      3342      3340
 -1      1553    8    0    1
 -2       722       822       816      3291      3343      3268
 -1      1554    8    0    1
 -2       817       712       834      3272      3344      3345
 -1      1555    8    0    1
 -2       712       825       834      3298      3346      3344
 -1      1556    8    0    1
 -2       598       473       731      3039      2995      3339
 -1      1557    8    0    1
 -2       740       715       813      3045      3347      3318
 -1      1558    8    0    1
 -2       700       702       835      2912      3348      3349
 -1      1559    8    0    1
 -2       829       700       835      3312      3349      3350
 -1      1560    8    0    1
 -2       702       830       835      3322      3351      3348
 -1      1561    8    0    1
 -2       828       617       741      3335      3048      3352
 -1      1562    8    0    1
 -2       742       739       614      3311      3044      3353
 -1      1563    8    0    1
 -2       732       615       729      3314      3016      3354
 -1      1564    8    0    1
 -2       824       817       836      3327      3355      3356
 -1      1565    8    0    1
 -2       603       732       710      3002      3357      2934
 -1      1566    8    0    1
 -2       781       782       837      3169      3358      3359
 -1      1567    8    0    1
 -2       814       820       838      3283      3360      3361
 -1      1568    8    0    1
 -2       744       743       839      3057      3362      3363
 -1      1569    8    0    1
 -2       745       744       840      3060      3364      3365
 -1      1570    8    0    1
 -2       744       839       840      3363      3366      3364
 -1      1571    8    0    1
 -2       746       745       841      3063      3367      3368
 -1      1572    8    0    1
 -2       745       840       841      3365      3369      3367
 -1      1573    8    0    1
 -2       747       746       842      3066      3370      3371
 -1      1574    8    0    1
 -2       746       841       842      3368      3372      3370
 -1      1575    8    0    1
 -2       748       747       843      3069      3373      3374
 -1      1576    8    0    1
 -2       747       842       843      3371      3375      3373
 -1      1577    8    0    1
 -2       749       748       844      3072      3376      3377
 -1      1578    8    0    1
 -2       748       843       844      3374      3378      3376
 -1      1579    8    0    1
 -2       750       749       845      3075      3379      3380
 -1      1580    8    0    1
 -2       749       844       845      3377      3381      3379
 -1      1581    8    0    1
 -2       751       750       846      3078      3382      3383
 -1      1582    8    0    1
 -2       750       845       846      3380      3384      3382
 -1      1583    8    0    1
 -2       752       751       847      3081      3385      3386
 -1      1584    8    0    1
 -2       751       846       847      3383      3387      3385
 -1      1585    8    0    1
 -2       753       752       848      3084      3388      3389
 -1      1586    8    0    1
 -2       752       847       848      3386      3390      3388
 -1      1587    8    0    1
 -2       754       753       849      3087      3391      3392
 -1      1588    8    0    1
 -2       753       848       849      3389      3393      3391
 -1      1589    8    0    1
 -2       755       754       850      3090      3394      3395
 -1      1590    8    0    1
 -2       754       849       850      3392      3396      3394
 -1      1591    8    0    1
 -2       756       755       851      3093      3397      3398
 -1      1592    8    0    1
 -2       755       850       851      3395      3399      3397
 -1      1593    8    0    1
 -2       757       756       852      3096      3400      3401
 -1      1594    8    0    1
 -2       756       851       852      3398      3402      3400
 -1      1595    8    0    1
 -2       758       757       853      3099      3403      3404
 -1      1596    8    0    1
 -2       757       852       853      3401      3405      3403
 -1      1597    8    0    1
 -2       759       758       854      3102      3406      3407
 -1      1598    8    0    1
 -2       758       853       854      3404      3408      3406
 -1      1599    8    0    1
 -2       760       759       855      3105      3409      3410
 -1      1600    8    0    1
 -2       759       854       855      3407      3411      3409
 -1      1601    8    0    1
 -2       761       760       856      3108      3412      3413
 -1      1602    8    0    1
 -2       760       855       856      3410      3414      3412
 -1      1603    8    0    1
 -2       762       761       857      3111      3415      3416
 -1      1604    8    0    1
 -2       761       856       857      3413      3417      3415
 -1      1605    8    0    1
 -2       763       762       858      3114      3418      3419
 -1      1606    8    0    1
 -2       762       857       858      3416      3420      3418
 -1      1607    8    0    1
 -2       764       763       859      3117      3421      3422
 -1      1608    8    0    1
 -2       763       858       859      3419      3423      3421
 -1      1609    8    0    1
 -2       765       764       860      3120      3424      3425
 -1      1610    8    0    1
 -2       764       859       860      3422      3426      3424
 -1      1611    8    0    1
 -2       766       765       861      3123      3427      3428
 -1      1612    8    0    1
 -2       765       860       861      3425      3429      3427
 -1      1613    8    0    1
 -2       767       766       862      3126      3430      3431
 -1      1614    8    0    1
 -2       766       861       862      3428      3432      3430
 -1      1615    8    0    1
 -2       768       767       863      3129      3433      3434
 -1      1616    8    0    1
 -2       767       862       863      3431      3435      3433
 -1      1617    8    0    1
 -2       769       768       864      3132      3436      3437
 -1      1618    8    0    1
 -2       768       863       864      3434      3438      3436
 -1      1619    8    0    1
 -2       770       769       865      3135      3439      3440
 -1      1620    8    0    1
 -2       769       864       865      3437      3441      3439
 -1      1621    8    0    1
 -2       771       770       866      3138      3442      3443
 -1      1622    8    0    1
 -2       770       865       866      3440      3444      3442
 -1      1623    8    0    1
 -2       772       771       867      3141      3445      3446
 -1      1624    8    0    1
 -2       771       866       867      3443      3447      3445
 -1      1625    8    0    1
 -2       773       772       868      3144      3448      3449
 -1      1626    8    0    1
 -2       772       867       868      3446      3450      3448
 -1      1627    8    0    1
 -2       774       773       869      3147      3451      3452
 -1      1628    8    0    1
 -2       773       868       869      3449      3453      3451
 -1      1629    8    0    1
 -2       775       774       870      3150      3454      3455
 -1      1630    8    0    1
 -2       774       869       870      3452      3456      3454
 -1      1631    8    0    1
 -2       776       775       820      3153      3457      3317
 -1      1632    8    0    1
 -2       780       781       871      3166      3458      3459
 -1      1633    8    0    1
 -2       781       837       871      3359      3460      3458
 -1      1634    8    0    1
 -2       779       780       872      3163      3461      3462
 -1      1635    8    0    1
 -2       780       871       872      3459      3463      3461
 -1      1636    8    0    1
 -2       782       783       873      3172      3464      3465
 -1      1637    8    0    1
 -2       782       873       837      3465      3466      3358
 -1      1638    8    0    1
 -2       783       784       874      3175      3467      3468
 -1      1639    8    0    1
 -2       783       874       873      3468      3469      3464
 -1      1640    8    0    1
 -2       784       785       875      3178      3470      3471
 -1      1641    8    0    1
 -2       784       875       874      3471      3472      3467
 -1      1642    8    0    1
 -2       785       786       876      3181      3473      3474
 -1      1643    8    0    1
 -2       785       876       875      3474      3475      3470
 -1      1644    8    0    1
 -2       786       787       877      3184      3476      3477
 -1      1645    8    0    1
 -2       786       877       876      3477      3478      3473
 -1      1646    8    0    1
 -2       787       788       878      3187      3479      3480
 -1      1647    8    0    1
 -2       787       878       877      3480      3481      3476
 -1      1648    8    0    1
 -2       788       789       879      3190      3482      3483
 -1      1649    8    0    1
 -2       788       879       878      3483      3484      3479
 -1      1650    8    0    1
 -2       789       790       880      3193      3485      3486
 -1      1651    8    0    1
 -2       789       880       879      3486      3487      3482
 -1      1652    8    0    1
 -2       790       791       881      3196      3488      3489
 -1      1653    8    0    1
 -2       790       881       880      3489      3490      3485
 -1      1654    8    0    1
 -2       791       792       882      3199      3491      3492
 -1      1655    8    0    1
 -2       791       882       881      3492      3493      3488
 -1      1656    8    0    1
 -2       792       793       883      3202      3494      3495
 -1      1657    8    0    1
 -2       792       883       882      3495      3496      3491
 -1      1658    8    0    1
 -2       793       794       884      3205      3497      3498
 -1      1659    8    0    1
 -2       793       884       883      3498      3499      3494
 -1      1660    8    0    1
 -2       794       795       885      3208      3500      3501
 -1      1661    8    0    1
 -2       794       885       884      3501      3502      3497
 -1      1662    8    0    1
 -2       795       796       886      3211      3503      3504
 -1      1663    8    0    1
 -2       795       886       885      3504      3505      3500
 -1      1664    8    0    1
 -2       796       797       887      3214      3506      3507
 -1      1665    8    0    1
 -2       796       887       886      3507      3508      3503
 -1      1666    8    0    1
 -2       797       798       888      3217      3509      3510
 -1      1667    8    0    1
 -2       797       888       887      3510      3511      3506
 -1      1668    8    0    1
 -2       798       799       889      3220      3512      3513
 -1      1669    8    0    1
 -2       798       889       888      3513      3514      3509
 -1      1670    8    0    1
 -2       799       800       890      3223      3515      3516
 -1      1671    8    0    1
 -2       799       890       889      3516      3517      3512
 -1      1672    8    0    1
 -2       800       801       891      3226      3518      3519
 -1      1673    8    0    1
 -2       800       891       890      3519      3520      3515
 -1      1674    8    0    1
 -2       801       802       892      3229      3521      3522
 -1      1675    8    0    1
 -2       801       892       891      3522      3523      3518
 -1      1676    8    0    1
 -2       802       803       893      3232      3524      3525
 -1      1677    8    0    1
 -2       802       893       892      3525      3526      3521
 -1      1678    8    0    1
 -2       803       804       894      3235      3527      3528
 -1      1679    8    0    1
 -2       803       894       893      3528      3529      3524
 -1      1680    8    0    1
 -2       804       805       895      3238      3530      3531
 -1      1681    8    0    1
 -2       804       895       894      3531      3532      3527
 -1      1682    8    0    1
 -2       805       806       896      3241      3533      3534
 -1      1683    8    0    1
 -2       805       896       895      3534      3535      3530
 -1      1684    8    0    1
 -2       806       807       897      3244      3536      3537
 -1      1685    8    0    1
 -2       806       897       896      3537      3538      3533
 -1      1686    8    0    1
 -2       807       808       898      3247      3539      3540
 -1      1687    8    0    1
 -2       807       898       897      3540      3541      3536
 -1      1688    8    0    1
 -2       808       809       899      3250      3542      3543
 -1      1689    8    0    1
 -2       808       899       898      3543      3544      3539
 -1      1690    8    0    1
 -2       809       810       900      3253      3545      3546
 -1      1691    8    0    1
 -2       809       900       899      3546      3547      3542
 -1      1692    8    0    1
 -2       810       811       901      3256      3548      3549
 -1      1693    8    0    1
 -2       810       901       900      3549      3550      3545
 -1      1694    8    0    1
 -2       658       737       740      3285      3333      3270
 -1      1695    8    0    1
 -2       734       733       902      3013      3551      3552
 -1      1696    8    0    1
 -2       812       734       902      3260      3552      3553
 -1      1697    8    0    1
 -2       733       829       902      3313      3554      3551
 -1      1698    8    0    1
 -2       616       718       723      2990      3555      3556
 -1      1699    8    0    1
 -2       718       719       723      3337      3037      3555
 -1      1700    8    0    1
 -2       778       777       903      3158      3557      3558
 -1      1701    8    0    1
 -2       822       721       737      3290      3029      3559
 -1      1702    8    0    1
 -2       828       741       730      3352      3560      3308
 -1      1703    8    0    1
 -2       723       716       616      3026      3328      3556
 -1      1704    8    0    1
 -2       825       735       904      3334      3561      3562
 -1      1705    8    0    1
 -2       730       741       736      3560      3563      3332
 -1      1706    8    0    1
 -2       823       826       905      3338      3564      3565
 -1      1707    8    0    1
 -2       820       775       870      3457      3455      3566
 -1      1708    8    0    1
 -2       818       778       906      3276      3567      3568
 -1      1709    8    0    1
 -2       821       818       906      3289      3568      3569
 -1      1710    8    0    1
 -2       778       903       906      3558      3570      3567
 -1      1711    8    0    1
 -2       742       614       738      3353      3035      3571
 -1      1712    8    0    1
 -2       836       817       834      3355      3345      3572
 -1      1713    8    0    1
 -2       814       838       907      3361      3573      3574
 -1      1714    8    0    1
 -2       814       907       827      3574      3575      3305
 -1      1715    8    0    1
 -2       825       904       908      3562      3576      3577
 -1      1716    8    0    1
 -2       825       908       834      3577      3578      3346
 -1      1717    8    0    1
 -2       829       835       909      3350      3579      3580
 -1      1718    8    0    1
 -2       777       819       910      3279      3581      3582
 -1      1719    8    0    1
 -2       777       910       903      3582      3583      3557
 -1      1720    8    0    1
 -2       811       812       902      3259      3553      3584
 -1      1721    8    0    1
 -2       742       738       833      3571      3341      3585
 -1      1722    8    0    1
 -2       830       815       911      3320      3586      3587
 -1      1723    8    0    1
 -2       831       816       906      3323      3588      3589
 -1      1724    8    0    1
 -2       735       831       904      3325      3590      3561
 -1      1725    8    0    1
 -2       832       824       912      3331      3591      3592
 -1      1726    8    0    1
 -2       824       836       912      3356      3593      3591
 -1      1727    8    0    1
 -2       822       737       821      3559      3288      3594
 -1      1728    8    0    1
 -2       819       779       913      3280      3595      3596
 -1      1729    8    0    1
 -2       910       819       913      3581      3596      3597
 -1      1730    8    0    1
 -2       779       872       913      3462      3598      3595
 -1      1731    8    0    1
 -2       833       823       905      3342      3565      3599
 -1      1732    8    0    1
 -2       816       822       906      3343      3600      3588
 -1      1733    8    0    1
 -2       829       909       901      3580      3601      3602
 -1      1734    8    0    1
 -2       902       829       901      3554      3602      3603
 -1      1735    8    0    1
 -2       742       833       743      3585      3604      3054
 -1      1736    8    0    1
 -2       905       826       832      3564      3330      3605
 -1      1737    8    0    1
 -2       813       715       736      3347      3025      3606
 -1      1738    8    0    1
 -2       813       736       741      3606      3563      3326
 -1      1739    8    0    1
 -2       743       833       839      3604      3607      3362
 -1      1740    8    0    1
 -2       911       815       914      3586      3608      3609
 -1      1741    8    0    1
 -2       815       827       914      3304      3610      3608
 -1      1742    8    0    1
 -2       830       911       915      3587      3611      3612
 -1      1743    8    0    1
 -2       830       915       835      3612      3613      3351
 -1      1744    8    0    1
 -2       838       820       870      3360      3566      3614
 -1      1745    8    0    1
 -2       840       839       916      3366      3615      3616
 -1      1746    8    0    1
 -2       710       732       729      3357      3354      3022
 -1      1747    8    0    1
 -2       873       874       917      3469      3617      3618
 -1      1748    8    0    1
 -2       909       835       915      3579      3613      3619
 -1      1749    8    0    1
 -2       841       840       918      3369      3620      3621
 -1      1750    8    0    1
 -2       840       916       918      3616      3622      3620
 -1      1751    8    0    1
 -2       842       841       919      3372      3623      3624
 -1      1752    8    0    1
 -2       841       918       919      3621      3625      3623
 -1      1753    8    0    1
 -2       843       842       920      3375      3626      3627
 -1      1754    8    0    1
 -2       842       919       920      3624      3628      3626
 -1      1755    8    0    1
 -2       844       843       921      3378      3629      3630
 -1      1756    8    0    1
 -2       843       920       921      3627      3631      3629
 -1      1757    8    0    1
 -2       845       844       922      3381      3632      3633
 -1      1758    8    0    1
 -2       844       921       922      3630      3634      3632
 -1      1759    8    0    1
 -2       846       845       923      3384      3635      3636
 -1      1760    8    0    1
 -2       845       922       923      3633      3637      3635
 -1      1761    8    0    1
 -2       847       846       924      3387      3638      3639
 -1      1762    8    0    1
 -2       846       923       924      3636      3640      3638
 -1      1763    8    0    1
 -2       848       847       925      3390      3641      3642
 -1      1764    8    0    1
 -2       847       924       925      3639      3643      3641
 -1      1765    8    0    1
 -2       849       848       926      3393      3644      3645
 -1      1766    8    0    1
 -2       848       925       926      3642      3646      3644
 -1      1767    8    0    1
 -2       850       849       927      3396      3647      3648
 -1      1768    8    0    1
 -2       849       926       927      3645      3649      3647
 -1      1769    8    0    1
 -2       851       850       928      3399      3650      3651
 -1      1770    8    0    1
 -2       850       927       928      3648      3652      3650
 -1      1771    8    0    1
 -2       852       851       929      3402      3653      3654
 -1      1772    8    0    1
 -2       851       928       929      3651      3655      3653
 -1      1773    8    0    1
 -2       853       852       930      3405      3656      3657
 -1      1774    8    0    1
 -2       852       929       930      3654      3658      3656
 -1      1775    8    0    1
 -2       854       853       931      3408      3659      3660
 -1      1776    8    0    1
 -2       853       930       931      3657      3661      3659
 -1      1777    8    0    1
 -2       855       854       932      3411      3662      3663
 -1      1778    8    0    1
 -2       854       931       932      3660      3664      3662
 -1      1779    8    0    1
 -2       856       855       933      3414      3665      3666
 -1      1780    8    0    1
 -2       855       932       933      3663      3667      3665
 -1      1781    8    0    1
 -2       857       856       934      3417      3668      3669
 -1      1782    8    0    1
 -2       856       933       934      3666      3670      3668
 -1      1783    8    0    1
 -2       858       857       935      3420      3671      3672
 -1      1784    8    0    1
 -2       857       934       935      3669      3673      3671
 -1      1785    8    0    1
 -2       859       858       936      3423      3674      3675
 -1      1786    8    0    1
 -2       858       935       936      3672      3676      3674
 -1      1787    8    0    1
 -2       860       859       937      3426      3677      3678
 -1      1788    8    0    1
 -2       859       936       937      3675      3679      3677
 -1      1789    8    0    1
 -2       861       860       938      3429      3680      3681
 -1      1790    8    0    1
 -2       860       937       938      3678      3682      3680
 -1      1791    8    0    1
 -2       862       861       939      3432      3683      3684
 -1      1792    8    0    1
 -2       861       938       939      3681      3685      3683
 -1      1793    8    0    1
 -2       863       862       940      3435      3686      3687
 -1      1794    8    0    1
 -2       862       939       940      3684      3688      3686
 -1      1795    8    0    1
 -2       864       863       941      3438      3689      3690
 -1      1796    8    0    1
 -2       863       940       941      3687      3691      3689
 -1      1797    8    0    1
 -2       865       864       942      3441      3692      3693
 -1      1798    8    0    1
 -2       864       941       942      3690      3694      3692
 -1      1799    8    0    1
 -2       866       865       943      3444      3695      3696
 -1      1800    8    0    1
 -2       865       942       943      3693      3697      3695
 -1      1801    8    0    1
 -2       867       866       944      3447      3698      3699
 -1      1802    8    0    1
 -2       866       943       944      3696      3700      3698
 -1      1803    8    0    1
 -2       868       867       945      3450      3701      3702
 -1      1804    8    0    1
 -2       867       944       945      3699      3703      3701
 -1      1805    8    0    1
 -2       869       868       946      3453      3704      3705
 -1      1806    8    0    1
 -2       868       945       946      3702      3706      3704
 -1      1807    8    0    1
 -2       870       869       947      3456      3707      3708
 -1      1808    8    0    1
 -2       869       946       947      3705      3709      3707
 -1      1809    8    0    1
 -2       871       837       948      3460      3710      3711
 -1      1810    8    0    1
 -2       872       871       949      3463      3712      3713
 -1      1811    8    0    1
 -2       871       948       949      3711      3714      3712
 -1      1812    8    0    1
 -2       874       875       950      3472      3715      3716
 -1      1813    8    0    1
 -2       874       950       917      3716      3717      3617
 -1      1814    8    0    1
 -2       875       876       951      3475      3718      3719
 -1      1815    8    0    1
 -2       875       951       950      3719      3720      3715
 -1      1816    8    0    1
 -2       876       877       952      3478      3721      3722
 -1      1817    8    0    1
 -2       876       952       951      3722      3723      3718
 -1      1818    8    0    1
 -2       877       878       953      3481      3724      3725
 -1      1819    8    0    1
 -2       877       953       952      3725      3726      3721
 -1      1820    8    0    1
 -2       878       879       954      3484      3727      3728
 -1      1821    8    0    1
 -2       878       954       953      3728      3729      3724
 -1      1822    8    0    1
 -2       879       880       955      3487      3730      3731
 -1      1823    8    0    1
 -2       879       955       954      3731      3732      3727
 -1      1824    8    0    1
 -2       880       881       956      3490      3733      3734
 -1      1825    8    0    1
 -2       880       956       955      3734      3735      3730
 -1      1826    8    0    1
 -2       881       882       957      3493      3736      3737
 -1      1827    8    0    1
 -2       881       957       956      3737      3738      3733
 -1      1828    8    0    1
 -2       882       883       958      3496      3739      3740
 -1      1829    8    0    1
 -2       882       958       957      3740      3741      3736
 -1      1830    8    0    1
 -2       883       884       959      3499      3742      3743
 -1      1831    8    0    1
 -2       883       959       958      3743      3744      3739
 -1      1832    8    0    1
 -2       884       885       960      3502      3745      3746
 -1      1833    8    0    1
 -2       884       960       959      3746      3747      3742
 -1      1834    8    0    1
 -2       885       886       961      3505      3748      3749
 -1      1835    8    0    1
 -2       885       961       960      3749      3750      3745
 -1      1836    8    0    1
 -2       886       887       962      3508      3751      3752
 -1      1837    8    0    1
 -2       886       962       961      3752      3753      3748
 -1      1838    8    0    1
 -2       887       888       963      3511      3754      3755
 -1      1839    8    0    1
 -2       887       963       962      3755      3756      3751
 -1      1840    8    0    1
 -2       888       889       964      3514      3757      3758
 -1      1841    8    0    1
 -2       888       964       963      3758      3759      3754
 -1      1842    8    0    1
 -2       889       890       965      3517      3760      3761
 -1      1843    8    0    1
 -2       889       965       964      3761      3762      3757
 -1      1844    8    0    1
 -2       890       891       966      3520      3763      3764
 -1      1845    8    0    1
 -2       890       966       965      3764      3765      3760
 -1      1846    8    0    1
 -2       891       892       967      3523      3766      3767
 -1      1847    8    0    1
 -2       891       967       966      3767      3768      3763
 -1      1848    8    0    1
 -2       892       893       968      3526      3769      3770
 -1      1849    8    0    1
 -2       892       968       967      3770      3771      3766
 -1      1850    8    0    1
 -2       893       894       969      3529      3772      3773
 -1      1851    8    0    1
 -2       893       969       968      3773      3774      3769
 -1      1852    8    0    1
 -2       894       895       970      3532      3775      3776
 -1      1853    8    0    1
 -2       894       970       969      3776      3777      3772
 -1      1854    8    0    1
 -2       895       896       971      3535      3778      3779
 -1      1855    8    0    1
 -2       895       971       970      3779      3780      3775
 -1      1856    8    0    1
 -2       896       897       972      3538      3781      3782
 -1      1857    8    0    1
 -2       896       972       971      3782      3783      3778
 -1      1858    8    0    1
 -2       897       898       973      3541      3784      3785
 -1      1859    8    0    1
 -2       897       973       972      3785      3786      3781
 -1      1860    8    0    1
 -2       898       899       974      3544      3787      3788
 -1      1861    8    0    1
 -2       898       974       973      3788      3789      3784
 -1      1862    8    0    1
 -2       899       900       975      3547      3790      3791
 -1      1863    8    0    1
 -2       899       975       974      3791      3792      3787
 -1      1864    8    0    1
 -2       900       901       976      3550      3793      3794
 -1      1865    8    0    1
 -2       975       900       976      3790      3794      3795
 -1      1866    8    0    1
 -2       901       909       976      3601      3796      3793
 -1      1867    8    0    1
 -2       901       811       902      3548      3584      3603
 -1      1868    8    0    1
 -2       833       905       839      3599      3797      3607
 -1      1869    8    0    1
 -2       836       834       977      3572      3798      3799
 -1      1870    8    0    1
 -2       839       905       916      3797      3800      3615
 -1      1871    8    0    1
 -2       838       870       947      3614      3708      3801
 -1      1872    8    0    1
 -2       837       873       978      3466      3802      3803
 -1      1873    8    0    1
 -2       837       978       948      3803      3804      3710
 -1      1874    8    0    1
 -2       905       832       979      3605      3805      3806
 -1      1875    8    0    1
 -2       916       905       979      3800      3806      3807
 -1      1876    8    0    1
 -2       832       912       979      3592      3808      3805
 -1      1877    8    0    1
 -2       838       947       907      3801      3809      3573
 -1      1878    8    0    1
 -2       909       915       980      3619      3810      3811
 -1      1879    8    0    1
 -2       909       980       976      3811      3812      3796
 -1      1880    8    0    1
 -2       906       903       831      3570      3813      3589
 -1      1881    8    0    1
 -2       872       949       981      3713      3814      3815
 -1      1882    8    0    1
 -2       872       981       913      3815      3816      3598
 -1      1883    8    0    1
 -2       831       903       904      3813      3817      3590
 -1      1884    8    0    1
 -2       914       827       907      3610      3575      3818
 -1      1885    8    0    1
 -2       915       911       982      3611      3819      3820
 -1      1886    8    0    1
 -2       915       982       980      3820      3821      3810
 -1      1887    8    0    1
 -2       912       836       983      3593      3822      3823
 -1      1888    8    0    1
 -2       836       977       983      3799      3824      3822
 -1      1889    8    0    1
 -2       977       834       984      3798      3825      3826
 -1      1890    8    0    1
 -2       834       908       984      3578      3827      3825
 -1      1891    8    0    1
 -2       911       914       985      3609      3828      3829
 -1      1892    8    0    1
 -2       911       985       982      3829      3830      3819
 -1      1893    8    0    1
 -2       873       917       978      3618      3831      3802
 -1      1894    8    0    1
 -2       904       903       910      3817      3583      3832
 -1      1895    8    0    1
 -2       822       821       906      3594      3569      3600
 -1      1896    8    0    1
 -2       904       910       986      3832      3833      3834
 -1      1897    8    0    1
 -2       908       904       986      3576      3834      3835
 -1      1898    8    0    1
 -2       910       913       986      3597      3836      3833
 -1      1899    8    0    1
 -2       949       948       987      3714      3837      3838
 -1      1900    8    0    1
 -2       918       916       988      3622      3839      3840
 -1      1901    8    0    1
 -2       916       979       988      3807      3841      3839
 -1      1902    8    0    1
 -2       919       918       989      3625      3842      3843
 -1      1903    8    0    1
 -2       918       988       989      3840      3844      3842
 -1      1904    8    0    1
 -2       920       919       990      3628      3845      3846
 -1      1905    8    0    1
 -2       919       989       990      3843      3847      3845
 -1      1906    8    0    1
 -2       921       920       991      3631      3848      3849
 -1      1907    8    0    1
 -2       920       990       991      3846      3850      3848
 -1      1908    8    0    1
 -2       922       921       992      3634      3851      3852
 -1      1909    8    0    1
 -2       921       991       992      3849      3853      3851
 -1      1910    8    0    1
 -2       923       922       993      3637      3854      3855
 -1      1911    8    0    1
 -2       922       992       993      3852      3856      3854
 -1      1912    8    0    1
 -2       924       923       994      3640      3857      3858
 -1      1913    8    0    1
 -2       923       993       994      3855      3859      3857
 -1      1914    8    0    1
 -2       925       924       995      3643      3860      3861
 -1      1915    8    0    1
 -2       924       994       995      3858      3862      3860
 -1      1916    8    0    1
 -2       926       925       996      3646      3863      3864
 -1      1917    8    0    1
 -2       925       995       996      3861      3865      3863
 -1      1918    8    0    1
 -2       927       926       997      3649      3866      3867
 -1      1919    8    0    1
 -2       926       996       997      3864      3868      3866
 -1      1920    8    0    1
 -2       928       927       998      3652      3869      3870
 -1      1921    8    0    1
 -2       927       997       998      3867      3871      3869
 -1      1922    8    0    1
 -2       929       928       999      3655      3872      3873
 -1      1923    8    0    1
 -2       928       998       999      3870      3874      3872
 -1      1924    8    0    1
 -2       930       929      1000      3658      3875      3876
 -1      1925    8    0    1
 -2       929       999      1000      3873      3877      3875
 -1      1926    8    0    1
 -2       931       930      1001      3661      3878      3879
 -1      1927    8    0    1
 -2       930      1000      1001      3876      3880      3878
 -1      1928    8    0    1
 -2       932       931      1002      3664      3881      3882
 -1      1929    8    0    1
 -2       931      1001      1002      3879      3883      3881
 -1      1930    8    0    1
 -2       933       932      1003      3667      3884      3885
 -1      1931    8    0    1
 -2       932      1002      1003      3882      3886      3884
 -1      1932    8    0    1
 -2       934       933      1004      3670      3887      3888
 -1      1933    8    0    1
 -2       933      1003      1004      3885      3889      3887
 -1      1934    8    0    1
 -2       935       934      1005      3673      3890      3891
 -1      1935    8    0    1
 -2       934      1004      1005      3888      3892      3890
 -1      1936    8    0    1
 -2       936       935      1006      3676      3893      3894
 -1      1937    8    0    1
 -2       935      1005      1006      3891      3895      3893
 -1      1938    8    0    1
 -2       937       936      1007      3679      3896      3897
 -1      1939    8    0    1
 -2       936      1006      1007      3894      3898      3896
 -1      1940    8    0    1
 -2       938       937      1008      3682      3899      3900
 -1      1941    8    0    1
 -2       937      1007      1008      3897      3901      3899
 -1      1942    8    0    1
 -2       939       938      1009      3685      3902      3903
 -1      1943    8    0    1
 -2       938      1008      1009      3900      3904      3902
 -1      1944    8    0    1
 -2       940       939      1010      3688      3905      3906
 -1      1945    8    0    1
 -2       939      1009      1010      3903      3907      3905
 -1      1946    8    0    1
 -2       941       940      1011      3691      3908      3909
 -1      1947    8    0    1
 -2       940      1010      1011      3906      3910      3908
 -1      1948    8    0    1
 -2       942       941      1012      3694      3911      3912
 -1      1949    8    0    1
 -2       941      1011      1012      3909      3913      3911
 -1      1950    8    0    1
 -2       943       942      1013      3697      3914      3915
 -1      1951    8    0    1
 -2       942      1012      1013      3912      3916      3914
 -1      1952    8    0    1
 -2       944       943      1014      3700      3917      3918
 -1      1953    8    0    1
 -2       943      1013      1014      3915      3919      3917
 -1      1954    8    0    1
 -2       945       944      1015      3703      3920      3921
 -1      1955    8    0    1
 -2       944      1014      1015      3918      3922      3920
 -1      1956    8    0    1
 -2       946       945      1016      3706      3923      3924
 -1      1957    8    0    1
 -2       945      1015      1016      3921      3925      3923
 -1      1958    8    0    1
 -2       947       946      1017      3709      3926      3927
 -1      1959    8    0    1
 -2       946      1016      1017      3924      3928      3926
 -1      1960    8    0    1
 -2       951       952      1018      3723      3929      3930
 -1      1961    8    0    1
 -2       952       953      1019      3726      3931      3932
 -1      1962    8    0    1
 -2       952      1019      1018      3932      3933      3929
 -1      1963    8    0    1
 -2       953       954      1020      3729      3934      3935
 -1      1964    8    0    1
 -2       953      1020      1019      3935      3936      3931
 -1      1965    8    0    1
 -2       954       955      1021      3732      3937      3938
 -1      1966    8    0    1
 -2       954      1021      1020      3938      3939      3934
 -1      1967    8    0    1
 -2       955       956      1022      3735      3940      3941
 -1      1968    8    0    1
 -2       955      1022      1021      3941      3942      3937
 -1      1969    8    0    1
 -2       956       957      1023      3738      3943      3944
 -1      1970    8    0    1
 -2       956      1023      1022      3944      3945      3940
 -1      1971    8    0    1
 -2       957       958      1024      3741      3946      3947
 -1      1972    8    0    1
 -2       957      1024      1023      3947      3948      3943
 -1      1973    8    0    1
 -2       958       959      1025      3744      3949      3950
 -1      1974    8    0    1
 -2       958      1025      1024      3950      3951      3946
 -1      1975    8    0    1
 -2       959       960      1026      3747      3952      3953
 -1      1976    8    0    1
 -2       959      1026      1025      3953      3954      3949
 -1      1977    8    0    1
 -2       960       961      1027      3750      3955      3956
 -1      1978    8    0    1
 -2       960      1027      1026      3956      3957      3952
 -1      1979    8    0    1
 -2       961       962      1028      3753      3958      3959
 -1      1980    8    0    1
 -2       961      1028      1027      3959      3960      3955
 -1      1981    8    0    1
 -2       962       963      1029      3756      3961      3962
 -1      1982    8    0    1
 -2       962      1029      1028      3962      3963      3958
 -1      1983    8    0    1
 -2       963       964      1030      3759      3964      3965
 -1      1984    8    0    1
 -2       963      1030      1029      3965      3966      3961
 -1      1985    8    0    1
 -2       964       965      1031      3762      3967      3968
 -1      1986    8    0    1
 -2       964      1031      1030      3968      3969      3964
 -1      1987    8    0    1
 -2       965       966      1032      3765      3970      3971
 -1      1988    8    0    1
 -2       965      1032      1031      3971      3972      3967
 -1      1989    8    0    1
 -2       966       967      1033      3768      3973      3974
 -1      1990    8    0    1
 -2       966      1033      1032      3974      3975      3970
 -1      1991    8    0    1
 -2       967       968      1034      3771      3976      3977
 -1      1992    8    0    1
 -2       967      1034      1033      3977      3978      3973
 -1      1993    8    0    1
 -2       968       969      1035      3774      3979      3980
 -1      1994    8    0    1
 -2       968      1035      1034      3980      3981      3976
 -1      1995    8    0    1
 -2       969       970      1036      3777      3982      3983
 -1      1996    8    0    1
 -2       969      1036      1035      3983      3984      3979
 -1      1997    8    0    1
 -2       970       971      1037      3780      3985      3986
 -1      1998    8    0    1
 -2       970      1037      1036      3986      3987      3982
 -1      1999    8    0    1
 -2       971       972      1038      3783      3988      3989
 -1      2000    8    0    1
 -2       971      1038      1037      3989      3990      3985
 -1      2001    8    0    1
 -2       972       973      1039      3786      3991      3992
 -1      2002    8    0    1
 -2       972      1039      1038      3992      3993      3988
 -1      2003    8    0    1
 -2       973       974      1040      3789      3994      3995
 -1      2004    8    0    1
 -2       973      1040      1039      3995      3996      3991
 -1      2005    8    0    1
 -2       974       975      1041      3792      3997      3998
 -1      2006    8    0    1
 -2       974      1041      1040      3998      3999      3994
 -1      2007    8    0    1
 -2       975       976      1042      3795      4000      4001
 -1      2008    8    0    1
 -2      1041       975      1042      3997      4001      4002
 -1      2009    8    0    1
 -2       976       980      1042      3812      4003      4000
 -1      2010    8    0    1
 -2       978       917      1043      3831      4004      4005
 -1      2011    8    0    1
 -2       914       907       985      3818      4006      3828
 -1      2012    8    0    1
 -2       948       978      1044      3804      4007      4008
 -1      2013    8    0    1
 -2       978      1043      1044      4005      4009      4007
 -1      2014    8    0    1
 -2       907       947      1017      3809      3927      4010
 -1      2015    8    0    1
 -2       950       951      1045      3720      4011      4012
 -1      2016    8    0    1
 -2       951      1018      1045      3930      4013      4011
 -1      2017    8    0    1
 -2       917       950      1046      3717      4014      4015
 -1      2018    8    0    1
 -2       950      1045      1046      4012      4016      4014
 -1      2019    8    0    1
 -2       907      1017       985      4010      4017      4006
 -1      2020    8    0    1
 -2       917      1046      1043      4015      4018      4004
 -1      2021    8    0    1
 -2       987       948      1044      3837      4008      4019
 -1      2022    8    0    1
 -2       986       913       981      3836      3816      4020
 -1      2023    8    0    1
 -2       983       977      1047      3824      4021      4022
 -1      2024    8    0    1
 -2       984       908       981      3827      4023      4024
 -1      2025    8    0    1
 -2       977       984      1047      3826      4025      4021
 -1      2026    8    0    1
 -2       980       982      1048      3821      4026      4027
 -1      2027    8    0    1
 -2       980      1048      1042      4027      4028      4003
 -1      2028    8    0    1
 -2       979       912      1049      3808      4029      4030
 -1      2029    8    0    1
 -2       988       979      1049      3841      4030      4031
 -1      2030    8    0    1
 -2       912       983      1049      3823      4032      4029
 -1      2031    8    0    1
 -2       981       908       986      4023      3835      4020
 -1      2032    8    0    1
 -2       989       988      1050      3844      4033      4034
 -1      2033    8    0    1
 -2       988      1049      1050      4031      4035      4033
 -1      2034    8    0    1
 -2       981       949      1051      3814      4036      4037
 -1      2035    8    0    1
 -2       990       989      1052      3847      4038      4039
 -1      2036    8    0    1
 -2       989      1050      1052      4034      4040      4038
 -1      2037    8    0    1
 -2       991       990      1053      3850      4041      4042
 -1      2038    8    0    1
 -2       990      1052      1053      4039      4043      4041
 -1      2039    8    0    1
 -2       992       991      1054      3853      4044      4045
 -1      2040    8    0    1
 -2       991      1053      1054      4042      4046      4044
 -1      2041    8    0    1
 -2       993       992      1055      3856      4047      4048
 -1      2042    8    0    1
 -2       992      1054      1055      4045      4049      4047
 -1      2043    8    0    1
 -2       994       993      1056      3859      4050      4051
 -1      2044    8    0    1
 -2       993      1055      1056      4048      4052      4050
 -1      2045    8    0    1
 -2       995       994      1057      3862      4053      4054
 -1      2046    8    0    1
 -2       994      1056      1057      4051      4055      4053
 -1      2047    8    0    1
 -2       996       995      1058      3865      4056      4057
 -1      2048    8    0    1
 -2       995      1057      1058      4054      4058      4056
 -1      2049    8    0    1
 -2       997       996      1059      3868      4059      4060
 -1      2050    8    0    1
 -2       996      1058      1059      4057      4061      4059
 -1      2051    8    0    1
 -2       998       997      1060      3871      4062      4063
 -1      2052    8    0    1
 -2       997      1059      1060      4060      4064      4062
 -1      2053    8    0    1
 -2       999       998      1061      3874      4065      4066
 -1      2054    8    0    1
 -2       998      1060      1061      4063      4067      4065
 -1      2055    8    0    1
 -2      1000       999      1062      3877      4068      4069
 -1      2056    8    0    1
 -2       999      1061      1062      4066      4070      4068
 -1      2057    8    0    1
 -2      1001      1000      1063      3880      4071      4072
 -1      2058    8    0    1
 -2      1000      1062      1063      4069      4073      4071
 -1      2059    8    0    1
 -2      1002      1001      1064      3883      4074      4075
 -1      2060    8    0    1
 -2      1001      1063      1064      4072      4076      4074
 -1      2061    8    0    1
 -2      1003      1002      1065      3886      4077      4078
 -1      2062    8    0    1
 -2      1002      1064      1065      4075      4079      4077
 -1      2063    8    0    1
 -2      1004      1003      1066      3889      4080      4081
 -1      2064    8    0    1
 -2      1003      1065      1066      4078      4082      4080
 -1      2065    8    0    1
 -2      1005      1004      1067      3892      4083      4084
 -1      2066    8    0    1
 -2      1004      1066      1067      4081      4085      4083
 -1      2067    8    0    1
 -2      1006      1005      1068      3895      4086      4087
 -1      2068    8    0    1
 -2      1005      1067      1068      4084      4088      4086
 -1      2069    8    0    1
 -2      1007      1006      1069      3898      4089      4090
 -1      2070    8    0    1
 -2      1006      1068      1069      4087      4091      4089
 -1      2071    8    0    1
 -2      1008      1007      1070      3901      4092      4093
 -1      2072    8    0    1
 -2      1007      1069      1070      4090      4094      4092
 -1      2073    8    0    1
 -2      1009      1008      1071      3904      4095      4096
 -1      2074    8    0    1
 -2      1008      1070      1071      4093      4097      4095
 -1      2075    8    0    1
 -2      1010      1009      1072      3907      4098      4099
 -1      2076    8    0    1
 -2      1009      1071      1072      4096      4100      4098
 -1      2077    8    0    1
 -2      1011      1010      1073      3910      4101      4102
 -1      2078    8    0    1
 -2      1010      1072      1073      4099      4103      4101
 -1      2079    8    0    1
 -2      1012      1011      1074      3913      4104      4105
 -1      2080    8    0    1
 -2      1011      1073      1074      4102      4106      4104
 -1      2081    8    0    1
 -2      1013      1012      1075      3916      4107      4108
 -1      2082    8    0    1
 -2      1012      1074      1075      4105      4109      4107
 -1      2083    8    0    1
 -2      1014      1013      1076      3919      4110      4111
 -1      2084    8    0    1
 -2      1013      1075      1076      4108      4112      4110
 -1      2085    8    0    1
 -2      1015      1014      1077      3922      4113      4114
 -1      2086    8    0    1
 -2      1014      1076      1077      4111      4115      4113
 -1      2087    8    0    1
 -2      1016      1015      1078      3925      4116      4117
 -1      2088    8    0    1
 -2      1015      1077      1078      4114      4118      4116
 -1      2089    8    0    1
 -2      1017      1016      1079      3928      4119      4120
 -1      2090    8    0    1
 -2      1016      1078      1079      4117      4121      4119
 -1      2091    8    0    1
 -2      1019      1020      1080      3936      4122      4123
 -1      2092    8    0    1
 -2       985      1017      1079      4017      4120      4124
 -1      2093    8    0    1
 -2      1018      1019      1081      3933      4125      4126
 -1      2094    8    0    1
 -2      1019      1080      1081      4123      4127      4125
 -1      2095    8    0    1
 -2      1021      1022      1082      3942      4128      4129
 -1      2096    8    0    1
 -2      1022      1023      1083      3945      4130      4131
 -1      2097    8    0    1
 -2      1022      1083      1082      4131      4132      4128
 -1      2098    8    0    1
 -2      1023      1024      1084      3948      4133      4134
 -1      2099    8    0    1
 -2      1023      1084      1083      4134      4135      4130
 -1      2100    8    0    1
 -2      1024      1025      1085      3951      4136      4137
 -1      2101    8    0    1
 -2      1024      1085      1084      4137      4138      4133
 -1      2102    8    0    1
 -2      1025      1026      1086      3954      4139      4140
 -1      2103    8    0    1
 -2      1025      1086      1085      4140      4141      4136
 -1      2104    8    0    1
 -2      1026      1027      1087      3957      4142      4143
 -1      2105    8    0    1
 -2      1026      1087      1086      4143      4144      4139
 -1      2106    8    0    1
 -2      1027      1028      1088      3960      4145      4146
 -1      2107    8    0    1
 -2      1027      1088      1087      4146      4147      4142
 -1      2108    8    0    1
 -2      1028      1029      1089      3963      4148      4149
 -1      2109    8    0    1
 -2      1028      1089      1088      4149      4150      4145
 -1      2110    8    0    1
 -2      1029      1030      1090      3966      4151      4152
 -1      2111    8    0    1
 -2      1029      1090      1089      4152      4153      4148
 -1      2112    8    0    1
 -2      1030      1031      1091      3969      4154      4155
 -1      2113    8    0    1
 -2      1030      1091      1090      4155      4156      4151
 -1      2114    8    0    1
 -2      1031      1032      1092      3972      4157      4158
 -1      2115    8    0    1
 -2      1031      1092      1091      4158      4159      4154
 -1      2116    8    0    1
 -2      1032      1033      1093      3975      4160      4161
 -1      2117    8    0    1
 -2      1032      1093      1092      4161      4162      4157
 -1      2118    8    0    1
 -2      1033      1034      1094      3978      4163      4164
 -1      2119    8    0    1
 -2      1033      1094      1093      4164      4165      4160
 -1      2120    8    0    1
 -2      1034      1035      1095      3981      4166      4167
 -1      2121    8    0    1
 -2      1034      1095      1094      4167      4168      4163
 -1      2122    8    0    1
 -2      1035      1036      1096      3984      4169      4170
 -1      2123    8    0    1
 -2      1035      1096      1095      4170      4171      4166
 -1      2124    8    0    1
 -2      1036      1037      1097      3987      4172      4173
 -1      2125    8    0    1
 -2      1036      1097      1096      4173      4174      4169
 -1      2126    8    0    1
 -2      1037      1038      1098      3990      4175      4176
 -1      2127    8    0    1
 -2      1037      1098      1097      4176      4177      4172
 -1      2128    8    0    1
 -2      1038      1039      1099      3993      4178      4179
 -1      2129    8    0    1
 -2      1038      1099      1098      4179      4180      4175
 -1      2130    8    0    1
 -2      1039      1040      1100      3996      4181      4182
 -1      2131    8    0    1
 -2      1039      1100      1099      4182      4183      4178
 -1      2132    8    0    1
 -2      1040      1041      1101      3999      4184      4185
 -1      2133    8    0    1
 -2      1040      1101      1100      4185      4186      4181
 -1      2134    8    0    1
 -2       987      1044      1102      4019      4187      4188
 -1      2135    8    0    1
 -2      1043      1046      1103      4018      4189      4190
 -1      2136    8    0    1
 -2      1044      1043      1104      4009      4191      4192
 -1      2137    8    0    1
 -2      1043      1103      1104      4190      4193      4191
 -1      2138    8    0    1
 -2      1048       982       985      4026      3830      4194
 -1      2139    8    0    1
 -2       949       987      1051      3838      4195      4036
 -1      2140    8    0    1
 -2      1045      1018      1105      4013      4196      4197
 -1      2141    8    0    1
 -2      1018      1081      1105      4126      4198      4196
 -1      2142    8    0    1
 -2      1020      1021      1106      3939      4199      4200
 -1      2143    8    0    1
 -2      1080      1020      1106      4122      4200      4201
 -1      2144    8    0    1
 -2      1021      1082      1106      4129      4202      4199
 -1      2145    8    0    1
 -2      1046      1045      1107      4016      4203      4204
 -1      2146    8    0    1
 -2      1045      1105      1107      4197      4205      4203
 -1      2147    8    0    1
 -2      1048       985      1079      4194      4124      4206
 -1      2148    8    0    1
 -2      1048      1079      1108      4206      4207      4208
 -1      2149    8    0    1
 -2      1046      1107      1103      4204      4209      4189
 -1      2150    8    0    1
 -2       987      1102      1047      4188      4210      4211
 -1      2151    8    0    1
 -2      1102      1044      1104      4187      4192      4212
 -1      2152    8    0    1
 -2       981      1051       984      4037      4213      4024
 -1      2153    8    0    1
 -2      1047      1102      1109      4210      4214      4215
 -1      2154    8    0    1
 -2       984      1051      1047      4213      4216      4025
 -1      2155    8    0    1
 -2      1047      1109       983      4215      4217      4022
 -1      2156    8    0    1
 -2       983      1109      1049      4217      4218      4032
 -1      2157    8    0    1
 -2       987      1047      1051      4211      4216      4195
 -1      2158    8    0    1
 -2      1084      1085      1110      4138      4219      4220
 -1      2159    8    0    1
 -2      1103      1107      1111      4209      4221      4222
 -1      2160    8    0    1
 -2      1042      1048      1101      4028      4223      4224
 -1      2161    8    0    1
 -2      1053      1052      1112      4043      4225      4226
 -1      2162    8    0    1
 -2      1054      1053      1111      4046      4227      4228
 -1      2163    8    0    1
 -2      1055      1054      1111      4049      4228      4229
 -1      2164    8    0    1
 -2      1056      1055      1113      4052      4230      4231
 -1      2165    8    0    1
 -2      1057      1056      1081      4055      4232      4233
 -1      2166    8    0    1
 -2      1058      1057      1080      4058      4234      4235
 -1      2167    8    0    1
 -2      1059      1058      1106      4061      4236      4237
 -1      2168    8    0    1
 -2      1060      1059      1082      4064      4238      4239
 -1      2169    8    0    1
 -2      1061      1060      1083      4067      4240      4241
 -1      2170    8    0    1
 -2      1062      1061      1110      4070      4242      4243
 -1      2171    8    0    1
 -2      1063      1062      1110      4073      4243      4244
 -1      2172    8    0    1
 -2      1064      1063      1114      4076      4245      4246
 -1      2173    8    0    1
 -2      1065      1064      1087      4079      4247      4248
 -1      2174    8    0    1
 -2      1066      1065      1088      4082      4249      4250
 -1      2175    8    0    1
 -2      1067      1066      1089      4085      4251      4252
 -1      2176    8    0    1
 -2      1068      1067      1090      4088      4253      4254
 -1      2177    8    0    1
 -2      1069      1068      1091      4091      4255      4256
 -1      2178    8    0    1
 -2      1070      1069      1092      4094      4257      4258
 -1      2179    8    0    1
 -2      1071      1070      1093      4097      4259      4260
 -1      2180    8    0    1
 -2      1072      1071      1094      4100      4261      4262
 -1      2181    8    0    1
 -2      1073      1072      1095      4103      4263      4264
 -1      2182    8    0    1
 -2      1074      1073      1096      4106      4265      4266
 -1      2183    8    0    1
 -2      1075      1074      1097      4109      4267      4268
 -1      2184    8    0    1
 -2      1076      1075      1098      4112      4269      4270
 -1      2185    8    0    1
 -2      1077      1076      1099      4115      4271      4272
 -1      2186    8    0    1
 -2      1078      1077      1100      4118      4273      4274
 -1      2187    8    0    1
 -2      1079      1078      1108      4121      4275      4207
 -1      2188    8    0    1
 -2      1107      1105      1113      4205      4276      4277
 -1      2189    8    0    1
 -2      1048      1108      1101      4208      4278      4223
 -1      2190    8    0    1
 -2      1081      1080      1057      4127      4234      4233
 -1      2191    8    0    1
 -2      1097      1074      1096      4267      4266      4174
 -1      2192    8    0    1
 -2      1092      1069      1091      4257      4256      4159
 -1      2193    8    0    1
 -2      1082      1083      1060      4132      4240      4239
 -1      2194    8    0    1
 -2      1085      1086      1114      4141      4279      4280
 -1      2195    8    0    1
 -2      1086      1087      1114      4144      4281      4279
 -1      2196    8    0    1
 -2      1087      1088      1065      4147      4249      4248
 -1      2197    8    0    1
 -2      1088      1089      1066      4150      4251      4250
 -1      2198    8    0    1
 -2      1089      1090      1067      4153      4253      4252
 -1      2199    8    0    1
 -2      1090      1091      1068      4156      4255      4254
 -1      2200    8    0    1
 -2      1092      1093      1070      4162      4259      4258
 -1      2201    8    0    1
 -2      1093      1094      1071      4165      4261      4260
 -1      2202    8    0    1
 -2      1094      1095      1072      4168      4263      4262
 -1      2203    8    0    1
 -2      1095      1096      1073      4171      4265      4264
 -1      2204    8    0    1
 -2      1097      1098      1075      4177      4269      4268
 -1      2205    8    0    1
 -2      1098      1099      1076      4180      4271      4270
 -1      2206    8    0    1
 -2      1099      1100      1077      4183      4273      4272
 -1      2207    8    0    1
 -2      1102      1104      1112      4212      4282      4283
 -1      2208    8    0    1
 -2      1109      1102      1112      4214      4283      4284
 -1      2209    8    0    1
 -2      1049      1109      1050      4218      4285      4035
 -1      2210    8    0    1
 -2      1105      1081      1113      4198      4286      4276
 -1      2211    8    0    1
 -2      1082      1059      1106      4238      4237      4202
 -1      2212    8    0    1
 -2      1104      1103      1112      4193      4287      4282
 -1      2213    8    0    1
 -2      1087      1064      1114      4247      4246      4281
 -1      2214    8    0    1
 -2      1058      1080      1106      4235      4201      4236
 -1      2215    8    0    1
 -2      1103      1111      1112      4222      4288      4287
 -1      2216    8    0    1
 -2      1052      1050      1109      4040      4285      4289
 -1      2217    8    0    1
 -2      1110      1085      1114      4219      4280      4290
 -1      2218    8    0    1
 -2      1053      1112      1111      4226      4288      4227
 -1      2219    8    0    1
 -2      1056      1113      1081      4231      4286      4232
 -1      2220    8    0    1
 -2      1055      1111      1113      4229      4291      4230
 -1      2221    8    0    1
 -2      1061      1083      1110      4241      4292      4242
 -1      2222    8    0    1
 -2      1063      1110      1114      4244      4290      4245
 -1      2223    8    0    1
 -2      1101      1108      1100      4278      4293      4186
 -1      2224    8    0    1
 -2      1109      1112      1052      4284      4225      4289
 -1      2225    8    0    1
 -2      1101      1041      1042      4184      4002      4224
 -1      2226    8    0    1
 -2      1107      1113      1111      4277      4291      4221
 -1      2227    8    0    1
 -2      1100      1108      1078      4293      4275      4274
 -1      2228    8    0    1
 -2      1083      1084      1110      4135      4220      4292
 -3
    1PSTEP                         1           1           1          
  100CL  101 1.000000000        4293                     0    1           1
 -4  DISP        4    1
 -5  D1          1    2    1    0
 -5  D2          1    2    2    0
 -5  D3          1    2    3    0
 -5  ALL         1    2    0    0    1ALL
 -1         1 2.40396E-03-9.46835E-04-3.82149E-15
 -1         2 4.53389E-03-2.93456E-04-7.33737E-15
 -1         3 1.47846E-02-1.22787E-03-1.77218E-13
 -1         4 1.55331E-02-2.65659E-03-1.75619E-13
 -1         5 0.00000E+00 0.00000E+00 0.00000E+00
 -1         6 0.00000E+00 0.00000E+00 0.00000E+00
 -1         7 0.00000E+00 0.00000E+00 0.00000E+00
 -1         8 0.00000E+00 0.00000E+00 0.00000E+00
 -1         9 0.00000E+00 0.00000E+00 0.00000E+00
 -1        10 0.00000E+00 0.00000E+00 0.00000E+00
 -1        11 0.00000E+00 0.00000E+00 0.00000E+00
 -1        12 0.00000E+00 0.00000E+00 0.00000E+00
 -1        13 0.00000E+00 0.00000E+00 0.00000E+00
 -1        14 0.00000E+00 0.00000E+00 0.00000E+00
 -1        15 0.00000E+00 0.00000E+00 0.00000E+00
 -1        16 0.00000E+00 0.00000E+00 0.00000E+00
 -1        17 0.00000E+00 0.00000E+00 0.00000E+00
 -1        18 0.00000E+00 0.00000E+00 0.00000E+00
 -1        19 0.00000E+00 0.00000E+00 0.00000E+00
 -1        20 0.00000E+00 0.00000E+00 0.00000E+00
 -1        21 0.00000E+00 0.00000E+00 0.00000E+00
 -1        22 0.00000E+00 0.00000E+00 0.00000E+00
 -1        23 5.62802E-04-3.21492E-04 5.64192E-17
 -1        24 9.93117E-04-5.22956E-04-6.70782E-17
 -1        25 1.39472E-03-7.18058E-04-3.72064E-16
 -1        26 1.76776E-03-9.16363E-04-8.64943E-16
 -1        27 2.10214E-03-1.10491E-03-1.55379E-15
 -1        28 2.39599E-03-1.25455E-03-2.44677E-15
 -1        29 2.66344E-03-1.33646E-03-3.55021E-15
 -1        30 2.93093E-03-1.34085E-03-4.86456E-15
 -1        31 3.22294E-03-1.28448E-03-6.38610E-15
 -1        32 3.54929E-03-1.20024E-03-8.10486E-15
 -1        33 3.90403E-03-1.11937E-03-1.00006E-14
 -1        34 4.27334E-03-1.06079E-03-1.20554E-14
 -1        35 4.64385E-03-1.03055E-03-1.42669E-14
 -1        36 5.00669E-03-1.02648E-03-1.66261E-14
 -1        37 5.35765E-03-1.04305E-03-1.91277E-14
 -1        38 5.69588E-03-1.07431E-03-2.17633E-14
 -1        39 6.02234E-03-1.11526E-03-2.45269E-14
 -1        40 6.33878E-03-1.16212E-03-2.74199E-14
 -1        41 6.64711E-03-1.21225E-03-3.04416E-14
 -1        42 6.94909E-03-1.26391E-03-3.35967E-14
 -1        43 7.24623E-03-1.31598E-03-3.68773E-14
 -1        44 7.53974E-03-1.36781E-03-4.02728E-14
 -1        45 7.83059E-03-1.41903E-03-4.37925E-14
 -1        46 8.11953E-03-1.46948E-03-4.74351E-14
 -1        47 8.40713E-03-1.51910E-03-5.11896E-14
 -1        48 8.69380E-03-1.56792E-03-5.50532E-14
 -1        49 8.97985E-03-1.61601E-03-5.90224E-14
 -1        50 9.26552E-03-1.66346E-03-6.31046E-14
 -1        51 9.55096E-03-1.71037E-03-6.73037E-14
 -1        52 9.83627E-03-1.75682E-03-7.16161E-14
 -1        53 1.01215E-02-1.80289E-03-7.60321E-14
 -1        54 1.04068E-02-1.84867E-03-8.05505E-14
 -1        55 1.06921E-02-1.89421E-03-8.51740E-14
 -1        56 1.09775E-02-1.93957E-03-8.99030E-14
 -1        57 1.12628E-02-1.98479E-03-9.47380E-14
 -1        58 1.15483E-02-2.02990E-03-9.96511E-14
 -1        59 1.18338E-02-2.07495E-03-1.04646E-13
 -1        60 1.21193E-02-2.11993E-03-1.09710E-13
 -1        61 1.24049E-02-2.16488E-03-1.14859E-13
 -1        62 1.26905E-02-2.20981E-03-1.20093E-13
 -1        63 1.29761E-02-2.25472E-03-1.25406E-13
 -1        64 1.32618E-02-2.29962E-03-1.30792E-13
 -1        65 1.35475E-02-2.34452E-03-1.36255E-13
 -1        66 1.38331E-02-2.38941E-03-1.41782E-13
 -1        67 1.41188E-02-2.43431E-03-1.47346E-13
 -1        68 1.44045E-02-2.47920E-03-1.52955E-13
 -1        69 1.46902E-02-2.52411E-03-1.58624E-13
 -1        70 1.49760E-02-2.56901E-03-1.64343E-13
 -1        71 1.52617E-02-2.61392E-03-1.70110E-13
 -1        72 5.02488E-04 3.18022E-04 5.21230E-17
 -1        73 8.54211E-04 5.05418E-04-9.73038E-17
 -1        74 1.17536E-03 6.50154E-04-4.42277E-16
 -1        75 1.47441E-03 7.67373E-04-9.81454E-16
 -1        76 1.75343E-03 8.56017E-04-1.71471E-15
 -1        77 2.01613E-03 9.09666E-04-2.64528E-15
 -1        78 2.27008E-03 9.22552E-04-3.77498E-15
 -1        79 2.52543E-03 8.94154E-04-5.09730E-15
 -1        80 2.79163E-03 8.30869E-04-6.60610E-15
 -1        81 3.07423E-03 7.44239E-04-8.29706E-15
 -1        82 3.37380E-03 6.47190E-04-1.01668E-14
 -1        83 3.68690E-03 5.50536E-04-1.22065E-14
 -1        84 4.00822E-03 4.61237E-04-1.44081E-14
 -1        85 4.33250E-03 3.82409E-04-1.67625E-14
 -1        86 4.65566E-03 3.14330E-04-1.92652E-14
 -1        87 4.97509E-03 2.55639E-04-2.19136E-14
 -1        88 5.28951E-03 2.04309E-04-2.47036E-14
 -1        89 5.59860E-03 1.58266E-04-2.76207E-14
 -1        90 5.90265E-03 1.15696E-04-3.06635E-14
 -1        91 6.20227E-03 7.51652E-05-3.38291E-14
 -1        92 6.49819E-03 3.56185E-05-3.71144E-14
 -1        93 6.79113E-03-3.67108E-06-4.05164E-14
 -1        94 7.08177E-03-4.31697E-05-4.40309E-14
 -1        95 7.37067E-03-8.31485E-05-4.76524E-14
 -1        96 7.65830E-03-1.23740E-04-5.13852E-14
 -1        97 7.94503E-03-1.64985E-04-5.52338E-14
 -1        98 8.23115E-03-2.06864E-04-5.92129E-14
 -1        99 8.51687E-03-2.49322E-04-6.33223E-14
 -1       100 8.80235E-03-2.92290E-04-6.75664E-14
 -1       101 9.08770E-03-3.35691E-04-7.19321E-14
 -1       102 9.37299E-03-3.79452E-04-7.64079E-14
 -1       103 9.65828E-03-4.23503E-04-8.09904E-14
 -1       104 9.94359E-03-4.67786E-04-8.56758E-14
 -1       105 1.02289E-02-5.12249E-04-9.04658E-14
 -1       106 1.05143E-02-5.56849E-04-9.53441E-14
 -1       107 1.07998E-02-6.01552E-04-1.00319E-13
 -1       108 1.10853E-02-6.46331E-04-1.05399E-13
 -1       109 1.13708E-02-6.91163E-04-1.10569E-13
 -1       110 1.16564E-02-7.36033E-04-1.15828E-13
 -1       111 1.19420E-02-7.80928E-04-1.21183E-13
 -1       112 1.22276E-02-8.25840E-04-1.26605E-13
 -1       113 1.25133E-02-8.70760E-04-1.32088E-13
 -1       114 1.27989E-02-9.15685E-04-1.37623E-13
 -1       115 1.30846E-02-9.60612E-04-1.43203E-13
 -1       116 1.33703E-02-1.00554E-03-1.48837E-13
 -1       117 1.36560E-02-1.05046E-03-1.54523E-13
 -1       118 1.39417E-02-1.09538E-03-1.60242E-13
 -1       119 1.42275E-02-1.14029E-03-1.65987E-13
 -1       120 1.45132E-02-1.18520E-03-1.71748E-13
 -1       121 1.48288E-02-1.31215E-03-1.77260E-13
 -1       122 1.48729E-02-1.39644E-03-1.77317E-13
 -1       123 1.49171E-02-1.48073E-03-1.77345E-13
 -1       124 1.49612E-02-1.56502E-03-1.77351E-13
 -1       125 1.50054E-02-1.64931E-03-1.77348E-13
 -1       126 1.50488E-02-1.73218E-03-1.77337E-13
 -1       127 1.50929E-02-1.81648E-03-1.77309E-13
 -1       128 1.51371E-02-1.90079E-03-1.77231E-13
 -1       129 1.51812E-02-1.98510E-03-1.77122E-13
 -1       130 1.52254E-02-2.06940E-03-1.76980E-13
 -1       131 1.52696E-02-2.15370E-03-1.76849E-13
 -1       132 1.53130E-02-2.23658E-03-1.76712E-13
 -1       133 1.53572E-02-2.32087E-03-1.76518E-13
 -1       134 1.54014E-02-2.40516E-03-1.76301E-13
 -1       135 1.54455E-02-2.48945E-03-1.76086E-13
 -1       136 1.54897E-02-2.57373E-03-1.75855E-13
 -1       137 4.46526E-03-1.35128E-04-7.27033E-15
 -1       138 4.30418E-03 1.33381E-05-7.03273E-15
 -1       139 4.03200E-03 1.59612E-04-6.60612E-15
 -1       140 3.70982E-03 2.73504E-04-6.09307E-15
 -1       141 3.31064E-03 3.66438E-04-5.46397E-15
 -1       142 2.87865E-03 4.24939E-04-4.80501E-15
 -1       143 2.38168E-03 4.48962E-04-4.07245E-15
 -1       144 1.94272E-03 4.34437E-04-3.45287E-15
 -1       145 1.50524E-03 3.86053E-04-2.85558E-15
 -1       146 1.08905E-03 3.03604E-04-2.30522E-15
 -1       147 7.89359E-04 2.14575E-04-1.91794E-15
 -1       148 5.65913E-04 1.17164E-04-1.63125E-15
 -1       149 4.17235E-04 1.12398E-05-1.44011E-15
 -1       150 3.58014E-04-9.74252E-05-1.36092E-15
 -1       151 3.86271E-04-2.17024E-04-1.38861E-15
 -1       152 5.08430E-04-3.49242E-04-1.52730E-15
 -1       153 7.29258E-04-4.92312E-04-1.77935E-15
 -1       154 1.06377E-03-6.46312E-04-2.16373E-15
 -1       155 1.44331E-03-7.73446E-04-2.60850E-15
 -1       156 1.93497E-03-8.86799E-04-3.21231E-15
 -1       157 2.82846E-03-9.62943E-04-4.40660E-15
 -1       158 3.25720E-03-9.40038E-04-5.03987E-15
 -1       159 3.62112E-03-8.86158E-04-5.61109E-15
 -1       160 3.94060E-03-8.03719E-04-6.14792E-15
 -1       161 4.19419E-03-7.01633E-04-6.60491E-15
 -1       162 4.39837E-03-5.70408E-04-7.00068E-15
 -1       163 4.50690E-03-4.36009E-04-7.23875E-15
 -1       164 3.14207E-04-1.29393E-04-2.45707E-17
 -1       165 2.72477E-04-7.68238E-05-4.88298E-17
 -1       166 2.36138E-04-3.60742E-05-6.18470E-17
 -1       167 1.95718E-04-7.05958E-06-6.90027E-17
 -1       168 1.54419E-04 4.28264E-06-7.27974E-17
 -1       169 1.21804E-04-4.23631E-06-7.50437E-17
 -1       170 1.11197E-04-2.42827E-05-7.63380E-17
 -1       171 1.25521E-04-4.30532E-05-7.74798E-17
 -1       172 1.57432E-04-4.59595E-05-7.84386E-17
 -1       173 1.92696E-04-2.94481E-05-7.88249E-17
 -1       174 2.21183E-04 8.66680E-07-7.85403E-17
 -1       175 2.40282E-04 3.69695E-05-7.64972E-17
 -1       176 2.52619E-04 7.36478E-05-7.06561E-17
 -1       177 2.63673E-04 1.10295E-04-5.80116E-17
 -1       178 2.83111E-04 1.52718E-04-3.30682E-17
 -1       179 3.56341E-04 2.24339E-04-6.49166E-18
 -1       180 6.38662E-04-3.17526E-04-7.39765E-17
 -1       181 1.05017E-03-5.15905E-04-3.21778E-16
 -1       182 1.43898E-03-7.18621E-04-7.43729E-16
 -1       183 1.80586E-03-9.23587E-04-1.35228E-15
 -1       184 2.14866E-03-1.10626E-03-2.15828E-15
 -1       185 2.47068E-03-1.23132E-03-3.17052E-15
 -1       186 2.78339E-03-1.27407E-03-4.39400E-15
 -1       187 3.10142E-03-1.23882E-03-5.82599E-15
 -1       188 3.43379E-03-1.15659E-03-7.45723E-15
 -1       189 3.78021E-03-1.06520E-03-9.27411E-15
 -1       190 4.13433E-03-9.91741E-04-1.12579E-14
 -1       191 4.48876E-03-9.47752E-04-1.33966E-14
 -1       192 4.83797E-03-9.33376E-04-1.56862E-14
 -1       193 5.17894E-03-9.43280E-04-1.81181E-14
 -1       194 5.51066E-03-9.70838E-04-2.06874E-14
 -1       195 5.83341E-03-1.01016E-03-2.33872E-14
 -1       196 6.14815E-03-1.05672E-03-2.62158E-14
 -1       197 6.45609E-03-1.10732E-03-2.91727E-14
 -1       198 6.75849E-03-1.15984E-03-3.22595E-14
 -1       199 7.05647E-03-1.21294E-03-3.54711E-14
 -1       200 7.35102E-03-1.26580E-03-3.88050E-14
 -1       201 7.64296E-03-1.31798E-03-4.22598E-14
 -1       202 7.93293E-03-1.36929E-03-4.58384E-14
 -1       203 8.22145E-03-1.41965E-03-4.95348E-14
 -1       204 8.50893E-03-1.46909E-03-5.33427E-14
 -1       205 8.79567E-03-1.51769E-03-5.72634E-14
 -1       206 9.08191E-03-1.56555E-03-6.12910E-14
 -1       207 9.36780E-03-1.61278E-03-6.54317E-14
 -1       208 9.65349E-03-1.65948E-03-6.96848E-14
 -1       209 9.93904E-03-1.70575E-03-7.40482E-14
 -1       210 1.02245E-02-1.75167E-03-7.85124E-14
 -1       211 1.05100E-02-1.79732E-03-8.30844E-14
 -1       212 1.07955E-02-1.84276E-03-8.77612E-14
 -1       213 1.10809E-02-1.88803E-03-9.25416E-14
 -1       214 1.13665E-02-1.93319E-03-9.74135E-14
 -1       215 1.16520E-02-1.97825E-03-1.02370E-13
 -1       216 1.19376E-02-2.02326E-03-1.07398E-13
 -1       217 1.22231E-02-2.06822E-03-1.12506E-13
 -1       218 1.25088E-02-2.11315E-03-1.17695E-13
 -1       219 1.27944E-02-2.15806E-03-1.22965E-13
 -1       220 1.30801E-02-2.20296E-03-1.28314E-13
 -1       221 1.33657E-02-2.24785E-03-1.33736E-13
 -1       222 1.36514E-02-2.29274E-03-1.39221E-13
 -1       223 1.39371E-02-2.33763E-03-1.44766E-13
 -1       224 1.42228E-02-2.38253E-03-1.50355E-13
 -1       225 1.45085E-02-2.42743E-03-1.55996E-13
 -1       226 1.47942E-02-2.47233E-03-1.61694E-13
 -1       227 1.50799E-02-2.51724E-03-1.67438E-13
 -1       228 7.22708E-04 4.15137E-04-1.75021E-16
 -1       229 1.06282E-03 5.67305E-04-5.26099E-16
 -1       230 1.38135E-03 6.91394E-04-1.06485E-15
 -1       231 1.68251E-03 7.86932E-04-1.79603E-15
 -1       232 1.97021E-03 8.47020E-04-2.72070E-15
 -1       233 2.25004E-03 8.64833E-04-3.84086E-15
 -1       234 2.52893E-03 8.39003E-04-5.15398E-15
 -1       235 2.81326E-03 7.75822E-04-6.65471E-15
 -1       236 3.10699E-03 6.87504E-04-8.33819E-15
 -1       237 3.41081E-03 5.87978E-04-1.01963E-14
 -1       238 3.72278E-03 4.88933E-04-1.22234E-14
 -1       239 4.03965E-03 3.97839E-04-1.44119E-14
 -1       240 4.35806E-03 3.17972E-04-1.67533E-14
 -1       241 4.67529E-03 2.49538E-04-1.92411E-14
 -1       242 4.98956E-03 1.91006E-04-2.18762E-14
 -1       243 5.29990E-03 1.40164E-04-2.46507E-14
 -1       244 5.60604E-03 9.47784E-05-2.75540E-14
 -1       245 5.90812E-03 5.29214E-05-3.05826E-14
 -1       246 6.20657E-03 1.30830E-05-3.37332E-14
 -1       247 6.50190E-03-2.58357E-05-3.70055E-14
 -1       248 6.79468E-03-6.45820E-05-4.03940E-14
 -1       249 7.08543E-03-1.03628E-04-4.38963E-14
 -1       250 7.37460E-03-1.43240E-04-4.75090E-14
 -1       251 7.66258E-03-1.83543E-04-5.12347E-14
 -1       252 7.94969E-03-2.24565E-04-5.50776E-14
 -1       253 8.23617E-03-2.66276E-04-5.90457E-14
 -1       254 8.52224E-03-3.08612E-04-6.31410E-14
 -1       255 8.80802E-03-3.51492E-04-6.73628E-14
 -1       256 9.09362E-03-3.94832E-04-7.17049E-14
 -1       257 9.37913E-03-4.38552E-04-7.61617E-14
 -1       258 9.66459E-03-4.82578E-04-8.07267E-14
 -1       259 9.95004E-03-5.26846E-04-8.53968E-14
 -1       260 1.02355E-02-5.71301E-04-9.01673E-14
 -1       261 1.05210E-02-6.15899E-04-9.50313E-14
 -1       262 1.08065E-02-6.60602E-04-9.99912E-14
 -1       263 1.10920E-02-7.05383E-04-1.05050E-13
 -1       264 1.13776E-02-7.50219E-04-1.10201E-13
 -1       265 1.16632E-02-7.95093E-04-1.15439E-13
 -1       266 1.19488E-02-8.39992E-04-1.20768E-13
 -1       267 1.22345E-02-8.84907E-04-1.26169E-13
 -1       268 1.25201E-02-9.29831E-04-1.31637E-13
 -1       269 1.28058E-02-9.74759E-04-1.37161E-13
 -1       270 1.30915E-02-1.01969E-03-1.42735E-13
 -1       271 1.33772E-02-1.06462E-03-1.48359E-13
 -1       272 1.36629E-02-1.10954E-03-1.54030E-13
 -1       273 1.39486E-02-1.15446E-03-1.59741E-13
 -1       274 1.42343E-02-1.19938E-03-1.65485E-13
 -1       275 1.45200E-02-1.24429E-03-1.71244E-13
 -1       276 1.46034E-02-1.31541E-03-1.72289E-13
 -1       277 1.46476E-02-1.39969E-03-1.72325E-13
 -1       278 1.46917E-02-1.48398E-03-1.72340E-13
 -1       279 1.47359E-02-1.56828E-03-1.72342E-13
 -1       280 1.47793E-02-1.65115E-03-1.72327E-13
 -1       281 1.48234E-02-1.73545E-03-1.72294E-13
 -1       282 1.48676E-02-1.81975E-03-1.72240E-13
 -1       283 1.49117E-02-1.90405E-03-1.72158E-13
 -1       284 1.49559E-02-1.98835E-03-1.72053E-13
 -1       285 1.50001E-02-2.07266E-03-1.71922E-13
 -1       286 1.50435E-02-2.15553E-03-1.71772E-13
 -1       287 1.50877E-02-2.23982E-03-1.71599E-13
 -1       288 1.51318E-02-2.32412E-03-1.71398E-13
 -1       289 1.51760E-02-2.40841E-03-1.71181E-13
 -1       290 1.51280E-02-2.46282E-03-1.69314E-13
 -1       291 4.53020E-03-2.66900E-04-8.16518E-15
 -1       292 4.37250E-03-1.71449E-04-7.90889E-15
 -1       293 4.08372E-03-6.28327E-05-7.61728E-15
 -1       294 3.73995E-03 1.08837E-04-6.88236E-15
 -1       295 3.34508E-03 2.66084E-04-6.22402E-15
 -1       296 2.96164E-03 4.14130E-04-5.39675E-15
 -1       297 2.56595E-03 5.09629E-04-4.55868E-15
 -1       298 2.18905E-03 5.13557E-04-3.75410E-15
 -1       299 1.82751E-03 4.49646E-04-3.05134E-15
 -1       300 1.44426E-03 3.14075E-04-2.39288E-15
 -1       301 1.06718E-03 1.66434E-04-1.90194E-15
 -1       302 7.50274E-04 5.70977E-05-1.57925E-15
 -1       303 5.12109E-04-3.50567E-05-1.31456E-15
 -1       304 3.68656E-04-8.52393E-05-1.19527E-15
 -1       305 3.45378E-04-1.25709E-04-1.15730E-15
 -1       306 4.52247E-04-1.85542E-04-1.24993E-15
 -1       307 6.87299E-04-2.80779E-04-1.42852E-15
 -1       308 1.02771E-03-4.48593E-04-1.76186E-15
 -1       309 1.40865E-03-6.53494E-04-2.21948E-15
 -1       310 1.84226E-03-8.49319E-04-2.75915E-15
 -1       311 2.24024E-03-9.90184E-04-3.46350E-15
 -1       312 2.59911E-03-1.03289E-03-4.16042E-15
 -1       313 2.94518E-03-1.00241E-03-4.91010E-15
 -1       314 3.30520E-03-9.02184E-04-5.62284E-15
 -1       315 3.64437E-03-7.76175E-04-6.31146E-15
 -1       316 3.96205E-03-6.43872E-04-6.93590E-15
 -1       317 4.24156E-03-5.11346E-04-7.56975E-15
 -1       318 4.45400E-03-4.19526E-04-7.88009E-15
 -1       319 4.55201E-03-3.41599E-04-8.09378E-15
 -1       320 5.32856E-04-1.52224E-04-2.19592E-16
 -1       321 6.06300E-04-2.36487E-04-1.82688E-16
 -1       322 3.42790E-04-3.00173E-05-2.30847E-16
 -1       323 2.55487E-04-1.69518E-05-2.35421E-16
 -1       324 2.04890E-04-3.32967E-05-2.38176E-16
 -1       325 2.09933E-04-6.08234E-05-2.42024E-16
 -1       326 2.68277E-04-7.12310E-05-2.47401E-16
 -1       327 3.47592E-04-4.99299E-05-2.52978E-16
 -1       328 4.16981E-04-1.73073E-06-2.56600E-16
 -1       329 4.64159E-04 5.99143E-05-2.56316E-16
 -1       330 4.92417E-04 1.24633E-04-2.48916E-16
 -1       331 5.12047E-04 1.89192E-04-2.30176E-16
 -1       332 5.37918E-04 2.57696E-04-1.93679E-16
 -1       333 6.18862E-04 3.32104E-04-1.93530E-16
 -1       334 9.64167E-04 4.87110E-04-5.37402E-16
 -1       335 1.13627E-03-5.11913E-04-6.06381E-16
 -1       336 1.52109E-03-7.21324E-04-1.13761E-15
 -1       337 1.89488E-03-9.30637E-04-1.85687E-15
 -1       338 2.25190E-03-1.10229E-03-2.77711E-15
 -1       339 2.59462E-03-1.19340E-03-3.90881E-15
 -1       340 2.93562E-03-1.18787E-03-5.25402E-15
 -1       341 3.28562E-03-1.11193E-03-6.80299E-15
 -1       342 3.64394E-03-1.01221E-03-8.54208E-15
 -1       343 4.00248E-03-9.25631E-04-1.04560E-14
 -1       344 4.35409E-03-8.69194E-04-1.25267E-14
 -1       345 4.69570E-03-8.44973E-04-1.47470E-14
 -1       346 5.02723E-03-8.47886E-04-1.71115E-14
 -1       347 5.34985E-03-8.70950E-04-1.96142E-14
 -1       348 5.66497E-03-9.07724E-04-2.22508E-14
 -1       349 5.97388E-03-9.53134E-04-2.50157E-14
 -1       350 6.27769E-03-1.00352E-03-2.79076E-14
 -1       351 6.57734E-03-1.05639E-03-3.09272E-14
 -1       352 6.87363E-03-1.11014E-03-3.40734E-14
 -1       353 7.16726E-03-1.16380E-03-3.73455E-14
 -1       354 7.45877E-03-1.21681E-03-4.07358E-14
 -1       355 7.74866E-03-1.26890E-03-4.42492E-14
 -1       356 8.03730E-03-1.31997E-03-4.78853E-14
 -1       357 8.32501E-03-1.37003E-03-5.16382E-14
 -1       358 8.61203E-03-1.41916E-03-5.55019E-14
 -1       359 8.89856E-03-1.46745E-03-5.94776E-14
 -1       360 9.18474E-03-1.51503E-03-6.35630E-14
 -1       361 9.47067E-03-1.56201E-03-6.77637E-14
 -1       362 9.75645E-03-1.60850E-03-7.20706E-14
 -1       363 1.00421E-02-1.65459E-03-7.64784E-14
 -1       364 1.03277E-02-1.70036E-03-8.09929E-14
 -1       365 1.06133E-02-1.74589E-03-8.56208E-14
 -1       366 1.08989E-02-1.79124E-03-9.03499E-14
 -1       367 1.11845E-02-1.83644E-03-9.51755E-14
 -1       368 1.14701E-02-1.88154E-03-1.00089E-13
 -1       369 1.17557E-02-1.92656E-03-1.05081E-13
 -1       370 1.20413E-02-1.97154E-03-1.10152E-13
 -1       371 1.23270E-02-2.01648E-03-1.15301E-13
 -1       372 1.26126E-02-2.06139E-03-1.20532E-13
 -1       373 1.28983E-02-2.10629E-03-1.25842E-13
 -1       374 1.31840E-02-2.15118E-03-1.31226E-13
 -1       375 1.34697E-02-2.19607E-03-1.36676E-13
 -1       376 1.37553E-02-2.24096E-03-1.42185E-13
 -1       377 1.40410E-02-2.28585E-03-1.47751E-13
 -1       378 1.43268E-02-2.33075E-03-1.53370E-13
 -1       379 1.46125E-02-2.37565E-03-1.59042E-13
 -1       380 1.48702E-02-2.41923E-03-1.64160E-13
 -1       381 1.29500E-03 6.17271E-04-1.06322E-15
 -1       382 1.61124E-03 7.20682E-04-1.77755E-15
 -1       383 1.91490E-03 7.89566E-04-2.68391E-15
 -1       384 2.21015E-03 8.15424E-04-3.78375E-15
 -1       385 2.50283E-03 7.95248E-04-5.07607E-15
 -1       386 2.79865E-03 7.34615E-04-6.55699E-15
 -1       387 3.10104E-03 6.46240E-04-8.22109E-15
 -1       388 3.41037E-03 5.45173E-04-1.00600E-14
 -1       389 3.72479E-03 4.44138E-04-1.20666E-14
 -1       390 4.04151E-03 3.51253E-04-1.42336E-14
 -1       391 4.35799E-03 2.70064E-04-1.65545E-14
 -1       392 4.67236E-03 2.00816E-04-1.90222E-14
 -1       393 4.98351E-03 1.41908E-04-2.16339E-14
 -1       394 5.29095E-03 9.10218E-05-2.43867E-14
 -1       395 5.59465E-03 4.58180E-05-2.72704E-14
 -1       396 5.89485E-03 4.27937E-06-3.02791E-14
 -1       397 6.19193E-03-3.51734E-05-3.34089E-14
 -1       398 6.48636E-03-7.36887E-05-3.66617E-14
 -1       399 6.77859E-03-1.12047E-04-4.00321E-14
 -1       400 7.06905E-03-1.50739E-04-4.35176E-14
 -1       401 7.35813E-03-1.90041E-04-4.71142E-14
 -1       402 7.64615E-03-2.30082E-04-5.08234E-14
 -1       403 7.93337E-03-2.70888E-04-5.46513E-14
 -1       404 8.22001E-03-3.12425E-04-5.86003E-14
 -1       405 8.50623E-03-3.54623E-04-6.26744E-14
 -1       406 8.79218E-03-3.97397E-04-6.68715E-14
 -1       407 9.07794E-03-4.40658E-04-7.11881E-14
 -1       408 9.36358E-03-4.84318E-04-7.56215E-14
 -1       409 9.64916E-03-5.28301E-04-8.01641E-14
 -1       410 9.93471E-03-5.72538E-04-8.48113E-14
 -1       411 1.02202E-02-6.16973E-04-8.95614E-14
 -1       412 1.05058E-02-6.61557E-04-9.44087E-14
 -1       413 1.07914E-02-7.06252E-04-9.93475E-14
 -1       414 1.10769E-02-7.51028E-04-1.04384E-13
 -1       415 1.13625E-02-7.95862E-04-1.09512E-13
 -1       416 1.16482E-02-8.40735E-04-1.14730E-13
 -1       417 1.19338E-02-8.85635E-04-1.20032E-13
 -1       418 1.22194E-02-9.30551E-04-1.25413E-13
 -1       419 1.25051E-02-9.75476E-04-1.30864E-13
 -1       420 1.27908E-02-1.02041E-03-1.36374E-13
 -1       421 1.30765E-02-1.06534E-03-1.41936E-13
 -1       422 1.33622E-02-1.11027E-03-1.47550E-13
 -1       423 1.36479E-02-1.15519E-03-1.53210E-13
 -1       424 1.39336E-02-1.20011E-03-1.58912E-13
 -1       425 1.42193E-02-1.24503E-03-1.64649E-13
 -1       426 1.44113E-02-1.28022E-03-1.68468E-13
 -1       427 1.44664E-02-1.48724E-03-1.67341E-13
 -1       428 1.44222E-02-1.40295E-03-1.67332E-13
 -1       429 1.44168E-02-1.34158E-03-1.67905E-13
 -1       430 1.45098E-02-1.57011E-03-1.67329E-13
 -1       431 1.45539E-02-1.65440E-03-1.67301E-13
 -1       432 1.45981E-02-1.73870E-03-1.67254E-13
 -1       433 1.46422E-02-1.82301E-03-1.67189E-13
 -1       434 1.46864E-02-1.90731E-03-1.67104E-13
 -1       435 1.47305E-02-1.99161E-03-1.66991E-13
 -1       436 1.47740E-02-2.07448E-03-1.66852E-13
 -1       437 1.48181E-02-2.15878E-03-1.66685E-13
 -1       438 1.48623E-02-2.24308E-03-1.66496E-13
 -1       439 1.49065E-02-2.32737E-03-1.66291E-13
 -1       440 4.24924E-03-1.98241E-04-8.71779E-15
 -1       441 4.57367E-03-3.16944E-04-8.99217E-15
 -1       442 4.45718E-03-2.66178E-04-8.98669E-15
 -1       443 3.83160E-03-3.01397E-05-7.93383E-15
 -1       444 3.50158E-03 1.26448E-04-7.21328E-15
 -1       445 4.52204E-04-8.16532E-05-2.39646E-16
 -1       446 2.71968E-03 4.85297E-04-5.22201E-15
 -1       447 2.34127E-03 5.57602E-04-4.15274E-15
 -1       448 2.06436E-03 5.26841E-04-3.42035E-15
 -1       449 1.69516E-03 3.99624E-04-2.58339E-15
 -1       450 1.28500E-03 2.11628E-04-1.94303E-15
 -1       451 9.18242E-04 5.64549E-05-1.50942E-15
 -1       452 6.55774E-04-3.29935E-05-1.25314E-15
 -1       453 4.19192E-04-9.14934E-05-1.01151E-15
 -1       454 3.32216E-04-1.01107E-04-9.52035E-16
 -1       455 3.83167E-04-1.15564E-04-1.00473E-15
 -1       456 5.64217E-04-1.57412E-04-1.09243E-15
 -1       457 8.96247E-04-3.00044E-04-1.39766E-15
 -1       458 1.30479E-03-5.10435E-04-1.79589E-15
 -1       459 1.66666E-03-7.18345E-04-2.24487E-15
 -1       460 2.11660E-03-9.60245E-04-3.02779E-15
 -1       461 2.44710E-03-1.05724E-03-3.82619E-15
 -1       462 2.73689E-03-1.06092E-03-4.58608E-15
 -1       463 3.10923E-03-9.60367E-04-5.66729E-15
 -1       464 3.38151E-03-8.40957E-04-6.36244E-15
 -1       465 3.75394E-03-6.65769E-04-7.32141E-15
 -1       466 4.03656E-03-5.40817E-04-7.97228E-15
 -1       467 4.36876E-03-4.17408E-04-8.52120E-15
 -1       468 4.52816E-03-3.57799E-04-8.88006E-15
 -1       469 3.06958E-03 3.38707E-04-6.17913E-15
 -1       470 1.09029E-03 4.72053E-04-8.63391E-16
 -1       471 3.15706E-04-4.92249E-05-4.82201E-16
 -1       472 4.48208E-04-6.10832E-05-4.81454E-16
 -1       473 3.35894E-04-8.86578E-05-4.98298E-16
 -1       474 4.66472E-04-6.73545E-05-5.14783E-16
 -1       475 5.94802E-04-5.39755E-06-5.29487E-16
 -1       476 6.84590E-04 7.76064E-05-5.37710E-16
 -1       477 7.36237E-04 1.64987E-04-5.35189E-16
 -1       478 7.65536E-04 2.49995E-04-5.17087E-16
 -1       479 7.26916E-04 3.29775E-04-3.76869E-16
 -1       480 1.42449E-03 5.92691E-04-1.49916E-15
 -1       481 1.23245E-03-5.06580E-04-9.18109E-16
 -1       482 1.89398E-03 4.96743E-04-2.92335E-15
 -1       483 1.62236E-03-7.26030E-04-1.55012E-15
 -1       484 2.01143E-03-9.44062E-04-2.37503E-15
 -1       485 2.38531E-03-1.10072E-03-3.41107E-15
 -1       486 2.75015E-03-1.13992E-03-4.66636E-15
 -1       487 3.12214E-03-1.07087E-03-6.13469E-15
 -1       488 3.50207E-03-9.56864E-04-7.80161E-15
 -1       489 3.87727E-03-8.54623E-04-9.64708E-15
 -1       490 4.23577E-03-7.87503E-04-1.16545E-14
 -1       491 4.57518E-03-7.56680E-04-1.38111E-14
 -1       492 4.89877E-03-7.55106E-04-1.61082E-14
 -1       493 5.21115E-03-7.74889E-04-1.85430E-14
 -1       494 5.51605E-03-8.09295E-04-2.11143E-14
 -1       495 5.81599E-03-8.53139E-04-2.38169E-14
 -1       496 6.11252E-03-9.02645E-04-2.66454E-14
 -1       497 6.40658E-03-9.55181E-04-2.96020E-14
 -1       498 6.69877E-03-1.00899E-03-3.26841E-14
 -1       499 6.98947E-03-1.06296E-03-3.58918E-14
 -1       500 7.27899E-03-1.11641E-03-3.92206E-14
 -1       501 7.56757E-03-1.16901E-03-4.26689E-14
 -1       502 7.85539E-03-1.22059E-03-4.62437E-14
 -1       503 8.14263E-03-1.27113E-03-4.99374E-14
 -1       504 8.42942E-03-1.32069E-03-5.37461E-14
 -1       505 8.71586E-03-1.36936E-03-5.76653E-14
 -1       506 9.00205E-03-1.41725E-03-6.16964E-14
 -1       507 9.28805E-03-1.46449E-03-6.58414E-14
 -1       508 9.57393E-03-1.51119E-03-7.00965E-14
 -1       509 9.85971E-03-1.55745E-03-7.44514E-14
 -1       510 1.01454E-02-1.60335E-03-7.89100E-14
 -1       511 1.04311E-02-1.64898E-03-8.34780E-14
 -1       512 1.07168E-02-1.69440E-03-8.81572E-14
 -1       513 1.10025E-02-1.73966E-03-9.29374E-14
 -1       514 1.12881E-02-1.78479E-03-9.78074E-14
 -1       515 1.15738E-02-1.82985E-03-1.02762E-13
 -1       516 1.18595E-02-1.87484E-03-1.07794E-13
 -1       517 1.21451E-02-1.91979E-03-1.12908E-13
 -1       518 1.24308E-02-1.96471E-03-1.18099E-13
 -1       519 1.27165E-02-2.00962E-03-1.23369E-13
 -1       520 1.30022E-02-2.05451E-03-1.28716E-13
 -1       521 1.32879E-02-2.09940E-03-1.34131E-13
 -1       522 1.35736E-02-2.14429E-03-1.39607E-13
 -1       523 1.38593E-02-2.18918E-03-1.45143E-13
 -1       524 1.41450E-02-2.23407E-03-1.50743E-13
 -1       525 1.44307E-02-2.27897E-03-1.56389E-13
 -1       526 4.39565E-03-2.67077E-04-9.89960E-15
 -1       527 2.06188E-03 7.39270E-04-3.33860E-15
 -1       528 2.36942E-03 7.42602E-04-4.54714E-15
 -1       529 2.67730E-03 6.96834E-04-5.94667E-15
 -1       530 2.99027E-03 6.14067E-04-7.53149E-15
 -1       531 3.30890E-03 5.12011E-04-9.29472E-15
 -1       532 3.63056E-03 4.06741E-04-1.12279E-14
 -1       533 3.95175E-03 3.08807E-04-1.33211E-14
 -1       534 4.26984E-03 2.23027E-04-1.55702E-14
 -1       535 4.58354E-03 1.50117E-04-1.79676E-14
 -1       536 4.89258E-03 8.85508E-05-2.05084E-14
 -1       537 5.19727E-03 3.59168E-05-2.31898E-14
 -1       538 5.49814E-03-1.02816E-05-2.60067E-14
 -1       539 5.79581E-03-5.22348E-05-2.89515E-14
 -1       540 6.09083E-03-9.16851E-05-3.20196E-14
 -1       541 6.38368E-03-1.29922E-04-3.52104E-14
 -1       542 6.67479E-03-1.67838E-04-3.85218E-14
 -1       543 6.96451E-03-2.06010E-04-4.19490E-14
 -1       544 7.25315E-03-2.44776E-04-4.54913E-14
 -1       545 7.54095E-03-2.84303E-04-4.91438E-14
 -1       546 7.82811E-03-3.24641E-04-5.29136E-14
 -1       547 8.11479E-03-3.65767E-04-5.68007E-14
 -1       548 8.40113E-03-4.07616E-04-6.08113E-14
 -1       549 8.68721E-03-4.50100E-04-6.49420E-14
 -1       550 8.97311E-03-4.93125E-04-6.91886E-14
 -1       551 9.25890E-03-5.36599E-04-7.35539E-14
 -1       552 9.54461E-03-5.80437E-04-7.80325E-14
 -1       553 9.83027E-03-6.24563E-04-8.26189E-14
 -1       554 1.01159E-02-6.68914E-04-8.73114E-14
 -1       555 1.04015E-02-7.13437E-04-9.21036E-14
 -1       556 1.06872E-02-7.58089E-04-9.69930E-14
 -1       557 1.09728E-02-8.02835E-04-1.01973E-13
 -1       558 1.12585E-02-8.47648E-04-1.07046E-13
 -1       559 1.15441E-02-8.92508E-04-1.12207E-13
 -1       560 1.18298E-02-9.37400E-04-1.17453E-13
 -1       561 1.21154E-02-9.82312E-04-1.22783E-13
 -1       562 1.24011E-02-1.02724E-03-1.28189E-13
 -1       563 1.26868E-02-1.07217E-03-1.33659E-13
 -1       564 1.29725E-02-1.11710E-03-1.39186E-13
 -1       565 1.32582E-02-1.16203E-03-1.44770E-13
 -1       566 1.35439E-02-1.20696E-03-1.50403E-13
 -1       567 1.38296E-02-1.25188E-03-1.56080E-13
 -1       568 1.41153E-02-1.29680E-03-1.61800E-13
 -1       569 1.42844E-02-1.57336E-03-1.62322E-13
 -1       570 1.43285E-02-1.65766E-03-1.62285E-13
 -1       571 1.41969E-02-1.40620E-03-1.62351E-13
 -1       572 1.42406E-02-1.48978E-03-1.62346E-13
 -1       573 1.43727E-02-1.74196E-03-1.62232E-13
 -1       574 1.44169E-02-1.82627E-03-1.62158E-13
 -1       575 1.44610E-02-1.91057E-03-1.62064E-13
 -1       576 1.45044E-02-1.99344E-03-1.61940E-13
 -1       577 1.45486E-02-2.07774E-03-1.61786E-13
 -1       578 1.45928E-02-2.16204E-03-1.61610E-13
 -1       579 1.46370E-02-2.24634E-03-1.61417E-13
 -1       580 4.60177E-03-3.42987E-04-1.00860E-14
 -1       581 1.74834E-03 6.86117E-04-2.32330E-15
 -1       582 4.06298E-03-1.52169E-04-9.26604E-15
 -1       583 7.71268E-04-2.26045E-04-5.06299E-16
 -1       584 3.66329E-03 2.46933E-05-8.46537E-15
 -1       585 2.87363E-03 4.23675E-04-5.97976E-15
 -1       586 2.90165E-03-1.05499E-03-5.21498E-15
 -1       587 1.07657E-03 1.09107E-04-1.46958E-15
 -1       588 6.17295E-04-1.25004E-04-4.99766E-16
 -1       589 2.71510E-04-7.16242E-05-4.86409E-16
 -1       590 8.68698E-04-3.09639E-04-5.04849E-16
 -1       591 4.27060E-03-4.53918E-04-9.26858E-15
 -1       592 1.45774E-03 2.94473E-04-2.02048E-15
 -1       593 2.13107E-03 5.60488E-04-3.58567E-15
 -1       594 3.33039E-04-9.48356E-05-7.05275E-16
 -1       595 2.51538E-03 5.50352E-04-4.81799E-15
 -1       596 7.65233E-04-1.50515E-05-1.14086E-15
 -1       597 4.48910E-03-3.79763E-04-9.72877E-15
 -1       598 5.18998E-04-8.15450E-05-9.19461E-16
 -1       599 3.16707E-04-8.52319E-05-7.43392E-16
 -1       600 4.28220E-04-8.80846E-05-7.86900E-16
 -1       601 7.29858E-04-1.83850E-04-1.03446E-15
 -1       602 1.09436E-03-3.55267E-04-1.32963E-15
 -1       603 1.48262E-03-5.83610E-04-1.75819E-15
 -1       604 1.89965E-03-8.45722E-04-2.42438E-15
 -1       605 2.34324E-03-1.05389E-03-3.47035E-15
 -1       606 2.58700E-03-1.09394E-03-4.18495E-15
 -1       607 3.29809E-03-9.06535E-04-6.59961E-15
 -1       608 3.60713E-03-7.53018E-04-7.57639E-15
 -1       609 3.85142E-03-6.31359E-04-8.24164E-15
 -1       610 4.57143E-03-3.15702E-04-1.00732E-14
 -1       611 3.28644E-03 2.16395E-04-7.34111E-15
 -1       612 1.65354E-03 4.13087E-04-2.30906E-15
 -1       613 1.46247E-02-2.31099E-03-1.60234E-13
 -1       614 4.12634E-03-5.43799E-04-9.53666E-15
 -1       615 1.12328E-03-4.04586E-04-9.18905E-16
 -1       616 7.11311E-04-1.28192E-05-8.29262E-16
 -1       617 1.00174E-03 2.09205E-04-9.54996E-16
 -1       618 1.04320E-03 3.09038E-04-9.45634E-16
 -1       619 4.67071E-03-3.46510E-04-1.14953E-14
 -1       620 3.36803E-03-9.14991E-04-7.03779E-15
 -1       621 3.76548E-03-7.87021E-04-8.81877E-15
 -1       622 4.13445E-03-7.07246E-04-1.07663E-14
 -1       623 4.47316E-03-6.72517E-04-1.28615E-14
 -1       624 4.78875E-03-6.69705E-04-1.50955E-14
 -1       625 5.09001E-03-6.88360E-04-1.74632E-14
 -1       626 5.38333E-03-7.21329E-04-1.99678E-14
 -1       627 5.67269E-03-7.63646E-04-2.26060E-14
 -1       628 5.96024E-03-8.11817E-04-2.53727E-14
 -1       629 6.24706E-03-8.63360E-04-2.82674E-14
 -1       630 6.53361E-03-9.16541E-04-3.12867E-14
 -1       631 6.82006E-03-9.70196E-04-3.44316E-14
 -1       632 7.10644E-03-1.02358E-03-3.76991E-14
 -1       633 7.39276E-03-1.07627E-03-4.10863E-14
 -1       634 7.67901E-03-1.12804E-03-4.45941E-14
 -1       635 7.96517E-03-1.17883E-03-4.82265E-14
 -1       636 8.25124E-03-1.22864E-03-5.19791E-14
 -1       637 8.53723E-03-1.27756E-03-5.58434E-14
 -1       638 8.82316E-03-1.32568E-03-5.98181E-14
 -1       639 9.10903E-03-1.37312E-03-6.39068E-14
 -1       640 9.39486E-03-1.41998E-03-6.81075E-14
 -1       641 9.68065E-03-1.46638E-03-7.24120E-14
 -1       642 9.96641E-03-1.51240E-03-7.68182E-14
 -1       643 1.02522E-02-1.55812E-03-8.13306E-14
 -1       644 1.05379E-02-1.60361E-03-8.59536E-14
 -1       645 1.08236E-02-1.64892E-03-9.06856E-14
 -1       646 1.11093E-02-1.69410E-03-9.55140E-14
 -1       647 1.13950E-02-1.73918E-03-1.00427E-13
 -1       648 1.16807E-02-1.78420E-03-1.05421E-13
 -1       649 1.19664E-02-1.82916E-03-1.10496E-13
 -1       650 1.22521E-02-1.87409E-03-1.15650E-13
 -1       651 1.25379E-02-1.91901E-03-1.20879E-13
 -1       652 1.28236E-02-1.96390E-03-1.26192E-13
 -1       653 1.31093E-02-2.00880E-03-1.31572E-13
 -1       654 1.33950E-02-2.05369E-03-1.37017E-13
 -1       655 1.36807E-02-2.09858E-03-1.42522E-13
 -1       656 1.39664E-02-2.14347E-03-1.48091E-13
 -1       657 1.42521E-02-2.18836E-03-1.53719E-13
 -1       658 2.22722E-03 6.86114E-04-4.01169E-15
 -1       659 3.19822E-03 4.77651E-04-8.52456E-15
 -1       660 3.53141E-03 3.66010E-04-1.03847E-14
 -1       661 3.86190E-03 2.62472E-04-1.24080E-14
 -1       662 4.18571E-03 1.72878E-04-1.45867E-14
 -1       663 4.50154E-03 9.76489E-05-1.69141E-14
 -1       664 4.80993E-03 3.47162E-05-1.93866E-14
 -1       665 5.11225E-03-1.87183E-05-2.19982E-14
 -1       666 5.40994E-03-6.53598E-05-2.47476E-14
 -1       667 5.70426E-03-1.07502E-04-2.76275E-14
 -1       668 5.99616E-03-1.46946E-04-3.06330E-14
 -1       669 6.28633E-03-1.85029E-04-3.37617E-14
 -1       670 6.57528E-03-2.22686E-04-3.70132E-14
 -1       671 6.86332E-03-2.60534E-04-4.03837E-14
 -1       672 7.15072E-03-2.98946E-04-4.38691E-14
 -1       673 7.43764E-03-3.38115E-04-4.74670E-14
 -1       674 7.72421E-03-3.78111E-04-5.11773E-14
 -1       675 8.01052E-03-4.18926E-04-5.50060E-14
 -1       676 8.29665E-03-4.60500E-04-5.89546E-14
 -1       677 8.58263E-03-5.02747E-04-6.30220E-14
 -1       678 8.86851E-03-5.45574E-04-6.72032E-14
 -1       679 9.15433E-03-5.88885E-04-7.14991E-14
 -1       680 9.44009E-03-6.32592E-04-7.59110E-14
 -1       681 9.72583E-03-6.76614E-04-8.04373E-14
 -1       682 1.00115E-02-7.20885E-04-8.50715E-14
 -1       683 1.02972E-02-7.65347E-04-8.98093E-14
 -1       684 1.05829E-02-8.09953E-04-9.46480E-14
 -1       685 1.08686E-02-8.54665E-04-9.95767E-14
 -1       686 1.11543E-02-8.99454E-04-1.04594E-13
 -1       687 1.14400E-02-9.44298E-04-1.09702E-13
 -1       688 1.17257E-02-9.89179E-04-1.14893E-13
 -1       689 1.20114E-02-1.03408E-03-1.20168E-13
 -1       690 1.22971E-02-1.07900E-03-1.25527E-13
 -1       691 1.25828E-02-1.12393E-03-1.30955E-13
 -1       692 1.28685E-02-1.16886E-03-1.36445E-13
 -1       693 1.31542E-02-1.21380E-03-1.41992E-13
 -1       694 1.34399E-02-1.25873E-03-1.47600E-13
 -1       695 1.37256E-02-1.30365E-03-1.53251E-13
 -1       696 1.39612E-02-1.35493E-03-1.57787E-13
 -1       697 1.23680E-03 4.54334E-04-1.21753E-15
 -1       698 1.41473E-02-1.74522E-03-1.57242E-13
 -1       699 1.44446E-02-2.21735E-03-1.57555E-13
 -1       700 1.40590E-02-1.57661E-03-1.57344E-13
 -1       701 1.41915E-02-1.82953E-03-1.57159E-13
 -1       702 1.41032E-02-1.66091E-03-1.57300E-13
 -1       703 1.42349E-02-1.91240E-03-1.57049E-13
 -1       704 1.42791E-02-1.99671E-03-1.56910E-13
 -1       705 1.43233E-02-2.08101E-03-1.56748E-13
 -1       706 1.43839E-02-2.14918E-03-1.57157E-13
 -1       707 1.90638E-03 6.52686E-04-2.88817E-15
 -1       708 2.18345E-03-1.00011E-03-2.99932E-15
 -1       709 3.48413E-03 1.32538E-04-8.48465E-15
 -1       710 1.23583E-03-4.38354E-04-1.25978E-15
 -1       711 4.60953E-03-3.70563E-04-1.09340E-14
 -1       712 4.31457E-03-2.31803E-04-1.09568E-14
 -1       713 2.86801E-03 5.83067E-04-6.83659E-15
 -1       714 2.54497E-03 6.60014E-04-5.32938E-15
 -1       715 2.00070E-03 5.56284E-04-3.20180E-15
 -1       716 5.88450E-04-5.88577E-05-7.83021E-16
 -1       717 4.45855E-03-4.20178E-04-1.05359E-14
 -1       718 9.15581E-04 1.02395E-04-9.43161E-16
 -1       719 1.21169E-03 1.96227E-04-1.49143E-15
 -1       720 2.32135E-03 5.89364E-04-4.25696E-15
 -1       721 2.70466E-03 5.06400E-04-5.66132E-15
 -1       722 3.05995E-03 3.50303E-04-7.00433E-15
 -1       723 8.56979E-04 3.18035E-05-1.04273E-15
 -1       724 4.57763E-03-3.15862E-04-1.13107E-14
 -1       725 3.98881E-03-1.04796E-04-1.00847E-14
 -1       726 2.48522E-03-1.10463E-03-3.80867E-15
 -1       727 5.37611E-04-9.67251E-05-7.00564E-16
 -1       728 1.57631E-03 5.68159E-04-1.95868E-15
 -1       729 8.52998E-04-2.22863E-04-9.22585E-16
 -1       730 1.39666E-03 3.18903E-04-1.72699E-15
 -1       731 5.02755E-04-8.16878E-05-7.69418E-16
 -1       732 1.26652E-03-4.72770E-04-1.17538E-15
 -1       733 1.40153E-02-1.49302E-03-1.57374E-13
 -1       734 1.39883E-02-1.42397E-03-1.57586E-13
 -1       735 3.82266E-03-2.65944E-06-1.00896E-14
 -1       736 1.77079E-03 4.97950E-04-2.54888E-15
 -1       737 2.50910E-03 5.81359E-04-5.03250E-15
 -1       738 4.35569E-03-4.95926E-04-1.08074E-14
 -1       739 3.92722E-03-6.62989E-04-9.18104E-15
 -1       740 2.16779E-03 6.13079E-04-3.77156E-15
 -1       741 1.33272E-03 3.70377E-04-1.50760E-15
 -1       742 4.41212E-03-5.74601E-04-1.19224E-14
 -1       743 4.70986E-03-5.76599E-04-1.40977E-14
 -1       744 4.99224E-03-5.98243E-04-1.64028E-14
 -1       745 5.26829E-03-6.32092E-04-1.88409E-14
 -1       746 5.54283E-03-6.73709E-04-2.14144E-14
 -1       747 5.81811E-03-7.20455E-04-2.41176E-14
 -1       748 6.09501E-03-7.70437E-04-2.69508E-14
 -1       749 6.37373E-03-8.22233E-04-2.99096E-14
 -1       750 6.65409E-03-8.74798E-04-3.29927E-14
 -1       751 6.93584E-03-9.27400E-04-3.61981E-14
 -1       752 7.21869E-03-9.79566E-04-3.95247E-14
 -1       753 7.50237E-03-1.03102E-03-4.29717E-14
 -1       754 7.78668E-03-1.08164E-03-4.65395E-14
 -1       755 8.07144E-03-1.13139E-03-5.02324E-14
 -1       756 8.35653E-03-1.18031E-03-5.40396E-14
 -1       757 8.64185E-03-1.22847E-03-5.79609E-14
 -1       758 8.92733E-03-1.27597E-03-6.19898E-14
 -1       759 9.21291E-03-1.32291E-03-6.61329E-14
 -1       760 9.49858E-03-1.36937E-03-7.03870E-14
 -1       761 9.78428E-03-1.41545E-03-7.47436E-14
 -1       762 1.00700E-02-1.46122E-03-7.92035E-14
 -1       763 1.03558E-02-1.50676E-03-8.37719E-14
 -1       764 1.06415E-02-1.55211E-03-8.84496E-14
 -1       765 1.09273E-02-1.59732E-03-9.32314E-14
 -1       766 1.12130E-02-1.64243E-03-9.81031E-14
 -1       767 1.14988E-02-1.68746E-03-1.03059E-13
 -1       768 1.17845E-02-1.73244E-03-1.08097E-13
 -1       769 1.20703E-02-1.77739E-03-1.13214E-13
 -1       770 1.23560E-02-1.82231E-03-1.18406E-13
 -1       771 1.26417E-02-1.86721E-03-1.23677E-13
 -1       772 1.29275E-02-1.91211E-03-1.29023E-13
 -1       773 1.32132E-02-1.95700E-03-1.34437E-13
 -1       774 1.34989E-02-2.00189E-03-1.39916E-13
 -1       775 1.37846E-02-2.04678E-03-1.45456E-13
 -1       776 1.40704E-02-2.09168E-03-1.51054E-13
 -1       777 3.77605E-03 2.10550E-04-1.14940E-14
 -1       778 3.43262E-03 3.22503E-04-9.53845E-15
 -1       779 4.42786E-03 4.11473E-05-1.58639E-14
 -1       780 4.73613E-03-2.12271E-05-1.82681E-14
 -1       781 5.03590E-03-7.38221E-05-2.08122E-14
 -1       782 5.32979E-03-1.19770E-04-2.34934E-14
 -1       783 5.61990E-03-1.61449E-04-2.63092E-14
 -1       784 5.90773E-03-2.00612E-04-2.92516E-14
 -1       785 6.19424E-03-2.38519E-04-3.23179E-14
 -1       786 6.48008E-03-2.76047E-04-3.55070E-14
 -1       787 6.76560E-03-3.13774E-04-3.88179E-14
 -1       788 7.05101E-03-3.52057E-04-4.22471E-14
 -1       789 7.33642E-03-3.91087E-04-4.57902E-14
 -1       790 7.62188E-03-4.30938E-04-4.94449E-14
 -1       791 7.90741E-03-4.71606E-04-5.32147E-14
 -1       792 8.19299E-03-5.13039E-04-5.71032E-14
 -1       793 8.47862E-03-5.55156E-04-6.11082E-14
 -1       794 8.76429E-03-5.97865E-04-6.52285E-14
 -1       795 9.04999E-03-6.41073E-04-6.94595E-14
 -1       796 9.33571E-03-6.84691E-04-7.38062E-14
 -1       797 9.62145E-03-7.28639E-04-7.82640E-14
 -1       798 9.90718E-03-7.72850E-04-8.28381E-14
 -1       799 1.01929E-02-8.17263E-04-8.75194E-14
 -1       800 1.04787E-02-8.61830E-04-9.23068E-14
 -1       801 1.07644E-02-9.06512E-04-9.71856E-14
 -1       802 1.10501E-02-9.51279E-04-1.02154E-13
 -1       803 1.13359E-02-9.96105E-04-1.07210E-13
 -1       804 1.16216E-02-1.04097E-03-1.12349E-13
 -1       805 1.19073E-02-1.08587E-03-1.17573E-13
 -1       806 1.21931E-02-1.13078E-03-1.22880E-13
 -1       807 1.24788E-02-1.17571E-03-1.28266E-13
 -1       808 1.27645E-02-1.22064E-03-1.33713E-13
 -1       809 1.30502E-02-1.26557E-03-1.39224E-13
 -1       810 1.33359E-02-1.31050E-03-1.44795E-13
 -1       811 1.36216E-02-1.35542E-03-1.50418E-13
 -1       812 1.38050E-02-1.38970E-03-1.53992E-13
 -1       813 1.74091E-03 5.49478E-04-2.43838E-15
 -1       814 1.40096E-02-1.91567E-03-1.52067E-13
 -1       815 1.39220E-02-1.74848E-03-1.52284E-13
 -1       816 3.30722E-03 2.65186E-04-8.31930E-15
 -1       817 4.56108E-03-2.92941E-04-1.24388E-14
 -1       818 3.08437E-03 4.46454E-04-7.74868E-15
 -1       819 4.10838E-03 1.17135E-04-1.36043E-14
 -1       820 1.40538E-02-1.99997E-03-1.51923E-13
 -1       821 2.79829E-03 5.20791E-04-6.32797E-15
 -1       822 2.88451E-03 4.64958E-04-6.59588E-15
 -1       823 4.62869E-03-4.10526E-04-1.18921E-14
 -1       824 4.71052E-03-3.44198E-04-1.26124E-14
 -1       825 4.25101E-03-1.70594E-04-1.18267E-14
 -1       826 4.72749E-03-3.77002E-04-1.23714E-14
 -1       827 1.39658E-02-1.83208E-03-1.52189E-13
 -1       828 1.12270E-03 2.06793E-04-1.21992E-15
 -1       829 1.37897E-02-1.49592E-03-1.52436E-13
 -1       830 1.38778E-02-1.66417E-03-1.52353E-13
 -1       831 3.63861E-03 1.30980E-04-9.89817E-15
 -1       832 4.81248E-03-3.76026E-04-1.35205E-14
 -1       833 4.56763E-03-4.70524E-04-1.21751E-14
 -1       834 4.52348E-03-2.45370E-04-1.33491E-14
 -1       835 1.38338E-02-1.58004E-03-1.52402E-13
 -1       836 4.76632E-03-3.34871E-04-1.40206E-14
 -1       837 5.25803E-03-1.73781E-04-2.22459E-14
 -1       838 1.37842E-02-1.91894E-03-1.47128E-13
 -1       839 4.91607E-03-5.13460E-04-1.53457E-14
 -1       840 5.16778E-03-5.49383E-04-1.77203E-14
 -1       841 5.42351E-03-5.90558E-04-2.02281E-14
 -1       842 5.68417E-03-6.35549E-04-2.28680E-14
 -1       843 5.94964E-03-6.83318E-04-2.56383E-14
 -1       844 6.21937E-03-7.32935E-04-2.85361E-14
 -1       845 6.49271E-03-7.83591E-04-3.15568E-14
 -1       846 6.76901E-03-8.34636E-04-3.47016E-14
 -1       847 7.04767E-03-8.85594E-04-3.79678E-14
 -1       848 7.32818E-03-9.36147E-04-4.13565E-14
 -1       849 7.61011E-03-9.86111E-04-4.48628E-14
 -1       850 7.89312E-03-1.03540E-03-4.84914E-14
 -1       851 8.17695E-03-1.08401E-03-5.22414E-14
 -1       852 8.46137E-03-1.13196E-03-5.61037E-14
 -1       853 8.74624E-03-1.17933E-03-6.00804E-14
 -1       854 9.03141E-03-1.22618E-03-6.41658E-14
 -1       855 9.31681E-03-1.27260E-03-6.83642E-14
 -1       856 9.60236E-03-1.31866E-03-7.26671E-14
 -1       857 9.88801E-03-1.36443E-03-7.70802E-14
 -1       858 1.01737E-02-1.40997E-03-8.15957E-14
 -1       859 1.04595E-02-1.45533E-03-8.62193E-14
 -1       860 1.07453E-02-1.50056E-03-9.09490E-14
 -1       861 1.10310E-02-1.54568E-03-9.57749E-14
 -1       862 1.13168E-02-1.59072E-03-1.00692E-13
 -1       863 1.16026E-02-1.63571E-03-1.05694E-13
 -1       864 1.18884E-02-1.68067E-03-1.10774E-13
 -1       865 1.21741E-02-1.72559E-03-1.15932E-13
 -1       866 1.24599E-02-1.77051E-03-1.21166E-13
 -1       867 1.27456E-02-1.81541E-03-1.26475E-13
 -1       868 1.30314E-02-1.86030E-03-1.31854E-13
 -1       869 1.33171E-02-1.90520E-03-1.37302E-13
 -1       870 1.36029E-02-1.95009E-03-1.42816E-13
 -1       871 4.96946E-03-1.30097E-04-1.96311E-14
 -1       872 4.67387E-03-8.04928E-05-1.71546E-14
 -1       873 5.54261E-03-2.14021E-04-2.49960E-14
 -1       874 5.82520E-03-2.52406E-04-2.78755E-14
 -1       875 6.10705E-03-2.89980E-04-3.08796E-14
 -1       876 6.38891E-03-3.27440E-04-3.40061E-14
 -1       877 6.67114E-03-3.65235E-04-3.72545E-14
 -1       878 6.95392E-03-4.03637E-04-4.06234E-14
 -1       879 7.23726E-03-4.42791E-04-4.41116E-14
 -1       880 7.52115E-03-4.82746E-04-4.77112E-14
 -1       881 7.80550E-03-5.23492E-04-5.14236E-14
 -1       882 8.09023E-03-5.64975E-04-5.52534E-14
 -1       883 8.37527E-03-6.07117E-04-5.91991E-14
 -1       884 8.66054E-03-6.49834E-04-6.32589E-14
 -1       885 8.94598E-03-6.93036E-04-6.74284E-14
 -1       886 9.23155E-03-7.36640E-04-7.17135E-14
 -1       887 9.51720E-03-7.80569E-04-7.61059E-14
 -1       888 9.80291E-03-8.24758E-04-8.06159E-14
 -1       889 1.00886E-02-8.69150E-04-8.52378E-14
 -1       890 1.03744E-02-9.13697E-04-8.99698E-14
 -1       891 1.06602E-02-9.58361E-04-9.48006E-14
 -1       892 1.09459E-02-1.00311E-03-9.97209E-14
 -1       893 1.12317E-02-1.04793E-03-1.04727E-13
 -1       894 1.15175E-02-1.09278E-03-1.09819E-13
 -1       895 1.18032E-02-1.13767E-03-1.14989E-13
 -1       896 1.20890E-02-1.18258E-03-1.20247E-13
 -1       897 1.23747E-02-1.22749E-03-1.25587E-13
 -1       898 1.26605E-02-1.27242E-03-1.30997E-13
 -1       899 1.29462E-02-1.31735E-03-1.36468E-13
 -1       900 1.32319E-02-1.36228E-03-1.42000E-13
 -1       901 1.35177E-02-1.40720E-03-1.47591E-13
 -1       902 1.37973E-02-1.44281E-03-1.53217E-13
 -1       903 3.70252E-03 1.52437E-04-1.05780E-14
 -1       904 4.08564E-03-5.27152E-05-1.19573E-14
 -1       905 4.80741E-03-4.22916E-04-1.36760E-14
 -1       906 3.24417E-03 3.38240E-04-8.32641E-15
 -1       907 1.37404E-02-1.83534E-03-1.47255E-13
 -1       908 4.37698E-03-1.49372E-04-1.34912E-14
 -1       909 1.35643E-02-1.49908E-03-1.47538E-13
 -1       910 4.04479E-03 5.41292E-05-1.26242E-14
 -1       911 1.36525E-02-1.66743E-03-1.47441E-13
 -1       912 4.90204E-03-3.72980E-04-1.49705E-14
 -1       913 4.36717E-03-2.10674E-05-1.48177E-14
 -1       914 1.36962E-02-1.75103E-03-1.47360E-13
 -1       915 1.36084E-02-1.58330E-03-1.47499E-13
 -1       916 5.07592E-03-4.76150E-04-1.66044E-14
 -1       917 5.74811E-03-3.01946E-04-2.65057E-14
 -1       918 5.30930E-03-5.15723E-04-1.90479E-14
 -1       919 5.55382E-03-5.57956E-04-2.16246E-14
 -1       920 5.80721E-03-6.02594E-04-2.43314E-14
 -1       921 6.06766E-03-6.49158E-04-2.71674E-14
 -1       922 6.33376E-03-6.97075E-04-3.01287E-14
 -1       923 6.60439E-03-7.45789E-04-3.32117E-14
 -1       924 6.87862E-03-7.94836E-04-3.64165E-14
 -1       925 7.15568E-03-8.43868E-04-3.97446E-14
 -1       926 7.43497E-03-8.92645E-04-4.31934E-14
 -1       927 7.71598E-03-9.41027E-04-4.67618E-14
 -1       928 7.99831E-03-9.88947E-04-5.04500E-14
 -1       929 8.28164E-03-1.03639E-03-5.42532E-14
 -1       930 8.56572E-03-1.08339E-03-5.81747E-14
 -1       931 8.85034E-03-1.12998E-03-6.22057E-14
 -1       932 9.13537E-03-1.17621E-03-6.63455E-14
 -1       933 9.42067E-03-1.22214E-03-7.05961E-14
 -1       934 9.70617E-03-1.26782E-03-7.49552E-14
 -1       935 9.99180E-03-1.31330E-03-7.94213E-14
 -1       936 1.02775E-02-1.35863E-03-8.39913E-14
 -1       937 1.05633E-02-1.40383E-03-8.86701E-14
 -1       938 1.08491E-02-1.44895E-03-9.34457E-14
 -1       939 1.11349E-02-1.49399E-03-9.83207E-14
 -1       940 1.14207E-02-1.53898E-03-1.03286E-13
 -1       941 1.17065E-02-1.58394E-03-1.08332E-13
 -1       942 1.19923E-02-1.62887E-03-1.13454E-13
 -1       943 1.22780E-02-1.67379E-03-1.18652E-13
 -1       944 1.25638E-02-1.71870E-03-1.23926E-13
 -1       945 1.28496E-02-1.76360E-03-1.29272E-13
 -1       946 1.31353E-02-1.80850E-03-1.34685E-13
 -1       947 1.34211E-02-1.85339E-03-1.40171E-13
 -1       948 5.19548E-03-2.27148E-04-2.10053E-14
 -1       949 4.91530E-03-1.87443E-04-1.84573E-14
 -1       950 6.02417E-03-3.38991E-04-2.94448E-14
 -1       951 6.30119E-03-3.76425E-04-3.25080E-14
 -1       952 6.57946E-03-4.14477E-04-3.56943E-14
 -1       953 6.85906E-03-4.53264E-04-3.90033E-14
 -1       954 7.13989E-03-4.92835E-04-4.24310E-14
 -1       955 7.42183E-03-5.33187E-04-4.59748E-14
 -1       956 7.70470E-03-5.74280E-04-4.96316E-14
 -1       957 7.98833E-03-6.16049E-04-5.34036E-14
 -1       958 8.27257E-03-6.58419E-04-5.72942E-14
 -1       959 8.55727E-03-7.01309E-04-6.12948E-14
 -1       960 8.84233E-03-7.44638E-04-6.54052E-14
 -1       961 9.12764E-03-7.88332E-04-6.96286E-14
 -1       962 9.41313E-03-8.32323E-04-7.39623E-14
 -1       963 9.69875E-03-8.76550E-04-7.84088E-14
 -1       964 9.98445E-03-9.20965E-04-8.29703E-14
 -1       965 1.02702E-02-9.65523E-04-8.76425E-14
 -1       966 1.05560E-02-1.01019E-03-9.24200E-14
 -1       967 1.08418E-02-1.05494E-03-9.72926E-14
 -1       968 1.11276E-02-1.09975E-03-1.02253E-13
 -1       969 1.14134E-02-1.14460E-03-1.07296E-13
 -1       970 1.16991E-02-1.18948E-03-1.12419E-13
 -1       971 1.19849E-02-1.23438E-03-1.17629E-13
 -1       972 1.22707E-02-1.27929E-03-1.22921E-13
 -1       973 1.25564E-02-1.32421E-03-1.28286E-13
 -1       974 1.28422E-02-1.36914E-03-1.33720E-13
 -1       975 1.31279E-02-1.41406E-03-1.39217E-13
 -1       976 1.33461E-02-1.45657E-03-1.43361E-13
 -1       977 4.80425E-03-3.02191E-04-1.54238E-14
 -1       978 5.47231E-03-2.64894E-04-2.36902E-14
 -1       979 5.00525E-03-4.20751E-04-1.57908E-14
 -1       980 1.33902E-02-1.54079E-03-1.43327E-13
 -1       981 4.62802E-03-1.43281E-04-1.60476E-14
 -1       982 1.34343E-02-1.62493E-03-1.43271E-13
 -1       983 4.96682E-03-3.50489E-04-1.64220E-14
 -1       984 4.69373E-03-2.27004E-04-1.55807E-14
 -1       985 1.34780E-02-1.70853E-03-1.43194E-13
 -1       986 4.36222E-03-8.42056E-05-1.41570E-14
 -1       987 5.14281E-03-2.78618E-04-1.97742E-14
 -1       988 5.21932E-03-4.55834E-04-1.81874E-14
 -1       989 5.45086E-03-4.93880E-04-2.07178E-14
 -1       990 5.69486E-03-5.34523E-04-2.33792E-14
 -1       991 5.94820E-03-5.77438E-04-2.61680E-14
 -1       992 6.20874E-03-6.22100E-04-2.90849E-14
 -1       993 6.47494E-03-6.67969E-04-3.21236E-14
 -1       994 6.74562E-03-7.14594E-04-3.52848E-14
 -1       995 7.01986E-03-7.61601E-04-3.85688E-14
 -1       996 7.29693E-03-8.08715E-04-4.19725E-14
 -1       997 7.57621E-03-8.55749E-04-4.54980E-14
 -1       998 7.85721E-03-9.02594E-04-4.91430E-14
 -1       999 8.13954E-03-9.49195E-04-5.29027E-14
 -1      1000 8.42288E-03-9.95534E-04-5.67797E-14
 -1      1001 8.70697E-03-1.04162E-03-6.07707E-14
 -1      1002 8.99162E-03-1.08747E-03-6.48679E-14
 -1      1003 9.27666E-03-1.13312E-03-6.90768E-14
 -1      1004 9.56199E-03-1.17859E-03-7.33970E-14
 -1      1005 9.84752E-03-1.22393E-03-7.78229E-14
 -1      1006 1.01332E-02-1.26915E-03-8.23547E-14
 -1      1007 1.04189E-02-1.31428E-03-8.69942E-14
 -1      1008 1.07047E-02-1.35935E-03-9.17353E-14
 -1      1009 1.09905E-02-1.40437E-03-9.65773E-14
 -1      1010 1.12763E-02-1.44934E-03-1.01511E-13
 -1      1011 1.15621E-02-1.49429E-03-1.06533E-13
 -1      1012 1.18479E-02-1.53922E-03-1.11633E-13
 -1      1013 1.21337E-02-1.58414E-03-1.16803E-13
 -1      1014 1.24195E-02-1.62905E-03-1.22055E-13
 -1      1015 1.27053E-02-1.67396E-03-1.27376E-13
 -1      1016 1.29911E-02-1.71886E-03-1.32764E-13
 -1      1017 1.32768E-02-1.76376E-03-1.38229E-13
 -1      1018 6.48974E-03-4.61102E-04-3.41383E-14
 -1      1019 6.76575E-03-5.00572E-04-3.73852E-14
 -1      1020 7.04378E-03-5.40886E-04-4.07511E-14
 -1      1021 7.32353E-03-5.81958E-04-4.42368E-14
 -1      1022 7.60472E-03-6.23702E-04-4.78388E-14
 -1      1023 7.88710E-03-6.66032E-04-5.15550E-14
 -1      1024 8.17040E-03-7.08864E-04-5.53853E-14
 -1      1025 8.45442E-03-7.52127E-04-5.93329E-14
 -1      1026 8.73900E-03-7.95747E-04-6.33865E-14
 -1      1027 9.02398E-03-8.39661E-04-6.75503E-14
 -1      1028 9.30925E-03-8.83815E-04-7.18269E-14
 -1      1029 9.59473E-03-9.28161E-04-7.62143E-14
 -1      1030 9.88035E-03-9.72657E-04-8.07163E-14
 -1      1031 1.01661E-02-1.01727E-03-8.53262E-14
 -1      1032 1.04518E-02-1.06197E-03-9.00485E-14
 -1      1033 1.07376E-02-1.10674E-03-9.48709E-14
 -1      1034 1.10234E-02-1.15156E-03-9.97848E-14
 -1      1035 1.13092E-02-1.19642E-03-1.04782E-13
 -1      1036 1.15950E-02-1.24130E-03-1.09861E-13
 -1      1037 1.18808E-02-1.28619E-03-1.15021E-13
 -1      1038 1.21666E-02-1.33110E-03-1.20266E-13
 -1      1039 1.24524E-02-1.37602E-03-1.25589E-13
 -1      1040 1.27382E-02-1.42094E-03-1.30978E-13
 -1      1041 1.30239E-02-1.46586E-03-1.36441E-13
 -1      1042 1.32071E-02-1.50333E-03-1.39872E-13
 -1      1043 5.67562E-03-3.48589E-04-2.51397E-14
 -1      1044 5.40866E-03-3.13191E-04-2.23906E-14
 -1      1045 6.21598E-03-4.22558E-04-3.10166E-14
 -1      1046 5.94461E-03-3.85034E-04-2.80167E-14
 -1      1047 5.00054E-03-3.13210E-04-1.75866E-14
 -1      1048 1.32511E-02-1.58747E-03-1.39822E-13
 -1      1049 5.10870E-03-4.03492E-04-1.73073E-14
 -1      1050 5.33388E-03-4.36206E-04-1.97875E-14
 -1      1051 4.87609E-03-2.44271E-04-1.72925E-14
 -1      1052 5.57284E-03-4.72175E-04-2.24019E-14
 -1      1053 5.82209E-03-5.11212E-04-2.51448E-14
 -1      1054 6.07922E-03-5.52389E-04-2.80150E-14
 -1      1055 6.34252E-03-5.95176E-04-3.10103E-14
 -1      1056 6.61080E-03-6.39179E-04-3.41263E-14
 -1      1057 6.88295E-03-6.83941E-04-3.73660E-14
 -1      1058 7.15832E-03-7.29159E-04-4.07270E-14
 -1      1059 7.43625E-03-7.74625E-04-4.42076E-14
 -1      1060 7.71617E-03-8.20192E-04-4.78081E-14
 -1      1061 7.99765E-03-8.65761E-04-5.15255E-14
 -1      1062 8.28036E-03-9.11284E-04-5.53571E-14
 -1      1063 8.56398E-03-9.56721E-04-5.93072E-14
 -1      1064 8.84828E-03-1.00208E-03-6.33628E-14
 -1      1065 9.13308E-03-1.04735E-03-6.75278E-14
 -1      1066 9.41824E-03-1.09254E-03-7.18050E-14
 -1      1067 9.70365E-03-1.13767E-03-7.61901E-14
 -1      1068 9.98924E-03-1.18275E-03-8.06838E-14
 -1      1069 1.02749E-02-1.22778E-03-8.52826E-14
 -1      1070 1.05607E-02-1.27277E-03-8.99900E-14
 -1      1071 1.08465E-02-1.31774E-03-9.47998E-14
 -1      1072 1.11323E-02-1.36269E-03-9.97028E-14
 -1      1073 1.14181E-02-1.40762E-03-1.04693E-13
 -1      1074 1.17040E-02-1.45254E-03-1.09768E-13
 -1      1075 1.19898E-02-1.49746E-03-1.14914E-13
 -1      1076 1.22756E-02-1.54237E-03-1.20138E-13
 -1      1077 1.25614E-02-1.58728E-03-1.25441E-13
 -1      1078 1.28471E-02-1.63219E-03-1.30807E-13
 -1      1079 1.31329E-02-1.67710E-03-1.36247E-13
 -1      1080 6.94813E-03-5.86702E-04-3.90770E-14
 -1      1081 6.67303E-03-5.45284E-04-3.57716E-14
 -1      1082 7.50513E-03-6.71561E-04-4.60442E-14
 -1      1083 7.78619E-03-7.14742E-04-4.97048E-14
 -1      1084 8.06853E-03-7.58292E-04-5.34788E-14
 -1      1085 8.35184E-03-8.02153E-04-5.73682E-14
 -1      1086 8.63590E-03-8.46242E-04-6.13714E-14
 -1      1087 8.92051E-03-8.90531E-04-6.54794E-14
 -1      1088 9.20553E-03-9.34968E-04-6.96972E-14
 -1      1089 9.49084E-03-9.79526E-04-7.40284E-14
 -1      1090 9.77635E-03-1.02418E-03-7.84721E-14
 -1      1091 1.00620E-02-1.06890E-03-8.30232E-14
 -1      1092 1.03477E-02-1.11368E-03-8.76886E-14
 -1      1093 1.06335E-02-1.15850E-03-9.24554E-14
 -1      1094 1.09193E-02-1.20335E-03-9.73202E-14
 -1      1095 1.12052E-02-1.24822E-03-1.02273E-13
 -1      1096 1.14910E-02-1.29311E-03-1.07310E-13
 -1      1097 1.17768E-02-1.33801E-03-1.12424E-13
 -1      1098 1.20626E-02-1.38292E-03-1.17621E-13
 -1      1099 1.23484E-02-1.42783E-03-1.22899E-13
 -1      1100 1.26341E-02-1.47274E-03-1.28249E-13
 -1      1101 1.29199E-02-1.51766E-03-1.33666E-13
 -1      1102 5.35006E-03-3.57452E-04-2.10990E-14
 -1      1103 5.86673E-03-4.27445E-04-2.65933E-14
 -1      1104 5.60598E-03-3.91325E-04-2.37821E-14
 -1      1105 6.40074E-03-5.04758E-04-3.25905E-14
 -1      1106 7.22565E-03-6.28843E-04-4.25009E-14
 -1      1107 6.13181E-03-4.65418E-04-2.95314E-14
 -1      1108 1.29508E-02-1.56599E-03-1.33748E-13
 -1      1109 5.24303E-03-3.88531E-04-1.92956E-14
 -1      1110 8.24930E-03-8.51295E-04-5.54048E-14
 -1      1111 6.04650E-03-5.04596E-04-2.80506E-14
 -1      1112 5.65170E-03-4.38646E-04-2.37731E-14
 -1      1113 6.43652E-03-5.56641E-04-3.25742E-14
 -1      1114 8.66723E-03-9.07230E-04-6.13443E-14
 -1      1115 0.00000E+00 0.00000E+00 0.00000E+00
 -1      1116 0.00000E+00 0.00000E+00 0.00000E+00
 -1      1117 0.00000E+00 0.00000E+00 0.00000E+00
 -1      1118 0.00000E+00 0.00000E+00 0.00000E+00
 -1      1119 0.00000E+00 0.00000E+00 0.00000E+00
 -1      1120 0.00000E+00 0.00000E+00 0.00000E+00
 -1      1121 0.00000E+00 0.00000E+00 0.00000E+00
 -1      1122 0.00000E+00 0.00000E+00 0.00000E+00
 -1      1123 0.00000E+00 0.00000E+00 0.00000E+00
 -1      1124 0.00000E+00 0.00000E+00 0.00000E+00
 -1      1125 0.00000E+00 0.00000E+00 0.00000E+00
 -1      1126 0.00000E+00 0.00000E+00 0.00000E+00
 -1      1127 0.00000E+00 0.00000E+00 0.00000E+00
 -1      1128 0.00000E+00 0.00000E+00 0.00000E+00
 -1      1129 0.00000E+00 0.00000E+00 0.00000E+00
 -1      1130 0.00000E+00 0.00000E+00 0.00000E+00
 -1      1131 0.00000E+00 0.00000E+00 0.00000E+00
 -1      1132 2.84772E-04-1.78289E-04 2.44488E-17
 -1      1133 7.69426E-04-4.16175E-04-3.04661E-17
 -1      1134 1.18744E-03-6.18447E-04-2.42522E-16
 -1      1135 1.57818E-03-8.19244E-04-6.43948E-16
 -1      1136 1.93423E-03-1.02040E-03-1.23731E-15
 -1      1137 2.24929E-03-1.19851E-03-2.02898E-15
 -1      1138 2.52950E-03-1.32002E-03-3.02715E-15
 -1      1139 2.79592E-03-1.36211E-03-4.23626E-15
 -1      1140 3.07521E-03-1.32863E-03-5.65325E-15
 -1      1141 3.38486E-03-1.24821E-03-7.27202E-15
 -1      1142 3.72618E-03-1.15709E-03-9.07824E-15
 -1      1143 4.08864E-03-1.08241E-03-1.10523E-14
 -1      1144 4.45851E-03-1.03648E-03-1.31839E-14
 -1      1145 4.82489E-03-1.02000E-03-1.54680E-14
 -1      1146 5.18148E-03-1.02790E-03-1.78978E-14
 -1      1147 5.52589E-03-1.05362E-03-2.04661E-14
 -1      1148 5.85819E-03-1.09131E-03-2.31653E-14
 -1      1149 6.17969E-03-1.13645E-03-2.59915E-14
 -1      1150 6.49218E-03-1.18584E-03-2.89476E-14
 -1      1151 6.79745E-03-1.23736E-03-3.20379E-14
 -1      1152 7.09713E-03-1.28964E-03-3.52580E-14
 -1      1153 7.39257E-03-1.34186E-03-3.85968E-14
 -1      1154 7.68484E-03-1.39354E-03-4.20525E-14
 -1      1155 7.97482E-03-1.44445E-03-4.56309E-14
 -1      1156 8.26315E-03-1.49452E-03-4.93308E-14
 -1      1157 8.55033E-03-1.54374E-03-5.31395E-14
 -1      1158 8.83673E-03-1.59219E-03-5.70524E-14
 -1      1159 9.12262E-03-1.63994E-03-6.10757E-14
 -1      1160 9.40819E-03-1.68709E-03-6.52212E-14
 -1      1161 9.69358E-03-1.73374E-03-6.94798E-14
 -1      1162 9.97889E-03-1.77998E-03-7.38414E-14
 -1      1163 1.02642E-02-1.82588E-03-7.83071E-14
 -1      1164 1.05495E-02-1.87152E-03-8.28765E-14
 -1      1165 1.08348E-02-1.91695E-03-8.75507E-14
 -1      1166 1.11202E-02-1.96223E-03-9.23316E-14
 -1      1167 1.14056E-02-2.00738E-03-9.72030E-14
 -1      1168 1.16910E-02-2.05245E-03-1.02158E-13
 -1      1169 1.19766E-02-2.09746E-03-1.07189E-13
 -1      1170 1.22621E-02-2.14242E-03-1.12297E-13
 -1      1171 1.25477E-02-2.18736E-03-1.17488E-13
 -1      1172 1.28333E-02-2.23227E-03-1.22761E-13
 -1      1173 1.31190E-02-2.27717E-03-1.28111E-13
 -1      1174 1.34046E-02-2.32207E-03-1.33535E-13
 -1      1175 1.36903E-02-2.36696E-03-1.39030E-13
 -1      1176 1.39760E-02-2.41186E-03-1.44576E-13
 -1      1177 1.42617E-02-2.45675E-03-1.50160E-13
 -1      1178 1.45474E-02-2.50165E-03-1.55797E-13
 -1      1179 1.48331E-02-2.54656E-03-1.61492E-13
 -1      1180 1.51188E-02-2.59147E-03-1.67230E-13
 -1      1181 1.53974E-02-2.63526E-03-1.72870E-13
 -1      1182 2.76363E-04 1.92417E-04 2.71457E-17
 -1      1183 6.72098E-04 4.19246E-04-4.60650E-17
 -1      1184 1.00923E-03 5.86387E-04-2.94266E-16
 -1      1185 1.32156E-03 7.18810E-04-7.38680E-16
 -1      1186 1.61214E-03 8.23628E-04-1.37530E-15
 -1      1187 1.88386E-03 8.96742E-04-2.20646E-15
 -1      1188 2.14259E-03 9.30885E-04-3.23694E-15
 -1      1189 2.39744E-03 9.22046E-04-4.46419E-15
 -1      1190 2.65836E-03 8.73180E-04-5.87905E-15
 -1      1191 2.93294E-03 7.94091E-04-7.47704E-15
 -1      1192 3.22419E-03 6.98148E-04-9.25720E-15
 -1      1193 3.53060E-03 5.98093E-04-1.12115E-14
 -1      1194 3.84777E-03 5.03154E-04-1.33301E-14
 -1      1195 4.17043E-03 4.18267E-04-1.56078E-14
 -1      1196 4.49398E-03 3.44807E-04-1.80370E-14
 -1      1197 4.81512E-03 2.81883E-04-2.06109E-14
 -1      1198 5.13193E-03 2.27525E-04-2.33278E-14
 -1      1199 5.44363E-03 1.79504E-04-2.61812E-14
 -1      1200 5.75020E-03 1.35783E-04-2.91601E-14
 -1      1201 6.05205E-03 9.47030E-05-3.22639E-14
 -1      1202 6.34986E-03 5.50158E-05-3.54896E-14
 -1      1203 6.64435E-03 1.58448E-05-3.88329E-14
 -1      1204 6.93619E-03-2.33868E-05-4.22907E-14
 -1      1205 7.22601E-03-6.30275E-05-4.58600E-14
 -1      1206 7.51432E-03-1.03261E-04-4.95359E-14
 -1      1207 7.80154E-03-1.44160E-04-5.33264E-14
 -1      1208 8.08800E-03-1.85724E-04-5.72408E-14
 -1      1209 8.37395E-03-2.27906E-04-6.12846E-14
 -1      1210 8.65957E-03-2.70640E-04-6.54624E-14
 -1      1211 8.94499E-03-3.13848E-04-6.97680E-14
 -1      1212 9.23033E-03-3.57452E-04-7.41871E-14
 -1      1213 9.51562E-03-4.01380E-04-7.87150E-14
 -1      1214 9.80093E-03-4.45567E-04-8.33462E-14
 -1      1215 1.00863E-02-4.89956E-04-8.80816E-14
 -1      1216 1.03716E-02-5.34502E-04-9.29204E-14
 -1      1217 1.06571E-02-5.79165E-04-9.78466E-14
 -1      1218 1.09425E-02-6.23915E-04-1.02874E-13
 -1      1219 1.12280E-02-6.68728E-04-1.08000E-13
 -1      1220 1.15136E-02-7.13585E-04-1.13211E-13
 -1      1221 1.17992E-02-7.58472E-04-1.18515E-13
 -1      1222 1.20848E-02-8.03378E-04-1.23904E-13
 -1      1223 1.23704E-02-8.48296E-04-1.29358E-13
 -1      1224 1.26561E-02-8.93221E-04-1.34864E-13
 -1      1225 1.29418E-02-9.38148E-04-1.40420E-13
 -1      1226 1.32275E-02-9.83075E-04-1.46027E-13
 -1      1227 1.35132E-02-1.02800E-03-1.51688E-13
 -1      1228 1.37989E-02-1.07292E-03-1.57389E-13
 -1      1229 1.40846E-02-1.11784E-03-1.63117E-13
 -1      1230 1.43703E-02-1.16275E-03-1.68867E-13
 -1      1231 1.46489E-02-1.20654E-03-1.74486E-13
 -1      1232 1.48067E-02-1.27001E-03-1.77230E-13
 -1      1233 1.48508E-02-1.35430E-03-1.77289E-13
 -1      1234 1.48950E-02-1.43858E-03-1.77334E-13
 -1      1235 1.49391E-02-1.52287E-03-1.77345E-13
 -1      1236 1.49833E-02-1.60716E-03-1.77352E-13
 -1      1237 1.50271E-02-1.69075E-03-1.77346E-13
 -1      1238 1.50708E-02-1.77433E-03-1.77325E-13
 -1      1239 1.51150E-02-1.85864E-03-1.77268E-13
 -1      1240 1.51592E-02-1.94294E-03-1.77176E-13
 -1      1241 1.52033E-02-2.02725E-03-1.77043E-13
 -1      1242 1.52475E-02-2.11155E-03-1.76905E-13
 -1      1243 1.52913E-02-2.19514E-03-1.76782E-13
 -1      1244 1.53351E-02-2.27872E-03-1.76617E-13
 -1      1245 1.53793E-02-2.36301E-03-1.76405E-13
 -1      1246 1.54234E-02-2.44730E-03-1.76189E-13
 -1      1247 1.54676E-02-2.53159E-03-1.75971E-13
 -1      1248 1.55114E-02-2.61516E-03-1.75743E-13
 -1      1249 4.54831E-03-2.27193E-04-7.34090E-15
 -1      1250 4.41648E-03-9.31408E-05-7.19167E-15
 -1      1251 4.17488E-03 4.90120E-05-6.87245E-15
 -1      1252 3.85134E-03 1.90006E-04-6.40999E-15
 -1      1253 3.47764E-03 3.15966E-04-5.84828E-15
 -1      1254 3.06341E-03 4.16731E-04-5.21065E-15
 -1      1255 2.61557E-03 4.75559E-04-4.51955E-15
 -1      1256 2.17007E-03 4.81310E-04-3.84390E-15
 -1      1257 1.74869E-03 4.34635E-04-3.22659E-15
 -1      1258 1.32452E-03 3.43434E-04-2.63746E-15
 -1      1259 9.57022E-04 2.34417E-04-2.15602E-15
 -1      1260 6.74869E-04 1.30443E-04-1.80451E-15
 -1      1261 4.66061E-04 3.23335E-05-1.55275E-15
 -1      1262 3.46597E-04-5.83589E-05-1.41076E-15
 -1      1263 3.26784E-04-1.49172E-04-1.38235E-15
 -1      1264 4.12112E-04-2.53781E-04-1.46947E-15
 -1      1265 6.05188E-04-3.81598E-04-1.67448E-15
 -1      1266 9.06456E-04-5.38146E-04-2.00629E-15
 -1      1267 1.28173E-03-7.01707E-04-2.44055E-15
 -1      1268 1.71620E-03-8.50563E-04-2.97700E-15
 -1      1269 2.18226E-03-9.58223E-04-3.59744E-15
 -1      1270 2.60705E-03-9.99272E-04-4.19960E-15
 -1      1271 3.01552E-03-9.82812E-04-4.80659E-15
 -1      1272 3.40345E-03-9.21548E-04-5.40090E-15
 -1      1273 3.75093E-03-8.29502E-04-5.94427E-15
 -1      1274 4.05432E-03-7.19278E-04-6.42859E-15
 -1      1275 4.30914E-03-5.97178E-04-6.84783E-15
 -1      1276 4.48754E-03-4.72636E-04-7.15487E-15
 -1      1277 4.56854E-03-3.53439E-04-7.31929E-15
 -1      1278 2.26534E-04-1.23549E-04-4.33681E-19
 -1      1279 1.43847E-04-4.68986E-05-3.03441E-17
 -1      1280 1.55492E-04-6.41451E-05-2.21042E-17
 -1      1281 1.26428E-04-2.11883E-05-4.33274E-17
 -1      1282 1.35166E-04-3.28161E-05-3.92075E-17
 -1      1283 2.85835E-04-9.04126E-05-9.37699E-17
 -1      1284 1.09305E-04-1.20861E-06-5.00495E-17
 -1      1285 1.18391E-04-1.02273E-05-4.77998E-17
 -1      1286 2.51048E-04-4.31408E-05-1.16105E-16
 -1      1287 9.01336E-05 1.12474E-05-5.36409E-17
 -1      1288 9.99488E-05 6.20633E-06-5.23670E-17
 -1      1289 2.13837E-04-6.81880E-06-1.27922E-16
 -1      1290 7.17412E-05 1.21015E-05-5.52808E-17
 -1      1291 8.04834E-05 1.26174E-05-5.45625E-17
 -1      1292 1.72263E-04 1.32601E-05-1.33750E-16
 -1      1293 5.89448E-05 7.89415E-07-5.63582E-17
 -1      1294 6.41039E-05 6.40019E-06-5.59245E-17
 -1      1295 1.33469E-04 1.11717E-05-1.36759E-16
 -1      1296 5.69058E-05-1.57058E-05-5.68867E-17
 -1      1297 5.65331E-05-8.91384E-06-5.67173E-17
 -1      1298 1.10837E-04-1.04431E-05-1.38608E-16
 -1      1299 6.57959E-05-2.91749E-05-5.81403E-17
 -1      1300 6.02966E-05-2.49391E-05-5.80523E-17
 -1      1301 1.12842E-04-3.82210E-05-1.40933E-16
 -1      1302 8.13405E-05-3.11338E-05-5.92516E-17
 -1      1303 7.33488E-05-3.24495E-05-5.93465E-17
 -1      1304 1.37976E-04-5.50707E-05-1.44314E-16
 -1      1305 9.72901E-05-2.09786E-05-6.01190E-17
 -1      1306 8.96872E-05-2.72960E-05-6.03087E-17
 -1      1307 1.73621E-04-4.98486E-05-1.47397E-16
 -1      1308 1.09753E-04-3.18137E-06-6.01732E-17
 -1      1309 1.04038E-04-1.22221E-05-6.04714E-17
 -1      1310 2.06426E-04-2.47300E-05-1.49322E-16
 -1      1311 1.18028E-04 1.71223E-05-5.88315E-17
 -1      1312 1.14226E-04 7.44108E-06-5.96176E-17
 -1      1313 2.29947E-04 1.12954E-05-1.48834E-16
 -1      1314 1.23494E-04 3.68888E-05-5.45489E-17
 -1      1315 1.20741E-04 2.75452E-05-5.65547E-17
 -1      1316 2.44574E-04 5.00309E-05-1.44131E-16
 -1      1317 1.28697E-04 5.59915E-05-4.56856E-17
 -1      1318 1.25506E-04 4.65891E-05-4.97920E-17
 -1      1319 2.54374E-04 8.77947E-05-1.32381E-16
 -1      1320 1.38426E-04 7.87774E-05-2.88940E-17
 -1      1321 1.31815E-04 6.63706E-05-3.72694E-17
 -1      1322 2.65833E-04 1.26716E-04-1.09992E-16
 -1      1323 1.89439E-04 1.30372E-04-1.08420E-19
 -1      1324 1.61540E-04 1.01275E-04-1.89600E-17
 -1      1325 3.03992E-04 1.80894E-04-8.07731E-17
 -1      1326 4.03210E-04 2.65275E-04-3.45183E-17
 -1      1327 5.81527E-04-3.08528E-04-5.13505E-17
 -1      1328 7.97797E-04-4.14391E-04-1.20346E-16
 -1      1329 1.00669E-03-5.15708E-04-2.36790E-16
 -1      1330 1.20897E-03-6.15892E-04-3.98227E-16
 -1      1331 8.36763E-04-4.11175E-04-2.24186E-16
 -1      1332 1.40447E-03-7.18092E-04-6.04416E-16
 -1      1333 1.59282E-03-8.21497E-04-8.57943E-16
 -1      1334 1.23970E-03-6.15139E-04-5.59787E-16
 -1      1335 1.77373E-03-9.25104E-04-1.15865E-15
 -1      1336 1.94678E-03-1.02515E-03-1.50902E-15
 -1      1337 1.62001E-03-8.25448E-04-1.07630E-15
 -1      1338 2.11206E-03-1.11759E-03-1.90898E-15
 -1      1339 2.27023E-03-1.19755E-03-2.35966E-15
 -1      1340 1.97648E-03-1.02906E-03-1.78437E-15
 -1      1341 2.42244E-03-1.26059E-03-2.86274E-15
 -1      1342 2.57089E-03-1.30337E-03-3.41820E-15
 -1      1343 2.30944E-03-1.19197E-03-2.69411E-15
 -1      1344 2.71759E-03-1.32436E-03-4.02586E-15
 -1      1345 2.86538E-03-1.32405E-03-4.68626E-15
 -1      1346 2.62636E-03-1.27889E-03-3.81201E-15
 -1      1347 3.01608E-03-1.30516E-03-5.39790E-15
 -1      1348 3.17146E-03-1.27161E-03-6.16023E-15
 -1      1349 2.94134E-03-1.27750E-03-5.13909E-15
 -1      1350 3.33223E-03-1.22861E-03-6.97229E-15
 -1      1351 3.49848E-03-1.18096E-03-7.83112E-15
 -1      1352 3.26693E-03-1.20848E-03-6.67000E-15
 -1      1353 3.66973E-03-1.13330E-03-8.73469E-15
 -1      1354 3.84490E-03-1.08913E-03-9.68282E-15
 -1      1355 3.60706E-03-1.11143E-03-8.39182E-15
 -1      1356 4.02295E-03-1.05088E-03-1.06717E-14
 -1      1357 4.20252E-03-1.02010E-03-1.16997E-14
 -1      1358 3.95770E-03-1.02220E-03-1.02901E-14
 -1      1359 4.38259E-03-9.97179E-04-1.27679E-14
 -1      1360 4.56210E-03-9.82274E-04-1.38734E-14
 -1      1361 4.31178E-03-9.60647E-04-1.23506E-14
 -1      1362 4.74034E-03-9.74631E-04-1.50165E-14
 -1      1363 4.91669E-03-9.73733E-04-1.61956E-14
 -1      1364 4.66311E-03-9.31454E-04-1.45651E-14
 -1      1365 5.09079E-03-9.78504E-04-1.74105E-14
 -1      1366 5.26239E-03-9.88228E-04-1.86612E-14
 -1      1367 5.00774E-03-9.30619E-04-1.69247E-14
 -1      1368 5.43140E-03-1.00194E-03-1.99444E-14
 -1      1369 5.59781E-03-1.01896E-03-2.12614E-14
 -1      1370 5.34380E-03-9.51169E-04-1.94240E-14
 -1      1371 5.76170E-03-1.03858E-03-2.26107E-14
 -1      1372 5.92319E-03-1.06024E-03-2.39921E-14
 -1      1373 5.67095E-03-9.86314E-04-2.20568E-14
 -1      1374 6.08245E-03-1.08346E-03-2.54063E-14
 -1      1375 6.23965E-03-1.10783E-03-2.68514E-14
 -1      1376 5.98973E-03-1.03065E-03-2.48204E-14
 -1      1377 6.39497E-03-1.13306E-03-2.83303E-14
 -1      1378 6.54860E-03-1.15885E-03-2.98419E-14
 -1      1379 6.30119E-03-1.08027E-03-2.77131E-14
 -1      1380 6.70072E-03-1.18503E-03-3.13853E-14
 -1      1381 6.85149E-03-1.21139E-03-3.29618E-14
 -1      1382 6.60651E-03-1.13257E-03-3.07346E-14
 -1      1383 7.00109E-03-1.23785E-03-3.45697E-14
 -1      1384 7.14963E-03-1.26427E-03-3.62094E-14
 -1      1385 6.90684E-03-1.18589E-03-3.38849E-14
 -1      1386 7.29727E-03-1.29061E-03-3.78765E-14
 -1      1387 7.44412E-03-1.31680E-03-3.95726E-14
 -1      1388 7.20325E-03-1.23919E-03-3.71584E-14
 -1      1389 7.59029E-03-1.34282E-03-4.13023E-14
 -1      1390 7.73587E-03-1.36861E-03-4.30607E-14
 -1      1391 7.49660E-03-1.29192E-03-4.05523E-14
 -1      1392 7.88095E-03-1.39420E-03-4.48499E-14
 -1      1393 8.02560E-03-1.41954E-03-4.66683E-14
 -1      1394 7.78765E-03-1.34378E-03-4.40695E-14
 -1      1395 8.16988E-03-1.44466E-03-4.85163E-14
 -1      1396 8.31386E-03-1.46955E-03-5.03954E-14
 -1      1397 8.07697E-03-1.39467E-03-4.77064E-14
 -1      1398 8.45758E-03-1.49423E-03-5.22997E-14
 -1      1399 8.60108E-03-1.51869E-03-5.42281E-14
 -1      1400 8.36503E-03-1.44459E-03-5.14571E-14
 -1      1401 8.74441E-03-1.54295E-03-5.61859E-14
 -1      1402 8.88759E-03-1.56702E-03-5.81711E-14
 -1      1403 8.65219E-03-1.49361E-03-5.53195E-14
 -1      1404 9.03065E-03-1.59093E-03-6.01857E-14
 -1      1405 9.17361E-03-1.61466E-03-6.22281E-14
 -1      1406 8.93871E-03-1.54183E-03-5.92943E-14
 -1      1407 9.31650E-03-1.63826E-03-6.42984E-14
 -1      1408 9.45933E-03-1.66171E-03-6.64000E-14
 -1      1409 9.22480E-03-1.58935E-03-6.33787E-14
 -1      1410 9.60211E-03-1.68504E-03-6.85271E-14
 -1      1411 9.74486E-03-1.70826E-03-7.06813E-14
 -1      1412 9.51061E-03-1.63629E-03-6.75762E-14
 -1      1413 9.88759E-03-1.73138E-03-7.28624E-14
 -1      1414 1.00303E-02-1.75441E-03-7.50687E-14
 -1      1415 9.79625E-03-1.68275E-03-7.18840E-14
 -1      1416 1.01730E-02-1.77737E-03-7.73024E-14
 -1      1417 1.03157E-02-1.80025E-03-7.95610E-14
 -1      1418 1.00818E-02-1.72882E-03-7.62972E-14
 -1      1419 1.04584E-02-1.82306E-03-8.18458E-14
 -1      1420 1.06011E-02-1.84582E-03-8.41570E-14
 -1      1421 1.03673E-02-1.77459E-03-8.08149E-14
 -1      1422 1.07438E-02-1.86854E-03-8.64949E-14
 -1      1423 1.08865E-02-1.89121E-03-8.88587E-14
 -1      1424 1.06527E-02-1.82011E-03-8.54382E-14
 -1      1425 1.10292E-02-1.91384E-03-9.12485E-14
 -1      1426 1.11719E-02-1.93645E-03-9.36625E-14
 -1      1427 1.09382E-02-1.86545E-03-9.01660E-14
 -1      1428 1.13147E-02-1.95902E-03-9.60966E-14
 -1      1429 1.14574E-02-1.98157E-03-9.85514E-14
 -1      1430 1.12237E-02-1.91065E-03-9.49896E-14
 -1      1431 1.16001E-02-2.00411E-03-1.01029E-13
 -1      1432 1.17429E-02-2.02662E-03-1.03525E-13
 -1      1433 1.15092E-02-1.95575E-03-9.99006E-14
 -1      1434 1.18857E-02-2.04912E-03-1.06042E-13
 -1      1435 1.20285E-02-2.07161E-03-1.08580E-13
 -1      1436 1.17948E-02-2.00078E-03-1.04895E-13
 -1      1437 1.21712E-02-2.09409E-03-1.11133E-13
 -1      1438 1.23140E-02-2.11656E-03-1.13703E-13
 -1      1439 1.20804E-02-2.04575E-03-1.09964E-13
 -1      1440 1.24568E-02-2.13903E-03-1.16299E-13
 -1      1441 1.25996E-02-2.16149E-03-1.18918E-13
 -1      1442 1.23660E-02-2.09069E-03-1.15113E-13
 -1      1443 1.27425E-02-2.18394E-03-1.21552E-13
 -1      1444 1.28853E-02-2.20639E-03-1.24206E-13
 -1      1445 1.26516E-02-2.13561E-03-1.20342E-13
 -1      1446 1.30281E-02-2.22884E-03-1.26882E-13
 -1      1447 1.31709E-02-2.25129E-03-1.29574E-13
 -1      1448 1.29372E-02-2.18051E-03-1.25651E-13
 -1      1449 1.33138E-02-2.27374E-03-1.32285E-13
 -1      1450 1.34566E-02-2.29618E-03-1.35013E-13
 -1      1451 1.32229E-02-2.22541E-03-1.31036E-13
 -1      1452 1.35994E-02-2.31863E-03-1.37758E-13
 -1      1453 1.37423E-02-2.34108E-03-1.40516E-13
 -1      1454 1.35086E-02-2.27030E-03-1.36489E-13
 -1      1455 1.38851E-02-2.36352E-03-1.43288E-13
 -1      1456 1.40280E-02-2.38597E-03-1.46070E-13
 -1      1457 1.37943E-02-2.31519E-03-1.42003E-13
 -1      1458 1.41708E-02-2.40842E-03-1.48865E-13
 -1      1459 1.43137E-02-2.43087E-03-1.51670E-13
 -1      1460 1.40799E-02-2.36008E-03-1.47569E-13
 -1      1461 1.44565E-02-2.45332E-03-1.54489E-13
 -1      1462 1.45994E-02-2.47577E-03-1.57326E-13
 -1      1463 1.43657E-02-2.40498E-03-1.53185E-13
 -1      1464 1.47422E-02-2.49822E-03-1.60174E-13
 -1      1465 1.48851E-02-2.52067E-03-1.63032E-13
 -1      1466 1.46514E-02-2.44988E-03-1.58853E-13
 -1      1467 1.50279E-02-2.54312E-03-1.65901E-13
 -1      1468 1.51708E-02-2.56558E-03-1.68782E-13
 -1      1469 1.49371E-02-2.49478E-03-1.64572E-13
 -1      1470 1.53757E-02-2.59383E-03-1.72988E-13
 -1      1471 1.52848E-02-2.54548E-03-1.71647E-13
 -1      1472 7.72761E-04 4.63752E-04-1.89532E-16
 -1      1473 5.93102E-04 3.71510E-04-8.71292E-17
 -1      1474 5.31424E-04 3.24809E-04-1.21336E-16
 -1      1475 1.10880E-03 6.14888E-04-5.39648E-16
 -1      1476 9.44265E-04 5.43330E-04-3.40534E-16
 -1      1477 8.86742E-04 4.98983E-04-3.77682E-16
 -1      1478 1.42060E-03 7.36969E-04-1.07988E-15
 -1      1479 1.26734E-03 6.79331E-04-7.85681E-16
 -1      1480 1.21845E-03 6.38522E-04-8.23723E-16
 -1      1481 1.71301E-03 8.30434E-04-1.81180E-15
 -1      1482 1.56892E-03 7.87666E-04-1.42162E-15
 -1      1483 1.52991E-03 7.50377E-04-1.45879E-15
 -1      1484 1.99074E-03 8.88293E-04-2.73941E-15
 -1      1485 1.85332E-03 8.64256E-04-2.25105E-15
 -1      1486 1.82527E-03 8.30432E-04-2.28639E-15
 -1      1487 2.26037E-03 9.03628E-04-3.86425E-15
 -1      1488 2.12605E-03 9.01399E-04-3.27726E-15
 -1      1489 2.10962E-03 8.70612E-04-3.30899E-15
 -1      1490 2.52987E-03 8.75223E-04-5.18108E-15
 -1      1491 2.39459E-03 8.94536E-04-4.49861E-15
 -1      1492 2.38940E-03 8.65855E-04-4.52557E-15
 -1      1493 2.80655E-03 8.09665E-04-6.68366E-15
 -1      1494 2.66690E-03 8.46332E-04-5.90961E-15
 -1      1495 2.67135E-03 8.18540E-04-5.93170E-15
 -1      1496 3.09493E-03 7.19425E-04-8.36873E-15
 -1      1497 2.94911E-03 7.66726E-04-7.50383E-15
 -1      1498 2.96066E-03 7.38716E-04-7.52270E-15
 -1      1499 3.39583E-03 6.18595E-04-1.02314E-14
 -1      1500 3.24388E-03 6.69552E-04-9.27792E-15
 -1      1501 3.25957E-03 6.40629E-04-9.29229E-15
 -1      1502 3.70701E-03 5.18865E-04-1.22626E-14
 -1      1503 3.55035E-03 5.68081E-04-1.12266E-14
 -1      1504 3.56742E-03 5.38022E-04-1.12343E-14
 -1      1505 4.02467E-03 4.27572E-04-1.44544E-14
 -1      1506 3.86530E-03 4.71931E-04-1.33390E-14
 -1      1507 3.88165E-03 4.40865E-04-1.33412E-14
 -1      1508 4.34482E-03 3.47810E-04-1.68020E-14
 -1      1509 4.18468E-03 3.86225E-04-1.56092E-14
 -1      1510 4.19901E-03 3.54452E-04-1.56052E-14
 -1      1511 4.66419E-03 2.79612E-04-1.92976E-14
 -1      1512 4.50478E-03 3.12361E-04-1.80314E-14
 -1      1513 4.51657E-03 2.80214E-04-1.80203E-14
 -1      1514 4.98060E-03 2.21323E-04-2.19356E-14
 -1      1515 4.82288E-03 2.49371E-04-2.05986E-14
 -1      1516 4.83210E-03 2.17138E-04-2.05806E-14
 -1      1517 5.29283E-03 1.70662E-04-2.47144E-14
 -1      1518 5.13729E-03 1.95184E-04-2.33080E-14
 -1      1519 5.14427E-03 1.63073E-04-2.32833E-14
 -1      1520 5.60051E-03 1.25373E-04-2.76235E-14
 -1      1521 5.44725E-03 1.47472E-04-2.61531E-14
 -1      1522 5.45246E-03 1.15613E-04-2.61210E-14
 -1      1523 5.90376E-03 8.35322E-05-3.06582E-14
 -1      1524 5.75266E-03 1.04121E-04-2.91256E-14
 -1      1525 5.75657E-03 7.25769E-05-2.90857E-14
 -1      1526 6.20303E-03 4.36465E-05-3.38173E-14
 -1      1527 6.05385E-03 6.34178E-05-3.22226E-14
 -1      1528 6.05687E-03 3.22057E-05-3.21762E-14
 -1      1529 6.49890E-03 4.63836E-06-3.70939E-14
 -1      1530 6.35135E-03 2.40829E-05-3.54403E-14
 -1      1531 6.35382E-03-6.81125E-06-3.53874E-14
 -1      1532 6.79200E-03-3.42207E-05-4.04891E-14
 -1      1533 6.64576E-03-1.47775E-05-3.87773E-14
 -1      1534 6.64795E-03-4.53857E-05-3.87173E-14
 -1      1535 7.08290E-03-7.33873E-05-4.39966E-14
 -1      1536 6.93769E-03-5.37466E-05-4.22285E-14
 -1      1537 6.93978E-03-8.41087E-05-4.21625E-14
 -1      1538 7.37211E-03-1.13118E-04-4.76149E-14
 -1      1539 7.22768E-03-9.31727E-05-4.57925E-14
 -1      1540 7.22979E-03-1.23330E-04-4.57208E-14
 -1      1541 7.66005E-03-1.53531E-04-5.13448E-14
 -1      1542 7.51621E-03-1.33236E-04-4.94660E-14
 -1      1543 7.51842E-03-1.63229E-04-4.93904E-14
 -1      1544 7.94709E-03-1.94650E-04-5.51920E-14
 -1      1545 7.80367E-03-1.74003E-04-5.32526E-14
 -1      1546 7.80601E-03-2.03866E-04-5.31749E-14
 -1      1547 8.23348E-03-2.36445E-04-5.91664E-14
 -1      1548 8.09035E-03-2.15466E-04-5.71634E-14
 -1      1549 8.09284E-03-2.45229E-04-5.70795E-14
 -1      1550 8.51943E-03-2.78849E-04-6.32686E-14
 -1      1551 8.37650E-03-2.57575E-04-6.12011E-14
 -1      1552 8.37914E-03-2.87263E-04-6.11116E-14
 -1      1553 8.80511E-03-3.21786E-04-6.74992E-14
 -1      1554 8.66230E-03-3.00256E-04-6.53682E-14
 -1      1555 8.66508E-03-3.29889E-04-6.52696E-14
 -1      1556 9.09062E-03-3.65171E-04-7.18519E-14
 -1      1557 8.94788E-03-3.43427E-04-6.96609E-14
 -1      1558 8.95079E-03-3.73021E-04-6.95504E-14
 -1      1559 9.37604E-03-4.08926E-04-7.63156E-14
 -1      1560 9.23334E-03-3.87007E-04-7.40704E-14
 -1      1561 9.23636E-03-4.16573E-04-7.39493E-14
 -1      1562 9.66143E-03-4.52978E-04-8.08892E-14
 -1      1563 9.51874E-03-4.30919E-04-7.85894E-14
 -1      1564 9.52185E-03-4.60467E-04-7.84593E-14
 -1      1565 9.94682E-03-4.97266E-04-8.55631E-14
 -1      1566 9.80412E-03-4.75096E-04-8.32139E-14
 -1      1567 9.80731E-03-5.04633E-04-8.30758E-14
 -1      1568 1.02322E-02-5.41735E-04-9.03413E-14
 -1      1569 1.00895E-02-5.19481E-04-8.79397E-14
 -1      1570 1.00928E-02-5.49011E-04-8.77944E-14
 -1      1571 1.05177E-02-5.86343E-04-9.52173E-14
 -1      1572 1.03749E-02-5.64024E-04-9.27683E-14
 -1      1573 1.03782E-02-5.93552E-04-9.26135E-14
 -1      1574 1.08031E-02-6.31054E-04-1.00185E-13
 -1      1575 1.06604E-02-6.08688E-04-9.76893E-14
 -1      1576 1.06637E-02-6.38214E-04-9.75265E-14
 -1      1577 1.10887E-02-6.75840E-04-1.05253E-13
 -1      1578 1.09459E-02-6.53439E-04-1.02705E-13
 -1      1579 1.09493E-02-6.82966E-04-1.02536E-13
 -1      1580 1.13742E-02-7.20679E-04-1.10412E-13
 -1      1581 1.12314E-02-6.98254E-04-1.07822E-13
 -1      1582 1.12348E-02-7.27781E-04-1.07640E-13
 -1      1583 1.16598E-02-7.65554E-04-1.15659E-13
 -1      1584 1.15170E-02-7.43113E-04-1.13025E-13
 -1      1585 1.15204E-02-7.72642E-04-1.12835E-13
 -1      1586 1.19454E-02-8.10454E-04-1.20996E-13
 -1      1587 1.18026E-02-7.88002E-04-1.18317E-13
 -1      1588 1.18060E-02-8.17533E-04-1.18117E-13
 -1      1589 1.22310E-02-8.55369E-04-1.26409E-13
 -1      1590 1.20882E-02-8.32910E-04-1.23693E-13
 -1      1591 1.20916E-02-8.62443E-04-1.23482E-13
 -1      1592 1.25167E-02-9.00293E-04-1.31879E-13
 -1      1593 1.23739E-02-8.77830E-04-1.29137E-13
 -1      1594 1.23773E-02-9.07365E-04-1.28915E-13
 -1      1595 1.28024E-02-9.45221E-04-1.37407E-13
 -1      1596 1.26595E-02-9.22757E-04-1.34636E-13
 -1      1597 1.26630E-02-9.52293E-04-1.34408E-13
 -1      1598 1.30881E-02-9.90149E-04-1.42983E-13
 -1      1599 1.29452E-02-9.67685E-04-1.40190E-13
 -1      1600 1.29486E-02-9.97222E-04-1.39955E-13
 -1      1601 1.33738E-02-1.03508E-03-1.48611E-13
 -1      1602 1.32309E-02-1.01261E-03-1.45791E-13
 -1      1603 1.32343E-02-1.04215E-03-1.45554E-13
 -1      1604 1.36595E-02-1.08000E-03-1.54291E-13
 -1      1605 1.35166E-02-1.05754E-03-1.51446E-13
 -1      1606 1.35200E-02-1.08708E-03-1.51202E-13
 -1      1607 1.39452E-02-1.12492E-03-1.59999E-13
 -1      1608 1.38023E-02-1.10246E-03-1.57140E-13
 -1      1609 1.38057E-02-1.13200E-03-1.56892E-13
 -1      1610 1.42309E-02-1.16984E-03-1.65740E-13
 -1      1611 1.40880E-02-1.14738E-03-1.62866E-13
 -1      1612 1.40914E-02-1.17692E-03-1.62614E-13
 -1      1613 1.45166E-02-1.21475E-03-1.71496E-13
 -1      1614 1.43737E-02-1.19229E-03-1.68618E-13
 -1      1615 1.43771E-02-1.22183E-03-1.68366E-13
 -1      1616 1.46710E-02-1.24868E-03-1.74500E-13
 -1      1617 1.47382E-02-1.35592E-03-1.74801E-13
 -1      1618 1.47161E-02-1.31378E-03-1.74776E-13
 -1      1619 1.47823E-02-1.44021E-03-1.74830E-13
 -1      1620 1.47602E-02-1.39807E-03-1.74819E-13
 -1      1621 1.46255E-02-1.35755E-03-1.72309E-13
 -1      1622 1.48265E-02-1.52450E-03-1.74842E-13
 -1      1623 1.48044E-02-1.48236E-03-1.74837E-13
 -1      1624 1.46696E-02-1.44184E-03-1.72331E-13
 -1      1625 1.48706E-02-1.60880E-03-1.74844E-13
 -1      1626 1.48485E-02-1.56665E-03-1.74846E-13
 -1      1627 1.47138E-02-1.52613E-03-1.72340E-13
 -1      1628 1.49140E-02-1.69166E-03-1.74829E-13
 -1      1629 1.48923E-02-1.65023E-03-1.74838E-13
 -1      1630 1.47576E-02-1.60971E-03-1.72334E-13
 -1      1631 1.49582E-02-1.77597E-03-1.74796E-13
 -1      1632 1.49361E-02-1.73381E-03-1.74817E-13
 -1      1633 1.48013E-02-1.69330E-03-1.72311E-13
 -1      1634 1.50023E-02-1.86027E-03-1.74732E-13
 -1      1635 1.49802E-02-1.81812E-03-1.74768E-13
 -1      1636 1.48455E-02-1.77760E-03-1.72268E-13
 -1      1637 1.50465E-02-1.94457E-03-1.74635E-13
 -1      1638 1.50244E-02-1.90242E-03-1.74687E-13
 -1      1639 1.48896E-02-1.86190E-03-1.72198E-13
 -1      1640 1.50907E-02-2.02888E-03-1.74508E-13
 -1      1641 1.50686E-02-1.98673E-03-1.74575E-13
 -1      1642 1.49338E-02-1.94620E-03-1.72100E-13
 -1      1643 1.51348E-02-2.11318E-03-1.74376E-13
 -1      1644 1.51127E-02-2.07103E-03-1.74443E-13
 -1      1645 1.49780E-02-2.03050E-03-1.71979E-13
 -1      1646 1.51782E-02-2.19605E-03-1.74235E-13
 -1      1647 1.51565E-02-2.15461E-03-1.74309E-13
 -1      1648 1.50218E-02-2.11409E-03-1.71842E-13
 -1      1649 1.52224E-02-2.28035E-03-1.74054E-13
 -1      1650 1.52003E-02-2.23820E-03-1.74150E-13
 -1      1651 1.50656E-02-2.19768E-03-1.71684E-13
 -1      1652 1.52666E-02-2.36464E-03-1.73847E-13
 -1      1653 1.52445E-02-2.32249E-03-1.73953E-13
 -1      1654 1.51097E-02-2.28197E-03-1.71497E-13
 -1      1655 1.53108E-02-2.44893E-03-1.73630E-13
 -1      1656 1.52887E-02-2.40678E-03-1.73740E-13
 -1      1657 1.51539E-02-2.36626E-03-1.71291E-13
 -1      1658 1.53088E-02-2.51828E-03-1.72586E-13
 -1      1659 1.52867E-02-2.47613E-03-1.72699E-13
 -1      1660 1.51520E-02-2.43561E-03-1.70252E-13
 -1      1661 1.51039E-02-2.49003E-03-1.68384E-13
 -1      1662 4.53422E-03-2.38306E-04-7.73262E-15
 -1      1663 4.57702E-03-2.77817E-04-7.76740E-15
 -1      1664 4.35053E-03-1.33982E-04-7.49097E-15
 -1      1665 4.45001E-03-1.83639E-04-7.61164E-15
 -1      1666 4.03444E-03-8.84948E-06-7.14231E-15
 -1      1667 4.19230E-03-7.74309E-05-7.36062E-15
 -1      1668 3.68323E-03 1.60736E-04-6.53294E-15
 -1      1669 3.85123E-03 8.81187E-05-6.79196E-15
 -1      1670 3.28027E-03 3.18301E-04-5.90099E-15
 -1      1671 3.46445E-03 2.42790E-04-6.21866E-15
 -1      1672 2.89189E-03 4.52631E-04-5.17086E-15
 -1      1673 3.07018E-03 3.97578E-04-5.50140E-15
 -1      1674 2.48262E-03 5.27774E-04-4.39606E-15
 -1      1675 2.67153E-03 5.02769E-04-4.75978E-15
 -1      1676 2.10467E-03 5.13788E-04-3.68821E-15
 -1      1677 2.27319E-03 5.28433E-04-3.99542E-15
 -1      1678 1.72951E-03 4.30973E-04-3.03460E-15
 -1      1679 1.90574E-03 4.79437E-04-3.32831E-15
 -1      1680 1.33063E-03 2.85957E-04-2.42171E-15
 -1      1681 1.51786E-03 3.57808E-04-2.68909E-15
 -1      1682 9.66454E-04 1.46024E-04-1.96911E-15
 -1      1683 1.12088E-03 2.06923E-04-2.15659E-15
 -1      1684 6.62514E-04 4.12296E-05-1.65066E-15
 -1      1685 7.90473E-04 8.84895E-05-1.78940E-15
 -1      1686 4.42101E-04-4.47086E-05-1.41241E-15
 -1      1687 5.34473E-04-1.24174E-05-1.50364E-15
 -1      1688 3.24582E-04-9.62345E-05-1.30457E-15
 -1      1689 3.63480E-04-7.43525E-05-1.34267E-15
 -1      1690 3.28942E-04-1.44368E-04-1.29655E-15
 -1      1691 3.11089E-04-1.22229E-04-1.28385E-15
 -1      1692 4.62850E-04-2.16884E-04-1.41401E-15
 -1      1693 3.85344E-04-1.80398E-04-1.34821E-15
 -1      1694 7.21935E-04-3.29531E-04-1.63722E-15
 -1      1695 5.89889E-04-2.69910E-04-1.51712E-15
 -1      1696 1.08491E-03-5.10741E-04-2.00896E-15
 -1      1697 9.04738E-04-4.21985E-04-1.82289E-15
 -1      1698 1.47047E-03-7.11497E-04-2.47613E-15
 -1      1699 1.29004E-03-6.22743E-04-2.25782E-15
 -1      1700 1.91614E-03-9.02294E-04-3.05886E-15
 -1      1701 1.71350E-03-8.14981E-04-2.76225E-15
 -1      1702 2.31550E-03-1.01959E-03-3.72556E-15
 -1      1703 2.13653E-03-9.77197E-04-3.42359E-15
 -1      1704 2.67500E-03-1.04236E-03-4.36825E-15
 -1      1705 2.51399E-03-1.04144E-03-4.07657E-15
 -1      1706 3.03477E-03-9.90959E-04-5.05479E-15
 -1      1707 2.86578E-03-1.02586E-03-4.73672E-15
 -1      1708 3.39718E-03-8.84324E-04-5.68645E-15
 -1      1709 3.23720E-03-9.37522E-04-5.40025E-15
 -1      1710 3.74042E-03-7.52684E-04-6.28661E-15
 -1      1711 3.58317E-03-8.15779E-04-6.01635E-15
 -1      1712 4.05290E-03-6.21335E-04-6.81233E-15
 -1      1713 3.91402E-03-6.80732E-04-6.58309E-15
 -1      1714 4.32709E-03-4.90618E-04-7.31675E-15
 -1      1715 4.20342E-03-5.45739E-04-7.11483E-15
 -1      1716 4.51487E-03-4.00222E-04-7.58010E-15
 -1      1717 4.44384E-03-4.41414E-04-7.45969E-15
 -1      1718 4.58791E-03-3.20605E-04-7.73013E-15
 -1      1719 4.56834E-03-3.55959E-04-7.68059E-15
 -1      1720 3.50860E-03 1.66653E-04-6.60103E-15
 -1      1721 3.90148E-03-1.64375E-05-7.28381E-15
 -1      1722 1.46744E-02-1.27822E-03-1.74252E-13
 -1      1723 1.45617E-02-1.27985E-03-1.71768E-13
 -1      1724 4.49265E-03-2.46404E-04-8.05372E-15
 -1      1725 4.24601E-03-1.57078E-04-7.78938E-15
 -1      1726 4.59097E-03-3.04146E-04-8.14346E-15
 -1      1727 3.11618E-03 3.47180E-04-5.86637E-15
 -1      1728 2.73550E-03 4.93002E-04-5.04303E-15
 -1      1729 2.37786E-03 5.53586E-04-4.22730E-15
 -1      1730 2.02566E-03 5.15677E-04-3.47292E-15
 -1      1731 1.66668E-03 3.92555E-04-2.78353E-15
 -1      1732 1.28519E-03 2.22171E-04-2.20154E-15
 -1      1733 9.20670E-04 7.55978E-05-1.78557E-15
 -1      1734 6.18210E-04-2.92493E-05-1.47904E-15
 -1      1735 4.06564E-04-8.70932E-05-1.28100E-15
 -1      1736 3.12077E-04-1.11544E-04-1.19829E-15
 -1      1737 3.56465E-04-1.34418E-04-1.22600E-15
 -1      1738 5.44467E-04-1.94516E-04-1.36760E-15
 -1      1739 8.57367E-04-3.22138E-04-1.63153E-15
 -1      1740 1.24190E-03-5.25810E-04-2.03891E-15
 -1      1741 1.66438E-03-7.54365E-04-2.55181E-15
 -1      1742 2.06377E-03-9.52899E-04-3.17929E-15
 -1      1743 2.42058E-03-1.05682E-03-3.88733E-15
 -1      1744 2.75332E-03-1.05640E-03-4.60778E-15
 -1      1745 3.08440E-03-9.69180E-04-5.33300E-15
 -1      1746 3.43491E-03-8.31019E-04-6.02318E-15
 -1      1747 3.77559E-03-6.78941E-04-6.66736E-15
 -1      1748 4.09748E-03-5.33626E-04-7.28390E-15
 -1      1749 4.37015E-03-4.25794E-04-7.74868E-15
 -1      1750 4.54485E-03-3.56371E-04-8.00308E-15
 -1      1751 3.88820E-04-1.94288E-04-4.95887E-17
 -1      1752 3.73710E-04-7.25593E-05-1.85493E-16
 -1      1753 4.00669E-04-1.03286E-04-1.73987E-16
 -1      1754 4.26795E-04-1.37741E-04-1.59188E-16
 -1      1755 4.55620E-04-1.75337E-04-1.37938E-16
 -1      1756 5.64263E-04-1.82414E-04-2.55045E-16
 -1      1757 2.38122E-04 5.64839E-06-1.98788E-16
 -1      1758 2.70752E-04-3.35785E-06-1.96119E-16
 -1      1759 1.79345E-04 6.89370E-07-2.01858E-16
 -1      1760 2.05737E-04 7.02341E-06-2.00266E-16
 -1      1761 2.91610E-04-6.11334E-06-2.86331E-16
 -1      1762 1.52136E-04-2.71084E-05-2.03972E-16
 -1      1763 1.60795E-04-1.17087E-05-2.02793E-16
 -1      1764 2.17090E-04-1.47289E-05-2.88920E-16
 -1      1765 1.66145E-04-5.92262E-05-2.08106E-16
 -1      1766 1.53957E-04-4.48541E-05-2.05788E-16
 -1      1767 1.91666E-04-4.80422E-05-2.92538E-16
 -1      1768 2.14190E-04-7.03620E-05-2.13357E-16
 -1      1769 1.87964E-04-6.85521E-05-2.10728E-16
 -1      1770 2.27945E-04-7.76011E-05-2.99084E-16
 -1      1771 2.71785E-04-5.14007E-05-2.18263E-16
 -1      1772 2.43788E-04-6.43174E-05-2.16041E-16
 -1      1773 3.04077E-04-7.62163E-05-3.07439E-16
 -1      1774 3.19387E-04-9.53108E-06-2.20798E-16
 -1      1775 2.97752E-04-3.23082E-05-2.19930E-16
 -1      1776 3.83254E-04-3.95552E-05-3.14595E-16
 -1      1777 3.50701E-04 4.26392E-05-2.19239E-16
 -1      1778 3.36994E-04 1.61295E-05-2.20757E-16
 -1      1779 4.42464E-04 1.95213E-05-3.17942E-16
 -1      1780 3.69249E-04 9.63227E-05-2.10498E-16
 -1      1781 3.60991E-04 6.97320E-05-2.16041E-16
 -1      1782 4.78487E-04 8.63911E-05-3.14378E-16
 -1      1783 3.82988E-04 1.49383E-04-1.91118E-16
 -1      1784 3.75911E-04 1.22999E-04-2.02773E-16
 -1      1785 4.99352E-04 1.53347E-04-3.00446E-16
 -1      1786 4.03735E-04 2.07335E-04-1.54932E-16
 -1      1787 3.91330E-04 1.77389E-04-1.75939E-16
 -1      1788 5.17565E-04 2.20687E-04-2.71145E-16
 -1      1789 4.78444E-04 2.81328E-04-1.34468E-16
 -1      1790 4.41235E-04 2.42446E-04-1.51436E-16
 -1      1791 5.67837E-04 2.93126E-04-2.48730E-16
 -1      1792 6.57452E-04 3.74005E-04-2.37454E-16
 -1      1793 4.55566E-04-2.06215E-04-9.57079E-17
 -1      1794 1.00459E-03 5.31553E-04-5.86472E-16
 -1      1795 8.33142E-04 4.56580E-04-3.88944E-16
 -1      1796 7.85070E-04 4.14667E-04-3.95287E-16
 -1      1797 6.08579E-04-2.65753E-04-1.79774E-16
 -1      1798 1.08447E-03-5.10695E-04-5.10117E-16
 -1      1799 1.28018E-03-6.14413E-04-7.27784E-16
 -1      1800 1.47271E-03-7.21285E-04-9.90324E-16
 -1      1801 1.66054E-03-8.28818E-04-1.29952E-15
 -1      1802 1.32733E-03-6.14395E-04-9.01717E-16
 -1      1803 1.84390E-03-9.34306E-04-1.65701E-15
 -1      1804 2.02210E-03-1.03213E-03-2.06420E-15
 -1      1805 1.71014E-03-8.33147E-04-1.52738E-15
 -1      1806 2.19436E-03-1.11770E-03-2.52252E-15
 -1      1807 2.36322E-03-1.18477E-03-3.03226E-15
 -1      1808 2.07685E-03-1.03564E-03-2.34774E-15
 -1      1809 2.52695E-03-1.22997E-03-3.59450E-15
 -1      1810 2.69126E-03-1.25086E-03-4.20992E-15
 -1      1811 2.42426E-03-1.17552E-03-3.37366E-15
 -1      1812 2.85415E-03-1.24810E-03-4.87738E-15
 -1      1813 3.02077E-03-1.22543E-03-5.59635E-15
 -1      1814 2.76188E-03-1.21692E-03-4.61171E-15
 -1      1815 3.18947E-03-1.18731E-03-6.36520E-15
 -1      1816 3.36167E-03-1.13999E-03-7.18319E-15
 -1      1817 3.10547E-03-1.16605E-03-6.05774E-15
 -1      1818 3.53672E-03-1.08882E-03-8.04794E-15
 -1      1819 3.71290E-03-1.03873E-03-8.95623E-15
 -1      1820 3.46097E-03-1.06617E-03-7.70063E-15
 -1      1821 3.89069E-03-9.93367E-04-9.90808E-15
 -1      1822 4.06740E-03-9.54850E-04-1.09009E-14
 -1      1823 3.82168E-03-9.64323E-04-9.52537E-15
 -1      1824 4.24409E-03-9.24657E-04-1.19334E-14
 -1      1825 4.41855E-03-9.02830E-04-1.30049E-14
 -1      1826 4.17818E-03-8.88746E-04-1.15159E-14
 -1      1827 4.59187E-03-8.89284E-04-1.41129E-14
 -1      1828 4.76267E-03-8.83248E-04-1.52578E-14
 -1      1829 4.52516E-03-8.47725E-04-1.36614E-14
 -1      1830 4.93170E-03-8.83888E-04-1.64379E-14
 -1      1831 5.09835E-03-8.90288E-04-1.76538E-14
 -1      1832 4.86152E-03-8.38124E-04-1.59523E-14
 -1      1833 5.26301E-03-9.01453E-04-1.89041E-14
 -1      1834 5.42555E-03-9.16609E-04-2.01878E-14
 -1      1835 5.18825E-03-8.52802E-04-1.83841E-14
 -1      1836 5.58614E-03-9.34888E-04-2.15044E-14
 -1      1837 5.74491E-03-9.55710E-04-2.28538E-14
 -1      1838 5.50686E-03-8.84431E-04-2.09527E-14
 -1      1839 5.90189E-03-9.78426E-04-2.42366E-14
 -1      1840 6.05734E-03-1.00262E-03-2.56504E-14
 -1      1841 5.81875E-03-9.26991E-04-2.36524E-14
 -1      1842 6.21124E-03-1.02786E-03-2.70962E-14
 -1      1843 6.36387E-03-1.05386E-03-2.85743E-14
 -1      1844 6.12509E-03-9.76039E-04-2.64810E-14
 -1      1845 6.51520E-03-1.08035E-03-3.00857E-14
 -1      1846 6.66550E-03-1.10712E-03-3.16283E-14
 -1      1847 6.42686E-03-1.02852E-03-2.94369E-14
 -1      1848 6.81475E-03-1.13403E-03-3.32019E-14
 -1      1849 6.96318E-03-1.16095E-03-3.48075E-14
 -1      1850 6.72492E-03-1.08244E-03-3.25217E-14
 -1      1851 7.11077E-03-1.18780E-03-3.64424E-14
 -1      1852 7.25771E-03-1.21449E-03-3.81082E-14
 -1      1853 7.01997E-03-1.13655E-03-3.57283E-14
 -1      1854 7.40401E-03-1.24100E-03-3.98062E-14
 -1      1855 7.54980E-03-1.26727E-03-4.15335E-14
 -1      1856 7.31262E-03-1.19016E-03-3.90611E-14
 -1      1857 7.69510E-03-1.29331E-03-4.32910E-14
 -1      1858 7.84001E-03-1.31909E-03-4.50786E-14
 -1      1859 7.60341E-03-1.24288E-03-4.25136E-14
 -1      1860 7.98456E-03-1.34461E-03-4.68955E-14
 -1      1861 8.12882E-03-1.36987E-03-4.87424E-14
 -1      1862 7.89274E-03-1.29455E-03-4.60876E-14
 -1      1863 8.27280E-03-1.39489E-03-5.06184E-14
 -1      1864 8.41658E-03-1.41966E-03-5.25217E-14
 -1      1865 8.18097E-03-1.34517E-03-4.97800E-14
 -1      1866 8.56016E-03-1.44421E-03-5.44536E-14
 -1      1867 8.70359E-03-1.46854E-03-5.64118E-14
 -1      1868 8.46838E-03-1.39478E-03-5.35874E-14
 -1      1869 8.84688E-03-1.49267E-03-5.84001E-14
 -1      1870 8.99006E-03-1.51662E-03-6.04160E-14
 -1      1871 8.75520E-03-1.44349E-03-5.75074E-14
 -1      1872 9.13315E-03-1.54040E-03-6.24578E-14
 -1      1873 9.27616E-03-1.56402E-03-6.45291E-14
 -1      1874 9.04157E-03-1.49141E-03-6.15376E-14
 -1      1875 9.41911E-03-1.58750E-03-6.66269E-14
 -1      1876 9.56202E-03-1.61085E-03-6.87534E-14
 -1      1877 9.32765E-03-1.53867E-03-6.56795E-14
 -1      1878 9.70488E-03-1.63408E-03-7.09074E-14
 -1      1879 9.84772E-03-1.65721E-03-7.30861E-14
 -1      1880 9.61352E-03-1.58539E-03-6.99314E-14
 -1      1881 9.99053E-03-1.68025E-03-7.52928E-14
 -1      1882 1.01333E-02-1.70320E-03-7.75246E-14
 -1      1883 9.89926E-03-1.63165E-03-7.42893E-14
 -1      1884 1.02761E-02-1.72609E-03-7.97844E-14
 -1      1885 1.04189E-02-1.74890E-03-8.20695E-14
 -1      1886 1.01849E-02-1.67757E-03-7.87538E-14
 -1      1887 1.05616E-02-1.77166E-03-8.43810E-14
 -1      1888 1.07044E-02-1.79437E-03-8.67194E-14
 -1      1889 1.04705E-02-1.72320E-03-8.33241E-14
 -1      1890 1.08472E-02-1.81704E-03-8.90821E-14
 -1      1891 1.09900E-02-1.83967E-03-9.14708E-14
 -1      1892 1.07561E-02-1.76862E-03-8.79994E-14
 -1      1893 1.11327E-02-1.86227E-03-9.38834E-14
 -1      1894 1.12755E-02-1.88484E-03-9.63163E-14
 -1      1895 1.10417E-02-1.81388E-03-9.27752E-14
 -1      1896 1.14183E-02-1.90739E-03-9.87717E-14
 -1      1897 1.15611E-02-1.92992E-03-1.01248E-13
 -1      1898 1.13273E-02-1.85902E-03-9.76431E-14
 -1      1899 1.17039E-02-1.95243E-03-1.03744E-13
 -1      1900 1.18466E-02-1.97493E-03-1.06262E-13
 -1      1901 1.16129E-02-1.90408E-03-1.02596E-13
 -1      1902 1.19894E-02-1.99741E-03-1.08797E-13
 -1      1903 1.21323E-02-2.01989E-03-1.11350E-13
 -1      1904 1.18985E-02-1.94907E-03-1.07626E-13
 -1      1905 1.22751E-02-2.04236E-03-1.13926E-13
 -1      1906 1.24179E-02-2.06482E-03-1.16521E-13
 -1      1907 1.21842E-02-1.99402E-03-1.12739E-13
 -1      1908 1.25607E-02-2.08728E-03-1.19136E-13
 -1      1909 1.27035E-02-2.10973E-03-1.21770E-13
 -1      1910 1.24698E-02-2.03894E-03-1.17929E-13
 -1      1911 1.28464E-02-2.13218E-03-1.24425E-13
 -1      1912 1.29892E-02-2.15463E-03-1.27098E-13
 -1      1913 1.27555E-02-2.08385E-03-1.23198E-13
 -1      1914 1.31320E-02-2.17707E-03-1.29789E-13
 -1      1915 1.32749E-02-2.19952E-03-1.32499E-13
 -1      1916 1.30411E-02-2.12874E-03-1.28544E-13
 -1      1917 1.34177E-02-2.22196E-03-1.35223E-13
 -1      1918 1.35605E-02-2.24441E-03-1.37963E-13
 -1      1919 1.33268E-02-2.17363E-03-1.33959E-13
 -1      1920 1.37034E-02-2.26685E-03-1.40723E-13
 -1      1921 1.38462E-02-2.28930E-03-1.43493E-13
 -1      1922 1.36125E-02-2.21852E-03-1.39439E-13
 -1      1923 1.39891E-02-2.31175E-03-1.46271E-13
 -1      1924 1.41319E-02-2.33419E-03-1.49067E-13
 -1      1925 1.38982E-02-2.26341E-03-1.44978E-13
 -1      1926 1.42748E-02-2.35664E-03-1.51877E-13
 -1      1927 1.44176E-02-2.37909E-03-1.54699E-13
 -1      1928 1.41839E-02-2.30830E-03-1.50567E-13
 -1      1929 1.45605E-02-2.40154E-03-1.57536E-13
 -1      1930 1.47033E-02-2.42399E-03-1.60384E-13
 -1      1931 1.44696E-02-2.35320E-03-1.56216E-13
 -1      1932 1.48322E-02-2.44578E-03-1.62941E-13
 -1      1933 1.49751E-02-2.46824E-03-1.65811E-13
 -1      1934 1.49991E-02-2.44103E-03-1.66743E-13
 -1      1935 1.47413E-02-2.39744E-03-1.61612E-13
 -1      1936 1.33245E-03 6.60762E-04-1.11989E-15
 -1      1937 1.17067E-03 5.99494E-04-8.29632E-16
 -1      1938 1.12600E-03 5.59747E-04-8.30458E-16
 -1      1939 1.64326E-03 7.61826E-04-1.84260E-15
 -1      1940 1.48970E-03 7.15192E-04-1.45719E-15
 -1      1941 1.45148E-03 6.79160E-04-1.45036E-15
 -1      1942 1.94069E-03 8.27369E-04-2.75786E-15
 -1      1943 1.79327E-03 7.99549E-04-2.27607E-15
 -1      1944 1.76242E-03 7.67977E-04-2.26052E-15
 -1      1945 2.22987E-03 8.49308E-04-3.86786E-15
 -1      1946 2.08579E-03 8.44013E-04-3.28863E-15
 -1      1947 2.06214E-03 8.16962E-04-3.26329E-15
 -1      1948 2.51705E-03 8.25276E-04-5.16914E-15
 -1      1949 2.37314E-03 8.42766E-04-4.49461E-15
 -1      1950 2.35601E-03 8.19381E-04-4.45882E-15
 -1      1951 2.80804E-03 7.61404E-04-6.65865E-15
 -1      1952 2.66164E-03 7.97599E-04-5.89081E-15
 -1      1953 2.65016E-03 7.76390E-04-5.84480E-15
 -1      1954 3.10638E-03 6.70629E-04-8.32982E-15
 -1      1955 2.95612E-03 7.18477E-04-7.47163E-15
 -1      1956 2.94939E-03 6.97913E-04-7.41621E-15
 -1      1957 3.41262E-03 5.68017E-04-1.01763E-14
 -1      1958 3.25858E-03 6.20022E-04-9.23148E-15
 -1      1959 3.25557E-03 5.99041E-04-9.16635E-15
 -1      1960 3.72507E-03 4.66176E-04-1.21913E-14
 -1      1961 3.56829E-03 5.16497E-04-1.11632E-14
 -1      1962 3.56772E-03 4.94630E-04-1.10884E-14
 -1      1963 4.04099E-03 3.73044E-04-1.43672E-14
 -1      1964 3.88286E-03 4.18301E-04-1.32601E-14
 -1      1965 3.88340E-03 3.95504E-04-1.31742E-14
 -1      1966 4.35764E-03 2.91987E-04-1.66965E-14
 -1      1967 4.19945E-03 3.30994E-04-1.55128E-14
 -1      1968 4.19994E-03 3.07434E-04-1.54176E-14
 -1      1969 4.67286E-03 2.23072E-04-1.91745E-14
 -1      1970 4.51560E-03 2.56114E-04-1.79169E-14
 -1      1971 4.51520E-03 2.32025E-04-1.78109E-14
 -1      1972 4.98522E-03 1.64557E-04-2.17949E-14
 -1      1973 4.82950E-03 1.92659E-04-2.04669E-14
 -1      1974 4.82778E-03 1.68265E-04-2.03496E-14
 -1      1975 5.29398E-03 1.14030E-04-2.45555E-14
 -1      1976 5.14010E-03 1.38438E-04-2.31585E-14
 -1      1977 5.13693E-03 1.13925E-04-2.30304E-14
 -1      1978 5.59892E-03 6.91042E-05-2.74470E-14
 -1      1979 5.44693E-03 9.09881E-05-2.59854E-14
 -1      1980 5.44242E-03 6.64922E-05-2.58470E-14
 -1      1981 5.90018E-03 2.77481E-05-3.04644E-14
 -1      1982 5.74999E-03 4.80733E-05-2.89399E-14
 -1      1983 5.74434E-03 2.36870E-05-2.87919E-14
 -1      1984 6.19811E-03-1.16104E-05-3.36063E-14
 -1      1985 6.04953E-03 7.88604E-06-3.20200E-14
 -1      1986 6.04299E-03-1.63362E-05-3.18610E-14
 -1      1987 6.49318E-03-5.01023E-05-3.68667E-14
 -1      1988 6.34597E-03-3.09199E-05-3.52222E-14
 -1      1989 6.33878E-03-5.49531E-05-3.50534E-14
 -1      1990 6.78587E-03-8.84883E-05-4.02468E-14
 -1      1991 6.63979E-03-6.92809E-05-3.85424E-14
 -1      1992 6.63215E-03-9.31211E-05-3.83653E-14
 -1      1993 7.07664E-03-1.27241E-04-4.37394E-14
 -1      1994 6.93146E-03-1.07803E-04-4.19788E-14
 -1      1995 6.92355E-03-1.31460E-04-4.17926E-14
 -1      1996 7.36591E-03-1.66622E-04-4.73446E-14
 -1      1997 7.22143E-03-1.46846E-04-4.55280E-14
 -1      1998 7.21338E-03-1.70338E-04-4.53337E-14
 -1      1999 7.65402E-03-2.06748E-04-5.10640E-14
 -1      2000 7.51008E-03-1.86591E-04-4.91899E-14
 -1      2001 7.50197E-03-2.09939E-04-4.89865E-14
 -1      2002 7.94128E-03-2.47638E-04-5.48995E-14
 -1      2003 7.79774E-03-2.27100E-04-5.29671E-14
 -1      2004 7.78963E-03-2.50327E-04-5.27565E-14
 -1      2005 8.22792E-03-2.89253E-04-5.88594E-14
 -1      2006 8.08466E-03-2.68359E-04-5.68635E-14
 -1      2007 8.07659E-03-2.91487E-04-5.66444E-14
 -1      2008 8.51412E-03-3.31520E-04-6.29435E-14
 -1      2009 8.37106E-03-3.10310E-04-6.08854E-14
 -1      2010 8.36305E-03-3.33359E-04-6.06566E-14
 -1      2011 8.80002E-03-3.74354E-04-6.71500E-14
 -1      2012 8.65710E-03-3.52872E-04-6.50315E-14
 -1      2013 8.64916E-03-3.75858E-04-6.47905E-14
 -1      2014 9.08574E-03-4.17664E-04-7.14781E-14
 -1      2015 8.94290E-03-3.95955E-04-6.92995E-14
 -1      2016 8.93503E-03-4.18893E-04-6.90461E-14
 -1      2017 9.37133E-03-4.61366E-04-7.59208E-14
 -1      2018 9.22855E-03-4.39471E-04-7.36857E-14
 -1      2019 9.22074E-03-4.62373E-04-7.34199E-14
 -1      2020 9.65687E-03-5.05381E-04-8.04740E-14
 -1      2021 9.51410E-03-4.83338E-04-7.81836E-14
 -1      2022 9.50636E-03-5.06214E-04-7.79062E-14
 -1      2023 9.94237E-03-5.49645E-04-8.51317E-14
 -1      2024 9.79962E-03-5.27485E-04-8.27912E-14
 -1      2025 9.79193E-03-5.50342E-04-8.25020E-14
 -1      2026 1.02279E-02-5.94099E-04-8.98892E-14
 -1      2027 1.00851E-02-5.71851E-04-8.74984E-14
 -1      2028 1.00775E-02-5.94693E-04-8.72005E-14
 -1      2029 1.05134E-02-6.38698E-04-9.47471E-14
 -1      2030 1.03706E-02-6.16382E-04-9.23060E-14
 -1      2031 1.03630E-02-6.39216E-04-9.19983E-14
 -1      2032 1.07989E-02-6.83404E-04-9.96984E-14
 -1      2033 1.06562E-02-6.61039E-04-9.72105E-14
 -1      2034 1.06486E-02-6.83867E-04-9.68926E-14
 -1      2035 1.10845E-02-7.28188E-04-1.04745E-13
 -1      2036 1.09417E-02-7.05788E-04-1.02210E-13
 -1      2037 1.09341E-02-7.28612E-04-1.01882E-13
 -1      2038 1.13701E-02-7.73028E-04-1.09883E-13
 -1      2039 1.12273E-02-7.50602E-04-1.07302E-13
 -1      2040 1.12197E-02-7.73424E-04-1.06964E-13
 -1      2041 1.16557E-02-8.17905E-04-1.15110E-13
 -1      2042 1.15129E-02-7.95462E-04-1.12485E-13
 -1      2043 1.15053E-02-8.18284E-04-1.12135E-13
 -1      2044 1.19413E-02-8.62807E-04-1.20424E-13
 -1      2045 1.17985E-02-8.40353E-04-1.17759E-13
 -1      2046 1.17910E-02-8.63175E-04-1.17397E-13
 -1      2047 1.22270E-02-9.07724E-04-1.25813E-13
 -1      2048 1.20841E-02-8.85264E-04-1.23109E-13
 -1      2049 1.20766E-02-9.08086E-04-1.22738E-13
 -1      2050 1.25126E-02-9.52651E-04-1.31267E-13
 -1      2051 1.23698E-02-9.30187E-04-1.28533E-13
 -1      2052 1.23623E-02-9.53009E-04-1.28150E-13
 -1      2053 1.27983E-02-9.97581E-04-1.36782E-13
 -1      2054 1.26555E-02-9.75115E-04-1.34019E-13
 -1      2055 1.26480E-02-9.97938E-04-1.33628E-13
 -1      2056 1.30840E-02-1.04251E-03-1.42351E-13
 -1      2057 1.29411E-02-1.02005E-03-1.39561E-13
 -1      2058 1.29336E-02-1.04287E-03-1.39163E-13
 -1      2059 1.33697E-02-1.08744E-03-1.47967E-13
 -1      2060 1.32268E-02-1.06498E-03-1.45153E-13
 -1      2061 1.32193E-02-1.08780E-03-1.44752E-13
 -1      2062 1.36554E-02-1.13237E-03-1.53634E-13
 -1      2063 1.35125E-02-1.10990E-03-1.50794E-13
 -1      2064 1.35050E-02-1.13273E-03-1.50387E-13
 -1      2065 1.39411E-02-1.17729E-03-1.59336E-13
 -1      2066 1.37982E-02-1.15483E-03-1.56482E-13
 -1      2067 1.37907E-02-1.17765E-03-1.56067E-13
 -1      2068 1.42268E-02-1.22220E-03-1.65072E-13
 -1      2069 1.40839E-02-1.19975E-03-1.62200E-13
 -1      2070 1.40764E-02-1.22257E-03-1.61787E-13
 -1      2071 1.44657E-02-1.26225E-03-1.69857E-13
 -1      2072 1.43228E-02-1.23980E-03-1.66977E-13
 -1      2073 1.43153E-02-1.26263E-03-1.66561E-13
 -1      2074 1.45074E-02-1.29781E-03-1.70379E-13
 -1      2075 1.46011E-02-1.52776E-03-1.69839E-13
 -1      2076 1.45790E-02-1.48561E-03-1.69837E-13
 -1      2077 1.45570E-02-1.44347E-03-1.69834E-13
 -1      2078 1.45349E-02-1.40132E-03-1.69828E-13
 -1      2079 1.44443E-02-1.44509E-03-1.67337E-13
 -1      2080 1.45322E-02-1.37064E-03-1.70113E-13
 -1      2081 1.45101E-02-1.32849E-03-1.70099E-13
 -1      2082 1.44141E-02-1.31090E-03-1.68188E-13
 -1      2083 1.44195E-02-1.37226E-03-1.67620E-13
 -1      2084 1.46445E-02-1.61063E-03-1.69825E-13
 -1      2085 1.46228E-02-1.56919E-03-1.69835E-13
 -1      2086 1.44881E-02-1.52867E-03-1.67337E-13
 -1      2087 1.46887E-02-1.69493E-03-1.69797E-13
 -1      2088 1.46666E-02-1.65278E-03-1.69812E-13
 -1      2089 1.45318E-02-1.61225E-03-1.67317E-13
 -1      2090 1.47328E-02-1.77923E-03-1.69746E-13
 -1      2091 1.47107E-02-1.73708E-03-1.69775E-13
 -1      2092 1.45760E-02-1.69655E-03-1.67282E-13
 -1      2093 1.47770E-02-1.86353E-03-1.69673E-13
 -1      2094 1.47549E-02-1.82138E-03-1.69713E-13
 -1      2095 1.46201E-02-1.78086E-03-1.67227E-13
 -1      2096 1.48211E-02-1.94783E-03-1.69574E-13
 -1      2097 1.47991E-02-1.90568E-03-1.69627E-13
 -1      2098 1.46643E-02-1.86516E-03-1.67150E-13
 -1      2099 1.48653E-02-2.03213E-03-1.69450E-13
 -1      2100 1.48432E-02-1.98998E-03-1.69515E-13
 -1      2101 1.47085E-02-1.94946E-03-1.67050E-13
 -1      2102 1.49087E-02-2.11500E-03-1.69309E-13
 -1      2103 1.48870E-02-2.07357E-03-1.69382E-13
 -1      2104 1.47523E-02-2.03305E-03-1.66923E-13
 -1      2105 1.49529E-02-2.19930E-03-1.69141E-13
 -1      2106 1.49308E-02-2.15715E-03-1.69228E-13
 -1      2107 1.47961E-02-2.11663E-03-1.66774E-13
 -1      2108 1.49971E-02-2.28360E-03-1.68947E-13
 -1      2109 1.49750E-02-2.24145E-03-1.69046E-13
 -1      2110 1.48402E-02-2.20093E-03-1.66598E-13
 -1      2111 1.50413E-02-2.36789E-03-1.68739E-13
 -1      2112 1.50192E-02-2.32574E-03-1.68845E-13
 -1      2113 1.48844E-02-2.28522E-03-1.66401E-13
 -1      2114 4.16640E-03-1.80561E-04-8.19496E-15
 -1      2115 4.31854E-03-2.25245E-04-8.34397E-15
 -1      2116 4.58783E-03-3.05560E-04-8.59715E-15
 -1      2117 4.59880E-03-3.16801E-04-8.56115E-15
 -1      2118 4.43523E-03-2.59747E-04-8.46960E-15
 -1      2119 4.52448E-03-2.83982E-04-8.59952E-15
 -1      2120 4.37674E-03-2.64408E-04-8.88130E-15
 -1      2121 3.75445E-03-3.84189E-06-7.44680E-15
 -1      2122 3.93603E-03-9.03073E-05-7.81761E-15
 -1      2123 3.38384E-03 1.76613E-04-6.76545E-15
 -1      2124 3.57175E-03 8.38239E-05-7.10017E-15
 -1      2125 3.64284E-03 1.91125E-05-7.61496E-15
 -1      2126 3.12906E-04-2.20943E-05-1.99453E-16
 -1      2127 3.44560E-04-4.47809E-05-1.93327E-16
 -1      2128 4.91178E-04-1.02143E-04-2.84007E-16
 -1      2129 2.62905E-03 5.29311E-04-4.96012E-15
 -1      2130 2.79034E-03 4.69808E-04-5.37978E-15
 -1      2131 2.28365E-03 5.74199E-04-4.03144E-15
 -1      2132 2.42977E-03 5.69618E-04-4.42902E-15
 -1      2133 1.98898E-03 5.14172E-04-3.31210E-15
 -1      2134 2.13494E-03 5.55663E-04-3.66287E-15
 -1      2135 2.21154E-03 5.77003E-04-3.85011E-15
 -1      2136 1.62399E-03 3.56053E-04-2.56002E-15
 -1      2137 1.79272E-03 4.39805E-04-2.88433E-15
 -1      2138 1.21934E-03 1.62111E-04-1.98489E-15
 -1      2139 1.39977E-03 2.49337E-04-2.22516E-15
 -1      2140 8.56562E-04 1.58274E-05-1.59614E-15
 -1      2141 1.01663E-03 7.54189E-05-1.75248E-15
 -1      2142 5.79492E-04-7.09282E-05-1.32581E-15
 -1      2143 7.09565E-04-3.31646E-05-1.45557E-15
 -1      2144 7.89581E-04-2.54217E-05-1.42455E-15
 -1      2145 3.70640E-04-1.08114E-04-1.13765E-15
 -1      2146 4.48690E-04-1.01313E-04-1.19444E-15
 -1      2147 3.06424E-04-1.07757E-04-1.08402E-15
 -1      2148 3.20227E-04-1.11350E-04-1.10271E-15
 -1      2149 3.92906E-04-1.19194E-04-1.15595E-15
 -1      2150 3.33340E-04-1.11365E-04-1.11122E-15
 -1      2151 6.20676E-04-1.72467E-04-1.29264E-15
 -1      2152 4.94674E-04-1.38762E-04-1.20782E-15
 -1      2153 9.82409E-04-3.31285E-04-1.62181E-15
 -1      2154 8.02559E-04-2.48214E-04-1.45862E-15
 -1      2155 1.39672E-03-5.60237E-04-2.06115E-15
 -1      2156 1.20636E-03-4.45968E-04-1.83660E-15
 -1      2157 1.78854E-03-7.90983E-04-2.56324E-15
 -1      2158 1.59647E-03-6.75516E-04-2.30130E-15
 -1      2159 2.19292E-03-1.00946E-03-3.31969E-15
 -1      2160 2.02852E-03-9.25822E-04-2.96955E-15
 -1      2161 2.50734E-03-1.08560E-03-4.07199E-15
 -1      2162 2.36505E-03-1.06298E-03-3.72459E-15
 -1      2163 2.79990E-03-1.06017E-03-4.82356E-15
 -1      2164 2.65961E-03-1.08545E-03-4.45095E-15
 -1      2165 3.14492E-03-9.35092E-04-5.71469E-15
 -1      2166 2.99484E-03-1.00061E-03-5.35422E-15
 -1      2167 3.45233E-03-7.88438E-04-6.39835E-15
 -1      2168 3.29636E-03-8.66809E-04-6.05246E-15
 -1      2169 3.20712E-03-9.04327E-04-6.07132E-15
 -1      2170 3.81433E-03-6.13120E-04-7.17804E-15
 -1      2171 3.65750E-03-6.87947E-04-6.86216E-15
 -1      2172 4.12368E-03-4.79785E-04-7.81092E-15
 -1      2173 3.97279E-03-5.43323E-04-7.49096E-15
 -1      2174 3.87715E-03-5.69657E-04-7.68763E-15
 -1      2175 4.42577E-03-3.81354E-04-8.22900E-15
 -1      2176 4.31047E-03-4.15497E-04-8.07181E-15
 -1      2177 4.57209E-03-3.34647E-04-8.50777E-15
 -1      2178 4.51625E-03-3.51466E-04-8.40046E-15
 -1      2179 2.97809E-03 3.86727E-04-5.84819E-15
 -1      2180 3.14950E-03 2.95740E-04-6.26333E-15
 -1      2181 3.24942E-03 2.26153E-04-6.74059E-15
 -1      2182 8.08035E-04-3.63482E-04-3.01002E-16
 -1      2183 1.90253E-03 4.87894E-04-3.05547E-15
 -1      2184 3.94071E-04-3.74866E-05-2.89428E-16
 -1      2185 8.63299E-04-3.62090E-04-4.11875E-16
 -1      2186 4.56293E-03-3.04718E-04-9.01307E-15
 -1      2187 4.04672E-03-1.55678E-04-8.35743E-15
 -1      2188 1.50172E-02-2.39510E-03-1.67810E-13
 -1      2189 4.59396E-03-3.25788E-04-8.95862E-15
 -1      2190 2.86198E-03 4.30723E-04-5.75397E-15
 -1      2191 4.21226E-03-4.38109E-04-8.27996E-15
 -1      2192 3.53621E-03-7.35976E-04-6.88628E-15
 -1      2193 2.89760E-03-1.04011E-03-5.18072E-15
 -1      2194 2.58409E-03-1.09876E-03-4.27241E-15
 -1      2195 2.28996E-03-1.04798E-03-3.48807E-15
 -1      2196 1.92451E-03-8.59990E-04-2.68833E-15
 -1      2197 1.51875E-03-6.02918E-04-2.07389E-15
 -1      2198 1.11488E-03-3.70372E-04-1.64033E-15
 -1      2199 7.15939E-04-1.85263E-04-1.28005E-15
 -1      2200 4.43395E-04-1.07967E-04-1.08266E-15
 -1      2201 3.13920E-04-9.97321E-05-1.00883E-15
 -1      2202 5.12299E-04-9.81647E-05-1.16621E-15
 -1      2203 1.12257E-03 1.06238E-04-1.77393E-15
 -1      2204 2.51516E-03 5.60400E-04-4.74160E-15
 -1      2205 1.52460E-03 3.03194E-04-2.31497E-15
 -1      2206 3.39902E-04-1.12065E-04-1.01509E-15
 -1      2207 4.47773E-03-3.56260E-04-8.72663E-15
 -1      2208 1.18768E-03 5.49869E-04-1.01864E-15
 -1      2209 1.01879E-03 4.83486E-04-7.50241E-16
 -1      2210 2.45745E-04-3.20382E-05-4.00084E-16
 -1      2211 2.81565E-04-2.10907E-05-3.98953E-16
 -1      2212 3.35853E-04-1.90198E-05-3.98973E-16
 -1      2213 3.96489E-04-2.90352E-05-3.97482E-16
 -1      2214 3.65641E-04-3.55637E-05-5.30785E-16
 -1      2215 3.00606E-04-9.23790E-05-4.16578E-16
 -1      2216 2.58353E-04-8.58065E-05-4.10696E-16
 -1      2217 4.09862E-04-7.29873E-05-4.30333E-16
 -1      2218 3.54806E-04-8.82700E-05-4.23849E-16
 -1      2219 3.91050E-04-9.75950E-05-5.58703E-16
 -1      2220 5.08920E-04-1.51488E-05-4.41053E-16
 -1      2221 4.63230E-04-4.71602E-05-4.36513E-16
 -1      2222 5.33278E-04-5.47873E-05-5.79018E-16
 -1      2223 5.75503E-04 6.12843E-05-4.45173E-16
 -1      2224 5.46426E-04 2.23330E-05-4.44279E-16
 -1      2225 6.46568E-04 2.40409E-05-5.93425E-16
 -1      2226 6.13047E-04 1.41091E-04-4.38885E-16
 -1      2227 5.97022E-04 1.01494E-04-4.43737E-16
 -1      2228 7.15516E-04 1.14944E-04-5.97816E-16
 -1      2229 6.35134E-04 2.19160E-04-4.17770E-16
 -1      2230 6.24927E-04 1.80424E-04-4.30442E-16
 -1      2231 7.51789E-04 2.04644E-04-5.87516E-16
 -1      2232 6.63257E-04 3.31964E-04-3.35235E-16
 -1      2233 6.25977E-04 2.94285E-04-3.32782E-16
 -1      2234 6.11912E-04 2.54950E-04-3.57909E-16
 -1      2235 8.36471E-04 4.09365E-04-5.10226E-16
 -1      2236 1.51581E-03 6.64794E-04-1.69371E-15
 -1      2237 1.35330E-03 6.10835E-04-1.33263E-15
 -1      2238 1.25604E-03 5.39473E-04-1.21344E-15
 -1      2239 1.18419E-03-5.05564E-04-8.11485E-16
 -1      2240 1.37864E-03-6.12916E-04-1.08127E-15
 -1      2241 1.83082E-03 4.63091E-04-2.82128E-15
 -1      2242 1.99353E-03 5.32483E-04-3.23686E-15
 -1      2243 1.57397E-03-7.25118E-04-1.39637E-15
 -1      2244 1.76653E-03-8.37584E-04-1.75905E-15
 -1      2245 1.43115E-03-6.11997E-04-1.26560E-15
 -1      2246 1.95553E-03-9.46122E-04-2.17235E-15
 -1      2247 2.13995E-03-1.04115E-03-2.63564E-15
 -1      2248 1.82551E-03-8.45443E-04-1.99518E-15
 -1      2249 2.31728E-03-1.11791E-03-3.15150E-15
 -1      2250 2.49287E-03-1.16717E-03-3.72081E-15
 -1      2251 2.20513E-03-1.05026E-03-2.92638E-15
 -1      2252 2.66439E-03-1.18689E-03-4.34372E-15
 -1      2253 2.83954E-03-1.17879E-03-5.01980E-15
 -1      2254 2.56589E-03-1.15503E-03-4.07182E-15
 -1      2255 3.01576E-03-1.14597E-03-5.74641E-15
 -1      2256 3.19724E-03-1.09867E-03-6.52473E-15
 -1      2257 2.92622E-03-1.12967E-03-5.43226E-15
 -1      2258 3.38182E-03-1.04241E-03-7.35067E-15
 -1      2259 3.56703E-03-9.85738E-04-8.22347E-15
 -1      2260 3.30176E-03-1.02096E-03-6.99736E-15
 -1      2261 3.75282E-03-9.32928E-04-9.13970E-15
 -1      2262 3.93519E-03-8.87287E-04-1.00979E-14
 -1      2263 3.68422E-03-9.00813E-04-8.75161E-15
 -1      2264 4.11539E-03-8.50909E-04-1.10962E-14
 -1      2265 4.29093E-03-8.23440E-04-1.21341E-14
 -1      2266 4.05518E-03-8.11252E-04-1.06762E-14
 -1      2267 4.46343E-03-8.05356E-04-1.32089E-14
 -1      2268 4.63169E-03-7.95189E-04-1.43200E-14
 -1      2269 4.40603E-03-7.61760E-04-1.27560E-14
 -1      2270 4.79707E-03-7.92596E-04-1.54667E-14
 -1      2271 4.95930E-03-7.96088E-04-1.66484E-14
 -1      2272 4.73790E-03-7.46870E-04-1.49816E-14
 -1      2273 5.11921E-03-8.04996E-04-1.78652E-14
 -1      2274 5.27690E-03-8.18223E-04-1.91162E-14
 -1      2275 5.05558E-03-7.57796E-04-1.73470E-14
 -1      2276 5.43280E-03-8.35037E-04-2.04004E-14
 -1      2277 5.58715E-03-8.54703E-04-2.17177E-14
 -1      2278 5.36380E-03-7.86649E-04-1.98485E-14
 -1      2279 5.74010E-03-8.76589E-04-2.30687E-14
 -1      2280 5.89193E-03-9.00213E-04-2.44516E-14
 -1      2281 5.66589E-03-8.27276E-04-2.24847E-14
 -1      2282 6.04264E-03-9.25098E-04-2.58656E-14
 -1      2283 6.19251E-03-9.50934E-04-2.73114E-14
 -1      2284 5.96392E-03-8.75154E-04-2.52502E-14
 -1      2285 6.34149E-03-9.77390E-04-2.87895E-14
 -1      2286 6.48980E-03-1.00427E-03-3.03000E-14
 -1      2287 6.25913E-03-9.27092E-04-2.81435E-14
 -1      2288 6.63738E-03-1.03136E-03-3.18412E-14
 -1      2289 6.78444E-03-1.05854E-03-3.34134E-14
 -1      2290 6.55224E-03-9.80938E-04-3.11623E-14
 -1      2291 6.93091E-03-1.08568E-03-3.50171E-14
 -1      2292 7.07696E-03-1.11272E-03-3.66509E-14
 -1      2293 6.84371E-03-1.03530E-03-3.43067E-14
 -1      2294 7.22255E-03-1.13957E-03-3.83169E-14
 -1      2295 7.36779E-03-1.16621E-03-4.00129E-14
 -1      2296 7.13386E-03-1.08934E-03-3.75753E-14
 -1      2297 7.51267E-03-1.19261E-03-4.17388E-14
 -1      2298 7.65728E-03-1.21873E-03-4.34944E-14
 -1      2299 7.42297E-03-1.14259E-03-4.09648E-14
 -1      2300 7.80160E-03-1.24460E-03-4.52823E-14
 -1      2301 7.94572E-03-1.27018E-03-4.70979E-14
 -1      2302 7.71122E-03-1.19481E-03-4.44765E-14
 -1      2303 8.08962E-03-1.29550E-03-4.89435E-14
 -1      2304 8.23336E-03-1.32056E-03-5.08191E-14
 -1      2305 7.99880E-03-1.24595E-03-4.81093E-14
 -1      2306 8.37693E-03-1.34537E-03-5.27240E-14
 -1      2307 8.52039E-03-1.36995E-03-5.46553E-14
 -1      2308 8.28586E-03-1.29604E-03-5.18600E-14
 -1      2309 8.66373E-03-1.39431E-03-5.66141E-14
 -1      2310 8.80697E-03-1.41846E-03-5.86021E-14
 -1      2311 8.57251E-03-1.34517E-03-5.57231E-14
 -1      2312 8.95013E-03-1.44242E-03-6.06189E-14
 -1      2313 9.09323E-03-1.46621E-03-6.26621E-14
 -1      2314 8.85885E-03-1.39345E-03-5.96987E-14
 -1      2315 9.23626E-03-1.48984E-03-6.47319E-14
 -1      2316 9.37925E-03-1.51332E-03-6.68312E-14
 -1      2317 9.14498E-03-1.44101E-03-6.37851E-14
 -1      2318 9.52220E-03-1.53668E-03-6.89564E-14
 -1      2319 9.66512E-03-1.55991E-03-7.11092E-14
 -1      2320 9.43094E-03-1.48797E-03-6.79818E-14
 -1      2321 9.80801E-03-1.58304E-03-7.32896E-14
 -1      2322 9.95088E-03-1.60608E-03-7.54933E-14
 -1      2323 9.71678E-03-1.53442E-03-7.22878E-14
 -1      2324 1.00937E-02-1.62903E-03-7.77232E-14
 -1      2325 1.02366E-02-1.65191E-03-7.99823E-14
 -1      2326 1.00025E-02-1.58049E-03-7.66952E-14
 -1      2327 1.03794E-02-1.67472E-03-8.22693E-14
 -1      2328 1.05222E-02-1.69748E-03-8.45806E-14
 -1      2329 1.02883E-02-1.62624E-03-8.12115E-14
 -1      2330 1.06650E-02-1.72019E-03-8.69179E-14
 -1      2331 1.08079E-02-1.74285E-03-8.92813E-14
 -1      2332 1.05740E-02-1.67175E-03-8.58355E-14
 -1      2333 1.09507E-02-1.76548E-03-9.16686E-14
 -1      2334 1.10935E-02-1.78808E-03-9.40807E-14
 -1      2335 1.08596E-02-1.71707E-03-9.05629E-14
 -1      2336 1.12363E-02-1.81065E-03-9.65141E-14
 -1      2337 1.13791E-02-1.83319E-03-9.89694E-14
 -1      2338 1.11453E-02-1.76226E-03-9.53855E-14
 -1      2339 1.15219E-02-1.85572E-03-1.01445E-13
 -1      2340 1.16648E-02-1.87823E-03-1.03941E-13
 -1      2341 1.14310E-02-1.80735E-03-1.00295E-13
 -1      2342 1.18076E-02-1.90072E-03-1.06457E-13
 -1      2343 1.19504E-02-1.92320E-03-1.08995E-13
 -1      2344 1.17166E-02-1.85236E-03-1.05287E-13
 -1      2345 1.20932E-02-1.94568E-03-1.11549E-13
 -1      2346 1.22361E-02-1.96814E-03-1.14125E-13
 -1      2347 1.20023E-02-1.89733E-03-1.10360E-13
 -1      2348 1.23789E-02-1.99060E-03-1.16721E-13
 -1      2349 1.25217E-02-2.01306E-03-1.19337E-13
 -1      2350 1.22880E-02-1.94226E-03-1.15512E-13
 -1      2351 1.26646E-02-2.03551E-03-1.21971E-13
 -1      2352 1.28074E-02-2.05796E-03-1.24625E-13
 -1      2353 1.25737E-02-1.98717E-03-1.20744E-13
 -1      2354 1.29502E-02-2.08041E-03-1.27299E-13
 -1      2355 1.30931E-02-2.10285E-03-1.29988E-13
 -1      2356 1.28593E-02-2.03207E-03-1.26051E-13
 -1      2357 1.32359E-02-2.12530E-03-1.32696E-13
 -1      2358 1.33788E-02-2.14774E-03-1.35419E-13
 -1      2359 1.31450E-02-2.07696E-03-1.31433E-13
 -1      2360 1.35216E-02-2.17018E-03-1.38157E-13
 -1      2361 1.36645E-02-2.19263E-03-1.40914E-13
 -1      2362 1.34307E-02-2.12185E-03-1.36878E-13
 -1      2363 1.38073E-02-2.21507E-03-1.43683E-13
 -1      2364 1.39502E-02-2.23752E-03-1.46462E-13
 -1      2365 1.37164E-02-2.16674E-03-1.42384E-13
 -1      2366 1.40930E-02-2.25996E-03-1.49259E-13
 -1      2367 1.42359E-02-2.28241E-03-1.52071E-13
 -1      2368 1.40021E-02-2.21163E-03-1.47951E-13
 -1      2369 1.43787E-02-2.30486E-03-1.54895E-13
 -1      2370 1.45216E-02-2.32731E-03-1.57733E-13
 -1      2371 1.42878E-02-2.25652E-03-1.53574E-13
 -1      2372 4.33374E-03-2.67301E-04-9.33635E-15
 -1      2373 4.44009E-03-2.91605E-04-9.47354E-15
 -1      2374 2.13648E-03 7.87392E-04-3.61614E-15
 -1      2375 1.98459E-03 7.73561E-04-3.06321E-15
 -1      2376 2.43707E-03 7.77828E-04-4.86555E-15
 -1      2377 2.28668E-03 7.88826E-04-4.21695E-15
 -1      2378 2.21514E-03 7.56141E-04-3.97288E-15
 -1      2379 2.73925E-03 7.22608E-04-6.30434E-15
 -1      2380 2.58742E-03 7.55306E-04-5.56140E-15
 -1      2381 2.52157E-03 7.33325E-04-5.27642E-15
 -1      2382 3.04707E-03 6.34609E-04-7.92641E-15
 -1      2383 2.89228E-03 6.81646E-04-7.09295E-15
 -1      2384 2.83144E-03 6.65120E-04-6.76778E-15
 -1      2385 3.36086E-03 5.30769E-04-9.72535E-15
 -1      2386 3.20337E-03 5.83659E-04-8.80424E-15
 -1      2387 3.14760E-03 5.67987E-04-8.44080E-15
 -1      2388 3.67834E-03 4.25785E-04-1.16922E-14
 -1      2389 3.51944E-03 4.77721E-04-1.06881E-14
 -1      2390 3.46855E-03 4.60320E-04-1.02872E-14
 -1      2391 3.99658E-03 3.29089E-04-1.38217E-14
 -1      2392 3.83767E-03 3.76046E-04-1.27372E-14
 -1      2393 3.79073E-03 3.56055E-04-1.22999E-14
 -1      2394 4.31315E-03 2.44868E-04-1.61036E-14
 -1      2395 4.15529E-03 2.85335E-04-1.49436E-14
 -1      2396 4.11082E-03 2.62842E-04-1.44701E-14
 -1      2397 4.62663E-03 1.73505E-04-1.85352E-14
 -1      2398 4.47041E-03 2.07650E-04-1.73010E-14
 -1      2399 4.42687E-03 1.83114E-04-1.67919E-14
 -1      2400 4.93637E-03 1.13302E-04-2.11097E-14
 -1      2401 4.78203E-03 1.42145E-04-1.98054E-14
 -1      2402 4.73819E-03 1.16084E-04-1.92605E-14
 -1      2403 5.24230E-03 6.17655E-05-2.38248E-14
 -1      2404 5.08983E-03 8.65995E-05-2.24504E-14
 -1      2405 5.04493E-03 5.94822E-05-2.18711E-14
 -1      2406 5.54462E-03 1.63741E-05-2.66720E-14
 -1      2407 5.39389E-03 3.84362E-05-2.52319E-14
 -1      2408 5.34759E-03 1.06584E-05-2.46183E-14
 -1      2409 5.84369E-03-2.50473E-05-2.96475E-14
 -1      2410 5.69453E-03-4.72350E-06-2.81446E-14
 -1      2411 5.64677E-03-3.28460E-05-2.74977E-14
 -1      2412 6.13994E-03-6.42017E-05-3.27480E-14
 -1      2413 5.99213E-03-4.48251E-05-3.11825E-14
 -1      2414 5.94306E-03-7.30537E-05-3.05041E-14
 -1      2415 6.43380E-03-1.02328E-04-3.59687E-14
 -1      2416 6.28713E-03-8.33342E-05-3.43427E-14
 -1      2417 6.23698E-03-1.11500E-04-3.36332E-14
 -1      2418 6.72569E-03-1.40267E-04-3.93085E-14
 -1      2419 6.57996E-03-1.21281E-04-3.76240E-14
 -1      2420 6.52897E-03-1.49276E-04-3.68839E-14
 -1      2421 7.01599E-03-1.78552E-04-4.27646E-14
 -1      2422 6.87101E-03-1.59342E-04-4.10227E-14
 -1      2423 6.81941E-03-1.87104E-04-4.02527E-14
 -1      2424 7.30503E-03-2.17481E-04-4.63330E-14
 -1      2425 7.16065E-03-1.97922E-04-4.45352E-14
 -1      2426 7.10862E-03-2.25427E-04-4.37376E-14
 -1      2427 7.59309E-03-2.57194E-04-5.00171E-14
 -1      2428 7.44916E-03-2.37233E-04-4.81609E-14
 -1      2429 7.39687E-03-2.64479E-04-4.73353E-14
 -1      2430 7.88040E-03-2.97722E-04-5.38143E-14
 -1      2431 7.73682E-03-2.77355E-04-5.19006E-14
 -1      2432 7.68439E-03-3.04358E-04-5.10463E-14
 -1      2433 8.16716E-03-3.39029E-04-5.77355E-14
 -1      2434 8.02384E-03-3.18280E-04-5.57607E-14
 -1      2435 7.97134E-03-3.45064E-04-5.48756E-14
 -1      2436 8.45352E-03-3.81042E-04-6.17756E-14
 -1      2437 8.31038E-03-3.59951E-04-5.97392E-14
 -1      2438 8.25787E-03-3.86545E-04-5.88249E-14
 -1      2439 8.73958E-03-4.23669E-04-6.59366E-14
 -1      2440 8.59658E-03-4.02283E-04-6.38425E-14
 -1      2441 8.54410E-03-4.28717E-04-6.28947E-14
 -1      2442 9.02546E-03-4.66816E-04-7.02197E-14
 -1      2443 8.88254E-03-4.45182E-04-6.80642E-14
 -1      2444 8.83011E-03-4.71484E-04-6.70839E-14
 -1      2445 9.31120E-03-5.10391E-04-7.46155E-14
 -1      2446 9.16834E-03-4.88554E-04-7.24025E-14
 -1      2447 9.11597E-03-5.14749E-04-7.13890E-14
 -1      2448 9.59687E-03-5.54310E-04-7.91251E-14
 -1      2449 9.45404E-03-5.32311E-04-7.68568E-14
 -1      2450 9.40173E-03-5.58422E-04-7.58098E-14
 -1      2451 9.88249E-03-5.98501E-04-8.37425E-14
 -1      2452 9.73968E-03-5.76374E-04-8.14206E-14
 -1      2453 9.68742E-03-6.02420E-04-8.03421E-14
 -1      2454 1.01681E-02-6.42902E-04-8.84614E-14
 -1      2455 1.00253E-02-6.20678E-04-8.60898E-14
 -1      2456 9.97308E-03-6.46674E-04-8.49804E-14
 -1      2457 1.04537E-02-6.87463E-04-9.32827E-14
 -1      2458 1.03109E-02-6.65165E-04-9.08595E-14
 -1      2459 1.02587E-02-6.91124E-04-8.97235E-14
 -1      2460 1.07393E-02-7.32144E-04-9.81961E-14
 -1      2461 1.05965E-02-7.09791E-04-9.57256E-14
 -1      2462 1.05444E-02-7.35723E-04-9.45640E-14
 -1      2463 1.10249E-02-7.76911E-04-1.03203E-13
 -1      2464 1.08821E-02-7.54518E-04-1.00688E-13
 -1      2465 1.08300E-02-7.80431E-04-9.94985E-14
 -1      2466 1.13105E-02-8.21739E-04-1.08303E-13
 -1      2467 1.11677E-02-7.99318E-04-1.05742E-13
 -1      2468 1.11156E-02-8.25218E-04-1.04524E-13
 -1      2469 1.15961E-02-8.66610E-04-1.13490E-13
 -1      2470 1.14533E-02-8.44170E-04-1.10886E-13
 -1      2471 1.14013E-02-8.70061E-04-1.09641E-13
 -1      2472 1.18818E-02-9.11509E-04-1.18767E-13
 -1      2473 1.17390E-02-8.89056E-04-1.16119E-13
 -1      2474 1.16869E-02-9.14942E-04-1.14846E-13
 -1      2475 1.21674E-02-9.56425E-04-1.24119E-13
 -1      2476 1.20246E-02-9.33965E-04-1.21432E-13
 -1      2477 1.19726E-02-9.59847E-04-1.20132E-13
 -1      2478 1.24531E-02-1.00135E-03-1.29541E-13
 -1      2479 1.23103E-02-9.78888E-04-1.26822E-13
 -1      2480 1.22583E-02-1.00477E-03-1.25497E-13
 -1      2481 1.27388E-02-1.04628E-03-1.35030E-13
 -1      2482 1.25960E-02-1.02382E-03-1.32279E-13
 -1      2483 1.25440E-02-1.04970E-03-1.30933E-13
 -1      2484 1.30245E-02-1.09122E-03-1.40576E-13
 -1      2485 1.28816E-02-1.06875E-03-1.37795E-13
 -1      2486 1.28297E-02-1.09463E-03-1.36431E-13
 -1      2487 1.33102E-02-1.13615E-03-1.46173E-13
 -1      2488 1.31673E-02-1.11368E-03-1.43369E-13
 -1      2489 1.31154E-02-1.13956E-03-1.41985E-13
 -1      2490 1.35959E-02-1.18107E-03-1.51817E-13
 -1      2491 1.34530E-02-1.15861E-03-1.48989E-13
 -1      2492 1.34011E-02-1.18449E-03-1.47592E-13
 -1      2493 1.38816E-02-1.22600E-03-1.57507E-13
 -1      2494 1.37387E-02-1.20354E-03-1.54658E-13
 -1      2495 1.36868E-02-1.22942E-03-1.53248E-13
 -1      2496 1.41673E-02-1.27092E-03-1.63235E-13
 -1      2497 1.40245E-02-1.24846E-03-1.60368E-13
 -1      2498 1.39725E-02-1.27434E-03-1.58947E-13
 -1      2499 1.43180E-02-1.29331E-03-1.66280E-13
 -1      2500 1.44192E-02-1.61388E-03-1.64815E-13
 -1      2501 1.43971E-02-1.57173E-03-1.64830E-13
 -1      2502 1.44633E-02-1.69818E-03-1.64774E-13
 -1      2503 1.44412E-02-1.65603E-03-1.64795E-13
 -1      2504 1.43065E-02-1.61551E-03-1.62315E-13
 -1      2505 1.43316E-02-1.44672E-03-1.64846E-13
 -1      2506 1.43095E-02-1.40457E-03-1.64843E-13
 -1      2507 1.43752E-02-1.52994E-03-1.64838E-13
 -1      2508 1.43535E-02-1.48851E-03-1.64844E-13
 -1      2509 1.42187E-02-1.44799E-03-1.62357E-13
 -1      2510 1.42625E-02-1.53157E-03-1.62344E-13
 -1      2511 1.45075E-02-1.78248E-03-1.64713E-13
 -1      2512 1.44854E-02-1.74033E-03-1.64747E-13
 -1      2513 1.43506E-02-1.69981E-03-1.62270E-13
 -1      2514 1.45516E-02-1.86679E-03-1.64633E-13
 -1      2515 1.45295E-02-1.82464E-03-1.64676E-13
 -1      2516 1.43948E-02-1.78411E-03-1.62207E-13
 -1      2517 1.45958E-02-1.95109E-03-1.64526E-13
 -1      2518 1.45737E-02-1.90894E-03-1.64581E-13
 -1      2519 1.44389E-02-1.86842E-03-1.62120E-13
 -1      2520 1.46392E-02-2.03396E-03-1.64395E-13
 -1      2521 1.46175E-02-1.99253E-03-1.64464E-13
 -1      2522 1.44827E-02-1.95201E-03-1.62007E-13
 -1      2523 1.46834E-02-2.11826E-03-1.64240E-13
 -1      2524 1.46613E-02-2.07611E-03-1.64321E-13
 -1      2525 1.45265E-02-2.03559E-03-1.61872E-13
 -1      2526 1.47276E-02-2.20256E-03-1.64059E-13
 -1      2527 1.47055E-02-2.16041E-03-1.64153E-13
 -1      2528 1.45707E-02-2.11989E-03-1.61711E-13
 -1      2529 1.47717E-02-2.28685E-03-1.63860E-13
 -1      2530 1.47496E-02-2.24471E-03-1.63959E-13
 -1      2531 1.46149E-02-2.20419E-03-1.61527E-13
 -1      2532 1.48884E-02-2.37330E-03-1.65236E-13
 -1      2533 4.61512E-03-3.27518E-04-9.56208E-15
 -1      2534 4.59161E-03-3.31222E-04-9.50513E-15
 -1      2535 1.83121E-03 7.47657E-04-2.55872E-15
 -1      2536 1.67489E-03 7.11052E-04-2.10227E-15
 -1      2537 1.90557E-03 7.26758E-04-2.86164E-15
 -1      2538 3.93872E-03-1.30093E-04-8.63194E-15
 -1      2539 4.14968E-03-2.09375E-04-9.03157E-15
 -1      2540 6.02105E-04-1.31904E-04-4.13894E-16
 -1      2541 6.52345E-04-1.76903E-04-4.01331E-16
 -1      2542 3.55449E-03 4.83548E-05-7.88071E-15
 -1      2543 3.71501E-03-3.20623E-05-8.24801E-15
 -1      2544 2.77375E-03 4.70958E-04-5.66081E-15
 -1      2545 2.93068E-03 3.89466E-04-6.14073E-15
 -1      2546 2.96627E-03-1.02548E-03-5.50433E-15
 -1      2547 2.80267E-03-1.08232E-03-4.96684E-15
 -1      2548 1.02649E-03 5.47637E-05-1.54695E-15
 -1      2549 1.20393E-03 1.37439E-04-1.75561E-15
 -1      2550 4.67310E-04-5.33735E-05-4.05315E-16
 -1      2551 5.37299E-04-8.79429E-05-4.11292E-16
 -1      2552 6.97673E-04-1.57674E-04-5.57863E-16
 -1      2553 5.29519E-04-7.06129E-05-5.42914E-16
 -1      2554 2.31529E-04-7.00194E-05-4.05349E-16
 -1      2555 2.27057E-04-5.10798E-05-4.01826E-16
 -1      2556 2.66089E-04-5.41397E-05-5.30764E-16
 -1      2557 2.79336E-04-9.02263E-05-5.40116E-16
 -1      2558 7.37145E-04-2.65693E-04-3.77424E-16
 -1      2559 9.98117E-04-4.02037E-04-6.10785E-16
 -1      2560 1.04869E-03-3.96721E-04-7.47706E-16
 -1      2561 6.94051E-04-2.15121E-04-3.99325E-16
 -1      2562 4.31722E-03-4.00235E-04-8.93114E-15
 -1      2563 4.15263E-03-4.56852E-04-8.65078E-15
 -1      2564 1.41202E-03 2.42354E-04-2.04662E-15
 -1      2565 1.60155E-03 3.46563E-04-2.35697E-15
 -1      2566 2.11621E-03 5.68393E-04-3.57611E-15
 -1      2567 2.23257E-03 5.88700E-04-3.93430E-15
 -1      2568 2.02590E-03 5.51751E-04-3.31210E-15
 -1      2569 3.11196E-04-1.05113E-04-8.65349E-16
 -1      2570 3.54947E-04-1.14945E-04-8.93013E-16
 -1      2571 2.42795E-03 5.83678E-04-4.55121E-15
 -1      2572 2.58918E-03 5.43682E-04-5.08597E-15
 -1      2573 7.20510E-04-5.71929E-05-1.24677E-15
 -1      2574 8.52500E-04-1.41202E-05-1.36978E-15
 -1      2575 4.52650E-03-3.45633E-04-9.33254E-15
 -1      2576 4.44296E-03-3.63231E-04-9.15130E-15
 -1      2577 4.56954E-04-1.11515E-04-1.00827E-15
 -1      2578 5.80880E-04-9.29408E-05-1.12482E-15
 -1      2579 3.22085E-04-8.45687E-05-9.07030E-16
 -1      2580 2.99195E-04-9.56183E-05-8.83028E-16
 -1      2581 2.93199E-04-9.33379E-05-7.64725E-16
 -1      2582 4.78956E-04-9.04501E-05-9.74030E-16
 -1      2583 3.88986E-04-8.23951E-05-9.33183E-16
 -1      2584 8.17817E-04-2.02934E-04-1.25535E-15
 -1      2585 6.45348E-04-1.37837E-04-1.10802E-15
 -1      2586 1.22136E-03-4.03710E-04-1.60747E-15
 -1      2587 1.02060E-03-2.95104E-04-1.41720E-15
 -1      2588 1.60343E-03-6.43002E-04-2.05479E-15
 -1      2589 1.43331E-03-5.31181E-04-1.83824E-15
 -1      2590 2.02768E-03-9.20050E-04-2.78507E-15
 -1      2591 1.82555E-03-7.88411E-04-2.40208E-15
 -1      2592 2.39496E-03-1.08639E-03-3.72009E-15
 -1      2593 2.25316E-03-1.03623E-03-3.31796E-15
 -1      2594 2.64077E-03-1.10822E-03-4.45531E-15
 -1      2595 2.51954E-03-1.10809E-03-4.07833E-15
 -1      2596 2.46563E-03-1.10729E-03-3.88630E-15
 -1      2597 3.29501E-03-8.69912E-04-6.54246E-15
 -1      2598 3.17372E-03-9.36217E-04-6.18823E-15
 -1      2599 3.63959E-03-6.88331E-04-7.50306E-15
 -1      2600 3.46352E-03-7.80917E-04-7.01557E-15
 -1      2601 3.42598E-03-8.25253E-04-7.13366E-15
 -1      2602 3.91633E-03-5.55423E-04-8.15484E-15
 -1      2603 3.77610E-03-6.19854E-04-7.82600E-15
 -1      2604 3.70741E-03-6.74035E-04-7.95535E-15
 -1      2605 4.54193E-03-3.12490E-04-9.55385E-15
 -1      2606 4.60062E-03-3.19487E-04-9.55679E-15
 -1      2607 4.62667E-03-3.30246E-04-1.01082E-14
 -1      2608 3.14771E-03 2.71524E-04-6.80699E-15
 -1      2609 3.34913E-03 1.57008E-04-7.33186E-15
 -1      2610 3.45233E-03 1.05713E-04-7.94273E-15
 -1      2611 7.40465E-04 2.89684E-04-5.07380E-16
 -1      2612 9.04238E-04 4.04640E-04-6.49559E-16
 -1      2613 1.58668E-03 6.50232E-04-1.94259E-15
 -1      2614 1.70795E-03 4.10651E-04-2.51409E-15
 -1      2615 1.78975E-03 4.65552E-04-2.67019E-15
 -1      2616 1.58598E-03 3.57153E-04-2.22730E-15
 -1      2617 4.39728E-03-3.85875E-04-9.53286E-15
 -1      2618 3.94298E-04-1.13789E-04-8.50536E-16
 -1      2619 2.73089E-03-1.10765E-03-4.74978E-15
 -1      2620 4.57972E-03-3.42438E-04-9.93692E-15
 -1      2621 4.24527E-03-2.42166E-04-9.61744E-15
 -1      2622 1.42661E-02-1.31919E-03-1.64854E-13
 -1      2623 1.42688E-02-1.34988E-03-1.64569E-13
 -1      2624 3.07581E-03-9.98243E-04-5.94595E-15
 -1      2625 1.47475E-02-2.36511E-03-1.62211E-13
 -1      2626 1.47656E-02-2.31918E-03-1.63266E-13
 -1      2627 1.46308E-02-2.27866E-03-1.60839E-13
 -1      2628 1.46186E-02-2.34332E-03-1.59656E-13
 -1      2629 1.71701E-03-7.18336E-04-2.13700E-15
 -1      2630 3.85283E-03-9.20234E-05-8.90534E-15
 -1      2631 1.30693E-03-4.49318E-04-1.59081E-15
 -1      2632 8.20144E-04-2.56476E-04-5.59868E-16
 -1      2633 3.05202E-03 3.26225E-04-6.69895E-15
 -1      2634 9.13636E-04-2.34590E-04-1.22612E-15
 -1      2635 3.37401E-04-7.01464E-05-8.04488E-16
 -1      2636 1.29001E-03 1.86953E-04-1.79198E-15
 -1      2637 6.33559E-04-8.05548E-05-1.07396E-15
 -1      2638 9.30218E-04 1.78939E-05-1.35249E-15
 -1      2639 2.67147E-03 5.15203E-04-5.44486E-15
 -1      2640 2.32011E-03 5.95287E-04-4.24332E-15
 -1      2641 4.18905E-03-4.72197E-04-9.44602E-15
 -1      2642 4.05753E-03-5.04941E-04-8.79098E-15
 -1      2643 3.98166E-03-5.60123E-04-8.92510E-15
 -1      2644 5.51947E-04-9.88680E-05-9.48487E-16
 -1      2645 4.51640E-03-3.11323E-04-1.00178E-14
 -1      2646 1.41561E-02-1.35150E-03-1.62088E-13
 -1      2647 1.45277E-02-2.29498E-03-1.58325E-13
 -1      2648 9.99190E-04-3.46995E-04-7.50498E-16
 -1      2649 1.18473E-03-4.49083E-04-9.74251E-16
 -1      2650 9.44891E-04-2.98414E-04-7.49780E-16
 -1      2651 6.60286E-04-2.50154E-05-7.29194E-16
 -1      2652 5.81401E-04-6.39798E-05-7.16732E-16
 -1      2653 8.71131E-04 1.82080E-04-7.90302E-16
 -1      2654 8.43641E-04 1.31635E-04-7.90451E-16
 -1      2655 9.03586E-04 2.78816E-04-7.74256E-16
 -1      2656 8.89737E-04 2.31330E-04-7.85166E-16
 -1      2657 1.02948E-03 2.57318E-04-1.01229E-15
 -1      2658 9.23384E-04 3.59618E-04-7.40917E-16
 -1      2659 4.64251E-03-3.36802E-04-1.08093E-14
 -1      2660 4.65869E-03-3.39774E-04-1.08160E-14
 -1      2661 1.77840E-03-7.84623E-04-2.02955E-15
 -1      2662 1.98077E-03-9.06586E-04-2.47063E-15
 -1      2663 2.80194E-03-1.11983E-03-5.00430E-15
 -1      2664 2.99535E-03-1.07299E-03-5.73448E-15
 -1      2665 3.21974E-03-1.00432E-03-6.63608E-15
 -1      2666 3.41814E-03-9.35641E-04-7.47327E-15
 -1      2667 3.61725E-03-8.70940E-04-8.35559E-15
 -1      2668 3.81001E-03-8.15902E-04-9.28169E-15
 -1      2669 3.55448E-03-8.42782E-04-7.95762E-15
 -1      2670 3.99822E-03-7.73466E-04-1.02477E-14
 -1      2671 4.17827E-03-7.41294E-04-1.12535E-14
 -1      2672 3.94626E-03-7.33489E-04-9.81923E-15
 -1      2673 4.35246E-03-7.20399E-04-1.22963E-14
 -1      2674 4.51997E-03-7.08151E-04-1.33758E-14
 -1      2675 4.30453E-03-6.77005E-04-1.18372E-14
 -1      2676 4.68261E-03-7.04331E-04-1.44905E-14
 -1      2677 4.84084E-03-7.06531E-04-1.56392E-14
 -1      2678 4.63278E-03-6.60715E-04-1.40005E-14
 -1      2679 4.99582E-03-7.14454E-04-1.68235E-14
 -1      2680 5.14819E-03-7.26581E-04-1.80408E-14
 -1      2681 4.94097E-03-6.71155E-04-1.63013E-14
 -1      2682 5.29860E-03-7.42445E-04-1.92921E-14
 -1      2683 5.44756E-03-7.61153E-04-2.05768E-14
 -1      2684 5.23767E-03-6.99002E-04-1.87374E-14
 -1      2685 5.59536E-03-7.82216E-04-2.18945E-14
 -1      2686 5.74238E-03-8.05096E-04-2.32461E-14
 -1      2687 5.52847E-03-7.38216E-04-2.13079E-14
 -1      2688 5.88871E-03-8.29369E-04-2.46295E-14
 -1      2689 6.03461E-03-8.54708E-04-2.60440E-14
 -1      2690 5.81654E-03-7.84683E-04-2.40098E-14
 -1      2691 6.18005E-03-8.80786E-04-2.74906E-14
 -1      2692 6.32525E-03-9.07401E-04-2.89697E-14
 -1      2693 6.10349E-03-8.35478E-04-2.68401E-14
 -1      2694 6.47013E-03-9.34321E-04-3.04785E-14
 -1      2695 6.61484E-03-9.61422E-04-3.20191E-14
 -1      2696 6.39005E-03-8.88544E-04-2.97965E-14
 -1      2697 6.75930E-03-9.88553E-04-3.35918E-14
 -1      2698 6.90363E-03-1.01564E-03-3.51949E-14
 -1      2699 6.67650E-03-9.42479E-04-3.28783E-14
 -1      2700 7.04776E-03-1.04259E-03-3.68294E-14
 -1      2701 7.19179E-03-1.06937E-03-3.84933E-14
 -1      2702 6.96292E-03-9.96368E-04-3.60855E-14
 -1      2703 7.33565E-03-1.09593E-03-4.01868E-14
 -1      2704 7.47942E-03-1.12224E-03-4.19116E-14
 -1      2705 7.24930E-03-1.04966E-03-3.94129E-14
 -1      2706 7.62305E-03-1.14829E-03-4.36669E-14
 -1      2707 7.76661E-03-1.17407E-03-4.54529E-14
 -1      2708 7.53562E-03-1.10206E-03-4.28607E-14
 -1      2709 7.91006E-03-1.19959E-03-4.72695E-14
 -1      2710 8.05344E-03-1.22485E-03-4.91144E-14
 -1      2711 7.82186E-03-1.15344E-03-4.64306E-14
 -1      2712 8.19674E-03-1.24985E-03-5.09889E-14
 -1      2713 8.33998E-03-1.27461E-03-5.28943E-14
 -1      2714 8.10801E-03-1.20380E-03-5.01221E-14
 -1      2715 8.48316E-03-1.29914E-03-5.48256E-14
 -1      2716 8.62629E-03-1.32345E-03-5.67838E-14
 -1      2717 8.39408E-03-1.25320E-03-5.39291E-14
 -1      2718 8.76937E-03-1.34756E-03-5.87722E-14
 -1      2719 8.91242E-03-1.37149E-03-6.07891E-14
 -1      2720 8.68008E-03-1.30174E-03-5.78486E-14
 -1      2721 9.05542E-03-1.39524E-03-6.28332E-14
 -1      2722 9.19841E-03-1.41884E-03-6.49034E-14
 -1      2723 8.96600E-03-1.34952E-03-6.18806E-14
 -1      2724 9.34136E-03-1.44230E-03-6.70014E-14
 -1      2725 9.48430E-03-1.46563E-03-6.91267E-14
 -1      2726 9.25187E-03-1.39666E-03-6.60230E-14
 -1      2727 9.62721E-03-1.48885E-03-7.12801E-14
 -1      2728 9.77011E-03-1.51196E-03-7.34594E-14
 -1      2729 9.53769E-03-1.44328E-03-7.02746E-14
 -1      2730 9.91300E-03-1.53498E-03-7.56623E-14
 -1      2731 1.00559E-02-1.55792E-03-7.78915E-14
 -1      2732 9.82349E-03-1.48948E-03-7.46302E-14
 -1      2733 1.01988E-02-1.58079E-03-8.01497E-14
 -1      2734 1.03416E-02-1.60359E-03-8.24356E-14
 -1      2735 1.01092E-02-1.53533E-03-7.90915E-14
 -1      2736 1.04845E-02-1.62634E-03-8.47484E-14
 -1      2737 1.06273E-02-1.64904E-03-8.70861E-14
 -1      2738 1.03950E-02-1.58092E-03-8.36606E-14
 -1      2739 1.07702E-02-1.67170E-03-8.94489E-14
 -1      2740 1.09130E-02-1.69432E-03-9.18376E-14
 -1      2741 1.06807E-02-1.62631E-03-8.83376E-14
 -1      2742 1.10559E-02-1.71691E-03-9.42482E-14
 -1      2743 1.11987E-02-1.73947E-03-9.66817E-14
 -1      2744 1.09664E-02-1.67155E-03-9.31130E-14
 -1      2745 1.13416E-02-1.76201E-03-9.91379E-14
 -1      2746 1.14844E-02-1.78453E-03-1.01613E-13
 -1      2747 1.12522E-02-1.71667E-03-9.79801E-14
 -1      2748 1.16273E-02-1.80704E-03-1.04109E-13
 -1      2749 1.17701E-02-1.82953E-03-1.06628E-13
 -1      2750 1.15379E-02-1.76171E-03-1.02934E-13
 -1      2751 1.19129E-02-1.85202E-03-1.09166E-13
 -1      2752 1.20558E-02-1.87449E-03-1.11721E-13
 -1      2753 1.18236E-02-1.80670E-03-1.07968E-13
 -1      2754 1.21986E-02-1.89695E-03-1.14296E-13
 -1      2755 1.23415E-02-1.91941E-03-1.16893E-13
 -1      2756 1.21093E-02-1.85164E-03-1.13082E-13
 -1      2757 1.24843E-02-1.94187E-03-1.19509E-13
 -1      2758 1.26272E-02-1.96432E-03-1.22144E-13
 -1      2759 1.23950E-02-1.89656E-03-1.18274E-13
 -1      2760 1.27700E-02-1.98677E-03-1.24796E-13
 -1      2761 1.29129E-02-2.00921E-03-1.27470E-13
 -1      2762 1.26807E-02-1.94146E-03-1.23543E-13
 -1      2763 1.30557E-02-2.03166E-03-1.30160E-13
 -1      2764 1.31986E-02-2.05410E-03-1.32866E-13
 -1      2765 1.29664E-02-1.98635E-03-1.28888E-13
 -1      2766 1.33414E-02-2.07655E-03-1.35590E-13
 -1      2767 1.34843E-02-2.09899E-03-1.38327E-13
 -1      2768 1.32521E-02-2.03124E-03-1.34300E-13
 -1      2769 1.36271E-02-2.12143E-03-1.41082E-13
 -1      2770 1.37700E-02-2.14388E-03-1.43851E-13
 -1      2771 1.35378E-02-2.07613E-03-1.39779E-13
 -1      2772 1.39128E-02-2.16632E-03-1.46633E-13
 -1      2773 1.40557E-02-2.18877E-03-1.49431E-13
 -1      2774 1.38236E-02-2.12102E-03-1.45316E-13
 -1      2775 1.41986E-02-2.21122E-03-1.52244E-13
 -1      2776 1.43414E-02-2.23367E-03-1.55070E-13
 -1      2777 1.41093E-02-2.16591E-03-1.50913E-13
 -1      2778 1.59111E-03-6.54905E-04-1.72429E-15
 -1      2779 2.29819E-03 7.24197E-04-4.33486E-15
 -1      2780 2.14198E-03 7.22501E-04-3.72783E-15
 -1      2781 3.25190E-03 4.97562E-04-8.95913E-15
 -1      2782 3.08898E-03 5.52111E-04-8.07567E-15
 -1      2783 3.57955E-03 3.87295E-04-1.08528E-14
 -1      2784 3.41579E-03 4.41968E-04-9.88542E-15
 -1      2785 3.36156E-03 4.23422E-04-9.48212E-15
 -1      2786 3.90554E-03 2.85216E-04-1.29093E-14
 -1      2787 3.74319E-03 3.34768E-04-1.18607E-14
 -1      2788 3.69505E-03 3.12512E-04-1.14224E-14
 -1      2789 4.22650E-03 1.96687E-04-1.51209E-14
 -1      2790 4.06691E-03 2.39193E-04-1.39968E-14
 -1      2791 4.02343E-03 2.14359E-04-1.35221E-14
 -1      2792 4.54119E-03 1.22188E-04-1.74818E-14
 -1      2793 4.38473E-03 1.57810E-04-1.62830E-14
 -1      2794 4.34386E-03 1.31559E-04-1.57749E-14
 -1      2795 4.84982E-03 5.98150E-05-1.99867E-14
 -1      2796 4.69627E-03 8.96721E-05-1.87159E-14
 -1      2797 4.65615E-03 6.27238E-05-1.81734E-14
 -1      2798 5.15329E-03 6.86890E-06-2.26320E-14
 -1      2799 5.00217E-03 3.23488E-05-2.12921E-14
 -1      2800 4.96144E-03 5.06090E-06-2.07140E-14
 -1      2801 5.45260E-03-3.93395E-05-2.54121E-14
 -1      2802 5.30341E-03-1.69199E-05-2.40059E-14
 -1      2803 5.26130E-03-4.43770E-05-2.33937E-14
 -1      2804 5.74868E-03-8.11213E-05-2.83232E-14
 -1      2805 5.60099E-03-6.06603E-05-2.68519E-14
 -1      2806 5.55716E-03-8.81933E-05-2.62076E-14
 -1      2807 6.04226E-03-1.20297E-04-3.13600E-14
 -1      2808 5.89574E-03-1.00944E-04-2.98255E-14
 -1      2809 5.85015E-03-1.28485E-04-2.91495E-14
 -1      2810 6.33393E-03-1.58207E-04-3.45190E-14
 -1      2811 6.18830E-03-1.39346E-04-3.29243E-14
 -1      2812 6.14111E-03-1.66838E-04-3.22163E-14
 -1      2813 6.62412E-03-1.95781E-04-3.77988E-14
 -1      2814 6.47917E-03-1.76994E-04-3.61437E-14
 -1      2815 6.43062E-03-2.04388E-04-3.54051E-14
 -1      2816 6.91316E-03-2.33620E-04-4.11972E-14
 -1      2817 6.76876E-03-2.14642E-04-3.94827E-14
 -1      2818 6.71910E-03-2.41904E-04-3.87142E-14
 -1      2819 7.20133E-03-2.72077E-04-4.47100E-14
 -1      2820 7.05733E-03-2.52757E-04-4.29401E-14
 -1      2821 7.00683E-03-2.79866E-04-4.21420E-14
 -1      2822 7.48882E-03-3.11328E-04-4.83366E-14
 -1      2823 7.34514E-03-2.91597E-04-4.65086E-14
 -1      2824 7.29400E-03-3.18543E-04-4.56843E-14
 -1      2825 7.77579E-03-3.51427E-04-5.20770E-14
 -1      2826 7.63236E-03-3.31270E-04-5.01929E-14
 -1      2827 7.58077E-03-3.58055E-04-4.93387E-14
 -1      2828 8.06238E-03-3.92351E-04-5.59376E-14
 -1      2829 7.91912E-03-3.71788E-04-5.39912E-14
 -1      2830 7.86724E-03-3.98421E-04-5.31096E-14
 -1      2831 8.34868E-03-4.34034E-04-5.99140E-14
 -1      2832 8.20556E-03-4.13102E-04-5.79114E-14
 -1      2833 8.15348E-03-4.39596E-04-5.69971E-14
 -1      2834 8.63477E-03-4.76384E-04-6.40122E-14
 -1      2835 8.49175E-03-4.55130E-04-6.19483E-14
 -1      2836 8.43955E-03-4.81503E-04-6.10052E-14
 -1      2837 8.92071E-03-5.19302E-04-6.82266E-14
 -1      2838 8.77775E-03-4.97777E-04-6.61048E-14
 -1      2839 8.72550E-03-5.24046E-04-6.51292E-14
 -1      2840 9.20654E-03-5.62693E-04-7.25551E-14
 -1      2841 9.06364E-03-5.40944E-04-7.03770E-14
 -1      2842 9.01137E-03-5.67125E-04-6.93674E-14
 -1      2843 9.49231E-03-6.06467E-04-7.70002E-14
 -1      2844 9.34943E-03-5.84537E-04-7.47643E-14
 -1      2845 9.29717E-03-6.10647E-04-7.37220E-14
 -1      2846 9.77802E-03-6.50546E-04-8.15568E-14
 -1      2847 9.63517E-03-6.28473E-04-7.92661E-14
 -1      2848 9.58293E-03-6.54525E-04-7.81908E-14
 -1      2849 1.00637E-02-6.94863E-04-8.62192E-14
 -1      2850 9.92087E-03-6.72678E-04-8.38749E-14
 -1      2851 9.86866E-03-6.98685E-04-8.27714E-14
 -1      2852 1.03494E-02-7.39360E-04-9.09837E-14
 -1      2853 1.02066E-02-7.17091E-04-8.85876E-14
 -1      2854 1.01544E-02-7.43064E-04-8.74559E-14
 -1      2855 1.06351E-02-7.83994E-04-9.58439E-14
 -1      2856 1.04922E-02-7.61662E-04-9.34028E-14
 -1      2857 1.04401E-02-7.87608E-04-9.22428E-14
 -1      2858 1.09207E-02-8.28728E-04-1.00799E-13
 -1      2859 1.07779E-02-8.06351E-04-9.83100E-14
 -1      2860 1.07258E-02-8.32276E-04-9.71250E-14
 -1      2861 1.12064E-02-8.73534E-04-1.05842E-13
 -1      2862 1.10636E-02-8.51124E-04-1.03309E-13
 -1      2863 1.10115E-02-8.77035E-04-1.02097E-13
 -1      2864 1.14921E-02-9.18390E-04-1.10976E-13
 -1      2865 1.13492E-02-8.95957E-04-1.08398E-13
 -1      2866 1.12972E-02-9.21857E-04-1.07159E-13
 -1      2867 1.17777E-02-9.63279E-04-1.16196E-13
 -1      2868 1.16349E-02-9.40831E-04-1.13576E-13
 -1      2869 1.15829E-02-9.66725E-04-1.12310E-13
 -1      2870 1.20634E-02-1.00819E-03-1.21497E-13
 -1      2871 1.19206E-02-9.85732E-04-1.18838E-13
 -1      2872 1.18686E-02-1.01162E-03-1.17545E-13
 -1      2873 1.23491E-02-1.05311E-03-1.26875E-13
 -1      2874 1.22063E-02-1.03065E-03-1.24176E-13
 -1      2875 1.21542E-02-1.05654E-03-1.22862E-13
 -1      2876 1.26348E-02-1.09804E-03-1.32321E-13
 -1      2877 1.24920E-02-1.07558E-03-1.29590E-13
 -1      2878 1.24400E-02-1.10146E-03-1.28252E-13
 -1      2879 1.29205E-02-1.14298E-03-1.37830E-13
 -1      2880 1.27777E-02-1.12051E-03-1.35069E-13
 -1      2881 1.27257E-02-1.14639E-03-1.33710E-13
 -1      2882 1.32062E-02-1.18791E-03-1.43394E-13
 -1      2883 1.30634E-02-1.16544E-03-1.40604E-13
 -1      2884 1.30114E-02-1.19133E-03-1.39226E-13
 -1      2885 1.34919E-02-1.23284E-03-1.49010E-13
 -1      2886 1.33491E-02-1.21038E-03-1.46196E-13
 -1      2887 1.32971E-02-1.23626E-03-1.44801E-13
 -1      2888 1.37776E-02-1.27777E-03-1.54678E-13
 -1      2889 1.36348E-02-1.25530E-03-1.51838E-13
 -1      2890 1.35828E-02-1.28119E-03-1.50430E-13
 -1      2891 1.40383E-02-1.32586E-03-1.59803E-13
 -1      2892 1.38954E-02-1.30340E-03-1.56946E-13
 -1      2893 1.38434E-02-1.32929E-03-1.55525E-13
 -1      2894 1.40790E-02-1.38056E-03-1.60075E-13
 -1      2895 1.16005E-03 4.66593E-04-1.09307E-15
 -1      2896 9.99571E-04 3.51878E-04-8.86864E-16
 -1      2897 1.14203E-03 3.82610E-04-1.13754E-15
 -1      2898 1.33008E-03 5.28894E-04-1.41412E-15
 -1      2899 1.42821E-02-1.78574E-03-1.59705E-13
 -1      2900 1.42600E-02-1.74359E-03-1.59742E-13
 -1      2901 1.44376E-02-2.24816E-03-1.56990E-13
 -1      2902 1.45346E-02-2.26417E-03-1.58911E-13
 -1      2903 1.45408E-02-2.23184E-03-1.59496E-13
 -1      2904 1.43483E-02-2.20285E-03-1.55650E-13
 -1      2905 1.41938E-02-1.61714E-03-1.59823E-13
 -1      2906 1.41717E-02-1.57498E-03-1.59841E-13
 -1      2907 1.43263E-02-1.87005E-03-1.59612E-13
 -1      2908 1.43042E-02-1.82790E-03-1.59664E-13
 -1      2909 1.41694E-02-1.78737E-03-1.57212E-13
 -1      2910 1.42379E-02-1.70144E-03-1.59774E-13
 -1      2911 1.42159E-02-1.65929E-03-1.59799E-13
 -1      2912 1.40811E-02-1.61876E-03-1.57337E-13
 -1      2913 1.41253E-02-1.70307E-03-1.57284E-13
 -1      2914 1.43697E-02-1.95292E-03-1.59496E-13
 -1      2915 1.43480E-02-1.91149E-03-1.59558E-13
 -1      2916 1.42132E-02-1.87096E-03-1.57115E-13
 -1      2917 1.44139E-02-2.03723E-03-1.59354E-13
 -1      2918 1.43918E-02-1.99507E-03-1.59428E-13
 -1      2919 1.42570E-02-1.95456E-03-1.56992E-13
 -1      2920 1.44580E-02-2.12152E-03-1.59190E-13
 -1      2921 1.44359E-02-2.07937E-03-1.59274E-13
 -1      2922 1.43012E-02-2.03886E-03-1.56845E-13
 -1      2923 1.45104E-02-2.19776E-03-1.59297E-13
 -1      2924 1.44884E-02-2.15561E-03-1.59393E-13
 -1      2925 1.43536E-02-2.11509E-03-1.56968E-13
 -1      2926 1.44142E-02-2.18326E-03-1.57373E-13
 -1      2927 1.98529E-03 7.06320E-04-3.16924E-15
 -1      2928 1.82566E-03 6.77155E-04-2.65898E-15
 -1      2929 2.06797E-03 6.86193E-04-3.48150E-15
 -1      2930 2.17356E-03-1.00126E-03-3.08678E-15
 -1      2931 2.06362E-03-9.43943E-04-2.76881E-15
 -1      2932 3.36427E-03 1.62806E-04-7.95653E-15
 -1      2933 3.54760E-03 6.57017E-05-8.52580E-15
 -1      2934 1.37501E-03-4.96139E-04-1.55418E-15
 -1      2935 1.18958E-03-3.78331E-04-1.35159E-15
 -1      2936 4.62573E-03-3.45624E-04-1.05382E-14
 -1      2937 4.56791E-03-3.54709E-04-1.03582E-14
 -1      2938 4.19333E-03-2.21096E-04-1.01390E-14
 -1      2939 4.35663E-03-2.72115E-04-1.04646E-14
 -1      2940 2.92734E-03 6.03697E-04-7.23573E-15
 -1      2941 2.76741E-03 6.49139E-04-6.44097E-15
 -1      2942 3.02853E-03 5.37163E-04-7.70887E-15
 -1      2943 2.60968E-03 6.86238E-04-5.69207E-15
 -1      2944 2.45301E-03 7.11850E-04-4.98954E-15
 -1      2945 2.70193E-03 6.34510E-04-6.11265E-15
 -1      2946 1.38153E-03-5.59180E-04-1.26656E-15
 -1      2947 1.96514E-03 5.43344E-04-3.12860E-15
 -1      2948 2.07297E-03 5.76561E-04-3.45791E-15
 -1      2949 5.55287E-04-9.40107E-05-9.00789E-16
 -1      2950 6.76251E-04-6.54827E-05-1.00508E-15
 -1      2951 4.48102E-03-3.76883E-04-1.01657E-14
 -1      2952 4.37294E-03-4.08004E-04-9.93191E-15
 -1      2953 8.05675E-04 7.93141E-05-7.86453E-16
 -1      2954 7.52671E-04 2.83507E-05-7.78796E-16
 -1      2955 9.71977E-04 1.48535E-04-1.01029E-15
 -1      2956 1.17114E-03 1.38176E-04-1.54108E-15
 -1      2957 1.35308E-03 2.34503E-04-1.80623E-15
 -1      2958 2.23441E-03 5.99782E-04-3.98198E-15
 -1      2959 2.40680E-03 5.94095E-04-4.59807E-15
 -1      2960 2.59927E-03 5.47964E-04-5.29565E-15
 -1      2961 2.76140E-03 4.80321E-04-5.88078E-15
 -1      2962 2.94507E-03 3.91470E-04-6.54307E-15
 -1      2963 3.13987E-03 2.84905E-04-7.22652E-15
 -1      2964 8.26479E-04-1.57030E-05-1.14698E-15
 -1      2965 9.77183E-04 4.65237E-05-1.30280E-15
 -1      2966 2.76372E-04-7.63701E-05-6.53432E-16
 -1      2967 2.82059E-04-9.11092E-05-6.36257E-16
 -1      2968 4.50645E-03-3.12119E-04-1.06318E-14
 -1      2969 4.59057E-03-3.26849E-04-1.07205E-14
 -1      2970 4.65339E-03-3.38504E-04-1.14380E-14
 -1      2971 3.55476E-04-5.01933E-05-6.71087E-16
 -1      2972 2.99657E-04-5.96567E-05-6.51334E-16
 -1      2973 3.81978E-03-6.64133E-05-9.30671E-15
 -1      2974 4.01139E-03-1.52362E-04-9.71831E-15
 -1      2975 4.15642E-03-1.92485E-04-1.05587E-14
 -1      2976 2.27248E-03-1.05139E-03-3.29752E-15
 -1      2977 2.53010E-03-1.12497E-03-4.06199E-15
 -1      2978 2.42162E-03-1.10448E-03-3.70618E-15
 -1      2979 3.45470E-03-8.31625E-04-7.36005E-15
 -1      2980 3.31044E-03-9.11102E-04-6.87372E-15
 -1      2981 6.25926E-04-1.09596E-04-9.06203E-16
 -1      2982 4.73203E-04-6.94522E-05-7.88906E-16
 -1      2983 1.66356E-03 6.36054E-04-2.19689E-15
 -1      2984 1.49820E-03 5.86006E-04-1.78246E-15
 -1      2985 1.74407E-03 6.23105E-04-2.45614E-15
 -1      2986 9.79828E-04-2.61046E-04-1.16785E-15
 -1      2987 8.02144E-04-1.76733E-04-1.02885E-15
 -1      2988 2.10678E-03-9.86713E-04-2.74445E-15
 -1      2989 2.34556E-03-1.08404E-03-3.45627E-15
 -1      2990 8.25985E-04 2.68397E-05-9.43283E-16
 -1      2991 1.32504E-03 2.53880E-04-1.66853E-15
 -1      2992 1.45486E-03 3.03021E-04-1.93683E-15
 -1      2993 1.53906E-03 3.67612E-04-2.06828E-15
 -1      2994 4.86094E-04-9.37069E-05-6.89546E-16
 -1      2995 4.02229E-04-1.07230E-04-6.75485E-16
 -1      2996 2.16453E-03 6.00274E-04-3.77157E-15
 -1      2997 3.17413E-03-1.00102E-03-6.42920E-15
 -1      2998 2.29758E-03-1.07395E-03-3.26968E-15
 -1      2999 2.43557E-03-1.12418E-03-3.67095E-15
 -1      3000 2.61783E-03-1.14899E-03-4.28962E-15
 -1      3001 1.45968E-03-5.96750E-04-1.41281E-15
 -1      3002 1.39308E-03-5.14963E-04-1.51023E-15
 -1      3003 1.40372E-02-1.53482E-03-1.57375E-13
 -1      3004 1.41498E-02-1.53319E-03-1.59855E-13
 -1      3005 1.41279E-02-1.49140E-03-1.59865E-13
 -1      3006 2.38386E-03 6.90364E-04-4.70114E-15
 -1      3007 1.40800E-03 5.18266E-04-1.62187E-15
 -1      3008 4.67430E-03-3.50028E-04-1.12476E-14
 -1      3009 6.85400E-04-1.27783E-04-8.56533E-16
 -1      3010 1.41144E-02-1.45688E-03-1.59970E-13
 -1      3011 1.40926E-02-1.41508E-03-1.59976E-13
 -1      3012 1.39747E-02-1.38945E-03-1.57697E-13
 -1      3013 1.40018E-02-1.45850E-03-1.57492E-13
 -1      3014 3.22981E-04-1.03914E-04-6.45683E-16
 -1      3015 8.35357E-04-2.09244E-04-7.57031E-16
 -1      3016 1.01061E-03-2.96667E-04-9.79604E-16
 -1      3017 3.24961E-03 2.40048E-04-7.77841E-15
 -1      3018 3.72454E-03-9.27065E-06-9.31533E-15
 -1      3019 3.89371E-03-6.88568E-05-1.01336E-14
 -1      3020 3.64413E-03 4.92458E-05-9.31996E-15
 -1      3021 4.47013E-03-2.95935E-04-1.11724E-14
 -1      3022 1.05152E-03-3.05704E-04-1.13703E-15
 -1      3023 1.73043E-03 4.64985E-04-2.49200E-15
 -1      3024 1.84767E-03 5.06923E-04-2.80018E-15
 -1      3025 1.89473E-03 5.41703E-04-2.92733E-15
 -1      3026 7.21683E-04-4.03939E-05-9.61118E-16
 -1      3027 2.86202E-03 4.43326E-04-6.37077E-15
 -1      3028 2.50081E-03 5.82202E-04-4.99438E-15
 -1      3029 2.59200E-03 5.62252E-04-5.40192E-15
 -1      3030 2.41309E-03 6.04797E-04-4.69938E-15
 -1      3031 4.55583E-03-3.74415E-04-1.07688E-14
 -1      3032 2.66375E-03-1.13845E-03-4.49405E-15
 -1      3033 7.36337E-04-1.51176E-04-7.47124E-16
 -1      3034 4.30365E-03-4.48542E-04-1.00717E-14
 -1      3035 4.24269E-03-4.96775E-04-1.02067E-14
 -1      3036 4.40878E-03-4.36736E-04-1.07116E-14
 -1      3037 1.04579E-03 9.37998E-05-1.31350E-15
 -1      3038 4.38926E-04-5.39201E-05-6.74455E-16
 -1      3039 4.10928E-04-1.10808E-04-7.41499E-16
 -1      3040 3.66192E-03-7.56746E-04-8.24507E-15
 -1      3041 3.86904E-03-6.27207E-04-8.75706E-15
 -1      3042 3.75388E-03-6.87350E-04-8.41323E-15
 -1      3043 3.83001E-03-7.14793E-04-9.04931E-15
 -1      3044 4.01435E-03-5.84609E-04-9.40497E-15
 -1      3045 2.09210E-03 6.02754E-04-3.54514E-15
 -1      3046 2.24244E-03 6.17759E-04-4.07431E-15
 -1      3047 1.19103E-03 3.39036E-04-1.26982E-15
 -1      3048 1.17329E-03 2.86739E-04-1.27422E-15
 -1      3049 4.01888E-03-6.72451E-04-1.00111E-14
 -1      3050 4.27135E-03-6.26473E-04-1.13827E-14
 -1      3051 4.43624E-03-6.14577E-04-1.24324E-14
 -1      3052 4.59397E-03-6.12391E-04-1.35162E-14
 -1      3053 4.74618E-03-6.15823E-04-1.46341E-14
 -1      3054 4.56426E-03-5.62443E-04-1.30328E-14
 -1      3055 4.89413E-03-6.24900E-04-1.57869E-14
 -1      3056 5.03941E-03-6.37526E-04-1.69723E-14
 -1      3057 4.85390E-03-5.78574E-04-1.52722E-14
 -1      3058 5.18256E-03-6.53574E-04-1.81912E-14
 -1      3059 5.32462E-03-6.72048E-04-1.94431E-14
 -1      3060 5.13223E-03-6.09128E-04-1.76450E-14
 -1      3061 5.46580E-03-6.92681E-04-2.07288E-14
 -1      3062 5.60671E-03-7.14955E-04-2.20472E-14
 -1      3063 5.40674E-03-6.48560E-04-2.01507E-14
 -1      3064 5.74737E-03-7.38558E-04-2.33979E-14
 -1      3065 5.88815E-03-7.63214E-04-2.47816E-14
 -1      3066 5.68106E-03-6.93949E-04-2.27878E-14
 -1      3067 6.02896E-03-7.88631E-04-2.61973E-14
 -1      3068 6.17003E-03-8.14650E-04-2.76445E-14
 -1      3069 5.95676E-03-7.43214E-04-2.55551E-14
 -1      3070 6.31124E-03-8.41036E-04-2.91236E-14
 -1      3071 6.45271E-03-8.67694E-04-3.06333E-14
 -1      3072 6.23432E-03-7.94785E-04-2.84508E-14
 -1      3073 6.59434E-03-8.94451E-04-3.21736E-14
 -1      3074 6.73620E-03-9.21250E-04-3.37464E-14
 -1      3075 6.51373E-03-8.47477E-04-3.14710E-14
 -1      3076 6.87819E-03-9.47975E-04-3.53485E-14
 -1      3077 7.02037E-03-9.74594E-04-3.69821E-14
 -1      3078 6.79472E-03-9.00438E-04-3.46135E-14
 -1      3079 7.16265E-03-1.00104E-03-3.86462E-14
 -1      3080 7.30507E-03-1.02729E-03-4.03397E-14
 -1      3081 7.07700E-03-9.53094E-04-3.78802E-14
 -1      3082 7.44755E-03-1.05331E-03-4.20639E-14
 -1      3083 7.59014E-03-1.07910E-03-4.38176E-14
 -1      3084 7.36027E-03-1.00509E-03-4.12683E-14
 -1      3085 7.73277E-03-1.10465E-03-4.56027E-14
 -1      3086 7.87547E-03-1.12995E-03-4.74193E-14
 -1      3087 7.64429E-03-1.05626E-03-4.47771E-14
 -1      3088 8.01820E-03-1.15501E-03-4.92636E-14
 -1      3089 8.16098E-03-1.17984E-03-5.11381E-14
 -1      3090 7.92885E-03-1.10652E-03-4.84075E-14
 -1      3091 8.30377E-03-1.20444E-03-5.30406E-14
 -1      3092 8.44660E-03-1.22883E-03-5.49720E-14
 -1      3093 8.21381E-03-1.15591E-03-5.21548E-14
 -1      3094 8.58943E-03-1.25302E-03-5.69323E-14
 -1      3095 8.73229E-03-1.27703E-03-5.89205E-14
 -1      3096 8.49904E-03-1.20447E-03-5.60174E-14
 -1      3097 8.87514E-03-1.30086E-03-6.09363E-14
 -1      3098 9.01801E-03-1.32453E-03-6.29807E-14
 -1      3099 8.78447E-03-1.25231E-03-5.99932E-14
 -1      3100 9.16089E-03-1.34806E-03-6.50516E-14
 -1      3101 9.30376E-03-1.37145E-03-6.71490E-14
 -1      3102 9.07003E-03-1.29953E-03-6.40794E-14
 -1      3103 9.44664E-03-1.39473E-03-6.92753E-14
 -1      3104 9.58952E-03-1.41789E-03-7.14282E-14
 -1      3105 9.35567E-03-1.34622E-03-6.82773E-14
 -1      3106 9.73240E-03-1.44096E-03-7.36062E-14
 -1      3107 9.87528E-03-1.46395E-03-7.58101E-14
 -1      3108 9.64137E-03-1.39249E-03-7.25813E-14
 -1      3109 1.00182E-02-1.48686E-03-7.80401E-14
 -1      3110 1.01610E-02-1.50970E-03-8.02979E-14
 -1      3111 9.92711E-03-1.43840E-03-7.69908E-14
 -1      3112 1.03039E-02-1.53248E-03-8.25832E-14
 -1      3113 1.04468E-02-1.55521E-03-8.48953E-14
 -1      3114 1.02129E-02-1.48405E-03-8.15066E-14
 -1      3115 1.05897E-02-1.57789E-03-8.72322E-14
 -1      3116 1.07325E-02-1.60054E-03-8.95958E-14
 -1      3117 1.04986E-02-1.52948E-03-8.61283E-14
 -1      3118 1.08754E-02-1.62315E-03-9.19845E-14
 -1      3119 1.10183E-02-1.64573E-03-9.43954E-14
 -1      3120 1.07844E-02-1.57475E-03-9.08551E-14
 -1      3121 1.11612E-02-1.66829E-03-9.68295E-14
 -1      3122 1.13040E-02-1.69082E-03-9.92858E-14
 -1      3123 1.10701E-02-1.61991E-03-9.56796E-14
 -1      3124 1.14469E-02-1.71334E-03-1.01764E-13
 -1      3125 1.15898E-02-1.73585E-03-1.04262E-13
 -1      3126 1.13559E-02-1.66497E-03-1.00592E-13
 -1      3127 1.17326E-02-1.75834E-03-1.06778E-13
 -1      3128 1.18755E-02-1.78082E-03-1.09317E-13
 -1      3129 1.16416E-02-1.70997E-03-1.05588E-13
 -1      3130 1.20183E-02-1.80329E-03-1.11875E-13
 -1      3131 1.21612E-02-1.82575E-03-1.14451E-13
 -1      3132 1.19274E-02-1.75493E-03-1.10665E-13
 -1      3133 1.23041E-02-1.84821E-03-1.17048E-13
 -1      3134 1.24469E-02-1.87066E-03-1.19665E-13
 -1      3135 1.22131E-02-1.79986E-03-1.15822E-13
 -1      3136 1.25898E-02-1.89312E-03-1.22298E-13
 -1      3137 1.27327E-02-1.91556E-03-1.24952E-13
 -1      3138 1.24989E-02-1.84477E-03-1.21052E-13
 -1      3139 1.28755E-02-1.93801E-03-1.27624E-13
 -1      3140 1.30184E-02-1.96046E-03-1.30313E-13
 -1      3141 1.27846E-02-1.88966E-03-1.26360E-13
 -1      3142 1.31612E-02-1.98290E-03-1.33020E-13
 -1      3143 1.33041E-02-2.00535E-03-1.35743E-13
 -1      3144 1.30703E-02-1.93456E-03-1.31739E-13
 -1      3145 1.34470E-02-2.02779E-03-1.38481E-13
 -1      3146 1.35898E-02-2.05023E-03-1.41237E-13
 -1      3147 1.33561E-02-1.97945E-03-1.37183E-13
 -1      3148 1.37327E-02-2.07268E-03-1.44007E-13
 -1      3149 1.38755E-02-2.09513E-03-1.46789E-13
 -1      3150 1.36418E-02-2.02434E-03-1.42694E-13
 -1      3151 1.40184E-02-2.11757E-03-1.49590E-13
 -1      3152 1.41612E-02-2.14002E-03-1.52406E-13
 -1      3153 1.39275E-02-2.06923E-03-1.48266E-13
 -1      3154 3.81545E-03 2.35937E-04-1.19965E-14
 -1      3155 3.64751E-03 2.88601E-04-1.09836E-14
 -1      3156 3.47727E-03 3.45116E-04-1.00104E-14
 -1      3157 3.30662E-03 4.04349E-04-9.07797E-15
 -1      3158 3.60076E-03 2.63893E-04-1.05439E-14
 -1      3159 4.46277E-03 6.76666E-05-1.64310E-14
 -1      3160 4.30503E-03 1.03884E-04-1.52666E-14
 -1      3161 4.77150E-03 4.89200E-06-1.88669E-14
 -1      3162 4.61826E-03 3.49112E-05-1.76317E-14
 -1      3163 4.58269E-03 6.01637E-06-1.70900E-14
 -1      3164 5.07277E-03-4.80647E-05-2.14439E-14
 -1      3165 4.92295E-03-2.25737E-05-2.01379E-14
 -1      3166 4.88675E-03-5.07314E-05-1.95630E-14
 -1      3167 5.36871E-03-9.41879E-05-2.41573E-14
 -1      3168 5.22130E-03-7.17967E-05-2.27839E-14
 -1      3169 5.18341E-03-9.92928E-05-2.21753E-14
 -1      3170 5.66103E-03-1.35868E-04-2.70037E-14
 -1      3171 5.51523E-03-1.15449E-04-2.55642E-14
 -1      3172 5.47521E-03-1.42486E-04-2.49224E-14
 -1      3173 5.95098E-03-1.74922E-04-2.99771E-14
 -1      3174 5.80623E-03-1.55629E-04-2.84749E-14
 -1      3175 5.76398E-03-1.82390E-04-2.78014E-14
 -1      3176 6.23943E-03-2.12676E-04-3.30733E-14
 -1      3177 6.09534E-03-1.93897E-04-3.15093E-14
 -1      3178 6.05101E-03-2.20510E-04-3.08049E-14
 -1      3179 6.52692E-03-2.50051E-04-3.62919E-14
 -1      3180 6.38326E-03-2.31369E-04-3.46681E-14
 -1      3181 6.33708E-03-2.57904E-04-3.39312E-14
 -1      3182 6.81381E-03-2.87655E-04-3.96317E-14
 -1      3183 6.67041E-03-2.68800E-04-3.79470E-14
 -1      3184 6.62270E-03-2.95287E-04-3.71799E-14
 -1      3185 7.10032E-03-3.25853E-04-4.30887E-14
 -1      3186 6.95709E-03-3.06666E-04-4.13451E-14
 -1      3187 6.90814E-03-3.33114E-04-4.05492E-14
 -1      3188 7.38658E-03-3.64836E-04-4.66582E-14
 -1      3189 7.24347E-03-3.45241E-04-4.48592E-14
 -1      3190 7.19355E-03-3.71647E-04-4.40345E-14
 -1      3191 7.67268E-03-4.04671E-04-5.03426E-14
 -1      3192 7.52964E-03-3.84646E-04-4.84864E-14
 -1      3193 7.47899E-03-4.11006E-04-4.76333E-14
 -1      3194 7.95868E-03-4.45348E-04-5.41425E-14
 -1      3195 7.81569E-03-4.24907E-04-5.22280E-14
 -1      3196 7.76450E-03-4.51215E-04-5.13468E-14
 -1      3197 8.24459E-03-4.86806E-04-5.80598E-14
 -1      3198 8.10164E-03-4.65984E-04-5.60863E-14
 -1      3199 8.05007E-03-4.92238E-04-5.51762E-14
 -1      3200 8.53046E-03-5.28958E-04-6.20949E-14
 -1      3201 8.38753E-03-5.07801E-04-6.00634E-14
 -1      3202 8.33570E-03-5.34001E-04-5.91224E-14
 -1      3203 8.81628E-03-5.71707E-04-6.62454E-14
 -1      3204 8.67337E-03-5.50264E-04-6.41566E-14
 -1      3205 8.62137E-03-5.76413E-04-6.31856E-14
 -1      3206 9.10207E-03-6.14956E-04-7.05096E-14
 -1      3207 8.95918E-03-5.93274E-04-6.83631E-14
 -1      3208 8.90707E-03-6.19377E-04-6.73611E-14
 -1      3209 9.38784E-03-6.58613E-04-7.48867E-14
 -1      3210 9.24496E-03-6.36738E-04-7.26840E-14
 -1      3211 9.19280E-03-6.62799E-04-7.16503E-14
 -1      3212 9.67359E-03-7.02597E-04-7.93816E-14
 -1      3213 9.53072E-03-6.80568E-04-7.71206E-14
 -1      3214 9.47854E-03-7.06593E-04-7.60532E-14
 -1      3215 9.95933E-03-7.46839E-04-8.39835E-14
 -1      3216 9.81646E-03-7.24689E-04-8.16685E-14
 -1      3217 9.76428E-03-7.50684E-04-8.05691E-14
 -1      3218 1.02451E-02-7.91278E-04-8.86921E-14
 -1      3219 1.01022E-02-7.69037E-04-8.63250E-14
 -1      3220 1.00500E-02-7.95006E-04-8.51952E-14
 -1      3221 1.05308E-02-8.35868E-04-9.35011E-14
 -1      3222 1.03879E-02-8.13557E-04-9.10845E-14
 -1      3223 1.03358E-02-8.39505E-04-8.99275E-14
 -1      3224 1.08165E-02-8.80569E-04-9.84037E-14
 -1      3225 1.06736E-02-8.58206E-04-9.59412E-14
 -1      3226 1.06215E-02-8.84139E-04-9.47585E-14
 -1      3227 1.11022E-02-9.25350E-04-1.03396E-13
 -1      3228 1.09594E-02-9.02951E-04-1.00889E-13
 -1      3229 1.09073E-02-9.28870E-04-9.96824E-14
 -1      3230 1.13879E-02-9.70188E-04-1.08477E-13
 -1      3231 1.12451E-02-9.47763E-04-1.05926E-13
 -1      3232 1.11930E-02-9.73673E-04-1.04695E-13
 -1      3233 1.16737E-02-1.01507E-03-1.13643E-13
 -1      3234 1.15308E-02-9.92623E-04-1.11049E-13
 -1      3235 1.14787E-02-1.01852E-03-1.09793E-13
 -1      3236 1.19594E-02-1.05997E-03-1.18894E-13
 -1      3237 1.18165E-02-1.03751E-03-1.16258E-13
 -1      3238 1.17645E-02-1.06341E-03-1.14975E-13
 -1      3239 1.22451E-02-1.10489E-03-1.24224E-13
 -1      3240 1.21022E-02-1.08243E-03-1.21550E-13
 -1      3241 1.20502E-02-1.10832E-03-1.20240E-13
 -1      3242 1.25308E-02-1.14981E-03-1.29626E-13
 -1      3243 1.23879E-02-1.12735E-03-1.26916E-13
 -1      3244 1.23359E-02-1.15324E-03-1.25585E-13
 -1      3245 1.28165E-02-1.19475E-03-1.35096E-13
 -1      3246 1.26736E-02-1.17228E-03-1.32353E-13
 -1      3247 1.26216E-02-1.19817E-03-1.31000E-13
 -1      3248 1.31022E-02-1.23968E-03-1.40620E-13
 -1      3249 1.29594E-02-1.21721E-03-1.37851E-13
 -1      3250 1.29074E-02-1.24310E-03-1.36478E-13
 -1      3251 1.33879E-02-1.28461E-03-1.46209E-13
 -1      3252 1.32451E-02-1.26214E-03-1.43410E-13
 -1      3253 1.31931E-02-1.28803E-03-1.42017E-13
 -1      3254 1.36736E-02-1.32954E-03-1.51847E-13
 -1      3255 1.35308E-02-1.30707E-03-1.49022E-13
 -1      3256 1.34788E-02-1.33296E-03-1.47616E-13
 -1      3257 1.38831E-02-1.37231E-03-1.55898E-13
 -1      3258 1.37653E-02-1.34668E-03-1.53634E-13
 -1      3259 1.37133E-02-1.37256E-03-1.52215E-13
 -1      3260 1.38966E-02-1.40684E-03-1.55797E-13
 -1      3261 1.82859E-03 6.12333E-04-2.72036E-15
 -1      3262 1.66074E-03 5.65001E-04-2.25422E-15
 -1      3263 1.43180E-02-2.16877E-03-1.55451E-13
 -1      3264 1.41443E-02-1.95619E-03-1.54497E-13
 -1      3265 1.41222E-02-1.91404E-03-1.54563E-13
 -1      3266 1.40567E-02-1.78900E-03-1.54728E-13
 -1      3267 1.40347E-02-1.74685E-03-1.54769E-13
 -1      3268 3.16828E-03 3.05718E-04-7.70320E-15
 -1      3269 3.37133E-03 1.96468E-04-8.45443E-15
 -1      3270 2.19766E-03 6.59075E-04-3.95979E-15
 -1      3271 2.03496E-03 6.42772E-04-3.38221E-15
 -1      3272 4.45123E-03-2.80540E-04-1.17277E-14
 -1      3273 4.57807E-03-3.16984E-04-1.19089E-14
 -1      3274 3.13574E-03 4.64780E-04-8.18764E-15
 -1      3275 2.96646E-03 5.23170E-04-7.34077E-15
 -1      3276 3.25184E-03 3.86239E-04-8.67251E-15
 -1      3277 4.14447E-03 1.43648E-04-1.41394E-14
 -1      3278 3.98148E-03 1.87710E-04-1.30485E-14
 -1      3279 3.94114E-03 1.59371E-04-1.25758E-14
 -1      3280 4.26835E-03 7.46083E-05-1.47595E-14
 -1      3281 1.41885E-02-2.04049E-03-1.54347E-13
 -1      3282 1.41664E-02-1.99834E-03-1.54425E-13
 -1      3283 1.40317E-02-1.95782E-03-1.52014E-13
 -1      3284 2.52038E-03 6.27412E-04-5.25417E-15
 -1      3285 2.35696E-03 6.48872E-04-4.57860E-15
 -1      3286 2.82578E-03 5.57055E-04-6.64330E-15
 -1      3287 2.65928E-03 6.04697E-04-5.87995E-15
 -1      3288 2.64700E-03 5.66133E-04-5.72063E-15
 -1      3289 2.93406E-03 4.89336E-04-7.07571E-15
 -1      3290 2.78194E-03 4.95125E-04-6.17988E-15
 -1      3291 2.94949E-03 4.16840E-04-6.85472E-15
 -1      3292 4.62956E-03-3.76669E-04-1.14437E-14
 -1      3293 4.55599E-03-3.96230E-04-1.12417E-14
 -1      3294 4.87508E-04-5.87382E-05-6.35234E-16
 -1      3295 4.66028E-03-3.37971E-04-1.19914E-14
 -1      3296 4.70722E-03-3.48031E-04-1.20856E-14
 -1      3297 4.12000E-03-1.57091E-04-1.09853E-14
 -1      3298 4.27832E-03-2.17243E-04-1.14322E-14
 -1      3299 4.71898E-03-3.58344E-04-1.19647E-14
 -1      3300 4.68454E-03-3.63835E-04-1.16782E-14
 -1      3301 1.28897E-03 4.14535E-04-1.42548E-15
 -1      3302 1.41003E-02-1.87224E-03-1.54624E-13
 -1      3303 1.40786E-02-1.83080E-03-1.54679E-13
 -1      3304 1.39439E-02-1.79028E-03-1.52253E-13
 -1      3305 1.39877E-02-1.87387E-03-1.52144E-13
 -1      3306 5.88206E-04-9.00066E-05-6.49058E-16
 -1      3307 1.18354E-03 1.93394E-04-1.41364E-15
 -1      3308 1.26941E-03 2.57787E-04-1.52168E-15
 -1      3309 5.25260E-04-8.29663E-05-6.95848E-16
 -1      3310 5.41885E-04-9.20650E-05-8.26935E-16
 -1      3311 4.17536E-03-5.92193E-04-1.05616E-14
 -1      3312 1.39244E-02-1.53626E-03-1.54901E-13
 -1      3313 1.39025E-02-1.49447E-03-1.54914E-13
 -1      3314 1.20274E-03-4.29064E-04-1.09735E-15
 -1      3315 1.46399E-03 4.77784E-04-1.79135E-15
 -1      3316 1.41968E-02-2.08634E-03-1.53912E-13
 -1      3317 1.40621E-02-2.04583E-03-1.51509E-13
 -1      3318 1.95692E-03 6.02304E-04-3.12529E-15
 -1      3319 1.42271E-02-2.12043E-03-1.54116E-13
 -1      3320 1.38999E-02-1.70633E-03-1.52336E-13
 -1      3321 1.40126E-02-1.70470E-03-1.54805E-13
 -1      3322 1.39905E-02-1.66254E-03-1.54836E-13
 -1      3323 3.46282E-03 1.92322E-04-9.14218E-15
 -1      3324 3.54489E-03 1.21953E-04-9.23414E-15
 -1      3325 3.71561E-03 5.67332E-05-1.00427E-14
 -1      3326 1.54579E-03 4.70434E-04-2.00253E-15
 -1      3327 4.65726E-03-3.29878E-04-1.25653E-14
 -1      3328 6.52858E-04-5.68572E-05-8.59888E-16
 -1      3329 4.75152E-03-3.60331E-04-1.25293E-14
 -1      3330 4.78535E-03-3.73322E-04-1.29761E-14
 -1      3331 4.77861E-03-3.61453E-04-1.31004E-14
 -1      3332 1.60034E-03 4.18476E-04-2.17777E-15
 -1      3333 2.33422E-03 6.22634E-04-4.43702E-15
 -1      3334 4.03918E-03-1.07193E-04-1.09874E-14
 -1      3335 1.07065E-03 2.02649E-04-1.14402E-15
 -1      3336 1.02747E-03 1.44113E-04-1.13595E-15
 -1      3337 1.07174E-03 1.33684E-04-1.26018E-15
 -1      3338 4.69954E-03-3.81915E-04-1.21658E-14
 -1      3339 5.05595E-04-1.04721E-04-8.90977E-16
 -1      3340 4.51192E-03-4.27452E-04-1.13838E-14
 -1      3341 4.46866E-03-4.65082E-04-1.15229E-14
 -1      3342 4.60573E-03-4.25622E-04-1.20704E-14
 -1      3343 3.07795E-03 3.73245E-04-7.48521E-15
 -1      3344 4.41823E-03-2.53422E-04-1.21740E-14
 -1      3345 4.54583E-03-2.80642E-04-1.29328E-14
 -1      3346 4.39421E-03-2.22097E-04-1.26197E-14
 -1      3347 1.87564E-03 5.62620E-04-2.87300E-15
 -1      3348 1.39685E-02-1.62048E-03-1.54859E-13
 -1      3349 1.39464E-02-1.57833E-03-1.54882E-13
 -1      3350 1.38117E-02-1.53798E-03-1.52435E-13
 -1      3351 1.38558E-02-1.62211E-03-1.52395E-13
 -1      3352 1.24278E-03 2.87763E-04-1.42219E-15
 -1      3353 4.26186E-03-5.37977E-04-1.07509E-14
 -1      3354 1.07412E-03-3.25828E-04-1.10060E-15
 -1      3355 4.67593E-03-3.23053E-04-1.32584E-14
 -1      3356 4.74738E-03-3.45242E-04-1.33479E-14
 -1      3357 1.26466E-03-4.45092E-04-1.27265E-15
 -1      3358 5.29300E-03-1.48570E-04-2.29090E-14
 -1      3359 5.14785E-03-1.26859E-04-2.15680E-14
 -1      3360 1.39190E-02-1.95946E-03-1.49538E-13
 -1      3361 1.38969E-02-1.91730E-03-1.49606E-13
 -1      3362 4.82088E-03-5.33802E-04-1.47571E-14
 -1      3363 4.95436E-03-5.48984E-04-1.59120E-14
 -1      3364 5.08641E-03-5.66450E-04-1.71000E-14
 -1      3365 5.21863E-03-5.85608E-04-1.83201E-14
 -1      3366 5.04501E-03-5.25477E-04-1.65548E-14
 -1      3367 5.35077E-03-6.06280E-04-1.95736E-14
 -1      3368 5.48365E-03-6.28196E-04-2.08598E-14
 -1      3369 5.29759E-03-5.65860E-04-1.89971E-14
 -1      3370 5.61704E-03-6.51114E-04-2.21787E-14
 -1      3371 5.75135E-03-6.74941E-04-2.35300E-14
 -1      3372 5.55498E-03-6.10092E-04-2.15709E-14
 -1      3373 5.88636E-03-6.99415E-04-2.49140E-14
 -1      3374 6.02228E-03-7.24498E-04-2.63305E-14
 -1      3375 5.81749E-03-6.57280E-04-2.42748E-14
 -1      3376 6.15890E-03-7.49950E-04-2.77788E-14
 -1      3377 6.29631E-03-7.75750E-04-2.92581E-14
 -1      3378 6.08472E-03-7.06580E-04-2.71084E-14
 -1      3379 6.43435E-03-8.01703E-04-3.07692E-14
 -1      3380 6.57306E-03-8.27799E-04-3.23096E-14
 -1      3381 6.35603E-03-7.57180E-04-3.00676E-14
 -1      3382 6.71228E-03-8.53890E-04-3.38814E-14
 -1      3383 6.85203E-03-8.79974E-04-3.54833E-14
 -1      3384 6.63073E-03-8.08383E-04-3.31499E-14
 -1      3385 6.99219E-03-9.05947E-04-3.71166E-14
 -1      3386 7.13278E-03-9.31813E-04-3.87808E-14
 -1      3387 6.90814E-03-8.59649E-04-3.63551E-14
 -1      3388 7.27367E-03-9.57505E-04-4.04731E-14
 -1      3389 7.41489E-03-9.83033E-04-4.21972E-14
 -1      3390 7.18770E-03-9.10596E-04-3.96813E-14
 -1      3391 7.55635E-03-1.00836E-03-4.39522E-14
 -1      3392 7.69805E-03-1.03349E-03-4.57371E-14
 -1      3393 7.46892E-03-9.60989E-04-4.31289E-14
 -1      3394 7.83993E-03-1.05841E-03-4.75520E-14
 -1      3395 7.98198E-03-1.08313E-03-4.93957E-14
 -1      3396 7.75140E-03-1.01071E-03-4.66973E-14
 -1      3397 8.12417E-03-1.10765E-03-5.12709E-14
 -1      3398 8.26649E-03-1.13198E-03-5.31725E-14
 -1      3399 8.03485E-03-1.05971E-03-5.03868E-14
 -1      3400 8.40890E-03-1.15613E-03-5.51034E-14
 -1      3401 8.55140E-03-1.18011E-03-5.70636E-14
 -1      3402 8.31900E-03-1.10803E-03-5.41916E-14
 -1      3403 8.69398E-03-1.20392E-03-5.90514E-14
 -1      3404 8.83662E-03-1.22759E-03-6.10669E-14
 -1      3405 8.60367E-03-1.15570E-03-5.81115E-14
 -1      3406 8.97930E-03-1.25111E-03-6.31095E-14
 -1      3407 9.12203E-03-1.27451E-03-6.51796E-14
 -1      3408 8.88871E-03-1.20282E-03-6.21409E-14
 -1      3409 9.26480E-03-1.29780E-03-6.72783E-14
 -1      3410 9.40759E-03-1.32097E-03-6.94040E-14
 -1      3411 9.17402E-03-1.24946E-03-6.62814E-14
 -1      3412 9.55041E-03-1.34406E-03-7.15568E-14
 -1      3413 9.69324E-03-1.36706E-03-7.37357E-14
 -1      3414 9.45951E-03-1.29569E-03-7.05319E-14
 -1      3415 9.83609E-03-1.38998E-03-7.59396E-14
 -1      3416 9.97895E-03-1.41284E-03-7.81706E-14
 -1      3417 9.74513E-03-1.34160E-03-7.48891E-14
 -1      3418 1.01218E-02-1.43564E-03-8.04292E-14
 -1      3419 1.02647E-02-1.45838E-03-8.27153E-14
 -1      3420 1.00308E-02-1.38725E-03-7.93530E-14
 -1      3421 1.04076E-02-1.48108E-03-8.50275E-14
 -1      3422 1.05505E-02-1.50374E-03-8.73637E-14
 -1      3423 1.03166E-02-1.43269E-03-8.39238E-14
 -1      3424 1.06934E-02-1.52636E-03-8.97270E-14
 -1      3425 1.08362E-02-1.54895E-03-9.21148E-14
 -1      3426 1.06023E-02-1.47798E-03-8.85996E-14
 -1      3427 1.09791E-02-1.57152E-03-9.45283E-14
 -1      3428 1.11220E-02-1.59407E-03-9.69627E-14
 -1      3429 1.08881E-02-1.52314E-03-9.33759E-14
 -1      3430 1.12649E-02-1.61660E-03-9.94187E-14
 -1      3431 1.14078E-02-1.63911E-03-1.01898E-13
 -1      3432 1.11739E-02-1.56822E-03-9.82459E-14
 -1      3433 1.15507E-02-1.66160E-03-1.04397E-13
 -1      3434 1.16936E-02-1.68409E-03-1.06916E-13
 -1      3435 1.14597E-02-1.61323E-03-1.03204E-13
 -1      3436 1.18364E-02-1.70657E-03-1.09456E-13
 -1      3437 1.19793E-02-1.72904E-03-1.12014E-13
 -1      3438 1.17455E-02-1.65820E-03-1.08245E-13
 -1      3439 1.21222E-02-1.75150E-03-1.14593E-13
 -1      3440 1.22651E-02-1.77396E-03-1.17191E-13
 -1      3441 1.20312E-02-1.70314E-03-1.13365E-13
 -1      3442 1.24079E-02-1.79641E-03-1.19807E-13
 -1      3443 1.25508E-02-1.81886E-03-1.22441E-13
 -1      3444 1.23170E-02-1.74806E-03-1.18560E-13
 -1      3445 1.26937E-02-1.84131E-03-1.25095E-13
 -1      3446 1.28366E-02-1.86376E-03-1.27766E-13
 -1      3447 1.26028E-02-1.79296E-03-1.23830E-13
 -1      3448 1.29794E-02-1.88621E-03-1.30457E-13
 -1      3449 1.31223E-02-1.90865E-03-1.33164E-13
 -1      3450 1.28885E-02-1.83786E-03-1.29175E-13
 -1      3451 1.32652E-02-1.93110E-03-1.35887E-13
 -1      3452 1.34080E-02-1.95355E-03-1.38626E-13
 -1      3453 1.31743E-02-1.88275E-03-1.34588E-13
 -1      3454 1.35509E-02-1.97599E-03-1.41379E-13
 -1      3455 1.36937E-02-1.99844E-03-1.44152E-13
 -1      3456 1.34600E-02-1.92765E-03-1.40067E-13
 -1      3457 1.39192E-02-2.02338E-03-1.48696E-13
 -1      3458 5.00141E-03-1.04000E-04-2.02613E-14
 -1      3459 4.85330E-03-7.94574E-05-1.89898E-14
 -1      3460 5.11472E-03-1.54616E-04-2.09623E-14
 -1      3461 4.70308E-03-5.31032E-05-1.77524E-14
 -1      3462 4.55037E-03-2.40927E-05-1.65500E-14
 -1      3463 4.82283E-03-1.08948E-04-1.84177E-14
 -1      3464 5.58052E-03-1.89267E-04-2.56884E-14
 -1      3465 5.43712E-03-1.69263E-04-2.42820E-14
 -1      3466 5.40101E-03-1.95842E-04-2.36438E-14
 -1      3467 5.86582E-03-2.27782E-04-2.85985E-14
 -1      3468 5.72335E-03-2.08708E-04-2.71273E-14
 -1      3469 5.68433E-03-2.34601E-04-2.64565E-14
 -1      3470 6.15007E-03-2.65280E-04-3.16324E-14
 -1      3471 6.00801E-03-2.46601E-04-3.01005E-14
 -1      3472 5.96633E-03-2.72161E-04-2.93964E-14
 -1      3473 6.43396E-03-3.02554E-04-3.47889E-14
 -1      3474 6.29202E-03-2.83909E-04-3.31949E-14
 -1      3475 6.24803E-03-3.09361E-04-3.24607E-14
 -1      3476 6.71789E-03-3.40125E-04-3.80681E-14
 -1      3477 6.57590E-03-3.21282E-04-3.64143E-14
 -1      3478 6.52997E-03-3.46751E-04-3.56476E-14
 -1      3479 7.00204E-03-3.78309E-04-4.14663E-14
 -1      3480 6.85992E-03-3.59131E-04-3.97521E-14
 -1      3481 6.81241E-03-3.84676E-04-3.89563E-14
 -1      3482 7.28647E-03-4.17272E-04-4.49799E-14
 -1      3483 7.14421E-03-3.97690E-04-4.32088E-14
 -1      3484 7.09544E-03-4.23331E-04-4.23832E-14
 -1      3485 7.57120E-03-4.57074E-04-4.86080E-14
 -1      3486 7.42880E-03-4.37070E-04-4.67798E-14
 -1      3487 7.37905E-03-4.62801E-04-4.59266E-14
 -1      3488 7.85619E-03-4.97704E-04-5.23517E-14
 -1      3489 7.71366E-03-4.77290E-04-5.04658E-14
 -1      3490 7.66317E-03-5.03097E-04-4.95836E-14
 -1      3491 8.14139E-03-5.39103E-04-5.62096E-14
 -1      3492 7.99876E-03-5.18313E-04-5.42657E-14
 -1      3493 7.94772E-03-5.44179E-04-5.33548E-14
 -1      3494 8.42677E-03-5.81192E-04-6.01837E-14
 -1      3495 8.28406E-03-5.60067E-04-5.81821E-14
 -1      3496 8.23263E-03-5.85975E-04-5.72425E-14
 -1      3497 8.71228E-03-6.23875E-04-6.42731E-14
 -1      3498 8.56951E-03-6.02465E-04-6.22148E-14
 -1      3499 8.51780E-03-6.28398E-04-6.12452E-14
 -1      3500 8.99788E-03-6.67060E-04-6.84759E-14
 -1      3501 8.85507E-03-6.45410E-04-6.63607E-14
 -1      3502 8.80317E-03-6.71359E-04-6.53604E-14
 -1      3503 9.28355E-03-7.10659E-04-7.27886E-14
 -1      3504 9.14071E-03-6.88813E-04-7.06177E-14
 -1      3505 9.08870E-03-7.14767E-04-6.95872E-14
 -1      3506 9.56926E-03-7.54591E-04-7.72179E-14
 -1      3507 9.42640E-03-7.32587E-04-7.49897E-14
 -1      3508 9.37432E-03-7.58541E-04-7.39287E-14
 -1      3509 9.85500E-03-7.98787E-04-8.17590E-14
 -1      3510 9.71213E-03-7.76660E-04-7.94755E-14
 -1      3511 9.66001E-03-8.02609E-04-7.83824E-14
 -1      3512 1.01408E-02-8.43188E-04-8.64080E-14
 -1      3513 9.99788E-03-8.20965E-04-8.40689E-14
 -1      3514 9.94574E-03-8.46908E-04-8.29478E-14
 -1      3515 1.04265E-02-8.87746E-04-9.11634E-14
 -1      3516 1.02836E-02-8.65450E-04-8.87732E-14
 -1      3517 1.02315E-02-8.91386E-04-8.76203E-14
 -1      3518 1.07123E-02-9.32421E-04-9.60165E-14
 -1      3519 1.05694E-02-9.10070E-04-9.35782E-14
 -1      3520 1.05173E-02-9.35999E-04-9.23995E-14
 -1      3521 1.09980E-02-9.77181E-04-1.00960E-13
 -1      3522 1.08552E-02-9.54792E-04-9.84770E-14
 -1      3523 1.08031E-02-9.80713E-04-9.72746E-14
 -1      3524 1.12838E-02-1.02200E-03-1.05991E-13
 -1      3525 1.11409E-02-9.99585E-04-1.03465E-13
 -1      3526 1.10888E-02-1.02550E-03-1.02238E-13
 -1      3527 1.15695E-02-1.06687E-03-1.11105E-13
 -1      3528 1.14267E-02-1.04443E-03-1.08538E-13
 -1      3529 1.13746E-02-1.07034E-03-1.07286E-13
 -1      3530 1.18553E-02-1.11176E-03-1.16306E-13
 -1      3531 1.17124E-02-1.08931E-03-1.13695E-13
 -1      3532 1.16604E-02-1.11522E-03-1.12418E-13
 -1      3533 1.21410E-02-1.15667E-03-1.21586E-13
 -1      3534 1.19982E-02-1.13422E-03-1.18935E-13
 -1      3535 1.19461E-02-1.16011E-03-1.17633E-13
 -1      3536 1.24268E-02-1.20160E-03-1.26945E-13
 -1      3537 1.22839E-02-1.17913E-03-1.24257E-13
 -1      3538 1.22319E-02-1.20503E-03-1.22930E-13
 -1      3539 1.27125E-02-1.24652E-03-1.32371E-13
 -1      3540 1.25696E-02-1.22406E-03-1.29649E-13
 -1      3541 1.25176E-02-1.24995E-03-1.28303E-13
 -1      3542 1.29982E-02-1.29145E-03-1.37860E-13
 -1      3543 1.28553E-02-1.26899E-03-1.35110E-13
 -1      3544 1.28033E-02-1.29488E-03-1.33741E-13
 -1      3545 1.32839E-02-1.33638E-03-1.43413E-13
 -1      3546 1.31411E-02-1.31392E-03-1.40629E-13
 -1      3547 1.30891E-02-1.33981E-03-1.39243E-13
 -1      3548 1.35697E-02-1.38131E-03-1.49020E-13
 -1      3549 1.34268E-02-1.35885E-03-1.46210E-13
 -1      3550 1.33748E-02-1.38474E-03-1.44806E-13
 -1      3551 1.39063E-02-1.46792E-03-1.55306E-13
 -1      3552 1.38928E-02-1.43339E-03-1.55411E-13
 -1      3553 1.38011E-02-1.41625E-03-1.53618E-13
 -1      3554 1.37935E-02-1.46936E-03-1.52842E-13
 -1      3555 9.03239E-04 5.24967E-05-1.05185E-15
 -1      3556 7.88270E-04-1.08080E-05-9.88304E-16
 -1      3557 3.73213E-03 1.79747E-04-1.10835E-14
 -1      3558 3.55673E-03 2.37426E-04-1.01037E-14
 -1      3559 2.68533E-03 5.43896E-04-5.84408E-15
 -1      3560 1.37861E-03 3.45356E-04-1.67950E-15
 -1      3561 3.94960E-03-4.04211E-05-1.10543E-14
 -1      3562 4.16101E-03-1.22929E-04-1.19384E-14
 -1      3563 1.55844E-03 4.39031E-04-2.05284E-15
 -1      3564 4.77731E-03-3.92452E-04-1.30537E-14
 -1      3565 4.72859E-03-4.05704E-04-1.28083E-14
 -1      3566 1.38283E-02-1.97503E-03-1.47364E-13
 -1      3567 3.33098E-03 3.29784E-04-8.97665E-15
 -1      3568 3.15275E-03 3.96803E-04-8.08746E-15
 -1      3569 3.00877E-03 4.39066E-04-7.34687E-15
 -1      3570 3.46599E-03 2.40812E-04-9.47182E-15
 -1      3571 4.37758E-03-5.20481E-04-1.14035E-14
 -1      3572 4.66205E-03-3.03086E-04-1.37258E-14
 -1      3573 1.37623E-02-1.87714E-03-1.47208E-13
 -1      3574 1.38750E-02-1.87551E-03-1.49672E-13
 -1      3575 1.38531E-02-1.83371E-03-1.49731E-13
 -1      3576 4.23286E-03-1.11790E-04-1.27588E-14
 -1      3577 4.31010E-03-1.69823E-04-1.26928E-14
 -1      3578 4.45070E-03-2.07738E-04-1.34650E-14
 -1      3579 1.36990E-02-1.53956E-03-1.49981E-13
 -1      3580 1.36770E-02-1.49750E-03-1.49997E-13
 -1      3581 4.07178E-03 8.32447E-05-1.31593E-14
 -1      3582 3.90443E-03 1.28712E-04-1.21024E-14
 -1      3583 3.87152E-03 9.59669E-05-1.16290E-14
 -1      3584 1.37095E-02-1.39912E-03-1.51831E-13
 -1      3585 4.49208E-03-5.07052E-04-1.20904E-14
 -1      3586 1.37872E-02-1.70796E-03-1.49873E-13
 -1      3587 1.37651E-02-1.66580E-03-1.49908E-13
 -1      3588 3.26138E-03 3.02631E-04-8.37524E-15
 -1      3589 3.42705E-03 2.33320E-04-9.14667E-15
 -1      3590 3.85877E-03 2.63238E-05-1.09530E-14
 -1      3591 4.81255E-03-3.60897E-04-1.38106E-14
 -1      3592 4.86809E-03-3.75458E-04-1.42756E-14
 -1      3593 4.84654E-03-3.57678E-04-1.45298E-14
 -1      3594 2.82988E-03 5.01970E-04-6.51604E-15
 -1      3595 4.39450E-03 7.69046E-06-1.53832E-14
 -1      3596 4.23527E-03 4.34557E-05-1.42529E-14
 -1      3597 4.20613E-03 1.01507E-05-1.37469E-14
 -1      3598 4.52157E-03-5.56735E-05-1.60111E-14
 -1      3599 4.70772E-03-4.30911E-04-1.29575E-14
 -1      3600 3.05386E-03 4.05812E-04-7.49128E-15
 -1      3601 1.35410E-02-1.45314E-03-1.47583E-13
 -1      3602 1.36537E-02-1.45156E-03-1.50026E-13
 -1      3603 1.36575E-02-1.42500E-03-1.50414E-13
 -1      3604 4.63173E-03-5.12521E-04-1.31655E-14
 -1      3605 4.83101E-03-3.93331E-04-1.36372E-14
 -1      3606 1.76465E-03 5.31913E-04-2.55819E-15
 -1      3607 4.74535E-03-4.79924E-04-1.37657E-14
 -1      3608 1.38091E-02-1.74976E-03-1.49831E-13
 -1      3609 1.36743E-02-1.70923E-03-1.47416E-13
 -1      3610 1.38310E-02-1.79155E-03-1.49783E-13
 -1      3611 1.36304E-02-1.62536E-03-1.47486E-13
 -1      3612 1.37431E-02-1.62373E-03-1.49937E-13
 -1      3613 1.37211E-02-1.58167E-03-1.49960E-13
 -1      3614 1.36935E-02-1.93452E-03-1.44981E-13
 -1      3615 5.00684E-03-4.87576E-04-1.60106E-14
 -1      3616 5.12560E-03-5.07476E-04-1.72006E-14
 -1      3617 5.78641E-03-2.78569E-04-2.72243E-14
 -1      3618 5.64685E-03-2.59950E-04-2.57861E-14
 -1      3619 1.35863E-02-1.54119E-03-1.47536E-13
 -1      3620 5.24606E-03-5.27913E-04-1.84226E-14
 -1      3621 5.36911E-03-5.49273E-04-1.96767E-14
 -1      3622 5.19552E-03-4.92594E-04-1.78482E-14
 -1      3623 5.49392E-03-5.71158E-04-2.09636E-14
 -1      3624 5.62084E-03-5.93819E-04-2.22839E-14
 -1      3625 5.43330E-03-5.34389E-04-2.03581E-14
 -1      3626 5.74936E-03-6.16943E-04-2.36365E-14
 -1      3627 5.87959E-03-6.40679E-04-2.50214E-14
 -1      3628 5.68151E-03-5.78441E-04-2.29994E-14
 -1      3629 6.01119E-03-6.64758E-04-2.64384E-14
 -1      3630 6.14418E-03-6.89266E-04-2.78872E-14
 -1      3631 5.93794E-03-6.24509E-04-2.57702E-14
 -1      3632 6.27831E-03-7.13977E-04-2.93664E-14
 -1      3633 6.41356E-03-7.38943E-04-3.08772E-14
 -1      3634 6.20091E-03-6.72117E-04-2.86672E-14
 -1      3635 6.54973E-03-7.63987E-04-3.24196E-14
 -1      3636 6.68679E-03-7.89139E-04-3.39910E-14
 -1      3637 6.46908E-03-7.20724E-04-3.16893E-14
 -1      3638 6.82459E-03-8.14268E-04-3.55939E-14
 -1      3639 6.96309E-03-8.39397E-04-3.72272E-14
 -1      3640 6.74139E-03-7.69833E-04-3.48344E-14
 -1      3641 7.10217E-03-8.64432E-04-3.88907E-14
 -1      3642 7.24179E-03-8.89393E-04-4.05837E-14
 -1      3643 7.01697E-03-8.19045E-04-3.81004E-14
 -1      3644 7.38187E-03-9.14218E-04-4.23085E-14
 -1      3645 7.52236E-03-9.38925E-04-4.40629E-14
 -1      3646 7.29512E-03-8.68077E-04-4.14896E-14
 -1      3647 7.66320E-03-9.63475E-04-4.58466E-14
 -1      3648 7.80436E-03-9.87886E-04-4.76604E-14
 -1      3649 7.57527E-03-9.16746E-04-4.49977E-14
 -1      3650 7.94579E-03-1.01214E-03-4.95052E-14
 -1      3651 8.08745E-03-1.03624E-03-5.13786E-14
 -1      3652 7.85695E-03-9.64957E-04-4.86257E-14
 -1      3653 8.22931E-03-1.06020E-03-5.32811E-14
 -1      3654 8.37134E-03-1.08402E-03-5.52112E-14
 -1      3655 8.13980E-03-1.01268E-03-5.23722E-14
 -1      3656 8.51352E-03-1.10770E-03-5.71702E-14
 -1      3657 8.65583E-03-1.13125E-03-5.91588E-14
 -1      3658 8.42353E-03-1.05992E-03-5.62331E-14
 -1      3659 8.79825E-03-1.15469E-03-6.11744E-14
 -1      3660 8.94075E-03-1.17801E-03-6.32166E-14
 -1      3661 8.70790E-03-1.10672E-03-6.02078E-14
 -1      3662 9.08334E-03-1.20123E-03-6.52862E-14
 -1      3663 9.22599E-03-1.22436E-03-6.73828E-14
 -1      3664 8.99275E-03-1.15314E-03-6.42923E-14
 -1      3665 9.36869E-03-1.24741E-03-6.95098E-14
 -1      3666 9.51143E-03-1.27038E-03-7.16626E-14
 -1      3667 9.27793E-03-1.19922E-03-6.84885E-14
 -1      3668 9.65421E-03-1.29328E-03-7.38419E-14
 -1      3669 9.79702E-03-1.31612E-03-7.60464E-14
 -1      3670 9.56335E-03-1.24502E-03-7.27940E-14
 -1      3671 9.93986E-03-1.33890E-03-7.82769E-14
 -1      3672 1.00827E-02-1.36164E-03-8.05367E-14
 -1      3673 9.84893E-03-1.29060E-03-7.72049E-14
 -1      3674 1.02256E-02-1.38433E-03-8.28222E-14
 -1      3675 1.03685E-02-1.40699E-03-8.51355E-14
 -1      3676 1.01346E-02-1.33600E-03-8.17214E-14
 -1      3677 1.05113E-02-1.42961E-03-8.74729E-14
 -1      3678 1.06542E-02-1.45220E-03-8.98349E-14
 -1      3679 1.04204E-02-1.38126E-03-8.63461E-14
 -1      3680 1.07971E-02-1.47477E-03-9.22234E-14
 -1      3681 1.09400E-02-1.49732E-03-9.46357E-14
 -1      3682 1.07061E-02-1.42641E-03-9.10719E-14
 -1      3683 1.10829E-02-1.51985E-03-9.70723E-14
 -1      3684 1.12258E-02-1.54236E-03-9.95301E-14
 -1      3685 1.09920E-02-1.47148E-03-9.58969E-14
 -1      3686 1.13687E-02-1.56487E-03-1.02010E-13
 -1      3687 1.15116E-02-1.58736E-03-1.04511E-13
 -1      3688 1.12778E-02-1.51650E-03-1.00816E-13
 -1      3689 1.16545E-02-1.60984E-03-1.07031E-13
 -1      3690 1.17974E-02-1.63231E-03-1.09572E-13
 -1      3691 1.15636E-02-1.56147E-03-1.05817E-13
 -1      3692 1.19403E-02-1.65478E-03-1.12133E-13
 -1      3693 1.20832E-02-1.67724E-03-1.14713E-13
 -1      3694 1.18494E-02-1.60641E-03-1.10901E-13
 -1      3695 1.22261E-02-1.69970E-03-1.17312E-13
 -1      3696 1.23690E-02-1.72215E-03-1.19929E-13
 -1      3697 1.21351E-02-1.65134E-03-1.16061E-13
 -1      3698 1.25118E-02-1.74461E-03-1.22566E-13
 -1      3699 1.26547E-02-1.76706E-03-1.25218E-13
 -1      3700 1.24209E-02-1.69625E-03-1.21299E-13
 -1      3701 1.27976E-02-1.78951E-03-1.27892E-13
 -1      3702 1.29405E-02-1.81195E-03-1.30583E-13
 -1      3703 1.27067E-02-1.74115E-03-1.26610E-13
 -1      3704 1.30833E-02-1.83440E-03-1.33290E-13
 -1      3705 1.32262E-02-1.85685E-03-1.36014E-13
 -1      3706 1.29924E-02-1.78605E-03-1.31990E-13
 -1      3707 1.33691E-02-1.87930E-03-1.38754E-13
 -1      3708 1.35120E-02-1.90174E-03-1.41510E-13
 -1      3709 1.32782E-02-1.83095E-03-1.37440E-13
 -1      3710 5.22616E-03-2.02578E-04-2.16662E-14
 -1      3711 5.08433E-03-1.82357E-04-2.03589E-14
 -1      3712 4.94119E-03-1.61369E-04-1.90846E-14
 -1      3713 4.79609E-03-1.38946E-04-1.78459E-14
 -1      3714 5.05685E-03-2.10184E-04-1.97559E-14
 -1      3715 6.06539E-03-3.15608E-04-3.01952E-14
 -1      3716 5.92586E-03-2.97094E-04-2.86939E-14
 -1      3717 5.88654E-03-3.21381E-04-2.79936E-14
 -1      3718 6.34481E-03-3.52825E-04-3.32898E-14
 -1      3719 6.20500E-03-3.34173E-04-3.17282E-14
 -1      3720 6.16287E-03-3.58319E-04-3.09951E-14
 -1      3721 6.62506E-03-3.90556E-04-3.65075E-14
 -1      3722 6.48481E-03-3.71617E-04-3.48828E-14
 -1      3723 6.44036E-03-3.95846E-04-3.41195E-14
 -1      3724 6.90624E-03-4.28988E-04-3.98445E-14
 -1      3725 6.76552E-03-4.09681E-04-3.81608E-14
 -1      3726 6.71920E-03-4.34110E-04-3.73662E-14
 -1      3727 7.18833E-03-4.68217E-04-4.33007E-14
 -1      3728 7.04717E-03-4.48505E-04-4.15584E-14
 -1      3729 6.99935E-03-4.73177E-04-4.07336E-14
 -1      3730 7.47126E-03-5.08264E-04-4.68725E-14
 -1      3731 7.32969E-03-4.88143E-04-4.50721E-14
 -1      3732 7.28071E-03-5.13062E-04-4.42185E-14
 -1      3733 7.75489E-03-5.49099E-04-5.05590E-14
 -1      3734 7.61299E-03-5.28589E-04-4.87009E-14
 -1      3735 7.56310E-03-5.53734E-04-4.78185E-14
 -1      3736 8.03910E-03-5.90659E-04-5.43592E-14
 -1      3737 7.89693E-03-5.69795E-04-5.24446E-14
 -1      3738 7.84636E-03-5.95133E-04-5.15337E-14
 -1      3739 8.32376E-03-6.32866E-04-5.82749E-14
 -1      3740 8.18138E-03-6.11688E-04-5.63022E-14
 -1      3741 8.13031E-03-6.37185E-04-5.53632E-14
 -1      3742 8.60878E-03-6.75633E-04-6.23048E-14
 -1      3743 8.46623E-03-6.54186E-04-6.02760E-14
 -1      3744 8.41480E-03-6.79806E-04-5.93076E-14
 -1      3745 8.89405E-03-7.18872E-04-6.64484E-14
 -1      3746 8.75138E-03-6.97199E-04-6.43630E-14
 -1      3747 8.69970E-03-7.22915E-04-6.33661E-14
 -1      3748 9.17951E-03-7.62503E-04-7.06992E-14
 -1      3749 9.03676E-03-7.40644E-04-6.85598E-14
 -1      3750 8.98490E-03-7.66429E-04-6.75335E-14
 -1      3751 9.46510E-03-8.06450E-04-7.50655E-14
 -1      3752 9.32229E-03-7.84441E-04-7.28678E-14
 -1      3753 9.27032E-03-8.10276E-04-7.18122E-14
 -1      3754 9.75078E-03-8.50651E-04-7.95473E-14
 -1      3755 9.60793E-03-8.28523E-04-7.72923E-14
 -1      3756 9.55588E-03-8.54391E-04-7.62037E-14
 -1      3757 1.00365E-02-8.95049E-04-8.41341E-14
 -1      3758 9.89364E-03-8.72828E-04-8.18272E-14
 -1      3759 9.84156E-03-8.98719E-04-8.07095E-14
 -1      3760 1.03223E-02-9.39600E-04-8.88343E-14
 -1      3761 1.01794E-02-9.17308E-04-8.64717E-14
 -1      3762 1.01273E-02-9.43211E-04-8.53247E-14
 -1      3763 1.06081E-02-9.84265E-04-9.36355E-14
 -1      3764 1.04652E-02-9.61920E-04-9.12216E-14
 -1      3765 1.04131E-02-9.87830E-04-9.00477E-14
 -1      3766 1.08938E-02-1.02902E-03-9.85305E-14
 -1      3767 1.07510E-02-1.00663E-03-9.60711E-14
 -1      3768 1.06989E-02-1.03254E-03-9.48701E-14
 -1      3769 1.11796E-02-1.07383E-03-1.03512E-13
 -1      3770 1.10367E-02-1.05141E-03-1.01010E-13
 -1      3771 1.09847E-02-1.07733E-03-9.97852E-14
 -1      3772 1.14654E-02-1.11868E-03-1.08579E-13
 -1      3773 1.13225E-02-1.09625E-03-1.06036E-13
 -1      3774 1.12705E-02-1.12216E-03-1.04787E-13
 -1      3775 1.17512E-02-1.16357E-03-1.13730E-13
 -1      3776 1.16083E-02-1.14112E-03-1.11144E-13
 -1      3777 1.15562E-02-1.16703E-03-1.09872E-13
 -1      3778 1.20369E-02-1.20847E-03-1.18960E-13
 -1      3779 1.18941E-02-1.18602E-03-1.16334E-13
 -1      3780 1.18420E-02-1.21192E-03-1.15039E-13
 -1      3781 1.23227E-02-1.25339E-03-1.24272E-13
 -1      3782 1.21798E-02-1.23093E-03-1.21605E-13
 -1      3783 1.21278E-02-1.25683E-03-1.20285E-13
 -1      3784 1.26085E-02-1.29831E-03-1.29657E-13
 -1      3785 1.24656E-02-1.27585E-03-1.26958E-13
 -1      3786 1.24136E-02-1.30175E-03-1.25612E-13
 -1      3787 1.28942E-02-1.34324E-03-1.35110E-13
 -1      3788 1.27513E-02-1.32078E-03-1.32375E-13
 -1      3789 1.26993E-02-1.34667E-03-1.31011E-13
 -1      3790 1.31799E-02-1.38817E-03-1.40624E-13
 -1      3791 1.30371E-02-1.36570E-03-1.37859E-13
 -1      3792 1.29851E-02-1.39160E-03-1.36477E-13
 -1      3793 1.34319E-02-1.43188E-03-1.45489E-13
 -1      3794 1.32890E-02-1.40942E-03-1.42699E-13
 -1      3795 1.32370E-02-1.43532E-03-1.41300E-13
 -1      3796 1.34552E-02-1.47782E-03-1.45462E-13
 -1      3797 4.86387E-03-4.59302E-04-1.45424E-14
 -1      3798 4.67234E-03-2.82496E-04-1.44124E-14
 -1      3799 4.78947E-03-3.25015E-04-1.47565E-14
 -1      3800 4.94399E-03-4.43730E-04-1.51509E-14
 -1      3801 1.36026E-02-1.88617E-03-1.43652E-13
 -1      3802 5.50712E-03-2.41172E-04-2.43799E-14
 -1      3803 5.36693E-03-2.22067E-04-2.30059E-14
 -1      3804 5.33495E-03-2.47977E-04-2.23711E-14
 -1      3805 4.91453E-03-3.95722E-04-1.46768E-14
 -1      3806 4.92028E-03-4.16521E-04-1.47583E-14
 -1      3807 5.04954E-03-4.44190E-04-1.62359E-14
 -1      3808 4.96688E-03-3.96045E-04-1.54180E-14
 -1      3809 1.35807E-02-1.84437E-03-1.43715E-13
 -1      3810 1.34993E-02-1.56205E-03-1.45423E-13
 -1      3811 1.34773E-02-1.51993E-03-1.45446E-13
 -1      3812 1.33682E-02-1.49868E-03-1.43362E-13
 -1      3813 3.66207E-03 1.37554E-04-1.02849E-14
 -1      3814 4.77345E-03-1.69608E-04-1.72774E-14
 -1      3815 4.64864E-03-1.15033E-04-1.66427E-14
 -1      3816 4.49788E-03-8.84188E-05-1.54740E-14
 -1      3817 3.88534E-03 4.13776E-05-1.13078E-14
 -1      3818 1.37183E-02-1.79319E-03-1.47323E-13
 -1      3819 1.35434E-02-1.64618E-03-1.45367E-13
 -1      3820 1.35213E-02-1.60411E-03-1.45399E-13
 -1      3821 1.34122E-02-1.58286E-03-1.43319E-13
 -1      3822 4.86970E-03-3.46299E-04-1.52419E-14
 -1      3823 4.94191E-03-3.65227E-04-1.57301E-14
 -1      3824 4.89366E-03-3.31156E-04-1.59604E-14
 -1      3825 4.60675E-03-2.42888E-04-1.44916E-14
 -1      3826 4.75314E-03-2.72173E-04-1.55463E-14
 -1      3827 4.54086E-03-1.97345E-04-1.45637E-14
 -1      3828 1.35871E-02-1.72978E-03-1.45286E-13
 -1      3829 1.35652E-02-1.68798E-03-1.45329E-13
 -1      3830 1.34561E-02-1.66673E-03-1.43253E-13
 -1      3831 5.61090E-03-2.84756E-04-2.51175E-14
 -1      3832 4.05548E-03-4.14477E-06-1.23388E-14
 -1      3833 4.20225E-03-2.28444E-05-1.34278E-14
 -1      3834 4.22267E-03-7.63924E-05-1.30839E-14
 -1      3835 4.36648E-03-1.22813E-04-1.38682E-14
 -1      3836 4.36156E-03-5.66064E-05-1.45317E-14
 -1      3837 5.16918E-03-2.55521E-04-2.04301E-14
 -1      3838 5.03256E-03-2.37588E-04-1.91550E-14
 -1      3839 5.15766E-03-4.63056E-04-1.74307E-14
 -1      3840 5.27038E-03-4.82881E-04-1.86586E-14
 -1      3841 5.11576E-03-4.36172E-04-1.70112E-14
 -1      3842 5.38675E-03-5.02873E-04-1.99181E-14
 -1      3843 5.50645E-03-5.23741E-04-2.12105E-14
 -1      3844 5.33729E-03-4.73299E-04-1.94750E-14
 -1      3845 5.62889E-03-5.44949E-04-2.25353E-14
 -1      3846 5.75381E-03-5.66873E-04-2.38931E-14
 -1      3847 5.57418E-03-5.12927E-04-2.20695E-14
 -1      3848 5.88084E-03-5.89145E-04-2.52840E-14
 -1      3849 6.00978E-03-6.11961E-04-2.67052E-14
 -1      3850 5.82229E-03-5.54988E-04-2.47939E-14
 -1      3851 6.14037E-03-6.35045E-04-2.81579E-14
 -1      3852 6.27245E-03-6.58512E-04-2.96417E-14
 -1      3853 6.07885E-03-5.98999E-04-2.76461E-14
 -1      3854 6.40585E-03-6.82152E-04-3.11572E-14
 -1      3855 6.54042E-03-7.06026E-04-3.27035E-14
 -1      3856 6.34197E-03-6.44456E-04-3.06233E-14
 -1      3857 6.67602E-03-7.29977E-04-3.42795E-14
 -1      3858 6.81256E-03-7.54044E-04-3.58865E-14
 -1      3859 6.61025E-03-6.90873E-04-3.37228E-14
 -1      3860 6.94991E-03-7.78112E-04-3.75250E-14
 -1      3861 7.08800E-03-8.02213E-04-3.91925E-14
 -1      3862 6.88262E-03-7.37818E-04-3.69457E-14
 -1      3863 7.22673E-03-8.26261E-04-4.08904E-14
 -1      3864 7.36604E-03-8.50281E-04-4.26196E-14
 -1      3865 7.15822E-03-7.84979E-04-4.02907E-14
 -1      3866 7.50585E-03-8.74216E-04-4.43781E-14
 -1      3867 7.64610E-03-8.98088E-04-4.61654E-14
 -1      3868 7.43637E-03-8.32127E-04-4.37557E-14
 -1      3869 7.78673E-03-9.21860E-04-4.79819E-14
 -1      3870 7.92771E-03-9.45550E-04-4.98300E-14
 -1      3871 7.71651E-03-8.79119E-04-4.73389E-14
 -1      3872 8.06899E-03-9.69136E-04-5.17078E-14
 -1      3873 8.21052E-03-9.92635E-04-5.36135E-14
 -1      3874 7.99819E-03-9.25877E-04-5.10413E-14
 -1      3875 8.35227E-03-1.01603E-03-5.55473E-14
 -1      3876 8.49422E-03-1.03935E-03-5.75092E-14
 -1      3877 8.28105E-03-9.72370E-04-5.48591E-14
 -1      3878 8.63632E-03-1.06257E-03-5.95013E-14
 -1      3879 8.77857E-03-1.08572E-03-6.15205E-14
 -1      3880 8.56478E-03-1.01859E-03-5.87935E-14
 -1      3881 8.92094E-03-1.10879E-03-6.35663E-14
 -1      3882 9.06341E-03-1.13179E-03-6.56380E-14
 -1      3883 8.84917E-03-1.06457E-03-6.28372E-14
 -1      3884 9.20597E-03-1.15472E-03-6.77392E-14
 -1      3885 9.34860E-03-1.17760E-03-6.98699E-14
 -1      3886 9.13404E-03-1.11032E-03-6.69895E-14
 -1      3887 9.49128E-03-1.20042E-03-7.20244E-14
 -1      3888 9.63402E-03-1.22319E-03-7.42070E-14
 -1      3889 9.41925E-03-1.15588E-03-7.12529E-14
 -1      3890 9.77680E-03-1.24592E-03-7.64178E-14
 -1      3891 9.91961E-03-1.26861E-03-7.86510E-14
 -1      3892 9.70469E-03-1.20129E-03-7.56250E-14
 -1      3893 1.00624E-02-1.29126E-03-8.09141E-14
 -1      3894 1.02053E-02-1.31389E-03-8.32041E-14
 -1      3895 9.99030E-03-1.24656E-03-8.01044E-14
 -1      3896 1.03482E-02-1.33649E-03-8.55194E-14
 -1      3897 1.04911E-02-1.35906E-03-8.78608E-14
 -1      3898 1.02760E-02-1.29174E-03-8.46894E-14
 -1      3899 1.06340E-02-1.38161E-03-9.02276E-14
 -1      3900 1.07769E-02-1.40415E-03-9.26194E-14
 -1      3901 1.05618E-02-1.33683E-03-8.93800E-14
 -1      3902 1.09198E-02-1.42667E-03-9.50348E-14
 -1      3903 1.10627E-02-1.44918E-03-9.74750E-14
 -1      3904 1.08476E-02-1.38187E-03-9.41712E-14
 -1      3905 1.12056E-02-1.47168E-03-9.99383E-14
 -1      3906 1.13485E-02-1.49417E-03-1.02423E-13
 -1      3907 1.11334E-02-1.42686E-03-9.90581E-14
 -1      3908 1.14914E-02-1.51665E-03-1.04926E-13
 -1      3909 1.16343E-02-1.53912E-03-1.07451E-13
 -1      3910 1.14192E-02-1.47183E-03-1.04033E-13
 -1      3911 1.17772E-02-1.56159E-03-1.09997E-13
 -1      3912 1.19201E-02-1.58405E-03-1.12563E-13
 -1      3913 1.17050E-02-1.51676E-03-1.09090E-13
 -1      3914 1.20630E-02-1.60651E-03-1.15145E-13
 -1      3915 1.22059E-02-1.62897E-03-1.17747E-13
 -1      3916 1.19908E-02-1.56169E-03-1.14226E-13
 -1      3917 1.23488E-02-1.65142E-03-1.20370E-13
 -1      3918 1.24917E-02-1.67388E-03-1.23010E-13
 -1      3919 1.22766E-02-1.60660E-03-1.19437E-13
 -1      3920 1.26345E-02-1.69633E-03-1.25667E-13
 -1      3921 1.27774E-02-1.71878E-03-1.28343E-13
 -1      3922 1.25624E-02-1.65151E-03-1.24723E-13
 -1      3923 1.29203E-02-1.74123E-03-1.31038E-13
 -1      3924 1.30632E-02-1.76368E-03-1.33748E-13
 -1      3925 1.28482E-02-1.69641E-03-1.30081E-13
 -1      3926 1.32061E-02-1.78613E-03-1.36476E-13
 -1      3927 1.33489E-02-1.80858E-03-1.39220E-13
 -1      3928 1.31339E-02-1.74131E-03-1.35508E-13
 -1      3929 6.53466E-03-4.38518E-04-3.49506E-14
 -1      3930 6.39645E-03-4.19365E-04-3.33579E-14
 -1      3931 6.81239E-03-4.77487E-04-3.82261E-14
 -1      3932 6.67330E-03-4.57903E-04-3.65734E-14
 -1      3933 6.62774E-03-4.81027E-04-3.57811E-14
 -1      3934 7.09176E-03-5.17299E-04-4.16230E-14
 -1      3935 6.95188E-03-4.97297E-04-3.99093E-14
 -1      3936 6.90467E-03-5.20831E-04-3.90864E-14
 -1      3937 7.37258E-03-5.57907E-04-4.51363E-14
 -1      3938 7.23200E-03-5.37513E-04-4.33655E-14
 -1      3939 7.18351E-03-5.61466E-04-4.25121E-14
 -1      3940 7.65459E-03-5.99241E-04-4.87655E-14
 -1      3941 7.51344E-03-5.78492E-04-4.69356E-14
 -1      3942 7.46397E-03-6.02836E-04-4.60540E-14
 -1      3943 7.93759E-03-6.41223E-04-5.25090E-14
 -1      3944 7.79598E-03-6.20159E-04-5.06223E-14
 -1      3945 7.74575E-03-6.44848E-04-4.97116E-14
 -1      3946 8.22136E-03-6.83773E-04-5.63687E-14
 -1      3947 8.07939E-03-6.62434E-04-5.44256E-14
 -1      3948 8.02859E-03-6.87415E-04-5.34851E-14
 -1      3949 8.50574E-03-7.26808E-04-6.03405E-14
 -1      3950 8.36348E-03-7.05236E-04-5.83402E-14
 -1      3951 8.31227E-03-7.30456E-04-5.73739E-14
 -1      3952 8.79056E-03-7.70253E-04-6.44267E-14
 -1      3953 8.64810E-03-7.48485E-04-6.23699E-14
 -1      3954 8.59659E-03-7.73894E-04-6.13755E-14
 -1      3955 9.07572E-03-8.14035E-04-6.86199E-14
 -1      3956 8.93311E-03-7.92106E-04-6.65101E-14
 -1      3957 8.88139E-03-8.17663E-04-6.54860E-14
 -1      3958 9.36112E-03-8.58091E-04-7.29251E-14
 -1      3959 9.21840E-03-8.36033E-04-7.07589E-14
 -1      3960 9.16653E-03-8.61700E-04-6.97071E-14
 -1      3961 9.64668E-03-9.02367E-04-7.73458E-14
 -1      3962 9.50388E-03-8.80205E-04-7.51196E-14
 -1      3963 9.45192E-03-9.05954E-04-7.40399E-14
 -1      3964 9.93235E-03-9.46814E-04-8.18740E-14
 -1      3965 9.78951E-03-9.24571E-04-7.95973E-14
 -1      3966 9.73749E-03-9.50380E-04-7.84853E-14
 -1      3967 1.02181E-02-9.91395E-04-8.65156E-14
 -1      3968 1.00752E-02-9.69090E-04-8.41811E-14
 -1      3969 1.00232E-02-9.94939E-04-8.30405E-14
 -1      3970 1.05039E-02-1.03608E-03-9.12617E-14
 -1      3971 1.03610E-02-1.01373E-03-8.88762E-14
 -1      3972 1.03089E-02-1.03960E-03-8.77060E-14
 -1      3973 1.07897E-02-1.08084E-03-9.61055E-14
 -1      3974 1.06468E-02-1.05845E-03-9.36721E-14
 -1      3975 1.05947E-02-1.08434E-03-9.24765E-14
 -1      3976 1.10755E-02-1.12565E-03-1.01040E-13
 -1      3977 1.09326E-02-1.10324E-03-9.85615E-14
 -1      3978 1.08805E-02-1.12914E-03-9.73409E-14
 -1      3979 1.13613E-02-1.17050E-03-1.06061E-13
 -1      3980 1.12184E-02-1.14807E-03-1.03540E-13
 -1      3981 1.11663E-02-1.17398E-03-1.02296E-13
 -1      3982 1.16471E-02-1.21538E-03-1.11163E-13
 -1      3983 1.15042E-02-1.19294E-03-1.08601E-13
 -1      3984 1.14521E-02-1.21885E-03-1.07334E-13
 -1      3985 1.19329E-02-1.26028E-03-1.16347E-13
 -1      3986 1.17900E-02-1.23783E-03-1.13746E-13
 -1      3987 1.17379E-02-1.26374E-03-1.12454E-13
 -1      3988 1.22187E-02-1.30519E-03-1.21613E-13
 -1      3989 1.20758E-02-1.28274E-03-1.18972E-13
 -1      3990 1.20237E-02-1.30864E-03-1.17656E-13
 -1      3991 1.25044E-02-1.35011E-03-1.26954E-13
 -1      3992 1.23615E-02-1.32765E-03-1.24273E-13
 -1      3993 1.23095E-02-1.35356E-03-1.22939E-13
 -1      3994 1.27902E-02-1.39503E-03-1.32366E-13
 -1      3995 1.26473E-02-1.37257E-03-1.29651E-13
 -1      3996 1.25953E-02-1.39847E-03-1.28294E-13
 -1      3997 1.30759E-02-1.43996E-03-1.37843E-13
 -1      3998 1.29330E-02-1.41749E-03-1.35097E-13
 -1      3999 1.28810E-02-1.44339E-03-1.33719E-13
 -1      4000 1.32766E-02-1.47995E-03-1.41632E-13
 -1      4001 1.31675E-02-1.45869E-03-1.39563E-13
 -1      4002 1.31155E-02-1.48459E-03-1.38170E-13
 -1      4003 1.32986E-02-1.52206E-03-1.41613E-13
 -1      4004 5.71217E-03-3.26767E-04-2.58574E-14
 -1      4005 5.57634E-03-3.08810E-04-2.44513E-14
 -1      4006 1.36092E-02-1.77194E-03-1.45240E-13
 -1      4007 5.44076E-03-2.90984E-04-2.30779E-14
 -1      4008 5.30504E-03-2.73224E-04-2.17384E-14
 -1      4009 5.54312E-03-3.32064E-04-2.37872E-14
 -1      4010 1.35086E-02-1.79955E-03-1.42738E-13
 -1      4011 6.25873E-03-4.00415E-04-3.17956E-14
 -1      4012 6.12144E-03-3.81702E-04-3.02643E-14
 -1      4013 6.35298E-03-4.42137E-04-3.25966E-14
 -1      4014 5.98464E-03-3.63189E-04-2.87637E-14
 -1      4015 5.84820E-03-3.44889E-04-2.72947E-14
 -1      4016 6.08062E-03-4.04290E-04-2.95355E-14
 -1      4017 1.33774E-02-1.73615E-03-1.40725E-13
 -1      4018 5.81072E-03-3.67576E-04-2.65982E-14
 -1      4019 5.27722E-03-2.97837E-04-2.11056E-14
 -1      4020 4.49672E-03-1.19734E-04-1.51343E-14
 -1      4021 4.90449E-03-3.11516E-04-1.65305E-14
 -1      4022 4.98772E-03-3.35903E-04-1.70422E-14
 -1      4023 4.50027E-03-1.51592E-04-1.47921E-14
 -1      4024 4.66012E-03-1.90828E-04-1.58595E-14
 -1      4025 4.85547E-03-2.76940E-04-1.66145E-14
 -1      4026 1.33427E-02-1.60620E-03-1.41562E-13
 -1      4027 1.33207E-02-1.56413E-03-1.41588E-13
 -1      4028 1.32291E-02-1.54539E-03-1.39867E-13
 -1      4029 5.00959E-03-3.88593E-04-1.61603E-14
 -1      4030 5.06685E-03-4.11926E-04-1.65838E-14
 -1      4031 5.17245E-03-4.28768E-04-1.77876E-14
 -1      4032 5.04783E-03-3.79183E-04-1.69042E-14
 -1      4033 5.28320E-03-4.45873E-04-1.90230E-14
 -1      4034 5.39798E-03-4.64176E-04-2.02922E-14
 -1      4035 5.22390E-03-4.19516E-04-1.85696E-14
 -1      4036 4.89508E-03-2.19369E-04-1.79152E-14
 -1      4037 4.75577E-03-2.00174E-04-1.67105E-14
 -1      4038 5.51630E-03-4.82883E-04-2.15941E-14
 -1      4039 5.63764E-03-5.02551E-04-2.29277E-14
 -1      4040 5.45501E-03-4.53806E-04-2.11165E-14
 -1      4041 5.76158E-03-5.22752E-04-2.42943E-14
 -1      4042 5.88772E-03-5.43599E-04-2.56937E-14
 -1      4043 5.69845E-03-4.91273E-04-2.37942E-14
 -1      4044 6.01587E-03-5.64827E-04-2.71249E-14
 -1      4045 6.14572E-03-5.86587E-04-2.85859E-14
 -1      4046 5.95121E-03-5.31344E-04-2.66000E-14
 -1      4047 6.27712E-03-6.08620E-04-3.00778E-14
 -1      4048 6.40989E-03-6.31015E-04-3.16014E-14
 -1      4049 6.21113E-03-5.73433E-04-2.95321E-14
 -1      4050 6.54388E-03-6.53610E-04-3.31561E-14
 -1      4051 6.67895E-03-6.76415E-04-3.47404E-14
 -1      4052 6.47671E-03-6.16913E-04-3.25865E-14
 -1      4053 6.81498E-03-6.99333E-04-3.63558E-14
 -1      4054 6.95187E-03-7.22384E-04-3.80024E-14
 -1      4055 6.74682E-03-6.61376E-04-3.57650E-14
 -1      4056 7.08954E-03-7.45473E-04-3.96797E-14
 -1      4057 7.22789E-03-7.68624E-04-4.13860E-14
 -1      4058 7.02051E-03-7.06421E-04-3.90652E-14
 -1      4059 7.36685E-03-7.91775E-04-4.31225E-14
 -1      4060 7.50636E-03-8.14940E-04-4.48895E-14
 -1      4061 7.29712E-03-7.51809E-04-4.24879E-14
 -1      4062 7.64634E-03-8.38078E-04-4.66847E-14
 -1      4063 7.78673E-03-8.61200E-04-4.85082E-14
 -1      4064 7.57603E-03-7.97358E-04-4.60280E-14
 -1      4065 7.92750E-03-8.84281E-04-5.03627E-14
 -1      4066 8.06859E-03-9.07333E-04-5.22475E-14
 -1      4067 7.85673E-03-8.42950E-04-4.96846E-14
 -1      4068 8.20996E-03-9.30334E-04-5.41605E-14
 -1      4069 8.35158E-03-9.53298E-04-5.61013E-14
 -1      4070 8.13884E-03-8.88504E-04-5.34589E-14
 -1      4071 8.49341E-03-9.76213E-04-5.80706E-14
 -1      4072 8.63542E-03-9.99090E-04-6.00691E-14
 -1      4073 8.42202E-03-9.33997E-04-5.73481E-14
 -1      4074 8.77758E-03-1.02192E-03-6.20955E-14
 -1      4075 8.91989E-03-1.04472E-03-6.41463E-14
 -1      4076 8.70600E-03-9.79406E-04-6.13501E-14
 -1      4077 9.06230E-03-1.06747E-03-6.62265E-14
 -1      4078 9.20481E-03-1.09019E-03-6.83346E-14
 -1      4079 8.99057E-03-1.02472E-03-6.54618E-14
 -1      4080 9.34740E-03-1.11288E-03-7.04672E-14
 -1      4081 9.49006E-03-1.13554E-03-7.26290E-14
 -1      4082 9.27557E-03-1.06996E-03-6.96818E-14
 -1      4083 9.63277E-03-1.15818E-03-7.48202E-14
 -1      4084 9.77554E-03-1.18078E-03-7.70370E-14
 -1      4085 9.56087E-03-1.11512E-03-7.40122E-14
 -1      4086 9.91833E-03-1.20337E-03-7.92801E-14
 -1      4087 1.00612E-02-1.22594E-03-8.15503E-14
 -1      4088 9.84639E-03-1.16022E-03-7.84534E-14
 -1      4089 1.02040E-02-1.24849E-03-8.38448E-14
 -1      4090 1.03469E-02-1.27103E-03-8.61672E-14
 -1      4091 1.01320E-02-1.20527E-03-8.29990E-14
 -1      4092 1.04898E-02-1.29355E-03-8.85180E-14
 -1      4093 1.06327E-02-1.31606E-03-9.08930E-14
 -1      4094 1.04178E-02-1.25028E-03-8.76522E-14
 -1      4095 1.07756E-02-1.33856E-03-9.32908E-14
 -1      4096 1.09185E-02-1.36105E-03-9.57148E-14
 -1      4097 1.07036E-02-1.29526E-03-9.24101E-14
 -1      4098 1.10614E-02-1.38354E-03-9.81621E-14
 -1      4099 1.12043E-02-1.40602E-03-1.00632E-13
 -1      4100 1.09894E-02-1.34022E-03-9.72647E-14
 -1      4101 1.13472E-02-1.42849E-03-1.03123E-13
 -1      4102 1.14901E-02-1.45096E-03-1.05634E-13
 -1      4103 1.12752E-02-1.38516E-03-1.02209E-13
 -1      4104 1.16330E-02-1.47342E-03-1.08167E-13
 -1      4105 1.17759E-02-1.49589E-03-1.10719E-13
 -1      4106 1.15610E-02-1.43008E-03-1.07241E-13
 -1      4107 1.19188E-02-1.51835E-03-1.13290E-13
 -1      4108 1.20617E-02-1.54080E-03-1.15879E-13
 -1      4109 1.18469E-02-1.47500E-03-1.12350E-13
 -1      4110 1.22046E-02-1.56326E-03-1.18487E-13
 -1      4111 1.23475E-02-1.58571E-03-1.21116E-13
 -1      4112 1.21327E-02-1.51992E-03-1.17535E-13
 -1      4113 1.24904E-02-1.60817E-03-1.23762E-13
 -1      4114 1.26333E-02-1.63062E-03-1.26426E-13
 -1      4115 1.24185E-02-1.56483E-03-1.22798E-13
 -1      4116 1.27762E-02-1.65307E-03-1.29107E-13
 -1      4117 1.29191E-02-1.67553E-03-1.31808E-13
 -1      4118 1.27042E-02-1.60974E-03-1.28133E-13
 -1      4119 1.30620E-02-1.69798E-03-1.34523E-13
 -1      4120 1.32048E-02-1.72043E-03-1.37258E-13
 -1      4121 1.29900E-02-1.65464E-03-1.33536E-13
 -1      4122 6.99610E-03-5.64219E-04-3.99474E-14
 -1      4123 6.85759E-03-5.43748E-04-3.82653E-14
 -1      4124 1.33055E-02-1.69281E-03-1.39725E-13
 -1      4125 6.71966E-03-5.23473E-04-3.66120E-14
 -1      4126 6.58233E-03-5.03441E-04-3.49901E-14
 -1      4127 6.81051E-03-5.66014E-04-3.74447E-14
 -1      4128 7.55492E-03-6.47889E-04-4.69725E-14
 -1      4129 7.41458E-03-6.26741E-04-4.51722E-14
 -1      4130 7.83660E-03-6.90584E-04-5.06594E-14
 -1      4131 7.69560E-03-6.69177E-04-4.88015E-14
 -1      4132 7.64549E-03-6.93127E-04-4.78918E-14
 -1      4133 8.11940E-03-7.33728E-04-5.44629E-14
 -1      4134 7.97788E-03-7.12110E-04-5.25468E-14
 -1      4135 7.92720E-03-7.36502E-04-5.16083E-14
 -1      4136 8.40306E-03-7.77248E-04-5.83792E-14
 -1      4137 8.26113E-03-7.55448E-04-5.64075E-14
 -1      4138 8.21004E-03-7.80197E-04-5.54395E-14
 -1      4139 8.68737E-03-8.21074E-04-6.24080E-14
 -1      4140 8.54514E-03-7.99128E-04-6.03791E-14
 -1      4141 8.49373E-03-8.24174E-04-5.93856E-14
 -1      4142 8.97217E-03-8.65152E-04-6.65458E-14
 -1      4143 8.82972E-03-8.43086E-04-6.44641E-14
 -1      4144 8.77809E-03-8.68365E-04-6.34415E-14
 -1      4145 9.25732E-03-9.09430E-04-7.07939E-14
 -1      4146 9.11471E-03-8.87269E-04-6.86556E-14
 -1      4147 9.06292E-03-9.12728E-04-6.76061E-14
 -1      4148 9.54272E-03-9.53868E-04-7.51544E-14
 -1      4149 9.40000E-03-9.31631E-04-7.29600E-14
 -1      4150 9.34810E-03-9.57228E-04-7.18817E-14
 -1      4151 9.82830E-03-9.98432E-04-7.96249E-14
 -1      4152 9.68549E-03-9.76136E-04-7.73760E-14
 -1      4153 9.63353E-03-1.00184E-03-7.62685E-14
 -1      4154 1.01140E-02-1.04309E-03-8.42064E-14
 -1      4155 9.97113E-03-1.02075E-03-8.19019E-14
 -1      4156 9.91913E-03-1.04653E-03-8.07659E-14
 -1      4157 1.03997E-02-1.08783E-03-8.88986E-14
 -1      4158 1.02569E-02-1.06545E-03-8.65403E-14
 -1      4159 1.02048E-02-1.09128E-03-8.53740E-14
 -1      4160 1.06855E-02-1.13262E-03-9.36905E-14
 -1      4161 1.05426E-02-1.11022E-03-9.12817E-14
 -1      4162 1.04906E-02-1.13608E-03-9.00899E-14
 -1      4163 1.09714E-02-1.17745E-03-9.85748E-14
 -1      4164 1.08285E-02-1.15503E-03-9.61216E-14
 -1      4165 1.07764E-02-1.18092E-03-9.49033E-14
 -1      4166 1.12572E-02-1.22232E-03-1.03549E-13
 -1      4167 1.11143E-02-1.19988E-03-1.01051E-13
 -1      4168 1.10622E-02-1.22578E-03-9.98084E-14
 -1      4169 1.15430E-02-1.26720E-03-1.08606E-13
 -1      4170 1.14001E-02-1.24476E-03-1.06067E-13
 -1      4171 1.13481E-02-1.27066E-03-1.04801E-13
 -1      4172 1.18288E-02-1.31210E-03-1.13745E-13
 -1      4173 1.16859E-02-1.28965E-03-1.11166E-13
 -1      4174 1.16339E-02-1.31556E-03-1.09880E-13
 -1      4175 1.21146E-02-1.35701E-03-1.18966E-13
 -1      4176 1.19717E-02-1.33455E-03-1.16345E-13
 -1      4177 1.19197E-02-1.36046E-03-1.15035E-13
 -1      4178 1.24004E-02-1.40192E-03-1.24262E-13
 -1      4179 1.22575E-02-1.37946E-03-1.21606E-13
 -1      4180 1.22055E-02-1.40537E-03-1.20273E-13
 -1      4181 1.26862E-02-1.44684E-03-1.29631E-13
 -1      4182 1.25433E-02-1.42438E-03-1.26936E-13
 -1      4183 1.24913E-02-1.45028E-03-1.25584E-13
 -1      4184 1.29719E-02-1.49176E-03-1.35068E-13
 -1      4185 1.28290E-02-1.46930E-03-1.32342E-13
 -1      4186 1.27770E-02-1.49520E-03-1.30965E-13
 -1      4187 5.38070E-03-3.37431E-04-2.17834E-14
 -1      4188 5.25111E-03-3.21223E-04-2.04755E-14
 -1      4189 5.90655E-03-4.07412E-04-2.73400E-14
 -1      4190 5.77379E-03-3.89281E-04-2.59031E-14
 -1      4191 5.64194E-03-3.71495E-04-2.44969E-14
 -1      4192 5.51085E-03-3.54203E-04-2.31244E-14
 -1      4193 5.73719E-03-4.09934E-04-2.52092E-14
 -1      4194 1.33646E-02-1.64800E-03-1.41524E-13
 -1      4195 5.01161E-03-2.64597E-04-1.85574E-14
 -1      4196 6.44568E-03-4.83620E-04-3.33988E-14
 -1      4197 6.30972E-03-4.64102E-04-3.18378E-14
 -1      4198 6.53695E-03-5.25109E-04-3.42007E-14
 -1      4199 7.27465E-03-6.05733E-04-4.34016E-14
 -1      4200 7.13513E-03-5.84894E-04-4.16596E-14
 -1      4201 7.08676E-03-6.07769E-04-4.08090E-14
 -1      4202 7.36523E-03-6.50185E-04-4.42912E-14
 -1      4203 6.17454E-03-4.44863E-04-3.03079E-14
 -1      4204 6.04011E-03-4.25978E-04-2.88081E-14
 -1      4205 6.26649E-03-4.85226E-04-3.10808E-14
 -1      4206 1.31920E-02-1.63228E-03-1.38053E-13
 -1      4207 1.30418E-02-1.62154E-03-1.35018E-13
 -1      4208 1.31010E-02-1.57673E-03-1.36792E-13
 -1      4209 5.99973E-03-4.46717E-04-2.80827E-14
 -1      4210 5.17693E-03-3.36911E-04-1.93499E-14
 -1      4211 5.07129E-03-2.98978E-04-1.87105E-14
 -1      4212 5.47931E-03-3.75167E-04-2.24624E-14
 -1      4213 4.78685E-03-2.39989E-04-1.64695E-14
 -1      4214 5.29887E-03-3.75094E-04-2.02318E-14
 -1      4215 5.12991E-03-3.54135E-04-1.84765E-14
 -1      4216 4.94281E-03-2.83737E-04-1.74830E-14
 -1      4217 5.10759E-03-3.70830E-04-1.78753E-14
 -1      4218 5.18013E-03-3.97600E-04-1.83327E-14
 -1      4219 8.30053E-03-8.26833E-04-5.64180E-14
 -1      4220 8.15894E-03-8.04696E-04-5.44736E-14
 -1      4221 6.09041E-03-4.85713E-04-2.88257E-14
 -1      4222 5.95903E-03-4.66427E-04-2.73583E-14
 -1      4223 1.30855E-02-1.55256E-03-1.36749E-13
 -1      4224 1.30635E-02-1.51049E-03-1.36777E-13
 -1      4225 5.61547E-03-4.56233E-04-2.31238E-14
 -1      4226 5.74034E-03-4.74965E-04-2.44953E-14
 -1      4227 5.93534E-03-5.08317E-04-2.66197E-14
 -1      4228 6.06472E-03-5.28548E-04-2.80714E-14
 -1      4229 6.19564E-03-5.49252E-04-2.95527E-14
 -1      4230 6.39066E-03-5.76223E-04-3.18250E-14
 -1      4231 6.52470E-03-5.97620E-04-3.33843E-14
 -1      4232 6.64366E-03-5.93020E-04-3.49911E-14
 -1      4233 6.77985E-03-6.14422E-04-3.66111E-14
 -1      4234 6.91684E-03-6.35955E-04-3.82621E-14
 -1      4235 7.05454E-03-6.57687E-04-3.99447E-14
 -1      4236 7.19290E-03-6.79513E-04-4.16551E-14
 -1      4237 7.33184E-03-7.01478E-04-4.33969E-14
 -1      4238 7.47131E-03-7.23507E-04-4.51668E-14
 -1      4239 7.61124E-03-7.45632E-04-4.69669E-14
 -1      4240 7.75159E-03-7.67798E-04-4.87957E-14
 -1      4241 7.89231E-03-7.90032E-04-5.06534E-14
 -1      4242 8.12338E-03-8.58711E-04-5.34853E-14
 -1      4243 8.26483E-03-8.81273E-04-5.54166E-14
 -1      4244 8.40652E-03-9.03828E-04-5.73744E-14
 -1      4245 8.61557E-03-9.32054E-04-6.03535E-14
 -1      4246 8.75770E-03-9.54573E-04-6.23829E-14
 -1      4247 8.88438E-03-9.46430E-04-6.44592E-14
 -1      4248 9.02677E-03-9.68840E-04-6.65422E-14
 -1      4249 9.16927E-03-9.91255E-04-6.86527E-14
 -1      4250 9.31184E-03-1.01368E-03-7.07880E-14
 -1      4251 9.45449E-03-1.03611E-03-7.29541E-14
 -1      4252 9.59719E-03-1.05854E-03-7.51480E-14
 -1      4253 9.73995E-03-1.08098E-03-7.73671E-14
 -1      4254 9.88274E-03-1.10342E-03-7.96152E-14
 -1      4255 1.00256E-02-1.12586E-03-8.18901E-14
 -1      4256 1.01684E-02-1.14831E-03-8.41904E-14
 -1      4257 1.03113E-02-1.17075E-03-8.65203E-14
 -1      4258 1.04542E-02-1.19320E-03-8.88778E-14
 -1      4259 1.05971E-02-1.21565E-03-9.12575E-14
 -1      4260 1.07400E-02-1.23810E-03-9.36619E-14
 -1      4261 1.08829E-02-1.26056E-03-9.60902E-14
 -1      4262 1.10258E-02-1.28301E-03-9.85428E-14
 -1      4263 1.11687E-02-1.30546E-03-1.01016E-13
 -1      4264 1.13116E-02-1.32791E-03-1.03511E-13
 -1      4265 1.14545E-02-1.35037E-03-1.06029E-13
 -1      4266 1.15974E-02-1.37282E-03-1.08566E-13
 -1      4267 1.17403E-02-1.39528E-03-1.11122E-13
 -1      4268 1.18833E-02-1.41773E-03-1.13697E-13
 -1      4269 1.20262E-02-1.44019E-03-1.16293E-13
 -1      4270 1.21691E-02-1.46264E-03-1.18908E-13
 -1      4271 1.23120E-02-1.48510E-03-1.21542E-13
 -1      4272 1.24548E-02-1.50756E-03-1.24194E-13
 -1      4273 1.25977E-02-1.53001E-03-1.26863E-13
 -1      4274 1.27406E-02-1.55247E-03-1.29552E-13
 -1      4275 1.28990E-02-1.59909E-03-1.32296E-13
 -1      4276 6.41964E-03-5.31008E-04-3.26196E-14
 -1      4277 6.28538E-03-5.10821E-04-3.10747E-14
 -1      4278 1.29354E-02-1.54182E-03-1.33726E-13
 -1      4279 8.65153E-03-8.76744E-04-6.13882E-14
 -1      4280 8.50946E-03-8.54536E-04-5.93751E-14
 -1      4281 8.79376E-03-8.98985E-04-6.34309E-14
 -1      4282 5.63159E-03-4.16086E-04-2.38173E-14
 -1      4283 5.50496E-03-3.98846E-04-2.24606E-14
 -1      4284 5.44644E-03-4.13399E-04-2.15256E-14
 -1      4285 5.29435E-03-4.13205E-04-1.95830E-14
 -1      4286 6.55486E-03-5.51470E-04-3.41938E-14
 -1      4287 5.75973E-03-4.34002E-04-2.52062E-14
 -1      4288 5.84903E-03-4.71163E-04-2.59129E-14
 -1      4289 5.41217E-03-4.29994E-04-2.08663E-14
 -1      4290 8.45801E-03-8.79279E-04-5.83755E-14
 -1      4291 6.24096E-03-5.30449E-04-3.03137E-14
 -1      4292 8.01758E-03-7.82612E-04-5.25577E-14
 -1      4293 1.27925E-02-1.51937E-03-1.31010E-13
 -3
    1PSTEP                         2           1           1          
  100CL  101 1.000000000        4293                     0    1           1
 -4  STRESS      6    1
 -5  SXX         1    4    1    1
 -5  SYY         1    4    2    2
 -5  SZZ         1    4    3    3
 -5  SXY         1    4    1    2
 -5  SYZ         1    4    2    3
 -5  SZX         1    4    3    1
 -1         1 6.61119E+01 8.44094E-01 3.67979E+00 9.90798E-02-7.10161E-14-1.04571E-12
 -1         2-6.74290E-01-2.17914E+01-3.28623E+00-7.53201E-02 3.97666E-13 1.17049E-13
 -1         3 1.99998E+01 6.31050E-06-2.94552E-05 6.46488E-06-5.72261E-13-4.51721E-13
 -1         4 1.99998E+01 6.00994E-06-2.98620E-05-6.27464E-06 3.22135E-13-1.07975E-13
 -1         5 3.96334E+01 7.44605E+00 3.33955E+00 7.42131E+00-3.72063E-14 3.46151E-12
 -1         6 4.70401E+01 1.60310E+01 6.39631E+00-1.06041E+01-2.03337E-13 3.56101E-12
 -1         7 2.78105E+01 8.09012E+00-2.11257E-02-4.84962E+00-2.78111E-14 8.48384E-13
 -1         8 2.44924E+01 7.36956E+00 1.67130E-01-2.41473E+00-3.05034E-14-1.16122E-14
 -1         9 2.15573E+01 6.49860E+00 1.62806E-01-9.31061E-01-2.33702E-14-4.82695E-13
 -1        10 1.84787E+01 5.58003E+00 1.19023E-01 1.94798E-01-9.29812E-15-7.34736E-13
 -1        11 1.51909E+01 4.61160E+00-2.02207E-03 7.77373E-01-4.85723E-16-8.80776E-13
 -1        12 1.22985E+01 3.76087E+00-1.58974E-01 6.02637E-01-2.08167E-16-9.61413E-13
 -1        13 1.06138E+01 3.26744E+00-2.59513E-01-2.60451E-01-5.90500E-15-1.00490E-12
 -1        14 1.07300E+01 3.29615E+00-2.36969E-01-1.27462E+00-1.27537E-14-1.01446E-12
 -1        15 1.25177E+01 3.81214E+00-9.93632E-02-1.94284E+00-1.74999E-14-1.01121E-12
 -1        16 1.51528E+01 4.57799E+00 6.27270E-02-1.84790E+00-1.51684E-14-9.83453E-13
 -1        17 1.77038E+01 5.32500E+00 1.68588E-01-1.05824E+00-1.09218E-14-9.48978E-13
 -1        18 1.96646E+01 5.90686E+00 1.98725E-01 1.14619E-01 3.63598E-15-9.07454E-13
 -1        19 2.09970E+01 6.31198E+00 1.75269E-01 1.37485E+00 1.65076E-14-8.23450E-13
 -1        20 2.19558E+01 6.61503E+00 1.26005E-01 2.57199E+00 3.02536E-14-6.06213E-13
 -1        21 2.29943E+01 6.95370E+00 7.69510E-02 3.73983E+00 3.99680E-14-1.40294E-13
 -1        22 2.51861E+01 7.58687E+00 1.54564E-01 5.27851E+00 1.41970E-14 8.91610E-13
 -1        23 3.29233E+01-1.84182E+00-1.14036E+00-7.06113E-01-1.44600E-13 2.87870E-12
 -1        24 2.89596E+01-7.22620E-02-2.44904E-01 8.42241E-02-2.00530E-14 2.34961E-12
 -1        25 2.72599E+01-1.39904E-02 4.94458E-02-1.08181E-02-3.21849E-14 1.85110E-12
 -1        26 2.48765E+01 4.13908E-03 7.31513E-02-1.23784E-01 1.53381E-14 1.47705E-12
 -1        27 2.19534E+01-2.66389E-02-2.84303E-02-1.69599E-01-1.51216E-14 1.20562E-12
 -1        28 1.94238E+01-6.48341E-02-1.54265E-01-1.16030E-01-2.14091E-14 9.30669E-13
 -1        29 1.84280E+01-7.81537E-02-2.02898E-01 2.01922E-02 1.86856E-14 4.97094E-13
 -1        30 1.93962E+01-5.32898E-02-1.32034E-01 1.45876E-01-2.02260E-14 2.56302E-13
 -1        31 2.16439E+01-7.74340E-03-6.19193E-03 1.82116E-01-2.32092E-15-3.99819E-14
 -1        32 2.39646E+01 2.92223E-02 8.33513E-02 1.35398E-01-5.81028E-14-2.23564E-13
 -1        33 2.54890E+01 4.26279E-02 1.03481E-01 6.22933E-02 1.15355E-13-2.34479E-13
 -1        34 2.60002E+01 3.67322E-02 7.81175E-02 5.78289E-03-1.54549E-14-1.44602E-13
 -1        35 2.57213E+01 2.28802E-02 4.17059E-02-2.30899E-02 1.35890E-14-2.69667E-13
 -1        36 2.49982E+01 9.57786E-03 1.31883E-02-3.13709E-02-1.78021E-14-2.98253E-13
 -1        37 2.41154E+01 2.73740E-04-3.26262E-03-2.90355E-02-1.87430E-14-3.40264E-13
 -1        38 2.32488E+01-4.93140E-03-1.04442E-02-2.29721E-02-3.45047E-16-2.72949E-13
 -1        39 2.24845E+01-7.13640E-03-1.22086E-02-1.66527E-02-4.37208E-14-2.71474E-13
 -1        40 2.18512E+01-7.52147E-03-1.13868E-02-1.13843E-02-1.57032E-14-3.30900E-13
 -1        41 2.13476E+01-6.96420E-03-9.61744E-03-7.41909E-03-9.26331E-15-6.25581E-13
 -1        42 2.09583E+01-6.01281E-03-7.70307E-03-4.60175E-03-4.02380E-14-7.29203E-13
 -1        43 2.06642E+01-4.97167E-03-5.97572E-03-2.67406E-03 2.50981E-14-5.90910E-13
 -1        44 2.04463E+01-3.99134E-03-4.53660E-03-1.39392E-03-4.07283E-15-1.47635E-13
 -1        45 2.02879E+01-3.13446E-03-3.38663E-03-5.68903E-04-2.32171E-14-1.23147E-13
 -1        46 2.01751E+01-2.41739E-03-2.48997E-03-5.68956E-05-2.63239E-14-1.52580E-13
 -1        47 2.00965E+01-1.83419E-03-1.80213E-03 2.43374E-04-1.56505E-14 2.28931E-13
 -1        48 2.00434E+01-1.36959E-03-1.28118E-03 4.02775E-04 1.85273E-14 5.75923E-13
 -1        49 2.00089E+01-1.00557E-03-8.91251E-04 4.70444E-04 5.65114E-14 2.61461E-13
 -1        50 1.99876E+01-7.24562E-04-6.03037E-04 4.80244E-04-3.40769E-14-3.10927E-13
 -1        51 1.99756E+01-5.10732E-04-3.93049E-04 4.55368E-04 8.55421E-15-2.33726E-13
 -1        52 1.99700E+01-3.50421E-04-2.42668E-04 4.11525E-04-3.30418E-14 4.92180E-14
 -1        53 1.99685E+01-2.32158E-04-1.37224E-04 3.59152E-04-5.85574E-14 2.21151E-13
 -1        54 1.99696E+01-1.46489E-04-6.52481E-05 3.04966E-04 5.25982E-14 1.38945E-13
 -1        55 1.99722E+01-8.57477E-05-1.78467E-05 2.53086E-04-5.68016E-14 2.31229E-13
 -1        56 1.99756E+01-4.37986E-05 1.18083E-05 2.05843E-04 6.09763E-14-1.54766E-13
 -1        57 1.99791E+01-1.57951E-05 2.89078E-05 1.64358E-04 1.29573E-14-2.71912E-13
 -1        58 1.99826E+01 2.04414E-06 3.73528E-05 1.28961E-04 4.08182E-14-5.35517E-13
 -1        59 1.99858E+01 1.26309E-05 4.00343E-05 9.94790E-05 4.52115E-14-7.82562E-13
 -1        60 1.99887E+01 1.81762E-05 3.90595E-05 7.54479E-05-5.30142E-14-5.32162E-13
 -1        61 1.99911E+01 2.03346E-05 3.59342E-05 5.62528E-05 1.70869E-13-7.00372E-13
 -1        62 1.99931E+01 2.03247E-05 3.17110E-05 4.12262E-05 1.60877E-14-8.99062E-13
 -1        63 1.99948E+01 1.90303E-05 2.71084E-05 2.97076E-05-3.01313E-14-5.18205E-13
 -1        64 1.99962E+01 1.70839E-05 2.26099E-05 2.10775E-05-5.36921E-15-5.31951E-13
 -1        65 1.99973E+01 1.49339E-05 1.85491E-05 1.47688E-05 1.14306E-15-7.62891E-13
 -1        66 1.99981E+01 1.28993E-05 1.52008E-05 1.02547E-05 1.29904E-13-4.83019E-13
 -1        67 1.99988E+01 1.12005E-05 1.28612E-05 6.99319E-06 2.18278E-14 1.84501E-13
 -1        68 1.99993E+01 9.95410E-06 1.18570E-05 4.31400E-06 3.04492E-14 1.05248E-13
 -1        69 1.99996E+01 9.03952E-06 1.21686E-05 1.22144E-06 7.43209E-14-1.51209E-13
 -1        70 1.99998E+01 7.07269E-06 1.13228E-05-4.51027E-06-3.42744E-14 1.80911E-13
 -1        71 1.99998E+01-1.27689E-06-1.81190E-06-1.17682E-05-1.36831E-13 2.42595E-15
 -1        72 2.57010E+01-4.80724E-01-1.12765E+00-3.99086E-01 5.05707E-14 3.05701E-12
 -1        73 2.32945E+01-6.61696E-02-3.00450E-01-6.72472E-02 3.21891E-14 2.18969E-12
 -1        74 2.16791E+01-1.85137E-02-3.91535E-02 2.12321E-03 2.39993E-14 1.61493E-12
 -1        75 2.02048E+01-1.74659E-02-1.10458E-03 3.45417E-02-1.61265E-14 1.30071E-12
 -1        76 1.88854E+01-2.32493E-02-2.69413E-02 5.07809E-02 1.00193E-14 1.06707E-12
 -1        77 1.79698E+01-2.59494E-02-5.73721E-02 4.31250E-02 2.36894E-14 6.89060E-13
 -1        78 1.77151E+01-2.17950E-02-6.69958E-02 1.39012E-02-9.31200E-15 4.50910E-13
 -1        79 1.81900E+01-1.19003E-02-4.99565E-02-2.28623E-02-9.93379E-15 3.23420E-13
 -1        80 1.92107E+01-6.08010E-04-1.67746E-02-5.01323E-02 5.98306E-15 2.73791E-13
 -1        81 2.04346E+01 8.03403E-03 1.50185E-02-5.86271E-02 2.76650E-14 3.94441E-14
 -1        82 2.15277E+01 1.22268E-02 3.37595E-02-5.05791E-02-6.58002E-15-9.03409E-14
 -1        83 2.22859E+01 1.23431E-02 3.76069E-02-3.43013E-02-1.10491E-14-1.16008E-13
 -1        84 2.26575E+01 9.92085E-03 3.12571E-02-1.75686E-02 5.23816E-14-2.55521E-13
 -1        85 2.26977E+01 6.57928E-03 2.09528E-02-4.66231E-03-2.65997E-14-3.08503E-13
 -1        86 2.25069E+01 3.42313E-03 1.11039E-02 3.40211E-03 1.34785E-14-2.00384E-13
 -1        87 2.21864E+01 9.75584E-04 3.68223E-03 7.39956E-03 7.02719E-15-1.59332E-13
 -1        88 2.18158E+01-6.57660E-04-1.02847E-03 8.62808E-03-1.24663E-14-1.89051E-13
 -1        89 2.14488E+01-1.58801E-03-3.53275E-03 8.25616E-03 3.21400E-14-2.33687E-13
 -1        90 2.11162E+01-1.99839E-03-4.52135E-03 7.12005E-03 1.47275E-16-2.95948E-13
 -1        91 2.08321E+01-2.06584E-03-4.59354E-03 5.73814E-03 2.47317E-14-4.52647E-13
 -1        92 2.05999E+01-1.93126E-03-4.18067E-03 4.39403E-03-6.89735E-14-3.58180E-13
 -1        93 2.04169E+01-1.69484E-03-3.55981E-03 3.22003E-03 1.10658E-13-3.31808E-13
 -1        94 2.02771E+01-1.42193E-03-2.89355E-03 2.26023E-03-3.38581E-15-2.87267E-13
 -1        95 2.01734E+01-1.15187E-03-2.26832E-03 1.51200E-03-5.57678E-14-1.24581E-13
 -1        96 2.00988E+01-9.05945E-04-1.72368E-03 9.50982E-04 1.31002E-14-3.59796E-15
 -1        97 2.00470E+01-6.93763E-04-1.27194E-03 5.45230E-04-1.85143E-14-2.17211E-13
 -1        98 2.00125E+01-5.17750E-04-9.10728E-04 2.62559E-04 3.80905E-14-2.78621E-13
 -1        99 1.99907E+01-3.76249E-04-6.30497E-04 7.40353E-05 8.25163E-16-5.61936E-13
 -1       100 1.99781E+01-2.65518E-04-4.18947E-04-4.47366E-05 7.47076E-15-7.68767E-13
 -1       101 1.99718E+01-1.80982E-04-2.63443E-04-1.13442E-04-3.74539E-14-7.57056E-13
 -1       102 1.99699E+01-1.17987E-04-1.52281E-04-1.47418E-04 9.41432E-15-6.47489E-13
 -1       103 1.99706E+01-7.22117E-05-7.52797E-05-1.58254E-04-5.25402E-14-6.54296E-13
 -1       104 1.99729E+01-3.98674E-05-2.39641E-05-1.54460E-04-5.45555E-14-9.55780E-13
 -1       105 1.99760E+01-1.77607E-05 8.49775E-06-1.42121E-04 8.27374E-14-1.44070E-12
 -1       106 1.99795E+01-3.28175E-06 2.74722E-05-1.25459E-04-2.18148E-14-1.13089E-12
 -1       107 1.99828E+01 5.64904E-06 3.70799E-05-1.07293E-04-2.02553E-14-1.02847E-12
 -1       108 1.99860E+01 1.06519E-05 4.04169E-05-8.94226E-05-1.67433E-14-1.00517E-12
 -1       109 1.99888E+01 1.29631E-05 3.97577E-05-7.29107E-05 1.45518E-14-7.16305E-13
 -1       110 1.99912E+01 1.35073E-05 3.67345E-05-5.83150E-05-1.73439E-14-8.54847E-13
 -1       111 1.99932E+01 1.29633E-05 3.24898E-05-4.58553E-05 6.70849E-15-9.87775E-13
 -1       112 1.99949E+01 1.18209E-05 2.78034E-05-3.55367E-05-4.73551E-14-9.04897E-13
 -1       113 1.99962E+01 1.04297E-05 2.31985E-05-2.72382E-05 4.74718E-14-5.06039E-13
 -1       114 1.99973E+01 9.03916E-06 1.90357E-05-2.07702E-05 1.47212E-14-7.30112E-13
 -1       115 1.99981E+01 7.82742E-06 1.56042E-05-1.59012E-05 9.89758E-14-6.54943E-13
 -1       116 1.99988E+01 6.90113E-06 1.32107E-05-1.23328E-05 4.03831E-15-1.10893E-12
 -1       117 1.99993E+01 6.30186E-06 1.22144E-05-9.62558E-06 2.60511E-15-6.30878E-13
 -1       118 1.99996E+01 5.86601E-06 1.26034E-05-6.98275E-06 3.42287E-14-6.88952E-13
 -1       119 1.99998E+01 4.30353E-06 1.15535E-05-1.83813E-06-8.11962E-14-6.89044E-13
 -1       120 1.99998E+01-4.81177E-06-2.77622E-06 9.23436E-06 4.45474E-13-1.14050E-12
 -1       121 1.99998E+01 3.00104E-05-1.20556E-06 1.30546E-05-1.36565E-12 3.42183E-13
 -1       122 1.99998E+01-1.32789E-05 1.20007E-05 1.11137E-06-9.24359E-13-7.93700E-14
 -1       123 1.99998E+01-2.03719E-04 9.72432E-06-6.63224E-06-1.13240E-13 1.91185E-13
 -1       124 1.99998E+01-4.89506E-04 3.98481E-06-1.02696E-05-2.27087E-13 1.31356E-13
 -1       125 1.99998E+01-8.10510E-04-1.66572E-06-1.07666E-05-9.07276E-14-1.47476E-13
 -1       126 1.99998E+01-1.10459E-03-6.16633E-06-9.23953E-06-4.30921E-13-1.57235E-14
 -1       127 1.99998E+01-1.33304E-03-9.28418E-06-6.12969E-06 1.56991E-13 1.65074E-13
 -1       128 1.99998E+01-1.45578E-03-1.08891E-05-2.11545E-06 6.54105E-13-1.91299E-13
 -1       129 1.99998E+01-1.45465E-03-1.08756E-05 2.19510E-06 1.28578E-12 2.68360E-13
 -1       130 1.99998E+01-1.32980E-03-9.24498E-06 6.19231E-06 3.07558E-13-3.46486E-13
 -1       131 1.99998E+01-1.09974E-03-6.04849E-06 9.35876E-06-9.26162E-13-1.36383E-13
 -1       132 1.99998E+01-8.04885E-04-1.58884E-06 1.07894E-05-2.08443E-13 2.70247E-13
 -1       133 1.99998E+01-4.83969E-04 4.02819E-06 1.01878E-05 5.43626E-13 4.80139E-15
 -1       134 1.99998E+01-1.98276E-04 1.03150E-05 7.35350E-06 1.89177E-13-2.06450E-13
 -1       135 1.99998E+01-1.36843E-05 1.06475E-05-1.54172E-06-1.35586E-13 2.31588E-13
 -1       136 1.99998E+01 2.81105E-05-1.56506E-06-2.12279E-05-7.06896E-15 2.88952E-14
 -1       137-1.23387E+00-1.68129E+01-2.94843E+00-3.22657E+00 2.20848E-12 5.18217E-13
 -1       138-9.83259E-01-5.52992E+00-2.06770E+00-1.76517E+00 3.45196E-12 1.71832E-12
 -1       139 5.06514E+00 6.10295E+00-7.55456E-01 5.78384E+00 3.49082E-12 2.63761E-12
 -1       140 1.82810E+01 1.13689E+01 6.85671E-01 1.42268E+01 2.51749E-12 3.02680E-12
 -1       141 3.73782E+01 9.69532E+00 2.02635E+00 1.83811E+01 1.41570E-12 2.65571E-12
 -1       142 5.49780E+01 4.39243E+00 2.99869E+00 1.40140E+01 4.30898E-13 1.42825E-12
 -1       143 6.32720E+01 8.60795E-01 3.32211E+00 1.85173E+00 8.06577E-14-9.17685E-13
 -1       144 5.72842E+01 2.59017E+00 2.88233E+00-1.03849E+01 6.37324E-13-3.06594E-12
 -1       145 4.04218E+01 7.50350E+00 1.83761E+00-1.66143E+01 1.95219E-12-4.32304E-12
 -1       146 1.98523E+01 1.01165E+01 3.92499E-01-1.40310E+01 3.46717E-12-4.50795E-12
 -1       147 6.28703E+00 7.03395E+00-8.02499E-01-6.81058E+00 4.30000E-12-3.66296E-12
 -1       148 1.22347E-01-9.01647E-01-1.67104E+00-3.42389E-01 4.07346E-12-2.17174E-12
 -1       149-1.00095E+00-9.80447E+00-2.17494E+00 2.12411E+00 2.63528E-12-7.69385E-13
 -1       150-5.95829E-01-1.49751E+01-2.43252E+00 3.52392E-01 4.31696E-13-9.44002E-14
 -1       151-1.04942E+00-1.38261E+01-2.51868E+00-2.39390E+00-1.95333E-12-4.55056E-13
 -1       152-1.36469E+00-6.49917E+00-2.29405E+00-2.24322E+00-3.73868E-12-1.75304E-12
 -1       153 2.73593E+00 2.96121E+00-1.52347E+00 3.33903E+00-4.39299E-12-3.37047E-12
 -1       154 1.61008E+01 9.14622E+00-7.17057E-02 1.21524E+01-3.71386E-12-4.56440E-12
 -1       155 3.61204E+01 8.17045E+00 1.59687E+00 1.66413E+01-2.24321E-12-4.55325E-12
 -1       156 5.71562E+01 3.41004E+00 3.07510E+00 1.20154E+01-7.86690E-13-3.22109E-12
 -1       157 6.13454E+01 3.09715E+00 3.47129E+00-1.16549E+01-2.77084E-13 9.74693E-13
 -1       158 4.61800E+01 7.95651E+00 2.59080E+00-1.82448E+01-1.25039E-12 2.83207E-12
 -1       159 2.78488E+01 1.14456E+01 1.34675E+00-1.75073E+01-2.38609E-12 3.66945E-12
 -1       160 1.19662E+01 9.98111E+00-3.55993E-02-1.09402E+01-3.38185E-12 3.39678E-12
 -1       161 2.40149E+00 2.77579E+00-1.31841E+00-2.96894E+00-3.63792E-12 2.56389E-12
 -1       162-1.46069E+00-8.62421E+00-2.42475E+00 2.84538E+00-3.07915E-12 1.31187E-12
 -1       163-1.16645E+00-1.82191E+01-3.08458E+00 3.26054E+00-1.71943E-12 3.51556E-13
 -1       164 2.75484E+01 4.01680E+00-7.16208E-02-3.57095E+00-3.86306E-13 4.39787E-13
 -1       165 2.42736E+01 3.97761E+00-6.00205E-02-2.14967E+00-2.89907E-13-1.04843E-13
 -1       166 2.10942E+01 3.73842E+00-3.63786E-02-8.25333E-01-1.60337E-13-4.36540E-13
 -1       167 1.74391E+01 3.72394E+00-2.19748E-02 2.44203E-01-3.79523E-14-6.52034E-13
 -1       168 1.36105E+01 4.07880E+00-1.44982E-02 6.64336E-01 2.32574E-14-8.07921E-13
 -1       169 1.05409E+01 4.55441E+00-1.11636E-02 2.01259E-01-1.69621E-14-9.20624E-13
 -1       170 9.54656E+00 4.68413E+00-9.20347E-03-8.10600E-01-1.18180E-13-9.61682E-13
 -1       171 1.09253E+01 4.30724E+00-9.94643E-03-1.75413E+00-2.12930E-13-9.31579E-13
 -1       172 1.39564E+01 3.71613E+00-1.13338E-02-1.93767E+00-2.45111E-13-8.70173E-13
 -1       173 1.72369E+01 3.36449E+00-1.47650E-02-1.28246E+00-1.84221E-13-7.93952E-13
 -1       174 1.98179E+01 3.42185E+00-2.01672E-02-1.38488E-01-4.83936E-14-7.26478E-13
 -1       175 2.14932E+01 3.75178E+00-2.88760E-02 1.12052E+00 1.03278E-13-6.62387E-13
 -1       176 2.25318E+01 4.12577E+00-4.29211E-02 2.29980E+00 2.48978E-13-5.27332E-13
 -1       177 2.34330E+01 4.31887E+00-6.35125E-02 3.36448E+00 3.87773E-13-2.41539E-13
 -1       178 2.49874E+01 3.89788E+00-7.81540E-02 4.30744E+00 4.44120E-13 3.62779E-13
 -1       179 2.68222E+01 1.31696E+00-4.00162E-01 3.69902E+00 3.95118E-13 1.21110E-12
 -1       180 3.00237E+01 7.02791E-01-6.80217E-03-2.18272E+00-3.40325E-13 1.10974E-12
 -1       181 2.80552E+01-1.53352E-01-1.33592E-02-1.51699E+00-2.68527E-13 9.71247E-13
 -1       182 2.64522E+01-2.14645E-01 1.34884E-02-1.78141E+00-2.16769E-13 8.65058E-13
 -1       183 2.48630E+01-5.74593E-02 9.57579E-03-2.07296E+00-1.92165E-13 7.10762E-13
 -1       184 2.33093E+01 2.91657E-01-8.42701E-04-1.78242E+00-2.43422E-13 5.20868E-13
 -1       185 2.22560E+01 5.76732E-01-8.95434E-03-7.30404E-01-3.40204E-13 2.47383E-13
 -1       186 2.21162E+01 5.29799E-01-9.83802E-03 6.10750E-01-2.32023E-13-4.14235E-14
 -1       187 2.27992E+01 1.92412E-01-3.93936E-03 1.47586E+00-1.74485E-13-2.15826E-13
 -1       188 2.37672E+01-1.48580E-01 1.01979E-03 1.51540E+00-1.14846E-13-2.53460E-13
 -1       189 2.44963E+01-2.99748E-01 1.59367E-04 9.70499E-01-3.41931E-14-2.73951E-13
 -1       190 2.47611E+01-2.75662E-01-2.92463E-03 2.82221E-01-1.11864E-14-5.30914E-13
 -1       191 2.45932E+01-1.77029E-01-4.55867E-03-2.56725E-01-2.18948E-14-5.09953E-13
 -1       192 2.41348E+01-8.03448E-02-4.17926E-03-5.63278E-01 1.49071E-14-4.32817E-13
 -1       193 2.35349E+01-1.40130E-02-2.55808E-03-6.75533E-01 1.75616E-14-3.02278E-13
 -1       194 2.29055E+01 2.20301E-02-8.34265E-04-6.64430E-01-9.35395E-15-1.68938E-13
 -1       195 2.23154E+01 3.69721E-02 4.33807E-04-5.90697E-01 1.97182E-14-2.22070E-13
 -1       196 2.17989E+01 3.97928E-02 1.15712E-03-4.94287E-01-8.06439E-14-2.04837E-13
 -1       197 2.13671E+01 3.67012E-02 1.44745E-03-3.97405E-01-1.31966E-13-3.45858E-13
 -1       198 2.10179E+01 3.13278E-02 1.46159E-03-3.10479E-01-7.06054E-14-3.43185E-13
 -1       199 2.07426E+01 2.55522E-02 1.32938E-03-2.37178E-01 2.28557E-14-2.43664E-13
 -1       200 2.05300E+01 2.02303E-02 1.13718E-03-1.77704E-01 2.35836E-13-2.74008E-13
 -1       201 2.03689E+01 1.56747E-02 9.34702E-04-1.30711E-01-9.71966E-15-2.27767E-13
 -1       202 2.02490E+01 1.19344E-02 7.46867E-04-9.43181E-02 8.72259E-14-9.70973E-14
 -1       203 2.01614E+01 8.94366E-03 5.83936E-04-6.66083E-02 1.98779E-13 1.76200E-13
 -1       204 2.00986E+01 6.59682E-03 4.48266E-04-4.58414E-02 7.53265E-14 1.83404E-13
 -1       205 2.00547E+01 4.78274E-03 3.38373E-04-3.05270E-02-1.61926E-13 9.32030E-15
 -1       206 2.00250E+01 3.39948E-03 2.51174E-04-1.94312E-02-3.01698E-13-1.18948E-13
 -1       207 2.00055E+01 2.35906E-03 1.83144E-04-1.15539E-02 6.96960E-14-1.53492E-13
 -1       208 1.99934E+01 1.58790E-03 1.30873E-04-6.09792E-03 2.12258E-13 4.59044E-14
 -1       209 1.99866E+01 1.02568E-03 9.13088E-05-2.43608E-03-3.44392E-14 1.57090E-13
 -1       210 1.99834E+01 6.23578E-04 6.18276E-05-8.12061E-05-1.32139E-13 1.95339E-13
 -1       211 1.99825E+01 3.42610E-04 4.02337E-05 1.34021E-03 1.31090E-14-2.51329E-14
 -1       212 1.99830E+01 1.51996E-04 2.47239E-05 2.11076E-03-1.19929E-13-9.48576E-14
 -1       213 1.99845E+01 2.77102E-05 1.38408E-05 2.44112E-03 4.66880E-15-1.14535E-14
 -1       214 1.99863E+01-4.87940E-05 6.42304E-06 2.48578E-03-2.05942E-13-2.26893E-13
 -1       215 1.99883E+01-9.16565E-05 1.55737E-06 2.35584E-03-1.88623E-13-4.21955E-13
 -1       216 1.99902E+01-1.11507E-04-1.46536E-06 2.12934E-03 1.70646E-14-7.84738E-13
 -1       217 1.99920E+01-1.16214E-04-3.18855E-06 1.85944E-03-1.17108E-13-4.95472E-13
 -1       218 1.99936E+01-1.11502E-04-4.02314E-06 1.58096E-03-4.64638E-14-5.93307E-13
 -1       219 1.99950E+01-1.01459E-04-4.27586E-06 1.31531E-03 8.90876E-14-5.58426E-13
 -1       220 1.99961E+01-8.89594E-05-4.17292E-06 1.07439E-03 1.43641E-14-5.71698E-13
 -1       221 1.99971E+01-7.60021E-05-3.87804E-06 8.63318E-04 7.21080E-14-2.91778E-13
 -1       222 1.99979E+01-6.39961E-05-3.50416E-06 6.82515E-04 1.11765E-13-5.59498E-14
 -1       223 1.99985E+01-5.40152E-05-3.10867E-06 5.28979E-04 3.85225E-13-1.92921E-13
 -1       224 1.99989E+01-4.69582E-05-2.68720E-06 3.97149E-04 1.40054E-13-5.25414E-14
 -1       225 1.99993E+01-4.34759E-05-2.16487E-06 2.79641E-04 9.96584E-15-1.69879E-14
 -1       226 1.99996E+01-4.35605E-05-1.73475E-06 1.68991E-04 7.56279E-14-3.31649E-14
 -1       227 1.99997E+01-4.35468E-05-1.28568E-06 6.29014E-05-1.57611E-14 7.68384E-15
 -1       228 2.48678E+01 2.32099E-01-5.86245E-02 1.74261E+00 3.83426E-13 1.07392E-12
 -1       229 2.30359E+01 5.96892E-02 1.23054E-02 1.16562E+00 2.75498E-13 8.47915E-13
 -1       230 2.16712E+01 3.19289E-02 1.62816E-02 1.00021E+00 1.68820E-13 6.40816E-13
 -1       231 2.05857E+01 7.83749E-02 7.71627E-03 8.17627E-01 1.85065E-13 4.47637E-13
 -1       232 1.98371E+01 1.39529E-01 8.99008E-04 4.82627E-01 1.77062E-13 3.00716E-13
 -1       233 1.95368E+01 1.64689E-01-1.73050E-03 2.77466E-02 1.01592E-13 1.87410E-13
 -1       234 1.97119E+01 1.32874E-01-6.25033E-04-4.10243E-01 8.71117E-14 5.97643E-14
 -1       235 2.02507E+01 5.94232E-02 1.89234E-03-6.87362E-01 9.30577E-14-4.84335E-14
 -1       236 2.09443E+01-1.77342E-02 3.29230E-03-7.40597E-01 1.22141E-13-1.85122E-13
 -1       237 2.15839E+01-6.82820E-02 2.95551E-03-6.07839E-01-8.74843E-15-1.34260E-13
 -1       238 2.20340E+01-8.44544E-02 1.52830E-03-3.80431E-01 5.87102E-14-1.39052E-13
 -1       239 2.22499E+01-7.51473E-02-2.81656E-05-1.45706E-01 8.61726E-14-2.57635E-13
 -1       240 2.22543E+01-5.40121E-02-1.02412E-03 4.28999E-02 1.91466E-14-3.03139E-13
 -1       241 2.21031E+01-3.16203E-02-1.33778E-03 1.67209E-01-7.01547E-14-2.98140E-13
 -1       242 2.18582E+01-1.33939E-02-1.17351E-03 2.31919E-01-6.07408E-15-2.53244E-13
 -1       243 2.15719E+01-8.32053E-04-7.92135E-04 2.51503E-01 5.40274E-14-2.82808E-13
 -1       244 2.12824E+01 6.62774E-03-3.86367E-04 2.41702E-01 2.01515E-14-4.51779E-13
 -1       245 2.10135E+01 1.02640E-02-5.58995E-05 2.15580E-01 4.08373E-14-3.59640E-13
 -1       246 2.07780E+01 1.13644E-02 1.69419E-04 1.82480E-01 6.23042E-14-4.06386E-13
 -1       247 2.05804E+01 1.09566E-02 2.97876E-04 1.48383E-01-8.39815E-14-3.95224E-13
 -1       248 2.04204E+01 9.76539E-03 3.52204E-04 1.16702E-01 7.55390E-14-4.31782E-13
 -1       249 2.02946E+01 8.25900E-03 3.56568E-04 8.90919E-02-1.06214E-13-3.49041E-13
 -1       250 2.01984E+01 6.71710E-03 3.31074E-04 6.60930E-02-7.76033E-14-3.85973E-13
 -1       251 2.01268E+01 5.29152E-03 2.90412E-04 4.75979E-02 5.11302E-14-4.40373E-13
 -1       252 2.00749E+01 4.05258E-03 2.44380E-04 3.31605E-02 1.02831E-13-4.13395E-13
 -1       253 2.00386E+01 3.02143E-03 1.98994E-04 2.21918E-02 1.22789E-14-4.82080E-13
 -1       254 2.00140E+01 2.19153E-03 1.57577E-04 1.40764E-02 1.37656E-13-3.53642E-13
 -1       255 1.99981E+01 1.54224E-03 1.21666E-04 8.23641E-03 1.30056E-14-2.99005E-13
 -1       256 1.99886E+01 1.04717E-03 9.16810E-05 4.16305E-03-5.23036E-15-3.26741E-13
 -1       257 1.99836E+01 6.78950E-04 6.73938E-05 1.42736E-03-1.77846E-16-5.11599E-13
 -1       258 1.99816E+01 4.12051E-04 4.82302E-05-3.20173E-04-2.54567E-14-4.73129E-13
 -1       259 1.99816E+01 2.24040E-04 3.34664E-05-1.35660E-03 2.07816E-13-4.95321E-13
 -1       260 1.99827E+01 9.60385E-05 2.23518E-05-1.89624E-03 2.31997E-13-6.69432E-13
 -1       261 1.99845E+01 1.26467E-05 1.41796E-05-2.10115E-03-2.33640E-13-7.35006E-13
 -1       262 1.99866E+01-3.83798E-05 8.32302E-06-2.09104E-03-2.30301E-14-5.11311E-13
 -1       263 1.99887E+01-6.65574E-05 4.24788E-06-1.95217E-03-4.03672E-14-3.31472E-13
 -1       264 1.99907E+01-7.91239E-05 1.51275E-06-1.74497E-03-9.57973E-14-4.01014E-13
 -1       265 1.99925E+01-8.14694E-05-2.38223E-07-1.51028E-03-7.62277E-14-2.69913E-13
 -1       266 1.99940E+01-7.75251E-05-1.28594E-06-1.27446E-03-1.97145E-14-2.00497E-13
 -1       267 1.99954E+01-7.01004E-05-1.84805E-06-1.05335E-03 2.23867E-14-1.42668E-13
 -1       268 1.99965E+01-6.11699E-05-2.08963E-06-8.55265E-04-7.86367E-15-3.64590E-13
 -1       269 1.99974E+01-5.21149E-05-2.13048E-06-6.83247E-04 1.47251E-13-5.53059E-13
 -1       270 1.99981E+01-4.39363E-05-2.04528E-06-5.36601E-04 6.68833E-14-7.15929E-13
 -1       271 1.99987E+01-3.74306E-05-1.85008E-06-4.11887E-04 3.68433E-14-5.70473E-13
 -1       272 1.99991E+01-3.32155E-05-1.46278E-06-3.03574E-04-3.49871E-13-3.14840E-13
 -1       273 1.99994E+01-3.17952E-05-7.88909E-07-2.04946E-04-2.98024E-14-8.40943E-14
 -1       274 1.99996E+01-3.36047E-05-7.82000E-07-1.09302E-04 1.80500E-13-4.09319E-13
 -1       275 1.99998E+01-2.64686E-05-2.24754E-06-2.11467E-05 1.37895E-13-4.71198E-13
 -1       276 1.99998E+01-9.02870E-05-1.17158E-06-6.91137E-05-2.85726E-13 2.41468E-13
 -1       277 1.99998E+01-2.34479E-04-3.58650E-07-1.61660E-04-2.77786E-13 3.36387E-13
 -1       278 1.99998E+01-4.35397E-04-1.35659E-07-2.28239E-04-1.18151E-13 2.03787E-13
 -1       279 1.99998E+01-6.66419E-04 1.11559E-07-2.51991E-04 6.59392E-14 1.88121E-13
 -1       280 1.99998E+01-8.90355E-04 5.85903E-07-2.33412E-04 1.20957E-13-4.05239E-13
 -1       281 1.99998E+01-1.08172E-03 1.02795E-06-1.77850E-04 1.05563E-13 8.13882E-14
 -1       282 1.99998E+01-1.20827E-03 1.34754E-06-9.54691E-05 9.51924E-14 2.72320E-13
 -1       283 1.99998E+01-1.25202E-03 1.45963E-06 8.69638E-07 2.65223E-13 3.61134E-13
 -1       284 1.99998E+01-1.20675E-03 1.34761E-06 9.70873E-05-1.38459E-14-6.44671E-13
 -1       285 1.99998E+01-1.07884E-03 1.02909E-06 1.79134E-04 2.00843E-15-7.49170E-13
 -1       286 1.99998E+01-8.90374E-04 5.59837E-07 2.33533E-04 6.13629E-14 3.34701E-13
 -1       287 1.99998E+01-6.62267E-04 1.17470E-07 2.52002E-04 1.56151E-13 3.70532E-13
 -1       288 1.99998E+01-4.31261E-04-1.41820E-07 2.27174E-04 1.47550E-13-6.54744E-16
 -1       289 1.99998E+01-2.34229E-04-1.03807E-06 1.60235E-04 3.39252E-13-3.52373E-13
 -1       290 1.99997E+01-1.31673E-04-1.10771E-06 1.23580E-04 4.19784E-14-1.74007E-13
 -1       291-4.23390E-01-8.41041E+00-8.95190E-01 1.50026E+00 4.81087E-13 9.00946E-13
 -1       292 3.17718E+00-6.59835E+00-7.59495E-01 3.86288E+00 9.56513E-13 1.06345E-12
 -1       293 1.14024E+01-3.44941E+00-3.33032E-01 6.64840E+00 9.18515E-13 7.84969E-13
 -1       294 1.98005E+01 6.81688E-01-1.64842E-02 7.83772E+00 1.23657E-12 9.37472E-13
 -1       295 3.00435E+01 3.07295E+00 3.42829E-01 7.30459E+00 9.70432E-13 5.34572E-13
 -1       296 3.84370E+01 5.50498E+00 6.85213E-01 6.04413E+00 9.02244E-13 2.15050E-13
 -1       297 4.30861E+01 6.73340E+00 8.22279E-01 2.79241E+00 1.02221E-12-4.31127E-13
 -1       298 4.47650E+01 6.23259E+00 9.23165E-01-8.84528E-01 1.09411E-12-1.03767E-12
 -1       299 3.91748E+01 5.35236E+00 5.73309E-01-3.73183E+00 1.30593E-12-1.45320E-12
 -1       300 3.08591E+01 2.99178E+00 1.97416E-01-5.59259E+00 1.39507E-12-1.54876E-12
 -1       301 2.09577E+01 1.13531E+00-6.88951E-02-7.04369E+00 1.52511E-12-1.67538E-12
 -1       302 1.10719E+01-2.96304E-01-3.48213E-01-6.26145E+00 1.59636E-12-1.68632E-12
 -1       303 4.57668E+00-2.24376E+00-4.31192E-01-4.56085E+00 9.78717E-13-1.39552E-12
 -1       304 3.21692E-01-3.83641E+00-5.47843E-01-2.14084E+00 4.19317E-13-1.24672E-12
 -1       305-4.45098E-01-4.04496E+00-5.40197E-01 1.92222E-01-3.04895E-13-1.24986E-12
 -1       306 2.05672E+00-3.84380E+00-6.01587E-01 2.59593E+00-9.91637E-13-1.38195E-12
 -1       307 8.88616E+00-2.54071E+00-4.58720E-01 5.09406E+00-1.34673E-12-1.56195E-12
 -1       308 1.85514E+01-5.95406E-01-2.46743E-01 6.30982E+00-1.62942E-12-1.76631E-12
 -1       309 2.95110E+01 2.24955E+00 2.06572E-01 6.57341E+00-1.66482E-12-1.94261E-12
 -1       310 3.88232E+01 4.33313E+00 5.47171E-01 3.24155E+00-1.32629E-12-1.31370E-12
 -1       311 4.51895E+01 6.27046E+00 9.41739E-01 8.37627E-01-1.17831E-12-9.55583E-13
 -1       312 4.65552E+01 6.56640E+00 1.08048E+00-2.42588E+00-1.06198E-12-2.54123E-13
 -1       313 4.15400E+01 5.99432E+00 7.70348E-01-4.60340E+00-1.17831E-12 2.43638E-13
 -1       314 3.52818E+01 4.31174E+00 5.81577E-01-7.40356E+00-1.25108E-12 8.47822E-13
 -1       315 2.61916E+01 1.95711E+00 1.95826E-01-8.01985E+00-1.32530E-12 1.26080E-12
 -1       316 1.68783E+01-1.02705E+00-2.03938E-01-7.32931E+00-1.26080E-12 1.31975E-12
 -1       317 9.09999E+00-4.38224E+00-4.84119E-01-5.95452E+00-8.78936E-13 1.03742E-12
 -1       318 2.30637E+00-7.27938E+00-8.43807E-01-3.23774E+00-6.84508E-13 1.10231E-12
 -1       319-6.34935E-01-8.99988E+00-9.82559E-01-9.32857E-01-6.74183E-14 1.06412E-12
 -1       320 2.38951E+01 1.53048E+00-3.32467E-02-1.54208E+00-2.25034E-13-5.77802E-14
 -1       321 2.66751E+01 1.37669E+00-3.68021E-02-2.58321E+00-3.57155E-13 2.86189E-13
 -1       322 1.60123E+01 2.63848E+00 1.39139E-02 1.14753E+00 7.30180E-14-5.88381E-13
 -1       323 1.14084E+01 3.88899E+00 3.72606E-02 1.23024E+00 7.97444E-14-8.15790E-13
 -1       324 8.63919E+00 4.76689E+00 5.29975E-02-1.90543E-02-5.14185E-14-9.67120E-13
 -1       325 8.96639E+00 4.57181E+00 4.84577E-02-1.83278E+00-2.50230E-13-9.60721E-13
 -1       326 1.22266E+01 3.42343E+00 3.04312E-02-2.73852E+00-3.61019E-13-8.17253E-13
 -1       327 1.64007E+01 2.26988E+00 3.76396E-03-2.19475E+00-3.31088E-13-6.48956E-13
 -1       328 1.97776E+01 1.77651E+00-1.52748E-02-7.69713E-01-1.69983E-13-5.06769E-13
 -1       329 2.18748E+01 1.89583E+00-2.50698E-02 7.63643E-01 2.67915E-14-4.45523E-13
 -1       330 2.30105E+01 2.23829E+00-3.15267E-02 2.02487E+00 1.94216E-13-3.47250E-13
 -1       331 2.37033E+01 2.44169E+00-3.77987E-02 2.92289E+00 3.68426E-13-1.80531E-13
 -1       332 2.44552E+01 2.08050E+00-5.27332E-02 3.32192E+00 4.76262E-13 1.66155E-13
 -1       333 2.49584E+01 1.16166E+00-3.76994E-02 2.84447E+00 4.66504E-13 5.27587E-13
 -1       334 2.38330E+01 2.87228E-01 3.68430E-03 2.05646E+00 3.86831E-13 4.38836E-13
 -1       335 2.71019E+01-4.75957E-01 1.97307E-03-2.50221E+00-2.82782E-13 4.84794E-13
 -1       336 2.65623E+01-5.23909E-01-7.35246E-03-2.94947E+00-2.73758E-13 4.90324E-13
 -1       337 2.57562E+01 3.77970E-01-1.33188E-02-3.09546E+00-3.51104E-13 4.08052E-13
 -1       338 2.48219E+01 1.61609E+00-2.39430E-02-2.14286E+00-5.17586E-13 1.81767E-13
 -1       339 2.42966E+01 2.10666E+00-2.89947E-02-1.77229E-01-5.40509E-13-8.07401E-14
 -1       340 2.44643E+01 1.30658E+00-2.75600E-02 1.59448E+00-3.61300E-13-3.15449E-13
 -1       341 2.48812E+01-3.05777E-02-1.48649E-02 2.13585E+00-2.14343E-13-5.01854E-13
 -1       342 2.49620E+01-8.92915E-01-8.16786E-03 1.54009E+00-9.59840E-14-5.77941E-13
 -1       343 2.46180E+01-1.04943E+00-7.81955E-03 5.25243E-01-7.69497E-14-5.54992E-13
 -1       344 2.40402E+01-7.87141E-01-7.43344E-03-3.53582E-01 5.34798E-14-4.11499E-13
 -1       345 2.34135E+01-4.30593E-01-5.90466E-03-8.98677E-01 6.04540E-14-2.87235E-13
 -1       346 2.28287E+01-1.45835E-01-3.26425E-03-1.13561E+00 1.02667E-13-2.19540E-13
 -1       347 2.23114E+01 3.08415E-02-9.82423E-04-1.16082E+00 2.38476E-15-1.78585E-13
 -1       348 2.18637E+01 1.19069E-01 4.59492E-04-1.06661E+00-4.60772E-14-2.24680E-13
 -1       349 2.14817E+01 1.50077E-01 1.19535E-03-9.19274E-01-3.77814E-14-2.74624E-13
 -1       350 2.11605E+01 1.49436E-01 1.45031E-03-7.59298E-01-7.71745E-14-1.91744E-13
 -1       351 2.08948E+01 1.33910E-01 1.42757E-03-6.08297E-01-6.47052E-14-3.42680E-14
 -1       352 2.06786E+01 1.13137E-01 1.27084E-03-4.75941E-01 2.41123E-14-2.65940E-14
 -1       353 2.05057E+01 9.20980E-02 1.06718E-03-3.65082E-01 3.35263E-14-4.27398E-14
 -1       354 2.03698E+01 7.30556E-02 8.62978E-04-2.75050E-01 1.70627E-13-1.21946E-13
 -1       355 2.02646E+01 5.68104E-02 6.79481E-04-2.03585E-01 1.33112E-13 9.62541E-14
 -1       356 2.01846E+01 4.34390E-02 5.24053E-04-1.47900E-01 1.31627E-13 4.24072E-14
 -1       357 2.01248E+01 3.26956E-02 3.97090E-04-1.05218E-01 1.38276E-13-7.67598E-14
 -1       358 2.00809E+01 2.42188E-02 2.95906E-04-7.30142E-02-2.23241E-14-1.40070E-13
 -1       359 2.00494E+01 1.76311E-02 2.16760E-04-4.91060E-02-2.15098E-13-1.46338E-14
 -1       360 2.00273E+01 1.25832E-02 1.55817E-04-3.16665E-02-8.60008E-14 1.99585E-13
 -1       361 2.00123E+01 8.76966E-03 1.09567E-04-1.91985E-02 1.98192E-13 5.49480E-14
 -1       362 2.00024E+01 5.93184E-03 7.49836E-05-1.04956E-02 1.34232E-13-7.21253E-14
 -1       363 1.99963E+01 3.85513E-03 4.95347E-05-4.60033E-03-1.28466E-13-1.13517E-13
 -1       364 1.99929E+01 2.36441E-03 3.11445E-05-7.63208E-04-7.93155E-14-7.11743E-14
 -1       365 1.99913E+01 1.31882E-03 1.81364E-05 1.59440E-03-1.05400E-13 7.59666E-15
 -1       366 1.99909E+01 6.06462E-04 9.17434E-06 2.91306E-03-1.28780E-13-2.20803E-13
 -1       367 1.99912E+01 1.39524E-04 3.20714E-06 3.52319E-03-1.38060E-13-3.16156E-13
 -1       368 1.99919E+01-1.50089E-04-5.82149E-07 3.66843E-03-2.09911E-13-8.10598E-14
 -1       369 1.99929E+01-3.14478E-04-2.82069E-06 3.52498E-03-3.12356E-13-2.10340E-14
 -1       370 1.99939E+01-3.92933E-04-3.98362E-06 3.21733E-03 9.24469E-14-7.28636E-14
 -1       371 1.99949E+01-4.14632E-04-4.42579E-06 2.83089E-03 8.37369E-14 1.47640E-13
 -1       372 1.99959E+01-4.00880E-04-4.40837E-06 2.42207E-03 1.30701E-13 4.63090E-13
 -1       373 1.99967E+01-3.66983E-04-4.12110E-06 2.02600E-03 1.03000E-13 3.87768E-13
 -1       374 1.99974E+01-3.23776E-04-3.70060E-06 1.66249E-03 7.09631E-14 4.26144E-13
 -1       375 1.99980E+01-2.78868E-04-3.24207E-06 1.34048E-03 6.84458E-14 1.45300E-13
 -1       376 1.99985E+01-2.37655E-04-2.81026E-06 1.06130E-03 1.35317E-13 1.77787E-13
 -1       377 1.99989E+01-2.04168E-04-2.42885E-06 8.20902E-04 1.77903E-13 4.47923E-14
 -1       378 1.99992E+01-1.80957E-04-2.13185E-06 6.11784E-04-1.31510E-13-4.98150E-14
 -1       379 1.99994E+01-1.68795E-04-2.20863E-06 4.25224E-04-7.70948E-14-2.73829E-13
 -1       380 1.99996E+01-1.52791E-04-1.47736E-06 2.66022E-04-2.99213E-14-3.87502E-13
 -1       381 2.27181E+01 1.44006E-01 1.25397E-02 1.72373E+00 2.94099E-13 3.47081E-13
 -1       382 2.17616E+01 2.59670E-01 9.04112E-03 1.40726E+00 2.39852E-13 2.00798E-13
 -1       383 2.10418E+01 4.46075E-01 6.38289E-03 8.88758E-01 2.29377E-13 1.43610E-13
 -1       384 2.06667E+01 5.34618E-01 4.88949E-03 1.83414E-01 1.96903E-13 2.29539E-14
 -1       385 2.06776E+01 4.46826E-01 4.71249E-03-5.14607E-01 1.11506E-13-4.77990E-14
 -1       386 2.09906E+01 2.17483E-01 4.05581E-03-9.77669E-01 1.30048E-13-1.18270E-13
 -1       387 2.14261E+01-3.53994E-02 1.66712E-03-1.09431E+00 1.69080E-13-1.43122E-13
 -1       388 2.18115E+01-2.09201E-01-9.76112E-04-9.14367E-01 2.25538E-14-2.17847E-13
 -1       389 2.20484E+01-2.72283E-01-2.84881E-03-5.76665E-01 2.52908E-14-3.14027E-13
 -1       390 2.21154E+01-2.49315E-01-3.64648E-03-2.17660E-01 9.86578E-14-2.17707E-13
 -1       391 2.20394E+01-1.83623E-01-3.38134E-03 7.68344E-02 5.38801E-14-1.63722E-13
 -1       392 2.18647E+01-1.10557E-01-2.51858E-03 2.75236E-01-9.25950E-14-2.19682E-13
 -1       393 2.16346E+01-4.92858E-02-1.51598E-03 3.81865E-01 2.71289E-15-1.96290E-13
 -1       394 2.13838E+01-5.94620E-03-6.41761E-04 4.17195E-01 8.48811E-14-3.17050E-13
 -1       395 2.11368E+01 2.05423E-02-3.82160E-06 4.04752E-01 8.40646E-14-3.25262E-13
 -1       396 2.09091E+01 3.40277E-02 3.94140E-04 3.64742E-01 3.56234E-15-4.13930E-13
 -1       397 2.07091E+01 3.86616E-02 5.97496E-04 3.12074E-01 8.21594E-14-4.18200E-13
 -1       398 2.05397E+01 3.78814E-02 6.64011E-04 2.56602E-01-8.75436E-14-4.25182E-13
 -1       399 2.04006E+01 3.41794E-02 6.45007E-04 2.04181E-01-2.03367E-15-3.98724E-13
 -1       400 2.02895E+01 2.92069E-02 5.79340E-04 1.57828E-01-9.80089E-14-1.74688E-13
 -1       401 2.02029E+01 2.39762E-02 4.93520E-04 1.18704E-01-1.29966E-14-3.39776E-13
 -1       402 2.01369E+01 1.90557E-02 4.04055E-04 8.68415E-02-1.57004E-14-3.98464E-13
 -1       403 2.00880E+01 1.47238E-02 3.20284E-04 6.16562E-02 3.21033E-14-2.27694E-13
 -1       404 2.00525E+01 1.10797E-02 2.46776E-04 4.22728E-02 8.39344E-14-1.07077E-13
 -1       405 2.00276E+01 8.11894E-03 1.85116E-04 2.77309E-02 3.76446E-14-1.15021E-13
 -1       406 2.00107E+01 5.78180E-03 1.35148E-04 1.71015E-02-8.06585E-15 5.73003E-14
 -1       407 1.99998E+01 3.98391E-03 9.58091E-05 9.54898E-03 5.65366E-14-6.39484E-14
 -1       408 1.99932E+01 2.63441E-03 6.56288E-05 4.35691E-03 2.53159E-14-2.54673E-13
 -1       409 1.99896E+01 1.64637E-03 4.30463E-05 9.32890E-04-1.60946E-14-4.31957E-13
 -1       410 1.99881E+01 9.42272E-04 2.65743E-05-1.19902E-03 1.88159E-13-3.93789E-13
 -1       411 1.99879E+01 4.56044E-04 1.48896E-05-2.41178E-03 2.41590E-13-3.36031E-13
 -1       412 1.99886E+01 1.33230E-04 6.86775E-06-2.99106E-03-1.45425E-13-2.53265E-13
 -1       413 1.99897E+01-6.98672E-05 1.58402E-06-3.15080E-03-3.17897E-13-1.82380E-13
 -1       414 1.99910E+01-1.87502E-04-1.70179E-06-3.04750E-03-1.54942E-13 2.44527E-13
 -1       415 1.99924E+01-2.45948E-04-3.56862E-06-2.79268E-03-6.89408E-14 2.73902E-13
 -1       416 1.99937E+01-2.64942E-04-4.45977E-06-2.46343E-03-6.96017E-14 2.57991E-13
 -1       417 1.99949E+01-2.59010E-04-4.70816E-06-2.11095E-03 6.77920E-14 7.93435E-14
 -1       418 1.99960E+01-2.38633E-04-4.55925E-06-1.76740E-03-4.16329E-14 1.87036E-13
 -1       419 1.99969E+01-2.11242E-04-4.19153E-06-1.45118E-03 1.41206E-13 5.13634E-14
 -1       420 1.99976E+01-1.82054E-04-3.73090E-06-1.17087E-03 1.92181E-13-5.05930E-14
 -1       421 1.99982E+01-1.54777E-04-3.26289E-06-9.28158E-04 1.48233E-13-1.06760E-13
 -1       422 1.99987E+01-1.32167E-04-2.83412E-06-7.19816E-04 4.21708E-14-1.24180E-14
 -1       423 1.99991E+01-1.16220E-04-2.44008E-06-5.39134E-04-4.77156E-13-6.56207E-14
 -1       424 1.99994E+01-1.07538E-04-1.96082E-06-3.77909E-04 5.91957E-14-1.70093E-13
 -1       425 1.99996E+01-1.04069E-04-1.50431E-06-2.29613E-04 8.78780E-14-1.91377E-13
 -1       426 1.99997E+01-1.04649E-04-9.92147E-07-1.46488E-04 8.52975E-14-3.19076E-14
 -1       427 1.99998E+01-5.83150E-04-3.81320E-07-4.37396E-04-4.40408E-14 4.26464E-13
 -1       428 1.99997E+01-3.78320E-04-1.08938E-06-3.74133E-04-2.93336E-14 3.37607E-13
 -1       429 1.99997E+01-2.28645E-04-1.40030E-06-2.66971E-04-2.58964E-14 1.41273E-13
 -1       430 1.99998E+01-7.83629E-04 2.65129E-07-4.32685E-04 6.59869E-14-3.14677E-13
 -1       431 1.99999E+01-9.63149E-04 8.00831E-07-3.62770E-04 1.57235E-13 1.18102E-13
 -1       432 1.99999E+01-1.09634E-03 1.21366E-06-2.39860E-04 1.21142E-13 2.03250E-13
 -1       433 2.00000E+01-1.16699E-03 1.43553E-06-8.28717E-05-1.16793E-13 1.54800E-13
 -1       434 2.00000E+01-1.16641E-03 1.43745E-06 8.57354E-05-2.04763E-13-1.35014E-13
 -1       435 1.99999E+01-1.09462E-03 1.21681E-06 2.42366E-04-9.97482E-14-8.36724E-13
 -1       436 1.99999E+01-9.63231E-04 7.95374E-07 3.62885E-04 8.80311E-14-1.27789E-13
 -1       437 1.99998E+01-7.83762E-04 2.68812E-07 4.32802E-04 2.17959E-13 6.69210E-13
 -1       438 1.99998E+01-5.79621E-04-3.53274E-07 4.37179E-04 3.48009E-13 2.37991E-13
 -1       439 1.99997E+01-3.73329E-04-1.03050E-06 3.73623E-04 2.20940E-13-4.41788E-13
 -1       440 1.08215E+01-4.10091E+00-2.90164E-02 7.15123E+00-1.22818E-13 5.16878E-13
 -1       441 1.33568E+00-3.33142E+00-1.14080E-01 2.19644E-01 7.90991E-15 1.16063E-12
 -1       442 4.83094E+00-3.30995E+00-2.24888E-02 5.01482E+00-5.75234E-14 8.63115E-13
 -1       443 2.07676E+01-4.03277E+00 2.26861E-02 6.65462E+00 1.03806E-13-1.28716E-13
 -1       444 2.67333E+01-2.24761E+00-1.43765E-02 4.50723E+00 2.90629E-13-3.22561E-13
 -1       445 2.04957E+01 1.71728E+00-1.16602E-02-3.55394E-02-4.17166E-14-3.21693E-13
 -1       446 3.36912E+01 5.94520E+00 1.60421E-04 5.22198E-01 9.72014E-13-5.64285E-13
 -1       447 3.40312E+01 7.99636E+00 4.44379E-03 6.91085E-01 1.19754E-12-5.36135E-13
 -1       448 3.39254E+01 6.80085E+00-7.06507E-03 9.56489E-01 1.17106E-12-4.22912E-13
 -1       449 3.15787E+01 3.04348E+00-4.45570E-02 3.40557E-01 9.11882E-13-2.65218E-13
 -1       450 2.70100E+01-3.76883E-01-2.05557E-02-3.26698E+00 6.68243E-13-5.87960E-13
 -1       451 1.91479E+01-1.62780E+00-4.07840E-02-5.88136E+00 4.21635E-13-8.73884E-13
 -1       452 1.18510E+01-1.28397E+00-2.07479E-02-6.41723E+00 2.14745E-13-1.10841E-12
 -1       453 4.86995E+00 1.15067E-01 2.28126E-02-4.74593E+00-7.76323E-14-1.31908E-12
 -1       454 1.67858E+00 6.10139E-01 3.32704E-02-1.51776E+00-1.02578E-13-1.44511E-12
 -1       455 2.74217E+00-3.05858E-01-3.22688E-02 2.46142E+00-1.85164E-13-1.38282E-12
 -1       456 8.91119E+00-1.42182E+00-1.10394E-02 5.13656E+00-1.69989E-13-1.17797E-12
 -1       457 1.78134E+01-2.91258E+00-6.64666E-02 5.43638E+00-4.67126E-13-9.20760E-13
 -1       458 2.70985E+01-2.07957E+00-1.21531E-02 2.97370E+00-6.97761E-13-6.03864E-13
 -1       459 3.21767E+01 7.44062E-01-1.78502E-02 2.11710E-02-9.45072E-13-3.48124E-13
 -1       460 3.45585E+01 5.54993E+00-2.12616E-04-1.83536E+00-1.19041E-12-2.90795E-13
 -1       461 3.68903E+01 7.65733E+00 1.30419E-01-1.04769E+00-1.33168E-12-3.96485E-13
 -1       462 3.59786E+01 6.85633E+00 9.48343E-02-5.23664E-01-1.27152E-12-3.71980E-13
 -1       463 3.32590E+01 2.78908E+00-3.00870E-02-4.19461E-01-9.26426E-13-3.99472E-13
 -1       464 3.12364E+01-4.06887E-01 3.29464E-03-2.29636E+00-6.07112E-13-2.46553E-13
 -1       465 2.55913E+01-3.73909E+00-1.42609E-02-5.01290E+00-1.41262E-13 1.85685E-14
 -1       466 1.93658E+01-4.62700E+00 2.24969E-02-6.92214E+00 1.16934E-13 4.00090E-13
 -1       467 8.97357E+00-4.29759E+00-9.24312E-02-6.55338E+00 8.54317E-14 8.61262E-13
 -1       468 3.56931E+00-3.54757E+00-8.93617E-02-3.91230E+00 1.64868E-13 1.09632E-12
 -1       469 3.17494E+01 2.07805E+00 1.57498E-02 1.67563E+00 6.48537E-13-4.43021E-13
 -1       470 2.39053E+01 4.40586E-01 2.21090E-04 2.62212E+00 3.52263E-13 1.31603E-13
 -1       471 8.31778E+00 3.55494E+00 1.13249E-01 1.75673E+00 9.17790E-14-1.06514E-12
 -1       472 1.40121E+01 1.66924E+00 5.12256E-02 2.66025E+00 1.99701E-13-6.93858E-13
 -1       473 9.39767E+00 3.11573E+00 1.00006E-01-3.67280E+00-4.05927E-13-1.02623E-12
 -1       474 1.50081E+01 1.36703E+00 5.13977E-02-3.73297E+00-4.59690E-13-7.11270E-13
 -1       475 1.97145E+01 3.84408E-01 1.36372E-02-1.92907E+00-3.23302E-13-4.30136E-13
 -1       476 2.23762E+01 3.81282E-01-1.01077E-02 1.82312E-01-8.09973E-14-3.07485E-13
 -1       477 2.35500E+01 8.19243E-01-1.44061E-02 1.75947E+00 1.19990E-13-3.02148E-13
 -1       478 2.40363E+01 1.13467E+00-1.46197E-02 2.70492E+00 2.87962E-13-1.67991E-13
 -1       479 2.43215E+01 1.26438E+00-1.18366E-02 3.01374E+00 4.26994E-13 1.01975E-13
 -1       480 2.32446E+01 4.93663E-01 5.49053E-03 2.29600E+00 3.42590E-13 1.43498E-13
 -1       481 2.68065E+01-1.07893E+00 6.89463E-03-2.60110E+00-1.98177E-13 3.33783E-13
 -1       482 2.88454E+01 4.62880E+00-1.48030E-01 2.31914E+00 8.30412E-13-2.02130E-14
 -1       483 2.74553E+01-5.83848E-01-3.27472E-02-3.54477E+00-3.32047E-13 4.16557E-13
 -1       484 2.71161E+01 1.75310E+00-9.57556E-02-3.51243E+00-6.09995E-13 3.05356E-13
 -1       485 2.66516E+01 3.95747E+00-1.07746E-01-1.68201E+00-8.55076E-13 3.92793E-14
 -1       486 2.64082E+01 3.58773E+00-1.17493E-01 9.97967E-01-7.43336E-13-3.83049E-13
 -1       487 2.66880E+01 1.01544E+00-6.21451E-02 2.32871E+00-4.61641E-13-6.56126E-13
 -1       488 2.63288E+01-1.33573E+00-2.62194E-02 1.66245E+00-1.23049E-13-6.71783E-13
 -1       489 2.52267E+01-2.06083E+00-6.87102E-03 3.44134E-01 1.08770E-14-5.58686E-13
 -1       490 2.39431E+01-1.71705E+00-2.10425E-03-7.38742E-01 9.92336E-14-3.86529E-13
 -1       491 2.28574E+01-1.02849E+00-3.23052E-03-1.35289E+00 2.18328E-13-2.54314E-13
 -1       492 2.20820E+01-4.24719E-01-2.17102E-03-1.58520E+00 1.42575E-13-1.31198E-13
 -1       493 2.15587E+01-2.16174E-02-7.29775E-04-1.58007E+00-7.90600E-16-1.80202E-13
 -1       494 2.12031E+01 1.98866E-01 8.47201E-05-1.44646E+00-2.24046E-14-1.93861E-13
 -1       495 2.09490E+01 2.92591E-01 4.95433E-04-1.25604E+00-6.22734E-14-1.22561E-13
 -1       496 2.07557E+01 3.10927E-01 6.49847E-04-1.05152E+00-5.91122E-14-7.36560E-15
 -1       497 2.06013E+01 2.90120E-01 6.57542E-04-8.56463E-01-1.41695E-14-1.09543E-13
 -1       498 2.04747E+01 2.52484E-01 5.93241E-04-6.82350E-01 4.48657E-14-4.97888E-14
 -1       499 2.03700E+01 2.10467E-01 5.01982E-04-5.33439E-01 9.48512E-14 7.52532E-14
 -1       500 2.02841E+01 1.70356E-01 4.08020E-04-4.09886E-01 6.82696E-14 7.56193E-14
 -1       501 2.02143E+01 1.34889E-01 3.22451E-04-3.09727E-01 7.93781E-14-3.34072E-14
 -1       502 2.01586E+01 1.04900E-01 2.49443E-04-2.30067E-01 6.10595E-14-1.76097E-13
 -1       503 2.01148E+01 8.02742E-02 1.89539E-04-1.67770E-01 1.57223E-14-2.31042E-13
 -1       504 2.00811E+01 6.04770E-02 1.41651E-04-1.19814E-01 1.80524E-14-3.81132E-13
 -1       505 2.00555E+01 4.48300E-02 1.04115E-04-8.34734E-02-1.53879E-15-2.68550E-13
 -1       506 2.00365E+01 3.26470E-02 7.51619E-05-5.63823E-02-8.70364E-15-1.03962E-14
 -1       507 2.00227E+01 2.32963E-02 5.31404E-05-3.65442E-02-6.52475E-14 1.46117E-13
 -1       508 2.00129E+01 1.62239E-02 3.66238E-05-2.23085E-02 5.58321E-14 2.93388E-14
 -1       509 2.00062E+01 1.09573E-02 2.44170E-05-1.23346E-02-1.95220E-13-2.76891E-13
 -1       510 2.00017E+01 7.10248E-03 1.55535E-05-5.55165E-03-4.20506E-14-4.50650E-13
 -1       511 1.99989E+01 4.33635E-03 9.25049E-06-1.11628E-03-9.63052E-14-2.76347E-13
 -1       512 1.99973E+01 2.39818E-03 4.87904E-06 1.62591E-03-2.42428E-13-2.05813E-13
 -1       513 1.99965E+01 1.08017E-03 1.94276E-06 3.17535E-03-1.51711E-13-8.83563E-14
 -1       514 1.99962E+01 2.18788E-04 5.47166E-08 3.90870E-03-7.35869E-14-1.04813E-13
 -1       515 1.99963E+01-3.12951E-04-1.08297E-06 4.10449E-03-7.77032E-14-6.59512E-15
 -1       516 1.99965E+01-6.12275E-04-1.69658E-06 3.96466E-03-1.72188E-13 6.55898E-14
 -1       517 1.99969E+01-7.52525E-04-1.95561E-06 3.63220E-03 1.97768E-13 1.17755E-13
 -1       518 1.99973E+01-7.88166E-04-1.98504E-06 3.20545E-03 2.27090E-13 2.06021E-13
 -1       519 1.99977E+01-7.58986E-04-1.87567E-06 2.74945E-03-2.41396E-15 3.53638E-14
 -1       520 1.99981E+01-6.93587E-04-1.69367E-06 2.30480E-03 2.04386E-14-6.03478E-14
 -1       521 1.99985E+01-6.12254E-04-1.48793E-06 1.89448E-03-1.05684E-13 8.49103E-14
 -1       522 1.99988E+01-5.29242E-04-1.28485E-06 1.52892E-03 1.84607E-13 1.99409E-13
 -1       523 1.99990E+01-4.54410E-04-1.08524E-06 1.21009E-03-3.27307E-15 1.06996E-13
 -1       524 1.99993E+01-3.95189E-04-9.64371E-07 9.33686E-04-1.48306E-13-3.77507E-13
 -1       525 1.99994E+01-3.53827E-04-1.01969E-06 6.92781E-04-3.69729E-13-5.36994E-13
 -1       526 1.04261E+01-2.19516E+00 1.26474E-01 6.20268E+00-4.32508E-13 4.71019E-13
 -1       527 2.20313E+01 1.26198E+00 1.30820E-03 8.70587E-01 2.88932E-13-9.07852E-14
 -1       528 2.18199E+01 1.25184E+00 1.93582E-04-1.73476E-01 2.23132E-13-1.67706E-13
 -1       529 2.19333E+01 8.08176E-01 1.84119E-03-1.01353E+00 1.71909E-13-2.81254E-13
 -1       530 2.21823E+01 1.73926E-01 6.89724E-04-1.36869E+00 1.83823E-13-2.99104E-13
 -1       531 2.23590E+01-3.48620E-01-6.70191E-04-1.24161E+00 1.27595E-13-2.50384E-13
 -1       532 2.23652E+01-6.10003E-01-1.61963E-03-8.25160E-01 7.24402E-14-2.45831E-13
 -1       533 2.22143E+01-6.29359E-01-2.48493E-03-3.34650E-01 1.97918E-14-2.87493E-13
 -1       534 2.19702E+01-5.04748E-01-2.48706E-03 8.71416E-02 7.74743E-14-1.99319E-13
 -1       535 2.16929E+01-3.32717E-01-1.92271E-03 3.82680E-01 1.03307E-14-2.18341E-13
 -1       536 2.14202E+01-1.73446E-01-1.21955E-03 5.50944E-01 7.64127E-15-2.75336E-13
 -1       537 2.11703E+01-5.21300E-02-5.84893E-04 6.16684E-01 1.01436E-13-3.06392E-13
 -1       538 2.09499E+01 2.78508E-02-1.08900E-04 6.10924E-01 1.35165E-13-2.39042E-13
 -1       539 2.07599E+01 7.31901E-02 1.97082E-04 5.61496E-01 1.58248E-13-3.66099E-13
 -1       540 2.05989E+01 9.33489E-02 3.61431E-04 4.89780E-01 4.20389E-14-3.46975E-13
 -1       541 2.04646E+01 9.70498E-02 4.24914E-04 4.10575E-01-4.31435E-15-2.73673E-13
 -1       542 2.03544E+01 9.10781E-02 4.24086E-04 3.33207E-01-5.74408E-14-3.79508E-13
 -1       543 2.02653E+01 8.02002E-02 3.86911E-04 2.62926E-01-1.32341E-13-3.52157E-13
 -1       544 2.01945E+01 6.75133E-02 3.32954E-04 2.02175E-01-9.00508E-14-3.52284E-13
 -1       545 2.01393E+01 5.48829E-02 2.74534E-04 1.51593E-01 5.65669E-15-1.23791E-13
 -1       546 2.00969E+01 4.33281E-02 2.18754E-04 1.10742E-01-6.83370E-14-1.57914E-13
 -1       547 2.00651E+01 3.33170E-02 1.69249E-04 7.86126E-02-3.20467E-14-8.74194E-14
 -1       548 2.00416E+01 2.49792E-02 1.27421E-04 5.39560E-02 2.92670E-14 1.89757E-13
 -1       549 2.00247E+01 1.82494E-02 9.33456E-05 3.54828E-02-7.92479E-14 2.06801E-13
 -1       550 2.00129E+01 1.29617E-02 6.64065E-05 2.19824E-02 4.45995E-14 2.97663E-13
 -1       551 2.00049E+01 8.90780E-03 4.56585E-05 1.23823E-02 7.71492E-14 3.72651E-13
 -1       552 1.99997E+01 5.87267E-03 3.00849E-05 5.77090E-03 1.83751E-13 1.83446E-13
 -1       553 1.99966E+01 3.65526E-03 1.86911E-05 1.39792E-03 1.21925E-13 4.14877E-14
 -1       554 1.99949E+01 2.07833E-03 1.05837E-05-1.33794E-03 2.32605E-14 4.09785E-14
 -1       555 1.99942E+01 9.91763E-04 4.99851E-06-2.90765E-03-2.12899E-13 4.23047E-13
 -1       556 1.99942E+01 2.72331E-04 1.30395E-06-3.67194E-03-2.06857E-13 8.47344E-13
 -1       557 1.99945E+01-1.78616E-04-1.00737E-06-3.90119E-03-2.55504E-13 3.42827E-13
 -1       558 1.99950E+01-4.38254E-04-2.33327E-06-3.79333E-03-1.53220E-13 2.55410E-13
 -1       559 1.99957E+01-5.65703E-04-2.97892E-06-3.48969E-03-1.06619E-13 1.81744E-13
 -1       560 1.99963E+01-6.05340E-04-3.17359E-06-3.08807E-03 1.22528E-13 1.77241E-13
 -1       561 1.99969E+01-5.89833E-04-3.08636E-06-2.65359E-03 1.88690E-14 1.60030E-13
 -1       562 1.99975E+01-5.42783E-04-2.83921E-06-2.22723E-03 7.10059E-14 4.55264E-14
 -1       563 1.99980E+01-4.80971E-04-2.52005E-06-1.83246E-03 1.50368E-13 2.28764E-13
 -1       564 1.99984E+01-4.16220E-04-2.18430E-06-1.48028E-03 1.48793E-13 4.35697E-13
 -1       565 1.99988E+01-3.56895E-04-1.87016E-06-1.17299E-03 9.93239E-14 5.36015E-13
 -1       566 1.99991E+01-3.08850E-04-1.68658E-06-9.07120E-04-1.15473E-13 4.25746E-13
 -1       567 1.99993E+01-2.75979E-04-1.80601E-06-6.76160E-04-1.13114E-13-8.20430E-14
 -1       568 1.99995E+01-2.55430E-04-1.60245E-06-4.70404E-04 1.57003E-14 1.34867E-13
 -1       569 1.99999E+01-9.11900E-04 2.75874E-07-5.60781E-04 2.18913E-13-2.62656E-13
 -1       570 2.00000E+01-1.06525E-03 4.61159E-07-4.21091E-04 8.54179E-15 2.13634E-13
 -1       571 1.99997E+01-5.10413E-04-8.32342E-08-5.99124E-04-1.84528E-13 3.72674E-13
 -1       572 1.99998E+01-7.20824E-04 9.30034E-08-6.23090E-04-5.78366E-14 5.29224E-13
 -1       573 2.00001E+01-1.16373E-03 6.13292E-07-2.24533E-04-4.08045E-14-6.57943E-14
 -1       574 2.00001E+01-1.19739E-03 6.64964E-07 1.90526E-06-3.20532E-13-9.97301E-14
 -1       575 2.00001E+01-1.16273E-03 6.17081E-07 2.28158E-04-3.81829E-13-3.71291E-13
 -1       576 2.00000E+01-1.06555E-03 4.76120E-07 4.21180E-04 1.18717E-13-3.75643E-13
 -1       577 1.99999E+01-9.12274E-04 2.44446E-07 5.60890E-04 3.02657E-13 2.17947E-13
 -1       578 1.99998E+01-7.19089E-04 2.39948E-07 6.23336E-04 4.31944E-14 4.35986E-13
 -1       579 1.99997E+01-5.07182E-04-2.81446E-07 5.97736E-04-2.70969E-13 1.75692E-13
 -1       580 5.46667E+00-5.09926E-01 1.64723E-01-1.98405E+00 1.28324E-13 9.16531E-13
 -1       581 2.25630E+01 8.99174E-01 4.39443E-03 1.76200E+00 3.41629E-13 2.93799E-14
 -1       582 1.81518E+01-4.18878E+00 8.29210E-02 6.74478E+00-4.12850E-13-1.83201E-13
 -1       583 2.38978E+01-3.84659E-01 9.73705E-04-7.68917E-01-3.10741E-14-2.60987E-14
 -1       584 2.48996E+01-4.22656E+00 5.00111E-03 3.91111E+00-2.31152E-13-5.89528E-13
 -1       585 2.99864E+01 3.11808E+00-1.14864E-01-7.62012E-01 7.04159E-13-6.97706E-13
 -1       586 3.05422E+01 4.17869E+00-1.40520E-01 1.37639E+00-9.33267E-13-6.15251E-13
 -1       587 2.40017E+01-1.91300E+00-4.57349E-03-2.99659E+00 2.72490E-14-2.54539E-13
 -1       588 1.97925E+01 1.58888E-01 2.71567E-02 1.36675E+00 1.29115E-13-3.50204E-13
 -1       589 6.39522E+00 4.19151E+00 1.17795E-01-1.17273E+00-1.71857E-13-1.19616E-12
 -1       590 2.55863E+01-3.88218E-01-9.97122E-03-1.82584E+00-1.77275E-13 1.26351E-13
 -1       591 1.61421E+01-3.81640E+00 1.02087E-01-6.68382E+00 4.56156E-13 3.19723E-13
 -1       592 2.83281E+01 2.07910E-01-6.83853E-02 4.38971E-01 4.65121E-13 2.61319E-14
 -1       593 2.89892E+01 6.60550E+00-1.65346E-01 1.61271E+00 9.70196E-13-2.42993E-13
 -1       594 5.51828E+00 2.84016E+00 1.58650E-01-3.10589E+00-2.88918E-13-1.28728E-12
 -1       595 2.94362E+01 6.55891E+00-1.59228E-01-3.60238E-01 9.64701E-13-5.33573E-13
 -1       596 1.75070E+01-1.50329E+00 5.29474E-02-5.42497E+00-2.39107E-13-6.47142E-13
 -1       597 9.36876E+00-2.05668E+00 1.38281E-01-5.62546E+00 3.56763E-13 8.26963E-13
 -1       598 1.06025E+01 2.80472E-01 9.47684E-02-5.72811E+00-3.49047E-13-1.02244E-12
 -1       599 3.91015E+00 2.76304E+00 1.54698E-01 2.02086E-01-7.12807E-14-1.37160E-12
 -1       600 7.96743E+00 1.29992E+00 1.55868E-01 3.66182E+00 1.27370E-13-1.15761E-12
 -1       601 1.60562E+01-1.94583E+00 7.34526E-02 4.86622E+00 1.20959E-13-6.88932E-13
 -1       602 2.41610E+01-3.23248E+00 7.34555E-03 2.58536E+00-6.26582E-14-2.33792E-13
 -1       603 2.90656E+01-1.87860E+00-6.38675E-02-9.10037E-01-4.02161E-13 9.02681E-14
 -1       604 3.07668E+01 2.12466E+00-9.63548E-02-2.99601E+00-8.02032E-13 1.46966E-13
 -1       605 3.08956E+01 6.32577E+00-1.63264E-01-1.76872E+00-1.16847E-12-9.38138E-14
 -1       606 3.09007E+01 6.57818E+00-1.63233E-01-2.15772E-01-1.19353E-12-3.40054E-13
 -1       607 2.97157E+01-5.89725E-01-1.21836E-01 9.57268E-01-3.98962E-13-7.65665E-13
 -1       608 2.79921E+01-3.42069E+00-4.00609E-02-1.55061E+00 6.10198E-14-5.55313E-13
 -1       609 2.49566E+01-4.52665E+00 5.94896E-03-4.01563E+00 2.84429E-13-3.17215E-13
 -1       610 5.54692E+00-6.57928E-01 1.61608E-01 2.69240E+00-2.09180E-13 9.07344E-13
 -1       611 2.82706E+01-1.72427E+00-8.01664E-02 9.78990E-01 1.10291E-13-6.68465E-13
 -1       612 2.76344E+01 2.09178E+00-8.59992E-02 2.51998E+00 5.73538E-13 1.64650E-13
 -1       613 1.99995E+01-3.31196E-04-1.06304E-06 5.42072E-04-3.95461E-13-5.45613E-13
 -1       614 2.15923E+01-4.26326E+00 3.71910E-02-4.94732E+00 4.47212E-13-1.01395E-13
 -1       615 2.62337E+01-1.77525E+00-2.86901E-02-1.50420E+00-7.47536E-14 2.24378E-13
 -1       616 1.91300E+01-7.05628E-01 2.37441E-02-3.48629E+00-3.94157E-13-4.67987E-13
 -1       617 2.44686E+01-1.71034E-01-2.07287E-02 1.58893E+00 7.88822E-14-1.16000E-13
 -1       618 2.44486E+01 4.25497E-01-1.50543E-02 2.57847E+00 2.38271E-13-1.18045E-13
 -1       619 8.52481E+00 8.41957E-01 1.52634E-01 3.84143E-01-1.86272E-13 6.89997E-13
 -1       620 2.81853E+01-1.17057E+00-1.14079E-01 1.22365E+00-2.88552E-13-6.41171E-13
 -1       621 2.61901E+01-3.08618E+00-2.03071E-02-3.41968E-01 3.82333E-14-5.55057E-13
 -1       622 2.39937E+01-2.78527E+00 4.78471E-03-1.58382E+00 1.90952E-13-3.42151E-13
 -1       623 2.23180E+01-1.72739E+00-3.36023E-04-2.09141E+00 2.78182E-13-2.02645E-13
 -1       624 2.12807E+01-7.69720E-01-1.32426E-03-2.13492E+00 2.73446E-13-1.39855E-13
 -1       625 2.07141E+01-1.13570E-01-1.56377E-04-1.97932E+00 8.64375E-14-1.58813E-13
 -1       626 2.04315E+01 2.61011E-01 1.49822E-04-1.74489E+00 2.51986E-14-1.69874E-14
 -1       627 2.02988E+01 4.34958E-01 2.71039E-04-1.49239E+00 2.54687E-14-8.99481E-17
 -1       628 2.02363E+01 4.85037E-01 3.07359E-04-1.24798E+00 1.74673E-15-3.45842E-15
 -1       629 2.02022E+01 4.66927E-01 2.95504E-04-1.02384E+00-1.19223E-13 1.44806E-13
 -1       630 2.01776E+01 4.16300E-01 2.60353E-04-8.25533E-01 1.65454E-14 1.21553E-13
 -1       631 2.01551E+01 3.54128E-01 2.17661E-04-6.54901E-01 1.48517E-13 1.17498E-13
 -1       632 2.01328E+01 2.91777E-01 1.76361E-04-5.11436E-01 4.07737E-14 3.47024E-14
 -1       633 2.01110E+01 2.34787E-01 1.39269E-04-3.93200E-01 7.09753E-14 1.58203E-13
 -1       634 2.00906E+01 1.85365E-01 1.07705E-04-2.97484E-01-2.02114E-14 2.97210E-14
 -1       635 2.00721E+01 1.43933E-01 8.18411E-05-2.21270E-01-8.66880E-15-6.67394E-14
 -1       636 2.00561E+01 1.10029E-01 6.11578E-05-1.61535E-01-1.12889E-13-8.07790E-14
 -1       637 2.00426E+01 8.28035E-02 4.49788E-05-1.15440E-01 5.23126E-14-1.29762E-13
 -1       638 2.00317E+01 6.12900E-02 3.25682E-05-8.04330E-02 1.53076E-13-4.63385E-14
 -1       639 2.00229E+01 4.45413E-02 2.31692E-05-5.42914E-02 1.89931E-14-1.17746E-13
 -1       640 2.00162E+01 3.16919E-02 1.61285E-05-3.51259E-02-9.65808E-14-1.24610E-13
 -1       641 2.00110E+01 2.19818E-02 1.08767E-05-2.13644E-02-2.02445E-13-2.72521E-13
 -1       642 2.00071E+01 1.47614E-02 7.02047E-06-1.17232E-02-6.47084E-14 4.73286E-14
 -1       643 2.00044E+01 9.48764E-03 4.25799E-06-5.17195E-03 5.41066E-14-7.31603E-15
 -1       644 2.00024E+01 5.71482E-03 2.32907E-06-8.96299E-04-1.01798E-13 2.85285E-14
 -1       645 2.00010E+01 3.08246E-03 1.02290E-06 1.73784E-03-1.55344E-13 1.71218E-13
 -1       646 2.00001E+01 1.30288E-03 1.73330E-07 3.21630E-03-1.38511E-13 2.44698E-13
 -1       647 1.99996E+01 1.49632E-04-3.47973E-07 3.90507E-03-6.77204E-14 2.19487E-13
 -1       648 1.99993E+01-5.53042E-04-6.38633E-07 4.07486E-03 1.92974E-14 1.83842E-13
 -1       649 1.99991E+01-9.39526E-04-7.71856E-07 3.92181E-03 5.55185E-14 4.57516E-13
 -1       650 1.99991E+01-1.11102E-03-8.01671E-07 3.58464E-03 2.27099E-13 5.56812E-14
 -1       651 1.99991E+01-1.14252E-03-7.67253E-07 3.15854E-03 9.06272E-14 6.69732E-14
 -1       652 1.99991E+01-1.08872E-03-6.96988E-07 2.70620E-03-6.37428E-15 3.09917E-13
 -1       653 1.99992E+01-9.88832E-04-6.16277E-07 2.26657E-03 4.54977E-14 9.36735E-14
 -1       654 1.99993E+01-8.70646E-04-5.48229E-07 1.86147E-03-8.17801E-15-3.24008E-14
 -1       655 1.99994E+01-7.53574E-04-4.62578E-07 1.50020E-03-2.54607E-14-2.71962E-14
 -1       656 1.99995E+01-6.51394E-04-4.58686E-07 1.18593E-03-4.77527E-13-2.32690E-13
 -1       657 1.99996E+01-5.70723E-04-4.12434E-07 9.11838E-04-3.96631E-13-1.70183E-13
 -1       658 2.28364E+01 2.36816E+00-1.22343E-02 5.40231E-01 3.61401E-13-2.11967E-13
 -1       659 2.32128E+01-3.07059E-01-3.76241E-03-1.42355E+00 1.14208E-13-4.08786E-13
 -1       660 2.30354E+01-9.57916E-01-3.19590E-04-9.23904E-01 5.39379E-14-3.60589E-13
 -1       661 2.26202E+01-1.11678E+00-8.58990E-04-3.06363E-01 6.68295E-14-3.13604E-13
 -1       662 2.21174E+01-9.55437E-01-1.08822E-03 2.13642E-01 2.13708E-14-2.71854E-13
 -1       663 2.16417E+01-6.66546E-01-8.41360E-04 5.63225E-01 3.68045E-14-1.80727E-13
 -1       664 2.12465E+01-3.77502E-01-5.70943E-04 7.52163E-01 7.70970E-14-2.12364E-13
 -1       665 2.09403E+01-1.46081E-01-3.14982E-04 8.18430E-01 6.99099E-14-2.29762E-13
 -1       666 2.07110E+01 1.39952E-02-1.09177E-04 8.02048E-01 1.06743E-13-2.33924E-13
 -1       667 2.05406E+01 1.10650E-01 2.84933E-05 7.36072E-01 1.08483E-13-1.80113E-13
 -1       668 2.04133E+01 1.59086E-01 1.04238E-04 6.44846E-01 2.85373E-14-1.28972E-14
 -1       669 2.03168E+01 1.74547E-01 1.38423E-04 5.45024E-01-2.89655E-14-6.71140E-14
 -1       670 2.02426E+01 1.69526E-01 1.46082E-04 4.47227E-01 2.91877E-14-2.22538E-14
 -1       671 2.01849E+01 1.53197E-01 1.37531E-04 3.57622E-01-8.50026E-14-1.40180E-13
 -1       672 2.01398E+01 1.31783E-01 1.20921E-04 2.79262E-01-1.18917E-13-1.42985E-13
 -1       673 2.01045E+01 1.09221E-01 1.01382E-04 2.13137E-01-1.85551E-13-1.44221E-13
 -1       674 2.00770E+01 8.78156E-02 8.18681E-05 1.58944E-01-1.14576E-13-1.12500E-13
 -1       675 2.00557E+01 6.87581E-02 6.41057E-05 1.15644E-01-1.50109E-13 9.62810E-14
 -1       676 2.00395E+01 5.25256E-02 4.88824E-05 8.18398E-02-1.77490E-13 1.37975E-13
 -1       677 2.00271E+01 3.91612E-02 3.63329E-05 5.60337E-02-5.84380E-14 1.97369E-13
 -1       678 2.00180E+01 2.84643E-02 2.63032E-05 3.67721E-02-1.41420E-13 2.59660E-13
 -1       679 2.00113E+01 2.01134E-02 1.84390E-05 2.27338E-02-9.74407E-15 2.69106E-13
 -1       680 2.00066E+01 1.37440E-02 1.24514E-05 1.27712E-02 2.65312E-13 2.06268E-13
 -1       681 2.00033E+01 8.99665E-03 8.00480E-06 5.92093E-03 2.30035E-13 1.81815E-13
 -1       682 2.00010E+01 5.54319E-03 4.78983E-06 1.39635E-03 2.44194E-14 4.01181E-13
 -1       683 1.99996E+01 3.09835E-03 2.53487E-06-1.43037E-03-2.09080E-13 5.14687E-13
 -1       684 1.99988E+01 1.42258E-03 1.00903E-06-3.04934E-03-3.36394E-13 2.32321E-13
 -1       685 1.99983E+01 3.20393E-04 2.35379E-08-3.83515E-03-8.02061E-14 2.87358E-13
 -1       686 1.99982E+01-3.63974E-04-5.71449E-07-4.06802E-03-1.46380E-13 2.20949E-13
 -1       687 1.99982E+01-7.51903E-04-8.92105E-07-3.95286E-03-1.26551E-13 2.04337E-13
 -1       688 1.99983E+01-9.36082E-04-1.02660E-06-3.63577E-03 1.14261E-13 1.82902E-14
 -1       689 1.99984E+01-9.85918E-04-1.04037E-06-3.21777E-03 1.16021E-13 8.22151E-14
 -1       690 1.99986E+01-9.52411E-04-9.82070E-07-2.76598E-03 1.27631E-13 6.78976E-15
 -1       691 1.99988E+01-8.72359E-04-8.84758E-07-2.32251E-03-1.49345E-13 4.84670E-14
 -1       692 1.99990E+01-7.71900E-04-7.76098E-07-1.91137E-03-2.43128E-13 3.41842E-13
 -1       693 1.99992E+01-6.69354E-04-6.53279E-07-1.54376E-03 4.07809E-14 6.20979E-13
 -1       694 1.99993E+01-5.77602E-04-5.79205E-07-1.22226E-03 1.10302E-13 6.46776E-13
 -1       695 1.99994E+01-5.05705E-04-7.48492E-07-9.43621E-04 2.29702E-13 4.25025E-13
 -1       696 1.99996E+01-5.04740E-04-5.91640E-07-7.65672E-04-8.62430E-15 5.11376E-13
 -1       697 2.42487E+01 5.76074E-01 9.69748E-03 2.87936E+00 3.16350E-13 1.31366E-14
 -1       698 2.00004E+01-1.28116E-03 2.46883E-07-1.43584E-04-1.82997E-13-2.68689E-13
 -1       699 1.99996E+01-5.35306E-04-3.41972E-07 7.48298E-04-1.69184E-13 8.31310E-14
 -1       700 2.00001E+01-1.07526E-03 1.09317E-07-6.38663E-04 2.65646E-13-1.97498E-13
 -1       701 2.00004E+01-1.28070E-03 2.37296E-07 1.48117E-04-2.00721E-13-1.81242E-13
 -1       702 2.00003E+01-1.21060E-03 1.94584E-07-4.17370E-04-1.62425E-13 5.33585E-14
 -1       703 2.00003E+01-1.21104E-03 1.93405E-07 4.17169E-04 1.67167E-14-3.66832E-14
 -1       704 2.00001E+01-1.07601E-03 1.62948E-07 6.38981E-04 3.22764E-13 1.18400E-13
 -1       705 1.99999E+01-8.89004E-04-2.50318E-07 7.76471E-04 2.19421E-13 1.73874E-13
 -1       706 1.99998E+01-7.13301E-04-1.49014E-07 7.95024E-04-4.36115E-14-5.14591E-14
 -1       707 2.32703E+01 1.96718E+00-8.04684E-05 1.81150E+00 4.16299E-13-5.20161E-14
 -1       708 2.97527E+01 4.63021E+00-1.33415E-01-2.75179E+00-9.80764E-13 1.13323E-13
 -1       709 2.62147E+01-3.11180E+00-4.05309E-02 1.34939E+00-1.50074E-13-6.93300E-13
 -1       710 2.67795E+01-2.43180E+00 6.80504E-02-5.62774E-01-7.78132E-14 9.30783E-14
 -1       711 9.56837E+00-2.34488E-01 1.36821E-01-3.69977E+00 1.68690E-13 7.38923E-13
 -1       712 1.61628E+01-2.39011E+00 9.43244E-02 5.78227E+00-5.29798E-13-2.59480E-14
 -1       713 2.31175E+01 7.72674E-01-3.73229E-03-1.45754E+00 2.05716E-13-4.12940E-13
 -1       714 2.28730E+01 1.88030E+00-5.56501E-03-7.55259E-01 2.84498E-13-3.34090E-13
 -1       715 2.64506E+01 4.74306E+00-1.18793E-01 2.27643E+00 7.16916E-13-1.48738E-13
 -1       716 1.54818E+01 6.85000E-02 8.03496E-02-4.76458E+00-4.63487E-13-6.95190E-13
 -1       717 1.43175E+01-2.03376E+00 1.17701E-01-5.64631E+00 4.19168E-13 4.43461E-13
 -1       718 2.34250E+01-8.93955E-01 1.42941E-02-5.55757E-01-1.56341E-13-1.22716E-13
 -1       719 2.58748E+01-1.12709E+00-2.02711E-02-6.39623E-02 5.57219E-14 4.62165E-14
 -1       720 2.65454E+01 6.00488E+00-1.33166E-01 5.02191E-01 8.41792E-13-3.23214E-13
 -1       721 2.72936E+01 3.94485E+00-1.27315E-01-1.34760E+00 6.27574E-13-6.88883E-13
 -1       722 2.75662E+01 2.79649E-01-7.98809E-02-1.09473E+00 2.25913E-13-8.41934E-13
 -1       723 2.13156E+01-1.53173E+00 1.55560E-02-3.13722E+00-2.93515E-13-3.10663E-13
 -1       724 1.00604E+01-7.83412E-02 1.27685E-01 3.86350E+00-4.15655E-13 4.99642E-13
 -1       725 2.12796E+01-3.88510E+00 4.14591E-02 4.81066E+00-3.95952E-13-3.95797E-13
 -1       726 2.80323E+01 5.33206E+00-1.71964E-01-8.72818E-01-1.00694E-12-1.13989E-13
 -1       727 1.37018E+01 3.61682E-01 8.70546E-02 3.81093E+00 2.25400E-13-7.40696E-13
 -1       728 2.38185E+01 1.13280E+00-8.02450E-03 2.60982E+00 4.04076E-13 3.61039E-16
 -1       729 2.14183E+01-2.19078E+00 5.88814E-02 2.55310E+00 1.64278E-13-3.01359E-13
 -1       730 2.64660E+01 1.73074E-01-5.82794E-02 2.12851E+00 2.74843E-13 1.49995E-13
 -1       731 1.22824E+01 8.34864E-01 1.09953E-01-4.95231E+00-4.62061E-13-8.96411E-13
 -1       732 2.68714E+01-2.08700E+00-4.98139E-02-1.42258E+00-1.64846E-13 2.18530E-13
 -1       733 1.99999E+01-8.88205E-04 3.10477E-07-7.77468E-04 2.66325E-14 3.28987E-13
 -1       734 1.99998E+01-7.01621E-04 3.66366E-08-8.09623E-04 1.39718E-13 4.47293E-13
 -1       735 2.36336E+01-3.70210E+00 1.15689E-02 2.87965E+00-2.68468E-13-4.93233E-13
 -1       736 2.62018E+01 2.82233E+00-6.36943E-02 2.91111E+00 5.35254E-13-1.95833E-14
 -1       737 2.53507E+01 4.38492E+00-8.28265E-02-6.93983E-01 6.15296E-13-4.79963E-13
 -1       738 1.90342E+01-2.83958E+00 6.30961E-02-4.86364E+00 4.32768E-13 6.90724E-14
 -1       739 2.48562E+01-4.01077E+00 1.55374E-02-2.58598E+00 2.40789E-13-3.15037E-13
 -1       740 2.47411E+01 4.33074E+00-8.13059E-02 1.29192E+00 6.58855E-13-2.32475E-13
 -1       741 2.52597E+01 5.39873E-01-1.39926E-02 2.80914E+00 2.83964E-13-2.48061E-14
 -1       742 2.10427E+01-2.35269E+00 3.36852E-02-3.44538E+00 2.98735E-13-8.73520E-15
 -1       743 1.99001E+01-1.01178E+00-3.66808E-04-2.94322E+00 2.93442E-13-4.35699E-14
 -1       744 1.94267E+01-1.19790E-01 9.49226E-04-2.44180E+00 1.27728E-13-7.36271E-14
 -1       745 1.93362E+01 3.81967E-01 5.59841E-04-1.99488E+00 9.00786E-14-1.39301E-13
 -1       746 1.94015E+01 6.19969E-01 2.15085E-04-1.63545E+00 2.73965E-14-5.44726E-14
 -1       747 1.95206E+01 6.95213E-01 1.33877E-04-1.34212E+00-1.76076E-14-8.52979E-14
 -1       748 1.96437E+01 6.78095E-01 1.04605E-04-1.09753E+00 8.80290E-14-2.76167E-14
 -1       749 1.97501E+01 6.14066E-01 8.27128E-05-8.90613E-01-7.16504E-14 1.07981E-13
 -1       750 1.98339E+01 5.30852E-01 6.35859E-05-7.15021E-01 8.35493E-14 1.17397E-13
 -1       751 1.98958E+01 4.44378E-01 5.06726E-05-5.66849E-01 2.37956E-14 2.80804E-16
 -1       752 1.99395E+01 3.63102E-01 3.95405E-05-4.43174E-01 3.80782E-14-3.07294E-16
 -1       753 1.99689E+01 2.90939E-01 2.98180E-05-3.41331E-01-1.97136E-14-4.36283E-14
 -1       754 1.99880E+01 2.29178E-01 2.19532E-05-2.58709E-01 9.77062E-15 1.47713E-14
 -1       755 1.99997E+01 1.77701E-01 1.57456E-05-1.92709E-01-7.02298E-14-4.13388E-14
 -1       756 2.00063E+01 1.35673E-01 1.10549E-05-1.40805E-01-2.19627E-14 7.48648E-14
 -1       757 2.00096E+01 1.01948E-01 7.72353E-06-1.00633E-01 2.38780E-13 6.62266E-14
 -1       758 2.00108E+01 7.53053E-02 5.46856E-06-7.00545E-02-1.28720E-14 1.59090E-13
 -1       759 2.00107E+01 5.45729E-02 3.98337E-06-4.71851E-02-6.94822E-14 2.19446E-13
 -1       760 2.00099E+01 3.86817E-02 2.80103E-06-3.04062E-02-3.19703E-13 1.87553E-13
 -1       761 2.00087E+01 2.66900E-02 1.81352E-06-1.83591E-02-7.32504E-14 1.56136E-13
 -1       762 2.00074E+01 1.77907E-02 1.07448E-06-9.92830E-03 9.47073E-14 9.79582E-14
 -1       763 2.00061E+01 1.13095E-02 5.61891E-07-4.21330E-03-4.00148E-15 1.27999E-13
 -1       764 2.00049E+01 6.69157E-03 2.22628E-07-4.98686E-04-5.15924E-14 2.96232E-13
 -1       765 2.00039E+01 3.48715E-03 6.96550E-09 1.77410E-03-2.28346E-13 3.07562E-13
 -1       766 2.00030E+01 1.33706E-03-1.22305E-07 3.03355E-03-1.20975E-13 7.65804E-14
 -1       767 2.00023E+01-4.13095E-05-1.91987E-07 3.60253E-03-4.21240E-14 7.18494E-14
 -1       768 2.00017E+01-8.66969E-04-2.21515E-07 3.71970E-03 1.72898E-13-4.13559E-14
 -1       769 2.00012E+01-1.30707E-03-2.24847E-07 3.55771E-03 1.00391E-13 3.33604E-14
 -1       770 2.00008E+01-1.48717E-03-2.11571E-07 3.23840E-03 6.23356E-14 5.81863E-14
 -1       771 2.00005E+01-1.50011E-03-1.88033E-07 2.84507E-03 2.12374E-13-5.88002E-14
 -1       772 2.00003E+01-1.41338E-03-1.61495E-07 2.43229E-03-6.63448E-14-4.14148E-14
 -1       773 2.00001E+01-1.27512E-03-1.51923E-07 2.03361E-03-2.12809E-13-1.23371E-13
 -1       774 2.00000E+01-1.11909E-03-3.38080E-07 1.66835E-03-1.39004E-13-4.31005E-13
 -1       775 1.99999E+01-9.70971E-04 3.76258E-08 1.34188E-03-2.55912E-13-5.01230E-13
 -1       776 1.99998E+01-8.41401E-04-6.87659E-07 1.05854E-03-3.77536E-13-2.35894E-13
 -1       777 2.32482E+01-1.69078E+00-2.69801E-04-7.46424E-02-3.26296E-14-3.62989E-13
 -1       778 2.39883E+01-1.28954E+00-7.04320E-03-8.75203E-01 1.00666E-14-4.60995E-13
 -1       779 2.16377E+01-1.07940E+00-9.53134E-05 9.08413E-01 8.00019E-15-1.99688E-13
 -1       780 2.10673E+01-6.33854E-01-1.07831E-04 1.05804E+00 3.20064E-14-2.87769E-13
 -1       781 2.06721E+01-2.69646E-01-1.08466E-04 1.07194E+00 1.33076E-13-2.41663E-13
 -1       782 2.04156E+01-1.22727E-02-3.83328E-05 1.00699E+00 8.71370E-15-2.54734E-13
 -1       783 2.02565E+01 1.48211E-01 2.23942E-05 9.01506E-01-1.54259E-14 4.10085E-14
 -1       784 2.01612E+01 2.33615E-01 4.23599E-05 7.79449E-01 1.92315E-14 1.41414E-13
 -1       785 2.01054E+01 2.66373E-01 4.80898E-05 6.55437E-01-1.30236E-15 1.65471E-13
 -1       786 2.00730E+01 2.65266E-01 4.86496E-05 5.38177E-01-1.65724E-14 1.55580E-13
 -1       787 2.00539E+01 2.44483E-01 4.40711E-05 4.32469E-01-6.47517E-14 1.34127E-13
 -1       788 2.00422E+01 2.13937E-01 3.78310E-05 3.40503E-01-5.46720E-14 8.87769E-14
 -1       789 2.00344E+01 1.80119E-01 3.12194E-05 2.62779E-01-1.65731E-13 1.17262E-13
 -1       790 2.00287E+01 1.47016E-01 2.47730E-05 1.98716E-01-1.16384E-13 1.27714E-13
 -1       791 2.00241E+01 1.16851E-01 1.90106E-05 1.47082E-01-1.67847E-13 4.67550E-14
 -1       792 2.00202E+01 9.06558E-02 1.42982E-05 1.06324E-01-1.81719E-13 8.94355E-15
 -1       793 2.00167E+01 6.87145E-02 1.06496E-05 7.47983E-02-1.12168E-13-2.15770E-14
 -1       794 2.00137E+01 5.08683E-02 7.90830E-06 5.09060E-02-1.32743E-13-1.30013E-14
 -1       795 2.00110E+01 3.67183E-02 5.61448E-06 3.31784E-02-1.09442E-13-2.26692E-13
 -1       796 2.00088E+01 2.57554E-02 3.83539E-06 2.03237E-02-4.61774E-14-1.27384E-13
 -1       797 2.00068E+01 1.74478E-02 2.48451E-06 1.12448E-02 2.08155E-13 1.92914E-13
 -1       798 2.00052E+01 1.12932E-02 1.49613E-06 5.03397E-03 3.60685E-14 4.15888E-13
 -1       799 2.00039E+01 6.84375E-03 8.02746E-07 9.56229E-04-1.53386E-13 3.04352E-13
 -1       800 2.00028E+01 3.71521E-03 3.33866E-07-1.57098E-03-9.78853E-14 1.84485E-13
 -1       801 2.00020E+01 1.58816E-03 3.02216E-08-2.99988E-03-1.52416E-13 1.17029E-13
 -1       802 2.00013E+01 2.03863E-04-1.54482E-07-3.67450E-03-1.60339E-13 2.39667E-13
 -1       803 2.00009E+01-6.42496E-04-2.55634E-07-3.85115E-03-5.39557E-14 1.53753E-13
 -1       804 2.00005E+01-1.10969E-03-2.99894E-07-3.71660E-03 1.09889E-13 6.12071E-14
 -1       805 2.00002E+01-1.31840E-03-3.06866E-07-3.40352E-03 4.46219E-14 1.31381E-13
 -1       806 2.00000E+01-1.35864E-03-2.90040E-07-3.00322E-03-6.37942E-14 3.30029E-13
 -1       807 1.99999E+01-1.29633E-03-2.63389E-07-2.57606E-03-6.59133E-14 5.90292E-13
 -1       808 1.99998E+01-1.17883E-03-2.30934E-07-2.15960E-03-2.55072E-13 6.81507E-13
 -1       809 1.99998E+01-1.03973E-03-1.89088E-07-1.77503E-03-2.65996E-13 3.99123E-13
 -1       810 1.99997E+01-9.01460E-04-9.70136E-08-1.43193E-03-2.12461E-15 6.11406E-13
 -1       811 1.99997E+01-7.81998E-04-1.09915E-07-1.13260E-03 2.38962E-13 5.94110E-13
 -1       812 1.99997E+01-7.37080E-04 2.01411E-07-9.63259E-04 3.31783E-14 7.36152E-13
 -1       813 2.45881E+01 2.14186E+00-2.87468E-02 2.73927E+00 4.57493E-13-1.77549E-14
 -1       814 2.00004E+01-1.28145E-03 1.46982E-07 6.61903E-04 4.92066E-15 1.73845E-13
 -1       815 2.00007E+01-1.43537E-03 2.67837E-07 2.82341E-06-2.68409E-13-2.57814E-13
 -1       816 2.59387E+01-1.59267E+00-3.99542E-02-5.75153E-01 2.78232E-14-7.16488E-13
 -1       817 1.41099E+01-5.03093E-01 6.24579E-02 4.25527E+00-4.31330E-13 2.13919E-13
 -1       818 2.43233E+01 6.40101E-02-1.06720E-02-1.50452E+00 1.36845E-13-5.46574E-13
 -1       819 2.23909E+01-1.50869E+00-5.14860E-04 5.49545E-01-2.47175E-14-2.09855E-13
 -1       820 2.00002E+01-1.10066E-03 2.55276E-07 8.94277E-04 7.84974E-15 1.49963E-15
 -1       821 2.48924E+01 1.91936E+00-3.82481E-02-1.58952E+00 3.17491E-13-5.93382E-13
 -1       822 2.58189E+01 1.57167E+00-6.39093E-02-1.69455E+00 3.04146E-13-6.61559E-13
 -1       823 1.34052E+01-4.34594E-01 7.32396E-02-4.17483E+00 1.89192E-13 4.15227E-13
 -1       824 1.11612E+01 8.91674E-01 7.99802E-02 1.94232E+00-3.07194E-13 4.97300E-13
 -1       825 1.95031E+01-2.63304E+00 2.35346E-02 4.37662E+00-3.53267E-13-2.30218E-13
 -1       826 1.09373E+01 8.63185E-01 8.42396E-02-1.84953E+00-1.08463E-13 5.21024E-13
 -1       827 2.00006E+01-1.39633E-03 1.94739E-07 3.52802E-04-4.60902E-14 2.36704E-14
 -1       828 2.50993E+01-6.55694E-01-1.73577E-02 1.04660E+00 3.04023E-14-7.58421E-15
 -1       829 2.00002E+01-1.09896E-03-2.69692E-07-8.92765E-04 9.95375E-14 9.12991E-14
 -1       830 2.00006E+01-1.39628E-03 1.28904E-07-3.50538E-04-2.36078E-13-1.88456E-13
 -1       831 2.46871E+01-2.83214E+00-2.39788E-03 8.16443E-01-1.22483E-13-6.21507E-13
 -1       832 1.20735E+01 1.26813E+00 5.29180E-02-1.42914E-01-6.00738E-14 4.19956E-13
 -1       833 1.71714E+01-1.38757E+00 4.42029E-02-4.33657E+00 2.77274E-13 1.88426E-13
 -1       834 1.73772E+01-1.15911E+00 2.94913E-02 3.98471E+00-4.26498E-13-5.50493E-15
 -1       835 2.00004E+01-1.28076E-03 6.42710E-08-6.61895E-04-7.00710E-14-4.55693E-13
 -1       836 1.39494E+01 6.09016E-01 3.20161E-02 2.59983E+00-2.84695E-13 2.60663E-13
 -1       837 2.00244E+01-2.30226E-02-2.21767E-05 1.24475E+00 5.49006E-14 4.83935E-15
 -1       838 2.00006E+01-1.35033E-03-2.49536E-07 9.56163E-04-1.08664E-13-8.62218E-15
 -1       839 1.75460E+01 1.18381E-01 7.55468E-03-2.78143E+00 1.44222E-13 2.59428E-15
 -1       840 1.78994E+01 6.22020E-01 1.42741E-03-2.07767E+00 6.06395E-14-1.00729E-14
 -1       841 1.83070E+01 8.57360E-01 2.52559E-04-1.60701E+00-1.90985E-15-4.00716E-14
 -1       842 1.86800E+01 9.24887E-01 1.05984E-05-1.27952E+00 4.94533E-14-3.04816E-14
 -1       843 1.89959E+01 8.96337E-01 1.10697E-05-1.03612E+00 3.54483E-14 1.54017E-14
 -1       844 1.92520E+01 8.16563E-01 1.73885E-05-8.43760E-01 5.00177E-14-1.06821E-13
 -1       845 1.94534E+01 7.13878E-01 9.41291E-06-6.85200E-01 7.41445E-14 3.13674E-14
 -1       846 1.96080E+01 6.05636E-01 1.36650E-05-5.51779E-01 3.62356E-14 1.01524E-13
 -1       847 1.97245E+01 5.01854E-01 1.31664E-05-4.39107E-01 5.73371E-15 3.05020E-14
 -1       848 1.98107E+01 4.07826E-01 9.44332E-06-3.44549E-01 5.02944E-14-2.83289E-14
 -1       849 1.98735E+01 3.25736E-01 5.99304E-06-2.66153E-01-2.42092E-14-1.65216E-13
 -1       850 1.99185E+01 2.56035E-01 3.53891E-06-2.02152E-01-2.95389E-14-1.40374E-13
 -1       851 1.99502E+01 1.98161E-01 1.64335E-06-1.50743E-01-5.96665E-14 9.19284E-14
 -1       852 1.99720E+01 1.50986E-01 6.02981E-07-1.10132E-01 5.57902E-14 1.06263E-13
 -1       853 1.99867E+01 1.13164E-01 1.85181E-07-7.86046E-02 1.31596E-13-3.59295E-14
 -1       854 1.99962E+01 8.33167E-02 6.94682E-07-5.45582E-02 7.89330E-14 4.41323E-14
 -1       855 2.00020E+01 6.01213E-02 8.79818E-07-3.65618E-02-2.23978E-13-4.99512E-14
 -1       856 2.00053E+01 4.23784E-02 6.33300E-07-2.33627E-02-1.83619E-13 1.41142E-13
 -1       857 2.00069E+01 2.90205E-02 3.14721E-07-1.39018E-02-5.00896E-14 1.04519E-13
 -1       858 2.00074E+01 1.91402E-02 1.18500E-07-7.30407E-03-3.93741E-14-7.81226E-14
 -1       859 2.00072E+01 1.19769E-02 1.78941E-08-2.85593E-03 1.00299E-13-9.90604E-14
 -1       860 2.00066E+01 6.90279E-03-3.26739E-08 1.14275E-05-9.89566E-14-1.22789E-13
 -1       861 2.00058E+01 3.40889E-03-5.80055E-08 1.74241E-03-3.55302E-13 1.90099E-14
 -1       862 2.00050E+01 1.08904E-03-6.92162E-08 2.67787E-03-1.01696E-13 7.35389E-14
 -1       863 2.00041E+01-3.75633E-04-7.19024E-08 3.07432E-03-3.57883E-14-3.10917E-14
 -1       864 2.00033E+01-1.23162E-03-6.95282E-08 3.12099E-03 1.67448E-13-2.80726E-13
 -1       865 2.00026E+01-1.66644E-03-6.39553E-08 2.95432E-03 6.14915E-14-1.86653E-13
 -1       866 2.00020E+01-1.82046E-03-5.47805E-08 2.67020E-03 2.94512E-13 7.71161E-14
 -1       867 2.00015E+01-1.79712E-03-3.99880E-08 2.33380E-03-9.95116E-14 1.21624E-15
 -1       868 2.00010E+01-1.67126E-03-2.71522E-08 1.98730E-03-2.38298E-13-3.30609E-13
 -1       869 2.00007E+01-1.49613E-03-1.24046E-07 1.65626E-03-2.78797E-13-7.63981E-14
 -1       870 2.00004E+01-1.30754E-03 1.95614E-07 1.35397E-03-2.62136E-13-1.35391E-13
 -1       871 2.02949E+01-3.81443E-01 4.11786E-05 1.41227E+00 1.45085E-14-1.55700E-13
 -1       872 2.07746E+01-8.92600E-01 6.51593E-04 1.52608E+00 5.46784E-14-1.71398E-13
 -1       873 1.98903E+01 2.01501E-01 5.16121E-05 1.06576E+00-1.08121E-13 1.59101E-14
 -1       874 1.98387E+01 3.23560E-01 4.51124E-05 8.94215E-01-1.27853E-14-2.47560E-14
 -1       875 1.98332E+01 3.73569E-01 2.84733E-05 7.37779E-01-2.78463E-14 2.22393E-14
 -1       876 1.98509E+01 3.76354E-01 2.29057E-05 5.99300E-01-2.96315E-14 4.72223E-14
 -1       877 1.98780E+01 3.50861E-01 1.46532E-05 4.79477E-01-5.20299E-14 2.01555E-14
 -1       878 1.99065E+01 3.10606E-01 9.23623E-06 3.77683E-01 3.63180E-14 4.28037E-15
 -1       879 1.99326E+01 2.64572E-01 6.86558E-06 2.92722E-01-1.23862E-14-1.38669E-13
 -1       880 1.99544E+01 2.18507E-01 4.54904E-06 2.23055E-01-1.76670E-13-2.39496E-13
 -1       881 1.99715E+01 1.75786E-01 2.59749E-06 1.66900E-01-1.39457E-13-8.30742E-14
 -1       882 1.99844E+01 1.38122E-01 1.38770E-06 1.22391E-01-1.47049E-13-2.35488E-14
 -1       883 1.99935E+01 1.06122E-01 7.75832E-07 8.77163E-02-1.52125E-13 8.60639E-15
 -1       884 1.99996E+01 7.97399E-02 1.17946E-06 6.11790E-02-3.09328E-14-3.04923E-14
 -1       885 2.00035E+01 5.85431E-02 8.39747E-07 4.12472E-02 7.51795E-14-1.53858E-13
 -1       886 2.00056E+01 4.19027E-02 5.62997E-07 2.65707E-02 2.08771E-14-2.24703E-13
 -1       887 2.00066E+01 2.91154E-02 3.07113E-07 1.60048E-02-9.21128E-14-4.16087E-13
 -1       888 2.00068E+01 1.94973E-02 1.17359E-07 8.59908E-03-1.16339E-13-1.40193E-13
 -1       889 2.00064E+01 1.24249E-02 1.24831E-08 3.57594E-03-5.75410E-14 1.14897E-13
 -1       890 2.00058E+01 7.35216E-03-4.00834E-08 3.12454E-04 3.48809E-14-7.66370E-14
 -1       891 2.00051E+01 3.81702E-03-6.47354E-08-1.68039E-03-1.64971E-13-1.77071E-13
 -1       892 2.00042E+01 1.43953E-03-7.41347E-08-2.77923E-03-2.37497E-13-1.14006E-13
 -1       893 2.00035E+01-8.53108E-05-7.48436E-08-3.26872E-03-7.71029E-14-7.49750E-14
 -1       894 2.00028E+01-9.97190E-04-7.08373E-08-3.35973E-03-3.08624E-14-1.54527E-13
 -1       895 2.00022E+01-1.48074E-03-6.47420E-08-3.20503E-03-7.68520E-14 2.17517E-13
 -1       896 2.00016E+01-1.67549E-03-5.74680E-08-2.91248E-03-1.17741E-13 4.61803E-13
 -1       897 2.00012E+01-1.68502E-03-4.64308E-08-2.55585E-03-1.38374E-14 5.22047E-13
 -1       898 2.00008E+01-1.58484E-03-5.10752E-08-2.18332E-03-8.63488E-14 3.14669E-13
 -1       899 2.00005E+01-1.42852E-03-1.91103E-09-1.82448E-03-2.23965E-13 6.72693E-14
 -1       900 2.00003E+01-1.25415E-03-6.90621E-08-1.49772E-03-2.68806E-13 8.70811E-14
 -1       901 2.00001E+01-1.08857E-03-2.45567E-07-1.20619E-03 7.33248E-15 2.80998E-13
 -1       902 2.00000E+01-9.22394E-04-2.42995E-07-9.60634E-04 1.30131E-13 4.34134E-13
 -1       903 2.40444E+01-2.39419E+00-1.76759E-04 4.57860E-01-1.53781E-13-5.81792E-13
 -1       904 2.21005E+01-2.83383E+00-2.31409E-03 2.68838E+00-3.02311E-13-5.04249E-13
 -1       905 1.40591E+01 6.62369E-01 5.27016E-02-2.65335E+00 1.31271E-13 2.83933E-13
 -1       906 2.51721E+01-9.85023E-01-2.50752E-02-1.13221E+00 5.03720E-14-6.01237E-13
 -1       907 2.00008E+01-1.52172E-03 2.70695E-07 6.25002E-04-8.70407E-14 3.23654E-13
 -1       908 2.01524E+01-1.90763E+00 1.05733E-02 3.14485E+00-2.48822E-13-3.63253E-13
 -1       909 2.00006E+01-1.35118E-03-3.18873E-08-9.64219E-04-2.48313E-13-3.34071E-13
 -1       910 2.26487E+01-2.14891E+00-1.82149E-03 1.19581E+00-1.22178E-13-3.85783E-13
 -1       911 2.00010E+01-1.60901E-03 1.10969E-07-2.16989E-04-9.18649E-14-2.51241E-13
 -1       912 1.38653E+01 1.21580E+00 2.05968E-02 1.05516E+00-9.35110E-14 2.88250E-13
 -1       913 2.15429E+01-1.52395E+00 3.48677E-03 1.50644E+00-4.61626E-14-3.12103E-13
 -1       914 2.00010E+01-1.60754E-03-1.60291E-06 2.16889E-04-1.89238E-13-1.95467E-13
 -1       915 2.00008E+01-1.51998E-03-3.24368E-08-6.24359E-04-1.02849E-13-1.68811E-13
 -1       916 1.61293E+01 9.96154E-01 2.79420E-03-1.75159E+00 4.33557E-14 1.65140E-13
 -1       917 1.94320E+01 4.43022E-01 6.53015E-05 9.80084E-01-8.57425E-14 1.22804E-13
 -1       918 1.70577E+01 1.13653E+00-2.14438E-04-1.28066E+00-1.59901E-14 3.87905E-14
 -1       919 1.77697E+01 1.15332E+00-5.51145E-04-9.93003E-01 6.10953E-14 4.20502E-14
 -1       920 1.83133E+01 1.09735E+00-2.77946E-04-8.02286E-01 7.33635E-14 5.72101E-15
 -1       921 1.87311E+01 9.99627E-01-1.33694E-04-6.61833E-01-3.84904E-14-5.33026E-14
 -1       922 1.90530E+01 8.81262E-01-1.07481E-04-5.48889E-01 1.13020E-13-5.76153E-14
 -1       923 1.93005E+01 7.56885E-01-4.89241E-05-4.53041E-01 1.24090E-13-6.70366E-14
 -1       924 1.94897E+01 6.35745E-01-3.56642E-05-3.69716E-01 1.69592E-14-1.61212E-15
 -1       925 1.96332E+01 5.23980E-01-3.27522E-05-2.97322E-01-8.16040E-14 3.09678E-15
 -1       926 1.97411E+01 4.24380E-01-2.77873E-05-2.35073E-01-5.68053E-14-8.22274E-14
 -1       927 1.98214E+01 3.38118E-01-2.08163E-05-1.82564E-01-1.75444E-14-1.33279E-13
 -1       928 1.98803E+01 2.65185E-01-1.41036E-05-1.39130E-01 1.46535E-13-1.35588E-14
 -1       929 1.99229E+01 2.04766E-01-7.13057E-06-1.03896E-01 8.83963E-14 1.20687E-13
 -1       930 1.99531E+01 1.55548E-01-5.80671E-06-7.58754E-02 1.29395E-13 5.12970E-14
 -1       931 1.99740E+01 1.16176E-01-2.15870E-06-5.40233E-02 1.33187E-13 1.64231E-13
 -1       932 1.99881E+01 8.51328E-02-1.35060E-06-3.73112E-02-4.98533E-14 1.01696E-13
 -1       933 1.99973E+01 6.10831E-02-1.00903E-06-2.47999E-02-7.09977E-15 2.51517E-13
 -1       934 2.00030E+01 4.27301E-02-5.71209E-07-1.56311E-02-4.98894E-14 4.66020E-13
 -1       935 2.00062E+01 2.89630E-02-1.76359E-07-9.08618E-03-1.05005E-13 3.52517E-13
 -1       936 2.00077E+01 1.88304E-02 1.53566E-07-4.54859E-03-1.80193E-13 1.52347E-13
 -1       937 2.00081E+01 1.15295E-02 3.80658E-07-1.51500E-03-2.38370E-14-1.44726E-13
 -1       938 2.00078E+01 6.39816E-03 5.04458E-07 4.15593E-04-1.16964E-13-1.06593E-13
 -1       939 2.00071E+01 2.90059E-03 5.49274E-07 1.55654E-03-1.68510E-13-7.52955E-14
 -1       940 2.00062E+01 6.10572E-04 5.41326E-07 2.14803E-03-1.45063E-13-1.62083E-13
 -1       941 2.00052E+01-8.05511E-04 5.01153E-07 2.37047E-03-8.40934E-14-1.53127E-13
 -1       942 2.00043E+01-1.60458E-03 4.43038E-07 2.35646E-03 2.39050E-13-2.43225E-13
 -1       943 2.00035E+01-1.98126E-03 3.77803E-07 2.20112E-03 9.32263E-14-1.45142E-13
 -1       944 2.00027E+01-2.08042E-03 3.15871E-07 1.97094E-03 1.42946E-13-5.75719E-13
 -1       945 2.00020E+01-2.00871E-03 2.53333E-07 1.71076E-03-2.60308E-13-3.83143E-13
 -1       946 2.00015E+01-1.84239E-03 1.24280E-07 1.44917E-03-2.71355E-13-2.22524E-13
 -1       947 2.00010E+01-1.63476E-03 2.07149E-07 1.20033E-03-2.38468E-13-1.10779E-13
 -1       948 1.94669E+01 2.59009E-02-3.52460E-04 1.50865E+00-9.84208E-14-1.38159E-15
 -1       949 1.96866E+01-4.19852E-01-5.40561E-04 1.84205E+00-6.42480E-14-1.61800E-13
 -1       950 1.94985E+01 5.01705E-01 2.07579E-05 7.83256E-01 4.17028E-14 1.35104E-13
 -1       951 1.95806E+01 5.03468E-01 2.85843E-05 6.22068E-01-4.10238E-14-1.72893E-14
 -1       952 1.96637E+01 4.70135E-01-6.36777E-06 4.90421E-01-2.24107E-14 8.56033E-15
 -1       953 1.97397E+01 4.18456E-01-1.75102E-05 3.83065E-01 1.18710E-14 2.33643E-15
 -1       954 1.98051E+01 3.59022E-01-1.60049E-05 2.95828E-01 1.83167E-14 8.39868E-15
 -1       955 1.98590E+01 2.98984E-01-1.11354E-05 2.25556E-01-1.60489E-16 3.41320E-14
 -1       956 1.99018E+01 2.42744E-01-6.61734E-06 1.69502E-01-3.21142E-13-8.23050E-14
 -1       957 1.99347E+01 1.92670E-01-4.86659E-06 1.25308E-01-1.64616E-13-4.14096E-14
 -1       958 1.99592E+01 1.49663E-01-5.12250E-06 9.08499E-02-1.28250E-13-9.07579E-14
 -1       959 1.99769E+01 1.13840E-01-1.52649E-07 6.44010E-02-5.45448E-14-2.23858E-13
 -1       960 1.99892E+01 8.47238E-02-1.66090E-06 4.44030E-02 2.52247E-14-2.76131E-14
 -1       961 1.99974E+01 6.16252E-02-1.56022E-06 2.95382E-02-2.11876E-14-8.45101E-14
 -1       962 2.00026E+01 4.36654E-02-1.34905E-06 1.86947E-02 1.93376E-14-1.17969E-13
 -1       963 2.00056E+01 2.99831E-02-1.02733E-06 1.09670E-02-3.01032E-13 9.77332E-14
 -1       964 2.00070E+01 1.97810E-02-6.85901E-07 5.60898E-03-2.09900E-13 1.63346E-13
 -1       965 2.00074E+01 1.23456E-02-3.95551E-07 2.01885E-03 1.71242E-14 1.18614E-13
 -1       966 2.00072E+01 7.06336E-03-1.80640E-07-2.77444E-04-9.33410E-14 1.42457E-13
 -1       967 2.00066E+01 3.42295E-03-3.54279E-08-1.64755E-03-9.16659E-14 2.14881E-15
 -1       968 2.00057E+01 1.00882E-03 5.52811E-08-2.37204E-03-2.95926E-13-7.80242E-15
 -1       969 2.00049E+01-5.09522E-04 1.06067E-07-2.66128E-03-1.17797E-13 4.79594E-14
 -1       970 2.00040E+01-1.38973E-03 1.28220E-07-2.66994E-03-1.18362E-13 3.23237E-13
 -1       971 2.00032E+01-1.82887E-03 1.29901E-07-2.50916E-03-1.16117E-13 3.00401E-13
 -1       972 2.00025E+01-1.97480E-03 1.16623E-07-2.25683E-03-7.25480E-14-1.04274E-13
 -1       973 2.00019E+01-1.93683E-03 1.10005E-07-1.96581E-03 8.58036E-15-6.72178E-14
 -1       974 2.00014E+01-1.79431E-03 1.97225E-08-1.66962E-03-2.28975E-14 1.65006E-13
 -1       975 2.00010E+01-1.60142E-03 3.87317E-07-1.39131E-03-2.13605E-13-1.80169E-13
 -1       976 2.00007E+01-1.47608E-03 1.28080E-07-1.16716E-03-3.04395E-13-3.48832E-13
 -1       977 1.64922E+01 8.58736E-02 5.01762E-03 2.77441E+00-3.22676E-13 6.15610E-15
 -1       978 1.94068E+01 2.97574E-01 8.06220E-05 1.21992E+00-7.41192E-14 1.73273E-13
 -1       979 1.45462E+01 1.34588E+00 1.44058E-02-6.70326E-01-4.37367E-15 2.38471E-13
 -1       980 2.00011E+01-1.67177E-03 1.61298E-07-7.78443E-04-5.97179E-14 6.53474E-14
 -1       981 2.01855E+01-1.08062E+00 4.56703E-05 2.18152E+00-9.19238E-14-2.97293E-13
 -1       982 2.00013E+01-1.77635E-03-2.34223E-06-3.07002E-04 1.39934E-13-6.34556E-13
 -1       983 1.58024E+01 8.03784E-01 7.67234E-03 1.86689E+00-1.93285E-13 3.65423E-14
 -1       984 1.86458E+01-7.40245E-01 1.45306E-03 2.81659E+00-2.52024E-13-3.05711E-14
 -1       985 2.00014E+01-1.79307E-03 8.70447E-07 1.98957E-04-7.20355E-14-8.12864E-14
 -1       986 2.10865E+01-1.78785E+00 1.71175E-03 2.24003E+00-1.24057E-13-3.43778E-13
 -1       987 1.86579E+01 1.88821E-01-1.21724E-03 1.74234E+00-1.66116E-13 5.26232E-14
 -1       988 1.60244E+01 1.34962E+00 1.57020E-03-5.01881E-01-9.81138E-14 1.60894E-13
 -1       989 1.70454E+01 1.30627E+00-1.20897E-04-4.13535E-01-1.19400E-14 1.51617E-13
 -1       990 1.77802E+01 1.22077E+00-3.48880E-04-3.67728E-01-4.76088E-15 8.11231E-14
 -1       991 1.83250E+01 1.11161E+00-1.80253E-04-3.31888E-01-9.10467E-14-3.97193E-14
 -1       992 1.87369E+01 9.88801E-01-6.25048E-05-2.99026E-01 2.42160E-14-7.77604E-14
 -1       993 1.90529E+01 8.58807E-01-2.35018E-05-2.65214E-01 6.44308E-14-1.94025E-13
 -1       994 1.92961E+01 7.30324E-01-5.92143E-05-2.29158E-01 1.57003E-13-2.47417E-13
 -1       995 1.94825E+01 6.10021E-01-1.19660E-04-1.93201E-01-6.92431E-15-1.80459E-13
 -1       996 1.96258E+01 5.00167E-01-9.58156E-05-1.58726E-01-1.04027E-13-5.75834E-14
 -1       997 1.97343E+01 4.03222E-01-8.56981E-05-1.27386E-01 2.87375E-14 1.99134E-14
 -1       998 1.98157E+01 3.19720E-01-6.14828E-05-9.98171E-02 1.13317E-13 2.81784E-14
 -1       999 1.98759E+01 2.49547E-01-2.97814E-05-7.64333E-02 9.48849E-14 1.18208E-13
 -1      1000 1.99198E+01 1.91576E-01-1.27763E-05-5.70886E-02 9.52497E-14 1.66612E-13
 -1      1001 1.99510E+01 1.44717E-01-4.57202E-06-4.16750E-02 1.77869E-13 5.20728E-14
 -1      1002 1.99729E+01 1.07188E-01-1.77372E-05-2.94434E-02-1.63551E-13 3.12701E-14
 -1      1003 1.99877E+01 7.78967E-02-1.86811E-05-2.01067E-02-9.70004E-14-4.48045E-14
 -1      1004 1.99974E+01 5.52592E-02-1.25916E-05-1.31127E-02-2.96551E-14-1.51160E-13
 -1      1005 2.00033E+01 3.81006E-02-9.16841E-06-8.03286E-03-1.89608E-13-2.92349E-13
 -1      1006 2.00067E+01 2.53373E-02-6.37878E-06-4.43555E-03-1.51410E-13-6.96629E-14
 -1      1007 2.00083E+01 1.60324E-02-4.22097E-06-1.96990E-03-2.17457E-13 6.29495E-14
 -1      1008 2.00087E+01 9.40357E-03-2.63302E-06-3.49748E-04-1.13865E-13 8.20366E-14
 -1      1009 2.00083E+01 4.81024E-03-1.50397E-06 6.53853E-04-5.64553E-14 1.53112E-13
 -1      1010 2.00076E+01 1.73720E-03-7.26922E-07 1.21999E-03-2.00095E-13 3.76132E-13
 -1      1011 2.00066E+01-2.22934E-04-2.12635E-07 1.48556E-03-5.53544E-14 4.24230E-13
 -1      1012 2.00056E+01-1.38693E-03 1.09794E-07 1.55286E-03-6.45466E-14 3.24474E-13
 -1      1013 2.00046E+01-1.99702E-03 2.96373E-07 1.49647E-03-2.33566E-14-1.53587E-13
 -1      1014 2.00037E+01-2.23521E-03 4.15637E-07 1.36912E-03-1.75267E-13-3.51409E-13
 -1      1015 2.00029E+01-2.23467E-03 4.06903E-07 1.20748E-03-7.62166E-14-4.90109E-13
 -1      1016 2.00022E+01-2.09708E-03 1.77601E-07 1.03583E-03-1.73088E-13-1.29201E-13
 -1      1017 2.00016E+01-1.88580E-03 6.41874E-07 8.67325E-04-5.41457E-14 1.67503E-13
 -1      1018 1.94202E+01 6.00075E-01-4.12403E-05 4.55027E-01-3.77839E-14 1.77387E-13
 -1      1019 1.95510E+01 5.33858E-01-1.00756E-04 3.48688E-01-2.27367E-14 2.02773E-13
 -1      1020 1.96607E+01 4.59333E-01-8.62607E-05 2.65422E-01-6.15538E-14 3.52506E-13
 -1      1021 1.97500E+01 3.84374E-01-6.80333E-05 2.00572E-01 1.40475E-14 3.10782E-13
 -1      1022 1.98209E+01 3.14018E-01-3.90272E-05 1.50073E-01-6.20067E-14 2.51015E-13
 -1      1023 1.98759E+01 2.50885E-01-4.06587E-05 1.10944E-01-2.43272E-13-1.38388E-14
 -1      1024 1.99172E+01 1.96808E-01-1.41116E-05 8.07027E-02-5.84554E-14-1.01731E-13
 -1      1025 1.99479E+01 1.51071E-01-7.37632E-07 5.77541E-02-8.94873E-14-2.69709E-13
 -1      1026 1.99698E+01 1.13710E-01-1.08510E-05 4.03047E-02-1.30572E-13-1.86821E-13
 -1      1027 1.99851E+01 8.37781E-02-1.28216E-05 2.73715E-02-2.87381E-14 4.28032E-15
 -1      1028 1.99953E+01 6.02945E-02-1.14934E-05 1.78476E-02 4.85392E-14 1.58986E-13
 -1      1029 2.00018E+01 4.21988E-02-8.06491E-06 1.10052E-02-2.22656E-13 9.75890E-14
 -1      1030 2.00056E+01 2.85531E-02-5.69153E-06 6.19874E-03-1.54554E-13-1.10994E-14
 -1      1031 2.00076E+01 1.84790E-02-3.82490E-06 2.91254E-03-1.21483E-13-1.23651E-13
 -1      1032 2.00082E+01 1.12119E-02-2.42846E-06 7.47265E-04-7.17470E-14 9.50626E-15
 -1      1033 2.00081E+01 6.10812E-03-1.42351E-06-6.06498E-04-8.77412E-14 1.79769E-13
 -1      1034 2.00075E+01 2.63905E-03-7.24078E-07-1.38587E-03-1.51666E-13 1.35489E-13
 -1      1035 2.00066E+01 3.79957E-04-2.55378E-07-1.76989E-03-9.09984E-14-2.00862E-13
 -1      1036 2.00056E+01-1.00378E-03 4.30145E-08-1.89150E-03-3.18782E-13-3.81074E-13
 -1      1037 2.00047E+01-1.77088E-03 2.18399E-07-1.84743E-03-2.04357E-13-3.12319E-13
 -1      1038 2.00038E+01-2.11764E-03 3.24332E-07-1.70633E-03 4.48103E-16-4.18155E-14
 -1      1039 2.00030E+01-2.18950E-03 3.13128E-07-1.51583E-03-1.10324E-13 2.56737E-13
 -1      1040 2.00023E+01-2.09516E-03 2.41001E-07-1.30942E-03-1.96960E-13 1.19542E-13
 -1      1041 2.00017E+01-1.90830E-03 3.88863E-08-1.10590E-03 1.01619E-14 9.70508E-14
 -1      1042 2.00014E+01-1.79379E-03 7.03421E-08-9.34266E-04-2.24863E-13 2.11812E-13
 -1      1043 1.89264E+01 6.06426E-01-4.36792E-05 1.00961E+00-1.82782E-14 1.09443E-13
 -1      1044 1.87628E+01 4.68166E-01 2.21834E-04 1.32648E+00-1.26138E-13 5.93757E-14
 -1      1045 1.92686E+01 6.47391E-01 1.06964E-04 5.93428E-01-8.82308E-14 6.55657E-14
 -1      1046 1.91003E+01 6.57354E-01-4.25251E-05 7.72651E-01-2.63442E-14-8.96405E-14
 -1      1047 1.73578E+01 3.61007E-01 1.89072E-03 2.08893E+00-1.75948E-13 2.63195E-14
 -1      1048 2.00016E+01-1.92853E-03-6.57855E-07-4.09960E-04-4.16970E-14-5.44718E-13
 -1      1049 1.54960E+01 1.29842E+00 6.74499E-03 6.13349E-01-9.48225E-14 1.59016E-13
 -1      1050 1.66653E+01 1.27071E+00 3.99798E-03 3.54630E-01-1.03176E-13 1.98092E-13
 -1      1051 1.86863E+01-3.02031E-01 2.04503E-03 2.29464E+00-1.95540E-13 9.13928E-15
 -1      1052 1.74629E+01 1.22466E+00-3.78333E-04 1.89292E-01-9.53960E-14 7.64476E-14
 -1      1053 1.80735E+01 1.13568E+00 7.10480E-04 8.72880E-02-5.48884E-14 4.33879E-14
 -1      1054 1.85342E+01 1.02529E+00 7.35662E-04 1.47391E-02-7.89221E-15 1.01221E-13
 -1      1055 1.88814E+01 9.10137E-01 2.66653E-05-2.61968E-02-4.60441E-14 2.61447E-14
 -1      1056 1.91543E+01 7.88262E-01 4.56018E-04-4.41285E-02 1.46219E-14-2.22236E-13
 -1      1057 1.93634E+01 6.70718E-01-4.44324E-05-5.32916E-02 5.06728E-15-4.99690E-13
 -1      1058 1.95314E+01 5.57496E-01-4.00884E-05-5.45134E-02 1.26462E-14-4.72259E-13
 -1      1059 1.96608E+01 4.55291E-01-2.65807E-05-5.01825E-02-5.81216E-14-3.73145E-13
 -1      1060 1.97594E+01 3.65513E-01-8.13525E-06-4.34413E-02 1.31615E-13-1.90109E-13
 -1      1061 1.98358E+01 2.87529E-01 2.29695E-04-3.53837E-02 2.17829E-13-1.23837E-13
 -1      1062 1.98909E+01 2.22734E-01 2.05278E-04-2.79446E-02 1.29206E-13-9.49084E-14
 -1      1063 1.99302E+01 1.69492E-01-4.46876E-05-2.13401E-02-9.08939E-14-2.50330E-13
 -1      1064 1.99583E+01 1.27484E-01 6.03736E-05-1.52741E-02-9.36197E-15-3.41817E-13
 -1      1065 1.99776E+01 9.39165E-02 1.72422E-06-1.08873E-02-1.42145E-13-2.39375E-13
 -1      1066 1.99911E+01 6.74275E-02 1.53605E-06-7.46236E-03-1.21620E-13-2.80752E-13
 -1      1067 1.99997E+01 4.71744E-02 2.21680E-06-4.82686E-03-1.91259E-13-4.56910E-13
 -1      1068 2.00049E+01 3.19547E-02 2.21055E-06-2.88341E-03-4.17527E-14-3.28505E-13
 -1      1069 2.00077E+01 2.07384E-02 1.91321E-06-1.50455E-03-6.70916E-14-2.27513E-13
 -1      1070 2.00089E+01 1.26519E-02 1.55785E-06-5.65585E-04-5.49262E-14-2.15989E-13
 -1      1071 2.00090E+01 6.96972E-03 1.22728E-06 4.23680E-05-2.86415E-15-2.00864E-13
 -1      1072 2.00085E+01 3.10088E-03 9.44719E-07 4.08992E-04-5.92280E-14-1.52004E-13
 -1      1073 2.00076E+01 5.73254E-04 7.13147E-07 6.05330E-04-7.83358E-14-2.60434E-14
 -1      1074 2.00066E+01-9.83790E-04 5.29950E-07 6.85958E-04-1.90656E-13-1.37897E-14
 -1      1075 2.00055E+01-1.85621E-03 3.93167E-07 6.91688E-04-2.83262E-13-3.60385E-14
 -1      1076 2.00045E+01-2.26088E-03 2.97674E-07 6.52382E-04-3.40193E-13-1.53242E-13
 -1      1077 2.00036E+01-2.35969E-03 1.59118E-07 5.89726E-04-1.55586E-13-1.55501E-13
 -1      1078 2.00027E+01-2.26625E-03-1.74434E-06 5.16278E-04 8.10235E-14-1.07760E-13
 -1      1079 2.00020E+01-2.07050E-03 5.42303E-07 4.33670E-04-5.60431E-14-1.90855E-15
 -1      1080 1.95071E+01 5.62026E-01-6.81553E-06 1.96450E-01-3.73642E-14 2.43469E-13
 -1      1081 1.93495E+01 6.54279E-01 1.38939E-05 2.68061E-01-1.28955E-13 1.82645E-13
 -1      1082 1.97344E+01 3.86633E-01-6.27533E-07 1.05905E-01 1.14603E-13 1.25664E-13
 -1      1083 1.98123E+01 3.10328E-01-1.16157E-04 7.56983E-02-5.16195E-14 2.02282E-14
 -1      1084 1.98737E+01 2.44373E-01 3.11884E-04 5.45515E-02-6.79735E-14-2.61568E-13
 -1      1085 1.99166E+01 1.88488E-01-1.22181E-06 3.86823E-02 7.03999E-14-2.59557E-13
 -1      1086 1.99484E+01 1.43524E-01 1.38901E-04 2.72679E-02-4.57630E-14-4.28869E-13
 -1      1087 1.99701E+01 1.07196E-01-1.04741E-05 1.88104E-02-2.65470E-13-4.80307E-13
 -1      1088 1.99858E+01 7.81932E-02 4.19321E-06 1.22854E-02-1.53598E-13-3.23784E-13
 -1      1089 1.99962E+01 5.55579E-02 3.06732E-06 7.82120E-03-1.17219E-13-2.56842E-13
 -1      1090 2.00027E+01 3.83424E-02 3.21157E-06 4.64665E-03-1.26844E-13-1.78065E-13
 -1      1091 2.00065E+01 2.54930E-02 2.95618E-06 2.44969E-03-7.31781E-14-3.82452E-13
 -1      1092 2.00083E+01 1.61046E-02 2.53399E-06 9.76670E-04-7.44909E-14-3.18599E-13
 -1      1093 2.00089E+01 9.40873E-03 2.09013E-06 2.97627E-05-2.09996E-14-2.52369E-13
 -1      1094 2.00086E+01 4.76843E-03 1.67999E-06-5.42237E-04-1.11837E-14-3.75723E-13
 -1      1095 2.00079E+01 1.66673E-03 1.32191E-06-8.53223E-04 1.28714E-14-5.51976E-13
 -1      1096 2.00069E+01-3.07388E-04 1.02077E-06-9.87817E-04-1.71443E-13-4.99232E-13
 -1      1097 2.00059E+01-1.47473E-03 7.77498E-07-1.00795E-03-2.82688E-13-4.93413E-13
 -1      1098 2.00049E+01-2.08117E-03 5.91597E-07-9.58227E-04-3.84015E-13-3.91678E-13
 -1      1099 2.00039E+01-2.31230E-03 4.01626E-07-8.70409E-04-1.93888E-13-1.48131E-13
 -1      1100 2.00031E+01-2.30668E-03-8.52235E-07-7.59003E-04-4.04180E-14-1.46657E-13
 -1      1101 2.00023E+01-2.14451E-03-1.49889E-06-6.50779E-04 1.61802E-14-2.62559E-13
 -1      1102 1.79399E+01 7.29368E-01-1.35158E-03 1.29262E+00-9.80384E-14-7.03910E-14
 -1      1103 1.86523E+01 8.41006E-01-1.05346E-04 6.74514E-01 3.82048E-14 1.09523E-13
 -1      1104 1.83300E+01 8.19101E-01 9.79150E-04 9.28218E-01-1.60089E-13-2.04280E-14
 -1      1105 1.91673E+01 7.34462E-01 7.41176E-04 3.61492E-01-1.73987E-13 1.32367E-13
 -1      1106 1.96343E+01 4.71185E-01-3.06568E-06 1.44557E-01 4.60045E-15 1.97236E-13
 -1      1107 1.89295E+01 8.04788E-01 1.78994E-04 4.91236E-01-5.17452E-14 1.41341E-13
 -1      1108 2.00024E+01-2.18057E-03 3.23790E-06-2.70795E-04 1.20318E-13-5.35217E-13
 -1      1109 1.68307E+01 1.04331E+00 4.53897E-04 1.08503E+00-9.92659E-14-5.86562E-14
 -1      1110 1.98868E+01 2.23455E-01-1.44388E-04 6.15670E-03 6.92943E-14-4.73194E-13
 -1      1111 1.85960E+01 9.62403E-01-8.22991E-04 2.92532E-01 8.34998E-16 3.30660E-15
 -1      1112 1.79901E+01 1.02828E+00-1.61051E-03 6.07613E-01-1.52302E-13-3.29305E-14
 -1      1113 1.90579E+01 8.06363E-01-1.26691E-03 1.85985E-01-1.44726E-13 3.65530E-14
 -1      1114 1.99434E+01 1.48148E-01-1.02569E-04 6.40291E-03-1.62826E-14-2.54630E-13
 -1      1115 3.70507E+01 1.20148E+01 2.99838E+00-7.79686E+00-5.30687E-14 2.16710E-12
 -1      1116 2.65760E+01 8.09855E+00 4.19133E-01-3.48453E+00-3.01426E-14 5.12097E-13
 -1      1117 2.30711E+01 6.98479E+00 2.11479E-01-1.65210E+00-1.95399E-14-2.26735E-13
 -1      1118 2.00085E+01 6.04754E+00 1.49931E-01-3.45503E-01-1.07692E-14-5.88736E-13
 -1      1119 1.68000E+01 5.05316E+00 4.38335E-02 5.27799E-01-4.21885E-15-7.88741E-13
 -1      1120 1.37072E+01 4.07861E+00-1.11879E-01 7.38414E-01-3.44169E-15-9.04829E-13
 -1      1121 1.14306E+01 3.35531E+00-2.46190E-01 2.01536E-01-3.60822E-15-9.69429E-13
 -1      1122 1.06667E+01 3.11466E+00-2.84512E-01-7.70033E-01-4.25354E-15-9.96768E-13
 -1      1123 1.16018E+01 3.42059E+00-1.99779E-01-1.64996E+00-4.35763E-15-9.98880E-13
 -1      1124 1.38018E+01 4.12853E+00-3.99888E-02-1.94503E+00-3.77476E-15-9.80689E-13
 -1      1125 1.64033E+01 4.95469E+00 1.12311E-01-1.48787E+00-1.27676E-15-9.50916E-13
 -1      1126 1.86821E+01 5.66437E+00 1.99136E-01-4.84846E-01 6.38378E-16-9.05005E-13
 -1      1127 2.03478E+01 6.16837E+00 2.13347E-01 7.47546E-01 6.38378E-15-8.42949E-13
 -1      1128 2.15046E+01 6.50560E+00 1.80696E-01 1.98249E+00 1.30451E-14-6.91527E-13
 -1      1129 2.25209E+01 6.79836E+00 1.40302E-01 3.16057E+00 2.15661E-14-3.49056E-13
 -1      1130 2.41334E+01 7.29974E+00 1.98945E-01 4.47428E+00 3.31679E-14 3.87589E-13
 -1      1131 3.02692E+01 9.59878E+00 1.72657E+00 6.89576E+00 8.37108E-14 2.05558E-12
 -1      1132 3.92618E+01 4.58203E+00 1.55681E+00-5.07789E+00-2.36033E-13 3.23286E-12
 -1      1133 2.99153E+01-1.60507E-01-6.19509E-01-4.97760E-02-8.05814E-14 2.75693E-12
 -1      1134 2.81047E+01-9.04102E-03-8.86902E-02 3.41140E-02-2.51960E-14 2.11871E-12
 -1      1135 2.61633E+01 3.97186E-02 9.28512E-02-7.58006E-02-1.91561E-14 1.66957E-12
 -1      1136 2.34244E+01 4.18502E-03 2.66081E-02-1.49673E-01 2.08926E-16 1.35260E-12
 -1      1137 2.05123E+01-8.96299E-02-1.44768E-01-1.45443E-01-9.10036E-15 1.09900E-12
 -1      1138 1.86041E+01-1.67230E-01-2.79155E-01-4.90517E-02-1.36106E-14 7.07635E-13
 -1      1139 1.86153E+01-1.52885E-01-2.59578E-01 8.41204E-02 1.79544E-14 3.79641E-13
 -1      1140 2.04009E+01-5.67976E-02-1.03435E-01 1.65901E-01-2.31646E-14 1.02862E-13
 -1      1141 2.28753E+01 4.11903E-02 6.33301E-02 1.60154E-01-9.86277E-15-1.39694E-13
 -1      1142 2.48932E+01 8.61175E-02 1.45150E-01 9.99474E-02 1.31188E-14-2.85341E-13
 -1      1143 2.59072E+01 8.13455E-02 1.39309E-01 3.52478E-02 2.27101E-14-1.09635E-13
 -1      1144 2.59708E+01 5.40697E-02 9.18240E-02-7.48606E-03 5.05325E-15-2.05947E-13
 -1      1145 2.54131E+01 2.56550E-02 4.24142E-02-2.64194E-02-1.12258E-14-2.82954E-13
 -1      1146 2.45688E+01 5.10350E-03 7.88749E-03-2.98746E-02-5.41776E-15-3.59740E-13
 -1      1147 2.36705E+01-6.80692E-03-1.07720E-02-2.60675E-02-2.46860E-14-3.21729E-13
 -1      1148 2.28445E+01-1.22395E-02-1.82916E-02-2.01079E-02 2.46071E-15-2.40287E-13
 -1      1149 2.21431E+01-1.36735E-02-1.95138E-02-1.44064E-02-1.42382E-14-2.99271E-13
 -1      1150 2.15761E+01-1.29872E-02-1.77779E-02-9.79239E-03-2.18664E-14-4.76849E-13
 -1      1151 2.11327E+01-1.13659E-02-1.49868E-02-6.35825E-03-1.35043E-14-6.97948E-13
 -1      1152 2.07946E+01-9.47475E-03-1.20826E-02-3.92614E-03-5.04891E-15-7.29669E-13
 -1      1153 2.05420E+01-7.64831E-03-9.46619E-03-2.26193E-03-4.93941E-15-3.37052E-13
 -1      1154 2.03567E+01-6.03147E-03-7.26533E-03-1.15574E-03 5.31584E-16-1.05035E-13
 -1      1155 2.02235E+01-4.66852E-03-5.48359E-03-4.42766E-04-4.21101E-14-1.38212E-13
 -1      1156 2.01298E+01-3.55471E-03-4.07534E-03-1.31153E-06 1.84261E-14-3.23980E-14
 -1      1157 2.00655E+01-2.66417E-03-2.98107E-03 2.55755E-04 3.39250E-14 5.11773E-13
 -1      1158 2.00229E+01-1.96424E-03-2.14245E-03 3.89820E-04 2.19431E-14 4.58288E-13
 -1      1159 1.99959E+01-1.42223E-03-1.50798E-03 4.43742E-04-2.79800E-15-3.95403E-14
 -1      1160 1.99800E+01-1.00844E-03-1.03433E-03 4.47239E-04 5.93912E-15-3.74134E-13
 -1      1161 1.99717E+01-6.97089E-04-6.85918E-04 4.20748E-04 1.51569E-14-1.81402E-13
 -1      1162 1.99685E+01-4.66456E-04-4.33953E-04 3.78129E-04-8.51006E-14 1.47261E-13
 -1      1163 1.99686E+01-2.98579E-04-2.55390E-04 3.28580E-04 2.89498E-14 2.26297E-13
 -1      1164 1.99707E+01-1.78848E-04-1.31979E-04 2.77995E-04 2.72857E-14 2.05339E-13
 -1      1165 1.99738E+01-9.55451E-05-4.94178E-05 2.29962E-04 1.21352E-14 1.22045E-13
 -1      1166 1.99773E+01-3.93896E-05 3.38234E-06 1.86482E-04 4.35433E-14-3.33058E-13
 -1      1167 1.99809E+01-3.11847E-06 3.49261E-05 1.48484E-04 3.51538E-14-3.13006E-13
 -1      1168 1.99843E+01 1.88792E-05 5.16559E-05 1.16196E-04 3.20059E-14-7.17811E-13
 -1      1169 1.99873E+01 3.08794E-05 5.83832E-05 8.94054E-05 6.54973E-16-5.59366E-13
 -1      1170 1.99899E+01 3.60928E-05 5.86439E-05 6.76501E-05 8.86308E-14-5.41261E-13
 -1      1171 1.99922E+01 3.68925E-05 5.49896E-05 5.03406E-05 2.75037E-14-9.62108E-13
 -1      1172 1.99940E+01 3.50045E-05 4.92268E-05 3.68475E-05 3.35072E-14-6.41486E-13
 -1      1173 1.99956E+01 3.16642E-05 4.26124E-05 2.65518E-05-1.02393E-14-3.87081E-13
 -1      1174 1.99968E+01 2.77457E-05 3.60166E-05 1.88721E-05-9.16340E-15-7.16265E-13
 -1      1175 1.99977E+01 2.38643E-05 3.00683E-05 1.32662E-05 5.45759E-14-5.82114E-13
 -1      1176 1.99985E+01 2.04634E-05 2.52890E-05 9.20096E-06 6.32637E-14-3.88845E-14
 -1      1177 1.99991E+01 1.78476E-05 2.21611E-05 6.07229E-06-7.29761E-15 1.89108E-13
 -1      1178 1.99995E+01 1.61360E-05 2.09215E-05 3.07145E-06 5.11478E-14-1.64779E-13
 -1      1179 1.99997E+01 1.48332E-05 2.03724E-05-1.10507E-06 3.43193E-14 1.39509E-13
 -1      1180 1.99998E+01 1.45542E-05 1.33919E-05-8.95605E-06-4.53217E-14-4.60013E-14
 -1      1181 1.99998E+01-7.71237E-06-1.72677E-05-7.39988E-06 2.94893E-14-6.01607E-14
 -1      1182 3.37686E+01 6.71810E-01 5.16699E-01 2.34436E+00-3.69010E-14 3.51014E-12
 -1      1183 2.44418E+01-4.34461E-02-6.18693E-01 1.34090E-01 2.20796E-14 2.66231E-12
 -1      1184 2.24469E+01-1.93301E-02-1.65389E-01 2.03348E-02 2.19113E-14 1.89664E-12
 -1      1185 2.09380E+01-1.50824E-02-2.03898E-02 2.58086E-02 5.75885E-15 1.45686E-12
 -1      1186 1.95260E+01-3.10176E-02-2.30908E-02 4.34510E-02-1.12295E-14 1.22146E-12
 -1      1187 1.83660E+01-4.79106E-02-6.40484E-02 5.23198E-02 1.37130E-14 8.88879E-13
 -1      1188 1.77435E+01-5.21605E-02-9.29111E-02 4.20120E-02 1.11213E-14 5.49952E-13
 -1      1189 1.78450E+01-4.02236E-02-8.87419E-02 1.48329E-02 9.45077E-15 3.84269E-13
 -1      1190 1.86168E+01-1.86831E-02-5.44829E-02-1.71633E-02-1.31275E-14 3.09190E-13
 -1      1191 1.97813E+01 1.88593E-03-9.46708E-03-4.05219E-02 2.10255E-14 1.98307E-13
 -1      1192 2.09798E+01 1.48452E-02 2.62608E-02-4.85386E-02 2.16207E-14-5.99312E-14
 -1      1193 2.19310E+01 1.92584E-02 4.34560E-02-4.31489E-02-4.82145E-15-1.21896E-13
 -1      1194 2.25054E+01 1.76242E-02 4.38314E-02-3.06831E-02 1.23968E-14-1.80297E-13
 -1      1195 2.27094E+01 1.31489E-02 3.44330E-02-1.71666E-02 2.39947E-14-2.91220E-13
 -1      1196 2.26267E+01 8.18030E-03 2.21576E-02-6.15842E-03-5.01942E-15-3.05266E-13
 -1      1197 2.23626E+01 3.94877E-03 1.12197E-02 1.22436E-03 1.03384E-14-1.48321E-13
 -1      1198 2.20096E+01 8.63842E-04 3.23753E-03 5.32096E-03 1.75158E-14-2.23424E-13
 -1      1199 2.16354E+01-1.11527E-03-1.75835E-03 7.01012E-03 2.28971E-15-1.75623E-13
 -1      1200 2.12819E+01-2.21089E-03-4.40240E-03 7.18141E-03 2.53953E-14-3.02673E-13
 -1      1201 2.09715E+01-2.67756E-03-5.44250E-03 6.52749E-03 6.50321E-15-3.78919E-13
 -1      1202 2.07124E+01-2.73626E-03-5.50493E-03 5.51450E-03 4.43683E-15-4.69502E-13
 -1      1203 2.05045E+01-2.55526E-03-5.03878E-03 4.42315E-03 1.76065E-14-2.99409E-13
 -1      1204 2.03432E+01-2.25232E-03-4.33620E-03 3.40415E-03 6.12229E-14-3.79861E-13
 -1      1205 2.02218E+01-1.90445E-03-3.57282E-03 2.52568E-03-4.51966E-14-1.42226E-13
 -1      1206 2.01332E+01-1.55864E-03-2.84566E-03 1.80754E-03-3.57696E-14-9.69227E-14
 -1      1207 2.00705E+01-1.24105E-03-2.20201E-03 1.24360E-03-5.17332E-15-5.08577E-14
 -1      1208 2.00278E+01-9.64109E-04-1.65920E-03 8.15509E-04-7.77313E-15-2.42599E-13
 -1      1209 2.00000E+01-7.31615E-04-1.21761E-03 5.00636E-04 1.23387E-14-4.13514E-13
 -1      1210 1.99832E+01-5.42254E-04-8.68741E-04 2.76405E-04 2.31897E-14-6.64042E-13
 -1      1211 1.99741E+01-3.91949E-04-6.00181E-04 1.22405E-04 1.38841E-14-8.37154E-13
 -1      1212 1.99702E+01-2.75393E-04-3.98436E-04 2.12477E-05-3.68445E-14-7.31495E-13
 -1      1213 1.99698E+01-1.87001E-04-2.50570E-04-4.12542E-05-2.98191E-14-6.95613E-13
 -1      1214 1.99714E+01-1.21467E-04-1.45032E-04-7.63000E-05-8.33288E-14-6.60712E-13
 -1      1215 1.99742E+01-7.40458E-05-7.19809E-05-9.24843E-05 5.31202E-14-1.25389E-12
 -1      1216 1.99776E+01-4.06663E-05-2.33143E-05-9.62400E-05 5.64169E-15-1.32281E-12
 -1      1217 1.99811E+01-1.79416E-05 7.46606E-06-9.22643E-05-7.91840E-16-9.60992E-13
 -1      1218 1.99844E+01-3.12767E-06 2.54530E-05-8.38963E-05 9.22673E-15-1.10729E-12
 -1      1219 1.99873E+01 5.95042E-06 3.45536E-05-7.34377E-05-3.42687E-14-8.12321E-13
 -1      1220 1.99900E+01 1.09824E-05 3.77048E-05-6.24161E-05 2.14738E-14-8.23072E-13
 -1      1221 1.99922E+01 1.32587E-05 3.70704E-05-5.17963E-05 1.01801E-14-9.87332E-13
 -1      1222 1.99940E+01 1.37515E-05 3.42163E-05-4.21455E-05 2.29233E-14-9.88379E-13
 -1      1223 1.99956E+01 1.31887E-05 3.02615E-05-3.37596E-05-7.48786E-14-7.10998E-13
 -1      1224 1.99968E+01 1.21206E-05 2.60127E-05-2.67573E-05 9.40085E-14-6.32436E-13
 -1      1225 1.99977E+01 1.09798E-05 2.20894E-05-2.11447E-05-2.35158E-14-6.17198E-13
 -1      1226 1.99985E+01 1.01203E-05 1.90433E-05-1.68395E-05 3.34255E-15-8.50295E-13
 -1      1227 1.99990E+01 9.79963E-06 1.74212E-05-1.36426E-05 1.97267E-14-9.58953E-13
 -1      1228 1.99995E+01 1.01707E-05 1.75996E-05-1.11174E-05 4.54148E-14-6.77148E-13
 -1      1229 1.99997E+01 1.04867E-05 1.82461E-05-7.90112E-06-4.52277E-14-6.23367E-13
 -1      1230 1.99998E+01 6.25935E-06 1.12195E-05-6.41878E-07 1.29841E-13-8.24014E-13
 -1      1231 1.99998E+01-6.58011E-06-1.75321E-05 6.78216E-06 6.75388E-14-9.25158E-13
 -1      1232 1.99998E+01 1.98445E-05-1.61332E-05 6.76917E-06-1.10108E-12 3.86541E-14
 -1      1233 1.99998E+01 3.45162E-05 1.32879E-05 7.44759E-06-1.33430E-12 1.35987E-13
 -1      1234 1.99998E+01-8.73568E-05 1.72916E-05-2.88070E-06-5.16266E-13 1.88571E-14
 -1      1235 1.99998E+01-3.34723E-04 1.04004E-05-8.40313E-06-2.63115E-14 2.43712E-14
 -1      1236 1.99998E+01-6.49393E-04 1.20018E-06-1.04180E-05-8.32761E-14-2.27852E-15
 -1      1237 1.99998E+01-9.67136E-04-7.09558E-06-9.83567E-06-3.77724E-13-5.62239E-14
 -1      1238 1.99998E+01-1.23651E-03-1.34117E-05-7.62974E-06-4.06870E-13 2.80539E-14
 -1      1239 1.99998E+01-1.41738E-03-1.74471E-05-4.09043E-06 6.71246E-13-9.30309E-14
 -1      1240 1.99998E+01-1.47997E-03-1.88040E-05 3.94130E-08 9.55426E-13 7.56684E-14
 -1      1241 1.99998E+01-1.41514E-03-1.73985E-05 4.16740E-06 1.06155E-12-1.23209E-13
 -1      1242 1.99998E+01-1.23235E-03-1.32981E-05 7.68108E-06-3.79993E-13-2.53750E-13
 -1      1243 1.99998E+01-9.61579E-04-6.92806E-06 9.99167E-06-7.67069E-13 1.56961E-13
 -1      1244 1.99998E+01-6.43581E-04 1.32936E-06 1.04097E-05 2.53842E-13 1.94244E-14
 -1      1245 1.99998E+01-3.29418E-04 1.06010E-05 8.47417E-06 5.00624E-13-1.07881E-14
 -1      1246 1.99998E+01-7.99926E-05 1.82412E-05 3.50092E-06-1.08826E-13 7.51259E-14
 -1      1247 1.99998E+01 2.85954E-05 1.13105E-05-1.30952E-05 5.68115E-14 3.50918E-15
 -1      1248 1.99998E+01 2.26732E-05-1.59973E-05-8.03965E-06 1.55223E-13 2.72512E-14
 -1      1249-9.88038E-01-2.08978E+01-3.54526E+00-1.92746E+00 1.36835E-12 2.99767E-13
 -1      1250-1.35169E+00-1.22346E+01-2.85506E+00-3.20403E+00 2.92943E-12 1.17256E-12
 -1      1251 1.47021E+00 2.55633E-01-1.56168E+00 1.52700E+00 3.67462E-12 2.33269E-12
 -1      1252 1.13004E+01 9.38294E+00 4.37605E-02 1.01044E+01 3.07643E-12 2.97207E-12
 -1      1253 2.82346E+01 1.13963E+01 1.71311E+00 1.69422E+01 2.00917E-12 2.95364E-12
 -1      1254 4.77078E+01 7.61389E+00 3.10198E+00 1.71240E+01 9.42968E-13 2.18314E-12
 -1      1255 6.14416E+01 2.78304E+00 3.82543E+00 8.38681E+00 2.16369E-13 3.44724E-13
 -1      1256 6.26943E+01 1.75693E+00 3.78834E+00-4.59796E+00 3.01575E-13-2.07490E-12
 -1      1257 5.04882E+01 5.47284E+00 2.92244E+00-1.42987E+01 1.27909E-12-3.84126E-12
 -1      1258 3.05541E+01 9.63027E+00 1.45839E+00-1.60319E+01 2.76845E-12-4.62186E-12
 -1      1259 1.27387E+01 9.19775E+00-1.01350E-01-1.04726E+01 4.02145E-12-4.26370E-12
 -1      1260 2.66892E+00 3.03580E+00-1.38438E+00-3.13029E+00 4.36273E-12-3.05156E-12
 -1      1261-7.85761E-01-6.07399E+00-2.20582E+00 1.44005E+00 3.47622E-12-1.53377E-12
 -1      1262-8.35117E-01-1.37309E+01-2.67680E+00 1.57990E+00 1.60216E-12-4.44592E-13
 -1      1263-8.40334E-01-1.58216E+01-2.85808E+00-1.14827E+00-7.80737E-13-2.88651E-13
 -1      1264-1.40831E+00-1.14172E+01-2.79306E+00-2.94097E+00-2.95797E-12-1.13781E-12
 -1      1265 7.19729E-02-2.25959E+00-2.19693E+00-1.27722E-01-4.21729E-12-2.69740E-12
 -1      1266 8.71991E+00 6.40440E+00-8.86910E-01 7.53786E+00-4.18510E-12-4.16422E-12
 -1      1267 2.62711E+01 9.40113E+00 1.02595E+00 1.50213E+01-3.07565E-12-4.77751E-12
 -1      1268 4.80893E+01 6.36663E+00 2.88538E+00 1.52126E+01-1.52939E-12-4.03655E-12
 -1      1269 6.42044E+01 2.24861E+00 4.11636E+00 6.45242E+00-3.68178E-13-2.20979E-12
 -1      1270 6.63007E+01 2.15206E+00 4.35394E+00-6.10782E+00-1.23217E-13-2.77278E-14
 -1      1271 5.54729E+01 6.09336E+00 3.66340E+00-1.56531E+01-7.39936E-13 1.98530E-12
 -1      1272 3.79016E+01 1.04590E+01 2.44291E+00-1.86669E+01-1.89626E-12 3.40550E-12
 -1      1273 1.98669E+01 1.14297E+01 8.50240E-01-1.45737E+01-2.95142E-12 3.66107E-12
 -1      1274 6.66666E+00 6.68716E+00-7.37871E-01-6.76933E+00-3.61000E-12 3.10973E-12
 -1      1275-6.41302E-02-3.25207E+00-2.09795E+00 4.89396E-01-3.49054E-12 2.06424E-12
 -1      1276-1.56738E+00-1.45913E+01-3.14127E+00 3.64908E+00-2.45859E-12 8.48377E-13
 -1      1277-9.74771E-01-2.16182E+01-3.64316E+00 1.84853E+00-7.09932E-13 2.53714E-13
 -1      1278 3.07209E+01 2.34975E+00-8.60011E-01-2.90709E+00-8.58202E-14 1.82715E-12
 -1      1279 2.60315E+01 5.48532E+00-2.66826E-02-2.84186E+00-1.85796E-13 1.86143E-13
 -1      1280 2.76172E+01 5.88690E+00-9.09676E-02-4.14628E+00-2.66620E-13 5.75900E-13
 -1      1281 2.28635E+01 5.21372E+00 1.14222E-02-1.52194E+00-1.57180E-13-3.56548E-13
 -1      1282 2.43654E+01 5.66245E+00 3.50338E-02-2.26339E+00-1.97342E-13-1.26725E-13
 -1      1283 2.59611E+01 4.02988E+00-2.23039E-02-2.71422E+00-3.11931E-13 2.11539E-13
 -1      1284 1.97218E+01 4.63278E+00 3.14494E-03-3.04101E-01-7.97140E-14-6.52613E-13
 -1      1285 2.13477E+01 5.12127E+00 6.30168E-02-8.73043E-01-1.17212E-13-5.25496E-13
 -1      1286 2.26931E+01 3.88842E+00-3.29635E-02-1.47774E+00-2.19463E-13-2.58148E-13
 -1      1287 1.62294E+01 4.15823E+00-4.78399E-02 5.18580E-01-1.49880E-14-8.35634E-13
 -1      1288 1.80283E+01 4.68073E+00 7.11721E-02 2.00979E-01-3.88856E-14-7.59399E-13
 -1      1289 1.92550E+01 3.69662E+00-3.97803E-02-2.70244E-01-9.19681E-14-5.33185E-13
 -1      1290 1.28777E+01 3.95315E+00-1.05641E-01 6.41433E-01 1.13243E-14-9.47702E-13
 -1      1291 1.45120E+01 4.41895E+00 4.00651E-02 6.79426E-01 1.33227E-15-9.04454E-13
 -1      1292 1.54969E+01 3.82945E+00-3.99290E-02 4.92907E-01-4.60743E-15-7.24320E-13
 -1      1293 1.05582E+01 3.98827E+00-1.23322E-01-1.25622E-02-1.46272E-14-1.02567E-12
 -1      1294 1.15255E+01 4.26362E+00-2.78980E-02 3.59324E-01-1.05471E-14-1.00185E-12
 -1      1295 1.20396E+01 4.24477E+00-2.75824E-02 4.75386E-01 7.33441E-15-8.60300E-13
 -1      1296 1.02050E+01 4.09795E+00-7.75029E-02-1.01060E+00-7.29070E-14-1.04933E-12
 -1      1297 1.01328E+01 4.08000E+00-9.53207E-02-5.65254E-01-6.51562E-14-1.04324E-12
 -1      1298 1.00213E+01 4.55314E+00-1.78438E-02-2.87933E-01-6.51632E-14-9.41000E-13
 -1      1299 1.18348E+01 4.15075E+00-3.54805E-04-1.80412E+00-1.22624E-13-1.03762E-12
 -1      1300 1.07877E+01 3.86399E+00-1.21157E-01-1.52506E+00-1.16324E-13-1.03732E-12
 -1      1301 1.02002E+01 4.43576E+00-1.70549E-02-1.30921E+00-1.57579E-13-9.44957E-13
 -1      1302 1.46496E+01 4.19121E+00 6.15396E-02-1.86054E+00-1.35364E-13-9.97542E-13
 -1      1303 1.31506E+01 3.77345E+00-8.27155E-02-1.94295E+00-1.40471E-13-1.01123E-12
 -1      1304 1.24089E+01 3.94585E+00-2.74021E-02-1.89041E+00-2.20005E-13-8.98863E-13
 -1      1305 1.75129E+01 4.34065E+00 8.33283E-02-1.16360E+00-9.55902E-14-9.46299E-13
 -1      1306 1.61159E+01 3.94296E+00-1.32520E-02-1.56531E+00-1.11605E-13-9.59205E-13
 -1      1307 1.55771E+01 3.49087E+00-3.04474E-02-1.64168E+00-2.07459E-13-8.25184E-13
 -1      1308 1.97382E+01 4.63319E+00 7.36442E-02-2.51298E-02-1.21708E-14-8.93365E-13
 -1      1309 1.87142E+01 4.33155E+00 4.10776E-02-5.96041E-01-4.17721E-14-9.12954E-13
 -1      1310 1.85301E+01 3.38254E+00-2.22469E-02-7.20666E-01-1.11730E-13-7.51593E-13
 -1      1311 2.12208E+01 4.99917E+00 4.97172E-02 1.22828E+00 7.82013E-14-8.17665E-13
 -1      1312 2.05593E+01 4.79227E+00 5.96973E-02 6.20892E-01 4.81282E-14-8.63414E-13
 -1      1313 2.06741E+01 3.61215E+00-1.46078E-02 4.93528E-01 2.75856E-14-6.87068E-13
 -1      1314 2.22204E+01 5.35664E+00 2.26008E-02 2.42065E+00 1.68462E-13-6.44575E-13
 -1      1315 2.17556E+01 5.19694E+00 4.62859E-02 1.83740E+00 1.30354E-13-7.53390E-13
 -1      1316 2.20354E+01 3.98219E+00-1.65132E-02 1.71566E+00 1.67765E-13-5.80029E-13
 -1      1317 2.32028E+01 5.65509E+00-4.79707E-04 3.54832E+00 2.54463E-13-2.68507E-13
 -1      1318 2.26751E+01 5.46510E+00 9.09715E-03 2.95895E+00 2.10595E-13-4.98587E-13
 -1      1319 2.30025E+01 4.27766E+00-2.57407E-02 2.83168E+00 3.05134E-13-3.71314E-13
 -1      1320 2.49996E+01 5.71658E+00-3.42433E-03 4.81602E+00 2.61374E-13 5.31783E-13
 -1      1321 2.39311E+01 5.45711E+00-4.33767E-02 4.01181E+00 2.41945E-13 3.86635E-14
 -1      1322 2.41974E+01 4.22850E+00-3.03780E-02 3.82577E+00 4.06376E-13 7.58421E-14
 -1      1323 3.27525E+01 3.85412E+00 1.13622E+00 5.51464E+00 1.62953E-13 2.21245E-12
 -1      1324 2.62614E+01 4.16857E+00-2.20082E-01 4.62374E+00 1.49325E-13 1.03029E-12
 -1      1325 2.62945E+01 2.91304E+00-4.24099E-02 4.22124E+00 4.36229E-13 8.24701E-13
 -1      1326 2.58853E+01 4.05997E-01-8.92496E-01 1.46178E+00 2.71616E-13 2.09199E-12
 -1      1327 3.08608E+01-9.74897E-03-4.80973E-01-1.36749E+00-2.26721E-13 1.96804E-12
 -1      1328 2.94181E+01 2.13442E-01-1.66188E-01-8.89477E-01-2.01304E-13 1.70563E-12
 -1      1329 2.86166E+01 1.21592E-02-5.22405E-02-7.46510E-01-1.26055E-13 1.62596E-12
 -1      1330 2.76205E+01-5.70242E-02 9.76814E-03-7.63982E-01-1.52184E-13 1.40576E-12
 -1      1331 2.88274E+01 1.07367E-01-1.02977E-01-1.72064E+00-3.29105E-13 1.05742E-12
 -1      1332 2.68317E+01-9.21861E-02 3.61370E-02-8.85712E-01-1.19446E-13 1.32608E-12
 -1      1333 2.56596E+01-7.74667E-02 3.36921E-02-9.58721E-01-1.13280E-13 1.16678E-12
 -1      1334 2.71940E+01-1.36032E-01 2.75265E-03-1.62863E+00-2.47961E-13 9.40130E-13
 -1      1335 2.48210E+01-5.40644E-02 3.25090E-02-1.07988E+00-7.99301E-14 1.07236E-12
 -1      1336 2.34757E+01 1.96070E-02 9.46273E-03-1.10399E+00-1.15928E-13 9.38208E-13
 -1      1337 2.56640E+01-1.13670E-01 2.05490E-02-1.94772E+00-2.09560E-13 8.13888E-13
 -1      1338 2.26462E+01 8.85119E-02-5.97594E-03-9.78696E-01-1.09746E-13 8.34999E-13
 -1      1339 2.15116E+01 1.76374E-01-2.87451E-02-9.02283E-01-1.32542E-13 7.18453E-13
 -1      1340 2.40331E+01 1.04279E-01-1.31060E-02-1.97379E+00-2.11029E-13 6.28539E-13
 -1      1341 2.09499E+01 2.36866E-01-4.34934E-02-4.60781E-01-1.72126E-13 5.62508E-13
 -1      1342 2.04979E+01 2.69251E-01-5.24339E-02-3.00812E-01-1.58387E-13 3.72591E-13
 -1      1343 2.26422E+01 3.64432E-01-6.28085E-02-1.29452E+00-2.99125E-13 3.96015E-13
 -1      1344 2.04346E+01 2.59372E-01-5.10024E-02 2.59470E-01-9.85531E-14 2.33903E-13
 -1      1345 2.08399E+01 2.05979E-01-4.12174E-02 4.06125E-01-1.16157E-13 1.03334E-13
 -1      1346 2.20128E+01 4.59771E-01-8.31584E-02-5.36306E-02-2.80713E-13 1.12741E-13
 -1      1347 2.12270E+01 1.35701E-01-2.60794E-02 7.70798E-01-1.10743E-13 7.32747E-15
 -1      1348 2.22034E+01 3.99412E-02-6.67585E-03 8.20180E-01-7.88874E-14-1.26593E-13
 -1      1349 2.23468E+01 3.06036E-01-5.28968E-02 1.08817E+00-2.09725E-13-1.40426E-13
 -1      1350 2.27463E+01-2.49239E-02 4.67639E-03 8.41809E-01-7.52311E-14-1.39805E-13
 -1      1351 2.37810E+01-9.86364E-02 2.14434E-02 7.96083E-01-8.15754E-14-2.33938E-13
 -1      1352 2.32779E+01 2.91995E-02-7.51765E-04 1.54034E+00-1.43549E-13-2.37067E-13
 -1      1353 2.41926E+01-1.18346E-01 1.93070E-02 5.70164E-01-6.90038E-14-2.55851E-13
 -1      1354 2.48960E+01-1.44408E-01 2.77857E-02 4.86235E-01 5.24841E-14-3.06290E-13
 -1      1355 2.42017E+01-1.82223E-01 3.15084E-02 1.26266E+00-8.61637E-14-2.59424E-13
 -1      1356 2.50541E+01-1.28115E-01 1.73672E-02 1.96511E-01 6.47520E-14-3.75859E-13
 -1      1357 2.53082E+01-1.19255E-01 1.93417E-02 1.23127E-01-1.17892E-14-3.52014E-13
 -1      1358 2.47194E+01-2.42972E-01 3.56479E-02 6.24085E-01 2.06953E-15-4.11065E-13
 -1      1359 2.52311E+01-9.20693E-02 9.10514E-03-1.05533E-01-2.89794E-14-3.51795E-13
 -1      1360 2.51184E+01-7.02135E-02 8.23580E-03-1.50212E-01-4.81733E-15-3.97755E-13
 -1      1361 2.47511E+01-1.94458E-01 2.49214E-02 1.35503E-03-4.61887E-14-5.31140E-13
 -1      1362 2.48847E+01-4.82150E-02 2.22139E-03-2.81105E-01 2.70990E-14-3.60954E-13
 -1      1363 2.45549E+01-2.74373E-02 6.82157E-04-2.99780E-01 2.06649E-15-3.54864E-13
 -1      1364 2.44083E+01-1.12246E-01 1.18861E-02-4.21311E-01 2.11471E-14-4.79972E-13
 -1      1365 2.42456E+01-1.47319E-02-1.12875E-03-3.48318E-01 5.06843E-15-3.14677E-13
 -1      1366 2.38302E+01 7.89990E-05-2.54901E-03-3.50151E-01 5.28809E-15-3.48638E-13
 -1      1367 2.38522E+01-4.25333E-02 2.39938E-03-6.27335E-01-5.57237E-15-3.52127E-13
 -1      1368 2.35054E+01 5.22754E-03-1.80578E-03-3.46265E-01-2.08685E-14-2.65279E-13
 -1      1369 2.30901E+01 1.41235E-02-3.07207E-03-3.39469E-01-1.36579E-14-2.32245E-13
 -1      1370 2.32188E+01 1.34799E-03-2.89524E-03-6.74515E-01 3.51260E-15-2.50429E-13
 -1      1371 2.27863E+01 1.46930E-02-1.26838E-03-3.08936E-01 1.59057E-14-2.37418E-13
 -1      1372 2.24152E+01 1.92874E-02-2.44856E-03-2.98880E-01-2.62466E-14-2.51551E-13
 -1      1373 2.25985E+01 2.31850E-02-5.16779E-03-6.29692E-01 1.78189E-14-1.91974E-13
 -1      1374 2.21501E+01 1.76406E-02-4.76041E-04-2.58678E-01-5.70410E-14-2.64400E-13
 -1      1375 2.18396E+01 1.95537E-02-1.57960E-03-2.48285E-01-4.23008E-14-2.97529E-13
 -1      1376 2.20406E+01 3.08012E-02-5.68575E-03-5.43191E-01-4.13766E-14-2.10020E-13
 -1      1377 2.16188E+01 1.71347E-02 1.56344E-04-2.07838E-01-7.48607E-14-3.45661E-13
 -1      1378 2.13700E+01 1.75454E-02-8.42829E-04-1.98453E-01-8.02227E-14-4.50600E-13
 -1      1379 2.15656E+01 3.07516E-02-5.33884E-03-4.45801E-01-1.13066E-13-3.12077E-13
 -1      1380 2.11920E+01 1.50990E-02 5.35387E-04-1.62175E-01-3.24474E-14-4.90010E-13
 -1      1381 2.09985E+01 1.47500E-02-3.28914E-04-1.54267E-01-3.14330E-14-5.29161E-13
 -1      1382 2.11763E+01 2.72639E-02-4.64435E-03-3.53564E-01-1.19183E-13-3.51653E-13
 -1      1383 2.08586E+01 1.25956E-02 7.02559E-04-1.23704E-01-5.12437E-15-4.86543E-13
 -1      1384 2.07116E+01 1.19163E-02-1.24443E-05-1.17307E-01 3.23279E-14-4.38329E-13
 -1      1385 2.08661E+01 2.26815E-02-3.86785E-03-2.73340E-01-9.16173E-15-2.84668E-13
 -1      1386 2.06039E+01 1.01487E-02 7.30066E-04-9.25380E-02 1.20029E-13-4.00531E-13
 -1      1387 2.04945E+01 9.37119E-03 1.61070E-04-8.75032E-02 1.06851E-13-2.17537E-13
 -1      1388 2.06245E+01 1.81500E-02-3.13172E-03-2.06953E-01 1.18509E-13-2.96464E-13
 -1      1389 2.04131E+01 7.98071E-03 6.79745E-04-6.79561E-02 1.68752E-14-2.09520E-13
 -1      1390 2.03332E+01 7.22222E-03 2.41561E-04-6.40714E-02-1.38809E-14-1.93300E-13
 -1      1391 2.04399E+01 1.41464E-02-2.48436E-03-1.53767E-01 1.27752E-13-2.59465E-13
 -1      1392 2.02728E+01 6.15845E-03 5.93875E-04-4.89528E-02 3.08891E-14-1.24053E-13
 -1      1393 2.02156E+01 5.47251E-03 2.65880E-04-4.60047E-02 1.15066E-14-1.24089E-13
 -1      1394 2.03014E+01 1.08091E-02-1.93830E-03-1.12137E-01 2.80598E-14-1.57757E-13
 -1      1395 2.01716E+01 4.67533E-03 4.97822E-04-3.45080E-02 9.32197E-14 7.42396E-15
 -1      1396 2.01315E+01 4.08152E-03 2.58617E-04-3.23047E-02 9.99969E-14 1.20761E-13
 -1      1397 2.01993E+01 8.12125E-03-1.48978E-03-8.01511E-02 1.30207E-13 5.23512E-14
 -1      1398 2.01002E+01 3.49445E-03 4.05231E-04-2.36998E-02 1.21473E-14 2.62672E-13
 -1      1399 2.00729E+01 2.99499E-03 2.35226E-04-2.20789E-02 1.94941E-14 3.67013E-13
 -1      1400 2.01255E+01 6.00480E-03-1.12839E-03-5.59721E-02 1.49292E-13 2.07156E-13
 -1      1401 2.00511E+01 2.56985E-03 3.22501E-04-1.57419E-02-7.52611E-14 2.73054E-13
 -1      1402 2.00331E+01 2.15861E-03 2.05009E-04-1.45699E-02-4.45987E-14 1.00755E-13
 -1      1403 2.00733E+01 4.36602E-03-8.41712E-04-3.79829E-02-5.33034E-14 1.10918E-13
 -1      1404 2.00184E+01 1.85623E-03 2.51882E-04-9.98513E-03-1.10158E-13 2.86249E-14
 -1      1405 2.00072E+01 1.52352E-03 1.73335E-04-9.15463E-03-1.74968E-13-1.94765E-13
 -1      1406 2.00373E+01 3.11493E-03-6.17460E-04-2.48211E-02-2.34971E-13-9.39899E-14
 -1      1407 1.99976E+01 1.31298E-03 1.93423E-04-5.90512E-03 3.95103E-14-2.25204E-13
 -1      1408 1.99912E+01 1.04798E-03 1.43140E-04-5.33097E-03 6.23208E-14-1.63091E-13
 -1      1409 2.00134E+01 2.17263E-03-4.44406E-04-1.53701E-02-1.12237E-13-2.05155E-13
 -1      1410 1.99853E+01 9.05220E-04 1.46116E-04-3.08467E-03 7.84628E-14-7.65687E-14
 -1      1411 1.99821E+01 6.97269E-04 1.15890E-04-2.70011E-03 9.81893E-14 1.04722E-14
 -1      1412 1.99982E+01 1.47286E-03-3.12719E-04-8.73243E-03 1.14912E-13-7.31482E-14
 -1      1413 1.99788E+01 6.03843E-04 1.08531E-04-1.19618E-03-1.90370E-14 1.25103E-13
 -1      1414 1.99778E+01 4.43056E-04 9.21888E-05-9.49508E-04-3.79940E-14 1.67028E-13
 -1      1415 1.99891E+01 9.61307E-04-2.13998E-04-4.19664E-03 1.21643E-13 7.19279E-14
 -1      1416 1.99763E+01 3.84931E-04 7.91530E-05 1.43683E-05-7.76224E-14 2.43362E-13
 -1      1417 1.99766E+01 2.62496E-04 7.21320E-05 1.62707E-04-6.17261E-14 1.55989E-13
 -1      1418 1.99844E+01 5.94087E-04-1.41200E-04-1.20652E-03-7.48854E-14 2.22181E-13
 -1      1419 1.99763E+01 2.29126E-04 5.65425E-05 7.41476E-04 6.81022E-14 6.92483E-14
 -1      1420 1.99774E+01 1.37408E-04 5.55315E-05 8.21344E-04 3.58463E-15 6.99706E-14
 -1      1421 1.99825E+01 3.36189E-04-8.85115E-05 6.67424E-04-8.04965E-14 7.71271E-14
 -1      1422 1.99778E+01 1.20970E-04 3.94073E-05 1.13208E-03-1.19376E-13 9.51062E-14
 -1      1423 1.99793E+01 5.34923E-05 4.20502E-05 1.16572E-03-6.60401E-14-1.02051E-13
 -1      1424 1.99825E+01 1.59986E-04-5.12130E-05 1.75249E-03-4.38725E-14-6.92868E-14
 -1      1425 1.99801E+01 4.82558E-05 2.66291E-05 1.29561E-03-2.41400E-15-8.04068E-14
 -1      1426 1.99818E+01-3.72734E-07 3.12878E-05 1.29929E-03-1.77954E-14-1.17808E-13
 -1      1427 1.99836E+01 4.39147E-05-2.55201E-05 2.29468E-03-8.24640E-14-1.18491E-13
 -1      1428 1.99828E+01 1.46034E-06 1.72659E-05 1.31218E-03-9.97979E-14-1.96554E-13
 -1      1429 1.99844E+01-3.27389E-05 2.28341E-05 1.29761E-03-7.36626E-14-3.54983E-13
 -1      1430 1.99853E+01-2.86719E-05-8.43755E-06 2.47603E-03-7.73349E-14-8.96555E-14
 -1      1431 1.99855E+01-2.67592E-05 1.05397E-05 1.23934E-03-4.91295E-14-5.08864E-13
 -1      1432 1.99870E+01-5.00968E-05 1.62990E-05 1.21473E-03-4.47905E-14-6.05170E-13
 -1      1433 1.99873E+01-7.04785E-05 2.37519E-06 2.42888E-03-2.12223E-13-3.88546E-13
 -1      1434 1.99880E+01-4.19885E-05 5.81898E-06 1.11744E-03 7.45198E-14-7.86494E-13
 -1      1435 1.99894E+01-5.73022E-05 1.13278E-05 1.08839E-03 6.85074E-15-6.28878E-13
 -1      1436 1.99893E+01-9.10763E-05 8.72178E-06 2.24743E-03-8.78204E-14-6.04523E-13
 -1      1437 1.99903E+01-4.84147E-05 2.59819E-06 9.73943E-04-6.76907E-14-4.98511E-13
 -1      1438 1.99915E+01-5.79289E-05 7.60857E-06 9.44097E-04 6.32716E-14-5.62403E-13
 -1      1439 1.99912E+01-9.75692E-05 1.19718E-05 1.99697E-03-2.75463E-14-5.65548E-13
 -1      1440 1.99923E+01-4.91270E-05 4.78244E-07 8.26754E-04 1.55349E-14-7.26854E-13
 -1      1441 1.99933E+01-5.45616E-05 4.87323E-06 7.98373E-04-8.35101E-14-8.00960E-13
 -1      1442 1.99929E+01-9.51426E-05 1.31487E-05 1.72126E-03-8.02683E-14-5.55330E-13
 -1      1443 1.99940E+01-4.63671E-05-8.51548E-07 6.86879E-04 6.87772E-14-6.88110E-13
 -1      1444 1.99949E+01-4.90349E-05 2.89639E-06 6.61218E-04 2.68390E-14-6.21052E-13
 -1      1445 1.99943E+01-8.75133E-05 1.30050E-05 1.44822E-03 2.85089E-14-5.39942E-13
 -1      1446 1.99955E+01-4.17360E-05-1.62891E-06 5.60377E-04-3.22257E-14-5.66785E-13
 -1      1447 1.99961E+01-4.26287E-05 1.49294E-06 5.37993E-04-2.88096E-14-5.26817E-13
 -1      1448 1.99956E+01-7.72977E-05 1.20840E-05 1.19436E-03 6.80919E-14-5.75010E-13
 -1      1449 1.99966E+01-3.63650E-05-2.02985E-06 4.49837E-04-5.82238E-14-4.52320E-13
 -1      1450 1.99972E+01-3.62275E-05 5.18315E-07 4.30803E-04 2.81485E-15-4.81361E-13
 -1      1451 1.99967E+01-6.63120E-05 1.07724E-05 9.68072E-04-2.70501E-14-5.19438E-13
 -1      1452 1.99975E+01-3.10575E-05-2.17242E-06 3.55415E-04 5.24099E-14-3.55353E-13
 -1      1453 1.99980E+01-3.04521E-05-1.21415E-07 3.39465E-04 1.02573E-13-2.59945E-13
 -1      1454 1.99975E+01-5.58201E-05 9.34507E-06 7.72061E-04 1.52543E-13-2.32963E-14
 -1      1455 1.99983E+01-2.64150E-05-2.10229E-06 2.75525E-04 2.77830E-13-4.00138E-13
 -1      1456 1.99986E+01-2.57676E-05-4.46756E-07 2.62130E-04 2.13173E-13-4.32161E-14
 -1      1457 1.99982E+01-4.67594E-05 8.00389E-06 6.04979E-04 2.38075E-13-1.85328E-13
 -1      1458 1.99988E+01-2.29253E-05-1.77168E-06 2.07251E-04 1.02435E-13 6.85962E-16
 -1      1459 1.99991E+01-2.25331E-05-3.92970E-07 1.95645E-04 6.30348E-14 6.69523E-14
 -1      1460 1.99987E+01-3.98880E-05 6.91927E-06 4.62513E-04 2.77090E-13-1.47065E-13
 -1      1461 1.99993E+01-2.09499E-05-1.03455E-06 1.46672E-04 3.07074E-15 5.14202E-15
 -1      1462 1.99994E+01-2.08857E-05 9.17714E-08 1.35885E-04-9.12312E-15-1.14393E-13
 -1      1463 1.99991E+01-3.58943E-05 6.20353E-06 3.38161E-04 5.57970E-14-5.66579E-14
 -1      1464 1.99996E+01-2.04382E-05 1.34420E-07 8.97323E-05 1.22286E-13-6.23303E-14
 -1      1465 1.99997E+01-2.01953E-05 4.46331E-07 7.86474E-05 4.49996E-14 1.05064E-13
 -1      1466 1.99994E+01-3.50835E-05 5.69369E-06 2.24373E-04 4.30995E-14-6.04477E-14
 -1      1467 1.99997E+01-2.23949E-05 2.06156E-07 3.38745E-05-4.32065E-14 8.59260E-14
 -1      1468 1.99998E+01-1.69292E-05-2.22794E-06 2.22132E-05-5.64700E-14 2.36269E-14
 -1      1469 1.99996E+01-3.61129E-05 4.78560E-06 1.16661E-04 4.86957E-14 6.50333E-14
 -1      1470 1.99998E+01 1.69190E-06-6.01505E-06-1.05017E-05-1.08598E-13 6.88568E-14
 -1      1471 1.99998E+01-1.59850E-05 3.32193E-07 1.62210E-05-4.63516E-14-4.24370E-14
 -1      1472 2.41880E+01 5.52815E-02-1.62334E-01 7.71884E-01 2.28005E-13 1.61184E-12
 -1      1473 2.58873E+01 2.02851E-01-2.62999E-01 1.01434E+00 1.83742E-13 1.98305E-12
 -1      1474 2.59213E+01 9.92504E-01-8.80055E-02 2.68359E+00 3.88890E-13 1.25330E-12
 -1      1475 2.23951E+01 1.06096E-02-1.09226E-02 5.70803E-01 1.55832E-13 1.21433E-12
 -1      1476 2.33003E+01 7.66048E-02-6.71688E-02 5.85773E-01 1.50055E-13 1.47057E-12
 -1      1477 2.38608E+01 1.40457E-01-4.93206E-02 1.42808E+00 3.23762E-13 9.86346E-13
 -1      1478 2.09570E+01 1.19724E-02 9.58694E-03 5.08845E-01 8.38496E-14 9.59045E-13
 -1      1479 2.16983E+01 2.39432E-02 4.71330E-03 5.07673E-01 1.03507E-13 1.11402E-12
 -1      1480 2.23237E+01 3.13284E-02-7.95557E-04 1.08541E+00 2.25705E-13 7.58699E-13
 -1      1481 1.97620E+01 3.22864E-02-4.86269E-03 4.19186E-01 1.01285E-13 7.45336E-13
 -1      1482 2.03973E+01 3.41130E-02 9.95504E-03 4.33756E-01 7.31993E-14 8.67799E-13
 -1      1483 2.11049E+01 4.20151E-02 1.11336E-03 9.17106E-01 1.62353E-13 5.58075E-13
 -1      1484 1.89423E+01 5.24254E-02-2.10535E-02 2.40112E-01 1.15137E-13 4.88952E-13
 -1      1485 1.93760E+01 6.61361E-02-4.34480E-04 2.82683E-01 1.10410E-13 6.58713E-13
 -1      1486 2.01732E+01 9.20170E-02-1.03377E-02 6.60730E-01 1.89440E-13 3.82644E-13
 -1      1487 1.86697E+01 5.66032E-02-2.65102E-02-4.66998E-03 4.42771E-14 3.21390E-13
 -1      1488 1.87933E+01 8.88877E-02-8.06846E-03 5.82113E-02 6.39593E-14 4.37612E-13
 -1      1489 1.96320E+01 1.32989E-01-1.95155E-02 2.64181E-01 1.42292E-13 2.60227E-13
 -1      1490 1.89871E+01 4.08143E-02-1.86635E-02-2.37717E-01 3.54577E-14 1.91552E-13
 -1      1491 1.87732E+01 8.45331E-02-8.13148E-03-1.75364E-01 4.09681E-14 2.53084E-13
 -1      1492 1.95637E+01 1.31844E-01-2.08284E-02-1.86638E-01 1.01448E-13 1.11910E-13
 -1      1493 1.97503E+01 1.33441E-02-2.97049E-03-3.81013E-01 4.56276E-14 1.08129E-13
 -1      1494 1.92831E+01 5.39490E-02-1.97178E-03-3.39750E-01 2.91650E-14 1.51490E-13
 -1      1495 1.99300E+01 8.44095E-02-1.49396E-02-5.48741E-01 6.95806E-14 2.28272E-14
 -1      1496 2.06911E+01-1.21795E-02 1.14941E-02-4.02534E-01 6.23170E-14-5.49283E-14
 -1      1497 2.01267E+01 1.31537E-02 5.70838E-03-3.90857E-01 6.80998E-14 4.03982E-14
 -1      1498 2.05652E+01 1.43847E-02-6.56198E-03-7.16134E-01 1.36541E-13-1.32986E-13
 -1      1499 2.15445E+01-2.67913E-02 1.90222E-02-3.25319E-01 3.55315E-15-1.10419E-13
 -1      1500 2.10362E+01-2.00937E-02 1.05698E-02-3.37978E-01 2.05782E-14-6.67452E-14
 -1      1501 2.12520E+01-4.51743E-02 2.93396E-04-6.76278E-01 4.78771E-14-1.57254E-13
 -1      1502 2.21429E+01-2.96109E-02 1.91321E-02-2.00141E-01 2.75968E-14-1.39539E-13
 -1      1503 2.17866E+01-3.71295E-02 1.12485E-02-2.25291E-01 1.88686E-14-1.03424E-13
 -1      1504 2.18124E+01-7.54488E-02 4.09859E-03-4.95198E-01 1.10701E-14-1.24199E-13
 -1      1505 2.24369E+01-2.46652E-02 1.46054E-02-7.39650E-02 6.39658E-14-2.72816E-13
 -1      1506 2.22594E+01-3.90965E-02 8.80769E-03-1.00691E-01 4.52416E-14-1.81761E-13
 -1      1507 2.21541E+01-7.70499E-02 5.13646E-03-2.63288E-01 8.63884E-14-1.96034E-13
 -1      1508 2.24626E+01-1.67198E-02 8.78481E-03 2.55229E-02-2.77599E-15-2.84722E-13
 -1      1509 2.24410E+01-3.19073E-02 5.20179E-03 3.72973E-03 4.15709E-14-2.55462E-13
 -1      1510 2.22669E+01-6.11254E-02 4.52086E-03-5.12414E-02 4.26430E-14-2.83249E-13
 -1      1511 2.22962E+01-9.06204E-03 3.79807E-03 8.97894E-02-1.68552E-14-2.58851E-13
 -1      1512 2.23849E+01-2.14991E-02 1.99690E-03 7.51156E-02-4.90658E-14-2.79984E-13
 -1      1513 2.21922E+01-3.95470E-02 3.28796E-03 1.05266E-01-3.19016E-14-3.08999E-13
 -1      1514 2.20176E+01-3.17050E-03 4.00913E-04 1.22259E-01-1.11070E-14-1.99823E-13
 -1      1515 2.21697E+01-1.16935E-02-1.43960E-04 1.14213E-01 2.97960E-15-2.03995E-13
 -1      1516 2.19909E+01-1.99511E-02 2.04605E-03 1.99710E-01-2.58795E-14-2.79859E-13
 -1      1517 2.16924E+01 7.01143E-04-1.49342E-03 1.31146E-01-2.68031E-15-2.35473E-13
 -1      1518 2.18700E+01-4.15042E-03-1.22634E-03 1.28137E-01 9.04469E-15-2.21328E-13
 -1      1519 2.17216E+01-5.45031E-03 1.05063E-03 2.41799E-01 1.69591E-14-2.69199E-13
 -1      1520 2.13663E+01 2.87563E-03-2.29382E-03 1.24988E-01 3.71834E-14-3.04412E-13
 -1      1521 2.15434E+01 8.67978E-04-1.54701E-03 1.25298E-01 1.40423E-14-2.68124E-13
 -1      1522 2.14305E+01 3.72507E-03 3.50758E-04 2.46676E-01 4.76306E-14-3.78423E-13
 -1      1523 2.10667E+01 3.83421E-03-2.42355E-03 1.10693E-01 1.62469E-14-3.25317E-13
 -1      1524 2.12283E+01 3.75557E-03-1.43499E-03 1.12901E-01 3.15400E-14-3.12797E-13
 -1      1525 2.11488E+01 8.61207E-03-9.53059E-05 2.28732E-01 2.42501E-14-4.15441E-13
 -1      1526 2.08075E+01 4.01673E-03-2.20368E-03 9.31004E-02 4.66855E-14-4.25815E-13
 -1      1527 2.09463E+01 5.09159E-03-1.13779E-03 9.61899E-02 4.01193E-14-3.40032E-13
 -1      1528 2.08949E+01 1.05220E-02-3.52037E-04 1.99152E-01 5.70115E-14-3.58750E-13
 -1      1529 2.05928E+01 3.75706E-03-1.84046E-03 7.52483E-02-8.20003E-14-3.86095E-13
 -1      1530 2.07067E+01 5.41270E-03-8.04543E-04 7.85626E-02-1.05670E-14-3.95419E-13
 -1      1531 2.06774E+01 1.05920E-02-4.78138E-04 1.65581E-01 1.96176E-15-4.04402E-13
 -1      1532 2.04211E+01 3.28254E-03-1.45098E-03 5.88304E-02 1.05580E-13-3.48910E-13
 -1      1533 2.05114E+01 5.13525E-03-5.08573E-04 6.19857E-02-2.21810E-14-3.37377E-13
 -1      1534 2.04981E+01 9.65836E-03-5.18987E-04 1.32710E-01-5.15921E-14-4.40622E-13
 -1      1535 2.02880E+01 2.73564E-03-1.09361E-03 4.46364E-02-4.35693E-14-3.37416E-13
 -1      1536 2.03573E+01 4.55035E-03-2.76156E-04 4.74367E-02 3.47788E-14-3.43464E-13
 -1      1537 2.03551E+01 8.27591E-03-5.07230E-04 1.03070E-01 2.74065E-14-3.86844E-13
 -1      1538 2.01877E+01 2.19866E-03-7.91912E-04 3.28938E-02-3.49216E-14-2.08051E-13
 -1      1539 2.02394E+01 3.84635E-03-1.08808E-04 3.52629E-02-6.24190E-14-2.58933E-13
 -1      1540 2.02442E+01 6.78267E-03-4.65464E-04 7.77604E-02-1.47798E-13-3.56901E-13
 -1      1541 2.01143E+01 1.71422E-03-5.50667E-04 2.35097E-02 3.58161E-14-2.33032E-13
 -1      1542 2.01517E+01 3.13646E-03 2.70566E-06 2.54428E-02-1.38420E-14-2.94173E-13
 -1      1543 2.01605E+01 5.36670E-03-4.08905E-04 5.70009E-02 1.80216E-14-3.88166E-13
 -1      1544 2.00622E+01 1.30023E-03-3.65469E-04 1.62284E-02 6.91877E-14-3.45223E-13
 -1      1545 2.00883E+01 2.48265E-03 7.07154E-05 1.77596E-02 4.81796E-14-2.21407E-13
 -1      1546 2.00991E+01 4.11941E-03-3.47479E-04 4.05176E-02 6.33544E-14-4.03004E-13
 -1      1547 2.00264E+01 9.60063E-04-2.28160E-04 1.07303E-02 3.42335E-14-3.92176E-13
 -1      1548 2.00440E+01 1.91383E-03 1.07033E-04 1.19116E-02 3.33308E-15-3.94842E-13
 -1      1549 2.00552E+01 3.07345E-03-2.87361E-04 2.77955E-02 7.69223E-14-4.69995E-13
 -1      1550 2.00030E+01 6.89175E-04-1.29708E-04 6.68904E-03 3.98755E-14-4.52902E-13
 -1      1551 2.00143E+01 1.43867E-03 1.21551E-04 7.57786E-03 7.66661E-14-3.44611E-13
 -1      1552 2.00250E+01 2.22809E-03-2.32118E-04 1.82342E-02 7.21712E-14-3.92705E-13
 -1      1553 1.99886E+01 4.79240E-04-6.16163E-05 3.80240E-03-7.84377E-15-4.75088E-13
 -1      1554 1.99953E+01 1.05423E-03 1.21942E-04 4.45451E-03 9.57193E-15-4.50757E-13
 -1      1555 2.00051E+01 1.56530E-03-1.83538E-04 1.12384E-02 7.75219E-14-3.39626E-13
 -1      1556 1.99806E+01 3.20598E-04-1.65027E-05 1.80683E-03-2.45141E-14-5.26516E-13
 -1      1557 1.99840E+01 7.51492E-04 1.13859E-04 2.27243E-03 2.97823E-14-5.10102E-13
 -1      1558 1.99926E+01 1.05955E-03-1.42225E-04 6.26544E-03 3.37178E-14-2.24484E-13
 -1      1559 1.99770E+01 2.03675E-04 1.17312E-05 4.81920E-04 3.42916E-14-5.44775E-13
 -1      1560 1.99782E+01 5.18862E-04 1.01290E-04 8.04114E-04-3.07616E-14-5.60485E-13
 -1      1561 1.99855E+01 6.83558E-04-1.08035E-04 2.84679E-03-5.72103E-14-4.65663E-13
 -1      1562 1.99763E+01 1.19752E-04 2.79351E-05-3.50735E-04-2.29332E-14-5.90410E-13
 -1      1563 1.99761E+01 3.44266E-04 8.69266E-05-1.36277E-04 8.56482E-15-5.62271E-13
 -1      1564 1.99822E+01 4.11393E-04-8.03929E-05 5.93297E-04 2.22510E-14-5.17098E-13
 -1      1565 1.99773E+01 6.13019E-05 3.58413E-05-8.31698E-04 6.75191E-14-7.37318E-13
 -1      1566 1.99764E+01 2.16352E-04 7.24909E-05-6.96268E-04 5.58081E-14-5.40425E-13
 -1      1567 1.99813E+01 2.20106E-04-5.85113E-05-8.08441E-04 4.92149E-14-4.16844E-13
 -1      1568 1.99794E+01 2.20690E-05 3.82441E-05-1.06908E-03 1.52379E-13-1.07199E-12
 -1      1569 1.99780E+01 1.25076E-04 5.90032E-05-9.90129E-04 1.02171E-13-8.54806E-13
 -1      1570 1.99819E+01 9.03011E-05-4.15348E-05-1.60431E-03 2.55459E-13-5.71217E-13
 -1      1571 1.99820E+01-3.00008E-06 3.71845E-05-1.14413E-03-1.41151E-13-9.41206E-13
 -1      1572 1.99804E+01 6.19153E-05 4.69983E-05-1.10435E-03-8.32116E-14-1.05368E-12
 -1      1573 1.99834E+01 6.13997E-06-2.86246E-05-1.98274E-03 1.01709E-14-7.40490E-13
 -1      1574 1.99847E+01-1.78887E-05 3.41149E-05-1.11652E-03-2.43543E-14-7.57694E-13
 -1      1575 1.99831E+01 1.98567E-05 3.66888E-05-1.10289E-03-2.05069E-14-8.14602E-13
 -1      1576 1.99854E+01-4.49698E-05-1.90090E-05-2.08488E-03-1.36998E-13-6.82829E-13
 -1      1577 1.99873E+01-2.56680E-05 3.00386E-05-1.02893E-03 5.00518E-15-6.45858E-13
 -1      1578 1.99858E+01-6.72361E-06 2.80839E-05-1.03191E-03-3.40286E-14-7.12790E-13
 -1      1579 1.99876E+01-7.28062E-05-1.20074E-05-2.01397E-03-5.58737E-14-4.34271E-13
 -1      1580 1.99897E+01-2.86562E-05 2.56233E-05-9.11020E-04-5.32605E-14-5.22992E-13
 -1      1581 1.99884E+01-2.22347E-05 2.10722E-05-9.23752E-04-9.17489E-14-6.86360E-13
 -1      1582 1.99896E+01-8.47957E-05-7.03941E-06-1.84357E-03-6.30424E-14-3.82829E-13
 -1      1583 1.99918E+01-2.85665E-05 2.12919E-05-7.82630E-04-3.96276E-14-5.26283E-13
 -1      1584 1.99906E+01-3.00627E-05 1.54792E-05-8.00349E-04 1.46628E-14-4.58122E-13
 -1      1585 1.99915E+01-8.64559E-05-3.62280E-06-1.62453E-03-4.26011E-14-3.02763E-13
 -1      1586 1.99936E+01-2.66387E-05 1.72932E-05-6.56372E-04-4.24468E-14-6.01103E-13
 -1      1587 1.99926E+01-3.27577E-05 1.11041E-05-6.75884E-04-4.58172E-14-5.44571E-13
 -1      1588 1.99932E+01-8.17953E-05-1.36494E-06-1.39061E-03-6.06925E-14-3.00586E-13
 -1      1589 1.99951E+01-2.37526E-05 1.37567E-05-5.39642E-04 2.86678E-14-5.77002E-13
 -1      1590 1.99943E+01-3.22074E-05 7.74406E-06-5.58917E-04 5.43067E-14-5.22204E-13
 -1      1591 1.99947E+01-7.36600E-05 4.88834E-08-1.16306E-03 2.52622E-14-1.06403E-13
 -1      1592 1.99963E+01-2.05229E-05 1.07357E-05-4.36143E-04 1.29661E-14-4.47127E-13
 -1      1593 1.99957E+01-2.97899E-05 5.20901E-06-4.54001E-04-7.48415E-14-4.93618E-13
 -1      1594 1.99959E+01-6.40247E-05 8.69189E-07-9.54065E-04-3.83245E-14-2.28060E-13
 -1      1595 1.99973E+01-1.73793E-05 8.24383E-06-3.46987E-04 1.23605E-13-6.16625E-13
 -1      1596 1.99968E+01-2.65087E-05 3.33118E-06-3.62874E-04 1.11365E-13-4.55206E-13
 -1      1597 1.99969E+01-5.42360E-05 1.29871E-06-7.69415E-04 8.68572E-14-5.20454E-13
 -1      1598 1.99981E+01-1.46362E-05 6.29262E-06-2.71459E-04 8.83676E-14-6.86302E-13
 -1      1599 1.99977E+01-2.31137E-05 1.97606E-06-2.85297E-04 1.23666E-14-6.99999E-13
 -1      1600 1.99978E+01-4.52163E-05 1.51227E-06-6.10369E-04 1.04830E-13-6.01359E-13
 -1      1601 1.99987E+01-1.25457E-05 4.93947E-06-2.07479E-04 1.65307E-14-8.56314E-13
 -1      1602 1.99984E+01-2.02067E-05 1.06173E-06-2.19591E-04 1.18245E-13-6.51147E-13
 -1      1603 1.99984E+01-3.76364E-05 1.68463E-06-4.74942E-04 7.67927E-14-6.23870E-13
 -1      1604 1.99992E+01-1.12821E-05 4.31314E-06-1.51903E-04-1.60130E-13-4.41830E-13
 -1      1605 1.99989E+01-1.82861E-05 5.93487E-07-1.62971E-04-1.90844E-13-7.31470E-13
 -1      1606 1.99989E+01-3.20304E-05 2.01680E-06-3.58722E-04-2.37878E-13-5.43121E-13
 -1      1607 1.99995E+01-1.09596E-05 4.37915E-06-1.00914E-04 6.89716E-14-4.57579E-13
 -1      1608 1.99993E+01-1.77334E-05 6.32398E-07-1.11957E-04 5.69288E-14-3.69674E-13
 -1      1609 1.99993E+01-2.88072E-05 2.69331E-06-2.55620E-04-1.63903E-13-8.15458E-14
 -1      1610 1.99997E+01-1.14004E-05 3.80835E-06-5.04490E-05 6.95902E-15-5.50490E-13
 -1      1611 1.99996E+01-1.86166E-05 8.73965E-07-6.30907E-05 4.20821E-14-4.60248E-13
 -1      1612 1.99996E+01-2.84761E-05 3.38694E-06-1.59182E-04 5.42260E-14-2.23039E-13
 -1      1613 1.99998E+01-9.89728E-06-2.76639E-06-4.53351E-06 2.63308E-13-7.29309E-13
 -1      1614 1.99998E+01-1.70865E-05-2.78248E-07-1.67554E-05 7.87416E-14-5.60912E-13
 -1      1615 1.99997E+01-2.66195E-05 2.90684E-06-6.59611E-05 1.92987E-13-4.88375E-13
 -1      1616 1.99998E+01 1.69509E-06-6.15071E-06 8.25928E-06-4.41429E-13-4.13602E-13
 -1      1617 1.99998E+01-6.22228E-05 2.55484E-06-3.75143E-05-5.92389E-13 1.57552E-13
 -1      1618 1.99998E+01-3.11344E-05-1.98040E-06-2.57545E-05-7.59598E-13 2.57530E-13
 -1      1619 1.99998E+01-2.26702E-04 2.25673E-06-8.65947E-05-2.42614E-13 3.10276E-13
 -1      1620 1.99998E+01-1.34817E-04 1.78904E-06-7.73000E-05-5.61126E-13 1.34804E-13
 -1      1621 1.99998E+01-1.50796E-04 3.47030E-06-1.15403E-04-3.27997E-13 3.20261E-13
 -1      1622 1.99998E+01-4.63950E-04 1.13633E-06-1.19617E-04-1.40757E-13 1.28059E-14
 -1      1623 1.99998E+01-3.28974E-04 1.53362E-06-1.14583E-04-1.24077E-13 1.67315E-13
 -1      1624 1.99998E+01-3.25771E-04 3.53779E-06-1.96935E-04-1.77217E-13 3.53494E-13
 -1      1625 1.99998E+01-7.34403E-04 2.70383E-07-1.30041E-04 6.05371E-14 7.71454E-14
 -1      1626 1.99998E+01-5.82903E-04 7.34285E-07-1.29831E-04-1.45163E-13 2.92326E-13
 -1      1627 1.99998E+01-5.47822E-04 1.19493E-06-2.42374E-04-7.32660E-14 1.32247E-13
 -1      1628 1.99998E+01-9.88917E-04-1.34660E-07-1.18548E-04-1.07149E-13-7.90131E-14
 -1      1629 1.99998E+01-8.49965E-04 2.04131E-07-1.22436E-04-6.97481E-15-2.62425E-13
 -1      1630 1.99998E+01-7.82698E-04-1.31590E-06-2.44683E-04 1.54991E-13-2.72151E-13
 -1      1631 1.99998E+01-1.19605E-03-3.12142E-07-8.82371E-05 5.87680E-15 1.42188E-13
 -1      1632 1.99998E+01-1.08795E-03-1.03332E-07-9.55101E-05-1.62252E-13-2.40046E-14
 -1      1633 1.99998E+01-9.97006E-04-3.41481E-06-2.07306E-04 2.66447E-14-1.15520E-13
 -1      1634 1.99998E+01-1.31965E-03-3.46413E-07-4.46429E-05 3.76226E-13-6.09322E-14
 -1      1635 1.99998E+01-1.26153E-03-2.41044E-07-5.39981E-05 2.03880E-13 2.57673E-13
 -1      1636 1.99998E+01-1.16089E-03-4.93953E-06-1.37715E-04 6.13074E-14 3.25031E-13
 -1      1637 1.99998E+01-1.34175E-03-3.15008E-07 5.48109E-06 6.79036E-13 2.57419E-13
 -1      1638 1.99998E+01-1.34229E-03-3.16623E-07-4.58027E-06 4.61866E-13 1.19433E-13
 -1      1639 1.99998E+01-1.24866E-03-5.72671E-06-4.76575E-05 2.91407E-13 2.08099E-13
 -1      1640 1.99998E+01-1.25919E-03-2.29112E-07 5.48218E-05 1.67590E-13-5.07568E-13
 -1      1641 1.99998E+01-1.31833E-03-3.47309E-07 4.54947E-05 5.81253E-13-1.01179E-13
 -1      1642 1.99998E+01-1.24788E-03-5.71871E-06 4.93523E-05 6.53990E-14-7.80615E-14
 -1      1643 1.99998E+01-1.08415E-03-6.37615E-08 9.61210E-05-3.17984E-13-4.09333E-13
 -1      1644 1.99998E+01-1.19306E-03-3.31716E-07 8.89274E-05 9.50030E-14-4.13458E-13
 -1      1645 1.99998E+01-1.15866E-03-4.90564E-06 1.39184E-04 1.28842E-15-7.52013E-13
 -1      1646 1.99998E+01-8.47436E-04 1.92668E-07 1.22532E-04-1.05708E-13 3.61039E-13
 -1      1647 1.99998E+01-9.86693E-04-1.45263E-07 1.18713E-04-3.62558E-13 5.43450E-14
 -1      1648 1.99998E+01-9.95343E-04-3.42173E-06 2.07948E-04 7.98686E-14-3.48613E-13
 -1      1649 1.99998E+01-5.78127E-04 7.19801E-07 1.29756E-04 3.20115E-13 8.21609E-14
 -1      1650 1.99998E+01-7.29596E-04 2.83760E-07 1.30060E-04-7.29245E-15 2.67550E-13
 -1      1651 1.99998E+01-7.80559E-04-1.28101E-06 2.44853E-04 8.97415E-15 4.95030E-13
 -1      1652 1.99998E+01-3.24560E-04 1.69393E-06 1.14216E-04 1.78924E-13-9.88002E-14
 -1      1653 1.99998E+01-4.59336E-04 1.11847E-06 1.19157E-04 2.96771E-13 1.02255E-13
 -1      1654 1.99998E+01-5.43617E-04 1.23225E-06 2.41927E-04 1.44237E-13 1.49946E-13
 -1      1655 1.99998E+01-1.34393E-04 6.25032E-07 7.73142E-05 4.01080E-14 2.92387E-14
 -1      1656 1.99998E+01-2.23994E-04 2.33674E-06 8.69293E-05 2.63840E-13-3.27943E-13
 -1      1657 1.99998E+01-3.23127E-04 3.50797E-06 1.95625E-04 3.14870E-13-2.90033E-13
 -1      1658 1.99998E+01-5.28992E-05-2.67533E-06 4.46753E-05-3.11262E-16-9.27781E-14
 -1      1659 1.99998E+01-8.67728E-05 2.04589E-06 6.13268E-05 1.35900E-15 4.72146E-14
 -1      1660 1.99997E+01-1.77661E-04 1.52253E-06 1.42226E-04 1.62230E-13-1.45002E-13
 -1      1661 1.99997E+01-8.85977E-05-1.94209E-06 9.44237E-05-3.12526E-14-1.95994E-13
 -1      1662-3.35023E-01-1.21497E+01-1.61390E+00-5.20638E-01 1.29946E-12 6.47954E-13
 -1      1663-3.92617E-01-1.43239E+01-1.81411E+00 4.74003E-01 4.61020E-13 5.19196E-13
 -1      1664 1.63155E+00-5.88096E+00-1.16133E+00 1.07777E+00 2.17248E-12 1.29080E-12
 -1      1665 7.80557E-01-1.09564E+01-1.70500E+00 2.43160E-01 1.57252E-12 8.30235E-13
 -1      1666 8.76598E+00 1.16602E+00-3.70515E-01 5.97655E+00 2.19458E-12 1.58618E-12
 -1      1667 5.14294E+00-4.01308E+00-1.13099E+00 2.88786E+00 2.08877E-12 1.30257E-12
 -1      1668 1.87873E+01 6.20739E+00 3.55872E-01 1.06452E+01 1.89493E-12 1.93401E-12
 -1      1669 1.21705E+01 3.43781E+00-4.96548E-01 7.15646E+00 2.25164E-12 1.77447E-12
 -1      1670 3.29284E+01 6.45096E+00 1.01918E+00 1.24535E+01 1.22241E-12 1.54343E-12
 -1      1671 2.41654E+01 6.50604E+00 2.45218E-01 1.09373E+01 1.65234E-12 1.73406E-12
 -1      1672 4.55020E+01 5.04155E+00 1.53623E+00 1.00733E+01 7.09335E-13 8.21343E-13
 -1      1673 3.75667E+01 6.74882E+00 9.61012E-01 1.20375E+01 1.08880E-12 1.37956E-12
 -1      1674 5.21075E+01 3.59198E+00 1.68954E+00 2.73172E+00 5.80563E-13-6.06293E-13
 -1      1675 4.84062E+01 4.80792E+00 1.46909E+00 7.89571E+00 7.21978E-13 4.25882E-13
 -1      1676 5.03264E+01 3.81916E+00 1.49838E+00-5.25933E+00 8.17235E-13-1.98336E-12
 -1      1677 5.30143E+01 3.24569E+00 1.73385E+00 3.45193E-02 6.04405E-13-1.03524E-12
 -1      1678 3.94956E+01 5.57074E+00 8.14354E-01-9.92235E+00 1.52077E-12-2.80131E-12
 -1      1679 4.71468E+01 4.06245E+00 1.45438E+00-7.13597E+00 1.02316E-12-2.25475E-12
 -1      1680 2.54276E+01 5.87320E+00 5.41248E-02-9.96252E+00 2.29239E-12-2.95819E-12
 -1      1681 3.47542E+01 5.35695E+00 8.40363E-01-1.07453E+01 1.74138E-12-2.84928E-12
 -1      1682 1.36294E+01 3.88589E+00-5.41086E-01-7.31033E+00 2.77822E-12-2.64189E-12
 -1      1683 2.01868E+01 5.55139E+00 1.34368E-01-1.00815E+01 2.52887E-12-2.95919E-12
 -1      1684 5.38338E+00-2.08532E-01-9.89755E-01-3.57289E+00 2.76201E-12-1.94578E-12
 -1      1685 8.93188E+00 3.43148E+00-4.39080E-01-6.31177E+00 2.95164E-12-2.55951E-12
 -1      1686 1.69354E+00-5.33574E+00-1.15544E+00-1.35314E+00 1.77147E-12-1.10894E-12
 -1      1687 2.96124E+00-1.46580E+00-7.97395E-01-2.52528E+00 2.45715E-12-1.68435E-12
 -1      1688-7.10325E-02-8.70619E+00-1.26902E+00-7.28186E-01 4.45061E-13-6.66633E-13
 -1      1689 1.15581E-01-6.42375E+00-1.08533E+00-2.33715E-01 1.47360E-12-9.46104E-13
 -1      1690-3.72406E-01-8.34995E+00-1.23332E+00-8.10080E-01-1.06457E-12-8.15903E-13
 -1      1691-3.24409E-01-8.83987E+00-1.22476E+00 4.37558E-02 2.06363E-14-6.67660E-13
 -1      1692 9.43650E-01-4.86611E+00-1.14688E+00 3.66913E-01-2.32014E-12-1.46261E-12
 -1      1693 4.39367E-01-8.08465E+00-1.36737E+00 7.26425E-02-1.47110E-12-9.26925E-13
 -1      1694 6.44324E+00 2.41209E-01-7.41531E-01 4.11436E+00-2.82652E-12-2.32903E-12
 -1      1695 3.65978E+00-3.89258E+00-1.25884E+00 1.75216E+00-2.46303E-12-1.68393E-12
 -1      1696 1.74304E+01 4.34857E+00-4.70968E-02 8.83686E+00-2.70250E-12-3.04468E-12
 -1      1697 1.06333E+01 1.35792E+00-8.87741E-01 5.29917E+00-2.89924E-12-2.56506E-12
 -1      1698 3.19923E+01 5.43560E+00 7.68962E-01 1.13584E+01-2.01283E-12-3.19567E-12
 -1      1699 2.26306E+01 5.33866E+00-1.37415E-01 9.65640E+00-2.58071E-12-3.21254E-12
 -1      1700 4.66653E+01 3.93945E+00 1.47536E+00 7.61993E+00-1.13154E-12-2.25331E-12
 -1      1701 3.74277E+01 5.33474E+00 7.24842E-01 9.72937E+00-1.66614E-12-2.83062E-12
 -1      1702 5.45238E+01 3.35351E+00 1.91575E+00 8.08119E-01-6.66550E-13-1.03134E-12
 -1      1703 5.04348E+01 4.11773E+00 1.54090E+00 5.89715E+00-9.34253E-13-1.98641E-12
 -1      1704 5.30491E+01 4.23024E+00 1.81322E+00-6.59162E+00-6.38350E-13 3.06366E-13
 -1      1705 5.52155E+01 3.42271E+00 1.95986E+00-1.54194E+00-5.58192E-13-6.02546E-13
 -1      1706 4.34814E+01 6.07136E+00 1.25449E+00-1.10159E+01-1.14302E-12 1.42497E-12
 -1      1707 5.01893E+01 4.50171E+00 1.75176E+00-8.14661E+00-7.75921E-13 6.31384E-13
 -1      1708 3.12931E+01 7.20223E+00 6.39474E-01-1.24972E+01-1.73650E-12 2.23910E-12
 -1      1709 3.97098E+01 6.25040E+00 1.34988E+00-1.26462E+01-1.30157E-12 1.84919E-12
 -1      1710 1.89184E+01 5.60174E+00-1.22110E-01-9.76948E+00-2.28151E-12 2.31304E-12
 -1      1711 2.66012E+01 6.82344E+00 7.28023E-01-1.24053E+01-1.87783E-12 2.42006E-12
 -1      1712 9.42863E+00 1.07220E+00-8.06027E-01-5.49108E+00-2.38698E-12 1.93934E-12
 -1      1713 1.45369E+01 4.63300E+00 7.34868E-03-8.80815E+00-2.34446E-12 2.28784E-12
 -1      1714 3.74992E+00-5.91822E+00-1.33792E+00-1.91653E+00-1.96387E-12 1.19704E-12
 -1      1715 6.35899E+00-8.48349E-01-6.76934E-01-4.37329E+00-2.23355E-12 1.69659E-12
 -1      1716 4.63975E-01-1.19699E+01-1.78012E+00 4.32973E-02-1.17684E-12 7.49761E-13
 -1      1717 9.90086E-01-7.69155E+00-1.35628E+00-3.28838E-01-1.84430E-12 1.13991E-12
 -1      1718-4.81693E-01-1.46363E+01-1.85824E+00-2.45132E-01 1.39666E-13 5.88085E-13
 -1      1719-4.76963E-01-1.30732E+01-1.73300E+00 8.65858E-01-8.48766E-13 6.75682E-13
 -1      1720 2.54341E+01 2.22445E+00 3.88702E-01 7.83322E+00 1.14264E-12 8.17013E-13
 -1      1721 1.54726E+01-1.63134E+00-2.45474E-01 7.04970E+00 1.15352E-12 8.87845E-13
 -1      1722 1.99998E+01-4.56398E-06-9.31492E-07-1.99985E-06-4.89213E-13-4.37568E-14
 -1      1723 1.99998E+01-5.74479E-05-3.43450E-07-4.37639E-05-1.45698E-13-1.34962E-13
 -1      1724 9.30305E-01-8.31007E+00-1.15137E+00 2.57361E+00 7.40019E-13 1.01896E-12
 -1      1725 7.00570E+00-5.25190E+00-6.93525E-01 5.34367E+00 1.01097E-12 1.02884E-12
 -1      1726-9.70976E-01-9.56858E+00-1.28688E+00 2.73409E-01 2.28512E-13 1.04322E-12
 -1      1727 3.49933E+01 4.83640E+00 8.86858E-01 6.79903E+00 9.59566E-13 4.32543E-13
 -1      1728 4.20616E+01 6.76380E+00 1.28294E+00 4.55300E+00 9.83713E-13-5.87863E-14
 -1      1729 4.53168E+01 7.19265E+00 1.44896E+00 1.03206E+00 1.06470E-12-7.23664E-13
 -1      1730 4.31367E+01 6.44406E+00 1.25526E+00-2.43295E+00 1.19610E-12-1.32178E-12
 -1      1731 3.57409E+01 4.68828E+00 7.41123E-01-4.70877E+00 1.38045E-12-1.59239E-12
 -1      1732 2.63856E+01 2.26535E+00 2.55998E-01-6.47325E+00 1.50896E-12-1.71063E-12
 -1      1733 1.60620E+01 4.90425E-01-1.77491E-01-6.80089E+00 1.62892E-12-1.77014E-12
 -1      1734 7.52981E+00-1.68947E+00-5.64009E-01-5.27482E+00 1.32305E-12-1.60247E-12
 -1      1735 2.08961E+00-3.55252E+00-7.25598E-01-3.30373E+00 7.56450E-13-1.38300E-12
 -1      1736-4.42824E-01-4.64882E+00-8.32558E-01-9.63669E-01 4.76147E-14-1.29363E-12
 -1      1737 3.96834E-01-4.64057E+00-8.57894E-01 1.30320E+00-6.59778E-13-1.35891E-12
 -1      1738 5.08895E+00-3.62479E+00-7.48212E-01 3.81409E+00-1.22435E-12-1.56086E-12
 -1      1739 1.34935E+01-1.87125E+00-4.80184E-01 5.65753E+00-1.54354E-12-1.76198E-12
 -1      1740 2.41212E+01 9.05345E-01 5.26440E-02 6.41665E+00-1.70103E-12-1.92824E-12
 -1      1741 3.52644E+01 3.67635E+00 7.64939E-01 5.14605E+00-1.50546E-12-1.70752E-12
 -1      1742 4.30543E+01 6.03451E+00 1.24026E+00 2.09919E+00-1.27953E-12-1.20293E-12
 -1      1743 4.73157E+01 7.09191E+00 1.59705E+00-7.56340E-01-1.11328E-12-6.40835E-13
 -1      1744 4.52363E+01 6.98214E+00 1.45867E+00-3.66636E+00-1.13659E-12 7.32747E-14
 -1      1745 3.95758E+01 5.75913E+00 1.16592E+00-6.21019E+00-1.24005E-12 5.83755E-13
 -1      1746 3.13475E+01 3.58568E+00 6.90855E-01-7.90593E+00-1.29891E-12 1.13021E-12
 -1      1747 2.16342E+01 6.17152E-01 7.34736E-02-7.75006E+00-1.37279E-12 1.37013E-12
 -1      1748 1.27596E+01-3.04471E+00-4.81624E-01-6.46676E+00-1.08125E-12 1.25416E-12
 -1      1749 5.35722E+00-6.22445E+00-8.67775E-01-4.57237E+00-8.86624E-13 1.13320E-12
 -1      1750 3.87763E-01-8.89539E+00-1.23941E+00-2.00829E+00-3.91576E-13 1.11278E-12
 -1      1751 3.12469E+01 2.24076E+00 3.14823E-03-2.82235E+00-2.74197E-13 1.56264E-12
 -1      1752 2.25068E+01 2.62561E+00-3.48475E-02-1.19234E+00-1.83777E-13-1.84110E-13
 -1      1753 2.40444E+01 2.70270E+00-5.90755E-02-1.83522E+00-2.62450E-13-3.51455E-14
 -1      1754 2.54939E+01 2.64844E+00-5.13272E-02-2.35788E+00-3.00690E-13 1.58783E-13
 -1      1755 2.67022E+01 2.51620E+00-1.91093E-01-2.89939E+00-3.70946E-13 4.16195E-13
 -1      1756 2.52469E+01 1.55064E+00-2.42261E-02-2.05967E+00-2.96142E-13 1.20209E-13
 -1      1757 1.46903E+01 3.33221E+00-4.46354E-02 9.11956E-01 5.02758E-14-6.37056E-13
 -1      1758 1.68346E+01 3.26062E+00 5.06819E-02 6.44778E-01 1.57409E-14-5.51822E-13
 -1      1759 1.08671E+01 4.18898E+00-3.43744E-02 7.05392E-01 2.28307E-14-8.01373E-13
 -1      1760 1.26539E+01 4.06361E+00 6.83080E-02 9.01381E-01 5.40193E-14-7.44033E-13
 -1      1761 1.36721E+01 3.19663E+00 5.42763E-03 1.26215E+00 7.73062E-14-7.06657E-13
 -1      1762 9.08815E+00 4.72856E+00 9.39881E-03-4.20488E-01-9.30291E-14-8.98726E-13
 -1      1763 9.68076E+00 4.69846E+00 4.38822E-02 6.95690E-02-3.01009E-14-8.72987E-13
 -1      1764 1.00348E+01 4.30815E+00 5.98774E-02 6.60751E-01 9.71098E-15-9.02355E-13
 -1      1765 1.00612E+01 4.49542E+00 5.59080E-02-1.76747E+00-2.37307E-13-8.72469E-13
 -1      1766 9.20456E+00 4.61365E+00-8.06052E-03-1.31125E+00-1.74739E-13-8.91495E-13
 -1      1767 8.79733E+00 4.68637E+00 7.92105E-02-9.40335E-01-1.47669E-13-9.82887E-13
 -1      1768 1.32322E+01 3.65259E+00 6.80336E-02-2.28839E+00-2.99993E-13-7.71067E-13
 -1      1769 1.14471E+01 3.83030E+00-4.01314E-02-2.23968E+00-2.83072E-13-8.05977E-13
 -1      1770 1.05836E+01 3.97193E+00 4.50361E-02-2.35577E+00-3.01068E-13-9.01258E-13
 -1      1771 1.69004E+01 2.88003E+00 3.89456E-02-1.69974E+00-2.54609E-13-6.48908E-13
 -1      1772 1.50746E+01 2.97468E+00-3.71069E-02-2.07163E+00-2.86673E-13-6.86069E-13
 -1      1773 1.42786E+01 2.77329E+00-9.92051E-03-2.52463E+00-3.34080E-13-7.37219E-13
 -1      1774 1.98095E+01 2.61990E+00-3.94246E-04-4.42956E-01-1.04181E-13-5.43621E-13
 -1      1775 1.84704E+01 2.57240E+00-2.09897E-02-1.03016E+00-1.83076E-13-5.80549E-13
 -1      1776 1.80645E+01 1.96387E+00-3.50300E-02-1.49759E+00-2.46775E-13-5.77201E-13
 -1      1777 2.16583E+01 2.80843E+00-2.95636E-02 9.33633E-01 6.77583E-14-4.83745E-13
 -1      1778 2.08535E+01 2.66377E+00-1.44709E-02 3.18061E-01-1.68789E-14-5.08059E-13
 -1      1779 2.08264E+01 1.82964E+00-2.98245E-02 8.12481E-03-6.65258E-14-4.68625E-13
 -1      1780 2.27334E+01 3.14355E+00-4.97306E-02 2.14596E+00 2.25717E-13-3.63085E-13
 -1      1781 2.22708E+01 2.99137E+00-2.18020E-02 1.58476E+00 1.41715E-13-4.28258E-13
 -1      1782 2.24611E+01 2.10661E+00-1.81903E-02 1.40987E+00 1.13879E-13-3.99545E-13
 -1      1783 2.35166E+01 3.30595E+00-7.34689E-02 3.11597E+00 3.79245E-13-1.50061E-13
 -1      1784 2.31318E+01 3.25371E+00-4.15891E-02 2.62754E+00 2.95543E-13-2.78645E-13
 -1      1785 2.33849E+01 2.40176E+00-1.14956E-02 2.49046E+00 2.77691E-13-2.52083E-13
 -1      1786 2.46785E+01 2.85157E+00-8.60609E-02 3.72464E+00 4.55051E-13 3.16913E-13
 -1      1787 2.40044E+01 3.13811E+00-6.04025E-02 3.38651E+00 4.13452E-13 3.35426E-14
 -1      1788 2.41491E+01 2.35512E+00-5.65834E-03 3.15599E+00 4.18555E-13-5.10009E-15
 -1      1789 2.58462E+01 1.29825E+00-1.51511E-01 3.09259E+00 4.29295E-13 9.25690E-13
 -1      1790 2.51833E+01 2.46294E+00 1.28774E-05 3.58755E+00 4.40070E-13 5.24580E-13
 -1      1791 2.47285E+01 1.64128E+00-4.23893E-02 3.11157E+00 4.78300E-13 3.42455E-13
 -1      1792 2.48024E+01 7.47538E-01-8.22215E-02 2.27258E+00 4.33251E-13 8.09963E-13
 -1      1793 2.91708E+01 2.58920E+00 1.15913E-01-3.21830E+00-3.40564E-13 8.49043E-13
 -1      1794 2.33896E+01 1.74923E-01-1.26504E-02 1.59208E+00 3.36810E-13 6.50121E-13
 -1      1795 2.43097E+01 3.21266E-01-1.93054E-02 1.87430E+00 3.64098E-13 7.51637E-13
 -1      1796 2.44052E+01 7.25502E-01-5.53854E-03 2.42585E+00 4.22138E-13 4.97314E-13
 -1      1797 2.85390E+01 1.33018E+00 9.61775E-02-2.60660E+00-3.40096E-13 7.05200E-13
 -1      1798 2.76439E+01-2.41033E-01 3.39256E-02-2.01420E+00-2.55920E-13 7.24264E-13
 -1      1799 2.67642E+01-3.87479E-01-2.12153E-02-2.11799E+00-2.44926E-13 6.61033E-13
 -1      1800 2.65164E+01-3.77111E-01 1.40654E-02-2.36029E+00-2.38054E-13 6.66607E-13
 -1      1801 2.57314E+01-2.21386E-01 6.06215E-03-2.51162E+00-2.46629E-13 5.89435E-13
 -1      1802 2.68060E+01-5.06432E-01-2.01164E-03-2.70528E+00-2.79297E-13 4.98124E-13
 -1      1803 2.53041E+01 6.67717E-02-1.27306E-02-2.57164E+00-2.52853E-13 5.61991E-13
 -1      1804 2.45863E+01 4.61677E-01 2.34404E-02-2.41674E+00-3.06411E-13 4.59084E-13
 -1      1805 2.61600E+01-6.06976E-02-2.56268E-03-3.07237E+00-3.13482E-13 4.67096E-13
 -1      1806 2.40766E+01 8.54977E-01-2.27970E-02-1.96905E+00-3.82125E-13 3.42944E-13
 -1      1807 2.36029E+01 1.18665E+00 1.63566E-02-1.39126E+00-4.35325E-13 2.17931E-13
 -1      1808 2.52801E+01 9.94877E-01-2.36468E-02-2.69258E+00-4.45130E-13 2.95550E-13
 -1      1809 2.33237E+01 1.34244E+00-3.87250E-03-4.94027E-01-4.54914E-13 7.33849E-14
 -1      1810 2.32422E+01 1.28346E+00-1.37569E-02 2.48792E-01-3.78156E-13-7.36355E-14
 -1      1811 2.45073E+01 1.83471E+00-5.57159E-02-1.19240E+00-5.32678E-13 5.00485E-14
 -1      1812 2.33541E+01 1.03128E+00 1.77758E-02 1.06073E+00-3.10713E-13-1.87033E-13
 -1      1813 2.36244E+01 6.29700E-01-3.44579E-02 1.52949E+00-2.46591E-13-2.55150E-13
 -1      1814 2.43432E+01 1.68185E+00-5.24997E-02 7.57770E-01-4.45539E-13-1.97322E-13
 -1      1815 2.38751E+01 2.10931E-01 1.62800E-02 1.79290E+00-1.99370E-13-3.33147E-13
 -1      1816 2.42915E+01-1.88933E-01-2.55671E-02 1.79973E+00-1.20144E-13-3.65940E-13
 -1      1817 2.46875E+01 6.46698E-01-1.65329E-02 1.94439E+00-2.99691E-13-4.03191E-13
 -1      1818 2.43585E+01-4.61810E-01-5.92232E-03 1.53939E+00-1.09883E-13-3.85707E-13
 -1      1819 2.47004E+01-6.33095E-01-8.37662E-03 1.23402E+00-6.71312E-14-3.84341E-13
 -1      1820 2.49611E+01-4.38125E-01 8.93386E-03 1.87815E+00-1.40453E-13-5.56535E-13
 -1      1821 2.45271E+01-6.84884E-01-2.44720E-02 7.67417E-01-6.12878E-14-4.06921E-13
 -1      1822 2.46727E+01-6.50783E-01 1.29928E-03 3.92834E-01-4.04329E-14-5.04065E-13
 -1      1823 2.48207E+01-9.58009E-01 7.84058E-03 1.03406E+00-1.01094E-13-5.93306E-13
 -1      1824 2.43682E+01-5.71733E-01-2.80365E-02-1.83604E-02-1.39333E-14-4.49467E-13
 -1      1825 2.43099E+01-4.52129E-01 3.45488E-03-3.08676E-01 2.66939E-14-4.35404E-13
 -1      1826 2.43417E+01-9.13247E-01-6.20164E-04 6.99930E-02-1.75329E-14-4.79347E-13
 -1      1827 2.39797E+01-3.43553E-01-2.13276E-02-5.66277E-01 2.61839E-14-3.74826E-13
 -1      1828 2.37734E+01-2.27139E-01 2.28198E-03-7.30758E-01 2.41586E-14-3.76742E-13
 -1      1829 2.37277E+01-6.08862E-01-5.96940E-03-6.43245E-01 7.43737E-14-3.38064E-13
 -1      1830 2.34692E+01-1.40259E-01-1.16298E-02-8.43955E-01 4.74820E-14-3.52276E-13
 -1      1831 2.31846E+01-5.98771E-02 1.29592E-03-9.03418E-01 6.32207E-14-2.58346E-13
 -1      1832 2.31164E+01-2.90025E-01-6.68905E-03-1.02962E+00 6.20766E-14-2.82513E-13
 -1      1833 2.29199E+01-5.77069E-03-3.38074E-03-9.17324E-01 8.95811E-15-2.20093E-13
 -1      1834 2.26134E+01 3.84202E-02 9.97014E-04-9.09465E-01 8.65139E-16-1.54035E-13
 -1      1835 2.25624E+01-6.07741E-02-5.59784E-03-1.15571E+00 5.89698E-14-1.85324E-13
 -1      1836 2.23875E+01 6.57935E-02 2.01862E-03-8.67640E-01-2.60384E-14-1.65488E-13
 -1      1837 2.20956E+01 8.42621E-02 1.09855E-03-8.25069E-01 6.37478E-15-1.97713E-13
 -1      1838 2.20779E+01 7.06603E-02-4.42201E-03-1.11744E+00-2.93027E-14-2.08996E-13
 -1      1839 2.19049E+01 9.43801E-02 4.84444E-03-7.58645E-01 8.31561E-15-2.50767E-13
 -1      1840 2.16466E+01 9.76932E-02 1.30621E-03-7.03167E-01-3.16169E-14-1.73712E-13
 -1      1841 2.16619E+01 1.29760E-01-3.59179E-03-9.94277E-01-3.55912E-14-2.81829E-13
 -1      1842 2.14875E+01 9.82500E-02 5.87031E-03-6.30986E-01-9.66345E-14-2.09354E-13
 -1      1843 2.12699E+01 9.39422E-02 1.44658E-03-5.74969E-01-1.03561E-13-2.51649E-13
 -1      1844 2.13099E+01 1.44869E-01-3.04411E-03-8.39289E-01-6.84485E-14-2.60457E-13
 -1      1845 2.11388E+01 8.99523E-02 5.82472E-03-5.06965E-01-8.77050E-14-2.22970E-13
 -1      1846 2.09618E+01 8.25773E-02 1.47184E-03-4.56381E-01-5.60864E-14-2.19035E-13
 -1      1847 2.10169E+01 1.37045E-01-2.64901E-03-6.83158E-01-8.02906E-14-8.36688E-14
 -1      1848 2.08555E+01 7.69160E-02 5.23889E-03-3.96926E-01-3.23530E-14-1.48969E-13
 -1      1849 2.07154E+01 6.89210E-02 1.39867E-03-3.53985E-01 1.30026E-14-1.13735E-13
 -1      1850 2.07768E+01 1.19358E-01-2.31729E-03-5.41237E-01-2.14089E-14 4.83081E-15
 -1      1851 2.06305E+01 6.30767E-02 4.44610E-03-3.04319E-01 6.48028E-15-1.05046E-13
 -1      1852 2.05219E+01 5.56280E-02 1.26257E-03-2.69252E-01 1.51599E-13-1.60002E-13
 -1      1853 2.05835E+01 9.90085E-02-2.00863E-03-4.19600E-01 6.45263E-15-6.57570E-14
 -1      1854 2.04552E+01 5.02839E-02 3.63196E-03-2.29020E-01 1.98708E-13-1.69636E-13
 -1      1855 2.03726E+01 4.38400E-02 1.09635E-03-2.01140E-01 6.23454E-14-1.53220E-13
 -1      1856 2.04303E+01 7.95407E-02-1.71316E-03-3.19226E-01 1.15234E-13-9.94904E-14
 -1      1857 2.03211E+01 3.92481E-02 2.88704E-03-1.69283E-01 4.15976E-14-3.75057E-15
 -1      1858 2.02594E+01 3.39071E-02 9.23690E-04-1.47564E-01 1.16586E-13 3.89539E-14
 -1      1859 2.03110E+01 6.24389E-02-1.43429E-03-2.38589E-01 1.59614E-13-1.43366E-14
 -1      1860 2.02202E+01 3.01049E-02 2.24678E-03-1.22799E-01 9.20675E-14 3.76186E-15
 -1      1861 2.01751E+01 2.57992E-02 7.59406E-04-1.06168E-01 1.60857E-13 1.03135E-13
 -1      1862 2.02196E+01 4.81165E-02-1.17850E-03-1.75135E-01 1.11234E-13 1.28782E-13
 -1      1863 2.01458E+01 2.27273E-02 1.71734E-03-8.72280E-02 1.71977E-13 8.02645E-14
 -1      1864 2.01133E+01 1.93248E-02 6.11484E-04-7.46933E-02 1.23921E-13 9.10280E-14
 -1      1865 2.01507E+01 3.64790E-02-9.50936E-04-1.26064E-01 1.61402E-13-9.37285E-14
 -1      1866 2.00918E+01 1.68880E-02 1.29096E-03-6.04339E-02 1.22913E-14-4.72477E-14
 -1      1867 2.00691E+01 1.42419E-02 4.83314E-04-5.11366E-02-1.13580E-13-1.97079E-14
 -1      1868 2.00998E+01 2.72216E-02-7.54071E-04-8.87205E-02 2.45262E-14-1.18160E-13
 -1      1869 2.00536E+01 1.23380E-02 9.54337E-04-4.05742E-02-2.02711E-13-3.06123E-14
 -1      1870 2.00381E+01 1.03095E-02 3.75425E-04-3.37961E-02-2.70771E-13 1.99317E-16
 -1      1871 2.00628E+01 1.99793E-02-5.87903E-04-6.07487E-02-1.16390E-13-9.76477E-14
 -1      1872 2.00273E+01 8.84265E-03 6.92911E-04-2.61100E-02-2.01648E-13 5.04530E-14
 -1      1873 2.00171E+01 7.30929E-03 2.86696E-04-2.12645E-02-2.63378E-14 4.45981E-14
 -1      1874 2.00365E+01 1.43953E-02-4.50658E-04-4.01448E-02-1.45901E-13 9.51794E-14
 -1      1875 2.00097E+01 6.19486E-03 4.92900E-04-1.57842E-02 1.30679E-13-1.61760E-14
 -1      1876 2.00033E+01 5.05290E-03 2.15152E-04-1.24005E-02 2.38961E-13 5.55019E-14
 -1      1877 2.00184E+01 1.01500E-02-3.39499E-04-2.52479E-02 4.65626E-14 9.61465E-14
 -1      1878 1.99985E+01 4.21861E-03 3.42128E-04-8.58721E-03 1.70003E-13-1.39343E-14
 -1      1879 1.99949E+01 3.38193E-03 1.58480E-04-6.29265E-03 3.30994E-14 3.13996E-14
 -1      1880 2.00063E+01 6.96891E-03-2.51081E-04-1.47080E-02 1.35690E-13-2.85659E-14
 -1      1881 1.99919E+01 2.76739E-03 2.30230E-04-3.71978E-03-1.21898E-13 2.42855E-14
 -1      1882 1.99901E+01 2.16577E-03 1.14337E-04-2.22331E-03-1.27469E-13 4.89618E-14
 -1      1883 1.99987E+01 4.62272E-03-1.81943E-04-7.44489E-03 4.04026E-14-8.01925E-14
 -1      1884 1.99884E+01 1.72138E-03 1.48597E-04-5.57678E-04-1.56236E-13 3.75879E-14
 -1      1885 1.99878E+01 1.29837E-03 8.05245E-05 3.64997E-04-1.15991E-13 1.29428E-14
 -1      1886 1.99941E+01 2.92293E-03-1.28776E-04-2.60672E-03-1.07031E-13-7.76495E-14
 -1      1887 1.99871E+01 9.83954E-04 9.02079E-05 1.38013E-03-6.08261E-14-5.66540E-15
 -1      1888 1.99873E+01 6.94741E-04 5.50715E-05 1.89958E-03-5.26455E-14 9.13845E-15
 -1      1889 1.99918E+01 1.71711E-03-8.85881E-05 4.69104E-04-7.84432E-14-9.74471E-14
 -1      1890 1.99871E+01 4.78227E-04 4.94232E-05 2.45930E-03-1.09915E-13-1.19559E-13
 -1      1891 1.99877E+01 2.87667E-04 3.62649E-05 2.70337E-03-2.97984E-14-1.37669E-13
 -1      1892 1.99909E+01 8.83548E-04-5.87619E-05 2.29092E-03-1.16786E-13-4.24191E-14
 -1      1893 1.99879E+01 1.43720E-04 2.17744E-05 2.95367E-03-6.95492E-14-1.50257E-13
 -1      1894 1.99888E+01 2.45728E-05 2.26543E-05 3.01664E-03-1.81888E-13-2.67766E-13
 -1      1895 1.99909E+01 3.26249E-04-3.70693E-05 3.24315E-03-1.21713E-13-3.25864E-13
 -1      1896 1.99891E+01-6.65612E-05 3.76393E-06 3.06494E-03-2.51404E-13-2.07330E-13
 -1      1897 1.99901E+01-1.35141E-04 1.30383E-05 3.01502E-03-2.24706E-13-2.30684E-13
 -1      1898 1.99915E+01-2.95905E-05-2.16531E-05 3.61193E-03-1.75398E-13-2.63061E-13
 -1      1899 1.99906E+01-1.88667E-04-7.31099E-06 2.93884E-03-3.02152E-13-2.62664E-13
 -1      1900 1.99916E+01-2.22411E-04 6.43990E-06 2.82429E-03-2.35264E-13-4.42901E-13
 -1      1901 1.99924E+01-2.41547E-04-1.09969E-05 3.60643E-03-2.55522E-13-4.51861E-14
 -1      1902 1.99921E+01-2.49864E-04-1.35113E-05 2.67823E-03 6.28401E-14-4.07095E-13
 -1      1903 1.99930E+01-2.60461E-04 2.07721E-06 2.53225E-03 3.43720E-14-3.37535E-13
 -1      1904 1.99934E+01-3.53332E-04-3.88484E-06 3.37641E-03-1.06806E-13 8.04998E-15
 -1      1905 1.99935E+01-2.70464E-04-1.63854E-05 2.35364E-03-8.32833E-14-2.13590E-13
 -1      1906 1.99943E+01-2.66453E-04-6.67013E-07 2.19822E-03 3.16898E-14-1.32752E-13
 -1      1907 1.99944E+01-3.97640E-04 6.41441E-07 3.02634E-03 6.81218E-14-3.90405E-14
 -1      1908 1.99947E+01-2.65347E-04-1.70775E-05 2.01159E-03 7.99949E-14-5.64509E-14
 -1      1909 1.99954E+01-2.52861E-04-2.27483E-06 1.86053E-03 1.16915E-13-7.92170E-16
 -1      1910 1.99954E+01-3.98535E-04 3.32507E-06 2.62675E-03 1.12190E-13 3.55109E-13
 -1      1911 1.99958E+01-2.45236E-04-1.64179E-05 1.68106E-03 7.65012E-14-7.95599E-14
 -1      1912 1.99964E+01-2.28599E-04-3.12042E-06 1.54226E-03 1.52837E-13-7.06578E-14
 -1      1913 1.99963E+01-3.73440E-04 4.73274E-06 2.22313E-03 8.31905E-14 3.97447E-13
 -1      1914 1.99967E+01-2.17735E-04-1.49958E-05 1.37838E-03 5.67966E-14-7.79879E-14
 -1      1915 1.99972E+01-1.99962E-04-3.49343E-06 1.25556E-03 1.24924E-13 2.35217E-14
 -1      1916 1.99971E+01-3.34769E-04 5.28826E-06 1.84271E-03 1.64780E-13 4.08428E-13
 -1      1917 1.99975E+01-1.88188E-04-1.32153E-05 1.11097E-03 1.61765E-13 1.48771E-15
 -1      1918 1.99979E+01-1.71375E-04-3.61471E-06 1.00490E-03 1.55027E-13 4.61025E-14
 -1      1919 1.99977E+01-2.91270E-04 5.30203E-06 1.49973E-03 3.27314E-14 3.00767E-13
 -1      1920 1.99982E+01-1.60367E-04-1.13360E-05 8.79918E-04 1.31325E-13 1.16409E-15
 -1      1921 1.99985E+01-1.46031E-04-3.64575E-06 7.89276E-04 2.53793E-13 2.35980E-13
 -1      1922 1.99983E+01-2.49098E-04 4.99691E-06 1.19919E-03 1.24751E-13 3.68191E-14
 -1      1923 1.99987E+01-1.37065E-04-9.48854E-06 6.81875E-04 2.19620E-13 5.43334E-14
 -1      1924 1.99989E+01-1.26318E-04-3.66130E-06 6.03795E-04 1.35455E-13 1.96687E-14
 -1      1925 1.99987E+01-2.12774E-04 4.51395E-06 9.39662E-04 1.32087E-13 2.44768E-13
 -1      1926 1.99991E+01-1.20252E-04-7.71093E-06 5.10386E-04 1.03664E-14-8.07398E-14
 -1      1927 1.99992E+01-1.13740E-04-3.66053E-06 4.41084E-04-3.44542E-14-6.43153E-14
 -1      1928 1.99991E+01-1.85422E-04 3.95773E-06 7.15252E-04 8.56122E-14-8.83523E-14
 -1      1929 1.99994E+01-1.10519E-04-5.84910E-06 3.57442E-04 1.94755E-14-1.73629E-13
 -1      1930 1.99995E+01-1.07536E-04-3.51028E-06 2.93206E-04 2.23982E-14-1.75330E-13
 -1      1931 1.99993E+01-1.68923E-04 3.15889E-06 5.17834E-04-1.56988E-13-1.96455E-13
 -1      1932 1.99996E+01-1.03500E-04-4.42482E-06 2.20470E-04-4.42946E-15-1.89292E-13
 -1      1933 1.99996E+01-9.96980E-05-3.55225E-06 1.62085E-04 2.24935E-14-1.84640E-13
 -1      1934 1.99997E+01-1.33882E-04 2.46966E-06 1.93938E-04-7.38486E-16-3.23982E-13
 -1      1935 1.99995E+01-1.54737E-04 3.80510E-06 3.44093E-04 2.65777E-14-3.70347E-13
 -1      1936 2.21895E+01 9.91017E-02 1.21025E-02 1.35118E+00 2.30220E-13 4.88714E-13
 -1      1937 2.28766E+01 1.11575E-01 1.62479E-02 1.44456E+00 2.77301E-13 5.95853E-13
 -1      1938 2.32457E+01 2.29210E-01 5.44935E-03 1.88680E+00 3.53002E-13 4.10972E-13
 -1      1939 2.11841E+01 1.85739E-01 1.27234E-02 1.09994E+00 2.23647E-13 3.29221E-13
 -1      1940 2.17190E+01 1.40539E-01 1.64208E-02 1.20812E+00 1.90558E-13 4.12722E-13
 -1      1941 2.22075E+01 1.98307E-01 2.15455E-03 1.57435E+00 2.58989E-13 2.77349E-13
 -1      1942 2.04527E+01 3.03822E-01 7.33703E-03 6.67704E-01 1.92887E-13 2.18439E-13
 -1      1943 2.08240E+01 2.60886E-01 1.41123E-02 8.64843E-01 2.20053E-13 3.01281E-13
 -1      1944 2.13635E+01 3.38708E-01-5.61517E-03 1.16156E+00 2.43467E-13 1.96202E-13
 -1      1945 2.01091E+01 3.48612E-01 1.05704E-03 8.52572E-02 1.48114E-13 1.00566E-13
 -1      1946 2.02716E+01 3.51474E-01 1.40155E-02 3.50729E-01 1.65203E-13 1.61709E-13
 -1      1947 2.08094E+01 4.67785E-01-1.19283E-02 5.43607E-01 2.11805E-13 7.98698E-14
 -1      1948 2.01943E+01 2.77721E-01-2.11769E-03-4.79431E-01 1.11038E-13 8.62158E-16
 -1      1949 2.01318E+01 3.34802E-01 1.38213E-02-2.24527E-01 1.05430E-13 4.86321E-14
 -1      1950 2.06293E+01 4.68505E-01-1.21189E-02-1.68887E-01 1.54600E-13-1.87194E-14
 -1      1951 2.06176E+01 1.22922E-01-1.02057E-03-8.42616E-01 1.03304E-13-1.09633E-13
 -1      1952 2.03735E+01 2.08033E-01 1.09045E-02-6.79761E-01 1.01349E-13-4.07400E-14
 -1      1953 2.08047E+01 3.20524E-01-5.85655E-03-7.58156E-01 1.14495E-13-8.11035E-14
 -1      1954 2.11853E+01-3.78896E-02 2.08796E-03-9.20441E-01 1.46708E-13-1.82356E-13
 -1      1955 2.08529E+01 3.60367E-02 4.86340E-03-8.82933E-01 1.48573E-13-1.23146E-13
 -1      1956 2.11961E+01 9.07565E-02 3.19040E-04-1.04882E+00 1.65126E-13-1.31718E-13
 -1      1957 2.17029E+01-1.42997E-01 4.69273E-03-7.58889E-01 3.74397E-15-1.84410E-13
 -1      1958 2.13834E+01-1.03969E-01-1.70311E-03-8.24237E-01 6.91001E-14-1.94874E-13
 -1      1959 2.16198E+01-1.15937E-01 2.94941E-03-1.01211E+00 9.03743E-14-1.51205E-13
 -1      1960 2.20497E+01-1.76878E-01 5.35835E-03-4.73594E-01 4.78623E-14-2.35350E-13
 -1      1961 2.18147E+01-1.73153E-01-6.23687E-03-5.91711E-01-1.83074E-14-2.05525E-13
 -1      1962 2.19381E+01-2.33017E-01 2.60573E-03-7.47234E-01 1.03559E-14-2.62638E-13
 -1      1963 2.21914E+01-1.57884E-01 4.26999E-03-1.76053E-01 9.24118E-14-2.46951E-13
 -1      1964 2.20697E+01-1.76489E-01-7.98622E-03-2.99920E-01 9.76259E-14-2.06159E-13
 -1      1965 2.20922E+01-2.54803E-01 1.02625E-03-3.94824E-01 8.24774E-14-2.90553E-13
 -1      1966 2.21537E+01-1.14016E-01 2.53101E-03 6.48330E-02 3.40934E-14-2.65600E-13
 -1      1967 2.21387E+01-1.40528E-01-7.45873E-03-3.60014E-02 6.49290E-14-2.15231E-13
 -1      1968 2.20869E+01-2.12809E-01-2.73010E-04-6.65287E-02 8.01698E-14-1.73604E-13
 -1      1969 2.19880E+01-6.70988E-02 9.78306E-04 2.24881E-01-9.58894E-14-2.81968E-13
 -1      1970 2.20542E+01-9.18283E-02-5.65570E-03 1.57271E-01-3.94021E-14-2.85813E-13
 -1      1971 2.19594E+01-1.45350E-01-8.42442E-04 1.79767E-01-1.59183E-14-1.96334E-13
 -1      1972 2.17481E+01-2.85170E-02-4.95286E-05 3.09120E-01 1.19813E-14-2.44441E-13
 -1      1973 2.18649E+01-4.72037E-02-3.50387E-03 2.72861E-01-3.23721E-14-2.35002E-13
 -1      1974 2.17544E+01-7.95098E-02-9.13724E-04 3.31400E-01-5.49721E-14-1.95203E-13
 -1      1975 2.14779E+01-1.61389E-03-5.58100E-04 3.35331E-01 6.73952E-14-3.07302E-13
 -1      1976 2.16184E+01-1.36382E-02-1.57571E-03 3.23235E-01 3.27284E-14-2.95118E-13
 -1      1977 2.15114E+01-2.80528E-02-7.90713E-04 4.01385E-01 4.68963E-14-2.59157E-13
 -1      1978 2.12086E+01 1.45879E-02-6.99807E-04 3.23275E-01 4.27281E-14-4.28509E-13
 -1      1979 2.13530E+01 8.12252E-03-1.17394E-04 3.27260E-01 1.23263E-13-3.21023E-13
 -1      1980 2.12604E+01 6.35013E-03-6.50716E-04 4.12003E-01 1.08082E-13-3.41954E-13
 -1      1981 2.09600E+01 2.26456E-02-6.37146E-04 2.89593E-01 1.42535E-14-4.15718E-13
 -1      1982 2.10953E+01 2.01590E-02 8.36967E-04 3.02798E-01-2.73102E-14-4.60592E-13
 -1      1983 2.10215E+01 2.60583E-02-5.56396E-04 3.85191E-01 2.26907E-14-3.52725E-13
 -1      1984 2.07421E+01 2.52155E-02-4.89324E-04 2.46363E-01 7.30316E-14-4.11064E-13
 -1      1985 2.08614E+01 2.52604E-02 1.36220E-03 2.63772E-01 7.34139E-14-3.97486E-13
 -1      1986 2.08066E+01 3.50020E-02-5.07547E-04 3.38483E-01 3.18856E-14-4.21165E-13
 -1      1987 2.05587E+01 2.44625E-02-3.26919E-04 2.01433E-01-6.56108E-14-4.29794E-13
 -1      1988 2.06593E+01 2.59295E-02 1.56962E-03 2.19756E-01-3.40786E-15-4.23244E-13
 -1      1989 2.06214E+01 3.69269E-02-4.83559E-04 2.84207E-01 1.84245E-14-3.95940E-13
 -1      1990 2.04094E+01 2.19414E-02-1.84421E-04 1.59372E-01 4.79771E-14-4.66151E-13
 -1      1991 2.04912E+01 2.40676E-02 1.56671E-03 1.76669E-01-5.39664E-14-4.11111E-13
 -1      1992 2.04670E+01 3.47604E-02-4.65451E-04 2.30164E-01-5.85183E-14-4.20942E-13
 -1      1993 2.02912E+01 1.86751E-02-7.41017E-05 1.22462E-01-1.16809E-13-2.99772E-13
 -1      1994 2.03557E+01 2.09790E-02 1.44024E-03 1.37742E-01 4.50746E-15-3.37757E-13
 -1      1995 2.03420E+01 3.05447E-02-4.42265E-04 1.80748E-01-5.03290E-14-2.79114E-13
 -1      1996 2.02000E+01 1.52864E-02 3.55617E-06 9.15163E-02-6.74875E-14-4.69719E-13
 -1      1997 2.02495E+01 1.74897E-02 1.25289E-03 1.04402E-01-9.54772E-14-3.69179E-13
 -1      1998 2.02434E+01 2.55884E-02-4.10241E-04 1.38018E-01-6.18350E-14-2.25389E-13
 -1      1999 2.01314E+01 1.21219E-02 5.32262E-05 6.64700E-02 3.31106E-14-4.33325E-13
 -1      2000 2.01684E+01 1.40825E-02 1.04618E-03 7.69572E-02-2.64212E-14-4.67497E-13
 -1      2001 2.01675E+01 2.06648E-02-3.70243E-04 1.02553E-01-3.35696E-14-4.21665E-13
 -1      2002 2.00812E+01 9.34848E-03 8.11276E-05 4.67909E-02 5.41171E-14-3.00185E-13
 -1      2003 2.01080E+01 1.10106E-02 8.45328E-04 5.50768E-02 3.75608E-14-3.88033E-13
 -1      2004 2.01104E+01 1.61857E-02-3.25229E-04 7.40643E-02 2.58477E-14-3.25053E-13
 -1      2005 2.00454E+01 7.02277E-03 9.32780E-05 3.17372E-02 2.44775E-14-2.98551E-13
 -1      2006 2.00643E+01 8.38138E-03 6.63994E-04 3.81126E-02 9.16360E-14-2.76762E-13
 -1      2007 2.00686E+01 1.23325E-02-2.78532E-04 5.18158E-02 7.47731E-14-1.42665E-13
 -1      2008 2.00207E+01 5.13757E-03 9.47643E-05 2.05159E-02 1.33218E-13-2.56794E-13
 -1      2009 2.00335E+01 6.21540E-03 5.08206E-04 2.52986E-02 2.37183E-14-3.08250E-13
 -1      2010 2.00387E+01 9.14871E-03-2.33009E-04 3.48859E-02 4.29013E-14-1.22407E-13
 -1      2011 2.00044E+01 3.65228E-03 8.95544E-05 1.23722E-02-1.91803E-14-1.48090E-13
 -1      2012 2.00127E+01 4.48507E-03 3.79244E-04 1.58685E-02 7.14078E-14-1.45768E-13
 -1      2013 2.00181E+01 6.60089E-03-1.90742E-04 2.23284E-02 3.92242E-14-1.15956E-14
 -1      2014 1.99942E+01 2.51155E-03 8.05773E-05 6.63393E-03 3.94662E-14-2.02109E-13
 -1      2015 1.99992E+01 3.13918E-03 2.75661E-04 9.11905E-03 3.89062E-14-1.83507E-13
 -1      2016 2.00044E+01 4.61728E-03-1.52996E-04 1.32607E-02 4.30155E-15 1.66717E-14
 -1      2017 1.99884E+01 1.65659E-03 6.98936E-05 2.72982E-03-3.86794E-14-4.27223E-13
 -1      2018 1.99911E+01 2.11790E-03 1.94620E-04 4.43934E-03-2.61010E-14-3.52602E-13
 -1      2019 1.99959E+01 3.11156E-03-1.20344E-04 6.90686E-03 5.53373E-14-1.68133E-13
 -1      2020 1.99856E+01 1.03157E-03 5.88841E-05 1.90788E-04-3.05480E-14-4.38641E-13
 -1      2021 1.99867E+01 1.36166E-03 1.32739E-04 1.31938E-03-6.13185E-15-4.87853E-13
 -1      2022 1.99909E+01 1.99668E-03-9.28440E-05 2.61311E-03 1.23774E-14-3.46735E-13
 -1      2023 1.99849E+01 5.86885E-04 4.84082E-05-1.35760E-03 1.93082E-13-4.50996E-13
 -1      2024 1.99849E+01 8.15907E-04 8.66070E-05-6.53632E-04 6.59735E-14-4.22349E-13
 -1      2025 1.99885E+01 1.19249E-03-7.02262E-05-1.54087E-04 6.97003E-14-3.92693E-13
 -1      2026 1.99853E+01 2.80377E-04 3.89478E-05-2.20702E-03 2.08630E-13-4.88428E-13
 -1      2027 1.99848E+01 4.33332E-04 5.30652E-05-1.80521E-03 2.41763E-13-4.51005E-13
 -1      2028 1.99878E+01 6.29212E-04-5.20240E-05-1.81852E-03 2.09607E-13-3.69727E-13
 -1      2029 1.99866E+01 7.73747E-05 3.07234E-05-2.57952E-03-2.09122E-13-4.50612E-13
 -1      2030 1.99857E+01 1.74408E-04 2.93476E-05-2.38607E-03 2.49909E-14-4.94891E-13
 -1      2031 1.99881E+01 2.48454E-04-3.76722E-05-2.70889E-03 4.95170E-14-3.52197E-13
 -1      2032 1.99882E+01-4.99043E-05 2.37849E-05-2.64036E-03-1.14389E-13-3.22024E-13
 -1      2033 1.99871E+01 7.05920E-06 1.31224E-05-2.58502E-03-2.22133E-13-4.83488E-13
 -1      2034 1.99890E+01 2.81266E-06-2.65785E-05-3.07450E-03-2.27614E-13-2.32982E-13
 -1      2035 1.99899E+01-1.23207E-04 1.80764E-05-2.50961E-03-1.05758E-13-4.66688E-14
 -1      2036 1.99888E+01-9.41177E-05 2.48228E-06-2.54098E-03-1.03732E-13-7.86461E-14
 -1      2037 1.99903E+01-1.45256E-04-1.81725E-05-3.10013E-03-2.54856E-13 6.06302E-14
 -1      2038 1.99916E+01-1.59196E-04 1.34822E-05-2.27216E-03-6.15080E-14-1.19982E-13
 -1      2039 1.99906E+01-1.48796E-04-4.09398E-06-2.35357E-03-5.63248E-14-2.48745E-14
 -1      2040 1.99917E+01-2.24824E-04-1.19345E-05-2.91943E-03-8.63653E-14 2.61745E-13
 -1      2041 1.99931E+01-1.70373E-04 9.85672E-06-1.98611E-03-8.42070E-14-4.17693E-14
 -1      2042 1.99922E+01-1.71896E-04-7.79275E-06-2.09223E-03-7.17740E-14-2.91841E-14
 -1      2043 1.99930E+01-2.57929E-04-7.40935E-06-2.62644E-03-8.02748E-14 2.68414E-13
 -1      2044 1.99945E+01-1.65934E-04 7.04504E-06-1.68957E-03 2.68225E-14-7.75058E-14
 -1      2045 1.99937E+01-1.74502E-04-9.52023E-06-1.80353E-03-4.92272E-14-1.36222E-13
 -1      2046 1.99943E+01-2.60928E-04-4.21039E-06-2.28511E-03 1.25832E-14 1.14408E-13
 -1      2047 1.99957E+01-1.52511E-04 4.89396E-06-1.40601E-03-5.37628E-15-7.95928E-15
 -1      2048 1.99950E+01-1.64691E-04-9.95509E-06-1.51723E-03 1.04056E-14 2.74501E-14
 -1      2049 1.99954E+01-2.45721E-04-2.01720E-06-1.93695E-03-8.45586E-15 1.72192E-13
 -1      2050 1.99967E+01-1.34810E-04 3.25814E-06-1.14840E-03 7.54871E-14-1.58191E-13
 -1      2051 1.99961E+01-1.48237E-04-9.59594E-06-1.25081E-03 3.86323E-14 2.23376E-15
 -1      2052 1.99964E+01-2.20797E-04-5.69893E-07-1.60713E-03 4.32496E-14 8.43395E-14
 -1      2053 1.99975E+01-1.16147E-04 2.00396E-06-9.22232E-04 1.71782E-13-3.23892E-13
 -1      2054 1.99970E+01-1.29221E-04-8.80050E-06-1.01306E-03 1.26464E-13-3.03974E-13
 -1      2055 1.99972E+01-1.92125E-04 3.38647E-07-1.30908E-03 1.85510E-13-5.68411E-14
 -1      2056 1.99982E+01-9.89015E-05 1.01434E-06-7.27779E-04 1.27452E-13-4.33301E-13
 -1      2057 1.99978E+01-1.10532E-04-7.81637E-06-8.06602E-04 1.66368E-13-4.21947E-13
 -1      2058 1.99979E+01-1.63897E-04 8.72401E-07-1.04789E-03 1.56013E-13-3.99949E-14
 -1      2059 1.99987E+01-8.48665E-05 2.06666E-07-5.61527E-04 7.63898E-14-2.45778E-13
 -1      2060 1.99984E+01-9.42907E-05-6.79902E-06-6.29679E-04 5.09549E-14-3.71143E-13
 -1      2061 1.99985E+01-1.39141E-04 1.16185E-06-8.22773E-04 4.26841E-14-7.65142E-15
 -1      2062 1.99991E+01-7.53083E-05-3.97893E-07-4.17199E-04-4.21565E-13-3.10255E-13
 -1      2063 1.99989E+01-8.21102E-05-5.81204E-06-4.77407E-04-2.57460E-13-3.41177E-13
 -1      2064 1.99989E+01-1.20115E-04 1.31953E-06-6.28753E-04-1.65839E-13 7.62401E-15
 -1      2065 1.99994E+01-7.06377E-05-6.80255E-07-2.87398E-04-5.19583E-14-9.33642E-14
 -1      2066 1.99992E+01-7.47662E-05-4.77789E-06-3.43026E-04-1.58262E-13-1.94243E-13
 -1      2067 1.99992E+01-1.07842E-04 1.52841E-06-4.58270E-04-2.73503E-13-1.14092E-13
 -1      2068 1.99996E+01-7.00191E-05-1.58613E-06-1.66504E-04 2.30193E-13-3.69962E-13
 -1      2069 1.99995E+01-7.14720E-05-3.46461E-06-2.19841E-04 2.78358E-14-1.96124E-13
 -1      2070 1.99995E+01-1.02459E-04 1.55036E-06-3.03742E-04 9.30293E-14-1.79374E-13
 -1      2071 1.99997E+01-6.59549E-05-2.59372E-06-8.10687E-05 4.37966E-14-3.18753E-13
 -1      2072 1.99997E+01-7.23636E-05-2.33886E-06-1.28996E-04 2.20648E-13-3.41542E-13
 -1      2073 1.99996E+01-1.02933E-04 1.15984E-06-1.87784E-04 1.28167E-13-1.44606E-13
 -1      2074 1.99997E+01-9.56728E-05-1.52117E-07-1.06770E-04-1.57328E-13 1.64635E-13
 -1      2075 1.99998E+01-6.22577E-04 1.50375E-06-3.43803E-04 6.59721E-14 2.31523E-13
 -1      2076 1.99998E+01-5.12571E-04-2.28275E-06-3.31091E-04-3.86853E-14 3.24969E-13
 -1      2077 1.99997E+01-4.06760E-04 3.35293E-07-3.02195E-04-8.31073E-14 3.04472E-13
 -1      2078 1.99997E+01-3.09816E-04-2.75728E-06-2.64381E-04-1.44072E-13 3.11101E-13
 -1      2079 1.99997E+01-4.78597E-04 2.71893E-07-4.09627E-04-9.37754E-14 3.32957E-13
 -1      2080 1.99997E+01-2.33265E-04-5.77216E-07-2.14798E-04-2.12819E-13 1.97025E-13
 -1      2081 1.99997E+01-1.58676E-04-2.30216E-06-1.63717E-04-1.72907E-13 1.97697E-13
 -1      2082 1.99997E+01-1.65035E-04-1.40486E-06-2.05870E-04 2.74668E-14 1.43505E-13
 -1      2083 1.99997E+01-3.00602E-04 1.29682E-06-3.19957E-04-1.19829E-14 2.58240E-13
 -1      2084 1.99998E+01-8.32254E-04 2.69792E-06-3.30596E-04 9.54430E-14-4.66053E-13
 -1      2085 1.99998E+01-7.25472E-04-7.16175E-07-3.42145E-04 1.28138E-13-3.50689E-14
 -1      2086 1.99998E+01-6.85837E-04-9.12148E-07-4.38249E-04 3.77009E-14 9.37942E-14
 -1      2087 1.99999E+01-1.01556E-03 3.69272E-06-2.66638E-04 1.13390E-13 8.87832E-14
 -1      2088 1.99998E+01-9.24325E-04 9.86130E-07-2.99681E-04 3.87761E-14-1.29341E-13
 -1      2089 1.99999E+01-8.80471E-04-2.18305E-06-4.00602E-04 8.88934E-14-2.33316E-13
 -1      2090 1.99999E+01-1.14425E-03 4.24297E-06-1.63272E-04 6.55645E-14 2.65841E-13
 -1      2091 1.99999E+01-1.08380E-03 2.54152E-06-2.11891E-04 1.52927E-13 1.42920E-13
 -1      2092 1.99999E+01-1.04080E-03-3.28611E-06-3.03392E-04 1.82981E-13 1.75646E-13
 -1      2093 1.99999E+01-1.20133E-03 4.24703E-06-3.64740E-05 7.67098E-14 1.66370E-13
 -1      2094 1.99999E+01-1.18042E-03 3.67294E-06-9.32353E-05 1.18466E-14 1.57803E-13
 -1      2095 1.99999E+01-1.14538E-03-3.99852E-06-1.62451E-04 9.40380E-15 1.64128E-13
 -1      2096 1.99999E+01-1.17938E-03 3.67007E-06 9.54660E-05-1.30973E-13-4.79113E-13
 -1      2097 1.99999E+01-1.20103E-03 4.24938E-06 3.87748E-05-1.21839E-14 1.96386E-13
 -1      2098 1.99999E+01-1.18133E-03-4.24165E-06 1.44424E-06-1.84829E-13 7.62795E-14
 -1      2099 1.99999E+01-1.08151E-03 2.57065E-06 2.13737E-04-9.19692E-14-8.11696E-13
 -1      2100 1.99999E+01-1.14268E-03 4.21426E-06 1.65354E-04-2.51583E-14-6.66688E-13
 -1      2101 1.99999E+01-1.14424E-03-3.97538E-06 1.65165E-04-1.60947E-13-5.77225E-13
 -1      2102 1.99998E+01-9.24273E-04 1.00832E-06 2.99717E-04 9.92477E-14 7.92799E-14
 -1      2103 1.99999E+01-1.01421E-03 3.67075E-06 2.67396E-04-2.69722E-14-4.25278E-13
 -1      2104 1.99999E+01-1.03985E-03-3.31579E-06 3.04661E-04-2.86577E-14-5.96482E-13
 -1      2105 1.99998E+01-7.23589E-04-7.53186E-07 3.42254E-04 1.83462E-13 5.82648E-13
 -1      2106 1.99998E+01-8.32269E-04 2.71041E-06 3.30705E-04 1.25473E-13 6.08152E-13
 -1      2107 1.99999E+01-8.80578E-04-2.17199E-06 4.00699E-04 1.93872E-13 2.46899E-13
 -1      2108 1.99998E+01-5.08575E-04-2.27937E-06 3.30456E-04 2.50866E-13 7.69310E-14
 -1      2109 1.99998E+01-6.18738E-04 1.54074E-06 3.43666E-04 2.89450E-13 3.15275E-13
 -1      2110 1.99998E+01-6.84129E-04-8.93138E-07 4.38279E-04 2.90590E-13 4.34310E-13
 -1      2111 1.99997E+01-3.00896E-04-7.82581E-07 2.63549E-04 2.63041E-13-3.88839E-13
 -1      2112 1.99997E+01-4.02870E-04 3.67060E-07 3.00912E-04 2.09662E-13-1.24102E-13
 -1      2113 1.99997E+01-4.75936E-04 6.63949E-08 4.08041E-04 2.53324E-13-2.69583E-14
 -1      2114 1.10876E+01-3.69205E+00-1.19690E-01 6.98061E+00 3.85969E-13 5.82836E-13
 -1      2115 7.07207E+00-5.16801E+00-3.81644E-01 5.52233E+00 3.58047E-13 7.77919E-13
 -1      2116 5.44590E-01-5.61828E+00-4.12687E-01 1.04416E+00 2.37282E-13 9.79106E-13
 -1      2117 4.76075E-01-5.94900E+00-4.63861E-01-5.76800E-01-3.67484E-14 1.06981E-12
 -1      2118 4.26326E+00-4.82687E+00-2.77632E-01 4.67162E+00 4.19997E-13 9.18599E-13
 -1      2119 2.19184E+00-5.52067E+00-3.95069E-01 3.14836E+00 2.10720E-13 8.53984E-13
 -1      2120 7.79610E+00-3.88622E+00-8.77393E-02 6.10357E+00-7.86038E-14 7.70300E-13
 -1      2121 2.04124E+01-1.81105E+00 4.85470E-02 7.22613E+00 6.89671E-13 3.48332E-13
 -1      2122 1.60630E+01-3.65681E+00-1.97010E-01 6.62577E+00 4.88221E-13 2.95125E-13
 -1      2123 2.80448E+01 4.08397E-01 1.23643E-01 5.88517E+00 6.51923E-13 9.95315E-14
 -1      2124 2.33661E+01-1.09633E+00-1.30951E-01 6.10881E+00 7.12430E-13 2.73892E-13
 -1      2125 2.39561E+01-3.10370E+00 7.46015E-02 5.55039E+00 2.06862E-13-1.84963E-13
 -1      2126 1.88990E+01 2.71689E+00-3.57953E-02 1.10588E-01-3.49651E-14-4.19977E-13
 -1      2127 2.08218E+01 2.75338E+00-2.96467E-04-4.62211E-01-1.07574E-13-3.21347E-13
 -1      2128 2.22047E+01 1.61239E+00-3.18616E-02-8.02160E-01-1.37081E-13-1.85518E-13
 -1      2129 3.77390E+01 6.30414E+00 2.50765E-01 1.85098E+00 9.69891E-13-4.84501E-13
 -1      2130 3.58261E+01 5.38630E+00 1.65251E-01 2.91750E+00 9.17322E-13-2.06446E-13
 -1      2131 3.88339E+01 6.95565E+00 2.76560E-01 2.82628E-01 1.13742E-12-7.49512E-13
 -1      2132 3.79950E+01 7.13568E+00 1.89598E-01 1.39889E+00 1.08508E-12-5.27495E-13
 -1      2133 3.61733E+01 5.83237E+00 6.56063E-02-1.09939E+00 1.20937E-12-8.91176E-13
 -1      2134 3.87897E+01 6.48477E+00 3.24494E-01-1.58412E-01 1.14897E-12-7.55729E-13
 -1      2135 3.45686E+01 7.82974E+00 2.91430E-01 8.11090E-01 1.18999E-12-4.92023E-13
 -1      2136 3.11849E+01 2.80334E+00-5.04843E-02-2.39853E+00 1.08750E-12-8.89289E-13
 -1      2137 3.49664E+01 4.19374E+00 2.02287E-01-1.81068E+00 1.15703E-12-8.43436E-13
 -1      2138 2.39564E+01 2.60084E-01-1.25994E-01-5.01503E+00 1.04955E-12-1.13909E-12
 -1      2139 2.85846E+01 1.27404E+00 2.53837E-02-4.50451E+00 1.07123E-12-1.04872E-12
 -1      2140 1.51259E+01-1.04789E+00-2.64180E-01-6.06741E+00 9.51461E-13-1.27581E-12
 -1      2141 1.98833E+01-2.24732E-01-5.11429E-02-6.47305E+00 1.00892E-12-1.24328E-12
 -1      2142 8.10247E+00-1.63859E+00-2.60310E-01-5.44949E+00 5.81868E-13-1.23335E-12
 -1      2143 1.16653E+01-7.93065E-01-1.05798E-01-6.39296E+00 9.24483E-13-1.34956E-12
 -1      2144 1.55631E+01-1.48863E+00-1.83767E-02-6.17848E+00 3.40505E-13-1.03320E-12
 -1      2145 2.61252E+00-1.67091E+00-2.50452E-01-3.36126E+00 1.45051E-13-1.27320E-12
 -1      2146 4.88810E+00-9.42344E-01-1.09207E-01-4.77006E+00 4.63629E-13-1.31506E-12
 -1      2147 7.02246E-01-1.56027E+00-2.00035E-01-5.15258E-01-2.16653E-13-1.31617E-12
 -1      2148 1.10840E+00-1.45929E+00-1.92605E-01-1.99853E+00 1.65923E-13-1.31084E-12
 -1      2149 2.60267E+00-2.00152E+00-2.44020E-01 2.66509E+00-6.06987E-13-1.32711E-12
 -1      2150 1.11547E+00-2.01858E+00-2.70254E-01 1.20244E+00-2.33549E-13-1.28064E-12
 -1      2151 9.06988E+00-1.93244E+00-1.49173E-01 5.21461E+00-7.77545E-13-1.31510E-12
 -1      2152 5.47625E+00-2.47386E+00-3.20057E-01 3.84354E+00-5.39180E-13-1.28494E-12
 -1      2153 1.82298E+01-1.72441E+00-1.00600E-01 5.92949E+00-1.09962E-12-1.31961E-12
 -1      2154 1.32201E+01-2.62962E+00-3.16133E-01 5.21254E+00-8.89733E-13-1.24173E-12
 -1      2155 2.81150E+01-4.12172E-02 6.78315E-02 4.71423E+00-1.21642E-12-1.23357E-12
 -1      2156 2.28005E+01-1.42948E+00-2.28866E-01 4.60457E+00-1.09601E-12-1.17673E-12
 -1      2157 3.48901E+01 2.41142E+00 1.09687E-01 1.73723E+00-1.15848E-12-8.11406E-13
 -1      2158 3.09563E+01 1.16224E+00-1.13650E-02 3.00726E+00-1.23784E-12-1.11577E-12
 -1      2159 3.93993E+01 5.86278E+00 3.69284E-01-2.48343E-01-1.21358E-12-6.45484E-13
 -1      2160 3.64444E+01 4.74768E+00 1.09803E-01 3.14125E-01-1.22191E-12-7.72660E-13
 -1      2161 4.13652E+01 6.94772E+00 4.64859E-01-1.41525E+00-1.18555E-12-3.52149E-13
 -1      2162 4.05534E+01 6.75557E+00 3.34021E-01-3.39072E-01-1.19771E-12-6.31828E-13
 -1      2163 3.83564E+01 6.16860E+00 2.26823E-01-2.32635E+00-1.18655E-12-5.86198E-14
 -1      2164 4.08589E+01 6.66702E+00 4.89659E-01-1.72994E+00-1.19155E-12-2.86549E-13
 -1      2165 3.41675E+01 3.08027E+00 8.71452E-02-3.54970E+00-1.06510E-12 1.61648E-13
 -1      2166 3.68010E+01 4.31950E+00 2.29480E-01-2.57590E+00-1.06498E-12-8.22120E-14
 -1      2167 2.87197E+01 4.14145E-01-7.73569E-02-5.03083E+00-9.02417E-13 4.16445E-13
 -1      2168 3.29300E+01 1.86944E+00 2.18077E-01-4.75362E+00-9.45452E-13 2.23821E-13
 -1      2169 3.27786E+01 1.47271E+00 2.19014E-01-1.40351E+00-7.90097E-13-2.69340E-13
 -1      2170 2.12781E+01-2.62090E+00-2.25040E-01-6.19915E+00-6.34603E-13 6.15397E-13
 -1      2171 2.58620E+01-9.73851E-01 1.25421E-01-6.42850E+00-7.49067E-13 5.85199E-13
 -1      2172 1.42392E+01-4.34193E+00-2.43606E-01-6.47841E+00-3.33178E-13 7.47749E-13
 -1      2173 1.83258E+01-2.87400E+00-7.90094E-03-7.15354E+00-5.67546E-13 8.24230E-13
 -1      2174 2.25054E+01-4.24580E+00-7.57495E-03-5.93377E+00-9.88098E-15 2.50189E-13
 -1      2175 5.61101E+00-5.63851E+00-4.72334E-01-4.79684E+00-2.57017E-13 9.52349E-13
 -1      2176 9.05854E+00-4.21749E+00-2.19488E-01-6.30918E+00-4.11893E-13 8.87027E-13
 -1      2177 1.48276E+00-5.97816E+00-4.77084E-01-2.29117E+00 3.58047E-14 1.05921E-12
 -1      2178 3.15169E+00-5.26566E+00-3.53034E-01-3.76649E+00-2.40530E-13 1.04178E-12
 -1      2179 3.46289E+01 3.75773E+00 2.63517E-01 3.86174E+00 7.92810E-13-1.20015E-13
 -1      2180 3.07732E+01 2.26333E+00 1.06452E-02 4.24828E+00 7.61453E-13 1.92069E-14
 -1      2181 2.97198E+01 2.62305E-02 1.46093E-01 3.17550E+00 4.75973E-13-3.40450E-13
 -1      2182 2.75542E+01 4.65489E-01-4.59809E-02-2.15881E+00-3.21326E-13 6.23123E-13
 -1      2183 3.32111E+01 5.18745E+00 1.46064E-01 6.91895E-01 1.06076E-12-3.85858E-13
 -1      2184 1.82245E+01 2.11519E+00-2.57462E-02 5.90396E-01 1.36141E-14-4.50993E-13
 -1      2185 2.69828E+01 3.10781E-01-1.45846E-02-2.51188E+00-3.24648E-13 4.16774E-13
 -1      2186 2.75417E+00-3.62068E+00-1.87465E-01 2.66970E+00-1.55709E-14 1.03190E-12
 -1      2187 1.58114E+01-4.26336E+00-1.30423E-02 7.05071E+00 9.49241E-15 1.93168E-13
 -1      2188 1.99997E+01-2.48025E-04-1.52952E-06 2.48986E-04 1.63046E-13-3.75818E-13
 -1      2189 2.23672E+00-3.75409E+00-2.27154E-01-1.87366E+00 8.97060E-14 1.17051E-12
 -1      2190 3.32308E+01 4.30762E+00 2.24804E-01 1.08480E+00 8.31529E-13-4.73455E-13
 -1      2191 1.41140E+01-4.52040E+00-4.34350E-02-6.95728E+00 3.69149E-14 6.67254E-13
 -1      2192 2.87481E+01-2.01537E+00 1.07480E-01-3.73960E+00-4.10394E-13-6.65024E-14
 -1      2193 3.51985E+01 5.09941E+00 2.41256E-01-4.66168E-01-1.10312E-12-3.54938E-13
 -1      2194 3.70525E+01 7.67415E+00 3.91041E-01-7.98923E-01-1.32300E-12-3.82125E-13
 -1      2195 3.61768E+01 6.96584E+00 2.71239E-01-1.42185E+00-1.26804E-12-3.73035E-13
 -1      2196 3.40860E+01 3.37494E+00 1.96112E-01-9.39987E-01-1.06448E-12-3.44003E-13
 -1      2197 3.00856E+01-5.20907E-01 1.54176E-01 1.49910E+00-8.44089E-13-5.31741E-13
 -1      2198 2.26748E+01-2.56533E+00 2.90015E-03 4.30914E+00-6.00631E-13-8.16153E-13
 -1      2199 1.32786E+01-2.35078E+00-6.06132E-02 5.30978E+00-3.21909E-13-1.10073E-12
 -1      2200 5.77020E+00-9.85803E-01-6.36755E-02 3.85698E+00-2.14051E-13-1.33488E-12
 -1      2201 1.95709E+00-6.96369E-02-8.06199E-02 4.68606E-01-1.35801E-13-1.45328E-12
 -1      2202 8.19520E+00-7.98105E-01-5.28375E-02-5.59767E+00 7.42739E-14-1.25114E-12
 -1      2203 2.33348E+01-9.79174E-01 5.67906E-02-4.67454E+00 5.78954E-13-7.89258E-13
 -1      2204 3.45760E+01 7.31994E+00 2.48261E-01 6.18118E-01 1.08941E-12-5.54973E-13
 -1      2205 2.98698E+01 1.44715E+00 1.13200E-01-1.52946E+00 7.89691E-13-4.74565E-13
 -1      2206 3.16641E+00 1.76923E-01-4.29700E-02-3.16118E+00-7.31359E-14-1.42736E-12
 -1      2207 6.13236E+00-4.16793E+00-1.73801E-01-5.22061E+00 1.30895E-13 1.00325E-12
 -1      2208 2.33276E+01 2.97582E-01 3.86947E-03 2.16670E+00 3.25096E-13 2.46693E-13
 -1      2209 2.39086E+01 4.01288E-01 2.39099E-02 2.35225E+00 3.56815E-13 2.83738E-13
 -1      2210 8.35677E+00 4.14609E+00 3.59220E-02 8.28994E-01 1.41484E-14-1.01334E-12
 -1      2211 1.00635E+01 3.76975E+00 1.20078E-01 1.45839E+00 9.57984E-14-9.41892E-13
 -1      2212 1.24610E+01 2.76637E+00-1.25424E-02 1.92479E+00 1.44183E-13-7.62175E-13
 -1      2213 1.51830E+01 2.24828E+00 1.05264E-01 1.84839E+00 1.28689E-13-6.58043E-13
 -1      2214 1.11961E+01 2.59192E+00 1.01422E-01 2.31728E+00 1.42011E-13-8.95874E-13
 -1      2215 1.10479E+01 3.35465E+00 1.25849E-01-3.14332E+00-3.98355E-13-9.19424E-13
 -1      2216 9.00507E+00 3.81002E+00 5.62525E-03-2.69901E+00-3.25420E-13-9.91270E-13
 -1      2217 1.58582E+01 1.89365E+00 8.36421E-02-2.90553E+00-3.92037E-13-6.90028E-13
 -1      2218 1.34190E+01 2.36926E+00-1.29252E-02-3.23475E+00-4.13327E-13-7.61627E-13
 -1      2219 1.22067E+01 2.19249E+00 6.58365E-02-3.80896E+00-4.26985E-13-8.65266E-13
 -1      2220 1.97690E+01 1.11379E+00 1.83641E-02-1.32385E+00-2.39650E-13-4.80366E-13
 -1      2221 1.79865E+01 1.32987E+00-2.08858E-03-2.07694E+00-3.39099E-13-5.52586E-13
 -1      2222 1.73917E+01 7.88417E-01 4.20454E-03-2.86988E+00-3.80546E-13-5.73413E-13
 -1      2223 2.20742E+01 1.12362E+00-2.92018E-02 4.60500E-01-2.27240E-14-3.92221E-13
 -1      2224 2.11009E+01 1.10044E+00 4.61208E-03-3.00912E-01-1.35036E-13-4.11161E-13
 -1      2225 2.10329E+01 3.61947E-01-2.05708E-02-8.53270E-01-1.86813E-13-3.56727E-13
 -1      2226 2.32091E+01 1.48143E+00-4.87943E-02 1.86281E+00 1.61197E-13-3.46015E-13
 -1      2227 2.27649E+01 1.36707E+00-5.78631E-04 1.26652E+00 6.39510E-14-3.80907E-13
 -1      2228 2.29839E+01 6.46514E-01-4.39650E-03 1.00485E+00 2.67492E-14-2.90930E-13
 -1      2229 2.37651E+01 1.75573E+00-5.36798E-02 2.76388E+00 3.43049E-13-1.84130E-13
 -1      2230 2.35548E+01 1.68993E+00-1.05054E-02 2.35663E+00 2.27012E-13-2.64056E-13
 -1      2231 2.38133E+01 1.07714E+00 1.52711E-02 2.24181E+00 2.03403E-13-2.33433E-13
 -1      2232 2.46513E+01 1.25719E+00-8.30777E-03 2.94136E+00 4.35853E-13 3.10151E-13
 -1      2233 2.43390E+01 1.68880E+00-3.72704E-02 3.14984E+00 4.57726E-13 1.35364E-13
 -1      2234 2.40615E+01 1.84240E+00-2.58454E-02 3.00290E+00 3.93549E-13-4.87249E-14
 -1      2235 2.40896E+01 7.19918E-01-2.67084E-02 2.52901E+00 4.07709E-13 2.65180E-13
 -1      2236 2.25376E+01 4.08511E-01 1.71756E-02 1.83987E+00 2.93396E-13 1.70130E-13
 -1      2237 2.30029E+01 3.11709E-01 1.29291E-02 2.01518E+00 3.07310E-13 2.49294E-13
 -1      2238 2.35512E+01 4.76216E-01 5.85779E-03 2.46245E+00 3.48633E-13 1.59225E-13
 -1      2239 2.69399E+01-7.58897E-01 9.14726E-03-2.57267E+00-2.27330E-13 3.93450E-13
 -1      2240 2.66682E+01-8.35306E-01-3.41553E-02-2.73487E+00-2.40467E-13 4.09834E-13
 -1      2241 3.01284E+01 3.93234E+00-1.31250E-01 1.44313E+00 8.77798E-13-1.11633E-13
 -1      2242 3.12350E+01 5.62287E+00-1.10380E-01 1.53710E+00 1.01644E-12-2.19519E-13
 -1      2243 2.69522E+01-5.72800E-01-2.67804E-02-3.16516E+00-2.88925E-13 4.55882E-13
 -1      2244 2.66157E+01 7.87633E-02 3.28654E-03-3.23306E+00-3.65343E-13 4.08244E-13
 -1      2245 2.70145E+01-9.63877E-01-7.24718E-02-2.97035E+00-2.71803E-13 3.69649E-13
 -1      2246 2.64326E+01 9.03795E-01-8.15462E-02-3.23414E+00-4.75529E-13 3.50501E-13
 -1      2247 2.60434E+01 1.87386E+00-1.17590E-02-2.78403E+00-5.90493E-13 2.64793E-13
 -1      2248 2.74055E+01 5.55202E-01-4.90661E-03-3.54619E+00-4.59577E-13 3.51864E-13
 -1      2249 2.56823E+01 2.68065E+00-8.34615E-02-1.89253E+00-6.57613E-13 1.21001E-13
 -1      2250 2.54616E+01 3.07803E+00-4.86429E-02-9.02722E-01-6.86409E-13-6.01949E-16
 -1      2251 2.69892E+01 2.92940E+00-7.05137E-02-2.67053E+00-7.34232E-13 1.75006E-13
 -1      2252 2.53860E+01 2.92171E+00-4.59032E-02 3.78046E-01-6.30745E-13-2.34085E-13
 -1      2253 2.54182E+01 2.27902E+00-1.02569E-01 1.26004E+00-5.07927E-13-3.51657E-13
 -1      2254 2.66176E+01 3.88231E+00-1.00569E-01-3.43330E-01-8.19983E-13-1.77245E-13
 -1      2255 2.55979E+01 1.32954E+00-8.93969E-03 1.91051E+00-4.40342E-13-5.00217E-13
 -1      2256 2.57040E+01 2.89820E-01-8.97754E-02 2.14064E+00-3.44877E-13-5.87258E-13
 -1      2257 2.66778E+01 2.29621E+00-5.37255E-02 1.75630E+00-5.85976E-13-5.37480E-13
 -1      2258 2.56093E+01-5.54247E-01-6.78543E-03 1.90499E+00-1.88651E-13-6.08195E-13
 -1      2259 2.56084E+01-1.16835E+00-2.91300E-02 1.57757E+00-7.02272E-14-6.36761E-13
 -1      2260 2.65362E+01-1.97548E-01-4.05912E-02 2.05614E+00-3.00614E-13-7.05186E-13
 -1      2261 2.50907E+01-1.46703E+00-2.20827E-02 9.47624E-01-6.05453E-14-5.74833E-13
 -1      2262 2.49330E+01-1.53136E+00 7.74243E-03 4.44328E-01-2.77044E-14-5.42278E-13
 -1      2263 2.57743E+01-1.71162E+00-1.01853E-02 9.99947E-01-5.42821E-14-6.18366E-13
 -1      2264 2.42784E+01-1.42349E+00-2.44746E-02-1.06707E-01 2.13805E-15-4.61883E-13
 -1      2265 2.40223E+01-1.20137E+00 1.90617E-02-5.27875E-01 9.24495E-14-4.13159E-13
 -1      2266 2.45359E+01-1.91113E+00-1.60668E-02-2.20107E-01 3.80160E-14-4.56384E-13
 -1      2267 2.34508E+01-9.52738E-01-1.87417E-02-8.55957E-01 1.35686E-13-3.31432E-13
 -1      2268 2.31644E+01-6.84891E-01 1.52773E-02-1.11085E+00 1.62899E-13-2.66903E-13
 -1      2269 2.33423E+01-1.39788E+00-2.25318E-02-1.06803E+00 1.68001E-13-3.28149E-13
 -1      2270 2.27515E+01-4.59573E-01-1.02831E-02-1.24408E+00 1.11405E-13-1.82347E-13
 -1      2271 2.24756E+01-2.54993E-01 9.57444E-03-1.35102E+00 1.14313E-13-1.41328E-13
 -1      2272 2.24260E+01-7.42031E-01-1.85067E-02-1.48265E+00 1.77599E-13-1.89118E-13
 -1      2273 2.21976E+01-1.02144E-01-3.27690E-03-1.35957E+00 6.73966E-14-1.71815E-13
 -1      2274 2.19474E+01 2.20690E-02 5.15994E-03-1.36504E+00 1.31544E-14-1.91170E-13
 -1      2275 2.17932E+01-2.31932E-01-1.18206E-02-1.59036E+00 7.26770E-14-1.26200E-13
 -1      2276 2.17614E+01 1.06702E-01 1.25121E-03-1.30544E+00-3.44160E-14-1.90150E-13
 -1      2277 2.15406E+01 1.67510E-01 2.33816E-03-1.25342E+00-4.98006E-14-2.02957E-13
 -1      2278 2.13653E+01 8.36605E-02-6.66243E-03-1.51705E+00-1.97639E-14-2.23265E-13
 -1      2279 2.14108E+01 2.04252E-01 3.69197E-03-1.16346E+00-4.11347E-14-1.93936E-13
 -1      2280 2.12198E+01 2.24473E-01 8.44698E-04-1.08566E+00-4.76458E-14-1.94654E-13
 -1      2281 2.10667E+01 2.42592E-01-3.63671E-03-1.35267E+00-4.89934E-14-1.82617E-13
 -1      2282 2.11235E+01 2.32639E-01 4.72819E-03-9.87827E-01-8.44341E-14-1.58751E-13
 -1      2283 2.09613E+01 2.30378E-01 1.75393E-04-9.03939E-01-5.22565E-14-1.20294E-13
 -1      2284 2.08460E+01 2.99364E-01-2.10590E-03-1.15386E+00-6.60186E-14-6.29505E-14
 -1      2285 2.08859E+01 2.23703E-01 4.89298E-03-8.10432E-01-1.79223E-14-1.28050E-13
 -1      2286 2.07506E+01 2.10799E-01-5.97767E-05-7.31160E-01-2.81810E-14-4.72985E-14
 -1      2287 2.06735E+01 2.98414E-01-1.42036E-03-9.53373E-01-2.89291E-14-7.89633E-14
 -1      2288 2.06895E+01 1.97722E-01 4.57093E-03-6.47820E-01-3.30069E-14-2.04888E-14
 -1      2289 2.05788E+01 1.81055E-01-9.75319E-05-5.78078E-01 3.01359E-14-1.11140E-14
 -1      2290 2.05335E+01 2.69338E-01-1.13874E-03-7.68477E-01 2.26031E-14-9.15859E-14
 -1      2291 2.05288E+01 1.66257E-01 4.01815E-03-5.06999E-01 7.08667E-14 1.22696E-14
 -1      2292 2.04398E+01 1.49449E-01-6.27263E-05-4.48319E-01 6.10987E-14 2.64039E-14
 -1      2293 2.04181E+01 2.29649E-01-1.01565E-03-6.06883E-01 5.46968E-14 4.14096E-14
 -1      2294 2.03989E+01 1.35274E-01 3.39213E-03-3.89529E-01 3.52810E-14 3.74416E-14
 -1      2295 2.03286E+01 1.20012E-01-1.35170E-05-3.41649E-01 1.24226E-13-1.63057E-14
 -1      2296 2.03232E+01 1.88752E-01-9.35324E-04-4.70693E-01 8.90932E-14 6.65901E-14
 -1      2297 2.02955E+01 1.07474E-01 2.78134E-03-2.94139E-01 1.33758E-13-6.34398E-14
 -1      2298 2.02409E+01 9.43811E-02 2.71184E-05-2.55957E-01 1.15890E-13-5.90123E-14
 -1      2299 2.02457E+01 1.51157E-01-8.53865E-04-3.58937E-01 4.84089E-14 7.40075E-14
 -1      2300 2.02145E+01 8.37875E-02 2.22967E-03-2.18286E-01 1.09503E-13-1.14020E-13
 -1      2301 2.01728E+01 7.29432E-02 5.33046E-05-1.88401E-01 1.25170E-13-4.23622E-14
 -1      2302 2.01834E+01 1.18635E-01-7.61098E-04-2.69149E-01 9.81491E-14-1.74206E-13
 -1      2303 2.01521E+01 6.42528E-02 1.75425E-03-1.59025E-01 1.12347E-13-1.22049E-13
 -1      2304 2.01208E+01 5.54863E-02 6.62374E-05-1.36019E-01 1.30773E-13-1.44135E-13
 -1      2305 2.01342E+01 9.15308E-02-6.60269E-04-1.98293E-01 3.69949E-14-1.67187E-13
 -1      2306 2.01049E+01 4.85068E-02 1.35738E-03-1.13468E-01 7.27363E-14-2.39080E-13
 -1      2307 2.00818E+01 4.15497E-02 6.93038E-05-9.60336E-02 2.82979E-14-1.74182E-13
 -1      2308 2.00958E+01 6.95092E-02-5.58181E-04-1.43280E-01 2.90849E-14-3.63138E-13
 -1      2309 2.00697E+01 3.60380E-02 1.03376E-03-7.89914E-02-5.33597E-15-1.43518E-13
 -1      2310 2.00531E+01 3.06021E-02 6.60042E-05-6.59910E-02-1.05379E-13-8.78217E-14
 -1      2311 2.00665E+01 5.19570E-02-4.60847E-04-1.01233E-01-1.12188E-14-2.82288E-13
 -1      2312 2.00441E+01 2.63136E-02 7.74791E-04-5.33219E-02-8.07415E-14 7.54761E-15
 -1      2313 2.00324E+01 2.21271E-02 5.91719E-05-4.37943E-02-2.49895E-14 1.52412E-13
 -1      2314 2.00446E+01 3.81889E-02-3.72345E-04-6.96027E-02 2.09364E-14-1.94889E-13
 -1      2315 2.00259E+01 1.88374E-02 5.70869E-04-3.45444E-02-4.93500E-14 1.43210E-13
 -1      2316 2.00179E+01 1.56591E-02 5.08074E-05-2.76974E-02 5.90730E-14 1.07780E-13
 -1      2317 2.00285E+01 2.75457E-02-2.94879E-04-4.62099E-02-4.68143E-14 8.85475E-14
 -1      2318 2.00133E+01 1.31721E-02 4.12698E-04-2.10814E-02 1.18009E-13 4.16010E-14
 -1      2319 2.00080E+01 1.07954E-02 4.21959E-05-1.62731E-02 1.10011E-13 1.00146E-14
 -1      2320 2.00170E+01 1.94358E-02-2.29135E-04-2.92319E-02-1.33466E-14 1.03297E-13
 -1      2321 2.00048E+01 8.94410E-03 2.91831E-04-1.16556E-02 9.77174E-15-1.16270E-13
 -1      2322 2.00015E+01 7.19599E-03 3.40900E-05-8.37388E-03-1.31960E-13-1.25176E-13
 -1      2323 2.00089E+01 1.33482E-02-1.74763E-04-1.71746E-02-7.98398E-14-1.20058E-13
 -1      2324 1.99994E+01 5.84139E-03 2.00881E-04-5.24864E-03-9.27020E-14-2.82819E-13
 -1      2325 1.99975E+01 4.57959E-03 2.68923E-05-3.09113E-03-1.23153E-14-2.67354E-13
 -1      2326 2.00035E+01 8.85231E-03-1.30766E-04-8.83391E-03-1.47975E-13-3.49843E-13
 -1      2327 1.99962E+01 3.60786E-03 1.33565E-04-1.06068E-03-4.75493E-14-2.38645E-13
 -1      2328 1.99952E+01 2.71719E-03 2.07664E-05 2.84675E-04-1.28322E-13-1.14495E-13
 -1      2329 2.00000E+01 5.59215E-03-9.58601E-05-3.25424E-03-3.61858E-14-3.53500E-13
 -1      2330 1.99945E+01 2.03655E-03 8.46529E-05 1.52800E-03-1.93984E-13-9.74294E-14
 -1      2331 1.99941E+01 1.42498E-03 1.57192E-05 2.29973E-03-1.67016E-13-2.40309E-13
 -1      2332 1.99979E+01 3.27844E-03-6.86880E-05 3.11766E-04-1.57606E-13-1.80516E-13
 -1      2333 1.99938E+01 9.62304E-04 4.98711E-05 2.99060E-03-1.65159E-13-2.16573E-13
 -1      2334 1.99939E+01 5.57274E-04 1.16687E-05 3.36835E-03-9.77181E-14-2.18324E-13
 -1      2335 1.99967E+01 1.67915E-03-4.79276E-05 2.44028E-03-2.51500E-13-1.47963E-13
 -1      2336 1.99938E+01 2.55050E-04 2.57769E-05 3.68293E-03-9.48144E-14-1.80532E-13
 -1      2337 1.99941E+01 1.82498E-08 8.49072E-06 3.79970E-03-1.13527E-13-9.28343E-14
 -1      2338 1.99962E+01 6.10613E-04-3.23627E-05 3.56875E-03-9.71608E-14-1.14245E-13
 -1      2339 1.99941E+01-1.86397E-04 9.63445E-06 3.86794E-03-1.71769E-13-5.28470E-14
 -1      2340 1.99946E+01-3.34871E-04 6.04788E-06 3.82039E-03-2.10439E-13 5.59317E-14
 -1      2341 1.99962E+01-7.07296E-05-2.09234E-05 4.02383E-03-6.72117E-14-9.04292E-14
 -1      2342 1.99947E+01-4.39656E-04-6.99916E-07 3.73620E-03-1.84147E-13 9.98821E-14
 -1      2343 1.99952E+01-5.14475E-04 4.20548E-06 3.59299E-03-7.20227E-14 1.09360E-13
 -1      2344 1.99964E+01-4.75591E-04-1.26993E-05 4.04500E-03-1.25803E-13 2.95166E-14
 -1      2345 1.99954E+01-5.63408E-04-6.88127E-06 3.42265E-03 7.28004E-14 1.96848E-15
 -1      2346 1.99959E+01-5.89105E-04 2.83925E-06 3.23121E-03 1.60300E-13 1.19954E-13
 -1      2347 1.99967E+01-6.88126E-04-6.93536E-06 3.80409E-03-1.82754E-14 4.41389E-14
 -1      2348 1.99961E+01-6.01328E-04-1.01676E-05 3.02012E-03 2.33263E-13 1.11949E-13
 -1      2349 1.99966E+01-5.95903E-04 1.83824E-06 2.81204E-03 1.89001E-13 3.01721E-13
 -1      2350 1.99971E+01-7.71337E-04-3.01909E-06 3.42126E-03 2.70155E-13 2.44632E-13
 -1      2351 1.99968E+01-5.85401E-04-1.14987E-05 2.59003E-03 6.72803E-14 2.26079E-13
 -1      2352 1.99972E+01-5.61841E-04 1.10500E-06 2.38526E-03 7.78289E-14 1.79354E-13
 -1      2353 1.99975E+01-7.71645E-04-4.63184E-07 2.97780E-03 2.34623E-14 1.80974E-13
 -1      2354 1.99974E+01-5.38672E-04-1.15637E-05 2.17079E-03 2.33739E-14 2.19143E-13
 -1      2355 1.99978E+01-5.06203E-04 5.53536E-07 1.98086E-03 6.63824E-14 1.69202E-13
 -1      2356 1.99979E+01-7.22704E-04 1.11186E-06 2.52622E-03 4.92914E-14-4.21509E-14
 -1      2357 1.99979E+01-4.77511E-04-1.08559E-05 1.78421E-03-4.12098E-14 2.44313E-13
 -1      2358 1.99982E+01-4.42616E-04 1.09328E-07 1.61463E-03-7.36090E-14 1.23334E-13
 -1      2359 1.99983E+01-6.48550E-04 1.99206E-06 2.09808E-03-6.55185E-15-4.34185E-14
 -1      2360 1.99984E+01-4.13444E-04-9.71280E-06 1.44026E-03 1.11450E-13 1.24857E-13
 -1      2361 1.99986E+01-3.80640E-04-2.74957E-07 1.29233E-03 1.77621E-13 8.53653E-14
 -1      2362 1.99986E+01-5.66166E-04 2.38789E-06 1.70990E-03-1.12286E-14 1.51905E-13
 -1      2363 1.99988E+01-3.54545E-04-8.34995E-06 1.14076E-03 4.28107E-15 5.95183E-14
 -1      2364 1.99990E+01-3.27139E-04-6.45250E-07 1.01290E-03 7.47192E-14 1.08143E-13
 -1      2365 1.99989E+01-4.87359E-04 2.47185E-06 1.36772E-03 6.90375E-14 2.30376E-13
 -1      2366 1.99991E+01-3.06778E-04-6.90047E-06 8.81731E-04 1.90593E-13-1.10494E-13
 -1      2367 1.99992E+01-2.86761E-04-1.04551E-06 7.70409E-04-1.73742E-14-1.28056E-13
 -1      2368 1.99992E+01-4.20707E-04 2.31077E-06 1.07041E-03-4.95406E-14-1.56509E-13
 -1      2369 1.99993E+01-2.72601E-04-5.37697E-06 6.55692E-04-2.59867E-13-1.88216E-13
 -1      2370 1.99994E+01-2.61015E-04-2.01186E-06 5.57154E-04-2.83060E-13-2.36463E-13
 -1      2371 1.99994E+01-3.71469E-04 1.76798E-06 8.11910E-04-2.65558E-13-5.11542E-13
 -1      2372 1.04444E+01-3.18058E+00-9.71822E-03 6.73744E+00-2.37227E-13 5.14616E-13
 -1      2373 7.82340E+00-2.64397E+00 9.35267E-02 5.50674E+00-2.62873E-13 6.78180E-13
 -1      2374 2.13837E+01 9.05256E-01 1.33854E-02 5.06283E-01 2.42755E-13-3.36238E-14
 -1      2375 2.15665E+01 8.36817E-01 7.77685E-03 8.86485E-01 2.49693E-13 1.01876E-14
 -1      2376 2.12645E+01 8.19222E-01 1.68226E-03-3.56511E-01 1.52775E-13-1.06012E-13
 -1      2377 2.12815E+01 9.05152E-01 1.46648E-02 1.65259E-02 2.12075E-13-7.95244E-14
 -1      2378 2.18894E+01 1.23520E+00-1.71163E-02 3.47808E-01 2.59203E-13-1.31443E-13
 -1      2379 2.14573E+01 4.62275E-01-6.22836E-03-9.94659E-01 1.44265E-13-1.82781E-13
 -1      2380 2.13394E+01 6.68439E-01 1.96648E-02-7.53494E-01 1.43541E-13-1.45013E-13
 -1      2381 2.18514E+01 1.01952E+00-1.04462E-02-6.15045E-01 1.97880E-13-2.25183E-13
 -1      2382 2.17867E+01 2.38521E-02-8.84808E-03-1.22331E+00 1.70871E-13-2.17340E-13
 -1      2383 2.16044E+01 2.42284E-01 1.47594E-02-1.16807E+00 1.70483E-13-1.72191E-13
 -1      2384 2.20556E+01 4.92652E-01 7.63977E-04-1.21777E+00 1.82383E-13-2.97510E-13
 -1      2385 2.20647E+01-3.03659E-01-6.42202E-03-1.07002E+00 7.68227E-14-2.34449E-13
 -1      2386 2.18915E+01-1.59821E-01 3.92746E-03-1.16824E+00 1.59392E-13-1.85278E-13
 -1      2387 2.22847E+01-7.90142E-02 7.20729E-03-1.32426E+00 1.60066E-13-2.70111E-13
 -1      2388 2.21899E+01-4.44872E-01-2.47590E-03-6.96623E-01 2.98325E-14-2.96211E-13
 -1      2389 2.20742E+01-3.97484E-01-5.65992E-03-8.73315E-01 4.30472E-14-2.39041E-13
 -1      2390 2.23795E+01-4.69688E-01 7.82345E-03-1.04099E+00 1.02917E-13-2.38835E-13
 -1      2391 2.21539E+01-4.29780E-01 1.82759E-04-2.75223E-01 4.40498E-14-2.40202E-13
 -1      2392 2.21127E+01-4.53999E-01-1.07708E-02-4.60120E-01 2.16459E-14-3.06735E-13
 -1      2393 2.23022E+01-6.13884E-01 4.14960E-03-5.78743E-01 3.94619E-14-2.93575E-13
 -1      2394 2.19993E+01-3.29777E-01 1.42427E-03 8.11140E-02 6.04850E-14-1.82231E-13
 -1      2395 2.20258E+01-3.87732E-01-1.13438E-02-6.92341E-02 7.10898E-14-1.91716E-13
 -1      2396 2.20982E+01-5.64680E-01 3.88272E-04-1.18444E-01 4.73527E-14-2.37054E-13
 -1      2397 2.17773E+01-2.07851E-01 1.70863E-03 3.27509E-01-4.75440E-14-2.05122E-13
 -1      2398 2.18538E+01-2.70327E-01-9.13671E-03 2.26812E-01 2.49323E-14-1.84279E-13
 -1      2399 2.18328E+01-4.18475E-01-1.69654E-03 2.40983E-01 7.00620E-14-2.11799E-13
 -1      2400 2.15285E+01-1.00587E-01 1.54515E-03 4.64957E-01-1.45063E-14-2.27794E-13
 -1      2401 2.16351E+01-1.52361E-01-6.01336E-03 4.11285E-01-4.07352E-14-2.32760E-13
 -1      2402 2.15550E+01-2.53953E-01-2.38983E-03 4.71997E-01 7.91110E-15-2.72660E-13
 -1      2403 2.12797E+01-2.16839E-02 1.27681E-03 5.15649E-01 8.65682E-14-2.83307E-13
 -1      2404 2.13994E+01-5.81418E-02-3.08602E-03 4.98506E-01 4.12274E-14-2.53360E-13
 -1      2405 2.12923E+01-1.14248E-01-2.36526E-03 5.87606E-01 5.50596E-14-3.03664E-13
 -1      2406 2.10468E+01 2.86282E-02 1.04157E-03 5.06692E-01 8.85841E-14-2.71684E-13
 -1      2407 2.11670E+01 6.39314E-03-8.16279E-04 5.14108E-01 1.29798E-13-2.70496E-13
 -1      2408 2.10563E+01-1.39155E-02-2.08806E-03 6.16253E-01 1.23347E-13-2.62482E-13
 -1      2409 2.08383E+01 5.58876E-02 8.66534E-04 4.62073E-01 9.95886E-14-3.91354E-13
 -1      2410 2.09506E+01 4.46285E-02 7.12669E-04 4.83739E-01 9.00295E-14-3.37989E-13
 -1      2411 2.08506E+01 4.85862E-02-1.78852E-03 5.87585E-01 1.39893E-13-2.95554E-13
 -1      2412 2.06577E+01 6.68524E-02 7.38606E-04 3.99955E-01 3.99775E-14-3.77974E-13
 -1      2413 2.07574E+01 6.31069E-02 1.60080E-03 4.28214E-01 3.06621E-14-3.78425E-13
 -1      2414 2.06749E+01 8.12914E-02-1.53959E-03 5.26245E-01 1.02989E-13-3.78592E-13
 -1      2415 2.05055E+01 6.74460E-02 6.39404E-04 3.32686E-01-5.93752E-14-3.42121E-13
 -1      2416 2.05907E+01 6.83355E-02 2.00768E-03 3.62431E-01 4.68148E-14-3.67741E-13
 -1      2417 2.05273E+01 9.32720E-02-1.34147E-03 4.50281E-01 2.30998E-14-3.03417E-13
 -1      2418 2.03805E+01 6.21406E-02 5.55343E-04 2.67867E-01-3.39163E-14-3.97861E-13
 -1      2419 2.04509E+01 6.55575E-02 2.08905E-03 2.96032E-01-7.96281E-14-4.05283E-13
 -1      2420 2.04053E+01 9.22610E-02-1.17604E-03 3.71695E-01-2.68223E-14-3.18371E-13
 -1      2421 2.02800E+01 5.40069E-02 4.79136E-04 2.09635E-01-1.04211E-13-2.44900E-13
 -1      2422 2.03366E+01 5.85373E-02 1.97185E-03 2.34616E-01-7.12192E-14-3.18054E-13
 -1      2423 2.03059E+01 8.40106E-02-1.02835E-03 2.97715E-01-1.24372E-13-3.04381E-13
 -1      2424 2.02008E+01 4.49981E-02 4.08237E-04 1.59789E-01-4.47439E-14-2.44013E-13
 -1      2425 2.02452E+01 4.97622E-02 1.74923E-03 1.80950E-01-1.03583E-13-2.25142E-13
 -1      2426 2.02265E+01 7.24305E-02-8.90226E-04 2.32138E-01-9.44730E-14-4.23393E-13
 -1      2427 2.01398E+01 3.62616E-02 3.42465E-04 1.18661E-01-3.23823E-14-2.43518E-13
 -1      2428 2.01738E+01 4.07569E-02 1.48420E-03 1.35962E-01 3.20111E-16-2.45327E-13
 -1      2429 2.01639E+01 5.99829E-02-7.59357E-04 1.76470E-01-3.30814E-14-2.51963E-13
 -1      2430 2.00938E+01 2.84011E-02 2.82482E-04 8.57332E-02-2.73337E-14-2.21924E-13
 -1      2431 2.01192E+01 3.23756E-02 1.21625E-03 9.94671E-02-3.91470E-14-2.62439E-13
 -1      2432 2.01156E+01 4.80951E-02-6.36811E-04 1.30784E-01-1.68415E-14-1.09462E-13
 -1      2433 2.00598E+01 2.16726E-02 2.29009E-04 6.00614E-02 4.51734E-14-7.07768E-14
 -1      2434 2.00783E+01 2.50321E-02 9.67989E-04 7.06802E-02 2.03482E-14-1.02435E-13
 -1      2435 2.00789E+01 3.75011E-02-5.24565E-04 9.43413E-02-7.58431E-14-1.81040E-13
 -1      2436 2.00354E+01 1.61224E-02 1.82469E-04 4.05374E-02 2.62199E-14 3.85126E-14
 -1      2437 2.00485E+01 1.88660E-02 7.50527E-04 4.85447E-02 7.46435E-14 7.96785E-14
 -1      2438 2.00517E+01 2.84942E-02-4.24290E-04 6.60015E-02-1.15550E-14 7.34638E-14
 -1      2439 2.00183E+01 1.16797E-02 1.42876E-04 2.60513E-02-4.14007E-14 1.23384E-13
 -1      2440 2.00272E+01 1.38571E-02 5.67609E-04 3.19383E-02-3.58519E-14 1.01581E-13
 -1      2441 2.00318E+01 2.11042E-02-3.36965E-04 4.44885E-02 7.47620E-15 1.94995E-13
 -1      2442 2.00068E+01 8.21531E-03 1.09900E-04 1.55798E-02 4.00569E-14 9.59312E-14
 -1      2443 2.00126E+01 9.89992E-03 4.18605E-04 1.97916E-02 6.37821E-15 1.52012E-13
 -1      2444 2.00178E+01 1.52156E-02-2.62753E-04 2.85490E-02-4.23903E-14 2.28545E-13
 -1      2445 1.99993E+01 5.57867E-03 8.29649E-05 8.22892E-03 6.90626E-14 8.29268E-14
 -1      2446 2.00029E+01 6.85100E-03 3.00497E-04 1.11492E-02 6.56278E-14 1.58788E-13
 -1      2447 2.00081E+01 1.06427E-02-2.01104E-04 1.70399E-02 9.24335E-14 3.28785E-13
 -1      2448 1.99949E+01 3.61941E-03 6.13844E-05 3.24761E-03 5.92396E-14-1.63735E-13
 -1      2449 1.99969E+01 4.55739E-03 2.09162E-04 5.19549E-03 1.04969E-13-4.70472E-14
 -1      2450 2.00018E+01 7.17632E-03-1.50932E-04 8.96843E-03 1.22364E-13 2.56144E-13
 -1      2451 1.99925E+01 2.19963E-03 4.44193E-05 2.39205E-05 1.48106E-13-2.14617E-13
 -1      2452 1.99934E+01 2.87341E-03 1.40172E-04 1.25694E-03 7.06684E-14-2.41554E-13
 -1      2453 1.99978E+01 4.61115E-03-1.10891E-04 3.50414E-03 1.52514E-13 1.62240E-13
 -1      2454 1.99915E+01 1.19936E-03 3.13340E-05-1.92815E-03 1.19886E-13-1.31654E-13
 -1      2455 1.99917E+01 1.66918E-03 8.92908E-05-1.20713E-03 1.34434E-13-1.55549E-13
 -1      2456 1.99955E+01 2.76079E-03-7.95487E-05-2.81334E-05 8.67153E-14 3.35127E-14
 -1      2457 1.99914E+01 5.18052E-04 2.14356E-05-2.98578E-03-1.37107E-13 1.35676E-13
 -1      2458 1.99912E+01 8.33922E-04 5.27191E-05-2.62058E-03 6.25174E-14 8.18617E-14
 -1      2459 1.99944E+01 1.46416E-03-5.54888E-05-2.16373E-03-1.09196E-13 1.12478E-13
 -1      2460 1.99920E+01 7.38196E-05 1.41001E-05-3.43529E-03-2.83900E-13 3.05649E-13
 -1      2461 1.99914E+01 2.76125E-04 2.71983E-05-3.30833E-03-1.27958E-13 3.87591E-13
 -1      2462 1.99941E+01 5.86942E-04-3.73834E-05-3.31769E-03-2.29444E-13 7.00625E-13
 -1      2463 1.99928E+01-1.98398E-04 8.78491E-06-3.48917E-03-2.27856E-13 2.18410E-13
 -1      2464 1.99921E+01-7.77994E-05 1.00219E-05-3.51396E-03-3.27119E-13 1.18027E-13
 -1      2465 1.99943E+01 2.02209E-05-2.40436E-05-3.80476E-03-1.92606E-13 6.31046E-13
 -1      2466 1.99937E+01-3.49157E-04 5.03103E-06-3.30142E-03-1.36884E-13 3.09739E-13
 -1      2467 1.99930E+01-2.85680E-04-9.97237E-07-3.41589E-03-1.65889E-13 2.47371E-13
 -1      2468 1.99947E+01-3.22212E-04-1.44421E-05-3.85843E-03-2.34616E-13 2.24831E-13
 -1      2469 1.99947E+01-4.16932E-04 2.45794E-06-2.98056E-03-9.00469E-14 2.17725E-13
 -1      2470 1.99940E+01-3.91991E-04-7.58474E-06-3.14148E-03-1.02440E-13 3.12176E-13
 -1      2471 1.99953E+01-5.07112E-04-7.71608E-06-3.64772E-03-1.21794E-13 2.83827E-13
 -1      2472 1.99956E+01-4.30421E-04 7.55080E-07-2.60061E-03 8.13509E-14 1.56505E-13
 -1      2473 1.99950E+01-4.30246E-04-1.10725E-05-2.77894E-03 2.69129E-14 1.88748E-13
 -1      2474 1.99960E+01-5.85109E-04-3.15762E-06-3.29170E-03 9.33071E-15 1.00605E-13
 -1      2475 1.99964E+01-4.10617E-04-3.28301E-07-2.20977E-03-3.04899E-14 2.30279E-13
 -1      2476 1.99959E+01-4.25202E-04-1.24666E-05-2.38700E-03 5.01906E-14 1.64428E-13
 -1      2477 1.99966E+01-5.93850E-04-1.98491E-07-2.87144E-03 7.06416E-14 2.17727E-13
 -1      2478 1.99972E+01-3.72604E-04-9.93755E-07-1.83740E-03 9.24819E-14 6.63725E-15
 -1      2479 1.99967E+01-3.94804E-04-1.25105E-05-2.00268E-03 5.07006E-14 7.59683E-14
 -1      2480 1.99972E+01-5.60793E-04 1.60831E-06-2.43968E-03 8.19148E-14 9.66492E-14
 -1      2481 1.99978E+01-3.27068E-04-1.40149E-06-1.49927E-03 1.67630E-13 6.67111E-14
 -1      2482 1.99974E+01-3.51847E-04-1.17404E-05-1.64723E-03 1.50230E-13 6.52524E-14
 -1      2483 1.99978E+01-5.05617E-04 2.60606E-06-2.02838E-03 7.57582E-14 1.25866E-13
 -1      2484 1.99983E+01-2.81553E-04-1.67566E-06-1.20154E-03 1.40691E-13 1.11485E-13
 -1      2485 1.99980E+01-3.05356E-04-1.05267E-05-1.33068E-03 1.64979E-13 1.64075E-13
 -1      2486 1.99982E+01-4.42248E-04 3.05175E-06-1.65462E-03 1.50331E-13 3.53641E-13
 -1      2487 1.99987E+01-2.41449E-04-1.89604E-06-9.43590E-04 4.42994E-14 2.04186E-13
 -1      2488 1.99985E+01-2.61739E-04-9.11455E-06-1.05517E-03 1.21491E-13 2.18357E-13
 -1      2489 1.99986E+01-3.80519E-04 3.12896E-06-1.32492E-03 8.83694E-14 4.24763E-13
 -1      2490 1.99991E+01-2.10667E-04-2.17678E-06-7.20227E-04-2.65503E-13 1.91186E-13
 -1      2491 1.99989E+01-2.25647E-04-7.67220E-06-8.17372E-04 7.02179E-15 2.08483E-13
 -1      2492 1.99990E+01-3.27341E-04 2.94993E-06-1.03851E-03 2.59181E-14 5.63492E-13
 -1      2493 1.99993E+01-1.90565E-04-2.17817E-06-5.23064E-04-2.52774E-14-1.00280E-13
 -1      2494 1.99992E+01-2.00211E-04-6.26513E-06-6.10061E-04-3.12615E-13 1.25323E-14
 -1      2495 1.99992E+01-2.87222E-04 2.78722E-06-7.90443E-04-1.68329E-13 1.82375E-13
 -1      2496 1.99995E+01-1.79447E-04-2.12658E-06-3.46378E-04-1.61110E-14 3.62027E-14
 -1      2497 1.99994E+01-1.84520E-04-4.95276E-06-4.25698E-04 1.10536E-13-3.44404E-14
 -1      2498 1.99994E+01-2.59117E-04 3.32224E-06-5.71267E-04-4.20519E-14-6.17363E-14
 -1      2499 1.99996E+01-1.68294E-04-3.16944E-06-2.50116E-04 1.40618E-15 5.65781E-16
 -1      2500 1.99999E+01-9.31017E-04 4.27009E-06-4.58447E-04 2.19965E-13-1.62096E-13
 -1      2501 1.99999E+01-8.47889E-04-1.20898E-06-4.96799E-04 1.47135E-13-3.75618E-13
 -1      2502 2.00000E+01-1.07372E-03 4.37712E-06-3.26769E-04 6.68878E-14 2.37348E-13
 -1      2503 2.00000E+01-1.01209E-03 3.44759E-07-3.93216E-04 1.24680E-13 2.12398E-13
 -1      2504 2.00000E+01-9.96804E-04-2.91248E-06-4.94088E-04 9.51446E-14-2.50782E-15
 -1      2505 1.99997E+01-5.43792E-04 2.77297E-06-5.15789E-04-1.62164E-13 4.69016E-13
 -1      2506 1.99997E+01-4.48152E-04-3.63119E-06-4.86584E-04-1.37711E-13 3.16775E-13
 -1      2507 1.99998E+01-7.47203E-04 3.65859E-06-5.25239E-04-5.02994E-14 1.29914E-13
 -1      2508 1.99998E+01-6.53951E-04-2.61152E-06-5.29456E-04-1.13142E-13 5.09178E-13
 -1      2509 1.99997E+01-6.19325E-04-1.65766E-06-6.14275E-04-8.81166E-14 5.01497E-13
 -1      2510 1.99999E+01-8.21939E-04-1.86686E-06-5.95563E-04 1.13116E-13 6.42204E-14
 -1      2511 2.00000E+01-1.15852E-03 3.99341E-06-1.50037E-04-2.57569E-14 9.60349E-14
 -1      2512 2.00000E+01-1.12581E-03 1.88766E-06-2.34589E-04 3.01846E-14 7.11353E-14
 -1      2513 2.00001E+01-1.12496E-03-3.68682E-06-3.24825E-04-8.50207E-14 1.12612E-13
 -1      2514 2.00000E+01-1.17603E-03 3.14393E-06 4.70297E-05-2.30908E-13 1.98234E-14
 -1      2515 2.00000E+01-1.17632E-03 3.14783E-06-4.36981E-05-2.12144E-13 1.10806E-13
 -1      2516 2.00001E+01-1.19225E-03-4.08159E-06-1.11996E-04-1.08900E-13-1.19465E-13
 -1      2517 2.00000E+01-1.12442E-03 1.93200E-06 2.37613E-04-2.40361E-13-6.61930E-13
 -1      2518 2.00000E+01-1.15777E-03 3.97596E-06 1.53287E-04-2.99694E-13-2.59089E-13
 -1      2519 2.00001E+01-1.19178E-03-4.06519E-06 1.15749E-04-3.69965E-13-2.13871E-13
 -1      2520 2.00000E+01-1.01226E-03 3.77719E-07 3.93303E-04 1.38127E-13-2.53939E-13
 -1      2521 2.00000E+01-1.07300E-03 4.36733E-06 3.28107E-04 2.20136E-14-6.81829E-13
 -1      2522 2.00001E+01-1.12450E-03-3.71688E-06 3.26627E-04-1.09827E-13-4.82123E-13
 -1      2523 1.99999E+01-8.48119E-04-1.24347E-06 4.96844E-04 2.66019E-13 4.83677E-13
 -1      2524 1.99999E+01-9.31210E-04 4.25084E-06 4.58535E-04 1.97090E-13 6.89187E-14
 -1      2525 2.00000E+01-9.97132E-04-2.91963E-06 4.94202E-04 1.97972E-13-1.47170E-13
 -1      2526 1.99998E+01-6.51296E-04-2.47485E-06 5.29341E-04 2.01599E-13 4.17588E-13
 -1      2527 1.99998E+01-7.46623E-04 3.67756E-06 5.25438E-04 7.45806E-14 6.49739E-13
 -1      2528 1.99999E+01-8.21391E-04-1.75499E-06 5.95875E-04 1.33725E-13 4.17201E-13
 -1      2529 1.99997E+01-4.43188E-04-3.01129E-06 4.82618E-04 2.63266E-14-1.71816E-13
 -1      2530 1.99997E+01-5.40400E-04 2.40968E-06 5.15604E-04-2.76940E-14 1.86769E-13
 -1      2531 1.99997E+01-6.17056E-04-1.51572E-06 6.14607E-04-1.00966E-13 2.12660E-13
 -1      2532 1.99996E+01-2.64274E-04-2.81148E-06 3.24667E-04 4.58014E-14-4.63073E-13
 -1      2533 3.44999E+00-1.78155E+00 4.36204E-02-8.26171E-01 9.91048E-14 1.01824E-12
 -1      2534 4.50659E+00-1.94139E+00 5.06996E-02-3.01114E+00 1.49963E-13 1.01180E-12
 -1      2535 2.18425E+01 7.08314E-01 2.07528E-02 1.30453E+00 2.79325E-13 8.12831E-14
 -1      2536 2.21828E+01 5.52140E-01 6.13418E-03 1.58637E+00 2.80772E-13 1.10554E-13
 -1      2537 2.22637E+01 1.06404E+00-1.17711E-02 1.33392E+00 3.25473E-13-3.06985E-14
 -1      2538 1.91688E+01-4.28060E+00-3.77101E-02 6.75348E+00-1.41553E-13-1.54224E-13
 -1      2539 1.47029E+01-4.00818E+00 8.17786E-02 6.88173E+00-2.77334E-13 1.37328E-13
 -1      2540 2.21765E+01 6.36969E-01-1.22378E-02-3.92659E-01-2.66315E-14-1.80262E-13
 -1      2541 2.38083E+01 5.80953E-01-1.98889E-02-1.12449E+00-1.38440E-13-6.00926E-14
 -1      2542 2.55826E+01-3.37359E+00-6.80609E-02 4.27696E+00 3.79974E-14-4.92467E-13
 -1      2543 2.30335E+01-4.05047E+00 3.43106E-02 5.11409E+00-8.90121E-14-3.82000E-13
 -1      2544 3.15768E+01 4.39213E+00-1.38142E-01 1.67616E-02 8.45296E-13-6.21059E-13
 -1      2545 3.08538E+01 2.66526E+00-4.41560E-02 3.09225E-01 6.85618E-13-5.83616E-13
 -1      2546 3.18960E+01 3.57979E+00-1.02963E-01 5.48440E-01-9.08079E-13-5.35599E-13
 -1      2547 3.30576E+01 5.37441E+00-9.35280E-02 2.90794E-01-1.10267E-12-5.09759E-13
 -1      2548 2.17569E+01-1.69623E+00 1.17498E-02-4.34831E+00 1.89126E-13-5.54695E-13
 -1      2549 2.51406E+01-1.34834E+00-1.27757E-01-3.21729E+00 3.62821E-13-4.03205E-13
 -1      2550 1.77509E+01 1.38602E+00-1.10356E-02 1.25686E+00 1.12075E-13-4.79096E-13
 -1      2551 2.01878E+01 9.95114E-01 4.26879E-02 6.58197E-01 3.99854E-14-3.51413E-13
 -1      2552 2.19776E+01-1.65581E-01 1.90002E-02 3.12448E-01 3.22589E-14-1.99226E-13
 -1      2553 1.70340E+01 8.78408E-01 6.34906E-02 2.05644E+00 1.55147E-13-5.41737E-13
 -1      2554 7.77459E+00 4.41751E+00 9.38871E-02-1.51059E+00-2.22696E-13-1.07538E-12
 -1      2555 7.50905E+00 4.47730E+00 6.37528E-02-5.72752E-01-9.99624E-14-1.07825E-12
 -1      2556 7.28176E+00 3.93385E+00 1.52656E-01 3.18287E-01-3.74666E-14-1.15860E-12
 -1      2557 7.84075E+00 3.69518E+00 1.33656E-01-2.48870E+00-2.82156E-13-1.13534E-12
 -1      2558 2.60708E+01 4.65725E-01-2.74546E-02-2.16043E+00-2.53391E-13 1.88349E-13
 -1      2559 2.63531E+01-4.58716E-01-3.44352E-02-2.21474E+00-2.52032E-13 2.96502E-13
 -1      2560 2.62747E+01-7.18005E-01 3.33016E-02-2.21701E+00-1.75012E-13 2.38184E-13
 -1      2561 2.47782E+01 5.96077E-01 4.73469E-03-1.70786E+00-1.86714E-13 4.25875E-14
 -1      2562 1.27534E+01-4.00514E+00 3.37112E-02-6.60162E+00 2.86798E-13 6.01283E-13
 -1      2563 1.74105E+01-4.38558E+00-2.20941E-02-6.75899E+00 2.98622E-13 3.24258E-13
 -1      2564 2.79132E+01 3.04583E-03 8.98193E-03-1.23515E+00 5.41921E-13-2.56239E-13
 -1      2565 2.96176E+01 1.48679E+00-1.52831E-01 3.07218E-01 6.98566E-13-1.08358E-13
 -1      2566 3.12232E+01 6.57568E+00-1.51837E-01 1.40558E+00 1.06026E-12-3.06102E-13
 -1      2567 3.12680E+01 7.23651E+00-1.43364E-01 1.03674E+00 1.09401E-12-3.74464E-13
 -1      2568 2.91823E+01 5.69252E+00-5.65941E-02 1.98097E+00 8.97726E-13-1.47826E-13
 -1      2569 3.71517E+00 1.84193E+00 1.17474E-01-2.27626E+00-2.16563E-13-1.35786E-12
 -1      2570 5.17257E+00 1.49984E+00 8.23923E-02-3.97621E+00-1.68185E-13-1.29080E-12
 -1      2571 3.15854E+01 7.22010E+00-1.36268E-01 3.02590E-01 1.06559E-12-5.21954E-13
 -1      2572 3.15337E+01 6.25129E+00-1.00308E-01-7.25667E-02 9.81271E-13-5.45453E-13
 -1      2573 1.47795E+01-1.33391E+00 1.98529E-02-5.85459E+00-3.84692E-14-8.58012E-13
 -1      2574 1.81401E+01-1.65120E+00-4.91343E-02-5.70454E+00 1.08913E-13-7.28369E-13
 -1      2575 6.54726E+00-2.67669E+00 4.65800E-02-4.71860E+00 2.74863E-13 9.46215E-13
 -1      2576 9.08769E+00-3.17737E+00 2.31417E-03-6.16072E+00 2.26930E-13 8.32889E-13
 -1      2577 7.74171E+00 2.81943E-01 6.66702E-02-5.20351E+00-2.21184E-13-1.14828E-12
 -1      2578 1.12163E+01-5.57703E-01 3.48923E-02-6.11214E+00-5.52891E-14-1.05406E-12
 -1      2579 3.25372E+00 1.27421E+00 5.67025E-02 1.36970E+00-1.26496E-13-1.35858E-12
 -1      2580 2.78674E+00 1.71228E+00 8.37549E-02-7.09964E-01-8.09630E-14-1.38412E-12
 -1      2581 4.73414E+00 2.77765E+00 1.69980E-01-1.53063E+00-1.62252E-13-1.35894E-12
 -1      2582 8.26251E+00-6.19633E-02 3.44373E-02 4.43527E+00-3.97460E-14-1.13304E-12
 -1      2583 5.41764E+00 5.92192E-01 7.26990E-02 3.00412E+00-1.83187E-15-1.26288E-12
 -1      2584 1.67875E+01-2.56065E+00-5.85036E-02 5.21088E+00-1.84852E-13-7.75158E-13
 -1      2585 1.25199E+01-1.59667E+00 4.27072E-02 4.95244E+00-1.95122E-14-9.16461E-13
 -1      2586 2.52885E+01-2.84797E+00-1.06600E-01 2.83956E+00-3.94629E-13-3.91326E-13
 -1      2587 2.12313E+01-2.98457E+00 8.72462E-03 3.91982E+00-2.24210E-13-5.49616E-13
 -1      2588 3.01432E+01-7.92621E-01-1.99019E-01-2.24005E-01-7.11691E-13-1.27065E-13
 -1      2589 2.82012E+01-1.87800E+00-1.80616E-02 9.18549E-01-5.35558E-13-2.27374E-13
 -1      2590 3.23831E+01 3.66265E+00-1.56410E-01-2.28553E+00-9.91929E-13-7.67442E-14
 -1      2591 3.16514E+01 1.59238E+00-1.97288E-02-1.68523E+00-8.43658E-13-7.48845E-14
 -1      2592 3.37846E+01 6.90955E+00-3.91492E-02-1.29812E+00-1.25983E-12-2.73705E-13
 -1      2593 3.25915E+01 5.98291E+00-1.21397E-01-1.81200E+00-1.16562E-12-1.63008E-13
 -1      2594 3.32085E+01 6.69297E+00-1.08162E-01-2.15228E-01-1.21847E-12-3.95628E-13
 -1      2595 3.36740E+01 7.02182E+00-8.66330E-02-7.55354E-01-1.25949E-12-3.59681E-13
 -1      2596 3.11985E+01 6.59105E+00-5.43371E-02-1.03791E+00-1.18006E-12-2.32814E-13
 -1      2597 3.04091E+01-5.57015E-01-8.68982E-02-5.55434E-01-4.75307E-13-5.15810E-13
 -1      2598 3.11440E+01 8.68582E-01-1.77521E-01 1.16411E-01-6.46622E-13-5.83866E-13
 -1      2599 2.67981E+01-3.53618E+00-6.23041E-02-3.20438E+00-3.79974E-14-2.81997E-13
 -1      2600 2.93033E+01-2.04786E+00-7.90976E-02-1.97612E+00-2.72990E-13-3.73285E-13
 -1      2601 2.92371E+01-1.89761E+00 5.19602E-02-3.22241E-01-1.76793E-13-6.72434E-13
 -1      2602 2.23153E+01-4.50619E+00 9.22327E-03-5.44073E+00 1.99202E-13 8.72913E-15
 -1      2603 2.52065E+01-4.06042E+00 5.58670E-03-4.60440E+00 5.49005E-14-1.60483E-13
 -1      2604 2.66120E+01-3.98464E+00 1.23288E-02-2.84561E+00 1.61496E-13-4.05773E-13
 -1      2605 5.04503E+00-1.99076E+00 4.10056E-02 3.89854E+00-1.26787E-13 8.54539E-13
 -1      2606 3.49969E+00-1.87927E+00 5.20456E-02 1.39625E+00-1.39021E-13 1.05266E-12
 -1      2607 5.44325E+00-6.47576E-01 1.58101E-01 3.36950E-01-6.45161E-14 9.22568E-13
 -1      2608 2.96988E+01-2.33164E-02-1.21873E-01 1.41930E+00 3.92925E-13-5.68129E-13
 -1      2609 2.76135E+01-1.92234E+00-3.77635E-02 2.63180E+00 1.82375E-13-5.22943E-13
 -1      2610 2.67681E+01-3.01489E+00 5.30333E-03 2.44263E+00-7.18731E-14-5.94996E-13
 -1      2611 2.42015E+01 1.28458E+00 7.29962E-03 2.90719E+00 3.55318E-13-3.60545E-14
 -1      2612 2.40906E+01 8.11795E-01-1.54145E-02 2.78893E+00 4.04614E-13 1.21663E-13
 -1      2613 2.28831E+01 6.91403E-01-2.15552E-04 2.04840E+00 3.42416E-13 9.91696E-14
 -1      2614 2.94929E+01 2.52026E+00-5.41024E-02 1.54570E+00 7.16635E-13-2.44249E-14
 -1      2615 2.82450E+01 3.32470E+00-1.12648E-01 2.48032E+00 6.84036E-13 6.14786E-14
 -1      2616 2.80301E+01 1.22796E+00-6.49297E-02 1.45054E+00 5.28980E-13 1.02987E-13
 -1      2617 1.28107E+01-3.00056E+00 1.41137E-01-6.25169E+00 4.11005E-13 6.07278E-13
 -1      2618 7.90019E+00 1.49858E+00 1.22581E-01-4.46608E+00-3.33705E-13-1.19077E-12
 -1      2619 3.09979E+01 5.59140E+00-4.47105E-02 6.14858E-01-1.09457E-12-4.88637E-13
 -1      2620 7.32830E+00-1.34667E+00 1.44630E-01-3.83889E+00 2.41307E-13 9.34974E-13
 -1      2621 1.43929E+01-3.25900E+00 1.40130E-01 6.57677E+00-4.31821E-13 1.70503E-13
 -1      2622 1.99996E+01-2.42646E-04-7.01133E-07-3.67052E-04 3.32956E-14 1.45345E-13
 -1      2623 1.99996E+01-3.16496E-04 8.42503E-09-4.23151E-04 4.14997E-14 3.34104E-13
 -1      2624 3.04440E+01 1.85053E+00-4.05829E-02 1.29810E+00-6.60860E-13-6.75016E-13
 -1      2625 1.99996E+01-2.43485E-04-3.33578E-06 4.02509E-04-1.56517E-13-3.79129E-13
 -1      2626 1.99996E+01-3.49713E-04 2.16914E-06 4.56744E-04-4.55035E-14-4.59000E-13
 -1      2627 1.99996E+01-4.21872E-04-2.06572E-06 5.73041E-04-2.90508E-13-2.67280E-13
 -1      2628 1.99995E+01-2.54343E-04-5.18342E-06 4.85403E-04-2.40320E-13-3.94544E-13
 -1      2629 3.03545E+01 1.97617E-01 3.17515E-02-2.09527E+00-6.08118E-13 1.00364E-13
 -1      2630 2.17326E+01-4.28289E+00 6.76884E-02 5.43627E+00-2.94709E-13-3.74756E-13
 -1      2631 2.70010E+01-2.54252E+00 7.47915E-02 9.24640E-01-2.47052E-13-1.03556E-13
 -1      2632 2.46429E+01-3.34968E-01-1.41629E-02-1.27940E+00-1.27971E-13 5.70446E-14
 -1      2633 2.93733E+01 7.18706E-01-2.52931E-02 4.41988E-02 4.12753E-13-6.80150E-13
 -1      2634 2.03279E+01-2.64941E+00 8.37147E-02 3.80445E+00 3.06977E-14-4.99271E-13
 -1      2635 5.80957E+00 2.05298E+00 1.71951E-01 1.98157E+00 1.24484E-14-1.30040E-12
 -1      2636 2.65002E+01-8.59832E-01 4.11502E-02-1.26735E+00 2.58772E-13-1.47160E-13
 -1      2637 1.41182E+01-6.77486E-01 8.61780E-02-5.65238E+00-2.82246E-13-8.63892E-13
 -1      2638 2.09289E+01-1.72282E+00 7.33907E-02-4.28186E+00-1.00558E-13-4.83433E-13
 -1      2639 2.99816E+01 5.02263E+00-5.94809E-02-6.11632E-01 8.57758E-13-5.99326E-13
 -1      2640 2.94758E+01 6.85936E+00-8.58929E-02 6.63341E-01 9.63674E-13-3.99123E-13
 -1      2641 1.90829E+01-3.95074E+00 1.18751E-01-5.91270E+00 4.25604E-13 7.75074E-14
 -1      2642 2.07191E+01-4.49311E+00 6.69988E-02-5.83438E+00 3.37425E-13 9.91950E-14
 -1      2643 2.30915E+01-4.52011E+00-3.58267E-02-4.43412E+00 3.97779E-13-2.20227E-13
 -1      2644 1.18116E+01-3.82584E-01 1.11759E-01 4.38422E+00 1.24789E-13-9.57359E-13
 -1      2645 7.89687E+00-1.45388E+00 1.46936E-01 4.55894E+00-2.90740E-13 7.04159E-13
 -1      2646 1.99996E+01-3.84756E-04-2.26588E-06-5.40905E-04-1.43326E-13 1.87128E-13
 -1      2647 1.99995E+01-3.36473E-04 3.03588E-06 6.15511E-04-4.18275E-13-5.00009E-13
 -1      2648 2.57829E+01-1.13150E+00-3.29351E-02-1.55325E+00-1.15749E-13 1.56673E-13
 -1      2649 2.66117E+01-1.37718E+00 3.19793E-02-2.09835E+00-1.40911E-13 2.78761E-13
 -1      2650 2.49881E+01-1.04263E+00-8.80043E-03-1.11726E+00-3.65628E-14 1.19809E-13
 -1      2651 1.95195E+01-1.15221E-01 5.61561E-02-2.70534E+00-3.69232E-13-4.57752E-13
 -1      2652 1.69947E+01 3.14856E-01 3.95595E-02-3.60163E+00-4.41876E-13-6.05144E-13
 -1      2653 2.39017E+01 2.48205E-01-5.23247E-02 1.62406E+00 1.06856E-13-2.24533E-13
 -1      2654 2.35153E+01 9.31102E-02 1.52548E-02 8.77022E-01-1.46584E-14-2.10582E-13
 -1      2655 2.41756E+01 6.78499E-01-4.82487E-02 2.58515E+00 2.50038E-13-1.52874E-13
 -1      2656 2.40941E+01 5.97433E-01 3.63454E-03 2.19887E+00 1.65166E-13-2.04894E-13
 -1      2657 2.45017E+01 2.20622E-01 1.37205E-02 2.13821E+00 1.66110E-13-1.04454E-13
 -1      2658 2.40524E+01 7.84132E-01-1.21976E-02 2.73303E+00 3.35077E-13-2.17690E-14
 -1      2659 6.98664E+00 1.25158E-01 1.30738E-01 1.53019E+00-1.65284E-13 7.64777E-13
 -1      2660 6.97443E+00 2.05110E-01 1.51000E-01-7.82649E-01-4.49502E-14 7.72160E-13
 -1      2661 2.85898E+01 4.34482E-01-1.80285E-01-3.21183E+00-5.57762E-13 2.89019E-13
 -1      2662 2.87196E+01 2.02153E+00-1.13633E-01-3.30515E+00-7.14012E-13 2.36741E-13
 -1      2663 2.82869E+01 3.99638E+00-1.41994E-01 1.24349E+00-8.74523E-13-4.77951E-13
 -1      2664 2.83049E+01 2.29972E+00-1.89499E-01 1.79596E+00-6.60472E-13-5.74651E-13
 -1      2665 2.76877E+01 1.27694E-01-1.03441E-02 1.83261E+00-3.83665E-13-6.48134E-13
 -1      2666 2.73031E+01-1.36173E+00-5.98090E-02 1.43894E+00-1.86724E-13-6.35124E-13
 -1      2667 2.63203E+01-2.18286E+00-2.48230E-02 6.43393E-01-5.59171E-14-6.00913E-13
 -1      2668 2.57490E+01-2.52507E+00 7.96610E-03 8.98115E-03 5.39126E-14-5.75739E-13
 -1      2669 2.71984E+01-2.21342E+00-5.08607E-02 5.08114E-01-1.15009E-13-5.99756E-13
 -1      2670 2.46378E+01-2.45890E+00-1.63950E-02-6.36039E-01 1.13158E-13-4.84649E-13
 -1      2671 2.40396E+01-2.16506E+00 4.00304E-02-1.12076E+00 1.62424E-13-3.73496E-13
 -1      2672 2.49867E+01-2.93138E+00-2.36048E-02-9.73034E-01 1.23220E-13-4.69538E-13
 -1      2673 2.31484E+01-1.76779E+00-9.78994E-03-1.44053E+00 1.89668E-13-2.90719E-13
 -1      2674 2.26414E+01-1.31284E+00 2.94411E-02-1.69198E+00 2.65704E-13-2.38425E-13
 -1      2675 2.30257E+01-2.31241E+00-4.50194E-02-1.87366E+00 2.12599E-13-2.43574E-13
 -1      2676 2.20875E+01-9.23348E-01-2.16545E-03-1.75927E+00 2.64229E-13-2.06854E-13
 -1      2677 2.17147E+01-5.59604E-01 1.59680E-02-1.84236E+00 2.30949E-13-1.69239E-13
 -1      2678 2.17046E+01-1.28350E+00-3.49779E-02-2.12585E+00 2.68256E-13-1.88854E-13
 -1      2679 2.14118E+01-2.81035E-01 2.11030E-03-1.78940E+00 1.14472E-13-1.83635E-13
 -1      2680 2.11539E+01-4.86511E-02 7.46524E-03-1.76994E+00 2.89264E-14-1.56311E-13
 -1      2681 2.09457E+01-4.58662E-01-1.98772E-02-2.06216E+00 1.82207E-13-1.35302E-13
 -1      2682 2.10042E+01 1.15386E-01 3.87480E-03-1.66494E+00 2.75480E-15-1.36313E-13
 -1      2683 2.08248E+01 2.37923E-01 2.33649E-03-1.59083E+00 3.41282E-14-1.24345E-13
 -1      2684 2.05484E+01 6.67370E-02-9.58836E-03-1.86346E+00 3.98331E-14-8.56382E-14
 -1      2685 2.07568E+01 3.16634E-01 4.21950E-03-1.46987E+00 1.57861E-14-1.01256E-13
 -1      2686 2.06261E+01 3.65839E-01-2.96017E-04-1.37180E+00-2.27896E-14-4.55535E-14
 -1      2687 2.03556E+01 3.45710E-01-3.93335E-03-1.61872E+00 2.70559E-14-8.79659E-15
 -1      2688 2.05968E+01 3.90774E-01 4.13455E-03-1.25186E+00-3.96187E-14-6.49528E-15
 -1      2689 2.04957E+01 3.97006E-01-1.44885E-03-1.14844E+00-2.37095E-14 4.75131E-14
 -1      2690 2.02649E+01 4.59691E-01-1.15264E-03-1.36966E+00 1.08144E-14-9.79968E-15
 -1      2691 2.04824E+01 3.92113E-01 3.88401E-03-1.03756E+00-8.53165E-14 8.82181E-14
 -1      2692 2.04006E+01 3.76144E-01-1.80320E-03-9.39291E-01-7.34106E-14-1.09720E-14
 -1      2693 2.02192E+01 4.76284E-01 1.20104E-06-1.13505E+00-6.06949E-14 6.77378E-14
 -1      2694 2.03925E+01 3.56963E-01 3.54118E-03-8.41117E-01-1.93775E-14 2.75237E-14
 -1      2695 2.03249E+01 3.31521E-01-1.76228E-03-7.53267E-01 4.41054E-14-3.62197E-14
 -1      2696 2.01905E+01 4.41933E-01 3.34378E-04-9.23674E-01-4.44857E-14 1.54659E-13
 -1      2697 2.03177E+01 3.07178E-01 3.14223E-03-6.68982E-01 9.57832E-14 1.53759E-14
 -1      2698 2.02615E+01 2.79424E-01-1.55078E-03-5.93580E-01 1.15173E-13 7.08501E-14
 -1      2699 2.01667E+01 3.85352E-01 3.11055E-04-7.39163E-01 8.33065E-14 9.23699E-14
 -1      2700 2.02540E+01 2.54823E-01 2.71915E-03-5.22959E-01 6.13662E-14 4.10325E-14
 -1      2701 2.02076E+01 2.28433E-01-1.28705E-03-4.60130E-01 7.63793E-14 2.02721E-14
 -1      2702 2.01438E+01 3.22891E-01 1.72594E-04-5.82151E-01 8.28187E-14 1.08082E-13
 -1      2703 2.01999E+01 2.05934E-01 2.30002E-03-4.02150E-01 9.68043E-14 8.91503E-14
 -1      2704 2.01621E+01 1.82544E-01-1.02976E-03-3.50990E-01 8.34488E-14 5.44172E-14
 -1      2705 2.01214E+01 2.63067E-01 2.76377E-05-4.51384E-01 6.59659E-14 8.53412E-14
 -1      2706 2.01545E+01 1.63072E-01 1.90610E-03-3.04231E-01 5.08348E-14-2.52202E-14
 -1      2707 2.01241E+01 1.43199E-01-8.03428E-04-2.63363E-01-4.20985E-15-1.20870E-13
 -1      2708 2.01000E+01 2.09767E-01-8.35339E-05-3.44517E-01 8.18787E-15 1.28726E-13
 -1      2709 2.01171E+01 1.26924E-01 1.55065E-03-2.26265E-01-2.01161E-14-8.76057E-14
 -1      2710 2.00932E+01 1.10512E-01-6.14996E-04-1.94170E-01-4.56984E-14-1.15070E-13
 -1      2711 2.00804E+01 1.64301E-01-1.52950E-04-2.58668E-01-3.12569E-15-6.51095E-14
 -1      2712 2.00869E+01 9.72371E-02 1.24011E-03-1.65193E-01-7.18136E-14-1.65879E-13
 -1      2713 2.00684E+01 8.39674E-02-4.63357E-04-1.40386E-01-3.98612E-14-2.47445E-13
 -1      2714 2.00632E+01 1.26631E-01-1.86760E-04-1.90807E-01-5.89454E-14-6.25632E-14
 -1      2715 2.00631E+01 7.33413E-02 9.75917E-04-1.18099E-01 1.65306E-14-2.59029E-13
 -1      2716 2.00490E+01 6.27945E-02-3.44048E-04-9.92239E-02 2.63783E-14-2.46004E-13
 -1      2717 2.00485E+01 9.60891E-02-1.94655E-04-1.37998E-01-6.26705E-14-1.23795E-13
 -1      2718 2.00446E+01 5.44232E-02 7.56060E-04-8.23530E-02 8.83319E-14-2.40609E-13
 -1      2719 2.00340E+01 4.61673E-02-2.51663E-04-6.82243E-02 6.51031E-14-1.54198E-13
 -1      2720 2.00364E+01 7.17558E-02-1.85668E-04-9.75407E-02 9.26289E-14-6.00513E-14
 -1      2721 2.00305E+01 3.96687E-02 5.76516E-04-5.56672E-02 2.19209E-14-1.22118E-13
 -1      2722 2.00228E+01 3.32997E-02-1.81069E-04-4.52763E-02 8.65246E-15-4.91080E-14
 -1      2723 2.00266E+01 5.26662E-02-1.67168E-04-6.70475E-02 8.17115E-14-1.13779E-13
 -1      2724 2.00200E+01 2.83277E-02 4.32371E-04-3.61022E-02-8.36263E-14-7.28697E-16
 -1      2725 2.00145E+01 2.34863E-02-1.27796E-04-2.86102E-02-2.24903E-14-5.77510E-14
 -1      2726 2.00190E+01 3.79090E-02-1.44382E-04-4.44624E-02-1.79674E-14-1.28593E-13
 -1      2727 2.00124E+01 1.97392E-02 3.18488E-04-2.20484E-02-9.01425E-14-1.64145E-13
 -1      2728 2.00086E+01 1.61158E-02-8.81377E-05-1.67703E-02-2.05708E-13-3.22903E-13
 -1      2729 2.00131E+01 2.66682E-02-1.20815E-04-2.80555E-02-1.76570E-13-1.78148E-13
 -1      2730 2.00070E+01 1.33370E-02 2.29921E-04-1.21940E-02-1.66917E-13-1.37834E-13
 -1      2731 2.00044E+01 1.06709E-02-5.90164E-05-8.58018E-03-8.24797E-14-1.67060E-13
 -1      2732 2.00087E+01 1.82376E-02-9.85153E-05-1.64000E-02-1.20519E-13-1.14230E-13
 -1      2733 2.00033E+01 8.64714E-03 1.62118E-04-5.48819E-03 3.85750E-14-2.71389E-13
 -1      2734 2.00016E+01 6.72302E-03-3.79335E-05-3.10382E-03-8.37211E-15-2.35630E-13
 -1      2735 2.00055E+01 1.20202E-02-7.85190E-05-8.34041E-03-9.54229E-15 6.49919E-14
 -1      2736 2.00008E+01 5.27984E-03 1.11048E-04-1.10127E-03-5.86140E-14-1.84056E-13
 -1      2737 1.99998E+01 3.92273E-03-2.29306E-05 3.92296E-04-1.29463E-13-9.93672E-14
 -1      2738 2.00031E+01 7.52149E-03-6.13030E-05-2.95579E-03 1.45679E-14-2.22117E-15
 -1      2739 1.99993E+01 2.91958E-03 7.32604E-05 1.61187E-03-2.48600E-13-2.17130E-14
 -1      2740 1.99988E+01 1.98920E-03-1.24856E-05 2.47461E-03-1.34713E-13 4.60220E-14
 -1      2741 2.00015E+01 4.33889E-03-4.69368E-05 4.76794E-04-1.95091E-13 1.38220E-13
 -1      2742 1.99984E+01 1.31424E-03 4.58525E-05 3.14532E-03-1.34891E-13 9.47455E-14
 -1      2743 1.99982E+01 6.99633E-04-5.41892E-06 3.57366E-03-9.45597E-14 7.17289E-14
 -1      2744 2.00005E+01 2.14881E-03-3.52444E-05 2.51610E-03-1.20236E-13 1.97249E-13
 -1      2745 1.99979E+01 2.65066E-04 2.64268E-05 3.87134E-03-6.08617E-14 6.38667E-14
 -1      2746 1.99979E+01-1.20360E-04-8.20075E-07 4.01110E-03-2.26217E-14 1.70939E-13
 -1      2747 1.99998E+01 6.94776E-04-2.59294E-05 3.58700E-03-8.96921E-14 1.54159E-13
 -1      2748 1.99978E+01-3.82506E-04 1.30385E-05 4.06540E-03 2.22467E-15 7.59991E-14
 -1      2749 1.99979E+01-6.05341E-04 2.00700E-06 4.02275E-03-1.20088E-13 5.17132E-14
 -1      2750 1.99994E+01-2.23711E-04-1.86508E-05 4.00694E-03-1.04993E-14 2.52747E-13
 -1      2751 1.99978E+01-7.46920E-04 4.13703E-06 3.92730E-03-5.94220E-14 1.93611E-13
 -1      2752 1.99980E+01-8.57622E-04 3.58791E-06 3.77780E-03 1.31550E-13 1.95835E-13
 -1      2753 1.99991E+01-7.61170E-04-1.30675E-05 4.00860E-03 2.78676E-14 3.13362E-13
 -1      2754 1.99980E+01-9.17588E-04-1.49311E-06 3.59852E-03 2.36252E-13 7.28180E-14
 -1      2755 1.99982E+01-9.53794E-04 4.31327E-06 3.39445E-03 2.52195E-13 6.39187E-14
 -1      2756 1.99991E+01-1.03491E-03-8.86281E-06 3.75880E-03 8.39028E-14 2.88866E-13
 -1      2757 1.99982E+01-9.60950E-04-4.78866E-06 3.17636E-03 9.98555E-14 1.18603E-13
 -1      2758 1.99984E+01-9.50282E-04 4.46791E-06 2.95258E-03-2.95210E-14 6.56885E-14
 -1      2759 1.99990E+01-1.13262E-03-5.75721E-06 3.37399E-03 2.06429E-13 6.96348E-15
 -1      2760 1.99984E+01-9.25582E-04-6.45898E-06 2.72512E-03-2.52315E-14 6.68117E-14
 -1      2761 1.99986E+01-8.87980E-04 4.25501E-06 2.50366E-03 5.63956E-14 7.59753E-14
 -1      2762 1.99991E+01-1.11881E-03-3.51276E-06 2.93272E-03 1.90181E-14 1.77654E-13
 -1      2763 1.99987E+01-8.46426E-04-7.03288E-06 2.28491E-03 2.28831E-15-5.73629E-14
 -1      2764 1.99989E+01-7.96073E-04 3.81287E-06 2.07851E-03-1.21166E-14 1.85071E-14
 -1      2765 1.99992E+01-1.04014E-03-1.93527E-06 2.48551E-03 1.87747E-14 2.78418E-13
 -1      2766 1.99989E+01-7.48277E-04-6.89355E-06 1.87838E-03-7.16001E-14 7.84457E-14
 -1      2767 1.99991E+01-6.95180E-04 3.22460E-06 1.69319E-03 7.81052E-14 1.14986E-13
 -1      2768 1.99993E+01-9.29897E-04-8.81494E-07 2.06249E-03 1.44382E-14 1.78842E-14
 -1      2769 1.99991E+01-6.48522E-04-6.28416E-06 1.51574E-03 3.44751E-14 5.21465E-14
 -1      2770 1.99992E+01-5.99323E-04 2.64402E-06 1.35329E-03-2.02692E-14 6.65864E-14
 -1      2771 1.99994E+01-8.11661E-04-2.62601E-07 1.67919E-03 1.20349E-14 1.99966E-14
 -1      2772 1.99993E+01-5.59317E-04-5.39825E-06 1.19934E-03-1.89766E-13-9.84868E-14
 -1      2773 1.99994E+01-5.19634E-04 1.93156E-06 1.05798E-03-4.19786E-13-3.84937E-13
 -1      2774 1.99994E+01-7.01467E-04 8.01573E-09 1.34131E-03-2.58108E-13-1.03895E-13
 -1      2775 1.99994E+01-4.87866E-04-4.19851E-06 9.23813E-04-3.64472E-13-4.41202E-13
 -1      2776 1.99995E+01-4.60643E-04 2.67101E-07 8.01583E-04-3.25431E-13-5.17516E-13
 -1      2777 1.99995E+01-6.10960E-04-4.28520E-08 1.04707E-03-4.38984E-13-2.73933E-13
 -1      2778 2.82653E+01-1.00349E+00-2.05488E-02-2.54404E+00-3.55826E-13 2.85091E-13
 -1      2779 2.23414E+01 1.78192E+00-1.63718E-02 1.84780E-01 2.84089E-13-1.73780E-13
 -1      2780 2.24786E+01 1.79435E+00-3.40122E-03 7.08466E-01 3.20490E-13-1.33857E-13
 -1      2781 2.27632E+01-3.73265E-01-1.55629E-02-1.31662E+00 1.05294E-13-3.32238E-13
 -1      2782 2.27072E+01-9.48806E-03 9.65466E-03-1.39279E+00 1.52464E-13-3.60373E-13
 -1      2783 2.26909E+01-7.95062E-01-2.90374E-03-8.68688E-01 7.51732E-14-2.79128E-13
 -1      2784 2.26944E+01-6.29395E-01-1.53202E-03-1.08536E+00 8.92883E-14-2.96667E-13
 -1      2785 2.31469E+01-6.19481E-01 1.09140E-02-1.18717E+00 8.10251E-14-3.90450E-13
 -1      2786 2.24205E+01-8.61948E-01 4.68772E-03-3.21991E-01 4.21249E-14-2.97147E-13
 -1      2787 2.24852E+01-8.66647E-01-9.14207E-03-5.68385E-01 8.76057E-14-2.49670E-13
 -1      2788 2.28315E+01-1.03637E+00 3.75262E-03-6.13049E-01 7.34218E-14-3.36039E-13
 -1      2789 2.20530E+01-7.10377E-01 7.52020E-03 1.45556E-01 3.14570E-14-2.28446E-13
 -1      2790 2.21592E+01-8.08007E-01-1.08237E-02-6.18705E-02 1.74927E-14-2.58528E-13
 -1      2791 2.23582E+01-1.04222E+00-3.51980E-03-3.85249E-02 4.37769E-14-3.07376E-13
 -1      2792 2.16776E+01-4.80195E-01 7.30432E-03 4.67702E-01 4.66954E-14-1.79136E-13
 -1      2793 2.18019E+01-6.03110E-01-8.79788E-03 3.24679E-01 8.03786E-14-1.64435E-13
 -1      2794 2.18630E+01-8.18671E-01-6.62845E-03 3.96580E-01 2.34899E-14-2.43731E-13
 -1      2795 2.13422E+01-2.59988E-01 5.70732E-03 6.47157E-01 3.24914E-14-2.56930E-13
 -1      2796 2.14680E+01-3.69545E-01-5.76580E-03 5.67331E-01 3.84639E-14-2.19106E-13
 -1      2797 2.14281E+01-5.28812E-01-6.72885E-03 6.64126E-01 6.91621E-14-1.93557E-13
 -1      2798 2.10620E+01-8.82726E-02 3.90424E-03 7.14258E-01 9.27322E-14-2.65078E-13
 -1      2799 2.11802E+01-1.69904E-01-3.02984E-03 6.84868E-01 3.93733E-14-2.22872E-13
 -1      2800 2.10805E+01-2.66992E-01-5.55434E-03 7.89782E-01 6.01920E-14-2.37005E-13
 -1      2801 2.08351E+01 2.77144E-02 2.40130E-03 7.04118E-01 9.62567E-14-2.29611E-13
 -1      2802 2.09416E+01-2.52167E-02-9.51935E-04 7.09785E-01 9.11871E-14-2.60808E-13
 -1      2803 2.08162E+01-6.97749E-02-4.11575E-03 8.13057E-01 9.97346E-14-2.22557E-13
 -1      2804 2.06534E+01 9.56658E-02 1.31947E-03 6.47090E-01 1.67096E-13-2.27539E-13
 -1      2805 2.07469E+01 6.62408E-02 4.51633E-04 6.74143E-01 1.47871E-13-2.16462E-13
 -1      2806 2.06190E+01 5.96624E-02-2.89844E-03 7.70625E-01 1.03176E-13-2.20596E-13
 -1      2807 2.05083E+01 1.27869E-01 6.12945E-04 5.66074E-01 3.05703E-14-1.77264E-13
 -1      2808 2.05886E+01 1.15358E-01 1.29692E-03 6.04006E-01 9.09227E-14-1.92750E-13
 -1      2809 2.04720E+01 1.32905E-01-2.02619E-03 6.91149E-01 8.50809E-14-9.27226E-14
 -1      2810 2.03922E+01 1.36119E-01 1.90825E-04 4.76863E-01-2.49836E-14-1.61284E-13
 -1      2811 2.04601E+01 1.34613E-01 1.72632E-03 5.18366E-01 1.15673E-14-1.77771E-13
 -1      2812 2.03612E+01 1.65292E-01-1.45033E-03 5.95049E-01-4.27210E-16-3.33034E-14
 -1      2813 2.02996E+01 1.29850E-01-3.73115E-05 3.89486E-01-2.85340E-15-2.02275E-13
 -1      2814 2.03560E+01 1.34790E-01 1.86678E-03 4.29922E-01 2.06870E-14-1.29014E-13
 -1      2815 2.02766E+01 1.70793E-01-1.08142E-03 4.95889E-01-1.79020E-14-6.59509E-14
 -1      2816 2.02260E+01 1.15854E-01-1.43646E-04 3.09690E-01-1.22231E-13-2.70749E-13
 -1      2817 2.02719E+01 1.24038E-01 1.82007E-03 3.46428E-01-9.47230E-14-2.72151E-13
 -1      2818 2.02112E+01 1.60312E-01-8.44367E-04 4.01998E-01-5.52753E-14-6.40101E-14
 -1      2819 2.01679E+01 9.86547E-02-1.78463E-04 2.40247E-01-9.28157E-14-2.56642E-13
 -1      2820 2.02047E+01 1.07994E-01 1.66363E-03 2.72050E-01-8.97569E-14-2.99336E-13
 -1      2821 2.01602E+01 1.41590E-01-6.84553E-04 3.17935E-01-7.47841E-14-1.78567E-13
 -1      2822 2.01225E+01 8.10580E-02-1.74587E-04 1.81982E-01-9.69471E-14-1.38666E-13
 -1      2823 2.01514E+01 9.02883E-02 1.45260E-03 2.08521E-01-1.48466E-13-2.62628E-13
 -1      2824 2.01203E+01 1.19729E-01-5.67598E-04 2.45682E-01-1.63560E-13-1.25559E-13
 -1      2825 2.00874E+01 6.46585E-02-1.52391E-04 1.34534E-01-6.43465E-14-7.41697E-14
 -1      2826 2.01098E+01 7.30844E-02 1.22414E-03 1.56025E-01-5.18967E-14-8.41669E-14
 -1      2827 2.00892E+01 9.78597E-02-4.74908E-04 1.85554E-01-1.58275E-13-1.59481E-13
 -1      2828 2.00608E+01 5.02433E-02-1.23773E-04 9.68812E-02-9.03933E-14-3.40139E-14
 -1      2829 2.00777E+01 5.75447E-02 1.00189E-03 1.13834E-01-9.27994E-14-2.93782E-14
 -1      2830 2.00650E+01 7.77326E-02-3.97046E-04 1.36861E-01-1.16056E-13 1.63557E-16
 -1      2831 2.00408E+01 3.80886E-02-9.51613E-05 6.77028E-02-1.27338E-13 1.58650E-13
 -1      2832 2.00534E+01 4.41783E-02 7.99376E-04 8.07577E-02-1.09499E-13 6.64391E-14
 -1      2833 2.00464E+01 6.01827E-02-3.29379E-04 9.83716E-02-1.61635E-13 1.10942E-13
 -1      2834 2.00262E+01 2.81678E-02-6.96873E-05 4.56063E-02-4.73007E-14 2.17754E-13
 -1      2835 2.00353E+01 3.30936E-02 6.23033E-04 5.54249E-02-1.55604E-14 2.10554E-13
 -1      2836 2.00323E+01 4.54693E-02-2.70007E-04 6.86300E-02-1.38200E-13 1.57791E-13
 -1      2837 2.00156E+01 2.02895E-02-4.85631E-05 2.92607E-02-6.88047E-14 2.87303E-13
 -1      2838 2.00221E+01 2.41700E-02 4.74717E-04 3.64680E-02-1.23240E-13 2.28906E-13
 -1      2839 2.00218E+01 3.35131E-02-2.18234E-04 4.61553E-02-7.75830E-14 2.15750E-13
 -1      2840 2.00083E+01 1.41850E-02-3.19912E-05 1.74702E-02 5.06536E-14 3.30344E-13
 -1      2841 2.00127E+01 1.71693E-02 3.53502E-04 2.26225E-02 2.87215E-14 3.60631E-13
 -1      2842 2.00141E+01 2.40528E-02-1.73795E-04 2.95578E-02-9.33068E-14 2.90674E-13
 -1      2843 2.00033E+01 9.56381E-03-1.95401E-05 9.20607E-03 2.59410E-13 1.95548E-13
 -1      2844 2.00062E+01 1.18061E-02 2.56899E-04 1.27778E-02 1.87933E-13 3.18696E-13
 -1      2845 2.00085E+01 1.67460E-02-1.36233E-04 1.76019E-02 1.52112E-13 2.15640E-13
 -1      2846 2.00000E+01 6.14673E-03-1.05472E-05 3.61245E-03 1.38205E-13 2.25983E-13
 -1      2847 2.00018E+01 7.79172E-03 1.81644E-04 5.99556E-03 2.24122E-13 2.59646E-13
 -1      2848 2.00045E+01 1.12316E-02-1.04987E-04 9.23238E-03 2.34981E-13 1.50193E-13
 -1      2849 1.99981E+01 3.68284E-03-4.31066E-06-3.90737E-06 1.39124E-14 2.99712E-13
 -1      2850 1.99991E+01 4.85848E-03 1.24279E-04 1.50602E-03 5.24750E-14 2.81924E-13
 -1      2851 2.00019E+01 7.16658E-03-7.94612E-05 3.57472E-03 8.73900E-14 2.98056E-13
 -1      2852 1.99970E+01 1.95656E-03-1.91742E-07-2.19162E-03-2.57467E-13 3.69578E-13
 -1      2853 1.99974E+01 2.77157E-03 8.15108E-05-1.30697E-03-7.00753E-14 2.74556E-13
 -1      2854 2.00001E+01 4.24543E-03-5.89878E-05-7.74647E-05-3.76874E-14 5.34406E-13
 -1      2855 1.99965E+01 7.88559E-04 2.35259E-06-3.37547E-03-3.36740E-13 5.19971E-13
 -1      2856 1.99966E+01 1.33256E-03 5.03721E-05-2.92544E-03-3.27732E-13 3.70418E-13
 -1      2857 1.99990E+01 2.20687E-03-4.28566E-05-2.28220E-03-3.12259E-13 3.31202E-13
 -1      2858 1.99964E+01 3.37029E-05 3.76527E-06-3.87734E-03-1.42320E-13 4.06247E-13
 -1      2859 1.99963E+01 3.78686E-04 2.82945E-05-3.71850E-03-1.51961E-13 5.50530E-13
 -1      2860 1.99984E+01 8.34471E-04-3.03699E-05-3.47091E-03-2.15065E-13 1.93259E-13
 -1      2861 1.99966E+01-4.22779E-04 4.39429E-06-3.93585E-03-1.58900E-13 1.66468E-13
 -1      2862 1.99964E+01-2.20300E-04 1.31263E-05-3.96269E-03-1.75303E-13 2.82046E-13
 -1      2863 1.99982E+01-4.64188E-05-2.08790E-05-3.97013E-03-5.63486E-14 3.21899E-13
 -1      2864 1.99969E+01-6.69706E-04 4.50330E-06-3.72369E-03-9.25992E-14 1.99722E-13
 -1      2865 1.99966E+01-5.66287E-04 3.11452E-06-3.86053E-03-9.69272E-14 2.83976E-13
 -1      2866 1.99981E+01-5.73499E-04-1.38028E-05-4.02168E-03-1.95419E-13 2.07743E-13
 -1      2867 1.99973E+01-7.74439E-04 4.28453E-06-3.36250E-03 1.14118E-13 7.88221E-14
 -1      2868 1.99970E+01-7.37346E-04-3.13558E-06-3.55661E-03 2.76691E-14 6.89853E-14
 -1      2869 1.99982E+01-8.53070E-04-8.63689E-06-3.80043E-03 4.42469E-14 9.02232E-14
 -1      2870 1.99977E+01-7.87082E-04 3.87177E-06-2.93511E-03 4.30347E-14 7.17473E-14
 -1      2871 1.99974E+01-7.92128E-04-6.70876E-06-3.15109E-03 1.26370E-13 8.70232E-14
 -1      2872 1.99983E+01-9.65571E-04-4.95480E-06-3.42941E-03 7.62262E-14 2.64421E-14
 -1      2873 1.99981E+01-7.44209E-04 3.35372E-06-2.49534E-03 1.04732E-13-2.84954E-14
 -1      2874 1.99978E+01-7.73855E-04-8.43117E-06-2.71066E-03 8.49236E-14 2.38556E-14
 -1      2875 1.99985E+01-9.70707E-04-2.40469E-06-2.99226E-03 1.15539E-13 1.38399E-13
 -1      2876 1.99984E+01-6.72059E-04 2.78406E-06-2.07585E-03-1.07205E-14 1.16647E-13
 -1      2877 1.99982E+01-7.13803E-04-8.91644E-06-2.27732E-03-5.25102E-14 5.65795E-14
 -1      2878 1.99987E+01-9.11982E-04-7.02812E-07-2.54328E-03 1.43664E-14 3.90394E-14
 -1      2879 1.99987E+01-5.89191E-04 2.19988E-06-1.69403E-03-2.38892E-14 5.17894E-13
 -1      2880 1.99985E+01-6.34247E-04-8.61167E-06-1.87515E-03-6.14336E-14 3.56869E-13
 -1      2881 1.99989E+01-8.20563E-04 3.70355E-07-2.11527E-03-2.44516E-13 9.42430E-14
 -1      2882 1.99990E+01-5.08641E-04 1.62686E-06-1.35657E-03 6.55952E-14 5.83849E-13
 -1      2883 1.99988E+01-5.50857E-04-7.81731E-06-1.51551E-03 9.17105E-14 6.74061E-13
 -1      2884 1.99991E+01-7.18432E-04 9.89955E-07-1.72563E-03-7.29413E-14 5.91238E-13
 -1      2885 1.99992E+01-4.39731E-04 8.66913E-07-1.06292E-03-5.40171E-14 5.45692E-13
 -1      2886 1.99991E+01-4.74710E-04-6.75773E-06-1.20092E-03 8.24396E-14 6.52812E-13
 -1      2887 1.99992E+01-6.21075E-04 1.24798E-06-1.38106E-03 7.87520E-14 5.46659E-13
 -1      2888 1.99994E+01-3.88813E-04-1.13413E-06-8.07900E-04 6.41174E-14 1.02941E-13
 -1      2889 1.99993E+01-4.13029E-04-5.73744E-06-9.27174E-04 5.76486E-15 3.76963E-13
 -1      2890 1.99994E+01-5.39037E-04 1.51729E-06-1.08099E-03 1.71828E-13 6.39650E-13
 -1      2891 1.99995E+01-3.79456E-04-2.10865E-06-6.17417E-04-6.80512E-14 2.31905E-13
 -1      2892 1.99994E+01-3.95754E-04-5.05346E-06-7.25681E-04-4.02330E-14 1.56591E-13
 -1      2893 1.99995E+01-4.98911E-04 4.41146E-06-8.52274E-04 1.11746E-13 4.10838E-13
 -1      2894 1.99996E+01-4.99905E-04 4.59634E-06-6.80532E-04-1.04487E-13 4.09729E-13
 -1      2895 2.40492E+01 4.90752E-01-5.36168E-03 2.73685E+00 3.24091E-13 6.74673E-14
 -1      2896 2.42200E+01 7.66269E-01 4.28926E-04 2.81084E+00 3.03014E-13-5.17852E-14
 -1      2897 2.43800E+01 5.31438E-01 8.62281E-03 2.74010E+00 2.84625E-13-4.87709E-14
 -1      2898 2.37131E+01 5.68691E-01-4.41572E-05 2.55189E+00 3.38658E-13 5.50467E-14
 -1      2899 2.00002E+01-1.23358E-03 2.96673E-06-6.78524E-05-2.59402E-13-2.31085E-13
 -1      2900 2.00002E+01-1.21838E-03 1.57441E-06-1.86280E-04-9.21128E-14-1.62947E-13
 -1      2901 1.99995E+01-4.49672E-04-3.87408E-06 7.22178E-04-2.63011E-13-4.03158E-13
 -1      2902 1.99996E+01-4.32231E-04-5.39146E-07 6.45019E-04-3.25873E-13-3.68614E-13
 -1      2903 1.99996E+01-5.15975E-04 2.65844E-06 6.71880E-04-1.97695E-13 2.49798E-13
 -1      2904 1.99996E+01-5.53020E-04 5.04259E-08 8.29323E-04-2.70092E-13 3.87148E-14
 -1      2905 2.00001E+01-1.06294E-03 4.71083E-06-5.26249E-04 1.22321E-13-3.77520E-14
 -1      2906 2.00000E+01-9.93518E-04-1.48178E-06-5.99825E-04 1.97661E-13-1.36723E-13
 -1      2907 2.00002E+01-1.21763E-03 1.61082E-06 1.90338E-04-2.69133E-13-1.84273E-13
 -1      2908 2.00002E+01-1.23337E-03 2.95048E-06 7.20281E-05-2.79873E-13-9.14276E-14
 -1      2909 2.00004E+01-1.29140E-03-4.23977E-06 2.29372E-06-1.92979E-13-2.93894E-13
 -1      2910 2.00002E+01-1.18033E-03 4.05727E-06-3.17473E-04-1.75020E-13 3.56776E-14
 -1      2911 2.00002E+01-1.13589E-03-2.41979E-08-4.20492E-04-5.51863E-14 9.32286E-14
 -1      2912 2.00002E+01-1.15161E-03-3.56225E-06-5.31150E-04 1.04617E-13-1.02236E-13
 -1      2913 2.00003E+01-1.25587E-03-4.08099E-06-2.82066E-04-2.32133E-13 2.69884E-14
 -1      2914 2.00002E+01-1.13620E-03 3.52751E-08 4.20409E-04 8.65141E-14-2.40018E-13
 -1      2915 2.00002E+01-1.18002E-03 4.03861E-06 3.19271E-04-1.55944E-13-2.20642E-13
 -1      2916 2.00003E+01-1.25574E-03-4.11461E-06 2.84213E-04-1.12910E-13-1.01391E-13
 -1      2917 2.00000E+01-9.94370E-04-1.65829E-06 6.00157E-04 3.67499E-13 9.81161E-14
 -1      2918 2.00001E+01-1.06347E-03 4.74410E-06 5.26398E-04 2.28258E-13-9.00919E-14
 -1      2919 2.00002E+01-1.15228E-03-3.53337E-06 5.31102E-04 1.53179E-13-1.80943E-16
 -1      2920 1.99999E+01-8.04897E-04-2.10744E-06 6.98449E-04 1.51852E-13 2.94299E-13
 -1      2921 2.00000E+01-8.93032E-04 4.60815E-06 6.65991E-04 2.99038E-13 1.95196E-13
 -1      2922 2.00000E+01-9.88245E-04-2.60097E-06 7.13174E-04 2.83814E-13 9.57824E-14
 -1      2923 1.99997E+01-6.10071E-04-9.50863E-07 6.95521E-04-1.76038E-13 9.57585E-14
 -1      2924 1.99998E+01-7.10145E-04 3.99546E-06 7.07466E-04 5.54595E-14 9.59241E-14
 -1      2925 1.99999E+01-8.04949E-04-6.62715E-07 7.89307E-04 6.72868E-14 1.52442E-13
 -1      2926 1.99997E+01-6.25767E-04-9.68061E-07 7.72503E-04-9.41711E-14 8.92676E-14
 -1      2927 2.26757E+01 1.65765E+00 1.23953E-02 1.32854E+00 3.54546E-13-5.76206E-14
 -1      2928 2.29118E+01 1.38330E+00-1.22758E-02 1.78350E+00 3.81009E-13-1.12375E-14
 -1      2929 2.30897E+01 2.15044E+00-5.03871E-03 1.17347E+00 3.85644E-13-1.24483E-13
 -1      2930 3.20570E+01 5.00269E+00-6.82985E-02-2.38077E+00-1.05710E-12-5.53446E-14
 -1      2931 3.04800E+01 3.46213E+00-5.31570E-02-2.84483E+00-9.01917E-13 1.12452E-13
 -1      2932 2.70721E+01-2.59166E+00-1.35424E-01 1.29446E+00-2.23120E-14-6.70006E-13
 -1      2933 2.55895E+01-3.48618E+00 1.59324E-02 2.56234E+00-1.77459E-13-6.14057E-13
 -1      2934 2.77427E+01-2.35645E+00-4.74270E-02-6.29711E-01-2.35499E-13 7.86871E-14
 -1      2935 2.56016E+01-2.73500E+00 7.01564E-02 8.45194E-01-5.62536E-14-5.33601E-14
 -1      2936 7.51799E+00-3.86870E-01 1.30096E-01-2.81614E+00 1.56257E-13 8.17235E-13
 -1      2937 9.34317E+00-1.20400E+00 8.55315E-02-4.67303E+00 2.48732E-13 7.80431E-13
 -1      2938 1.67976E+01-3.37299E+00-1.10749E-02 6.30477E+00-4.87430E-13-1.25802E-13
 -1      2939 1.35684E+01-2.19825E+00 1.76113E-01 5.96069E+00-5.19099E-13 2.05863E-13
 -1      2940 2.26210E+01 4.05023E-01-2.37747E-02-1.39550E+00 1.72263E-13-3.68288E-13
 -1      2941 2.25479E+01 8.73583E-01 2.09809E-02-1.22927E+00 1.92071E-13-3.47959E-13
 -1      2942 2.31910E+01 2.41918E-01 4.80217E-03-1.46912E+00 1.54664E-13-4.17750E-13
 -1      2943 2.23895E+01 1.27757E+00-2.47814E-02-8.76387E-01 2.21256E-13-3.02045E-13
 -1      2944 2.23876E+01 1.62670E+00 1.69490E-02-4.61512E-01 2.64897E-13-2.37922E-13
 -1      2945 2.30163E+01 1.36454E+00 2.40752E-03-1.15255E+00 2.66134E-13-3.83328E-13
 -1      2946 2.70889E+01-1.27209E+00-1.85606E-02-2.55926E+00-2.04531E-13 3.10620E-13
 -1      2947 2.76265E+01 4.71054E+00-1.38367E-01 2.32430E+00 7.63001E-13-8.18998E-14
 -1      2948 2.76688E+01 5.56737E+00-1.63349E-01 1.89627E+00 8.40689E-13-2.00034E-13
 -1      2949 1.32474E+01 1.82700E-01 1.05285E-01-5.21843E+00-4.10172E-13-8.45490E-13
 -1      2950 1.62943E+01-7.69272E-01 1.42339E-02-5.13791E+00-3.50442E-13-6.68549E-13
 -1      2951 1.19946E+01-2.01725E+00 1.57088E-01-5.59677E+00 3.93796E-13 6.16174E-13
 -1      2952 1.49759E+01-3.02191E+00 3.20148E-02-6.15580E+00 4.45338E-13 3.83096E-13
 -1      2953 2.28090E+01-2.97681E-01-1.95858E-02-2.07228E-01-1.15590E-13-2.31125E-13
 -1      2954 2.15727E+01-3.16565E-01 1.37160E-02-1.26899E+00-2.57069E-13-2.70125E-13
 -1      2955 2.39317E+01-4.71724E-01-1.06449E-02 5.57100E-01-2.48569E-14-1.08706E-13
 -1      2956 2.51624E+01-1.38509E+00 5.76133E-02-1.39347E+00 3.55653E-14-9.11909E-14
 -1      2957 2.68456E+01-6.10704E-01-1.31064E-01 1.31070E-01 2.65946E-13 3.11140E-14
 -1      2958 2.77726E+01 6.39407E+00-1.40300E-01 1.09894E+00 9.12548E-13-2.89865E-13
 -1      2959 2.79239E+01 6.26525E+00-1.59060E-01 6.50832E-02 9.02695E-13-4.28577E-13
 -1      2960 2.82256E+01 5.17230E+00-1.77989E-01-8.43691E-01 8.06660E-13-5.91652E-13
 -1      2961 2.86718E+01 3.68185E+00-8.01980E-02-1.14518E+00 6.71879E-13-7.12361E-13
 -1      2962 2.85649E+01 1.47561E+00-1.76824E-01-8.46065E-01 4.57703E-13-7.66540E-13
 -1      2963 2.80343E+01-4.88846E-01-1.06521E-02-1.44696E-01 1.77358E-13-7.57991E-13
 -1      2964 1.95684E+01-1.40463E+00 8.74449E-02-4.18906E+00-2.75072E-13-4.69647E-13
 -1      2965 2.23393E+01-1.87645E+00-1.01967E-01-3.15656E+00-1.13715E-13-2.68580E-13
 -1      2966 5.26143E+00 3.47833E+00 1.39300E-01-4.65603E-01-1.34537E-13-1.27243E-12
 -1      2967 5.80100E+00 3.45118E+00 6.66207E-02-2.14569E+00-2.15054E-13-1.21581E-12
 -1      2968 9.93982E+00-1.19879E+00 3.17237E-02 5.04503E+00-4.23356E-13 4.63907E-13
 -1      2969 7.97031E+00-3.09228E-01 1.72730E-01 3.22017E+00-3.04791E-13 6.85341E-13
 -1      2970 9.29737E+00 4.00030E-01 1.70272E-01 2.12114E+00-2.86375E-13 6.22502E-13
 -1      2971 8.06603E+00 2.39151E+00 8.30404E-02 2.71870E+00 1.00760E-13-1.08707E-12
 -1      2972 6.08688E+00 3.20675E+00 1.20911E-01 1.02543E+00 2.29018E-14-1.20798E-12
 -1      2973 2.28454E+01-4.12290E+00-2.34685E-02 4.39219E+00-3.15303E-13-5.08754E-13
 -1      2974 1.99466E+01-3.96022E+00 1.11841E-01 5.65614E+00-4.18443E-13-3.29447E-13
 -1      2975 1.88392E+01-3.23168E+00 8.81780E-02 5.36501E+00-4.72303E-13-2.19141E-13
 -1      2976 3.02851E+01 5.42406E+00-1.76349E-01-2.30299E+00-1.07089E-12 3.09752E-14
 -1      2977 2.93625E+01 5.91027E+00-1.85295E-01-5.48765E-01-1.10020E-12-2.26732E-13
 -1      2978 2.94968E+01 5.80954E+00-1.62119E-01-1.41653E+00-1.07150E-12-1.01190E-13
 -1      2979 2.81780E+01-2.20994E+00-8.18282E-02-9.24311E-02-1.50706E-13-6.30468E-13
 -1      2980 2.88360E+01-8.72509E-01-1.60631E-01 1.01053E+00-3.56687E-13-6.84744E-13
 -1      2981 1.46080E+01-8.15771E-01 2.44636E-02 4.38066E+00 1.55959E-13-7.14095E-13
 -1      2982 1.10275E+01 9.26658E-01 1.95929E-01 3.73428E+00 1.64674E-13-9.70141E-13
 -1      2983 2.32208E+01 1.06327E+00 1.73777E-02 2.16651E+00 3.76202E-13 1.78139E-14
 -1      2984 2.35201E+01 7.55938E-01-1.12695E-02 2.43256E+00 3.66258E-13 7.26268E-14
 -1      2985 2.35735E+01 1.55913E+00 6.42232E-03 2.24511E+00 4.12762E-13-2.69766E-14
 -1      2986 2.23050E+01-2.86390E+00-1.00691E-01 2.70648E+00 2.19269E-14-2.60240E-13
 -1      2987 1.88395E+01-1.92968E+00 1.19650E-01 3.64477E+00 1.57235E-13-4.84404E-13
 -1      2988 2.81453E+01 3.04941E+00-1.98515E-01-3.09030E+00-7.94323E-13 1.96065E-13
 -1      2989 2.90110E+01 5.09786E+00-1.30019E-01-1.83906E+00-9.96536E-13 2.94903E-16
 -1      2990 2.14320E+01-8.76524E-01 3.25439E-03-2.04980E+00-2.73233E-13-2.85654E-13
 -1      2991 2.61791E+01-4.08036E-01-3.67521E-02 1.01705E+00 1.74880E-13 1.02307E-13
 -1      2992 2.73928E+01 2.40955E-01-2.71421E-02 1.34986E+00 3.44304E-13 9.13852E-14
 -1      2993 2.69481E+01 1.02974E+00-1.26523E-01 2.30039E+00 4.38878E-13 1.57194E-13
 -1      2994 1.38093E+01 1.18374E+00 1.33489E-01-4.35026E+00-4.68070E-13-8.02067E-13
 -1      2995 1.06613E+01 1.87373E+00 5.48362E-02-4.35068E+00-4.40294E-13-9.67948E-13
 -1      2996 2.66182E+01 5.47078E+00-1.01736E-01 1.45145E+00 7.92352E-13-2.48940E-13
 -1      2997 2.81322E+01 4.31819E-01-9.65353E-02 1.73819E+00-4.48933E-13-6.59278E-13
 -1      2998 2.81314E+01 4.44091E+00-1.01294E-01-2.24694E+00-9.32809E-13 6.53644E-14
 -1      2999 2.73067E+01 4.59183E+00-1.69011E-01-1.23949E+00-9.66227E-13-4.67751E-14
 -1      3000 2.72743E+01 4.54609E+00-9.57184E-02 7.08418E-02-9.02417E-13-2.46796E-13
 -1      3001 2.75113E+01-1.17418E+00 5.00131E-02-2.62048E+00-2.48841E-13 3.36804E-13
 -1      3002 2.75759E+01-2.02050E+00-1.07544E-01-1.21057E+00-2.63936E-13 1.72251E-13
 -1      3003 2.00000E+01-9.88937E-04-2.42889E-06-7.12609E-04 1.68606E-13 2.45632E-14
 -1      3004 2.00000E+01-8.93691E-04 4.66880E-06-6.66009E-04 1.60078E-13 3.24174E-14
 -1      3005 1.99999E+01-8.05289E-04-1.96632E-06-6.98883E-04 1.09847E-14 4.16712E-13
 -1      3006 2.28729E+01 2.16160E+00 9.11630E-04-1.47996E-01 3.20498E-13-2.73577E-13
 -1      3007 2.40230E+01 8.77345E-01 5.74571E-03 2.75029E+00 3.68655E-13 1.73334E-14
 -1      3008 8.91008E+00 3.52673E-01 1.64699E-01-1.65065E+00 2.97505E-15 7.04714E-13
 -1      3009 1.75795E+01-8.40435E-01 1.47048E-01 3.32860E+00 1.96981E-13-5.63584E-13
 -1      3010 1.99998E+01-7.05233E-04 4.28243E-06-7.13509E-04 8.72612E-14 5.04497E-13
 -1      3011 1.99997E+01-6.06688E-04-2.12954E-06-7.02229E-04 5.98601E-14 4.36186E-13
 -1      3012 1.99997E+01-6.09930E-04-4.50969E-06-7.90546E-04 1.10779E-13 5.11604E-13
 -1      3013 1.99998E+01-8.01099E-04-2.80730E-06-7.96946E-04 1.74126E-14 3.86183E-13
 -1      3014 7.59026E+00 3.04585E+00 1.68093E-01-3.36814E+00-3.56465E-13-1.13917E-12
 -1      3015 2.27108E+01-1.26616E+00 1.51802E-02 7.21856E-01 8.63875E-14-1.59236E-13
 -1      3016 2.41483E+01-1.88348E+00 5.10465E-02 3.63553E-01 2.86854E-14-2.77677E-14
 -1      3017 2.71038E+01-1.50465E+00-4.32560E-02 9.61007E-02 2.30753E-14-7.64319E-13
 -1      3018 2.42151E+01-4.00148E+00-1.31075E-03 3.35577E+00-2.61437E-13-5.07903E-13
 -1      3019 2.24976E+01-3.73784E+00 4.20688E-02 3.83857E+00-3.25646E-13-4.23427E-13
 -1      3020 2.48670E+01-3.39841E+00-1.35139E-03 2.09040E+00-2.15212E-13-5.82277E-13
 -1      3021 1.30923E+01-1.20806E+00 1.43615E-01 4.98921E+00-4.89303E-13 2.91225E-13
 -1      3022 2.41961E+01-2.46614E+00 4.28551E-02 1.08248E+00 3.79835E-14-8.81031E-14
 -1      3023 2.69616E+01 2.58528E+00-4.36606E-02 2.71495E+00 5.58872E-13 5.59414E-14
 -1      3024 2.74655E+01 3.59593E+00-1.18507E-01 2.57624E+00 6.63442E-13-4.48114E-14
 -1      3025 2.63538E+01 3.72344E+00-8.87030E-02 2.58326E+00 6.08846E-13-1.03667E-13
 -1      3026 1.83956E+01-7.38618E-01 6.20829E-02-4.04329E+00-3.75200E-13-5.21399E-13
 -1      3027 2.75385E+01 2.11296E+00-8.92828E-02-1.29160E+00 4.25437E-13-7.79155E-13
 -1      3028 2.72271E+01 5.30229E+00-1.36228E-01-5.20786E-01 7.73548E-13-4.92530E-13
 -1      3029 2.63435E+01 4.26770E+00-7.21179E-02-1.00087E+00 6.33410E-13-5.71394E-13
 -1      3030 2.59211E+01 5.22212E+00-9.84526E-02-1.17346E-01 7.20007E-13-3.61811E-13
 -1      3031 1.19746E+01-1.13922E+00 1.60277E-01-4.76280E+00 2.89282E-13 6.21489E-13
 -1      3032 2.84193E+01 4.93117E+00-1.95468E-01 3.49722E-01-9.90791E-13-3.19252E-13
 -1      3033 2.03100E+01-1.01409E+00-7.92957E-03 1.93747E+00 1.47479E-13-3.16316E-13
 -1      3034 1.78552E+01-3.29353E+00 1.28467E-01-5.75060E+00 4.47170E-13 1.59622E-13
 -1      3035 2.01674E+01-3.62277E+00-1.36957E-03-4.80885E+00 4.49876E-13 2.51361E-15
 -1      3036 1.67937E+01-2.45117E+00 1.01140E-01-5.36141E+00 4.24161E-13 2.15793E-13
 -1      3037 2.38208E+01-1.40026E+00 3.86322E-02-1.60965E+00-1.27696E-13-1.47798E-13
 -1      3038 1.12226E+01 1.51719E+00 1.07182E-01 3.15324E+00 1.82312E-13-8.99752E-13
 -1      3039 9.85270E+00 1.74718E+00 8.99877E-02-4.68166E+00-3.82028E-13-1.02886E-12
 -1      3040 2.70697E+01-3.33324E+00-3.22759E-02-9.13204E-01 5.45952E-14-5.43052E-13
 -1      3041 2.50448E+01-4.27936E+00 5.23582E-02-3.19980E+00 2.75058E-13-2.92183E-13
 -1      3042 2.62364E+01-3.81576E+00-4.26687E-02-2.06035E+00 1.56177E-13-4.32550E-13
 -1      3043 2.55530E+01-3.55219E+00-1.85148E-02-1.50197E+00 9.92661E-14-4.44816E-13
 -1      3044 2.32347E+01-4.10745E+00 2.76919E-02-3.83884E+00 3.10668E-13-1.96284E-13
 -1      3045 2.56116E+01 4.65846E+00-7.70076E-02 1.79449E+00 7.04645E-13-1.78087E-13
 -1      3046 2.56583E+01 5.08443E+00-1.25003E-01 8.28028E-01 7.41920E-13-2.90447E-13
 -1      3047 2.47452E+01 4.44954E-01-3.50620E-02 2.63301E+00 2.62804E-13-8.97173E-14
 -1      3048 2.50065E+01 1.69575E-01 1.37979E-02 2.19844E+00 1.80635E-13-6.09408E-14
 -1      3049 2.44973E+01-3.33769E+00 5.06167E-02-2.06270E+00 2.23609E-13-3.27296E-13
 -1      3050 2.25370E+01-2.65283E+00 5.95559E-03-2.57741E+00 2.36974E-13-1.41072E-13
 -1      3051 2.17870E+01-1.96102E+00 5.20911E-02-2.68981E+00 3.14611E-13-1.35049E-13
 -1      3052 2.11658E+01-1.37647E+00 2.04472E-02-2.56080E+00 2.90824E-13-1.29097E-13
 -1      3053 2.06432E+01-8.50856E-01 2.30534E-02-2.51688E+00 2.59551E-13-1.19588E-13
 -1      3054 2.03124E+01-1.75103E+00-5.68398E-02-3.17787E+00 2.86008E-13-3.79375E-14
 -1      3055 2.03937E+01-4.44401E-01 1.53290E-02-2.30436E+00 1.97247E-13-1.06077E-13
 -1      3056 2.00985E+01-1.09832E-01 6.35457E-03-2.19981E+00 1.09639E-13-1.15864E-13
 -1      3057 1.95820E+01-5.92954E-01-2.63015E-02-2.69298E+00 2.07345E-13-7.50402E-14
 -1      3058 2.00453E+01 1.41188E-01 1.18188E-02-1.99361E+00 1.00425E-13-1.40723E-13
 -1      3059 1.98932E+01 3.19923E-01-5.30192E-05-1.86761E+00 6.52264E-14-6.64607E-14
 -1      3060 1.93557E+01 1.25369E-01-9.45819E-03-2.21248E+00 8.65726E-14-1.01105E-13
 -1      3061 1.99251E+01 4.46379E-01 7.56122E-03-1.69253E+00 2.16489E-14-1.25829E-14
 -1      3062 1.98513E+01 5.23236E-01-2.55410E-03-1.56479E+00 1.02386E-14-1.13911E-14
 -1      3063 1.93638E+01 5.01226E-01-2.40101E-03-1.81183E+00 7.84348E-14-1.29044E-13
 -1      3064 1.99128E+01 5.69642E-01 4.94392E-03-1.41778E+00-1.98681E-14-6.33587E-14
 -1      3065 1.98763E+01 5.85253E-01-3.29872E-03-1.29697E+00-1.05798E-14-8.96696E-14
 -1      3066 1.94649E+01 6.60140E-01 8.13484E-04-1.48649E+00-3.37409E-14-4.51618E-14
 -1      3067 1.99408E+01 5.85337E-01 3.47059E-03-1.17267E+00 5.04408E-14-3.05649E-14
 -1      3068 1.99199E+01 5.67697E-01-3.28905E-03-1.06270E+00-1.31707E-14 5.61336E-14
 -1      3069 1.95887E+01 6.89684E-01 2.00708E-03-1.21816E+00 4.06940E-14-4.76535E-14
 -1      3070 1.99763E+01 5.43910E-01 2.66642E-03-9.57098E-01-9.72446E-14 1.24797E-13
 -1      3071 1.99609E+01 5.10695E-01-2.96889E-03-8.59833E-01-1.43637E-14 1.28310E-13
 -1      3072 1.97035E+01 6.48818E-01 2.18301E-03-9.92733E-01 4.75694E-15 2.89616E-14
 -1      3073 2.00059E+01 4.76809E-01 2.20183E-03-7.70304E-01 7.00034E-14 1.25299E-13
 -1      3074 1.99919E+01 4.38443E-01-2.54106E-03-6.86360E-01 1.34551E-13 1.43080E-13
 -1      3075 1.97975E+01 5.74637E-01 1.91384E-03-8.01656E-01 1.39726E-14 1.01611E-13
 -1      3076 2.00259E+01 4.02321E-01 1.89101E-03-6.11082E-01 7.11288E-14 7.10177E-14
 -1      3077 2.00123E+01 3.64522E-01-2.10026E-03-5.40195E-01 9.98857E-15 4.39349E-14
 -1      3078 1.98689E+01 4.89213E-01 1.50709E-03-6.39889E-01 6.76101E-14 8.32732E-14
 -1      3079 2.00368E+01 3.30296E-01 1.64147E-03-4.77649E-01 4.76326E-14 2.72920E-14
 -1      3080 2.00238E+01 2.95890E-01-1.69436E-03-4.18948E-01 5.80586E-14 8.68341E-14
 -1      3081 1.99205E+01 4.04838E-01 1.10590E-03-5.04066E-01 1.69908E-14 3.65106E-15
 -1      3082 2.00408E+01 2.65453E-01 1.41605E-03-3.67690E-01 8.93030E-15 4.64816E-14
 -1      3083 2.00287E+01 2.35577E-01-1.34219E-03-3.19942E-01-8.06423E-15 3.02265E-14
 -1      3084 1.99561E+01 3.27727E-01 7.65287E-04-3.91409E-01 1.65671E-14-6.22383E-14
 -1      3085 2.00402E+01 2.09559E-01 1.20443E-03-2.78548E-01 1.65655E-15 4.86819E-14
 -1      3086 2.00293E+01 1.84422E-01-1.04689E-03-2.40355E-01 2.75982E-14-3.13693E-14
 -1      3087 1.99796E+01 2.60481E-01 5.02077E-04-2.99280E-01-9.79688E-16 3.28614E-14
 -1      3088 2.00368E+01 1.62788E-01 1.00659E-03-2.07430E-01-4.94205E-15-7.11068E-14
 -1      3089 2.00274E+01 1.42126E-01-8.05162E-04-1.77365E-01-7.12006E-14-2.79875E-14
 -1      3090 1.99944E+01 2.03665E-01 3.09914E-04-2.25074E-01-1.64003E-14-2.98949E-14
 -1      3091 2.00320E+01 1.24511E-01 8.26216E-04-1.51575E-01-9.10376E-14 3.64760E-14
 -1      3092 2.00242E+01 1.07843E-01-6.10983E-04-1.28278E-01 1.53669E-14 4.44523E-14
 -1      3093 2.00033E+01 1.56783E-01 1.75609E-04-1.66222E-01-5.92369E-14 3.72821E-14
 -1      3094 2.00269E+01 9.37456E-02 6.66342E-04-1.08394E-01 1.74439E-13-5.91703E-15
 -1      3095 2.00204E+01 8.05146E-02-4.57178E-04-9.06283E-02 2.14355E-13 8.71572E-14
 -1      3096 2.00080E+01 1.18824E-01 8.59312E-05-1.20277E-01 9.94331E-14 4.73548E-14
 -1      3097 2.00219E+01 6.94074E-02 5.28209E-04-7.55488E-02 7.61360E-14 8.90769E-14
 -1      3098 2.00167E+01 5.90624E-02-3.36904E-04-6.22275E-02-3.83652E-14 4.58588E-14
 -1      3099 2.00101E+01 8.85928E-02 2.87384E-05-8.49855E-02 1.30365E-13 1.32660E-13
 -1      3100 2.00174E+01 5.04403E-02 4.11645E-04-5.09918E-02-8.47329E-14 6.50990E-14
 -1      3101 2.00134E+01 4.24712E-02-2.44012E-04-4.11829E-02-8.40867E-14 1.04624E-14
 -1      3102 2.00106E+01 6.48805E-02-5.66894E-06-5.83343E-02-6.05174E-14 1.79937E-13
 -1      3103 2.00134E+01 3.58777E-02 3.15254E-04-3.29720E-02-1.93228E-13 3.84806E-15
 -1      3104 2.00104E+01 2.98318E-02-1.73311E-04-2.58952E-02-2.48090E-13-1.11852E-14
 -1      3105 2.00101E+01 4.65588E-02-2.46386E-05-3.85720E-02-1.62897E-13 1.94508E-13
 -1      3106 2.00102E+01 2.48674E-02 2.37084E-04-2.00258E-02-1.42072E-13-4.52956E-14
 -1      3107 2.00079E+01 2.03539E-02-1.20277E-04-1.50403E-02-1.20699E-14 7.60484E-14
 -1      3108 2.00091E+01 3.26164E-02-3.38073E-05-2.42103E-02-2.40585E-13 1.80836E-13
 -1      3109 2.00075E+01 1.66779E-02 1.74867E-04-1.09538E-02-1.20615E-14 8.47563E-14
 -1      3110 2.00059E+01 1.33677E-02-8.09970E-05-7.54313E-03 1.69727E-14 1.46202E-13
 -1      3111 2.00079E+01 2.21755E-02-3.65863E-05-1.40131E-02 2.58313E-14 1.38709E-13
 -1      3112 2.00054E+01 1.06968E-02 1.26198E-04-4.79076E-03 6.65972E-14 1.37660E-13
 -1      3113 2.00043E+01 8.31827E-03-5.23360E-05-2.54466E-03-1.13171E-14 1.31513E-13
 -1      3114 2.00066E+01 1.44925E-02-3.55889E-05-6.97362E-03 4.30135E-14 9.65328E-14
 -1      3115 2.00038E+01 6.42005E-03 8.88063E-05-7.71304E-04-1.40202E-13 1.49538E-13
 -1      3116 2.00030E+01 4.75210E-03-3.18153E-05 6.30911E-04-9.87457E-14 2.49049E-13
 -1      3117 2.00054E+01 8.95104E-03-3.25312E-05-2.28516E-03-2.39605E-14 1.85207E-13
 -1      3118 2.00026E+01 3.43880E-03 6.06010E-05 1.70154E-03-1.71183E-13 2.24295E-13
 -1      3119 2.00020E+01 2.30418E-03-1.74643E-05 2.50650E-03-1.66097E-13 2.64211E-13
 -1      3120 2.00043E+01 5.04801E-03-2.85070E-05 6.88145E-04-1.37260E-13 3.51044E-13
 -1      3121 2.00017E+01 1.42628E-03 3.97303E-05 3.08566E-03-1.22303E-13 1.80535E-13
 -1      3122 2.00013E+01 6.84832E-04-7.72169E-06 3.47987E-03-6.47775E-14 1.27948E-13
 -1      3123 2.00034E+01 2.37836E-03-2.42028E-05 2.43876E-03-1.81583E-13 1.84010E-13
 -1      3124 2.00010E+01 1.24941E-04 2.46090E-05 3.72619E-03-8.72397E-14 1.86703E-13
 -1      3125 2.00008E+01-3.32490E-04-1.36431E-06 3.84812E-03-2.91483E-14 2.18145E-13
 -1      3126 2.00026E+01 6.20886E-04-2.00302E-05 3.34140E-03-5.41795E-14 4.34270E-14
 -1      3127 2.00005E+01-6.65154E-04 1.39165E-05 3.87845E-03 1.10635E-13 1.54697E-13
 -1      3128 2.00004E+01-9.22338E-04 2.55308E-06 3.82889E-03 1.39083E-13 2.56614E-13
 -1      3129 2.00019E+01-4.75312E-04-1.62165E-05 3.67601E-03 4.55051E-14 3.22623E-14
 -1      3130 2.00002E+01-1.09693E-03 6.57616E-06 3.72744E-03 7.06813E-14 2.72431E-13
 -1      3131 2.00001E+01-1.21716E-03 4.75073E-06 3.57800E-03 1.45403E-13 1.73591E-13
 -1      3132 2.00014E+01-1.10332E-03-1.28682E-05 3.64755E-03 1.37041E-13-4.64781E-14
 -1      3133 1.99999E+01-1.28554E-03 1.72854E-06 3.40392E-03 2.10622E-13 1.59454E-13
 -1      3134 1.99999E+01-1.31586E-03 5.76836E-06 3.20406E-03 1.55816E-13 9.55692E-14
 -1      3135 2.00010E+01-1.40943E-03-1.00167E-05 3.40269E-03 8.03829E-14 8.89896E-14
 -1      3136 1.99998E+01-1.31632E-03-1.29936E-06 2.99753E-03 1.37077E-13 5.51180E-14
 -1      3137 1.99998E+01-1.29115E-03 6.00305E-06 2.78011E-03 9.56480E-14 1.25909E-13
 -1      3138 2.00006E+01-1.50274E-03-7.64959E-06 3.04355E-03 1.00440E-13-2.06147E-15
 -1      3139 1.99997E+01-1.25146E-03-3.02769E-06 2.56725E-03-1.06091E-13 1.98944E-13
 -1      3140 1.99998E+01-1.19554E-03 5.74021E-06 2.35292E-03-5.16401E-14 1.15348E-13
 -1      3141 2.00004E+01-1.46332E-03-5.72975E-06 2.63870E-03 1.03803E-13-1.19200E-13
 -1      3142 1.99997E+01-1.13554E-03-3.86031E-06 2.14959E-03-2.86224E-14-9.03388E-15
 -1      3143 1.99997E+01-1.06637E-03 5.19491E-06 1.95019E-03-7.36856E-14-1.23434E-13
 -1      3144 2.00002E+01-1.34888E-03-4.21617E-06 2.23191E-03-1.57278E-13-7.65271E-14
 -1      3145 1.99996E+01-1.00006E-03-4.09667E-06 1.76517E-03-5.79483E-14-3.42203E-13
 -1      3146 1.99997E+01-9.30413E-04 4.33067E-06 1.58639E-03-3.68045E-14-2.73675E-13
 -1      3147 2.00000E+01-1.20030E-03-3.11305E-06 1.84914E-03-1.60175E-13-2.84201E-13
 -1      3148 1.99996E+01-8.65361E-04-3.23888E-06 1.42221E-03-7.43016E-14-3.32550E-13
 -1      3149 1.99997E+01-8.03282E-04 4.70565E-06 1.26755E-03-3.19074E-13-3.20261E-13
 -1      3150 1.99999E+01-1.04745E-03-2.84506E-06 1.50360E-03-1.78360E-13-5.18159E-13
 -1      3151 1.99997E+01-7.52096E-04-3.45853E-06 1.12183E-03-3.97453E-13-2.18022E-13
 -1      3152 1.99997E+01-7.02253E-04 1.90447E-06 9.86150E-04-3.97063E-13-1.81490E-13
 -1      3153 1.99999E+01-9.13532E-04-4.32460E-06 1.19879E-03-3.18526E-13-2.91578E-13
 -1      3154 2.29448E+01-1.38270E+00 9.96321E-03-1.97407E-01 5.59058E-15-3.54656E-13
 -1      3155 2.31368E+01-1.32630E+00-9.09652E-03-5.01417E-01 2.13748E-14-3.78115E-13
 -1      3156 2.34992E+01-1.13534E+00-7.70000E-03-8.94258E-01 2.24530E-14-4.19167E-13
 -1      3157 2.36114E+01-7.53700E-01-8.75633E-04-1.16048E+00 7.56019E-14-4.22513E-13
 -1      3158 2.36144E+01-1.47575E+00 3.91199E-03-4.72606E-01 1.64560E-15-4.23846E-13
 -1      3159 2.16613E+01-8.45607E-01 1.30054E-02 7.24344E-01 5.62305E-15-2.46498E-13
 -1      3160 2.18813E+01-1.03803E+00-7.04553E-03 5.65841E-01 3.13664E-14-2.27592E-13
 -1      3161 2.11739E+01-4.85694E-01 9.50629E-03 8.96537E-01 7.71542E-14-2.30166E-13
 -1      3162 2.13602E+01-6.64941E-01-3.25722E-03 8.14866E-01 4.01939E-14-2.16811E-13
 -1      3163 2.13170E+01-8.71272E-01-1.30723E-02 9.90644E-01 3.04466E-14-2.94346E-13
 -1      3164 2.08180E+01-1.94897E-01 6.07290E-03 9.39472E-01 6.67716E-14-2.52069E-13
 -1      3165 2.09649E+01-3.32776E-01-8.19977E-04 9.15218E-01 9.34215E-14-2.11979E-13
 -1      3166 2.08436E+01-4.61991E-01-1.00876E-02 1.06945E+00 8.91034E-14-2.66577E-13
 -1      3167 2.05707E+01 8.45937E-03 3.42950E-03 9.01000E-01 8.07945E-14-2.57718E-13
 -1      3168 2.06826E+01-8.41757E-02 5.89116E-04 9.14866E-01 6.22462E-14-2.75043E-13
 -1      3169 2.05265E+01-1.47480E-01-6.92562E-03 1.04185E+00 6.47197E-14-2.92200E-13
 -1      3170 2.04029E+01 1.33307E-01 1.61522E-03 8.16746E-01 9.90737E-15-8.84148E-14
 -1      3171 2.04873E+01 7.89761E-02 1.31374E-03 8.53220E-01 7.76228E-14-1.42960E-13
 -1      3172 2.03254E+01 6.40658E-02-4.38083E-03 9.55368E-01 1.41904E-14-1.20860E-13
 -1      3173 2.02895E+01 1.97797E-01 4.61546E-04 7.11020E-01 2.92595E-14 6.72766E-14
 -1      3174 2.03537E+01 1.71886E-01 1.63616E-03 7.58780E-01 2.63594E-14-3.75967E-14
 -1      3175 2.02027E+01 1.88665E-01-2.62435E-03 8.40825E-01-1.84517E-14 1.06967E-13
 -1      3176 2.02121E+01 2.20407E-01-2.07946E-04 5.99640E-01 2.66263E-15 3.36222E-14
 -1      3177 2.02616E+01 2.13667E-01 1.73581E-03 6.50941E-01 2.75352E-14 6.28547E-14
 -1      3178 2.01298E+01 2.48727E-01-1.51435E-03 7.17321E-01 3.05090E-14 1.49347E-13
 -1      3179 2.01582E+01 2.16492E-01-5.48650E-04 4.92409E-01-2.04195E-15 4.69420E-14
 -1      3180 2.01968E+01 2.21535E-01 1.70773E-03 5.42293E-01-2.14956E-14 6.20468E-14
 -1      3181 2.00872E+01 2.65105E-01-8.48160E-04 5.96408E-01-7.31279E-15 1.60631E-13
 -1      3182 2.01195E+01 1.97519E-01-6.82408E-04 3.94906E-01-6.51706E-14 2.50212E-14
 -1      3183 2.01500E+01 2.08970E-01 1.60010E-03 4.40485E-01-2.77641E-14 3.47837E-14
 -1      3184 2.00623E+01 2.54449E-01-4.72201E-04 4.84783E-01-5.29208E-14 9.78119E-14
 -1      3185 2.00909E+01 1.71397E-01-6.93522E-04 3.09818E-01-1.13847E-13-4.73224E-14
 -1      3186 2.01151E+01 1.85626E-01 1.44599E-03 3.49660E-01-4.58753E-14-2.22784E-14
 -1      3187 2.00473E+01 2.28924E-01-2.73736E-04 3.85893E-01-4.06033E-14 1.11383E-13
 -1      3188 2.00693E+01 1.43236E-01-6.37812E-04 2.37926E-01-1.51436E-13-2.61765E-15
 -1      3189 2.00885E+01 1.57943E-01 1.26828E-03 2.71576E-01-1.48600E-13 1.21064E-14
 -1      3190 2.00378E+01 1.96808E-01-1.73580E-04 3.01051E-01-1.13497E-13 8.38779E-14
 -1      3191 2.00527E+01 1.16106E-01-5.51129E-04 1.78809E-01-1.37666E-13 9.72493E-15
 -1      3192 2.00678E+01 1.29945E-01 1.08327E-03 2.06433E-01-1.40178E-13 1.49733E-14
 -1      3193 2.00311E+01 1.63378E-01-1.26293E-04 2.30197E-01-1.35517E-13 1.03665E-13
 -1      3194 2.00398E+01 9.16646E-02-4.55475E-04 1.31342E-01-1.76664E-13 3.43836E-14
 -1      3195 2.00516E+01 1.03941E-01 9.03459E-04 1.53464E-01-1.59715E-13-4.20125E-14
 -1      3196 2.00259E+01 1.31760E-01-1.05192E-04 1.72408E-01-1.56937E-13 1.03511E-13
 -1      3197 2.00297E+01 7.06333E-02-3.63314E-04 9.40604E-02-1.78904E-13 6.30480E-14
 -1      3198 2.00389E+01 8.10779E-02 7.37446E-04 1.11376E-01-2.08707E-13 7.01914E-14
 -1      3199 2.00217E+01 1.03591E-01-9.53972E-05 1.26280E-01-1.78522E-13-4.40261E-15
 -1      3200 2.00219E+01 5.31570E-02-2.80982E-04 6.53930E-02-1.10572E-13 2.70835E-14
 -1      3201 2.00288E+01 6.17585E-02 5.89885E-04 7.86527E-02-1.17687E-13 3.87180E-14
 -1      3202 2.00181E+01 7.95349E-02-8.88337E-05 9.02074E-02-1.25705E-13-2.70614E-15
 -1      3203 2.00158E+01 3.90457E-02-2.11029E-04 4.38153E-02-1.36230E-13 8.06510E-14
 -1      3204 2.00210E+01 4.59379E-02 4.62650E-04 5.37474E-02-9.78221E-14 1.94806E-14
 -1      3205 2.00149E+01 5.96554E-02-8.22777E-05 6.25633E-02-1.00410E-13-6.53987E-14
 -1      3206 2.00112E+01 2.79339E-02-1.54043E-04 2.79327E-02-7.02622E-14 1.50397E-14
 -1      3207 2.00150E+01 3.33237E-02 3.55757E-04 3.52015E-02-1.23456E-13 4.65780E-14
 -1      3208 2.00120E+01 4.36728E-02-7.50550E-05 4.18117E-02-1.63690E-13-9.53969E-14
 -1      3209 2.00077E+01 1.93836E-02-1.09060E-04 1.65254E-02 1.27972E-13 9.16657E-14
 -1      3210 2.00104E+01 2.35038E-02 2.68123E-04 2.17097E-02-1.33143E-14 6.79102E-14
 -1      3211 2.00096E+01 3.11324E-02-6.71220E-05 2.65708E-02-9.08676E-14-1.99250E-13
 -1      3212 2.00050E+01 1.29502E-02-7.45016E-05 8.56296E-03 2.40098E-13 1.02812E-13
 -1      3213 2.00070E+01 1.60298E-02 1.97823E-04 1.21500E-02 2.16395E-13 1.13169E-13
 -1      3214 2.00075E+01 2.15132E-02-5.86003E-05 1.56460E-02 1.08900E-13 4.80690E-15
 -1      3215 2.00031E+01 8.22099E-03-4.86048E-05 3.19771E-03-2.09665E-14 2.68612E-13
 -1      3216 2.00045E+01 1.04687E-02 1.42520E-04 5.58680E-03 1.46080E-13 2.01785E-13
 -1      3217 2.00058E+01 1.42972E-02-5.00134E-05 8.03552E-03 1.45324E-13 3.84076E-13
 -1      3218 2.00018E+01 4.83194E-03-2.97001E-05-2.51976E-04-1.34778E-13 4.29239E-13
 -1      3219 2.00026E+01 6.42968E-03 9.98739E-05 1.25888E-03-8.46826E-15 3.24719E-13
 -1      3220 2.00044E+01 9.00889E-03-4.18094E-05 2.91877E-03-1.02543E-13 3.82939E-13
 -1      3221 2.00008E+01 2.47397E-03-1.62976E-05-2.32259E-03-1.94672E-13 2.44952E-13
 -1      3222 2.00013E+01 3.57479E-03 6.76540E-05-1.43956E-03-1.48872E-13 3.52240E-13
 -1      3223 2.00032E+01 5.23189E-03-3.42708E-05-3.62120E-04-1.04718E-13 2.21878E-13
 -1      3224 2.00002E+01 8.92185E-04-7.11686E-06-3.42766E-03-1.40482E-13 1.68274E-13
 -1      3225 2.00005E+01 1.62134E-03 4.38227E-05-2.98040E-03-1.92896E-13 2.16085E-13
 -1      3226 2.00023E+01 2.61438E-03-2.75630E-05-2.32360E-03-1.36153E-13 1.48634E-13
 -1      3227 1.99998E+01-1.18302E-04-1.09565E-06-3.87937E-03-1.50287E-13 2.44048E-13
 -1      3228 1.99999E+01 3.39172E-04 2.65988E-05-3.72367E-03-1.31165E-13 2.57193E-13
 -1      3229 2.00016E+01 8.67297E-04-2.17581E-05-3.36289E-03-1.62702E-13 1.85415E-13
 -1      3230 1.99995E+01-7.18589E-04 2.61993E-06-3.90835E-03-1.51054E-13 8.51248E-14
 -1      3231 1.99995E+01-4.54656E-04 1.44767E-05-3.93832E-03-1.22217E-13 1.66056E-13
 -1      3232 2.00010E+01-2.40993E-04-1.68560E-05-3.77934E-03-8.11736E-14 2.18371E-13
 -1      3233 1.99994E+01-1.03274E-03 4.69775E-06-3.68105E-03 1.18235E-13 5.07648E-15
 -1      3234 1.99994E+01-9.02524E-04 6.21754E-06-3.82082E-03-1.57604E-14 6.84281E-14
 -1      3235 2.00006E+01-8.92114E-04-1.28061E-05-3.79380E-03 1.63845E-14 1.20108E-13
 -1      3236 1.99993E+01-1.15445E-03 5.64699E-06-3.31428E-03 4.67274E-14 1.39940E-13
 -1      3237 1.99993E+01-1.11303E-03 8.25468E-07-3.51107E-03 6.06760E-15 4.97245E-14
 -1      3238 2.00003E+01-1.22560E-03-9.52717E-06-3.56536E-03 7.87511E-14 5.72532E-14
 -1      3239 1.99993E+01-1.15317E-03 5.84504E-06-2.88725E-03 1.41600E-14 2.79421E-13
 -1      3240 1.99992E+01-1.16743E-03-2.48195E-06-3.10570E-03 4.74841E-14 2.83630E-13
 -1      3241 2.00001E+01-1.34663E-03-6.92469E-06-3.20556E-03-4.85228E-14 2.61026E-13
 -1      3242 1.99994E+01-1.07943E-03 5.56949E-06-2.45113E-03-1.32433E-13 4.18089E-13
 -1      3243 1.99993E+01-1.12543E-03-4.31001E-06-2.66881E-03 1.57770E-14 3.10364E-13
 -1      3244 2.00000E+01-1.33297E-03-4.90146E-06-2.78983E-03-2.60609E-14 4.31030E-13
 -1      3245 1.99994E+01-9.69350E-04 5.01032E-06-2.03670E-03-2.37403E-13 3.75942E-13
 -1      3246 1.99993E+01-1.03005E-03-5.11154E-06-2.24054E-03-1.47917E-13 3.60044E-13
 -1      3247 1.99999E+01-1.24111E-03-3.36113E-06-2.36682E-03-1.40384E-13 7.54215E-13
 -1      3248 1.99995E+01-8.48362E-04 4.34892E-06-1.66008E-03-1.07774E-13 4.00443E-13
 -1      3249 1.99994E+01-9.11893E-04-5.23323E-06-1.84368E-03-2.46942E-13 3.06615E-13
 -1      3250 1.99998E+01-1.11136E-03-2.22340E-06-1.96570E-03-3.25548E-13 5.57737E-13
 -1      3251 1.99995E+01-7.34209E-04 3.50418E-06-1.32756E-03 6.27737E-14 5.61819E-13
 -1      3252 1.99994E+01-7.92083E-04-4.86779E-06-1.48884E-03 1.13064E-14 5.24983E-13
 -1      3253 1.99997E+01-9.71592E-04-1.28860E-06-1.60139E-03-1.01476E-13 4.88956E-13
 -1      3254 1.99996E+01-6.41367E-04 9.76823E-07-1.03936E-03 3.07592E-13 5.60580E-13
 -1      3255 1.99995E+01-6.85199E-04-4.09610E-06-1.17811E-03 2.47744E-13 6.38766E-13
 -1      3256 1.99997E+01-8.42686E-04-8.14247E-07-1.28030E-03 9.58949E-14 5.71605E-13
 -1      3257 1.99997E+01-6.20146E-04-9.07132E-07-8.63926E-04 2.86928E-14 6.28013E-13
 -1      3258 1.99996E+01-6.27235E-04-3.82639E-06-9.57568E-04 1.66831E-13 6.22399E-13
 -1      3259 1.99997E+01-7.59297E-04 5.98630E-07-1.04668E-03 1.56651E-13 6.82884E-13
 -1      3260 1.99998E+01-7.12694E-04 4.29630E-06-8.84326E-04 4.89563E-14 5.37591E-13
 -1      3261 2.39220E+01 2.17102E+00 4.01208E-03 2.25764E+00 4.57873E-13-5.16696E-14
 -1      3262 2.41738E+01 1.56407E+00-5.18865E-02 2.64454E+00 4.23090E-13-4.19751E-14
 -1      3263 1.99997E+01-6.43456E-04-9.56552E-07 8.52779E-04-2.48964E-13-1.94944E-14
 -1      3264 2.00003E+01-1.17856E-03-1.47842E-06 6.50777E-04 1.33803E-13 8.12846E-14
 -1      3265 2.00004E+01-1.23873E-03 4.72649E-06 5.35908E-04 2.56013E-14 1.21381E-13
 -1      3266 2.00005E+01-1.35362E-03 1.98483E-06 7.77167E-05-2.06579E-13-2.75796E-13
 -1      3267 2.00005E+01-1.35381E-03 1.98542E-06-7.28062E-05-2.38577E-13-2.62567E-13
 -1      3268 2.66251E+01-8.50900E-01-1.27311E-01-7.60400E-01 1.14905E-13-7.71952E-13
 -1      3269 2.61490E+01-2.20690E+00-2.11251E-03 3.32688E-01-5.17052E-14-7.11726E-13
 -1      3270 2.37232E+01 3.33681E+00-4.42917E-02 9.19486E-01 5.09797E-13-2.44242E-13
 -1      3271 2.39335E+01 3.06415E+00-4.69633E-02 1.57148E+00 5.25038E-13-1.52552E-13
 -1      3272 1.49410E+01-1.47750E+00 2.98947E-02 4.98110E+00-4.86895E-13 1.10342E-13
 -1      3273 1.22641E+01-2.46218E-01 1.38205E-01 4.09649E+00-4.28990E-13 3.39964E-13
 -1      3274 2.37306E+01-1.92891E-01-3.11714E-02-1.45496E+00 1.11027E-13-4.71034E-13
 -1      3275 2.37049E+01 4.55447E-01-7.80866E-03-1.45473E+00 1.80231E-13-4.66896E-13
 -1      3276 2.42025E+01-6.23598E-01 7.53715E-03-1.23127E+00 6.35577E-14-5.10757E-13
 -1      3277 2.22751E+01-1.20039E+00 1.43268E-02 3.69398E-01 1.05338E-14-2.48256E-13
 -1      3278 2.25038E+01-1.33330E+00-1.09422E-02 1.25164E-01 2.76996E-14-2.73144E-13
 -1      3279 2.27856E+01-1.61953E+00-1.09952E-02 2.51738E-01-3.50298E-14-3.08173E-13
 -1      3280 2.19729E+01-1.31191E+00-1.43282E-02 7.40787E-01-5.20840E-15-1.61301E-13
 -1      3281 2.00001E+01-9.97962E-04-3.94403E-06 8.35668E-04 1.17041E-13 1.18325E-13
 -1      3282 2.00002E+01-1.07980E-03 5.35195E-06 7.63990E-04 1.20599E-13 1.79321E-13
 -1      3283 2.00003E+01-1.19723E-03-2.60443E-06 7.83826E-04-6.71631E-14 9.42019E-14
 -1      3284 2.40097E+01 2.98880E+00-6.06499E-02-6.77005E-01 4.20367E-13-4.31809E-13
 -1      3285 2.39826E+01 3.42565E+00-4.04567E-02 2.26609E-03 4.91301E-13-3.73075E-13
 -1      3286 2.39340E+01 1.28382E+00-3.47304E-02-1.50069E+00 2.54305E-13-4.90750E-13
 -1      3287 2.38021E+01 2.03205E+00-9.90791E-03-1.11308E+00 3.10856E-13-4.64502E-13
 -1      3288 2.51243E+01 3.13277E+00-7.38117E-02-1.18473E+00 4.77882E-13-5.61211E-13
 -1      3289 2.46092E+01 8.80042E-01-4.53866E-02-1.56869E+00 2.14984E-13-5.63046E-13
 -1      3290 2.64654E+01 2.61079E+00-1.44497E-01-1.46007E+00 4.55705E-13-6.68590E-13
 -1      3291 2.67259E+01 1.16657E+00-2.13384E-03-1.44524E+00 2.79138E-13-7.68573E-13
 -1      3292 1.15845E+01-3.48518E-01 1.06561E-01-3.94520E+00 1.85865E-13 5.96759E-13
 -1      3293 1.37115E+01-1.26174E+00 5.28324E-02-4.88594E+00 3.10862E-13 4.52194E-13
 -1      3294 1.38197E+01 9.18084E-01 3.56292E-03 3.19806E+00 2.18062E-13-6.87644E-13
 -1      3295 1.04703E+01 3.47883E-01 4.70369E-02 2.87739E+00-3.54404E-13 4.71775E-13
 -1      3296 9.84628E+00 8.19325E-01 9.41515E-02 1.18157E+00-2.79827E-13 5.93761E-13
 -1      3297 2.02382E+01-3.33226E+00-1.62725E-02 4.66397E+00-3.67789E-13-3.14283E-13
 -1      3298 1.79346E+01-2.44179E+00 7.54488E-02 5.00496E+00-4.20969E-13-1.64674E-13
 -1      3299 9.68479E+00 8.41763E-01 1.02517E-01-8.14225E-01-1.46201E-13 6.08874E-13
 -1      3300 1.02273E+01 3.30891E-01 1.02633E-01-2.73211E+00 7.59462E-15 6.41973E-13
 -1      3301 2.46778E+01 5.79538E-01-1.51769E-02 2.85447E+00 2.87113E-13-2.73445E-14
 -1      3302 2.00004E+01-1.30110E-03 2.00902E-07 3.86382E-04-3.40926E-14 1.23278E-13
 -1      3303 2.00005E+01-1.33223E-03 3.46980E-06 2.47370E-04-1.15708E-13-1.17827E-13
 -1      3304 2.00006E+01-1.42471E-03-3.79532E-06 1.78526E-04-1.00631E-13-1.42761E-13
 -1      3305 2.00005E+01-1.34703E-03-3.80727E-06 5.10202E-04 1.18161E-14 2.16679E-13
 -1      3306 1.69279E+01 2.28978E-01 6.27434E-02 2.55294E+00 2.00812E-13-5.29056E-13
 -1      3307 2.54895E+01-8.66866E-01 1.13292E-03 5.06454E-01 2.80019E-14 2.31273E-14
 -1      3308 2.57414E+01-1.96583E-01-3.03849E-02 1.57950E+00 1.52379E-13 9.94621E-14
 -1      3309 1.51643E+01 7.06112E-01 3.56017E-02-4.21978E+00-4.60645E-13-7.00724E-13
 -1      3310 1.39689E+01 4.60082E-01 1.05920E-01-4.84886E+00-4.52624E-13-8.04079E-13
 -1      3311 2.27266E+01-3.28259E+00-1.37025E-02-3.07496E+00 3.00888E-13-1.36630E-13
 -1      3312 2.00002E+01-1.07924E-03 4.97403E-06-7.62563E-04 1.83146E-13-5.51516E-14
 -1      3313 2.00001E+01-9.93875E-04-1.66937E-06-8.34107E-04 6.24050E-14 2.61824E-13
 -1      3314 2.65450E+01-2.02731E+00-9.57325E-02-1.48263E+00-1.20570E-13 2.26793E-13
 -1      3315 2.45692E+01 9.78156E-01-6.37735E-04 2.77232E+00 3.49370E-13-1.59048E-14
 -1      3316 1.99999E+01-8.59358E-04 3.84646E-06 9.14876E-04-1.54339E-13 6.33971E-15
 -1      3317 2.00000E+01-9.72839E-04 2.13553E-06 9.83924E-04-1.20535E-13-1.45351E-13
 -1      3318 2.46675E+01 3.28304E+00-4.38158E-02 2.09425E+00 5.61103E-13-1.01221E-13
 -1      3319 1.99998E+01-7.76379E-04-1.99461E-06 9.24246E-04-2.82806E-13-1.53768E-13
 -1      3320 2.00006E+01-1.42518E-03-4.11973E-06-1.74650E-04-3.69496E-13-2.43339E-13
 -1      3321 2.00005E+01-1.33257E-03 3.46104E-06-2.43964E-04-2.74261E-13-2.11509E-13
 -1      3322 2.00004E+01-1.30091E-03 2.36111E-07-3.85338E-04-2.19736E-13 1.82521E-14
 -1      3323 2.52828E+01-2.21812E+00-2.16885E-02 1.37665E-01-4.13610E-14-6.61207E-13
 -1      3324 2.53986E+01-3.02548E+00-3.17752E-02 1.10693E+00-1.33723E-13-6.40696E-13
 -1      3325 2.41384E+01-3.17527E+00 5.83605E-03 1.81684E+00-1.79664E-13-5.58459E-13
 -1      3326 2.50424E+01 1.35407E+00-4.49251E-03 2.81731E+00 3.69136E-13-7.95544E-15
 -1      3327 1.26646E+01 2.30958E-01 1.15466E-01 3.19935E+00-3.43121E-13 3.58623E-13
 -1      3328 1.73486E+01-2.77098E-01 8.23827E-02-4.10712E+00-4.18887E-13-5.74860E-13
 -1      3329 1.05299E+01 1.03206E+00 1.18816E-01 1.21069E-01-1.62944E-13 5.77136E-13
 -1      3330 1.13950E+01 1.01358E+00 1.97266E-02-9.75515E-01-9.98489E-14 4.60604E-13
 -1      3331 1.16364E+01 1.10955E+00 8.06428E-02 8.19241E-01-1.92668E-13 4.82843E-13
 -1      3332 2.64283E+01 1.49351E+00-7.09212E-02 2.53034E+00 4.30482E-13 5.84324E-14
 -1      3333 2.51081E+01 4.47080E+00-7.03013E-02 2.97423E-01 6.47218E-13-3.58377E-13
 -1      3334 2.16016E+01-3.25026E+00 2.76912E-02 3.72820E+00-3.29153E-13-3.90892E-13
 -1      3335 2.46908E+01-4.64585E-01-6.44373E-02 1.31005E+00 5.63476E-14-7.32279E-14
 -1      3336 2.43023E+01-7.70705E-01 2.05332E-02 2.27652E-01-6.17891E-14-8.11486E-14
 -1      3337 2.44178E+01-1.12451E+00-6.22331E-02-3.72231E-01-5.64514E-14-4.04069E-14
 -1      3338 1.22869E+01 2.39124E-01 1.36937E-01-3.01006E+00 3.76955E-14 4.95048E-13
 -1      3339 1.13978E+01 5.67608E-01 6.92999E-02-5.28450E+00-4.00749E-13-9.33351E-13
 -1      3340 1.59659E+01-1.67370E+00 1.23243E-01-4.93278E+00 3.75630E-13 2.87319E-13
 -1      3341 1.79178E+01-2.19848E+00-9.95369E-03-4.60580E+00 3.66061E-13 1.50414E-13
 -1      3342 1.52554E+01-9.33819E-01 4.26063E-02-4.30957E+00 2.33813E-13 2.55726E-13
 -1      3343 2.59698E+01-8.85426E-02-6.18971E-02-1.16365E+00 1.59074E-13-6.87173E-13
 -1      3344 1.68672E+01-1.76598E+00 6.15040E-02 4.80200E+00-4.39152E-13-1.96787E-14
 -1      3345 1.57954E+01-8.22317E-01 5.03964E-02 4.14367E+00-4.40464E-13 1.06914E-13
 -1      3346 1.83764E+01-1.87280E+00 1.93847E-02 4.12415E+00-3.79352E-13-1.00310E-13
 -1      3347 2.54264E+01 3.28198E+00-9.48460E-02 2.49032E+00 5.71505E-13-8.05918E-14
 -1      3348 2.00004E+01-1.23832E-03 4.69912E-06-5.36069E-04-9.76334E-14-2.74200E-13
 -1      3349 2.00003E+01-1.17795E-03-1.57579E-06-6.50778E-04 1.62850E-13-2.71550E-13
 -1      3350 2.00003E+01-1.19677E-03-3.31278E-06-7.82879E-04 4.15161E-14-1.62401E-13
 -1      3351 2.00005E+01-1.34711E-03-3.89509E-06-5.08851E-04-1.13539E-13-2.94158E-13
 -1      3352 2.52347E+01-8.23906E-03-1.84436E-02 1.95155E+00 1.80661E-13 6.78277E-16
 -1      3353 2.12865E+01-3.23793E+00 5.83449E-02-4.13880E+00 3.58422E-13-2.45706E-14
 -1      3354 2.46353E+01-2.21988E+00 5.30910E-02 5.02649E-01 1.09426E-14-3.42955E-14
 -1      3355 1.38842E+01-1.10303E-03 2.82452E-04 3.43034E+00-3.48056E-13 2.58016E-13
 -1      3356 1.26180E+01 7.56393E-01 6.46709E-02 2.28552E+00-2.81671E-13 4.00062E-13
 -1      3357 2.68173E+01-2.20303E+00 4.06037E-02-9.67077E-01-1.40311E-13 1.43011E-13
 -1      3358 2.02298E+01-1.13595E-02 3.54609E-03 1.12133E+00 3.19552E-15-8.17761E-14
 -1      3359 2.03584E+01-1.47552E-01 3.59494E-03 1.16280E+00 1.28563E-13-1.00163E-13
 -1      3360 2.00004E+01-1.22244E-03 1.15342E-06 9.23303E-04-7.93573E-14-8.40700E-14
 -1      3361 2.00005E+01-1.30688E-03 5.93824E-06 8.09391E-04-2.90403E-14 3.16465E-14
 -1      3362 1.87840E+01-4.28860E-01 3.49239E-02-2.87768E+00 2.32415E-13 6.90767E-15
 -1      3363 1.84961E+01-2.05778E-02-1.52586E-04-2.60589E+00 1.31764E-13-1.75246E-14
 -1      3364 1.86840E+01 2.76057E-01 2.00255E-02-2.26243E+00 8.79622E-14-3.20385E-14
 -1      3365 1.86161E+01 4.81730E-01-8.20487E-03-2.03877E+00 6.47077E-14-4.13853E-14
 -1      3366 1.77259E+01 3.71816E-01 6.59523E-03-2.41542E+00 8.13056E-14-5.05312E-14
 -1      3367 1.88281E+01 6.35562E-01 1.09237E-02-1.80080E+00 4.27233E-14-9.59046E-14
 -1      3368 1.88465E+01 7.23473E-01-8.12829E-03-1.62575E+00 4.65800E-14-9.25923E-14
 -1      3369 1.81212E+01 7.48534E-01 5.91317E-03-1.83407E+00 3.69788E-14-5.39120E-15
 -1      3370 1.90407E+01 7.81365E-01 5.64493E-03-1.45550E+00 1.29208E-14-4.36908E-14
 -1      3371 1.90916E+01 7.99100E-01-6.81255E-03-1.31526E+00 3.19769E-15-4.35289E-14
 -1      3372 1.85130E+01 8.99305E-01 6.09974E-03-1.43876E+00 3.22851E-14-5.45411E-14
 -1      3373 1.92558E+01 8.00800E-01 3.00852E-03-1.18671E+00 1.98085E-14-2.93093E-14
 -1      3374 1.93119E+01 7.79148E-01-5.49444E-03-1.07065E+00 6.54126E-14-4.84374E-14
 -1      3375 1.88556E+01 9.17669E-01 5.66507E-03-1.15524E+00 3.45019E-14-5.72827E-15
 -1      3376 1.94450E+01 7.50468E-01 1.75591E-03-9.68453E-01 6.16714E-14-1.04374E-13
 -1      3377 1.94944E+01 7.09095E-01-4.42346E-03-8.70288E-01 3.94398E-15-5.10636E-14
 -1      3378 1.91386E+01 8.62216E-01 4.88172E-03-9.38346E-01 1.64790E-14-5.25568E-14
 -1      3379 1.95992E+01 6.66322E-01 1.19890E-03-7.86174E-01-2.69254E-14 7.94144E-14
 -1      3380 1.96382E+01 6.17360E-01-3.57445E-03-7.02538E-01 4.29615E-14 4.30390E-14
 -1      3381 1.93643E+01 7.69747E-01 3.98382E-03-7.63359E-01 7.31638E-14-5.96869E-14
 -1      3382 1.97191E+01 5.70306E-01 9.71413E-04-6.32161E-01 4.83808E-14 1.28256E-13
 -1      3383 1.97477E+01 5.20863E-01-2.88199E-03-5.61171E-01 4.95410E-14 5.48476E-14
 -1      3384 1.95396E+01 6.63213E-01 3.13752E-03-6.17594E-01 7.03569E-14 7.47241E-14
 -1      3385 1.98089E+01 4.75066E-01 8.73829E-04-5.02164E-01 1.77925E-14 2.54444E-14
 -1      3386 1.98287E+01 4.29009E-01-2.31432E-03-4.42534E-01 1.07756E-14 2.48674E-14
 -1      3387 1.96729E+01 5.56322E-01 2.40940E-03-4.94664E-01 1.32871E-14 5.74396E-14
 -1      3388 1.98744E+01 3.87326E-01 8.10624E-04-3.93383E-01 5.71548E-14 1.16002E-14
 -1      3389 1.98873E+01 3.46472E-01-1.84806E-03-3.43972E-01 3.67754E-14-3.54797E-14
 -1      3390 1.97724E+01 4.56712E-01 1.80342E-03-3.91133E-01 3.59591E-14 7.32705E-15
 -1      3391 1.99210E+01 3.10086E-01 7.47380E-04-3.03504E-01-2.64695E-14-5.48933E-14
 -1      3392 1.99289E+01 2.75031E-01-1.46318E-03-2.63187E-01 3.71954E-15-1.00415E-13
 -1      3393 1.98456E+01 3.68121E-01 1.32545E-03-3.04722E-01 2.06917E-15-7.44437E-14
 -1      3394 1.99533E+01 2.44200E-01 6.72547E-04-2.30353E-01-4.03504E-14-5.67167E-14
 -1      3395 1.99577E+01 2.14871E-01-1.14598E-03-1.97976E-01-7.76528E-14-8.17457E-14
 -1      3396 1.98984E+01 2.91824E-01 9.56872E-04-2.33594E-01-1.75164E-14-1.50803E-13
 -1      3397 1.99751E+01 1.89340E-01 5.88862E-04-1.71751E-01-8.07793E-14 1.77411E-14
 -1      3398 1.99773E+01 1.65294E-01-8.87100E-04-1.46162E-01-8.64309E-15 8.08644E-14
 -1      3399 1.99360E+01 2.27742E-01 6.78499E-04-1.75963E-01-4.93008E-14-6.25239E-14
 -1      3400 1.99894E+01 1.44544E-01 5.02647E-04-1.25551E-01 5.70922E-15 5.96373E-14
 -1      3401 1.99901E+01 1.25166E-01-6.77899E-04-1.05655E-01 1.39185E-13 5.07435E-14
 -1      3402 1.99622E+01 1.75002E-01 4.71309E-04-1.30026E-01-1.16822E-14 1.60445E-13
 -1      3403 1.99984E+01 1.08578E-01 4.18890E-04-8.97292E-02 1.86250E-13 2.34947E-15
 -1      3404 1.99982E+01 9.32076E-02-5.10551E-04-7.45159E-02 7.59287E-14 2.53187E-14
 -1      3405 1.99801E+01 1.32351E-01 3.20653E-04-9.40254E-02 1.02773E-13 3.08779E-14
 -1      3406 2.00038E+01 8.01517E-02 3.41804E-04-6.24262E-02 3.47488E-14 1.18558E-13
 -1      3407 2.00031E+01 6.81463E-02-3.78284E-04-5.09961E-02 2.54942E-14 1.74642E-13
 -1      3408 1.99918E+01 9.84077E-02 2.11339E-04-6.63017E-02 1.08230E-13-4.44773E-14
 -1      3409 2.00066E+01 5.80249E-02 2.73274E-04-4.19896E-02-9.64809E-14 8.13009E-14
 -1      3410 2.00057E+01 4.87909E-02-2.75336E-04-3.35640E-02-2.70753E-13 1.15077E-13
 -1      3411 1.99993E+01 7.18142E-02 1.35093E-04-4.53360E-02-6.67087E-14-5.67531E-14
 -1      3412 2.00078E+01 4.10659E-02 2.13968E-04-2.69908E-02-3.17475E-13 8.77434E-14
 -1      3413 2.00068E+01 3.40746E-02-1.96616E-04-2.09096E-02-1.41836E-13 1.30727E-13
 -1      3414 2.00038E+01 5.12952E-02 8.10596E-05-2.97867E-02-2.43686E-13 4.10450E-14
 -1      3415 2.00080E+01 2.82718E-02 1.64303E-04-1.62235E-02-7.53120E-14 1.02308E-13
 -1      3416 2.00071E+01 2.30660E-02-1.37078E-04-1.19422E-02 5.94027E-14 3.33473E-14
 -1      3417 2.00061E+01 3.57138E-02 4.43700E-05-1.84964E-02-9.23019E-14 1.74165E-13
 -1      3418 2.00076E+01 1.87831E-02 1.23590E-04-8.69496E-03 7.49905E-14-6.06049E-14
 -1      3419 2.00067E+01 1.49792E-02-9.26057E-05-5.77130E-03-9.03433E-14-7.22230E-14
 -1      3420 2.00071E+01 2.40753E-02 1.98766E-05-1.05001E-02-2.55991E-14 7.51957E-14
 -1      3421 2.00068E+01 1.18808E-02 9.10256E-05-3.59967E-03 1.02975E-14-2.67276E-14
 -1      3422 2.00061E+01 9.16078E-03-5.99687E-05-1.68041E-03 6.92199E-14 6.33772E-14
 -1      3423 2.00073E+01 1.55423E-02 4.11660E-06-5.00364E-03-2.27951E-14-1.13230E-13
 -1      3424 2.00059E+01 6.97127E-03 6.55214E-05-2.96195E-04-8.44485E-14 1.19416E-13
 -1      3425 2.00053E+01 5.07612E-03-3.65169E-05 8.95540E-04-1.51215E-13 9.66701E-14
 -1      3426 2.00069E+01 9.41801E-03-5.46639E-06-1.36678E-03 6.75871E-15-9.41791E-14
 -1      3427 2.00049E+01 3.57265E-03 4.59236E-05 1.71662E-03-3.43251E-13 1.59615E-13
 -1      3428 2.00044E+01 2.29459E-03-2.00770E-05 2.39410E-03-2.64606E-13 6.83492E-14
 -1      3429 2.00062E+01 5.13215E-03-1.07854E-05 9.16237E-04-2.35493E-13-1.20201E-13
 -1      3430 2.00040E+01 1.29988E-03 3.11485E-05 2.82334E-03-1.42593E-13 4.73122E-14
 -1      3431 2.00036E+01 4.74879E-04-8.89865E-06 3.14793E-03-3.82965E-14 1.55080E-14
 -1      3432 2.00053E+01 2.22572E-03-1.32406E-05 2.23720E-03-2.07877E-13 5.50045E-14
 -1      3433 2.00032E+01-1.49995E-04 2.02312E-05 3.31373E-03-3.26469E-14-1.47131E-14
 -1      3434 2.00029E+01-6.49446E-04-1.59837E-06 3.40520E-03 9.33344E-14-9.19847E-14
 -1      3435 2.00045E+01 3.35241E-04-1.38382E-05 2.89403E-03-6.72542E-14 1.07796E-14
 -1      3436 2.00025E+01-1.01166E-03 1.23417E-05 3.40186E-03 1.57542E-13-1.80737E-13
 -1      3437 2.00023E+01-1.28314E-03 2.90061E-06 3.34728E-03 1.19480E-13-2.09605E-13
 -1      3438 2.00037E+01-8.22618E-04-1.32908E-05 3.10893E-03 7.29259E-14-1.12297E-13
 -1      3439 2.00019E+01-1.46409E-03 6.78559E-06 3.24247E-03 8.55020E-14-1.51930E-13
 -1      3440 2.00017E+01-1.58109E-03 5.42492E-06 3.10362E-03 3.97656E-14-1.11232E-13
 -1      3441 2.00029E+01-1.46530E-03-1.20930E-05 3.04420E-03 9.98954E-14-3.22268E-13
 -1      3442 2.00014E+01-1.64162E-03 2.99762E-06 2.94461E-03 1.48233E-13-2.57134E-15
 -1      3443 2.00013E+01-1.65860E-03 6.59592E-06 2.76401E-03 3.03169E-13 1.05760E-13
 -1      3444 2.00023E+01-1.75701E-03-1.05802E-05 2.81554E-03 2.04920E-13-1.25158E-13
 -1      3445 2.00010E+01-1.64347E-03 5.29902E-07 2.58269E-03 4.77954E-14-2.03223E-14
 -1      3446 2.00009E+01-1.60014E-03 6.87063E-06 2.38845E-03-2.22934E-14-7.03719E-14
 -1      3447 2.00017E+01-1.81983E-03-8.98302E-06 2.50311E-03 6.95281E-14 1.95208E-13
 -1      3448 2.00007E+01-1.54168E-03-9.77783E-07 2.20525E-03-5.65130E-14-1.31056E-13
 -1      3449 2.00006E+01-1.46641E-03 6.57116E-06 2.01492E-03-2.68091E-13-1.47506E-13
 -1      3450 2.00012E+01-1.74300E-03-7.44225E-06 2.16031E-03-1.30946E-13-1.91659E-13
 -1      3451 2.00004E+01-1.38760E-03-1.83850E-06 1.84201E-03-2.62024E-13-5.58335E-14
 -1      3452 2.00003E+01-1.30044E-03 5.61999E-06 1.66564E-03-2.23169E-13-1.75036E-13
 -1      3453 2.00009E+01-1.59053E-03-6.08951E-06 1.82077E-03-2.57367E-13-2.19517E-13
 -1      3454 2.00002E+01-1.21682E-03-2.13459E-06 1.50899E-03-2.18593E-13-1.93783E-13
 -1      3455 2.00002E+01-1.13463E-03 4.76909E-06 1.34958E-03-2.83379E-13-2.79378E-13
 -1      3456 2.00006E+01-1.40843E-03-4.60571E-06 1.50451E-03-2.67609E-13-8.62267E-14
 -1      3457 2.00001E+01-1.03849E-03 3.96067E-07 1.11445E-03-1.84490E-13-3.05598E-13
 -1      3458 2.05005E+01-3.12452E-01 7.27070E-03 1.23385E+00 9.60082E-14-1.63896E-13
 -1      3459 2.06952E+01-5.13343E-01 3.20151E-03 1.24211E+00-1.75185E-15-1.82422E-13
 -1      3460 2.01344E+01-2.11318E-01-9.79711E-03 1.32947E+00 5.95290E-14-1.13585E-13
 -1      3461 2.09475E+01-7.39564E-01 1.29037E-02 1.27827E+00 2.16070E-14-2.44584E-13
 -1      3462 2.12234E+01-1.00002E+00 1.20015E-03 1.22654E+00 3.91473E-14-1.99772E-13
 -1      3463 2.04935E+01-6.52098E-01-1.50005E-02 1.47259E+00 2.03987E-14-1.44754E-13
 -1      3464 2.00784E+01 1.77149E-01 1.29661E-03 9.81380E-01-7.72460E-14 2.27235E-14
 -1      3465 2.01597E+01 9.54563E-02 3.29490E-03 1.03902E+00-5.99166E-14-6.49220E-14
 -1      3466 1.99433E+01 8.43802E-02-5.69519E-03 1.15514E+00-3.74041E-14 3.17344E-14
 -1      3467 2.00020E+01 2.78626E-01-2.94372E-05 8.35912E-01 1.33189E-15 2.70920E-14
 -1      3468 2.00519E+01 2.37599E-01 2.76885E-03 8.99350E-01-2.33247E-14 4.35514E-14
 -1      3469 1.98575E+01 2.60191E-01-3.00898E-03 9.79443E-01-5.86552E-14 1.04552E-14
 -1      3470 1.99697E+01 3.18775E-01-7.47502E-04 6.96419E-01-2.02935E-14 1.71777E-13
 -1      3471 1.99999E+01 3.05659E-01 2.26618E-03 7.59441E-01 3.09727E-14 1.04858E-13
 -1      3472 1.98330E+01 3.47672E-01-1.39958E-03 8.15291E-01-9.18335E-15-8.11117E-14
 -1      3473 1.99615E+01 3.19000E-01-1.07706E-03 5.68922E-01-2.27999E-14 1.36004E-13
 -1      3474 1.99799E+01 3.23565E-01 1.86904E-03 6.27848E-01-3.93712E-14 1.29793E-13
 -1      3475 1.98414E+01 3.74842E-01-4.76329E-04 6.67772E-01-4.81262E-14 5.77321E-14
 -1      3476 1.99651E+01 2.95635E-01-1.17339E-03 4.56308E-01-8.14699E-14 1.57517E-13
 -1      3477 1.99768E+01 3.10260E-01 1.55666E-03 5.09136E-01-2.69320E-14 1.15908E-13
 -1      3478 1.98649E+01 3.63866E-01 2.08910E-05 5.38625E-01-1.33652E-14 2.10715E-15
 -1      3479 1.99734E+01 2.60232E-01-1.13551E-03 3.59463E-01-6.95980E-16 7.01028E-14
 -1      3480 1.99812E+01 2.79650E-01 1.30718E-03 4.05321E-01-2.20837E-15 1.14769E-13
 -1      3481 1.98931E+01 3.31113E-01 2.41672E-04 4.27858E-01-3.24511E-14 6.43015E-14
 -1      3482 1.99826E+01 2.20438E-01-1.02540E-03 2.78098E-01-9.98078E-14-2.12043E-14
 -1      3483 1.99882E+01 2.41215E-01 1.10282E-03 3.16836E-01-3.98787E-14-1.54167E-14
 -1      3484 1.99205E+01 2.87980E-01 3.18364E-04 3.34533E-01 2.60144E-14-9.94051E-14
 -1      3485 1.99907E+01 1.81061E-01-8.83123E-04 2.11182E-01-1.41579E-13-7.17315E-14
 -1      3486 1.99951E+01 2.01085E-01 9.25852E-04 2.43134E-01-1.76017E-13-3.17680E-14
 -1      3487 1.99443E+01 2.41880E-01 3.14922E-04 2.57287E-01-1.09392E-13-1.74461E-13
 -1      3488 1.99972E+01 1.44856E-01-7.33503E-04 1.57229E-01-1.28617E-13 2.11006E-14
 -1      3489 2.00007E+01 1.62961E-01 7.69906E-04 1.83020E-01-1.38863E-13-7.67832E-15
 -1      3490 1.99636E+01 1.97416E-01 2.72679E-04 1.94452E-01-1.56471E-13-2.04490E-13
 -1      3491 2.00017E+01 1.13166E-01-5.91546E-04 1.14539E-01-1.69944E-13-2.70808E-14
 -1      3492 2.00048E+01 1.28826E-01 6.32836E-04 1.34940E-01-1.58183E-13 2.85188E-14
 -1      3493 1.99784E+01 1.57149E-01 2.16094E-04 1.44198E-01-1.32358E-13-4.45921E-14
 -1      3494 2.00047E+01 8.64204E-02-4.64609E-04 8.13902E-02-1.40269E-13 5.00560E-14
 -1      3495 2.00073E+01 9.95149E-02 5.13643E-04 9.72104E-02-1.23748E-13 4.65425E-14
 -1      3496 1.99892E+01 1.22252E-01 1.60417E-04 1.04679E-01-1.35629E-13-2.35419E-15
 -1      3497 2.00064E+01 6.45088E-02-3.55610E-04 5.61357E-02-5.37011E-14 7.90822E-14
 -1      3498 2.00086E+01 7.51546E-02 4.11055E-04 6.81616E-02-6.80307E-14 3.69544E-14
 -1      3499 1.99968E+01 9.30085E-02 1.11901E-04 7.41404E-02-1.03644E-13-4.60020E-14
 -1      3500 2.00071E+01 4.70102E-02-2.65823E-04 3.72745E-02 7.87928E-15-1.73721E-13
 -1      3501 2.00090E+01 5.54542E-02 3.23686E-04 4.62290E-02-4.83182E-15 3.25146E-15
 -1      3502 2.00016E+01 6.91800E-02 7.26227E-05 5.09662E-02 4.22212E-14-1.02207E-13
 -1      3503 2.00071E+01 3.33544E-02-1.93858E-04 2.34854E-02-6.13505E-14-2.60279E-13
 -1      3504 2.00086E+01 3.99033E-02 2.50685E-04 3.00060E-02-3.69235E-14-2.38669E-13
 -1      3505 2.00046E+01 5.02329E-02 4.18087E-05 3.37145E-02 2.74989E-14-1.55758E-13
 -1      3506 2.00066E+01 2.29258E-02-1.37568E-04 1.36462E-02 6.43766E-14-8.08536E-14
 -1      3507 2.00079E+01 2.78968E-02 1.90916E-04 1.82749E-02-7.92620E-14-2.52044E-13
 -1      3508 2.00061E+01 3.55009E-02 1.96777E-05 2.11369E-02-3.99072E-14-3.02019E-13
 -1      3509 2.00059E+01 1.51345E-02-9.44428E-05 6.82617E-03-3.28568E-14 2.41968E-13
 -1      3510 2.00070E+01 1.88250E-02 1.42652E-04 1.00131E-02 3.06129E-14 7.31252E-14
 -1      3511 2.00066E+01 2.42873E-02 4.48870E-06 1.21871E-02-9.92265E-14-3.67308E-13
 -1      3512 2.00051E+01 9.44802E-03-6.21400E-05 2.26788E-03-1.28483E-13 2.02010E-13
 -1      3513 2.00060E+01 1.21230E-02 1.04385E-04 4.37862E-03 4.37380E-14 3.15718E-13
 -1      3514 2.00065E+01 1.59362E-02-5.37661E-06 6.00186E-03-7.24403E-14 9.23906E-14
 -1      3515 2.00043E+01 5.40438E-03-3.85407E-05-6.32384E-04-2.42072E-14 2.32418E-14
 -1      3516 2.00050E+01 7.29147E-03 7.46167E-05 6.92776E-04-8.94512E-14 9.68346E-14
 -1      3517 2.00061E+01 9.86152E-03-1.11955E-05 1.88168E-03-5.46807E-14 2.71305E-14
 -1      3518 2.00035E+01 2.61606E-03-2.17667E-05-2.34604E-03-1.90469E-13-3.99817E-14
 -1      3519 2.00040E+01 3.90469E-03 5.18721E-05-1.58017E-03-1.29980E-13 1.13266E-14
 -1      3520 2.00054E+01 5.55796E-03-1.40860E-05-7.28509E-04-2.78106E-14-1.22618E-13
 -1      3521 2.00028E+01 7.66561E-04-1.02187E-05-3.23406E-03-2.11273E-13 5.04635E-14
 -1      3522 2.00032E+01 1.61035E-03 3.48128E-05-2.85477E-03-1.98004E-13 2.43849E-14
 -1      3523 2.00046E+01 2.60357E-03-1.49670E-05-2.26065E-03-2.28804E-13-1.54457E-13
 -1      3524 2.00022E+01-3.96544E-04-2.58171E-06-3.56745E-03-5.23821E-14 8.97423E-14
 -1      3525 2.00025E+01 1.24174E-04 2.22729E-05-3.44553E-03-1.23482E-13 6.29914E-14
 -1      3526 2.00038E+01 6.55146E-04-1.45492E-05-3.04456E-03-1.51014E-13-1.14890E-13
 -1      3527 2.00016E+01-1.07042E-03 2.19564E-06-3.54537E-03 2.32341E-14-2.03722E-14
 -1      3528 2.00019E+01-7.78191E-04 1.32630E-05-3.58631E-03-7.31386E-14-1.08104E-14
 -1      3529 2.00031E+01-5.60137E-04-1.33589E-05-3.32731E-03-5.39331E-14-1.44939E-13
 -1      3530 2.00012E+01-1.40602E-03 4.93577E-06-3.31080E-03 7.76951E-14 1.89954E-13
 -1      3531 2.00013E+01-1.27026E-03 6.96205E-06-3.44712E-03 4.47322E-14 1.09492E-13
 -1      3532 2.00024E+01-1.25476E-03-1.17706E-05-3.29010E-03-4.08595E-14 3.60326E-14
 -1      3533 2.00008E+01-1.51680E-03 6.26697E-06-2.96354E-03-1.08058E-13 3.13896E-13
 -1      3534 2.00009E+01-1.48367E-03 2.70420E-06-3.14847E-03-3.70905E-15 3.36629E-13
 -1      3535 2.00019E+01-1.59100E-03-1.00401E-05-3.06275E-03-5.57150E-14 4.23306E-13
 -1      3536 2.00006E+01-1.48644E-03 6.65116E-06-2.57074E-03-2.09522E-14 4.88169E-13
 -1      3537 2.00006E+01-1.51641E-03-3.61948E-08-2.77314E-03-8.66032E-15 3.41939E-13
 -1      3538 2.00014E+01-1.69054E-03-8.33973E-06-2.73566E-03-8.49502E-14 4.73501E-13
 -1      3539 2.00003E+01-1.37553E-03 6.44308E-06-2.17535E-03-2.63780E-13 5.02648E-13
 -1      3540 2.00004E+01-1.44020E-03-1.68548E-06-2.37559E-03-1.24574E-13 4.26284E-13
 -1      3541 2.00010E+01-1.64298E-03-6.77742E-06-2.36951E-03-9.83016E-15 4.84121E-13
 -1      3542 2.00002E+01-1.22691E-03 5.99785E-06-1.80280E-03-2.38186E-13 3.36712E-13
 -1      3543 2.00002E+01-1.30636E-03-2.56509E-06-1.98961E-03-2.45314E-13 4.07125E-13
 -1      3544 2.00007E+01-1.51278E-03-5.35207E-06-2.00291E-03-1.36691E-13 2.36402E-13
 -1      3545 2.00000E+01-1.07136E-03 5.34108E-06-1.46568E-03-1.28098E-13 3.96745E-13
 -1      3546 2.00000E+01-1.15233E-03-3.29076E-06-1.63456E-03-2.41592E-13 3.00549E-13
 -1      3547 2.00004E+01-1.34497E-03-3.86667E-06-1.65924E-03-2.70455E-13 9.30117E-14
 -1      3548 1.99999E+01-9.30984E-04 2.76314E-06-1.17074E-03 1.50970E-13 4.50531E-13
 -1      3549 1.99999E+01-9.99004E-04-2.80346E-06-1.31802E-03 1.15092E-13 4.70286E-13
 -1      3550 2.00002E+01-1.17155E-03-1.13391E-06-1.35056E-03-1.05283E-13 1.30730E-13
 -1      3551 2.00000E+01-8.98036E-04 4.39441E-06-8.66702E-04 9.67516E-14 4.36995E-13
 -1      3552 1.99999E+01-8.10362E-04-2.46994E-07-8.84095E-04 1.05926E-13 4.14374E-13
 -1      3553 1.99999E+01-8.32652E-04-1.01950E-06-9.62425E-04 2.01049E-14 5.20713E-13
 -1      3554 2.00001E+01-1.01500E-03-1.55235E-06-9.30182E-04 1.65943E-13 3.03439E-13
 -1      3555 2.26022E+01-1.10658E+00 8.51172E-02-1.74755E+00-2.40183E-13-2.11324E-13
 -1      3556 2.00775E+01-1.17474E+00-3.81223E-02-3.36028E+00-3.30277E-13-3.87638E-13
 -1      3557 2.36683E+01-2.00539E+00 1.61928E-02 1.63093E-01-1.02812E-13-4.38247E-13
 -1      3558 2.40233E+01-1.81871E+00-6.65687E-03-2.34585E-01-6.50823E-14-5.00030E-13
 -1      3559 2.56631E+01 2.99835E+00-8.16733E-02-1.26499E+00 4.66578E-13-5.71120E-13
 -1      3560 2.58548E+01 3.82807E-01-2.12968E-02 2.46341E+00 2.76093E-13 6.21725E-14
 -1      3561 2.27651E+01-3.29202E+00-2.18595E-02 2.83172E+00-2.94136E-13-4.77989E-13
 -1      3562 2.08653E+01-2.72377E+00 1.54390E-02 3.53857E+00-3.24340E-13-3.67271E-13
 -1      3563 2.56276E+01 1.56394E+00-6.38649E-02 2.84738E+00 4.15161E-13 8.12891E-15
 -1      3564 1.25674E+01 7.84419E-01 8.60276E-02-2.27647E+00 3.03126E-14 3.87725E-13
 -1      3565 1.37094E+01 1.37995E-01 6.62294E-02-3.40107E+00 1.43895E-13 3.53766E-13
 -1      3566 2.00003E+01-1.20388E-03-2.08706E-06 1.11748E-03-1.34793E-13-1.41922E-13
 -1      3567 2.45408E+01-1.21154E+00-3.29669E-02-9.56229E-01 9.69960E-15-5.36954E-13
 -1      3568 2.47503E+01-3.49154E-01 6.21241E-03-1.33646E+00 9.95315E-14-5.69884E-13
 -1      3569 2.50785E+01 4.42736E-01-3.93340E-02-1.42003E+00 1.72529E-13-5.91641E-13
 -1      3570 2.46406E+01-1.75456E+00-9.33126E-03-3.34035E-01-4.06008E-14-6.12380E-13
 -1      3571 2.01295E+01-2.47051E+00 9.75239E-02-4.14302E+00 3.26857E-13 4.74690E-14
 -1      3572 1.55584E+01-2.51353E-01 3.88064E-02 3.40725E+00-3.69626E-13 1.16879E-13
 -1      3573 2.00007E+01-1.43982E-03-2.28218E-07 7.96818E-04-8.34848E-14 2.92618E-13
 -1      3574 2.00006E+01-1.40229E-03-2.32981E-06 6.42852E-04-3.72281E-14 2.52407E-13
 -1      3575 2.00007E+01-1.45313E-03 3.43235E-06 4.86872E-04-6.40322E-14 4.20017E-14
 -1      3576 2.10972E+01-2.32614E+00 1.56797E-02 2.91121E+00-2.79773E-13-4.70636E-13
 -1      3577 1.99154E+01-2.24276E+00 3.61574E-02 3.73327E+00-3.01518E-13-2.59526E-13
 -1      3578 1.87762E+01-1.59767E+00-1.70876E-03 3.59541E+00-3.21635E-13-1.67229E-13
 -1      3579 2.00005E+01-1.30995E-03 4.89858E-06-8.08107E-04-1.72313E-13-3.30331E-13
 -1      3580 2.00004E+01-1.22558E-03-2.43224E-06-9.28520E-04-5.82122E-14-6.38136E-14
 -1      3581 2.25571E+01-1.77566E+00 2.32134E-02 8.51371E-01-9.04858E-14-2.86475E-13
 -1      3582 2.29583E+01-1.95437E+00-1.24162E-02 5.78762E-01-7.92411E-14-3.36265E-13
 -1      3583 2.32789E+01-2.31870E+00-2.56708E-02 8.61888E-01-1.38920E-13-4.96960E-13
 -1      3584 1.99998E+01-8.54155E-04-7.86281E-07-1.04596E-03 8.92878E-14 5.49413E-13
 -1      3585 1.92228E+01-1.92086E+00 4.46204E-02-3.95288E+00 2.63775E-13 1.06967E-13
 -1      3586 2.00008E+01-1.51879E-03 1.91937E-06-1.04132E-04-1.96798E-13-2.40746E-13
 -1      3587 2.00008E+01-1.49743E-03 1.40769E-06-2.83314E-04-2.10984E-13-3.18917E-13
 -1      3588 2.56391E+01-1.19103E+00 1.46134E-02-8.73628E-01 4.97311E-14-6.72504E-13
 -1      3589 2.49854E+01-1.91851E+00-1.79929E-02-1.66455E-01-1.24724E-14-6.27963E-13
 -1      3590 2.34280E+01-2.88538E+00 6.82129E-03 1.78429E+00-2.39206E-13-5.32664E-13
 -1      3591 1.26390E+01 1.07251E+00 6.49712E-02 1.48520E+00-1.88704E-13 4.13235E-13
 -1      3592 1.28731E+01 1.20144E+00-6.73327E-03 4.97369E-01-5.13695E-14 3.35204E-13
 -1      3593 1.39155E+01 9.28699E-01 3.44359E-02 1.76204E+00-1.90721E-13 2.92995E-13
 -1      3594 2.54351E+01 1.82328E+00-1.16070E-02-1.64602E+00 3.27266E-13-6.36179E-13
 -1      3595 2.16269E+01-1.26583E+00 1.97668E-02 1.18439E+00-2.08621E-14-2.07975E-13
 -1      3596 2.19848E+01-1.54468E+00-3.82458E-03 1.03676E+00-3.19072E-14-2.26082E-13
 -1      3597 2.20133E+01-1.86533E+00-2.40760E-02 1.37177E+00-8.21144E-14-3.50316E-13
 -1      3598 2.11009E+01-1.23014E+00-1.87199E-02 1.52292E+00 2.16719E-14-2.48767E-13
 -1      3599 1.55000E+01-3.29493E-01 6.48078E-02-3.54610E+00 1.75592E-13 2.46640E-13
 -1      3600 2.54113E+01 1.68392E-01-8.99334E-02-1.38574E+00 1.69892E-13-6.25257E-13
 -1      3601 2.00003E+01-1.22650E-03-3.26893E-06-1.09115E-03-1.72002E-13 1.35299E-14
 -1      3602 2.00002E+01-1.08939E-03 3.31568E-06-1.04305E-03-5.68891E-15 1.94266E-13
 -1      3603 2.00000E+01-1.00511E-03-1.95713E-06-1.07946E-03 4.71053E-14 3.54179E-13
 -1      3604 1.86413E+01-1.16783E+00 2.79053E-02-3.57834E+00 2.78556E-13 9.89742E-14
 -1      3605 1.29637E+01 9.87026E-01 5.80611E-02-1.46051E+00 5.70585E-14 3.56652E-13
 -1      3606 2.53889E+01 2.52727E+00-1.83137E-02 2.83832E+00 4.93591E-13-6.64746E-15
 -1      3607 1.72696E+01-5.89137E-01 6.69135E-03-3.52521E+00 1.97458E-13 1.09510E-13
 -1      3608 2.00008E+01-1.51544E-03 2.66640E-06 1.08660E-04-1.51706E-13-2.36907E-13
 -1      3609 2.00010E+01-1.61574E-03-2.15364E-06 1.57070E-06-8.27298E-14-1.19269E-13
 -1      3610 2.00008E+01-1.49749E-03 1.02925E-06 2.84193E-04-1.39349E-13-1.52189E-13
 -1      3611 2.00009E+01-1.57048E-03-2.52215E-06-4.20710E-04-1.39563E-13-3.46237E-13
 -1      3612 2.00007E+01-1.45330E-03 3.38662E-06-4.83722E-04-1.37602E-13-2.21747E-13
 -1      3613 2.00006E+01-1.39751E-03-4.24494E-07-6.42241E-04-1.28229E-13-2.87954E-13
 -1      3614 2.00005E+01-1.33131E-03-1.81427E-06 1.14863E-03-2.44324E-13-1.10566E-13
 -1      3615 1.68392E+01 5.94125E-01 2.39125E-02-2.25475E+00 1.09828E-13 9.15259E-14
 -1      3616 1.69749E+01 7.62394E-01-2.26882E-02-1.93220E+00 5.29984E-14 6.79134E-14
 -1      3617 1.96360E+01 3.80316E-01-1.29621E-03 9.36917E-01-5.79271E-14 1.18356E-13
 -1      3618 1.96669E+01 3.27378E-01 4.43245E-03 1.02474E+00-9.30233E-14 6.42499E-14
 -1      3619 2.00007E+01-1.44292E-03-3.58895E-06-7.95808E-04-1.78694E-13-2.81265E-13
 -1      3620 1.74675E+01 9.00440E-01 8.54120E-03-1.67241E+00 3.91837E-14 3.72660E-14
 -1      3621 1.76577E+01 9.68328E-01-1.64621E-02-1.45815E+00-8.64998E-15 4.47400E-14
 -1      3622 1.66585E+01 1.09205E+00 2.47859E-02-1.50327E+00 1.01145E-14 9.69160E-14
 -1      3623 1.80278E+01 1.01563E+00 3.08488E-03-1.29420E+00 8.35681E-15 1.97281E-14
 -1      3624 1.82062E+01 1.02145E+00-1.14292E-02-1.14664E+00 6.93033E-14 4.43839E-14
 -1      3625 1.74615E+01 1.16252E+00 1.51658E-02-1.13028E+00 1.67971E-14 1.96440E-14
 -1      3626 1.84871E+01 1.01552E+00 7.10846E-04-1.03597E+00 6.30735E-14 9.50864E-15
 -1      3627 1.86407E+01 9.85640E-01-7.91860E-03-9.26717E-01 5.54497E-14 3.62058E-14
 -1      3628 1.80759E+01 1.13797E+00 1.08856E-02-8.94161E-01 6.43149E-14 4.24986E-14
 -1      3629 1.88556E+01 9.49689E-01-1.85757E-04-8.44966E-01-2.57693E-15 3.77565E-15
 -1      3630 1.89811E+01 9.00601E-01-5.68686E-03-7.58360E-01-4.91865E-15-1.76537E-14
 -1      3631 1.85473E+01 1.05792E+00 8.19212E-03-7.30093E-01 2.23143E-14-6.12258E-14
 -1      3632 1.91463E+01 8.49567E-01-4.49824E-04-6.93219E-01 7.45358E-14-3.97634E-14
 -1      3633 1.92453E+01 7.92167E-01-4.28130E-03-6.21255E-01 1.17614E-13-3.90187E-15
 -1      3634 1.89107E+01 9.47394E-01 6.15879E-03-6.04168E-01 2.83087E-14-4.67467E-14
 -1      3635 1.93721E+01 7.35766E-01-4.01317E-04-5.66789E-01 1.38335E-13-1.74573E-14
 -1      3636 1.94482E+01 6.77077E-01-3.30444E-03-5.05585E-01 9.69311E-14 6.24106E-15
 -1      3637 1.91907E+01 8.24365E-01 4.73258E-03-5.00160E-01 1.39003E-13-1.09920E-13
 -1      3638 1.95453E+01 6.21175E-01-2.45857E-04-4.59053E-01 7.01795E-15 3.22693E-14
 -1      3639 1.96025E+01 5.65426E-01-2.60333E-03-4.06831E-01-5.19577E-15 6.49380E-15
 -1      3640 1.94055E+01 7.00331E-01 3.63494E-03-4.10725E-01 6.26434E-14-2.29118E-14
 -1      3641 1.96763E+01 5.13527E-01-9.23527E-05-3.67036E-01-3.09325E-14-6.53865E-15
 -1      3642 1.97185E+01 4.63083E-01-2.07693E-03-3.22773E-01-2.92154E-14-4.41563E-14
 -1      3643 1.95692E+01 5.82845E-01 2.76328E-03-3.32993E-01-2.33480E-14-1.58132E-14
 -1      3644 1.97742E+01 4.16853E-01 3.78612E-05-2.89011E-01-4.02959E-14-9.67041E-14
 -1      3645 1.98047E+01 3.72680E-01-1.65778E-03-2.52007E-01-3.86223E-14-1.55447E-13
 -1      3646 1.96930E+01 4.76446E-01 2.11071E-03-2.65714E-01-8.09864E-14-2.89422E-14
 -1      3647 1.98463E+01 3.32744E-01 1.23031E-04-2.23840E-01-1.60245E-16-1.71233E-13
 -1      3648 1.98680E+01 2.95086E-01-1.31432E-03-1.93407E-01 2.46453E-14-1.99518E-13
 -1      3649 1.97856E+01 3.82927E-01 1.59520E-03-2.08387E-01-3.27724E-14-8.19860E-14
 -1      3650 1.98987E+01 2.61428E-01 1.71047E-04-1.70323E-01 6.91950E-14-1.56536E-13
 -1      3651 1.99138E+01 2.30025E-01-1.03091E-03-1.45719E-01 6.57388E-14-3.34149E-14
 -1      3652 1.98540E+01 3.02886E-01 1.19814E-03-1.60471E-01 3.54304E-14-1.16063E-13
 -1      3653 1.99361E+01 2.02233E-01 1.90163E-04-1.27141E-01-1.41554E-14 8.64009E-14
 -1      3654 1.99464E+01 1.76526E-01-7.99029E-04-1.07588E-01 7.80184E-14 1.09747E-13
 -1      3655 1.99039E+01 2.35876E-01 8.94823E-04-1.21193E-01 1.31031E-13 7.18361E-14
 -1      3656 1.99623E+01 1.53966E-01 1.87989E-04-9.29162E-02 9.48569E-14 8.60066E-14
 -1      3657 1.99691E+01 1.33275E-01-6.11208E-04-7.76578E-02 8.31747E-14 8.51759E-14
 -1      3658 1.99396E+01 1.80797E-01 6.55856E-04-8.96097E-02 1.46284E-13 6.32380E-14
 -1      3659 1.99803E+01 1.15276E-01 1.73531E-04-6.62895E-02 1.30036E-13 6.92482E-14
 -1      3660 1.99845E+01 9.88893E-02-4.60640E-04-5.45872E-02 1.06707E-13 1.04262E-13
 -1      3661 1.99647E+01 1.36301E-01 4.70349E-04-6.47274E-02 9.47823E-14 8.04616E-14
 -1      3662 1.99921E+01 8.47416E-02 1.54019E-04-4.59448E-02-1.94899E-15 7.68526E-14
 -1      3663 1.99947E+01 7.19634E-02-3.40864E-04-3.71432E-02-1.60562E-13 5.80241E-15
 -1      3664 1.99818E+01 1.00962E-01 3.35271E-04-4.54842E-02 6.23970E-14 1.33383E-13
 -1      3665 1.99997E+01 6.10253E-02 1.30088E-04-3.07129E-02-1.47352E-13 1.14635E-13
 -1      3666 2.00011E+01 5.12235E-02-2.48050E-04-2.42213E-02-8.79754E-14 2.59753E-13
 -1      3667 1.99932E+01 7.33038E-02 2.29505E-04-3.09153E-02-5.08335E-14 1.33166E-13
 -1      3668 2.00042E+01 4.28963E-02 1.07339E-04-1.95381E-02-7.95835E-14 3.90206E-13
 -1      3669 2.00048E+01 3.54948E-02-1.76553E-04-1.48581E-02-3.47256E-14 3.34873E-13
 -1      3670 2.00005E+01 5.20319E-02 1.54670E-04-2.01054E-02 1.52795E-15 3.31233E-13
 -1      3671 2.00066E+01 2.92615E-02 8.58140E-05-1.15380E-02-6.96887E-14 2.22448E-13
 -1      3672 2.00067E+01 2.37726E-02-1.22103E-04-8.25170E-03-3.28380E-14 1.36469E-13
 -1      3673 2.00048E+01 3.59185E-02 9.95990E-05-1.22756E-02-8.86668E-14 4.51629E-13
 -1      3674 2.00076E+01 1.91936E-02 6.71106E-05-5.96911E-03-9.43876E-14 4.08008E-14
 -1      3675 2.00074E+01 1.52038E-02-8.14460E-05-3.73412E-03-6.48922E-14-1.02024E-14
 -1      3676 2.00070E+01 2.39323E-02 6.03118E-05-6.75619E-03-1.14654E-13 2.50363E-13
 -1      3677 2.00077E+01 1.19109E-02 5.14328E-05-2.22466E-03 4.14765E-14-1.06134E-13
 -1      3678 2.00073E+01 9.07691E-03-5.17385E-05-7.66781E-04-5.06169E-14-1.47998E-13
 -1      3679 2.00079E+01 1.51916E-02 3.30221E-05-2.98769E-03-1.20384E-13-3.27497E-14
 -1      3680 2.00073E+01 6.76742E-03 3.86036E-05 1.79053E-04-1.54126E-13-6.97555E-14
 -1      3681 2.00068E+01 4.80975E-03-3.05328E-05 1.07509E-03-2.76331E-13-5.64303E-14
 -1      3682 2.00079E+01 8.96041E-03 1.46037E-05-5.18779E-04-4.92512E-14-1.37322E-13
 -1      3683 2.00065E+01 3.23955E-03 2.83360E-05 1.62012E-03-2.30057E-13 3.31920E-15
 -1      3684 2.00060E+01 1.93448E-03-1.58028E-05 2.12020E-03-1.23031E-13 6.22128E-14
 -1      3685 2.00074E+01 4.63711E-03 2.64282E-06 1.00703E-03-1.56779E-13-1.48462E-13
 -1      3686 2.00056E+01 9.09758E-04 2.02908E-05 2.38857E-03-1.13484E-13-6.55382E-15
 -1      3687 2.00052E+01 8.11787E-05-5.91569E-06 2.61813E-03-4.64295E-14-7.55546E-14
 -1      3688 2.00066E+01 1.73879E-03-4.69446E-06 1.86588E-03-1.81922E-13-1.15514E-13
 -1      3689 2.00047E+01-5.49477E-04 1.41147E-05 2.70259E-03-1.01820E-13-1.15024E-13
 -1      3690 2.00043E+01-1.03804E-03 4.18602E-07 2.75461E-03 5.04291E-14-1.76515E-13
 -1      3691 2.00057E+01-1.15890E-04-8.79129E-06 2.26752E-03-1.08534E-13-1.95221E-13
 -1      3692 2.00038E+01-1.39102E-03 9.46895E-06 2.72296E-03 1.96385E-13-2.71450E-13
 -1      3693 2.00035E+01-1.64361E-03 4.20320E-06 2.66485E-03 8.55537E-14-1.86270E-13
 -1      3694 2.00047E+01-1.22326E-03-1.06796E-05 2.36800E-03 1.00912E-13-2.43126E-13
 -1      3695 2.00030E+01-1.80697E-03 6.04681E-06 2.56542E-03 8.95449E-14-1.20249E-13
 -1      3696 2.00027E+01-1.90159E-03 6.21426E-06 2.44483E-03 2.11105E-13-1.90063E-13
 -1      3697 2.00038E+01-1.80981E-03-1.11147E-05 2.28078E-03 1.28615E-13-1.21452E-13
 -1      3698 2.00024E+01-1.94080E-03 3.58949E-06 2.31116E-03 2.02044E-13-2.74695E-13
 -1      3699 2.00021E+01-1.93507E-03 7.02370E-06 2.16078E-03 7.43816E-14-3.10835E-13
 -1      3700 2.00030E+01-2.04581E-03-1.06333E-05 2.08635E-03 1.36567E-13-3.83917E-13
 -1      3701 2.00018E+01-1.89819E-03 1.88495E-06 2.01522E-03-1.36573E-13-2.31182E-13
 -1      3702 2.00016E+01-1.83390E-03 7.05478E-06 1.85641E-03-2.58449E-13-3.32614E-13
 -1      3703 2.00023E+01-2.05744E-03-9.68553E-06 1.84020E-03-8.28002E-14-4.81164E-13
 -1      3704 2.00013E+01-1.75524E-03 7.59402E-07 1.71302E-03-2.24818E-13-3.18064E-13
 -1      3705 2.00011E+01-1.66238E-03 6.43487E-06 1.55922E-03-2.43299E-13-1.47119E-13
 -1      3706 2.00017E+01-1.93630E-03-8.54509E-06 1.57868E-03-2.34498E-13-2.70623E-13
 -1      3707 2.00009E+01-1.56398E-03 4.73526E-07 1.42583E-03-2.60365E-13-1.67165E-13
 -1      3708 2.00007E+01-1.46322E-03 5.86598E-06 1.28650E-03-2.63049E-13-2.05116E-13
 -1      3709 2.00012E+01-1.74922E-03-8.17544E-06 1.32389E-03-2.42588E-13-1.15488E-13
 -1      3710 1.97560E+01 3.20268E-03 1.86909E-03 1.37229E+00-3.49374E-14-2.00525E-14
 -1      3711 1.98971E+01-1.72087E-01 7.86567E-03 1.46735E+00-3.31009E-14-1.31325E-13
 -1      3712 2.00116E+01-3.91004E-01 6.29862E-03 1.61752E+00-1.14713E-14-1.57044E-13
 -1      3713 2.02554E+01-6.53463E-01 9.68623E-03 1.69449E+00 4.38365E-15-1.45980E-13
 -1      3714 1.95467E+01-2.07297E-01-1.21458E-02 1.67430E+00-7.53505E-14-9.28768E-14
 -1      3715 1.96648E+01 4.34326E-01-1.73347E-03 7.61044E-01-4.36845E-15-5.35423E-15
 -1      3716 1.96716E+01 4.16741E-01 3.11139E-03 8.39512E-01 2.51267E-14 5.83425E-14
 -1      3717 1.94646E+01 4.72391E-01-6.88541E-04 8.80020E-01-7.16910E-15 1.83111E-13
 -1      3718 1.97140E+01 4.36601E-01-1.83170E-03 6.11518E-01-2.51946E-14 8.25119E-15
 -1      3719 1.97084E+01 4.41806E-01 2.21296E-03 6.80152E-01-4.47191E-14 5.37593E-15
 -1      3720 1.95412E+01 5.03447E-01 2.96132E-04 7.01345E-01-1.37282E-14 4.57362E-14
 -1      3721 1.97689E+01 4.07455E-01-1.76234E-03 4.85865E-01-1.98054E-14-2.14126E-14
 -1      3722 1.97580E+01 4.25965E-01 1.60419E-03 5.44797E-01 6.34069E-15 2.62643E-14
 -1      3723 1.96248E+01 4.87957E-01 7.55749E-04 5.55116E-01-2.99256E-14-4.49447E-14
 -1      3724 1.98211E+01 3.61793E-01-1.60167E-03 3.81242E-01-1.23889E-14-2.49076E-14
 -1      3725 1.98091E+01 3.86911E-01 1.18878E-03 4.31131E-01-4.28396E-14-3.54190E-14
 -1      3726 1.97045E+01 4.45441E-01 8.82274E-04 4.35849E-01-1.76906E-14 4.52449E-14
 -1      3727 1.98671E+01 3.09389E-01-1.39756E-03 2.95042E-01 1.43473E-14-8.30413E-14
 -1      3728 1.98559E+01 3.36741E-01 9.20314E-04 3.36604E-01 3.82001E-14-6.63698E-14
 -1      3729 1.97750E+01 3.89829E-01 8.93433E-04 3.38682E-01 2.79387E-14 8.77172E-15
 -1      3730 1.99052E+01 2.56680E-01-1.18178E-03 2.24948E-01-7.70414E-14-1.61096E-13
 -1      3731 1.98959E+01 2.83433E-01 7.29489E-04 2.59019E-01 1.46342E-14-5.79532E-14
 -1      3732 1.98343E+01 3.29937E-01 8.16426E-04 2.60047E-01 4.48428E-15 5.76836E-14
 -1      3733 1.99355E+01 2.07530E-01-9.72687E-04 1.68722E-01-2.21683E-13-8.48034E-14
 -1      3734 1.99282E+01 2.32039E-01 5.86544E-04 1.96206E-01-2.37045E-13-2.00241E-13
 -1      3735 1.98823E+01 2.71623E-01 7.00074E-04 1.96990E-01-1.63716E-13-7.47531E-14
 -1      3736 1.99586E+01 1.63965E-01-7.83013E-04 1.24249E-01-1.54483E-13 9.27013E-16
 -1      3737 1.99532E+01 1.85422E-01 4.73892E-04 1.46070E-01-1.76648E-13-4.54938E-14
 -1      3738 1.99197E+01 2.18319E-01 5.81302E-04 1.46961E-01-2.26672E-13-8.11894E-14
 -1      3739 1.99756E+01 1.26736E-01-6.17973E-04 8.95902E-02-1.76742E-13-3.77474E-14
 -1      3740 1.99719E+01 1.44900E-01 3.84546E-04 1.06625E-01-1.46457E-13-6.66454E-14
 -1      3741 1.99481E+01 1.71607E-01 4.46618E-04 1.07709E-01-1.47639E-13-8.23547E-14
 -1      3742 1.99877E+01 9.58687E-02-4.75914E-04 6.30132E-02-5.38416E-14-1.80029E-13
 -1      3743 1.99853E+01 1.10813E-01 3.11674E-04 7.60878E-02-9.85639E-14-1.42780E-13
 -1      3744 1.99689E+01 1.32084E-01 3.44842E-04 7.73282E-02-7.37732E-14-1.10197E-13
 -1      3745 1.99959E+01 7.09168E-02-3.60467E-04 4.29845E-02 4.55050E-14-1.49902E-13
 -1      3746 1.99946E+01 8.29131E-02 2.49940E-04 5.28355E-02 5.75659E-15-1.15294E-13
 -1      3747 1.99836E+01 9.95085E-02 2.51506E-04 5.41600E-02-1.77188E-14-1.98916E-13
 -1      3748 2.00012E+01 5.12143E-02-2.67129E-04 2.81636E-02-9.53079E-15-1.57805E-13
 -1      3749 2.00006E+01 6.06304E-02 1.97705E-04 3.54464E-02-3.17349E-14-1.04193E-13
 -1      3750 1.99937E+01 7.33249E-02 1.76169E-04 3.67819E-02-1.86261E-14 4.31128E-14
 -1      3751 2.00044E+01 3.59760E-02-1.93459E-04 1.74217E-02-1.20049E-14-2.69611E-13
 -1      3752 2.00042E+01 4.32168E-02 1.55055E-04 2.26886E-02 6.44215E-14-1.30026E-13
 -1      3753 2.00002E+01 5.27403E-02 1.19371E-04 2.39686E-02 2.67680E-14-1.63823E-13
 -1      3754 2.00060E+01 2.44345E-02-1.36214E-04 9.82751E-03-2.03412E-13-9.55967E-14
 -1      3755 2.00062E+01 2.98865E-02 1.19725E-04 1.35400E-02-1.74322E-13-2.43460E-13
 -1      3756 2.00042E+01 3.68788E-02 7.69715E-05 1.47172E-02-1.25647E-13-4.51560E-14
 -1      3757 2.00066E+01 1.58826E-02-9.26795E-05 4.61723E-03-1.54733E-13 1.34436E-13
 -1      3758 2.00070E+01 1.98972E-02 9.09412E-05 7.15391E-03-1.60929E-13 1.56761E-14
 -1      3759 2.00063E+01 2.49075E-02 4.57111E-05 8.20255E-03-2.99676E-13 1.78642E-13
 -1      3760 2.00066E+01 9.69416E-03-6.03535E-05 1.17687E-03-6.24405E-15-1.32497E-14
 -1      3761 2.00070E+01 1.25792E-02 6.79708E-05 2.84175E-03-5.16619E-14 4.14983E-14
 -1      3762 2.00072E+01 1.60694E-02 2.36274E-05 3.75080E-03-5.81624E-14 1.37745E-13
 -1      3763 2.00061E+01 5.33496E-03-3.69281E-05-9.76612E-04-1.07936E-13-8.63777E-15
 -1      3764 2.00066E+01 7.35077E-03 4.98694E-05 5.57527E-05-2.90053E-14 3.43141E-14
 -1      3765 2.00073E+01 9.69836E-03 8.66124E-06 8.25034E-04-7.32711E-14 1.21729E-13
 -1      3766 2.00054E+01 2.36263E-03-2.04027E-05-2.21661E-03-1.77326E-13-9.73830E-14
 -1      3767 2.00059E+01 3.72314E-03 3.57958E-05-1.63183E-03-1.12453E-13-9.43556E-14
 -1      3768 2.00068E+01 5.23002E-03-9.85503E-07-9.94748E-04-4.76404E-14 8.22304E-14
 -1      3769 2.00046E+01 4.19623E-04-9.11395E-06-2.82673E-03-1.96083E-13-2.11134E-14
 -1      3770 2.00051E+01 1.29670E-03 2.50212E-05-2.54924E-03-2.38900E-13-2.48501E-14
 -1      3771 2.00061E+01 2.19935E-03-6.76780E-06-2.03190E-03-1.89661E-13-9.17254E-15
 -1      3772 2.00038E+01-7.76821E-04-1.71747E-06-3.01831E-03-3.88027E-14-9.48626E-16
 -1      3773 2.00042E+01-2.48017E-04 1.69126E-05-2.94378E-03-5.45614E-14 3.40845E-14
 -1      3774 2.00053E+01 2.32131E-04-9.82600E-06-2.53123E-03-2.05755E-13 2.27374E-14
 -1      3775 2.00031E+01-1.44595E-03 2.84971E-06-2.94565E-03-1.13533E-13 2.41319E-13
 -1      3776 2.00034E+01-1.16118E-03 1.09253E-05-2.99811E-03-2.87616E-14 1.25175E-13
 -1      3777 2.00044E+01-9.66597E-04-1.10326E-05-2.67471E-03-1.28408E-13 1.78665E-13
 -1      3778 2.00024E+01-1.75453E-03 5.41831E-06-2.71865E-03-1.23485E-13 3.86304E-13
 -1      3779 2.00027E+01-1.63492E-03 6.59743E-06-2.84417E-03-1.54905E-13 2.98749E-13
 -1      3780 2.00036E+01-1.62483E-03-1.10374E-05-2.59477E-03-1.21406E-13 3.34043E-13
 -1      3781 2.00019E+01-1.82711E-03 6.61861E-06-2.41344E-03-6.67080E-14 2.09666E-13
 -1      3782 2.00021E+01-1.81403E-03 3.54818E-06-2.57487E-03-1.22281E-13 2.23844E-13
 -1      3783 2.00028E+01-1.91544E-03-1.03056E-05-2.38553E-03-7.58048E-14 1.27534E-13
 -1      3784 2.00014E+01-1.75520E-03 6.87584E-06-2.08077E-03 7.00462E-14 1.76569E-13
 -1      3785 2.00016E+01-1.80576E-03 1.48543E-06-2.25356E-03 5.42258E-14 2.42399E-13
 -1      3786 2.00022E+01-1.96736E-03-9.19788E-06-2.11208E-03-3.58367E-14-1.59848E-13
 -1      3787 2.00010E+01-1.60421E-03 6.66265E-06-1.75213E-03-1.21648E-13 6.01505E-14
 -1      3788 2.00011E+01-1.68835E-03 7.59100E-08-1.92122E-03 3.18803E-14 2.21288E-13
 -1      3789 2.00016E+01-1.87511E-03-7.95033E-06-1.81750E-03 1.24231E-15 1.31733E-13
 -1      3790 2.00006E+01-1.42078E-03 5.77526E-06-1.44652E-03-2.41504E-13-1.13254E-13
 -1      3791 2.00008E+01-1.51781E-03-1.25232E-06-1.60287E-03-2.87637E-13-6.24526E-14
 -1      3792 2.00012E+01-1.70421E-03-5.94173E-06-1.52893E-03-1.33008E-13 9.54596E-14
 -1      3793 2.00004E+01-1.27948E-03 2.51583E-06-1.19247E-03-2.28333E-13-4.12893E-14
 -1      3794 2.00005E+01-1.37024E-03-3.16649E-06-1.33243E-03-2.61444E-13-1.67869E-13
 -1      3795 2.00009E+01-1.54053E-03-1.62627E-06-1.27703E-03-2.18667E-13-3.40547E-13
 -1      3796 2.00007E+01-1.40736E-03 2.32613E-06-1.06457E-03-3.25259E-13-3.62654E-13
 -1      3797 1.58189E+01 3.14975E-01-7.17066E-03-2.75645E+00 1.14182E-13 1.40905E-13
 -1      3798 1.67982E+01-5.33916E-01-8.67574E-03 3.37192E+00-3.86270E-13-1.77948E-14
 -1      3799 1.52858E+01 3.43411E-01 2.77131E-02 2.72482E+00-3.15267E-13 1.21373E-13
 -1      3800 1.52378E+01 8.17098E-01 3.62946E-02-2.15366E+00 9.95684E-14 2.33875E-13
 -1      3801 2.00008E+01-1.49847E-03-5.45654E-06 1.07565E-03-2.11195E-13-2.28811E-15
 -1      3802 1.96526E+01 2.47821E-01-2.45680E-04 1.14115E+00-9.82111E-14 9.74259E-14
 -1      3803 1.97255E+01 1.43234E-01 6.10440E-03 1.23608E+00-2.53858E-14 6.18438E-14
 -1      3804 1.94228E+01 1.57310E-01-5.90904E-03 1.36210E+00-8.89993E-14 9.77090E-14
 -1      3805 1.34211E+01 1.36718E+00 7.28822E-02-4.15354E-01 6.34952E-15 3.24019E-13
 -1      3806 1.41849E+01 1.00145E+00 3.40063E-03-1.59246E+00 1.02586E-13 2.78562E-13
 -1      3807 1.52565E+01 1.14092E+00-2.11927E-02-1.25402E+00 5.44009E-15 1.89283E-13
 -1      3808 1.41701E+01 1.27936E+00 1.73557E-02 1.35467E-01-5.53208E-14 2.77937E-13
 -1      3809 2.00009E+01-1.57636E-03 3.00357E-06 8.96775E-04-1.43414E-13 2.84562E-13
 -1      3810 2.00010E+01-1.59295E-03 1.67342E-07-7.00684E-04-6.41666E-14-1.21840E-14
 -1      3811 2.00008E+01-1.50823E-03 2.44071E-06-8.74744E-04-1.70628E-13-2.28838E-13
 -1      3812 2.00009E+01-1.57982E-03-3.43965E-06-9.74121E-04-1.61850E-13-1.41078E-13
 -1      3813 2.43812E+01-2.57530E+00 1.35014E-02 6.54464E-01-1.38731E-13-6.30848E-13
 -1      3814 1.98795E+01-7.59263E-01-1.69976E-02 2.01612E+00-8.37225E-14-2.11746E-13
 -1      3815 2.05103E+01-9.66059E-01 1.24407E-02 1.83571E+00-4.95458E-14-2.01656E-13
 -1      3816 2.08894E+01-1.31234E+00 7.90605E-03 1.85609E+00-9.29799E-14-3.14501E-13
 -1      3817 2.31761E+01-2.68190E+00-1.89990E-03 1.58941E+00-2.29016E-13-5.33668E-13
 -1      3818 2.00009E+01-1.56744E-03-1.04782E-07 4.24885E-04-1.75045E-13-2.11078E-14
 -1      3819 2.00011E+01-1.69031E-03-1.39454E-06-2.63917E-04 2.26412E-14-4.25984E-13
 -1      3820 2.00011E+01-1.64574E-03 2.69428E-06-4.69847E-04 7.21655E-14-3.63048E-13
 -1      3821 2.00012E+01-1.72992E-03-2.24685E-06-5.40553E-04 2.26818E-14-3.96578E-13
 -1      3822 1.49729E+01 7.15900E-01 3.20201E-02 2.22592E+00-2.45250E-13 1.31985E-13
 -1      3823 1.47819E+01 9.65880E-01-1.36608E-02 1.51319E+00-1.53108E-13 1.50165E-13
 -1      3824 1.61589E+01 4.60349E-01 1.65996E-02 2.28032E+00-2.79693E-13 5.07806E-14
 -1      3825 1.81271E+01-9.07441E-01 4.47434E-02 3.32385E+00-3.48520E-13-1.75012E-14
 -1      3826 1.75628E+01-3.71442E-01-1.15537E-02 2.85186E+00-2.53350E-13 3.70103E-15
 -1      3827 1.93346E+01-1.31744E+00-4.27630E-03 2.98089E+00-2.65012E-13-2.29916E-13
 -1      3828 2.00012E+01-1.70288E-03-4.37442E-06 2.08510E-04-1.87759E-13-1.23756E-13
 -1      3829 2.00012E+01-1.69974E-03 2.83383E-06-1.70293E-05-8.37355E-14-1.47477E-13
 -1      3830 2.00014E+01-1.78026E-03 4.09377E-06-5.23441E-05 3.04312E-14-3.31376E-13
 -1      3831 1.94141E+01 3.68945E-01-2.41646E-03 1.09797E+00-8.05715E-14 1.33816E-13
 -1      3832 2.24632E+01-2.43187E+00 2.34533E-02 1.87911E+00-2.07410E-13-4.67554E-13
 -1      3833 2.19290E+01-1.99092E+00 1.25229E-02 1.73079E+00-1.23190E-13-3.58207E-13
 -1      3834 2.15010E+01-2.29730E+00-1.81590E-02 2.47371E+00-1.92327E-13-4.35161E-13
 -1      3835 2.05905E+01-1.84304E+00-4.18480E-03 2.66961E+00-1.81125E-13-3.53054E-13
 -1      3836 2.13781E+01-1.62464E+00 2.73268E-02 1.86074E+00-1.01929E-13-3.55172E-13
 -1      3837 1.90677E+01 1.02813E-01-1.55866E-03 1.62396E+00-1.48635E-13 1.93409E-14
 -1      3838 1.91877E+01-9.95743E-02 1.20065E-02 1.80557E+00-1.47835E-13-6.01273E-14
 -1      3839 1.60152E+01 1.17925E+00-5.49348E-03-1.10815E+00-5.28849E-14 1.06839E-13
 -1      3840 1.64846E+01 1.21423E+00-2.19638E-02-9.12715E-01-7.85435E-14 7.92499E-14
 -1      3841 1.53972E+01 1.38715E+00 4.51420E-02-5.71479E-01-5.90409E-14 1.77781E-13
 -1      3842 1.70163E+01 1.22289E+00-6.44373E-03-8.34065E-01-7.69458E-15 7.46132E-14
 -1      3843 1.73727E+01 1.21219E+00-1.41623E-02-7.17200E-01 6.12743E-14 8.26132E-14
 -1      3844 1.66098E+01 1.35345E+00 2.53043E-02-4.52122E-01-6.22169E-14 1.46627E-13
 -1      3845 1.77520E+01 1.18530E+00-5.36406E-03-6.70417E-01 3.23014E-14 4.62379E-14
 -1      3846 1.80239E+01 1.14908E+00-8.99164E-03-5.94059E-01 5.28662E-14 3.47309E-14
 -1      3847 1.74621E+01 1.28061E+00 1.62335E-02-3.87212E-01-1.84312E-14 1.25572E-13
 -1      3848 1.83028E+01 1.10217E+00-4.08266E-03-5.59945E-01 5.49907E-16-1.74895E-14
 -1      3849 1.85126E+01 1.04980E+00-5.81859E-03-5.03534E-01-6.66950E-14-6.61265E-14
 -1      3850 1.80851E+01 1.17848E+00 1.07870E-02-3.47853E-01-3.75339E-14 1.88134E-14
 -1      3851 1.87221E+01 9.91383E-01-3.20144E-03-4.75271E-01-1.21371E-14-7.37714E-14
 -1      3852 1.88839E+01 9.31004E-01-4.13826E-03-4.28754E-01 7.03082E-14-3.65729E-14
 -1      3853 1.85539E+01 1.05841E+00 7.59020E-03-3.14843E-01-2.63565E-14-8.81836E-14
 -1      3854 1.90444E+01 8.67430E-01-2.42342E-03-4.02985E-01 8.90263E-14-1.12909E-13
 -1      3855 1.91685E+01 8.04939E-01-3.06269E-03-3.62644E-01 9.01628E-14-1.29689E-13
 -1      3856 1.89122E+01 9.29977E-01 5.86262E-03-2.81516E-01 3.28519E-14-1.23643E-13
 -1      3857 1.92918E+01 7.41862E-01-1.81006E-03-3.38028E-01 8.80249E-14-1.57029E-13
 -1      3858 1.93866E+01 6.80984E-01-2.37628E-03-3.02059E-01 8.90091E-14-1.25822E-13
 -1      3859 1.91872E+01 7.99609E-01 4.46446E-03-2.46536E-01 9.31115E-14-2.48784E-13
 -1      3860 1.94813E+01 6.21408E-01-1.39355E-03-2.79204E-01 4.04204E-14-9.37286E-14
 -1      3861 1.95532E+01 5.65224E-01-1.91415E-03-2.47229E-01-7.55484E-15-4.14205E-14
 -1      3862 1.93988E+01 6.73908E-01 3.33106E-03-2.11020E-01 9.27146E-14-2.29633E-13
 -1      3863 1.96259E+01 5.11145E-01-1.00408E-03-2.26314E-01-1.28567E-13 1.62019E-15
 -1      3864 1.96798E+01 4.60803E-01-1.54239E-03-1.98397E-01-1.08826E-13-2.09291E-14
 -1      3865 1.95616E+01 5.57984E-01 2.59160E-03-1.75624E-01-4.34054E-14-1.15805E-13
 -1      3866 1.97351E+01 4.13231E-01-7.25904E-04-1.79970E-01-2.09083E-14 1.36607E-14
 -1      3867 1.97750E+01 3.69446E-01-1.23805E-03-1.56096E-01-2.91952E-15 3.08674E-14
 -1      3868 1.96857E+01 4.53905E-01 1.99731E-03-1.42782E-01-5.64331E-14-3.82704E-14
 -1      3869 1.98166E+01 3.28654E-01-5.05505E-04-1.40279E-01 5.29998E-14 2.01369E-14
 -1      3870 1.98458E+01 2.91480E-01-9.77150E-04-1.20311E-01 1.40323E-13 9.37267E-14
 -1      3871 1.97792E+01 3.63166E-01 1.51505E-03-1.13341E-01 7.46565E-14 1.99153E-15
 -1      3872 1.98767E+01 2.57249E-01-3.41172E-04-1.07122E-01 1.18539E-13 9.08430E-14
 -1      3873 1.98978E+01 2.26354E-01-7.45803E-04-9.07891E-02 1.18601E-13 1.22837E-13
 -1      3874 1.98489E+01 2.85951E-01 1.17973E-03-8.79714E-02 9.61959E-14 3.06703E-14
 -1      3875 1.99203E+01 1.98185E-01-2.24957E-04-8.00571E-02 7.94241E-14 1.20684E-13
 -1      3876 1.99352E+01 1.72919E-01-5.80136E-04-6.69584E-02 1.43172E-13 7.26799E-14
 -1      3877 1.99001E+01 2.21397E-01 8.52540E-04-6.65920E-02 9.66840E-14 1.32393E-13
 -1      3878 1.99514E+01 1.50162E-01-1.43325E-04-5.84692E-02 1.61484E-13 2.32243E-14
 -1      3879 1.99616E+01 1.29912E-01-4.46969E-04-4.81710E-02 1.62020E-13 1.30579E-13
 -1      3880 1.99371E+01 1.68791E-01 6.67590E-04-4.92706E-02 1.23892E-13 1.03928E-13
 -1      3881 1.99730E+01 1.11801E-01-8.56186E-05-4.15215E-02 3.96608E-14 1.69294E-13
 -1      3882 1.99799E+01 9.57703E-02-3.38688E-04-3.36028E-02-7.05835E-14 1.13560E-13
 -1      3883 1.99631E+01 1.26482E-01 4.94387E-04-3.54165E-02 5.04944E-14 5.27378E-14
 -1      3884 1.99876E+01 8.16098E-02-5.70426E-05-2.85828E-02-7.38975E-14 4.16157E-14
 -1      3885 1.99921E+01 6.91835E-02-2.49965E-04-2.26044E-02-6.72973E-14 1.13551E-13
 -1      3886 1.99811E+01 9.28960E-02 3.36522E-04-2.47144E-02-1.41661E-13-1.76432E-14
 -1      3887 1.99972E+01 5.82720E-02-3.01280E-05-1.88778E-02 7.56569E-15 3.67583E-14
 -1      3888 1.99999E+01 4.87693E-02-1.79241E-04-1.44698E-02 6.93597E-15 8.78811E-14
 -1      3889 1.99931E+01 6.68195E-02 2.37580E-04-1.65451E-02-1.06003E-13-1.25486E-13
 -1      3890 2.00031E+01 4.05053E-02-1.48239E-05-1.17893E-02-1.31721E-13 9.15146E-14
 -1      3891 2.00046E+01 3.33715E-02-1.24459E-04-8.61833E-03-1.62400E-13 8.98507E-14
 -1      3892 2.00007E+01 4.68364E-02 1.60861E-04-1.05281E-02-6.56990E-14-2.55949E-13
 -1      3893 2.00064E+01 2.72274E-02-4.46738E-06-6.74246E-03-1.24635E-13 1.26881E-13
 -1      3894 2.00071E+01 2.19732E-02-8.32567E-05-4.52383E-03-1.33015E-13 9.50489E-14
 -1      3895 2.00052E+01 3.18157E-02 1.04166E-04-6.20333E-03-1.97160E-13-1.97583E-13
 -1      3896 2.00080E+01 1.74957E-02 1.91796E-06-3.25638E-03-2.23125E-13 1.36619E-13
 -1      3897 2.00081E+01 1.37076E-02-5.29917E-05-1.75595E-03-1.23337E-13 9.13529E-14
 -1      3898 2.00076E+01 2.07394E-02 6.35841E-05-3.18219E-03-1.90444E-13-3.10757E-14
 -1      3899 2.00084E+01 1.05186E-02 5.47859E-06-9.38903E-04-1.05335E-13 2.05235E-14
 -1      3900 2.00082E+01 7.85487E-03-3.12937E-05 3.12738E-05-7.32101E-14-3.42258E-14
 -1      3901 2.00085E+01 1.27435E-02 3.51818E-05-1.14696E-03-1.62178E-13 1.19879E-13
 -1      3902 2.00081E+01 5.64523E-03 7.15899E-06 5.23032E-04-6.76720E-14 4.74889E-15
 -1      3903 2.00077E+01 3.82901E-03-1.61717E-05 1.11079E-03-1.24952E-13 1.65770E-14
 -1      3904 2.00085E+01 7.11329E-03 1.58645E-05 1.59383E-04-6.65856E-14 7.65403E-14
 -1      3905 2.00074E+01 2.35052E-03 7.64259E-06 1.37426E-03-1.99774E-13 8.53312E-14
 -1      3906 2.00069E+01 1.16107E-03-5.99882E-06 1.69361E-03-1.88593E-13 1.18027E-13
 -1      3907 2.00079E+01 3.26817E-03 3.23243E-06 9.40399E-04-1.30145E-13 2.46879E-13
 -1      3908 2.00064E+01 2.17660E-04 7.40246E-06 1.80233E-03-9.47249E-14 1.36877E-13
 -1      3909 2.00059E+01-5.17994E-04 5.26154E-07 1.93941E-03-1.52323E-14 2.12192E-13
 -1      3910 2.00071E+01 7.44750E-04-4.57030E-06 1.35368E-03-1.26695E-13 3.89367E-13
 -1      3911 2.00054E+01-1.07864E-03 6.75871E-06 1.94786E-03-1.99438E-14 1.69361E-13
 -1      3912 2.00050E+01-1.49384E-03 4.42196E-06 1.96639E-03 1.72493E-13 5.13384E-14
 -1      3913 2.00061E+01-8.20624E-04-8.96528E-06 1.51850E-03-7.63999E-14 4.13350E-13
 -1      3914 2.00045E+01-1.78814E-03 5.92245E-06 1.91396E-03 1.52184E-13-9.55087E-14
 -1      3915 2.00041E+01-1.98395E-03 6.46634E-06 1.85997E-03 1.15974E-14-1.03855E-13
 -1      3916 2.00051E+01-1.70864E-03-1.10252E-05 1.52303E-03-5.64708E-15 1.18493E-13
 -1      3917 2.00036E+01-2.09936E-03 5.02518E-06 1.77422E-03-3.93738E-14-2.08694E-13
 -1      3918 2.00032E+01-2.15096E-03 7.29973E-06 1.68005E-03 1.04123E-14-3.74591E-13
 -1      3919 2.00041E+01-2.13228E-03-1.15252E-05 1.43074E-03-1.41391E-13-3.28795E-13
 -1      3920 2.00028E+01-2.15192E-03 4.14599E-06 1.57996E-03 1.27982E-15-5.06086E-13
 -1      3921 2.00025E+01-2.11487E-03 7.21234E-06 1.46788E-03-1.77993E-13-4.31298E-13
 -1      3922 2.00033E+01-2.24975E-03-1.08997E-05 1.28583E-03-1.05780E-13-4.06863E-13
 -1      3923 2.00021E+01-2.04867E-03 3.31544E-06 1.36571E-03-2.13529E-13-3.12125E-13
 -1      3924 2.00019E+01-1.96257E-03 6.62685E-06 1.24981E-03-2.33660E-13-2.49059E-13
 -1      3925 2.00025E+01-2.17910E-03-1.02439E-05 1.12025E-03-1.42923E-13-3.62324E-13
 -1      3926 2.00015E+01-1.85999E-03 3.19379E-06 1.15373E-03-2.41536E-13-4.14153E-14
 -1      3927 2.00013E+01-1.75660E-03 5.47019E-06 1.04366E-03-1.14277E-13 1.00370E-13
 -1      3928 2.00018E+01-2.00245E-03-9.50238E-06 9.49244E-04-1.36582E-13-9.88924E-15
 -1      3929 1.95385E+01 5.30691E-01-2.53259E-03 4.74433E-01-5.24122E-14 8.66166E-14
 -1      3930 1.95002E+01 5.55154E-01 1.57235E-03 5.37958E-01-3.92890E-14 8.00286E-14
 -1      3931 1.96421E+01 4.72528E-01-2.18565E-03 3.67314E-01 3.90278E-15 1.13712E-13
 -1      3932 1.96068E+01 5.04308E-01 9.55388E-04 4.18984E-01-4.07477E-14 8.11958E-14
 -1      3933 1.94911E+01 5.68847E-01 1.68929E-03 4.00832E-01-2.75094E-14 1.71832E-13
 -1      3934 1.97302E+01 4.06163E-01-1.82404E-03 2.81846E-01-1.63393E-14 2.08720E-13
 -1      3935 1.96995E+01 4.40701E-01 6.51524E-04 3.23653E-01 2.13250E-14 1.66321E-13
 -1      3936 1.96107E+01 4.98640E-01 1.62177E-03 3.06138E-01-4.41831E-14 3.02556E-13
 -1      3937 1.98023E+01 3.39229E-01-1.49136E-03 2.14060E-01-4.39986E-15 2.29561E-13
 -1      3938 1.97769E+01 3.73120E-01 4.44868E-04 2.47690E-01 2.50065E-14 1.69947E-13
 -1      3939 1.97095E+01 4.23531E-01 1.41251E-03 2.32284E-01-1.62342E-15 3.22075E-13
 -1      3940 1.98596E+01 2.76426E-01-1.19677E-03 1.60574E-01-2.11789E-13 1.45627E-13
 -1      3941 1.98394E+01 3.07669E-01 3.26944E-04 1.87402E-01-4.75141E-14 1.99684E-13
 -1      3942 1.97888E+01 3.50545E-01 1.17194E-03 1.74748E-01-1.77176E-14 2.81760E-13
 -1      3943 1.99039E+01 2.20273E-01-9.35888E-04 1.18766E-01-1.89748E-13-2.05516E-14
 -1      3944 1.98884E+01 2.47808E-01 2.45319E-04 1.39885E-01-2.74811E-13-1.75692E-14
 -1      3945 1.98509E+01 2.83547E-01 9.42700E-04 1.30047E-01-1.49694E-13 8.56477E-14
 -1      3946 1.99371E+01 1.71979E-01-7.36466E-04 8.62686E-02-8.19507E-14-1.14438E-13
 -1      3947 1.99256E+01 1.95508E-01 1.86760E-04 1.02813E-01-8.75213E-14-7.08785E-14
 -1      3948 1.98985E+01 2.24583E-01 7.09956E-04 9.55595E-02-1.45213E-13-4.40775E-14
 -1      3949 1.99616E+01 1.31497E-01-5.60441E-04 6.14273E-02-9.71066E-14-1.97079E-13
 -1      3950 1.99533E+01 1.51013E-01 1.59708E-04 7.41398E-02-8.07408E-14-1.33144E-13
 -1      3951 1.99341E+01 1.74542E-01 5.99001E-04 6.89516E-02-6.56299E-14-1.77470E-13
 -1      3952 1.99789E+01 9.84660E-02-4.31705E-04 4.26220E-02-5.51701E-14-9.78212E-14
 -1      3953 1.99732E+01 1.14312E-01 1.29556E-04 5.22688E-02-8.66510E-14-1.64031E-13
 -1      3954 1.99599E+01 1.32787E-01 4.20115E-04 4.88270E-02-9.01891E-14-2.40145E-13
 -1      3955 1.99908E+01 7.21326E-02-3.25189E-04 2.86376E-02-1.82374E-14-2.22154E-14
 -1      3956 1.99871E+01 8.46818E-02 1.03450E-04 3.58417E-02-3.28492E-14 4.18435E-14
 -1      3957 1.99782E+01 9.90340E-02 3.07848E-04 3.36747E-02-1.15238E-13-8.51215E-14
 -1      3958 1.99986E+01 5.15467E-02-2.38545E-04 1.83971E-02 1.52618E-14 9.95550E-15
 -1      3959 1.99963E+01 6.13054E-02 8.52568E-05 2.36741E-02 6.62698E-14-9.66902E-15
 -1      3960 1.99907E+01 7.22517E-02 2.18961E-04 2.24831E-02 2.91870E-14 5.57535E-14
 -1      3961 2.00035E+01 3.57729E-02-1.69941E-04 1.10688E-02-2.75769E-13 9.25635E-14
 -1      3962 2.00022E+01 4.32081E-02 6.95882E-05 1.48495E-02-1.42144E-13-1.06045E-14
 -1      3963 1.99989E+01 5.13854E-02 1.51045E-04 1.43263E-02-7.55197E-14 1.45649E-13
 -1      3964 2.00062E+01 2.39386E-02-1.17455E-04 5.95479E-03-2.14759E-13 5.71872E-14
 -1      3965 2.00056E+01 2.94842E-02 5.60473E-05 8.59504E-03-2.49580E-13 7.73741E-14
 -1      3966 2.00039E+01 3.54596E-02 9.82851E-05 8.52753E-03-1.98701E-13 1.52782E-14
 -1      3967 2.00074E+01 1.52521E-02-7.82571E-05 2.49427E-03-2.99149E-14 6.15525E-14
 -1      3968 2.00073E+01 1.92971E-02 4.49710E-05 4.27997E-03-9.25284E-14 5.97393E-15
 -1      3969 2.00067E+01 2.35614E-02 5.98343E-05 4.50055E-03-1.34308E-13-1.69350E-14
 -1      3970 2.00077E+01 9.02863E-03-4.96061E-05 2.48175E-04-1.07939E-13 1.05014E-13
 -1      3971 2.00079E+01 1.19061E-02 3.56764E-05 1.40539E-03-2.95997E-14 1.42903E-13
 -1      3972 2.00079E+01 1.48647E-02 3.27168E-05 1.78984E-03-9.53093E-14-1.02422E-13
 -1      3973 2.00073E+01 4.69430E-03-2.91492E-05-1.12384E-03-1.01384E-13 9.06926E-14
 -1      3974 2.00077E+01 6.68112E-03 2.78970E-05-4.19131E-04-6.62428E-14 1.11854E-13
 -1      3975 2.00082E+01 8.66209E-03 1.42012E-05 4.18727E-05-8.28985E-14 7.68028E-14
 -1      3976 2.00066E+01 1.78001E-03-1.49447E-05-1.88204E-03-2.56432E-13-5.34139E-16
 -1      3977 2.00071E+01 3.10110E-03 2.14648E-05-1.49500E-03-1.11487E-13 6.64118E-14
 -1      3978 2.00078E+01 4.36517E-03 2.08926E-06-1.01594E-03-1.07910E-13 2.17373E-13
 -1      3979 2.00058E+01-8.94552E-05-5.42298E-06-2.22225E-03-1.14444E-13-1.51262E-13
 -1      3980 2.00062E+01 7.44804E-04 1.62254E-05-2.05133E-03-1.90195E-13-1.68936E-13
 -1      3981 2.00070E+01 1.49531E-03-5.35995E-06-1.59111E-03-1.81166E-13 8.91851E-15
 -1      3982 2.00048E+01-1.20827E-03 6.60094E-07-2.28909E-03-2.11040E-13-3.85196E-14
 -1      3983 2.00053E+01-7.21328E-04 1.20249E-05-2.25927E-03-2.01160E-13-2.15711E-13
 -1      3984 2.00061E+01-3.28661E-04-9.50395E-06-1.83915E-03-1.48318E-13-2.73155E-13
 -1      3985 2.00040E+01-1.80275E-03 4.26759E-06-2.18714E-03-1.40225E-13-6.01147E-15
 -1      3986 2.00044E+01-1.55634E-03 8.71204E-06-2.24418E-03-1.85437E-13-2.38907E-14
 -1      3987 2.00051E+01-1.40453E-03-1.13811E-05-1.87450E-03-2.76107E-13-3.77977E-13
 -1      3988 2.00032E+01-2.04367E-03 6.17122E-06-1.99008E-03-1.50061E-14-1.00339E-13
 -1      3989 2.00035E+01-1.95768E-03 6.13862E-06-2.09578E-03 1.07086E-14 3.32109E-14
 -1      3990 2.00042E+01-1.96061E-03-1.17600E-05-1.77956E-03-1.01557E-13-2.23543E-13
 -1      3991 2.00024E+01-2.05765E-03 6.94172E-06-1.74853E-03-1.34575E-13-4.19435E-14
 -1      3992 2.00028E+01-2.07288E-03 4.14843E-06-1.87671E-03-9.50657E-14 2.42013E-14
 -1      3993 2.00033E+01-2.16834E-03-1.11353E-05-1.61203E-03-4.79571E-14 1.91424E-13
 -1      3994 2.00018E+01-1.93804E-03 6.72307E-06-1.49625E-03-8.25112E-14 4.14858E-14
 -1      3995 2.00021E+01-2.01087E-03 2.62003E-06-1.62976E-03-6.52668E-14-6.72410E-15
 -1      3996 2.00026E+01-2.15462E-03-1.00098E-05-1.41262E-03-1.99077E-13 2.27872E-13
 -1      3997 2.00013E+01-1.74856E-03 5.76584E-06-1.25157E-03-9.63940E-14 4.19063E-14
 -1      3998 2.00015E+01-1.85224E-03 6.74911E-07-1.37994E-03-7.71751E-14 1.36624E-13
 -1      3999 2.00019E+01-2.01226E-03-7.98347E-06-1.20647E-03-1.04839E-13 3.45883E-14
 -1      4000 2.00011E+01-1.63086E-03 3.56690E-06-1.05281E-03-2.56637E-13-2.80646E-14
 -1      4001 2.00012E+01-1.70092E-03-1.67118E-06-1.16369E-03-2.16618E-13 8.04829E-15
 -1      4002 2.00015E+01-1.84879E-03 4.37255E-07-1.02088E-03-6.45881E-14 8.81971E-14
 -1      4003 2.00012E+01-1.73268E-03-1.53920E-06-8.54953E-04-1.21485E-13 2.68204E-13
 -1      4004 1.91765E+01 5.17270E-01-3.64060E-03 9.96349E-01-5.60166E-14 5.52655E-14
 -1      4005 1.91722E+01 4.61816E-01 6.09335E-03 1.11592E+00-3.86651E-14 1.21750E-13
 -1      4006 2.00011E+01-1.65404E-03 3.44760E-06 4.25006E-04-1.21687E-13 7.45657E-14
 -1      4007 1.90852E+01 3.73842E-01-3.54489E-03 1.27290E+00-1.04370E-13 1.20927E-13
 -1      4008 1.91264E+01 2.58493E-01 8.69614E-03 1.42129E+00-1.23292E-13 3.90059E-14
 -1      4009 1.88465E+01 5.39128E-01 1.62674E-04 1.16313E+00-6.02229E-14 1.14772E-13
 -1      4010 2.00012E+01-1.71014E-03-7.11973E-06 7.41198E-04-4.58317E-14 3.05728E-13
 -1      4011 1.94208E+01 5.70067E-01-2.89244E-03 6.09494E-01-5.80361E-14 5.62046E-14
 -1      4012 1.93842E+01 5.79042E-01 2.47290E-03 6.87974E-01-1.47711E-14 8.19886E-14
 -1      4013 1.93503E+01 6.26312E-01 1.95101E-03 5.22682E-01-6.42453E-14 1.50557E-13
 -1      4014 1.92958E+01 5.72971E-01-3.37602E-03 7.79843E-01 1.35713E-14 2.90824E-14
 -1      4015 1.92685E+01 5.56708E-01 3.79062E-03 8.76808E-01-4.46270E-14 1.62212E-14
 -1      4016 1.91906E+01 6.54906E-01 1.87835E-03 6.81043E-01-4.48694E-14-6.08342E-14
 -1      4017 2.00015E+01-1.84228E-03 2.17306E-07 5.20364E-04-5.39318E-14 5.11488E-14
 -1      4018 1.90179E+01 6.33601E-01 8.73714E-04 8.88780E-01-2.51298E-14 1.88753E-14
 -1      4019 1.87037E+01 3.25910E-01-3.19108E-03 1.52951E+00-1.52839E-13 3.58919E-14
 -1      4020 2.05919E+01-1.43186E+00-1.01183E-02 2.20216E+00-1.11416E-13-3.42644E-13
 -1      4021 1.69931E+01 2.59994E-01 3.04352E-02 2.42116E+00-2.59377E-13 2.35662E-14
 -1      4022 1.65445E+01 5.43428E-01-1.75486E-02 1.99481E+00-1.95632E-13 3.05489E-14
 -1      4023 2.01850E+01-1.47175E+00 1.22517E-02 2.62496E+00-1.46022E-13-3.42383E-13
 -1      4024 1.94108E+01-9.38025E-01-1.26995E-02 2.50999E+00-1.61480E-13-2.10900E-13
 -1      4025 1.79442E+01-1.95199E-01-3.28960E-03 2.46614E+00-2.08642E-13 2.83987E-14
 -1      4026 2.00015E+01-1.85509E-03-7.01426E-06-3.55473E-04 5.96968E-14-5.78668E-13
 -1      4027 2.00014E+01-1.79178E-03 3.85435E-06-5.96997E-04-1.27382E-13-2.39252E-13
 -1      4028 2.00015E+01-1.85695E-03 4.16464E-07-6.69869E-04-2.07164E-13-1.72839E-13
 -1      4029 1.47640E+01 1.30363E+00 4.70899E-02 8.26800E-01-1.03280E-13 1.83491E-13
 -1      4030 1.49503E+01 1.28417E+00-1.64313E-02 1.29077E-02-5.82598E-14 1.96373E-13
 -1      4031 1.57049E+01 1.31066E+00-1.09630E-02 3.05022E-02-7.59297E-14 2.11206E-13
 -1      4032 1.56238E+01 1.06414E+00 1.11436E-02 1.21682E+00-1.47558E-13 5.75386E-14
 -1      4033 1.62984E+01 1.29378E+00-1.34907E-02-5.17667E-02-9.15458E-14 1.98488E-13
 -1      4034 1.68145E+01 1.28651E+00-8.01286E-03-4.50887E-02-6.70698E-14 1.58322E-13
 -1      4035 1.61418E+01 1.28902E+00 1.92468E-02 4.93075E-01-9.49607E-14 2.23782E-13
 -1      4036 1.92006E+01-3.65746E-01-3.14526E-04 2.05542E+00-1.44228E-13-7.17062E-14
 -1      4037 1.94489E+01-6.74620E-01 1.37514E-02 2.25753E+00-1.39035E-13-1.55352E-13
 -1      4038 1.72284E+01 1.24576E+00-1.17345E-02-9.27092E-02-8.32098E-14 9.64800E-14
 -1      4039 1.76026E+01 1.20946E+00-7.85214E-03-9.83628E-02-4.68418E-14 7.52535E-14
 -1      4040 1.71034E+01 1.26649E+00 1.66044E-02 2.61674E-01-1.08954E-13 1.17104E-13
 -1      4041 1.79079E+01 1.17012E+00-6.60285E-03-1.30873E-01-3.94925E-14 6.70517E-14
 -1      4042 1.81843E+01 1.11958E+00-4.00392E-03-1.28958E-01-8.42809E-14-5.94239E-15
 -1      4043 1.78045E+01 1.19456E+00 1.38230E-02 1.37597E-01-6.00686E-14 7.09738E-14
 -1      4044 1.84152E+01 1.06231E+00-4.92523E-03-1.52811E-01-7.09456E-14 6.34340E-14
 -1      4045 1.86237E+01 1.00758E+00-2.32950E-03-1.47348E-01 3.03913E-15 2.45201E-14
 -1      4046 1.83203E+01 1.07955E+00 3.75195E-03 5.38723E-02-3.18234E-14 5.77961E-14
 -1      4047 1.88003E+01 9.42652E-01-3.92816E-03-1.56765E-01-1.61938E-14 9.53919E-15
 -1      4048 1.89600E+01 8.80992E-01-2.61351E-03-1.49521E-01 2.00151E-14-8.74500E-14
 -1      4049 1.87213E+01 9.74397E-01 5.40753E-03-8.49093E-03-2.73674E-14 7.75349E-14
 -1      4050 1.90996E+01 8.19158E-01-2.15028E-03-1.53180E-01 2.07322E-14-1.50469E-13
 -1      4051 1.92202E+01 7.56940E-01-2.08974E-03-1.42694E-01 7.86220E-14-1.95214E-13
 -1      4052 1.90361E+01 8.54557E-01 6.38497E-03-3.52452E-02-1.15813E-14-1.10133E-13
 -1      4053 1.93269E+01 6.95910E-01-2.48918E-03-1.38981E-01 1.16926E-13-3.33974E-13
 -1      4054 1.94220E+01 6.37546E-01-1.62053E-03-1.26614E-01-1.35405E-14-3.64033E-13
 -1      4055 1.92716E+01 7.37310E-01 5.61115E-03-4.93991E-02 1.54598E-14-3.82801E-13
 -1      4056 1.95050E+01 5.80001E-01-1.99415E-03-1.21531E-01-2.35870E-14-3.44119E-13
 -1      4057 1.95780E+01 5.26303E-01-1.36269E-03-1.08776E-01-8.14740E-15-2.39945E-13
 -1      4058 1.94632E+01 6.20151E-01 5.64627E-03-5.47429E-02 1.69465E-14-5.34743E-13
 -1      4059 1.96419E+01 4.74888E-01-1.45269E-03-1.02586E-01-7.29042E-14-2.08859E-13
 -1      4060 1.96969E+01 4.27133E-01-1.12835E-03-9.02759E-02-3.00446E-14-1.83211E-13
 -1      4061 1.96085E+01 5.11308E-01 4.55070E-03-5.28563E-02-2.97497E-14-3.76395E-13
 -1      4062 1.97458E+01 3.82313E-01-1.05145E-03-8.38689E-02 7.84581E-14-1.11710E-13
 -1      4063 1.97870E+01 3.40992E-01-8.69939E-04-7.25307E-02 9.77167E-14-1.12676E-13
 -1      4064 1.97195E+01 4.14123E-01 3.50173E-03-4.70949E-02 1.23208E-14-2.76174E-13
 -1      4065 1.98238E+01 3.02506E-01-8.29529E-04-6.62346E-02 1.39563E-13-6.68068E-14
 -1      4066 1.98550E+01 2.67718E-01-4.64043E-04-5.61350E-02 1.62174E-13 2.69334E-14
 -1      4067 1.98026E+01 3.29514E-01 2.30365E-03-3.99042E-02 1.56980E-13-1.86980E-13
 -1      4068 1.98819E+01 2.35540E-01-4.85878E-04-5.16969E-02 1.12681E-13 5.61233E-14
 -1      4069 1.99040E+01 2.06929E-01-3.76013E-04-4.29015E-02 1.34758E-13 7.60563E-14
 -1      4070 1.98661E+01 2.54309E-01 6.88115E-04-3.11294E-02 1.97274E-13-1.03038E-13
 -1      4071 1.99243E+01 1.80183E-01-3.03515E-04-3.87287E-02 5.66412E-15-2.91261E-14
 -1      4072 1.99396E+01 1.56829E-01-4.05316E-04-3.18862E-02 3.40821E-14-5.07590E-14
 -1      4073 1.99118E+01 1.96018E-01 3.98428E-04-2.46511E-02 8.89925E-15-2.07368E-13
 -1      4074 1.99543E+01 1.35818E-01-1.36318E-04-2.82929E-02 1.01926E-13-1.92036E-13
 -1      4075 1.99649E+01 1.16852E-01-3.50171E-04-2.28448E-02-6.92043E-14-1.81308E-13
 -1      4076 1.99460E+01 1.49377E-01 7.78600E-04-1.81614E-02-6.17490E-14-2.89158E-13
 -1      4077 1.99750E+01 1.00182E-01-1.80873E-04-1.99572E-02-1.69978E-13-1.68740E-13
 -1      4078 1.99824E+01 8.54748E-02-2.29148E-04-1.56851E-02-7.40077E-14-1.08193E-13
 -1      4079 1.99691E+01 1.11475E-01 5.96125E-04-1.30726E-02-6.76526E-14-2.92582E-13
 -1      4080 1.99892E+01 7.23754E-02-1.37312E-04-1.35915E-02-1.01096E-13-1.43880E-13
 -1      4081 1.99940E+01 6.10167E-02-1.62004E-04-1.03695E-02-1.21207E-13-1.12981E-13
 -1      4082 1.99856E+01 8.11884E-02 5.47024E-04-9.16929E-03-1.20996E-13-2.72940E-13
 -1      4083 1.99984E+01 5.10190E-02-8.91228E-05-8.84251E-03-1.36917E-13-2.60441E-13
 -1      4084 2.00014E+01 4.24086E-02-1.09729E-04-6.46467E-03-1.84943E-13-3.63553E-13
 -1      4085 1.99962E+01 5.76610E-02 3.87373E-04-6.13242E-03-1.70603E-13-3.79394E-13
 -1      4086 2.00040E+01 3.48981E-02-5.61860E-05-5.38095E-03-1.07946E-13-3.24018E-13
 -1      4087 2.00057E+01 2.84944E-02-7.06907E-05-3.66678E-03-9.47027E-14-1.63703E-13
 -1      4088 2.00028E+01 3.97910E-02 2.55416E-04-3.84247E-03-1.29535E-13-4.54007E-13
 -1      4089 2.00072E+01 2.29568E-02-3.36414E-05-2.92857E-03-1.16512E-13-1.85032E-13
 -1      4090 2.00079E+01 1.82915E-02-4.22783E-05-1.72817E-03-1.49302E-13-1.66397E-13
 -1      4091 2.00066E+01 2.64752E-02 1.57454E-04-2.18275E-03-5.12796E-14-1.85868E-13
 -1      4092 2.00085E+01 1.42949E-02-1.83172E-05-1.25059E-03-1.34013E-13-1.29104E-13
 -1      4093 2.00087E+01 1.09753E-02-2.22262E-05-4.39544E-04-4.23215E-14-4.27634E-14
 -1      4094 2.00084E+01 1.67560E-02 8.77946E-05-1.02590E-03-1.06415E-13-2.46478E-13
 -1      4095 2.00088E+01 8.16232E-03-8.11941E-06-1.52331E-04-4.40919E-14-6.09924E-14
 -1      4096 2.00086E+01 5.86621E-03-8.59256E-06 3.70464E-04-2.26509E-14-4.62062E-14
 -1      4097 2.00090E+01 9.82665E-03 4.00351E-05-2.54526E-04 5.46723E-15-1.75731E-13
 -1      4098 2.00084E+01 3.94639E-03-1.56744E-06 5.23182E-04-4.25627E-14-4.64542E-14
 -1      4099 2.00080E+01 2.41425E-03 2.40324E-07 8.37925E-04-1.29885E-13 8.32747E-14
 -1      4100 2.00087E+01 5.02295E-03 8.65185E-06 2.30914E-04-5.20994E-14-2.05271E-13
 -1      4101 2.00076E+01 1.15565E-03 2.41702E-06 8.99176E-04-1.71490E-13 1.13617E-13
 -1      4102 2.00071E+01 1.82185E-04 5.57858E-06 1.06800E-03-1.01575E-13 1.46552E-13
 -1      4103 2.00080E+01 1.80853E-03-1.08043E-05 5.10872E-04-6.52662E-14-9.34369E-14
 -1      4104 2.00066E+01-5.97278E-04 4.62497E-06 1.07000E-03-1.23269E-13 1.21713E-13
 -1      4105 2.00061E+01-1.17165E-03 8.44947E-06 1.13996E-03-1.58903E-13 9.53208E-14
 -1      4106 2.00070E+01-2.41686E-04-2.17976E-05 6.48161E-04-1.42912E-13-6.67610E-14
 -1      4107 2.00056E+01-1.61253E-03 5.63520E-06 1.10615E-03-1.95170E-13 8.70748E-14
 -1      4108 2.00051E+01-1.90979E-03 9.64413E-06 1.11204E-03-1.43125E-13-1.24019E-13
 -1      4109 2.00060E+01-1.45874E-03-2.69511E-05 6.90438E-04-2.32599E-13 4.46494E-14
 -1      4110 2.00046E+01-2.11884E-03 5.86230E-06 1.05902E-03-2.01590E-13-1.95517E-13
 -1      4111 2.00041E+01-2.23061E-03 9.74886E-06 1.02581E-03-2.99791E-13-3.04918E-13
 -1      4112 2.00049E+01-2.09599E-03-2.81647E-05 6.72976E-04-2.74145E-13-8.54588E-14
 -1      4113 2.00036E+01-2.28788E-03 5.54969E-06 9.64657E-04-1.49860E-13-2.50111E-13
 -1      4114 2.00032E+01-2.28148E-03 8.79435E-06 9.09432E-04-7.59151E-14-2.41062E-13
 -1      4115 2.00039E+01-2.34379E-03-2.65120E-05 6.21447E-04-2.73453E-13-2.11768E-13
 -1      4116 2.00028E+01-2.24229E-03 5.74856E-06 8.45261E-04-2.05704E-14-2.93553E-13
 -1      4117 2.00025E+01-2.16965E-03 5.93011E-06 7.79474E-04-3.87108E-14-6.26697E-14
 -1      4118 2.00031E+01-2.33970E-03-1.99704E-05 5.54262E-04-6.81997E-14-1.19667E-13
 -1      4119 2.00021E+01-2.07817E-03 3.86133E-06 7.28710E-04-1.28107E-13-7.93750E-15
 -1      4120 2.00018E+01-1.96737E-03 9.51494E-06 6.57673E-04-2.64613E-14 2.11244E-14
 -1      4121 2.00023E+01-2.18169E-03-1.62137E-05 4.75776E-04-2.89593E-15-6.73026E-14
 -1      4122 1.95819E+01 5.05347E-01-2.70609E-03 2.32324E-01-9.93667E-14 3.22576E-13
 -1      4123 1.95302E+01 5.48386E-01 3.14713E-04 2.70260E-01-4.74776E-14 2.74665E-13
 -1      4124 2.00017E+01-1.94619E-03-1.09518E-05 3.11877E-04-6.83720E-16-2.26237E-14
 -1      4125 1.94468E+01 5.87687E-01-3.36383E-03 3.10080E-01-5.27033E-14 2.04575E-13
 -1      4126 1.93849E+01 6.27145E-01 1.52212E-04 3.59709E-01-4.71432E-14 1.77004E-13
 -1      4127 1.94421E+01 6.14518E-01 5.31877E-03 2.30017E-01-7.89406E-14 2.22400E-13
 -1      4128 1.97764E+01 3.47062E-01-1.60582E-03 1.28716E-01 3.44833E-14 1.63118E-13
 -1      4129 1.97426E+01 3.85415E-01-1.81053E-05 1.51718E-01 5.19323E-14 2.60954E-13
 -1      4130 1.98436E+01 2.78384E-01-9.92717E-04 9.40123E-02-1.56924E-13-3.29679E-14
 -1      4131 1.98166E+01 3.12440E-01-1.14024E-05 1.12170E-01-4.68597E-14 9.84180E-14
 -1      4132 1.97803E+01 3.51882E-01 2.75553E-03 9.10370E-02 4.25610E-14 5.33625E-14
 -1      4133 1.98938E+01 2.19547E-01-6.76488E-04 6.83827E-02-6.71243E-14-2.03211E-13
 -1      4134 1.98733E+01 2.47872E-01-1.37490E-04 8.27078E-02-1.40282E-13-1.43617E-13
 -1      4135 1.98459E+01 2.75644E-01 2.28014E-04 6.38532E-02-7.30634E-14-1.19464E-13
 -1      4136 1.99313E+01 1.68868E-01-5.80465E-04 4.87711E-02-5.73745E-15-2.80662E-13
 -1      4137 1.99162E+01 1.93022E-01-9.19474E-05 5.93873E-02 1.49932E-14-1.85859E-13
 -1      4138 1.98969E+01 2.17468E-01 9.16218E-04 4.64838E-02 9.25475E-15-2.62800E-13
 -1      4139 1.99581E+01 1.27981E-01-4.24711E-04 3.40269E-02-1.07263E-13-3.41644E-13
 -1      4140 1.99475E+01 1.47644E-01-7.98575E-06 4.23548E-02-8.60465E-14-3.69433E-13
 -1      4141 1.99337E+01 1.66050E-01 4.12636E-04 3.28040E-02 1.37218E-14-3.38872E-13
 -1      4142 1.99771E+01 9.47173E-02-3.99719E-04 2.32494E-02-1.83985E-13-2.62974E-13
 -1      4143 1.99699E+01 1.10447E-01-2.06079E-05 2.93616E-02-2.45755E-13-3.67887E-13
 -1      4144 1.99602E+01 1.24757E-01 1.53948E-04 2.30246E-02-1.48007E-13-4.58373E-13
 -1      4145 1.99902E+01 6.86290E-02-2.82544E-04 1.51925E-02-2.99793E-14-5.06549E-14
 -1      4146 1.99854E+01 8.10143E-02-3.96260E-06 1.96880E-02-5.63379E-14-1.32813E-13
 -1      4147 1.99792E+01 9.33454E-02 5.71155E-04 1.52932E-02-2.33898E-13-4.39470E-13
 -1      4148 1.99988E+01 4.84283E-02-1.99386E-04 9.47334E-03-1.11154E-13-5.63423E-14
 -1      4149 1.99957E+01 5.79475E-02-3.60773E-06 1.27316E-02 1.22650E-14-2.27629E-14
 -1      4150 1.99920E+01 6.72891E-02 4.47199E-04 9.97573E-03-1.05474E-13-3.28695E-13
 -1      4151 2.00040E+01 3.31288E-02-1.35985E-04 5.44945E-03-1.40180E-13-1.66209E-13
 -1      4152 2.00023E+01 4.03019E-02 5.84596E-06 7.76854E-03-1.72823E-13-5.79138E-14
 -1      4153 2.00001E+01 4.72234E-02 3.04411E-04 6.17269E-03-1.26240E-13-1.75988E-13
 -1      4154 2.00069E+01 2.17669E-02-8.92728E-05 2.68714E-03-9.61125E-14-2.04147E-13
 -1      4155 2.00060E+01 2.70612E-02 1.14657E-05 4.29920E-03-7.69618E-14-1.56128E-13
 -1      4156 2.00050E+01 3.20788E-02 1.93693E-04 3.50184E-03-1.11138E-13-3.03499E-13
 -1      4157 2.00082E+01 1.35133E-02-5.55147E-05 8.55252E-04-1.19622E-13-1.58532E-13
 -1      4158 2.00079E+01 1.73325E-02 1.43142E-05 1.94111E-03-1.56211E-13-2.56407E-13
 -1      4159 2.00076E+01 2.08805E-02 1.13320E-04 1.67860E-03-5.41833E-14-4.23950E-13
 -1      4160 2.00084E+01 7.66739E-03-3.16694E-05-3.02321E-04-7.39344E-14-8.63757E-14
 -1      4161 2.00086E+01 1.03504E-02 1.52725E-05 3.98351E-04-5.82823E-14-8.92509E-14
 -1      4162 2.00086E+01 1.27849E-02 5.72216E-05 4.77736E-04-6.24502E-14-1.55252E-13
 -1      4163 2.00080E+01 3.65094E-03-1.53002E-05-9.81470E-04-6.23589E-14-1.40291E-13
 -1      4164 2.00084E+01 5.47562E-03 1.49695E-05-5.57080E-04-5.34895E-14-3.18294E-14
 -1      4165 2.00087E+01 7.08266E-03 1.96042E-05-2.74741E-04-3.71290E-14-3.45415E-13
 -1      4166 2.00072E+01 9.96924E-04-4.47275E-06-1.32993E-03-5.79266E-14-3.64469E-13
 -1      4167 2.00077E+01 2.18631E-03 1.38758E-05-1.09886E-03-3.34337E-14-1.88921E-13
 -1      4168 2.00082E+01 3.19146E-03-4.36517E-06-7.10925E-04 8.54997E-15-4.56771E-13
 -1      4169 2.00063E+01-6.64456E-04 2.32889E-06-1.45739E-03-2.33897E-13-4.10511E-13
 -1      4170 2.00068E+01 6.52345E-05 1.23422E-05-1.35745E-03-6.59377E-14-3.28033E-13
 -1      4171 2.00073E+01 6.43083E-04-1.85229E-05-9.29714E-04-9.73659E-14-5.67770E-13
 -1      4172 2.00053E+01-1.62057E-03 6.27804E-06-1.44385E-03-2.17523E-13-4.19816E-13
 -1      4173 2.00058E+01-1.21487E-03 1.06224E-05-1.42926E-03-3.27566E-13-4.14863E-13
 -1      4174 2.00063E+01-9.31543E-04-2.58224E-05-1.00410E-03-2.25489E-13-4.73722E-13
 -1      4175 2.00043E+01-2.09071E-03 8.27149E-06-1.34636E-03-2.52497E-13-2.47304E-13
 -1      4176 2.00048E+01-1.90602E-03 8.89114E-06-1.38420E-03-3.13988E-13-3.55464E-13
 -1      4177 2.00053E+01-1.81805E-03-2.84655E-05-9.87108E-04-3.31403E-13-4.77198E-13
 -1      4178 2.00034E+01-2.23946E-03 8.63792E-06-1.20431E-03-1.45333E-13 1.76617E-13
 -1      4179 2.00038E+01-2.19908E-03 7.23096E-06-1.27163E-03-1.55246E-13 1.42297E-14
 -1      4180 2.00043E+01-2.23351E-03-2.79466E-05-9.16674E-04-3.25991E-13-3.21152E-13
 -1      4181 2.00027E+01-2.18490E-03 8.39780E-06-1.04240E-03-2.08723E-13 8.18136E-14
 -1      4182 2.00030E+01-2.23374E-03 6.05320E-06-1.12342E-03-8.30466E-14 1.35403E-13
 -1      4183 2.00034E+01-2.33948E-03-2.40631E-05-8.18797E-04-9.22824E-14-9.35234E-14
 -1      4184 2.00020E+01-2.02607E-03 1.26050E-06-8.85219E-04 3.94905E-14-4.52665E-14
 -1      4185 2.00023E+01-2.11855E-03 2.14024E-06-9.69924E-04-1.11458E-13-4.63412E-14
 -1      4186 2.00026E+01-2.22874E-03-7.03985E-06-6.96296E-04-5.61128E-14-1.66913E-13
 -1      4187 1.83417E+01 5.77247E-01-9.42804E-03 1.31963E+00-1.10727E-13-3.29383E-14
 -1      4188 1.83123E+01 4.71654E-01 9.56296E-03 1.51792E+00-1.00581E-13-1.52042E-14
 -1      4189 1.88671E+01 7.40696E-01-5.00674E-03 7.27599E-01 7.13196E-15 4.78683E-14
 -1      4190 1.87858E+01 7.31496E-01 3.20902E-03 8.43250E-01 2.80174E-14 1.38970E-13
 -1      4191 1.86163E+01 7.00517E-01-6.76107E-03 9.72510E-01-8.74772E-14 9.58026E-14
 -1      4192 1.85433E+01 6.61200E-01 7.02317E-03 1.12529E+00-1.29168E-13 1.86499E-14
 -1      4193 1.84960E+01 8.24080E-01-1.32972E-03 8.02912E-01-5.06625E-14 6.17575E-14
 -1      4194 2.00015E+01-1.85592E-03 5.77071E-06-9.44549E-05 7.49754E-14-2.78121E-13
 -1      4195 1.86399E+01-7.67132E-02-1.67299E-02 2.01944E+00-1.71141E-13 4.17628E-14
 -1      4196 1.92865E+01 6.62643E-01-3.05134E-03 4.10514E-01-1.29245E-13 1.40402E-13
 -1      4197 1.92138E+01 6.95973E-01 1.52010E-03 4.75719E-01-1.63414E-13 1.16437E-13
 -1      4198 1.92663E+01 6.92221E-01 9.01465E-04 3.14871E-01-1.24643E-13 1.56964E-13
 -1      4199 1.96906E+01 4.23557E-01-2.11289E-03 1.73595E-01 1.20099E-14 2.86964E-13
 -1      4200 1.96482E+01 4.65276E-01 6.39314E-05 2.03071E-01-1.79496E-14 2.74329E-13
 -1      4201 1.95833E+01 5.21977E-01 4.71046E-03 1.69543E-01-6.71552E-15 2.20313E-13
 -1      4202 1.96943E+01 4.33142E-01 3.76501E-03 1.24530E-01 5.89872E-14 2.14473E-13
 -1      4203 1.90921E+01 7.17163E-01-4.44803E-03 5.46521E-01-8.38129E-14 1.02857E-13
 -1      4204 1.90128E+01 7.34966E-01 1.78568E-03 6.30705E-01-3.91779E-14 4.11687E-14
 -1      4205 1.90568E+01 7.73960E-01 3.41028E-03 4.22898E-01-1.08569E-13 1.30573E-13
 -1      4206 2.00019E+01-2.00300E-03 2.13072E-06 1.14365E-06 1.01651E-14-2.19927E-13
 -1      4207 2.00023E+01-2.12103E-03 1.09101E-05 9.09801E-05-6.26303E-15-2.49609E-13
 -1      4208 2.00020E+01-2.06799E-03-8.33785E-06-3.42425E-04 6.64077E-14-5.47672E-13
 -1      4209 1.88020E+01 8.28062E-01 4.41503E-03 5.80204E-01-1.01493E-14 1.32094E-13
 -1      4210 1.76684E+01 5.59430E-01 4.43490E-03 1.67161E+00-9.72214E-14-2.25520E-14
 -1      4211 1.80323E+01 2.66821E-01-3.59426E-03 1.90173E+00-1.49797E-13 5.84425E-14
 -1      4212 1.81486E+01 7.87168E-01 6.72136E-03 1.10178E+00-1.48815E-13-7.73042E-14
 -1      4213 1.86695E+01-4.96325E-01 1.24197E-02 2.55002E+00-2.37014E-13-2.26617E-14
 -1      4214 1.73694E+01 8.58130E-01-1.46879E-02 1.20554E+00-9.80208E-14-5.94739E-14
 -1      4215 1.70791E+01 7.26236E-01 1.14531E-02 1.58381E+00-1.17107E-13-7.17796E-14
 -1      4216 1.80017E+01 1.44383E-02-3.75112E-03 2.21298E+00-1.77367E-13 3.54742E-14
 -1      4217 1.63553E+01 9.48873E-01 2.06684E-02 1.46642E+00-9.94381E-14-2.94914E-14
 -1      4218 1.61402E+01 1.14030E+00-1.42302E-02 8.76851E-01-8.58675E-14 6.77767E-14
 -1      4219 1.99014E+01 2.05579E-01-2.72645E-04 2.38564E-02 5.84614E-14-3.63125E-13
 -1      4220 1.98803E+01 2.34445E-01 2.60705E-04 3.01548E-02-1.03750E-14-3.43519E-13
 -1      4221 1.87542E+01 8.74729E-01-4.50898E-03 3.99284E-01-2.53092E-14 5.88504E-14
 -1      4222 1.86239E+01 9.07094E-01 2.41691E-03 4.79783E-01 2.20372E-14 7.16559E-14
 -1      4223 2.00020E+01-2.03479E-03 5.39232E-07-5.28798E-04-4.05456E-14-4.46369E-13
 -1      4224 2.00018E+01-1.97277E-03-6.65706E-09-7.98938E-04-8.20374E-14-9.94958E-14
 -1      4225 1.77087E+01 1.11326E+00-9.65549E-03 4.15943E-01-1.03876E-13 3.04431E-14
 -1      4226 1.80199E+01 1.08384E+00-3.30904E-04 3.42436E-01-7.25162E-14 1.47146E-14
 -1      4227 1.83300E+01 1.04140E+00-4.91689E-03 1.96136E-01-2.48875E-14 1.31351E-14
 -1      4228 1.85604E+01 9.92549E-01-6.41414E-04 1.54171E-01 4.69557E-15 2.08058E-15
 -1      4229 1.87339E+01 9.39485E-01-8.34892E-04 1.24693E-01-4.35422E-14 2.22394E-14
 -1      4230 1.89625E+01 8.54486E-01-3.49359E-03 8.63271E-02-8.57243E-14-1.91941E-14
 -1      4231 1.90935E+01 7.94187E-01-3.94381E-03 7.33522E-02-3.69268E-14-1.37204E-13
 -1      4232 1.92351E+01 7.19921E-01-3.15956E-03 1.18484E-01-7.89880E-14-8.65060E-14
 -1      4233 1.93386E+01 6.64257E-01-2.72506E-03 1.05356E-01-8.61022E-14-1.64683E-13
 -1      4234 1.94187E+01 6.12554E-01-4.52384E-03 7.61955E-02-1.45244E-14-1.54345E-13
 -1      4235 1.95038E+01 5.60429E-01-2.95233E-03 7.01769E-02 1.74143E-14-1.64972E-13
 -1      4236 1.95690E+01 5.11679E-01-3.74858E-03 4.83114E-02-1.92182E-14-1.32822E-13
 -1      4237 1.96353E+01 4.63644E-01-2.48308E-03 4.63533E-02-1.89729E-14-1.40678E-13
 -1      4238 1.96869E+01 4.19143E-01-2.88349E-03 3.02735E-02 3.66182E-14-1.38663E-13
 -1      4239 1.97380E+01 3.76347E-01-1.88874E-03 3.04266E-02 1.08388E-13-7.55450E-14
 -1      4240 1.97783E+01 3.37138E-01-1.97233E-03 1.88540E-02 6.05158E-14-3.74521E-14
 -1      4241 1.98183E+01 3.01252E-01-5.29575E-04 1.90774E-02 5.19768E-14-8.90875E-14
 -1      4242 1.98598E+01 2.54006E-01-7.43956E-04-1.44422E-02 1.50171E-13-3.04518E-13
 -1      4243 1.98892E+01 2.24059E-01 4.41975E-04-1.12876E-02 7.24840E-14-3.01435E-13
 -1      4244 1.99084E+01 1.95807E-01-3.56972E-04-8.76796E-03-1.99196E-14-3.91149E-13
 -1      4245 1.99365E+01 1.59180E-01-2.88743E-05-6.76534E-03-9.27503E-14-2.90588E-13
 -1      4246 1.99495E+01 1.37206E-01-5.88507E-04-4.28989E-03-7.11667E-14-2.99394E-13
 -1      4247 1.99627E+01 1.17931E-01-2.26672E-04 2.26885E-03-1.33136E-13-3.15173E-13
 -1      4248 1.99725E+01 1.00850E-01-3.32304E-04 3.40528E-03-1.96711E-13-3.36763E-13
 -1      4249 1.99804E+01 8.59671E-02-4.10828E-04 1.01712E-03-2.25701E-13-2.76859E-13
 -1      4250 1.99873E+01 7.28981E-02-3.09619E-04 2.19497E-03-1.66141E-13-3.41209E-13
 -1      4251 1.99927E+01 6.14561E-02-3.10983E-04 3.91065E-04-1.86671E-13-3.32100E-13
 -1      4252 1.99972E+01 5.14472E-02-2.20373E-04 1.35175E-03-1.94869E-13-3.53902E-13
 -1      4253 2.00006E+01 4.27537E-02-2.11124E-04 4.71048E-05-1.52279E-13-2.59176E-13
 -1      4254 2.00034E+01 3.52219E-02-1.43184E-04 7.86359E-04-8.28893E-14-2.79558E-13
 -1      4255 2.00053E+01 2.87382E-02-1.33991E-04-1.31679E-04-7.96990E-14-3.45197E-13
 -1      4256 2.00069E+01 2.31810E-02-8.54340E-05 4.14048E-04-8.06929E-14-2.98016E-13
 -1      4257 2.00078E+01 1.84458E-02-7.83109E-05-2.14897E-04-2.24356E-14-3.44420E-13
 -1      4258 2.00085E+01 1.44353E-02-4.45437E-05 1.73360E-04-4.19649E-14-3.08123E-13
 -1      4259 2.00088E+01 1.10586E-02-3.96456E-05-2.43457E-04-2.15341E-14-2.37894E-13
 -1      4260 2.00090E+01 8.23810E-03-1.68184E-05 2.20911E-05 3.01163E-14-2.51894E-13
 -1      4261 2.00089E+01 5.89771E-03-1.38143E-05-2.41687E-04-1.72697E-14-2.18663E-13
 -1      4262 2.00086E+01 3.97567E-03 1.05798E-06-6.85869E-05-5.08159E-14-2.29343E-13
 -1      4263 2.00083E+01 2.41065E-03 2.60695E-06-2.24068E-04-4.55465E-14-2.06903E-13
 -1      4264 2.00079E+01 1.15376E-03 1.17878E-05-1.18487E-04-3.29992E-14-2.62785E-13
 -1      4265 2.00074E+01 1.56879E-04 1.22975E-05-1.99166E-04-1.78162E-13-2.17406E-13
 -1      4266 2.00069E+01-6.18314E-04 1.74821E-05-1.41332E-04-2.59767E-13-2.54098E-13
 -1      4267 2.00064E+01-1.20867E-03 1.72956E-05-1.71981E-04-2.83249E-13-1.67987E-13
 -1      4268 2.00058E+01-1.64386E-03 1.97296E-05-1.46664E-04-3.39042E-13-2.58790E-13
 -1      4269 2.00053E+01-1.95149E-03 1.90856E-05-1.45391E-04-3.12125E-13-2.24555E-13
 -1      4270 2.00048E+01-2.15428E-03 1.96085E-05-1.41063E-04-3.13556E-13-2.34560E-13
 -1      4271 2.00043E+01-2.27257E-03 1.85100E-05-1.21164E-04-2.57854E-13-2.06425E-13
 -1      4272 2.00038E+01-2.32345E-03 1.72743E-05-1.28994E-04-1.58229E-13-2.42351E-13
 -1      4273 2.00034E+01-2.32389E-03 1.42760E-05-1.01455E-04-9.49215E-14-2.09896E-13
 -1      4274 2.00030E+01-2.28327E-03 1.06118E-05-1.12506E-04 5.44423E-14-2.39147E-13
 -1      4275 2.00026E+01-2.21943E-03 1.06099E-05 1.24457E-04 8.28691E-14-2.90659E-13
 -1      4276 1.91121E+01 7.67035E-01-9.16000E-04 2.74704E-01-1.35362E-13 1.14214E-13
 -1      4277 1.89907E+01 8.09225E-01-6.02106E-04 3.31362E-01-1.02116E-13 9.84574E-14
 -1      4278 2.00023E+01-2.15039E-03-6.79109E-07-4.64219E-04 5.43268E-14-4.18856E-13
 -1      4279 1.99460E+01 1.46217E-01 1.74461E-04 1.68132E-02 3.04289E-14-2.96688E-13
 -1      4280 1.99297E+01 1.67730E-01-3.19032E-04 2.14596E-02 5.03595E-14-2.57136E-13
 -1      4281 1.99575E+01 1.28054E-01 2.69779E-04 1.33778E-02-1.34489E-13-2.97399E-13
 -1      4282 1.81451E+01 9.16201E-01-4.10929E-03 7.72759E-01-1.75196E-13-1.93732E-14
 -1      4283 1.79552E+01 8.99599E-01 2.84502E-03 9.31678E-01-1.69549E-13-1.49618E-14
 -1      4284 1.74734E+01 1.03796E+00 8.17314E-03 8.26456E-01-1.45564E-13-1.69639E-14
 -1      4285 1.67248E+01 1.14753E+00-3.59034E-03 7.21311E-01-1.20221E-13 7.10765E-14
 -1      4286 1.92147E+01 7.33815E-01 3.31851E-03 2.30354E-01-1.61840E-13 1.21819E-13
 -1      4287 1.83226E+01 9.27688E-01-3.74481E-03 6.45421E-01-7.22759E-14 6.51023E-15
 -1      4288 1.83104E+01 1.00159E+00 3.20313E-03 4.47959E-01-4.97074E-14 7.73253E-16
 -1      4289 1.71350E+01 1.14938E+00 3.49215E-04 6.02499E-01-1.30805E-13 5.87217E-14
 -1      4290 1.99174E+01 1.85216E-01 3.11487E-04 6.36663E-03 1.61156E-14-3.70479E-13
 -1      4291 1.88472E+01 8.87765E-01 3.68554E-03 2.34949E-01-8.48509E-14 1.57475E-15
 -1      4292 1.98508E+01 2.67836E-01 4.23180E-04 3.85955E-02 9.02472E-15-2.49854E-13
 -1      4293 2.00027E+01-2.26056E-03-1.10499E-05-5.07592E-04 2.46401E-14-4.00724E-13
 -3
    1PSTEP                         3           1           1          
  100CL  101 1.000000000        4293                     0    1           1
 -4  TOSTRAIN    6    1
 -5  EXX         1    4    1    1
 -5  EYY         1    4    2    2
 -5  EZZ         1    4    3    3
 -5  EXY         1    4    1    2
 -5  EYZ         1    4    2    3
 -5  EZX         1    4    3    1
 -1         1 3.08356E-04-9.56830E-05-7.81286E-05 6.13351E-07-4.39637E-19-6.47308E-18
 -1         2 3.26143E-05-9.81107E-05 1.64451E-05-4.66268E-07 2.46162E-18 7.24663E-19
 -1         3 9.52372E-05-2.85711E-05-2.85713E-05 4.00207E-11-3.54257E-18-2.79637E-18
 -1         4 9.52372E-05-2.85711E-05-2.85713E-05-3.88430E-11 1.99417E-18-6.68418E-19
 -1         5 1.73322E-04-2.59326E-05-5.13537E-05 4.59415E-05-2.30922E-19 2.14280E-17
 -1         6 1.91961E-04 3.64934E-10-5.96429E-05-6.56441E-05-1.25869E-18 2.20449E-17
 -1         7 1.20904E-04-1.17472E-06-5.13872E-05-3.00214E-05-1.71524E-19 5.25195E-18
 -1         8 1.05864E-04-1.34728E-07-4.47212E-05-1.49483E-05-1.88782E-19-7.18655E-20
 -1         9 9.31374E-05-8.29614E-08-3.93046E-05-5.76371E-06-1.44631E-19-2.98814E-18
 -1        10 7.98525E-05 3.31618E-09-3.38029E-05 1.20589E-06-5.78100E-20-4.54835E-18
 -1        11 6.57526E-05 2.61605E-07-2.82989E-05 4.81231E-06-2.96462E-21-5.45242E-18
 -1        12 5.34186E-05 5.66756E-07-2.36990E-05 3.73061E-06-1.37643E-21-5.95159E-18
 -1        13 4.62451E-05 7.67341E-07-2.10662E-05-1.61232E-06-3.65283E-20-6.22081E-18
 -1        14 4.67248E-05 7.05968E-07-2.11657E-05-7.89049E-06-7.89594E-20-6.28000E-18
 -1        15 5.43043E-05 4.12521E-07-2.38015E-05-1.20271E-05-1.08526E-19-6.25987E-18
 -1        16 6.55268E-05 6.34255E-08-2.78882E-05-1.14394E-05-9.38089E-20-6.08805E-18
 -1        17 7.64556E-05-1.74758E-07-3.20954E-05-6.55102E-06-6.74450E-20-5.87463E-18
 -1        18 8.49185E-05-2.48204E-07-3.55843E-05 7.09547E-07 2.25523E-20-5.61756E-18
 -1        19 9.07182E-05-1.89040E-07-3.81782E-05 8.51096E-06 1.02279E-19-5.09755E-18
 -1        20 9.49216E-05-4.53430E-08-4.02155E-05 1.59218E-05 1.87353E-19-3.75274E-18
 -1        21 9.94527E-05 1.53960E-07-4.24164E-05 2.31513E-05 2.47651E-19-8.68500E-19
 -1        22 1.08875E-04-7.29997E-08-4.60825E-05 3.26765E-05 8.79855E-20 5.51953E-18
 -1        23 1.61038E-04-5.41747E-05-4.98323E-05-4.37118E-06-8.95208E-19 1.78206E-17
 -1        24 1.38356E-04-4.13652E-05-4.24339E-05 5.21387E-07-1.24130E-19 1.45452E-17
 -1        25 1.29758E-04-3.90799E-05-3.86872E-05-6.69689E-08-1.99244E-19 1.14592E-17
 -1        26 1.18349E-04-3.56227E-05-3.51955E-05-7.66282E-07 9.49537E-20 9.14361E-18
 -1        27 1.04619E-04-3.14482E-05-3.14593E-05-1.04990E-06-9.36129E-20 7.46326E-18
 -1        28 9.28074E-05-2.78367E-05-2.83903E-05-7.18280E-07-1.32534E-19 5.76147E-18
 -1        29 8.81540E-05-2.64081E-05-2.71803E-05 1.24999E-07 1.15673E-19 3.07724E-18
 -1        30 9.26275E-05-2.77740E-05-2.82614E-05 9.03043E-07-1.25219E-19 1.58663E-18
 -1        31 1.03086E-04-3.09479E-05-3.09383E-05 1.12738E-06-1.43655E-20-2.47545E-19
 -1        32 1.13956E-04-3.42151E-05-3.38800E-05 8.38176E-07-3.59681E-19-1.38400E-18
 -1        33 1.21167E-04-3.63577E-05-3.59810E-05 3.85625E-07 7.14087E-19-1.45150E-18
 -1        34 1.23646E-04-3.70798E-05-3.68236E-05 3.57989E-08-9.56684E-20-8.95168E-19
 -1        35 1.22390E-04-3.66953E-05-3.65788E-05-1.42938E-07 8.41251E-20-1.66936E-18
 -1        36 1.19007E-04-3.56850E-05-3.56626E-05-1.94201E-07-1.10202E-19-1.84630E-18
 -1        37 1.14839E-04-3.44446E-05-3.44665E-05-1.79743E-07-1.16028E-19-2.10637E-18
 -1        38 1.10730E-04-3.32211E-05-3.32552E-05-1.42208E-07-2.13495E-21-1.68967E-18
 -1        39 1.07096E-04-3.21372E-05-3.21686E-05-1.03088E-07-2.70654E-19-1.68057E-18
 -1        40 1.04081E-04-3.12356E-05-3.12596E-05-7.04741E-08-9.72099E-20-2.04843E-18
 -1        41 1.01679E-04-3.05160E-05-3.05324E-05-4.59277E-08-5.73435E-20-3.87263E-18
 -1        42 9.98212E-05-2.99581E-05-2.99686E-05-2.84870E-08-2.49092E-19-4.51411E-18
 -1        43 9.84168E-05-2.95355E-05-2.95417E-05-1.65537E-08 1.55370E-19-3.65801E-18
 -1        44 9.73757E-05-2.92216E-05-2.92250E-05-8.62901E-09-2.52139E-20-9.13934E-19
 -1        45 9.66185E-05-2.89928E-05-2.89944E-05-3.52178E-09-1.43725E-19-7.62337E-19
 -1        46 9.60787E-05-2.88295E-05-2.88299E-05-3.52211E-10-1.62956E-19-9.44542E-19
 -1        47 9.57029E-05-2.87155E-05-2.87153E-05 1.50660E-09-9.68839E-20 1.41719E-18
 -1        48 9.54487E-05-2.86382E-05-2.86376E-05 2.49337E-09 1.14692E-19 3.56524E-18
 -1        49 9.52831E-05-2.85876E-05-2.85869E-05 2.91227E-09 3.49833E-19 1.61857E-18
 -1        50 9.51810E-05-2.85563E-05-2.85556E-05 2.97294E-09-2.10952E-19-1.92478E-18
 -1        51 9.51234E-05-2.85385E-05-2.85378E-05 2.81894E-09 5.29548E-20-1.44687E-18
 -1        52 9.50961E-05-2.85299E-05-2.85292E-05 2.54754E-09-2.04544E-19 3.04683E-19
 -1        53 9.50888E-05-2.85274E-05-2.85268E-05 2.22332E-09-3.62499E-19 1.36903E-18
 -1        54 9.50938E-05-2.85287E-05-2.85282E-05 1.88789E-09 3.25608E-19 8.60136E-19
 -1        55 9.51061E-05-2.85322E-05-2.85317E-05 1.56673E-09-3.51629E-19 1.43142E-18
 -1        56 9.51218E-05-2.85368E-05-2.85364E-05 1.27427E-09 3.77473E-19-9.58077E-19
 -1        57 9.51387E-05-2.85417E-05-2.85415E-05 1.01746E-09 8.02117E-20-1.68327E-18
 -1        58 9.51552E-05-2.85466E-05-2.85464E-05 7.98329E-10 2.52684E-19-3.31511E-18
 -1        59 9.51705E-05-2.85512E-05-2.85510E-05 6.15823E-10 2.79881E-19-4.84443E-18
 -1        60 9.51840E-05-2.85552E-05-2.85551E-05 4.67058E-10-3.28183E-19-3.29434E-18
 -1        61 9.51956E-05-2.85587E-05-2.85586E-05 3.48232E-10 1.05776E-18-4.33564E-18
 -1        62 9.52053E-05-2.85616E-05-2.85615E-05 2.55210E-10 9.95904E-20-5.56562E-18
 -1        63 9.52134E-05-2.85640E-05-2.85639E-05 1.83904E-10-1.86527E-19-3.20793E-18
 -1        64 9.52199E-05-2.85659E-05-2.85659E-05 1.30480E-10-3.32379E-20-3.29303E-18
 -1        65 9.52250E-05-2.85675E-05-2.85675E-05 9.14262E-11 7.07609E-21-4.72266E-18
 -1        66 9.52291E-05-2.85687E-05-2.85687E-05 6.34815E-11 8.04166E-19-2.99012E-18
 -1        67 9.52322E-05-2.85696E-05-2.85696E-05 4.32912E-11 1.35124E-19 1.14215E-18
 -1        68 9.52346E-05-2.85703E-05-2.85703E-05 2.67057E-11 1.88495E-19 6.51538E-19
 -1        69 9.52362E-05-2.85708E-05-2.85708E-05 7.56130E-12 4.60082E-19-9.36054E-19
 -1        70 9.52371E-05-2.85711E-05-2.85711E-05-2.79207E-11-2.12175E-19 1.11993E-18
 -1        71 9.52373E-05-2.85712E-05-2.85712E-05-7.28505E-11-8.47046E-19 1.50178E-20
 -1        72 1.24684E-04-3.73940E-05-4.13988E-05-2.47053E-06 3.13058E-19 1.89243E-17
 -1        73 1.11450E-04-3.31638E-05-3.46141E-05-4.16292E-07 1.99258E-19 1.35552E-17
 -1        74 1.03316E-04-3.10024E-05-3.11301E-05 1.31437E-08 1.48568E-19 9.99720E-18
 -1        75 9.62401E-05-2.89457E-05-2.88444E-05 2.13829E-07-9.98316E-20 8.05203E-18
 -1        76 9.00023E-05-2.70514E-05-2.70742E-05 3.14358E-07 6.20278E-20 6.60567E-18
 -1        77 8.56894E-05-2.57127E-05-2.59072E-05 2.66964E-07 1.46638E-19 4.26561E-18
 -1        78 8.44847E-05-2.53154E-05-2.55952E-05 8.60550E-08-5.76429E-20 2.79134E-18
 -1        79 8.67072E-05-2.59709E-05-2.62065E-05-1.41528E-07-6.14926E-20 2.00212E-18
 -1        80 9.15045E-05-2.74228E-05-2.75229E-05-3.10343E-07 3.70374E-20 1.69491E-18
 -1        81 9.72747E-05-2.91755E-05-2.91323E-05-3.62930E-07 1.71261E-19 2.44197E-19
 -1        82 1.02447E-04-3.07438E-05-3.06105E-05-3.13109E-07-4.07320E-20-5.59306E-19
 -1        83 1.06052E-04-3.18319E-05-3.16755E-05-2.12341E-07-6.84004E-20-7.18105E-19
 -1        84 1.07834E-04-3.23653E-05-3.22333E-05-1.08758E-07 3.24267E-19-1.58181E-18
 -1        85 1.08045E-04-3.24239E-05-3.23349E-05-2.88619E-08-1.64663E-19-1.90978E-18
 -1        86 1.07155E-04-3.21523E-05-3.21048E-05 2.10607E-08 8.34383E-20-1.24046E-18
 -1        87 1.05643E-04-3.16954E-05-3.16787E-05 4.58068E-08 4.35017E-20-9.86343E-19
 -1        88 1.03887E-04-3.11671E-05-3.11694E-05 5.34119E-08-7.71724E-20-1.17031E-18
 -1        89 1.02144E-04-3.06437E-05-3.06557E-05 5.11096E-08 1.98962E-19-1.44663E-18
 -1        90 1.00562E-04-3.01690E-05-3.01846E-05 4.40765E-08 9.10984E-22-1.83205E-18
 -1        91 9.92099E-05-2.97634E-05-2.97790E-05 3.55218E-08 1.53101E-19-2.80209E-18
 -1        92 9.81036E-05-2.94317E-05-2.94456E-05 2.72011E-08-4.26979E-19-2.21730E-18
 -1        93 9.72309E-05-2.91700E-05-2.91815E-05 1.99335E-08 6.85024E-19-2.05405E-18
 -1        94 9.65637E-05-2.89699E-05-2.89790E-05 1.39919E-08-2.09600E-20-1.77832E-18
 -1        95 9.60687E-05-2.88214E-05-2.88283E-05 9.35999E-09-3.45229E-19-7.71213E-19
 -1        96 9.57125E-05-2.87145E-05-2.87195E-05 5.88703E-09 8.10965E-20-2.22732E-20
 -1        97 9.54648E-05-2.86401E-05-2.86437E-05 3.37523E-09-1.14612E-19-1.34464E-18
 -1        98 9.52996E-05-2.85904E-05-2.85929E-05 1.62537E-09 2.35798E-19-1.72480E-18
 -1        99 9.51952E-05-2.85590E-05-2.85606E-05 4.58314E-10 5.10818E-21-3.47865E-18
 -1       100 9.51347E-05-2.85408E-05-2.85417E-05-2.76941E-10 4.62476E-20-4.75903E-18
 -1       101 9.51046E-05-2.85317E-05-2.85322E-05-7.02260E-10-2.31857E-19-4.68654E-18
 -1       102 9.50949E-05-2.85287E-05-2.85289E-05-9.12591E-10 5.82791E-20-4.00826E-18
 -1       103 9.50982E-05-2.85296E-05-2.85297E-05-9.79665E-10-3.25249E-19-4.05040E-18
 -1       104 9.51091E-05-2.85329E-05-2.85328E-05-9.56180E-10-3.37724E-19-5.91673E-18
 -1       105 9.51240E-05-2.85373E-05-2.85371E-05-8.79798E-10 5.12184E-19-8.91860E-18
 -1       106 9.51402E-05-2.85421E-05-2.85419E-05-7.76648E-10-1.35044E-19-7.00075E-18
 -1       107 9.51563E-05-2.85469E-05-2.85467E-05-6.64197E-10-1.25390E-19-6.36669E-18
 -1       108 9.51712E-05-2.85514E-05-2.85512E-05-5.53569E-10-1.03649E-19-6.22250E-18
 -1       109 9.51845E-05-2.85554E-05-2.85552E-05-4.51352E-10 9.00824E-20-4.43427E-18
 -1       110 9.51960E-05-2.85588E-05-2.85587E-05-3.60998E-10-1.07367E-19-5.29191E-18
 -1       111 9.52056E-05-2.85617E-05-2.85616E-05-2.83866E-10 4.15287E-20-6.11480E-18
 -1       112 9.52136E-05-2.85641E-05-2.85640E-05-2.19989E-10-2.93151E-19-5.60174E-18
 -1       113 9.52200E-05-2.85660E-05-2.85659E-05-1.68617E-10 2.93873E-19-3.13262E-18
 -1       114 9.52252E-05-2.85675E-05-2.85675E-05-1.28577E-10 9.11314E-20-4.51974E-18
 -1       115 9.52292E-05-2.85688E-05-2.85687E-05-9.84360E-11 6.12707E-19-4.05441E-18
 -1       116 9.52323E-05-2.85697E-05-2.85696E-05-7.63462E-11 2.49991E-20-6.86484E-18
 -1       117 9.52346E-05-2.85704E-05-2.85703E-05-5.95869E-11 1.61268E-20-3.90543E-18
 -1       118 9.52362E-05-2.85709E-05-2.85708E-05-4.32265E-11 2.11892E-19-4.26494E-18
 -1       119 9.52371E-05-2.85711E-05-2.85711E-05-1.13789E-11-5.02643E-19-4.26551E-18
 -1       120 9.52373E-05-2.85712E-05-2.85712E-05 5.71651E-11 2.75770E-18-7.06027E-18
 -1       121 9.52371E-05-2.85710E-05-2.85712E-05 8.08140E-11-8.45401E-18 2.11827E-18
 -1       122 9.52372E-05-2.85712E-05-2.85711E-05 6.87993E-12-5.72222E-18-4.91338E-19
 -1       123 9.52374E-05-2.85721E-05-2.85708E-05-4.10567E-11-7.01011E-19 1.18352E-18
 -1       124 9.52378E-05-2.85735E-05-2.85704E-05-6.35737E-11-1.40578E-18 8.13153E-19
 -1       125 9.52383E-05-2.85750E-05-2.85700E-05-6.66504E-11-5.61647E-19-9.12944E-19
 -1       126 9.52387E-05-2.85764E-05-2.85696E-05-5.71971E-11-2.66761E-18-9.73357E-20
 -1       127 9.52390E-05-2.85775E-05-2.85693E-05-3.79457E-11 9.71850E-19 1.02189E-18
 -1       128 9.52392E-05-2.85780E-05-2.85691E-05-1.30956E-11 4.04922E-18-1.18423E-18
 -1       129 9.52392E-05-2.85780E-05-2.85691E-05 1.35887E-11 7.95958E-18 1.66128E-18
 -1       130 9.52390E-05-2.85775E-05-2.85693E-05 3.83334E-11 1.90393E-18-2.14491E-18
 -1       131 9.52387E-05-2.85764E-05-2.85696E-05 5.79352E-11-5.73339E-18-8.44275E-19
 -1       132 9.52383E-05-2.85750E-05-2.85700E-05 6.67913E-11-1.29036E-18 1.67296E-18
 -1       133 9.52378E-05-2.85735E-05-2.85704E-05 6.30674E-11 3.36530E-18 2.97229E-20
 -1       134 9.52374E-05-2.85721E-05-2.85708E-05 4.55217E-11 1.17109E-18-1.27802E-18
 -1       135 9.52372E-05-2.85712E-05-2.85711E-05-9.54396E-12-8.39342E-19 1.43364E-18
 -1       136 9.52371E-05-2.85710E-05-2.85712E-05-1.31411E-10-4.37603E-20 1.78875E-19
 -1       137 2.23549E-05-7.40869E-05 1.17410E-05-1.99740E-05 1.36713E-17 3.20800E-18
 -1       138 6.17155E-06-2.19744E-05-5.41635E-07-1.09272E-05 2.13706E-17 1.06379E-17
 -1       139 1.64804E-05 2.29050E-05-1.95518E-05 3.58047E-05 2.16120E-17 1.63278E-17
 -1       140 6.98315E-05 2.70424E-05-3.90919E-05 8.80708E-05 1.55846E-17 1.87359E-17
 -1       141 1.61246E-04-1.01240E-05-5.75986E-05 1.13787E-04 8.76404E-18 1.64371E-17
 -1       142 2.51241E-04-6.19075E-05-7.05354E-05 8.67534E-05 2.66731E-18 8.84069E-18
 -1       143 2.95320E-04-9.10355E-05-7.57988E-05 1.14631E-05 4.99458E-19-5.68099E-18
 -1       144 2.64964E-04-7.36181E-05-7.18095E-05-6.42877E-05 3.94537E-18-1.89799E-17
 -1       145 1.79140E-04-2.46396E-05-5.97142E-05-1.02851E-04 1.20848E-17-2.67603E-17
 -1       146 7.95220E-05 1.92524E-05-4.09435E-05-8.68586E-05 2.14653E-17-2.79093E-17
 -1       147 2.10362E-05 2.56599E-05-2.28514E-05-4.21607E-05 2.66180E-17-2.26744E-17
 -1       148 4.25788E-06-2.08114E-06-6.84406E-06-2.11955E-06 2.52174E-17-1.34445E-17
 -1       149 1.23470E-05-4.21509E-05 5.07942E-06 1.31493E-05 1.63126E-17-4.76287E-18
 -1       150 2.20307E-05-6.69837E-05 1.06607E-05 2.18148E-06 2.67239E-18-5.84400E-19
 -1       151 1.83524E-05-6.07412E-05 9.25698E-06-1.48194E-05-1.20921E-17-2.81705E-18
 -1       152 6.06322E-06-2.57217E-05 3.10027E-07-1.38866E-05-2.31437E-17-1.08530E-17
 -1       153 1.09743E-05 1.23689E-05-1.53934E-05 2.06702E-05-2.71936E-17-2.08654E-17
 -1       154 6.37071E-05 2.06547E-05-3.64087E-05 7.52289E-05-2.29919E-17-2.82557E-17
 -1       155 1.58049E-04-1.49750E-05-5.56685E-05 1.03018E-04-1.38871E-17-2.81842E-17
 -1       156 2.62908E-04-6.98064E-05-7.18798E-05 7.43808E-05-4.86970E-18-1.99396E-17
 -1       157 2.82737E-04-7.78470E-05-7.55308E-05-7.21496E-05-1.71528E-18 6.03384E-18
 -1       158 2.04837E-04-3.17845E-05-6.50008E-05-1.12944E-04-7.73987E-18 1.75332E-17
 -1       159 1.14339E-04 1.27950E-05-4.97218E-05-1.08379E-04-1.47710E-17 2.27170E-17
 -1       160 4.27738E-05 3.04854E-05-3.15228E-05-6.77253E-05-2.09327E-17 2.10267E-17
 -1       161 9.35371E-06 1.16708E-05-1.36743E-05-1.83792E-05-2.25192E-17 1.58721E-17
 -1       162 8.82856E-06-3.55170E-05 2.86058E-06 1.76143E-05-1.90633E-17 8.12050E-18
 -1       163 2.48793E-05-8.06845E-05 1.30051E-05 2.01843E-05-1.06440E-17 2.17635E-18
 -1       164 1.25547E-04-2.01249E-05-4.54342E-05-2.21059E-05-2.39149E-18 2.72247E-18
 -1       165 1.09992E-04-1.56498E-05-4.06447E-05-1.33075E-05-1.79461E-18-6.48986E-19
 -1       166 9.51602E-05-1.22807E-05-3.56485E-05-5.10920E-06-9.92537E-19-2.70235E-18
 -1       167 7.77548E-05-7.14857E-06-3.03375E-05 1.51173E-06-2.34866E-19-4.03638E-18
 -1       168 5.90059E-05-5.06445E-11-2.53395E-05 4.11256E-06 1.44035E-19-5.00142E-18
 -1       169 4.37044E-05 6.64518E-06-2.16179E-05 1.24589E-06-1.05052E-19-5.69910E-18
 -1       170 3.87814E-05 8.68058E-06-2.03734E-05-5.01800E-06-7.31588E-19-5.95326E-18
 -1       171 4.58862E-05 4.91731E-06-2.18081E-05-1.08589E-05-1.31813E-18-5.76691E-18
 -1       172 6.11664E-05-2.22564E-06-2.53004E-05-1.19951E-05-1.51745E-18-5.38679E-18
 -1       173 7.72954E-05-8.58173E-06-2.95009E-05-7.93901E-06-1.14042E-18-4.91494E-18
 -1       174 8.95116E-05-1.19880E-05-3.32957E-05-8.57305E-07-2.99539E-19-4.49724E-18
 -1       175 9.70300E-05-1.27976E-05-3.62017E-05 6.93654E-06 6.39338E-19-4.10045E-18
 -1       176 1.01462E-04-1.24805E-05-3.82866E-05 1.42369E-05 1.54133E-18-3.26436E-18
 -1       177 1.05507E-04-1.28190E-05-3.99480E-05 2.08277E-05 2.40054E-18-1.49515E-18
 -1       178 1.13531E-04-1.70233E-05-4.16368E-05 2.66651E-05 2.74935E-18 2.24564E-18
 -1       179 1.26415E-04-3.14745E-05-4.21043E-05 2.28987E-05 2.44602E-18 7.49751E-18
 -1       180 1.41976E-04-3.95346E-05-4.39273E-05-1.35120E-05-2.10684E-18 6.86989E-18
 -1       181 1.33834E-04-4.07900E-05-3.99234E-05-9.39092E-06-1.66231E-18 6.01248E-18
 -1       182 1.26250E-04-3.88303E-05-3.74180E-05-1.10278E-05-1.34190E-18 5.35513E-18
 -1       183 1.18463E-04-3.58058E-05-3.53908E-05-1.28326E-05-1.18960E-18 4.39995E-18
 -1       184 1.10581E-04-3.19089E-05-3.37196E-05-1.10340E-05-1.50691E-18 3.22442E-18
 -1       185 1.05170E-04-2.90352E-05-3.26609E-05-4.52155E-06-2.10602E-18 1.53141E-18
 -1       186 1.04572E-04-2.90576E-05-3.23982E-05 3.78083E-06-1.43633E-18-2.56443E-19
 -1       187 1.08299E-04-3.16485E-05-3.28640E-05 9.13630E-06-1.08014E-18-1.33604E-18
 -1       188 1.13388E-04-3.46621E-05-3.37360E-05 9.38105E-06-7.10958E-19-1.56900E-18
 -1       189 1.17077E-04-3.64222E-05-3.45657E-05 6.00785E-06-2.11672E-19-1.69586E-18
 -1       190 1.18308E-04-3.66816E-05-3.49932E-05 1.74708E-06-6.92449E-20-3.28662E-18
 -1       191 1.17370E-04-3.59696E-05-3.49019E-05-1.58925E-06-1.35545E-19-3.15685E-18
 -1       192 1.15048E-04-3.48549E-05-3.43834E-05-3.48696E-06 9.22836E-20-2.67933E-18
 -1       193 1.12095E-04-3.36844E-05-3.36135E-05-4.18187E-06 1.08714E-19-1.87124E-18
 -1       194 1.09044E-04-3.26161E-05-3.27576E-05-4.11314E-06-5.79043E-20-1.04581E-18
 -1       195 1.06211E-04-3.17038E-05-3.19300E-05-3.65669E-06 1.22064E-19-1.37471E-18
 -1       196 1.03746E-04-3.09535E-05-3.11927E-05-3.05987E-06-4.99224E-19-1.26804E-18
 -1       197 1.01694E-04-3.03518E-05-3.05700E-05-2.46012E-06-8.16932E-19-2.14103E-18
 -1       198 1.00039E-04-2.98785E-05-3.00634E-05-1.92201E-06-4.37083E-19-2.12448E-18
 -1       199 9.87359E-05-2.95125E-05-2.96625E-05-1.46824E-06 1.41488E-19-1.50840E-18
 -1       200 9.77315E-05-2.92339E-05-2.93521E-05-1.10007E-06 1.45994E-18-1.69624E-18
 -1       201 9.69711E-05-2.90252E-05-2.91164E-05-8.09163E-07-6.01695E-20-1.40998E-18
 -1       202 9.64057E-05-2.88714E-05-2.89406E-05-5.83874E-07 5.39969E-19-6.01078E-19
 -1       203 9.59929E-05-2.87602E-05-2.88120E-05-4.12337E-07 1.23054E-18 1.09076E-18
 -1       204 9.56977E-05-2.86815E-05-2.87196E-05-2.83780E-07 4.66306E-19 1.13535E-18
 -1       205 9.54915E-05-2.86273E-05-2.86549E-05-1.88977E-07-1.00240E-18 5.76969E-20
 -1       206 9.53517E-05-2.85912E-05-2.86107E-05-1.20288E-07-1.86765E-18-7.36343E-19
 -1       207 9.52606E-05-2.85683E-05-2.85818E-05-7.15240E-08 4.31452E-19-9.50190E-19
 -1       208 9.52044E-05-2.85547E-05-2.85637E-05-3.77491E-08 1.31398E-18 2.84170E-19
 -1       209 9.51727E-05-2.85475E-05-2.85533E-05-1.50805E-08-2.13195E-19 9.72464E-19
 -1       210 9.51579E-05-2.85448E-05-2.85483E-05-5.02704E-10-8.18006E-19 1.20924E-18
 -1       211 9.51540E-05-2.85448E-05-2.85467E-05 8.29655E-09 8.11508E-20-1.55585E-19
 -1       212 9.51570E-05-2.85465E-05-2.85473E-05 1.30666E-08-7.42415E-19-5.87214E-19
 -1       213 9.51640E-05-2.85491E-05-2.85492E-05 1.51117E-08 2.89021E-20-7.09024E-20
 -1       214 9.51729E-05-2.85521E-05-2.85518E-05 1.53881E-08-1.27488E-18-1.40458E-18
 -1       215 9.51824E-05-2.85551E-05-2.85545E-05 1.45838E-08-1.16766E-18-2.61210E-18
 -1       216 9.51917E-05-2.85580E-05-2.85573E-05 1.31816E-08 1.05638E-19-4.85790E-18
 -1       217 9.52002E-05-2.85606E-05-2.85599E-05 1.15108E-08-7.24954E-19-3.06721E-18
 -1       218 9.52078E-05-2.85628E-05-2.85622E-05 9.78687E-09-2.87633E-19-3.67285E-18
 -1       219 9.52143E-05-2.85647E-05-2.85641E-05 8.14240E-09 5.51495E-19-3.45692E-18
 -1       220 9.52198E-05-2.85663E-05-2.85658E-05 6.65096E-09 8.89204E-20-3.53908E-18
 -1       221 9.52243E-05-2.85676E-05-2.85672E-05 5.34435E-09 4.46383E-19-1.80625E-18
 -1       222 9.52280E-05-2.85687E-05-2.85683E-05 4.22509E-09 6.91876E-19-3.46356E-19
 -1       223 9.52309E-05-2.85695E-05-2.85692E-05 3.27463E-09 2.38473E-18-1.19427E-18
 -1       224 9.52332E-05-2.85701E-05-2.85699E-05 2.45854E-09 8.67000E-19-3.25257E-19
 -1       225 9.52348E-05-2.85706E-05-2.85704E-05 1.73111E-09 6.16933E-20-1.05163E-19
 -1       226 9.52360E-05-2.85710E-05-2.85707E-05 1.04614E-09 4.68172E-19-2.05306E-19
 -1       227 9.52368E-05-2.85712E-05-2.85710E-05 3.89390E-10-9.75687E-20 4.75666E-20
 -1       228 1.18170E-04-3.43364E-05-3.61361E-05 1.07876E-05 2.37356E-18 6.64804E-18
 -1       229 1.09592E-04-3.26418E-05-3.29352E-05 7.21573E-06 1.70547E-18 5.24900E-18
 -1       230 1.03127E-04-3.08301E-05-3.09270E-05 6.19177E-06 1.04507E-18 3.96695E-18
 -1       231 9.79043E-05-2.90460E-05-2.94834E-05 5.06150E-06 1.14564E-18 2.77109E-18
 -1       232 9.42619E-05-2.76756E-05-2.85338E-05 2.98769E-06 1.09608E-18 1.86158E-18
 -1       233 9.27997E-05-2.71230E-05-2.81533E-05 1.71764E-07 6.28905E-19 1.16016E-18
 -1       234 9.36770E-05-2.75262E-05-2.83526E-05-2.53960E-06 5.39266E-19 3.69968E-19
 -1       235 9.63443E-05-2.86493E-05-2.90054E-05-4.25510E-06 5.76073E-19-2.99820E-19
 -1       236 9.97555E-05-3.00096E-05-2.98794E-05-4.58465E-06 7.56109E-19-1.14599E-18
 -1       237 1.02874E-04-3.11634E-05-3.07225E-05-3.76281E-06-5.41638E-20-8.31125E-19
 -1       238 1.05042E-04-3.18815E-05-3.13492E-05-2.35505E-06 3.63448E-19-8.60800E-19
 -1       239 1.06059E-04-3.21433E-05-3.16783E-05-9.01988E-07 5.33442E-19-1.59489E-18
 -1       240 1.06051E-04-3.20476E-05-3.17196E-05 2.65571E-07 1.18522E-19-1.87657E-18
 -1       241 1.05300E-04-3.17246E-05-3.15371E-05 1.03511E-06-4.34292E-19-1.84563E-18
 -1       242 1.04107E-04-3.12880E-05-3.12124E-05 1.43569E-06-3.76011E-20-1.56770E-18
 -1       243 1.02726E-04-3.08198E-05-3.08196E-05 1.55692E-06 3.34455E-19-1.75072E-18
 -1       244 1.01336E-04-3.03713E-05-3.04147E-05 1.49625E-06 1.24746E-19-2.79673E-18
 -1       245 1.00050E-04-2.99704E-05-3.00343E-05 1.33454E-06 2.52804E-19-2.22635E-18
 -1       246 9.89264E-05-2.96290E-05-2.96983E-05 1.12964E-06 3.85692E-19-2.51572E-18
 -1       247 9.79859E-05-2.93489E-05-2.94148E-05 9.18563E-07-5.19884E-19-2.44663E-18
 -1       248 9.72255E-05-2.91260E-05-2.91843E-05 7.22443E-07 4.67624E-19-2.67294E-18
 -1       249 9.66286E-05-2.89535E-05-2.90024E-05 5.51521E-07-6.57516E-19-2.16073E-18
 -1       250 9.61728E-05-2.88233E-05-2.88629E-05 4.09147E-07-4.80402E-19-2.38936E-18
 -1       251 9.58338E-05-2.87278E-05-2.87587E-05 2.94654E-07 3.16521E-19-2.72612E-18
 -1       252 9.55888E-05-2.86595E-05-2.86831E-05 2.05279E-07 6.36574E-19-2.55911E-18
 -1       253 9.54171E-05-2.86124E-05-2.86299E-05 1.37378E-07 7.60120E-20-2.98430E-18
 -1       254 9.53012E-05-2.85812E-05-2.85938E-05 8.71394E-08 8.52155E-19-2.18921E-18
 -1       255 9.52268E-05-2.85616E-05-2.85704E-05 5.09873E-08 8.05110E-20-1.85098E-18
 -1       256 9.51824E-05-2.85503E-05-2.85563E-05 2.57712E-08-3.23785E-20-2.02268E-18
 -1       257 9.51590E-05-2.85449E-05-2.85487E-05 8.83604E-09-1.10095E-21-3.16704E-18
 -1       258 9.51498E-05-2.85433E-05-2.85455E-05-1.98203E-09-1.57589E-19-2.92890E-18
 -1       259 9.51499E-05-2.85441E-05-2.85452E-05-8.39799E-09 1.28648E-18-3.06628E-18
 -1       260 9.51556E-05-2.85463E-05-2.85468E-05-1.17386E-08 1.43617E-18-4.14410E-18
 -1       261 9.51642E-05-2.85492E-05-2.85492E-05-1.30071E-08-1.44634E-18-4.55004E-18
 -1       262 9.51742E-05-2.85524E-05-2.85521E-05-1.29445E-08-1.42568E-19-3.16526E-18
 -1       263 9.51842E-05-2.85556E-05-2.85551E-05-1.20849E-08-2.49892E-19-2.05197E-18
 -1       264 9.51937E-05-2.85585E-05-2.85580E-05-1.08022E-08-5.93031E-19-2.48247E-18
 -1       265 9.52023E-05-2.85610E-05-2.85605E-05-9.34935E-09-4.71886E-19-1.67089E-18
 -1       266 9.52098E-05-2.85633E-05-2.85628E-05-7.88953E-09-1.22042E-19-1.24117E-18
 -1       267 9.52162E-05-2.85651E-05-2.85647E-05-6.52074E-09 1.38584E-19-8.83183E-19
 -1       268 9.52214E-05-2.85667E-05-2.85663E-05-5.29450E-09-4.86799E-20-2.25699E-18
 -1       269 9.52257E-05-2.85679E-05-2.85676E-05-4.22963E-09 9.11555E-19-3.42370E-18
 -1       270 9.52292E-05-2.85689E-05-2.85687E-05-3.32181E-09 4.14039E-19-4.43194E-18
 -1       271 9.52319E-05-2.85697E-05-2.85695E-05-2.54978E-09 2.28078E-19-3.53150E-18
 -1       272 9.52340E-05-2.85703E-05-2.85701E-05-1.87926E-09-2.16587E-18-1.94901E-18
 -1       273 9.52355E-05-2.85708E-05-2.85706E-05-1.26872E-09-1.84491E-19-5.20584E-19
 -1       274 9.52364E-05-2.85711E-05-2.85709E-05-6.76631E-10 1.11738E-18-2.53388E-18
 -1       275 9.52370E-05-2.85712E-05-2.85711E-05-1.30908E-10 8.53636E-19-2.91694E-18
 -1       276 9.52371E-05-2.85715E-05-2.85710E-05-4.27847E-10-1.76878E-18 1.49480E-18
 -1       277 9.52373E-05-2.85722E-05-2.85708E-05-1.00075E-09-1.71963E-18 2.08240E-18
 -1       278 9.52377E-05-2.85732E-05-2.85705E-05-1.41291E-09-7.31408E-19 1.26154E-18
 -1       279 9.52381E-05-2.85743E-05-2.85702E-05-1.55995E-09 4.08195E-19 1.16456E-18
 -1       280 9.52385E-05-2.85754E-05-2.85699E-05-1.44493E-09 7.48781E-19-2.50862E-18
 -1       281 9.52388E-05-2.85763E-05-2.85696E-05-1.10098E-09 6.53484E-19 5.03832E-19
 -1       282 9.52390E-05-2.85770E-05-2.85695E-05-5.90999E-10 5.89286E-19 1.68579E-18
 -1       283 9.52391E-05-2.85772E-05-2.85694E-05 5.38348E-12 1.64186E-18 2.23559E-18
 -1       284 9.52390E-05-2.85769E-05-2.85695E-05 6.01017E-10-8.57128E-20-3.99082E-18
 -1       285 9.52388E-05-2.85763E-05-2.85696E-05 1.10892E-09 1.24332E-20-4.63772E-18
 -1       286 9.52385E-05-2.85754E-05-2.85699E-05 1.44568E-09 3.79866E-19 2.07196E-18
 -1       287 9.52381E-05-2.85743E-05-2.85702E-05 1.56001E-09 9.66647E-19 2.29377E-18
 -1       288 9.52377E-05-2.85732E-05-2.85705E-05 1.40631E-09 9.13404E-19-4.05317E-21
 -1       289 9.52373E-05-2.85722E-05-2.85708E-05 9.91932E-10 2.10013E-18-2.18135E-18
 -1       290 9.52370E-05-2.85717E-05-2.85709E-05 7.65016E-10 2.59866E-19-1.07718E-18
 -1       291 1.12776E-05-3.81659E-05 8.35691E-06 9.28732E-06 2.97822E-18 5.57761E-18
 -1       292 2.56406E-05-3.48745E-05 1.27074E-06 2.39131E-05 5.92161E-18 6.58314E-18
 -1       293 5.97006E-05-3.22391E-05-1.29473E-05 4.11568E-05 5.68634E-18 4.85932E-18
 -1       294 9.33379E-05-2.50168E-05-2.93388E-05 4.85192E-05 7.65485E-18 5.80345E-18
 -1       295 1.38185E-04-2.87760E-05-4.56767E-05 4.52189E-05 6.00769E-18 3.30872E-18
 -1       296 1.74190E-04-2.96748E-05-5.95114E-05 3.74160E-05 5.58531E-18 1.33132E-18
 -1       297 1.94378E-04-3.06625E-05-6.72552E-05 1.72864E-05 6.32808E-18-2.66884E-18
 -1       298 2.02944E-04-3.55899E-05-6.84578E-05-5.47565E-06 6.77330E-18-6.42353E-18
 -1       299 1.78082E-04-3.12956E-05-6.08802E-05-2.31018E-05 8.08451E-18-8.99613E-18
 -1       300 1.42392E-04-3.01199E-05-4.74183E-05-3.46208E-05 8.63635E-18-9.58714E-18
 -1       301 9.82749E-05-2.44348E-05-3.18895E-05-4.36038E-05 9.44156E-18-1.03717E-17
 -1       302 5.36442E-05-1.67306E-05-1.70519E-05-3.87614E-05 9.88276E-18-1.04387E-17
 -1       303 2.56151E-05-1.66067E-05-5.38603E-06-2.82338E-05 6.05872E-18-8.63889E-18
 -1       304 7.79508E-06-1.79455E-05 2.41225E-06-1.32528E-05 2.59594E-18-7.71785E-18
 -1       305 4.43071E-06-1.78542E-05 3.84200E-06 1.18995E-06-1.88741E-18-7.73775E-18
 -1       306 1.61444E-05-2.03826E-05-3.11726E-07 1.60700E-05-6.13919E-18-8.55498E-18
 -1       307 4.65999E-05-2.41378E-05-1.12493E-05 3.15346E-05-8.33671E-18-9.66916E-18
 -1       308 8.95429E-05-2.89847E-05-2.68263E-05 3.90608E-05-1.00867E-17-1.09347E-17
 -1       309 1.37020E-04-3.17415E-05-4.43885E-05 4.06925E-05-1.03061E-17-1.20268E-17
 -1       310 1.77901E-04-3.56094E-05-5.90463E-05 2.00668E-05-8.21040E-18-8.13258E-18
 -1       311 2.04885E-04-3.60425E-05-6.90298E-05 5.18531E-06-7.29401E-18-5.91568E-18
 -1       312 2.10767E-04-3.67823E-05-7.07428E-05-1.50174E-05-6.57414E-18-1.57305E-18
 -1       313 1.88146E-04-3.18990E-05-6.42379E-05-2.84973E-05-7.29433E-18 1.50857E-18
 -1       314 1.61018E-04-3.07012E-05-5.37927E-05-4.58315E-05-7.74490E-18 5.24800E-18
 -1       315 1.21647E-04-2.83768E-05-3.92800E-05-4.96467E-05-8.20415E-18 7.80456E-18
 -1       316 8.21315E-05-2.87113E-05-2.36158E-05-4.53719E-05-7.80456E-18 8.17069E-18
 -1       317 5.02852E-05-3.31762E-05-9.04497E-06-3.68613E-05-5.44092E-18 6.42199E-18
 -1       318 2.25873E-05-3.67531E-05 3.08618E-06-2.00431E-05-4.23792E-18 6.82380E-18
 -1       319 1.12371E-05-4.05458E-05 9.08516E-06-5.77483E-06-4.17481E-19 6.58769E-18
 -1       320 1.11648E-04-2.68005E-05-3.64806E-05-9.54618E-06-1.39305E-18-3.57713E-19
 -1       321 1.25110E-04-3.14991E-05-4.02493E-05-1.59913E-05-2.21096E-18 1.77169E-18
 -1       322 7.24601E-05-1.03305E-05-2.65778E-05 7.10374E-06 4.52038E-19-3.64237E-18
 -1       323 4.87170E-05 2.16798E-06-2.16760E-05 7.61579E-06 4.93671E-19-5.05014E-18
 -1       324 3.42535E-05 1.02821E-05-1.88992E-05-1.17955E-07-3.18297E-19-5.98695E-18
 -1       325 3.60967E-05 8.89216E-06-1.91095E-05-1.13458E-05-1.54904E-18-5.94733E-18
 -1       326 5.32877E-05-1.20796E-06-2.22122E-05-1.69528E-05-2.23488E-18-5.05916E-18
 -1       327 7.48504E-05-1.26260E-05-2.66543E-05-1.35866E-05-2.04959E-18-4.01735E-18
 -1       328 9.16631E-05-1.97724E-05-3.08643E-05-4.76489E-06-1.05228E-18-3.13713E-18
 -1       329 1.01493E-04-2.21862E-05-3.40774E-05 4.72732E-06 1.65861E-19-2.75801E-18
 -1       330 1.06421E-04-2.21686E-05-3.62198E-05 1.25349E-05 1.20229E-18-2.14965E-18
 -1       331 1.09439E-04-2.21807E-05-3.75300E-05 1.80941E-05 2.28073E-18-1.11759E-18
 -1       332 1.13556E-04-2.49535E-05-3.81592E-05 2.05643E-05 2.94829E-18 1.02855E-18
 -1       333 1.17244E-04-3.00693E-05-3.74939E-05 1.76086E-05 2.88789E-18 3.26601E-18
 -1       334 1.13075E-04-3.26847E-05-3.44399E-05 1.27305E-05 2.39469E-18 2.71660E-18
 -1       335 1.29734E-04-4.09862E-05-3.80276E-05-1.54899E-05-1.75055E-18 3.00111E-18
 -1       336 1.27246E-04-4.04304E-05-3.72327E-05-1.82587E-05-1.69469E-18 3.03535E-18
 -1       337 1.22127E-04-3.49756E-05-3.73979E-05-1.91624E-05-2.17350E-18 2.52604E-18
 -1       338 1.15925E-04-2.77299E-05-3.78825E-05-1.32653E-05-3.20413E-18 1.12523E-18
 -1       339 1.12730E-04-2.46363E-05-3.78570E-05-1.09713E-06-3.34610E-18-4.99816E-19
 -1       340 1.14669E-04-2.86878E-05-3.69468E-05 9.87060E-06-2.23663E-18-1.95277E-18
 -1       341 1.18547E-04-3.56690E-05-3.55717E-05 1.32219E-05-1.32688E-18-3.10671E-18
 -1       342 1.20154E-04-3.99003E-05-3.44233E-05 9.53386E-06-5.94182E-19-3.57773E-18
 -1       343 1.18739E-04-4.01547E-05-3.37066E-05 3.25150E-06-4.76355E-19-3.43566E-18
 -1       344 1.15612E-04-3.80808E-05-3.32541E-05-2.18884E-06 3.31064E-19-2.54737E-18
 -1       345 1.12116E-04-3.54898E-05-3.28608E-05-5.56324E-06 3.74237E-19-1.77812E-18
 -1       346 1.08921E-04-3.33022E-05-3.24196E-05-7.02998E-06 6.35552E-19-1.35906E-18
 -1       347 1.06202E-04-3.17252E-05-3.19222E-05-7.18604E-06 1.47627E-20-1.10553E-18
 -1       348 1.03942E-04-3.06676E-05-3.14018E-05-6.60285E-06-2.85240E-19-1.39088E-18
 -1       349 1.02078E-04-2.99753E-05-3.08969E-05-5.69074E-06-2.33886E-19-1.70005E-18
 -1       350 1.00549E-04-2.95198E-05-3.04359E-05-4.70041E-06-4.77746E-19-1.18698E-18
 -1       351 9.93057E-05-2.92141E-05-3.00342E-05-3.76565E-06-4.00556E-19-2.12135E-19
 -1       352 9.83062E-05-2.90040E-05-2.96965E-05-2.94630E-06 1.49266E-19-1.64629E-19
 -1       353 9.75133E-05-2.88569E-05-2.94204E-05-2.26003E-06 2.07544E-19-2.64580E-19
 -1       354 9.68934E-05-2.87530E-05-2.92000E-05-1.70269E-06 1.05626E-18-7.54901E-19
 -1       355 9.64161E-05-2.86799E-05-2.90274E-05-1.26029E-06 8.24026E-19 5.95859E-19
 -1       356 9.60545E-05-2.86291E-05-2.88947E-05-9.15574E-07 8.14835E-19 2.62521E-19
 -1       357 9.57852E-05-2.85946E-05-2.87946E-05-6.51353E-07 8.55994E-19-4.75180E-19
 -1       358 9.55885E-05-2.85722E-05-2.87202E-05-4.51993E-07-1.38197E-19-8.67097E-19
 -1       359 9.54479E-05-2.85584E-05-2.86662E-05-3.03989E-07-1.33156E-18-9.05900E-20
 -1       360 9.53499E-05-2.85507E-05-2.86277E-05-1.96031E-07-5.32386E-19 1.23553E-18
 -1       361 9.52838E-05-2.85473E-05-2.86009E-05-1.18848E-07 1.22691E-18 3.40154E-19
 -1       362 9.52411E-05-2.85468E-05-2.85830E-05-6.49728E-08 8.30962E-19-4.46490E-19
 -1       363 9.52151E-05-2.85479E-05-2.85715E-05-2.84782E-08-7.95267E-19-7.02724E-19
 -1       364 9.52009E-05-2.85501E-05-2.85645E-05-4.72462E-09-4.91001E-19-4.40603E-19
 -1       365 9.51947E-05-2.85527E-05-2.85608E-05 9.87006E-09-6.52479E-19 4.70270E-20
 -1       366 9.51937E-05-2.85555E-05-2.85592E-05 1.80332E-08-7.97212E-19-1.36688E-18
 -1       367 9.51959E-05-2.85582E-05-2.85590E-05 2.18102E-08-8.54657E-19-1.95716E-18
 -1       368 9.51999E-05-2.85606E-05-2.85597E-05 2.27094E-08-1.29945E-18-5.01799E-19
 -1       369 9.52047E-05-2.85628E-05-2.85608E-05 2.18213E-08-1.93363E-18-1.30211E-19
 -1       370 9.52097E-05-2.85646E-05-2.85622E-05 1.99168E-08 5.72290E-19-4.51060E-19
 -1       371 9.52145E-05-2.85661E-05-2.85636E-05 1.75246E-08 5.18371E-19 9.13965E-19
 -1       372 9.52189E-05-2.85674E-05-2.85650E-05 1.49938E-08 8.09103E-19 2.86675E-18
 -1       373 9.52228E-05-2.85684E-05-2.85662E-05 1.25419E-08 6.37620E-19 2.40047E-18
 -1       374 9.52261E-05-2.85692E-05-2.85673E-05 1.02916E-08 4.39295E-19 2.63803E-18
 -1       375 9.52289E-05-2.85699E-05-2.85682E-05 8.29824E-09 4.23712E-19 8.99478E-19
 -1       376 9.52312E-05-2.85704E-05-2.85689E-05 6.56995E-09 8.37678E-19 1.10059E-18
 -1       377 9.52330E-05-2.85708E-05-2.85695E-05 5.08178E-09 1.10130E-18 2.77285E-19
 -1       378 9.52345E-05-2.85711E-05-2.85700E-05 3.78723E-09-8.14111E-19-3.08378E-19
 -1       379 9.52356E-05-2.85714E-05-2.85704E-05 2.63234E-09-4.77253E-19-1.69513E-18
 -1       380 9.52364E-05-2.85716E-05-2.85706E-05 1.64681E-09-1.85227E-19-2.39882E-18
 -1       381 1.07958E-04-3.17866E-05-3.26005E-05 1.06707E-05 1.82061E-18 2.14860E-18
 -1       382 1.03243E-04-2.98643E-05-3.14158E-05 8.71159E-06 1.48480E-18 1.24303E-18
 -1       383 9.95527E-05-2.79447E-05-3.06666E-05 5.50184E-06 1.41996E-18 8.89015E-19
 -1       384 9.76423E-05-2.69851E-05-3.02644E-05 1.13542E-06 1.21891E-18 1.42097E-19
 -1       385 9.78196E-05-2.74184E-05-3.01553E-05-3.18566E-06 6.90279E-19-2.95897E-19
 -1       386 9.96387E-05-2.89567E-05-3.02779E-05-6.05224E-06 8.05058E-19-7.32143E-19
 -1       387 1.02077E-04-3.07796E-05-3.05501E-05-6.77431E-06 1.04669E-18-8.85996E-19
 -1       388 1.04164E-04-3.21540E-05-3.08650E-05-5.66036E-06 1.39616E-19-1.34857E-18
 -1       389 1.05385E-04-3.27902E-05-3.11223E-05-3.56983E-06 1.56562E-19-1.94397E-18
 -1       390 1.05673E-04-3.27755E-05-3.12546E-05-1.34742E-06 6.10736E-19-1.34771E-18
 -1       391 1.05217E-04-3.23544E-05-3.12387E-05 4.75641E-07 3.33544E-19-1.01352E-18
 -1       392 1.04279E-04-3.17582E-05-3.10893E-05 1.70384E-06-5.73206E-19-1.35993E-18
 -1       393 1.03094E-04-3.11391E-05-3.08434E-05 2.36393E-06 1.67955E-20-1.21513E-18
 -1       394 1.01837E-04-3.05756E-05-3.05428E-05 2.58264E-06 5.25455E-19-1.96269E-18
 -1       395 1.00622E-04-3.00976E-05-3.02248E-05 2.50561E-06 5.20400E-19-2.01352E-18
 -1       396 9.95182E-05-2.97087E-05-2.99169E-05 2.25793E-06 2.20530E-20-2.56242E-18
 -1       397 9.85585E-05-2.94011E-05-2.96368E-05 1.93189E-06 5.08606E-19-2.58886E-18
 -1       398 9.77528E-05-2.91629E-05-2.93933E-05 1.58849E-06-5.41938E-19-2.63208E-18
 -1       399 9.70959E-05-2.89819E-05-2.91894E-05 1.26398E-06-1.25889E-20-2.46829E-18
 -1       400 9.65739E-05-2.88467E-05-2.90239E-05 9.77033E-07-6.06722E-19-1.08140E-18
 -1       401 9.61691E-05-2.87477E-05-2.88931E-05 7.34833E-07-8.04549E-20-2.10338E-18
 -1       402 9.58624E-05-2.86769E-05-2.87924E-05 5.37590E-07-9.71930E-20-2.46668E-18
 -1       403 9.56356E-05-2.86275E-05-2.87166E-05 3.81681E-07 1.98734E-19-1.40954E-18
 -1       404 9.54721E-05-2.85941E-05-2.86611E-05 2.61689E-07 5.19594E-19-6.62859E-19
 -1       405 9.53578E-05-2.85725E-05-2.86216E-05 1.71667E-07 2.33038E-19-7.12032E-19
 -1       406 9.52808E-05-2.85594E-05-2.85944E-05 1.05866E-07-4.99316E-20 3.54716E-19
 -1       407 9.52313E-05-2.85523E-05-2.85764E-05 5.91127E-08 3.49988E-19-3.95871E-19
 -1       408 9.52017E-05-2.85492E-05-2.85651E-05 2.69714E-08 1.56718E-19-1.57654E-18
 -1       409 9.51861E-05-2.85488E-05-2.85587E-05 5.77503E-09-9.96334E-20-2.67402E-18
 -1       410 9.51799E-05-2.85499E-05-2.85556E-05-7.42249E-09 1.16479E-18-2.43774E-18
 -1       411 9.51798E-05-2.85520E-05-2.85547E-05-1.49300E-08 1.49556E-18-2.08019E-18
 -1       412 9.51835E-05-2.85545E-05-2.85553E-05-1.85161E-08-9.00253E-19-1.56783E-18
 -1       413 9.51891E-05-2.85570E-05-2.85566E-05-1.95049E-08-1.96793E-18-1.12902E-18
 -1       414 9.51957E-05-2.85595E-05-2.85584E-05-1.88655E-08-9.59164E-19 1.51374E-18
 -1       415 9.52023E-05-2.85617E-05-2.85602E-05-1.72880E-08-4.26776E-19 1.69559E-18
 -1       416 9.52086E-05-2.85637E-05-2.85621E-05-1.52498E-08-4.30868E-19 1.59709E-18
 -1       417 9.52142E-05-2.85654E-05-2.85638E-05-1.30678E-08 4.19665E-19 4.91174E-19
 -1       418 9.52192E-05-2.85668E-05-2.85653E-05-1.09410E-08-2.57728E-19 1.15784E-18
 -1       419 9.52234E-05-2.85679E-05-2.85666E-05-8.98347E-09 8.74129E-19 3.17964E-19
 -1       420 9.52269E-05-2.85689E-05-2.85678E-05-7.24824E-09 1.18969E-18-3.13195E-19
 -1       421 9.52298E-05-2.85696E-05-2.85687E-05-5.74574E-09 9.17630E-19-6.60895E-19
 -1       422 9.52321E-05-2.85702E-05-2.85694E-05-4.45601E-09 2.61057E-19-7.68735E-20
 -1       423 9.52339E-05-2.85707E-05-2.85700E-05-3.33749E-09-2.95382E-18-4.06223E-19
 -1       424 9.52352E-05-2.85710E-05-2.85704E-05-2.33944E-09 3.66450E-19-1.05296E-18
 -1       425 9.52362E-05-2.85713E-05-2.85707E-05-1.42141E-09 5.44007E-19-1.18471E-18
 -1       426 9.52367E-05-2.85715E-05-2.85708E-05-9.06833E-10 5.28032E-19-1.97523E-19
 -1       427 9.52378E-05-2.85739E-05-2.85703E-05-2.70769E-09-2.72633E-19 2.64001E-18
 -1       428 9.52372E-05-2.85728E-05-2.85705E-05-2.31606E-09-1.81589E-19 2.08995E-18
 -1       429 9.52369E-05-2.85721E-05-2.85706E-05-1.65268E-09-1.60311E-19 8.74550E-19
 -1       430 9.52384E-05-2.85749E-05-2.85701E-05-2.67853E-09 4.08490E-19-1.94800E-18
 -1       431 9.52389E-05-2.85759E-05-2.85699E-05-2.24572E-09 9.73359E-19 7.31111E-19
 -1       432 9.52393E-05-2.85766E-05-2.85698E-05-1.48485E-09 7.49927E-19 1.25821E-18
 -1       433 9.52395E-05-2.85769E-05-2.85697E-05-5.13015E-10-7.23006E-19 9.58283E-19
 -1       434 9.52395E-05-2.85769E-05-2.85697E-05 5.30743E-10-1.26758E-18-8.35801E-19
 -1       435 9.52393E-05-2.85765E-05-2.85698E-05 1.50036E-09-6.17489E-19-5.17972E-18
 -1       436 9.52389E-05-2.85759E-05-2.85699E-05 2.24643E-09 5.44955E-19-7.91077E-19
 -1       437 9.52384E-05-2.85749E-05-2.85701E-05 2.67925E-09 1.34927E-18 4.14273E-18
 -1       438 9.52378E-05-2.85739E-05-2.85703E-05 2.70635E-09 2.15434E-18 1.47328E-18
 -1       439 9.52372E-05-2.85728E-05-2.85705E-05 2.31291E-09 1.36772E-18-2.73488E-18
 -1       440 5.74308E-05-3.49459E-05-9.73901E-06 4.42695E-05-7.60000E-19 3.19983E-18
 -1       441 1.12825E-05-1.76091E-05 2.30782E-06 1.35970E-06 4.90286E-20 7.18475E-18
 -1       442 2.77651E-05-2.26309E-05-2.27994E-06 3.10442E-05-3.55860E-19 5.34298E-18
 -1       443 1.04622E-04-4.89041E-05-2.37989E-05 4.11953E-05 6.42474E-19-7.96793E-19
 -1       444 1.30533E-04-4.88728E-05-3.50480E-05 2.79019E-05 1.79942E-18-1.99709E-18
 -1       445 9.51619E-05-2.10854E-05-3.17883E-05-2.20006E-07-2.58239E-19-1.99143E-18
 -1       446 1.51941E-04-1.98200E-05-5.66226E-05 3.23265E-06 6.01722E-18-3.49306E-18
 -1       447 1.50624E-04-1.05445E-05-6.00183E-05 4.27815E-06 7.41366E-18-3.31894E-18
 -1       448 1.51844E-04-1.60697E-05-5.82140E-05 5.92112E-06 7.24944E-18-2.61791E-18
 -1       449 1.46090E-04-3.05560E-05-4.96724E-05 2.10821E-06 5.64495E-18-1.64155E-18
 -1       450 1.29187E-04-4.03511E-05-3.81452E-05-2.02241E-05 4.13659E-18-3.63991E-18
 -1       451 9.35641E-05-3.50473E-05-2.52229E-05-3.64084E-05 2.61056E-18-5.40968E-18
 -1       452 5.82971E-05-2.30144E-05-1.51945E-05-3.97257E-05 1.32942E-18-6.86152E-18
 -1       453 2.29932E-05-6.44172E-06-7.01281E-06-2.93796E-05-4.80532E-19-8.16603E-18
 -1       454 7.07409E-06 4.59921E-07-3.11117E-06-9.39564E-06-6.34944E-19-8.94604E-18
 -1       455 1.35410E-05-5.32776E-06-3.63411E-06 1.52374E-05-1.14619E-18-8.56033E-18
 -1       456 4.44812E-05-1.94851E-05-1.07517E-05 3.17977E-05-1.05254E-18-7.29237E-18
 -1       457 8.90814E-05-3.92222E-05-2.16034E-05 3.36538E-05-2.89209E-18-5.69987E-18
 -1       458 1.32029E-04-4.85975E-05-3.57992E-05 1.84086E-05-4.31923E-18-3.73827E-18
 -1       459 1.52185E-04-4.23981E-05-4.71147E-05 1.31059E-07-5.85046E-18-2.15485E-18
 -1       460 1.56636E-04-2.29408E-05-5.72988E-05-1.13618E-05-7.36929E-18-1.79995E-18
 -1       461 1.64543E-04-1.64232E-05-6.30184E-05-6.48573E-06-8.24364E-18-2.45454E-18
 -1       462 1.61397E-04-1.88843E-05-6.07412E-05-3.24173E-06-7.87116E-18-2.30271E-18
 -1       463 1.54435E-04-3.41885E-05-5.16405E-05-2.59667E-06-5.73500E-18-2.47281E-18
 -1       464 1.49321E-04-4.65656E-05-4.40264E-05-1.42155E-05-3.75835E-18-1.52635E-18
 -1       465 1.27225E-04-5.43439E-05-3.12854E-05-3.10323E-05-8.74667E-19 1.15091E-19
 -1       466 9.87962E-05-4.97310E-05-2.09484E-05-4.28513E-05 7.23578E-19 2.47675E-18
 -1       467 4.90028E-05-3.31520E-05-7.12013E-06-4.05685E-05 5.28549E-19 5.33154E-18
 -1       468 2.21923E-05-2.18645E-05-4.56595E-07-2.42190E-05 1.02067E-18 6.78675E-18
 -1       469 1.48197E-04-3.54834E-05-4.82500E-05 1.03730E-05 4.01462E-18-2.74238E-18
 -1       470 1.13205E-04-3.20528E-05-3.47788E-05 1.62322E-05 2.18067E-18 8.14685E-19
 -1       471 3.43682E-05 4.88395E-06-1.64217E-05 1.08750E-05 5.68134E-19-6.59373E-18
 -1       472 6.42665E-05-1.21417E-05-2.21580E-05 1.64682E-05 1.23622E-18-4.29529E-18
 -1       473 4.01569E-05 1.26871E-06-1.74001E-05-2.27364E-05-2.51288E-18-6.35280E-18
 -1       474 6.94407E-05-1.50039E-05-2.31483E-05-2.31089E-05-2.84569E-18-4.40306E-18
 -1       475 9.33100E-05-2.63526E-05-2.86478E-05-1.19418E-05-2.00138E-18-2.66275E-18
 -1       476 1.06023E-04-3.01359E-05-3.25588E-05 1.12860E-06-5.01417E-19-1.90347E-18
 -1       477 1.10993E-04-2.97211E-05-3.48818E-05 1.08920E-05 7.42799E-19-1.87045E-18
 -1       478 1.12859E-04-2.89135E-05-3.60282E-05 1.67447E-05 1.78262E-18-1.03996E-18
 -1       479 1.14027E-04-2.87072E-05-3.66076E-05 1.86565E-05 2.64330E-18 6.31265E-19
 -1       480 1.09976E-04-3.08637E-05-3.38857E-05 1.42133E-05 2.12080E-18 8.88320E-19
 -1       481 1.29182E-04-4.34426E-05-3.67209E-05-1.61020E-05-1.22680E-18 2.06628E-18
 -1       482 1.30958E-04-1.89544E-05-4.85252E-05 1.43566E-05 5.14064E-18-1.25096E-19
 -1       483 1.31620E-04-4.19553E-05-3.85437E-05-2.19438E-05-2.05556E-18 2.57873E-18
 -1       484 1.26757E-04-3.02525E-05-4.16978E-05-2.17436E-05-3.77609E-18 1.89035E-18
 -1       485 1.21413E-04-1.90747E-05-4.42403E-05-1.04125E-05-5.29335E-18 2.43204E-19
 -1       486 1.20796E-04-2.04737E-05-4.34108E-05 6.17789E-06-4.60159E-18-2.37127E-18
 -1       487 1.25724E-04-3.32014E-05-3.98722E-05 1.44158E-05-2.85777E-18-4.06174E-18
 -1       488 1.27321E-04-4.39358E-05-3.58293E-05 1.02914E-05-7.61739E-19-4.15867E-18
 -1       489 1.23081E-04-4.58417E-05-3.31268E-05 2.13035E-06 6.73275E-20-3.45853E-18
 -1       490 1.16471E-04-4.23779E-05-3.17616E-05-4.57316E-06 6.14307E-19-2.39280E-18
 -1       491 1.10318E-04-3.75463E-05-3.11995E-05-8.37501E-06 1.35155E-18-1.57433E-18
 -1       492 1.05762E-04-3.35650E-05-3.09492E-05-9.81316E-06 8.82608E-19-8.12177E-19
 -1       493 1.02692E-04-3.09000E-05-3.07707E-05-9.78140E-06-4.89365E-21-1.11554E-18
 -1       494 1.00683E-04-2.93432E-05-3.05738E-05-8.95430E-06-1.38695E-19-1.20009E-18
 -1       495 9.93383E-05-2.85345E-05-3.03427E-05-7.77548E-06-3.85502E-19-7.58712E-19
 -1       496 9.83917E-05-2.81714E-05-3.00921E-05-6.50944E-06-3.65933E-19-4.55965E-20
 -1       497 9.76863E-05-2.80499E-05-2.98418E-05-5.30192E-06-8.77158E-20-6.78123E-19
 -1       498 9.71369E-05-2.80481E-05-2.96074E-05-4.22407E-06 2.77740E-19-3.08216E-19
 -1       499 9.66988E-05-2.80986E-05-2.93983E-05-3.30224E-06 5.87175E-19 4.65853E-19
 -1       500 9.63469E-05-2.81666E-05-2.92187E-05-2.53739E-06 4.22621E-19 4.68119E-19
 -1       501 9.60656E-05-2.82357E-05-2.90688E-05-1.91736E-06 4.91388E-19-2.06807E-19
 -1       502 9.58431E-05-2.82988E-05-2.89467E-05-1.42423E-06 3.77987E-19-1.09012E-18
 -1       503 9.56700E-05-2.83535E-05-2.88492E-05-1.03858E-06 9.73287E-20-1.43026E-18
 -1       504 9.55375E-05-2.83994E-05-2.87729E-05-7.41706E-07 1.11753E-19-2.35939E-18
 -1       505 9.54381E-05-2.84374E-05-2.87142E-05-5.16740E-07-9.52590E-21-1.66245E-18
 -1       506 9.53651E-05-2.84682E-05-2.86698E-05-3.49034E-07-5.38796E-20-6.43573E-20
 -1       507 9.53128E-05-2.84930E-05-2.86369E-05-2.26226E-07-4.03913E-19 9.04532E-19
 -1       508 9.52764E-05-2.85127E-05-2.86129E-05-1.38100E-07 3.45628E-19 1.81621E-19
 -1       509 9.52519E-05-2.85281E-05-2.85958E-05-7.63572E-08-1.20850E-18-1.71409E-18
 -1       510 9.52361E-05-2.85401E-05-2.85840E-05-3.43673E-08-2.60313E-19-2.78974E-18
 -1       511 9.52267E-05-2.85492E-05-2.85760E-05-6.91029E-09-5.96175E-19-1.71072E-18
 -1       512 9.52217E-05-2.85561E-05-2.85709E-05 1.00651E-08-1.50075E-18-1.27408E-18
 -1       513 9.52197E-05-2.85612E-05-2.85679E-05 1.96569E-08-9.39163E-19-5.46967E-19
 -1       514 9.52196E-05-2.85649E-05-2.85663E-05 2.41967E-08-4.55538E-19-6.48840E-19
 -1       515 9.52207E-05-2.85676E-05-2.85656E-05 2.54088E-08-4.81020E-19-4.08269E-20
 -1       516 9.52224E-05-2.85694E-05-2.85656E-05 2.45431E-08-1.06593E-18 4.06032E-19
 -1       517 9.52244E-05-2.85706E-05-2.85659E-05 2.24851E-08 1.22428E-18 7.28958E-19
 -1       518 9.52265E-05-2.85714E-05-2.85665E-05 1.98433E-08 1.40580E-18 1.27537E-18
 -1       519 9.52284E-05-2.85718E-05-2.85671E-05 1.70204E-08-1.49435E-20 2.18919E-19
 -1       520 9.52302E-05-2.85721E-05-2.85678E-05 1.42678E-08 1.26525E-19-3.73582E-19
 -1       521 9.52317E-05-2.85722E-05-2.85684E-05 1.17277E-08-6.54235E-19 5.25635E-19
 -1       522 9.52331E-05-2.85722E-05-2.85689E-05 9.46471E-09 1.14281E-18 1.23443E-18
 -1       523 9.52342E-05-2.85722E-05-2.85694E-05 7.49105E-09-2.02618E-20 6.62355E-19
 -1       524 9.52351E-05-2.85723E-05-2.85698E-05 5.77996E-09-9.18087E-19-2.33695E-18
 -1       525 9.52359E-05-2.85723E-05-2.85701E-05 4.28864E-09-2.28880E-18-3.32425E-18
 -1       526 5.26036E-05-2.55283E-05-1.11563E-05 3.83976E-05-2.67726E-18 2.91575E-18
 -1       527 1.03106E-04-2.54658E-05-3.32699E-05 5.38935E-06 1.78863E-18-5.62003E-19
 -1       528 1.02116E-04-2.52104E-05-3.29587E-05-1.07390E-06 1.38130E-18-1.03818E-18
 -1       529 1.03287E-04-2.74875E-05-3.24791E-05-6.27423E-06 1.06420E-18-1.74110E-18
 -1       530 1.05380E-04-3.08617E-05-3.19341E-05-8.47281E-06 1.13795E-18-1.85159E-18
 -1       531 1.06970E-04-3.36005E-05-3.14466E-05-7.68617E-06 7.89875E-19-1.55000E-18
 -1       532 1.07375E-04-3.48527E-05-3.10865E-05-5.10813E-06 4.48439E-19-1.52181E-18
 -1       533 1.06685E-04-3.47282E-05-3.08475E-05-2.07165E-06 1.22521E-19-1.77972E-18
 -1       534 1.05345E-04-3.37860E-05-3.06768E-05 5.39448E-07 4.79602E-19-1.23388E-18
 -1       535 1.03778E-04-3.25715E-05-3.05237E-05 2.36897E-06 6.39506E-20-1.35163E-18
 -1       536 1.02251E-04-3.14245E-05-3.03583E-05 3.41060E-06 4.73027E-20-1.70446E-18
 -1       537 1.00886E-04-3.04907E-05-3.01717E-05 3.81757E-06 6.27934E-19-1.89672E-18
 -1       538 9.97218E-05-2.97956E-05-2.99687E-05 3.78191E-06 8.36738E-19-1.47978E-18
 -1       539 9.87517E-05-2.93087E-05-2.97606E-05 3.47593E-06 9.79631E-19-2.26633E-18
 -1       540 9.79560E-05-2.89830E-05-2.95586E-05 3.03197E-06 2.60240E-19-2.14794E-18
 -1       541 9.73113E-05-2.87736E-05-2.93718E-05 2.54166E-06-2.67079E-20-1.69416E-18
 -1       542 9.67949E-05-2.86446E-05-2.92058E-05 2.06271E-06-3.55586E-19-2.34934E-18
 -1       543 9.63864E-05-2.85691E-05-2.90632E-05 1.62764E-06-8.19256E-19-2.18002E-18
 -1       544 9.60676E-05-2.85283E-05-2.89442E-05 1.25156E-06-5.57457E-19-2.18080E-18
 -1       545 9.58226E-05-2.85095E-05-2.88475E-05 9.38432E-07 3.50175E-20-7.66326E-19
 -1       546 9.56375E-05-2.85039E-05-2.87708E-05 6.85543E-07-4.23039E-19-9.77561E-19
 -1       547 9.55001E-05-2.85060E-05-2.87112E-05 4.86650E-07-1.98384E-19-5.41168E-19
 -1       548 9.54003E-05-2.85121E-05-2.86659E-05 3.34013E-07 1.81177E-19 1.17468E-18
 -1       549 9.53295E-05-2.85200E-05-2.86323E-05 2.19655E-07-4.90582E-19 1.28020E-18
 -1       550 9.52809E-05-2.85282E-05-2.86080E-05 1.36082E-07 2.76092E-19 1.84267E-18
 -1       551 9.52486E-05-2.85361E-05-2.85909E-05 7.66525E-08 4.77590E-19 2.30689E-18
 -1       552 9.52284E-05-2.85431E-05-2.85793E-05 3.57246E-08 1.13750E-18 1.13562E-18
 -1       553 9.52168E-05-2.85492E-05-2.85717E-05 8.65382E-09 7.54773E-19 2.56829E-19
 -1       554 9.52110E-05-2.85543E-05-2.85671E-05-8.28252E-09 1.43993E-19 2.53676E-19
 -1       555 9.52092E-05-2.85585E-05-2.85646E-05-1.79997E-08-1.31794E-18 2.61886E-18
 -1       556 9.52100E-05-2.85618E-05-2.85635E-05-2.27311E-08-1.28054E-18 5.24546E-18
 -1       557 9.52121E-05-2.85644E-05-2.85633E-05-2.41502E-08-1.58169E-18 2.12226E-18
 -1       558 9.52151E-05-2.85664E-05-2.85637E-05-2.34825E-08-9.48504E-19 1.58111E-18
 -1       559 9.52183E-05-2.85679E-05-2.85644E-05-2.16028E-08-6.60024E-19 1.12508E-18
 -1       560 9.52215E-05-2.85691E-05-2.85653E-05-1.91166E-08 7.58507E-19 1.09721E-18
 -1       561 9.52244E-05-2.85699E-05-2.85662E-05-1.64270E-08 1.16808E-19 9.90663E-19
 -1       562 9.52270E-05-2.85705E-05-2.85671E-05-1.37876E-08 4.39560E-19 2.81830E-19
 -1       563 9.52293E-05-2.85709E-05-2.85679E-05-1.13438E-08 9.30850E-19 1.41616E-18
 -1       564 9.52313E-05-2.85712E-05-2.85686E-05-9.16367E-09 9.21098E-19 2.69717E-18
 -1       565 9.52329E-05-2.85714E-05-2.85692E-05-7.26139E-09 6.14862E-19 3.31819E-18
 -1       566 9.52342E-05-2.85716E-05-2.85697E-05-5.61551E-09-7.14831E-19 2.63557E-18
 -1       567 9.52353E-05-2.85718E-05-2.85701E-05-4.18575E-09-7.00231E-19-5.07885E-19
 -1       568 9.52362E-05-2.85719E-05-2.85704E-05-2.91202E-09 9.71922E-20 8.34889E-19
 -1       569 9.52391E-05-2.85757E-05-2.85700E-05-3.47150E-09 1.35518E-18-1.62597E-18
 -1       570 9.52398E-05-2.85766E-05-2.85700E-05-2.60676E-09 5.28778E-20 1.32249E-18
 -1       571 9.52373E-05-2.85734E-05-2.85702E-05-3.70886E-09-1.14232E-18 2.30703E-18
 -1       572 9.52382E-05-2.85746E-05-2.85701E-05-3.85722E-09-3.58036E-19 3.27615E-18
 -1       573 9.52403E-05-2.85771E-05-2.85699E-05-1.38997E-09-2.52600E-19-4.07298E-19
 -1       574 9.52404E-05-2.85773E-05-2.85699E-05 1.17945E-11-1.98425E-18-6.17377E-19
 -1       575 9.52403E-05-2.85771E-05-2.85699E-05 1.41241E-09-2.36370E-18-2.29847E-18
 -1       576 9.52398E-05-2.85766E-05-2.85700E-05 2.60730E-09 7.34915E-19-2.32541E-18
 -1       577 9.52391E-05-2.85757E-05-2.85700E-05 3.47218E-09 1.87359E-18 1.34920E-18
 -1       578 9.52382E-05-2.85746E-05-2.85701E-05 3.85875E-09 2.67394E-19 2.69896E-18
 -1       579 9.52372E-05-2.85734E-05-2.85702E-05 3.70027E-09-1.67743E-18 1.08762E-18
 -1       580 2.65249E-05-1.04731E-05-6.29667E-06-1.22822E-05 7.94345E-19 5.67374E-18
 -1       581 1.06152E-04-2.79574E-05-3.34965E-05 1.09076E-05 2.11484E-18 1.81877E-19
 -1       582 9.23026E-05-4.59962E-05-1.95523E-05 4.17534E-05-2.55550E-18-1.13412E-18
 -1       583 1.14347E-04-3.59729E-05-3.35856E-05-4.75996E-06-1.92364E-19-1.61561E-19
 -1       584 1.24600E-04-5.57045E-05-2.95091E-05 2.42116E-05-1.43093E-18-3.64944E-18
 -1       585 1.38502E-04-2.78257E-05-4.78391E-05-4.71722E-06 4.35899E-18-4.31902E-18
 -1       586 1.39670E-04-2.35324E-05-5.02704E-05 8.52052E-06-5.77735E-18-3.80868E-18
 -1       587 1.17033E-04-4.33912E-05-3.15771E-05-1.85503E-05 1.68639E-19-1.57575E-18
 -1       588 9.39845E-05-2.75573E-05-2.83727E-05 8.46081E-06 7.99295E-19-2.16790E-18
 -1       589 2.42973E-05 1.06552E-05-1.45630E-05-7.25973E-06-1.06388E-18-7.40476E-18
 -1       590 1.22409E-04-3.83863E-05-3.60448E-05-1.13028E-05-1.09742E-18 7.82165E-19
 -1       591 8.21732E-05-4.13793E-05-1.71220E-05-4.13760E-05 2.82380E-18 1.97930E-18
 -1       592 1.34696E-04-3.93809E-05-4.10913E-05 2.71744E-06 2.87934E-18 1.61783E-19
 -1       593 1.28843E-04-9.72212E-06-5.16369E-05 9.98345E-06 6.00568E-18-1.50428E-18
 -1       594 2.19935E-05 5.41466E-06-1.11852E-05-1.92269E-05-1.78852E-18-7.96878E-18
 -1       595 1.31030E-04-1.05913E-05-5.21798E-05-2.23004E-06 5.97201E-18-3.30311E-18
 -1       596 8.54384E-05-3.22441E-05-2.26102E-05-3.35831E-05-1.48014E-18-4.00615E-18
 -1       597 4.73537E-05-2.33752E-05-9.78735E-06-3.48243E-05 2.20853E-18 5.11931E-18
 -1       598 4.99520E-05-1.39462E-05-1.50958E-05-3.54597E-05-2.16078E-18-6.32924E-18
 -1       599 1.44516E-05 7.35041E-06-8.79647E-06 1.25101E-06-4.41233E-19-8.49113E-18
 -1       600 3.58604E-05-5.41459E-06-1.24968E-05 2.26684E-05 7.88402E-19-7.16632E-18
 -1       601 7.91328E-05-3.23082E-05-1.98078E-05 3.01242E-05 7.48724E-19-4.26492E-18
 -1       602 1.19660E-04-4.99190E-05-2.98629E-05 1.60046E-05-3.88206E-19-1.44721E-18
 -1       603 1.41183E-04-5.03768E-05-3.91427E-05-5.63356E-06-2.48952E-18 5.58671E-19
 -1       604 1.43611E-04-3.36974E-05-4.74466E-05-1.85468E-05-4.96499E-18 9.09766E-19
 -1       605 1.38318E-04-1.37806E-05-5.39508E-05-1.09492E-05-7.23366E-18-5.80720E-19
 -1       606 1.37982E-04-1.25859E-05-5.43185E-05-1.33573E-06-7.38888E-18-2.10510E-18
 -1       607 1.42520E-04-4.50851E-05-4.21886E-05 5.92595E-06-2.46983E-18-4.73978E-18
 -1       608 1.38240E-04-5.62206E-05-3.52928E-05-9.59904E-06 3.77750E-19-3.43766E-18
 -1       609 1.25299E-04-5.72162E-05-2.91573E-05-2.48586E-05 1.76088E-18-1.96374E-18
 -1       610 2.71229E-05-1.12880E-05-6.21471E-06 1.66672E-05-1.29495E-18 5.61678E-18
 -1       611 1.37199E-04-4.84828E-05-3.83050E-05 6.06042E-06 6.82761E-19-4.13813E-18
 -1       612 1.28727E-04-2.93939E-05-4.28754E-05 1.55999E-05 3.55047E-18 1.01930E-18
 -1       613 9.52364E-05-2.85723E-05-2.85703E-05 3.35568E-09-2.44809E-18-3.37761E-18
 -1       614 1.08858E-04-5.12005E-05-2.45786E-05-3.06263E-05 2.76845E-18-6.27704E-19
 -1       615 1.27499E-04-4.58893E-05-3.50772E-05-9.31170E-06-4.62768E-19 1.38899E-18
 -1       616 9.20696E-05-3.07227E-05-2.62075E-05-2.15818E-05-2.44004E-18-2.89706E-18
 -1       617 1.16791E-04-3.57400E-05-3.48095E-05 9.83624E-06 4.88319E-19-7.18094E-19
 -1       618 1.15836E-04-3.28789E-05-3.56061E-05 1.59619E-05 1.47501E-18-7.30748E-19
 -1       619 3.91735E-05-8.38703E-06-1.26543E-05 2.37803E-06-1.15312E-18 4.27143E-18
 -1       620 1.36051E-04-4.56758E-05-3.91357E-05 7.57497E-06-1.78626E-18-3.96914E-18
 -1       621 1.29152E-04-5.20815E-05-3.31023E-05-2.11695E-06 2.36674E-19-3.43607E-18
 -1       622 1.18228E-04-4.75467E-05-3.02749E-05-9.80458E-06 1.18207E-18-2.11808E-18
 -1       623 1.08744E-04-4.01080E-05-2.94167E-05-1.29468E-05 1.72208E-18-1.25447E-18
 -1       624 1.02438E-04-3.40644E-05-2.93077E-05-1.32161E-05 1.69277E-18-8.65773E-19
 -1       625 9.88008E-05-3.01321E-05-2.94300E-05-1.22530E-05 5.35090E-19-9.83130E-19
 -1       626 9.69196E-05-2.79451E-05-2.95600E-05-1.08017E-05 1.55992E-19-1.05160E-19
 -1       627 9.60393E-05-2.69275E-05-2.96184E-05-9.23863E-06 1.57663E-19-5.56486E-22
 -1       628 9.56698E-05-2.65997E-05-2.96004E-05-7.72560E-06 1.08131E-20-2.14093E-20
 -1       629 9.55337E-05-2.66373E-05-2.95260E-05-6.33804E-06-7.38048E-19 8.96416E-19
 -1       630 9.54890E-05-2.68432E-05-2.94187E-05-5.11044E-06 1.02424E-19 7.52471E-19
 -1       631 9.54707E-05-2.71070E-05-2.92979E-05-4.05415E-06 9.19394E-19 7.27366E-19
 -1       632 9.54536E-05-2.73721E-05-2.91772E-05-3.16603E-06 2.52409E-19 2.14824E-19
 -1       633 9.54313E-05-2.76122E-05-2.90648E-05-2.43410E-06 4.39371E-19 9.79351E-19
 -1       634 9.54044E-05-2.78183E-05-2.89651E-05-1.84157E-06-1.25118E-19 1.83987E-19
 -1       635 9.53757E-05-2.79892E-05-2.88797E-05-1.36977E-06-5.36640E-20-4.13149E-19
 -1       636 9.53479E-05-2.81277E-05-2.88084E-05-9.99978E-07-6.98834E-19-5.00061E-19
 -1       637 9.53228E-05-2.82381E-05-2.87504E-05-7.14628E-07 3.23840E-19-8.03289E-19
 -1       638 9.53013E-05-2.83249E-05-2.87041E-05-4.97919E-07 9.47612E-19-2.86857E-19
 -1       639 9.52837E-05-2.83921E-05-2.86677E-05-3.36090E-07 1.17577E-19-7.28901E-19
 -1       640 9.52697E-05-2.84436E-05-2.86397E-05-2.17446E-07-5.97881E-19-7.71395E-19
 -1       641 9.52590E-05-2.84825E-05-2.86185E-05-1.32256E-07-1.25323E-18-1.68704E-18
 -1       642 9.52510E-05-2.85114E-05-2.86027E-05-7.25721E-08-4.00576E-19 2.92987E-19
 -1       643 9.52453E-05-2.85325E-05-2.85912E-05-3.20168E-08 3.34945E-19-4.52897E-20
 -1       644 9.52413E-05-2.85476E-05-2.85830E-05-5.54852E-09-6.30178E-19 1.76605E-19
 -1       645 9.52386E-05-2.85582E-05-2.85773E-05 1.07581E-08-9.61654E-19 1.05992E-18
 -1       646 9.52369E-05-2.85654E-05-2.85735E-05 1.99104E-08-8.57447E-19 1.51480E-18
 -1       647 9.52359E-05-2.85701E-05-2.85710E-05 2.41743E-08-4.19222E-19 1.35873E-18
 -1       648 9.52354E-05-2.85730E-05-2.85696E-05 2.52253E-08 1.19460E-19 1.13807E-18
 -1       649 9.52352E-05-2.85746E-05-2.85688E-05 2.42779E-08 3.43686E-19 2.83224E-18
 -1       650 9.52352E-05-2.85754E-05-2.85685E-05 2.21906E-08 1.40585E-18 3.44693E-19
 -1       651 9.52353E-05-2.85755E-05-2.85685E-05 1.95528E-08 5.61026E-19 4.14596E-19
 -1       652 9.52355E-05-2.85754E-05-2.85686E-05 1.67527E-08-3.94598E-20 1.91853E-18
 -1       653 9.52358E-05-2.85750E-05-2.85689E-05 1.40311E-08 2.81652E-19 5.79884E-19
 -1       654 9.52360E-05-2.85746E-05-2.85692E-05 1.15234E-08-5.06258E-20-2.00576E-19
 -1       655 9.52363E-05-2.85742E-05-2.85695E-05 9.28693E-09-1.57614E-19-1.68357E-19
 -1       656 9.52366E-05-2.85738E-05-2.85698E-05 7.34145E-09-2.95612E-18-1.44046E-18
 -1       657 9.52368E-05-2.85735E-05-2.85700E-05 5.64471E-09-2.45534E-18-1.05351E-18
 -1       658 1.05379E-04-2.13289E-05-3.60647E-05 3.34429E-06 2.23724E-18-1.31217E-18
 -1       659 1.10981E-04-3.46179E-05-3.27404E-05-8.81248E-06 7.07005E-19-2.53058E-18
 -1       660 1.11061E-04-3.74688E-05-3.15408E-05-5.71941E-06 3.33903E-19-2.23222E-18
 -1       661 1.09312E-04-3.76313E-05-3.07232E-05-1.89653E-06 4.13705E-19-1.94136E-18
 -1       662 1.06687E-04-3.61445E-05-3.02366E-05 1.32254E-06 1.32296E-19-1.68290E-18
 -1       663 1.04009E-04-3.40895E-05-2.99684E-05 3.48663E-06 2.27838E-19-1.11878E-18
 -1       664 1.01714E-04-3.21489E-05-2.98155E-05 4.65624E-06 4.77267E-19-1.31464E-18
 -1       665 9.99251E-05-3.06100E-05-2.97076E-05 5.06647E-06 4.32775E-19-1.42233E-18
 -1       666 9.86038E-05-2.95203E-05-2.96076E-05 4.96506E-06 6.60790E-19-1.44810E-18
 -1       667 9.76543E-05-2.88169E-05-2.95017E-05 4.55664E-06 6.71561E-19-1.11498E-18
 -1       668 9.69786E-05-2.84044E-05-2.93886E-05 3.99191E-06 1.76660E-19-7.98401E-20
 -1       669 9.64970E-05-2.81930E-05-2.92727E-05 3.37396E-06-1.79310E-19-4.15467E-19
 -1       670 9.61510E-05-2.81109E-05-2.91595E-05 2.76855E-06 1.80686E-19-1.37762E-19
 -1       671 9.58997E-05-2.81063E-05-2.90538E-05 2.21385E-06-5.26206E-19-8.67781E-19
 -1       672 9.57156E-05-2.81438E-05-2.89589E-05 1.72877E-06-7.36151E-19-8.85143E-19
 -1       673 9.55798E-05-2.82008E-05-2.88763E-05 1.31942E-06-1.14865E-18-8.92794E-19
 -1       674 9.54793E-05-2.82634E-05-2.88065E-05 9.83942E-07-7.09281E-19-6.96431E-19
 -1       675 9.54052E-05-2.83237E-05-2.87490E-05 7.15889E-07-9.29243E-19 5.96025E-19
 -1       676 9.53508E-05-2.83777E-05-2.87026E-05 5.06627E-07-1.09875E-18 8.54133E-19
 -1       677 9.53114E-05-2.84238E-05-2.86660E-05 3.46875E-07-3.61759E-19 1.22181E-18
 -1       678 9.52831E-05-2.84616E-05-2.86377E-05 2.27637E-07-8.75459E-19 1.60742E-18
 -1       679 9.52633E-05-2.84919E-05-2.86163E-05 1.40733E-07-6.03204E-20 1.66590E-18
 -1       680 9.52497E-05-2.85154E-05-2.86004E-05 7.90595E-08 1.64241E-18 1.27690E-18
 -1       681 9.52407E-05-2.85332E-05-2.85889E-05 3.66534E-08 1.42403E-18 1.12552E-18
 -1       682 9.52351E-05-2.85465E-05-2.85808E-05 8.64408E-09 1.51168E-19 2.48350E-18
 -1       683 9.52318E-05-2.85561E-05-2.85753E-05-8.85465E-09-1.29431E-18 3.18616E-18
 -1       684 9.52302E-05-2.85629E-05-2.85717E-05-1.88769E-08-2.08244E-18 1.43818E-18
 -1       685 9.52297E-05-2.85675E-05-2.85695E-05-2.37414E-08-4.96514E-19 1.77888E-18
 -1       686 9.52298E-05-2.85705E-05-2.85683E-05-2.51829E-08-9.06160E-19 1.36778E-18
 -1       687 9.52304E-05-2.85724E-05-2.85677E-05-2.44701E-08-7.83411E-19 1.26494E-18
 -1       688 9.52312E-05-2.85734E-05-2.85676E-05-2.25071E-08 7.07327E-19 1.13225E-19
 -1       689 9.52320E-05-2.85739E-05-2.85678E-05-1.99195E-08 7.18224E-19 5.08951E-19
 -1       690 9.52329E-05-2.85740E-05-2.85681E-05-1.71227E-08 7.90096E-19 4.20318E-20
 -1       691 9.52337E-05-2.85739E-05-2.85685E-05-1.43774E-08-9.24515E-19 3.00034E-19
 -1       692 9.52344E-05-2.85737E-05-2.85689E-05-1.18323E-08-1.50508E-18 2.11616E-18
 -1       693 9.52351E-05-2.85734E-05-2.85693E-05-9.55659E-09 2.52453E-19 3.84416E-18
 -1       694 9.52357E-05-2.85732E-05-2.85696E-05-7.56635E-09 6.82820E-19 4.00385E-18
 -1       695 9.52362E-05-2.85730E-05-2.85699E-05-5.84146E-09 1.42196E-18 2.63111E-18
 -1       696 9.52368E-05-2.85732E-05-2.85701E-05-4.73988E-09-5.33885E-20 3.16566E-18
 -1       697 1.14633E-04-3.19117E-05-3.54178E-05 1.78246E-05 1.95835E-18 8.13234E-20
 -1       698 9.52416E-05-2.85780E-05-2.85701E-05-8.88856E-10-1.13284E-18-1.66331E-18
 -1       699 9.52370E-05-2.85734E-05-2.85701E-05 4.63232E-09-1.04733E-18 5.14620E-19
 -1       700 9.52403E-05-2.85767E-05-2.85701E-05-3.95363E-09 1.64447E-18-1.22261E-18
 -1       701 9.52416E-05-2.85780E-05-2.85701E-05 9.16913E-10-1.24256E-18-1.12198E-18
 -1       702 9.52412E-05-2.85776E-05-2.85701E-05-2.58372E-09-1.00549E-18 3.30315E-19
 -1       703 9.52412E-05-2.85776E-05-2.85701E-05 2.58248E-09 1.03484E-19-2.27086E-19
 -1       704 9.52403E-05-2.85768E-05-2.85701E-05 3.95560E-09 1.99806E-18 7.32953E-19
 -1       705 9.52391E-05-2.85756E-05-2.85701E-05 4.80673E-09 1.35832E-18 1.07636E-18
 -1       706 9.52380E-05-2.85745E-05-2.85701E-05 4.92158E-09-2.69976E-19-3.18556E-19
 -1       707 1.08001E-04-2.38757E-05-3.60540E-05 1.12140E-05 2.57709E-18-3.22005E-19
 -1       708 1.35256E-04-2.02647E-05-4.97538E-05-1.70349E-05-6.07132E-18 7.01529E-19
 -1       709 1.29335E-04-5.22098E-05-3.31972E-05 8.35334E-06-9.29039E-19-4.29190E-18
 -1       710 1.30898E-04-4.99336E-05-3.44583E-05-3.48384E-06-4.81679E-19 5.76274E-19
 -1       711 4.57032E-05-1.49812E-05-1.26826E-05-2.29033E-05 1.04426E-18 4.57435E-18
 -1       712 8.02454E-05-3.46059E-05-1.92261E-05 3.57950E-05-3.27974E-18-1.60592E-19
 -1       713 1.08985E-04-2.93402E-05-3.41465E-05-9.02287E-06 1.27348E-18-2.55629E-18
 -1       714 1.06241E-04-2.37140E-05-3.53884E-05-4.67541E-06 1.76118E-18-2.06818E-18
 -1       715 1.19349E-04-1.50309E-05-4.51281E-05 1.40922E-05 4.43798E-18-9.20778E-19
 -1       716 7.35103E-05-2.19055E-05-2.18321E-05-2.94950E-05-2.86919E-18-4.30351E-18
 -1       717 7.09157E-05-3.03063E-05-1.69877E-05-3.49534E-05 2.59481E-18 2.74518E-18
 -1       718 1.12804E-04-3.77417E-05-3.21192E-05-3.44040E-06-9.67820E-19-7.59658E-19
 -1       719 1.24852E-04-4.23021E-05-3.54504E-05-3.95957E-07 3.44934E-19 2.86059E-19
 -1       720 1.18018E-04-9.13709E-06-4.71345E-05 3.10880E-06 5.21095E-18-2.00085E-18
 -1       721 1.24516E-04-2.00240E-05-4.52326E-05-8.34226E-06 3.88513E-18-4.26455E-18
 -1       722 1.30982E-04-3.79345E-05-4.01602E-05-6.77688E-06 1.39854E-18-5.21203E-18
 -1       723 1.03669E-04-3.77670E-05-2.81885E-05-1.94209E-05-1.81700E-18-1.92316E-18
 -1       724 4.78362E-05-1.49275E-05-1.36521E-05 2.39169E-05-2.57307E-18 3.09305E-18
 -1       725 1.06823E-04-4.89592E-05-2.46519E-05 2.97803E-05-2.45113E-18-2.45016E-18
 -1       726 1.26116E-04-1.44097E-05-4.84823E-05-5.40316E-06-6.23347E-18-7.05618E-19
 -1       727 6.46057E-05-1.79761E-05-1.96762E-05 2.35915E-05 1.39528E-18-4.58533E-18
 -1       728 1.11815E-04-2.86207E-05-3.56829E-05 1.61560E-05 2.50142E-18 2.23504E-21
 -1       729 1.05038E-04-4.11140E-05-2.71875E-05 1.58049E-05 1.01697E-18-1.86560E-18
 -1       730 1.25865E-04-3.69012E-05-3.83334E-05 1.31765E-05 1.70141E-18 9.28520E-19
 -1       731 5.71377E-05-1.37278E-05-1.82153E-05-3.06572E-05-2.86038E-18-5.54912E-18
 -1       732 1.31012E-04-4.82546E-05-3.56435E-05-8.80646E-06-1.02048E-18 1.35282E-18
 -1       733 9.52391E-05-2.85756E-05-2.85701E-05-4.81290E-09 1.64868E-19 2.03658E-18
 -1       734 9.52379E-05-2.85744E-05-2.85701E-05-5.01195E-09 8.64921E-19 2.76896E-18
 -1       735 1.17813E-04-5.14079E-05-2.84185E-05 1.78264E-05-1.66194E-18-3.05335E-18
 -1       736 1.20830E-04-2.39005E-05-4.17663E-05 1.80212E-05 3.31343E-18-1.21285E-19
 -1       737 1.14572E-04-1.52163E-05-4.28738E-05-4.29609E-06 3.80894E-18-2.97117E-18
 -1       738 9.46056E-05-4.08037E-05-2.28348E-05-3.01082E-05 2.67899E-18 4.27599E-19
 -1       739 1.24071E-04-5.46300E-05-2.97053E-05-1.60085E-05 1.49059E-18-1.95023E-18
 -1       740 1.11744E-04-1.46058E-05-4.19184E-05 7.99757E-06 4.07864E-18-1.43914E-18
 -1       741 1.19533E-04-3.34944E-05-3.69231E-05 1.73899E-05 1.75787E-18-1.53555E-19
 -1       742 1.03516E-04-4.13124E-05-2.65396E-05-2.13285E-05 1.84931E-18-5.40711E-20
 -1       743 9.62081E-05-3.32461E-05-2.69850E-05-1.82200E-05 1.81654E-18-2.69716E-19
 -1       744 9.26777E-05-2.83242E-05-2.75767E-05-1.51159E-05 7.90694E-19-4.55788E-19
 -1       745 9.15305E-05-2.58050E-05-2.81661E-05-1.23492E-05 5.57630E-19-8.62341E-19
 -1       746 9.15020E-05-2.47645E-05-2.86010E-05-1.01242E-05 1.69597E-19-3.37212E-19
 -1       747 9.19619E-05-2.45762E-05-2.88791E-05-8.30837E-06-1.08999E-19-5.28034E-19
 -1       748 9.25727E-05-2.48336E-05-2.90307E-05-6.79422E-06 5.44942E-19-1.70960E-19
 -1       749 9.31710E-05-2.52905E-05-2.90913E-05-5.51332E-06-4.43550E-19 6.68452E-19
 -1       750 9.36886E-05-2.58063E-05-2.90922E-05-4.42632E-06 5.17210E-19 7.26743E-19
 -1       751 9.41070E-05-2.63066E-05-2.90572E-05-3.50907E-06 1.47306E-19 1.73849E-21
 -1       752 9.44310E-05-2.67559E-05-2.90035E-05-2.74346E-06 2.35722E-19-1.90235E-21
 -1       753 9.46745E-05-2.71417E-05-2.89425E-05-2.11300E-06-1.22036E-19-2.70080E-19
 -1       754 9.48535E-05-2.74630E-05-2.88816E-05-1.60153E-06 6.04848E-20 9.14411E-20
 -1       755 9.49827E-05-2.77248E-05-2.88248E-05-1.19296E-06-4.34756E-19-2.55907E-19
 -1       756 9.50744E-05-2.79344E-05-2.87742E-05-8.71648E-07-1.35960E-19 4.63449E-19
 -1       757 9.51383E-05-2.80997E-05-2.87308E-05-6.22965E-07 1.47816E-18 4.09974E-19
 -1       758 9.51819E-05-2.82283E-05-2.86944E-05-4.33671E-07-7.96841E-20 9.84842E-19
 -1       759 9.52111E-05-2.83268E-05-2.86646E-05-2.92098E-07-4.30128E-19 1.35847E-18
 -1       760 9.52298E-05-2.84013E-05-2.86408E-05-1.88229E-07-1.97911E-18 1.16104E-18
 -1       761 9.52413E-05-2.84567E-05-2.86220E-05-1.13652E-07-4.53455E-19 9.66555E-19
 -1       762 9.52479E-05-2.84973E-05-2.86074E-05-6.14609E-08 5.86283E-19 6.06408E-19
 -1       763 9.52510E-05-2.85263E-05-2.85963E-05-2.60823E-08-2.47711E-20 7.92375E-19
 -1       764 9.52520E-05-2.85466E-05-2.85880E-05-3.08710E-09-3.19381E-19 1.83382E-18
 -1       765 9.52517E-05-2.85604E-05-2.85820E-05 1.09825E-08-1.41357E-18 1.90395E-18
 -1       766 9.52505E-05-2.85694E-05-2.85776E-05 1.87791E-08-7.48894E-19 4.74069E-19
 -1       767 9.52489E-05-2.85749E-05-2.85746E-05 2.23014E-08-2.60768E-19 4.44782E-19
 -1       768 9.52472E-05-2.85779E-05-2.85726E-05 2.30267E-08 1.07032E-18-2.56013E-19
 -1       769 9.52456E-05-2.85793E-05-2.85712E-05 2.20239E-08 6.21469E-19 2.06517E-19
 -1       770 9.52440E-05-2.85796E-05-2.85704E-05 2.00473E-08 3.85887E-19 3.60201E-19
 -1       771 9.52426E-05-2.85793E-05-2.85700E-05 1.76124E-08 1.31470E-18-3.64001E-19
 -1       772 9.52414E-05-2.85785E-05-2.85698E-05 1.50570E-08-4.10706E-19-2.56377E-19
 -1       773 9.52404E-05-2.85776E-05-2.85698E-05 1.25890E-08-1.31739E-18-7.63726E-19
 -1       774 9.52396E-05-2.85767E-05-2.85698E-05 1.03279E-08-8.60500E-19-2.66813E-18
 -1       775 9.52390E-05-2.85759E-05-2.85699E-05 8.30689E-09-1.58422E-18-3.10285E-18
 -1       776 9.52385E-05-2.85752E-05-2.85700E-05 6.55288E-09-2.33713E-18-1.46030E-18
 -1       777 1.13121E-04-4.12626E-05-3.07975E-05-4.62072E-07-2.01993E-19-2.24708E-18
 -1       778 1.16082E-04-4.03996E-05-3.24604E-05-5.41792E-06 6.23214E-20-2.85378E-18
 -1       779 1.04579E-04-3.60509E-05-2.93695E-05 5.62351E-06 4.95239E-20-1.23616E-18
 -1       780 1.01226E-04-3.31144E-05-2.91912E-05 6.54979E-06 1.98134E-19-1.78143E-18
 -1       781 9.88242E-05-3.08155E-05-2.91470E-05 6.63581E-06 8.23801E-19-1.49601E-18
 -1       782 9.72346E-05-2.92235E-05-2.91478E-05 6.23375E-06 5.39418E-20-1.57693E-18
 -1       783 9.62479E-05-2.82322E-05-2.91495E-05 5.58075E-06-9.54932E-20 2.53862E-19
 -1       784 9.56720E-05-2.76894E-05-2.91353E-05 4.82516E-06 1.19052E-19 8.75418E-19
 -1       785 9.53594E-05-2.74536E-05-2.91023E-05 4.05747E-06-8.06235E-21 1.02435E-18
 -1       786 9.52068E-05-2.74126E-05-2.90545E-05 3.33157E-06-1.02591E-19 9.63115E-19
 -1       787 9.51457E-05-2.74844E-05-2.89975E-05 2.67719E-06-4.00844E-19 8.30309E-19
 -1       788 9.51334E-05-2.76130E-05-2.89372E-05 2.10787E-06-3.38446E-19 5.49571E-19
 -1       789 9.51446E-05-2.77629E-05-2.88777E-05 1.62673E-06-1.02595E-18 7.25905E-19
 -1       790 9.51646E-05-2.79124E-05-2.88223E-05 1.23015E-06-7.20474E-19 7.90613E-19
 -1       791 9.51858E-05-2.80494E-05-2.87727E-05 9.10506E-07-1.03906E-18 2.89435E-19
 -1       792 9.52046E-05-2.81686E-05-2.87297E-05 6.58196E-07-1.12492E-18 5.53648E-20
 -1       793 9.52196E-05-2.82681E-05-2.86934E-05 4.63037E-07-6.94374E-19-1.33572E-19
 -1       794 9.52306E-05-2.83488E-05-2.86636E-05 3.15132E-07-8.21742E-19-8.04842E-20
 -1       795 9.52382E-05-2.84124E-05-2.86396E-05 2.05390E-07-6.77496E-19-1.40333E-18
 -1       796 9.52430E-05-2.84613E-05-2.86207E-05 1.25813E-07-2.85860E-19-7.88568E-19
 -1       797 9.52456E-05-2.84981E-05-2.86061E-05 6.96106E-08 1.28858E-18 1.19423E-18
 -1       798 9.52467E-05-2.85251E-05-2.85950E-05 3.11627E-08 2.23281E-19 2.57455E-18
 -1       799 9.52468E-05-2.85444E-05-2.85867E-05 5.91952E-09-9.49533E-19 1.88409E-18
 -1       800 9.52462E-05-2.85578E-05-2.85808E-05-9.72511E-09-6.05956E-19 1.14205E-18
 -1       801 9.52453E-05-2.85667E-05-2.85765E-05-1.85707E-08-9.43527E-19 7.24465E-19
 -1       802 9.52442E-05-2.85724E-05-2.85736E-05-2.27469E-08-9.92572E-19 1.48365E-18
 -1       803 9.52431E-05-2.85757E-05-2.85717E-05-2.38404E-08-3.34011E-19 9.51805E-19
 -1       804 9.52420E-05-2.85774E-05-2.85706E-05-2.30075E-08 6.80265E-19 3.78901E-19
 -1       805 9.52411E-05-2.85780E-05-2.85699E-05-2.10694E-08 2.76231E-19 8.13313E-19
 -1       806 9.52402E-05-2.85780E-05-2.85695E-05-1.85914E-08-3.94917E-19 2.04304E-18
 -1       807 9.52395E-05-2.85775E-05-2.85694E-05-1.59470E-08-4.08035E-19 3.65419E-18
 -1       808 9.52389E-05-2.85768E-05-2.85695E-05-1.33689E-08-1.57902E-18 4.21885E-18
 -1       809 9.52385E-05-2.85760E-05-2.85696E-05-1.09883E-08-1.64664E-18 2.47076E-18
 -1       810 9.52381E-05-2.85753E-05-2.85698E-05-8.86434E-09-1.31524E-20 3.78489E-18
 -1       811 9.52379E-05-2.85748E-05-2.85699E-05-7.01132E-09 1.47929E-18 3.67783E-18
 -1       812 9.52379E-05-2.85746E-05-2.85700E-05-5.96303E-09 2.05390E-19 4.55713E-18
 -1       813 1.14068E-04-2.48855E-05-3.83226E-05 1.69574E-05 2.83208E-18-1.09899E-19
 -1       814 9.52420E-05-2.85782E-05-2.85702E-05 4.09750E-09 3.04612E-20 1.07618E-18
 -1       815 9.52432E-05-2.85792E-05-2.85703E-05 1.74782E-11-1.66158E-18-1.59599E-18
 -1       816 1.25850E-04-4.45823E-05-3.49702E-05-3.56047E-06 1.72252E-19-4.43542E-18
 -1       817 6.78196E-05-2.26419E-05-1.91409E-05 2.63421E-05-2.67014E-18 1.32435E-18
 -1       818 1.15749E-04-3.44275E-05-3.48899E-05-9.31371E-06 8.47112E-19-3.38356E-18
 -1       819 1.08780E-04-3.91706E-05-2.98342E-05 3.40195E-06-1.53012E-19-1.29910E-18
 -1       820 9.52406E-05-2.85769E-05-2.85701E-05 5.53600E-09 4.85936E-20 9.28342E-21
 -1       821 1.15848E-04-2.63661E-05-3.84846E-05-9.83988E-06 1.96545E-18-3.67334E-18
 -1       822 1.20793E-04-2.93088E-05-3.94338E-05-1.04901E-05 1.88282E-18-4.09538E-18
 -1       823 6.43507E-05-2.13245E-05-1.81807E-05-2.58442E-05 1.17118E-18 2.57035E-18
 -1       824 5.17607E-05-1.18128E-05-1.68376E-05 1.20239E-05-1.90167E-18 3.07854E-18
 -1       825 9.65997E-05-4.04335E-05-2.39880E-05 2.70934E-05-2.18689E-18-1.42517E-18
 -1       826 5.07291E-05-1.16347E-05-1.64568E-05-1.14495E-05-6.71432E-19 3.22526E-18
 -1       827 9.52429E-05-2.85789E-05-2.85703E-05 2.18401E-09-2.85320E-19 1.46531E-19
 -1       828 1.20482E-04-3.89536E-05-3.50020E-05 6.47898E-06 1.88206E-19-4.69640E-20
 -1       829 9.52406E-05-2.85769E-05-2.85701E-05-5.52664E-09 6.16185E-19 5.65185E-19
 -1       830 9.52429E-05-2.85789E-05-2.85703E-05-2.17000E-09-1.46143E-18-1.16663E-18
 -1       831 1.21607E-04-4.87502E-05-3.12328E-05 5.05417E-06-7.58240E-19-3.84743E-18
 -1       832 5.56056E-05-1.12847E-05-1.88075E-05-8.84707E-07-3.71891E-19 2.59972E-18
 -1       833 8.36877E-05-3.12012E-05-2.23378E-05-2.68454E-05 1.71645E-18 1.16648E-18
 -1       834 8.43624E-05-3.03863E-05-2.30283E-05 2.46673E-05-2.64024E-18-3.40749E-20
 -1       835 9.52420E-05-2.85782E-05-2.85702E-05-4.09745E-09-4.33773E-19-2.82095E-18
 -1       836 6.55099E-05-1.70734E-05-2.06453E-05 1.60942E-05-1.76240E-18 1.61364E-18
 -1       837 9.53872E-05-2.87159E-05-2.85735E-05 7.70557E-06 3.39861E-19 2.99582E-20
 -1       838 9.52426E-05-2.85786E-05-2.85703E-05 5.91911E-09-6.72682E-19-5.33754E-20
 -1       839 8.33724E-05-2.45128E-05-2.51988E-05-1.72183E-05 8.92793E-19 1.60638E-20
 -1       840 8.43447E-05-2.26107E-05-2.64524E-05-1.28618E-05 3.75386E-19-6.23549E-20
 -1       841 8.59512E-05-2.20706E-05-2.73765E-05-9.94817E-06-1.18233E-20-2.48062E-19
 -1       842 8.76310E-05-2.22815E-05-2.80069E-05-7.92087E-06 3.06139E-19-1.88696E-19
 -1       843 8.91764E-05-2.28688E-05-2.84175E-05-6.41410E-06 2.19442E-19 9.53439E-20
 -1       844 9.05098E-05-2.36145E-05-2.86693E-05-5.22328E-06 3.09633E-19-6.61270E-19
 -1       845 9.16152E-05-2.43911E-05-2.88103E-05-4.24172E-06 4.58990E-19 1.94179E-19
 -1       846 9.25062E-05-2.51275E-05-2.88765E-05-3.41577E-06 2.24315E-19 6.28484E-19
 -1       847 9.32090E-05-2.57880E-05-2.88947E-05-2.71828E-06 3.54947E-20 1.88822E-19
 -1       848 9.37539E-05-2.63589E-05-2.88835E-05-2.13292E-06 3.11346E-19-1.75369E-19
 -1       849 9.41704E-05-2.68396E-05-2.88560E-05-1.64761E-06-1.49867E-19-1.02277E-18
 -1       850 9.44844E-05-2.72358E-05-2.88208E-05-1.25141E-06-1.82860E-19-8.68982E-19
 -1       851 9.47179E-05-2.75567E-05-2.87834E-05-9.33173E-07-3.69364E-19 5.69081E-19
 -1       852 9.48892E-05-2.78125E-05-2.87472E-05-6.81770E-07 3.45368E-19 6.57818E-19
 -1       853 9.50130E-05-2.80135E-05-2.87141E-05-4.86600E-07 8.14640E-19-2.22421E-19
 -1       854 9.51008E-05-2.81692E-05-2.86850E-05-3.37741E-07 4.88633E-19 2.73200E-19
 -1       855 9.51617E-05-2.82880E-05-2.86602E-05-2.26335E-07-1.38653E-18-3.09222E-19
 -1       856 9.52028E-05-2.83772E-05-2.86395E-05-1.44626E-07-1.13669E-18 8.73738E-19
 -1       857 9.52296E-05-2.84431E-05-2.86228E-05-8.60588E-08-3.10078E-19 6.47022E-19
 -1       858 9.52461E-05-2.84909E-05-2.86094E-05-4.52156E-08-2.43745E-19-4.83616E-19
 -1       859 9.52554E-05-2.85247E-05-2.85989E-05-1.76795E-08 6.20897E-19-6.13231E-19
 -1       860 9.52598E-05-2.85480E-05-2.85908E-05 7.07420E-11-6.12588E-19-7.60121E-19
 -1       861 9.52610E-05-2.85635E-05-2.85846E-05 1.07864E-08-2.19949E-18 1.17680E-19
 -1       862 9.52601E-05-2.85733E-05-2.85801E-05 1.65773E-08-6.29549E-19 4.55241E-19
 -1       863 9.52582E-05-2.85791E-05-2.85767E-05 1.90315E-08-2.21547E-19-1.92472E-19
 -1       864 9.52556E-05-2.85820E-05-2.85744E-05 1.93204E-08 1.03658E-18-1.73783E-18
 -1       865 9.52528E-05-2.85831E-05-2.85728E-05 1.82887E-08 3.80662E-19-1.15547E-18
 -1       866 9.52502E-05-2.85829E-05-2.85717E-05 1.65298E-08 1.82317E-18 4.77385E-19
 -1       867 9.52477E-05-2.85821E-05-2.85710E-05 1.44473E-08-6.16024E-19 7.52913E-21
 -1       868 9.52455E-05-2.85809E-05-2.85705E-05 1.23023E-08-1.47518E-18-2.04663E-18
 -1       869 9.52436E-05-2.85796E-05-2.85703E-05 1.02530E-08-1.72589E-18-4.72940E-19
 -1       870 9.52420E-05-2.85783E-05-2.85702E-05 8.38171E-09-1.62275E-18-8.38135E-19
 -1       871 9.71871E-05-3.08091E-05-2.84476E-05 8.74260E-06 8.98139E-20-9.63860E-19
 -1       872 1.00201E-04-3.39295E-05-2.83998E-05 9.44717E-06 3.38486E-19-1.06104E-18
 -1       873 9.44279E-05-2.74553E-05-2.87024E-05 6.59756E-06-6.69319E-19 9.84909E-20
 -1       874 9.40075E-05-2.68002E-05-2.88030E-05 5.53561E-06-7.91474E-20-1.53251E-19
 -1       875 9.39099E-05-2.65542E-05-2.88666E-05 4.56721E-06-1.72382E-19 1.37672E-19
 -1       876 9.39904E-05-2.65663E-05-2.88960E-05 3.70995E-06-1.83433E-19 2.92329E-19
 -1       877 9.41558E-05-2.67264E-05-2.88983E-05 2.96819E-06-3.22090E-19 1.24772E-19
 -1       878 9.43492E-05-2.69588E-05-2.88816E-05 2.33804E-06 2.24825E-19 2.64975E-20
 -1       879 9.45390E-05-2.72152E-05-2.88530E-05 1.81209E-06-7.66767E-20-8.58425E-19
 -1       880 9.47086E-05-2.74657E-05-2.88184E-05 1.38082E-06-1.09367E-18-1.48260E-18
 -1       881 9.48514E-05-2.76937E-05-2.87819E-05 1.03319E-06-8.63305E-19-5.14269E-19
 -1       882 9.49663E-05-2.78914E-05-2.87464E-05 7.57661E-07-9.10306E-19-1.45778E-19
 -1       883 9.50555E-05-2.80568E-05-2.87137E-05 5.43006E-07-9.41724E-19 5.32777E-20
 -1       884 9.51225E-05-2.81912E-05-2.86848E-05 3.78727E-07-1.91489E-19-1.88762E-19
 -1       885 9.51711E-05-2.82976E-05-2.86600E-05 2.55340E-07 4.65397E-19-9.52455E-19
 -1       886 9.52051E-05-2.83800E-05-2.86394E-05 1.64485E-07 1.29239E-19-1.39102E-18
 -1       887 9.52280E-05-2.84422E-05-2.86225E-05 9.90776E-08-5.70222E-19-2.57578E-18
 -1       888 9.52425E-05-2.84883E-05-2.86090E-05 5.32324E-08-7.20196E-19-8.67859E-19
 -1       889 9.52510E-05-2.85215E-05-2.85984E-05 2.21368E-08-3.56206E-19 7.11270E-19
 -1       890 9.52553E-05-2.85447E-05-2.85902E-05 1.93424E-09 2.15929E-19-4.74420E-19
 -1       891 9.52567E-05-2.85605E-05-2.85841E-05-1.04024E-08-1.02125E-18-1.09615E-18
 -1       892 9.52563E-05-2.85706E-05-2.85796E-05-1.72048E-08-1.47022E-18-7.05750E-19
 -1       893 9.52548E-05-2.85768E-05-2.85763E-05-2.02350E-08-4.77304E-19-4.64131E-19
 -1       894 9.52527E-05-2.85801E-05-2.85740E-05-2.07984E-08-1.91053E-19-9.56596E-19
 -1       895 9.52505E-05-2.85816E-05-2.85724E-05-1.98407E-08-4.75750E-19 1.34654E-18
 -1       896 9.52482E-05-2.85817E-05-2.85714E-05-1.80297E-08-7.28875E-19 2.85878E-18
 -1       897 9.52461E-05-2.85811E-05-2.85707E-05-1.58219E-08-8.56600E-20 3.23172E-18
 -1       898 9.52443E-05-2.85801E-05-2.85703E-05-1.35158E-08-5.34540E-19 1.94795E-18
 -1       899 9.52427E-05-2.85790E-05-2.85701E-05-1.12944E-08-1.38645E-18 4.16429E-19
 -1       900 9.52413E-05-2.85778E-05-2.85701E-05-9.27159E-09-1.66404E-18 5.39074E-19
 -1       901 9.52402E-05-2.85768E-05-2.85701E-05-7.46692E-09 4.53916E-20 1.73951E-18
 -1       902 9.52392E-05-2.85758E-05-2.85701E-05-5.94678E-09 8.05574E-19 2.68750E-18
 -1       903 1.17918E-04-4.57498E-05-3.09298E-05 2.83437E-06-9.51976E-19-3.60157E-18
 -1       904 1.09292E-04-4.50633E-05-2.75349E-05 1.66423E-05-1.87145E-18-3.12154E-18
 -1       905 6.59267E-05-1.70056E-05-2.07797E-05-1.64255E-05 8.12631E-19 1.75763E-18
 -1       906 1.21310E-04-4.06149E-05-3.46724E-05-7.00894E-06 3.11824E-19-3.72194E-18
 -1       907 9.52442E-05-2.85799E-05-2.85704E-05 3.86906E-09-5.38823E-19 2.00357E-18
 -1       908 9.86741E-05-3.78883E-05-2.60137E-05 1.94681E-05-1.54033E-18-2.24871E-18
 -1       909 9.52427E-05-2.85787E-05-2.85703E-05-5.96897E-09-1.53717E-18-2.06806E-18
 -1       910 1.10923E-04-4.25856E-05-2.92941E-05 7.40266E-06-7.56339E-19-2.38818E-18
 -1       911 9.52451E-05-2.85805E-05-2.85705E-05-1.34326E-09-5.68688E-19-1.55530E-18
 -1       912 6.42591E-05-1.40475E-05-2.14464E-05 6.53191E-06-5.78878E-19 1.78440E-18
 -1       913 1.04757E-04-3.80375E-05-2.85819E-05 9.32560E-06-2.85769E-19-1.93207E-18
 -1       914 9.52450E-05-2.85805E-05-2.85705E-05 1.34265E-09-1.17147E-18-1.21003E-18
 -1       915 9.52442E-05-2.85799E-05-2.85705E-05-3.86508E-09-6.36684E-19-1.04502E-18
 -1       916 7.53791E-05-1.83022E-05-2.44516E-05-1.08432E-05 2.68394E-19 1.02230E-18
 -1       917 9.19002E-05-2.56504E-05-2.83925E-05 6.06719E-06-5.30787E-19 7.60214E-19
 -1       918 7.96037E-05-1.89557E-05-2.59927E-05-7.92788E-06-9.89873E-20 2.40129E-19
 -1       919 8.29708E-05-1.98925E-05-2.70355E-05-6.14716E-06 3.78209E-19 2.60311E-19
 -1       920 8.56390E-05-2.09360E-05-2.77308E-05-4.96653E-06 4.54156E-19 3.54146E-20
 -1       921 8.77681E-05-2.19985E-05-2.81875E-05-4.09706E-06-2.38274E-19-3.29969E-19
 -1       922 8.94699E-05-2.30220E-05-2.84781E-05-3.39789E-06 6.99644E-19-3.56666E-19
 -1       923 9.08257E-05-2.39678E-05-2.86536E-05-2.80454E-06 7.68178E-19-4.14988E-19
 -1       924 9.18998E-05-2.48150E-05-2.87508E-05-2.28872E-06 1.04985E-19-9.97996E-21
 -1       925 9.27428E-05-2.55522E-05-2.87961E-05-1.84056E-06-5.05167E-19 1.91705E-20
 -1       926 9.33991E-05-2.61807E-05-2.88080E-05-1.45521E-06-3.51652E-19-5.09027E-19
 -1       927 9.39046E-05-2.67062E-05-2.87994E-05-1.13016E-06-1.08608E-19-8.25059E-19
 -1       928 9.42893E-05-2.71376E-05-2.87793E-05-8.61281E-07 9.07122E-19-8.39354E-20
 -1       929 9.45782E-05-2.74861E-05-2.87538E-05-6.43164E-07 5.47215E-19 7.47113E-19
 -1       930 9.47924E-05-2.77637E-05-2.87266E-05-4.69705E-07 8.01014E-19 3.17553E-19
 -1       931 9.49483E-05-2.79811E-05-2.87003E-05-3.34430E-07 8.24493E-19 1.01667E-18
 -1       932 9.50600E-05-2.81491E-05-2.86761E-05-2.30974E-07-3.08616E-19 6.29544E-19
 -1       933 9.51381E-05-2.82767E-05-2.86549E-05-1.53523E-07-4.39509E-20 1.55701E-18
 -1       934 9.51912E-05-2.83722E-05-2.86367E-05-9.67638E-08-3.08839E-19 2.88488E-18
 -1       935 9.52261E-05-2.84423E-05-2.86216E-05-5.62478E-08-6.50032E-19 2.18225E-18
 -1       936 9.52477E-05-2.84927E-05-2.86093E-05-2.81579E-08-1.11548E-18 9.43098E-19
 -1       937 9.52600E-05-2.85280E-05-2.85994E-05-9.37854E-09-1.47562E-19-8.95925E-19
 -1       938 9.52659E-05-2.85520E-05-2.85916E-05 2.57272E-09-7.24062E-19-6.59862E-19
 -1       939 9.52676E-05-2.85677E-05-2.85857E-05 9.63573E-09-1.04315E-18-4.66115E-19
 -1       940 9.52666E-05-2.85773E-05-2.85811E-05 1.32973E-08-8.98009E-19-1.00337E-18
 -1       941 9.52642E-05-2.85827E-05-2.85777E-05 1.46743E-08-5.20578E-19-9.47929E-19
 -1       942 9.52609E-05-2.85852E-05-2.85753E-05 1.45876E-08 1.47984E-18-1.50568E-18
 -1       943 9.52574E-05-2.85858E-05-2.85735E-05 1.36260E-08 5.77115E-19-8.98495E-19
 -1       944 9.52539E-05-2.85852E-05-2.85723E-05 1.22010E-08 8.84905E-19-3.56397E-18
 -1       945 9.52507E-05-2.85839E-05-2.85715E-05 1.05904E-08-1.61143E-18-2.37184E-18
 -1       946 9.52478E-05-2.85823E-05-2.85709E-05 8.97106E-09-1.67982E-18-1.37753E-18
 -1       947 9.52454E-05-2.85807E-05-2.85706E-05 7.43059E-09-1.47623E-18-6.85778E-19
 -1       948 9.26629E-05-2.76860E-05-2.78485E-05 9.33926E-06-6.09271E-19-8.55217E-21
 -1       949 9.43461E-05-3.01222E-05-2.75265E-05 1.14032E-05-3.97726E-19-1.00162E-18
 -1       950 9.21332E-05-2.54660E-05-2.85716E-05 4.84873E-06 2.58160E-19 8.36355E-19
 -1       951 9.25218E-05-2.55749E-05-2.86914E-05 3.85089E-06-2.53957E-19-1.07029E-19
 -1       952 9.29652E-05-2.58523E-05-2.87627E-05 3.03594E-06-1.38733E-19 5.29926E-20
 -1       953 9.34006E-05-2.62068E-05-2.87974E-05 2.37136E-06 7.34869E-20 1.44635E-20
 -1       954 9.37971E-05-2.65833E-05-2.88060E-05 1.83132E-06 1.13389E-19 5.19918E-20
 -1       955 9.41396E-05-2.69463E-05-2.87972E-05 1.39630E-06-9.93467E-22 2.11293E-19
 -1       956 9.44238E-05-2.72752E-05-2.87780E-05 1.04930E-06-1.98802E-18-5.09507E-19
 -1       957 9.46519E-05-2.75607E-05-2.87534E-05 7.75715E-07-1.01905E-18-2.56345E-19
 -1       958 9.48300E-05-2.78005E-05-2.87270E-05 5.62404E-07-7.93926E-19-5.61835E-19
 -1       959 9.49654E-05-2.79963E-05-2.87010E-05 3.98673E-07-3.37658E-19-1.38578E-18
 -1       960 9.50656E-05-2.81526E-05-2.86770E-05 2.74876E-07 1.56153E-19-1.70938E-19
 -1       961 9.51377E-05-2.82743E-05-2.86558E-05 1.82856E-07-1.31161E-19-5.23158E-19
 -1       962 9.51880E-05-2.83672E-05-2.86375E-05 1.15729E-07 1.19709E-19-7.30286E-19
 -1       963 9.52217E-05-2.84366E-05-2.86222E-05 6.78910E-08-1.86353E-18 6.05015E-19
 -1       964 9.52432E-05-2.84872E-05-2.86097E-05 3.47222E-08-1.29938E-18 1.01119E-18
 -1       965 9.52558E-05-2.85232E-05-2.85997E-05 1.24976E-08 1.06007E-19 7.34277E-19
 -1       966 9.52622E-05-2.85480E-05-2.85918E-05-1.71751E-09-5.77825E-19 8.81877E-19
 -1       967 9.52644E-05-2.85645E-05-2.85857E-05-1.01991E-08-5.67456E-19 1.33022E-20
 -1       968 9.52640E-05-2.85748E-05-2.85811E-05-1.46840E-08-1.83193E-18-4.83007E-20
 -1       969 9.52620E-05-2.85808E-05-2.85777E-05-1.64746E-08-7.29222E-19 2.96892E-19
 -1       970 9.52592E-05-2.85838E-05-2.85752E-05-1.65282E-08-7.32714E-19 2.00099E-18
 -1       971 9.52560E-05-2.85847E-05-2.85734E-05-1.55329E-08-7.18821E-19 1.85962E-18
 -1       972 9.52529E-05-2.85844E-05-2.85722E-05-1.39709E-08-4.49107E-19-6.45504E-19
 -1       973 9.52499E-05-2.85834E-05-2.85714E-05-1.21693E-08 5.31165E-20-4.16110E-19
 -1       974 9.52473E-05-2.85820E-05-2.85709E-05-1.03357E-08-1.41746E-19 1.02147E-18
 -1       975 9.52450E-05-2.85804E-05-2.85705E-05-8.61290E-09-1.32232E-18-1.11533E-18
 -1       976 9.52438E-05-2.85795E-05-2.85704E-05-7.22528E-09-1.88435E-18-2.15943E-18
 -1       977 7.84042E-05-2.31585E-05-2.36590E-05 1.71749E-05-1.99752E-18 3.81165E-20
 -1       978 9.19880E-05-2.63071E-05-2.81487E-05 7.55191E-06-4.58833E-19 1.07264E-18
 -1       979 6.73245E-05-1.43920E-05-2.26344E-05-4.14964E-06-2.70720E-20 1.47624E-18
 -1       980 9.52458E-05-2.85810E-05-2.85706E-05-4.81893E-09-3.69682E-19 4.04532E-19
 -1       981 9.76653E-05-3.39824E-05-2.72925E-05 1.35046E-05-5.69055E-19-1.84038E-18
 -1       982 9.52469E-05-2.85818E-05-2.85708E-05-1.90049E-09 8.66257E-19-3.92820E-18
 -1       983 7.40901E-05-1.87582E-05-2.36865E-05 1.15569E-05-1.19653E-18 2.26212E-19
 -1       984 8.98449E-05-3.01639E-05-2.55724E-05 1.74360E-05-1.56015E-18-1.89245E-19
 -1       985 9.52471E-05-2.85819E-05-2.85708E-05 1.23164E-09-4.45934E-19-5.03201E-19
 -1       986 1.02964E-04-3.86397E-05-2.75614E-05 1.38669E-05-7.67974E-19-2.12814E-18
 -1       987 8.85794E-05-2.57533E-05-2.69298E-05 1.07859E-05-1.02834E-18 3.25762E-19
 -1       988 7.43763E-05-1.64674E-05-2.48125E-05-3.10688E-06-6.07371E-19 9.96008E-19
 -1       989 7.93026E-05-1.81301E-05-2.62172E-05-2.55998E-06-7.39153E-20 9.38583E-19
 -1       990 8.29243E-05-1.95866E-05-2.71460E-05-2.27641E-06-2.94725E-20 5.02191E-19
 -1       991 8.56741E-05-2.08849E-05-2.77674E-05-2.05455E-06-5.63623E-19-2.45882E-19
 -1       992 8.78107E-05-2.20583E-05-2.81798E-05-1.85111E-06 1.49908E-19-4.81374E-19
 -1       993 8.95011E-05-2.31288E-05-2.84453E-05-1.64180E-06 3.98857E-19-1.20111E-18
 -1       994 9.08429E-05-2.40880E-05-2.86095E-05-1.41860E-06 9.71922E-19-1.53163E-18
 -1       995 9.19025E-05-2.49271E-05-2.87042E-05-1.19600E-06-4.28652E-20-1.11712E-18
 -1       996 9.27417E-05-2.56549E-05-2.87518E-05-9.82591E-07-6.43976E-19-3.56468E-19
 -1       997 9.33968E-05-2.62716E-05-2.87683E-05-7.88577E-07 1.77899E-19 1.23273E-19
 -1       998 9.39039E-05-2.67856E-05-2.87652E-05-6.17915E-07 7.01487E-19 1.74438E-19
 -1       999 9.42909E-05-2.72059E-05-2.87508E-05-4.73158E-07 5.87383E-19 7.31766E-19
 -1      1000 9.45826E-05-2.75446E-05-2.87306E-05-3.53406E-07 5.89641E-19 1.03141E-18
 -1      1001 9.47982E-05-2.78123E-05-2.87082E-05-2.57988E-07 1.10109E-18 3.22355E-19
 -1      1002 9.49559E-05-2.80223E-05-2.86859E-05-1.82269E-07-1.01246E-18 1.93577E-19
 -1      1003 9.50681E-05-2.81828E-05-2.86652E-05-1.24470E-07-6.00479E-19-2.77361E-19
 -1      1004 9.51467E-05-2.83045E-05-2.86467E-05-8.11741E-08-1.83579E-19-9.35753E-19
 -1      1005 9.51996E-05-2.83948E-05-2.86307E-05-4.97272E-08-1.17376E-18-1.80978E-18
 -1      1006 9.52338E-05-2.84603E-05-2.86172E-05-2.74582E-08-9.37298E-19-4.31246E-19
 -1      1007 9.52546E-05-2.85069E-05-2.86062E-05-1.21946E-08-1.34616E-18 3.89688E-19
 -1      1008 9.52660E-05-2.85390E-05-2.85973E-05-2.16511E-09-7.04879E-19 5.07846E-19
 -1      1009 9.52710E-05-2.85604E-05-2.85902E-05 4.04766E-09-3.49485E-19 9.47839E-19
 -1      1010 9.52718E-05-2.85740E-05-2.85848E-05 7.55230E-09-1.23868E-18 2.32844E-18
 -1      1011 9.52700E-05-2.85820E-05-2.85806E-05 9.19632E-09-3.42670E-19 2.62619E-18
 -1      1012 9.52668E-05-2.85861E-05-2.85775E-05 9.61295E-09-3.99574E-19 2.00865E-18
 -1      1013 9.52629E-05-2.85875E-05-2.85752E-05 9.26388E-09-1.44589E-19-9.50775E-19
 -1      1014 9.52589E-05-2.85874E-05-2.85735E-05 8.47550E-09-1.08498E-18-2.17539E-18
 -1      1015 9.52550E-05-2.85862E-05-2.85723E-05 7.47488E-09-4.71817E-19-3.03401E-18
 -1      1016 9.52514E-05-2.85845E-05-2.85715E-05 6.41226E-09-1.07150E-18-7.99817E-19
 -1      1017 9.52483E-05-2.85827E-05-2.85710E-05 5.36915E-09-3.35188E-19 1.03693E-18
 -1      1018 9.16201E-05-2.48856E-05-2.86006E-05 2.81684E-06-2.33900E-19 1.09811E-18
 -1      1019 9.23373E-05-2.53876E-05-2.86931E-05 2.15855E-06-1.40751E-19 1.25526E-18
 -1      1020 9.29664E-05-2.58993E-05-2.87433E-05 1.64309E-06-3.81048E-19 2.18218E-18
 -1      1021 9.34988E-05-2.63839E-05-2.87638E-05 1.24163E-06 8.69605E-20 1.92389E-18
 -1      1022 9.39369E-05-2.68202E-05-2.87644E-05 9.29023E-07-3.83851E-19 1.55390E-18
 -1      1023 9.42888E-05-2.71994E-05-2.87528E-05 6.86798E-07-1.50597E-18-8.56686E-20
 -1      1024 9.45629E-05-2.75160E-05-2.87344E-05 4.99588E-07-3.61866E-19-6.29761E-19
 -1      1025 9.47742E-05-2.77776E-05-2.87128E-05 3.57525E-07-5.53969E-19-1.66962E-18
 -1      1026 9.49319E-05-2.79868E-05-2.86908E-05 2.49505E-07-8.08305E-19-1.15651E-18
 -1      1027 9.50473E-05-2.81511E-05-2.86698E-05 1.69443E-07-1.77903E-19 2.64972E-20
 -1      1028 9.51296E-05-2.82776E-05-2.86509E-05 1.10485E-07 3.00481E-19 9.84198E-19
 -1      1029 9.51865E-05-2.83731E-05-2.86343E-05 6.81273E-08-1.37835E-18 6.04122E-19
 -1      1030 9.52241E-05-2.84435E-05-2.86203E-05 3.83732E-08-9.56765E-19-6.87106E-20
 -1      1031 9.52477E-05-2.84942E-05-2.86087E-05 1.80300E-08-7.52037E-19-7.65461E-19
 -1      1032 9.52613E-05-2.85298E-05-2.85992E-05 4.62592E-09-4.44148E-19 5.88482E-20
 -1      1033 9.52679E-05-2.85539E-05-2.85917E-05-3.75451E-09-5.43160E-19 1.11286E-18
 -1      1034 9.52700E-05-2.85696E-05-2.85859E-05-8.57918E-09-9.38887E-19 8.38741E-19
 -1      1035 9.52690E-05-2.85791E-05-2.85814E-05-1.09565E-08-5.63323E-19-1.24343E-18
 -1      1036 9.52664E-05-2.85843E-05-2.85781E-05-1.17093E-08-1.97342E-18-2.35903E-18
 -1      1037 9.52629E-05-2.85865E-05-2.85756E-05-1.14365E-08-1.26507E-18-1.93340E-18
 -1      1038 9.52591E-05-2.85869E-05-2.85738E-05-1.05630E-08 2.77397E-21-2.58858E-19
 -1      1039 9.52553E-05-2.85861E-05-2.85725E-05-9.38369E-09-6.82958E-19 1.58932E-18
 -1      1040 9.52518E-05-2.85846E-05-2.85717E-05-8.10594E-09-1.21928E-18 7.40024E-19
 -1      1041 9.52487E-05-2.85829E-05-2.85711E-05-6.84607E-09 6.29070E-20 6.00791E-19
 -1      1042 9.52472E-05-2.85819E-05-2.85708E-05-5.78355E-09-1.39201E-18 1.31122E-18
 -1      1043 8.92596E-05-2.41500E-05-2.79043E-05 6.24994E-06-1.13151E-19 6.77503E-19
 -1      1044 8.86778E-05-2.45750E-05-2.74718E-05 8.21155E-06-7.80857E-19 3.67564E-19
 -1      1045 9.08302E-05-2.44439E-05-2.84509E-05 3.67360E-06-5.46191E-19 4.05883E-19
 -1      1046 9.00150E-05-2.41559E-05-2.82255E-05 4.78308E-06-1.63083E-19-5.54917E-19
 -1      1047 8.21380E-05-2.30805E-05-2.53036E-05 1.29315E-05-1.08920E-18 1.62931E-19
 -1      1048 9.52487E-05-2.85830E-05-2.85710E-05-2.53785E-09-2.58124E-19-3.37206E-18
 -1      1049 7.19260E-05-1.59638E-05-2.39599E-05 3.79692E-06-5.86996E-19 9.84387E-19
 -1      1050 7.75376E-05-1.77623E-05-2.56038E-05 2.19533E-06-6.38708E-19 1.22628E-18
 -1      1051 8.94109E-05-2.81359E-05-2.62535E-05 1.42049E-05-1.21048E-18 5.65775E-20
 -1      1052 8.14075E-05-1.91147E-05-2.66983E-05 1.17181E-06-5.90547E-19 4.73247E-19
 -1      1053 8.44407E-05-2.04122E-05-2.74383E-05 5.40354E-07-3.39786E-19 2.68593E-19
 -1      1054 8.67924E-05-2.15961E-05-2.79386E-05 9.12421E-08-4.88560E-20 6.26606E-19
 -1      1055 8.86110E-05-2.26394E-05-2.82734E-05-1.62170E-07-2.85034E-19 1.61848E-19
 -1      1056 9.00841E-05-2.36103E-05-2.84872E-05-2.73176E-07 9.05166E-20-1.37574E-18
 -1      1057 9.12486E-05-2.44680E-05-2.86204E-05-3.29900E-07 3.13691E-20-3.09332E-18
 -1      1058 9.22105E-05-2.52473E-05-2.86987E-05-3.37464E-07 7.82864E-20-2.92351E-18
 -1      1059 9.29724E-05-2.59187E-05-2.87374E-05-3.10654E-07-3.59801E-19-2.30995E-18
 -1      1060 9.35705E-05-2.64872E-05-2.87500E-05-2.68923E-07 8.14760E-19-1.17687E-18
 -1      1061 9.40450E-05-2.69680E-05-2.87465E-05-2.19042E-07 1.34846E-18-7.66612E-19
 -1      1062 9.44003E-05-2.73553E-05-2.87328E-05-1.72991E-07 7.99846E-19-5.87528E-19
 -1      1063 9.46636E-05-2.76645E-05-2.87141E-05-1.32105E-07-5.62676E-19-1.54966E-18
 -1      1064 9.48573E-05-2.79049E-05-2.86937E-05-9.45538E-08-5.79551E-20-2.11601E-18
 -1      1065 9.49974E-05-2.80923E-05-2.86736E-05-6.73978E-08-8.79944E-19-1.48185E-18
 -1      1066 9.50992E-05-2.82376E-05-2.86550E-05-4.61956E-08-7.52883E-19-1.73799E-18
 -1      1067 9.51692E-05-2.83463E-05-2.86384E-05-2.98806E-08-1.18398E-18-2.82849E-18
 -1      1068 9.52157E-05-2.84262E-05-2.86240E-05-1.78497E-08-2.58469E-19-2.03360E-18
 -1      1069 9.52451E-05-2.84837E-05-2.86120E-05-9.31387E-09-4.15329E-19-1.40841E-18
 -1      1070 9.52623E-05-2.85239E-05-2.86022E-05-3.50124E-09-3.40019E-19-1.33708E-18
 -1      1071 9.52710E-05-2.85511E-05-2.85942E-05 2.62278E-10-1.77305E-20-1.24344E-18
 -1      1072 9.52741E-05-2.85688E-05-2.85880E-05 2.53185E-09-3.66649E-19-9.40975E-19
 -1      1073 9.52735E-05-2.85796E-05-2.85831E-05 3.74728E-09-4.84936E-19-1.61221E-19
 -1      1074 9.52708E-05-2.85855E-05-2.85794E-05 4.24641E-09-1.18025E-18-8.53647E-20
 -1      1075 9.52670E-05-2.85881E-05-2.85766E-05 4.28188E-09-1.75352E-18-2.23096E-19
 -1      1076 9.52627E-05-2.85886E-05-2.85746E-05 4.03855E-09-2.10596E-18-9.48642E-19
 -1      1077 9.52584E-05-2.85878E-05-2.85731E-05 3.65069E-09-9.63154E-19-9.62627E-19
 -1      1078 9.52543E-05-2.85861E-05-2.85721E-05 3.19601E-09 5.01574E-19-6.67085E-19
 -1      1079 9.52507E-05-2.85842E-05-2.85714E-05 2.68462E-09-3.46933E-19-1.18148E-20
 -1      1080 9.20881E-05-2.51910E-05-2.86702E-05 1.21612E-06-2.31302E-19 1.50719E-18
 -1      1081 9.12059E-05-2.45266E-05-2.85768E-05 1.65943E-06-7.98295E-19 1.13066E-18
 -1      1082 9.34211E-05-2.63509E-05-2.87444E-05 6.55601E-07 7.09445E-19 7.77922E-19
 -1      1083 9.39010E-05-2.68253E-05-2.87471E-05 4.68608E-07-3.19550E-19 1.25222E-19
 -1      1084 9.42873E-05-2.72278E-05-2.87387E-05 3.37700E-07-4.20788E-19-1.61923E-18
 -1      1085 9.45719E-05-2.75548E-05-2.87216E-05 2.39462E-07 4.35809E-19-1.60678E-18
 -1      1086 9.47873E-05-2.78145E-05-2.87021E-05 1.68802E-07-2.83295E-19-2.65490E-18
 -1      1087 9.49428E-05-2.80183E-05-2.86820E-05 1.16445E-07-1.64338E-18-2.97333E-18
 -1      1088 9.50586E-05-2.81788E-05-2.86628E-05 7.60526E-08-9.50845E-19-2.00437E-18
 -1      1089 9.51406E-05-2.83014E-05-2.86453E-05 4.84170E-08-7.25643E-19-1.58997E-18
 -1      1090 9.51962E-05-2.83927E-05-2.86300E-05 2.87650E-08-7.85226E-19-1.10231E-18
 -1      1091 9.52324E-05-2.84593E-05-2.86171E-05 1.51647E-08-4.53007E-19-2.36756E-18
 -1      1092 9.52546E-05-2.85066E-05-2.86063E-05 6.04605E-09-4.61134E-19-1.97228E-18
 -1      1093 9.52668E-05-2.85393E-05-2.85975E-05 1.84245E-10-1.29998E-19-1.56229E-18
 -1      1094 9.52723E-05-2.85610E-05-2.85905E-05-3.35670E-09-6.92324E-20-2.32590E-18
 -1      1095 9.52733E-05-2.85748E-05-2.85851E-05-5.28186E-09 7.96804E-20-3.41699E-18
 -1      1096 9.52716E-05-2.85828E-05-2.85809E-05-6.11506E-09-1.06131E-18-3.09048E-18
 -1      1097 9.52683E-05-2.85869E-05-2.85777E-05-6.23970E-09-1.74997E-18-3.05446E-18
 -1      1098 9.52643E-05-2.85883E-05-2.85754E-05-5.93188E-09-2.37724E-18-2.42467E-18
 -1      1099 9.52600E-05-2.85880E-05-2.85737E-05-5.38825E-09-1.20026E-18-9.17002E-19
 -1      1100 9.52559E-05-2.85868E-05-2.85725E-05-4.69859E-09-2.50207E-19-9.07878E-19
 -1      1101 9.52520E-05-2.85849E-05-2.85716E-05-4.02863E-09 1.00163E-19-1.62537E-18
 -1      1102 8.43881E-05-2.21533E-05-2.66768E-05 8.00195E-06-6.06903E-19-4.35754E-19
 -1      1103 8.76191E-05-2.26412E-05-2.78480E-05 4.17556E-06 2.36506E-19 6.77998E-19
 -1      1104 8.61140E-05-2.22866E-05-2.73511E-05 5.74611E-06-9.91029E-19-1.26460E-19
 -1      1105 9.02224E-05-2.38854E-05-2.84275E-05 2.23781E-06-1.07706E-18 8.19416E-19
 -1      1106 9.28234E-05-2.58052E-05-2.87221E-05 8.94878E-07 2.84792E-20 1.22098E-18
 -1      1107 8.89903E-05-2.32100E-05-2.81909E-05 3.04098E-06-3.20328E-19 8.74965E-19
 -1      1108 9.52526E-05-2.85852E-05-2.85717E-05-1.67635E-09 7.44823E-19-3.31325E-18
 -1      1109 7.86549E-05-1.90763E-05-2.55321E-05 6.71684E-06-6.14502E-19-3.63110E-19
 -1      1110 9.43800E-05-2.73454E-05-2.87296E-05 3.81129E-08 4.28964E-19-2.92930E-18
 -1      1111 8.71789E-05-2.19817E-05-2.79446E-05 1.81091E-06 5.16884E-21 2.04693E-20
 -1      1112 8.42006E-05-2.08013E-05-2.71768E-05 3.76141E-06-9.42820E-19-2.03856E-19
 -1      1113 8.96018E-05-2.33840E-05-2.83836E-05 1.15134E-06-8.95920E-19 2.26280E-19
 -1      1114 9.47569E-05-2.77849E-05-2.87026E-05 3.96371E-08-1.00797E-19-1.57628E-18
 -1      1115 1.54985E-04 3.64934E-10-5.58156E-05-4.82663E-05-3.28225E-19 1.34155E-17
 -1      1116 1.14384E-04 1.16925E-10-4.75391E-05-2.15709E-05-1.86771E-19 3.17029E-18
 -1      1117 9.95820E-05 7.88326E-11-4.19299E-05-1.02273E-05-1.21126E-19-1.40367E-18
 -1      1118 8.64250E-05 6.11436E-11-3.65089E-05-2.13883E-06-6.69156E-20-3.64454E-18
 -1      1119 7.27186E-05 3.41767E-11-3.10101E-05 3.26733E-06-2.62580E-20-4.88268E-18
 -1      1120 5.96058E-05-3.55754E-12-2.59411E-05 4.57114E-06-2.15993E-20-5.60132E-18
 -1      1121 4.99898E-05-3.80391E-11-2.22951E-05 1.24760E-06-2.26581E-20-6.00122E-18
 -1      1122 4.67509E-05-4.85137E-11-2.10425E-05-4.76687E-06-2.62580E-20-6.17047E-18
 -1      1123 5.06453E-05-2.87176E-11-2.24118E-05-1.02140E-05-2.73168E-20-6.18355E-18
 -1      1124 5.98819E-05 8.91995E-12-2.58051E-05-1.20407E-05-2.32934E-20-6.07092E-18
 -1      1125 7.08724E-05 4.28294E-11-2.99766E-05-9.21063E-06-8.25857E-21-5.88663E-18
 -1      1126 8.05858E-05 6.12930E-11-3.38324E-05-3.00143E-06 4.02341E-21-5.60243E-18
 -1      1127 8.77778E-05 6.56352E-11-3.68644E-05 4.62766E-06 3.98105E-20-5.21827E-18
 -1      1128 9.28510E-05 6.33465E-11-3.91541E-05 1.22726E-05 8.03623E-20-4.28089E-18
 -1      1129 9.73298E-05 6.37451E-11-4.12165E-05 1.95654E-05 1.33725E-19-2.16083E-18
 -1      1130 1.04209E-04 8.41139E-11-4.39572E-05 2.76979E-05 2.05194E-19 2.39935E-18
 -1      1131 1.27960E-04 1.97267E-10-4.87325E-05 4.26881E-05 5.17961E-19 1.27246E-17
 -1      1132 1.78191E-04-3.64932E-05-5.52207E-05-3.14346E-05-1.46134E-18 2.00124E-17
 -1      1133 1.43568E-04-4.26155E-05-4.54569E-05-3.08137E-07-4.98849E-19 1.70668E-17
 -1      1134 1.33971E-04-4.00659E-05-4.05590E-05 2.11182E-07-1.55980E-19 1.31158E-17
 -1      1135 1.24398E-04-3.73197E-05-3.69908E-05-4.69242E-07-1.18586E-19 1.03356E-17
 -1      1136 1.11501E-04-3.34815E-05-3.33427E-05-9.26546E-07 1.29619E-21 8.37334E-18
 -1      1137 9.80125E-05-2.95233E-05-2.98646E-05-9.00364E-07-5.63409E-20 6.80326E-18
 -1      1138 8.92285E-05-2.69748E-05-2.76677E-05-3.03654E-07-8.42533E-20 4.38067E-18
 -1      1139 8.92335E-05-2.69505E-05-2.76110E-05 5.20745E-07 1.11133E-19 2.35015E-18
 -1      1140 9.73759E-05-2.92668E-05-2.95555E-05 1.02701E-06-1.43400E-19 6.36651E-19
 -1      1141 1.08781E-04-3.25733E-05-3.24363E-05 9.91428E-07-6.10525E-20-8.64715E-19
 -1      1142 1.18208E-04-3.53589E-05-3.49935E-05 6.18722E-07 8.12093E-20-1.76638E-18
 -1      1143 1.23052E-04-3.68219E-05-3.64631E-05 2.18201E-07 1.40568E-19-6.78738E-19
 -1      1144 1.23462E-04-3.69749E-05-3.67411E-05-4.63423E-08 3.12840E-20-1.27492E-18
 -1      1145 1.20918E-04-3.62428E-05-3.61391E-05-1.63549E-07-6.94881E-20-1.75156E-18
 -1      1146 1.16976E-04-3.50853E-05-3.50681E-05-1.84938E-07-3.35393E-20-2.22693E-18
 -1      1147 1.12742E-04-3.38320E-05-3.38565E-05-1.61370E-07-1.52817E-19-1.99167E-18
 -1      1148 1.08827E-04-3.26671E-05-3.27046E-05-1.24478E-07 1.52334E-20-1.48750E-18
 -1      1149 1.05491E-04-3.16702E-05-3.17063E-05-8.91826E-08-8.81411E-20-1.85265E-18
 -1      1150 1.02787E-04-3.08594E-05-3.08890E-05-6.06195E-08-1.35361E-19-2.95192E-18
 -1      1151 1.00670E-04-3.02223E-05-3.02448E-05-3.93606E-08-8.35965E-20-4.32064E-18
 -1      1152 9.90528E-05-2.97345E-05-2.97506E-05-2.43047E-08-3.12550E-20-4.51701E-18
 -1      1153 9.78434E-05-2.93686E-05-2.93798E-05-1.40024E-08-3.05771E-20-2.08652E-18
 -1      1154 9.69559E-05-2.90994E-05-2.91070E-05-7.15459E-09 3.29011E-21-6.50217E-19
 -1      1155 9.63170E-05-2.89052E-05-2.89102E-05-2.74093E-09-2.60680E-19-8.55596E-19
 -1      1156 9.58671E-05-2.87680E-05-2.87712E-05-8.11902E-12 1.14066E-19-2.00559E-19
 -1      1157 9.55582E-05-2.86735E-05-2.86754E-05 1.58324E-09 2.10012E-19 3.16812E-18
 -1      1158 9.53530E-05-2.86104E-05-2.86115E-05 2.41317E-09 1.35838E-19 2.83702E-18
 -1      1159 9.52229E-05-2.85702E-05-2.85708E-05 2.74698E-09-1.73210E-20-2.44773E-19
 -1      1160 9.51458E-05-2.85462E-05-2.85463E-05 2.76862E-09 3.67659E-20-2.31607E-18
 -1      1161 9.51054E-05-2.85334E-05-2.85333E-05 2.60463E-09 9.38283E-20-1.12297E-18
 -1      1162 9.50896E-05-2.85281E-05-2.85279E-05 2.34080E-09-5.26813E-19 9.11614E-19
 -1      1163 9.50895E-05-2.85277E-05-2.85274E-05 2.03407E-09 1.79213E-19 1.40089E-18
 -1      1164 9.50990E-05-2.85302E-05-2.85299E-05 1.72092E-09 1.68912E-19 1.27115E-18
 -1      1165 9.51135E-05-2.85344E-05-2.85341E-05 1.42357E-09 7.51229E-20 7.55516E-19
 -1      1166 9.51302E-05-2.85392E-05-2.85390E-05 1.15441E-09 2.69554E-19-2.06178E-18
 -1      1167 9.51471E-05-2.85442E-05-2.85440E-05 9.19188E-10 2.17619E-19-1.93766E-18
 -1      1168 9.51631E-05-2.85489E-05-2.85487E-05 7.19306E-10 1.98132E-19-4.44359E-18
 -1      1169 9.51775E-05-2.85532E-05-2.85530E-05 5.53462E-10 4.05459E-21-3.46274E-18
 -1      1170 9.51901E-05-2.85570E-05-2.85568E-05 4.18786E-10 5.48667E-19-3.35066E-18
 -1      1171 9.52007E-05-2.85602E-05-2.85601E-05 3.11633E-10 1.70261E-19-5.95590E-18
 -1      1172 9.52096E-05-2.85628E-05-2.85627E-05 2.28103E-10 2.07426E-19-3.97111E-18
 -1      1173 9.52168E-05-2.85650E-05-2.85649E-05 1.64368E-10-6.33859E-20-2.39622E-18
 -1      1174 9.52226E-05-2.85667E-05-2.85667E-05 1.16828E-10-5.67258E-20-4.43402E-18
 -1      1175 9.52272E-05-2.85681E-05-2.85681E-05 8.21238E-11 3.37851E-19-3.60356E-18
 -1      1176 9.52308E-05-2.85692E-05-2.85692E-05 5.69583E-11 3.91633E-19-2.40714E-19
 -1      1177 9.52335E-05-2.85700E-05-2.85700E-05 3.75904E-11-4.51757E-20 1.17067E-18
 -1      1178 9.52355E-05-2.85706E-05-2.85706E-05 1.90137E-11 3.16629E-19-1.02006E-18
 -1      1179 9.52367E-05-2.85710E-05-2.85710E-05-6.84090E-12 2.12453E-19 8.63628E-19
 -1      1180 9.52373E-05-2.85711E-05-2.85712E-05-5.54422E-11-2.80563E-19-2.84770E-19
 -1      1181 9.52373E-05-2.85712E-05-2.85712E-05-4.58088E-11 1.82553E-19-3.72423E-19
 -1      1182 1.59105E-04-4.57800E-05-4.67402E-05 1.45127E-05-2.28540E-19 2.17294E-17
 -1      1183 1.17335E-04-3.42399E-05-3.78009E-05 8.30081E-07 1.36716E-19 1.64809E-17
 -1      1184 1.07154E-04-3.19228E-05-3.28269E-05 1.25882E-07 1.35631E-19 1.17411E-17
 -1      1185 9.97555E-05-2.99542E-05-2.99870E-05 1.59767E-07 3.56515E-20 9.01868E-18
 -1      1186 9.30580E-05-2.80089E-05-2.79599E-05 2.68983E-07-6.95146E-20 7.56144E-18
 -1      1187 8.76173E-05-2.63738E-05-2.64737E-05 3.23885E-07 8.48919E-20 5.50256E-18
 -1      1188 8.47003E-05-2.54636E-05-2.57158E-05 2.60074E-07 6.88413E-20 3.40448E-18
 -1      1189 8.51603E-05-2.55576E-05-2.58579E-05 9.18227E-08 5.85015E-20 2.37884E-18
 -1      1190 8.87561E-05-2.66066E-05-2.68282E-05-1.06249E-07-8.12655E-20 1.91403E-18
 -1      1191 9.42075E-05-2.82365E-05-2.83068E-05-2.50850E-07 1.30158E-19 1.22762E-18
 -1      1192 9.98450E-05-2.99380E-05-2.98673E-05-3.00477E-07 1.33844E-19-3.71000E-19
 -1      1193 1.04344E-04-3.13004E-05-3.11506E-05-2.67112E-07-2.98430E-20-7.54600E-19
 -1      1194 1.07081E-04-3.21293E-05-3.19670E-05-1.89943E-07 7.67375E-20-1.11610E-18
 -1      1195 1.08072E-04-3.24286E-05-3.22968E-05-1.06269E-07 1.48537E-19-1.80280E-18
 -1      1196 1.07703E-04-3.23166E-05-3.22301E-05-3.81235E-08-3.10689E-20-1.88974E-18
 -1      1197 1.06467E-04-3.19437E-05-3.18987E-05 7.57934E-09 6.40002E-20-9.18170E-19
 -1      1198 1.04802E-04-3.14428E-05-3.14281E-05 3.29393E-08 1.08431E-19-1.38310E-18
 -1      1199 1.03030E-04-3.09105E-05-3.09144E-05 4.33960E-08 1.41744E-20-1.08719E-18
 -1      1200 1.01352E-04-3.04070E-05-3.04206E-05 4.44563E-08 1.57209E-19-1.87369E-18
 -1      1201 9.98759E-05-2.99643E-05-2.99814E-05 4.04082E-08 4.02576E-20-2.34569E-18
 -1      1202 9.86421E-05-2.95943E-05-2.96114E-05 3.41374E-08 2.74661E-20-2.90644E-18
 -1      1203 9.76513E-05-2.92971E-05-2.93125E-05 2.73814E-08 1.08993E-19-1.85349E-18
 -1      1204 9.68819E-05-2.90663E-05-2.90792E-05 2.10733E-08 3.78999E-19-2.35152E-18
 -1      1205 9.63023E-05-2.88923E-05-2.89026E-05 1.56351E-08-2.79789E-19-8.80445E-19
 -1      1206 9.58786E-05-2.87651E-05-2.87730E-05 1.11895E-08-2.21431E-19-5.99998E-19
 -1      1207 9.55787E-05-2.86749E-05-2.86809E-05 7.69849E-09-3.20254E-20-3.14834E-19
 -1      1208 9.53742E-05-2.86133E-05-2.86177E-05 5.04839E-09-4.81196E-20-1.50180E-18
 -1      1209 9.52411E-05-2.85732E-05-2.85762E-05 3.09918E-09 7.63828E-20-2.55985E-18
 -1      1210 9.51601E-05-2.85488E-05-2.85508E-05 1.71108E-09 1.43556E-19-4.11074E-18
 -1      1211 9.51160E-05-2.85354E-05-2.85367E-05 7.57742E-10 8.59492E-20-5.18238E-18
 -1      1212 9.50971E-05-2.85296E-05-2.85303E-05 1.31534E-10-2.28085E-19-4.52831E-18
 -1      1213 9.50947E-05-2.85287E-05-2.85291E-05-2.55383E-10-1.84595E-19-4.30618E-18
 -1      1214 9.51024E-05-2.85310E-05-2.85311E-05-4.72333E-10-5.15845E-19-4.09012E-18
 -1      1215 9.51157E-05-2.85349E-05-2.85349E-05-5.72522E-10 3.28839E-19-7.76218E-18
 -1      1216 9.51315E-05-2.85396E-05-2.85395E-05-5.95771E-10 3.49248E-20-8.18884E-18
 -1      1217 9.51479E-05-2.85445E-05-2.85443E-05-5.71160E-10-4.90187E-21-5.94900E-18
 -1      1218 9.51636E-05-2.85491E-05-2.85489E-05-5.19358E-10 5.71179E-20-6.85465E-18
 -1      1219 9.51778E-05-2.85534E-05-2.85532E-05-4.54614E-10-2.12140E-19-5.02865E-18
 -1      1220 9.51902E-05-2.85571E-05-2.85569E-05-3.86385E-10 1.32933E-19-5.09521E-18
 -1      1221 9.52008E-05-2.85603E-05-2.85601E-05-3.20644E-10 6.30199E-20-6.11205E-18
 -1      1222 9.52096E-05-2.85629E-05-2.85628E-05-2.60901E-10 1.41906E-19-6.11854E-18
 -1      1223 9.52169E-05-2.85651E-05-2.85650E-05-2.08988E-10-4.63534E-19-4.40142E-18
 -1      1224 9.52227E-05-2.85668E-05-2.85667E-05-1.65641E-10 5.81957E-19-3.91508E-18
 -1      1225 9.52272E-05-2.85682E-05-2.85681E-05-1.30896E-10-1.45574E-19-3.82075E-18
 -1      1226 9.52308E-05-2.85692E-05-2.85692E-05-1.04245E-10 2.06919E-20-5.26373E-18
 -1      1227 9.52335E-05-2.85700E-05-2.85700E-05-8.44540E-11 1.22118E-19-5.93638E-18
 -1      1228 9.52355E-05-2.85706E-05-2.85706E-05-6.88223E-11 2.81139E-19-4.19187E-18
 -1      1229 9.52367E-05-2.85710E-05-2.85710E-05-4.89117E-11-2.79981E-19-3.85894E-18
 -1      1230 9.52373E-05-2.85712E-05-2.85712E-05-3.97353E-12 8.03780E-19-5.10104E-18
 -1      1231 9.52373E-05-2.85712E-05-2.85712E-05 4.19848E-11 4.18097E-19-5.72717E-18
 -1      1232 9.52371E-05-2.85710E-05-2.85712E-05 4.19044E-11-6.81623E-18 2.39287E-19
 -1      1233 9.52371E-05-2.85710E-05-2.85711E-05 4.61041E-11-8.25997E-18 8.41824E-19
 -1      1234 9.52373E-05-2.85716E-05-2.85710E-05-1.78329E-11-3.19593E-18 1.16734E-19
 -1      1235 9.52376E-05-2.85728E-05-2.85706E-05-5.20194E-11-1.62881E-19 1.50869E-19
 -1      1236 9.52381E-05-2.85742E-05-2.85702E-05-6.44923E-11-5.15519E-19-1.41051E-20
 -1      1237 9.52385E-05-2.85757E-05-2.85698E-05-6.08875E-11-2.33829E-18-3.48053E-19
 -1      1238 9.52389E-05-2.85770E-05-2.85694E-05-4.72318E-11-2.51872E-18 1.73667E-19
 -1      1239 9.52391E-05-2.85778E-05-2.85692E-05-2.53217E-11 4.15533E-18-5.75906E-19
 -1      1240 9.52392E-05-2.85781E-05-2.85691E-05 2.43985E-13 5.91454E-18 4.68423E-19
 -1      1241 9.52391E-05-2.85778E-05-2.85692E-05 2.57982E-11 6.57150E-18-7.62721E-19
 -1      1242 9.52389E-05-2.85770E-05-2.85694E-05 4.75495E-11-2.35234E-18-1.57084E-18
 -1      1243 9.52385E-05-2.85757E-05-2.85698E-05 6.18532E-11-4.74853E-18 9.71663E-19
 -1      1244 9.52381E-05-2.85742E-05-2.85702E-05 6.44411E-11 1.57140E-18 1.20246E-19
 -1      1245 9.52376E-05-2.85727E-05-2.85706E-05 5.24592E-11 3.09910E-18-6.67837E-20
 -1      1246 9.52373E-05-2.85716E-05-2.85710E-05 2.16724E-11-6.73685E-19 4.65065E-19
 -1      1247 9.52371E-05-2.85710E-05-2.85711E-05-8.10653E-11 3.51690E-19 2.17235E-20
 -1      1248 9.52371E-05-2.85710E-05-2.85712E-05-4.97693E-11 9.60904E-19 1.68698E-19
 -1      1249 3.02137E-05-9.30370E-05 1.43832E-05-1.19319E-05 8.47118E-18 1.85564E-18
 -1      1250 1.51200E-05-5.22502E-05 5.81343E-06-1.98345E-05 1.81350E-17 7.25865E-18
 -1      1251 8.86680E-06 1.34797E-06-9.90208E-06 9.45285E-06 2.27496E-17 1.44411E-17
 -1      1252 4.03446E-05 2.84748E-05-2.93392E-05 6.25509E-05 1.90481E-17 1.83967E-17
 -1      1253 1.15723E-04 1.14856E-05-4.84579E-05 1.04880E-04 1.24378E-17 1.82841E-17
 -1      1254 2.11871E-04-3.63287E-05-6.42596E-05 1.06006E-04 5.83733E-18 1.35127E-17
 -1      1255 2.83139E-04-7.99861E-05-7.35332E-05 5.19183E-05 1.33956E-18 2.13368E-18
 -1      1256 2.90622E-04-8.66089E-05-7.40335E-05-2.84636E-05 1.86705E-18-1.28453E-17
 -1      1257 2.28427E-04-5.02398E-05-6.60280E-05-8.85158E-05 7.91828E-18-2.37762E-17
 -1      1258 1.29655E-04 1.26346E-07-5.04615E-05-9.92453E-05 1.71397E-17-2.86111E-17
 -1      1259 4.76656E-05 2.57454E-05-3.18204E-05-6.48307E-05 2.48943E-17-2.63961E-17
 -1      1260 1.03500E-05 1.26211E-05-1.47419E-05-1.93780E-05 2.70060E-17-1.88905E-17
 -1      1261 8.08658E-06-2.46501E-05-7.04246E-07 8.91460E-06 2.15214E-17-9.49524E-18
 -1      1262 1.94628E-05-6.03680E-05 8.06185E-06 9.78032E-06 9.91706E-18-2.75227E-18
 -1      1263 2.26837E-05-7.00577E-05 1.01929E-05-7.10836E-06-4.83328E-18-1.78676E-18
 -1      1264 1.35942E-05-4.83658E-05 5.02188E-06-1.82060E-05-1.83103E-17-7.04393E-18
 -1      1265 6.70919E-06-7.72427E-06-7.33643E-06-7.90657E-07-2.61047E-17-1.66984E-17
 -1      1266 3.36413E-05 1.93071E-05-2.58295E-05 4.66629E-05-2.59090E-17-2.57794E-17
 -1      1267 1.10205E-04 5.77147E-06-4.60749E-05 9.29889E-05-1.90396E-17-2.95784E-17
 -1      1268 2.15780E-04-4.25037E-05-6.40544E-05 9.41734E-05-9.46729E-18-2.49849E-17
 -1      1269 2.96642E-04-8.68934E-05-7.53311E-05 3.99436E-05-2.27913E-18-1.36792E-17
 -1      1270 3.06423E-04-9.06873E-05-7.70566E-05-3.78103E-05-7.62780E-19-1.70889E-19
 -1      1271 2.50219E-04-5.54645E-05-7.05071E-05-9.69004E-05-4.58012E-18 1.22896E-17
 -1      1272 1.62052E-04-7.83006E-06-5.74537E-05-1.15557E-04-1.17382E-17 2.10827E-17
 -1      1273 7.70616E-05 2.48314E-05-4.06608E-05-9.02180E-05-1.82688E-17 2.26666E-17
 -1      1274 2.32470E-05 2.33739E-05-2.25906E-05-4.19054E-05-2.23447E-17 1.92497E-17
 -1      1275 7.33750E-06-1.23973E-05-5.25281E-06 3.02959E-06-2.16078E-17 1.27792E-17
 -1      1276 1.78685E-05-6.27555E-05 8.12531E-06 2.25895E-05-1.52220E-17 5.25160E-18
 -1      1277 3.14459E-05-9.63467E-05 1.49273E-05 1.14433E-05-4.39504E-18 1.57064E-18
 -1      1278 1.44162E-04-3.14691E-05-5.13391E-05-1.79963E-05-5.31513E-19 1.13111E-17
 -1      1279 1.16161E-04-1.10291E-05-4.51510E-05-1.75925E-05-1.15048E-18 1.15244E-18
 -1      1280 1.23231E-04-1.12903E-05-4.82962E-05-2.56674E-05-1.65066E-18 3.56516E-18
 -1      1281 1.01409E-04-7.85122E-06-4.00559E-05-9.42153E-06-9.73029E-19-2.20721E-18
 -1      1282 1.07887E-04-7.89376E-06-4.27302E-05-1.40115E-05-1.22142E-18-7.84511E-19
 -1      1283 1.17899E-04-1.78656E-05-4.29505E-05-1.68023E-05-1.93102E-18 1.30941E-18
 -1      1284 8.72904E-05-6.11756E-06-3.47772E-05-1.88253E-06-4.93608E-19-4.03998E-18
 -1      1285 9.42497E-05-6.19980E-06-3.75128E-05-5.40455E-06-7.25484E-19-3.25311E-18
 -1      1286 1.02555E-04-1.38554E-05-3.81306E-05-9.14792E-06-1.35848E-18-1.59814E-18
 -1      1287 7.14110E-05-3.31547E-06-2.93530E-05 3.21026E-06-9.25383E-20-5.17302E-18
 -1      1288 7.90607E-05-3.56722E-06-3.21026E-05 1.24415E-06-2.40769E-19-4.70103E-18
 -1      1289 8.64665E-05-9.84738E-06-3.29775E-05-1.67294E-06-5.69153E-19-3.30062E-18
 -1      1290 5.58261E-05 5.78694E-07-2.45472E-05 3.97078E-06 7.03037E-20-5.86672E-18
 -1      1291 6.27349E-05 2.53907E-07-2.68535E-05 4.20597E-06 8.47033E-21-5.59901E-18
 -1      1292 6.83814E-05-3.84598E-06-2.77993E-05 3.05133E-06-2.84815E-20-4.48390E-18
 -1      1293 4.47556E-05 4.08488E-06-2.13679E-05-7.77659E-08-9.05266E-20-6.34935E-18
 -1      1294 4.88322E-05 3.87785E-06-2.26887E-05 2.22439E-06-6.52215E-20-6.20194E-18
 -1      1295 5.13070E-05 3.05314E-06-2.33948E-05 2.94286E-06 4.53163E-20-5.32567E-18
 -1      1296 4.28520E-05 5.04613E-06-2.08019E-05-6.25610E-06-4.51416E-19-6.49585E-18
 -1      1297 4.25592E-05 5.08926E-06-2.07580E-05-3.49919E-06-4.03294E-19-6.45812E-18
 -1      1298 4.12416E-05 7.39091E-06-2.09056E-05-1.78244E-06-4.03426E-19-5.82523E-18
 -1      1299 5.04269E-05 2.85919E-06-2.28381E-05-1.11683E-05-7.59153E-19-6.42337E-18
 -1      1300 4.60229E-05 3.16211E-06-2.15079E-05-9.44083E-06-7.20243E-19-6.42150E-18
 -1      1301 4.22597E-05 6.57537E-06-2.09897E-05-8.10466E-06-9.75491E-19-5.84972E-18
 -1      1302 6.36846E-05-1.05776E-06-2.66224E-05-1.15177E-05-8.38139E-19-6.17527E-18
 -1      1303 5.73494E-05-6.99588E-07-2.45711E-05-1.20278E-05-8.69479E-19-6.25998E-18
 -1      1304 5.34923E-05 1.10187E-06-2.34944E-05-1.17025E-05-1.36198E-18-5.56440E-18
 -1      1305 7.70748E-05-4.46772E-06-3.08225E-05-7.20322E-06-5.91653E-19-5.85800E-18
 -1      1306 7.11285E-05-4.22777E-06-2.87186E-05-9.68999E-06-6.90967E-19-5.93791E-18
 -1      1307 6.92333E-05-5.58634E-06-2.73850E-05-1.01628E-05-1.28421E-18-5.10830E-18
 -1      1308 8.72676E-05-6.23986E-06-3.44657E-05-1.55566E-07-7.52801E-20-5.53033E-18
 -1      1309 8.28687E-05-6.16686E-06-3.27269E-05-3.68978E-06-2.58557E-19-5.65162E-18
 -1      1310 8.34384E-05-1.03325E-05-3.14098E-05-4.46127E-06-6.91655E-19-4.65273E-18
 -1      1311 9.38385E-05-6.58081E-06-3.72203E-05 7.60366E-06 4.84185E-19-5.06171E-18
 -1      1312 9.09700E-05-6.63535E-06-3.59322E-05 3.84361E-06 2.98156E-19-5.34491E-18
 -1      1313 9.33089E-05-1.23129E-05-3.47642E-05 3.05517E-06 1.70783E-19-4.25332E-18
 -1      1314 9.81269E-05-6.26793E-06-3.92882E-05 1.49850E-05 1.04270E-18-3.99013E-18
 -1      1315 9.61079E-05-6.39828E-06-3.82833E-05 1.13744E-05 8.07011E-19-4.66376E-18
 -1      1316 9.92652E-05-1.24928E-05-3.72466E-05 1.06207E-05 1.03856E-18-3.59057E-18
 -1      1317 1.02412E-04-6.21722E-06-4.12279E-05 2.19658E-05 1.57548E-18-1.66214E-18
 -1      1318 1.00156E-04-6.38176E-06-4.01570E-05 1.83173E-05 1.30380E-18-3.08648E-18
 -1      1319 1.03461E-04-1.24541E-05-3.90942E-05 1.75295E-05 1.88896E-18-2.29864E-18
 -1      1320 1.10884E-04-8.48710E-06-4.38966E-05 2.98134E-05 1.61804E-18 3.29199E-18
 -1      1321 1.06224E-04-8.13915E-06-4.21898E-05 2.48350E-05 1.49787E-18 2.39393E-19
 -1      1322 1.09228E-04-1.43886E-05-4.07531E-05 2.36834E-05 2.51563E-18 4.69574E-19
 -1      1323 1.48835E-04-3.00595E-05-4.68846E-05 3.41383E-05 1.00860E-18 1.36965E-17
 -1      1324 1.19413E-04-1.73515E-05-4.45194E-05 2.86232E-05 9.24748E-19 6.37795E-18
 -1      1325 1.21111E-04-2.36314E-05-4.19270E-05 2.61315E-05 2.70052E-18 5.10549E-18
 -1      1326 1.23958E-04-3.37707E-05-4.18090E-05 9.04914E-06 1.68147E-18 1.29507E-17
 -1      1327 1.47657E-04-4.34462E-05-4.63633E-05-8.46539E-06-1.40353E-18 1.21831E-17
 -1      1328 1.40019E-04-4.07720E-05-4.31221E-05-5.50629E-06-1.24625E-18 1.05587E-17
 -1      1329 1.36327E-04-4.07484E-05-4.11470E-05-4.62125E-06-7.80369E-19 1.00654E-17
 -1      1330 1.31594E-04-3.97434E-05-3.93299E-05-4.72941E-06-9.42099E-19 8.70236E-18
 -1      1331 1.37267E-04-4.05236E-05-4.18257E-05-1.06516E-05-2.03743E-18 6.54595E-18
 -1      1332 1.27850E-04-3.88215E-05-3.80272E-05-5.48298E-06-7.39423E-19 8.20910E-18
 -1      1333 1.22251E-04-3.70736E-05-3.63855E-05-5.93494E-06-7.01257E-19 7.22286E-18
 -1      1334 1.29685E-04-3.95002E-05-3.86411E-05-1.00820E-05-1.53498E-18 5.81986E-18
 -1      1335 1.18226E-04-3.57624E-05-3.52265E-05-6.68499E-06-4.94804E-19 6.63830E-18
 -1      1336 1.11747E-04-3.34569E-05-3.35196E-05-6.83422E-06-7.17655E-19 5.80800E-18
 -1      1337 1.22343E-04-3.72335E-05-3.64026E-05-1.20573E-05-1.29728E-18 5.03835E-18
 -1      1338 1.07721E-04-3.19216E-05-3.25065E-05-6.05859E-06-6.79400E-19 5.16891E-18
 -1      1339 1.02225E-04-2.98499E-05-3.11197E-05-5.58556E-06-8.20510E-19 4.44766E-18
 -1      1340 1.14313E-04-3.38178E-05-3.45444E-05-1.22187E-05-1.30640E-18 3.89095E-18
 -1      1341 9.94850E-05-2.87383E-05-3.04739E-05-2.85246E-06-1.06549E-18 3.48226E-18
 -1      1342 9.72991E-05-2.79256E-05-2.99170E-05-1.86217E-06-9.80441E-19 2.30651E-18
 -1      1343 1.07389E-04-3.05208E-05-3.31656E-05-8.01370E-06-1.85167E-18 2.45150E-18
 -1      1344 9.70099E-05-2.78843E-05-2.98057E-05 1.60625E-06-6.10102E-19 1.44798E-18
 -1      1345 9.90023E-05-2.87316E-05-3.02618E-05 2.51411E-06-7.19052E-19 6.39722E-19
 -1      1346 1.04285E-04-2.91387E-05-3.24997E-05-3.31999E-07-1.73771E-18 6.97915E-19
 -1      1347 1.00924E-04-2.96408E-05-3.06423E-05 4.77160E-06-6.85541E-19 4.52633E-20
 -1      1348 1.05683E-04-3.15194E-05-3.18080E-05 5.07731E-06-4.88341E-19-7.83823E-19
 -1      1349 1.06052E-04-3.03911E-05-3.26131E-05 6.73630E-06-1.29829E-18-8.69321E-19
 -1      1350 1.08344E-04-3.26200E-05-3.24368E-05 5.21120E-06-4.65716E-19-8.65456E-19
 -1      1351 1.13353E-04-3.44732E-05-3.37298E-05 4.92813E-06-5.04990E-19-1.44821E-18
 -1      1352 1.10807E-04-3.31141E-05-3.32995E-05 9.53545E-06-8.88630E-19-1.46754E-18
 -1      1353 1.15345E-04-3.51521E-05-3.42999E-05 3.52959E-06-4.27143E-19-1.58385E-18
 -1      1354 1.18719E-04-3.62931E-05-3.52271E-05 3.01002E-06 3.24903E-19-1.89598E-18
 -1      1355 1.15462E-04-3.54866E-05-3.41635E-05 7.81648E-06-5.33406E-19-1.60595E-18
 -1      1356 1.19463E-04-3.64264E-05-3.55258E-05 1.21650E-06 4.00832E-19-2.32677E-18
 -1      1357 1.20658E-04-3.67501E-05-3.58921E-05 7.62217E-07-7.29772E-20-2.17915E-18
 -1      1358 1.18008E-04-3.65214E-05-3.47966E-05 3.86338E-06 1.28378E-20-2.54469E-18
 -1      1359 1.20267E-04-3.64959E-05-3.58696E-05-6.53296E-07-1.79399E-19-2.17779E-18
 -1      1360 1.19700E-04-3.62295E-05-3.57439E-05-9.29882E-07-2.98182E-20-2.46229E-18
 -1      1361 1.18105E-04-3.63203E-05-3.49622E-05 8.38831E-09-2.85940E-19-3.28802E-18
 -1      1362 1.18564E-04-3.57823E-05-3.54701E-05-1.74018E-06 1.67756E-19-2.23447E-18
 -1      1363 1.16966E-04-3.52100E-05-3.50359E-05-1.85578E-06 1.27915E-20-2.19675E-18
 -1      1364 1.16373E-04-3.54205E-05-3.46520E-05-2.60812E-06 1.30913E-19-2.97123E-18
 -1      1365 1.15478E-04-3.47051E-05-3.46209E-05-2.15626E-06 3.13758E-20-1.94800E-18
 -1      1366 1.13481E-04-3.40391E-05-3.40554E-05-2.16760E-06 3.27340E-20-2.15823E-18
 -1      1367 1.13639E-04-3.42806E-05-3.40024E-05-3.88350E-06-3.44901E-20-2.17983E-18
 -1      1368 1.11926E-04-3.35517E-05-3.35953E-05-2.14354E-06-1.29184E-19-1.64220E-18
 -1      1369 1.09937E-04-3.29142E-05-3.30206E-05-2.10147E-06-8.45486E-20-1.43769E-18
 -1      1370 1.10568E-04-3.31592E-05-3.31855E-05-4.17557E-06 2.17449E-20-1.55028E-18
 -1      1371 1.08487E-04-3.24801E-05-3.25789E-05-1.91246E-06 9.84659E-20-1.46972E-18
 -1      1372 1.06715E-04-3.19263E-05-3.20609E-05-1.85021E-06-1.62481E-19-1.55722E-18
 -1      1373 1.07586E-04-3.21658E-05-3.23413E-05-3.89809E-06 1.10308E-19-1.18841E-18
 -1      1374 1.05452E-04-3.15583E-05-3.16705E-05-1.60134E-06-3.53113E-19-1.63677E-18
 -1      1375 1.03973E-04-3.11041E-05-3.12349E-05-1.53700E-06-2.61862E-19-1.84185E-18
 -1      1376 1.04919E-04-3.13318E-05-3.15576E-05-3.36261E-06-2.56143E-19-1.30012E-18
 -1      1377 1.02922E-04-3.08027E-05-3.09078E-05-1.28662E-06-4.63423E-19-2.13982E-18
 -1      1378 1.01738E-04-3.04438E-05-3.05576E-05-1.22852E-06-4.96619E-19-2.78942E-18
 -1      1379 1.02657E-04-3.06540E-05-3.08774E-05-2.75972E-06-6.99934E-19-1.93190E-18
 -1      1380 1.00892E-04-3.02031E-05-3.02933E-05-1.00394E-06-2.00863E-19-3.03339E-18
 -1      1381 9.99720E-05-2.99271E-05-3.00204E-05-9.54984E-07-1.94583E-19-3.27576E-18
 -1      1382 1.00807E-04-3.01154E-05-3.03129E-05-2.18873E-06-7.37804E-19-2.17690E-18
 -1      1383 9.93077E-05-2.97390E-05-2.98126E-05-7.65784E-07-3.17215E-20-3.01193E-18
 -1      1384 9.86095E-05-2.95312E-05-2.96050E-05-7.26188E-07 2.00124E-19-2.71347E-18
 -1      1385 9.93357E-05-2.96952E-05-2.98596E-05-1.69211E-06-5.67181E-20-1.76223E-18
 -1      1386 9.80984E-05-2.93869E-05-2.94452E-05-5.72854E-07 7.43039E-19-2.47948E-18
 -1      1387 9.75791E-05-2.92334E-05-2.92904E-05-5.41687E-07 6.61455E-19-1.34666E-18
 -1      1388 9.81906E-05-2.93727E-05-2.95044E-05-1.28113E-06 7.33626E-19-1.83526E-18
 -1      1389 9.71931E-05-2.91246E-05-2.91698E-05-4.20680E-07 1.04465E-19-1.29703E-18
 -1      1390 9.68140E-05-2.90133E-05-2.90566E-05-3.96632E-07-8.59300E-20-1.19662E-18
 -1      1391 9.73163E-05-2.91290E-05-2.92319E-05-9.51889E-07 7.90845E-19-1.60621E-18
 -1      1392 9.65277E-05-2.89327E-05-2.89672E-05-3.03041E-07 1.91219E-19-7.67945E-19
 -1      1393 9.62564E-05-2.88537E-05-2.88859E-05-2.84791E-07 7.12322E-20-7.68168E-19
 -1      1394 9.66606E-05-2.89477E-05-2.90267E-05-6.94184E-07 1.73705E-19-9.76592E-19
 -1      1395 9.60479E-05-2.87950E-05-2.88209E-05-2.13621E-07 5.77074E-19 4.59579E-20
 -1      1396 9.58582E-05-2.87403E-05-2.87639E-05-1.99982E-07 6.19028E-19 7.47568E-19
 -1      1397 9.61777E-05-2.88153E-05-2.88748E-05-4.96173E-07 8.06040E-19 3.24079E-19
 -1      1398 9.57096E-05-2.86985E-05-2.87176E-05-1.46713E-07 7.51977E-20 1.62607E-18
 -1      1399 9.55805E-05-2.86616E-05-2.86787E-05-1.36679E-07 1.20677E-19 2.27199E-18
 -1      1400 9.58287E-05-2.87205E-05-2.87647E-05-3.46494E-07 9.24192E-19 1.28239E-18
 -1      1401 9.54771E-05-2.86326E-05-2.86465E-05-9.74498E-08-4.65902E-19 1.69034E-18
 -1      1402 9.53924E-05-2.86087E-05-2.86208E-05-9.01944E-08-2.76086E-19 6.23722E-19
 -1      1403 9.55821E-05-2.86541E-05-2.86864E-05-2.35133E-07-3.29974E-19 6.86637E-19
 -1      1404 9.53226E-05-2.85892E-05-2.85991E-05-6.18127E-08-6.81933E-19 1.77202E-19
 -1      1405 9.52698E-05-2.85747E-05-2.85830E-05-5.66715E-08-1.08314E-18-1.20569E-18
 -1      1406 9.54123E-05-2.86091E-05-2.86322E-05-1.53654E-07-1.45458E-18-5.81843E-19
 -1      1407 9.52246E-05-2.85620E-05-2.85690E-05-3.65555E-08 2.44587E-19-1.39412E-18
 -1      1408 9.51943E-05-2.85540E-05-2.85596E-05-3.30013E-08 3.85796E-19-1.00961E-18
 -1      1409 9.52994E-05-2.85796E-05-2.85958E-05-9.51485E-08-6.94799E-19-1.27001E-18
 -1      1410 9.51666E-05-2.85463E-05-2.85510E-05-1.90956E-08 4.85722E-19-4.73996E-19
 -1      1411 9.51517E-05-2.85427E-05-2.85463E-05-1.67150E-08 6.07838E-19 6.48280E-20
 -1      1412 9.52277E-05-2.85613E-05-2.85724E-05-5.40579E-08 7.11358E-19-4.52822E-19
 -1      1413 9.51363E-05-2.85385E-05-2.85415E-05-7.40495E-09-1.17848E-19 7.74446E-19
 -1      1414 9.51316E-05-2.85377E-05-2.85399E-05-5.87791E-09-2.35201E-19 1.03398E-18
 -1      1415 9.51852E-05-2.85510E-05-2.85583E-05-2.59792E-08 7.53028E-19 4.45268E-19
 -1      1416 9.51246E-05-2.85359E-05-2.85378E-05 8.89466E-11-4.80519E-19 1.50653E-18
 -1      1417 9.51262E-05-2.85369E-05-2.85381E-05 1.00723E-09-3.82114E-19 9.65647E-19
 -1      1418 9.51631E-05-2.85461E-05-2.85506E-05-7.46894E-09-4.63576E-19 1.37541E-18
 -1      1419 9.51248E-05-2.85365E-05-2.85376E-05 4.59009E-09 4.21585E-19 4.28680E-19
 -1      1420 9.51302E-05-2.85386E-05-2.85391E-05 5.08451E-09 2.21905E-20 4.33151E-19
 -1      1421 9.51545E-05-2.85447E-05-2.85474E-05 4.13167E-09-4.98312E-19 4.77453E-19
 -1      1422 9.51321E-05-2.85392E-05-2.85397E-05 7.00813E-09-7.38993E-19 5.88752E-19
 -1      1423 9.51394E-05-2.85417E-05-2.85417E-05 7.21633E-09-4.08819E-19-6.31745E-19
 -1      1424 9.51546E-05-2.85456E-05-2.85469E-05 1.08488E-08-2.71591E-19-4.28918E-19
 -1      1425 9.51432E-05-2.85428E-05-2.85429E-05 8.02042E-09-1.49438E-20-4.97756E-19
 -1      1426 9.51512E-05-2.85454E-05-2.85452E-05 8.04321E-09-1.10162E-19-7.29287E-19
 -1      1427 9.51600E-05-2.85478E-05-2.85482E-05 1.42052E-08-5.10492E-19-7.33513E-19
 -1      1428 9.51559E-05-2.85468E-05-2.85467E-05 8.12300E-09-6.17796E-19-1.21676E-18
 -1      1429 9.51639E-05-2.85493E-05-2.85490E-05 8.03281E-09-4.56006E-19-2.19751E-18
 -1      1430 9.51682E-05-2.85506E-05-2.85505E-05 1.53278E-08-4.78740E-19-5.55010E-19
 -1      1431 9.51689E-05-2.85508E-05-2.85506E-05 7.67209E-09-3.04135E-19-3.15011E-18
 -1      1432 9.51762E-05-2.85531E-05-2.85527E-05 7.51976E-09-2.77274E-19-3.74629E-18
 -1      1433 9.51776E-05-2.85536E-05-2.85531E-05 1.50359E-08-1.31376E-18-2.40528E-18
 -1      1434 9.51810E-05-2.85545E-05-2.85542E-05 6.91751E-09 4.61313E-19-4.86877E-18
 -1      1435 9.51876E-05-2.85566E-05-2.85561E-05 6.73764E-09 4.24093E-20-3.89305E-18
 -1      1436 9.51871E-05-2.85565E-05-2.85559E-05 1.39126E-08-5.43650E-19-3.74229E-18
 -1      1437 9.51920E-05-2.85578E-05-2.85575E-05 6.02917E-09-4.19037E-19-3.08602E-18
 -1      1438 9.51977E-05-2.85596E-05-2.85592E-05 5.84441E-09 3.91682E-19-3.48154E-18
 -1      1439 9.51961E-05-2.85593E-05-2.85586E-05 1.23622E-08-1.70525E-19-3.50101E-18
 -1      1440 9.52016E-05-2.85607E-05-2.85604E-05 5.11800E-09 9.61682E-20-4.49957E-18
 -1      1441 9.52064E-05-2.85622E-05-2.85618E-05 4.94231E-09-5.16967E-19-4.95832E-18
 -1      1442 9.52042E-05-2.85617E-05-2.85610E-05 1.06554E-08-4.96899E-19-3.43776E-18
 -1      1443 9.52097E-05-2.85631E-05-2.85628E-05 4.25211E-09 4.25763E-19-4.25973E-18
 -1      1444 9.52137E-05-2.85643E-05-2.85640E-05 4.09325E-09 1.66146E-19-3.84461E-18
 -1      1445 9.52112E-05-2.85638E-05-2.85632E-05 8.96515E-09 1.76484E-19-3.34250E-18
 -1      1446 9.52165E-05-2.85651E-05-2.85649E-05 3.46900E-09-1.99492E-19-3.50867E-18
 -1      1447 9.52197E-05-2.85661E-05-2.85658E-05 3.33043E-09-1.78345E-19-3.26125E-18
 -1      1448 9.52172E-05-2.85655E-05-2.85650E-05 7.39363E-09 4.21521E-19-3.55958E-18
 -1      1449 9.52220E-05-2.85668E-05-2.85666E-05 2.78470E-09-3.60433E-19-2.80007E-18
 -1      1450 9.52246E-05-2.85675E-05-2.85673E-05 2.66688E-09 1.74253E-20-2.97985E-18
 -1      1451 9.52222E-05-2.85670E-05-2.85665E-05 5.99283E-09-1.67453E-19-3.21557E-18
 -1      1452 9.52265E-05-2.85681E-05-2.85679E-05 2.20019E-09 3.24442E-19-2.19981E-18
 -1      1453 9.52285E-05-2.85687E-05-2.85685E-05 2.10145E-09 6.34977E-19-1.60918E-18
 -1      1454 9.52263E-05-2.85682E-05-2.85677E-05 4.77943E-09 9.44317E-19-1.44215E-19
 -1      1455 9.52299E-05-2.85691E-05-2.85689E-05 1.70563E-09 1.71990E-18-2.47704E-18
 -1      1456 9.52315E-05-2.85696E-05-2.85694E-05 1.62271E-09 1.31964E-18-2.67528E-19
 -1      1457 9.52296E-05-2.85691E-05-2.85687E-05 3.74511E-09 1.47380E-18-1.14727E-18
 -1      1458 9.52326E-05-2.85699E-05-2.85698E-05 1.28298E-09 6.34120E-19 4.24644E-21
 -1      1459 9.52338E-05-2.85702E-05-2.85701E-05 1.21114E-09 3.90216E-19 4.14467E-19
 -1      1460 9.52321E-05-2.85698E-05-2.85695E-05 2.86318E-09 1.71532E-18-9.10402E-19
 -1      1461 9.52347E-05-2.85705E-05-2.85704E-05 9.07971E-10 1.90093E-20 3.18315E-20
 -1      1462 9.52355E-05-2.85707E-05-2.85706E-05 8.41193E-10-5.64765E-20-7.08145E-19
 -1      1463 9.52341E-05-2.85704E-05-2.85701E-05 2.09338E-09 3.45410E-19-3.50739E-19
 -1      1464 9.52360E-05-2.85709E-05-2.85708E-05 5.55486E-10 7.57010E-19-3.85854E-19
 -1      1465 9.52365E-05-2.85710E-05-2.85709E-05 4.86865E-10 2.78569E-19 6.50394E-19
 -1      1466 9.52355E-05-2.85708E-05-2.85706E-05 1.38898E-09 2.66807E-19-3.74200E-19
 -1      1467 9.52369E-05-2.85712E-05-2.85710E-05 2.09699E-10-2.67469E-19 5.31923E-19
 -1      1468 9.52370E-05-2.85712E-05-2.85711E-05 1.37510E-10-3.49576E-19 1.46262E-19
 -1      1469 9.52365E-05-2.85711E-05-2.85709E-05 7.22186E-10 3.01450E-19 4.02587E-19
 -1      1470 9.52372E-05-2.85711E-05-2.85712E-05-6.50107E-11-6.72274E-19 4.26256E-19
 -1      1471 9.52370E-05-2.85712E-05-2.85711E-05 1.00416E-10-2.86939E-19-2.62705E-19
 -1      1472 1.15334E-04-3.40592E-05-3.54063E-05 4.77833E-06 1.41145E-18 9.97805E-18
 -1      1473 1.23359E-04-3.56402E-05-3.85241E-05 6.27927E-06 1.13735E-18 1.22758E-17
 -1      1474 1.22143E-04-3.21785E-05-3.88673E-05 1.66127E-05 2.40743E-18 7.75861E-18
 -1      1475 1.06644E-04-3.19268E-05-3.20601E-05 3.53354E-06 9.64691E-19 7.51728E-18
 -1      1476 1.10940E-04-3.28254E-05-3.37154E-05 3.62621E-06 9.28930E-19 9.10361E-18
 -1      1477 1.13493E-04-3.33475E-05-3.45223E-05 8.84052E-06 2.00424E-18 6.10594E-18
 -1      1478 9.97646E-05-2.98953E-05-2.99101E-05 3.14999E-06 5.19066E-19 5.93695E-18
 -1      1479 1.03284E-04-3.08902E-05-3.10093E-05 3.14274E-06 6.40751E-19 6.89632E-18
 -1      1480 1.06260E-04-3.17407E-05-3.19395E-05 6.71923E-06 1.39721E-18 4.69670E-18
 -1      1481 9.40657E-05-2.80708E-05-2.83007E-05 2.59496E-06 6.27010E-19 4.61400E-18
 -1      1482 9.70670E-05-2.89908E-05-2.91403E-05 2.68516E-06 4.53139E-19 5.37208E-18
 -1      1483 1.00438E-04-2.99514E-05-3.02046E-05 5.67732E-06 1.00504E-18 3.45475E-18
 -1      1484 9.01566E-05-2.67807E-05-2.72356E-05 1.48641E-06 7.12752E-19 3.02685E-18
 -1      1485 9.21730E-05-2.73645E-05-2.77766E-05 1.74994E-06 6.83483E-19 4.07775E-18
 -1      1486 9.59464E-05-2.83660E-05-2.89996E-05 4.09023E-06 1.17272E-18 2.36875E-18
 -1      1487 8.88602E-05-2.63635E-05-2.68781E-05-2.89094E-08 2.74114E-19 1.98957E-18
 -1      1488 8.93763E-05-2.64127E-05-2.70129E-05 3.60356E-07 3.95922E-19 2.70903E-18
 -1      1489 9.33237E-05-2.73846E-05-2.83287E-05 1.63541E-06 8.80848E-19 1.61093E-18
 -1      1490 9.03830E-05-2.69034E-05-2.72716E-05-1.47158E-06 2.19501E-19 1.18582E-18
 -1      1491 8.92868E-05-2.64046E-05-2.69783E-05-1.08559E-06 2.53614E-19 1.56671E-18
 -1      1492 9.30017E-05-2.72905E-05-2.82356E-05-1.15538E-06 6.28009E-19 6.92780E-19
 -1      1493 9.40343E-05-2.81469E-05-2.82479E-05-2.35865E-06 2.82456E-19 6.69368E-19
 -1      1494 9.17500E-05-2.72876E-05-2.76337E-05-2.10322E-06 1.80547E-19 9.37771E-19
 -1      1495 9.48054E-05-2.80481E-05-2.86631E-05-3.39697E-06 4.30743E-19 1.41309E-19
 -1      1496 9.85303E-05-2.96332E-05-2.94867E-05-2.49187E-06 3.85773E-19-3.39978E-19
 -1      1497 9.58145E-05-2.86979E-05-2.87440E-05-2.41959E-06 4.21570E-19 2.50139E-19
 -1      1498 9.79184E-05-2.93010E-05-2.94307E-05-4.43321E-06 8.45253E-19-8.23263E-19
 -1      1499 1.02604E-04-3.09326E-05-3.06490E-05-2.01388E-06 2.19931E-20-6.83609E-19
 -1      1500 1.00186E-04-3.01625E-05-2.99727E-05-2.09225E-06 1.27389E-19-4.13167E-19
 -1      1501 1.01264E-04-3.05756E-05-3.02941E-05-4.18648E-06 2.96379E-19-9.73466E-19
 -1      1502 1.05458E-04-3.18011E-05-3.14994E-05-1.23897E-06 1.70839E-19-8.63815E-19
 -1      1503 1.03783E-04-3.13166E-05-3.10172E-05-1.39466E-06 1.16814E-19-6.40330E-19
 -1      1504 1.03970E-04-3.15257E-05-3.10333E-05-3.06551E-06 6.85170E-20-7.68841E-19
 -1      1505 1.06857E-04-3.21910E-05-3.19479E-05-4.57879E-07 3.95975E-19-1.68886E-18
 -1      1506 1.06041E-04-3.19979E-05-3.17014E-05-6.23325E-07 2.80064E-19-1.12518E-18
 -1      1507 1.05598E-04-3.20230E-05-3.15142E-05-1.62988E-06 5.34782E-19-1.21354E-18
 -1      1508 1.06976E-04-3.21817E-05-3.20238E-05 1.57999E-07-1.71855E-20-1.76256E-18
 -1      1509 1.06900E-04-3.22180E-05-3.19883E-05 2.30888E-08 2.57339E-19-1.58144E-18
 -1      1510 1.06114E-04-3.21074E-05-3.17010E-05-3.17209E-07 2.63983E-19-1.75345E-18
 -1      1511 1.06180E-04-3.19003E-05-3.18207E-05 5.55839E-07-1.04341E-19-1.60241E-18
 -1      1512 1.06623E-04-3.20837E-05-3.19383E-05 4.65001E-07-3.03739E-19-1.73324E-18
 -1      1513 1.05729E-04-3.18962E-05-3.16310E-05 6.51648E-07-1.97488E-19-1.91286E-18
 -1      1514 1.04850E-04-3.14694E-05-3.14473E-05 7.56840E-07-6.87586E-20-1.23701E-18
 -1      1515 1.05587E-04-3.17265E-05-3.16550E-05 7.07031E-07 1.84445E-20-1.26283E-18
 -1      1516 1.04744E-04-3.15135E-05-3.13773E-05 1.23630E-06-1.60205E-19-1.73246E-18
 -1      1517 1.03298E-04-3.09837E-05-3.09972E-05 8.11854E-07-1.65920E-20-1.45768E-18
 -1      1518 1.04150E-04-3.12608E-05-3.12427E-05 7.93229E-07 5.59908E-20-1.37013E-18
 -1      1519 1.03442E-04-3.10583E-05-3.10181E-05 1.49685E-06 1.04984E-19-1.66647E-18
 -1      1520 1.01743E-04-3.05063E-05-3.05383E-05 7.73738E-07 2.30183E-19-1.88446E-18
 -1      1521 1.02589E-04-3.07700E-05-3.07850E-05 7.75655E-07 8.69276E-20-1.65983E-18
 -1      1522 1.02044E-04-3.05977E-05-3.06186E-05 1.52704E-06 2.94856E-19-2.34262E-18
 -1      1523 1.00316E-04-3.00736E-05-3.01124E-05 6.85242E-07 1.00576E-19-2.01387E-18
 -1      1524 1.01084E-04-3.03063E-05-3.03384E-05 6.98910E-07 1.95247E-19-1.93636E-18
 -1      1525 1.00696E-04-3.01714E-05-3.02253E-05 1.41596E-06 1.50120E-19-2.57178E-18
 -1      1526 9.90807E-05-2.97027E-05-2.97412E-05 5.76336E-07 2.89005E-19-2.63600E-18
 -1      1527 9.97385E-05-2.98974E-05-2.99359E-05 5.95461E-07 2.48355E-19-2.10495E-18
 -1      1528 9.94852E-05-2.97993E-05-2.98666E-05 1.23284E-06 3.52929E-19-2.22083E-18
 -1      1529 9.80580E-05-2.93977E-05-2.94324E-05 4.65823E-07-5.07620E-19-2.39011E-18
 -1      1530 9.85969E-05-2.95541E-05-2.95926E-05 4.86340E-07-6.54134E-20-2.44783E-18
 -1      1531 9.84494E-05-2.94880E-05-2.95566E-05 1.02503E-06 1.21455E-20-2.50344E-18
 -1      1532 9.72407E-05-2.91553E-05-2.91846E-05 3.64188E-07 6.53591E-19-2.15992E-18
 -1      1533 9.76666E-05-2.92768E-05-2.93117E-05 3.83721E-07-1.37311E-19-2.08853E-18
 -1      1534 9.75970E-05-2.92363E-05-2.92993E-05 8.21538E-07-3.19379E-19-2.72766E-18
 -1      1535 9.66072E-05-2.89683E-05-2.89920E-05 2.76320E-07-2.69715E-19-2.08877E-18
 -1      1536 9.69335E-05-2.90598E-05-2.90897E-05 2.93656E-07 2.15298E-19-2.12620E-18
 -1      1537 9.69178E-05-2.90385E-05-2.90929E-05 6.38052E-07 1.69659E-19-2.39475E-18
 -1      1538 9.61301E-05-2.88280E-05-2.88465E-05 2.03628E-07-2.16181E-19-1.28793E-18
 -1      1539 9.63728E-05-2.88950E-05-2.89194E-05 2.18294E-07-3.86404E-19-1.60292E-18
 -1      1540 9.63918E-05-2.88873E-05-2.89322E-05 4.81374E-07-9.14937E-19-2.20938E-18
 -1      1541 9.57808E-05-2.87258E-05-2.87398E-05 1.45536E-07 2.21718E-19-1.44258E-18
 -1      1542 9.59559E-05-2.87732E-05-2.87926E-05 1.57503E-07-8.56881E-20-1.82107E-18
 -1      1543 9.59953E-05-2.87746E-05-2.88103E-05 3.52863E-07 1.11564E-19-2.40293E-18
 -1      1544 9.55329E-05-2.86535E-05-2.86639E-05 1.00462E-07 4.28305E-19-2.13709E-18
 -1      1545 9.56550E-05-2.86859E-05-2.87008E-05 1.09940E-07 2.98254E-19-1.37062E-18
 -1      1546 9.57044E-05-2.86928E-05-2.87205E-05 2.50823E-07 3.92194E-19-2.49479E-18
 -1      1547 9.53630E-05-2.86043E-05-2.86117E-05 6.64258E-08 2.11922E-19-2.42776E-18
 -1      1548 9.54449E-05-2.86254E-05-2.86366E-05 7.37382E-08 2.06334E-20-2.44426E-18
 -1      1549 9.54971E-05-2.86353E-05-2.86561E-05 1.72067E-07 4.76186E-19-2.90949E-18
 -1      1550 9.52517E-05-2.85723E-05-2.85774E-05 4.14083E-08 2.46849E-19-2.80368E-18
 -1      1551 9.53038E-05-2.85851E-05-2.85933E-05 4.69106E-08 4.74600E-19-2.13331E-18
 -1      1552 9.53544E-05-2.85962E-05-2.86115E-05 1.12878E-07 4.46774E-19-2.43103E-18
 -1      1553 9.51833E-05-2.85528E-05-2.85562E-05 2.35386E-08-4.85566E-20-2.94102E-18
 -1      1554 9.52138E-05-2.85598E-05-2.85656E-05 2.75755E-08 5.92547E-20-2.79040E-18
 -1      1555 9.52602E-05-2.85710E-05-2.85818E-05 6.95709E-08 4.79897E-19-2.10245E-18
 -1      1556 9.51453E-05-2.85422E-05-2.85443E-05 1.11851E-08-1.51754E-19-3.25938E-18
 -1      1557 9.51608E-05-2.85452E-05-2.85491E-05 1.40675E-08 1.84367E-19-3.15778E-18
 -1      1558 9.52017E-05-2.85556E-05-2.85631E-05 3.87860E-08 2.08729E-19-1.38967E-18
 -1      1559 9.51282E-05-2.85376E-05-2.85388E-05 2.98331E-09 2.12281E-19-3.37242E-18
 -1      1560 9.51336E-05-2.85380E-05-2.85406E-05 4.97785E-09-1.90429E-19-3.46967E-18
 -1      1561 9.51684E-05-2.85474E-05-2.85523E-05 1.76230E-08-3.54159E-19-2.88268E-18
 -1      1562 9.51249E-05-2.85370E-05-2.85376E-05-2.17122E-09-1.41967E-19-3.65492E-18
 -1      1563 9.51238E-05-2.85358E-05-2.85374E-05-8.43621E-10 5.30202E-20-3.48072E-18
 -1      1564 9.51527E-05-2.85439E-05-2.85469E-05 3.67279E-09 1.37744E-19-3.20109E-18
 -1      1565 9.51301E-05-2.85388E-05-2.85390E-05-5.14861E-09 4.17976E-19-4.56435E-18
 -1      1566 9.51251E-05-2.85367E-05-2.85376E-05-4.31023E-09 3.45479E-19-3.34549E-18
 -1      1567 9.51487E-05-2.85435E-05-2.85453E-05-5.00463E-09 3.04664E-19-2.58046E-18
 -1      1568 9.51401E-05-2.85420E-05-2.85419E-05-6.61809E-09 9.43301E-19-6.63615E-18
 -1      1569 9.51332E-05-2.85395E-05-2.85399E-05-6.12937E-09 6.32485E-19-5.29166E-18
 -1      1570 9.51519E-05-2.85451E-05-2.85459E-05-9.93143E-09 1.58141E-18-3.53611E-18
 -1      1571 9.51524E-05-2.85458E-05-2.85455E-05-7.08270E-09-8.73790E-19-5.82651E-18
 -1      1572 9.51447E-05-2.85432E-05-2.85433E-05-6.83645E-09-5.15119E-19-6.52280E-18
 -1      1573 9.51593E-05-2.85477E-05-2.85479E-05-1.22741E-08 6.29627E-20-4.58399E-18
 -1      1574 9.51653E-05-2.85497E-05-2.85494E-05-6.91177E-09-1.50765E-19-4.69049E-18
 -1      1575 9.51576E-05-2.85473E-05-2.85472E-05-6.82744E-09-1.26948E-19-5.04277E-18
 -1      1576 9.51688E-05-2.85508E-05-2.85506E-05-1.29064E-08-8.48082E-19-4.22704E-18
 -1      1577 9.51777E-05-2.85535E-05-2.85531E-05-6.36956E-09 3.09844E-20-3.99817E-18
 -1      1578 9.51705E-05-2.85512E-05-2.85510E-05-6.38800E-09-2.10653E-19-4.41251E-18
 -1      1579 9.51789E-05-2.85540E-05-2.85536E-05-1.24674E-08-3.45885E-19-2.68834E-18
 -1      1580 9.51891E-05-2.85569E-05-2.85566E-05-5.63965E-09-3.29708E-19-3.23757E-18
 -1      1581 9.51827E-05-2.85549E-05-2.85547E-05-5.71846E-09-5.67969E-19-4.24890E-18
 -1      1582 9.51888E-05-2.85570E-05-2.85565E-05-1.14126E-08-3.90263E-19-2.36989E-18
 -1      1583 9.51991E-05-2.85599E-05-2.85596E-05-4.84485E-09-2.45314E-19-3.25794E-18
 -1      1584 9.51935E-05-2.85582E-05-2.85579E-05-4.95454E-09 9.07695E-20-2.83599E-18
 -1      1585 9.51980E-05-2.85598E-05-2.85592E-05-1.00566E-08-2.63721E-19-1.87424E-18
 -1      1586 9.52076E-05-2.85624E-05-2.85622E-05-4.06325E-09-2.62766E-19-3.72112E-18
 -1      1587 9.52030E-05-2.85610E-05-2.85608E-05-4.18405E-09-2.83630E-19-3.37116E-18
 -1      1588 9.52060E-05-2.85622E-05-2.85617E-05-8.60853E-09-3.75715E-19-1.86077E-18
 -1      1589 9.52148E-05-2.85646E-05-2.85643E-05-3.34064E-09 1.77467E-19-3.57192E-18
 -1      1590 9.52109E-05-2.85634E-05-2.85632E-05-3.45996E-09 3.36184E-19-3.23269E-18
 -1      1591 9.52130E-05-2.85642E-05-2.85638E-05-7.19987E-09 1.56385E-19-6.58688E-19
 -1      1592 9.52207E-05-2.85663E-05-2.85661E-05-2.69993E-09 8.02661E-20-2.76793E-18
 -1      1593 9.52175E-05-2.85654E-05-2.85652E-05-2.81048E-09-4.63304E-19-3.05573E-18
 -1      1594 9.52188E-05-2.85659E-05-2.85655E-05-5.90611E-09-2.37247E-19-1.41180E-18
 -1      1595 9.52254E-05-2.85677E-05-2.85675E-05-2.14801E-09 7.65174E-19-3.81720E-18
 -1      1596 9.52229E-05-2.85670E-05-2.85668E-05-2.24636E-09 6.89400E-19-2.81794E-18
 -1      1597 9.52236E-05-2.85673E-05-2.85670E-05-4.76305E-09 5.37687E-19-3.22186E-18
 -1      1598 9.52291E-05-2.85688E-05-2.85687E-05-1.68046E-09 5.47038E-19-4.24853E-18
 -1      1599 9.52272E-05-2.85683E-05-2.85681E-05-1.76613E-09 7.65550E-20-4.33333E-18
 -1      1600 9.52275E-05-2.85685E-05-2.85682E-05-3.77848E-09 6.48949E-19-3.72270E-18
 -1      1601 9.52320E-05-2.85697E-05-2.85696E-05-1.28439E-09 1.02333E-19-5.30099E-18
 -1      1602 9.52305E-05-2.85692E-05-2.85691E-05-1.35937E-09 7.31991E-19-4.03091E-18
 -1      1603 9.52306E-05-2.85693E-05-2.85691E-05-2.94012E-09 4.75384E-19-3.86205E-18
 -1      1604 9.52342E-05-2.85703E-05-2.85702E-05-9.40350E-10-9.91282E-19-2.73514E-18
 -1      1605 9.52331E-05-2.85700E-05-2.85699E-05-1.00887E-09-1.18142E-18-4.52815E-18
 -1      1606 9.52330E-05-2.85700E-05-2.85698E-05-2.22066E-09-1.47258E-18-3.36218E-18
 -1      1607 9.52358E-05-2.85708E-05-2.85707E-05-6.24703E-10 4.26967E-19-2.83263E-18
 -1      1608 9.52350E-05-2.85706E-05-2.85705E-05-6.93066E-10 3.52417E-19-2.28846E-18
 -1      1609 9.52347E-05-2.85706E-05-2.85704E-05-1.58241E-09-1.01464E-18-5.04807E-19
 -1      1610 9.52367E-05-2.85711E-05-2.85710E-05-3.12304E-10 4.30797E-20-3.40779E-18
 -1      1611 9.52363E-05-2.85710E-05-2.85709E-05-3.90562E-10 2.60508E-19-2.84915E-18
 -1      1612 9.52360E-05-2.85709E-05-2.85707E-05-9.85415E-10 3.35684E-19-1.38072E-18
 -1      1613 9.52371E-05-2.85712E-05-2.85711E-05-2.80646E-11 1.63000E-18-4.51477E-18
 -1      1614 9.52370E-05-2.85712E-05-2.85711E-05-1.03724E-10 4.87448E-19-3.47231E-18
 -1      1615 9.52368E-05-2.85711E-05-2.85710E-05-4.08330E-10 1.19468E-18-3.02327E-18
 -1      1616 9.52372E-05-2.85711E-05-2.85712E-05 5.11289E-11-2.73265E-18-2.56039E-18
 -1      1617 9.52371E-05-2.85714E-05-2.85710E-05-2.32232E-10-3.66717E-18 9.75320E-19
 -1      1618 9.52371E-05-2.85713E-05-2.85711E-05-1.59433E-10-4.70227E-18 1.59423E-18
 -1      1619 9.52374E-05-2.85722E-05-2.85708E-05-5.36062E-10-1.50190E-18 1.92076E-18
 -1      1620 9.52373E-05-2.85718E-05-2.85709E-05-4.78524E-10-3.47363E-18 8.34498E-19
 -1      1621 9.52372E-05-2.85718E-05-2.85709E-05-7.14400E-10-2.03046E-18 1.98257E-18
 -1      1622 9.52378E-05-2.85733E-05-2.85705E-05-7.40489E-10-8.71353E-19 7.92745E-20
 -1      1623 9.52376E-05-2.85727E-05-2.85707E-05-7.09324E-10-7.68096E-19 1.03576E-18
 -1      1624 9.52375E-05-2.85727E-05-2.85706E-05-1.21912E-09-1.09705E-18 2.18830E-18
 -1      1625 9.52382E-05-2.85746E-05-2.85701E-05-8.05017E-10 3.74754E-19 4.77567E-19
 -1      1626 9.52380E-05-2.85739E-05-2.85703E-05-8.03714E-10-8.98627E-19 1.80964E-18
 -1      1627 9.52379E-05-2.85737E-05-2.85703E-05-1.50041E-09-4.53551E-19 8.18669E-19
 -1      1628 9.52386E-05-2.85759E-05-2.85697E-05-7.33869E-10-6.63305E-19-4.89129E-19
 -1      1629 9.52384E-05-2.85752E-05-2.85699E-05-7.57939E-10-4.31774E-20-1.62453E-18
 -1      1630 9.52383E-05-2.85749E-05-2.85700E-05-1.51470E-09 9.59467E-19-1.68474E-18
 -1      1631 9.52389E-05-2.85769E-05-2.85695E-05-5.46230E-10 3.63802E-20 8.80210E-19
 -1      1632 9.52388E-05-2.85763E-05-2.85696E-05-5.91253E-10-1.00442E-18-1.48600E-19
 -1      1633 9.52387E-05-2.85759E-05-2.85698E-05-1.28332E-09 1.64943E-19-7.15122E-19
 -1      1634 9.52391E-05-2.85775E-05-2.85693E-05-2.76361E-10 2.32902E-18-3.77199E-19
 -1      1635 9.52390E-05-2.85772E-05-2.85694E-05-3.34274E-10 1.26211E-18 1.59512E-18
 -1      1636 9.52389E-05-2.85767E-05-2.85695E-05-8.52520E-10 3.79522E-19 2.01210E-18
 -1      1637 9.52391E-05-2.85776E-05-2.85693E-05 3.39306E-11 4.20356E-18 1.59355E-18
 -1      1638 9.52391E-05-2.85776E-05-2.85693E-05-2.83540E-11 2.85917E-18 7.39344E-19
 -1      1639 9.52391E-05-2.85771E-05-2.85694E-05-2.95023E-10 1.80395E-18 1.28823E-18
 -1      1640 9.52390E-05-2.85772E-05-2.85694E-05 3.39373E-10 1.03746E-18-3.14209E-18
 -1      1641 9.52391E-05-2.85774E-05-2.85693E-05 2.81634E-10 3.59823E-18-6.26347E-19
 -1      1642 9.52391E-05-2.85771E-05-2.85694E-05 3.05514E-10 4.04851E-19-4.83238E-19
 -1      1643 9.52387E-05-2.85763E-05-2.85696E-05 5.95035E-10-1.96847E-18-2.53396E-18
 -1      1644 9.52389E-05-2.85768E-05-2.85695E-05 5.50503E-10 5.88114E-19-2.55950E-18
 -1      1645 9.52389E-05-2.85767E-05-2.85695E-05 8.61613E-10 7.97591E-21-4.65532E-18
 -1      1646 9.52384E-05-2.85752E-05-2.85699E-05 7.58533E-10-6.54380E-19 2.23500E-18
 -1      1647 9.52386E-05-2.85759E-05-2.85697E-05 7.34891E-10-2.24441E-18 3.36422E-19
 -1      1648 9.52386E-05-2.85759E-05-2.85698E-05 1.28730E-09 4.94425E-19-2.15808E-18
 -1      1649 9.52380E-05-2.85739E-05-2.85703E-05 8.03253E-10 1.98166E-18 5.08615E-19
 -1      1650 9.52382E-05-2.85746E-05-2.85701E-05 8.05133E-10-4.51438E-20 1.65626E-18
 -1      1651 9.52383E-05-2.85749E-05-2.85700E-05 1.51576E-09 5.55542E-20 3.06447E-18
 -1      1652 9.52375E-05-2.85727E-05-2.85707E-05 7.07054E-10 1.10763E-18-6.11620E-19
 -1      1653 9.52378E-05-2.85733E-05-2.85705E-05 7.37640E-10 1.83716E-18 6.33005E-19
 -1      1654 9.52379E-05-2.85737E-05-2.85703E-05 1.49764E-09 8.92893E-19 9.28235E-19
 -1      1655 9.52372E-05-2.85718E-05-2.85709E-05 4.78611E-10 2.48288E-19 1.81001E-19
 -1      1656 9.52374E-05-2.85722E-05-2.85708E-05 5.38134E-10 1.63330E-18-2.03013E-18
 -1      1657 9.52375E-05-2.85727E-05-2.85706E-05 1.21101E-09 1.94920E-18-1.79544E-18
 -1      1658 9.52371E-05-2.85713E-05-2.85710E-05 2.76561E-10-1.92686E-21-5.74341E-19
 -1      1659 9.52371E-05-2.85715E-05-2.85710E-05 3.79642E-10 8.41284E-21 2.92281E-19
 -1      1660 9.52371E-05-2.85719E-05-2.85708E-05 8.80447E-10 1.00428E-18-8.97633E-19
 -1      1661 9.52369E-05-2.85714E-05-2.85709E-05 5.84528E-10-1.93469E-19-1.21330E-18
 -1      1662 1.80670E-05-5.50717E-05 1.01501E-05-3.22300E-06 8.04385E-18 4.01112E-18
 -1      1663 2.11847E-05-6.50565E-05 1.23849E-05 2.93431E-06 2.85387E-18 3.21407E-18
 -1      1664 1.78297E-05-2.86763E-05 5.40440E-07 6.67193E-06 1.34500E-17 7.99091E-18
 -1      1665 2.18046E-05-5.08527E-05 6.41785E-06 1.50527E-06 9.73410E-18 5.13949E-18
 -1      1666 4.06063E-05-6.44103E-06-1.59529E-05 3.69977E-05 1.35864E-17 9.81881E-18
 -1      1667 3.18389E-05-2.48413E-05-6.99975E-06 1.78772E-05 1.29317E-17 8.06375E-18
 -1      1668 8.00873E-05 2.21161E-06-3.40121E-05 6.58989E-05 1.17306E-17 1.19720E-17
 -1      1669 5.37530E-05-3.06547E-07-2.46621E-05 4.43019E-05 1.39396E-17 1.09843E-17
 -1      1670 1.46130E-04-1.77777E-05-5.14030E-05 7.70929E-05 7.56782E-18 9.55368E-18
 -1      1671 1.05429E-04-3.89123E-06-4.26487E-05 6.77073E-05 1.02283E-17 1.07344E-17
 -1      1672 2.07279E-04-4.31901E-05-6.48897E-05 6.23585E-05 4.39094E-18 5.08389E-18
 -1      1673 1.67875E-04-2.29024E-05-5.87317E-05 7.45176E-05 6.74026E-18 8.53979E-18
 -1      1674 2.40586E-04-5.97483E-05-7.15253E-05 1.69106E-05 3.59375E-18-3.75331E-18
 -1      1675 2.21538E-04-4.83555E-05-6.90245E-05 4.88782E-05 4.46937E-18 2.63597E-18
 -1      1676 2.32053E-04-5.58489E-05-7.02156E-05-3.25578E-05 5.05890E-18-1.22782E-17
 -1      1677 2.45336E-04-6.27560E-05-7.21150E-05 2.13691E-07 3.74156E-18-6.40876E-18
 -1      1678 1.78953E-04-3.10583E-05-6.05026E-05-6.14241E-05 9.41445E-18-1.73405E-17
 -1      1679 2.16627E-04-5.00853E-05-6.62304E-05-4.41751E-05 6.33385E-18-1.39574E-17
 -1      1680 1.12616E-04-8.43477E-06-4.44576E-05-6.16728E-05 1.41920E-17-1.83129E-17
 -1      1681 1.56643E-04-2.53401E-05-5.32999E-05-6.65187E-05 1.07810E-17-1.76378E-17
 -1      1682 6.01238E-05-1.93392E-07-2.75985E-05-4.52545E-05 1.71982E-17-1.63545E-17
 -1      1683 8.80050E-05-2.59500E-06-3.61290E-05-6.24095E-05 1.56557E-17-1.83213E-17
 -1      1684 2.73470E-05-7.26962E-06-1.21058E-05-2.21179E-05 1.70974E-17-1.20457E-17
 -1      1685 3.82579E-05 4.20779E-06-1.97528E-05-3.90729E-05 1.82705E-17-1.58438E-17
 -1      1686 1.73376E-05-2.61770E-05-2.98966E-07-8.37660E-06 1.09657E-17-6.86495E-18
 -1      1687 1.73343E-05-1.00712E-05-5.93347E-06-1.56327E-05 1.52110E-17-1.04274E-17
 -1      1688 1.39120E-05-3.95437E-05 6.49596E-06-4.50782E-06 2.75497E-18-4.12696E-18
 -1      1689 1.12776E-05-2.92039E-05 3.84343E-06-1.44681E-06 9.12127E-18-5.85681E-18
 -1      1690 1.19170E-05-3.74678E-05 6.58756E-06-5.01478E-06-6.59034E-18-5.05086E-18
 -1      1691 1.28332E-05-3.98815E-05 7.25966E-06 2.70869E-07 1.27743E-19-4.13331E-18
 -1      1692 1.30836E-05-2.28816E-05 1.42172E-07 2.27137E-06-1.43627E-17-9.05457E-18
 -1      1693 1.55951E-05-3.71726E-05 4.41053E-06 4.49692E-07-9.10645E-18-5.73822E-18
 -1      1694 3.13968E-05-6.99668E-06-1.30803E-05 2.54698E-05-1.74972E-17-1.44178E-17
 -1      1695 2.47867E-05-2.19660E-05-5.66192E-06 1.08467E-05-1.52474E-17-1.04246E-17
 -1      1696 7.68571E-05-4.12589E-06-3.13371E-05 5.47043E-05-1.67306E-17-1.88465E-17
 -1      1697 4.99631E-05-7.45592E-06-2.13577E-05 3.28044E-05-1.79469E-17-1.58785E-17
 -1      1698 1.43481E-04-2.09180E-05-4.98068E-05 7.03141E-05-1.24611E-17-1.97816E-17
 -1      1699 1.00334E-04-6.71087E-06-4.06104E-05 5.97777E-05-1.59767E-17-1.98875E-17
 -1      1700 2.14480E-04-5.00131E-05-6.52670E-05 4.71710E-05-7.00457E-18-1.39472E-17
 -1      1701 1.69571E-04-2.91001E-05-5.76376E-05 6.02294E-05-1.03147E-17-1.75217E-17
 -1      1702 2.52109E-04-6.46588E-05-7.35592E-05 5.00264E-06-4.12611E-18-6.38409E-18
 -1      1703 2.32082E-04-5.46427E-05-7.05945E-05 3.65061E-05-5.78344E-18-1.22964E-17
 -1      1704 2.43981E-04-5.82308E-05-7.31933E-05-4.08052E-05-3.95183E-18 1.89651E-18
 -1      1705 2.55242E-04-6.53805E-05-7.44362E-05-9.54537E-06-3.45547E-18-3.73020E-18
 -1      1706 1.96589E-04-3.49971E-05-6.48159E-05-6.81939E-05-7.07553E-18 8.82100E-18
 -1      1707 2.30063E-04-5.27649E-05-6.97883E-05-5.04314E-05-4.80331E-18 3.90736E-18
 -1      1708 1.37812E-04-1.13216E-05-5.19481E-05-7.73634E-05-1.07497E-17 1.38617E-17
 -1      1709 1.78237E-04-2.88928E-05-5.92294E-05-7.82857E-05-8.05719E-18 1.14468E-17
 -1      1710 8.22598E-05-1.76962E-07-3.56103E-05-6.04778E-05-1.41226E-17 1.43199E-17
 -1      1711 1.15884E-04-6.54915E-06-4.42827E-05-7.67948E-05-1.16247E-17 1.49815E-17
 -1      1712 4.45180E-05-7.21228E-06-1.88394E-05-3.39924E-05-1.47773E-17 1.20042E-17
 -1      1713 6.25941E-05 1.28447E-06-2.73505E-05-5.45266E-05-1.45139E-17 1.41615E-17
 -1      1714 2.82227E-05-3.16277E-05-3.27346E-06-1.18643E-05-1.21592E-17 7.41006E-18
 -1      1715 3.24599E-05-1.21570E-05-1.10958E-05-2.70727E-05-1.38244E-17 1.05032E-17
 -1      1716 2.18523E-05-5.51195E-05 7.96033E-06 2.68031E-07-7.28533E-18 4.64153E-18
 -1      1717 1.76402E-05-3.61033E-05 3.11506E-06-2.03566E-06-1.14180E-17 7.05631E-18
 -1      1718 2.12699E-05-6.63541E-05 1.27484E-05-1.51748E-06 8.64503E-19 3.64055E-18
 -1      1719 1.88805E-05-5.90965E-05 1.11051E-05 5.36008E-06-5.25415E-18 4.18286E-18
 -1      1720 1.17382E-04-2.62971E-05-3.76612E-05 4.84914E-05 7.07442E-18 5.05763E-18
 -1      1721 7.63604E-05-2.95214E-05-2.09422E-05 4.36410E-05 7.14133E-18 5.49640E-18
 -1      1722 9.52371E-05-2.85711E-05-2.85711E-05-1.23800E-11-3.02846E-18-2.70875E-19
 -1      1723 9.52370E-05-2.85714E-05-2.85710E-05-2.70919E-10-9.01939E-19-8.35478E-19
 -1      1724 1.79464E-05-3.92560E-05 5.05983E-06 1.59319E-05 4.58075E-18 6.30743E-18
 -1      1725 4.18539E-05-3.40265E-05-5.80792E-06 3.30798E-05 6.25873E-18 6.36895E-18
 -1      1726 1.08841E-05-4.23392E-05 8.92850E-06 1.69253E-06 1.41460E-18 6.45778E-18
 -1      1727 1.58459E-04-2.82269E-05-5.26764E-05 4.20892E-05 5.94045E-18 2.67917E-18
 -1      1728 1.88798E-04-2.97122E-05-6.36413E-05 2.81853E-05 6.08953E-18-3.64224E-19
 -1      1729 2.03449E-04-3.25575E-05-6.81137E-05 6.38896E-06 6.59161E-18-4.47969E-18
 -1      1730 1.94414E-04-3.27312E-05-6.48523E-05-1.50611E-05 7.40455E-18-8.18234E-18
 -1      1731 1.62439E-04-2.97920E-05-5.42268E-05-2.91495E-05 8.54582E-18-9.85777E-18
 -1      1732 1.22044E-04-2.72720E-05-3.97109E-05-4.00725E-05 9.34150E-18-1.05896E-17
 -1      1733 7.60389E-05-2.03569E-05-2.44916E-05-4.21007E-05 1.00839E-17-1.09581E-17
 -1      1734 3.90755E-05-1.79963E-05-1.10291E-05-3.26536E-05 8.19123E-18-9.92013E-18
 -1      1735 1.60621E-05-1.88654E-05-1.36535E-06-2.04517E-05 4.68240E-18-8.56181E-18
 -1      1736 5.72185E-06-2.03153E-05 3.30922E-06-5.96557E-06 2.94767E-19-8.00806E-18
 -1      1737 9.74463E-06-2.14393E-05 1.97727E-06 8.06745E-06-4.08418E-18-8.41252E-18
 -1      1738 3.04802E-05-2.34620E-05-5.65457E-06 2.36110E-05-7.57967E-18-9.66253E-18
 -1      1739 6.76140E-05-2.75012E-05-1.88898E-05 3.50228E-05-9.55496E-18-1.09077E-17
 -1      1740 1.13495E-04-3.02230E-05-3.55016E-05 3.97221E-05-1.05295E-17-1.19372E-17
 -1      1741 1.61581E-04-3.39641E-05-5.19871E-05 3.18565E-05-9.31959E-18-1.05710E-17
 -1      1742 1.94628E-04-3.45422E-05-6.42209E-05 1.29950E-05-7.92082E-18-7.44627E-18
 -1      1743 2.12900E-04-3.61043E-05-7.01201E-05-4.68210E-06-6.89146E-18-3.96718E-18
 -1      1744 2.03353E-04-3.34589E-05-6.76518E-05-2.26965E-05-7.03588E-18 4.53163E-19
 -1      1745 1.78563E-04-3.07780E-05-5.92122E-05-3.84440E-05-7.67666E-18 3.61344E-18
 -1      1746 1.43164E-04-2.86944E-05-4.66147E-05-4.89415E-05-8.04131E-18 6.99649E-18
 -1      1747 1.02034E-04-2.80722E-05-3.14378E-05-4.79765E-05-8.49786E-18 8.48049E-18
 -1      1748 6.57978E-05-3.20386E-05-1.61719E-05-4.00323E-05-6.69241E-18 7.76390E-18
 -1      1749 3.56423E-05-3.60537E-05-2.89336E-06-2.83051E-05-5.48877E-18 7.01499E-18
 -1      1750 1.63248E-05-4.11423E-05 6.25177E-06-1.24322E-05-2.42421E-18 6.88850E-18
 -1      1751 1.45589E-04-3.39726E-05-4.78245E-05-1.74717E-05-1.69751E-18 9.67333E-18
 -1      1752 1.03474E-04-1.95998E-05-3.60693E-05-7.38115E-06-1.13764E-18-1.13976E-18
 -1      1753 1.10720E-04-2.13947E-05-3.84914E-05-1.13609E-05-1.62466E-18-2.17529E-19
 -1      1754 1.17689E-04-2.37349E-05-4.04478E-05-1.45964E-05-1.86146E-18 9.82929E-19
 -1      1755 1.23832E-04-2.58911E-05-4.26506E-05-1.79486E-05-2.29636E-18 2.57646E-18
 -1      1756 1.18043E-04-2.86483E-05-3.83975E-05-1.27504E-05-1.83326E-18 7.44145E-19
 -1      1757 6.52573E-05-5.05475E-06-2.59590E-05 5.64544E-06 3.11258E-19-3.94368E-18
 -1      1758 7.54342E-05-8.59501E-06-2.84661E-05 3.99148E-06 9.74617E-20-3.41607E-18
 -1      1759 4.58130E-05 4.47219E-06-2.16724E-05 4.36672E-06 1.41349E-19-4.96086E-18
 -1      1760 5.43537E-05 1.17599E-06-2.35568E-05 5.57998E-06 3.34446E-19-4.60591E-18
 -1      1761 6.05310E-05-4.31731E-06-2.40724E-05 7.81328E-06 4.78600E-19-4.37458E-18
 -1      1762 3.65084E-05 9.52047E-06-1.96934E-05-2.60302E-06-5.75888E-19-5.56350E-18
 -1      1763 3.93241E-05 8.48129E-06-2.03328E-05 4.30665E-07-1.86321E-19-5.40423E-18
 -1      1764 4.15448E-05 6.09403E-06-2.02048E-05 4.09036E-06 6.01261E-20-5.58597E-18
 -1      1765 4.14086E-05 6.95372E-06-2.05289E-05-1.09415E-05-1.46902E-18-5.40099E-18
 -1      1766 3.72518E-05 8.83191E-06-1.97787E-05-8.11726E-06-1.08171E-18-5.51879E-18
 -1      1767 3.50841E-05 9.63527E-06-1.88852E-05-5.82112E-06-9.14147E-19-6.08453E-18
 -1      1768 5.76953E-05-1.60706E-06-2.37972E-05-1.41662E-05-1.85715E-18-4.77330E-18
 -1      1769 4.90952E-05 1.94393E-06-2.20159E-05-1.38647E-05-1.75237E-18-4.98934E-18
 -1      1770 4.46596E-05 3.73016E-06-2.05792E-05-1.45833E-05-1.86372E-18-5.57922E-18
 -1      1771 7.63081E-05-1.04846E-05-2.80723E-05-1.05222E-05-1.57614E-18-4.01707E-18
 -1      1772 6.75871E-05-7.31692E-06-2.59613E-05-1.28244E-05-1.77469E-18-4.24710E-18
 -1      1773 6.40456E-05-7.17766E-06-2.44071E-05-1.56287E-05-2.06811E-18-4.56368E-18
 -1      1774 9.05886E-05-1.58229E-05-3.20438E-05-2.74211E-06-6.44936E-19-3.36526E-18
 -1      1775 8.43094E-05-1.41068E-05-3.01611E-05-6.37720E-06-1.13333E-18-3.59388E-18
 -1      1776 8.32661E-05-1.64047E-05-2.87788E-05-9.27082E-06-1.52765E-18-3.57313E-18
 -1      1777 9.91651E-05-1.75248E-05-3.50933E-05 5.77963E-06 4.19467E-19-2.99466E-18
 -1      1778 9.55175E-05-1.70854E-05-3.36650E-05 1.96895E-06-1.04476E-19-3.14514E-18
 -1      1779 9.66022E-05-2.09969E-05-3.25078E-05 5.02964E-08-4.11823E-19-2.90103E-18
 -1      1780 1.03835E-04-1.74360E-05-3.72040E-05 1.32845E-05 1.39731E-18-2.24768E-18
 -1      1781 1.01809E-04-1.75397E-05-3.61926E-05 9.81040E-06 8.77261E-19-2.65111E-18
 -1      1782 1.03974E-04-2.20298E-05-3.51833E-05 8.72774E-06 7.04970E-19-2.47339E-18
 -1      1783 1.07366E-04-1.77476E-05-3.86678E-05 1.92893E-05 2.34771E-18-9.28930E-19
 -1      1784 1.05563E-04-1.74922E-05-3.78916E-05 1.62657E-05 1.82956E-18-1.72490E-18
 -1      1785 1.07942E-04-2.19536E-05-3.68928E-05 1.54171E-05 1.71904E-18-1.56053E-18
 -1      1786 1.13566E-04-2.15531E-05-3.97385E-05 2.30573E-05 2.81699E-18 1.96162E-18
 -1      1787 1.09910E-04-1.92623E-05-3.90626E-05 2.09641E-05 2.55947E-18 2.07629E-19
 -1      1788 1.11639E-04-2.32757E-05-3.78901E-05 1.95371E-05 2.59105E-18-3.15255E-20
 -1      1789 1.21439E-04-3.05246E-05-3.94993E-05 1.91446E-05 2.65757E-18 5.73060E-18
 -1      1790 1.16402E-04-2.42479E-05-3.94946E-05 2.22087E-05 2.72425E-18 3.24731E-18
 -1      1791 1.15471E-04-2.74502E-05-3.78730E-05 1.92621E-05 2.96091E-18 2.11994E-18
 -1      1792 1.17156E-04-3.17548E-05-3.68914E-05 1.40684E-05 2.68202E-18 5.01406E-18
 -1      1793 1.35044E-04-2.95086E-05-4.48194E-05-1.99228E-05-2.10829E-18 5.25605E-18
 -1      1794 1.11147E-04-3.25626E-05-3.37238E-05 9.85576E-06 2.08505E-18 4.02454E-18
 -1      1795 1.15329E-04-3.31707E-05-3.52790E-05 1.16028E-05 2.25398E-18 4.65298E-18
 -1      1796 1.15187E-04-3.14019E-05-3.59274E-05 1.50172E-05 2.61326E-18 3.07863E-18
 -1      1797 1.33863E-04-3.45733E-05-4.22123E-05-1.61361E-05-2.10538E-18 4.36566E-18
 -1      1798 1.31934E-04-4.06876E-05-3.89855E-05-1.24689E-05-1.58427E-18 4.48354E-18
 -1      1799 1.28033E-04-4.00494E-05-3.77821E-05-1.31114E-05-1.51620E-18 4.09212E-18
 -1      1800 1.26787E-04-3.96964E-05-3.72748E-05-1.46113E-05-1.47366E-18 4.12662E-18
 -1      1801 1.22838E-04-3.78221E-05-3.64141E-05-1.55481E-05-1.52676E-18 3.64887E-18
 -1      1802 1.28374E-04-4.07030E-05-3.75804E-05-1.67470E-05-1.72898E-18 3.08363E-18
 -1      1803 1.20418E-04-3.58126E-05-3.63047E-05-1.59197E-05-1.56527E-18 3.47901E-18
 -1      1804 1.16385E-04-3.29583E-05-3.56712E-05-1.49607E-05-1.89682E-18 2.84195E-18
 -1      1805 1.24662E-04-3.76568E-05-3.72970E-05-1.90194E-05-1.94058E-18 2.89155E-18
 -1      1806 1.13462E-04-3.02913E-05-3.57251E-05-1.21894E-05-2.36552E-18 2.12298E-18
 -1      1807 1.10676E-04-2.80910E-05-3.53357E-05-8.61257E-06-2.69484E-18 1.34909E-18
 -1      1808 1.18994E-04-3.13431E-05-3.76483E-05-1.66684E-05-2.75561E-18 1.82960E-18
 -1      1809 1.09153E-04-2.69214E-05-3.52558E-05-3.05826E-06-2.81615E-18 4.54288E-19
 -1      1810 1.08863E-04-2.70718E-05-3.51022E-05 1.54014E-06-2.34101E-18-4.55836E-19
 -1      1811 1.14160E-04-2.61941E-05-3.78967E-05-7.38150E-06-3.29758E-18 3.09832E-19
 -1      1812 1.09712E-04-2.84776E-05-3.47517E-05 6.56643E-06-1.92345E-18-1.15783E-18
 -1      1813 1.11647E-04-3.07014E-05-3.48128E-05 9.46828E-06-1.52657E-18-1.57948E-18
 -1      1814 1.13592E-04-2.66921E-05-3.74286E-05 4.69096E-06-2.75812E-18-1.22152E-18
 -1      1815 1.13367E-04-3.31262E-05-3.43311E-05 1.10989E-05-1.23418E-18-2.06234E-18
 -1      1816 1.15980E-04-3.55654E-05-3.45541E-05 1.11412E-05-7.43750E-19-2.26534E-18
 -1      1817 1.16659E-04-3.21648E-05-3.62705E-05 1.20367E-05-1.85524E-18-2.49595E-18
 -1      1818 1.16661E-04-3.69884E-05-3.41663E-05 9.52953E-06-6.80237E-19-2.38771E-18
 -1      1819 1.18537E-04-3.82890E-05-3.44217E-05 7.63918E-06-4.15582E-19-2.37926E-18
 -1      1820 1.19476E-04-3.77578E-05-3.49903E-05 1.16267E-05-8.69466E-19-3.44522E-18
 -1      1821 1.17809E-04-3.82651E-05-3.41769E-05 4.75068E-06-3.79391E-19-2.51904E-18
 -1      1822 1.18417E-04-3.83476E-05-3.43109E-05 2.43183E-06-2.50298E-19-3.12040E-18
 -1      1823 1.19551E-04-4.00312E-05-3.40522E-05 6.40132E-06-6.25812E-19-3.67284E-18
 -1      1824 1.16896E-04-3.74942E-05-3.41284E-05-1.13660E-07-8.62518E-20-2.78242E-18
 -1      1825 1.16402E-04-3.68863E-05-3.40660E-05-1.91085E-06 1.65244E-19-2.69536E-18
 -1      1826 1.17218E-04-3.91218E-05-3.34722E-05 4.33290E-07-1.08533E-19-2.96739E-18
 -1      1827 1.14710E-04-3.58622E-05-3.38675E-05-3.50552E-06 1.62088E-19-2.32035E-18
 -1      1828 1.13528E-04-3.50469E-05-3.36267E-05-4.52374E-06 1.49554E-19-2.33221E-18
 -1      1829 1.13867E-04-3.67875E-05-3.30553E-05-3.98199E-06 4.60405E-19-2.09278E-18
 -1      1830 1.11975E-04-3.41788E-05-3.33825E-05-5.22449E-06 2.93940E-19-2.18075E-18
 -1      1831 1.10487E-04-3.34079E-05-3.30292E-05-5.59259E-06 3.91364E-19-1.59928E-18
 -1      1832 1.10502E-04-3.43950E-05-3.26410E-05-6.37386E-06 3.84288E-19-1.74889E-18
 -1      1833 1.09155E-04-3.27653E-05-3.27505E-05-5.67867E-06 5.54542E-20-1.36249E-18
 -1      1834 1.07627E-04-3.21233E-05-3.23550E-05-5.63002E-06 5.35558E-21-9.53552E-19
 -1      1835 1.07535E-04-3.25134E-05-3.21718E-05-7.15437E-06 3.65049E-19-1.14724E-18
 -1      1836 1.06510E-04-3.16718E-05-3.20666E-05-5.37110E-06-1.61189E-19-1.02445E-18
 -1      1837 1.05095E-04-3.11654E-05-3.16803E-05-5.10757E-06 3.94640E-20-1.22394E-18
 -1      1838 1.05038E-04-3.11971E-05-3.16619E-05-6.91747E-06-1.81398E-19-1.29378E-18
 -1      1839 1.04167E-04-3.08503E-05-3.14045E-05-4.69638E-06 5.14788E-20-1.55236E-18
 -1      1840 1.02938E-04-3.04604E-05-3.10571E-05-4.35294E-06-1.95721E-19-1.07536E-18
 -1      1841 1.02972E-04-3.03225E-05-3.11480E-05-6.15505E-06-2.20328E-19-1.74466E-18
 -1      1842 1.02173E-04-3.02369E-05-3.08088E-05-3.90610E-06-5.98214E-19-1.29601E-18
 -1      1843 1.01149E-04-2.99403E-05-3.05129E-05-3.55933E-06-6.41095E-19-1.55783E-18
 -1      1844 1.01273E-04-2.97486E-05-3.06642E-05-5.19560E-06-4.23729E-19-1.61235E-18
 -1      1845 1.00524E-04-2.97783E-05-3.02991E-05-3.13836E-06-5.42935E-19-1.38029E-18
 -1      1846 9.96982E-05-2.95544E-05-3.00564E-05-2.82522E-06-3.47202E-19-1.35593E-18
 -1      1847 9.98883E-05-2.93677E-05-3.02325E-05-4.22908E-06-4.97038E-19-5.17950E-19
 -1      1848 9.91946E-05-2.94348E-05-2.98785E-05-2.45716E-06-2.00280E-19-9.22186E-19
 -1      1849 9.85441E-05-2.92672E-05-2.96852E-05-2.19133E-06 8.04913E-20-7.04075E-19
 -1      1850 9.87699E-05-2.91095E-05-2.98627E-05-3.35052E-06-1.32531E-19 2.99053E-20
 -1      1851 9.81439E-05-2.91781E-05-2.95410E-05-1.88388E-06 4.01174E-20-6.50282E-19
 -1      1852 9.76420E-05-2.90539E-05-2.93904E-05-1.66680E-06 9.38469E-19-9.90491E-19
 -1      1853 9.78779E-05-2.89306E-05-2.95559E-05-2.59752E-06 3.99446E-20-4.07067E-19
 -1      1854 9.73286E-05-2.89874E-05-2.92762E-05-1.41774E-06 1.23010E-18-1.05013E-18
 -1      1855 9.69483E-05-2.88966E-05-2.91612E-05-1.24515E-06 3.85948E-19-9.48506E-19
 -1      1856 9.71761E-05-2.88050E-05-2.93080E-05-1.97616E-06 7.13354E-19-6.15893E-19
 -1      1857 9.67068E-05-2.88473E-05-2.90724E-05-1.04794E-06 2.57509E-19-2.32180E-20
 -1      1858 9.64237E-05-2.87819E-05-2.89861E-05-9.13494E-07 7.21721E-19 2.41144E-19
 -1      1859 9.66321E-05-2.87164E-05-2.91118E-05-1.47698E-06 9.88088E-19-8.87503E-20
 -1      1860 9.62407E-05-2.87459E-05-2.89184E-05-7.60187E-07 5.69941E-19 2.32876E-20
 -1      1861 9.60338E-05-2.86997E-05-2.88548E-05-6.57232E-07 9.95782E-19 6.38453E-19
 -1      1862 9.62168E-05-2.86544E-05-2.89595E-05-1.08417E-06 6.88590E-19 7.97222E-19
 -1      1863 9.58974E-05-2.86739E-05-2.88040E-05-5.39983E-07 1.06462E-18 4.96876E-19
 -1      1864 9.57492E-05-2.86422E-05-2.87580E-05-4.62387E-07 7.67131E-19 5.63507E-19
 -1      1865 9.59051E-05-2.86117E-05-2.88434E-05-7.80397E-07 9.99158E-19-5.80224E-19
 -1      1866 9.56495E-05-2.86241E-05-2.87206E-05-3.74115E-07 7.60886E-20-2.92485E-19
 -1      1867 9.55459E-05-2.86030E-05-2.86881E-05-3.16560E-07-7.03113E-19-1.22001E-19
 -1      1868 9.56753E-05-2.85832E-05-2.87564E-05-5.49222E-07 1.51828E-19-7.31467E-19
 -1      1869 9.54745E-05-2.85907E-05-2.86611E-05-2.51174E-07-1.25488E-18-1.89505E-19
 -1      1870 9.54042E-05-2.85773E-05-2.86388E-05-2.09214E-07-1.67620E-18 1.23395E-21
 -1      1871 9.55093E-05-2.85651E-05-2.86924E-05-3.76063E-07-7.20512E-19-6.04486E-19
 -1      1872 9.53544E-05-2.85693E-05-2.86198E-05-1.61633E-07-1.24830E-18 3.12328E-19
 -1      1873 9.53085E-05-2.85614E-05-2.86049E-05-1.31638E-07-1.63043E-19 2.76084E-19
 -1      1874 9.53921E-05-2.85544E-05-2.86463E-05-2.48515E-07-9.03198E-19 5.89206E-19
 -1      1875 9.52748E-05-2.85565E-05-2.85918E-05-9.77117E-08 8.08966E-19-1.00137E-19
 -1      1876 9.52464E-05-2.85524E-05-2.85824E-05-7.67651E-08 1.47928E-18 3.43583E-19
 -1      1877 9.53118E-05-2.85489E-05-2.86139E-05-1.56297E-07 2.88245E-19 5.95193E-19
 -1      1878 9.52246E-05-2.85497E-05-2.85737E-05-5.31589E-08 1.05240E-18-8.62601E-20
 -1      1879 9.52085E-05-2.85482E-05-2.85682E-05-3.89545E-08 2.04901E-19 1.94378E-19
 -1      1880 9.52587E-05-2.85470E-05-2.85916E-05-9.10496E-08 8.39988E-19-1.76837E-19
 -1      1881 9.51953E-05-2.85470E-05-2.85627E-05-2.30272E-08-7.54605E-19 1.50339E-19
 -1      1882 9.51876E-05-2.85471E-05-2.85598E-05-1.37634E-08-7.89094E-19 3.03097E-19
 -1      1883 9.52254E-05-2.85473E-05-2.85770E-05-4.60874E-08 2.50111E-19-4.96430E-19
 -1      1884 9.51803E-05-2.85469E-05-2.85566E-05-3.45229E-09-9.67178E-19 2.32687E-19
 -1      1885 9.51782E-05-2.85480E-05-2.85555E-05 2.25950E-09-7.18038E-19 8.01218E-20
 -1      1886 9.52062E-05-2.85489E-05-2.85678E-05-1.61368E-08-6.62570E-19-4.80687E-19
 -1      1887 9.51750E-05-2.85484E-05-2.85539E-05 8.54367E-09-3.76543E-19-3.50715E-20
 -1      1888 9.51763E-05-2.85500E-05-2.85540E-05 1.17593E-08-3.25901E-19 5.65713E-20
 -1      1889 9.51966E-05-2.85514E-05-2.85625E-05 2.90398E-09-4.85600E-19-6.03244E-19
 -1      1890 9.51757E-05-2.85507E-05-2.85534E-05 1.52242E-08-6.80429E-19-7.40125E-19
 -1      1891 9.51791E-05-2.85526E-05-2.85541E-05 1.67352E-08-1.84466E-19-8.52236E-19
 -1      1892 9.51934E-05-2.85541E-05-2.85599E-05 1.41819E-08-7.22959E-19-2.62595E-19
 -1      1893 9.51802E-05-2.85535E-05-2.85542E-05 1.82846E-08-4.30542E-19-9.30162E-19
 -1      1894 9.51845E-05-2.85553E-05-2.85553E-05 1.86744E-08-1.12597E-18-1.65760E-18
 -1      1895 9.51943E-05-2.85568E-05-2.85591E-05 2.00766E-08-7.53463E-19-2.01726E-18
 -1      1896 9.51865E-05-2.85562E-05-2.85558E-05 1.89735E-08-1.55631E-18-1.28347E-18
 -1      1897 9.51912E-05-2.85580E-05-2.85570E-05 1.86644E-08-1.39104E-18-1.42805E-18
 -1      1898 9.51976E-05-2.85594E-05-2.85593E-05 2.23595E-08-1.08580E-18-1.62847E-18
 -1      1899 9.51936E-05-2.85589E-05-2.85578E-05 1.81928E-08-1.87046E-18-1.62602E-18
 -1      1900 9.51982E-05-2.85604E-05-2.85590E-05 1.74837E-08-1.45639E-18-2.74177E-18
 -1      1901 9.52022E-05-2.85617E-05-2.85602E-05 2.23255E-08-1.58180E-18-2.79723E-19
 -1      1902 9.52007E-05-2.85613E-05-2.85598E-05 1.65795E-08 3.89010E-19-2.52011E-18
 -1      1903 9.52049E-05-2.85626E-05-2.85610E-05 1.56758E-08 2.12779E-19-2.08950E-18
 -1      1904 9.52072E-05-2.85637E-05-2.85615E-05 2.09016E-08-6.61178E-19 4.98332E-20
 -1      1905 9.52073E-05-2.85633E-05-2.85618E-05 1.45701E-08-5.15563E-19-1.32222E-18
 -1      1906 9.52111E-05-2.85645E-05-2.85628E-05 1.36080E-08 1.96175E-19-8.21797E-19
 -1      1907 9.52122E-05-2.85654E-05-2.85629E-05 1.87345E-08 4.21706E-19-2.41679E-19
 -1      1908 9.52133E-05-2.85651E-05-2.85636E-05 1.24527E-08 4.95206E-19-3.49458E-19
 -1      1909 9.52166E-05-2.85661E-05-2.85645E-05 1.15176E-08 7.23759E-19-4.90391E-21
 -1      1910 9.52168E-05-2.85668E-05-2.85643E-05 1.62609E-08 6.94510E-19 2.19829E-18
 -1      1911 9.52185E-05-2.85666E-05-2.85652E-05 1.04065E-08 4.73579E-19-4.92514E-19
 -1      1912 9.52213E-05-2.85674E-05-2.85660E-05 9.54731E-09 9.46135E-19-4.37405E-19
 -1      1913 9.52210E-05-2.85679E-05-2.85656E-05 1.37622E-08 5.14989E-19 2.46039E-18
 -1      1914 9.52229E-05-2.85678E-05-2.85665E-05 8.53286E-09 3.51598E-19-4.82782E-19
 -1      1915 9.52252E-05-2.85684E-05-2.85672E-05 7.77254E-09 7.73341E-19 1.45610E-19
 -1      1916 9.52246E-05-2.85688E-05-2.85667E-05 1.14073E-08 1.02007E-18 2.52836E-18
 -1      1917 9.52266E-05-2.85688E-05-2.85677E-05 6.87743E-09 1.00140E-18 9.20962E-21
 -1      1918 9.52284E-05-2.85693E-05-2.85682E-05 6.22081E-09 9.59692E-19 2.85396E-19
 -1      1919 9.52276E-05-2.85696E-05-2.85677E-05 9.28404E-09 2.02623E-19 1.86189E-18
 -1      1920 9.52295E-05-2.85695E-05-2.85686E-05 5.44711E-09 8.12965E-19 7.20630E-21
 -1      1921 9.52310E-05-2.85699E-05-2.85690E-05 4.88600E-09 1.57110E-18 1.46083E-18
 -1      1922 9.52301E-05-2.85701E-05-2.85686E-05 7.42354E-09 7.72268E-19 2.27928E-19
 -1      1923 9.52319E-05-2.85702E-05-2.85694E-05 4.22113E-09 1.35955E-18 3.36350E-19
 -1      1924 9.52331E-05-2.85705E-05-2.85697E-05 3.73778E-09 8.38531E-19 1.21759E-19
 -1      1925 9.52322E-05-2.85706E-05-2.85692E-05 5.81696E-09 8.17680E-19 1.51523E-18
 -1      1926 9.52338E-05-2.85706E-05-2.85699E-05 3.15953E-09 6.41730E-20-4.99818E-19
 -1      1927 9.52346E-05-2.85709E-05-2.85702E-05 2.73052E-09-2.13288E-19-3.98142E-19
 -1      1928 9.52338E-05-2.85710E-05-2.85698E-05 4.42775E-09 5.29980E-19-5.46943E-19
 -1      1929 9.52352E-05-2.85710E-05-2.85704E-05 2.21274E-09 1.20563E-19-1.07485E-18
 -1      1930 9.52358E-05-2.85712E-05-2.85706E-05 1.81508E-09 1.38656E-19-1.08538E-18
 -1      1931 9.52351E-05-2.85713E-05-2.85702E-05 3.20564E-09-9.71830E-19-1.21615E-18
 -1      1932 9.52362E-05-2.85713E-05-2.85707E-05 1.36481E-09-2.74205E-20-1.17181E-18
 -1      1933 9.52366E-05-2.85714E-05-2.85708E-05 1.00338E-09 1.39245E-19-1.14301E-18
 -1      1934 9.52367E-05-2.85716E-05-2.85708E-05 1.20057E-09-4.57158E-21-2.00560E-18
 -1      1935 9.52361E-05-2.85715E-05-2.85705E-05 2.13010E-09 1.64529E-19-2.29262E-18
 -1      1936 1.05506E-04-3.12447E-05-3.17833E-05 8.36443E-06 1.42517E-18 3.02537E-18
 -1      1937 1.08753E-04-3.21727E-05-3.27629E-05 8.94253E-06 1.71662E-18 3.68862E-18
 -1      1938 1.10359E-04-3.21244E-05-3.35096E-05 1.16802E-05 2.18525E-18 2.54412E-18
 -1      1939 1.00593E-04-2.93967E-05-3.04678E-05 6.80917E-06 1.38449E-18 2.03804E-18
 -1      1940 1.03199E-04-3.03813E-05-3.11497E-05 7.47883E-06 1.17964E-18 2.55495E-18
 -1      1941 1.05464E-04-3.07838E-05-3.19981E-05 9.74600E-06 1.60327E-18 1.71692E-18
 -1      1942 9.69493E-05-2.77818E-05-2.96172E-05 4.13340E-06 1.19406E-18 1.35224E-18
 -1      1943 9.87693E-05-2.85265E-05-3.00541E-05 5.35379E-06 1.36223E-18 1.86508E-18
 -1      1944 1.01255E-04-2.88983E-05-3.10298E-05 7.19058E-06 1.50718E-18 1.21459E-18
 -1      1945 9.52580E-05-2.70687E-05-2.92202E-05 5.27783E-07 9.16873E-19 6.22556E-19
 -1      1946 9.60093E-05-2.73058E-05-2.93948E-05 2.17118E-06 1.02266E-18 1.00106E-18
 -1      1947 9.84410E-05-2.74831E-05-3.04527E-05 3.36519E-06 1.31117E-18 4.94432E-19
 -1      1948 9.57698E-05-2.75235E-05-2.92559E-05-2.96791E-06 6.87380E-19 5.34690E-21
 -1      1949 9.53678E-05-2.71852E-05-2.91722E-05-1.38993E-06 6.52665E-19 3.01061E-19
 -1      1950 9.75828E-05-2.72221E-05-3.01974E-05-1.04549E-06 9.57041E-19-1.15880E-19
 -1      1951 9.80047E-05-2.88668E-05-2.96341E-05-5.21620E-06 6.39503E-19-6.78672E-19
 -1      1952 9.67037E-05-2.81299E-05-2.93502E-05-4.20805E-06 6.27407E-19-2.52204E-19
 -1      1953 9.86204E-05-2.81863E-05-3.02067E-05-4.69335E-06 7.08775E-19-5.02066E-19
 -1      1954 1.00933E-04-3.04481E-05-3.02006E-05-5.69797E-06 9.08190E-19-1.12888E-18
 -1      1955 9.92409E-05-2.96251E-05-2.98181E-05-5.46578E-06 9.19738E-19-7.62336E-19
 -1      1956 1.00804E-04-2.98485E-05-3.04083E-05-6.49273E-06 1.02221E-18-8.15402E-19
 -1      1957 1.03545E-04-3.16917E-05-3.07775E-05-4.69788E-06 2.31743E-20-1.14159E-18
 -1      1958 1.01977E-04-3.10403E-05-3.04073E-05-5.10242E-06 4.27758E-19-1.20637E-18
 -1      1959 1.03113E-04-3.14418E-05-3.07058E-05-6.26542E-06 5.59457E-19-9.36034E-19
 -1      1960 1.05244E-04-3.23495E-05-3.12214E-05-2.93177E-06 2.96296E-19-1.45693E-18
 -1      1961 1.04136E-04-3.19795E-05-3.09462E-05-3.66297E-06-1.13337E-19-1.27230E-18
 -1      1962 1.04796E-04-3.24534E-05-3.09948E-05-4.62573E-06 6.41032E-20-1.62585E-18
 -1      1963 1.05893E-04-3.24599E-05-3.14561E-05-1.08985E-06 5.72068E-19-1.52874E-18
 -1      1964 1.05357E-04-3.23572E-05-3.13141E-05-1.85665E-06 6.04351E-19-1.27622E-18
 -1      1965 1.05563E-04-3.27750E-05-3.11913E-05-2.44415E-06 5.10569E-19-1.79866E-18
 -1      1966 1.05653E-04-3.21946E-05-3.14732E-05 4.01347E-07 2.11053E-19-1.64419E-18
 -1      1967 1.05634E-04-3.22853E-05-3.14615E-05-2.22866E-07 4.01940E-19-1.33238E-18
 -1      1968 1.05480E-04-3.25657E-05-3.12500E-05-4.11844E-07 4.96285E-19-1.07469E-18
 -1      1969 1.04799E-04-3.17324E-05-3.13110E-05 1.39212E-06-5.93601E-19-1.74552E-18
 -1      1970 1.05159E-04-3.19352E-05-3.14018E-05 9.73579E-07-2.43922E-19-1.76932E-18
 -1      1971 1.04778E-04-3.20616E-05-3.11670E-05 1.11284E-06-9.85404E-20-1.21540E-18
 -1      1972 1.03603E-04-3.12044E-05-3.10282E-05 1.91360E-06 7.41708E-20-1.51320E-18
 -1      1973 1.04191E-04-3.14553E-05-3.11848E-05 1.68914E-06-2.00398E-19-1.45477E-18
 -1      1974 1.03707E-04-3.14551E-05-3.09685E-05 2.05152E-06-3.40302E-19-1.20840E-18
 -1      1975 1.02279E-04-3.06895E-05-3.06830E-05 2.07586E-06 4.17208E-19-1.90235E-18
 -1      1976 1.02966E-04-3.09461E-05-3.08714E-05 2.00098E-06 2.02604E-19-1.82692E-18
 -1      1977 1.02477E-04-3.08631E-05-3.06943E-05 2.48477E-06 2.90311E-19-1.60431E-18
 -1      1978 1.00974E-04-3.02276E-05-3.03222E-05 2.00123E-06 2.64507E-19-2.65268E-18
 -1      1979 1.01669E-04-3.04654E-05-3.05164E-05 2.02589E-06 7.63060E-19-1.98729E-18
 -1      1980 1.01232E-04-3.03409E-05-3.03842E-05 2.55049E-06 6.69079E-19-2.11686E-18
 -1      1981 9.97780E-05-2.98341E-05-2.99782E-05 1.79272E-06 8.82370E-20-2.57349E-18
 -1      1982 1.00424E-04-3.00413E-05-3.01609E-05 1.87447E-06-1.69062E-19-2.85129E-18
 -1      1983 1.00066E-04-2.99059E-05-3.00706E-05 2.38452E-06 1.40467E-19-2.18353E-18
 -1      1984 9.87366E-05-2.95108E-05-2.96699E-05 1.52511E-06 4.52100E-19-2.54468E-18
 -1      1985 9.93021E-05-2.96837E-05-2.98316E-05 1.63288E-06 4.54469E-19-2.46063E-18
 -1      1986 9.90300E-05-2.95564E-05-2.97762E-05 2.09537E-06 1.97388E-19-2.60721E-18
 -1      1987 9.78643E-05-2.92527E-05-2.94061E-05 1.24697E-06-4.06161E-19-2.66063E-18
 -1      1988 9.83385E-05-2.93921E-05-2.95429E-05 1.36039E-06-2.10956E-20-2.62008E-18
 -1      1989 9.81449E-05-2.92826E-05-2.95141E-05 1.75938E-06 1.14057E-19-2.45105E-18
 -1      1990 9.71566E-05-2.90515E-05-2.91885E-05 9.86587E-07 2.97002E-19-2.88570E-18
 -1      1991 9.75405E-05-2.91608E-05-2.93001E-05 1.09366E-06-3.34075E-19-2.54498E-18
 -1      1992 9.74127E-05-2.90723E-05-2.92904E-05 1.42482E-06-3.62256E-19-2.60583E-18
 -1      1993 9.65981E-05-2.88984E-05-2.90144E-05 7.58101E-07-7.23104E-19-1.85573E-18
 -1      1994 9.68998E-05-2.89817E-05-2.91027E-05 8.52687E-07 2.79041E-20-2.09088E-18
 -1      1995 9.68235E-05-2.89139E-05-2.91057E-05 1.11891E-06-3.11560E-19-1.72785E-18
 -1      1996 9.61687E-05-2.87844E-05-2.88790E-05 5.66529E-07-4.17780E-19-2.90778E-18
 -1      1997 9.63993E-05-2.88463E-05-2.89468E-05 6.46299E-07-5.91048E-19-2.28539E-18
 -1      1998 9.63610E-05-2.87967E-05-2.89576E-05 8.54398E-07-3.82787E-19-1.39527E-18
 -1      1999 9.58466E-05-2.87015E-05-2.87762E-05 4.11481E-07 2.04971E-19-2.68249E-18
 -1      2000 9.60182E-05-2.87464E-05-2.88271E-05 4.76402E-07-1.63561E-19-2.89403E-18
 -1      2001 9.60065E-05-2.87117E-05-2.88419E-05 6.34851E-07-2.07812E-19-2.61030E-18
 -1      2002 9.56112E-05-2.86430E-05-2.87004E-05 2.89658E-07 3.35011E-19-1.85829E-18
 -1      2003 9.57354E-05-2.86745E-05-2.87374E-05 3.40951E-07 2.32520E-19-2.40211E-18
 -1      2004 9.57411E-05-2.86516E-05-2.87538E-05 4.58493E-07 1.60010E-19-2.01223E-18
 -1      2005 9.54440E-05-2.86029E-05-2.86458E-05 1.96468E-07 1.51527E-19-1.84817E-18
 -1      2006 9.55311E-05-2.86243E-05-2.86720E-05 2.35935E-07 5.67271E-19-1.71329E-18
 -1      2007 9.55474E-05-2.86102E-05-2.86883E-05 3.20764E-07 4.62882E-19-8.83166E-19
 -1      2008 9.53292E-05-2.85767E-05-2.86079E-05 1.27003E-07 8.24686E-19-1.58968E-18
 -1      2009 9.53881E-05-2.85904E-05-2.86258E-05 1.56610E-07 1.46827E-19-1.90821E-18
 -1      2010 9.54098E-05-2.85829E-05-2.86409E-05 2.15960E-07 2.65580E-19-7.57757E-19
 -1      2011 9.52537E-05-2.85605E-05-2.85825E-05 7.65898E-08-1.18735E-19-9.16747E-19
 -1      2012 9.52916E-05-2.85687E-05-2.85942E-05 9.82337E-08 4.42048E-19-9.02371E-19
 -1      2013 9.53152E-05-2.85656E-05-2.86076E-05 1.38223E-07 2.42816E-19-7.17824E-20
 -1      2014 9.52069E-05-2.85513E-05-2.85664E-05 4.10672E-08 2.44314E-19-1.25115E-18
 -1      2015 9.52295E-05-2.85558E-05-2.85735E-05 5.64513E-08 2.40848E-19-1.13600E-18
 -1      2016 9.52529E-05-2.85556E-05-2.85851E-05 8.20898E-08 2.66286E-20 1.03206E-19
 -1      2017 9.51805E-05-2.85471E-05-2.85569E-05 1.68989E-08-2.39444E-19-2.64471E-18
 -1      2018 9.51924E-05-2.85489E-05-2.85608E-05 2.74817E-08-1.61578E-19-2.18277E-18
 -1      2019 9.52141E-05-2.85505E-05-2.85705E-05 4.27567E-08 3.42564E-19-1.04082E-18
 -1      2020 9.51681E-05-2.85461E-05-2.85521E-05 1.18107E-09-1.89107E-19-2.71540E-18
 -1      2021 9.51729E-05-2.85462E-05-2.85538E-05 8.16761E-09-3.79592E-20-3.02004E-18
 -1      2022 9.51921E-05-2.85488E-05-2.85618E-05 1.61764E-08 7.66218E-20-2.14646E-18
 -1      2023 9.51651E-05-2.85471E-05-2.85504E-05-8.40421E-09 1.19527E-18-2.79188E-18
 -1      2024 9.51651E-05-2.85462E-05-2.85507E-05-4.04629E-09 4.08408E-19-2.61454E-18
 -1      2025 9.51817E-05-2.85492E-05-2.85570E-05-9.53871E-10 4.31478E-19-2.43096E-18
 -1      2026 9.51679E-05-2.85492E-05-2.85507E-05-1.36625E-08 1.29152E-18-3.02360E-18
 -1      2027 9.51651E-05-2.85477E-05-2.85501E-05-1.11751E-08 1.49663E-18-2.79193E-18
 -1      2028 9.51790E-05-2.85509E-05-2.85551E-05-1.12575E-08 1.29757E-18-2.28879E-18
 -1      2029 9.51740E-05-2.85519E-05-2.85522E-05-1.59684E-08-1.29457E-18-2.78950E-18
 -1      2030 9.51697E-05-2.85502E-05-2.85511E-05-1.47709E-08 1.54705E-19-3.06361E-18
 -1      2031 9.51811E-05-2.85532E-05-2.85549E-05-1.67693E-08 3.06534E-19-2.18027E-18
 -1      2032 9.51818E-05-2.85548E-05-2.85543E-05-1.63451E-08-7.08123E-19-1.99348E-18
 -1      2033 9.51768E-05-2.85530E-05-2.85530E-05-1.60025E-08-1.37511E-18-2.99302E-18
 -1      2034 9.51859E-05-2.85557E-05-2.85559E-05-1.90326E-08-1.40904E-18-1.44227E-18
 -1      2035 9.51901E-05-2.85576E-05-2.85567E-05-1.55357E-08-6.54692E-19-2.88902E-19
 -1      2036 9.51850E-05-2.85559E-05-2.85553E-05-1.57298E-08-6.42149E-19-4.86857E-19
 -1      2037 9.51922E-05-2.85582E-05-2.85575E-05-1.91912E-08-1.57768E-18 3.75330E-19
 -1      2038 9.51981E-05-2.85601E-05-2.85591E-05-1.40657E-08-3.80764E-19-7.42743E-19
 -1      2039 9.51933E-05-2.85586E-05-2.85577E-05-1.45697E-08-3.48677E-19-1.53985E-19
 -1      2040 9.51989E-05-2.85606E-05-2.85593E-05-1.80727E-08-5.34642E-19 1.62032E-18
 -1      2041 9.52055E-05-2.85624E-05-2.85613E-05-1.22950E-08-5.21282E-19-2.58572E-19
 -1      2042 9.52012E-05-2.85611E-05-2.85601E-05-1.29519E-08-4.44316E-19-1.80663E-19
 -1      2043 9.52054E-05-2.85627E-05-2.85612E-05-1.62589E-08-4.96939E-19 1.66161E-18
 -1      2044 9.52121E-05-2.85644E-05-2.85633E-05-1.04592E-08 1.66044E-19-4.79797E-19
 -1      2045 9.52083E-05-2.85632E-05-2.85622E-05-1.11647E-08-3.04740E-19-8.43279E-19
 -1      2046 9.52114E-05-2.85645E-05-2.85630E-05-1.41459E-08 7.78963E-20 7.08242E-19
 -1      2047 9.52177E-05-2.85660E-05-2.85650E-05-8.70389E-09-3.32818E-20-4.92717E-20
 -1      2048 9.52145E-05-2.85651E-05-2.85641E-05-9.39235E-09 6.44155E-20 1.69929E-19
 -1      2049 9.52167E-05-2.85661E-05-2.85646E-05-1.19906E-08-5.23458E-20 1.06595E-18
 -1      2050 9.52225E-05-2.85673E-05-2.85665E-05-7.10912E-09 4.67301E-19-9.79276E-19
 -1      2051 9.52198E-05-2.85666E-05-2.85657E-05-7.74311E-09 2.39152E-19 1.38280E-20
 -1      2052 9.52213E-05-2.85674E-05-2.85660E-05-9.94891E-09 2.67736E-19 5.22102E-19
 -1      2053 9.52264E-05-2.85684E-05-2.85677E-05-5.70905E-09 1.06341E-18-2.00505E-18
 -1      2054 9.52242E-05-2.85678E-05-2.85671E-05-6.27135E-09 7.82872E-19-1.88174E-18
 -1      2055 9.52252E-05-2.85684E-05-2.85672E-05-8.10384E-09 1.14840E-18-3.51874E-19
 -1      2056 9.52295E-05-2.85693E-05-2.85687E-05-4.50530E-09 7.88989E-19-2.68234E-18
 -1      2057 9.52278E-05-2.85688E-05-2.85682E-05-4.99325E-09 1.02990E-18-2.61206E-18
 -1      2058 9.52284E-05-2.85692E-05-2.85682E-05-6.48695E-09 9.65795E-19-2.47588E-19
 -1      2059 9.52320E-05-2.85700E-05-2.85694E-05-3.47612E-09 4.72889E-19-1.52148E-18
 -1      2060 9.52306E-05-2.85696E-05-2.85690E-05-3.89801E-09 3.15435E-19-2.29755E-18
 -1      2061 9.52310E-05-2.85699E-05-2.85690E-05-5.09336E-09 2.64235E-19-4.73659E-20
 -1      2062 9.52339E-05-2.85705E-05-2.85700E-05-2.58266E-09-2.60969E-18-1.92062E-18
 -1      2063 9.52329E-05-2.85702E-05-2.85697E-05-2.95537E-09-1.59380E-18-2.11205E-18
 -1      2064 9.52330E-05-2.85704E-05-2.85697E-05-3.89228E-09-1.02662E-18 4.71963E-20
 -1      2065 9.52354E-05-2.85709E-05-2.85705E-05-1.77913E-09-3.21646E-19-5.77969E-19
 -1      2066 9.52346E-05-2.85707E-05-2.85703E-05-2.12350E-09-9.79720E-19-1.20246E-18
 -1      2067 9.52346E-05-2.85708E-05-2.85702E-05-2.83691E-09-1.69311E-18-7.06282E-19
 -1      2068 9.52363E-05-2.85712E-05-2.85708E-05-1.03074E-09 1.42500E-18-2.29024E-18
 -1      2069 9.52358E-05-2.85711E-05-2.85706E-05-1.36092E-09 1.72317E-19-1.21410E-18
 -1      2070 9.52358E-05-2.85712E-05-2.85705E-05-1.88031E-09 5.75896E-19-1.11041E-18
 -1      2071 9.52369E-05-2.85713E-05-2.85709E-05-5.01854E-10 2.71122E-19-1.97323E-18
 -1      2072 9.52366E-05-2.85713E-05-2.85708E-05-7.98545E-10 1.36592E-18-2.11431E-18
 -1      2073 9.52365E-05-2.85714E-05-2.85708E-05-1.16247E-09 7.93417E-19-8.95180E-19
 -1      2074 9.52369E-05-2.85715E-05-2.85709E-05-6.60957E-10-9.73932E-19 1.01917E-18
 -1      2075 9.52380E-05-2.85741E-05-2.85702E-05-2.12830E-09 4.08399E-19 1.43324E-18
 -1      2076 9.52377E-05-2.85735E-05-2.85704E-05-2.04961E-09-2.39480E-19 2.01172E-18
 -1      2077 9.52375E-05-2.85730E-05-2.85705E-05-1.87073E-09-5.14474E-19 1.88483E-18
 -1      2078 9.52372E-05-2.85725E-05-2.85706E-05-1.63664E-09-8.91872E-19 1.92586E-18
 -1      2079 9.52375E-05-2.85733E-05-2.85704E-05-2.53579E-09-5.80514E-19 2.06116E-18
 -1      2080 9.52371E-05-2.85721E-05-2.85707E-05-1.32970E-09-1.31745E-18 1.21968E-18
 -1      2081 9.52370E-05-2.85718E-05-2.85708E-05-1.01348E-09-1.07038E-18 1.22384E-18
 -1      2082 9.52368E-05-2.85717E-05-2.85707E-05-1.27443E-09 1.70032E-19 8.88365E-19
 -1      2083 9.52371E-05-2.85724E-05-2.85706E-05-1.98068E-09-7.41800E-20 1.59863E-18
 -1      2084 9.52385E-05-2.85752E-05-2.85700E-05-2.04655E-09 5.90837E-19-2.88509E-18
 -1      2085 9.52382E-05-2.85746E-05-2.85701E-05-2.11804E-09 7.93233E-19-2.17093E-19
 -1      2086 9.52381E-05-2.85744E-05-2.85702E-05-2.71297E-09 2.33387E-19 5.80631E-19
 -1      2087 9.52389E-05-2.85761E-05-2.85698E-05-1.65061E-09 7.01941E-19 5.49611E-19
 -1      2088 9.52387E-05-2.85756E-05-2.85699E-05-1.85517E-09 2.40042E-19-8.00680E-19
 -1      2089 9.52387E-05-2.85754E-05-2.85700E-05-2.47992E-09 5.50293E-19-1.44434E-18
 -1      2090 9.52392E-05-2.85767E-05-2.85696E-05-1.01073E-09 4.05876E-19 1.64568E-18
 -1      2091 9.52391E-05-2.85764E-05-2.85697E-05-1.31171E-09 9.46692E-19 8.84742E-19
 -1      2092 9.52391E-05-2.85762E-05-2.85698E-05-1.87814E-09 1.13274E-18 1.08733E-18
 -1      2093 9.52393E-05-2.85770E-05-2.85695E-05-2.25791E-10 4.74870E-19 1.02991E-18
 -1      2094 9.52393E-05-2.85769E-05-2.85696E-05-5.77171E-10 7.33358E-20 9.76876E-19
 -1      2095 9.52394E-05-2.85768E-05-2.85697E-05-1.00565E-09 5.82140E-20 1.01603E-18
 -1      2096 9.52393E-05-2.85769E-05-2.85696E-05 5.90980E-10-8.10784E-19-2.96593E-18
 -1      2097 9.52393E-05-2.85770E-05-2.85695E-05 2.40034E-10-7.54241E-20 1.21572E-18
 -1      2098 9.52395E-05-2.85770E-05-2.85697E-05 8.94052E-12-1.14418E-18 4.72207E-19
 -1      2099 9.52391E-05-2.85764E-05-2.85697E-05 1.32313E-09-5.69333E-19-5.02478E-18
 -1      2100 9.52392E-05-2.85767E-05-2.85696E-05 1.02362E-09-1.55742E-19-4.12712E-18
 -1      2101 9.52394E-05-2.85768E-05-2.85697E-05 1.02245E-09-9.96340E-19-3.57330E-18
 -1      2102 9.52387E-05-2.85756E-05-2.85699E-05 1.85539E-09 6.14391E-19 4.90780E-19
 -1      2103 9.52389E-05-2.85761E-05-2.85698E-05 1.65531E-09-1.66971E-19-2.63267E-18
 -1      2104 9.52391E-05-2.85762E-05-2.85698E-05 1.88600E-09-1.77405E-19-3.69251E-18
 -1      2105 9.52382E-05-2.85746E-05-2.85701E-05 2.11872E-09 1.13571E-18 3.60687E-18
 -1      2106 9.52385E-05-2.85752E-05-2.85700E-05 2.04722E-09 7.76736E-19 3.76475E-18
 -1      2107 9.52387E-05-2.85754E-05-2.85700E-05 2.48052E-09 1.20016E-18 1.52842E-18
 -1      2108 9.52377E-05-2.85735E-05-2.85704E-05 2.04568E-09 1.55298E-18 4.76240E-19
 -1      2109 9.52380E-05-2.85741E-05-2.85702E-05 2.12746E-09 1.79184E-18 1.95170E-18
 -1      2110 9.52381E-05-2.85744E-05-2.85702E-05 2.71316E-09 1.79889E-18 2.68859E-18
 -1      2111 9.52372E-05-2.85725E-05-2.85706E-05 1.63149E-09 1.62835E-18-2.40710E-18
 -1      2112 9.52375E-05-2.85730E-05-2.85705E-05 1.86279E-09 1.29791E-18-7.68251E-19
 -1      2113 9.52375E-05-2.85733E-05-2.85704E-05 2.52597E-09 1.56820E-18-1.66885E-19
 -1      2114 5.82435E-05-3.32497E-05-1.11350E-05 4.32133E-05 2.38948E-18 3.60807E-18
 -1      2115 4.16046E-05-3.41673E-05-4.53744E-06 3.41859E-05 2.21669E-18 4.81581E-18
 -1      2116 1.12090E-05-2.69421E-05 5.28295E-06 6.46383E-06 1.46886E-18 6.06137E-18
 -1      2117 1.14282E-05-2.83460E-05 5.60960E-06-3.57066E-06-2.27640E-19 6.62253E-18
 -1      2118 2.75934E-05-2.86788E-05-5.16899E-07 2.89196E-05 2.59954E-18 5.68634E-18
 -1      2119 1.88884E-05-2.88557E-05 2.87419E-06 1.94899E-05 1.30464E-18 5.28591E-18
 -1      2120 4.28013E-05-2.95177E-05-6.00335E-06 3.77840E-05-4.86409E-19 4.76837E-18
 -1      2121 9.97198E-05-3.78540E-05-2.63422E-05 4.47332E-05 4.26989E-18 2.15570E-18
 -1      2122 8.19960E-05-4.00791E-05-1.86613E-05 4.10167E-05 3.02264E-18 1.82705E-18
 -1      2123 1.32786E-04-3.82958E-05-4.00586E-05 3.64320E-05 4.03611E-18 6.16216E-19
 -1      2124 1.13021E-04-3.84137E-05-3.24376E-05 3.78164E-05 4.40965E-18 1.69534E-18
 -1      2125 1.18404E-04-4.91091E-05-2.94339E-05 3.43596E-05 1.28071E-18-1.14519E-18
 -1      2126 8.61653E-05-1.40099E-05-3.10504E-05 6.84591E-07-2.16417E-19-2.59981E-18
 -1      2127 9.52185E-05-1.66337E-05-3.36802E-05-2.86130E-06-6.65874E-19-1.98928E-18
 -1      2128 1.03479E-04-2.39974E-05-3.41761E-05-4.96575E-06-8.48595E-19-1.14844E-18
 -1      2129 1.70345E-04-2.42514E-05-6.17247E-05 1.14585E-05 6.00419E-18-2.99934E-18
 -1      2130 1.62669E-04-2.57671E-05-5.80879E-05 1.80607E-05 5.67872E-18-1.27817E-18
 -1      2131 1.74591E-04-2.27499E-05-6.40966E-05 1.74960E-06 7.04096E-18-4.63983E-18
 -1      2132 1.70464E-04-2.05700E-05-6.35695E-05 8.65980E-06 6.71697E-18-3.26563E-18
 -1      2133 1.63828E-04-2.39967E-05-5.96956E-05-6.80576E-06 7.48692E-18-5.51673E-18
 -1      2134 1.74985E-04-2.49975E-05-6.31326E-05-9.80647E-07 7.11317E-18-4.67795E-18
 -1      2135 1.53011E-04-1.25155E-05-5.91813E-05 5.02104E-06 7.36665E-18-3.04582E-18
 -1      2136 1.44567E-04-3.11285E-05-4.87950E-05-1.48481E-05 6.73203E-18-5.50487E-18
 -1      2137 1.60227E-04-3.02708E-05-5.49798E-05-1.12090E-05 7.16251E-18-5.22111E-18
 -1      2138 1.13887E-04-3.28050E-05-3.51950E-05-3.10454E-05 6.49717E-18-7.05197E-18
 -1      2139 1.34261E-04-3.48045E-05-4.25343E-05-2.78851E-05 6.63142E-18-6.49208E-18
 -1      2140 7.39025E-05-2.62210E-05-2.13695E-05-3.75601E-05 5.89027E-18-7.89774E-18
 -1      2141 9.50767E-05-2.94019E-05-2.83273E-05-4.00713E-05 6.24517E-18-7.69635E-18
 -1      2142 4.12959E-05-1.90059E-05-1.04737E-05-3.37349E-05 3.60201E-18-7.63489E-18
 -1      2143 5.68330E-05-2.02900E-05-1.60355E-05-3.95754E-05 5.72425E-18-8.35423E-18
 -1      2144 7.62629E-05-2.92955E-05-2.01939E-05-3.82477E-05 2.10848E-18-6.39595E-18
 -1      2145 1.51854E-05-1.13311E-05-2.53779E-06-2.08078E-05 8.97855E-19-7.88207E-18
 -1      2146 2.47789E-05-1.13143E-05-6.15682E-06-2.95289E-05 2.87017E-18-8.14083E-18
 -1      2147 5.85875E-06-8.14732E-06 2.73205E-07-3.18969E-06-1.34116E-18-8.14803E-18
 -1      2148 7.63796E-06-8.25727E-06-4.15904E-07-1.23718E-05 1.02724E-18-8.11458E-18
 -1      2149 1.56016E-05-1.29005E-05-2.02078E-06 1.64982E-05-3.75786E-18-8.21537E-18
 -1      2150 8.58153E-06-1.08197E-05 3.23502E-09 7.44366E-06-1.44589E-18-7.92780E-18
 -1      2151 4.61637E-05-2.19460E-05-1.09067E-05 3.22809E-05-4.81326E-18-8.14105E-18
 -1      2152 3.00687E-05-1.91463E-05-5.81321E-06 2.37934E-05-3.33858E-18-7.95449E-18
 -1      2153 8.94156E-05-3.41103E-05-2.40581E-05 3.67064E-05-6.80676E-18-8.16900E-18
 -1      2154 6.71611E-05-3.09562E-05-1.66346E-05 3.22681E-05-5.50868E-18-7.68682E-18
 -1      2155 1.33843E-04-4.04574E-05-3.97823E-05 2.91833E-05-7.53012E-18-7.63643E-18
 -1      2156 1.10943E-04-3.90523E-05-3.16199E-05 2.85045E-05-6.78389E-18-7.28448E-18
 -1      2157 1.62542E-04-3.85168E-05-5.27656E-05 1.07543E-05-7.17162E-18-5.02248E-18
 -1      2158 1.45767E-04-3.86726E-05-4.59378E-05 1.86164E-05-7.66290E-18-6.90755E-18
 -1      2159 1.78713E-04-2.88944E-05-6.29017E-05-1.53736E-06-7.51276E-18-3.99567E-18
 -1      2160 1.66605E-04-2.96122E-05-5.83229E-05 1.94458E-06-7.56422E-18-4.78320E-18
 -1      2161 1.86388E-04-2.66729E-05-6.68049E-05-8.76108E-06-7.33912E-18-2.17995E-18
 -1      2162 1.82983E-04-2.62412E-05-6.59937E-05-2.09902E-06-7.41450E-18-3.91139E-18
 -1      2163 1.73513E-04-2.57446E-05-6.25270E-05-1.44012E-05-7.34547E-18-3.63377E-19
 -1      2164 1.84342E-04-2.73216E-05-6.55624E-05-1.07092E-05-7.37596E-18-1.77369E-18
 -1      2165 1.58177E-04-3.42672E-05-5.27961E-05-2.19743E-05-6.59357E-18 1.00077E-18
 -1      2166 1.68744E-04-3.23316E-05-5.76508E-05-1.59460E-05-6.59288E-18-5.09067E-19
 -1      2167 1.36279E-04-3.89455E-05-4.19882E-05-3.11432E-05-5.58682E-18 2.57922E-18
 -1      2168 1.53827E-04-3.84522E-05-4.86750E-05-2.94272E-05-5.85289E-18 1.38532E-18
 -1      2169 1.53672E-04-4.01265E-05-4.78875E-05-8.68839E-06-4.89103E-18-1.66738E-18
 -1      2170 1.05390E-04-4.25563E-05-2.77248E-05-3.83757E-05-3.92812E-18 3.80995E-18
 -1      2171 1.24364E-04-4.17622E-05-3.49572E-05-3.97955E-05-4.63751E-18 3.62276E-18
 -1      2172 7.43567E-05-4.06696E-05-1.52991E-05-4.01044E-05-2.06253E-18 4.62904E-18
 -1      2173 9.13825E-05-3.98541E-05-2.21116E-05-4.42838E-05-3.51349E-18 5.10274E-18
 -1      2174 1.13245E-04-5.23578E-05-2.61211E-05-3.67328E-05-6.14099E-20 1.54859E-18
 -1      2175 3.54489E-05-3.41910E-05-2.20993E-06-2.96947E-05-1.59115E-18 5.89556E-18
 -1      2176 4.94745E-05-3.27105E-05-7.96097E-06-3.90568E-05-2.54999E-18 5.49105E-18
 -1      2177 1.62825E-05-2.99041E-05 4.15018E-06-1.41834E-05 2.21499E-19 6.55731E-18
 -1      2178 2.30348E-05-2.90727E-05 1.33885E-06-2.33164E-05-1.48951E-18 6.44910E-18
 -1      2179 1.59155E-04-3.19524E-05-5.35832E-05 2.39060E-05 4.90781E-18-7.43695E-19
 -1      2180 1.43291E-04-3.31992E-05-4.71444E-05 2.62989E-05 4.71376E-18 1.18585E-19
 -1      2181 1.41277E-04-4.25406E-05-4.17986E-05 1.96578E-05 2.94651E-18-2.10827E-18
 -1      2182 1.30611E-04-3.70808E-05-4.02470E-05-1.33641E-05-1.98914E-18 3.85744E-18
 -1      2183 1.50529E-04-2.29509E-05-5.41595E-05 4.28316E-06 6.56683E-18-2.38842E-18
 -1      2184 8.37983E-05-1.59259E-05-2.91793E-05 3.65483E-06 8.42798E-20-2.79182E-18
 -1      2185 1.28066E-04-3.70461E-05-3.90603E-05-1.55497E-05-2.00973E-18 2.58005E-18
 -1      2186 1.85553E-05-2.09081E-05 3.45176E-07 1.65267E-05-9.63500E-20 6.38790E-18
 -1      2187 8.14016E-05-4.28708E-05-1.65593E-05 4.36473E-05 5.92923E-20 1.19585E-18
 -1      2188 9.52370E-05-2.85722E-05-2.85707E-05 1.54134E-09 1.00933E-18-2.32649E-18
 -1      2189 1.63386E-05-2.07474E-05 1.08598E-06-1.15988E-05 5.55336E-19 7.24552E-18
 -1      2190 1.51767E-04-2.72813E-05-5.25558E-05 6.71544E-06 5.14742E-18-2.93095E-18
 -1      2191 7.37295E-05-4.16266E-05-1.39120E-05-4.30689E-05 2.27852E-19 4.13070E-18
 -1      2192 1.39621E-04-5.08192E-05-3.76778E-05-2.31499E-05-2.54068E-18-4.11658E-19
 -1      2193 1.59983E-04-2.63454E-05-5.64197E-05-2.88580E-06-6.82878E-18-2.19763E-18
 -1      2194 1.64919E-04-1.69472E-05-6.20331E-05-4.94571E-06-8.18954E-18-2.36555E-18
 -1      2195 1.61932E-04-1.88980E-05-6.03408E-05-8.80192E-06-7.84945E-18-2.30965E-18
 -1      2196 1.57213E-04-3.29033E-05-5.25817E-05-5.81897E-06-6.58949E-18-2.12902E-18
 -1      2197 1.43789E-04-4.56802E-05-4.15011E-05 9.28016E-06-5.22503E-18-3.29157E-18
 -1      2198 1.11636E-04-4.46126E-05-2.87140E-05 2.66756E-05-3.71805E-18-5.05213E-18
 -1      2199 6.66764E-05-3.00771E-05-1.58998E-05 3.28700E-05-1.99307E-18-6.81401E-18
 -1      2200 2.89764E-05-1.28465E-05-7.13806E-06 2.38765E-05-1.32497E-18-8.26365E-18
 -1      2201 9.53411E-06-3.01227E-06-3.08026E-06 2.90089E-06-8.40680E-19-8.99655E-18
 -1      2202 4.02404E-05-1.54325E-05-1.08189E-05-3.46522E-05 4.59939E-19-7.74516E-18
 -1      2203 1.12436E-04-3.80792E-05-3.16661E-05-2.89376E-05 3.58380E-18-4.88611E-18
 -1      2204 1.53836E-04-1.48921E-05-5.86692E-05 3.82645E-06 6.74365E-18-3.43557E-18
 -1      2205 1.40008E-04-3.59417E-05-4.41995E-05-9.46812E-06 4.88851E-18-2.93793E-18
 -1      2206 1.48868E-05-3.61956E-06-4.98080E-06-1.95692E-05-4.52739E-19-8.83646E-18
 -1      2207 3.54042E-05-2.83595E-05-3.63395E-06-3.23180E-05 8.09340E-19 6.21045E-18
 -1      2208 1.10653E-04-3.19136E-05-3.37319E-05 1.34129E-05 2.01250E-18 1.52715E-18
 -1      2209 1.13243E-04-3.22783E-05-3.46145E-05 1.45616E-05 2.20885E-18 1.75648E-18
 -1      2210 3.38198E-05 7.75371E-06-1.76902E-05 5.13187E-06 8.75620E-20-6.27302E-18
 -1      2211 4.23646E-05 3.40320E-06-1.91900E-05 9.02812E-06 5.93042E-19-5.83082E-18
 -1      2212 5.54041E-05-4.61033E-06-2.18131E-05 1.19154E-05 8.92548E-19-4.71829E-18
 -1      2213 6.89380E-05-1.11343E-05-2.44006E-05 1.14424E-05 7.96687E-19-4.07365E-18
 -1      2214 4.94669E-05-3.79679E-06-1.92141E-05 1.43451E-05 8.79114E-19-5.54590E-18
 -1      2215 4.76369E-05 1.20182E-08-1.99758E-05-1.94586E-05-2.46603E-18-5.69169E-18
 -1      2216 3.74304E-05 5.27052E-06-1.82805E-05-1.67081E-05-2.01446E-18-6.13644E-18
 -1      2217 7.26903E-05-1.37566E-05-2.49614E-05-1.79866E-05-2.42688E-18-4.27160E-18
 -1      2218 6.05337E-05-7.86931E-06-2.26162E-05-2.00247E-05-2.55870E-18-4.71480E-18
 -1      2219 5.49009E-05-7.09174E-06-2.02567E-05-2.35793E-05-2.64317E-18-5.35642E-18
 -1      2220 9.25208E-05-2.29639E-05-2.97451E-05-8.19529E-06-1.48356E-18-2.97367E-18
 -1      2221 8.37534E-05-1.93594E-05-2.76048E-05-1.28572E-05-2.09917E-18-3.42078E-18
 -1      2222 8.16853E-05-2.10969E-05-2.59516E-05-1.77659E-05-2.35576E-18-3.54970E-18
 -1      2223 1.03552E-04-2.61423E-05-3.32788E-05 2.85072E-06-1.40674E-19-2.42802E-18
 -1      2224 9.89020E-05-2.49106E-05-3.16943E-05-1.86279E-06-8.35942E-19-2.54525E-18
 -1      2225 9.96690E-05-2.82941E-05-3.06620E-05-5.28215E-06-1.15645E-18-2.20832E-18
 -1      2226 1.08473E-04-2.60317E-05-3.55045E-05 1.15317E-05 9.97891E-19-2.14201E-18
 -1      2227 1.06452E-04-2.60107E-05-3.44770E-05 7.84034E-06 3.95889E-19-2.35802E-18
 -1      2228 1.08530E-04-2.97493E-05-3.37787E-05 6.22052E-06 1.65593E-19-1.80099E-18
 -1      2229 1.10736E-04-2.55129E-05-3.67140E-05 1.71097E-05 2.12364E-18-1.13984E-18
 -1      2230 1.09767E-04-2.55874E-05-3.61140E-05 1.45887E-05 1.40532E-18-1.63465E-18
 -1      2231 1.11836E-04-2.89115E-05-3.54850E-05 1.38779E-05 1.25916E-18-1.44506E-18
 -1      2232 1.15603E-04-2.92176E-05-3.70516E-05 1.82084E-05 2.69816E-18 1.91999E-18
 -1      2233 1.13541E-04-2.66748E-05-3.73600E-05 1.94990E-05 2.83354E-18 8.37927E-19
 -1      2234 1.11984E-04-2.55634E-05-3.71287E-05 1.85894E-05 2.43626E-18-3.01650E-19
 -1      2235 1.13722E-04-3.09474E-05-3.55694E-05 1.56558E-05 2.52388E-18 1.64158E-18
 -1      2236 1.06714E-04-3.02758E-05-3.26983E-05 1.13897E-05 1.81627E-18 1.05318E-18
 -1      2237 1.09074E-04-3.13954E-05-3.32450E-05 1.24749E-05 1.90240E-18 1.54325E-18
 -1      2238 1.11460E-04-3.13852E-05-3.42969E-05 1.52437E-05 2.15820E-18 9.85682E-19
 -1      2239 1.29356E-04-4.21124E-05-3.73579E-05-1.59260E-05-1.40729E-18 2.43565E-18
 -1      2240 1.28234E-04-4.20263E-05-3.70668E-05-1.69301E-05-1.48861E-18 2.53706E-18
 -1      2241 1.38039E-04-2.41277E-05-4.92832E-05 8.93366E-06 5.43414E-18-6.91391E-19
 -1      2242 1.40863E-04-1.76882E-05-5.31797E-05 9.51537E-06 6.29197E-18-1.35896E-18
 -1      2243 1.29200E-04-4.11925E-05-3.78124E-05-1.95938E-05-1.78859E-18 2.82214E-18
 -1      2244 1.26624E-04-3.76521E-05-3.81193E-05-2.00142E-05-2.26168E-18 2.52723E-18
 -1      2245 1.30121E-04-4.30786E-05-3.75603E-05-1.83879E-05-1.68262E-18 2.28833E-18
 -1      2246 1.24695E-04-3.33405E-05-3.94403E-05-2.00209E-05-2.94376E-18 2.16978E-18
 -1      2247 1.21356E-04-2.82649E-05-3.99377E-05-1.72345E-05-3.65548E-18 1.63919E-18
 -1      2248 1.29716E-04-3.64999E-05-3.99672E-05-2.19526E-05-2.84508E-18 2.17825E-18
 -1      2249 1.18587E-04-2.38048E-05-4.09160E-05-1.17156E-05-4.07095E-18 7.49082E-19
 -1      2250 1.16918E-04-2.16469E-05-4.10025E-05-5.58828E-06-4.24925E-18-3.70577E-21
 -1      2251 1.24436E-04-2.45057E-05-4.30766E-05-1.65318E-05-4.54528E-18 1.08346E-18
 -1      2252 1.16778E-04-2.22873E-05-4.06582E-05 2.34029E-06-3.90482E-18-1.44910E-18
 -1      2253 1.17930E-04-2.53127E-05-4.00559E-05 7.80026E-06-3.14435E-18-2.17692E-18
 -1      2254 1.21348E-04-1.93943E-05-4.40502E-05-2.12538E-06-5.07606E-18-1.09724E-18
 -1      2255 1.20008E-04-3.02245E-05-3.85103E-05 1.18270E-05-2.72596E-18-3.09659E-18
 -1      2256 1.22114E-04-3.52116E-05-3.75615E-05 1.32516E-05-2.13495E-18-3.63541E-18
 -1      2257 1.23834E-04-2.71000E-05-4.16473E-05 1.08723E-05-3.62747E-18-3.32733E-18
 -1      2258 1.22750E-04-3.92143E-05-3.58252E-05 1.17928E-05-1.16785E-18-3.76501E-18
 -1      2259 1.23655E-04-4.21053E-05-3.50530E-05 9.76593E-06-4.34738E-19-3.94185E-18
 -1      2260 1.26703E-04-3.87916E-05-3.78200E-05 1.27285E-05-1.86093E-18-4.36550E-18
 -1      2261 1.21607E-04-4.27982E-05-3.38533E-05 5.86624E-06-3.74805E-19-3.55848E-18
 -1      2262 1.20905E-04-4.29219E-05-3.33941E-05 2.75060E-06-1.71508E-19-3.35695E-18
 -1      2263 1.25195E-04-4.49565E-05-3.44238E-05 6.19015E-06-3.36034E-19-3.82799E-18
 -1      2264 1.17680E-04-4.14269E-05-3.27664E-05-6.60567E-07 1.32415E-20-2.85928E-18
 -1      2265 1.16081E-04-4.00656E-05-3.25105E-05-3.26780E-06 5.72310E-19-2.55765E-18
 -1      2266 1.19591E-04-4.41289E-05-3.23976E-05-1.36257E-06 2.35330E-19-2.82524E-18
 -1      2267 1.13058E-04-3.80112E-05-3.22293E-05-5.29878E-06 8.39956E-19-2.05172E-18
 -1      2268 1.11263E-04-3.63752E-05-3.20408E-05-6.87671E-06 1.00842E-18-1.65226E-18
 -1      2269 1.13183E-04-3.99704E-05-3.14564E-05-6.61160E-06 1.04001E-18-2.03139E-18
 -1      2270 1.09012E-04-3.46759E-05-3.18946E-05-7.70143E-06 6.89650E-19-1.12882E-18
 -1      2271 1.07377E-04-3.33359E-05-3.16981E-05-8.36345E-06 7.07651E-19-8.74889E-19
 -1      2272 1.07877E-04-3.55442E-05-3.10652E-05-9.17830E-06 1.09942E-18-1.17073E-18
 -1      2273 1.05854E-04-3.21926E-05-3.15806E-05-8.41638E-06 4.17217E-19-1.06362E-18
 -1      2274 1.04473E-04-3.12558E-05-3.13604E-05-8.45024E-06 8.14322E-20-1.18343E-18
 -1      2275 1.04126E-04-3.22207E-05-3.08582E-05-9.84507E-06 4.49906E-19-7.81236E-19
 -1      2276 1.03471E-04-3.05813E-05-3.12341E-05-8.08130E-06-2.13051E-19-1.17712E-18
 -1      2277 1.02332E-04-2.99780E-05-3.10005E-05-7.75926E-06-3.08290E-19-1.25640E-18
 -1      2278 1.01629E-04-3.01139E-05-3.06731E-05-9.39123E-06-1.22348E-19-1.38211E-18
 -1      2279 1.01659E-04-2.96195E-05-3.08611E-05-7.20237E-06-2.54644E-19-1.20055E-18
 -1      2280 1.00725E-04-2.92463E-05-3.06307E-05-6.72078E-06-2.94951E-19-1.20500E-18
 -1      2281 9.99765E-05-2.89350E-05-3.04592E-05-8.37369E-06-3.03292E-19-1.13049E-18
 -1      2282 1.00249E-04-2.90754E-05-3.04863E-05-6.11512E-06-5.22688E-19-9.82744E-19
 -1      2283 9.94862E-05-2.88479E-05-3.02729E-05-5.59581E-06-3.23492E-19-7.44678E-19
 -1      2284 9.88422E-05-2.83515E-05-3.02178E-05-7.14295E-06-4.08687E-19-3.89694E-19
 -1      2285 9.91299E-05-2.87787E-05-3.01332E-05-5.01696E-06-1.10946E-19-7.92692E-19
 -1      2286 9.85111E-05-2.86398E-05-2.99451E-05-4.52623E-06-1.74453E-19-2.92800E-19
 -1      2287 9.80208E-05-2.81105E-05-2.99666E-05-5.90183E-06-1.79085E-19-4.88820E-19
 -1      2288 9.82326E-05-2.86215E-05-2.98172E-05-4.01031E-06-2.04328E-19-1.26835E-19
 -1      2289 9.77357E-05-2.85360E-05-2.96574E-05-3.57858E-06 1.86557E-19-6.88005E-20
 -1      2290 9.73952E-05-2.80493E-05-2.97237E-05-4.75724E-06 1.39925E-19-5.66961E-19
 -1      2291 9.75129E-05-2.85409E-05-2.95452E-05-3.13856E-06 4.38699E-19 7.59549E-20
 -1      2292 9.71189E-05-2.84879E-05-2.94135E-05-2.77531E-06 3.78230E-19 1.63453E-19
 -1      2293 9.69027E-05-2.80738E-05-2.95017E-05-3.75690E-06 3.38600E-19 2.56345E-19
 -1      2294 9.69395E-05-2.85020E-05-2.93184E-05-2.41137E-06 2.18406E-19 2.31782E-19
 -1      2295 9.66314E-05-2.84693E-05-2.92124E-05-2.11497E-06 7.69015E-19-1.00940E-19
 -1      2296 9.65088E-05-2.81330E-05-2.93072E-05-2.91381E-06 5.51530E-19 4.12225E-19
 -1      2297 9.64878E-05-2.84858E-05-2.91339E-05-1.82086E-06 8.28028E-19-3.92723E-19
 -1      2298 9.62504E-05-2.84662E-05-2.90503E-05-1.58450E-06 7.17413E-19-3.65314E-19
 -1      2299 9.61936E-05-2.82015E-05-2.91425E-05-2.22199E-06 2.99674E-19 4.58142E-19
 -1      2300 9.61367E-05-2.84821E-05-2.89870E-05-1.35129E-06 6.77879E-19-7.05838E-19
 -1      2301 9.59568E-05-2.84710E-05-2.89223E-05-1.16629E-06 7.74862E-19-2.62242E-19
 -1      2302 9.59433E-05-2.82675E-05-2.90066E-05-1.66616E-06 6.07589E-19-1.07842E-18
 -1      2303 9.58682E-05-2.84853E-05-2.88722E-05-9.84441E-07 6.95484E-19-7.55544E-19
 -1      2304 9.57341E-05-2.84799E-05-2.88230E-05-8.42019E-07 8.09548E-19-8.92264E-19
 -1      2305 9.57471E-05-2.83263E-05-2.88970E-05-1.22753E-06 2.29016E-19-1.03497E-18
 -1      2306 9.56662E-05-2.84922E-05-2.87841E-05-7.02420E-07 4.50272E-19-1.48002E-18
 -1      2307 9.55682E-05-2.84905E-05-2.87473E-05-5.94493E-07 1.75177E-19-1.07827E-18
 -1      2308 9.55959E-05-2.83765E-05-2.88103E-05-8.86973E-07 1.80049E-19-2.24800E-18
 -1      2309 9.55172E-05-2.85009E-05-2.87176E-05-4.88995E-07-3.30321E-20-8.88446E-19
 -1      2310 9.54470E-05-2.85016E-05-2.86907E-05-4.08515E-07-6.52346E-19-5.43658E-19
 -1      2311 9.54814E-05-2.84184E-05-2.87429E-05-6.26678E-07-6.94495E-20-1.74750E-18
 -1      2312 9.54096E-05-2.85103E-05-2.86684E-05-3.30088E-07-4.99828E-19 4.67233E-20
 -1      2313 9.53606E-05-2.85124E-05-2.86490E-05-2.71108E-07-1.54697E-19 9.43504E-19
 -1      2314 9.53965E-05-2.84528E-05-2.86915E-05-4.30874E-07 1.29606E-19-1.20645E-18
 -1      2315 9.53337E-05-2.85196E-05-2.86326E-05-2.13846E-07-3.05500E-19 8.86538E-19
 -1      2316 9.53007E-05-2.85224E-05-2.86191E-05-1.71460E-07 3.65690E-19 6.67210E-19
 -1      2317 9.53350E-05-2.84806E-05-2.86529E-05-2.86062E-07-2.89803E-19 5.48151E-19
 -1      2318 9.52819E-05-2.85283E-05-2.86072E-05-1.30504E-07 7.30535E-19 2.57530E-19
 -1      2319 9.52605E-05-2.85314E-05-2.85980E-05-1.00738E-07 6.81019E-19 6.19949E-20
 -1      2320 9.52915E-05-2.85028E-05-2.86245E-05-1.80960E-07-8.26216E-20 6.39457E-19
 -1      2321 9.52478E-05-2.85361E-05-2.85897E-05-7.21536E-08 6.04917E-20-7.19767E-19
 -1      2322 9.52348E-05-2.85393E-05-2.85836E-05-5.18383E-08-8.16893E-19-7.74898E-19
 -1      2323 9.52618E-05-2.85204E-05-2.86041E-05-1.06319E-07-4.94246E-19-7.43215E-19
 -1      2324 9.52266E-05-2.85430E-05-2.85780E-05-3.24916E-08-5.73869E-19-1.75079E-18
 -1      2325 9.52194E-05-2.85460E-05-2.85742E-05-1.91356E-08-7.62376E-20-1.65505E-18
 -1      2326 9.52423E-05-2.85341E-05-2.85897E-05-5.46861E-08-9.16038E-19-2.16570E-18
 -1      2327 9.52145E-05-2.85490E-05-2.85705E-05-6.56609E-09-2.94353E-19-1.47733E-18
 -1      2328 9.52113E-05-2.85517E-05-2.85684E-05 1.76228E-09-7.94373E-19-7.08778E-19
 -1      2329 9.52302E-05-2.85446E-05-2.85798E-05-2.01453E-08-2.24007E-19-2.18834E-18
 -1      2330 9.52087E-05-2.85539E-05-2.85660E-05 9.45905E-09-1.20085E-18-6.03134E-19
 -1      2331 9.52081E-05-2.85563E-05-2.85650E-05 1.42365E-08-1.03391E-18-1.48763E-18
 -1      2332 9.52233E-05-2.85527E-05-2.85734E-05 1.92998E-09-9.75655E-19-1.11748E-18
 -1      2333 9.52070E-05-2.85580E-05-2.85637E-05 1.85133E-08-1.02241E-18-1.34069E-18
 -1      2334 9.52081E-05-2.85600E-05-2.85634E-05 2.08517E-08-6.04921E-19-1.35153E-18
 -1      2335 9.52201E-05-2.85587E-05-2.85694E-05 1.51065E-08-1.55691E-18-9.15959E-19
 -1      2336 9.52080E-05-2.85613E-05-2.85628E-05 2.27991E-08-5.86946E-19-1.11758E-18
 -1      2337 9.52099E-05-2.85630E-05-2.85629E-05 2.35220E-08-7.02788E-19-5.74688E-19
 -1      2338 9.52192E-05-2.85631E-05-2.85670E-05 2.20922E-08-6.01472E-19-7.07230E-19
 -1      2339 9.52104E-05-2.85640E-05-2.85627E-05 2.39444E-08-1.06333E-18-3.27148E-19
 -1      2340 9.52128E-05-2.85653E-05-2.85632E-05 2.36500E-08-1.30272E-18 3.46244E-19
 -1      2341 9.52199E-05-2.85662E-05-2.85659E-05 2.49094E-08-4.16072E-19-5.59800E-19
 -1      2342 9.52136E-05-2.85660E-05-2.85633E-05 2.31289E-08-1.13996E-18 6.18317E-19
 -1      2343 9.52161E-05-2.85671E-05-2.85639E-05 2.22423E-08-4.45855E-19 6.76988E-19
 -1      2344 9.52214E-05-2.85685E-05-2.85656E-05 2.50405E-08-7.78781E-19 1.82722E-19
 -1      2345 9.52171E-05-2.85676E-05-2.85641E-05 2.11879E-08 4.50669E-19 1.21858E-20
 -1      2346 9.52195E-05-2.85684E-05-2.85647E-05 2.00028E-08 9.92331E-19 7.42572E-19
 -1      2347 9.52234E-05-2.85700E-05-2.85658E-05 2.35491E-08-1.13134E-19 2.73241E-19
 -1      2348 9.52205E-05-2.85687E-05-2.85651E-05 1.86960E-08 1.44401E-18 6.93015E-19
 -1      2349 9.52227E-05-2.85694E-05-2.85657E-05 1.74079E-08 1.17000E-18 1.86780E-18
 -1      2350 9.52254E-05-2.85710E-05-2.85662E-05 2.11792E-08 1.67239E-18 1.51439E-18
 -1      2351 9.52237E-05-2.85696E-05-2.85661E-05 1.60335E-08 4.16497E-19 1.39954E-18
 -1      2352 9.52256E-05-2.85701E-05-2.85666E-05 1.47659E-08 4.81798E-19 1.11029E-18
 -1      2353 9.52275E-05-2.85716E-05-2.85668E-05 1.84340E-08 1.45243E-19 1.12031E-18
 -1      2354 9.52265E-05-2.85703E-05-2.85670E-05 1.34382E-08 1.44696E-19 1.35660E-18
 -1      2355 9.52281E-05-2.85706E-05-2.85675E-05 1.22625E-08 4.10939E-19 1.04744E-18
 -1      2356 9.52293E-05-2.85719E-05-2.85675E-05 1.56385E-08 3.05137E-19-2.60934E-19
 -1      2357 9.52289E-05-2.85707E-05-2.85678E-05 1.10451E-08-2.55108E-19 1.51241E-18
 -1      2358 9.52303E-05-2.85710E-05-2.85683E-05 9.99535E-09-4.55675E-19 7.63495E-19
 -1      2359 9.52310E-05-2.85721E-05-2.85681E-05 1.29881E-08-4.05591E-20-2.68781E-19
 -1      2360 9.52310E-05-2.85711E-05-2.85686E-05 8.91592E-09 6.89931E-19 7.72926E-19
 -1      2361 9.52321E-05-2.85713E-05-2.85689E-05 8.00015E-09 1.09956E-18 5.28452E-19
 -1      2362 9.52324E-05-2.85722E-05-2.85687E-05 1.05851E-08-6.95106E-20 9.40367E-19
 -1      2363 9.52327E-05-2.85713E-05-2.85692E-05 7.06186E-09 2.65018E-20 3.68447E-19
 -1      2364 9.52336E-05-2.85715E-05-2.85695E-05 6.27036E-09 4.62548E-19 6.69458E-19
 -1      2365 9.52337E-05-2.85722E-05-2.85692E-05 8.46684E-09 4.27375E-19 1.42614E-18
 -1      2366 9.52341E-05-2.85715E-05-2.85697E-05 5.45834E-09 1.17986E-18-6.84009E-19
 -1      2367 9.52348E-05-2.85717E-05-2.85699E-05 4.76920E-09-1.07555E-19-7.92730E-19
 -1      2368 9.52347E-05-2.85722E-05-2.85696E-05 6.62633E-09-3.06680E-19-9.68864E-19
 -1      2369 9.52352E-05-2.85717E-05-2.85701E-05 4.05904E-09-1.60870E-18-1.16515E-18
 -1      2370 9.52358E-05-2.85719E-05-2.85702E-05 3.44905E-09-1.75228E-18-1.46382E-18
 -1      2371 9.52356E-05-2.85723E-05-2.85700E-05 5.02611E-09-1.64393E-18-3.16669E-18
 -1      2372 5.42927E-05-3.00523E-05-1.04231E-05 4.17079E-05-1.46812E-18 3.18527E-18
 -1      2373 4.08978E-05-2.39002E-05-6.95382E-06 3.40894E-05-1.62715E-18 4.19811E-18
 -1      2374 1.00515E-04-2.62566E-05-3.17777E-05 3.13413E-06 1.50276E-18-2.08145E-19
 -1      2375 1.01491E-04-2.68356E-05-3.19677E-05 5.48776E-06 1.54572E-18 6.30642E-20
 -1      2376 1.00087E-04-2.64793E-05-3.15402E-05-2.20697E-06 9.45752E-19-6.56265E-19
 -1      2377 1.00026E-04-2.61128E-05-3.16253E-05 1.02303E-07 1.31285E-18-4.92294E-19
 -1      2378 1.02495E-04-2.53643E-05-3.31167E-05 2.15310E-06 1.60460E-18-8.13694E-19
 -1      2379 1.01526E-04-2.84431E-05-3.13434E-05-6.15741E-06 8.93071E-19-1.13149E-18
 -1      2380 1.00633E-04-2.73299E-05-3.13462E-05-4.66449E-06 8.88591E-19-8.97706E-19
 -1      2381 1.02613E-04-2.63465E-05-3.27225E-05-3.80742E-06 1.22498E-18-1.39399E-18
 -1      2382 1.03725E-04-3.09977E-05-3.12001E-05-7.57288E-06 1.05777E-18-1.34544E-18
 -1      2383 1.02511E-04-2.97308E-05-3.11393E-05-7.23094E-06 1.05537E-18-1.06594E-18
 -1      2384 1.04322E-04-2.91632E-05-3.22082E-05-7.53856E-06 1.12904E-18-1.84173E-18
 -1      2385 1.05513E-04-3.29578E-05-3.11177E-05-6.62392E-06 4.75568E-19-1.45135E-18
 -1      2386 1.04468E-04-3.20403E-05-3.10266E-05-7.23194E-06 9.86713E-19-1.14696E-18
 -1      2387 1.06220E-04-3.22219E-05-3.16881E-05-8.19777E-06 9.90889E-19-1.67211E-18
 -1      2388 1.06305E-04-3.38148E-05-3.10762E-05-4.31243E-06 1.84676E-19-1.83369E-18
 -1      2389 1.05691E-04-3.34192E-05-3.09937E-05-5.40624E-06 2.66478E-19-1.47977E-18
 -1      2390 1.07229E-04-3.42185E-05-3.12625E-05-6.44419E-06 6.37104E-19-1.47850E-18
 -1      2391 1.06109E-04-3.36953E-05-3.10336E-05-1.70376E-06 2.72688E-19-1.48696E-18
 -1      2392 1.05962E-04-3.37361E-05-3.09923E-05-2.84836E-06 1.34000E-19-1.89884E-18
 -1      2393 1.07072E-04-3.47895E-05-3.09636E-05-3.58270E-06 2.44288E-19-1.81737E-18
 -1      2394 1.05228E-04-3.29999E-05-3.09496E-05 5.02134E-07 3.74432E-19-1.12809E-18
 -1      2395 1.05455E-04-3.32956E-05-3.09656E-05-4.28592E-07 4.40073E-19-1.18681E-18
 -1      2396 1.06036E-04-3.42584E-05-3.07603E-05-7.33224E-07 2.93133E-19-1.46748E-18
 -1      2397 1.03996E-04-3.21026E-05-3.08053E-05 2.02744E-06-2.94317E-19-1.26981E-18
 -1      2398 1.04465E-04-3.24939E-05-3.08770E-05 1.40407E-06 1.54345E-19-1.14077E-18
 -1      2399 1.04566E-04-3.31800E-05-3.05999E-05 1.49180E-06 4.33716E-19-1.31114E-18
 -1      2400 1.02658E-04-3.12362E-05-3.06039E-05 2.87831E-06-8.98004E-20-1.41015E-18
 -1      2401 1.03251E-04-3.16243E-05-3.07183E-05 2.54605E-06-2.52168E-19-1.44090E-18
 -1      2402 1.03009E-04-3.19988E-05-3.04415E-05 2.92189E-06 4.89732E-20-1.68790E-18
 -1      2403 1.01361E-04-3.05046E-05-3.03625E-05 3.19211E-06 5.35900E-19-1.75380E-18
 -1      2404 1.01990E-04-3.08431E-05-3.05023E-05 3.08599E-06 2.55218E-19-1.56842E-18
 -1      2405 1.01558E-04-3.09582E-05-3.02656E-05 3.63756E-06 3.40846E-19-1.87982E-18
 -1      2406 1.00181E-04-2.99320E-05-3.01028E-05 3.13666E-06 5.48378E-19-1.68186E-18
 -1      2407 1.00787E-04-3.02069E-05-3.02516E-05 3.18257E-06 8.03510E-19-1.67450E-18
 -1      2408 1.00291E-04-3.01437E-05-3.00705E-05 3.81490E-06 7.63575E-19-1.62489E-18
 -1      2409 9.91487E-05-2.95040E-05-2.98446E-05 2.86045E-06 6.16501E-19-2.42267E-18
 -1      2410 9.96998E-05-2.97179E-05-2.99897E-05 2.99458E-06 5.57326E-19-2.09231E-18
 -1      2411 9.92217E-05-2.95527E-05-2.98645E-05 3.63743E-06 8.66006E-19-1.82962E-18
 -1      2412 9.82732E-05-2.91936E-05-2.96029E-05 2.47591E-06 2.47480E-19-2.33984E-18
 -1      2413 9.87523E-05-2.93552E-05-2.97359E-05 2.65085E-06 1.89813E-19-2.34263E-18
 -1      2414 9.83380E-05-2.91463E-05-2.96590E-05 3.25771E-06 6.37549E-19-2.34366E-18
 -1      2415 9.75482E-05-2.89734E-05-2.93869E-05 2.05948E-06-3.67560E-19-2.11789E-18
 -1      2416 9.79504E-05-2.90927E-05-2.95033E-05 2.24362E-06 2.89806E-19-2.27649E-18
 -1      2417 9.76177E-05-2.88786E-05-2.94643E-05 2.78746E-06 1.42998E-19-1.87830E-18
 -1      2418 9.69604E-05-2.88199E-05-2.92011E-05 1.65822E-06-2.09957E-19-2.46295E-18
 -1      2419 9.72885E-05-2.89064E-05-2.92993E-05 1.83258E-06-4.92937E-19-2.50890E-18
 -1      2420 9.70377E-05-2.87093E-05-2.92878E-05 2.30097E-06-1.66043E-19-1.97087E-18
 -1      2421 9.64934E-05-2.87149E-05-2.90462E-05 1.29774E-06-6.45114E-19-1.51605E-18
 -1      2422 9.67543E-05-2.87763E-05-2.91265E-05 1.45238E-06-4.40881E-19-1.96891E-18
 -1      2423 9.65764E-05-2.86070E-05-2.91334E-05 1.84300E-06-7.69919E-19-1.88426E-18
 -1      2424 9.61296E-05-2.86446E-05-2.89207E-05 9.89172E-07-2.76986E-19-1.51056E-18
 -1      2425 9.63321E-05-2.86872E-05-2.89845E-05 1.12017E-06-6.41227E-19-1.39374E-18
 -1      2426 9.62143E-05-2.85488E-05-2.90027E-05 1.43705E-06-5.84833E-19-2.62100E-18
 -1      2427 9.58517E-05-2.85990E-05-2.88214E-05 7.34566E-07-2.00462E-19-1.50749E-18
 -1      2428 9.60053E-05-2.86277E-05-2.88708E-05 8.41669E-07 1.98110E-21-1.51869E-18
 -1      2429 9.59341E-05-2.85189E-05-2.88949E-05 1.09243E-06-2.04790E-19-1.55977E-18
 -1      2430 9.56438E-05-2.85706E-05-2.87447E-05 5.30729E-07-1.69209E-19-1.37382E-18
 -1      2431 9.57576E-05-2.85892E-05-2.87821E-05 6.15748E-07-2.42339E-19-1.62462E-18
 -1      2432 9.57208E-05-2.85066E-05-2.88083E-05 8.09615E-07-1.04257E-19-6.77623E-19
 -1      2433 9.54918E-05-2.85541E-05-2.86868E-05 3.71809E-07 2.79645E-19-4.38142E-19
 -1      2434 9.55739E-05-2.85655E-05-2.87145E-05 4.37544E-07 1.25965E-19-6.34122E-19
 -1      2435 9.55611E-05-2.85049E-05-2.87403E-05 5.84018E-07-4.69505E-19-1.12072E-18
 -1      2436 9.53834E-05-2.85455E-05-2.86442E-05 2.50946E-07 1.62314E-19 2.38411E-19
 -1      2437 9.54409E-05-2.85519E-05-2.86640E-05 3.00515E-07 4.62079E-19 4.93248E-19
 -1      2438 9.54440E-05-2.85089E-05-2.86880E-05 4.08581E-07-7.15311E-20 4.54776E-19
 -1      2439 9.53084E-05-2.85422E-05-2.86136E-05 1.61270E-07-2.56290E-19 7.63807E-19
 -1      2440 9.53472E-05-2.85452E-05-2.86274E-05 1.97713E-07-2.21940E-19 6.28835E-19
 -1      2441 9.53601E-05-2.85159E-05-2.86487E-05 2.75405E-07 4.62814E-20 1.20711E-18
 -1      2442 9.52584E-05-2.85421E-05-2.85923E-05 9.64463E-08 2.47971E-19 5.93859E-19
 -1      2443 9.52834E-05-2.85429E-05-2.86016E-05 1.22519E-07 3.94841E-20 9.41026E-19
 -1      2444 9.53014E-05-2.85240E-05-2.86198E-05 1.76732E-07-2.62416E-19 1.41480E-18
 -1      2445 9.52268E-05-2.85440E-05-2.85780E-05 5.09409E-08 4.27530E-19 5.13356E-19
 -1      2446 9.52418E-05-2.85434E-05-2.85840E-05 6.90191E-08 4.06267E-19 9.82973E-19
 -1      2447 9.52619E-05-2.85321E-05-2.85992E-05 1.05485E-07 5.72207E-19 2.03533E-18
 -1      2448 9.52084E-05-2.85469E-05-2.85690E-05 2.01043E-08 3.66722E-19-1.01360E-18
 -1      2449 9.52164E-05-2.85455E-05-2.85725E-05 3.21626E-08 6.49811E-19-2.91245E-19
 -1      2450 9.52364E-05-2.85396E-05-2.85849E-05 5.55189E-08 7.57494E-19 1.58565E-18
 -1      2451 9.51990E-05-2.85503E-05-2.85636E-05 1.48079E-10 9.16847E-19-1.32858E-18
 -1      2452 9.52023E-05-2.85485E-05-2.85654E-05 7.78106E-09 4.37471E-19-1.49533E-18
 -1      2453 9.52211E-05-2.85461E-05-2.85754E-05 2.16923E-08 9.44137E-19 1.00434E-18
 -1      2454 9.51959E-05-2.85536E-05-2.85608E-05-1.19362E-08 7.42152E-19-8.15003E-19
 -1      2455 9.51960E-05-2.85517E-05-2.85615E-05-7.47271E-09 8.32211E-19-9.62925E-19
 -1      2456 9.52128E-05-2.85517E-05-2.85693E-05-1.74159E-10 5.36809E-19 2.07460E-19
 -1      2457 9.51966E-05-2.85568E-05-2.85598E-05-1.84834E-08-8.48761E-19 8.39900E-19
 -1      2458 9.51949E-05-2.85549E-05-2.85598E-05-1.62227E-08 3.87012E-19 5.06763E-19
 -1      2459 9.52094E-05-2.85564E-05-2.85658E-05-1.33945E-08-6.75976E-19 6.96293E-19
 -1      2460 9.51996E-05-2.85596E-05-2.85600E-05-2.12661E-08-1.75748E-18 1.89211E-18
 -1      2461 9.51969E-05-2.85579E-05-2.85595E-05-2.04802E-08-7.92121E-19 2.39937E-18
 -1      2462 9.52091E-05-2.85601E-05-2.85640E-05-2.05381E-08-1.42037E-18 4.33720E-18
 -1      2463 9.52039E-05-2.85620E-05-2.85608E-05-2.15996E-08-1.41054E-18 1.35206E-18
 -1      2464 9.52007E-05-2.85606E-05-2.85600E-05-2.17531E-08-2.02502E-18 7.30643E-19
 -1      2465 9.52108E-05-2.85631E-05-2.85634E-05-2.35533E-08-1.19232E-18 3.90648E-18
 -1      2466 9.52086E-05-2.85641E-05-2.85619E-05-2.04373E-08-8.47377E-19 1.91743E-18
 -1      2467 9.52054E-05-2.85628E-05-2.85611E-05-2.11460E-08-1.02693E-18 1.53135E-18
 -1      2468 9.52134E-05-2.85654E-05-2.85635E-05-2.38855E-08-1.45239E-18 1.39181E-18
 -1      2469 9.52133E-05-2.85658E-05-2.85632E-05-1.84511E-08-5.57433E-19 1.34782E-18
 -1      2470 9.52102E-05-2.85648E-05-2.85624E-05-1.94473E-08-6.34153E-19 1.93252E-18
 -1      2471 9.52166E-05-2.85672E-05-2.85641E-05-2.25811E-08-7.53964E-19 1.75702E-18
 -1      2472 9.52178E-05-2.85672E-05-2.85645E-05-1.60990E-08 5.03601E-19 9.68843E-19
 -1      2473 9.52149E-05-2.85663E-05-2.85637E-05-1.72029E-08 1.66604E-19 1.16844E-18
 -1      2474 9.52198E-05-2.85685E-05-2.85649E-05-2.03772E-08 5.77615E-20 6.22791E-19
 -1      2475 9.52217E-05-2.85683E-05-2.85658E-05-1.36795E-08-1.88747E-19 1.42553E-18
 -1      2476 9.52192E-05-2.85676E-05-2.85650E-05-1.47767E-08 3.10704E-19 1.01789E-18
 -1      2477 9.52229E-05-2.85695E-05-2.85658E-05-1.77756E-08 4.37305E-19 1.34783E-18
 -1      2478 9.52251E-05-2.85692E-05-2.85669E-05-1.13744E-08 5.72507E-19 4.10877E-20
 -1      2479 9.52230E-05-2.85686E-05-2.85662E-05-1.23976E-08 3.13861E-19 4.70280E-19
 -1      2480 9.52258E-05-2.85702E-05-2.85667E-05-1.51028E-08 5.07092E-19 5.98305E-19
 -1      2481 9.52281E-05-2.85698E-05-2.85678E-05-9.28120E-09 1.03771E-18 4.12974E-19
 -1      2482 9.52263E-05-2.85694E-05-2.85673E-05-1.01972E-08 9.29998E-19 4.03944E-19
 -1      2483 9.52282E-05-2.85707E-05-2.85675E-05-1.25567E-08 4.68979E-19 7.79171E-19
 -1      2484 9.52305E-05-2.85704E-05-2.85686E-05-7.43811E-09 8.70945E-19 6.90146E-19
 -1      2485 9.52290E-05-2.85700E-05-2.85682E-05-8.23756E-09 1.02130E-18 1.01570E-18
 -1      2486 9.52304E-05-2.85710E-05-2.85683E-05-1.02429E-08 9.30619E-19 2.18921E-18
 -1      2487 9.52324E-05-2.85708E-05-2.85693E-05-5.84127E-09 2.74235E-19 1.26401E-18
 -1      2488 9.52313E-05-2.85705E-05-2.85689E-05-6.53198E-09 7.52088E-19 1.35173E-18
 -1      2489 9.52321E-05-2.85713E-05-2.85689E-05-8.20189E-09 5.47049E-19 2.62949E-18
 -1      2490 9.52340E-05-2.85711E-05-2.85698E-05-4.45855E-09-1.64359E-18 1.18353E-18
 -1      2491 9.52331E-05-2.85709E-05-2.85695E-05-5.05992E-09 4.34682E-20 1.29061E-18
 -1      2492 9.52336E-05-2.85715E-05-2.85695E-05-6.42887E-09 1.60446E-19 3.48828E-18
 -1      2493 9.52352E-05-2.85714E-05-2.85702E-05-3.23801E-09-1.56479E-19-6.20780E-19
 -1      2494 9.52345E-05-2.85712E-05-2.85700E-05-3.77657E-09-1.93524E-18 7.75808E-20
 -1      2495 9.52348E-05-2.85717E-05-2.85699E-05-4.89322E-09-1.04204E-18 1.12899E-18
 -1      2496 9.52362E-05-2.85716E-05-2.85705E-05-2.14424E-09-9.97347E-20 2.24112E-19
 -1      2497 9.52357E-05-2.85715E-05-2.85704E-05-2.63527E-09 6.84269E-19-2.13202E-19
 -1      2498 9.52358E-05-2.85719E-05-2.85702E-05-3.53641E-09-2.60321E-19-3.82177E-19
 -1      2499 9.52365E-05-2.85717E-05-2.85707E-05-1.54834E-09 8.70492E-21 3.50245E-21
 -1      2500 9.52391E-05-2.85758E-05-2.85700E-05-2.83800E-09 1.36169E-18-1.00345E-18
 -1      2501 9.52387E-05-2.85753E-05-2.85700E-05-3.07542E-09 9.10835E-19-2.32526E-18
 -1      2502 9.52396E-05-2.85765E-05-2.85699E-05-2.02285E-09 4.14067E-19 1.46930E-18
 -1      2503 9.52394E-05-2.85762E-05-2.85699E-05-2.43420E-09 7.71827E-19 1.31484E-18
 -1      2504 9.52395E-05-2.85762E-05-2.85700E-05-3.05864E-09 5.88991E-19-1.55246E-20
 -1      2505 9.52376E-05-2.85736E-05-2.85703E-05-3.19298E-09-1.00387E-18 2.90343E-18
 -1      2506 9.52372E-05-2.85731E-05-2.85703E-05-3.01219E-09-8.52494E-19 1.96099E-18
 -1      2507 9.52384E-05-2.85748E-05-2.85701E-05-3.25148E-09-3.11377E-19 8.04229E-19
 -1      2508 9.52380E-05-2.85742E-05-2.85702E-05-3.27758E-09-7.00404E-19 3.15205E-18
 -1      2509 9.52377E-05-2.85740E-05-2.85702E-05-3.80266E-09-5.45484E-19 3.10450E-18
 -1      2510 9.52387E-05-2.85752E-05-2.85701E-05-3.68682E-09 7.00245E-19 3.97555E-19
 -1      2511 9.52399E-05-2.85770E-05-2.85698E-05-9.28800E-10-1.59447E-19 5.94501E-19
 -1      2512 9.52398E-05-2.85768E-05-2.85698E-05-1.45222E-09 1.86857E-19 4.40361E-19
 -1      2513 9.52401E-05-2.85769E-05-2.85699E-05-2.01082E-09-5.26319E-19 6.97124E-19
 -1      2514 9.52400E-05-2.85771E-05-2.85698E-05 2.91136E-10-1.42943E-18 1.22716E-19
 -1      2515 9.52400E-05-2.85771E-05-2.85698E-05-2.70512E-10-1.31327E-18 6.85940E-19
 -1      2516 9.52404E-05-2.85773E-05-2.85699E-05-6.93308E-10-6.74140E-19-7.39543E-19
 -1      2517 9.52398E-05-2.85768E-05-2.85698E-05 1.47094E-09-1.48795E-18-4.09766E-18
 -1      2518 9.52399E-05-2.85770E-05-2.85698E-05 9.48922E-10-1.85525E-18-1.60388E-18
 -1      2519 9.52404E-05-2.85773E-05-2.85699E-05 7.16541E-10-2.29026E-18-1.32396E-18
 -1      2520 9.52394E-05-2.85762E-05-2.85699E-05 2.43473E-09 8.55073E-19-1.57200E-18
 -1      2521 9.52396E-05-2.85765E-05-2.85699E-05 2.03114E-09 1.36275E-19-4.22085E-18
 -1      2522 9.52401E-05-2.85769E-05-2.85699E-05 2.02198E-09-6.79883E-19-2.98457E-18
 -1      2523 9.52387E-05-2.85753E-05-2.85700E-05 3.07570E-09 1.64679E-18 2.99419E-18
 -1      2524 9.52391E-05-2.85758E-05-2.85700E-05 2.83855E-09 1.22008E-18 4.26640E-19
 -1      2525 9.52395E-05-2.85762E-05-2.85700E-05 3.05935E-09 1.22554E-18-9.11055E-19
 -1      2526 9.52380E-05-2.85742E-05-2.85702E-05 3.27687E-09 1.24800E-18 2.58507E-18
 -1      2527 9.52383E-05-2.85747E-05-2.85701E-05 3.25271E-09 4.61689E-19 4.02219E-18
 -1      2528 9.52387E-05-2.85752E-05-2.85701E-05 3.68875E-09 8.27820E-19 2.58267E-18
 -1      2529 9.52372E-05-2.85731E-05-2.85703E-05 2.98763E-09 1.62974E-19-1.06362E-18
 -1      2530 9.52376E-05-2.85736E-05-2.85703E-05 3.19184E-09-1.71439E-19 1.15619E-18
 -1      2531 9.52377E-05-2.85740E-05-2.85702E-05 3.80471E-09-6.25029E-19 1.31647E-18
 -1      2532 9.52368E-05-2.85722E-05-2.85706E-05 2.00984E-09 2.83533E-19-2.86664E-18
 -1      2533 1.89113E-05-1.34744E-05-2.17577E-06-5.11439E-06 6.13569E-19 6.30362E-18
 -1      2534 2.41609E-05-1.57551E-05-3.42314E-06-1.86404E-05 9.28348E-19 6.26317E-18
 -1      2535 1.02970E-04-2.78603E-05-3.21166E-05 8.07568E-06 1.72916E-18 5.03181E-19
 -1      2536 1.04835E-04-2.90693E-05-3.24493E-05 9.82039E-06 1.73811E-18 6.84383E-19
 -1      2537 1.04514E-04-2.67216E-05-3.33814E-05 8.25761E-06 2.01483E-18-1.90037E-19
 -1      2538 9.74488E-05-4.77139E-05-2.14484E-05 4.18073E-05-8.76256E-19-9.54791E-19
 -1      2539 7.56229E-05-4.02075E-05-1.48887E-05 4.26012E-05-1.71694E-18 8.50156E-19
 -1      2540 1.04710E-04-2.86300E-05-3.26489E-05-2.43074E-06-1.64860E-19-1.11589E-18
 -1      2541 1.12571E-04-3.12170E-05-3.49365E-05-6.96114E-06-8.56999E-19-3.72006E-19
 -1      2542 1.26738E-04-5.25140E-05-3.20512E-05 2.64764E-05 2.35369E-19-3.04868E-18
 -1      2543 1.15421E-04-5.22420E-05-2.69553E-05 3.16587E-05-5.50889E-19-2.36470E-18
 -1      2544 1.44288E-04-2.39974E-05-5.20419E-05 1.03762E-07 5.23297E-18-3.84489E-18
 -1      2545 1.43178E-04-3.13221E-05-4.80946E-05 1.91425E-06 4.24395E-18-3.61302E-18
 -1      2546 1.46919E-04-2.83720E-05-5.11700E-05 3.39510E-06-5.62133E-18-3.31571E-18
 -1      2547 1.49873E-04-2.14991E-05-5.53483E-05 1.80015E-06-6.82624E-18-3.15594E-18
 -1      2548 1.06011E-04-3.91753E-05-2.86021E-05-2.69181E-05 1.17102E-18-3.43387E-18
 -1      2549 1.21826E-04-4.21533E-05-3.45973E-05-1.99165E-05 2.24591E-18-2.49621E-18
 -1      2550 8.25640E-05-1.87426E-05-2.73911E-05 7.78059E-06 6.93786E-19-2.96583E-18
 -1      2551 9.46500E-05-2.41621E-05-3.00581E-05 4.07455E-06 2.47519E-19-2.17539E-18
 -1      2552 1.04864E-04-3.22121E-05-3.10695E-05 1.93420E-06 1.99714E-19-1.23331E-18
 -1      2553 7.97687E-05-2.02421E-05-2.52868E-05 1.27303E-05 9.60456E-19-3.35359E-18
 -1      2554 3.05770E-05 9.79510E-06-1.69702E-05-9.35127E-06-1.37860E-18-6.65704E-18
 -1      2555 2.92702E-05 1.05022E-05-1.68198E-05-3.54561E-06-6.18814E-19-6.67478E-18
 -1      2556 2.88372E-05 8.11204E-06-1.52954E-05 1.97035E-06-2.31955E-19-7.17236E-18
 -1      2557 3.18672E-05 6.20408E-06-1.58435E-05-1.54062E-05-1.74669E-18-7.02815E-18
 -1      2558 1.23520E-04-3.49870E-05-3.80400E-05-1.33741E-05-1.56862E-18 1.16605E-18
 -1      2559 1.26195E-04-3.97824E-05-3.71559E-05-1.37103E-05-1.56020E-18 1.83548E-18
 -1      2560 1.26096E-04-4.10020E-05-3.63510E-05-1.37244E-05-1.08340E-18 1.47449E-18
 -1      2561 1.17133E-04-3.25657E-05-3.62264E-05-1.05725E-05-1.15585E-18 2.63639E-19
 -1      2562 6.64041E-05-3.73394E-05-1.23370E-05-4.08672E-05 1.77559E-18 3.72229E-18
 -1      2563 8.92040E-05-4.57244E-05-1.87123E-05-4.18414E-05 1.84907E-18 2.00734E-18
 -1      2564 1.32903E-04-3.98743E-05-3.98375E-05-7.64617E-06 3.35481E-18-1.58628E-18
 -1      2565 1.39130E-04-3.50125E-05-4.51625E-05 1.90183E-06 4.32442E-18-6.70427E-19
 -1      2566 1.39505E-04-1.30750E-05-5.47215E-05 8.70124E-06 6.56323E-18-1.89481E-18
 -1      2567 1.38762E-04-1.00042E-05-5.56892E-05 6.41789E-06 6.77245E-18-2.31812E-18
 -1      2568 1.30912E-04-1.45009E-05-5.00906E-05 1.22632E-05 5.55717E-18-9.15113E-19
 -1      2569 1.48921E-05 3.29588E-06-7.37932E-06-1.40911E-05-1.34059E-18-8.40595E-18
 -1      2570 2.23710E-05-3.65014E-07-9.13967E-06-2.46146E-05-1.04090E-18-7.99133E-18
 -1      2571 1.40287E-04-1.05459E-05-5.60853E-05 1.87318E-06 6.59669E-18-3.23117E-18
 -1      2572 1.41373E-04-1.51368E-05-5.44562E-05-4.49222E-07 6.07450E-18-3.37680E-18
 -1      2573 7.22560E-05-2.74940E-05-1.91135E-05-3.62427E-05-2.38228E-19-5.31153E-18
 -1      2574 8.88103E-05-3.37070E-05-2.37895E-05-3.53138E-05 6.74450E-19-4.50894E-18
 -1      2575 3.49347E-05-2.21659E-05-5.30758E-06-2.92104E-05 1.70169E-18 5.85744E-18
 -1      2576 4.78105E-05-2.81160E-05-8.43230E-06-3.81378E-05 1.40480E-18 5.15589E-18
 -1      2577 3.63673E-05-9.81225E-06-1.11449E-05-3.22122E-05-1.36923E-18-7.10872E-18
 -1      2578 5.41578E-05-1.87288E-05-1.50604E-05-3.78370E-05-3.42413E-19-6.52501E-18
 -1      2579 1.35926E-05 1.33846E-06-6.19846E-06 8.47908E-06-7.82976E-19-8.41061E-18
 -1      2580 1.07044E-05 4.05300E-06-6.02834E-06-4.39501E-06-5.01232E-19-8.56859E-18
 -1      2581 1.83326E-05 6.22102E-06-9.92170E-06-9.47534E-06-1.00445E-18-8.41231E-18
 -1      2582 3.93846E-05-1.21478E-05-1.15511E-05 2.74564E-05-2.46063E-19-7.01428E-18
 -1      2583 2.48485E-05-5.02339E-06-8.23930E-06 1.85969E-05-1.12232E-20-7.81790E-18
 -1      2584 8.36820E-05-3.60921E-05-2.06026E-05 3.22578E-05-1.14434E-18-4.79868E-18
 -1      2585 6.18383E-05-2.55497E-05-1.54012E-05 3.06580E-05-1.20914E-19-5.67343E-18
 -1      2586 1.24642E-04-4.95358E-05-3.25655E-05 1.75782E-05-2.44327E-18-2.42241E-18
 -1      2587 1.05353E-04-4.45552E-05-2.60252E-05 2.42656E-05-1.38786E-18-3.40232E-18
 -1      2588 1.44956E-04-4.65518E-05-4.28771E-05-1.38670E-06-4.40571E-18-7.86682E-19
 -1      2589 1.37000E-04-4.92045E-05-3.76906E-05 5.68626E-06-3.31529E-18-1.40777E-18
 -1      2590 1.49196E-04-2.85970E-05-5.22388E-05-1.41485E-05-6.14057E-18-4.75185E-19
 -1      2591 1.48474E-04-3.76053E-05-4.75850E-05-1.04324E-05-5.22259E-18-4.63327E-19
 -1      2592 1.51064E-04-1.53052E-05-5.83209E-05-8.03597E-06-7.79948E-18-1.69444E-18
 -1      2593 1.46824E-04-1.78958E-05-5.56844E-05-1.12171E-05-7.21545E-18-1.00913E-18
 -1      2594 1.48729E-04-1.54149E-05-5.75171E-05-1.33236E-06-7.54325E-18-2.44909E-18
 -1      2595 1.50445E-04-1.45447E-05-5.85494E-05-4.67600E-06-7.79736E-18-2.22668E-18
 -1      2596 1.39226E-04-1.31057E-05-5.42438E-05-6.42516E-06-7.30502E-18-1.44117E-18
 -1      2597 1.45725E-04-4.59699E-05-4.30597E-05-3.43840E-06-2.94238E-18-3.19331E-18
 -1      2598 1.47318E-04-4.01017E-05-4.65776E-05 7.20641E-07-4.00308E-18-3.61429E-18
 -1      2599 1.32751E-04-5.50330E-05-3.35280E-05-1.98366E-05-2.35369E-19-1.74573E-18
 -1      2600 1.42578E-04-5.15005E-05-3.93129E-05-1.22331E-05-1.68994E-18-2.31113E-18
 -1      2601 1.41861E-04-5.08777E-05-3.88089E-05-1.99482E-06-1.09443E-18-4.16264E-18
 -1      2602 1.12688E-04-5.33503E-05-2.53977E-05-3.36807E-05 1.23328E-18 5.39984E-20
 -1      2603 1.25824E-04-5.53527E-05-3.01821E-05-2.85034E-05 3.39872E-19-9.93358E-19
 -1      2604 1.32399E-04-5.70092E-05-3.22661E-05-1.76157E-05 9.99764E-19-2.51188E-18
 -1      2605 2.68093E-05-1.67456E-05-4.16798E-06 2.41338E-05-7.84882E-19 5.28972E-18
 -1      2606 1.92755E-05-1.40228E-05-2.06705E-06 8.64344E-06-8.60665E-19 6.51665E-18
 -1      2607 2.66195E-05-1.10856E-05-6.09810E-06 2.08588E-06-3.99429E-19 5.71154E-18
 -1      2608 1.41630E-04-4.23638E-05-4.29740E-05 8.78617E-06 2.43233E-18-3.51709E-18
 -1      2609 1.34293E-04-4.85480E-05-3.68815E-05 1.62921E-05 1.12899E-18-3.23736E-18
 -1      2610 1.31767E-04-5.26044E-05-3.39079E-05 1.51211E-05-4.44957E-19-3.68332E-18
 -1      2611 1.13400E-04-2.84669E-05-3.63739E-05 1.79969E-05 2.19958E-18-2.23220E-19
 -1      2612 1.13579E-04-3.05274E-05-3.56482E-05 1.72648E-05 2.50476E-18 7.53145E-19
 -1      2613 1.07980E-04-2.93974E-05-3.36789E-05 1.26806E-05 2.11972E-18 6.13910E-19
 -1      2614 1.36919E-04-3.00542E-05-4.59907E-05 9.56864E-06 4.43623E-18-1.51407E-19
 -1      2615 1.29911E-04-2.43571E-05-4.56360E-05 1.53544E-05 4.23432E-18 3.80530E-19
 -1      2616 1.31815E-04-3.41028E-05-4.21064E-05 8.97954E-06 3.27463E-18 6.37710E-19
 -1      2617 6.50883E-05-3.27911E-05-1.33424E-05-3.87009E-05 2.54449E-18 3.75945E-18
 -1      2618 3.53040E-05-4.32504E-06-1.28431E-05-2.76472E-05-2.06581E-18-7.37120E-18
 -1      2619 1.39685E-04-1.75932E-05-5.24834E-05 3.80627E-06-6.77605E-18-3.02497E-18
 -1      2620 3.66138E-05-1.70883E-05-7.85647E-06-2.37645E-05 1.49395E-18 5.78778E-18
 -1      2621 7.29932E-05-3.62805E-05-1.52383E-05 4.07133E-05-2.67324E-18 1.05561E-18
 -1      2622 9.52365E-05-2.85720E-05-2.85705E-05-2.27223E-09 2.06116E-19 8.99754E-19
 -1      2623 9.52367E-05-2.85724E-05-2.85704E-05-2.61951E-09 2.56903E-19 2.06826E-18
 -1      2624 1.42386E-04-3.46214E-05-4.63283E-05 8.03584E-06-4.09106E-18-4.17884E-18
 -1      2625 9.52364E-05-2.85720E-05-2.85705E-05 2.49173E-09-9.68917E-19-2.34699E-18
 -1      2626 9.52368E-05-2.85726E-05-2.85704E-05 2.82747E-09-2.81688E-19-2.84143E-18
 -1      2627 9.52368E-05-2.85729E-05-2.85703E-05 3.54740E-09-1.79838E-18-1.65459E-18
 -1      2628 9.52360E-05-2.85719E-05-2.85703E-05 3.00488E-09-1.48770E-18-2.44241E-18
 -1      2629 1.44218E-04-4.24679E-05-4.34947E-05-1.29707E-05-3.76443E-18 6.21299E-19
 -1      2630 1.09511E-04-5.15380E-05-2.46059E-05 3.36531E-05-1.82409E-18-2.31981E-18
 -1      2631 1.32101E-04-5.07869E-05-3.45845E-05 5.72396E-06-1.52964E-18-6.40992E-19
 -1      2632 1.17846E-04-3.67790E-05-3.47931E-05-7.92012E-06-7.92207E-19 3.53133E-19
 -1      2633 1.38882E-04-3.85033E-05-4.31090E-05 2.73611E-07 2.55518E-18-4.21039E-18
 -1      2634 1.00465E-04-4.17756E-05-2.48563E-05 2.35514E-05 1.89312E-19-3.09084E-18
 -1      2635 2.44861E-05 1.23109E-06-1.04134E-05 1.22669E-05 7.70800E-20-8.05020E-18
 -1      2636 1.27361E-04-4.20106E-05-3.64331E-05-7.84548E-06 1.60190E-18-9.11302E-19
 -1      2637 6.80742E-05-2.35181E-05-1.87906E-05-3.49909E-05-1.74722E-18-5.34785E-18
 -1      2638 1.02018E-04-3.82072E-05-2.70878E-05-2.65067E-05-6.22357E-19-2.99273E-18
 -1      2639 1.35679E-04-1.88286E-05-5.02893E-05-3.78629E-06 5.31026E-18-3.71011E-18
 -1      2640 1.30684E-04-9.32194E-06-5.23164E-05 4.10640E-06 5.96523E-18-2.47076E-18
 -1      2641 9.63452E-05-4.62440E-05-2.10519E-05-3.66024E-05 2.63459E-18 4.79791E-19
 -1      2642 1.04986E-04-5.10902E-05-2.28610E-05-3.61176E-05 2.08878E-18 6.13993E-19
 -1      2643 1.16468E-04-5.44611E-05-2.67012E-05-2.74493E-05 2.46243E-18-1.36333E-18
 -1      2644 5.66324E-05-1.88551E-05-1.57949E-05 2.71404E-05 7.72706E-19-5.92680E-18
 -1      2645 3.94712E-05-1.84144E-05-8.50457E-06 2.82220E-05-1.79973E-18 4.35841E-18
 -1      2646 9.52367E-05-2.85727E-05-2.85703E-05-3.34846E-09-8.87258E-19 1.15841E-18
 -1      2647 9.52362E-05-2.85723E-05-2.85702E-05 3.81030E-09-2.58932E-18-3.09529E-18
 -1      2648 1.24439E-04-4.21738E-05-3.53732E-05-9.61536E-06-7.16550E-19 9.69879E-19
 -1      2649 1.28644E-04-4.46204E-05-3.58971E-05-1.29898E-05-8.72308E-19 1.72566E-18
 -1      2650 1.20493E-04-4.06496E-05-3.42497E-05-6.91635E-06-2.26336E-19 7.41657E-19
 -1      2651 9.30344E-05-2.85139E-05-2.74530E-05-1.67473E-05-2.28572E-18-2.83371E-18
 -1      2652 8.04207E-05-2.28353E-05-2.45395E-05-2.22958E-05-2.73541E-18-3.74611E-18
 -1      2653 1.13538E-04-3.28885E-05-3.47490E-05 1.00537E-05 6.61493E-19-1.38997E-18
 -1      2654 1.11823E-04-3.31718E-05-3.36537E-05 5.42918E-06-9.07500E-20-1.30359E-18
 -1      2655 1.14222E-04-3.12367E-05-3.57356E-05 1.60033E-05 1.54786E-18-9.46387E-19
 -1      2656 1.13875E-04-3.15805E-05-3.52564E-05 1.36120E-05 1.02246E-18-1.26841E-18
 -1      2657 1.16340E-04-3.39714E-05-3.52522E-05 1.32366E-05 1.02829E-18-6.46609E-19
 -1      2658 1.13432E-04-3.06091E-05-3.55388E-05 1.69187E-05 2.07429E-18-1.34764E-19
 -1      2659 3.29042E-05-9.57170E-06-9.53715E-06 9.47262E-06-1.02324E-18 4.73449E-18
 -1      2660 3.27029E-05-9.20248E-06-9.53744E-06-4.84497E-06-2.78277E-19 4.77981E-18
 -1      2661 1.35779E-04-3.85161E-05-4.23218E-05-1.98828E-05-3.45282E-18 1.78920E-18
 -1      2662 1.34034E-04-3.12393E-05-4.44570E-05-2.04605E-05-4.41992E-18 1.46558E-18
 -1      2663 1.29193E-04-2.11766E-05-4.67951E-05 7.69779E-06-5.41392E-18-2.95884E-18
 -1      2664 1.31771E-04-2.92138E-05-4.46232E-05 1.11178E-05-4.08873E-18-3.55733E-18
 -1      2665 1.31678E-04-3.89310E-05-3.97855E-05 1.13447E-05-2.37513E-18-4.01229E-18
 -1      2666 1.32046E-04-4.54034E-05-3.73439E-05 8.90775E-06-1.15592E-18-3.93177E-18
 -1      2667 1.28488E-04-4.79595E-05-3.46002E-05 3.98291E-06-3.46159E-19-3.71994E-18
 -1      2668 1.26210E-04-4.88198E-05-3.31391E-05 5.55976E-08 3.33741E-19-3.56409E-18
 -1      2669 1.32751E-04-4.93223E-05-3.59351E-05 3.14547E-06-7.11958E-19-3.71278E-18
 -1      2670 1.20859E-04-4.68824E-05-3.17622E-05-3.93738E-06 7.00470E-19-3.00020E-18
 -1      2671 1.17510E-04-4.47092E-05-3.10587E-05-6.93801E-06 1.00548E-18-2.31212E-18
 -1      2672 1.23206E-04-4.96206E-05-3.16200E-05-6.02355E-06 7.62778E-19-2.90665E-18
 -1      2673 1.12770E-04-4.14732E-05-3.05904E-05-8.91755E-06 1.17413E-18-1.79968E-18
 -1      2674 1.09650E-04-3.86385E-05-3.03291E-05-1.04741E-05 1.64483E-18-1.47597E-18
 -1      2675 1.13014E-04-4.38410E-05-2.98048E-05-1.15988E-05 1.31610E-18-1.50783E-18
 -1      2676 1.06501E-04-3.59473E-05-3.02448E-05-1.08907E-05 1.63570E-18-1.28053E-18
 -1      2677 1.04180E-04-3.37086E-05-3.01456E-05-1.14051E-05 1.42968E-18-1.04767E-18
 -1      2678 1.05239E-04-3.70685E-05-2.93396E-05-1.31600E-05 1.66064E-18-1.16909E-18
 -1      2679 1.02359E-04-3.19296E-05-3.01768E-05-1.10772E-05 7.08633E-19-1.13679E-18
 -1      2680 1.00792E-04-3.04622E-05-3.01148E-05-1.09568E-05 1.79069E-19-9.67638E-19
 -1      2681 1.00425E-04-3.20782E-05-2.93619E-05-1.27658E-05 1.12795E-18-8.37582E-19
 -1      2682 9.98495E-05-2.94621E-05-3.01524E-05-1.03068E-05 1.70532E-20-8.43843E-19
 -1      2683 9.88224E-05-2.86201E-05-3.00784E-05-9.84797E-06 2.11270E-19-7.69752E-19
 -1      2684 9.77678E-05-2.90233E-05-2.94958E-05-1.15357E-05 2.46586E-19-5.30142E-19
 -1      2685 9.83834E-05-2.81508E-05-3.00848E-05-9.09922E-06 9.77237E-20-6.26826E-19
 -1      2686 9.76972E-05-2.77233E-05-2.99899E-05-8.49209E-06-1.41078E-19-2.81998E-19
 -1      2687 9.64432E-05-2.74276E-05-2.95920E-05-1.00207E-05 1.67489E-19-5.44550E-20
 -1      2688 9.75157E-05-2.75690E-05-2.99625E-05-7.74958E-06-2.45259E-19-4.02088E-20
 -1      2689 9.70336E-05-2.73870E-05-2.98537E-05-7.10936E-06-1.46773E-19 2.94129E-19
 -1      2690 9.58444E-05-2.67592E-05-2.96120E-05-8.47882E-06 6.69460E-20-6.06646E-20
 -1      2691 9.69694E-05-2.73989E-05-2.98022E-05-6.42301E-06-5.28150E-19 5.46112E-19
 -1      2692 9.66111E-05-2.73500E-05-2.96897E-05-5.81466E-06-4.54447E-19-6.79223E-20
 -1      2693 9.56015E-05-2.66166E-05-2.95650E-05-7.02653E-06-3.75730E-19 4.19329E-19
 -1      2694 9.65923E-05-2.74374E-05-2.96253E-05-5.20692E-06-1.19956E-19 1.70385E-19
 -1      2695 9.63140E-05-2.74543E-05-2.95175E-05-4.66308E-06 2.73034E-19-2.24217E-19
 -1      2696 9.55132E-05-2.67395E-05-2.94732E-05-5.71798E-06-2.75388E-19 9.57413E-19
 -1      2697 9.63078E-05-2.75671E-05-2.94492E-05-4.14132E-06 5.92944E-19 9.51840E-20
 -1      2698 9.60862E-05-2.76121E-05-2.93515E-05-3.67454E-06 7.12976E-19 4.38596E-19
 -1      2699 9.54808E-05-2.69750E-05-2.93586E-05-4.57577E-06 5.15707E-19 5.71814E-19
 -1      2700 9.60799E-05-2.77248E-05-2.92854E-05-3.23737E-06 3.79886E-19 2.54011E-19
 -1      2701 9.59021E-05-2.77784E-05-2.92004E-05-2.84842E-06 4.72825E-19 1.25494E-19
 -1      2702 9.54615E-05-2.72396E-05-2.92374E-05-3.60379E-06 5.12687E-19 6.69079E-19
 -1      2703 9.58926E-05-2.78797E-05-2.91403E-05-2.48950E-06 5.99265E-19 5.51883E-19
 -1      2704 9.57505E-05-2.79322E-05-2.90686E-05-2.17279E-06 5.16588E-19 3.36868E-19
 -1      2705 9.54404E-05-2.74922E-05-2.91205E-05-2.79428E-06 4.08360E-19 5.28303E-19
 -1      2706 9.57382E-05-2.80183E-05-2.90160E-05-1.88333E-06 3.14691E-19-1.56125E-19
 -1      2707 9.56258E-05-2.80657E-05-2.89572E-05-1.63034E-06-2.60610E-20-7.48243E-19
 -1      2708 9.54148E-05-2.77153E-05-2.90144E-05-2.13272E-06 5.06868E-20 7.96877E-19
 -1      2709 9.56123E-05-2.81366E-05-2.89127E-05-1.40069E-06-1.24528E-19-5.42321E-19
 -1      2710 9.55248E-05-2.81774E-05-2.88653E-05-1.20201E-06-2.82895E-19-7.12335E-19
 -1      2711 9.53866E-05-2.79037E-05-2.89218E-05-1.60128E-06-1.93494E-20-4.03059E-19
 -1      2712 9.55114E-05-2.82344E-05-2.88286E-05-1.02263E-06-4.44560E-19-1.02687E-18
 -1      2713 9.54445E-05-2.82686E-05-2.87913E-05-8.69055E-07-2.46760E-19-1.53180E-18
 -1      2714 9.53583E-05-2.80584E-05-2.88435E-05-1.18119E-06-3.64900E-19-3.87296E-19
 -1      2715 9.54322E-05-2.83137E-05-2.87616E-05-7.31089E-07 1.02333E-19-1.60351E-18
 -1      2716 9.53820E-05-2.83419E-05-2.87327E-05-6.14243E-07 1.63294E-19-1.52288E-18
 -1      2717 9.53321E-05-2.81829E-05-2.87789E-05-8.54272E-07-3.87960E-19-7.66349E-19
 -1      2718 9.53714E-05-2.83770E-05-2.87092E-05-5.09804E-07 5.46817E-19-1.48949E-18
 -1      2719 9.53345E-05-2.83998E-05-2.86872E-05-4.22341E-07 4.03019E-19-9.54556E-19
 -1      2720 9.53091E-05-2.82814E-05-2.87268E-05-6.03823E-07 5.73417E-19-3.71746E-19
 -1      2721 9.53258E-05-2.84269E-05-2.86689E-05-3.44606E-07 1.35701E-19-7.55967E-19
 -1      2722 9.52993E-05-2.84452E-05-2.86524E-05-2.80282E-07 5.35628E-20-3.04002E-19
 -1      2723 9.52899E-05-2.83585E-05-2.86855E-05-4.15056E-07 5.05833E-19-7.04346E-19
 -1      2724 9.52924E-05-2.84658E-05-2.86384E-05-2.23490E-07-5.17687E-19-4.51096E-21
 -1      2725 9.52739E-05-2.84802E-05-2.86263E-05-1.77111E-07-1.39226E-19-3.57506E-19
 -1      2726 9.52746E-05-2.84178E-05-2.86534E-05-2.75243E-07-1.11227E-19-7.96049E-19
 -1      2727 9.52685E-05-2.84956E-05-2.86158E-05-1.36490E-07-5.58025E-19-1.01614E-18
 -1      2728 9.52561E-05-2.85068E-05-2.86071E-05-1.03816E-07-1.27343E-18-1.99892E-18
 -1      2729 9.52626E-05-2.84630E-05-2.86288E-05-1.73677E-07-1.09305E-18-1.10282E-18
 -1      2730 9.52521E-05-2.85183E-05-2.85994E-05-7.54870E-08-1.03330E-18-8.53258E-19
 -1      2731 9.52441E-05-2.85269E-05-2.85933E-05-5.31154E-08-5.10589E-19-1.03418E-18
 -1      2732 9.52536E-05-2.84969E-05-2.86104E-05-1.01524E-07-7.46067E-19-7.07137E-19
 -1      2733 9.52412E-05-2.85352E-05-2.85877E-05-3.39745E-08 2.38798E-19-1.68002E-18
 -1      2734 9.52364E-05-2.85417E-05-2.85836E-05-1.92141E-08-5.18273E-20-1.45866E-18
 -1      2735 9.52471E-05-2.85219E-05-2.85968E-05-5.16311E-08-5.90713E-20 4.02331E-19
 -1      2736 9.52343E-05-2.85476E-05-2.85796E-05-6.81736E-09-3.62848E-19-1.13940E-18
 -1      2737 9.52318E-05-2.85525E-05-2.85769E-05 2.42850E-09-8.01440E-19-6.15130E-19
 -1      2738 9.52424E-05-2.85400E-05-2.85870E-05-1.82977E-08 9.01823E-20-1.37501E-20
 -1      2739 9.52304E-05-2.85566E-05-2.85742E-05 9.97822E-09-1.53896E-18-1.34414E-19
 -1      2740 9.52294E-05-2.85602E-05-2.85726E-05 1.53190E-08-8.33938E-19 2.84898E-19
 -1      2741 9.52393E-05-2.85529E-05-2.85800E-05 2.95158E-09-1.20771E-18 8.55650E-19
 -1      2742 9.52285E-05-2.85629E-05-2.85708E-05 1.94710E-08-8.35040E-19 5.86520E-19
 -1      2743 9.52284E-05-2.85655E-05-2.85698E-05 2.21227E-08-5.85370E-19 4.44036E-19
 -1      2744 9.52373E-05-2.85618E-05-2.85753E-05 1.55758E-08-7.44319E-19 1.22106E-18
 -1      2745 9.52279E-05-2.85673E-05-2.85687E-05 2.39654E-08-3.76763E-19 3.95365E-19
 -1      2746 9.52284E-05-2.85690E-05-2.85683E-05 2.48306E-08-1.40039E-19 1.05819E-18
 -1      2747 9.52360E-05-2.85678E-05-2.85722E-05 2.22052E-08-5.55237E-19 9.54315E-19
 -1      2748 9.52281E-05-2.85701E-05-2.85677E-05 2.51668E-08 1.37718E-20 4.70471E-19
 -1      2749 9.52290E-05-2.85713E-05-2.85676E-05 2.49028E-08-7.43399E-19 3.20129E-19
 -1      2750 9.52354E-05-2.85715E-05-2.85703E-05 2.48049E-08-6.49956E-20 1.56462E-18
 -1      2751 9.52288E-05-2.85719E-05-2.85672E-05 2.43119E-08-3.67850E-19 1.19854E-18
 -1      2752 9.52299E-05-2.85727E-05-2.85673E-05 2.33864E-08 8.14357E-19 1.21231E-18
 -1      2753 9.52351E-05-2.85738E-05-2.85692E-05 2.48152E-08 1.72514E-19 1.93986E-18
 -1      2754 9.52298E-05-2.85729E-05-2.85673E-05 2.22766E-08 1.46251E-18 4.50778E-19
 -1      2755 9.52309E-05-2.85734E-05-2.85675E-05 2.10132E-08 1.56120E-18 3.95687E-19
 -1      2756 9.52351E-05-2.85750E-05-2.85686E-05 2.32688E-08 5.19398E-19 1.78822E-18
 -1      2757 9.52309E-05-2.85734E-05-2.85675E-05 1.96632E-08 6.18153E-19 7.34208E-19
 -1      2758 9.52319E-05-2.85737E-05-2.85678E-05 1.82778E-08-1.82749E-19 4.06643E-19
 -1      2759 9.52352E-05-2.85755E-05-2.85685E-05 2.08866E-08 1.27789E-18 4.31073E-20
 -1      2760 9.52320E-05-2.85736E-05-2.85679E-05 1.68698E-08-1.56195E-19 4.13596E-19
 -1      2761 9.52329E-05-2.85737E-05-2.85682E-05 1.54988E-08 3.49116E-19 4.70323E-19
 -1      2762 9.52354E-05-2.85755E-05-2.85686E-05 1.81549E-08 1.17731E-19 1.09976E-18
 -1      2763 9.52330E-05-2.85736E-05-2.85684E-05 1.41447E-08 1.41657E-20-3.55104E-19
 -1      2764 9.52338E-05-2.85736E-05-2.85686E-05 1.28669E-08-7.50078E-20 1.14568E-19
 -1      2765 9.52356E-05-2.85752E-05-2.85688E-05 1.53865E-08 1.16224E-19 1.72354E-18
 -1      2766 9.52339E-05-2.85734E-05-2.85688E-05 1.16281E-08-4.43239E-19 4.85616E-19
 -1      2767 9.52346E-05-2.85734E-05-2.85691E-05 1.04816E-08 4.83508E-19 7.11820E-19
 -1      2768 9.52359E-05-2.85748E-05-2.85691E-05 1.27678E-08 8.93793E-20 1.10712E-19
 -1      2769 9.52347E-05-2.85732E-05-2.85692E-05 9.38315E-09 2.13417E-19 3.22811E-19
 -1      2770 9.52352E-05-2.85732E-05-2.85694E-05 8.37750E-09-1.25476E-19 4.12202E-19
 -1      2771 9.52362E-05-2.85744E-05-2.85693E-05 1.03950E-08 7.45020E-20 1.23789E-19
 -1      2772 9.52354E-05-2.85730E-05-2.85696E-05 7.42452E-09-1.17474E-18-6.09680E-19
 -1      2773 9.52358E-05-2.85730E-05-2.85698E-05 6.54941E-09-2.59868E-18-2.38294E-18
 -1      2774 9.52364E-05-2.85740E-05-2.85696E-05 8.30332E-09-1.59781E-18-6.43161E-19
 -1      2775 9.52360E-05-2.85729E-05-2.85699E-05 5.71884E-09-2.25626E-18-2.73125E-18
 -1      2776 9.52364E-05-2.85729E-05-2.85701E-05 4.96218E-09-2.01457E-18-3.20367E-18
 -1      2777 9.52367E-05-2.85737E-05-2.85699E-05 6.48188E-09-2.71752E-18-1.69578E-18
 -1      2778 1.36060E-04-4.51282E-05-3.90433E-05-1.57488E-05-2.20274E-18 1.76490E-18
 -1      2779 1.03865E-04-2.34075E-05-3.45398E-05 1.14387E-06 1.75866E-18-1.07578E-18
 -1      2780 1.04482E-04-2.35628E-05-3.46918E-05 4.38574E-06 1.98399E-18-8.28640E-19
 -1      2781 1.08952E-04-3.42741E-05-3.20598E-05-8.15051E-06 6.51818E-19-2.05671E-18
 -1      2782 1.08129E-04-3.24978E-05-3.23793E-05-8.62202E-06 9.43825E-19-2.23088E-18
 -1      2783 1.09192E-04-3.61975E-05-3.12936E-05-5.37759E-06 4.65359E-19-1.72793E-18
 -1      2784 1.08970E-04-3.54156E-05-3.15288E-05-6.71892E-06 5.52737E-19-1.83651E-18
 -1      2785 1.11093E-04-3.60325E-05-3.21300E-05-7.34917E-06 5.01585E-19-2.41707E-18
 -1      2786 1.07989E-04-3.61404E-05-3.07756E-05-1.99328E-06 2.60774E-19-1.83948E-18
 -1      2787 1.08324E-04-3.62356E-05-3.09272E-05-3.51858E-06 5.42323E-19-1.54558E-18
 -1      2788 1.10197E-04-3.75570E-05-3.11181E-05-3.79506E-06 4.54517E-19-2.08024E-18
 -1      2789 1.06019E-04-3.48978E-05-3.04537E-05 9.01058E-07 1.94734E-19-1.41419E-18
 -1      2790 1.06690E-04-3.54882E-05-3.05532E-05-3.83008E-07 1.08288E-19-1.60041E-18
 -1      2791 1.07961E-04-3.68982E-05-3.04681E-05-2.38487E-07 2.70999E-19-1.90280E-18
 -1      2792 1.03902E-04-3.32651E-05-3.02472E-05 2.89530E-06 2.89066E-19-1.10894E-18
 -1      2793 1.04693E-04-3.40049E-05-3.03259E-05 2.00992E-06 4.97581E-19-1.01793E-18
 -1      2794 1.05288E-04-3.51218E-05-3.00949E-05 2.45502E-06 1.45415E-19-1.50881E-18
 -1      2795 1.01993E-04-3.17350E-05-3.00903E-05 4.00621E-06 2.01138E-19-1.59052E-18
 -1      2796 1.02765E-04-3.24200E-05-3.01681E-05 3.51205E-06 2.38110E-19-1.35637E-18
 -1      2797 1.02803E-04-3.31200E-05-2.98881E-05 4.11125E-06 4.28145E-19-1.19821E-18
 -1      2798 1.00416E-04-3.05145E-05-2.99439E-05 4.42160E-06 5.74056E-19-1.64096E-18
 -1      2799 1.01105E-04-3.10621E-05-3.00291E-05 4.23966E-06 2.43740E-19-1.37968E-18
 -1      2800 1.00773E-04-3.13785E-05-2.97601E-05 4.88913E-06 3.72617E-19-1.46717E-18
 -1      2801 9.91718E-05-2.96359E-05-2.97926E-05 4.35883E-06 5.95875E-19-1.42140E-18
 -1      2802 9.97592E-05-3.00353E-05-2.98851E-05 4.39391E-06 5.64491E-19-1.61453E-18
 -1      2803 9.92301E-05-3.00637E-05-2.96573E-05 5.03321E-06 6.17404E-19-1.37773E-18
 -1      2804 9.82112E-05-2.90512E-05-2.96353E-05 4.00579E-06 1.03440E-18-1.40857E-18
 -1      2805 9.86993E-05-2.93236E-05-2.97309E-05 4.17327E-06 9.15392E-19-1.34000E-18
 -1      2806 9.81045E-05-2.91674E-05-2.95547E-05 4.77054E-06 6.38709E-19-1.36560E-18
 -1      2807 9.74749E-05-2.86895E-05-2.94773E-05 3.50427E-06 1.89244E-19-1.09735E-18
 -1      2808 9.78744E-05-2.88648E-05-2.95709E-05 3.73909E-06 5.62854E-19-1.19321E-18
 -1      2809 9.72986E-05-2.86099E-05-2.94452E-05 4.27854E-06 5.26691E-19-5.73997E-19
 -1      2810 9.69112E-05-2.84839E-05-2.93253E-05 2.95201E-06-1.54661E-19-9.98424E-19
 -1      2811 9.72343E-05-2.85902E-05-2.94128E-05 3.20893E-06 7.16070E-20-1.10049E-18
 -1      2812 9.67242E-05-2.82983E-05-2.93305E-05 3.68364E-06-2.64470E-21-2.06164E-19
 -1      2813 9.64794E-05-2.83811E-05-2.91851E-05 2.41110E-06-1.76638E-20-1.25218E-18
 -1      2814 9.67379E-05-2.84407E-05-2.92636E-05 2.66142E-06 1.28062E-19-7.98655E-19
 -1      2815 9.63130E-05-2.81518E-05-2.92158E-05 3.06979E-06-1.10822E-19-4.08268E-19
 -1      2816 9.61490E-05-2.83424E-05-2.90605E-05 1.91713E-06-7.56669E-19-1.67606E-18
 -1      2817 9.63532E-05-2.83719E-05-2.91284E-05 2.14455E-06-5.86380E-19-1.68475E-18
 -1      2818 9.60161E-05-2.81086E-05-2.91062E-05 2.48856E-06-3.42180E-19-3.96253E-19
 -1      2819 9.58969E-05-2.83412E-05-2.89530E-05 1.48724E-06-5.74574E-19-1.58873E-18
 -1      2820 9.60562E-05-2.83520E-05-2.90102E-05 1.68412E-06-5.55638E-19-1.85303E-18
 -1      2821 9.57996E-05-2.81251E-05-2.90058E-05 1.96817E-06-4.62949E-19-1.10542E-18
 -1      2822 9.57058E-05-2.83602E-05-2.88630E-05 1.12656E-06-6.00149E-19-8.58411E-19
 -1      2823 9.58282E-05-2.83599E-05-2.89098E-05 1.29084E-06-9.19075E-19-1.62579E-18
 -1      2824 9.56407E-05-2.81723E-05-2.89170E-05 1.52089E-06-1.01252E-18-7.77267E-19
 -1      2825 9.55623E-05-2.83882E-05-2.87894E-05 8.32831E-07-3.98336E-19-4.59146E-19
 -1      2826 9.56548E-05-2.83820E-05-2.88269E-05 9.65867E-07-3.21265E-19-5.21033E-19
 -1      2827 9.55235E-05-2.82321E-05-2.88409E-05 1.14867E-06-9.79797E-19-9.87266E-19
 -1      2828 9.54559E-05-2.84188E-05-2.87306E-05 5.99741E-07-5.59578E-19-2.10562E-19
 -1      2829 9.55245E-05-2.84099E-05-2.87599E-05 7.04690E-07-5.74472E-19-1.81865E-19
 -1      2830 9.54372E-05-2.82936E-05-2.87772E-05 8.47237E-07-7.18441E-19 1.01249E-21
 -1      2831 9.53782E-05-2.84482E-05-2.86846E-05 4.19113E-07-7.88283E-19 9.82120E-19
 -1      2832 9.54281E-05-2.84385E-05-2.87070E-05 4.99929E-07-6.77848E-19 4.11289E-19
 -1      2833 9.53737E-05-2.83507E-05-2.87253E-05 6.08967E-07-1.00060E-18 6.86785E-19
 -1      2834 9.53225E-05-2.84746E-05-2.86494E-05 2.82325E-07-2.92814E-19 1.34800E-18
 -1      2835 9.53580E-05-2.84651E-05-2.86661E-05 3.43106E-07-9.63260E-20 1.30343E-18
 -1      2836 9.53276E-05-2.84007E-05-2.86839E-05 4.24852E-07-8.55522E-19 9.76800E-19
 -1      2837 9.52836E-05-2.84971E-05-2.86230E-05 1.81138E-07-4.25934E-19 1.77854E-18
 -1      2838 9.53080E-05-2.84885E-05-2.86352E-05 2.25754E-07-7.62911E-19 1.41704E-18
 -1      2839 9.52944E-05-2.84427E-05-2.86515E-05 2.85723E-07-4.80276E-19 1.33560E-18
 -1      2840 9.52572E-05-2.85156E-05-2.86036E-05 1.08149E-07 3.13570E-19 2.04499E-18
 -1      2841 9.52734E-05-2.85083E-05-2.86124E-05 1.40044E-07 1.77800E-19 2.23248E-18
 -1      2842 9.52709E-05-2.84767E-05-2.86267E-05 1.82977E-07-5.77613E-19 1.79941E-18
 -1      2843 9.52400E-05-2.85305E-05-2.85898E-05 5.69899E-08 1.60587E-18 1.21054E-18
 -1      2844 9.52502E-05-2.85244E-05-2.85959E-05 7.91004E-08 1.16340E-18 1.97288E-18
 -1      2845 9.52547E-05-2.85036E-05-2.86081E-05 1.08964E-07 9.41647E-19 1.33491E-18
 -1      2846 9.52294E-05-2.85422E-05-2.85803E-05 2.23628E-08 8.55556E-19 1.39894E-18
 -1      2847 9.52353E-05-2.85372E-05-2.85843E-05 3.71154E-08 1.38742E-18 1.60733E-18
 -1      2848 9.52438E-05-2.85243E-05-2.85945E-05 5.71528E-08 1.45465E-18 9.29768E-19
 -1      2849 9.52236E-05-2.85511E-05-2.85739E-05-2.41885E-11 8.61245E-20 1.85536E-18
 -1      2850 9.52265E-05-2.85471E-05-2.85764E-05 9.32297E-09 3.24845E-19 1.74525E-18
 -1      2851 9.52369E-05-2.85399E-05-2.85847E-05 2.21292E-08 5.40986E-19 1.84511E-18
 -1      2852 9.52209E-05-2.85578E-05-2.85699E-05-1.35672E-08-1.59384E-18 2.28787E-18
 -1      2853 9.52218E-05-2.85547E-05-2.85713E-05-8.09074E-09-4.33799E-19 1.69963E-18
 -1      2854 9.52327E-05-2.85513E-05-2.85780E-05-4.79544E-10-2.33303E-19 3.30823E-18
 -1      2855 9.52203E-05-2.85627E-05-2.85675E-05-2.08958E-08-2.08458E-18 3.21887E-18
 -1      2856 9.52200E-05-2.85603E-05-2.85683E-05-1.81099E-08-2.02882E-18 2.29306E-18
 -1      2857 9.52305E-05-2.85595E-05-2.85734E-05-1.41279E-08-1.93303E-18 2.05030E-18
 -1      2858 9.52210E-05-2.85662E-05-2.85664E-05-2.40026E-08-8.81031E-19 2.51486E-18
 -1      2859 9.52200E-05-2.85644E-05-2.85666E-05-2.30193E-08-9.40710E-19 3.40805E-18
 -1      2860 9.52295E-05-2.85652E-05-2.85705E-05-2.14866E-08-1.33136E-18 1.19636E-18
 -1      2861 9.52225E-05-2.85686E-05-2.85660E-05-2.43648E-08-9.83665E-19 1.03052E-18
 -1      2862 9.52211E-05-2.85673E-05-2.85659E-05-2.45309E-08-1.08521E-18 1.74600E-18
 -1      2863 9.52295E-05-2.85690E-05-2.85688E-05-2.45770E-08-3.48825E-19 1.99271E-18
 -1      2864 9.52244E-05-2.85702E-05-2.85660E-05-2.30514E-08-5.73233E-19 1.23638E-18
 -1      2865 9.52228E-05-2.85693E-05-2.85658E-05-2.38985E-08-6.00026E-19 1.75795E-18
 -1      2866 9.52299E-05-2.85714E-05-2.85680E-05-2.48961E-08-1.20974E-18 1.28603E-18
 -1      2867 9.52263E-05-2.85713E-05-2.85664E-05-2.08155E-08 7.06445E-19 4.87946E-19
 -1      2868 9.52248E-05-2.85706E-05-2.85661E-05-2.20171E-08 1.71285E-19 4.27052E-19
 -1      2869 9.52307E-05-2.85729E-05-2.85677E-05-2.35265E-08 2.73909E-19 5.58525E-19
 -1      2870 9.52282E-05-2.85719E-05-2.85670E-05-1.81697E-08 2.66405E-19 4.44150E-19
 -1      2871 9.52268E-05-2.85714E-05-2.85666E-05-1.95067E-08 7.82288E-19 5.38715E-19
 -1      2872 9.52315E-05-2.85736E-05-2.85677E-05-2.12297E-08 4.71876E-19 1.63689E-19
 -1      2873 9.52300E-05-2.85722E-05-2.85676E-05-1.54474E-08 6.48339E-19-1.76400E-19
 -1      2874 9.52287E-05-2.85719E-05-2.85672E-05-1.67803E-08 5.25718E-19 1.47678E-19
 -1      2875 9.52324E-05-2.85739E-05-2.85679E-05-1.85235E-08 7.15242E-19 8.56753E-19
 -1      2876 9.52315E-05-2.85724E-05-2.85682E-05-1.28505E-08-6.63651E-20 7.22103E-19
 -1      2877 9.52304E-05-2.85722E-05-2.85678E-05-1.40977E-08-3.25063E-19 3.50254E-19
 -1      2878 9.52333E-05-2.85739E-05-2.85683E-05-1.57441E-08 8.89350E-20 2.41672E-19
 -1      2879 9.52328E-05-2.85724E-05-2.85687E-05-1.04868E-08-1.47885E-19 3.20601E-18
 -1      2880 9.52319E-05-2.85723E-05-2.85684E-05-1.16081E-08-3.80303E-19 2.20919E-18
 -1      2881 9.52341E-05-2.85738E-05-2.85687E-05-1.30945E-08-1.51367E-18 5.83409E-19
 -1      2882 9.52340E-05-2.85724E-05-2.85692E-05-8.39782E-09 4.06066E-19 3.61430E-18
 -1      2883 9.52332E-05-2.85723E-05-2.85690E-05-9.38176E-09 5.67731E-19 4.17276E-18
 -1      2884 9.52348E-05-2.85735E-05-2.85691E-05-1.06825E-08-4.51541E-19 3.66004E-18
 -1      2885 9.52349E-05-2.85724E-05-2.85697E-05-6.58000E-09-3.34392E-19 3.37809E-18
 -1      2886 9.52343E-05-2.85723E-05-2.85694E-05-7.43429E-09 5.10340E-19 4.04121E-18
 -1      2887 9.52354E-05-2.85733E-05-2.85695E-05-8.54945E-09 4.87512E-19 3.38408E-18
 -1      2888 9.52357E-05-2.85724E-05-2.85700E-05-5.00128E-09 3.96917E-19 6.37251E-19
 -1      2889 9.52352E-05-2.85723E-05-2.85698E-05-5.73965E-09 3.56873E-20 2.33358E-18
 -1      2890 9.52360E-05-2.85731E-05-2.85698E-05-6.69184E-09 1.06370E-18 3.95974E-18
 -1      2891 9.52364E-05-2.85726E-05-2.85702E-05-3.82210E-09-4.21269E-19 1.43560E-18
 -1      2892 9.52360E-05-2.85725E-05-2.85701E-05-4.49231E-09-2.49061E-19 9.69373E-19
 -1      2893 9.52365E-05-2.85731E-05-2.85700E-05-5.27598E-09 6.91758E-19 2.54328E-18
 -1      2894 9.52371E-05-2.85733E-05-2.85702E-05-4.21282E-09-6.46823E-19 2.53642E-18
 -1      2895 1.13827E-04-3.20114E-05-3.50826E-05 1.69424E-05 2.00627E-18 4.17657E-19
 -1      2896 1.14238E-04-3.09517E-05-3.56927E-05 1.74004E-05 1.87580E-18-3.20569E-19
 -1      2897 1.15324E-04-3.23102E-05-3.55467E-05 1.69625E-05 1.76196E-18-3.01904E-19
 -1      2898 1.12107E-04-3.11677E-05-3.46884E-05 1.57974E-05 2.09644E-18 3.40763E-19
 -1      2899 9.52410E-05-2.85777E-05-2.85700E-05-4.20039E-10-1.60582E-18-1.43052E-18
 -1      2900 9.52409E-05-2.85776E-05-2.85700E-05-1.15316E-09-5.70222E-19-1.00872E-18
 -1      2901 9.52365E-05-2.85729E-05-2.85701E-05 4.47063E-09-1.62816E-18-2.49574E-18
 -1      2902 9.52367E-05-2.85729E-05-2.85702E-05 3.99297E-09-2.01731E-18-2.28190E-18
 -1      2903 9.52372E-05-2.85734E-05-2.85702E-05 4.15926E-09-1.22383E-18 1.54637E-18
 -1      2904 9.52369E-05-2.85735E-05-2.85701E-05 5.13390E-09-1.67200E-18 2.39663E-19
 -1      2905 9.52401E-05-2.85766E-05-2.85700E-05-3.25773E-09 7.57226E-19-2.33703E-19
 -1      2906 9.52397E-05-2.85762E-05-2.85701E-05-3.71320E-09 1.22362E-18-8.46378E-19
 -1      2907 9.52409E-05-2.85776E-05-2.85700E-05 1.17828E-09-1.66606E-18-1.14074E-18
 -1      2908 9.52410E-05-2.85777E-05-2.85700E-05 4.45888E-10-1.73255E-18-5.65980E-19
 -1      2909 9.52416E-05-2.85781E-05-2.85701E-05 1.41992E-11-1.19463E-18-1.81934E-18
 -1      2910 9.52407E-05-2.85773E-05-2.85700E-05-1.96531E-09-1.08346E-18 2.20861E-19
 -1      2911 9.52405E-05-2.85771E-05-2.85700E-05-2.60305E-09-3.41630E-19 5.77129E-19
 -1      2912 9.52407E-05-2.85772E-05-2.85701E-05-3.28807E-09 6.47628E-19-6.32892E-19
 -1      2913 9.52414E-05-2.85779E-05-2.85701E-05-1.74612E-09-1.43701E-18 1.67071E-19
 -1      2914 9.52405E-05-2.85771E-05-2.85700E-05 2.60253E-09 5.35563E-19-1.48583E-18
 -1      2915 9.52407E-05-2.85773E-05-2.85700E-05 1.97644E-09-9.65366E-19-1.36588E-18
 -1      2916 9.52414E-05-2.85778E-05-2.85701E-05 1.75941E-09-6.98965E-19-6.27660E-19
 -1      2917 9.52397E-05-2.85762E-05-2.85701E-05 3.71526E-09 2.27500E-18 6.07385E-19
 -1      2918 9.52401E-05-2.85766E-05-2.85700E-05 3.25865E-09 1.41303E-18-5.57712E-19
 -1      2919 9.52407E-05-2.85772E-05-2.85701E-05 3.28778E-09 9.48253E-19-1.12012E-21
 -1      2920 9.52386E-05-2.85751E-05-2.85701E-05 4.32373E-09 9.40035E-19 1.82185E-18
 -1      2921 9.52391E-05-2.85756E-05-2.85701E-05 4.12280E-09 1.85119E-18 1.20836E-18
 -1      2922 9.52397E-05-2.85762E-05-2.85701E-05 4.41489E-09 1.75695E-18 5.92939E-19
 -1      2923 9.52376E-05-2.85739E-05-2.85702E-05 4.30560E-09-1.08976E-18 5.92791E-19
 -1      2924 9.52381E-05-2.85745E-05-2.85701E-05 4.37955E-09 3.43321E-19 5.93816E-19
 -1      2925 9.52386E-05-2.85751E-05-2.85701E-05 4.88619E-09 4.16537E-19 9.43690E-19
 -1      2926 9.52375E-05-2.85740E-05-2.85701E-05 4.78216E-09-5.82964E-19 5.52609E-19
 -1      2927 1.05594E-04-2.45180E-05-3.47029E-05 8.22428E-06 2.19482E-18-3.56694E-19
 -1      2928 1.07145E-04-2.61265E-05-3.47658E-05 1.10407E-05 2.35862E-18-6.95593E-20
 -1      2929 1.06886E-04-2.27379E-05-3.60814E-05 7.26434E-06 2.38732E-18-7.70595E-19
 -1      2930 1.45603E-04-2.18758E-05-5.32677E-05-1.47381E-05-6.54354E-18-3.42731E-19
 -1      2931 1.40273E-04-2.69807E-05-4.87419E-05-1.76109E-05-5.58343E-18 6.96049E-19
 -1      2932 1.32811E-04-5.08222E-05-3.56169E-05 8.01332E-06-1.38106E-19-4.14750E-18
 -1      2933 1.26812E-04-5.31800E-05-3.15003E-05 1.58621E-05-1.09860E-18-3.80138E-18
 -1      2934 1.35542E-04-5.07859E-05-3.64919E-05-3.89821E-06-1.45790E-18 4.87150E-19
 -1      2935 1.25720E-04-4.96978E-05-3.23326E-05 5.23215E-06-3.48210E-19-3.30237E-19
 -1      2936 3.61668E-05-1.27681E-05-9.56781E-06-1.74333E-05 9.67206E-19 5.05890E-18
 -1      2937 4.60891E-05-1.92029E-05-1.12201E-05-2.89283E-05 1.53969E-18 4.83105E-18
 -1      2938 8.48229E-05-4.00426E-05-1.92307E-05 3.90295E-05-3.01745E-18-7.78688E-19
 -1      2939 6.75001E-05-3.01028E-05-1.54044E-05 3.68995E-05-3.21333E-18 1.27436E-18
 -1      2940 1.07174E-04-3.03531E-05-3.30075E-05-8.63878E-06 1.06639E-18-2.27988E-18
 -1      2941 1.06093E-04-2.80813E-05-3.33593E-05-7.60975E-06 1.18901E-18-2.15403E-18
 -1      2942 1.10081E-04-3.19849E-05-3.34528E-05-9.09458E-06 9.57447E-19-2.58607E-18
 -1      2943 1.04827E-04-2.58660E-05-3.39281E-05-5.42526E-06 1.36968E-18-1.86981E-18
 -1      2944 1.04259E-04-2.42603E-05-3.42254E-05-2.85698E-06 1.63984E-18-1.47285E-18
 -1      2945 1.07648E-04-2.63860E-05-3.48182E-05-7.13485E-06 1.64750E-18-2.37298E-18
 -1      2946 1.30839E-04-4.47295E-05-3.69695E-05-1.58431E-05-1.26616E-18 1.92290E-18
 -1      2947 1.25023E-04-1.68377E-05-4.68547E-05 1.43885E-05 4.72337E-18-5.06949E-19
 -1      2948 1.24036E-04-1.27821E-05-4.82580E-05 1.17388E-05 5.20428E-18-1.23836E-18
 -1      2949 6.26713E-05-1.82052E-05-1.86845E-05-3.23045E-05-2.53909E-18-5.23392E-18
 -1      2950 7.86705E-05-2.69611E-05-2.21108E-05-3.18061E-05-2.16936E-18-4.13860E-18
 -1      2951 5.97746E-05-2.69655E-05-1.35053E-05-3.46467E-05 2.43787E-18 3.81430E-18
 -1      2952 7.55850E-05-3.58299E-05-1.69246E-05-3.81073E-05 2.75677E-18 2.37148E-18
 -1      2953 1.09068E-04-3.39739E-05-3.22523E-05-1.28284E-06-7.15558E-19-1.43076E-18
 -1      2954 1.03160E-04-3.23453E-05-3.03007E-05-7.85563E-06-1.59138E-18-1.67220E-18
 -1      2955 1.14650E-04-3.64192E-05-3.35649E-05 3.44872E-06-1.53882E-19-6.72940E-19
 -1      2956 1.21717E-04-4.26242E-05-3.36932E-05-8.62624E-06 2.20149E-19-5.64547E-19
 -1      2957 1.28896E-04-4.10717E-05-3.81025E-05 8.11388E-07 1.64632E-18 1.92435E-19
 -1      2958 1.23316E-04-9.02669E-06-4.94776E-05 6.80299E-06 5.64907E-18-1.79441E-18
 -1      2959 1.24248E-04-9.82956E-06-4.95991E-05 4.02896E-07 5.58766E-18-2.65307E-18
 -1      2960 1.27273E-04-1.54380E-05-4.85589E-05-5.22285E-06 4.99389E-18-3.66268E-18
 -1      2961 1.31387E-04-2.33125E-05-4.66014E-05-7.08921E-06 4.15936E-18-4.40987E-18
 -1      2962 1.34168E-04-3.35277E-05-4.37571E-05-5.23755E-06 2.83333E-18-4.74518E-18
 -1      2963 1.34210E-04-4.23616E-05-3.94013E-05-8.95738E-07 1.09797E-18-4.69235E-18
 -1      2964 9.50648E-05-3.47685E-05-2.55319E-05-2.59323E-05-1.70275E-18-2.90732E-18
 -1      2965 1.09204E-04-4.07032E-05-2.97183E-05-1.95406E-05-7.03884E-19-1.66270E-18
 -1      2966 1.98864E-05 8.84815E-06-1.18220E-05-2.88231E-06-8.32839E-19-7.87709E-18
 -1      2967 2.25984E-05 8.05187E-06-1.29002E-05-1.32829E-05-1.33122E-18-7.52642E-18
 -1      2968 4.89997E-05-1.99536E-05-1.23361E-05 3.12311E-05-2.62061E-18 2.87165E-18
 -1      2969 3.81489E-05-1.31054E-05-1.01219E-05 1.99344E-05-1.88677E-18 4.24279E-18
 -1      2970 4.34585E-05-1.16203E-05-1.30426E-05 1.31309E-05-1.77281E-18 3.85368E-18
 -1      2971 3.48746E-05-2.53383E-07-1.45439E-05 1.68301E-05 6.23628E-19-6.72957E-18
 -1      2972 2.42313E-05 6.40198E-06-1.27009E-05 6.34792E-06 1.41772E-19-7.47792E-18
 -1      2973 1.14711E-04-5.22356E-05-2.68582E-05 2.71897E-05-1.95188E-18-3.14940E-18
 -1      2974 1.00481E-04-4.75131E-05-2.23051E-05 3.50142E-05-2.59023E-18-2.03943E-18
 -1      2975 9.42013E-05-4.24281E-05-2.18766E-05 3.32120E-05-2.92380E-18-1.35652E-18
 -1      2976 1.36718E-04-1.71837E-05-5.18529E-05-1.42566E-05-6.62930E-18 1.91641E-19
 -1      2977 1.31643E-04-1.35376E-05-5.12720E-05-3.39712E-06-6.81036E-18-1.40356E-18
 -1      2978 1.32393E-04-1.42422E-05-5.12096E-05-8.76898E-06-6.63354E-18-6.26341E-19
 -1      2979 1.37455E-04-5.06610E-05-3.74869E-05-5.72193E-07-9.32927E-19-3.90297E-18
 -1      2980 1.38790E-04-4.51196E-05-4.07128E-05 6.25566E-06-2.20806E-18-4.23876E-18
 -1      2981 7.06921E-05-2.47881E-05-1.95866E-05 2.71184E-05 9.65618E-19-4.42077E-18
 -1      2982 5.09081E-05-1.16208E-05-1.61443E-05 2.31170E-05 1.01940E-18-6.00578E-18
 -1      2983 1.09032E-04-2.81342E-05-3.46088E-05 1.34117E-05 2.32886E-18 1.10276E-19
 -1      2984 1.10937E-04-2.99844E-05-3.47337E-05 1.50587E-05 2.26731E-18 4.49593E-19
 -1      2985 1.10018E-04-2.62612E-05-3.58732E-05 1.38983E-05 2.55520E-18-1.66997E-19
 -1      2986 1.10449E-04-4.53580E-05-2.82525E-05 1.67544E-05 1.35631E-19-1.61107E-18
 -1      2987 9.22974E-05-3.62734E-05-2.35871E-05 2.25629E-05 9.73347E-19-2.99871E-18
 -1      2988 1.29953E-04-2.54030E-05-4.55092E-05-1.91304E-05-4.91724E-18 1.21375E-18
 -1      2989 1.31051E-04-1.69831E-05-4.93461E-05-1.13846E-05-6.16894E-18 1.82641E-21
 -1      2990 1.03305E-04-3.47957E-05-2.93494E-05-1.26893E-05-1.69142E-18-1.76832E-18
 -1      2991 1.25298E-04-3.92892E-05-3.69908E-05 6.29604E-06 1.08260E-18 6.33263E-19
 -1      2992 1.30136E-04-3.79463E-05-3.96060E-05 8.35625E-06 2.13145E-18 5.65659E-19
 -1      2993 1.27034E-04-3.34131E-05-4.05709E-05 1.42405E-05 2.71686E-18 9.73188E-19
 -1      2994 6.38768E-05-1.42814E-05-2.07830E-05-2.69302E-05-2.89759E-18-4.96520E-18
 -1      2995 4.80132E-05-6.38630E-06-1.76461E-05-2.69328E-05-2.72565E-18-5.99233E-18
 -1      2996 1.19083E-04-1.18294E-05-4.63259E-05 8.98515E-06 4.90496E-18-1.54107E-18
 -1      2997 1.33484E-04-3.79946E-05-4.12654E-05 1.07602E-05-2.77912E-18-4.08122E-18
 -1      2998 1.27760E-04-1.88959E-05-4.70143E-05-1.39097E-05-5.77454E-18 4.04617E-19
 -1      2999 1.23714E-04-1.69023E-05-4.63742E-05-7.67306E-06-5.98143E-18-2.89566E-19
 -1      3000 1.23520E-04-1.71785E-05-4.59135E-05 4.38544E-07-5.58639E-18-1.52776E-18
 -1      3001 1.32612E-04-4.49646E-05-3.73862E-05-1.62220E-05-1.54044E-18 2.08495E-18
 -1      3002 1.34354E-04-4.88619E-05-3.70198E-05-7.49400E-06-1.63386E-18 1.06626E-18
 -1      3003 9.52397E-05-2.85762E-05-2.85701E-05-4.41139E-09 1.04375E-18 1.52058E-19
 -1      3004 9.52391E-05-2.85756E-05-2.85701E-05-4.12291E-09 9.90960E-19 2.00679E-19
 -1      3005 9.52386E-05-2.85751E-05-2.85701E-05-4.32642E-09 6.80002E-20 2.57964E-18
 -1      3006 1.05829E-04-2.23835E-05-3.57592E-05-9.16167E-07 1.98404E-18-1.69357E-18
 -1      3007 1.13134E-04-3.01490E-05-3.55446E-05 1.70256E-05 2.28214E-18 1.07299E-19
 -1      3008 4.16898E-05-1.12846E-05-1.24482E-05-1.02183E-05 1.84230E-20 4.36254E-18
 -1      3009 8.47023E-05-2.93257E-05-2.32127E-05 2.06056E-05 1.21930E-18-3.48893E-18
 -1      3010 9.52381E-05-2.85745E-05-2.85701E-05-4.41696E-09 5.40188E-19 3.12308E-18
 -1      3011 9.52376E-05-2.85739E-05-2.85701E-05-4.34713E-09 3.70563E-19 2.70020E-18
 -1      3012 9.52373E-05-2.85738E-05-2.85701E-05-4.89386E-09 6.85774E-19 3.16707E-18
 -1      3013 9.52385E-05-2.85750E-05-2.85701E-05-4.93347E-09 1.07792E-19 2.39065E-18
 -1      3014 3.15528E-05 3.42067E-06-1.43940E-05-2.08504E-05-2.20663E-18-7.05197E-18
 -1      3015 1.09934E-04-3.84949E-05-3.05628E-05 4.46863E-06 5.34795E-19-9.85768E-19
 -1      3016 1.17610E-04-4.35395E-05-3.15638E-05 2.25057E-06 1.77586E-19-1.71921E-19
 -1      3017 1.31277E-04-4.58229E-05-3.67762E-05 5.94909E-07 1.42857E-19-4.73168E-18
 -1      3018 1.21028E-04-5.36458E-05-2.88829E-05 2.07738E-05-1.61847E-18-3.14419E-18
 -1      3019 1.12411E-04-4.99987E-05-2.65993E-05 2.37626E-05-2.01589E-18-2.62122E-18
 -1      3020 1.23271E-04-5.17053E-05-3.06758E-05 1.29406E-05-1.33226E-18-3.60458E-18
 -1      3021 6.38651E-05-2.46612E-05-1.62937E-05 3.08856E-05-3.02894E-18 1.80291E-18
 -1      3022 1.18682E-04-4.63706E-05-3.08388E-05 6.70106E-06 2.35158E-19-5.45330E-19
 -1      3023 1.24758E-04-2.61434E-05-4.24177E-05 1.68068E-05 3.45971E-18 3.46278E-19
 -1      3024 1.25820E-04-2.19436E-05-4.49377E-05 1.59481E-05 4.10705E-18-2.77456E-19
 -1      3025 1.20302E-04-1.97909E-05-4.33898E-05 1.59916E-05 3.76908E-18-6.41786E-19
 -1      3026 8.85646E-05-2.98854E-05-2.49286E-05-2.50299E-05-2.32256E-18-3.22769E-18
 -1      3027 1.28245E-04-2.91514E-05-4.27844E-05-7.99565E-06 2.63364E-18-4.82348E-18
 -1      3028 1.22273E-04-1.34522E-05-4.71192E-05-3.22391E-06 4.78859E-18-3.04905E-18
 -1      3029 1.19451E-04-1.72081E-05-4.40737E-05-6.19585E-06 3.92113E-18-3.53713E-18
 -1      3030 1.16114E-04-1.20223E-05-4.49592E-05-7.26430E-07 4.45666E-18-2.23977E-18
 -1      3031 5.84205E-05-2.27604E-05-1.47159E-05-2.94840E-05 1.79084E-18 3.84722E-18
 -1      3032 1.28565E-04-1.68380E-05-4.85744E-05 2.16495E-06-6.13358E-18-1.97629E-18
 -1      3033 9.81744E-05-3.38320E-05-2.76034E-05 1.19939E-05 9.12969E-19-1.95813E-18
 -1      3034 8.95461E-05-4.13744E-05-2.01906E-05-3.55990E-05 2.76832E-18 9.88117E-19
 -1      3035 1.01213E-04-4.60599E-05-2.36417E-05-2.97690E-05 2.78489E-18 1.55378E-20
 -1      3036 8.33272E-05-3.58077E-05-2.00077E-05-3.31897E-05 2.62580E-18 1.33593E-18
 -1      3037 1.15378E-04-4.07528E-05-3.18454E-05-9.96450E-06-7.90493E-19-9.14901E-19
 -1      3038 5.11202E-05-8.96065E-06-1.76892E-05 1.95200E-05 1.12862E-18-5.56998E-18
 -1      3039 4.42931E-05-5.88391E-06-1.61427E-05-2.89817E-05-2.36481E-18-6.36926E-18
 -1      3040 1.33711E-04-5.44975E-05-3.40629E-05-5.65317E-06 3.37966E-19-3.36177E-18
 -1      3041 1.25300E-04-5.62310E-05-2.94157E-05-1.98083E-05 1.70275E-18-1.80868E-18
 -1      3042 1.30447E-04-5.55899E-05-3.22327E-05-1.27546E-05 9.66809E-19-2.67768E-18
 -1      3043 1.26782E-04-5.33930E-05-3.15178E-05-9.29792E-06 6.14509E-19-2.75361E-18
 -1      3044 1.16470E-04-5.27912E-05-2.71927E-05-2.37642E-05 1.92314E-18-1.21510E-18
 -1      3045 1.15415E-04-1.42948E-05-4.36097E-05 1.11088E-05 4.36201E-18-1.10243E-18
 -1      3046 1.15098E-04-1.22646E-05-4.45135E-05 5.12589E-06 4.59282E-18-1.79802E-18
 -1      3047 1.17249E-04-3.31814E-05-3.61529E-05 1.62996E-05 1.62687E-18-5.55382E-19
 -1      3048 1.18817E-04-3.49358E-05-3.59002E-05 1.36094E-05 1.11822E-18-3.77247E-19
 -1      3049 1.21350E-04-5.09622E-05-2.99870E-05-1.27691E-05 1.38424E-18-2.02613E-18
 -1      3050 1.11100E-04-4.48367E-05-2.83775E-05-1.59554E-05 1.46696E-18-8.73303E-19
 -1      3051 1.06475E-04-4.05370E-05-2.80748E-05-1.66512E-05 1.94759E-18-8.36022E-19
 -1      3052 1.02727E-04-3.68207E-05-2.81731E-05-1.58526E-05 1.80034E-18-7.99169E-19
 -1      3053 9.94835E-05-3.35749E-05-2.81650E-05-1.55807E-05 1.60675E-18-7.40310E-19
 -1      3054 9.93083E-05-3.72747E-05-2.67869E-05-1.96725E-05 1.77053E-18-2.34853E-19
 -1      3055 9.77258E-05-3.12719E-05-2.84260E-05-1.42651E-05 1.22105E-18-6.56668E-19
 -1      3056 9.58550E-05-2.92442E-05-2.85250E-05-1.36179E-05 6.78716E-19-7.17256E-19
 -1      3057 9.41322E-05-3.07603E-05-2.72524E-05-1.66708E-05 1.28356E-18-4.64531E-19
 -1      3058 9.52355E-05-2.79808E-05-2.87816E-05-1.23414E-05 6.21681E-19-8.71144E-19
 -1      3059 9.42725E-05-2.68953E-05-2.88761E-05-1.15614E-05 4.03783E-19-4.11424E-19
 -1      3060 9.20045E-05-2.70405E-05-2.78752E-05-1.36963E-05 5.35926E-19-6.25891E-19
 -1      3061 9.42331E-05-2.63497E-05-2.90662E-05-1.04776E-05 1.34017E-19-7.78942E-20
 -1      3062 9.37863E-05-2.58638E-05-2.91187E-05-9.68682E-06 6.33815E-20-7.05159E-20
 -1      3063 9.14960E-05-2.52724E-05-2.83900E-05-1.12161E-05 4.85548E-19-7.98841E-19
 -1      3064 9.40020E-05-2.57413E-05-2.92371E-05-8.77673E-06-1.22993E-19-3.92220E-19
 -1      3065 9.38176E-05-2.56031E-05-2.92465E-05-8.02883E-06-6.54939E-20-5.55098E-19
 -1      3066 9.17456E-05-2.46646E-05-2.87461E-05-9.20206E-06-2.08872E-19-2.79573E-19
 -1      3067 9.41149E-05-2.57045E-05-2.93065E-05-7.25940E-06 3.12253E-19-1.89211E-19
 -1      3068 9.40502E-05-2.57489E-05-2.92836E-05-6.57864E-06-8.15330E-20 3.47494E-19
 -1      3069 9.22916E-05-2.47026E-05-2.89596E-05-7.54097E-06 2.51915E-19-2.94998E-19
 -1      3070 9.43445E-05-2.59514E-05-2.93019E-05-5.92489E-06-6.01990E-19 7.72554E-19
 -1      3071 9.43264E-05-2.60794E-05-2.92592E-05-5.32278E-06-8.89179E-20 7.94301E-19
 -1      3072 9.28961E-05-2.50614E-05-2.90643E-05-6.14549E-06 2.94477E-20 1.79286E-19
 -1      3073 9.45821E-05-2.63126E-05-2.92506E-05-4.76855E-06 4.33354E-19 7.75662E-19
 -1      3074 9.45770E-05-2.64685E-05-2.91984E-05-4.24889E-06 8.32936E-19 8.85732E-19
 -1      3075 9.34500E-05-2.55485E-05-2.90939E-05-4.96263E-06 8.64969E-20 6.29019E-19
 -1      3076 9.47840E-05-2.66953E-05-2.91742E-05-3.78289E-06 4.40321E-19 4.39633E-19
 -1      3077 9.47790E-05-2.68502E-05-2.91198E-05-3.34406E-06 6.18340E-20 2.71978E-19
 -1      3078 9.39130E-05-2.60568E-05-2.90759E-05-3.96122E-06 4.18539E-19 5.15501E-19
 -1      3079 9.49393E-05-2.70536E-05-2.90881E-05-2.95688E-06 2.94868E-19 1.68950E-19
 -1      3080 9.49310E-05-2.71940E-05-2.90361E-05-2.59349E-06 3.59411E-19 5.37545E-19
 -1      3081 9.42796E-05-2.65316E-05-2.90309E-05-3.12041E-06 1.05181E-19 2.26019E-20
 -1      3082 9.50513E-05-2.73677E-05-2.90022E-05-2.27618E-06 5.52829E-20 2.87743E-19
 -1      3083 9.50401E-05-2.74887E-05-2.89553E-05-1.98059E-06-4.99215E-20 1.87117E-19
 -1      3084 9.45596E-05-2.69492E-05-2.89732E-05-2.42301E-06 1.02558E-19-3.85285E-19
 -1      3085 9.51284E-05-2.76327E-05-2.89225E-05-1.72435E-06 1.02548E-20 3.01364E-19
 -1      3086 9.51157E-05-2.77336E-05-2.88817E-05-1.48791E-06 1.70846E-19-1.94191E-19
 -1      3087 9.47681E-05-2.73026E-05-2.89120E-05-1.85269E-06-6.06477E-21 2.03428E-19
 -1      3088 9.51793E-05-2.78503E-05-2.88518E-05-1.28409E-06-3.05937E-20-4.40185E-19
 -1      3089 9.51666E-05-2.79326E-05-2.88174E-05-1.09797E-06-4.40766E-19-1.73256E-19
 -1      3090 9.49203E-05-2.75941E-05-2.88530E-05-1.39331E-06-1.01526E-19-1.85064E-19
 -1      3091 9.52116E-05-2.80255E-05-2.87911E-05-9.38321E-07-5.63566E-19 2.25804E-19
 -1      3092 9.51999E-05-2.80915E-05-2.87629E-05-7.94101E-07 9.51285E-20 2.75181E-19
 -1      3093 9.50294E-05-2.78298E-05-2.87992E-05-1.02900E-06-3.66705E-19 2.30794E-19
 -1      3094 9.52312E-05-2.81644E-05-2.87406E-05-6.71009E-07 1.07986E-18-3.66293E-20
 -1      3095 9.52211E-05-2.82166E-05-2.87178E-05-5.61032E-07 1.32696E-18 5.39545E-19
 -1      3096 9.51064E-05-2.80172E-05-2.87522E-05-7.44573E-07 6.15538E-19 2.93149E-19
 -1      3097 9.52424E-05-2.82729E-05-2.86993E-05-4.67683E-07 4.71318E-19 5.51428E-19
 -1      3098 9.52340E-05-2.83136E-05-2.86813E-05-3.85218E-07-2.37499E-19 2.83888E-19
 -1      3099 9.51597E-05-2.81641E-05-2.87123E-05-5.26101E-07 8.07020E-19 8.21231E-19
 -1      3100 9.52481E-05-2.83566E-05-2.86663E-05-3.15664E-07-5.24537E-19 4.02994E-19
 -1      3101 9.52414E-05-2.83879E-05-2.86523E-05-2.54942E-07-5.20536E-19 6.47672E-20
 -1      3102 9.51958E-05-2.82776E-05-2.86793E-05-3.61117E-07-3.74632E-19 1.11390E-18
 -1      3103 9.52504E-05-2.84202E-05-2.86404E-05-2.04113E-07-1.19617E-18 2.38213E-20
 -1      3104 9.52452E-05-2.84440E-05-2.86297E-05-1.60303E-07-1.53580E-18-6.92417E-20
 -1      3105 9.52197E-05-2.83641E-05-2.86525E-05-2.38779E-07-1.00841E-18 1.20410E-18
 -1      3106 9.52507E-05-2.84679E-05-2.86204E-05-1.23969E-07-8.79493E-19-2.80401E-19
 -1      3107 9.52468E-05-2.84856E-05-2.86124E-05-9.31066E-08-7.47185E-20 4.70776E-19
 -1      3108 9.52348E-05-2.84290E-05-2.86312E-05-1.49874E-07-1.48934E-18 1.11946E-18
 -1      3109 9.52499E-05-2.85030E-05-2.86052E-05-6.78092E-08-7.46665E-20 5.24682E-19
 -1      3110 9.52471E-05-2.85161E-05-2.85993E-05-4.66956E-08 1.05069E-19 9.05059E-19
 -1      3111 9.52439E-05-2.84770E-05-2.86145E-05-8.67477E-08 1.59908E-19 8.58673E-19
 -1      3112 9.52486E-05-2.85285E-05-2.85939E-05-2.96571E-08 4.12269E-19 8.52181E-19
 -1      3113 9.52466E-05-2.85378E-05-2.85896E-05-1.57527E-08-7.00582E-20 8.14127E-19
 -1      3114 9.52488E-05-2.85118E-05-2.86017E-05-4.31700E-08 2.66274E-19 5.97584E-19
 -1      3115 9.52470E-05-2.85464E-05-2.85856E-05-4.77474E-09-8.67916E-19 9.25712E-19
 -1      3116 9.52456E-05-2.85530E-05-2.85827E-05 3.90564E-09-6.11283E-19 1.54173E-18
 -1      3117 9.52510E-05-2.85365E-05-2.85921E-05-1.41462E-08-1.48327E-19 1.14652E-18
 -1      3118 9.52454E-05-2.85588E-05-2.85797E-05 1.05334E-08-1.05971E-18 1.38849E-18
 -1      3119 9.52445E-05-2.85633E-05-2.85777E-05 1.55165E-08-1.02822E-18 1.63559E-18
 -1      3120 9.52514E-05-2.85535E-05-2.85849E-05 4.25994E-09-8.49706E-19 2.17313E-18
 -1      3121 9.52439E-05-2.85671E-05-2.85756E-05 1.91017E-08-7.57116E-19 1.11760E-18
 -1      3122 9.52434E-05-2.85700E-05-2.85743E-05 2.15420E-08-4.01004E-19 7.92059E-19
 -1      3123 9.52507E-05-2.85649E-05-2.85797E-05 1.50971E-08-1.12408E-18 1.13911E-18
 -1      3124 9.52426E-05-2.85723E-05-2.85729E-05 2.30669E-08-5.40055E-19 1.15578E-18
 -1      3125 9.52423E-05-2.85741E-05-2.85721E-05 2.38217E-08-1.80442E-19 1.35042E-18
 -1      3126 9.52494E-05-2.85721E-05-2.85761E-05 2.06849E-08-3.35397E-19 2.68834E-19
 -1      3127 9.52414E-05-2.85753E-05-2.85711E-05 2.40095E-08 6.84886E-19 9.57645E-19
 -1      3128 9.52413E-05-2.85764E-05-2.85707E-05 2.37026E-08 8.60992E-19 1.58856E-18
 -1      3129 9.52479E-05-2.85764E-05-2.85735E-05 2.27563E-08 2.81698E-19 1.99719E-19
 -1      3130 9.52405E-05-2.85769E-05-2.85701E-05 2.30746E-08 4.37551E-19 1.68648E-18
 -1      3131 9.52404E-05-2.85774E-05-2.85698E-05 2.21495E-08 9.00116E-19 1.07461E-18
 -1      3132 9.52462E-05-2.85786E-05-2.85719E-05 2.25801E-08 8.48347E-19-2.87722E-19
 -1      3133 9.52397E-05-2.85775E-05-2.85695E-05 2.10719E-08 1.30385E-18 9.87098E-19
 -1      3134 9.52397E-05-2.85776E-05-2.85694E-05 1.98347E-08 9.64577E-19 5.91619E-19
 -1      3135 9.52447E-05-2.85795E-05-2.85708E-05 2.10643E-08 4.97608E-19 5.50888E-19
 -1      3136 9.52390E-05-2.85774E-05-2.85693E-05 1.85561E-08 8.48575E-19 3.41207E-19
 -1      3137 9.52391E-05-2.85773E-05-2.85693E-05 1.72102E-08 5.92106E-19 7.79439E-19
 -1      3138 9.52432E-05-2.85795E-05-2.85702E-05 1.88410E-08 6.21769E-19-1.27615E-20
 -1      3139 9.52385E-05-2.85770E-05-2.85692E-05 1.58925E-08-6.56751E-19 1.23156E-18
 -1      3140 9.52386E-05-2.85768E-05-2.85693E-05 1.45657E-08-3.19677E-19 7.14056E-19
 -1      3141 9.52419E-05-2.85789E-05-2.85699E-05 1.63348E-08 6.42592E-19-7.37902E-19
 -1      3142 9.52381E-05-2.85763E-05-2.85693E-05 1.33070E-08-1.77186E-19-5.59240E-20
 -1      3143 9.52382E-05-2.85761E-05-2.85695E-05 1.20726E-08-4.56149E-19-7.64115E-19
 -1      3144 9.52409E-05-2.85781E-05-2.85698E-05 1.38166E-08-9.73625E-19-4.73739E-19
 -1      3145 9.52378E-05-2.85757E-05-2.85695E-05 1.09272E-08-3.58727E-19-2.11840E-18
 -1      3146 9.52379E-05-2.85754E-05-2.85696E-05 9.82049E-09-2.27838E-19-1.69418E-18
 -1      3147 9.52400E-05-2.85772E-05-2.85698E-05 1.14471E-08-9.91557E-19-1.75934E-18
 -1      3148 9.52376E-05-2.85750E-05-2.85697E-05 8.80415E-09-4.59963E-19-2.05864E-18
 -1      3149 9.52378E-05-2.85748E-05-2.85698E-05 7.84674E-09-1.97522E-18-1.98257E-18
 -1      3150 9.52393E-05-2.85763E-05-2.85698E-05 9.30803E-09-1.10413E-18-3.20765E-18
 -1      3151 9.52375E-05-2.85745E-05-2.85699E-05 6.94466E-09-2.46042E-18-1.34966E-18
 -1      3152 9.52377E-05-2.85743E-05-2.85700E-05 6.10474E-09-2.45801E-18-1.12351E-18
 -1      3153 9.52387E-05-2.85756E-05-2.85699E-05 7.42107E-09-1.97183E-18-1.80501E-18
 -1      3154 1.11222E-04-3.93768E-05-3.07555E-05-1.22205E-06 3.46088E-20-2.19549E-18
 -1      3155 1.12083E-04-3.93552E-05-3.12011E-05-3.10401E-06 1.32322E-19-2.34071E-18
 -1      3156 1.13534E-04-3.89657E-05-3.19851E-05-5.53588E-06 1.38999E-19-2.59484E-18
 -1      3157 1.13513E-04-3.73183E-05-3.26580E-05-7.18392E-06 4.68012E-19-2.61556E-18
 -1      3158 1.14552E-04-4.07678E-05-3.16080E-05-2.92566E-06 1.01859E-20-2.62381E-18
 -1      3159 1.04338E-04-3.49899E-05-2.96747E-05 4.48403E-06 3.48094E-20-1.52594E-18
 -1      3160 1.05690E-04-3.61920E-05-2.98096E-05 3.50283E-06 1.94172E-19-1.40891E-18
 -1      3161 1.01508E-04-3.25749E-05-2.95093E-05 5.54999E-06 4.77621E-19-1.42484E-18
 -1      3162 1.02670E-04-3.36764E-05-2.95802E-05 5.04441E-06 2.48819E-19-1.34216E-18
 -1      3163 1.02773E-04-3.45832E-05-2.92705E-05 6.13256E-06 1.88478E-19-1.82215E-18
 -1      3164 9.94033E-05-3.06768E-05-2.94327E-05 5.81578E-06 4.13348E-19-1.56043E-18
 -1      3165 1.00310E-04-3.15334E-05-2.94784E-05 5.66564E-06 5.78323E-19-1.31225E-18
 -1      3166 9.99294E-05-3.19620E-05-2.91646E-05 6.62040E-06 5.51593E-19-1.65024E-18
 -1      3167 9.79387E-05-2.93513E-05-2.93825E-05 5.57762E-06 5.00157E-19-1.59539E-18
 -1      3168 9.86079E-05-2.99482E-05-2.94235E-05 5.66345E-06 3.85334E-19-1.70265E-18
 -1      3169 9.79660E-05-3.00160E-05-2.91459E-05 6.44957E-06 4.00646E-19-1.80885E-18
 -1      3170 9.69637E-05-2.85145E-05-2.93297E-05 5.05604E-06 6.13314E-20-5.47330E-19
 -1      3171 9.74440E-05-2.88934E-05-2.93742E-05 5.28184E-06 4.80523E-19-8.84989E-19
 -1      3172 9.67023E-05-2.87249E-05-2.91487E-05 5.91418E-06 8.78455E-20-7.48179E-19
 -1      3173 9.63334E-05-2.80438E-05-2.92654E-05 4.40155E-06 1.81130E-19 4.16474E-19
 -1      3174 9.66745E-05-2.82606E-05-2.93145E-05 4.69721E-06 1.63177E-19-2.32742E-19
 -1      3175 9.59374E-05-2.79588E-05-2.91430E-05 5.20511E-06-1.14225E-19 6.62179E-19
 -1      3176 9.59337E-05-2.78246E-05-2.91903E-05 3.71206E-06 1.64829E-20 2.08137E-19
 -1      3177 9.61761E-05-2.79302E-05-2.92421E-05 4.02964E-06 1.70456E-19 3.89101E-19
 -1      3178 9.55031E-05-2.75703E-05-2.91194E-05 4.44056E-06 1.88865E-19 9.24528E-19
 -1      3179 9.56828E-05-2.77657E-05-2.91093E-05 3.04825E-06-1.26407E-20 2.90593E-19
 -1      3180 9.58565E-05-2.78001E-05-2.91610E-05 3.35705E-06-1.33068E-19 3.84099E-19
 -1      3181 9.52761E-05-2.74325E-05-2.90788E-05 3.69205E-06-4.52696E-20 9.94381E-19
 -1      3182 9.55257E-05-2.78005E-05-2.90275E-05 2.44466E-06-4.03437E-19 1.54893E-19
 -1      3183 9.56516E-05-2.77929E-05-2.90766E-05 2.72681E-06-1.71873E-19 2.15328E-19
 -1      3184 9.51721E-05-2.74481E-05-2.90262E-05 3.00104E-06-3.27605E-19 6.05502E-19
 -1      3185 9.54271E-05-2.78841E-05-2.89494E-05 1.91792E-06-7.04766E-19-2.92948E-19
 -1      3186 9.55191E-05-2.78540E-05-2.89942E-05 2.16456E-06-2.83990E-19-1.37914E-19
 -1      3187 9.51369E-05-2.75486E-05-2.89674E-05 2.38886E-06-2.51353E-19 6.89514E-19
 -1      3188 9.53644E-05-2.79874E-05-2.88781E-05 1.47287E-06-9.37464E-19-1.62045E-20
 -1      3189 9.54321E-05-2.79476E-05-2.89175E-05 1.68119E-06-9.19903E-19 7.49441E-20
 -1      3190 9.51370E-05-2.76879E-05-2.89073E-05 1.86365E-06-7.02600E-19 5.19244E-19
 -1      3191 9.53240E-05-2.80930E-05-2.88152E-05 1.10691E-06-8.52221E-19 6.02019E-20
 -1      3192 9.53740E-05-2.80511E-05-2.88488E-05 1.27792E-06-8.67767E-19 9.26918E-20
 -1      3193 9.51528E-05-2.78376E-05-2.88498E-05 1.42503E-06-8.38912E-19 6.41736E-19
 -1      3194 9.52973E-05-2.81911E-05-2.87614E-05 8.13072E-07-1.09364E-18 2.12851E-19
 -1      3195 9.53341E-05-2.81515E-05-2.87894E-05 9.50017E-07-9.88710E-19-2.60078E-19
 -1      3196 9.51736E-05-2.79809E-05-2.87972E-05 1.06729E-06-9.71515E-19 6.40782E-19
 -1      3197 9.52792E-05-2.82770E-05-2.87165E-05 5.82279E-07-1.10750E-18 3.90297E-19
 -1      3198 9.53063E-05-2.82419E-05-2.87393E-05 6.89472E-07-1.29199E-18 4.34518E-19
 -1      3199 9.51936E-05-2.81090E-05-2.87509E-05 7.81735E-07-1.10514E-18-2.72542E-20
 -1      3200 9.52667E-05-2.83492E-05-2.86800E-05 4.04814E-07-6.84492E-19 1.67660E-19
 -1      3201 9.52864E-05-2.83194E-05-2.86981E-05 4.86898E-07-7.28541E-19 2.39683E-19
 -1      3202 9.52106E-05-2.82184E-05-2.87113E-05 5.58427E-07-7.78175E-19-1.67523E-20
 -1      3203 9.52579E-05-2.84078E-05-2.86508E-05 2.71237E-07-8.43328E-19 4.99268E-19
 -1      3204 9.52720E-05-2.83834E-05-2.86649E-05 3.32722E-07-6.05565E-19 1.20594E-19
 -1      3205 9.52237E-05-2.83085E-05-2.86783E-05 3.87296E-07-6.21588E-19-4.04849E-19
 -1      3206 9.52516E-05-2.84542E-05-2.86280E-05 1.72917E-07-4.34956E-19 9.31031E-20
 -1      3207 9.52615E-05-2.84347E-05-2.86388E-05 2.17914E-07-7.64252E-19 2.88340E-19
 -1      3208 9.52332E-05-2.83806E-05-2.86514E-05 2.58834E-07-1.01332E-18-5.90552E-19
 -1      3209 9.52470E-05-2.84899E-05-2.86106E-05 1.02300E-07 7.92209E-19 5.67454E-19
 -1      3210 9.52538E-05-2.84748E-05-2.86186E-05 1.34393E-07-8.24219E-20 4.20397E-19
 -1      3211 9.52395E-05-2.84368E-05-2.86300E-05 1.64486E-07-5.62514E-19-1.23346E-18
 -1      3212 9.52437E-05-2.85169E-05-2.85975E-05 5.30088E-08 1.48632E-18 6.36456E-19
 -1      3213 9.52482E-05-2.85054E-05-2.86034E-05 7.52142E-08 1.33959E-18 7.00570E-19
 -1      3214 9.52434E-05-2.84797E-05-2.86132E-05 9.68561E-08 6.74142E-19 2.97570E-20
 -1      3215 9.52414E-05-2.85367E-05-2.85879E-05 1.97953E-08-1.29793E-19 1.66284E-18
 -1      3216 9.52442E-05-2.85282E-05-2.85921E-05 3.45850E-08 9.04307E-19 1.24914E-18
 -1      3217 9.52454E-05-2.85116E-05-2.86004E-05 4.97437E-08 8.99624E-19 2.37762E-18
 -1      3218 9.52397E-05-2.85509E-05-2.85810E-05-1.55985E-09-8.34338E-19 2.65720E-18
 -1      3219 9.52413E-05-2.85447E-05-2.85839E-05 7.79309E-09-5.24226E-20 2.01016E-18
 -1      3220 9.52461E-05-2.85347E-05-2.85908E-05 1.80686E-08-6.34790E-19 2.37057E-18
 -1      3221 9.52385E-05-2.85608E-05-2.85762E-05-1.43780E-08-1.20511E-18 1.51637E-18
 -1      3222 9.52393E-05-2.85564E-05-2.85781E-05-8.91153E-09-9.21588E-19 2.18053E-18
 -1      3223 9.52460E-05-2.85511E-05-2.85837E-05-2.24170E-09-6.48254E-19 1.37353E-18
 -1      3224 9.52377E-05-2.85674E-05-2.85730E-05-2.12189E-08-8.69650E-19 1.04170E-18
 -1      3225 9.52380E-05-2.85644E-05-2.85742E-05-1.84501E-08-1.19412E-18 1.33767E-18
 -1      3226 9.52454E-05-2.85622E-05-2.85786E-05-1.43842E-08-8.42852E-19 9.20115E-19
 -1      3227 9.52372E-05-2.85717E-05-2.85709E-05-2.40151E-08-9.30346E-19 1.51078E-18
 -1      3228 9.52371E-05-2.85697E-05-2.85716E-05-2.30513E-08-8.11974E-19 1.59215E-18
 -1      3229 9.52445E-05-2.85695E-05-2.85750E-05-2.08179E-08-1.00721E-18 1.14781E-18
 -1      3230 9.52368E-05-2.85742E-05-2.85697E-05-2.41946E-08-9.35096E-19 5.26963E-19
 -1      3231 9.52366E-05-2.85730E-05-2.85701E-05-2.43801E-08-7.56581E-19 1.02797E-18
 -1      3232 9.52434E-05-2.85740E-05-2.85727E-05-2.33959E-08-5.02503E-19 1.35182E-18
 -1      3233 9.52367E-05-2.85755E-05-2.85691E-05-2.27875E-08 7.31929E-19 3.14259E-20
 -1      3234 9.52363E-05-2.85748E-05-2.85692E-05-2.36527E-08-9.75645E-20 4.23603E-19
 -1      3235 9.52424E-05-2.85766E-05-2.85711E-05-2.34854E-08 1.01428E-19 7.43529E-19
 -1      3236 9.52366E-05-2.85760E-05-2.85688E-05-2.05170E-08 2.89265E-19 8.66297E-19
 -1      3237 9.52362E-05-2.85757E-05-2.85688E-05-2.17352E-08 3.75613E-20 3.07819E-19
 -1      3238 9.52414E-05-2.85777E-05-2.85702E-05-2.20713E-08 4.87507E-19 3.54425E-19
 -1      3239 9.52366E-05-2.85760E-05-2.85688E-05-1.78734E-08 8.76573E-20 1.72975E-18
 -1      3240 9.52362E-05-2.85759E-05-2.85687E-05-1.92257E-08 2.93949E-19 1.75581E-18
 -1      3241 9.52406E-05-2.85780E-05-2.85697E-05-1.98439E-08-3.00379E-19 1.61587E-18
 -1      3242 9.52366E-05-2.85757E-05-2.85690E-05-1.51737E-08-8.19821E-19 2.58817E-18
 -1      3243 9.52362E-05-2.85757E-05-2.85688E-05-1.65212E-08 9.76669E-20 1.92130E-18
 -1      3244 9.52398E-05-2.85777E-05-2.85695E-05-1.72704E-08-1.61329E-19 2.66828E-18
 -1      3245 9.52367E-05-2.85752E-05-2.85692E-05-1.26081E-08-1.46964E-18 2.32726E-18
 -1      3246 9.52363E-05-2.85754E-05-2.85690E-05-1.38700E-08-9.15677E-19 2.22884E-18
 -1      3247 9.52392E-05-2.85771E-05-2.85695E-05-1.46518E-08-8.69045E-19 4.66895E-18
 -1      3248 9.52368E-05-2.85747E-05-2.85694E-05-1.02767E-08-6.67175E-19 2.47894E-18
 -1      3249 9.52364E-05-2.85749E-05-2.85693E-05-1.14133E-08-1.52869E-18 1.89809E-18
 -1      3250 9.52387E-05-2.85764E-05-2.85695E-05-1.21686E-08-2.01529E-18 3.45266E-18
 -1      3251 9.52369E-05-2.85743E-05-2.85697E-05-8.21825E-09 3.88599E-19 3.47793E-18
 -1      3252 9.52366E-05-2.85744E-05-2.85695E-05-9.21662E-09 6.99918E-20 3.24989E-18
 -1      3253 9.52383E-05-2.85757E-05-2.85697E-05-9.91337E-09-6.28187E-19 3.02687E-18
 -1      3254 9.52370E-05-2.85739E-05-2.85699E-05-6.43413E-09 1.90414E-18 3.47025E-18
 -1      3255 9.52368E-05-2.85740E-05-2.85698E-05-7.29308E-09 1.53365E-18 3.95426E-18
 -1      3256 9.52380E-05-2.85750E-05-2.85698E-05-7.92566E-09 5.93635E-19 3.53851E-18
 -1      3257 9.52373E-05-2.85739E-05-2.85700E-05-5.34812E-09 1.77622E-19 3.88770E-18
 -1      3258 9.52370E-05-2.85738E-05-2.85700E-05-5.92780E-09 1.03276E-18 3.85295E-18
 -1      3259 9.52379E-05-2.85747E-05-2.85700E-05-6.47945E-09 9.69746E-19 4.22737E-18
 -1      3260 9.52379E-05-2.85745E-05-2.85700E-05-5.47440E-09 3.03063E-19 3.32795E-18
 -1      3261 1.10807E-04-2.38418E-05-3.72566E-05 1.39758E-05 2.83446E-18-3.19867E-19
 -1      3262 1.12953E-04-2.70120E-05-3.70155E-05 1.63709E-05 2.61913E-18-2.59837E-19
 -1      3263 9.52374E-05-2.85740E-05-2.85700E-05 5.27911E-09-1.54121E-18-1.20680E-19
 -1      3264 9.52411E-05-2.85774E-05-2.85702E-05 4.02862E-09 8.28303E-19 5.03190E-19
 -1      3265 9.52416E-05-2.85779E-05-2.85702E-05 3.31753E-09 1.58484E-19 7.51407E-19
 -1      3266 9.52424E-05-2.85786E-05-2.85702E-05 4.81103E-10-1.27882E-18-1.70731E-18
 -1      3267 9.52424E-05-2.85786E-05-2.85702E-05-4.50705E-10-1.47691E-18-1.62541E-18
 -1      3268 1.28184E-04-4.19059E-05-3.74266E-05-4.70724E-06 7.11322E-19-4.77883E-18
 -1      3269 1.27675E-04-4.78617E-05-3.42130E-05 2.05950E-06-3.20073E-19-4.40595E-18
 -1      3270 1.08264E-04-1.79375E-05-3.88681E-05 5.69205E-06 3.15589E-18-1.51198E-18
 -1      3271 1.09659E-04-1.95325E-05-3.87918E-05 9.72821E-06 3.25025E-18-9.44402E-19
 -1      3272 7.32158E-05-2.84228E-05-1.90913E-05 3.08354E-05-3.01411E-18 6.83079E-19
 -1      3273 5.85546E-05-1.88900E-05-1.65102E-05 2.53592E-05-2.65566E-18 2.10467E-18
 -1      3274 1.13323E-04-3.47749E-05-3.37738E-05-9.00687E-06 6.87301E-19-2.91593E-18
 -1      3275 1.12241E-04-3.16841E-05-3.45519E-05-9.00550E-06 1.11570E-18-2.89031E-18
 -1      3276 1.16130E-04-3.75553E-05-3.36483E-05-7.62213E-06 3.93447E-19-3.16183E-18
 -1      3277 1.07766E-04-3.75582E-05-3.00385E-05 2.28675E-06 6.52091E-20-1.53682E-18
 -1      3278 1.09081E-04-3.84817E-05-3.02956E-05 7.74827E-07 1.71470E-19-1.69089E-18
 -1      3279 1.10832E-04-4.02473E-05-3.02896E-05 1.55838E-06-2.16850E-19-1.90774E-18
 -1      3280 1.06527E-04-3.76165E-05-2.95839E-05 4.58582E-06-3.22427E-20-9.98530E-19
 -1      3281 9.52398E-05-2.85763E-05-2.85701E-05 5.17318E-09 7.24538E-19 7.32486E-19
 -1      3282 9.52405E-05-2.85768E-05-2.85701E-05 4.72946E-09 7.46565E-19 1.11008E-18
 -1      3283 9.52413E-05-2.85776E-05-2.85702E-05 4.85226E-09-4.15772E-19 5.83155E-19
 -1      3284 1.10149E-04-1.99805E-05-3.88581E-05-4.19098E-06 2.60230E-18-2.67308E-18
 -1      3285 1.09367E-04-1.78905E-05-3.93474E-05 1.40282E-08 3.04138E-18-2.30951E-18
 -1      3286 1.12187E-04-2.80284E-05-3.61908E-05-9.28996E-06 1.57429E-18-3.03797E-18
 -1      3287 1.10455E-04-2.43124E-05-3.69531E-05-6.89050E-06 1.92435E-18-2.87548E-18
 -1      3288 1.15270E-04-2.08685E-05-4.07188E-05-7.33401E-06 2.95837E-18-3.47421E-18
 -1      3289 1.15994E-04-3.09004E-05-3.66293E-05-9.71092E-06 1.33085E-18-3.48551E-18
 -1      3290 1.22502E-04-2.51690E-05-4.22255E-05-9.03853E-06 2.82115E-18-4.13887E-18
 -1      3291 1.25603E-04-3.26217E-05-3.98565E-05-8.94670E-06 1.72800E-18-4.75778E-18
 -1      3292 5.55101E-05-1.83612E-05-1.55440E-05-2.44227E-05 1.15061E-18 3.69433E-18
 -1      3293 6.70199E-05-2.56717E-05-1.75338E-05-3.02463E-05 1.92430E-18 2.79902E-18
 -1      3294 6.44917E-05-1.53757E-05-2.10371E-05 1.97975E-05 1.34996E-18-4.25687E-18
 -1      3295 4.92944E-05-1.33682E-05-1.52306E-05 1.78124E-05-2.19389E-18 2.92068E-18
 -1      3296 4.55821E-05-1.02991E-05-1.47882E-05 7.31447E-06-1.73226E-18 3.67549E-18
 -1      3297 1.01156E-04-4.47564E-05-2.42288E-05 2.88722E-05-2.27682E-18-1.94556E-18
 -1      3298 8.87833E-05-3.73562E-05-2.17733E-05 3.09831E-05-2.60600E-18-1.01940E-18
 -1      3299 4.47691E-05-9.97348E-06-1.45498E-05-5.04044E-06-9.05041E-19 3.76930E-18
 -1      3300 4.80823E-05-1.31814E-05-1.45945E-05-1.69130E-05 4.70103E-20 3.97407E-18
 -1      3301 1.16707E-04-3.24726E-05-3.61542E-05 1.76706E-05 1.77737E-18-1.69275E-19
 -1      3302 9.52420E-05-2.85782E-05-2.85702E-05 2.39189E-09-2.11050E-19 7.63147E-19
 -1      3303 9.52423E-05-2.85785E-05-2.85702E-05 1.53134E-09-7.16289E-19-7.29403E-19
 -1      3304 9.52431E-05-2.85791E-05-2.85703E-05 1.10516E-09-6.22955E-19-8.83756E-19
 -1      3305 9.52425E-05-2.85786E-05-2.85703E-05 3.15839E-09 7.31472E-20 1.34134E-18
 -1      3306 8.01925E-05-2.31820E-05-2.42111E-05 1.58039E-05 1.24307E-18-3.27505E-18
 -1      3307 1.22615E-04-4.05431E-05-3.51698E-05 3.13519E-06 1.73351E-19 1.43122E-19
 -1      3308 1.22902E-04-3.76661E-05-3.66373E-05 9.77785E-06 9.43317E-19 6.15740E-19
 -1      3309 7.11516E-05-1.83518E-05-2.25025E-05-2.61225E-05-2.85154E-18-4.33776E-18
 -1      3310 6.57098E-05-1.79160E-05-2.01084E-05-3.00167E-05-2.80204E-18-4.97748E-18
 -1      3311 1.12931E-04-4.80783E-05-2.78424E-05-1.90355E-05 1.86265E-18-8.45789E-19
 -1      3312 9.52405E-05-2.85768E-05-2.85701E-05-4.72063E-09 1.13376E-18-3.41415E-19
 -1      3313 9.52398E-05-2.85762E-05-2.85701E-05-5.16352E-09 3.86317E-19 1.62082E-18
 -1      3314 1.29438E-04-4.74386E-05-3.54812E-05-9.17821E-06-7.46421E-19 1.40394E-18
 -1      3315 1.15600E-04-3.04401E-05-3.64993E-05 1.71620E-05 2.16277E-18-9.84543E-20
 -1      3316 9.52389E-05-2.85754E-05-2.85700E-05 5.66352E-09-9.55431E-19 3.92458E-20
 -1      3317 9.52396E-05-2.85761E-05-2.85701E-05 6.09096E-09-7.46170E-19-8.99789E-19
 -1      3318 1.12837E-04-1.95432E-05-4.01381E-05 1.29644E-05 3.47342E-18-6.26593E-19
 -1      3319 9.52382E-05-2.85748E-05-2.85700E-05 5.72152E-09-1.75070E-18-9.51895E-19
 -1      3320 9.52431E-05-2.85791E-05-2.85703E-05-1.08117E-09-2.28735E-18-1.50639E-18
 -1      3321 9.52423E-05-2.85785E-05-2.85702E-05-1.51025E-09-1.69781E-18-1.30934E-18
 -1      3322 9.52420E-05-2.85782E-05-2.85702E-05-2.38543E-09-1.36027E-18 1.12989E-19
 -1      3323 1.23594E-04-4.66498E-05-3.30529E-05 8.52213E-07-2.56009E-19-4.09319E-18
 -1      3324 1.25313E-04-5.06454E-05-3.21129E-05 6.85245E-06-8.27803E-19-3.96621E-18
 -1      3325 1.19472E-04-4.96121E-05-2.99195E-05 1.12471E-05-1.11221E-18-3.45714E-18
 -1      3326 1.17321E-04-2.93204E-05-3.77306E-05 1.74405E-05 2.28513E-18-4.92338E-20
 -1      3327 5.98126E-05-1.71574E-05-1.78724E-05 1.98055E-05-2.12409E-18 2.22013E-18
 -1      3328 8.28904E-05-2.62209E-05-2.39955E-05-2.54250E-05-2.59298E-18-3.55862E-18
 -1      3329 4.84983E-05-1.02979E-05-1.59513E-05 7.49474E-07-1.00870E-18 3.57268E-18
 -1      3330 5.27859E-05-1.14802E-05-1.76326E-05-6.03890E-06-6.18126E-19 2.85138E-18
 -1      3331 5.37111E-05-1.14550E-05-1.78245E-05 5.07149E-06-1.19271E-18 2.98897E-18
 -1      3332 1.23817E-04-3.05414E-05-4.02260E-05 1.56640E-05 2.66490E-18 3.61630E-19
 -1      3333 1.13276E-04-1.44788E-05-4.25904E-05 1.84119E-06 4.00657E-18-2.21852E-18
 -1      3334 1.07469E-04-4.63764E-05-2.60844E-05 2.30793E-05-2.03759E-18-2.41982E-18
 -1      3335 1.18331E-04-3.73928E-05-3.49157E-05 8.10981E-06 3.48824E-19-4.53321E-19
 -1      3336 1.16797E-04-3.84169E-05-3.35188E-05 1.40928E-06-3.82508E-19-5.02330E-19
 -1      3337 1.17970E-04-4.01484E-05-3.35724E-05-2.30429E-06-3.49428E-19-2.50139E-19
 -1      3338 5.79719E-05-1.66097E-05-1.72423E-05-1.86337E-05 2.33331E-19 3.06441E-18
 -1      3339 5.33655E-05-1.36787E-05-1.67635E-05-3.27136E-05-2.48075E-18-5.77804E-18
 -1      3340 7.82432E-05-3.09545E-05-1.98306E-05-3.05362E-05 2.32529E-18 1.77861E-18
 -1      3341 8.84777E-05-3.60516E-05-2.25036E-05-2.85121E-05 2.26608E-18 9.31154E-19
 -1      3342 7.39180E-05-2.63011E-05-2.02565E-05-2.66783E-05 1.44742E-18 1.58305E-18
 -1      3343 1.23881E-04-3.74329E-05-3.72680E-05-7.20356E-06 9.84755E-19-4.25393E-18
 -1      3344 8.27551E-05-3.25933E-05-2.12803E-05 2.97267E-05-2.71850E-18-1.21787E-19
 -1      3345 7.63191E-05-2.65527E-05-2.11502E-05 2.56513E-05-2.72668E-18 6.61903E-19
 -1      3346 9.01542E-05-3.51977E-05-2.34842E-05 2.55305E-05-2.34838E-18-6.20981E-19
 -1      3347 1.16525E-04-2.05594E-05-4.14636E-05 1.54163E-05 3.53784E-18-4.98889E-19
 -1      3348 9.52416E-05-2.85779E-05-2.85702E-05-3.31852E-09-6.04397E-19-1.69743E-18
 -1      3349 9.52411E-05-2.85774E-05-2.85702E-05-4.02862E-09 1.00812E-18-1.68103E-18
 -1      3350 9.52413E-05-2.85776E-05-2.85702E-05-4.84639E-09 2.57004E-19-1.00534E-18
 -1      3351 9.52425E-05-2.85786E-05-2.85703E-05-3.15003E-09-7.02860E-19-1.82098E-18
 -1      3352 1.20203E-04-3.60625E-05-3.61256E-05 1.20810E-05 1.11838E-18 4.19546E-21
 -1      3353 1.05906E-04-4.59113E-05-2.55058E-05-2.56211E-05 2.21880E-18-1.52082E-19
 -1      3354 1.20406E-04-4.58399E-05-3.17691E-05 3.11164E-06 6.77097E-20-2.12288E-19
 -1      3355 6.61165E-05-1.98403E-05-1.98317E-05 2.12355E-05-2.15464E-18 1.59729E-18
 -1      3356 5.89128E-05-1.45162E-05-1.87983E-05 1.41484E-05-1.74366E-18 2.47662E-18
 -1      3357 1.30791E-04-4.88591E-05-3.49699E-05-5.98667E-06-8.68566E-19 8.85388E-19
 -1      3358 9.63433E-05-2.89588E-05-2.88665E-05 6.94154E-06 1.97818E-20-5.06233E-19
 -1      3359 9.71504E-05-2.97912E-05-2.88555E-05 7.19831E-06 7.95866E-19-6.20058E-19
 -1      3360 9.52416E-05-2.85778E-05-2.85702E-05 5.71569E-09-4.91259E-19-5.20433E-19
 -1      3361 9.52424E-05-2.85784E-05-2.85703E-05 5.01052E-09-1.79773E-19 1.95907E-19
 -1      3362 9.00103E-05-2.89264E-05-2.60553E-05-1.78142E-05 1.43875E-18 4.27619E-20
 -1      3363 8.81061E-05-2.65207E-05-2.63943E-05-1.61317E-05 8.15683E-19-1.08488E-19
 -1      3364 8.85485E-05-2.54055E-05-2.69904E-05-1.40055E-05 5.44527E-19-1.98335E-19
 -1      3365 8.79717E-05-2.42888E-05-2.73217E-05-1.26210E-05 4.00571E-19-2.56194E-19
 -1      3366 8.38685E-05-2.35616E-05-2.58225E-05-1.49526E-05 5.03320E-19-3.12817E-19
 -1      3367 8.87343E-05-2.38865E-05-2.77533E-05-1.11478E-05 2.64478E-19-5.93693E-19
 -1      3368 8.87232E-05-2.34668E-05-2.79958E-05-1.00642E-05 2.88353E-19-5.73191E-19
 -1      3369 8.52134E-05-2.23314E-05-2.69285E-05-1.13537E-05 2.28916E-19-3.33738E-20
 -1      3370 8.95457E-05-2.34883E-05-2.82904E-05-9.01025E-06 7.99859E-20-2.70467E-19
 -1      3371 8.97805E-05-2.34587E-05-2.84477E-05-8.14209E-06 1.97957E-20-2.69464E-19
 -1      3372 8.68638E-05-2.21735E-05-2.77028E-05-8.90663E-06 1.99861E-19-3.37635E-19
 -1      3373 9.05461E-05-2.36993E-05-2.86380E-05-7.34629E-06 1.22624E-19-1.81438E-19
 -1      3374 9.08562E-05-2.38703E-05-2.87277E-05-6.62783E-06 4.04935E-19-2.99850E-19
 -1      3375 8.84694E-05-2.25748E-05-2.82205E-05-7.15151E-06 2.13584E-19-3.54608E-20
 -1      3376 9.15205E-05-2.42074E-05-2.88423E-05-5.99519E-06 3.81775E-19-6.46124E-19
 -1      3377 9.18238E-05-2.44662E-05-2.88832E-05-5.38750E-06 2.44153E-20-3.16108E-19
 -1      3378 8.98977E-05-2.32421E-05-2.85494E-05-5.80881E-06 1.02012E-19-3.25351E-19
 -1      3379 9.23761E-05-2.48277E-05-2.89451E-05-4.86679E-06-1.66681E-19 4.91613E-19
 -1      3380 9.26385E-05-2.51097E-05-2.89536E-05-4.34904E-06 2.65953E-19 2.66432E-19
 -1      3381 9.11057E-05-2.40035E-05-2.87440E-05-4.72556E-06 4.52919E-19-3.69490E-19
 -1      3382 9.30843E-05-2.54558E-05-2.89802E-05-3.91338E-06 2.99500E-19 7.93967E-19
 -1      3383 9.32965E-05-2.57265E-05-2.89688E-05-3.47392E-06 3.06683E-19 3.39533E-19
 -1      3384 9.20937E-05-2.47600E-05-2.88462E-05-3.82320E-06 4.35543E-19 4.62577E-19
 -1      3385 9.36484E-05-2.60375E-05-2.89730E-05-3.10864E-06 1.10144E-19 1.57513E-19
 -1      3386 9.38128E-05-2.62805E-05-2.89506E-05-2.73950E-06 6.67061E-20 1.53941E-19
 -1      3387 9.28822E-05-2.54584E-05-2.88874E-05-3.06221E-06 8.22540E-20 3.55578E-19
 -1      3388 9.40856E-05-2.65488E-05-2.89415E-05-2.43523E-06 3.53815E-19 7.18104E-20
 -1      3389 9.42092E-05-2.67580E-05-2.89142E-05-2.12935E-06 2.27657E-19-2.19636E-19
 -1      3390 9.34994E-05-2.60741E-05-2.88902E-05-2.42130E-06 2.22604E-19 4.53580E-20
 -1      3391 9.44177E-05-2.69830E-05-2.88980E-05-1.87883E-06-1.63859E-19-3.39816E-19
 -1      3392 9.45087E-05-2.71581E-05-2.88697E-05-1.62925E-06 2.30257E-20-6.21614E-19
 -1      3393 9.39749E-05-2.65997E-05-2.88704E-05-1.88637E-06 1.28089E-20-4.60842E-19
 -1      3394 9.46658E-05-2.73428E-05-2.88503E-05-1.42600E-06-2.49788E-19-3.51103E-19
 -1      3395 9.47315E-05-2.74862E-05-2.88235E-05-1.22557E-06-4.80708E-19-5.06045E-19
 -1      3396 9.43362E-05-2.70381E-05-2.88387E-05-1.44606E-06-1.08435E-19-9.33543E-19
 -1      3397 9.48483E-05-2.76351E-05-2.88036E-05-1.06322E-06-5.00062E-19 1.09826E-19
 -1      3398 9.48950E-05-2.77506E-05-2.87793E-05-9.04815E-07-5.35048E-20 5.00589E-19
 -1      3399 9.46071E-05-2.73965E-05-2.88021E-05-1.08930E-06-3.05195E-19-3.87053E-19
 -1      3400 9.49806E-05-2.78688E-05-2.87604E-05-7.77221E-07 3.53428E-20 3.69184E-19
 -1      3401 9.50132E-05-2.79603E-05-2.87393E-05-6.54053E-07 8.61620E-19 3.14126E-19
 -1      3402 9.48075E-05-2.76848E-05-2.87652E-05-8.04922E-07-7.23184E-20 9.93231E-19
 -1      3403 9.50750E-05-2.80528E-05-2.87223E-05-5.55467E-07 1.15297E-18 1.45443E-20
 -1      3404 9.50972E-05-2.81243E-05-2.87045E-05-4.61289E-07 4.70035E-19 1.56735E-19
 -1      3405 9.49536E-05-2.79131E-05-2.87305E-05-5.82062E-07 6.36217E-19 1.91149E-19
 -1      3406 9.51410E-05-2.81956E-05-2.86897E-05-3.86448E-07 2.15112E-19 7.33930E-19
 -1      3407 9.51559E-05-2.82508E-05-2.86750E-05-3.15690E-07 1.57821E-19 1.08112E-18
 -1      3408 9.50583E-05-2.80915E-05-2.86993E-05-4.10439E-07 6.69995E-19-2.75336E-19
 -1      3409 9.51863E-05-2.83050E-05-2.86625E-05-2.59936E-07-5.97263E-19 5.03291E-19
 -1      3410 9.51959E-05-2.83468E-05-2.86506E-05-2.07777E-07-1.67609E-18 7.12384E-19
 -1      3411 9.51320E-05-2.82287E-05-2.86724E-05-2.80651E-07-4.12959E-19-3.51329E-19
 -1      3412 9.52164E-05-2.83874E-05-2.86403E-05-1.67086E-07-1.96532E-18 5.43174E-19
 -1      3413 9.52223E-05-2.84187E-05-2.86308E-05-1.29440E-07-8.78029E-19 8.09264E-19
 -1      3414 9.51826E-05-2.83326E-05-2.86497E-05-1.84394E-07-1.50853E-18 2.54088E-19
 -1      3415 9.52356E-05-2.84485E-05-2.86225E-05-1.00431E-07-4.66217E-19 6.33336E-19
 -1      3416 9.52390E-05-2.84715E-05-2.86151E-05-7.39281E-08 3.67731E-19 2.06436E-19
 -1      3417 9.52163E-05-2.84102E-05-2.86310E-05-1.14502E-07-5.71393E-19 1.07816E-18
 -1      3418 9.52471E-05-2.84930E-05-2.86085E-05-5.38259E-08 4.64227E-19-3.75173E-19
 -1      3419 9.52488E-05-2.85096E-05-2.86029E-05-3.57271E-08-5.59268E-19-4.47095E-19
 -1      3420 9.52377E-05-2.84670E-05-2.86159E-05-6.50004E-08-1.58470E-19 4.65497E-19
 -1      3421 9.52534E-05-2.85247E-05-2.85977E-05-2.22837E-08 6.37467E-20-1.65457E-19
 -1      3422 9.52539E-05-2.85364E-05-2.85934E-05-1.04026E-08 4.28504E-19 3.92335E-19
 -1      3423 9.52505E-05-2.85078E-05-2.86040E-05-3.09749E-08-1.41113E-19-7.00945E-19
 -1      3424 9.52561E-05-2.85467E-05-2.85895E-05-1.83359E-09-5.22776E-19 7.39239E-19
 -1      3425 9.52559E-05-2.85547E-05-2.85864E-05 5.54382E-09-9.36092E-19 5.98434E-19
 -1      3426 9.52573E-05-2.85364E-05-2.85947E-05-8.46103E-09 4.18397E-20-5.83013E-19
 -1      3427 9.52565E-05-2.85615E-05-2.85834E-05 1.06267E-08-2.12489E-18 9.88091E-19
 -1      3428 9.52559E-05-2.85668E-05-2.85811E-05 1.48206E-08-1.63804E-18 4.23114E-19
 -1      3429 9.52601E-05-2.85558E-05-2.85876E-05 5.67194E-09-1.45781E-18-7.44098E-19
 -1      3430 9.52555E-05-2.85711E-05-2.85789E-05 1.74778E-08-8.82720E-19 2.92885E-19
 -1      3431 9.52547E-05-2.85743E-05-2.85773E-05 1.94872E-08-2.37073E-19 9.60017E-20
 -1      3432 9.52603E-05-2.85684E-05-2.85823E-05 1.38493E-08-1.28686E-18 3.40504E-19
 -1      3433 9.52537E-05-2.85768E-05-2.85757E-05 2.05136E-08-2.02100E-19-9.10812E-20
 -1      3434 9.52528E-05-2.85787E-05-2.85746E-05 2.10798E-08 5.77784E-19-5.69429E-19
 -1      3435 9.52589E-05-2.85762E-05-2.85784E-05 1.79154E-08-4.16336E-19 6.67308E-20
 -1      3436 9.52515E-05-2.85799E-05-2.85735E-05 2.10591E-08 9.75257E-19-1.11885E-18
 -1      3437 9.52507E-05-2.85808E-05-2.85728E-05 2.07213E-08 7.39636E-19-1.29755E-18
 -1      3438 9.52567E-05-2.85805E-05-2.85755E-05 1.92458E-08 4.51446E-19-6.95173E-19
 -1      3439 9.52493E-05-2.85811E-05-2.85720E-05 2.00725E-08 5.29298E-19-9.40522E-19
 -1      3440 9.52485E-05-2.85814E-05-2.85716E-05 1.92129E-08 2.46168E-19-6.88577E-19
 -1      3441 9.52541E-05-2.85825E-05-2.85735E-05 1.88451E-08 6.18400E-19-1.99499E-18
 -1      3442 9.52471E-05-2.85813E-05-2.85711E-05 1.82286E-08 9.17634E-19-1.59178E-20
 -1      3443 9.52464E-05-2.85811E-05-2.85708E-05 1.71105E-08 1.87676E-18 6.54703E-19
 -1      3444 9.52514E-05-2.85830E-05-2.85722E-05 1.74295E-08 1.26855E-18-7.74785E-19
 -1      3445 9.52452E-05-2.85807E-05-2.85705E-05 1.59881E-08 2.95876E-19-1.25804E-19
 -1      3446 9.52446E-05-2.85803E-05-2.85704E-05 1.47856E-08-1.38007E-19-4.35636E-19
 -1      3447 9.52488E-05-2.85825E-05-2.85713E-05 1.54955E-08 4.30412E-19 1.20843E-18
 -1      3448 9.52435E-05-2.85797E-05-2.85702E-05 1.36516E-08-3.49843E-19-8.11299E-19
 -1      3449 9.52430E-05-2.85793E-05-2.85701E-05 1.24733E-08-1.65961E-18-9.13131E-19
 -1      3450 9.52465E-05-2.85815E-05-2.85707E-05 1.33734E-08-8.10616E-19-1.18646E-18
 -1      3451 9.52420E-05-2.85786E-05-2.85700E-05 1.14029E-08-1.62205E-18-3.45636E-19
 -1      3452 9.52416E-05-2.85781E-05-2.85700E-05 1.03111E-08-1.38152E-18-1.08356E-18
 -1      3453 9.52445E-05-2.85802E-05-2.85704E-05 1.12714E-08-1.59322E-18-1.35892E-18
 -1      3454 9.52408E-05-2.85775E-05-2.85700E-05 9.34137E-09-1.35319E-18-1.19961E-18
 -1      3455 9.52405E-05-2.85771E-05-2.85700E-05 8.35456E-09-1.75425E-18-1.72948E-18
 -1      3456 9.52428E-05-2.85789E-05-2.85702E-05 9.31362E-09-1.65663E-18-5.33785E-19
 -1      3457 9.52399E-05-2.85765E-05-2.85700E-05 6.89898E-09-1.14208E-18-1.89179E-18
 -1      3458 9.80575E-05-3.07847E-05-2.88055E-05 7.63815E-06 5.94337E-19-1.01459E-18
 -1      3459 9.92773E-05-3.20136E-05-2.88160E-05 7.68925E-06-1.08460E-20-1.12928E-18
 -1      3460 9.61938E-05-2.97557E-05-2.85082E-05 8.23007E-06 3.68514E-19-7.03142E-19
 -1      3461 1.00788E-04-3.34652E-05-2.88071E-05 7.91310E-06 1.33756E-19-1.51409E-18
 -1      3462 1.02491E-04-3.50829E-05-2.88848E-05 7.59290E-06 2.42341E-19-1.23669E-18
 -1      3463 9.85409E-05-3.23602E-05-2.84162E-05 9.11605E-06 1.26277E-19-8.96098E-19
 -1      3464 9.53565E-05-2.78417E-05-2.89303E-05 6.07521E-06-4.78189E-19 1.40669E-19
 -1      3465 9.58573E-05-2.83497E-05-2.89202E-05 6.43205E-06-3.70912E-19-4.01898E-19
 -1      3466 9.48557E-05-2.80805E-05-2.86381E-05 7.15086E-06-2.31549E-19 1.96451E-19
 -1      3467 9.48495E-05-2.72474E-05-2.89724E-05 5.17470E-06 8.24505E-21 1.67713E-19
 -1      3468 9.51417E-05-2.75181E-05-2.89718E-05 5.56740E-06-1.44391E-19 2.69604E-19
 -1      3469 9.41920E-05-2.71245E-05-2.87538E-05 6.06322E-06-3.63103E-19 6.47232E-20
 -1      3470 9.46393E-05-2.70090E-05-2.89870E-05 4.31116E-06-1.25627E-19 1.06338E-18
 -1      3471 9.47978E-05-2.71190E-05-2.89972E-05 4.70130E-06 1.91736E-19 6.49123E-19
 -1      3472 9.39482E-05-2.66753E-05-2.88362E-05 5.04704E-06-5.68493E-20-5.02120E-19
 -1      3473 9.46004E-05-2.69958E-05-2.89772E-05 3.52190E-06-1.41142E-19 8.41928E-19
 -1      3474 9.46777E-05-2.70047E-05-2.89961E-05 3.88668E-06-2.43726E-19 8.03478E-19
 -1      3475 9.39479E-05-2.65592E-05-2.88826E-05 4.13382E-06-2.97924E-19 3.57389E-19
 -1      3476 9.46512E-05-2.71121E-05-2.89495E-05 2.82477E-06-5.04338E-19 9.75105E-19
 -1      3477 9.46820E-05-2.70630E-05-2.89740E-05 3.15180E-06-1.66722E-19 7.17523E-19
 -1      3478 9.40748E-05-2.66457E-05-2.88981E-05 3.33434E-06-8.27371E-20 1.30443E-20
 -1      3479 9.47413E-05-2.72926E-05-2.89106E-05 2.22525E-06-4.30841E-21 4.33970E-19
 -1      3480 9.47472E-05-2.72148E-05-2.89379E-05 2.50913E-06-1.36708E-20 7.10476E-19
 -1      3481 9.42557E-05-2.68423E-05-2.88906E-05 2.64864E-06-2.00888E-19 3.98057E-19
 -1      3482 9.48416E-05-2.74953E-05-2.88663E-05 1.72156E-06-6.17858E-19-1.31264E-19
 -1      3483 9.48357E-05-2.74075E-05-2.88939E-05 1.96136E-06-2.46868E-19-9.54369E-20
 -1      3484 9.44475E-05-2.70869E-05-2.88677E-05 2.07092E-06 1.61041E-19-6.15365E-19
 -1      3485 9.49365E-05-2.76947E-05-2.88210E-05 1.30732E-06-8.76443E-19-4.44052E-19
 -1      3486 9.49261E-05-2.76082E-05-2.88473E-05 1.50511E-06-1.08963E-18-1.96659E-19
 -1      3487 9.46268E-05-2.73405E-05-2.88359E-05 1.59273E-06-6.77189E-19-1.08000E-18
 -1      3488 9.50186E-05-2.78765E-05-2.87778E-05 9.73320E-07-7.96198E-19 1.30623E-19
 -1      3489 9.50077E-05-2.77976E-05-2.88016E-05 1.13298E-06-8.59630E-19-4.75324E-20
 -1      3490 9.47824E-05-2.75797E-05-2.88002E-05 1.20375E-06-9.68633E-19-1.26589E-18
 -1      3491 9.50856E-05-2.80342E-05-2.87384E-05 7.09052E-07-1.05204E-18-1.67643E-19
 -1      3492 9.50759E-05-2.79657E-05-2.87593E-05 8.35345E-07-9.79229E-19 1.76545E-19
 -1      3493 9.49105E-05-2.77926E-05-2.87641E-05 8.92656E-07-8.19361E-19-2.76046E-19
 -1      3494 9.51378E-05-2.81660E-05-2.87038E-05 5.03844E-07-8.68332E-19 3.09871E-19
 -1      3495 9.51300E-05-2.81087E-05-2.87216E-05 6.01778E-07-7.66062E-19 2.88120E-19
 -1      3496 9.50120E-05-2.79741E-05-2.87299E-05 6.48012E-07-8.39606E-19-1.45736E-20
 -1      3497 9.51768E-05-2.82729E-05-2.86744E-05 3.47506E-07-3.32435E-19 4.89557E-19
 -1      3498 9.51711E-05-2.82264E-05-2.86891E-05 4.21953E-07-4.21142E-19 2.28766E-19
 -1      3499 9.50896E-05-2.81241E-05-2.86991E-05 4.58964E-07-6.41604E-19-2.84774E-19
 -1      3500 9.52050E-05-2.83573E-05-2.86499E-05 2.30747E-07 4.87765E-20-1.07542E-18
 -1      3501 9.52010E-05-2.83206E-05-2.86619E-05 2.86180E-07-2.99113E-20 2.01281E-20
 -1      3502 9.51470E-05-2.82445E-05-2.86723E-05 3.15505E-07 2.61370E-19-6.32708E-19
 -1      3503 9.52244E-05-2.84224E-05-2.86301E-05 1.45386E-07-3.79789E-19-1.61125E-18
 -1      3504 9.52219E-05-2.83941E-05-2.86396E-05 1.85752E-07-2.28574E-19-1.47748E-18
 -1      3505 9.51881E-05-2.83388E-05-2.86495E-05 2.08709E-07 1.70231E-19-9.64214E-19
 -1      3506 9.52371E-05-2.84715E-05-2.86143E-05 8.44766E-08 3.98522E-19-5.00522E-19
 -1      3507 9.52357E-05-2.84502E-05-2.86217E-05 1.13131E-07-4.90669E-19-1.56027E-18
 -1      3508 9.52164E-05-2.84111E-05-2.86308E-05 1.30847E-07-2.47045E-19-1.86964E-18
 -1      3509 9.52449E-05-2.85077E-05-2.86020E-05 4.22572E-08-2.03399E-19 1.49790E-18
 -1      3510 9.52443E-05-2.84920E-05-2.86076E-05 6.19858E-08 1.89509E-19 4.52680E-19
 -1      3511 9.52350E-05-2.84653E-05-2.86156E-05 7.54440E-08-6.14260E-19-2.27381E-18
 -1      3512 9.52492E-05-2.85337E-05-2.85926E-05 1.40392E-08-7.95369E-19 1.25054E-18
 -1      3513 9.52491E-05-2.85224E-05-2.85968E-05 2.71057E-08 2.70759E-19 1.95444E-18
 -1      3514 9.52465E-05-2.85049E-05-2.86036E-05 3.71544E-08-4.48440E-19 5.71942E-19
 -1      3515 9.52510E-05-2.85518E-05-2.85855E-05-3.91476E-09-1.49854E-19 1.43878E-19
 -1      3516 9.52512E-05-2.85439E-05-2.85886E-05 4.28861E-09-5.53745E-19 5.99452E-19
 -1      3517 9.52528E-05-2.85331E-05-2.85942E-05 1.16485E-08-3.38500E-19 1.67951E-19
 -1      3518 9.52512E-05-2.85640E-05-2.85803E-05-1.45231E-08-1.17909E-18-2.47506E-19
 -1      3519 9.52516E-05-2.85587E-05-2.85825E-05-9.78203E-09-8.04641E-19 7.01170E-20
 -1      3520 9.52557E-05-2.85526E-05-2.85871E-05-4.50982E-09-1.72161E-19-7.59065E-19
 -1      3521 9.52504E-05-2.85718E-05-2.85766E-05-2.00204E-08-1.30788E-18 3.12393E-19
 -1      3522 9.52509E-05-2.85684E-05-2.85781E-05-1.76724E-08-1.22574E-18 1.50954E-19
 -1      3523 9.52562E-05-2.85656E-05-2.85818E-05-1.39945E-08-1.41641E-18-9.56163E-19
 -1      3524 9.52491E-05-2.85764E-05-2.85740E-05-2.20842E-08-3.24270E-19 5.55548E-19
 -1      3525 9.52496E-05-2.85744E-05-2.85750E-05-2.13295E-08-7.64414E-19 3.89946E-19
 -1      3526 9.52553E-05-2.85737E-05-2.85779E-05-1.88473E-08-9.34850E-19-7.11224E-19
 -1      3527 9.52475E-05-2.85789E-05-2.85722E-05-2.19475E-08 1.43830E-19-1.26114E-19
 -1      3528 9.52480E-05-2.85778E-05-2.85729E-05-2.22009E-08-4.52763E-19-6.69214E-20
 -1      3529 9.52536E-05-2.85785E-05-2.85751E-05-2.05976E-08-3.33872E-19-8.97239E-19
 -1      3530 9.52458E-05-2.85799E-05-2.85711E-05-2.04955E-08 4.80969E-19 1.17591E-18
 -1      3531 9.52463E-05-2.85794E-05-2.85715E-05-2.13393E-08 2.76914E-19 6.77806E-19
 -1      3532 9.52514E-05-2.85808E-05-2.85732E-05-2.03673E-08-2.52939E-19 2.23059E-19
 -1      3533 9.52443E-05-2.85799E-05-2.85704E-05-1.83457E-08-6.68932E-19 1.94316E-18
 -1      3534 9.52447E-05-2.85798E-05-2.85706E-05-1.94905E-08-2.29608E-20 2.08389E-18
 -1      3535 9.52492E-05-2.85816E-05-2.85719E-05-1.89599E-08-3.44902E-19 2.62047E-18
 -1      3536 9.52429E-05-2.85793E-05-2.85701E-05-1.59141E-08-1.29704E-19 3.02200E-18
 -1      3537 9.52432E-05-2.85795E-05-2.85701E-05-1.71670E-08-5.36115E-20 2.11676E-18
 -1      3538 9.52471E-05-2.85814E-05-2.85710E-05-1.69350E-08-5.25882E-19 2.93119E-18
 -1      3539 9.52416E-05-2.85785E-05-2.85699E-05-1.34664E-08-1.63292E-18 3.11163E-18
 -1      3540 9.52419E-05-2.85788E-05-2.85699E-05-1.47061E-08-7.71171E-19 2.63890E-18
 -1      3541 9.52451E-05-2.85806E-05-2.85705E-05-1.46684E-08-6.08533E-20 2.99694E-18
 -1      3542 9.52406E-05-2.85775E-05-2.85699E-05-1.11602E-08-1.47449E-18 2.08441E-18
 -1      3543 9.52408E-05-2.85779E-05-2.85698E-05-1.23166E-08-1.51861E-18 2.52030E-18
 -1      3544 9.52434E-05-2.85796E-05-2.85702E-05-1.23990E-08-8.46180E-19 1.46344E-18
 -1      3545 9.52397E-05-2.85766E-05-2.85699E-05-9.07329E-09-7.92989E-19 2.45604E-18
 -1      3546 9.52399E-05-2.85770E-05-2.85698E-05-1.01187E-08-1.49557E-18 1.86054E-18
 -1      3547 9.52419E-05-2.85784E-05-2.85701E-05-1.02715E-08-1.67424E-18 5.75787E-19
 -1      3548 9.52391E-05-2.85758E-05-2.85700E-05-7.24742E-09 9.34575E-19 2.78900E-18
 -1      3549 9.52392E-05-2.85761E-05-2.85699E-05-8.15919E-09 7.12472E-19 2.91130E-18
 -1      3550 9.52408E-05-2.85773E-05-2.85701E-05-8.36063E-09-6.51755E-19 8.09284E-19
 -1      3551 9.52392E-05-2.85757E-05-2.85701E-05-5.36530E-09 5.98938E-19 2.70521E-18
 -1      3552 9.52386E-05-2.85751E-05-2.85701E-05-5.47297E-09 6.55731E-19 2.56517E-18
 -1      3553 9.52386E-05-2.85752E-05-2.85700E-05-5.95787E-09 1.24459E-19 3.22346E-18
 -1      3554 9.52399E-05-2.85764E-05-2.85701E-05-5.75827E-09 1.02727E-18 1.87843E-18
 -1      3555 1.09089E-04-3.76799E-05-3.03027E-05-1.08181E-05-1.48683E-18-1.30816E-18
 -1      3556 9.73399E-05-3.42217E-05-2.71855E-05-2.08017E-05-2.04458E-18-2.39964E-18
 -1      3557 1.15548E-04-4.33844E-05-3.08699E-05 1.00962E-06-6.36456E-19-2.71296E-18
 -1      3558 1.17004E-04-4.29700E-05-3.17525E-05-1.45219E-06-4.02891E-19-3.09543E-18
 -1      3559 1.18039E-04-2.22671E-05-4.13339E-05-7.83090E-06 2.88838E-18-3.53546E-18
 -1      3560 1.22602E-04-3.50822E-05-3.75838E-05 1.52497E-05 1.70914E-18 3.84871E-19
 -1      3561 1.13139E-04-4.81666E-05-2.79228E-05 1.75297E-05-1.82083E-18-2.95898E-18
 -1      3562 1.03228E-04-4.27999E-05-2.58429E-05 2.19054E-05-2.00781E-18-2.27358E-18
 -1      3563 1.19893E-04-2.90723E-05-3.91492E-05 1.76266E-05 2.57003E-18 5.03720E-20
 -1      3564 5.86014E-05-1.43410E-05-1.86644E-05-1.40924E-05 1.87651E-19 2.40017E-18
 -1      3565 6.49911E-05-1.90224E-05-1.94666E-05-2.10542E-05 8.90774E-19 2.19000E-18
 -1      3566 9.52413E-05-2.85776E-05-2.85702E-05 6.91775E-09-8.34433E-19-8.78564E-19
 -1      3567 1.18639E-04-4.07804E-05-3.34845E-05-5.91951E-06 6.00475E-20-3.32400E-18
 -1      3568 1.18349E-04-3.70291E-05-3.48292E-05-8.27332E-06 6.16137E-19-3.52785E-18
 -1      3569 1.18845E-04-3.36619E-05-3.66462E-05-8.79069E-06 1.06806E-18-3.66257E-18
 -1      3570 1.19856E-04-4.35425E-05-3.27387E-05-2.06783E-06-2.51342E-19-3.79092E-18
 -1      3571 9.92447E-05-4.06601E-05-2.47627E-05-2.56473E-05 2.02341E-18 2.93848E-19
 -1      3572 7.43915E-05-2.34787E-05-2.16825E-05 2.10925E-05-2.28817E-18 7.23498E-19
 -1      3573 9.52435E-05-2.85793E-05-2.85704E-05 4.93268E-09-5.16810E-19 1.81145E-18
 -1      3574 9.52431E-05-2.85790E-05-2.85703E-05 3.97956E-09-2.30460E-19 1.56252E-18
 -1      3575 9.52436E-05-2.85794E-05-2.85704E-05 3.01397E-09-3.96390E-19 2.60010E-19
 -1      3576 1.03763E-04-4.12381E-05-2.67411E-05 1.80218E-05-1.73193E-18-2.91346E-18
 -1      3577 9.79874E-05-3.91820E-05-2.50744E-05 2.31107E-05-1.86654E-18-1.60659E-18
 -1      3578 9.16955E-05-3.44287E-05-2.45490E-05 2.22573E-05-1.99106E-18-1.03522E-18
 -1      3579 9.52424E-05-2.85784E-05-2.85703E-05-5.00256E-09-1.06670E-18-2.04490E-18
 -1      3580 9.52416E-05-2.85778E-05-2.85702E-05-5.74798E-09-3.60361E-19-3.95036E-19
 -1      3581 1.09918E-04-4.07132E-05-2.95773E-05 5.27039E-06-5.60150E-19-1.77341E-18
 -1      3582 1.12135E-04-4.20864E-05-3.00647E-05 3.58281E-06-4.90540E-19-2.08165E-18
 -1      3583 1.14201E-04-4.42604E-05-3.00654E-05 5.33549E-06-8.59977E-19-3.07642E-18
 -1      3584 9.52386E-05-2.85753E-05-2.85700E-05-6.47498E-09 5.52734E-19 3.40113E-18
 -1      3585 9.42177E-05-3.66719E-05-2.45046E-05-2.44702E-05 1.63295E-18 6.62194E-19
 -1      3586 9.52442E-05-2.85798E-05-2.85704E-05-6.44630E-10-1.21827E-18-1.49033E-18
 -1      3587 9.52440E-05-2.85797E-05-2.85704E-05-1.75385E-09-1.30609E-18-1.97425E-18
 -1      3588 1.23772E-04-4.23198E-05-3.48562E-05-5.40817E-06 3.07857E-19-4.16311E-18
 -1      3589 1.21745E-04-4.48036E-05-3.30384E-05-1.03044E-06-7.72107E-20-3.88739E-18
 -1      3590 1.15674E-04-4.72183E-05-2.93142E-05 1.10456E-05-1.48081E-18-3.29745E-18
 -1      3591 5.85609E-05-1.30414E-05-1.92785E-05 9.19411E-06-1.16817E-18 2.55809E-18
 -1      3592 5.95936E-05-1.26593E-05-2.01385E-05 3.07895E-06-3.18005E-19 2.07507E-18
 -1      3593 6.48886E-05-1.55062E-05-2.10421E-05 1.09079E-05-1.18066E-18 1.81380E-18
 -1      3594 1.18532E-04-2.76371E-05-3.89959E-05-1.01896E-05 2.02594E-18-3.93828E-18
 -1      3595 1.04765E-04-3.69516E-05-2.89931E-05 7.33196E-06-1.29149E-19-1.28747E-18
 -1      3596 1.06902E-04-3.87571E-05-2.92184E-05 6.41806E-06-1.97519E-19-1.39955E-18
 -1      3597 1.07524E-04-4.02956E-05-2.88974E-05 8.49192E-06-5.08328E-19-2.16862E-18
 -1      3598 1.02264E-04-3.59752E-05-2.84759E-05 9.42762E-06 1.34161E-19-1.53998E-18
 -1      3599 7.41874E-05-2.38044E-05-2.13635E-05-2.19520E-05 1.08699E-18 1.52683E-18
 -1      3600 1.20894E-04-3.53715E-05-3.69706E-05-8.57836E-06 1.05170E-18-3.87060E-18
 -1      3601 9.52415E-05-2.85777E-05-2.85702E-05-6.75474E-09-1.06477E-18 8.37565E-20
 -1      3602 9.52405E-05-2.85769E-05-2.85701E-05-6.45695E-09-3.52171E-20 1.20260E-18
 -1      3603 9.52397E-05-2.85763E-05-2.85701E-05-6.68240E-09 2.91604E-19 2.19254E-18
 -1      3604 9.03966E-05-3.22314E-05-2.48292E-05-2.21516E-05 1.72439E-18 6.12689E-19
 -1      3605 6.02391E-05-1.39025E-05-1.96532E-05-9.04126E-06 3.53226E-19 2.20784E-18
 -1      3606 1.17316E-04-2.42091E-05-3.99675E-05 1.75706E-05 3.05557E-18-4.11340E-20
 -1      3607 8.30683E-05-2.74859E-05-2.37974E-05-2.18227E-05 1.22236E-18 6.77891E-19
 -1      3608 9.52442E-05-2.85798E-05-2.85704E-05 6.72659E-10-9.39135E-19-1.46657E-18
 -1      3609 9.52451E-05-2.85805E-05-2.85705E-05 9.72338E-12-5.12137E-19-7.38333E-19
 -1      3610 9.52440E-05-2.85797E-05-2.85704E-05 1.75929E-09-8.62636E-19-9.42125E-19
 -1      3611 9.52447E-05-2.85802E-05-2.85705E-05-2.60440E-09-8.63962E-19-2.14337E-18
 -1      3612 9.52436E-05-2.85794E-05-2.85704E-05-2.99447E-09-8.51821E-19-1.37272E-18
 -1      3613 9.52431E-05-2.85790E-05-2.85703E-05-3.97577E-09-7.93796E-19-1.78257E-18
 -1      3614 9.52423E-05-2.85785E-05-2.85702E-05 7.11057E-09-1.51248E-18-6.84458E-19
 -1      3615 7.93035E-05-2.12609E-05-2.47908E-05-1.39580E-05 6.79878E-19 5.66592E-19
 -1      3616 7.97761E-05-2.05870E-05-2.54470E-05-1.19613E-05 3.28083E-19 4.20418E-19
 -1      3617 9.29634E-05-2.62386E-05-2.86009E-05 5.79996E-06-3.58596E-19 7.32683E-19
 -1      3618 9.31777E-05-2.65429E-05-2.85421E-05 6.34361E-06-5.75858E-19 3.97738E-19
 -1      3619 9.52435E-05-2.85793E-05-2.85704E-05-4.92643E-09-1.10620E-18-1.74116E-18
 -1      3620 8.18799E-05-2.06779E-05-2.61992E-05-1.03530E-05 2.42566E-19 2.30693E-19
 -1      3621 8.27246E-05-2.05907E-05-2.66870E-05-9.02661E-06-5.35484E-20 2.76961E-19
 -1      3622 7.77307E-05-1.86330E-05-2.52399E-05-9.30594E-06 6.26110E-20 5.99956E-19
 -1      3623 8.43911E-05-2.09220E-05-2.71902E-05-8.01172E-06 5.17323E-20 1.22125E-19
 -1      3624 8.52535E-05-2.11285E-05-2.75226E-05-7.09822E-06 4.29021E-19 2.74757E-19
 -1      3625 8.14677E-05-1.94309E-05-2.65336E-05-6.99695E-06 1.03982E-19 1.21605E-19
 -1      3626 8.65822E-05-2.15754E-05-2.78575E-05-6.41313E-06 3.90455E-19 5.88624E-20
 -1      3627 8.73684E-05-2.19247E-05-2.80753E-05-5.73682E-06 3.43261E-19 2.24131E-19
 -1      3628 8.44344E-05-2.04193E-05-2.73965E-05-5.53528E-06 3.98141E-19 2.63085E-19
 -1      3629 8.84323E-05-2.24140E-05-2.82942E-05-5.23074E-06-1.59528E-20 2.33732E-20
 -1      3630 8.91079E-05-2.28192E-05-2.84296E-05-4.69461E-06-3.04493E-20-1.09285E-19
 -1      3631 8.67976E-05-2.14702E-05-2.79685E-05-4.51962E-06 1.38136E-19-3.79016E-19
 -1      3632 8.99597E-05-2.33056E-05-2.85676E-05-4.29136E-06 4.61412E-19-2.46155E-19
 -1      3633 9.05187E-05-2.37149E-05-2.86453E-05-3.84586E-06 7.28086E-19-2.41545E-20
 -1      3634 8.86886E-05-2.25126E-05-2.83393E-05-3.74009E-06 1.75244E-19-2.89385E-19
 -1      3635 9.11978E-05-2.41703E-05-2.87275E-05-3.50870E-06 8.56363E-19-1.08069E-19
 -1      3636 9.16480E-05-2.45543E-05-2.87661E-05-3.12981E-06 6.00049E-19 3.86347E-20
 -1      3637 9.01998E-05-2.34965E-05-2.85704E-05-3.09623E-06 8.60491E-19-6.80457E-19
 -1      3638 9.21860E-05-2.49636E-05-2.88105E-05-2.84175E-06 4.34442E-20 1.99762E-19
 -1      3639 9.25412E-05-2.53073E-05-2.88237E-05-2.51848E-06-3.21641E-20 4.01996E-20
 -1      3640 9.14015E-05-2.43924E-05-2.87053E-05-2.54258E-06 3.87792E-19-1.41835E-19
 -1      3641 9.29634E-05-2.56636E-05-2.88431E-05-2.27212E-06-1.91487E-19-4.04775E-20
 -1      3642 9.32388E-05-2.59611E-05-2.88407E-05-1.99812E-06-1.80857E-19-2.73348E-19
 -1      3643 9.23503E-05-2.51845E-05-2.87755E-05-2.06139E-06-1.44535E-19-9.78914E-20
 -1      3644 9.35674E-05-2.62639E-05-2.88442E-05-1.78911E-06-2.49451E-19-5.98644E-19
 -1      3645 9.37780E-05-2.65154E-05-2.88327E-05-1.56005E-06-2.39091E-19-9.62290E-19
 -1      3646 9.30925E-05-2.58671E-05-2.88034E-05-1.64489E-06-5.01344E-19-1.79166E-19
 -1      3647 9.40309E-05-2.67676E-05-2.88267E-05-1.38568E-06-9.91996E-22-1.06002E-18
 -1      3648 9.41898E-05-2.69758E-05-2.88107E-05-1.19728E-06 1.52566E-19-1.23511E-18
 -1      3649 9.36678E-05-2.64439E-05-2.88046E-05-1.29001E-06-2.02877E-19-5.07532E-19
 -1      3650 9.43821E-05-2.71821E-05-2.87994E-05-1.05438E-06 4.28350E-19-9.69035E-19
 -1      3651 9.45004E-05-2.73514E-05-2.87818E-05-9.02071E-07 4.06954E-19-2.06854E-19
 -1      3652 9.41085E-05-2.69223E-05-2.87899E-05-9.93389E-07 2.19331E-19-7.18486E-19
 -1      3653 9.46448E-05-2.75174E-05-2.87682E-05-7.87062E-07-8.76289E-20 5.34862E-19
 -1      3654 9.47317E-05-2.76531E-05-2.87508E-05-6.66024E-07 4.82971E-19 6.79386E-19
 -1      3655 9.44421E-05-2.73122E-05-2.87668E-05-7.50242E-07 8.11145E-19 4.44700E-19
 -1      3656 9.48385E-05-2.77847E-05-2.87367E-05-5.75195E-07 5.87209E-19 5.32422E-19
 -1      3657 9.49014E-05-2.78918E-05-2.87206E-05-4.80739E-07 5.14891E-19 5.27279E-19
 -1      3658 9.46912E-05-2.76251E-05-2.87403E-05-5.54727E-07 9.05565E-19 3.91473E-19
 -1      3659 9.49791E-05-2.79945E-05-2.87071E-05-4.10363E-07 8.04987E-19 4.28680E-19
 -1      3660 9.50238E-05-2.80778E-05-2.86928E-05-3.37921E-07 6.60568E-19 6.45429E-19
 -1      3661 9.48744E-05-2.78726E-05-2.87134E-05-4.00693E-07 5.86747E-19 4.98096E-19
 -1      3662 9.50794E-05-2.81569E-05-2.86805E-05-2.84420E-07-1.20652E-20 4.75754E-19
 -1      3663 9.51105E-05-2.82207E-05-2.86683E-05-2.29934E-07-9.93955E-19 3.59197E-20
 -1      3664 9.50069E-05-2.80652E-05-2.86881E-05-2.81569E-07 3.86267E-19 8.25704E-19
 -1      3665 9.51493E-05-2.82806E-05-2.86576E-05-1.90127E-07-9.12179E-19 7.09646E-19
 -1      3666 9.51703E-05-2.83287E-05-2.86473E-05-1.49941E-07-5.44610E-19 1.60799E-18
 -1      3667 9.51008E-05-2.82130E-05-2.86654E-05-1.91380E-07-3.14684E-19 8.24360E-19
 -1      3668 9.51967E-05-2.83733E-05-2.86382E-05-1.20950E-07-4.92660E-19 2.41556E-18
 -1      3669 9.52104E-05-2.84090E-05-2.86298E-05-9.19789E-08-2.14968E-19 2.07302E-18
 -1      3670 9.51658E-05-2.83245E-05-2.86457E-05-1.24462E-07 9.45875E-21 2.05049E-18
 -1      3671 9.52277E-05-2.84417E-05-2.86223E-05-7.14258E-08-4.31406E-19 1.37706E-18
 -1      3672 9.52362E-05-2.84676E-05-2.86155E-05-5.10819E-08-2.03283E-19 8.44807E-19
 -1      3673 9.52093E-05-2.84073E-05-2.86291E-05-7.59920E-08-5.48890E-19 2.79580E-18
 -1      3674 9.52468E-05-2.84910E-05-2.86094E-05-3.69516E-08-5.84304E-19 2.52576E-19
 -1      3675 9.52517E-05-2.85095E-05-2.86041E-05-2.31160E-08-4.01714E-19-6.31577E-20
 -1      3676 9.52372E-05-2.84676E-05-2.86153E-05-4.18240E-08-7.09764E-19 1.54986E-18
 -1      3677 9.52577E-05-2.85258E-05-2.85992E-05-1.37717E-08 2.56759E-19-6.57021E-19
 -1      3678 9.52600E-05-2.85386E-05-2.85951E-05-4.74674E-09-3.13343E-19-9.16178E-19
 -1      3679 9.52539E-05-2.85104E-05-2.86042E-05-1.84952E-08-7.45231E-19-2.02736E-19
 -1      3680 9.52629E-05-2.85496E-05-2.85913E-05 1.10842E-09-9.54116E-19-4.31820E-19
 -1      3681 9.52636E-05-2.85582E-05-2.85881E-05 6.65532E-09-1.71062E-18-3.49330E-19
 -1      3682 9.52629E-05-2.85401E-05-2.85954E-05-3.21149E-09-3.04888E-19-8.50090E-19
 -1      3683 9.52644E-05-2.85653E-05-2.85852E-05 1.00293E-08-1.42416E-18 2.05474E-20
 -1      3684 9.52640E-05-2.85708E-05-2.85829E-05 1.31251E-08-7.61620E-19 3.85127E-19
 -1      3685 9.52666E-05-2.85599E-05-2.85886E-05 6.23400E-09-9.70534E-19-9.19052E-19
 -1      3686 9.52635E-05-2.85751E-05-2.85806E-05 1.47864E-08-7.02521E-19-4.05713E-20
 -1      3687 9.52625E-05-2.85784E-05-2.85789E-05 1.62075E-08-2.87421E-19-4.67719E-19
 -1      3688 9.52670E-05-2.85725E-05-2.85833E-05 1.15507E-08-1.12618E-18-7.15084E-19
 -1      3689 9.52612E-05-2.85808E-05-2.85773E-05 1.67303E-08-6.30317E-19-7.12054E-19
 -1      3690 9.52600E-05-2.85825E-05-2.85761E-05 1.70523E-08 3.12180E-19-1.09271E-18
 -1      3691 9.52652E-05-2.85801E-05-2.85794E-05 1.40370E-08-6.71877E-19-1.20851E-18
 -1      3692 9.52583E-05-2.85835E-05-2.85749E-05 1.68564E-08 1.21571E-18-1.68040E-18
 -1      3693 9.52570E-05-2.85842E-05-2.85740E-05 1.64967E-08 5.29618E-19-1.15310E-18
 -1      3694 9.52624E-05-2.85840E-05-2.85765E-05 1.46590E-08 6.24694E-19-1.50506E-18
 -1      3695 9.52552E-05-2.85844E-05-2.85732E-05 1.58812E-08 5.54326E-19-7.44398E-19
 -1      3696 9.52538E-05-2.85844E-05-2.85726E-05 1.51347E-08 1.30684E-18-1.17658E-18
 -1      3697 9.52590E-05-2.85855E-05-2.85744E-05 1.41191E-08 7.96190E-19-7.51848E-19
 -1      3698 9.52521E-05-2.85840E-05-2.85720E-05 1.43072E-08 1.25075E-18-1.70049E-18
 -1      3699 9.52508E-05-2.85837E-05-2.85716E-05 1.33762E-08 4.60458E-19-1.92421E-18
 -1      3700 9.52555E-05-2.85855E-05-2.85729E-05 1.29155E-08 8.45415E-19-2.37663E-18
 -1      3701 9.52492E-05-2.85830E-05-2.85712E-05 1.24752E-08-8.45455E-19-1.43113E-18
 -1      3702 9.52481E-05-2.85824E-05-2.85710E-05 1.14920E-08-1.59992E-18-2.05904E-18
 -1      3703 9.52522E-05-2.85846E-05-2.85719E-05 1.13917E-08-5.12572E-19-2.97863E-18
 -1      3704 9.52467E-05-2.85816E-05-2.85707E-05 1.06044E-08-1.39173E-18-1.96897E-18
 -1      3705 9.52457E-05-2.85809E-05-2.85706E-05 9.65233E-09-1.50614E-18-9.10738E-19
 -1      3706 9.52492E-05-2.85831E-05-2.85712E-05 9.77278E-09-1.45166E-18-1.67529E-18
 -1      3707 9.52445E-05-2.85801E-05-2.85704E-05 8.82654E-09-1.61179E-18-1.03483E-18
 -1      3708 9.52437E-05-2.85795E-05-2.85704E-05 7.96402E-09-1.62840E-18-1.26977E-18
 -1      3709 9.52465E-05-2.85815E-05-2.85707E-05 8.19549E-09-1.50174E-18-7.14925E-19
 -1      3710 9.40690E-05-2.82103E-05-2.82185E-05 8.49510E-06-2.16280E-19-1.24134E-19
 -1      3711 9.49827E-05-2.92551E-05-2.81411E-05 9.08357E-06-2.04910E-19-8.12965E-19
 -1      3712 9.58431E-05-3.04590E-05-2.79995E-05 1.00132E-05-7.10126E-20-9.72177E-19
 -1      3713 9.73738E-05-3.20618E-05-2.79566E-05 1.04897E-05 2.71373E-20-9.03684E-19
 -1      3714 9.33930E-05-2.88936E-05-2.76855E-05 1.03647E-05-4.66454E-19-5.74952E-19
 -1      3715 9.30240E-05-2.60219E-05-2.87213E-05 4.71123E-06-2.70429E-20-3.31452E-20
 -1      3716 9.30747E-05-2.61223E-05-2.86829E-05 5.19698E-06 1.55546E-19 3.61168E-19
 -1      3717 9.20146E-05-2.55561E-05-2.84847E-05 5.44774E-06-4.43803E-20 1.13354E-18
 -1      3718 9.32551E-05-2.60812E-05-2.87953E-05 3.78559E-06-1.55966E-19 5.10788E-20
 -1      3719 9.32153E-05-2.60542E-05-2.87755E-05 4.21047E-06-2.76833E-19 3.32796E-20
 -1      3720 9.23337E-05-2.55191E-05-2.86338E-05 4.34166E-06-8.49839E-20 2.83129E-19
 -1      3721 9.35578E-05-2.62984E-05-2.88317E-05 3.00773E-06-1.22605E-19-1.32554E-19
 -1      3722 9.34750E-05-2.61996E-05-2.88266E-05 3.37255E-06 3.92517E-20 1.62588E-19
 -1      3723 9.27533E-05-2.57129E-05-2.87289E-05 3.43644E-06-1.85254E-19-2.78229E-19
 -1      3724 9.38718E-05-2.65908E-05-2.88404E-05 2.36007E-06-7.66929E-20-1.54190E-19
 -1      3725 9.37747E-05-2.64580E-05-2.88458E-05 2.66891E-06-2.65198E-19-2.19261E-19
 -1      3726 9.31933E-05-2.60294E-05-2.87814E-05 2.69811E-06-1.09513E-19 2.80087E-19
 -1      3727 9.41652E-05-2.69063E-05-2.88302E-05 1.82645E-06 8.88167E-20-5.14065E-19
 -1      3728 9.40697E-05-2.67634E-05-2.88423E-05 2.08374E-06 2.36477E-19-4.10861E-19
 -1      3729 9.36085E-05-2.63950E-05-2.88027E-05 2.09660E-06 1.72954E-19 5.43011E-20
 -1      3730 9.44217E-05-2.72120E-05-2.88083E-05 1.39253E-06-4.76923E-19-9.97259E-19
 -1      3731 9.43362E-05-2.70740E-05-2.88241E-05 1.60345E-06 9.05927E-20-3.58758E-19
 -1      3732 9.39767E-05-2.67648E-05-2.88022E-05 1.60982E-06 2.77599E-20 3.57089E-19
 -1      3733 9.46357E-05-2.74896E-05-2.87803E-05 1.04447E-06-1.37232E-18-5.24973E-19
 -1      3734 9.45637E-05-2.73647E-05-2.87975E-05 1.21461E-06-1.46742E-18-1.23959E-18
 -1      3735 9.42885E-05-2.71108E-05-2.87880E-05 1.21946E-06-1.01348E-18-4.62758E-19
 -1      3736 9.48077E-05-2.77303E-05-2.87502E-05 7.69161E-07-9.56324E-19 5.73854E-21
 -1      3737 9.47497E-05-2.76223E-05-2.87672E-05 9.04241E-07-1.09353E-18-2.81628E-19
 -1      3738 9.45432E-05-2.74180E-05-2.87659E-05 9.09761E-07-1.40321E-18-5.02601E-19
 -1      3739 9.49418E-05-2.79322E-05-2.87206E-05 5.54606E-07-1.09412E-18-2.33675E-19
 -1      3740 9.48968E-05-2.78418E-05-2.87365E-05 6.60059E-07-9.06639E-19-4.12567E-19
 -1      3741 9.47450E-05-2.76807E-05-2.87403E-05 6.66771E-07-9.13955E-19-5.09815E-19
 -1      3742 9.50433E-05-2.80967E-05-2.86931E-05 3.90082E-07-3.33305E-19-1.11447E-18
 -1      3743 9.50095E-05-2.80232E-05-2.87073E-05 4.71019E-07-6.10157E-19-8.83874E-19
 -1      3744 9.49006E-05-2.78985E-05-2.87140E-05 4.78698E-07-4.56691E-19-6.82173E-19
 -1      3745 9.51180E-05-2.82274E-05-2.86687E-05 2.66094E-07 2.81698E-19-9.27967E-19
 -1      3746 9.50934E-05-2.81692E-05-2.86809E-05 3.27077E-07 3.56361E-20-7.13726E-19
 -1      3747 9.50175E-05-2.80745E-05-2.86890E-05 3.35276E-07-1.09688E-19-1.23139E-18
 -1      3748 9.51712E-05-2.83289E-05-2.86476E-05 1.74346E-07-5.90001E-20-9.76888E-19
 -1      3749 9.51540E-05-2.82838E-05-2.86580E-05 2.19430E-07-1.96454E-19-6.45007E-19
 -1      3750 9.51030E-05-2.82135E-05-2.86663E-05 2.27697E-07-1.15305E-19 2.66888E-19
 -1      3751 9.52079E-05-2.84061E-05-2.86300E-05 1.07849E-07-7.43159E-20-1.66902E-18
 -1      3752 9.51964E-05-2.83719E-05-2.86385E-05 1.40453E-07 3.98800E-19-8.04925E-19
 -1      3753 9.51636E-05-2.83208E-05-2.86465E-05 1.48377E-07 1.65706E-19-1.01414E-18
 -1      3754 9.52322E-05-2.84635E-05-2.86156E-05 6.08370E-08-1.25922E-18-5.91789E-19
 -1      3755 9.52248E-05-2.84382E-05-2.86224E-05 8.38188E-08-1.07914E-18-1.50713E-18
 -1      3756 9.52053E-05-2.84019E-05-2.86297E-05 9.11065E-08-7.77813E-19-2.79537E-19
 -1      3757 9.52472E-05-2.85052E-05-2.86041E-05 2.85829E-08-9.57870E-19 8.32221E-19
 -1      3758 9.52429E-05-2.84868E-05-2.86094E-05 4.42861E-08-9.96227E-19 9.70426E-20
 -1      3759 9.52326E-05-2.84619E-05-2.86158E-05 5.07777E-08-1.85513E-18 1.10588E-18
 -1      3760 9.52556E-05-2.85346E-05-2.85950E-05 7.28541E-09-3.86536E-20-8.20220E-20
 -1      3761 9.52535E-05-2.85217E-05-2.85991E-05 1.75918E-08-3.19812E-19 2.56894E-19
 -1      3762 9.52495E-05-2.85053E-05-2.86046E-05 2.32193E-08-3.60053E-19 8.52706E-19
 -1      3763 9.52596E-05-2.85547E-05-2.85879E-05-6.04570E-09-6.68174E-19-5.34719E-20
 -1      3764 9.52588E-05-2.85459E-05-2.85911E-05 3.45136E-10-1.79556E-19 2.12421E-19
 -1      3765 9.52589E-05-2.85357E-05-2.85956E-05 5.10735E-09-4.53583E-19 7.53560E-19
 -1      3766 9.52605E-05-2.85679E-05-2.85826E-05-1.37219E-08-1.09773E-18-6.02847E-19
 -1      3767 9.52607E-05-2.85621E-05-2.85850E-05-1.01018E-08-6.96139E-19-5.84106E-19
 -1      3768 9.52632E-05-2.85563E-05-2.85887E-05-6.15796E-09-2.94917E-19 5.09045E-19
 -1      3769 9.52595E-05-2.85760E-05-2.85787E-05-1.74988E-08-1.21385E-18-1.30702E-19
 -1      3770 9.52603E-05-2.85725E-05-2.85804E-05-1.57810E-08-1.47890E-18-1.53834E-19
 -1      3771 9.52641E-05-2.85697E-05-2.85833E-05-1.25784E-08-1.17409E-18-5.67824E-20
 -1      3772 9.52575E-05-2.85806E-05-2.85758E-05-1.86848E-08-2.40207E-19-5.87245E-21
 -1      3773 9.52585E-05-2.85787E-05-2.85770E-05-1.82234E-08-3.37761E-19 2.11000E-19
 -1      3774 9.52628E-05-2.85778E-05-2.85793E-05-1.56695E-08-1.27372E-18 1.40755E-19
 -1      3775 9.52549E-05-2.85827E-05-2.85738E-05-1.82350E-08-7.02826E-19 1.49388E-18
 -1      3776 9.52561E-05-2.85819E-05-2.85746E-05-1.85597E-08-1.78048E-19 7.74893E-19
 -1      3777 9.52604E-05-2.85823E-05-2.85764E-05-1.65577E-08-7.94906E-19 1.10602E-18
 -1      3778 9.52522E-05-2.85833E-05-2.85724E-05-1.68297E-08-7.64434E-19 2.39141E-18
 -1      3779 9.52533E-05-2.85831E-05-2.85729E-05-1.76068E-08-9.58934E-19 1.84940E-18
 -1      3780 9.52575E-05-2.85843E-05-2.85743E-05-1.60629E-08-7.51560E-19 2.06788E-18
 -1      3781 9.52496E-05-2.85828E-05-2.85714E-05-1.49404E-08-4.12954E-19 1.29793E-18
 -1      3782 9.52506E-05-2.85831E-05-2.85718E-05-1.59397E-08-7.56978E-19 1.38570E-18
 -1      3783 9.52543E-05-2.85846E-05-2.85728E-05-1.47676E-08-4.69268E-19 7.89494E-19
 -1      3784 9.52471E-05-2.85818E-05-2.85709E-05-1.28810E-08 4.33619E-19 1.09305E-18
 -1      3785 9.52481E-05-2.85822E-05-2.85711E-05-1.39506E-08 3.35684E-19 1.50057E-18
 -1      3786 9.52513E-05-2.85839E-05-2.85718E-05-1.30748E-08-2.21846E-19-9.89536E-19
 -1      3787 9.52450E-05-2.85805E-05-2.85705E-05-1.08465E-08-7.53057E-19 3.72360E-19
 -1      3788 9.52458E-05-2.85811E-05-2.85706E-05-1.18932E-08 1.97354E-19 1.36988E-18
 -1      3789 9.52485E-05-2.85827E-05-2.85711E-05-1.12512E-08 7.69048E-21 8.15488E-19
 -1      3790 9.52432E-05-2.85791E-05-2.85703E-05-8.95463E-09-1.49502E-18-7.01093E-19
 -1      3791 9.52438E-05-2.85797E-05-2.85703E-05-9.92252E-09-1.78061E-18-3.86612E-19
 -1      3792 9.52461E-05-2.85812E-05-2.85707E-05-9.46483E-09-8.23383E-19 5.90941E-19
 -1      3793 9.52420E-05-2.85781E-05-2.85702E-05-7.38198E-09-1.41349E-18-2.55600E-19
 -1      3794 9.52425E-05-2.85787E-05-2.85702E-05-8.24838E-09-1.61847E-18-1.03919E-18
 -1      3795 9.52444E-05-2.85800E-05-2.85705E-05-7.90545E-09-1.35366E-18-2.10815E-18
 -1      3796 9.52432E-05-2.85791E-05-2.85703E-05-6.59020E-09-2.01351E-18-2.24500E-18
 -1      3797 7.48885E-05-2.10883E-05-2.30826E-05-1.70638E-05 7.06842E-19 8.72272E-19
 -1      3798 8.07665E-05-2.65275E-05-2.32760E-05 2.08738E-05-2.39119E-18-1.10167E-19
 -1      3799 7.22592E-05-2.02411E-05-2.21954E-05 1.68679E-05-1.95165E-18 7.51371E-19
 -1      3800 7.13416E-05-1.79291E-05-2.27627E-05-1.33322E-05 6.16375E-19 1.44778E-18
 -1      3801 9.52439E-05-2.85797E-05-2.85704E-05 6.65878E-09-1.30740E-18-1.41645E-20
 -1      3802 9.32303E-05-2.68948E-05-2.84304E-05 7.06425E-06-6.07974E-19 6.03113E-19
 -1      3803 9.37178E-05-2.75060E-05-2.83549E-05 7.65194E-06-1.57151E-19 3.82843E-19
 -1      3804 9.22731E-05-2.69893E-05-2.79997E-05 8.43203E-06-5.50948E-19 6.04865E-19
 -1      3805 6.18529E-05-1.27668E-05-2.07791E-05-2.57124E-06 3.93142E-20 2.00585E-18
 -1      3806 6.61117E-05-1.55002E-05-2.16786E-05-9.85807E-06 6.35063E-19 1.72443E-18
 -1      3807 7.10503E-05-1.63318E-05-2.35258E-05-7.76301E-06 3.36762E-20 1.17174E-18
 -1      3808 6.56242E-05-1.41756E-05-2.19880E-05 8.38607E-07-3.42466E-19 1.72056E-18
 -1      3809 9.52449E-05-2.85803E-05-2.85705E-05 5.55146E-09-8.87801E-19 1.76158E-18
 -1      3810 9.52450E-05-2.85804E-05-2.85705E-05-4.33757E-09-3.97222E-19-7.54246E-20
 -1      3811 9.52442E-05-2.85798E-05-2.85705E-05-5.41509E-09-1.05627E-18-1.41661E-18
 -1      3812 9.52448E-05-2.85803E-05-2.85705E-05-6.03027E-09-1.00193E-18-8.73341E-19
 -1      3813 1.19761E-04-4.71130E-05-3.10871E-05 4.05145E-06-8.58825E-19-3.90523E-18
 -1      3814 9.57734E-05-3.19906E-05-2.73956E-05 1.24807E-05-5.18282E-19-1.31081E-18
 -1      3815 9.90306E-05-3.39185E-05-2.78611E-05 1.13639E-05-3.06711E-19-1.24834E-18
 -1      3816 1.01337E-04-3.61025E-05-2.79295E-05 1.14901E-05-5.75595E-19-1.94691E-18
 -1      3817 1.14196E-04-4.58769E-05-2.92864E-05 9.83922E-06-1.41771E-18-3.30366E-18
 -1      3818 9.52447E-05-2.85802E-05-2.85705E-05 2.63024E-09-1.08361E-18-1.30667E-19
 -1      3819 9.52460E-05-2.85811E-05-2.85707E-05-1.63377E-09 1.40160E-19-2.63704E-18
 -1      3820 9.52456E-05-2.85808E-05-2.85706E-05-2.90857E-09 4.46739E-19-2.24744E-18
 -1      3821 9.52464E-05-2.85814E-05-2.85707E-05-3.34628E-09 1.40411E-19-2.45500E-18
 -1      3822 7.02310E-05-1.80265E-05-2.22601E-05 1.37795E-05-1.51822E-18 8.17063E-19
 -1      3823 6.90298E-05-1.64981E-05-2.25619E-05 9.36735E-06-9.47817E-19 9.29579E-19
 -1      3824 7.62657E-05-2.09157E-05-2.36627E-05 1.41163E-05-1.73144E-18 3.14355E-19
 -1      3825 8.75522E-05-3.02810E-05-2.43865E-05 2.05762E-05-2.15751E-18-1.08345E-19
 -1      3826 8.41796E-05-2.68420E-05-2.46141E-05 1.76544E-05-1.56835E-18 2.29096E-20
 -1      3827 9.39578E-05-3.38883E-05-2.57592E-05 1.84531E-05-1.64056E-18-1.42329E-18
 -1      3828 9.52460E-05-2.85812E-05-2.85707E-05 1.29078E-09-1.16232E-18-7.66106E-19
 -1      3829 9.52461E-05-2.85812E-05-2.85707E-05-1.05420E-10-5.18362E-19-9.12950E-19
 -1      3830 9.52471E-05-2.85818E-05-2.85708E-05-3.24035E-10 1.88383E-19-2.05138E-18
 -1      3831 9.19246E-05-2.59741E-05-2.82730E-05 6.79694E-06-4.98776E-19 8.28387E-19
 -1      3832 1.10408E-04-4.37042E-05-2.85046E-05 1.16326E-05-1.28396E-18-2.89439E-18
 -1      3833 1.07250E-04-4.08255E-05-2.84233E-05 1.07144E-05-7.62604E-19-2.21748E-18
 -1      3834 1.05694E-04-4.16293E-05-2.75204E-05 1.53135E-05-1.19060E-18-2.69385E-18
 -1      3835 1.00689E-04-3.81855E-05-2.68021E-05 1.65262E-05-1.12125E-18-2.18557E-18
 -1      3836 1.04082E-04-3.83155E-05-2.80891E-05 1.15188E-05-6.30988E-19-2.19868E-18
 -1      3837 9.06541E-05-2.67478E-05-2.73939E-05 1.00531E-05-9.20121E-19 1.19729E-19
 -1      3838 9.14949E-05-2.79023E-05-2.72115E-05 1.11773E-05-9.15172E-19-3.72216E-19
 -1      3839 7.45859E-05-1.72555E-05-2.45896E-05-6.85996E-06-3.27383E-19 6.61385E-19
 -1      3840 7.67947E-05-1.77360E-05-2.53886E-05-5.65014E-06-4.86225E-19 4.90593E-19
 -1      3841 7.12738E-05-1.54550E-05-2.37627E-05-3.53773E-06-3.65493E-19 1.10054E-18
 -1      3842 7.92924E-05-1.84765E-05-2.60867E-05-5.16326E-06-4.76340E-20 4.61890E-19
 -1      3843 8.10155E-05-1.90255E-05-2.66172E-05-4.43981E-06 3.79318E-19 5.11416E-19
 -1      3844 7.71245E-05-1.73194E-05-2.55413E-05-2.79885E-06-3.85153E-19 9.07692E-19
 -1      3845 8.28477E-05-1.97080E-05-2.70788E-05-4.15020E-06 1.99961E-19 2.86235E-19
 -1      3846 8.41995E-05-2.02638E-05-2.74328E-05-3.67751E-06 3.27269E-19 2.15000E-19
 -1      3847 8.13004E-05-1.88709E-05-2.66981E-05-2.39703E-06-1.14099E-19 7.77353E-19
 -1      3848 8.55874E-05-2.08925E-05-2.77408E-05-3.46633E-06 3.40343E-21-1.08269E-19
 -1      3849 8.66638E-05-2.14392E-05-2.79740E-05-3.11712E-06-4.12874E-19-4.09355E-19
 -1      3850 8.44203E-05-2.02394E-05-2.74680E-05-2.15338E-06-2.32354E-19 1.16465E-19
 -1      3851 8.77413E-05-2.20205E-05-2.81774E-05-2.94215E-06-7.51345E-20-4.56680E-19
 -1      3852 8.85991E-05-2.25377E-05-2.83267E-05-2.65419E-06 4.35241E-19-2.26404E-19
 -1      3853 8.68292E-05-2.14764E-05-2.79815E-05-1.94903E-06-1.63160E-19-5.45898E-19
 -1      3854 8.94521E-05-2.30723E-05-2.84571E-05-2.49467E-06 5.51115E-19-6.98962E-19
 -1      3855 9.01330E-05-2.35462E-05-2.85481E-05-2.24494E-06 5.58150E-19-8.02837E-19
 -1      3856 8.87212E-05-2.25974E-05-2.83181E-05-1.74272E-06 2.03369E-19-7.65413E-19
 -1      3857 9.08084E-05-2.40244E-05-2.86281E-05-2.09256E-06 5.44916E-19-9.72084E-19
 -1      3858 9.13478E-05-2.44490E-05-2.86793E-05-1.86989E-06 5.51008E-19-7.78896E-19
 -1      3859 9.02190E-05-2.36090E-05-2.85313E-05-1.52617E-06 5.76404E-19-1.54009E-18
 -1      3860 9.18826E-05-2.48694E-05-2.87249E-05-1.72840E-06 2.50221E-19-5.80225E-19
 -1      3861 9.23056E-05-2.52388E-05-2.87497E-05-1.53047E-06-4.67682E-20-2.56413E-19
 -1      3862 9.14079E-05-2.45083E-05-2.86595E-05-1.30631E-06 5.73947E-19-1.42154E-18
 -1      3863 9.27281E-05-2.56016E-05-2.87721E-05-1.40099E-06-7.95894E-19 1.00298E-20
 -1      3864 9.30573E-05-2.59175E-05-2.87797E-05-1.22817E-06-6.73687E-19-1.29561E-19
 -1      3865 9.23495E-05-2.52917E-05-2.87299E-05-1.08720E-06-2.68701E-19-7.16887E-19
 -1      3866 9.33874E-05-2.62242E-05-2.87868E-05-1.11410E-06-1.29432E-19 8.45662E-20
 -1      3867 9.36408E-05-2.64890E-05-2.87837E-05-9.66309E-07-1.80733E-20 1.91084E-19
 -1      3868 9.30899E-05-2.59638E-05-2.87613E-05-8.83888E-07-3.49348E-19-2.36912E-19
 -1      3869 9.38961E-05-2.67437E-05-2.87814E-05-8.68394E-07 3.28094E-19 1.24657E-19
 -1      3870 9.40890E-05-2.69618E-05-2.87723E-05-7.44785E-07 8.68664E-19 5.80213E-19
 -1      3871 9.36655E-05-2.65287E-05-2.87675E-05-7.01633E-07 4.62159E-19 1.23285E-20
 -1      3872 9.42842E-05-2.71699E-05-2.87645E-05-6.63137E-07 7.33812E-19 5.62362E-19
 -1      3873 9.44292E-05-2.73465E-05-2.87524E-05-5.62028E-07 7.34198E-19 7.60421E-19
 -1      3874 9.41085E-05-2.69956E-05-2.87585E-05-5.44585E-07 5.95499E-19 1.89864E-19
 -1      3875 9.45760E-05-2.75136E-05-2.87418E-05-4.95591E-07 4.91673E-19 7.47091E-19
 -1      3876 9.46835E-05-2.76547E-05-2.87287E-05-4.14504E-07 8.86304E-19 4.49923E-19
 -1      3877 9.44451E-05-2.73757E-05-2.87410E-05-4.12236E-07 5.98520E-19 8.19578E-19
 -1      3878 9.47923E-05-2.77867E-05-2.87172E-05-3.61952E-07 9.99665E-19 1.43769E-19
 -1      3879 9.48704E-05-2.78973E-05-2.87043E-05-2.98202E-07 1.00298E-18 8.08344E-19
 -1      3880 9.46965E-05-2.76788E-05-2.87195E-05-3.05008E-07 7.66952E-19 6.43363E-19
 -1      3881 9.49499E-05-2.80004E-05-2.86930E-05-2.57038E-07 2.45519E-19 1.04801E-18
 -1      3882 9.50059E-05-2.80861E-05-2.86811E-05-2.08017E-07-4.36945E-19 7.02993E-19
 -1      3883 9.48812E-05-2.79172E-05-2.86971E-05-2.19245E-07 3.12585E-19 3.26472E-19
 -1      3884 9.50626E-05-2.81650E-05-2.86706E-05-1.76941E-07-4.57461E-19 2.57621E-19
 -1      3885 9.51018E-05-2.82303E-05-2.86601E-05-1.39932E-07-4.16602E-19 7.02935E-19
 -1      3886 9.50148E-05-2.81025E-05-2.86755E-05-1.52994E-07-8.76946E-19-1.09220E-19
 -1      3887 9.51414E-05-2.82899E-05-2.86508E-05-1.16863E-07 4.68352E-20 2.27551E-19
 -1      3888 9.51681E-05-2.83388E-05-2.86418E-05-8.95750E-08 4.29369E-20 5.44026E-19
 -1      3889 9.51093E-05-2.82437E-05-2.86559E-05-1.02422E-07-6.56211E-19-7.76820E-19
 -1      3890 9.51948E-05-2.83829E-05-2.86337E-05-7.29815E-08-8.15418E-19 5.66519E-19
 -1      3891 9.52123E-05-2.84188E-05-2.86262E-05-5.33516E-08-1.00534E-18 5.56219E-19
 -1      3892 9.51744E-05-2.83497E-05-2.86386E-05-6.51742E-08-4.06708E-19-1.58444E-18
 -1      3893 9.52296E-05-2.84509E-05-2.86195E-05-4.17391E-08-7.71552E-19 7.85456E-19
 -1      3894 9.52404E-05-2.84768E-05-2.86133E-05-2.80047E-08-8.23425E-19 5.88398E-19
 -1      3895 9.52175E-05-2.84276E-05-2.86239E-05-3.84016E-08-1.22051E-18-1.22313E-18
 -1      3896 9.52510E-05-2.84995E-05-2.86078E-05-2.01585E-08-1.38125E-18 8.45735E-19
 -1      3897 9.52571E-05-2.85176E-05-2.86028E-05-1.08701E-08-7.63515E-19 5.65518E-19
 -1      3898 9.52446E-05-2.84836E-05-2.86116E-05-1.96993E-08-1.17894E-18-1.92373E-19
 -1      3899 9.52629E-05-2.85333E-05-2.85984E-05-5.81226E-09-6.52074E-19 1.27050E-19
 -1      3900 9.52659E-05-2.85457E-05-2.85945E-05 1.93600E-10-4.53205E-19-2.11874E-19
 -1      3901 9.52604E-05-2.85230E-05-2.86016E-05-7.10024E-09-1.00396E-18 7.42107E-19
 -1      3902 9.52684E-05-2.85561E-05-2.85910E-05 3.23782E-09-4.18922E-19 2.93979E-20
 -1      3903 9.52693E-05-2.85642E-05-2.85880E-05 6.87635E-09-7.73513E-19 1.02620E-19
 -1      3904 9.52685E-05-2.85497E-05-2.85937E-05 9.86654E-10-4.12196E-19 4.73821E-19
 -1      3905 9.52698E-05-2.85708E-05-2.85853E-05 8.50734E-09-1.23670E-18 5.28241E-19
 -1      3906 9.52693E-05-2.85757E-05-2.85830E-05 1.04843E-08-1.16748E-18 7.30643E-19
 -1      3907 9.52713E-05-2.85672E-05-2.85874E-05 5.82152E-09-8.05658E-19 1.52830E-18
 -1      3908 9.52684E-05-2.85796E-05-2.85809E-05 1.11573E-08-5.86392E-19 8.47335E-19
 -1      3909 9.52672E-05-2.85824E-05-2.85792E-05 1.20059E-08-9.42952E-20 1.31357E-18
 -1      3910 9.52708E-05-2.85780E-05-2.85826E-05 8.37994E-09-7.84302E-19 2.41036E-18
 -1      3911 9.52656E-05-2.85844E-05-2.85776E-05 1.20582E-08-1.23461E-19 1.04842E-18
 -1      3912 9.52639E-05-2.85857E-05-2.85764E-05 1.21729E-08 1.06781E-18 3.17809E-19
 -1      3913 9.52683E-05-2.85840E-05-2.85790E-05 9.40025E-09-4.72952E-19 2.55883E-18
 -1      3914 9.52620E-05-2.85864E-05-2.85753E-05 1.18483E-08 9.42092E-19-5.91244E-19
 -1      3915 9.52602E-05-2.85867E-05-2.85744E-05 1.15141E-08 7.17933E-20-6.42910E-19
 -1      3916 9.52647E-05-2.85868E-05-2.85763E-05 9.42829E-09-3.49581E-20 7.33527E-19
 -1      3917 9.52582E-05-2.85866E-05-2.85735E-05 1.09832E-08-2.43743E-19-1.29192E-18
 -1      3918 9.52565E-05-2.85863E-05-2.85729E-05 1.04003E-08 6.44570E-20-2.31890E-18
 -1      3919 9.52608E-05-2.85874E-05-2.85743E-05 8.85697E-09-8.75279E-19-2.03540E-18
 -1      3920 9.52545E-05-2.85857E-05-2.85723E-05 9.78070E-09 7.92271E-21-3.13292E-18
 -1      3921 9.52529E-05-2.85851E-05-2.85719E-05 9.08688E-09-1.10186E-18-2.66994E-18
 -1      3922 9.52568E-05-2.85868E-05-2.85729E-05 7.95992E-09-6.54827E-19-2.51868E-18
 -1      3923 9.52511E-05-2.85842E-05-2.85715E-05 8.45440E-09-1.32185E-18-1.93220E-18
 -1      3924 9.52497E-05-2.85834E-05-2.85712E-05 7.73693E-09-1.44647E-18-1.54179E-18
 -1      3925 9.52531E-05-2.85854E-05-2.85719E-05 6.93485E-09-8.84764E-19-2.24296E-18
 -1      3926 9.52481E-05-2.85825E-05-2.85710E-05 7.14216E-09-1.49522E-18-2.56381E-19
 -1      3927 9.52469E-05-2.85817E-05-2.85708E-05 6.46076E-09-7.07426E-19 6.21338E-19
 -1      3928 9.52498E-05-2.85836E-05-2.85713E-05 5.87627E-09-8.45507E-19-6.12191E-20
 -1      3929 9.22858E-05-2.53814E-05-2.86823E-05 2.93696E-06-3.24457E-19 5.36198E-19
 -1      3930 9.20627E-05-2.52161E-05-2.86430E-05 3.33022E-06-2.43218E-19 4.95415E-19
 -1      3931 9.28621E-05-2.58070E-05-2.87457E-05 2.27385E-06 2.41601E-20 7.03930E-19
 -1      3932 9.26437E-05-2.56096E-05-2.87255E-05 2.59371E-06-2.52248E-19 5.02641E-19
 -1      3933 9.19996E-05-2.51380E-05-2.86490E-05 2.48134E-06-1.70296E-19 1.06372E-18
 -1      3934 9.33758E-05-2.62493E-05-2.87750E-05 1.74476E-06-1.01148E-19 1.29208E-18
 -1      3935 9.31768E-05-2.60446E-05-2.87687E-05 2.00356E-06 1.32012E-19 1.02961E-18
 -1      3936 9.26694E-05-2.56431E-05-2.87198E-05 1.89514E-06-2.73514E-19 1.87297E-18
 -1      3937 9.38142E-05-2.66715E-05-2.87807E-05 1.32513E-06-2.72372E-20 1.42109E-18
 -1      3938 9.36422E-05-2.64766E-05-2.87837E-05 1.53332E-06 1.54802E-19 1.05205E-18
 -1      3939 9.32476E-05-2.61416E-05-2.87547E-05 1.43795E-06-1.00498E-20 1.99380E-18
 -1      3940 9.41761E-05-2.70528E-05-2.87714E-05 9.94027E-07-1.31108E-18 9.01498E-19
 -1      3941 9.40334E-05-2.68774E-05-2.87800E-05 1.16011E-06-2.94135E-19 1.23614E-18
 -1      3942 9.37297E-05-2.66021E-05-2.87648E-05 1.08178E-06-1.09680E-19 1.74423E-18
 -1      3943 9.44671E-05-2.73839E-05-2.87533E-05 7.35219E-07-1.17463E-18-1.27224E-19
 -1      3944 9.43523E-05-2.72323E-05-2.87648E-05 8.65953E-07-1.70121E-18-1.08762E-19
 -1      3945 9.41218E-05-2.70096E-05-2.87591E-05 8.05053E-07-9.26677E-19 5.30200E-19
 -1      3946 9.46941E-05-2.76616E-05-2.87308E-05 5.34043E-07-5.07314E-19-7.08427E-19
 -1      3947 9.46044E-05-2.75345E-05-2.87436E-05 6.36460E-07-5.41799E-19-4.38771E-19
 -1      3948 9.44329E-05-2.73580E-05-2.87439E-05 5.91559E-07-8.98939E-19-2.72860E-19
 -1      3949 9.48680E-05-2.78895E-05-2.87070E-05 3.80264E-07-6.01136E-19-1.22001E-18
 -1      3950 9.47999E-05-2.77859E-05-2.87197E-05 4.58961E-07-4.99824E-19-8.24227E-19
 -1      3951 9.46739E-05-2.76469E-05-2.87237E-05 4.26844E-07-4.06280E-19-1.09862E-18
 -1      3952 9.49975E-05-2.80718E-05-2.86840E-05 2.63850E-07-3.41529E-19-6.05560E-19
 -1      3953 9.49470E-05-2.79890E-05-2.86958E-05 3.23569E-07-5.36411E-19-1.01543E-18
 -1      3954 9.48568E-05-2.78824E-05-2.87018E-05 3.02263E-07-5.58313E-19-1.48661E-18
 -1      3955 9.50917E-05-2.82143E-05-2.86629E-05 1.77280E-07-1.12898E-19-1.37524E-19
 -1      3956 9.50554E-05-2.81499E-05-2.86734E-05 2.21877E-07-2.03352E-19 2.59031E-19
 -1      3957 9.49923E-05-2.80691E-05-2.86803E-05 2.08462E-07-7.13377E-19-5.26942E-19
 -1      3958 9.51583E-05-2.83237E-05-2.86442E-05 1.13887E-07 9.44779E-20 6.16293E-20
 -1      3959 9.51330E-05-2.82744E-05-2.86534E-05 1.46554E-07 4.10242E-19-5.98558E-20
 -1      3960 9.50902E-05-2.82144E-05-2.86603E-05 1.39181E-07 1.80681E-19 3.45140E-19
 -1      3961 9.52038E-05-2.84058E-05-2.86283E-05 6.85209E-08-1.70714E-18 5.73012E-19
 -1      3962 9.51868E-05-2.83689E-05-2.86360E-05 9.19257E-08-8.79941E-19-6.56466E-20
 -1      3963 9.51592E-05-2.83254E-05-2.86425E-05 8.86868E-08-4.67503E-19 9.01634E-19
 -1      3964 9.52335E-05-2.84661E-05-2.86150E-05 3.68630E-08-1.32946E-18 3.54016E-19
 -1      3965 9.52227E-05-2.84391E-05-2.86213E-05 5.32074E-08-1.54502E-18 4.78982E-19
 -1      3966 9.52060E-05-2.84083E-05-2.86272E-05 5.27895E-08-1.23006E-18 9.45793E-20
 -1      3967 9.52517E-05-2.85093E-05-2.86042E-05 1.54407E-08-1.85187E-19 3.81039E-19
 -1      3968 9.52453E-05-2.84901E-05-2.86092E-05 2.64950E-08-5.72795E-19 3.69815E-20
 -1      3969 9.52363E-05-2.84689E-05-2.86144E-05 2.78605E-08-8.31432E-19-1.04836E-19
 -1      3970 9.52618E-05-2.85393E-05-2.85955E-05 1.53632E-09-6.68193E-19 6.50089E-19
 -1      3971 9.52585E-05-2.85260E-05-2.85995E-05 8.70001E-09-1.83236E-19 8.84637E-19
 -1      3972 9.52546E-05-2.85120E-05-2.86039E-05 1.10799E-08-5.90010E-19-6.34039E-19
 -1      3973 9.52663E-05-2.85595E-05-2.85887E-05-6.95709E-09-6.27613E-19 5.61431E-19
 -1      3974 9.52651E-05-2.85506E-05-2.85918E-05-2.59462E-09-4.10074E-19 6.92427E-19
 -1      3975 9.52646E-05-2.85419E-05-2.85954E-05 2.59212E-10-5.13181E-19 4.75446E-19
 -1      3976 9.52671E-05-2.85724E-05-2.85835E-05-1.16507E-08-1.58744E-18-3.30657E-21
 -1      3977 9.52673E-05-2.85668E-05-2.85858E-05-9.25476E-09-6.90156E-19 4.11121E-19
 -1      3978 9.52688E-05-2.85617E-05-2.85888E-05-6.28913E-09-6.68012E-19 1.34564E-18
 -1      3979 9.52656E-05-2.85801E-05-2.85795E-05-1.37568E-08-7.08466E-19-9.36382E-19
 -1      3980 9.52666E-05-2.85768E-05-2.85813E-05-1.26987E-08-1.17740E-18-1.04579E-18
 -1      3981 9.52693E-05-2.85743E-05-2.85836E-05-9.84971E-09-1.12150E-18 5.52098E-20
 -1      3982 9.52629E-05-2.85841E-05-2.85766E-05-1.41706E-08-1.30644E-18-2.38455E-19
 -1      3983 9.52643E-05-2.85824E-05-2.85779E-05-1.39859E-08-1.24527E-18-1.33535E-18
 -1      3984 9.52676E-05-2.85817E-05-2.85797E-05-1.13852E-08-9.18156E-19-1.69096E-18
 -1      3985 9.52596E-05-2.85857E-05-2.85745E-05-1.35394E-08-8.68058E-19-3.72138E-20
 -1      3986 9.52611E-05-2.85851E-05-2.85754E-05-1.38926E-08-1.14794E-18-1.47895E-19
 -1      3987 9.52645E-05-2.85854E-05-2.85768E-05-1.16041E-08-1.70924E-18-2.33986E-18
 -1      3988 9.52561E-05-2.85857E-05-2.85730E-05-1.23195E-08-9.28950E-20-6.21144E-19
 -1      3989 9.52576E-05-2.85858E-05-2.85736E-05-1.29739E-08 6.62910E-20 2.05591E-19
 -1      3990 9.52608E-05-2.85867E-05-2.85747E-05-1.10163E-08-6.28684E-19-1.38384E-18
 -1      3991 9.52527E-05-2.85847E-05-2.85720E-05-1.08242E-08-8.33082E-19-2.59650E-19
 -1      3992 9.52542E-05-2.85852E-05-2.85724E-05-1.16177E-08-5.88502E-19 1.49817E-19
 -1      3993 9.52571E-05-2.85865E-05-2.85731E-05-9.97921E-09-2.96877E-19 1.18500E-18
 -1      3994 9.52496E-05-2.85833E-05-2.85713E-05-9.26249E-09-5.10783E-19 2.56817E-19
 -1      3995 9.52509E-05-2.85840E-05-2.85715E-05-1.00890E-08-4.04033E-19-4.16254E-20
 -1      3996 9.52534E-05-2.85854E-05-2.85721E-05-8.74478E-09-1.23238E-18 1.41064E-18
 -1      3997 9.52469E-05-2.85817E-05-2.85708E-05-7.74780E-09-5.96725E-19 2.59420E-19
 -1      3998 9.52480E-05-2.85824E-05-2.85710E-05-8.54252E-09-4.77751E-19 8.45767E-19
 -1      3999 9.52502E-05-2.85838E-05-2.85713E-05-7.46861E-09-6.49001E-19 2.14118E-19
 -1      4000 9.52455E-05-2.85807E-05-2.85706E-05-6.51741E-09-1.58870E-18-1.73733E-19
 -1      4001 9.52461E-05-2.85812E-05-2.85707E-05-7.20378E-09-1.34097E-18 4.98227E-20
 -1      4002 9.52479E-05-2.85824E-05-2.85709E-05-6.31976E-09-3.99831E-19 5.45982E-19
 -1      4003 9.52465E-05-2.85815E-05-2.85707E-05-5.29257E-09-7.52050E-19 1.66031E-18
 -1      4004 9.05832E-05-2.49267E-05-2.81514E-05 6.16787E-06-3.46770E-19 3.42120E-19
 -1      4005 9.06280E-05-2.51985E-05-2.80196E-05 6.90808E-06-2.39355E-19 7.53689E-19
 -1      4006 9.52457E-05-2.85809E-05-2.85706E-05 2.63099E-09-7.53301E-19 4.61597E-19
 -1      4007 9.03528E-05-2.54793E-05-2.78155E-05 7.87988E-06-6.46101E-19 7.48593E-19
 -1      4008 9.06964E-05-2.61049E-05-2.76513E-05 8.79848E-06-7.63235E-19 2.41466E-19
 -1      4009 8.89749E-05-2.43565E-05-2.76930E-05 7.20031E-06-3.72808E-19 7.10495E-19
 -1      4010 9.52461E-05-2.85812E-05-2.85707E-05 4.58837E-09-2.83720E-19 1.89260E-18
 -1      4011 9.16698E-05-2.50253E-05-2.85722E-05 3.77306E-06-3.59271E-19 3.47933E-19
 -1      4012 9.14750E-05-2.49379E-05-2.85071E-05 4.25889E-06-9.14404E-20 5.07549E-19
 -1      4013 9.12469E-05-2.46637E-05-2.85288E-05 3.23565E-06-3.97709E-19 9.32019E-19
 -1      4014 9.10713E-05-2.48322E-05-2.84001E-05 4.82760E-06 8.40124E-20 1.80034E-19
 -1      4015 9.09538E-05-2.48808E-05-2.83036E-05 5.42786E-06-2.76263E-19 1.00417E-19
 -1      4016 9.04457E-05-2.42993E-05-2.83418E-05 4.21598E-06-2.77763E-19-3.76592E-19
 -1      4017 9.52477E-05-2.85823E-05-2.85709E-05 3.22130E-09-3.33864E-19 3.16636E-19
 -1      4018 8.96551E-05-2.41525E-05-2.80694E-05 5.50197E-06-1.55565E-19 1.16847E-19
 -1      4019 8.86043E-05-2.51631E-05-2.72004E-05 9.46840E-06-9.46144E-19 2.22187E-19
 -1      4020 1.00117E-04-3.62209E-05-2.74197E-05 1.36324E-05-6.89718E-19-2.12113E-18
 -1      4021 8.05046E-05-2.30813E-05-2.45023E-05 1.49881E-05-1.60566E-18 1.45885E-19
 -1      4022 7.80320E-05-2.10222E-05-2.44949E-05 1.23488E-05-1.21106E-18 1.89110E-19
 -1      4023 9.82040E-05-3.58615E-05-2.66748E-05 1.62498E-05-9.03949E-19-2.11952E-18
 -1      4024 9.37905E-05-3.21783E-05-2.64501E-05 1.55381E-05-9.99639E-19-1.30557E-18
 -1      4025 8.57323E-05-2.65594E-05-2.53714E-05 1.52666E-05-1.29159E-18 1.75809E-19
 -1      4026 9.52477E-05-2.85823E-05-2.85709E-05-2.20054E-09 3.69552E-19-3.58223E-18
 -1      4027 9.52473E-05-2.85820E-05-2.85708E-05-3.69570E-09-7.88556E-19-1.48108E-18
 -1      4028 9.52480E-05-2.85824E-05-2.85709E-05-4.14681E-09-1.28244E-18-1.06996E-18
 -1      4029 6.83754E-05-1.49510E-05-2.27296E-05 5.11829E-06-6.39346E-19 1.13590E-18
 -1      4030 6.93808E-05-1.52190E-05-2.32703E-05 7.99046E-08-3.60657E-19 1.21564E-18
 -1      4031 7.29284E-05-1.61786E-05-2.43601E-05 1.88823E-07-4.70039E-19 1.30747E-18
 -1      4032 7.28630E-05-1.72683E-05-2.37869E-05 7.53270E-06-9.13453E-19 3.56194E-19
 -1      4033 7.57823E-05-1.71033E-05-2.51959E-05-3.20461E-07-5.66712E-19 1.22873E-18
 -1      4034 7.82425E-05-1.78830E-05-2.58967E-05-2.79120E-07-4.15193E-19 9.80090E-19
 -1      4035 7.49966E-05-1.69490E-05-2.48095E-05 3.05237E-06-5.87853E-19 1.38532E-18
 -1      4036 9.19544E-05-2.91706E-05-2.69084E-05 1.27241E-05-8.92841E-19-4.43897E-19
 -1      4037 9.35580E-05-3.10163E-05-2.67550E-05 1.39752E-05-8.60698E-19-9.61707E-19
 -1      4038 8.02773E-05-1.86631E-05-2.64476E-05-5.73914E-07-5.15109E-19 5.97258E-19
 -1      4039 8.21055E-05-1.93761E-05-2.69118E-05-6.08913E-07-2.89973E-19 4.65857E-19
 -1      4040 7.96116E-05-1.84262E-05-2.61636E-05 1.61988E-06-6.74476E-19 7.24931E-19
 -1      4041 8.36136E-05-2.00013E-05-2.72858E-05-8.10169E-07-2.44478E-19 4.15083E-19
 -1      4042 8.49984E-05-2.06406E-05-2.75961E-05-7.98313E-07-5.21739E-19-3.67853E-20
 -1      4043 8.30571E-05-1.97663E-05-2.70757E-05 8.51790E-07-3.71854E-19 4.39364E-19
 -1      4044 8.61811E-05-2.12418E-05-2.78485E-05-9.45974E-07-4.39187E-19 3.92686E-19
 -1      4045 8.72480E-05-2.18039E-05-2.80557E-05-9.12153E-07 1.88135E-20 1.51791E-19
 -1      4046 8.56921E-05-2.10365E-05-2.76962E-05 3.33495E-07-1.97001E-19 3.57785E-19
 -1      4047 8.81842E-05-2.23631E-05-2.82229E-05-9.70451E-07-1.00247E-19 5.90524E-20
 -1      4048 8.90308E-05-2.28868E-05-2.83567E-05-9.25604E-07 1.23903E-19-5.41357E-19
 -1      4049 8.77495E-05-2.21125E-05-2.81110E-05-5.25629E-08-1.69417E-19 4.79978E-19
 -1      4050 8.97834E-05-2.33813E-05-2.84656E-05-9.48254E-07 1.28342E-19-9.31476E-19
 -1      4051 9.04463E-05-2.38499E-05-2.85487E-05-8.83347E-07 4.86708E-19-1.20847E-18
 -1      4052 8.94181E-05-2.31342E-05-2.83848E-05-2.18185E-07-7.16942E-20-6.81776E-19
 -1      4053 9.10422E-05-2.42924E-05-2.86158E-05-8.60357E-07 7.23826E-19-2.06746E-18
 -1      4054 9.15773E-05-2.47075E-05-2.86642E-05-7.83800E-07-8.38221E-20-2.25354E-18
 -1      4055 9.07080E-05-2.40278E-05-2.85574E-05-3.05804E-07 9.57042E-20-2.36972E-18
 -1      4056 9.20551E-05-2.50995E-05-2.87023E-05-7.52333E-07-1.46014E-19-2.13026E-18
 -1      4057 9.24785E-05-2.54604E-05-2.87269E-05-6.73378E-07-5.04363E-20-1.48537E-18
 -1      4058 9.17877E-05-2.48595E-05-2.86636E-05-3.38885E-07 1.04907E-19-3.31032E-18
 -1      4059 9.28566E-05-2.57964E-05-2.87452E-05-6.35058E-07-4.51312E-19-1.29294E-18
 -1      4060 9.31863E-05-2.61029E-05-2.87540E-05-5.58851E-07-1.85990E-19-1.13417E-18
 -1      4061 9.26367E-05-2.55838E-05-2.87209E-05-3.27206E-07-1.84165E-19-2.33006E-18
 -1      4062 9.34830E-05-2.63863E-05-2.87595E-05-5.19188E-07 4.85693E-19-6.91539E-19
 -1      4063 9.37379E-05-2.66421E-05-2.87584E-05-4.48999E-07 6.04913E-19-6.97520E-19
 -1      4064 9.33056E-05-2.62037E-05-2.87456E-05-2.91540E-07 7.62711E-20-1.70965E-18
 -1      4065 9.39679E-05-2.68780E-05-2.87558E-05-4.10024E-07 8.63963E-19-4.13566E-19
 -1      4066 9.41656E-05-2.70887E-05-2.87489E-05-3.47503E-07 1.00393E-18 1.66731E-19
 -1      4067 9.38242E-05-2.67237E-05-2.87492E-05-2.47026E-07 9.71780E-19-1.15750E-18
 -1      4068 9.43400E-05-2.72804E-05-2.87415E-05-3.20029E-07 6.97550E-19 3.47430E-19
 -1      4069 9.44861E-05-2.74484E-05-2.87317E-05-2.65581E-07 8.34214E-19 4.70824E-19
 -1      4070 9.42363E-05-2.71701E-05-2.87402E-05-1.92706E-07 1.22122E-18-6.37853E-19
 -1      4071 9.46206E-05-2.76048E-05-2.87221E-05-2.39749E-07 3.50636E-20-1.80305E-19
 -1      4072 9.47272E-05-2.77378E-05-2.87112E-05-1.97391E-07 2.10984E-19-3.14222E-19
 -1      4073 9.45376E-05-2.75126E-05-2.87236E-05-1.52602E-07 5.50906E-20-1.28371E-18
 -1      4074 9.48269E-05-2.78593E-05-2.87009E-05-1.75146E-07 6.30970E-19-1.18879E-18
 -1      4075 9.49045E-05-2.79643E-05-2.86899E-05-1.41420E-07-4.28407E-19-1.12239E-18
 -1      4076 9.47663E-05-2.77840E-05-2.87039E-05-1.12428E-07-3.82256E-19-1.79003E-18
 -1      4077 9.49763E-05-2.80584E-05-2.86797E-05-1.23545E-07-1.05225E-18-1.04458E-18
 -1      4078 9.50324E-05-2.81389E-05-2.86695E-05-9.70982E-08-4.58143E-19-6.69769E-19
 -1      4079 9.49308E-05-2.79973E-05-2.86837E-05-8.09254E-08-4.18802E-19-1.81122E-18
 -1      4080 9.50835E-05-2.82112E-05-2.86601E-05-8.41378E-08-6.25835E-19-8.90683E-19
 -1      4081 9.51228E-05-2.82721E-05-2.86509E-05-6.41922E-08-7.50327E-19-6.99404E-19
 -1      4082 9.50529E-05-2.81651E-05-2.86643E-05-5.67623E-08-7.49023E-19-1.68963E-18
 -1      4083 9.51579E-05-2.83261E-05-2.86425E-05-5.47393E-08-8.47583E-19-1.61225E-18
 -1      4084 9.51843E-05-2.83713E-05-2.86345E-05-4.00194E-08-1.14488E-18-2.25056E-18
 -1      4085 9.51373E-05-2.82920E-05-2.86466E-05-3.79626E-08-1.05611E-18-2.34863E-18
 -1      4086 9.52076E-05-2.84110E-05-2.86273E-05-3.33106E-08-6.68236E-19-2.00583E-18
 -1      4087 9.52247E-05-2.84438E-05-2.86206E-05-2.26991E-08-5.86255E-19-1.01340E-18
 -1      4088 9.51944E-05-2.83864E-05-2.86311E-05-2.37867E-08-8.01886E-19-2.81052E-18
 -1      4089 9.52394E-05-2.84723E-05-2.86146E-05-1.81292E-08-7.21264E-19-1.14544E-18
 -1      4090 9.52498E-05-2.84956E-05-2.86091E-05-1.06982E-08-9.24252E-19-1.03008E-18
 -1      4091 9.52315E-05-2.84550E-05-2.86179E-05-1.35123E-08-3.17445E-19-1.15061E-18
 -1      4092 9.52584E-05-2.85155E-05-2.86041E-05-7.74175E-09-8.29607E-19-7.99213E-19
 -1      4093 9.52640E-05-2.85316E-05-2.85997E-05-2.72099E-09-2.61990E-19-2.64726E-19
 -1      4094 9.52542E-05-2.85038E-05-2.86070E-05-6.35081E-09-6.58759E-19-1.52582E-18
 -1      4095 9.52684E-05-2.85451E-05-2.85957E-05-9.43003E-10-2.72950E-19-3.77572E-19
 -1      4096 9.52709E-05-2.85558E-05-2.85922E-05 2.29335E-09-1.40220E-19-2.86039E-19
 -1      4097 9.52667E-05-2.85375E-05-2.85981E-05-1.57564E-09 3.38448E-20-1.08786E-18
 -1      4098 9.52725E-05-2.85646E-05-2.85891E-05 3.23874E-09-2.63483E-19-2.87574E-19
 -1      4099 9.52729E-05-2.85714E-05-2.85863E-05 5.18715E-09-8.04050E-19 5.15510E-19
 -1      4100 9.52724E-05-2.85600E-05-2.85910E-05 1.42947E-09-3.22520E-19-1.27072E-18
 -1      4101 9.52726E-05-2.85768E-05-2.85839E-05 5.56633E-09-1.06160E-18 7.03342E-19
 -1      4102 9.52717E-05-2.85807E-05-2.85818E-05 6.61145E-09-6.28797E-19 9.07225E-19
 -1      4103 9.52735E-05-2.85742E-05-2.85855E-05 3.16254E-09-4.04029E-19-5.78419E-19
 -1      4104 9.52704E-05-2.85837E-05-2.85800E-05 6.62380E-09-7.63094E-19 7.53463E-19
 -1      4105 9.52688E-05-2.85857E-05-2.85784E-05 7.05690E-09-9.83687E-19 5.90081E-19
 -1      4106 9.52718E-05-2.85826E-05-2.85812E-05 4.01243E-09-8.84693E-19-4.13282E-19
 -1      4107 9.52669E-05-2.85871E-05-2.85770E-05 6.84761E-09-1.20820E-18 5.39034E-19
 -1      4108 9.52649E-05-2.85878E-05-2.85759E-05 6.88406E-09-8.86009E-19-7.67734E-19
 -1      4109 9.52686E-05-2.85868E-05-2.85780E-05 4.27414E-09-1.43990E-18 2.76401E-19
 -1      4110 9.52628E-05-2.85880E-05-2.85749E-05 6.55584E-09-1.24794E-18-1.21035E-18
 -1      4111 9.52608E-05-2.85879E-05-2.85740E-05 6.35025E-09-1.85585E-18-1.88759E-18
 -1      4112 9.52645E-05-2.85884E-05-2.85756E-05 4.16604E-09-1.69709E-18-5.29031E-19
 -1      4113 9.52586E-05-2.85875E-05-2.85733E-05 5.97169E-09-9.27702E-19-1.54831E-18
 -1      4114 9.52567E-05-2.85869E-05-2.85727E-05 5.62982E-09-4.69951E-19-1.49229E-18
 -1      4115 9.52603E-05-2.85882E-05-2.85738E-05 3.84705E-09-1.69280E-18-1.31095E-18
 -1      4116 9.52547E-05-2.85861E-05-2.85722E-05 5.23257E-09-1.27340E-19-1.81723E-18
 -1      4117 9.52529E-05-2.85853E-05-2.85718E-05 4.82531E-09-2.39638E-19-3.87956E-19
 -1      4118 9.52562E-05-2.85870E-05-2.85726E-05 3.43114E-09-4.22189E-19-7.40799E-19
 -1      4119 9.52511E-05-2.85843E-05-2.85715E-05 4.51106E-09-7.93043E-19-4.91369E-20
 -1      4120 9.52496E-05-2.85834E-05-2.85712E-05 4.07131E-09-1.63808E-19 1.30770E-19
 -1      4121 9.52523E-05-2.85851E-05-2.85717E-05 2.94528E-09-1.79272E-20-4.16635E-19
 -1      4122 9.25288E-05-2.55638E-05-2.87089E-05 1.43819E-06-6.15127E-19 1.99690E-18
 -1      4123 9.22172E-05-2.52894E-05-2.86822E-05 1.67304E-06-2.93909E-19 1.70031E-18
 -1      4124 9.52488E-05-2.85831E-05-2.85711E-05 1.93067E-09-4.23256E-21-1.40051E-19
 -1      4125 9.17690E-05-2.49778E-05-2.86367E-05 1.91954E-06-3.26259E-19 1.26642E-18
 -1      4126 9.14127E-05-2.47065E-05-2.85878E-05 2.22677E-06-2.91839E-19 1.09574E-18
 -1      4127 9.16959E-05-2.48557E-05-2.86270E-05 1.42391E-06-4.88680E-19 1.37676E-18
 -1      4128 9.36799E-05-2.65970E-05-2.87555E-05 7.96813E-07 2.13468E-19 1.00978E-18
 -1      4129 9.34619E-05-2.63684E-05-2.87544E-05 9.39209E-07 3.21485E-19 1.61543E-18
 -1      4130 9.40970E-05-2.70209E-05-2.87504E-05 5.81981E-07-9.71437E-19-2.04087E-19
 -1      4131 9.39185E-05-2.68216E-05-2.87558E-05 6.94388E-07-2.90084E-19 6.09255E-19
 -1      4132 9.36853E-05-2.65859E-05-2.87471E-05 5.63562E-07 2.63473E-19 3.30339E-19
 -1      4133 9.44196E-05-2.73732E-05-2.87365E-05 4.23321E-07-4.15531E-19-1.25797E-18
 -1      4134 9.42811E-05-2.72100E-05-2.87453E-05 5.12001E-07-8.68411E-19-8.89057E-19
 -1      4135 9.41100E-05-2.70390E-05-2.87439E-05 3.95282E-07-4.52297E-19-7.39541E-19
 -1      4136 9.46703E-05-2.76683E-05-2.87172E-05 3.01916E-07-3.55175E-20-1.73743E-18
 -1      4137 9.45632E-05-2.75324E-05-2.87278E-05 3.67636E-07 9.28152E-20-1.15055E-18
 -1      4138 9.44350E-05-2.73899E-05-2.87304E-05 2.87757E-07 5.72913E-20-1.62686E-18
 -1      4139 9.48566E-05-2.79016E-05-2.86965E-05 2.10642E-07-6.64012E-19-2.11494E-18
 -1      4140 9.47771E-05-2.77933E-05-2.87074E-05 2.62196E-07-5.32669E-19-2.28696E-18
 -1      4141 9.46845E-05-2.76866E-05-2.87119E-05 2.03072E-07 8.49444E-20-2.09778E-18
 -1      4142 9.49944E-05-2.80871E-05-2.86760E-05 1.43925E-07-1.13895E-18-1.62794E-18
 -1      4143 9.49371E-05-2.80025E-05-2.86863E-05 1.81763E-07-1.52134E-18-2.27740E-18
 -1      4144 9.48701E-05-2.79207E-05-2.86921E-05 1.42533E-07-9.16235E-19-2.83755E-18
 -1      4145 9.50940E-05-2.82303E-05-2.86569E-05 9.40487E-08-1.85586E-19-3.13578E-19
 -1      4146 9.50528E-05-2.81648E-05-2.86663E-05 1.21878E-07-3.48759E-19-8.22176E-19
 -1      4147 9.50050E-05-2.80981E-05-2.86724E-05 9.46723E-08-1.44794E-18-2.72053E-18
 -1      4148 9.51634E-05-2.83388E-05-2.86398E-05 5.86445E-08-6.88099E-19-3.48786E-19
 -1      4149 9.51350E-05-2.82894E-05-2.86481E-05 7.88145E-08 7.59264E-20-1.40913E-19
 -1      4150 9.51032E-05-2.82402E-05-2.86540E-05 6.17545E-08-6.52935E-19-2.03478E-18
 -1      4151 9.52101E-05-2.84192E-05-2.86251E-05 3.37347E-08-8.67782E-19-1.02891E-18
 -1      4152 9.51913E-05-2.83827E-05-2.86322E-05 4.80909E-08-1.06986E-18-3.58514E-19
 -1      4153 9.51707E-05-2.83471E-05-2.86376E-05 3.82119E-08-7.81483E-19-1.08945E-18
 -1      4154 9.52400E-05-2.84775E-05-2.86128E-05 1.66347E-08-5.94982E-19-1.26377E-18
 -1      4155 9.52282E-05-2.84512E-05-2.86187E-05 2.66141E-08-4.76430E-19-9.66504E-19
 -1      4156 9.52156E-05-2.84260E-05-2.86234E-05 2.16781E-08-6.87998E-19-1.87881E-18
 -1      4157 9.52579E-05-2.85187E-05-2.86027E-05 5.29442E-09-7.40520E-19-9.81389E-19
 -1      4158 9.52511E-05-2.85002E-05-2.86075E-05 1.20164E-08-9.67020E-19-1.58728E-18
 -1      4159 9.52442E-05-2.84830E-05-2.86115E-05 1.03914E-08-3.35420E-19-2.62445E-18
 -1      4160 9.52674E-05-2.85469E-05-2.85946E-05-1.87151E-09-4.57689E-19-5.34707E-19
 -1      4161 9.52640E-05-2.85344E-05-2.85984E-05 2.46598E-09-3.60795E-19-5.52506E-19
 -1      4162 9.52609E-05-2.85230E-05-2.86018E-05 2.95741E-09-3.86597E-19-9.61084E-19
 -1      4163 9.52711E-05-2.85655E-05-2.85882E-05-6.07577E-09-3.86031E-19-8.68466E-19
 -1      4164 9.52701E-05-2.85573E-05-2.85911E-05-3.44859E-09-3.31125E-19-1.97039E-19
 -1      4165 9.52695E-05-2.85502E-05-2.85939E-05-1.70078E-09-2.29846E-19-2.13828E-18
 -1      4166 9.52712E-05-2.85770E-05-2.85832E-05-8.23290E-09-3.58593E-19-2.25623E-18
 -1      4167 9.52716E-05-2.85720E-05-2.85855E-05-6.80248E-09-2.06970E-19-1.16951E-18
 -1      4168 9.52726E-05-2.85679E-05-2.85877E-05-4.40096E-09 5.29284E-20-2.82763E-18
 -1      4169 9.52690E-05-2.85836E-05-2.85795E-05-9.02197E-09-1.44793E-18-2.54126E-18
 -1      4170 9.52703E-05-2.85808E-05-2.85812E-05-8.40327E-09-4.08186E-19-2.03068E-18
 -1      4171 9.52721E-05-2.85788E-05-2.85829E-05-5.75537E-09-6.02742E-19-3.51477E-18
 -1      4172 9.52656E-05-2.85867E-05-2.85766E-05-8.93814E-09-1.34657E-18-2.59886E-18
 -1      4173 9.52673E-05-2.85855E-05-2.85779E-05-8.84780E-09-2.02779E-18-2.56820E-18
 -1      4174 9.52696E-05-2.85849E-05-2.85793E-05-6.21584E-09-1.39588E-18-2.93256E-18
 -1      4175 9.52617E-05-2.85876E-05-2.85746E-05-8.33460E-09-1.56308E-18-1.53093E-18
 -1      4176 9.52636E-05-2.85873E-05-2.85755E-05-8.56888E-09-1.94374E-18-2.20049E-18
 -1      4177 9.52659E-05-2.85876E-05-2.85765E-05-6.11067E-09-2.05154E-18-2.95408E-18
 -1      4178 9.52577E-05-2.85870E-05-2.85731E-05-7.45526E-09-8.99680E-19 1.09334E-18
 -1      4179 9.52595E-05-2.85874E-05-2.85737E-05-7.87197E-09-9.61046E-19 8.80888E-20
 -1      4180 9.52618E-05-2.85882E-05-2.85745E-05-5.67465E-09-2.01804E-18-1.98808E-18
 -1      4181 9.52539E-05-2.85856E-05-2.85721E-05-6.45293E-09-1.29210E-18 5.06465E-19
 -1      4182 9.52556E-05-2.85864E-05-2.85725E-05-6.95451E-09-5.14098E-19 8.38207E-19
 -1      4183 9.52577E-05-2.85874E-05-2.85731E-05-5.06874E-09-5.71272E-19-5.78954E-19
 -1      4184 9.52504E-05-2.85839E-05-2.85713E-05-5.47993E-09 2.44465E-19-2.80221E-19
 -1      4185 9.52520E-05-2.85848E-05-2.85717E-05-6.00429E-09-6.89979E-19-2.86874E-19
 -1      4186 9.52538E-05-2.85858E-05-2.85720E-05-4.31040E-09-3.47365E-19-1.03327E-18
 -1      4187 8.65305E-05-2.34402E-05-2.70720E-05 8.16916E-06-6.85455E-19-2.03903E-19
 -1      4188 8.65139E-05-2.39281E-05-2.67887E-05 9.39663E-06-6.22646E-19-9.41216E-20
 -1      4189 8.87921E-05-2.34187E-05-2.80349E-05 4.50418E-06 4.41508E-20 2.96328E-19
 -1      4190 8.84066E-05-2.33581E-05-2.78666E-05 5.22012E-06 1.73442E-19 8.60291E-19
 -1      4191 8.76582E-05-2.32493E-05-2.76277E-05 6.02030E-06-5.41525E-19 5.93063E-19
 -1      4192 8.73467E-05-2.33519E-05-2.74015E-05 6.96607E-06-7.99612E-19 1.15452E-19
 -1      4193 8.69009E-05-2.24968E-05-2.76065E-05 4.97041E-06-3.13623E-19 3.82308E-19
 -1      4194 9.52480E-05-2.85825E-05-2.85709E-05-5.84721E-10 4.64133E-19-1.72170E-18
 -1      4195 8.88951E-05-2.69699E-05-2.65986E-05 1.25013E-05-1.05944E-18 2.58532E-19
 -1      4196 9.08983E-05-2.43924E-05-2.85133E-05 2.54128E-06-8.00087E-19 8.69155E-19
 -1      4197 9.04981E-05-2.41364E-05-2.84354E-05 2.94493E-06-1.01161E-18 7.20800E-19
 -1      4198 9.07540E-05-2.42282E-05-2.85078E-05 1.94920E-06-7.71600E-19 9.71684E-19
 -1      4199 9.31625E-05-2.61094E-05-2.87445E-05 1.07463E-06 7.43471E-20 1.77644E-18
 -1      4200 9.28980E-05-2.58533E-05-2.87332E-05 1.25711E-06-1.11116E-19 1.69822E-18
 -1      4201 9.25013E-05-2.54972E-05-2.86994E-05 1.04955E-06-4.15714E-20 1.36384E-18
 -1      4202 9.31580E-05-2.60775E-05-2.87355E-05 7.70900E-07 3.65160E-19 1.32769E-18
 -1      4203 8.98964E-05-2.38530E-05-2.83201E-05 3.38322E-06-5.18842E-19 6.36737E-19
 -1      4204 8.94848E-05-2.36639E-05-2.82026E-05 3.90436E-06-2.42530E-19 2.54854E-19
 -1      4205 8.96360E-05-2.35433E-05-2.83134E-05 2.61794E-06-6.72092E-19 8.08310E-19
 -1      4206 9.52498E-05-2.85836E-05-2.85712E-05 7.07972E-12 6.29267E-20-1.36145E-18
 -1      4207 9.52518E-05-2.85848E-05-2.85716E-05 5.63210E-10-3.87711E-20-1.54520E-18
 -1      4208 9.52506E-05-2.85841E-05-2.85714E-05-2.11978E-09 4.11095E-19-3.39035E-18
 -1      4209 8.83443E-05-2.29232E-05-2.80220E-05 3.59174E-06-6.28295E-20 8.17723E-19
 -1      4210 8.33297E-05-2.25829E-05-2.60186E-05 1.03481E-05-6.01846E-19-1.39608E-19
 -1      4211 8.54922E-05-2.44848E-05-2.61588E-05 1.17726E-05-9.27312E-19 3.61787E-19
 -1      4212 8.52879E-05-2.21878E-05-2.70191E-05 6.82056E-06-9.21238E-19-4.78549E-19
 -1      4213 8.95936E-05-2.90519E-05-2.59025E-05 1.57859E-05-1.46722E-18-1.40281E-19
 -1      4214 8.15067E-05-2.07062E-05-2.61093E-05 7.46286E-06-6.06794E-19-3.68172E-19
 -1      4215 8.02750E-05-2.09568E-05-2.53816E-05 9.80453E-06-7.24946E-19-4.44350E-19
 -1      4216 8.57073E-05-2.56427E-05-2.57553E-05 1.36994E-05-1.09799E-18 2.19606E-19
 -1      4217 7.64972E-05-1.88758E-05-2.46218E-05 9.07782E-06-6.15568E-19-1.82565E-19
 -1      4218 7.52492E-05-1.76070E-05-2.47541E-05 5.42813E-06-5.31558E-19 4.19571E-19
 -1      4219 9.44753E-05-2.74512E-05-2.87256E-05 1.47683E-07 3.61904E-19-2.24791E-18
 -1      4220 9.43327E-05-2.72844E-05-2.87341E-05 1.86673E-07-6.42265E-20-2.12654E-18
 -1      4221 8.80624E-05-2.26198E-05-2.80627E-05 2.47176E-06-1.56676E-19 3.64312E-19
 -1      4222 8.73859E-05-2.22895E-05-2.78899E-05 2.97009E-06 1.36421E-19 4.43584E-19
 -1      4223 9.52503E-05-2.85839E-05-2.85713E-05-3.27351E-09-2.50997E-19-2.76324E-18
 -1      4224 9.52496E-05-2.85834E-05-2.85712E-05-4.94581E-09-5.07850E-19-6.15926E-19
 -1      4225 8.27507E-05-1.99832E-05-2.69345E-05 2.57489E-06-6.43042E-19 1.88457E-19
 -1      4226 8.42613E-05-2.05811E-05-2.72927E-05 2.11984E-06-4.48910E-19 9.10905E-20
 -1      4227 8.58050E-05-2.12196E-05-2.76968E-05 1.21418E-06-1.54066E-19 8.13124E-20
 -1      4228 8.69659E-05-2.17875E-05-2.79359E-05 9.54395E-07 2.90677E-20 1.28801E-20
 -1      4229 8.78680E-05-2.22878E-05-2.81088E-05 7.71906E-07-2.69545E-19 1.37673E-19
 -1      4230 8.90819E-05-2.30153E-05-2.83266E-05 5.34406E-07-5.30674E-19-1.18821E-19
 -1      4231 8.97926E-05-2.34890E-05-2.84298E-05 4.54085E-07-2.28595E-19-8.49360E-19
 -1      4232 9.05718E-05-2.40460E-05-2.85222E-05 7.33475E-07-4.88973E-19-5.35514E-19
 -1      4233 9.11435E-05-2.44595E-05-2.85885E-05 6.52204E-07-5.33013E-19-1.01946E-18
 -1      4234 9.16012E-05-2.48175E-05-2.86376E-05 4.71686E-07-8.99127E-20-9.55471E-19
 -1      4235 9.20790E-05-2.51897E-05-2.86773E-05 4.34428E-07 1.07803E-19-1.02126E-18
 -1      4236 9.24600E-05-2.55137E-05-2.87045E-05 2.99070E-07-1.18969E-19-8.22230E-19
 -1      4237 9.28427E-05-2.58391E-05-2.87246E-05 2.86949E-07-1.17451E-19-8.70867E-19
 -1      4238 9.31526E-05-2.61241E-05-2.87367E-05 1.87407E-07 2.26685E-19-8.58391E-19
 -1      4239 9.34555E-05-2.64023E-05-2.87438E-05 1.88355E-07 6.70974E-19-4.67660E-19
 -1      4240 9.37038E-05-2.66465E-05-2.87458E-05 1.16715E-07 3.74622E-19-2.31846E-19
 -1      4241 9.39433E-05-2.68766E-05-2.87448E-05 1.18098E-07 3.21761E-19-5.51494E-19
 -1      4242 9.42089E-05-2.71606E-05-2.87376E-05-8.94041E-08 9.29630E-19-1.88511E-18
 -1      4243 9.43897E-05-2.73468E-05-2.87311E-05-6.98755E-08 4.48711E-19-1.86603E-18
 -1      4244 9.45228E-05-2.75077E-05-2.87220E-05-5.42778E-08-1.23312E-19-2.42140E-18
 -1      4245 9.47085E-05-2.77227E-05-2.87083E-05-4.18807E-08-5.74169E-19-1.79888E-18
 -1      4246 9.48023E-05-2.78450E-05-2.86980E-05-2.65565E-08-4.40556E-19-1.85339E-18
 -1      4247 9.48925E-05-2.79563E-05-2.86878E-05 1.40452E-08-8.24174E-19-1.95107E-18
 -1      4248 9.49636E-05-2.80514E-05-2.86778E-05 2.10803E-08-1.21773E-18-2.08472E-18
 -1      4249 9.50226E-05-2.81335E-05-2.86682E-05 6.29649E-09-1.39719E-18-1.71389E-18
 -1      4250 9.50741E-05-2.82058E-05-2.86590E-05 1.35879E-08-1.02849E-18-2.11225E-18
 -1      4251 9.51159E-05-2.82679E-05-2.86502E-05 2.42088E-09-1.15558E-18-2.05586E-18
 -1      4252 9.51517E-05-2.83221E-05-2.86420E-05 8.36797E-09-1.20633E-18-2.19082E-18
 -1      4253 9.51802E-05-2.83684E-05-2.86344E-05 2.91601E-10-9.42679E-19-1.60443E-18
 -1      4254 9.52040E-05-2.84083E-05-2.86272E-05 4.86794E-09-5.13124E-19-1.73060E-18
 -1      4255 9.52226E-05-2.84420E-05-2.86207E-05-8.15153E-10-4.93375E-19-2.13693E-18
 -1      4256 9.52378E-05-2.84707E-05-2.86148E-05 2.56315E-09-4.99528E-19-1.84486E-18
 -1      4257 9.52492E-05-2.84947E-05-2.86094E-05-1.33032E-09-1.38887E-19-2.13212E-18
 -1      4258 9.52581E-05-2.85148E-05-2.86044E-05 1.07318E-09-2.59783E-19-1.90743E-18
 -1      4259 9.52645E-05-2.85313E-05-2.86000E-05-1.50712E-09-1.33307E-19-1.47268E-18
 -1      4260 9.52690E-05-2.85450E-05-2.85961E-05 1.36754E-10 1.86434E-19-1.55934E-18
 -1      4261 9.52719E-05-2.85560E-05-2.85926E-05-1.49616E-09-1.06908E-19-1.35363E-18
 -1      4262 9.52735E-05-2.85648E-05-2.85894E-05-4.24585E-10-3.14574E-19-1.41974E-18
 -1      4263 9.52741E-05-2.85718E-05-2.85867E-05-1.38709E-09-2.81954E-19-1.28083E-18
 -1      4264 9.52739E-05-2.85772E-05-2.85843E-05-7.33490E-10-2.04281E-19-1.62677E-18
 -1      4265 9.52730E-05-2.85813E-05-2.85822E-05-1.23293E-09-1.10291E-18-1.34585E-18
 -1      4266 9.52717E-05-2.85842E-05-2.85803E-05-8.74913E-10-1.60808E-18-1.57299E-18
 -1      4267 9.52701E-05-2.85863E-05-2.85787E-05-1.06464E-09-1.75345E-18-1.03992E-18
 -1      4268 9.52682E-05-2.85876E-05-2.85773E-05-9.07922E-10-2.09883E-18-1.60203E-18
 -1      4269 9.52661E-05-2.85883E-05-2.85761E-05-9.00039E-10-1.93220E-18-1.39010E-18
 -1      4270 9.52639E-05-2.85886E-05-2.85751E-05-8.73250E-10-1.94106E-18-1.45204E-18
 -1      4271 9.52618E-05-2.85884E-05-2.85742E-05-7.50065E-10-1.59624E-18-1.27787E-18
 -1      4272 9.52596E-05-2.85880E-05-2.85735E-05-7.98532E-10-9.79510E-19-1.50027E-18
 -1      4273 9.52575E-05-2.85874E-05-2.85729E-05-6.28055E-10-5.87609E-19-1.29936E-18
 -1      4274 9.52555E-05-2.85866E-05-2.85724E-05-6.96468E-10 3.37024E-19-1.48043E-18
 -1      4275 9.52537E-05-2.85857E-05-2.85719E-05 7.70449E-10 5.13000E-19-1.79932E-18
 -1      4276 8.99154E-05-2.36491E-05-2.84031E-05 1.70055E-06-8.37954E-19 7.07040E-19
 -1      4277 8.92766E-05-2.32752E-05-2.82884E-05 2.05129E-06-6.32147E-19 6.09499E-19
 -1      4278 9.52522E-05-2.85850E-05-2.85717E-05-2.87374E-09 3.36309E-19-2.59292E-18
 -1      4279 9.47719E-05-2.77983E-05-2.87024E-05 1.04082E-07 1.88370E-19-1.83664E-18
 -1      4280 9.46640E-05-2.76718E-05-2.87121E-05 1.32845E-07 3.11749E-19-1.59179E-18
 -1      4281 9.48522E-05-2.79013E-05-2.86923E-05 8.28148E-08-8.32552E-19-1.84104E-18
 -1      4282 8.51025E-05-2.15529E-05-2.72501E-05 4.78375E-06-1.08455E-18-1.19929E-19
 -1      4283 8.42116E-05-2.13705E-05-2.69218E-05 5.76753E-06-1.04959E-18-9.26202E-20
 -1      4284 8.17124E-05-2.00310E-05-2.64059E-05 5.11616E-06-9.01106E-19-1.05014E-19
 -1      4285 7.80077E-05-1.84230E-05-2.55490E-05 4.46526E-06-7.44227E-19 4.39999E-19
 -1      4286 9.04454E-05-2.39599E-05-2.84820E-05 1.42600E-06-1.00187E-18 7.54119E-19
 -1      4287 8.59306E-05-2.17523E-05-2.75183E-05 3.99546E-06-4.47423E-19 4.03016E-20
 -1      4288 8.57568E-05-2.13928E-05-2.75733E-05 2.77308E-06-3.07713E-19 4.78669E-21
 -1      4289 7.99529E-05-1.90059E-05-2.61189E-05 3.72975E-06-8.09747E-19 3.63513E-19
 -1      4290 9.45795E-05-2.75718E-05-2.87165E-05 3.94125E-08 9.97632E-20-2.29344E-18
 -1      4291 8.84750E-05-2.27024E-05-2.81752E-05 1.45445E-06-5.25267E-19 9.74874E-21
 -1      4292 9.41444E-05-2.70835E-05-2.87389E-05 2.38924E-07 5.58674E-20-1.54671E-18
 -1      4293 9.52542E-05-2.85860E-05-2.85721E-05-3.14224E-09 1.52534E-19-2.48067E-18
 -3
    1PSTEP                         4           1           1          
  100CL  101 1.000000000        4293                     0    1           1
 -4  ERROR       1    1
 -5  STR(%)      1    1    0    0
 -1         1 1.22629E+01
 -1         2 2.60783E+01
 -1         3 5.83486E-05
 -1         4 6.54075E-05
 -1         5 1.39199E+01
 -1         6 1.28153E+01
 -1         7 1.28153E+01
 -1         8 5.15479E+00
 -1         9 4.30089E+00
 -1        10 5.10959E+00
 -1        11 5.74972E+00
 -1        12 5.74972E+00
 -1        13 4.85434E+00
 -1        14 4.77372E+00
 -1        15 4.77372E+00
 -1        16 4.67126E+00
 -1        17 3.65653E+00
 -1        18 2.79004E+00
 -1        19 2.49339E+00
 -1        20 2.39831E+00
 -1        21 3.92670E+00
 -1        22 9.03354E+00
 -1        23 1.28153E+01
 -1        24 2.30420E+00
 -1        25 2.08337E+00
 -1        26 2.95932E+00
 -1        27 4.81986E+00
 -1        28 5.50130E+00
 -1        29 5.50130E+00
 -1        30 5.25147E+00
 -1        31 4.10316E+00
 -1        32 2.12539E+00
 -1        33 1.67192E+00
 -1        34 1.71706E+00
 -1        35 1.71706E+00
 -1        36 1.67304E+00
 -1        37 1.41987E+00
 -1        38 1.12123E+00
 -1        39 8.84412E-01
 -1        40 6.78762E-01
 -1        41 5.66235E-01
 -1        42 4.55059E-01
 -1        43 3.55203E-01
 -1        44 2.70565E-01
 -1        45 2.01586E-01
 -1        46 1.46967E-01
 -1        47 1.09968E-01
 -1        48 9.04019E-02
 -1        49 7.28779E-02
 -1        50 5.77141E-02
 -1        51 4.49361E-02
 -1        52 3.44019E-02
 -1        53 2.58822E-02
 -1        54 1.99626E-02
 -1        55 1.64227E-02
 -1        56 1.32457E-02
 -1        57 1.04886E-02
 -1        58 8.15914E-03
 -1        59 6.34382E-03
 -1        60 4.91352E-03
 -1        61 3.73634E-03
 -1        62 2.78581E-03
 -1        63 2.03117E-03
 -1        64 1.65159E-03
 -1        65 1.33184E-03
 -1        66 1.05824E-03
 -1        67 8.27232E-04
 -1        68 6.30423E-04
 -1        69 5.10214E-04
 -1        70 4.30080E-04
 -1        71 2.53444E-04
 -1        72 1.39199E+01
 -1        73 3.16285E+00
 -1        74 2.10814E+00
 -1        75 2.27046E+00
 -1        76 2.67444E+00
 -1        77 2.80384E+00
 -1        78 2.95869E+00
 -1        79 2.95869E+00
 -1        80 2.78912E+00
 -1        81 2.09005E+00
 -1        82 1.27029E+00
 -1        83 8.23688E-01
 -1        84 6.30320E-01
 -1        85 7.43167E-01
 -1        86 7.50257E-01
 -1        87 7.50257E-01
 -1        88 6.77734E-01
 -1        89 5.70706E-01
 -1        90 4.75377E-01
 -1        91 3.76616E-01
 -1        92 2.85315E-01
 -1        93 2.21008E-01
 -1        94 1.73745E-01
 -1        95 1.32361E-01
 -1        96 9.77932E-02
 -1        97 6.99762E-02
 -1        98 4.82926E-02
 -1        99 3.89313E-02
 -1       100 3.24009E-02
 -1       101 2.63250E-02
 -1       102 2.09331E-02
 -1       103 1.66752E-02
 -1       104 1.47086E-02
 -1       105 1.25718E-02
 -1       106 1.04722E-02
 -1       107 8.53166E-03
 -1       108 6.83275E-03
 -1       109 5.51074E-03
 -1       110 4.35986E-03
 -1       111 3.38580E-03
 -1       112 2.58010E-03
 -1       113 1.92615E-03
 -1       114 1.40333E-03
 -1       115 1.05235E-03
 -1       116 8.23624E-04
 -1       117 6.28239E-04
 -1       118 4.53299E-04
 -1       119 3.07430E-04
 -1       120 1.98578E-04
 -1       121 8.28076E-05
 -1       122 8.28076E-05
 -1       123 7.82166E-05
 -1       124 4.56438E-05
 -1       125 3.47087E-05
 -1       126 6.23904E-05
 -1       127 7.93684E-05
 -1       128 8.44093E-05
 -1       129 8.44093E-05
 -1       130 7.91737E-05
 -1       131 6.14887E-05
 -1       132 3.47350E-05
 -1       133 4.66724E-05
 -1       134 7.77458E-05
 -1       135 1.10228E-04
 -1       136 1.15800E-04
 -1       137 2.60783E+01
 -1       138 4.35456E+01
 -1       139 4.35456E+01
 -1       140 1.65406E+01
 -1       141 1.22067E+01
 -1       142 1.22645E+01
 -1       143 1.22645E+01
 -1       144 1.21799E+01
 -1       145 1.21799E+01
 -1       146 1.43525E+01
 -1       147 3.49267E+01
 -1       148 3.49267E+01
 -1       149 3.09911E+01
 -1       150 3.13993E+01
 -1       151 3.13993E+01
 -1       152 4.80382E+01
 -1       153 4.80382E+01
 -1       154 2.21905E+01
 -1       155 1.26359E+01
 -1       156 1.26359E+01
 -1       157 1.26513E+01
 -1       158 1.26513E+01
 -1       159 1.14342E+01
 -1       160 2.20168E+01
 -1       161 4.76810E+01
 -1       162 4.76810E+01
 -1       163 2.58193E+01
 -1       164 7.66552E+00
 -1       165 4.28798E+00
 -1       166 4.55956E+00
 -1       167 5.95577E+00
 -1       168 6.97958E+00
 -1       169 6.97958E+00
 -1       170 5.95728E+00
 -1       171 5.86633E+00
 -1       172 5.86633E+00
 -1       173 4.60574E+00
 -1       174 3.21956E+00
 -1       175 2.74297E+00
 -1       176 2.49339E+00
 -1       177 2.78996E+00
 -1       178 4.32862E+00
 -1       179 1.39199E+01
 -1       180 3.91708E+00
 -1       181 2.22584E+00
 -1       182 2.08337E+00
 -1       183 3.05607E+00
 -1       184 4.81986E+00
 -1       185 5.50130E+00
 -1       186 5.25147E+00
 -1       187 4.10316E+00
 -1       188 2.37428E+00
 -1       189 1.43000E+00
 -1       190 1.67192E+00
 -1       191 1.71706E+00
 -1       192 1.67304E+00
 -1       193 1.41987E+00
 -1       194 1.18141E+00
 -1       195 1.02383E+00
 -1       196 8.46448E-01
 -1       197 6.65579E-01
 -1       198 5.02753E-01
 -1       199 3.66706E-01
 -1       200 2.74350E-01
 -1       201 2.10893E-01
 -1       202 1.58868E-01
 -1       203 1.17339E-01
 -1       204 9.04019E-02
 -1       205 7.28779E-02
 -1       206 5.77141E-02
 -1       207 4.49361E-02
 -1       208 3.44019E-02
 -1       209 2.63791E-02
 -1       210 2.05008E-02
 -1       211 1.64227E-02
 -1       212 1.32457E-02
 -1       213 1.04886E-02
 -1       214 8.43509E-03
 -1       215 6.69388E-03
 -1       216 5.40569E-03
 -1       217 4.32333E-03
 -1       218 3.39188E-03
 -1       219 2.60974E-03
 -1       220 1.96622E-03
 -1       221 1.44592E-03
 -1       222 1.05824E-03
 -1       223 8.27232E-04
 -1       224 6.30423E-04
 -1       225 5.10214E-04
 -1       226 4.30080E-04
 -1       227 2.53444E-04
 -1       228 3.16285E+00
 -1       229 2.32704E+00
 -1       230 1.97029E+00
 -1       231 2.27046E+00
 -1       232 2.67444E+00
 -1       233 2.80384E+00
 -1       234 2.95869E+00
 -1       235 2.78912E+00
 -1       236 2.09005E+00
 -1       237 1.27029E+00
 -1       238 8.23688E-01
 -1       239 5.97355E-01
 -1       240 6.30320E-01
 -1       241 7.43167E-01
 -1       242 7.50257E-01
 -1       243 6.77734E-01
 -1       244 5.70706E-01
 -1       245 4.77923E-01
 -1       246 3.91539E-01
 -1       247 3.06736E-01
 -1       248 2.30620E-01
 -1       249 1.73745E-01
 -1       250 1.32361E-01
 -1       251 9.77932E-02
 -1       252 7.17746E-02
 -1       253 5.12461E-02
 -1       254 3.89313E-02
 -1       255 3.24009E-02
 -1       256 2.63250E-02
 -1       257 2.09331E-02
 -1       258 1.66752E-02
 -1       259 1.47086E-02
 -1       260 1.25718E-02
 -1       261 1.04722E-02
 -1       262 8.53166E-03
 -1       263 6.83275E-03
 -1       264 5.51074E-03
 -1       265 4.35986E-03
 -1       266 3.44373E-03
 -1       267 2.67431E-03
 -1       268 2.03578E-03
 -1       269 1.51546E-03
 -1       270 1.09758E-03
 -1       271 8.23624E-04
 -1       272 6.28239E-04
 -1       273 4.53299E-04
 -1       274 3.07430E-04
 -1       275 1.98578E-04
 -1       276 1.22093E-04
 -1       277 1.25595E-04
 -1       278 1.25595E-04
 -1       279 6.18146E-05
 -1       280 1.14119E-04
 -1       281 1.49042E-04
 -1       282 1.63361E-04
 -1       283 1.63361E-04
 -1       284 1.63311E-04
 -1       285 1.48126E-04
 -1       286 1.14443E-04
 -1       287 6.28994E-05
 -1       288 1.26941E-04
 -1       289 1.26941E-04
 -1       290 1.56614E-04
 -1       291 3.22325E+01
 -1       292 3.86143E+01
 -1       293 4.35456E+01
 -1       294 1.65406E+01
 -1       295 1.09545E+01
 -1       296 1.22067E+01
 -1       297 1.22645E+01
 -1       298 1.15843E+01
 -1       299 1.21799E+01
 -1       300 1.11839E+01
 -1       301 1.43525E+01
 -1       302 3.49267E+01
 -1       303 3.62248E+01
 -1       304 4.17057E+01
 -1       305 4.36003E+01
 -1       306 3.98983E+01
 -1       307 4.80382E+01
 -1       308 2.21905E+01
 -1       309 1.15666E+01
 -1       310 1.26359E+01
 -1       311 1.22629E+01
 -1       312 1.18042E+01
 -1       313 1.26513E+01
 -1       314 1.13778E+01
 -1       315 1.14342E+01
 -1       316 2.30995E+01
 -1       317 4.76810E+01
 -1       318 2.94590E+01
 -1       319 3.22325E+01
 -1       320 3.78990E+00
 -1       321 3.91708E+00
 -1       322 7.94193E+00
 -1       323 8.39031E+00
 -1       324 9.04000E+00
 -1       325 9.04000E+00
 -1       326 7.41542E+00
 -1       327 6.59070E+00
 -1       328 4.55616E+00
 -1       329 3.04811E+00
 -1       330 1.87054E+00
 -1       331 1.56546E+00
 -1       332 1.54573E+00
 -1       333 2.26709E+00
 -1       334 2.32704E+00
 -1       335 1.72724E+00
 -1       336 1.92763E+00
 -1       337 2.72796E+00
 -1       338 3.24467E+00
 -1       339 3.27073E+00
 -1       340 2.86969E+00
 -1       341 2.14329E+00
 -1       342 1.70803E+00
 -1       343 1.55351E+00
 -1       344 1.39058E+00
 -1       345 1.41951E+00
 -1       346 1.32237E+00
 -1       347 1.19834E+00
 -1       348 1.08979E+00
 -1       349 9.41673E-01
 -1       350 7.72733E-01
 -1       351 6.09628E-01
 -1       352 4.65876E-01
 -1       353 3.46305E-01
 -1       354 2.50784E-01
 -1       355 1.76777E-01
 -1       356 1.20866E-01
 -1       357 8.48942E-02
 -1       358 6.07764E-02
 -1       359 4.40451E-02
 -1       360 3.64407E-02
 -1       361 2.97317E-02
 -1       362 2.38033E-02
 -1       363 1.87204E-02
 -1       364 1.44681E-02
 -1       365 1.16991E-02
 -1       366 9.87419E-03
 -1       367 8.14422E-03
 -1       368 6.62532E-03
 -1       369 5.42176E-03
 -1       370 4.36274E-03
 -1       371 3.50020E-03
 -1       372 2.80813E-03
 -1       373 2.20648E-03
 -1       374 1.69679E-03
 -1       375 1.27433E-03
 -1       376 9.31174E-04
 -1       377 6.58472E-04
 -1       378 4.78801E-04
 -1       379 3.43602E-04
 -1       380 2.27776E-04
 -1       381 1.90908E+00
 -1       382 1.97598E+00
 -1       383 1.97598E+00
 -1       384 1.82694E+00
 -1       385 1.65870E+00
 -1       386 1.72410E+00
 -1       387 1.44574E+00
 -1       388 9.99891E-01
 -1       389 5.88601E-01
 -1       390 3.60714E-01
 -1       391 4.35293E-01
 -1       392 5.07284E-01
 -1       393 5.44751E-01
 -1       394 5.28871E-01
 -1       395 4.73286E-01
 -1       396 4.21399E-01
 -1       397 3.54600E-01
 -1       398 2.85006E-01
 -1       399 2.20041E-01
 -1       400 1.65242E-01
 -1       401 1.28772E-01
 -1       402 9.75188E-02
 -1       403 7.17746E-02
 -1       404 5.12461E-02
 -1       405 3.53377E-02
 -1       406 2.45987E-02
 -1       407 2.13879E-02
 -1       408 1.80752E-02
 -1       409 1.49105E-02
 -1       410 1.20379E-02
 -1       411 9.52675E-03
 -1       412 8.15913E-03
 -1       413 6.92978E-03
 -1       414 5.74136E-03
 -1       415 4.72562E-03
 -1       416 3.84774E-03
 -1       417 3.06759E-03
 -1       418 2.39888E-03
 -1       419 1.85858E-03
 -1       420 1.40971E-03
 -1       421 1.04328E-03
 -1       422 7.65613E-04
 -1       423 5.94214E-04
 -1       424 4.43047E-04
 -1       425 3.02333E-04
 -1       426 1.69503E-04
 -1       427 1.33246E-04
 -1       428 2.44329E-04
 -1       429 2.44329E-04
 -1       430 1.55260E-04
 -1       431 2.07400E-04
 -1       432 2.32173E-04
 -1       433 2.32173E-04
 -1       434 2.31543E-04
 -1       435 2.31543E-04
 -1       436 2.07737E-04
 -1       437 1.55306E-04
 -1       438 1.37781E-04
 -1       439 2.08603E-04
 -1       440 2.56806E+01
 -1       441 3.74340E+01
 -1       442 2.93399E+01
 -1       443 1.42150E+01
 -1       444 7.75758E+00
 -1       445 6.05582E+00
 -1       446 9.92742E+00
 -1       447 1.09586E+01
 -1       448 1.03884E+01
 -1       449 7.92276E+00
 -1       450 8.45919E+00
 -1       451 1.36712E+01
 -1       452 2.21067E+01
 -1       453 3.62248E+01
 -1       454 4.36003E+01
 -1       455 4.36003E+01
 -1       456 2.96816E+01
 -1       457 1.77989E+01
 -1       458 1.05060E+01
 -1       459 6.85081E+00
 -1       460 9.89499E+00
 -1       461 1.00323E+01
 -1       462 1.02451E+01
 -1       463 8.75615E+00
 -1       464 6.51417E+00
 -1       465 1.03045E+01
 -1       466 1.78554E+01
 -1       467 2.94590E+01
 -1       468 3.74340E+01
 -1       469 7.82524E+00
 -1       470 1.65958E+00
 -1       471 1.77812E+01
 -1       472 1.12542E+01
 -1       473 1.33516E+01
 -1       474 9.91543E+00
 -1       475 6.30548E+00
 -1       476 4.40467E+00
 -1       477 2.30763E+00
 -1       478 1.39797E+00
 -1       479 1.55006E+00
 -1       480 1.90908E+00
 -1       481 1.72724E+00
 -1       482 5.86092E+00
 -1       483 3.48634E+00
 -1       484 4.45437E+00
 -1       485 4.42670E+00
 -1       486 5.98240E+00
 -1       487 4.10650E+00
 -1       488 2.50875E+00
 -1       489 2.63326E+00
 -1       490 2.10517E+00
 -1       491 1.83924E+00
 -1       492 1.52528E+00
 -1       493 1.32237E+00
 -1       494 1.16196E+00
 -1       495 9.80411E-01
 -1       496 7.93012E-01
 -1       497 6.28169E-01
 -1       498 4.89838E-01
 -1       499 3.74145E-01
 -1       500 2.80254E-01
 -1       501 2.05856E-01
 -1       502 1.48083E-01
 -1       503 1.04036E-01
 -1       504 7.10443E-02
 -1       505 4.67771E-02
 -1       506 3.12041E-02
 -1       507 2.15126E-02
 -1       508 1.81271E-02
 -1       509 1.56539E-02
 -1       510 1.31628E-02
 -1       511 1.08208E-02
 -1       512 8.71795E-03
 -1       513 7.24353E-03
 -1       514 6.21689E-03
 -1       515 5.19938E-03
 -1       516 4.28877E-03
 -1       517 3.52694E-03
 -1       518 2.83822E-03
 -1       519 2.23658E-03
 -1       520 1.72488E-03
 -1       521 1.31196E-03
 -1       522 9.82900E-04
 -1       523 7.25906E-04
 -1       524 5.23536E-04
 -1       525 3.63746E-04
 -1       526 1.74229E+01
 -1       527 1.82694E+00
 -1       528 1.54325E+00
 -1       529 1.57328E+00
 -1       530 1.35682E+00
 -1       531 1.12731E+00
 -1       532 8.54174E-01
 -1       533 6.60988E-01
 -1       534 5.82914E-01
 -1       535 5.31648E-01
 -1       536 5.48902E-01
 -1       537 5.19139E-01
 -1       538 4.74798E-01
 -1       539 4.27680E-01
 -1       540 3.72219E-01
 -1       541 3.09392E-01
 -1       542 2.47420E-01
 -1       543 1.91131E-01
 -1       544 1.42838E-01
 -1       545 1.03172E-01
 -1       546 7.17477E-02
 -1       547 4.80242E-02
 -1       548 3.42280E-02
 -1       549 2.45987E-02
 -1       550 2.13879E-02
 -1       551 1.80752E-02
 -1       552 1.49105E-02
 -1       553 1.20379E-02
 -1       554 9.52675E-03
 -1       555 8.15913E-03
 -1       556 6.92978E-03
 -1       557 5.74136E-03
 -1       558 4.73037E-03
 -1       559 3.86935E-03
 -1       560 3.09791E-03
 -1       561 2.46746E-03
 -1       562 1.95960E-03
 -1       563 1.52165E-03
 -1       564 1.15351E-03
 -1       565 8.51173E-04
 -1       566 6.08943E-04
 -1       567 4.16012E-04
 -1       568 2.85424E-04
 -1       569 2.63809E-04
 -1       570 3.06118E-04
 -1       571 2.48085E-04
 -1       572 2.12978E-04
 -1       573 3.08660E-04
 -1       574 3.08660E-04
 -1       575 3.08356E-04
 -1       576 3.06271E-04
 -1       577 2.65359E-04
 -1       578 2.03784E-04
 -1       579 2.03784E-04
 -1       580 3.74340E+01
 -1       581 1.97598E+00
 -1       582 1.26805E+01
 -1       583 5.16874E+00
 -1       584 8.30250E+00
 -1       585 5.08814E+00
 -1       586 6.46555E+00
 -1       587 8.14315E+00
 -1       588 8.74258E+00
 -1       589 1.59442E+01
 -1       590 2.87966E+00
 -1       591 1.42219E+01
 -1       592 5.61147E+00
 -1       593 7.30607E+00
 -1       594 2.39572E+01
 -1       595 7.08598E+00
 -1       596 1.07023E+01
 -1       597 2.09807E+01
 -1       598 1.74721E+01
 -1       599 2.11440E+01
 -1       600 2.22640E+01
 -1       601 1.50199E+01
 -1       602 1.02436E+01
 -1       603 6.25934E+00
 -1       604 4.45437E+00
 -1       605 7.33743E+00
 -1       606 8.03519E+00
 -1       607 4.10650E+00
 -1       608 4.67973E+00
 -1       609 7.61859E+00
 -1       610 2.93399E+01
 -1       611 4.22273E+00
 -1       612 3.55916E+00
 -1       613 2.27776E-04
 -1       614 8.64365E+00
 -1       615 4.86333E+00
 -1       616 6.30548E+00
 -1       617 2.67709E+00
 -1       618 1.60943E+00
 -1       619 1.19700E+01
 -1       620 2.50875E+00
 -1       621 3.62385E+00
 -1       622 4.52577E+00
 -1       623 2.91113E+00
 -1       624 2.16936E+00
 -1       625 1.78972E+00
 -1       626 1.45112E+00
 -1       627 1.15050E+00
 -1       628 9.03343E-01
 -1       629 7.04474E-01
 -1       630 5.45245E-01
 -1       631 4.18054E-01
 -1       632 3.16916E-01
 -1       633 2.37077E-01
 -1       634 1.74654E-01
 -1       635 1.26402E-01
 -1       636 8.95846E-02
 -1       637 6.18918E-02
 -1       638 4.13903E-02
 -1       639 2.64821E-02
 -1       640 1.58638E-02
 -1       641 1.05131E-02
 -1       642 9.29382E-03
 -1       643 8.47457E-03
 -1       644 7.43654E-03
 -1       645 6.33381E-03
 -1       646 5.29477E-03
 -1       647 4.64037E-03
 -1       648 3.94661E-03
 -1       649 3.27298E-03
 -1       650 2.65388E-03
 -1       651 2.13355E-03
 -1       652 1.71624E-03
 -1       653 1.34876E-03
 -1       654 1.04912E-03
 -1       655 8.00992E-04
 -1       656 5.95900E-04
 -1       657 4.24984E-04
 -1       658 3.49820E+00
 -1       659 1.32656E+00
 -1       660 1.20991E+00
 -1       661 1.11718E+00
 -1       662 9.22494E-01
 -1       663 7.42713E-01
 -1       664 7.00167E-01
 -1       665 6.20630E-01
 -1       666 5.30567E-01
 -1       667 4.69836E-01
 -1       668 4.07074E-01
 -1       669 3.39838E-01
 -1       670 2.74959E-01
 -1       671 2.16341E-01
 -1       672 1.65805E-01
 -1       673 1.23792E-01
 -1       674 8.99112E-02
 -1       675 6.33164E-02
 -1       676 4.29620E-02
 -1       677 2.77697E-02
 -1       678 1.72489E-02
 -1       679 1.22330E-02
 -1       680 1.14249E-02
 -1       681 1.02106E-02
 -1       682 8.82398E-03
 -1       683 7.41980E-03
 -1       684 6.09393E-03
 -1       685 5.24603E-03
 -1       686 4.47715E-03
 -1       687 3.72323E-03
 -1       688 3.06767E-03
 -1       689 2.49026E-03
 -1       690 1.97694E-03
 -1       691 1.53441E-03
 -1       692 1.18752E-03
 -1       693 9.07734E-04
 -1       694 6.74841E-04
 -1       695 4.82321E-04
 -1       696 3.52987E-04
 -1       697 1.35454E+00
 -1       698 4.06643E-04
 -1       699 2.73498E-04
 -1       700 3.91355E-04
 -1       701 4.06273E-04
 -1       702 4.06643E-04
 -1       703 4.06273E-04
 -1       704 3.90349E-04
 -1       705 3.37829E-04
 -1       706 2.95561E-04
 -1       707 1.91666E+00
 -1       708 5.25367E+00
 -1       709 3.10037E+00
 -1       710 7.11535E+00
 -1       711 1.49500E+01
 -1       712 1.18045E+01
 -1       713 1.84416E+00
 -1       714 2.93354E+00
 -1       715 3.89893E+00
 -1       716 9.70048E+00
 -1       717 1.07899E+01
 -1       718 5.76079E+00
 -1       719 6.06400E+00
 -1       720 4.86392E+00
 -1       721 4.22337E+00
 -1       722 2.39104E+00
 -1       723 7.51198E+00
 -1       724 1.42816E+01
 -1       725 7.23002E+00
 -1       726 5.17421E+00
 -1       727 1.41459E+01
 -1       728 1.78931E+00
 -1       729 1.01141E+01
 -1       730 2.84492E+00
 -1       731 9.91543E+00
 -1       732 6.12806E+00
 -1       733 3.13714E-04
 -1       734 2.61446E-04
 -1       735 4.56465E+00
 -1       736 2.51301E+00
 -1       737 4.57342E+00
 -1       738 7.85415E+00
 -1       739 4.99050E+00
 -1       740 3.49820E+00
 -1       741 1.87791E+00
 -1       742 5.39778E+00
 -1       743 3.42319E+00
 -1       744 2.65453E+00
 -1       745 1.85944E+00
 -1       746 1.35766E+00
 -1       747 1.04623E+00
 -1       748 8.28967E-01
 -1       749 6.42958E-01
 -1       750 4.90047E-01
 -1       751 3.67556E-01
 -1       752 2.71230E-01
 -1       753 1.96688E-01
 -1       754 1.39832E-01
 -1       755 9.82331E-02
 -1       756 6.82043E-02
 -1       757 4.59735E-02
 -1       758 3.09594E-02
 -1       759 2.02155E-02
 -1       760 1.24749E-02
 -1       761 7.02635E-03
 -1       762 5.80689E-03
 -1       763 6.05593E-03
 -1       764 5.81475E-03
 -1       765 5.29477E-03
 -1       766 4.64037E-03
 -1       767 3.97288E-03
 -1       768 3.49379E-03
 -1       769 2.97844E-03
 -1       770 2.47354E-03
 -1       771 2.00641E-03
 -1       772 1.59108E-03
 -1       773 1.23256E-03
 -1       774 9.29755E-04
 -1       775 6.76054E-04
 -1       776 4.90888E-04
 -1       777 1.76588E+00
 -1       778 1.54315E+00
 -1       779 1.12650E+00
 -1       780 9.68325E-01
 -1       781 7.88921E-01
 -1       782 6.41503E-01
 -1       783 5.48084E-01
 -1       784 4.54353E-01
 -1       785 3.69278E-01
 -1       786 2.92758E-01
 -1       787 2.28706E-01
 -1       788 1.75590E-01
 -1       789 1.32378E-01
 -1       790 9.78559E-02
 -1       791 7.07615E-02
 -1       792 4.98693E-02
 -1       793 3.40503E-02
 -1       794 2.23081E-02
 -1       795 1.37778E-02
 -1       796 7.86649E-03
 -1       797 6.68226E-03
 -1       798 6.74046E-03
 -1       799 6.34719E-03
 -1       800 5.70326E-03
 -1       801 4.94747E-03
 -1       802 4.23230E-03
 -1       803 3.70521E-03
 -1       804 3.14643E-03
 -1       805 2.60361E-03
 -1       806 2.10443E-03
 -1       807 1.66275E-03
 -1       808 1.28332E-03
 -1       809 9.64686E-04
 -1       810 7.03280E-04
 -1       811 4.90814E-04
 -1       812 3.73075E-04
 -1       813 2.27827E+00
 -1       814 5.05940E-04
 -1       815 4.89952E-04
 -1       816 1.75528E+00
 -1       817 8.60678E+00
 -1       818 1.84416E+00
 -1       819 1.33504E+00
 -1       820 5.86746E-04
 -1       821 2.93354E+00
 -1       822 2.30463E+00
 -1       823 8.67191E+00
 -1       824 8.11900E+00
 -1       825 5.55145E+00
 -1       826 7.47087E+00
 -1       827 5.05940E-04
 -1       828 3.22390E+00
 -1       829 4.80959E-04
 -1       830 5.11375E-04
 -1       831 3.10037E+00
 -1       832 8.11900E+00
 -1       833 6.38099E+00
 -1       834 5.71631E+00
 -1       835 5.11375E-04
 -1       836 5.71631E+00
 -1       837 8.55247E-01
 -1       838 6.69792E-04
 -1       839 4.96843E+00
 -1       840 2.49296E+00
 -1       841 1.79770E+00
 -1       842 1.35766E+00
 -1       843 1.02446E+00
 -1       844 7.74795E-01
 -1       845 5.85956E-01
 -1       846 4.41789E-01
 -1       847 3.30826E-01
 -1       848 2.45329E-01
 -1       849 1.79654E-01
 -1       850 1.29453E-01
 -1       851 9.14408E-02
 -1       852 6.31126E-02
 -1       853 4.33210E-02
 -1       854 2.87299E-02
 -1       855 1.81682E-02
 -1       856 1.07717E-02
 -1       857 5.69656E-03
 -1       858 3.14344E-03
 -1       859 3.95602E-03
 -1       860 4.18890E-03
 -1       861 4.05857E-03
 -1       862 3.71801E-03
 -1       863 3.27239E-03
 -1       864 2.86886E-03
 -1       865 2.49346E-03
 -1       866 2.10431E-03
 -1       867 1.73099E-03
 -1       868 1.39030E-03
 -1       869 1.09008E-03
 -1       870 8.36295E-04
 -1       871 1.05472E+00
 -1       872 1.34533E+00
 -1       873 6.71622E-01
 -1       874 5.22001E-01
 -1       875 4.08197E-01
 -1       876 3.25753E-01
 -1       877 2.63748E-01
 -1       878 2.07852E-01
 -1       879 1.59530E-01
 -1       880 1.19227E-01
 -1       881 8.66469E-02
 -1       882 6.10633E-02
 -1       883 4.25603E-02
 -1       884 2.85320E-02
 -1       885 1.81578E-02
 -1       886 1.07413E-02
 -1       887 5.61034E-03
 -1       888 3.61313E-03
 -1       889 4.37144E-03
 -1       890 4.55242E-03
 -1       891 4.37045E-03
 -1       892 3.97944E-03
 -1       893 3.48627E-03
 -1       894 3.07347E-03
 -1       895 2.66895E-03
 -1       896 2.25044E-03
 -1       897 1.84953E-03
 -1       898 1.48397E-03
 -1       899 1.16270E-03
 -1       900 8.86664E-04
 -1       901 7.73283E-04
 -1       902 4.48688E-04
 -1       903 2.77279E+00
 -1       904 4.17551E+00
 -1       905 6.56594E+00
 -1       906 1.75528E+00
 -1       907 9.00384E-04
 -1       908 3.87071E+00
 -1       909 7.73283E-04
 -1       910 1.92864E+00
 -1       911 5.80849E-04
 -1       912 5.31602E+00
 -1       913 1.75599E+00
 -1       914 5.59144E-04
 -1       915 6.97468E-04
 -1       916 4.59166E+00
 -1       917 6.34733E-01
 -1       918 2.42589E+00
 -1       919 1.65443E+00
 -1       920 1.16384E+00
 -1       921 8.45263E-01
 -1       922 6.27052E-01
 -1       923 4.71303E-01
 -1       924 3.55420E-01
 -1       925 2.67236E-01
 -1       926 1.99574E-01
 -1       927 1.47240E-01
 -1       928 1.06994E-01
 -1       929 7.62650E-02
 -1       930 5.30681E-02
 -1       931 3.61312E-02
 -1       932 2.43655E-02
 -1       933 1.57175E-02
 -1       934 9.51691E-03
 -1       935 5.16617E-03
 -1       936 2.74671E-03
 -1       937 2.60411E-03
 -1       938 3.03721E-03
 -1       939 3.10179E-03
 -1       940 2.94027E-03
 -1       941 2.65265E-03
 -1       942 2.30709E-03
 -1       943 2.01785E-03
 -1       944 1.71433E-03
 -1       945 1.41807E-03
 -1       946 1.14413E-03
 -1       947 9.00384E-04
 -1       948 1.16133E+00
 -1       949 1.60787E+00
 -1       950 5.00237E-01
 -1       951 4.08197E-01
 -1       952 3.25753E-01
 -1       953 2.55131E-01
 -1       954 1.96492E-01
 -1       955 1.48385E-01
 -1       956 1.09823E-01
 -1       957 7.94319E-02
 -1       958 5.59801E-02
 -1       959 3.83197E-02
 -1       960 2.59898E-02
 -1       961 1.68459E-02
 -1       962 1.02401E-02
 -1       963 5.58009E-03
 -1       964 3.20086E-03
 -1       965 2.86522E-03
 -1       966 3.30558E-03
 -1       967 3.35980E-03
 -1       968 3.17637E-03
 -1       969 2.86046E-03
 -1       970 2.49830E-03
 -1       971 2.19447E-03
 -1       972 1.86794E-03
 -1       973 1.54780E-03
 -1       974 1.25062E-03
 -1       975 9.89527E-04
 -1       976 7.92155E-04
 -1       977 4.54264E+00
 -1       978 8.30017E-01
 -1       979 5.31602E+00
 -1       980 7.65552E-04
 -1       981 2.12960E+00
 -1       982 6.12202E-04
 -1       983 3.71565E+00
 -1       984 3.11676E+00
 -1       985 9.02306E-04
 -1       986 2.32573E+00
 -1       987 1.66916E+00
 -1       988 2.42785E+00
 -1       989 1.56322E+00
 -1       990 1.07137E+00
 -1       991 7.63059E-01
 -1       992 5.61516E-01
 -1       993 4.19804E-01
 -1       994 3.13731E-01
 -1       995 2.37431E-01
 -1       996 1.78420E-01
 -1       997 1.32924E-01
 -1       998 9.84863E-02
 -1       999 7.20651E-02
 -1      1000 5.15656E-02
 -1      1001 3.63516E-02
 -1      1002 2.53215E-02
 -1      1003 1.75404E-02
 -1      1004 1.18802E-02
 -1      1005 7.65102E-03
 -1      1006 4.63143E-03
 -1      1007 2.52333E-03
 -1      1008 1.72527E-03
 -1      1009 2.10182E-03
 -1      1010 2.19298E-03
 -1      1011 2.10613E-03
 -1      1012 1.91727E-03
 -1      1013 1.67871E-03
 -1      1014 1.42517E-03
 -1      1015 1.17798E-03
 -1      1016 9.49950E-04
 -1      1017 9.02306E-04
 -1      1018 3.81614E-01
 -1      1019 2.92362E-01
 -1      1020 2.23273E-01
 -1      1021 1.67704E-01
 -1      1022 1.24459E-01
 -1      1023 9.09819E-02
 -1      1024 6.47683E-02
 -1      1025 4.56046E-02
 -1      1026 3.08327E-02
 -1      1027 2.08943E-02
 -1      1028 1.36513E-02
 -1      1029 8.68031E-03
 -1      1030 5.48483E-03
 -1      1031 3.20086E-03
 -1      1032 1.96386E-03
 -1      1033 2.44791E-03
 -1      1034 2.58327E-03
 -1      1035 2.49887E-03
 -1      1036 2.28672E-03
 -1      1037 2.01057E-03
 -1      1038 1.72538E-03
 -1      1039 1.47178E-03
 -1      1040 1.22182E-03
 -1      1041 1.06724E-03
 -1      1042 1.10305E-03
 -1      1043 8.17343E-01
 -1      1044 1.06209E+00
 -1      1045 4.95278E-01
 -1      1046 6.34733E-01
 -1      1047 2.37902E+00
 -1      1048 1.10305E-03
 -1      1049 3.18024E+00
 -1      1050 2.01545E+00
 -1      1051 2.09105E+00
 -1      1052 1.53780E+00
 -1      1053 8.64292E-01
 -1      1054 7.01795E-01
 -1      1055 5.99567E-01
 -1      1056 3.94878E-01
 -1      1057 2.80295E-01
 -1      1058 2.09944E-01
 -1      1059 1.58688E-01
 -1      1060 1.19030E-01
 -1      1061 8.70869E-02
 -1      1062 6.44757E-02
 -1      1063 6.87770E-02
 -1      1064 3.43873E-02
 -1      1065 2.34596E-02
 -1      1066 1.57616E-02
 -1      1067 1.04131E-02
 -1      1068 6.58082E-03
 -1      1069 3.84954E-03
 -1      1070 1.96551E-03
 -1      1071 1.24933E-03
 -1      1072 1.50022E-03
 -1      1073 1.59300E-03
 -1      1074 1.57615E-03
 -1      1075 1.47931E-03
 -1      1076 1.37055E-03
 -1      1077 1.21841E-03
 -1      1078 1.04050E-03
 -1      1079 9.41386E-04
 -1      1080 2.71516E-01
 -1      1081 3.94878E-01
 -1      1082 1.47758E-01
 -1      1083 1.04225E-01
 -1      1084 8.55779E-02
 -1      1085 6.33898E-02
 -1      1086 3.67938E-02
 -1      1087 3.28783E-02
 -1      1088 1.92239E-02
 -1      1089 1.28758E-02
 -1      1090 8.40946E-03
 -1      1091 5.18353E-03
 -1      1092 2.90297E-03
 -1      1093 1.44886E-03
 -1      1094 1.83668E-03
 -1      1095 1.96099E-03
 -1      1096 1.91023E-03
 -1      1097 1.75670E-03
 -1      1098 1.55060E-03
 -1      1099 1.32677E-03
 -1      1100 1.10983E-03
 -1      1101 1.10305E-03
 -1      1102 1.66916E+00
 -1      1103 8.79183E-01
 -1      1104 1.06209E+00
 -1      1105 4.16325E-01
 -1      1106 2.02447E-01
 -1      1107 5.89552E-01
 -1      1108 9.42407E-04
 -1      1109 2.22597E+00
 -1      1110 8.55779E-02
 -1      1111 8.79183E-01
 -1      1112 1.53780E+00
 -1      1113 5.99567E-01
 -1      1114 6.87770E-02
 -1      1115 1.28153E+01
 -1      1116 8.98503E+00
 -1      1117 4.72784E+00
 -1      1118 4.70524E+00
 -1      1119 5.42965E+00
 -1      1120 5.74972E+00
 -1      1121 5.30203E+00
 -1      1122 4.81403E+00
 -1      1123 4.77372E+00
 -1      1124 4.72249E+00
 -1      1125 4.16389E+00
 -1      1126 3.22329E+00
 -1      1127 2.64172E+00
 -1      1128 2.44585E+00
 -1      1129 3.16250E+00
 -1      1130 6.48012E+00
 -1      1131 1.14767E+01
 -1      1132 1.28153E+01
 -1      1133 7.55974E+00
 -1      1134 2.19378E+00
 -1      1135 2.52134E+00
 -1      1136 3.88959E+00
 -1      1137 5.16058E+00
 -1      1138 5.50130E+00
 -1      1139 5.37639E+00
 -1      1140 4.67731E+00
 -1      1141 3.11427E+00
 -1      1142 1.89866E+00
 -1      1143 1.69449E+00
 -1      1144 1.71706E+00
 -1      1145 1.69505E+00
 -1      1146 1.54645E+00
 -1      1147 1.27055E+00
 -1      1148 1.00282E+00
 -1      1149 7.81587E-01
 -1      1150 6.22498E-01
 -1      1151 5.10647E-01
 -1      1152 4.05131E-01
 -1      1153 3.12884E-01
 -1      1154 2.36075E-01
 -1      1155 1.74277E-01
 -1      1156 1.28468E-01
 -1      1157 1.00185E-01
 -1      1158 8.16399E-02
 -1      1159 6.52960E-02
 -1      1160 5.13251E-02
 -1      1161 3.96690E-02
 -1      1162 3.01420E-02
 -1      1163 2.29224E-02
 -1      1164 1.81926E-02
 -1      1165 1.48342E-02
 -1      1166 1.18671E-02
 -1      1167 9.32386E-03
 -1      1168 7.25148E-03
 -1      1169 5.62867E-03
 -1      1170 4.32493E-03
 -1      1171 3.26107E-03
 -1      1172 2.40849E-03
 -1      1173 1.84138E-03
 -1      1174 1.49172E-03
 -1      1175 1.19504E-03
 -1      1176 9.42738E-04
 -1      1177 7.28828E-04
 -1      1178 5.70318E-04
 -1      1179 4.70147E-04
 -1      1180 3.41762E-04
 -1      1181 1.59426E-04
 -1      1182 1.39199E+01
 -1      1183 8.54137E+00
 -1      1184 2.63550E+00
 -1      1185 2.18930E+00
 -1      1186 2.47245E+00
 -1      1187 2.73914E+00
 -1      1188 2.88126E+00
 -1      1189 2.95869E+00
 -1      1190 2.87390E+00
 -1      1191 2.43958E+00
 -1      1192 1.68017E+00
 -1      1193 1.04699E+00
 -1      1194 7.27004E-01
 -1      1195 6.86744E-01
 -1      1196 7.46712E-01
 -1      1197 7.50257E-01
 -1      1198 7.13995E-01
 -1      1199 6.24220E-01
 -1      1200 5.23042E-01
 -1      1201 4.25997E-01
 -1      1202 3.30966E-01
 -1      1203 2.53162E-01
 -1      1204 1.97377E-01
 -1      1205 1.53053E-01
 -1      1206 1.15077E-01
 -1      1207 8.38847E-02
 -1      1208 5.91344E-02
 -1      1209 4.36120E-02
 -1      1210 3.56661E-02
 -1      1211 2.93630E-02
 -1      1212 2.36290E-02
 -1      1213 1.88041E-02
 -1      1214 1.56919E-02
 -1      1215 1.36402E-02
 -1      1216 1.15220E-02
 -1      1217 9.50191E-03
 -1      1218 7.68220E-03
 -1      1219 6.17174E-03
 -1      1220 4.93530E-03
 -1      1221 3.87283E-03
 -1      1222 2.98295E-03
 -1      1223 2.25312E-03
 -1      1224 1.66474E-03
 -1      1225 1.22784E-03
 -1      1226 9.37986E-04
 -1      1227 7.25931E-04
 -1      1228 5.40769E-04
 -1      1229 3.80365E-04
 -1      1230 2.53004E-04
 -1      1231 1.28463E-04
 -1      1232 7.05781E-05
 -1      1233 8.28076E-05
 -1      1234 8.05121E-05
 -1      1235 6.19302E-05
 -1      1236 4.01763E-05
 -1      1237 4.85496E-05
 -1      1238 7.08794E-05
 -1      1239 8.18889E-05
 -1      1240 8.44093E-05
 -1      1241 8.17915E-05
 -1      1242 7.03312E-05
 -1      1243 4.81118E-05
 -1      1244 4.07037E-05
 -1      1245 6.22091E-05
 -1      1246 9.39868E-05
 -1      1247 1.13014E-04
 -1      1248 9.06036E-05
 -1      1249 2.60783E+01
 -1      1250 3.48120E+01
 -1      1251 4.35456E+01
 -1      1252 3.00431E+01
 -1      1253 1.43736E+01
 -1      1254 1.22356E+01
 -1      1255 1.22645E+01
 -1      1256 1.22222E+01
 -1      1257 1.21799E+01
 -1      1258 1.32662E+01
 -1      1259 2.46396E+01
 -1      1260 3.49267E+01
 -1      1261 3.29589E+01
 -1      1262 3.11952E+01
 -1      1263 3.13993E+01
 -1      1264 3.97187E+01
 -1      1265 4.80382E+01
 -1      1266 3.51143E+01
 -1      1267 1.74132E+01
 -1      1268 1.26359E+01
 -1      1269 1.24494E+01
 -1      1270 1.24571E+01
 -1      1271 1.26513E+01
 -1      1272 1.20428E+01
 -1      1273 1.67255E+01
 -1      1274 3.48489E+01
 -1      1275 4.76810E+01
 -1      1276 3.67502E+01
 -1      1277 2.59488E+01
 -1      1278 1.28153E+01
 -1      1279 6.41016E+00
 -1      1280 1.02404E+01
 -1      1281 4.29444E+00
 -1      1282 4.72139E+00
 -1      1283 5.97675E+00
 -1      1284 4.83458E+00
 -1      1285 4.43022E+00
 -1      1286 4.42377E+00
 -1      1287 5.85274E+00
 -1      1288 5.53268E+00
 -1      1289 5.25766E+00
 -1      1290 6.36465E+00
 -1      1291 6.36465E+00
 -1      1292 6.46767E+00
 -1      1293 5.91696E+00
 -1      1294 6.36465E+00
 -1      1295 6.97958E+00
 -1      1296 5.36550E+00
 -1      1297 5.40581E+00
 -1      1298 6.46843E+00
 -1      1299 5.32002E+00
 -1      1300 5.32002E+00
 -1      1301 5.91180E+00
 -1      1302 5.26879E+00
 -1      1303 5.32002E+00
 -1      1304 5.86633E+00
 -1      1305 4.13114E+00
 -1      1306 4.63850E+00
 -1      1307 5.23603E+00
 -1      1308 3.00480E+00
 -1      1309 3.43805E+00
 -1      1310 3.91265E+00
 -1      1311 2.61818E+00
 -1      1312 2.76651E+00
 -1      1313 2.98126E+00
 -1      1314 2.44585E+00
 -1      1315 2.49339E+00
 -1      1316 2.61818E+00
 -1      1317 3.35833E+00
 -1      1318 2.59413E+00
 -1      1319 2.64167E+00
 -1      1320 6.68108E+00
 -1      1321 4.12766E+00
 -1      1322 3.55929E+00
 -1      1323 1.39199E+01
 -1      1324 1.14767E+01
 -1      1325 9.12425E+00
 -1      1326 1.39199E+01
 -1      1327 8.36618E+00
 -1      1328 3.11064E+00
 -1      1329 2.26502E+00
 -1      1330 2.15460E+00
 -1      1331 3.07146E+00
 -1      1332 2.08337E+00
 -1      1333 2.52134E+00
 -1      1334 2.15460E+00
 -1      1335 3.00769E+00
 -1      1336 3.93796E+00
 -1      1337 2.56972E+00
 -1      1338 4.81986E+00
 -1      1339 5.16058E+00
 -1      1340 3.93796E+00
 -1      1341 5.50130E+00
 -1      1342 5.50130E+00
 -1      1343 5.16058E+00
 -1      1344 5.37639E+00
 -1      1345 5.25147E+00
 -1      1346 5.37639E+00
 -1      1347 4.67731E+00
 -1      1348 4.10316E+00
 -1      1349 4.67731E+00
 -1      1350 3.23872E+00
 -1      1351 2.24984E+00
 -1      1352 3.23872E+00
 -1      1353 1.77769E+00
 -1      1354 1.55096E+00
 -1      1355 1.90214E+00
 -1      1356 1.67192E+00
 -1      1357 1.69449E+00
 -1      1358 1.55096E+00
 -1      1359 1.71706E+00
 -1      1360 1.71706E+00
 -1      1361 1.69449E+00
 -1      1362 1.69505E+00
 -1      1363 1.67304E+00
 -1      1364 1.69505E+00
 -1      1365 1.54645E+00
 -1      1366 1.41987E+00
 -1      1367 1.54645E+00
 -1      1368 1.30064E+00
 -1      1369 1.15132E+00
 -1      1370 1.30064E+00
 -1      1371 1.07253E+00
 -1      1372 9.54120E-01
 -1      1373 1.10262E+00
 -1      1374 8.65430E-01
 -1      1375 7.62605E-01
 -1      1376 9.35137E-01
 -1      1377 6.72170E-01
 -1      1378 6.15907E-01
 -1      1379 7.56013E-01
 -1      1380 5.34494E-01
 -1      1381 4.78906E-01
 -1      1382 5.84166E-01
 -1      1383 4.10882E-01
 -1      1384 3.60954E-01
 -1      1385 4.34729E-01
 -1      1386 3.14776E-01
 -1      1387 2.72457E-01
 -1      1388 3.20528E-01
 -1      1389 2.40729E-01
 -1      1390 2.06240E-01
 -1      1391 2.42622E-01
 -1      1392 1.80227E-01
 -1      1393 1.52918E-01
 -1      1394 1.84881E-01
 -1      1395 1.32153E-01
 -1      1396 1.13654E-01
 -1      1397 1.38104E-01
 -1      1398 1.00185E-01
 -1      1399 9.04019E-02
 -1      1400 1.03871E-01
 -1      1401 8.16399E-02
 -1      1402 7.28779E-02
 -1      1403 8.16399E-02
 -1      1404 6.52960E-02
 -1      1405 5.77141E-02
 -1      1406 6.52960E-02
 -1      1407 5.13251E-02
 -1      1408 4.49361E-02
 -1      1409 5.13251E-02
 -1      1410 3.96690E-02
 -1      1411 3.44019E-02
 -1      1412 3.96690E-02
 -1      1413 3.03905E-02
 -1      1414 2.61307E-02
 -1      1415 3.03905E-02
 -1      1416 2.31915E-02
 -1      1417 2.02317E-02
 -1      1418 2.34399E-02
 -1      1419 1.81926E-02
 -1      1420 1.64227E-02
 -1      1421 1.84617E-02
 -1      1422 1.48342E-02
 -1      1423 1.32457E-02
 -1      1424 1.48342E-02
 -1      1425 1.18671E-02
 -1      1426 1.04886E-02
 -1      1427 1.18671E-02
 -1      1428 9.46183E-03
 -1      1429 8.29711E-03
 -1      1430 9.46183E-03
 -1      1431 7.42651E-03
 -1      1432 6.51885E-03
 -1      1433 7.56448E-03
 -1      1434 5.87475E-03
 -1      1435 5.15960E-03
 -1      1436 6.04978E-03
 -1      1437 4.61842E-03
 -1      1438 4.02983E-03
 -1      1439 4.86451E-03
 -1      1440 3.56411E-03
 -1      1441 3.08885E-03
 -1      1442 3.85761E-03
 -1      1443 2.69778E-03
 -1      1444 2.32046E-03
 -1      1445 3.00081E-03
 -1      1446 1.99870E-03
 -1      1447 1.80891E-03
 -1      1448 2.28798E-03
 -1      1449 1.54875E-03
 -1      1450 1.38888E-03
 -1      1451 1.70607E-03
 -1      1452 1.19504E-03
 -1      1453 1.05824E-03
 -1      1454 1.25208E-03
 -1      1455 9.42738E-04
 -1      1456 8.27232E-04
 -1      1457 9.42738E-04
 -1      1458 7.28828E-04
 -1      1459 6.30423E-04
 -1      1460 7.28828E-04
 -1      1461 5.70318E-04
 -1      1462 5.10214E-04
 -1      1463 5.70318E-04
 -1      1464 4.70147E-04
 -1      1465 4.30080E-04
 -1      1466 4.70147E-04
 -1      1467 3.41762E-04
 -1      1468 2.53444E-04
 -1      1469 3.41762E-04
 -1      1470 1.84622E-04
 -1      1471 1.84622E-04
 -1      1472 3.16285E+00
 -1      1473 8.54137E+00
 -1      1474 8.54137E+00
 -1      1475 2.21759E+00
 -1      1476 2.74495E+00
 -1      1477 2.74495E+00
 -1      1478 2.12037E+00
 -1      1479 2.03921E+00
 -1      1480 2.14867E+00
 -1      1481 2.47245E+00
 -1      1482 2.27046E+00
 -1      1483 2.12037E+00
 -1      1484 2.73914E+00
 -1      1485 2.67444E+00
 -1      1486 2.47245E+00
 -1      1487 2.88126E+00
 -1      1488 2.80384E+00
 -1      1489 2.73914E+00
 -1      1490 2.95869E+00
 -1      1491 2.95869E+00
 -1      1492 2.88126E+00
 -1      1493 2.78912E+00
 -1      1494 2.87390E+00
 -1      1495 2.87390E+00
 -1      1496 2.09005E+00
 -1      1497 2.43958E+00
 -1      1498 2.43958E+00
 -1      1499 1.27029E+00
 -1      1500 1.68017E+00
 -1      1501 1.68017E+00
 -1      1502 8.23688E-01
 -1      1503 1.04699E+00
 -1      1504 1.04699E+00
 -1      1505 6.13838E-01
 -1      1506 7.10522E-01
 -1      1507 7.10522E-01
 -1      1508 6.86744E-01
 -1      1509 6.30320E-01
 -1      1510 6.13838E-01
 -1      1511 7.46712E-01
 -1      1512 7.43167E-01
 -1      1513 6.86744E-01
 -1      1514 7.50257E-01
 -1      1515 7.50257E-01
 -1      1516 7.46712E-01
 -1      1517 6.77734E-01
 -1      1518 7.13995E-01
 -1      1519 7.13995E-01
 -1      1520 5.70706E-01
 -1      1521 6.24220E-01
 -1      1522 6.24220E-01
 -1      1523 4.76650E-01
 -1      1524 5.24315E-01
 -1      1525 5.24315E-01
 -1      1526 3.84077E-01
 -1      1527 4.33458E-01
 -1      1528 4.34731E-01
 -1      1529 2.96026E-01
 -1      1530 3.41676E-01
 -1      1531 3.49137E-01
 -1      1532 2.25814E-01
 -1      1533 2.57967E-01
 -1      1534 2.68678E-01
 -1      1535 1.73745E-01
 -1      1536 1.97377E-01
 -1      1537 2.02182E-01
 -1      1538 1.32361E-01
 -1      1539 1.53053E-01
 -1      1540 1.53053E-01
 -1      1541 9.77932E-02
 -1      1542 1.15077E-01
 -1      1543 1.15077E-01
 -1      1544 7.08754E-02
 -1      1545 8.47839E-02
 -1      1546 8.47839E-02
 -1      1547 4.97694E-02
 -1      1548 6.06112E-02
 -1      1549 6.15104E-02
 -1      1550 3.89313E-02
 -1      1551 4.36120E-02
 -1      1552 4.50887E-02
 -1      1553 3.24009E-02
 -1      1554 3.56661E-02
 -1      1555 3.56661E-02
 -1      1556 2.63250E-02
 -1      1557 2.93630E-02
 -1      1558 2.93630E-02
 -1      1559 2.09331E-02
 -1      1560 2.36290E-02
 -1      1561 2.36290E-02
 -1      1562 1.66752E-02
 -1      1563 1.88041E-02
 -1      1564 1.88041E-02
 -1      1565 1.47086E-02
 -1      1566 1.56919E-02
 -1      1567 1.56919E-02
 -1      1568 1.25718E-02
 -1      1569 1.36402E-02
 -1      1570 1.36402E-02
 -1      1571 1.04722E-02
 -1      1572 1.15220E-02
 -1      1573 1.15220E-02
 -1      1574 8.53166E-03
 -1      1575 9.50191E-03
 -1      1576 9.50191E-03
 -1      1577 6.83275E-03
 -1      1578 7.68220E-03
 -1      1579 7.68220E-03
 -1      1580 5.51074E-03
 -1      1581 6.17174E-03
 -1      1582 6.17174E-03
 -1      1583 4.35986E-03
 -1      1584 4.93530E-03
 -1      1585 4.93530E-03
 -1      1586 3.41476E-03
 -1      1587 3.90179E-03
 -1      1588 3.90179E-03
 -1      1589 2.62720E-03
 -1      1590 3.03005E-03
 -1      1591 3.05902E-03
 -1      1592 1.98097E-03
 -1      1593 2.30794E-03
 -1      1594 2.35505E-03
 -1      1595 1.45940E-03
 -1      1596 1.72081E-03
 -1      1597 1.77562E-03
 -1      1598 1.07496E-03
 -1      1599 1.25045E-03
 -1      1600 1.30652E-03
 -1      1601 8.23624E-04
 -1      1602 9.37986E-04
 -1      1603 9.60601E-04
 -1      1604 6.28239E-04
 -1      1605 7.25931E-04
 -1      1606 7.25931E-04
 -1      1607 4.53299E-04
 -1      1608 5.40769E-04
 -1      1609 5.40769E-04
 -1      1610 3.07430E-04
 -1      1611 3.80365E-04
 -1      1612 3.80365E-04
 -1      1613 1.98578E-04
 -1      1614 2.53004E-04
 -1      1615 2.53004E-04
 -1      1616 1.40693E-04
 -1      1617 1.02450E-04
 -1      1618 1.02450E-04
 -1      1619 1.01906E-04
 -1      1620 1.04201E-04
 -1      1621 1.23844E-04
 -1      1622 8.56195E-05
 -1      1623 1.01906E-04
 -1      1624 1.25595E-04
 -1      1625 4.82616E-05
 -1      1626 5.37292E-05
 -1      1627 9.37049E-05
 -1      1628 8.82545E-05
 -1      1629 7.44137E-05
 -1      1630 8.79666E-05
 -1      1631 1.14205E-04
 -1      1632 1.05716E-04
 -1      1633 1.31580E-04
 -1      1634 1.23885E-04
 -1      1635 1.21365E-04
 -1      1636 1.56201E-04
 -1      1637 1.23885E-04
 -1      1638 1.23885E-04
 -1      1639 1.63361E-04
 -1      1640 1.21242E-04
 -1      1641 1.23860E-04
 -1      1642 1.63336E-04
 -1      1643 1.04807E-04
 -1      1644 1.13650E-04
 -1      1645 1.55718E-04
 -1      1646 7.45890E-05
 -1      1647 8.79659E-05
 -1      1648 1.31284E-04
 -1      1649 5.47859E-05
 -1      1650 4.88172E-05
 -1      1651 8.86712E-05
 -1      1652 1.02343E-04
 -1      1653 8.68067E-05
 -1      1654 9.49202E-05
 -1      1655 1.18584E-04
 -1      1656 1.02343E-04
 -1      1657 1.26941E-04
 -1      1658 1.36207E-04
 -1      1659 1.33421E-04
 -1      1660 1.41777E-04
 -1      1661 2.05029E-04
 -1      1662 2.91554E+01
 -1      1663 2.91554E+01
 -1      1664 4.10800E+01
 -1      1665 3.23463E+01
 -1      1666 4.35456E+01
 -1      1667 4.35456E+01
 -1      1668 1.65406E+01
 -1      1669 3.00431E+01
 -1      1670 1.15806E+01
 -1      1671 1.37475E+01
 -1      1672 1.22356E+01
 -1      1673 1.22067E+01
 -1      1674 1.22645E+01
 -1      1675 1.22645E+01
 -1      1676 1.18821E+01
 -1      1677 1.19244E+01
 -1      1678 1.21799E+01
 -1      1679 1.21799E+01
 -1      1680 1.27682E+01
 -1      1681 1.16819E+01
 -1      1682 2.46396E+01
 -1      1683 1.43525E+01
 -1      1684 3.49267E+01
 -1      1685 3.49267E+01
 -1      1686 3.36080E+01
 -1      1687 3.55758E+01
 -1      1688 3.65525E+01
 -1      1689 3.63484E+01
 -1      1690 3.74998E+01
 -1      1691 3.74998E+01
 -1      1692 4.39683E+01
 -1      1693 3.56488E+01
 -1      1694 4.80382E+01
 -1      1695 4.80382E+01
 -1      1696 2.21905E+01
 -1      1697 3.51143E+01
 -1      1698 1.21013E+01
 -1      1699 1.68786E+01
 -1      1700 1.26359E+01
 -1      1701 1.26359E+01
 -1      1702 1.22629E+01
 -1      1703 1.24494E+01
 -1      1704 1.22278E+01
 -1      1705 1.20336E+01
 -1      1706 1.26513E+01
 -1      1707 1.26513E+01
 -1      1708 1.14060E+01
 -1      1709 1.20146E+01
 -1      1710 1.67255E+01
 -1      1711 1.14342E+01
 -1      1712 3.53902E+01
 -1      1713 2.25581E+01
 -1      1714 4.76810E+01
 -1      1715 4.76810E+01
 -1      1716 2.76391E+01
 -1      1717 3.85700E+01
 -1      1718 2.91554E+01
 -1      1719 2.90259E+01
 -1      1720 1.37475E+01
 -1      1721 3.00431E+01
 -1      1722 1.40693E-04
 -1      1723 1.60335E-04
 -1      1724 3.54234E+01
 -1      1725 4.10800E+01
 -1      1726 3.22325E+01
 -1      1727 1.15806E+01
 -1      1728 1.22356E+01
 -1      1729 1.19244E+01
 -1      1730 1.18821E+01
 -1      1731 1.16819E+01
 -1      1732 1.27682E+01
 -1      1733 2.46396E+01
 -1      1734 3.55758E+01
 -1      1735 3.89653E+01
 -1      1736 4.26530E+01
 -1      1737 4.17493E+01
 -1      1738 4.39683E+01
 -1      1739 3.51143E+01
 -1      1740 1.68786E+01
 -1      1741 1.21013E+01
 -1      1742 1.24494E+01
 -1      1743 1.20336E+01
 -1      1744 1.22278E+01
 -1      1745 1.20146E+01
 -1      1746 1.14060E+01
 -1      1747 1.72668E+01
 -1      1748 3.53902E+01
 -1      1749 3.85700E+01
 -1      1750 3.08457E+01
 -1      1751 1.02404E+01
 -1      1752 4.17473E+00
 -1      1753 4.03894E+00
 -1      1754 4.10253E+00
 -1      1755 5.79130E+00
 -1      1756 3.85349E+00
 -1      1757 7.46075E+00
 -1      1758 6.94885E+00
 -1      1759 7.68494E+00
 -1      1760 7.68494E+00
 -1      1761 8.16612E+00
 -1      1762 7.49864E+00
 -1      1763 8.00979E+00
 -1      1764 8.71515E+00
 -1      1765 7.45316E+00
 -1      1766 7.49864E+00
 -1      1767 9.04000E+00
 -1      1768 6.64087E+00
 -1      1769 6.64087E+00
 -1      1770 8.22771E+00
 -1      1771 5.59822E+00
 -1      1772 6.22852E+00
 -1      1773 7.00306E+00
 -1      1774 3.88786E+00
 -1      1775 4.58095E+00
 -1      1776 5.57343E+00
 -1      1777 2.89554E+00
 -1      1778 3.13384E+00
 -1      1779 3.80213E+00
 -1      1780 2.18197E+00
 -1      1781 2.30675E+00
 -1      1782 2.45933E+00
 -1      1783 2.17771E+00
 -1      1784 2.02943E+00
 -1      1785 1.71800E+00
 -1      1786 2.93717E+00
 -1      1787 2.16784E+00
 -1      1788 1.55559E+00
 -1      1789 8.09349E+00
 -1      1790 3.29785E+00
 -1      1791 1.90641E+00
 -1      1792 2.71497E+00
 -1      1793 5.79130E+00
 -1      1794 2.32704E+00
 -1      1795 2.74495E+00
 -1      1796 2.29707E+00
 -1      1797 3.91708E+00
 -1      1798 1.97654E+00
 -1      1799 1.90531E+00
 -1      1800 2.00550E+00
 -1      1801 2.49185E+00
 -1      1802 1.82744E+00
 -1      1803 2.89201E+00
 -1      1804 3.77391E+00
 -1      1805 2.32779E+00
 -1      1806 4.03227E+00
 -1      1807 4.37299E+00
 -1      1808 2.98631E+00
 -1      1809 4.38602E+00
 -1      1810 4.26110E+00
 -1      1811 3.25770E+00
 -1      1812 4.06058E+00
 -1      1813 3.48642E+00
 -1      1814 3.07021E+00
 -1      1815 3.12322E+00
 -1      1816 2.25878E+00
 -1      1817 2.50649E+00
 -1      1818 2.04116E+00
 -1      1819 1.56901E+00
 -1      1820 1.92566E+00
 -1      1821 1.49175E+00
 -1      1822 1.61271E+00
 -1      1823 1.63077E+00
 -1      1824 1.53125E+00
 -1      1825 1.55382E+00
 -1      1826 1.47204E+00
 -1      1827 1.56829E+00
 -1      1828 1.54627E+00
 -1      1829 1.40504E+00
 -1      1830 1.49770E+00
 -1      1831 1.37112E+00
 -1      1832 1.37094E+00
 -1      1833 1.30910E+00
 -1      1834 1.18987E+00
 -1      1835 1.26035E+00
 -1      1836 1.13560E+00
 -1      1837 1.05681E+00
 -1      1838 1.14407E+00
 -1      1839 9.82750E-01
 -1      1840 8.94060E-01
 -1      1841 1.01573E+00
 -1      1842 8.09591E-01
 -1      1843 7.19156E-01
 -1      1844 8.57203E-01
 -1      1845 6.37603E-01
 -1      1846 5.56190E-01
 -1      1847 6.91181E-01
 -1      1848 4.84314E-01
 -1      1849 4.16291E-01
 -1      1850 5.37752E-01
 -1      1851 3.56505E-01
 -1      1852 3.10327E-01
 -1      1853 4.06090E-01
 -1      1854 2.62567E-01
 -1      1855 2.30839E-01
 -1      1856 2.98544E-01
 -1      1857 1.93835E-01
 -1      1858 1.67823E-01
 -1      1859 2.13781E-01
 -1      1860 1.39867E-01
 -1      1861 1.19103E-01
 -1      1862 1.48822E-01
 -1      1863 1.01117E-01
 -1      1864 8.76481E-02
 -1      1865 1.02880E-01
 -1      1866 7.55892E-02
 -1      1867 6.68271E-02
 -1      1868 7.28353E-02
 -1      1869 5.84615E-02
 -1      1870 5.08796E-02
 -1      1871 5.24107E-02
 -1      1872 4.70774E-02
 -1      1873 4.06884E-02
 -1      1874 4.02429E-02
 -1      1875 3.73339E-02
 -1      1876 3.20668E-02
 -1      1877 3.30862E-02
 -1      1878 2.91026E-02
 -1      1879 2.50912E-02
 -1      1880 2.67675E-02
 -1      1881 2.25497E-02
 -1      1882 1.96106E-02
 -1      1883 2.12618E-02
 -1      1884 1.74845E-02
 -1      1885 1.54454E-02
 -1      1886 1.65943E-02
 -1      1887 1.40609E-02
 -1      1888 1.24724E-02
 -1      1889 1.30836E-02
 -1      1890 1.15600E-02
 -1      1891 1.01814E-02
 -1      1892 1.07866E-02
 -1      1893 9.31640E-03
 -1      1894 8.28965E-03
 -1      1895 9.00921E-03
 -1      1896 7.53021E-03
 -1      1897 6.65960E-03
 -1      1898 7.38477E-03
 -1      1899 6.05782E-03
 -1      1900 5.41372E-03
 -1      1901 6.02354E-03
 -1      1902 4.88421E-03
 -1      1903 4.34304E-03
 -1      1904 4.89225E-03
 -1      1905 3.91176E-03
 -1      1906 3.44604E-03
 -1      1907 3.93147E-03
 -1      1908 3.10001E-03
 -1      1909 2.70894E-03
 -1      1910 3.15416E-03
 -1      1911 2.40811E-03
 -1      1912 2.08635E-03
 -1      1913 2.50731E-03
 -1      1914 1.83151E-03
 -1      1915 1.57135E-03
 -1      1916 1.95164E-03
 -1      1917 1.36012E-03
 -1      1918 1.16629E-03
 -1      1919 1.48556E-03
 -1      1920 9.94710E-04
 -1      1921 8.79203E-04
 -1      1922 1.10275E-03
 -1      1923 7.42852E-04
 -1      1924 6.44448E-04
 -1      1925 7.94823E-04
 -1      1926 5.54612E-04
 -1      1927 4.94508E-04
 -1      1928 5.68637E-04
 -1      1929 4.26908E-04
 -1      1930 3.86841E-04
 -1      1931 4.11202E-04
 -1      1932 3.28928E-04
 -1      1933 2.40610E-04
 -1      1934 1.92195E-04
 -1      1935 2.85689E-04
 -1      1936 1.93968E+00
 -1      1937 2.11806E+00
 -1      1938 2.11806E+00
 -1      1939 2.12322E+00
 -1      1940 1.97313E+00
 -1      1941 1.94253E+00
 -1      1942 2.32521E+00
 -1      1943 2.12322E+00
 -1      1944 1.97598E+00
 -1      1945 2.31539E+00
 -1      1946 2.25069E+00
 -1      1947 1.90146E+00
 -1      1948 2.30869E+00
 -1      1949 2.23127E+00
 -1      1950 1.74282E+00
 -1      1951 2.25661E+00
 -1      1952 2.34139E+00
 -1      1953 1.69140E+00
 -1      1954 1.76790E+00
 -1      1955 2.11743E+00
 -1      1956 1.58492E+00
 -1      1957 1.13509E+00
 -1      1958 1.54497E+00
 -1      1959 1.22282E+00
 -1      1960 7.06145E-01
 -1      1961 9.29445E-01
 -1      1962 7.94246E-01
 -1      1963 4.79035E-01
 -1      1964 5.92201E-01
 -1      1965 4.74657E-01
 -1      1966 5.32807E-01
 -1      1967 5.16324E-01
 -1      1968 3.98004E-01
 -1      1969 6.25225E-01
 -1      1970 5.68802E-01
 -1      1971 4.71288E-01
 -1      1972 6.47504E-01
 -1      1973 6.43959E-01
 -1      1974 5.26017E-01
 -1      1975 6.03303E-01
 -1      1976 6.39564E-01
 -1      1977 5.36811E-01
 -1      1978 5.21996E-01
 -1      1979 5.75510E-01
 -1      1980 5.01079E-01
 -1      1981 4.49661E-01
 -1      1982 4.96053E-01
 -1      1983 4.47343E-01
 -1      1984 3.73069E-01
 -1      1985 4.16262E-01
 -1      1986 3.88000E-01
 -1      1987 2.95871E-01
 -1      1988 3.38272E-01
 -1      1989 3.19803E-01
 -1      1990 2.25331E-01
 -1      1991 2.63389E-01
 -1      1992 2.52524E-01
 -1      1993 1.69493E-01
 -1      1994 1.97931E-01
 -1      1995 1.92642E-01
 -1      1996 1.30566E-01
 -1      1997 1.51258E-01
 -1      1998 1.47007E-01
 -1      1999 9.76560E-02
 -1      2000 1.14940E-01
 -1      2001 1.13145E-01
 -1      2002 7.17746E-02
 -1      2003 8.47839E-02
 -1      2004 8.46467E-02
 -1      2005 5.12461E-02
 -1      2006 6.15104E-02
 -1      2007 6.15104E-02
 -1      2008 3.71345E-02
 -1      2009 4.32919E-02
 -1      2010 4.32919E-02
 -1      2011 2.84998E-02
 -1      2012 3.17650E-02
 -1      2013 2.99682E-02
 -1      2014 2.38565E-02
 -1      2015 2.68944E-02
 -1      2016 2.29933E-02
 -1      2017 1.95041E-02
 -1      2018 2.22001E-02
 -1      2019 1.97315E-02
 -1      2020 1.57928E-02
 -1      2021 1.79218E-02
 -1      2022 1.64928E-02
 -1      2023 1.33733E-02
 -1      2024 1.43565E-02
 -1      2025 1.34742E-02
 -1      2026 1.10493E-02
 -1      2027 1.21177E-02
 -1      2028 1.07823E-02
 -1      2029 9.31565E-03
 -1      2030 1.03655E-02
 -1      2031 8.84294E-03
 -1      2032 7.73072E-03
 -1      2033 8.70097E-03
 -1      2034 7.54445E-03
 -1      2035 6.28705E-03
 -1      2036 7.13651E-03
 -1      2037 6.33557E-03
 -1      2038 5.11818E-03
 -1      2039 5.77918E-03
 -1      2040 5.23349E-03
 -1      2041 4.10380E-03
 -1      2042 4.67924E-03
 -1      2043 4.28668E-03
 -1      2044 3.25566E-03
 -1      2045 3.71372E-03
 -1      2046 3.45766E-03
 -1      2047 2.53659E-03
 -1      2048 2.92130E-03
 -1      2049 2.73323E-03
 -1      2050 1.94718E-03
 -1      2051 2.26645E-03
 -1      2052 2.12873E-03
 -1      2053 1.46259E-03
 -1      2054 1.72275E-03
 -1      2055 1.63415E-03
 -1      2056 1.07043E-03
 -1      2057 1.27937E-03
 -1      2058 1.22650E-03
 -1      2059 7.94618E-04
 -1      2060 9.31596E-04
 -1      2061 9.04448E-04
 -1      2062 6.11226E-04
 -1      2063 7.08919E-04
 -1      2064 6.79914E-04
 -1      2065 4.48173E-04
 -1      2066 5.35643E-04
 -1      2067 5.18630E-04
 -1      2068 3.04882E-04
 -1      2069 3.77816E-04
 -1      2070 3.72690E-04
 -1      2071 1.84040E-04
 -1      2072 2.38466E-04
 -1      2073 2.35918E-04
 -1      2074 1.45798E-04
 -1      2075 9.75302E-05
 -1      2076 1.29421E-04
 -1      2077 1.84962E-04
 -1      2078 1.84962E-04
 -1      2079 1.88787E-04
 -1      2080 1.84962E-04
 -1      2081 1.83211E-04
 -1      2082 2.06916E-04
 -1      2083 2.44329E-04
 -1      2084 1.34689E-04
 -1      2085 1.08537E-04
 -1      2086 1.44253E-04
 -1      2087 1.78221E-04
 -1      2088 1.60759E-04
 -1      2089 1.81330E-04
 -1      2090 1.97767E-04
 -1      2091 1.90608E-04
 -1      2092 2.19787E-04
 -1      2093 1.97767E-04
 -1      2094 1.97767E-04
 -1      2095 2.32173E-04
 -1      2096 1.97427E-04
 -1      2097 1.97452E-04
 -1      2098 2.31858E-04
 -1      2099 1.89834E-04
 -1      2100 1.97427E-04
 -1      2101 2.31543E-04
 -1      2102 1.61090E-04
 -1      2103 1.77931E-04
 -1      2104 2.19640E-04
 -1      2105 1.09103E-04
 -1      2106 1.34874E-04
 -1      2107 1.81521E-04
 -1      2108 1.32361E-04
 -1      2109 1.00340E-04
 -1      2110 1.46543E-04
 -1      2111 1.67772E-04
 -1      2112 1.67772E-04
 -1      2113 1.73192E-04
 -1      2114 3.46131E+01
 -1      2115 3.21474E+01
 -1      2116 3.48332E+01
 -1      2117 3.48332E+01
 -1      2118 3.39771E+01
 -1      2119 3.07862E+01
 -1      2120 2.75102E+01
 -1      2121 1.53778E+01
 -1      2122 2.88803E+01
 -1      2123 9.35603E+00
 -1      2124 1.21491E+01
 -1      2125 1.09863E+01
 -1      2126 6.00579E+00
 -1      2127 5.30769E+00
 -1      2128 4.92286E+00
 -1      2129 1.10959E+01
 -1      2130 1.10670E+01
 -1      2131 1.12714E+01
 -1      2132 1.16115E+01
 -1      2133 1.12841E+01
 -1      2134 1.09863E+01
 -1      2135 1.06735E+01
 -1      2136 9.55332E+00
 -1      2137 1.00513E+01
 -1      2138 1.14058E+01
 -1      2139 9.82153E+00
 -1      2140 2.42990E+01
 -1      2141 1.40118E+01
 -1      2142 2.91658E+01
 -1      2143 2.85167E+01
 -1      2144 1.78889E+01
 -1      2145 3.89653E+01
 -1      2146 3.62248E+01
 -1      2147 4.36003E+01
 -1      2148 4.26530E+01
 -1      2149 4.17493E+01
 -1      2150 4.36003E+01
 -1      2151 3.88599E+01
 -1      2152 3.47899E+01
 -1      2153 1.99947E+01
 -1      2154 3.29185E+01
 -1      2155 1.10363E+01
 -1      2156 1.63482E+01
 -1      2157 9.74334E+00
 -1      2158 9.20873E+00
 -1      2159 1.10790E+01
 -1      2160 1.12654E+01
 -1      2161 1.09183E+01
 -1      2162 1.11476E+01
 -1      2163 1.14482E+01
 -1      2164 1.10246E+01
 -1      2165 1.00670E+01
 -1      2166 1.07037E+01
 -1      2167 8.97420E+00
 -1      2168 8.94597E+00
 -1      2169 7.63516E+00
 -1      2170 1.67020E+01
 -1      2171 1.08694E+01
 -1      2172 3.27682E+01
 -1      2173 2.04774E+01
 -1      2174 1.40800E+01
 -1      2175 2.94590E+01
 -1      2176 3.85700E+01
 -1      2177 3.48332E+01
 -1      2178 3.34465E+01
 -1      2179 1.00160E+01
 -1      2180 9.38987E+00
 -1      2181 7.79141E+00
 -1      2182 3.07146E+00
 -1      2183 9.15559E+00
 -1      2184 6.99887E+00
 -1      2185 2.82216E+00
 -1      2186 3.33869E+01
 -1      2187 1.99478E+01
 -1      2188 1.82609E-04
 -1      2189 3.74340E+01
 -1      2190 8.87633E+00
 -1      2191 2.36572E+01
 -1      2192 8.40936E+00
 -1      2193 9.50061E+00
 -1      2194 1.01387E+01
 -1      2195 9.96365E+00
 -1      2196 8.37290E+00
 -1      2197 8.67839E+00
 -1      2198 1.41524E+01
 -1      2199 2.37402E+01
 -1      2200 3.66409E+01
 -1      2201 4.36003E+01
 -1      2202 2.91658E+01
 -1      2203 1.10652E+01
 -1      2204 1.04430E+01
 -1      2205 8.19098E+00
 -1      2206 3.99126E+01
 -1      2207 3.34465E+01
 -1      2208 1.78433E+00
 -1      2209 1.99331E+00
 -1      2210 1.34106E+01
 -1      2211 1.30858E+01
 -1      2212 9.82226E+00
 -1      2213 9.59807E+00
 -1      2214 1.45177E+01
 -1      2215 1.03835E+01
 -1      2216 1.11958E+01
 -1      2217 8.25306E+00
 -1      2218 8.66542E+00
 -1      2219 1.16335E+01
 -1      2220 5.43082E+00
 -1      2221 6.44809E+00
 -1      2222 8.11045E+00
 -1      2223 3.72639E+00
 -1      2224 4.48041E+00
 -1      2225 5.35508E+00
 -1      2226 2.08908E+00
 -1      2227 2.67787E+00
 -1      2228 3.35615E+00
 -1      2229 1.48172E+00
 -1      2230 1.63426E+00
 -1      2231 1.85280E+00
 -1      2232 1.90858E+00
 -1      2233 1.54789E+00
 -1      2234 1.55776E+00
 -1      2235 1.93855E+00
 -1      2236 1.94253E+00
 -1      2237 1.90908E+00
 -1      2238 1.78433E+00
 -1      2239 1.72724E+00
 -1      2240 1.82744E+00
 -1      2241 6.89184E+00
 -1      2242 8.12467E+00
 -1      2243 2.70698E+00
 -1      2244 3.10715E+00
 -1      2245 2.60679E+00
 -1      2246 3.59116E+00
 -1      2247 3.84952E+00
 -1      2248 3.97035E+00
 -1      2249 3.83569E+00
 -1      2250 3.84872E+00
 -1      2251 4.44053E+00
 -1      2252 4.62657E+00
 -1      2253 4.42605E+00
 -1      2254 5.20455E+00
 -1      2255 3.48809E+00
 -1      2256 3.12489E+00
 -1      2257 5.04445E+00
 -1      2258 2.32602E+00
 -1      2259 2.10839E+00
 -1      2260 3.30762E+00
 -1      2261 2.17065E+00
 -1      2262 2.09339E+00
 -1      2263 2.57100E+00
 -1      2264 1.82934E+00
 -1      2265 1.74788E+00
 -1      2266 2.36922E+00
 -1      2267 1.61491E+00
 -1      2268 1.62938E+00
 -1      2269 1.97221E+00
 -1      2270 1.47240E+00
 -1      2271 1.42383E+00
 -1      2272 1.68226E+00
 -1      2273 1.32237E+00
 -1      2274 1.26035E+00
 -1      2275 1.42383E+00
 -1      2276 1.18015E+00
 -1      2277 1.12588E+00
 -1      2278 1.24216E+00
 -1      2279 1.03510E+00
 -1      2280 9.61042E-01
 -1      2281 1.07118E+00
 -1      2282 8.67343E-01
 -1      2283 7.82873E-01
 -1      2284 8.86712E-01
 -1      2285 7.00451E-01
 -1      2286 6.18898E-01
 -1      2287 7.10591E-01
 -1      2288 5.49733E-01
 -1      2289 4.77857E-01
 -1      2290 5.59004E-01
 -1      2291 4.20010E-01
 -1      2292 3.60225E-01
 -1      2293 4.31991E-01
 -1      2294 3.13279E-01
 -1      2295 2.65519E-01
 -1      2296 3.27199E-01
 -1      2297 2.28320E-01
 -1      2298 1.91316E-01
 -1      2299 2.43055E-01
 -1      2300 1.62430E-01
 -1      2301 1.34475E-01
 -1      2302 1.76969E-01
 -1      2303 1.12451E-01
 -1      2304 9.44653E-02
 -1      2305 1.26060E-01
 -1      2306 7.79692E-02
 -1      2307 6.59103E-02
 -1      2308 8.75403E-02
 -1      2309 5.37768E-02
 -1      2310 4.54111E-02
 -1      2311 5.89107E-02
 -1      2312 3.76246E-02
 -1      2313 3.38224E-02
 -1      2314 3.89906E-02
 -1      2315 2.89767E-02
 -1      2316 2.56221E-02
 -1      2317 2.63583E-02
 -1      2318 2.39294E-02
 -1      2319 2.09652E-02
 -1      2320 1.98199E-02
 -1      2321 1.97286E-02
 -1      2322 1.71871E-02
 -1      2323 1.68905E-02
 -1      2324 1.59416E-02
 -1      2325 1.38155E-02
 -1      2326 1.44083E-02
 -1      2327 1.26445E-02
 -1      2328 1.12600E-02
 -1      2329 1.19918E-02
 -1      2330 1.02085E-02
 -1      2331 9.29607E-03
 -1      2332 9.76938E-03
 -1      2333 8.55886E-03
 -1      2334 7.69387E-03
 -1      2335 7.98074E-03
 -1      2336 7.18055E-03
 -1      2337 6.42111E-03
 -1      2338 6.73021E-03
 -1      2339 5.91235E-03
 -1      2340 5.31057E-03
 -1      2341 5.70813E-03
 -1      2342 4.85527E-03
 -1      2343 4.32576E-03
 -1      2344 4.74408E-03
 -1      2345 3.94484E-03
 -1      2346 3.51357E-03
 -1      2347 3.90785E-03
 -1      2348 3.16921E-03
 -1      2349 2.82317E-03
 -1      2350 3.18258E-03
 -1      2351 2.52236E-03
 -1      2352 2.22153E-03
 -1      2353 2.53740E-03
 -1      2354 1.96568E-03
 -1      2355 1.71083E-03
 -1      2356 1.98073E-03
 -1      2357 1.50438E-03
 -1      2358 1.29314E-03
 -1      2359 1.51842E-03
 -1      2360 1.12861E-03
 -1      2361 9.57037E-04
 -1      2362 1.14743E-03
 -1      2363 8.28540E-04
 -1      2364 6.92189E-04
 -1      2365 8.54403E-04
 -1      2366 5.91004E-04
 -1      2367 5.01169E-04
 -1      2368 6.24721E-04
 -1      2369 4.21274E-04
 -1      2370 3.53674E-04
 -1      2371 4.43641E-04
 -1      2372 2.15517E+01
 -1      2373 2.33814E+01
 -1      2374 1.82694E+00
 -1      2375 1.90146E+00
 -1      2376 1.60097E+00
 -1      2377 1.68509E+00
 -1      2378 1.68509E+00
 -1      2379 1.64869E+00
 -1      2380 1.61599E+00
 -1      2381 1.55826E+00
 -1      2382 1.40128E+00
 -1      2383 1.54046E+00
 -1      2384 1.46505E+00
 -1      2385 1.06360E+00
 -1      2386 1.28653E+00
 -1      2387 1.24206E+00
 -1      2388 7.21387E-01
 -1      2389 9.27032E-01
 -1      2390 9.90743E-01
 -1      2391 5.10851E-01
 -1      2392 6.24794E-01
 -1      2393 7.57581E-01
 -1      2394 5.09103E-01
 -1      2395 4.71814E-01
 -1      2396 6.21951E-01
 -1      2397 5.19466E-01
 -1      2398 4.83471E-01
 -1      2399 5.57281E-01
 -1      2400 5.46827E-01
 -1      2401 5.28093E-01
 -1      2402 5.40275E-01
 -1      2403 5.24005E-01
 -1      2404 5.31945E-01
 -1      2405 5.34020E-01
 -1      2406 4.74042E-01
 -1      2407 5.01835E-01
 -1      2408 4.96968E-01
 -1      2409 4.24540E-01
 -1      2410 4.50483E-01
 -1      2411 4.51239E-01
 -1      2412 3.63410E-01
 -1      2413 3.96809E-01
 -1      2414 3.99950E-01
 -1      2415 2.97199E-01
 -1      2416 3.31996E-01
 -1      2417 3.40805E-01
 -1      2418 2.33731E-01
 -1      2419 2.66213E-01
 -1      2420 2.78406E-01
 -1      2421 1.78186E-01
 -1      2422 2.05586E-01
 -1      2423 2.19275E-01
 -1      2424 1.35805E-01
 -1      2425 1.54040E-01
 -1      2426 1.66984E-01
 -1      2427 1.00345E-01
 -1      2428 1.15972E-01
 -1      2429 1.23005E-01
 -1      2430 7.17612E-02
 -1      2431 8.46332E-02
 -1      2432 8.74599E-02
 -1      2433 4.96351E-02
 -1      2434 5.98994E-02
 -1      2435 5.98859E-02
 -1      2436 3.47828E-02
 -1      2437 4.27371E-02
 -1      2438 4.11261E-02
 -1      2439 2.45987E-02
 -1      2440 2.99682E-02
 -1      2441 2.94134E-02
 -1      2442 2.13879E-02
 -1      2443 2.29933E-02
 -1      2444 2.29933E-02
 -1      2445 1.80752E-02
 -1      2446 1.97315E-02
 -1      2447 1.97315E-02
 -1      2448 1.49105E-02
 -1      2449 1.64928E-02
 -1      2450 1.64928E-02
 -1      2451 1.20379E-02
 -1      2452 1.34742E-02
 -1      2453 1.34742E-02
 -1      2454 9.52675E-03
 -1      2455 1.07823E-02
 -1      2456 1.07823E-02
 -1      2457 8.15913E-03
 -1      2458 8.84294E-03
 -1      2459 8.84294E-03
 -1      2460 6.92978E-03
 -1      2461 7.54445E-03
 -1      2462 7.54445E-03
 -1      2463 5.74136E-03
 -1      2464 6.33557E-03
 -1      2465 6.33557E-03
 -1      2466 4.72799E-03
 -1      2467 5.23586E-03
 -1      2468 5.23586E-03
 -1      2469 3.85854E-03
 -1      2470 4.29748E-03
 -1      2471 4.29986E-03
 -1      2472 3.08275E-03
 -1      2473 3.47282E-03
 -1      2474 3.48363E-03
 -1      2475 2.43317E-03
 -1      2476 2.76752E-03
 -1      2477 2.78268E-03
 -1      2478 1.90909E-03
 -1      2479 2.17924E-03
 -1      2480 2.21353E-03
 -1      2481 1.46568E-03
 -1      2482 1.69011E-03
 -1      2483 1.74062E-03
 -1      2484 1.09840E-03
 -1      2485 1.28161E-03
 -1      2486 1.33758E-03
 -1      2487 8.08393E-04
 -1      2488 9.47228E-04
 -1      2489 1.00234E-03
 -1      2490 6.01579E-04
 -1      2491 6.87278E-04
 -1      2492 7.30058E-04
 -1      2493 4.29529E-04
 -1      2494 5.05113E-04
 -1      2495 5.12478E-04
 -1      2496 2.93879E-04
 -1      2497 3.64236E-04
 -1      2498 3.50718E-04
 -1      2499 2.73331E-04
 -1      2500 2.35604E-04
 -1      2501 2.09535E-04
 -1      2502 2.69146E-04
 -1      2503 2.56759E-04
 -1      2504 2.84963E-04
 -1      2505 1.90665E-04
 -1      2506 2.46207E-04
 -1      2507 1.84119E-04
 -1      2508 1.73112E-04
 -1      2509 2.30531E-04
 -1      2510 2.38394E-04
 -1      2511 2.70417E-04
 -1      2512 2.70417E-04
 -1      2513 3.07389E-04
 -1      2514 2.70101E-04
 -1      2515 2.70417E-04
 -1      2516 3.08660E-04
 -1      2517 2.69949E-04
 -1      2518 2.69949E-04
 -1      2519 3.08508E-04
 -1      2520 2.57004E-04
 -1      2521 2.68907E-04
 -1      2522 3.07314E-04
 -1      2523 2.10332E-04
 -1      2524 2.36548E-04
 -1      2525 2.85815E-04
 -1      2526 1.70782E-04
 -1      2527 1.79545E-04
 -1      2528 2.34571E-04
 -1      2529 2.06194E-04
 -1      2530 1.70782E-04
 -1      2531 2.03784E-04
 -1      2532 2.18190E-04
 -1      2533 3.74340E+01
 -1      2534 3.74340E+01
 -1      2535 1.97598E+00
 -1      2536 1.97598E+00
 -1      2537 1.90146E+00
 -1      2538 1.34478E+01
 -1      2539 1.91805E+01
 -1      2540 5.61228E+00
 -1      2541 4.47932E+00
 -1      2542 8.03004E+00
 -1      2543 1.12588E+01
 -1      2544 7.50778E+00
 -1      2545 6.45669E+00
 -1      2546 7.61085E+00
 -1      2547 8.35531E+00
 -1      2548 1.09072E+01
 -1      2549 8.30117E+00
 -1      2550 8.34225E+00
 -1      2551 7.39920E+00
 -1      2552 6.95566E+00
 -1      2553 9.99839E+00
 -1      2554 1.24921E+01
 -1      2555 1.24921E+01
 -1      2556 1.68627E+01
 -1      2557 1.46479E+01
 -1      2558 3.39837E+00
 -1      2559 2.30345E+00
 -1      2560 2.30345E+00
 -1      2561 3.33478E+00
 -1      2562 2.18404E+01
 -1      2563 1.60387E+01
 -1      2564 7.03533E+00
 -1      2565 6.76712E+00
 -1      2566 8.84724E+00
 -1      2567 9.13232E+00
 -1      2568 6.58349E+00
 -1      2569 3.37787E+01
 -1      2570 3.00910E+01
 -1      2571 9.02228E+00
 -1      2572 8.50670E+00
 -1      2573 1.64045E+01
 -1      2574 1.21868E+01
 -1      2575 2.92073E+01
 -1      2576 2.52198E+01
 -1      2577 2.68485E+01
 -1      2578 1.97894E+01
 -1      2579 3.23721E+01
 -1      2580 3.23721E+01
 -1      2581 2.25506E+01
 -1      2582 2.59728E+01
 -1      2583 3.29321E+01
 -1      2584 1.64094E+01
 -1      2585 2.23507E+01
 -1      2586 1.03748E+01
 -1      2587 1.40212E+01
 -1      2588 6.55508E+00
 -1      2589 8.38266E+00
 -1      2590 7.17468E+00
 -1      2591 5.65259E+00
 -1      2592 8.68486E+00
 -1      2593 8.61621E+00
 -1      2594 9.14013E+00
 -1      2595 9.03374E+00
 -1      2596 7.68631E+00
 -1      2597 5.31033E+00
 -1      2598 6.43132E+00
 -1      2599 7.49214E+00
 -1      2600 5.59695E+00
 -1      2601 4.39311E+00
 -1      2602 1.27370E+01
 -1      2603 8.96157E+00
 -1      2604 6.14916E+00
 -1      2605 2.93399E+01
 -1      2606 3.33869E+01
 -1      2607 3.33869E+01
 -1      2608 6.02399E+00
 -1      2609 5.99015E+00
 -1      2610 6.26261E+00
 -1      2611 1.47402E+00
 -1      2612 1.60482E+00
 -1      2613 1.94253E+00
 -1      2614 5.74096E+00
 -1      2615 4.71004E+00
 -1      2616 4.58532E+00
 -1      2617 1.76013E+01
 -1      2618 2.07147E+01
 -1      2619 7.25037E+00
 -1      2620 2.92073E+01
 -1      2621 1.50517E+01
 -1      2622 2.64877E-04
 -1      2623 2.64877E-04
 -1      2624 5.28602E+00
 -1      2625 2.27776E-04
 -1      2626 2.18190E-04
 -1      2627 2.15780E-04
 -1      2628 2.85689E-04
 -1      2629 5.35685E+00
 -1      2630 1.04915E+01
 -1      2631 8.25145E+00
 -1      2632 4.02420E+00
 -1      2633 4.65544E+00
 -1      2634 1.26317E+01
 -1      2635 2.17040E+01
 -1      2636 6.87731E+00
 -1      2637 1.40872E+01
 -1      2638 9.42274E+00
 -1      2639 6.08706E+00
 -1      2640 7.19602E+00
 -1      2641 1.14328E+01
 -1      2642 1.32495E+01
 -1      2643 8.13112E+00
 -1      2644 1.86419E+01
 -1      2645 2.33814E+01
 -1      2646 2.66755E-04
 -1      2647 2.95761E-04
 -1      2648 3.87149E+00
 -1      2649 3.29529E+00
 -1      2650 5.01603E+00
 -1      2651 6.30548E+00
 -1      2652 8.11045E+00
 -1      2653 2.49236E+00
 -1      2654 3.54088E+00
 -1      2655 1.50370E+00
 -1      2656 1.95853E+00
 -1      2657 2.14326E+00
 -1      2658 1.52878E+00
 -1      2659 2.06549E+01
 -1      2660 2.47020E+01
 -1      2661 3.97035E+00
 -1      2662 4.45437E+00
 -1      2663 6.22398E+00
 -1      2664 5.28602E+00
 -1      2665 3.30762E+00
 -1      2666 2.50875E+00
 -1      2667 3.06630E+00
 -1      2668 3.12856E+00
 -1      2669 3.06630E+00
 -1      2670 3.57952E+00
 -1      2671 3.31547E+00
 -1      2672 4.07481E+00
 -1      2673 2.50815E+00
 -1      2674 2.37519E+00
 -1      2675 3.71845E+00
 -1      2676 2.00430E+00
 -1      2677 1.84732E+00
 -1      2678 2.54024E+00
 -1      2679 1.65750E+00
 -1      2680 1.55604E+00
 -1      2681 1.97954E+00
 -1      2682 1.38674E+00
 -1      2683 1.30654E+00
 -1      2684 1.62042E+00
 -1      2685 1.15623E+00
 -1      2686 1.06546E+00
 -1      2687 1.30081E+00
 -1      2688 9.41877E-01
 -1      2689 8.48178E-01
 -1      2690 1.02692E+00
 -1      2691 7.48743E-01
 -1      2692 6.66321E-01
 -1      2693 8.03908E-01
 -1      2694 5.86707E-01
 -1      2695 5.17542E-01
 -1      2696 6.24859E-01
 -1      2697 4.53946E-01
 -1      2698 3.96099E-01
 -1      2699 4.81650E-01
 -1      2700 3.45530E-01
 -1      2701 2.98585E-01
 -1      2702 3.67485E-01
 -1      2703 2.58666E-01
 -1      2704 2.21466E-01
 -1      2705 2.76996E-01
 -1      2706 1.90255E-01
 -1      2707 1.61369E-01
 -1      2708 2.05866E-01
 -1      2709 1.37243E-01
 -1      2710 1.15219E-01
 -1      2711 1.50528E-01
 -1      2712 9.68104E-02
 -1      2713 8.03144E-02
 -1      2714 1.07993E-01
 -1      2715 6.64680E-02
 -1      2716 5.43345E-02
 -1      2717 7.57382E-02
 -1      2718 4.40837E-02
 -1      2719 3.62972E-02
 -1      2720 5.16411E-02
 -1      2721 2.88431E-02
 -1      2722 2.39974E-02
 -1      2723 3.39362E-02
 -1      2724 1.86882E-02
 -1      2725 1.69955E-02
 -1      2726 2.11730E-02
 -1      2727 1.43201E-02
 -1      2728 1.30835E-02
 -1      2729 1.31884E-02
 -1      2730 1.24738E-02
 -1      2731 1.12283E-02
 -1      2732 9.90344E-03
 -1      2733 1.08187E-02
 -1      2734 9.64769E-03
 -1      2735 8.88420E-03
 -1      2736 9.12867E-03
 -1      2737 8.07724E-03
 -1      2738 7.95556E-03
 -1      2739 7.52588E-03
 -1      2740 6.78867E-03
 -1      2741 6.88518E-03
 -1      2742 6.26915E-03
 -1      2743 5.75583E-03
 -1      2744 5.81429E-03
 -1      2745 5.42863E-03
 -1      2746 4.91988E-03
 -1      2747 4.96757E-03
 -1      2748 4.57299E-03
 -1      2749 4.11769E-03
 -1      2750 4.29349E-03
 -1      2751 3.78088E-03
 -1      2752 3.39996E-03
 -1      2753 3.60979E-03
 -1      2754 3.09041E-03
 -1      2755 2.74605E-03
 -1      2756 2.96343E-03
 -1      2757 2.48589E-03
 -1      2758 2.18507E-03
 -1      2759 2.39372E-03
 -1      2760 1.97641E-03
 -1      2761 1.72056E-03
 -1      2762 1.92490E-03
 -1      2763 1.53682E-03
 -1      2764 1.33036E-03
 -1      2765 1.53250E-03
 -1      2766 1.18054E-03
 -1      2767 1.01601E-03
 -1      2768 1.19894E-03
 -1      2769 8.91946E-04
 -1      2770 7.63449E-04
 -1      2771 9.25058E-04
 -1      2772 6.60903E-04
 -1      2773 5.59718E-04
 -1      2774 6.98446E-04
 -1      2775 4.74260E-04
 -1      2776 3.94365E-04
 -1      2777 5.10442E-04
 -1      2778 4.87284E+00
 -1      2779 2.52072E+00
 -1      2780 2.66257E+00
 -1      2781 1.22694E+00
 -1      2782 1.34169E+00
 -1      2783 1.03204E+00
 -1      2784 1.16861E+00
 -1      2785 1.26824E+00
 -1      2786 8.89082E-01
 -1      2787 9.85675E-01
 -1      2788 1.16354E+00
 -1      2789 7.52704E-01
 -1      2790 7.91741E-01
 -1      2791 1.01983E+00
 -1      2792 6.37181E-01
 -1      2793 6.62813E-01
 -1      2794 8.32603E-01
 -1      2795 6.24534E-01
 -1      2796 6.15907E-01
 -1      2797 7.21440E-01
 -1      2798 5.69884E-01
 -1      2799 5.84766E-01
 -1      2800 6.60398E-01
 -1      2801 5.02682E-01
 -1      2802 5.24853E-01
 -1      2803 5.75598E-01
 -1      2804 4.48758E-01
 -1      2805 4.72317E-01
 -1      2806 5.00202E-01
 -1      2807 3.89647E-01
 -1      2808 4.17377E-01
 -1      2809 4.38455E-01
 -1      2810 3.24615E-01
 -1      2811 3.56028E-01
 -1      2812 3.73456E-01
 -1      2813 2.61189E-01
 -1      2814 2.92175E-01
 -1      2815 3.07398E-01
 -1      2816 2.03736E-01
 -1      2817 2.31881E-01
 -1      2818 2.45650E-01
 -1      2819 1.54322E-01
 -1      2820 1.78468E-01
 -1      2821 1.91073E-01
 -1      2822 1.13482E-01
 -1      2823 1.33315E-01
 -1      2824 1.44799E-01
 -1      2825 8.08294E-02
 -1      2826 9.65417E-02
 -1      2827 1.06852E-01
 -1      2828 5.56703E-02
 -1      2829 6.75320E-02
 -1      2830 7.66138E-02
 -1      2831 3.85950E-02
 -1      2832 4.54931E-02
 -1      2833 5.31392E-02
 -1      2834 2.61842E-02
 -1      2835 3.09989E-02
 -1      2836 3.53659E-02
 -1      2837 1.93184E-02
 -1      2838 2.09238E-02
 -1      2839 2.25093E-02
 -1      2840 1.51541E-02
 -1      2841 1.68105E-02
 -1      2842 1.47409E-02
 -1      2843 1.31677E-02
 -1      2844 1.47500E-02
 -1      2845 1.18290E-02
 -1      2846 1.11243E-02
 -1      2847 1.25605E-02
 -1      2848 1.08178E-02
 -1      2849 9.17536E-03
 -1      2850 1.04310E-02
 -1      2851 9.51730E-03
 -1      2852 7.78946E-03
 -1      2853 8.47327E-03
 -1      2854 8.12189E-03
 -1      2855 6.51185E-03
 -1      2856 7.12653E-03
 -1      2857 6.75686E-03
 -1      2858 5.49370E-03
 -1      2859 6.08791E-03
 -1      2860 5.66998E-03
 -1      2861 4.60376E-03
 -1      2862 5.10925E-03
 -1      2863 4.86159E-03
 -1      2864 3.79629E-03
 -1      2865 4.22680E-03
 -1      2866 4.10019E-03
 -1      2867 3.08279E-03
 -1      2868 3.46851E-03
 -1      2869 3.39545E-03
 -1      2870 2.47886E-03
 -1      2871 2.79408E-03
 -1      2872 2.77896E-03
 -1      2873 1.96827E-03
 -1      2874 2.22220E-03
 -1      2875 2.23360E-03
 -1      2876 1.52803E-03
 -1      2877 1.74701E-03
 -1      2878 1.75568E-03
 -1      2879 1.17052E-03
 -1      2880 1.35458E-03
 -1      2881 1.36097E-03
 -1      2882 8.79453E-04
 -1      2883 1.03062E-03
 -1      2884 1.04763E-03
 -1      2885 6.41892E-04
 -1      2886 7.63007E-04
 -1      2887 7.91288E-04
 -1      2888 4.49166E-04
 -1      2889 5.45632E-04
 -1      2890 5.78581E-04
 -1      2891 3.19206E-04
 -1      2892 3.84499E-04
 -1      2893 4.17654E-04
 -1      2894 3.00536E-04
 -1      2895 1.50706E+00
 -1      2896 1.37626E+00
 -1      2897 1.48199E+00
 -1      2898 1.63181E+00
 -1      2899 3.57652E-04
 -1      2900 3.57652E-04
 -1      2901 3.18622E-04
 -1      2902 2.50637E-04
 -1      2903 2.38641E-04
 -1      2904 3.49241E-04
 -1      2905 3.48736E-04
 -1      2906 3.27582E-04
 -1      2907 3.57314E-04
 -1      2908 3.57466E-04
 -1      2909 4.06458E-04
 -1      2910 3.57652E-04
 -1      2911 3.56380E-04
 -1      2912 3.98999E-04
 -1      2913 4.06643E-04
 -1      2914 3.56272E-04
 -1      2915 3.57314E-04
 -1      2916 4.06273E-04
 -1      2917 3.27854E-04
 -1      2918 3.48310E-04
 -1      2919 3.98311E-04
 -1      2920 2.70806E-04
 -1      2921 3.01594E-04
 -1      2922 3.64089E-04
 -1      2923 2.49672E-04
 -1      2924 2.49672E-04
 -1      2925 3.16695E-04
 -1      2926 2.84530E-04
 -1      2927 1.87180E+00
 -1      2928 1.94632E+00
 -1      2929 2.70743E+00
 -1      2930 7.57433E+00
 -1      2931 4.85402E+00
 -1      2932 3.66155E+00
 -1      2933 5.70144E+00
 -1      2934 6.68735E+00
 -1      2935 8.67945E+00
 -1      2936 2.61920E+01
 -1      2937 1.79654E+01
 -1      2938 1.22425E+01
 -1      2939 1.46137E+01
 -1      2940 1.60049E+00
 -1      2941 1.70872E+00
 -1      2942 1.58536E+00
 -1      2943 2.25341E+00
 -1      2944 2.23840E+00
 -1      2945 2.38885E+00
 -1      2946 4.17483E+00
 -1      2947 4.87992E+00
 -1      2948 5.60250E+00
 -1      2949 1.35863E+01
 -1      2950 1.02014E+01
 -1      2951 1.58853E+01
 -1      2952 1.25059E+01
 -1      2953 5.08273E+00
 -1      2954 6.03313E+00
 -1      2955 4.21894E+00
 -1      2956 7.10357E+00
 -1      2957 5.83774E+00
 -1      2958 6.08500E+00
 -1      2959 5.97495E+00
 -1      2960 5.65467E+00
 -1      2961 4.65575E+00
 -1      2962 3.73959E+00
 -1      2963 3.30689E+00
 -1      2964 9.10715E+00
 -1      2965 7.82757E+00
 -1      2966 1.85441E+01
 -1      2967 1.99507E+01
 -1      2968 1.58522E+01
 -1      2969 2.18107E+01
 -1      2970 1.31258E+01
 -1      2971 2.00226E+01
 -1      2972 1.94626E+01
 -1      2973 7.76626E+00
 -1      2974 9.95525E+00
 -1      2975 9.51726E+00
 -1      2976 6.29555E+00
 -1      2977 6.60470E+00
 -1      2978 6.25582E+00
 -1      2979 3.59424E+00
 -1      2980 3.30762E+00
 -1      2981 1.45829E+01
 -1      2982 1.82050E+01
 -1      2983 1.88265E+00
 -1      2984 1.84919E+00
 -1      2985 1.85299E+00
 -1      2986 1.01788E+01
 -1      2987 1.25670E+01
 -1      2988 4.85402E+00
 -1      2989 5.21394E+00
 -1      2990 6.03313E+00
 -1      2991 4.45446E+00
 -1      2992 4.22820E+00
 -1      2993 3.20204E+00
 -1      2994 9.91543E+00
 -1      2995 1.16335E+01
 -1      2996 4.38143E+00
 -1      2997 4.10650E+00
 -1      2998 4.84018E+00
 -1      2999 4.80046E+00
 -1      3000 5.57831E+00
 -1      3001 4.80720E+00
 -1      3002 6.19370E+00
 -1      3003 3.52534E-04
 -1      3004 2.88761E-04
 -1      3005 2.63346E-04
 -1      3006 3.21587E+00
 -1      3007 1.57193E+00
 -1      3008 1.34600E+01
 -1      3009 1.21300E+01
 -1      3010 2.37212E-04
 -1      3011 2.54766E-04
 -1      3012 3.07217E-04
 -1      3013 2.87580E-04
 -1      3014 1.86544E+01
 -1      3015 7.64144E+00
 -1      3016 7.48874E+00
 -1      3017 2.74571E+00
 -1      3018 6.43357E+00
 -1      3019 5.89734E+00
 -1      3020 3.83251E+00
 -1      3021 1.30431E+01
 -1      3022 8.61475E+00
 -1      3023 3.03609E+00
 -1      3024 4.18697E+00
 -1      3025 3.20597E+00
 -1      3026 8.60623E+00
 -1      3027 3.30720E+00
 -1      3028 5.82970E+00
 -1      3029 4.39839E+00
 -1      3030 4.71867E+00
 -1      3031 1.28699E+01
 -1      3032 7.00880E+00
 -1      3033 9.42836E+00
 -1      3034 1.10380E+01
 -1      3035 8.24890E+00
 -1      3036 9.32200E+00
 -1      3037 6.78799E+00
 -1      3038 1.67591E+01
 -1      3039 1.54118E+01
 -1      3040 4.15179E+00
 -1      3041 6.30455E+00
 -1      3042 4.83512E+00
 -1      3043 4.30718E+00
 -1      3044 6.81708E+00
 -1      3045 3.69857E+00
 -1      3046 4.18106E+00
 -1      3047 1.74367E+00
 -1      3048 2.27750E+00
 -1      3049 4.75814E+00
 -1      3050 4.96177E+00
 -1      3051 4.15445E+00
 -1      3052 3.16716E+00
 -1      3053 2.79628E+00
 -1      3054 4.41049E+00
 -1      3055 2.41195E+00
 -1      3056 2.22213E+00
 -1      3057 3.03886E+00
 -1      3058 1.82458E+00
 -1      3059 1.65528E+00
 -1      3060 2.25699E+00
 -1      3061 1.40439E+00
 -1      3062 1.25408E+00
 -1      3063 1.60855E+00
 -1      3064 1.09836E+00
 -1      3065 9.74785E-01
 -1      3066 1.20194E+00
 -1      3067 8.66155E-01
 -1      3068 7.66720E-01
 -1      3069 9.37597E-01
 -1      3070 6.73716E-01
 -1      3071 5.94101E-01
 -1      3072 7.35962E-01
 -1      3073 5.17646E-01
 -1      3074 4.54050E-01
 -1      3075 5.66502E-01
 -1      3076 3.92805E-01
 -1      3077 3.42236E-01
 -1      3078 4.28801E-01
 -1      3079 2.94073E-01
 -1      3080 2.54153E-01
 -1      3081 3.19393E-01
 -1      3082 2.16883E-01
 -1      3083 1.85671E-01
 -1      3084 2.33959E-01
 -1      3085 1.57243E-01
 -1      3086 1.33117E-01
 -1      3087 1.68260E-01
 -1      3088 1.12318E-01
 -1      3089 9.39088E-02
 -1      3090 1.19033E-01
 -1      3091 7.88944E-02
 -1      3092 6.50480E-02
 -1      3093 8.32187E-02
 -1      3094 5.39326E-02
 -1      3095 4.36819E-02
 -1      3096 5.70889E-02
 -1      3097 3.61748E-02
 -1      3098 2.87207E-02
 -1      3099 3.84664E-02
 -1      3100 2.33488E-02
 -1      3101 1.80397E-02
 -1      3102 2.55874E-02
 -1      3103 1.41693E-02
 -1      3104 1.14940E-02
 -1      3105 1.63452E-02
 -1      3106 8.76971E-03
 -1      3107 8.16009E-03
 -1      3108 9.75062E-03
 -1      3109 7.55036E-03
 -1      3110 7.14073E-03
 -1      3111 6.41662E-03
 -1      3112 7.26525E-03
 -1      3113 6.74624E-03
 -1      3114 5.93141E-03
 -1      3115 6.62564E-03
 -1      3116 6.07428E-03
 -1      3117 5.93534E-03
 -1      3118 5.81429E-03
 -1      3119 5.29477E-03
 -1      3120 5.55476E-03
 -1      3121 4.96757E-03
 -1      3122 4.64037E-03
 -1      3123 4.96757E-03
 -1      3124 4.30663E-03
 -1      3125 3.95974E-03
 -1      3126 4.30663E-03
 -1      3127 3.72020E-03
 -1      3128 3.38339E-03
 -1      3129 3.73334E-03
 -1      3130 3.12571E-03
 -1      3131 2.81616E-03
 -1      3132 3.23612E-03
 -1      3133 2.56371E-03
 -1      3134 2.30354E-03
 -1      3135 2.72599E-03
 -1      3136 2.06998E-03
 -1      3137 1.86133E-03
 -1      3138 2.23997E-03
 -1      3139 1.65366E-03
 -1      3140 1.46992E-03
 -1      3141 1.79874E-03
 -1      3142 1.29066E-03
 -1      3143 1.14084E-03
 -1      3144 1.41182E-03
 -1      3145 9.89439E-04
 -1      3146 8.65374E-04
 -1      3147 1.08116E-03
 -1      3148 7.38523E-04
 -1      3149 6.35977E-04
 -1      3150 8.02904E-04
 -1      3151 5.43394E-04
 -1      3152 4.57936E-04
 -1      3153 5.83471E-04
 -1      3154 1.44153E+00
 -1      3155 1.48789E+00
 -1      3156 1.37653E+00
 -1      3157 1.43486E+00
 -1      3158 1.65452E+00
 -1      3159 9.34607E-01
 -1      3160 1.02450E+00
 -1      3161 8.34246E-01
 -1      3162 8.55519E-01
 -1      3163 1.04741E+00
 -1      3164 7.04775E-01
 -1      3165 7.44544E-01
 -1      3166 8.78623E-01
 -1      3167 5.86035E-01
 -1      3168 6.31066E-01
 -1      3169 7.15212E-01
 -1      3170 5.08960E-01
 -1      3171 5.39326E-01
 -1      3172 5.94794E-01
 -1      3173 4.30714E-01
 -1      3174 4.62095E-01
 -1      3175 5.01219E-01
 -1      3176 3.54558E-01
 -1      3177 3.88176E-01
 -1      3178 4.11816E-01
 -1      3179 2.83859E-01
 -1      3180 3.16298E-01
 -1      3181 3.31018E-01
 -1      3182 2.22524E-01
 -1      3183 2.51833E-01
 -1      3184 2.60732E-01
 -1      3185 1.70698E-01
 -1      3186 1.95966E-01
 -1      3187 2.02148E-01
 -1      3188 1.28085E-01
 -1      3189 1.49092E-01
 -1      3190 1.53984E-01
 -1      3191 9.38835E-02
 -1      3192 1.10824E-01
 -1      3193 1.15117E-01
 -1      3194 6.70389E-02
 -1      3195 8.03363E-02
 -1      3196 8.43087E-02
 -1      3197 4.64157E-02
 -1      3198 5.65928E-02
 -1      3199 6.03154E-02
 -1      3200 3.09100E-02
 -1      3201 3.85061E-02
 -1      3202 4.19598E-02
 -1      3203 1.97785E-02
 -1      3204 2.50389E-02
 -1      3205 2.81792E-02
 -1      3206 1.30054E-02
 -1      3207 1.55133E-02
 -1      3208 1.80429E-02
 -1      3209 9.64571E-03
 -1      3210 1.00498E-02
 -1      3211 1.08221E-02
 -1      3212 8.44644E-03
 -1      3213 9.05360E-03
 -1      3214 7.27438E-03
 -1      3215 7.78222E-03
 -1      3216 8.47555E-03
 -1      3217 6.71136E-03
 -1      3218 6.88349E-03
 -1      3219 7.58559E-03
 -1      3220 6.54383E-03
 -1      3221 5.89859E-03
 -1      3222 6.56153E-03
 -1      3223 6.02522E-03
 -1      3224 5.09675E-03
 -1      3225 5.52070E-03
 -1      3226 5.32536E-03
 -1      3227 4.35472E-03
 -1      3228 4.73917E-03
 -1      3229 4.58989E-03
 -1      3230 3.71422E-03
 -1      3231 4.09118E-03
 -1      3232 3.96875E-03
 -1      3233 3.10705E-03
 -1      3234 3.43483E-03
 -1      3235 3.42582E-03
 -1      3236 2.54694E-03
 -1      3237 2.83564E-03
 -1      3238 2.87502E-03
 -1      3239 2.04068E-03
 -1      3240 2.29735E-03
 -1      3241 2.35402E-03
 -1      3242 1.59858E-03
 -1      3243 1.81984E-03
 -1      3244 1.88359E-03
 -1      3245 1.23542E-03
 -1      3246 1.40887E-03
 -1      3247 1.47304E-03
 -1      3248 9.36210E-04
 -1      3249 1.07610E-03
 -1      3250 1.12400E-03
 -1      3251 6.89060E-04
 -1      3252 8.05507E-04
 -1      3253 8.33983E-04
 -1      3254 4.86568E-04
 -1      3255 5.82827E-04
 -1      3256 5.97047E-04
 -1      3257 3.63031E-04
 -1      3258 4.27698E-04
 -1      3259 4.31945E-04
 -1      3260 3.17261E-04
 -1      3261 2.09747E+00
 -1      3262 2.03379E+00
 -1      3263 3.60272E-04
 -1      3264 4.48144E-04
 -1      3265 4.56106E-04
 -1      3266 4.48112E-04
 -1      3267 4.48297E-04
 -1      3268 2.07316E+00
 -1      3269 2.42783E+00
 -1      3270 3.49820E+00
 -1      3271 2.70743E+00
 -1      3272 1.02056E+01
 -1      3273 1.14442E+01
 -1      3274 1.58536E+00
 -1      3275 1.84416E+00
 -1      3276 1.69366E+00
 -1      3277 1.12877E+00
 -1      3278 1.22611E+00
 -1      3279 1.55046E+00
 -1      3280 1.23077E+00
 -1      3281 4.62287E-04
 -1      3282 4.88547E-04
 -1      3283 5.46343E-04
 -1      3284 3.75348E+00
 -1      3285 4.03581E+00
 -1      3286 2.38885E+00
 -1      3287 2.93354E+00
 -1      3288 3.75348E+00
 -1      3289 2.38885E+00
 -1      3290 3.26400E+00
 -1      3291 2.34784E+00
 -1      3292 1.18110E+01
 -1      3293 9.73088E+00
 -1      3294 1.27001E+01
 -1      3295 1.12003E+01
 -1      3296 1.00445E+01
 -1      3297 6.39073E+00
 -1      3298 8.67798E+00
 -1      3299 9.72041E+00
 -1      3300 1.12105E+01
 -1      3301 1.61623E+00
 -1      3302 4.56106E-04
 -1      3303 4.56106E-04
 -1      3304 4.97946E-04
 -1      3305 5.05940E-04
 -1      3306 1.14443E+01
 -1      3307 4.64395E+00
 -1      3308 3.03441E+00
 -1      3309 9.80795E+00
 -1      3310 9.80795E+00
 -1      3311 5.19414E+00
 -1      3312 4.36157E-04
 -1      3313 3.97337E-04
 -1      3314 5.49570E+00
 -1      3315 1.83361E+00
 -1      3316 4.14358E-04
 -1      3317 5.38817E-04
 -1      3318 2.88824E+00
 -1      3319 3.93225E-04
 -1      3320 5.00664E-04
 -1      3321 4.59009E-04
 -1      3322 4.59009E-04
 -1      3323 2.42783E+00
 -1      3324 3.10037E+00
 -1      3325 3.83251E+00
 -1      3326 2.07809E+00
 -1      3327 8.36289E+00
 -1      3328 8.00298E+00
 -1      3329 1.00445E+01
 -1      3330 7.79494E+00
 -1      3331 8.11900E+00
 -1      3332 2.67896E+00
 -1      3333 4.03581E+00
 -1      3334 5.05805E+00
 -1      3335 2.95049E+00
 -1      3336 4.49234E+00
 -1      3337 5.91239E+00
 -1      3338 8.07139E+00
 -1      3339 1.36938E+01
 -1      3340 8.58542E+00
 -1      3341 7.11757E+00
 -1      3342 7.52645E+00
 -1      3343 2.02996E+00
 -1      3344 8.76041E+00
 -1      3345 7.16154E+00
 -1      3346 5.63388E+00
 -1      3347 3.08860E+00
 -1      3348 4.59009E-04
 -1      3349 4.51365E-04
 -1      3350 4.96167E-04
 -1      3351 5.11375E-04
 -1      3352 2.55090E+00
 -1      3353 7.02071E+00
 -1      3354 8.12110E+00
 -1      3355 7.16154E+00
 -1      3356 6.91766E+00
 -1      3357 6.62171E+00
 -1      3358 7.48375E-01
 -1      3359 8.22084E-01
 -1      3360 6.28269E-04
 -1      3361 5.87866E-04
 -1      3362 4.19581E+00
 -1      3363 3.81148E+00
 -1      3364 2.57375E+00
 -1      3365 2.17620E+00
 -1      3366 3.73070E+00
 -1      3367 1.82857E+00
 -1      3368 1.57768E+00
 -1      3369 2.14533E+00
 -1      3370 1.35766E+00
 -1      3371 1.20194E+00
 -1      3372 1.57768E+00
 -1      3373 1.03534E+00
 -1      3374 9.26715E-01
 -1      3375 1.19106E+00
 -1      3376 8.01881E-01
 -1      3377 7.08876E-01
 -1      3378 8.99629E-01
 -1      3379 6.14457E-01
 -1      3380 5.38001E-01
 -1      3381 6.80376E-01
 -1      3382 4.65918E-01
 -1      3383 4.04672E-01
 -1      3384 5.13872E-01
 -1      3385 3.49191E-01
 -1      3386 3.01028E-01
 -1      3387 3.86307E-01
 -1      3388 2.58280E-01
 -1      3389 2.21009E-01
 -1      3390 2.88078E-01
 -1      3391 1.88171E-01
 -1      3392 1.59743E-01
 -1      3393 2.12492E-01
 -1      3394 1.34643E-01
 -1      3395 1.13843E-01
 -1      3396 1.54554E-01
 -1      3397 9.48370E-02
 -1      3398 7.98225E-02
 -1      3399 1.10447E-01
 -1      3400 6.56584E-02
 -1      3401 5.45431E-02
 -1      3402 7.72767E-02
 -1      3403 4.46472E-02
 -1      3404 3.71402E-02
 -1      3405 5.32168E-02
 -1      3406 2.98446E-02
 -1      3407 2.44727E-02
 -1      3408 3.60254E-02
 -1      3409 1.91919E-02
 -1      3410 1.53215E-02
 -1      3411 2.34490E-02
 -1      3412 1.16233E-02
 -1      3413 8.89900E-03
 -1      3414 1.44699E-02
 -1      3415 6.36146E-03
 -1      3416 5.75173E-03
 -1      3417 8.23411E-03
 -1      3418 4.47516E-03
 -1      3419 4.59968E-03
 -1      3420 4.42000E-03
 -1      3421 5.00598E-03
 -1      3422 4.88538E-03
 -1      3423 3.54973E-03
 -1      3424 5.00182E-03
 -1      3425 4.74184E-03
 -1      3426 4.07246E-03
 -1      3427 4.67667E-03
 -1      3428 4.34947E-03
 -1      3429 4.12374E-03
 -1      3430 4.17919E-03
 -1      3431 3.84544E-03
 -1      3432 3.88829E-03
 -1      3433 3.62263E-03
 -1      3434 3.38309E-03
 -1      3435 3.49520E-03
 -1      3436 3.18132E-03
 -1      3437 2.92365E-03
 -1      3438 3.07062E-03
 -1      3439 2.73595E-03
 -1      3440 2.48350E-03
 -1      3441 2.68116E-03
 -1      3442 2.28892E-03
 -1      3443 2.05536E-03
 -1      3444 2.29888E-03
 -1      3445 1.86870E-03
 -1      3446 1.66103E-03
 -1      3447 1.91765E-03
 -1      3448 1.49069E-03
 -1      3449 1.31143E-03
 -1      3450 1.56064E-03
 -1      3451 1.16132E-03
 -1      3452 1.00992E-03
 -1      3453 1.24019E-03
 -1      3454 8.83025E-04
 -1      3455 7.56174E-04
 -1      3456 9.63190E-04
 -1      3457 6.31400E-04
 -1      3458 9.21820E-01
 -1      3459 1.01152E+00
 -1      3460 9.54983E-01
 -1      3461 1.15683E+00
 -1      3462 1.23591E+00
 -1      3463 1.20002E+00
 -1      3464 6.09853E-01
 -1      3465 6.56563E-01
 -1      3466 7.63435E-01
 -1      3467 4.88177E-01
 -1      3468 5.35043E-01
 -1      3469 5.96812E-01
 -1      3470 3.88738E-01
 -1      3471 4.31275E-01
 -1      3472 4.65099E-01
 -1      3473 3.09256E-01
 -1      3474 3.47516E-01
 -1      3475 3.66975E-01
 -1      3476 2.46227E-01
 -1      3477 2.78253E-01
 -1      3478 2.94751E-01
 -1      3479 1.91721E-01
 -1      3480 2.18279E-01
 -1      3481 2.35800E-01
 -1      3482 1.45954E-01
 -1      3483 1.67560E-01
 -1      3484 1.83691E-01
 -1      3485 1.08541E-01
 -1      3486 1.25802E-01
 -1      3487 1.39378E-01
 -1      3488 7.87042E-02
 -1      3489 9.22514E-02
 -1      3490 1.02937E-01
 -1      3491 5.54663E-02
 -1      3492 6.59124E-02
 -1      3493 7.38551E-02
 -1      3494 3.83053E-02
 -1      3495 4.62148E-02
 -1      3496 5.18118E-02
 -1      3497 2.54201E-02
 -1      3498 3.12912E-02
 -1      3499 3.55462E-02
 -1      3500 1.59678E-02
 -1      3501 2.02330E-02
 -1      3502 2.33449E-02
 -1      3503 9.30390E-03
 -1      3504 1.22595E-02
 -1      3505 1.44496E-02
 -1      3506 6.14630E-03
 -1      3507 6.73842E-03
 -1      3508 8.17582E-03
 -1      3509 5.17680E-03
 -1      3510 5.14769E-03
 -1      3511 4.61174E-03
 -1      3512 5.35931E-03
 -1      3513 5.55595E-03
 -1      3514 3.99228E-03
 -1      3515 5.12784E-03
 -1      3516 5.44981E-03
 -1      3517 4.46193E-03
 -1      3518 4.65896E-03
 -1      3519 5.03685E-03
 -1      3520 4.46144E-03
 -1      3521 4.10587E-03
 -1      3522 4.46345E-03
 -1      3523 4.17494E-03
 -1      3524 3.59574E-03
 -1      3525 3.85929E-03
 -1      3526 3.73285E-03
 -1      3527 3.10995E-03
 -1      3528 3.38934E-03
 -1      3529 3.27987E-03
 -1      3530 2.63628E-03
 -1      3531 2.90769E-03
 -1      3532 2.87121E-03
 -1      3533 2.17744E-03
 -1      3534 2.42703E-03
 -1      3535 2.45970E-03
 -1      3536 1.75614E-03
 -1      3537 1.97698E-03
 -1      3538 2.04999E-03
 -1      3539 1.38365E-03
 -1      3540 1.57336E-03
 -1      3541 1.66675E-03
 -1      3542 1.06369E-03
 -1      3543 1.22301E-03
 -1      3544 1.32334E-03
 -1      3545 7.94972E-04
 -1      3546 9.25675E-04
 -1      3547 1.02468E-03
 -1      3548 6.32048E-04
 -1      3549 7.38281E-04
 -1      3550 8.29973E-04
 -1      3551 3.81201E-04
 -1      3552 3.55067E-04
 -1      3553 4.10882E-04
 -1      3554 4.64824E-04
 -1      3555 6.63639E+00
 -1      3556 6.90873E+00
 -1      3557 2.26934E+00
 -1      3558 2.15797E+00
 -1      3559 3.43903E+00
 -1      3560 2.36141E+00
 -1      3561 4.37008E+00
 -1      3562 4.86348E+00
 -1      3563 2.19546E+00
 -1      3564 7.01840E+00
 -1      3565 7.61892E+00
 -1      3566 7.11520E-04
 -1      3567 1.64922E+00
 -1      3568 1.79972E+00
 -1      3569 2.34441E+00
 -1      3570 2.26404E+00
 -1      3571 6.62596E+00
 -1      3572 5.71631E+00
 -1      3573 7.85088E-04
 -1      3574 7.03162E-04
 -1      3575 7.03162E-04
 -1      3576 4.02311E+00
 -1      3577 4.71108E+00
 -1      3578 4.79351E+00
 -1      3579 6.42329E-04
 -1      3580 6.27121E-04
 -1      3581 1.63184E+00
 -1      3582 1.84726E+00
 -1      3583 2.35072E+00
 -1      3584 4.69751E-04
 -1      3585 5.88938E+00
 -1      3586 5.35400E-04
 -1      3587 5.46112E-04
 -1      3588 1.75528E+00
 -1      3589 2.42783E+00
 -1      3590 3.63794E+00
 -1      3591 6.71751E+00
 -1      3592 6.71751E+00
 -1      3593 5.51617E+00
 -1      3594 2.61909E+00
 -1      3595 1.44125E+00
 -1      3596 1.54551E+00
 -1      3597 1.84232E+00
 -1      3598 1.55066E+00
 -1      3599 6.47346E+00
 -1      3600 2.02996E+00
 -1      3601 7.73283E-04
 -1      3602 6.27121E-04
 -1      3603 6.10985E-04
 -1      3604 4.90209E+00
 -1      3605 7.34247E+00
 -1      3606 2.39564E+00
 -1      3607 5.67471E+00
 -1      3608 5.24548E-04
 -1      3609 5.69997E-04
 -1      3610 5.32542E-04
 -1      3611 6.39158E-04
 -1      3612 6.04422E-04
 -1      3613 6.04422E-04
 -1      3614 7.53044E-04
 -1      3615 4.78005E+00
 -1      3616 3.54231E+00
 -1      3617 5.78367E-01
 -1      3618 6.53178E-01
 -1      3619 7.35375E-04
 -1      3620 2.45942E+00
 -1      3621 2.11180E+00
 -1      3622 3.50877E+00
 -1      3623 1.72607E+00
 -1      3624 1.50605E+00
 -1      3625 2.04016E+00
 -1      3626 1.26075E+00
 -1      3627 1.09415E+00
 -1      3628 1.40914E+00
 -1      3629 9.34863E-01
 -1      3630 8.10029E-01
 -1      3631 1.00455E+00
 -1      3632 7.00924E-01
 -1      3633 6.06504E-01
 -1      3634 7.36158E-01
 -1      3635 5.28630E-01
 -1      3636 4.56546E-01
 -1      3637 5.49178E-01
 -1      3638 3.98605E-01
 -1      3639 3.43123E-01
 -1      3640 4.13362E-01
 -1      3641 2.99031E-01
 -1      3642 2.56283E-01
 -1      3643 3.11328E-01
 -1      3644 2.22452E-01
 -1      3645 1.89614E-01
 -1      3646 2.33405E-01
 -1      3647 1.63447E-01
 -1      3648 1.38346E-01
 -1      3649 1.73407E-01
 -1      3650 1.18224E-01
 -1      3651 9.92175E-02
 -1      3652 1.27117E-01
 -1      3653 8.38529E-02
 -1      3654 6.96888E-02
 -1      3655 9.16296E-02
 -1      3656 5.80903E-02
 -1      3657 4.81945E-02
 -1      3658 6.46665E-02
 -1      3659 3.97261E-02
 -1      3660 3.24305E-02
 -1      3661 4.45996E-02
 -1      3662 2.65477E-02
 -1      3663 2.12668E-02
 -1      3664 3.02484E-02
 -1      3665 1.69428E-02
 -1      3666 1.32446E-02
 -1      3667 2.00415E-02
 -1      3668 1.01443E-02
 -1      3669 7.60674E-03
 -1      3670 1.26172E-02
 -1      3671 5.43136E-03
 -1      3672 4.15480E-03
 -1      3673 7.34154E-03
 -1      3674 2.94507E-03
 -1      3675 3.35136E-03
 -1      3676 3.95644E-03
 -1      3677 3.28007E-03
 -1      3678 3.39651E-03
 -1      3679 2.67541E-03
 -1      3680 3.61306E-03
 -1      3681 3.54789E-03
 -1      3682 2.82066E-03
 -1      3683 3.58018E-03
 -1      3684 3.40990E-03
 -1      3685 3.06950E-03
 -1      3686 3.32914E-03
 -1      3687 3.10633E-03
 -1      3688 3.02103E-03
 -1      3689 2.96252E-03
 -1      3690 2.76076E-03
 -1      3691 2.79646E-03
 -1      3692 2.58797E-03
 -1      3693 2.40027E-03
 -1      3694 2.47987E-03
 -1      3695 2.25565E-03
 -1      3696 2.06108E-03
 -1      3697 2.16247E-03
 -1      3698 1.90932E-03
 -1      3699 1.72266E-03
 -1      3700 1.86609E-03
 -1      3701 1.57453E-03
 -1      3702 1.40418E-03
 -1      3703 1.56620E-03
 -1      3704 1.26721E-03
 -1      3705 1.11711E-03
 -1      3706 1.28110E-03
 -1      3707 9.95234E-04
 -1      3708 8.68340E-04
 -1      3709 1.02226E-03
 -1      3710 1.00829E+00
 -1      3711 1.10802E+00
 -1      3712 1.33129E+00
 -1      3713 1.47660E+00
 -1      3714 1.38460E+00
 -1      3715 4.54217E-01
 -1      3716 5.11119E-01
 -1      3717 5.67485E-01
 -1      3718 3.66975E-01
 -1      3719 4.08197E-01
 -1      3720 4.54217E-01
 -1      3721 2.94751E-01
 -1      3722 3.25753E-01
 -1      3723 3.66975E-01
 -1      3724 2.31492E-01
 -1      3725 2.59440E-01
 -1      3726 2.90442E-01
 -1      3727 1.78011E-01
 -1      3728 2.02172E-01
 -1      3729 2.25812E-01
 -1      3730 1.33806E-01
 -1      3731 1.53957E-01
 -1      3732 1.72438E-01
 -1      3733 9.82349E-02
 -1      3734 1.14525E-01
 -1      3735 1.29104E-01
 -1      3736 7.02476E-02
 -1      3737 8.30394E-02
 -1      3738 9.46274E-02
 -1      3739 4.92702E-02
 -1      3740 5.85217E-02
 -1      3741 6.77060E-02
 -1      3742 3.34259E-02
 -1      3743 4.04400E-02
 -1      3744 4.71499E-02
 -1      3745 2.20738E-02
 -1      3746 2.72609E-02
 -1      3747 3.21547E-02
 -1      3748 1.37936E-02
 -1      3749 1.75019E-02
 -1      3750 2.14179E-02
 -1      3751 7.92522E-03
 -1      3752 1.04907E-02
 -1      3753 1.35430E-02
 -1      3754 4.59661E-03
 -1      3755 5.59522E-03
 -1      3756 7.91009E-03
 -1      3757 3.78615E-03
 -1      3758 3.40699E-03
 -1      3759 4.39047E-03
 -1      3760 3.70882E-03
 -1      3761 3.61833E-03
 -1      3762 3.03304E-03
 -1      3763 3.83802E-03
 -1      3764 3.92900E-03
 -1      3765 3.08540E-03
 -1      3766 3.66962E-03
 -1      3767 3.86513E-03
 -1      3768 3.33269E-03
 -1      3769 3.33132E-03
 -1      3770 3.57790E-03
 -1      3771 3.26808E-03
 -1      3772 2.96696E-03
 -1      3773 3.17337E-03
 -1      3774 3.01841E-03
 -1      3775 2.58363E-03
 -1      3776 2.78588E-03
 -1      3777 2.67938E-03
 -1      3778 2.22246E-03
 -1      3779 2.43171E-03
 -1      3780 2.34638E-03
 -1      3781 1.85874E-03
 -1      3782 2.05919E-03
 -1      3783 2.03120E-03
 -1      3784 1.51588E-03
 -1      3785 1.69867E-03
 -1      3786 1.70787E-03
 -1      3787 1.20666E-03
 -1      3788 1.36729E-03
 -1      3789 1.39921E-03
 -1      3790 9.38095E-04
 -1      3791 1.07611E-03
 -1      3792 1.12007E-03
 -1      3793 7.82719E-04
 -1      3794 8.39409E-04
 -1      3795 8.90841E-04
 -1      3796 7.82719E-04
 -1      3797 5.76718E+00
 -1      3798 5.12947E+00
 -1      3799 5.12947E+00
 -1      3800 5.57880E+00
 -1      3801 7.85088E-04
 -1      3802 7.50819E-01
 -1      3803 8.42632E-01
 -1      3804 9.95674E-01
 -1      3805 6.71751E+00
 -1      3806 5.94098E+00
 -1      3807 4.95384E+00
 -1      3808 5.31602E+00
 -1      3809 9.00384E-04
 -1      3810 7.31510E-04
 -1      3811 7.69417E-04
 -1      3812 7.78853E-04
 -1      3813 2.93658E+00
 -1      3814 1.86873E+00
 -1      3815 1.73746E+00
 -1      3816 1.94280E+00
 -1      3817 3.47415E+00
 -1      3818 7.29764E-04
 -1      3819 5.96525E-04
 -1      3820 6.54835E-04
 -1      3821 6.88877E-04
 -1      3822 4.71598E+00
 -1      3823 4.51584E+00
 -1      3824 4.12914E+00
 -1      3825 4.41654E+00
 -1      3826 3.82970E+00
 -1      3827 3.49374E+00
 -1      3828 7.30725E-04
 -1      3829 7.41577E-04
 -1      3830 7.57254E-04
 -1      3831 7.32375E-01
 -1      3832 3.05207E+00
 -1      3833 2.12718E+00
 -1      3834 3.25062E+00
 -1      3835 3.09822E+00
 -1      3836 2.04086E+00
 -1      3837 1.41525E+00
 -1      3838 1.63851E+00
 -1      3839 3.50975E+00
 -1      3840 2.42687E+00
 -1      3841 3.87194E+00
 -1      3842 1.99455E+00
 -1      3843 1.60883E+00
 -1      3844 1.99553E+00
 -1      3845 1.36290E+00
 -1      3846 1.11761E+00
 -1      3847 1.31729E+00
 -1      3848 9.63450E-01
 -1      3849 8.04161E-01
 -1      3850 9.17215E-01
 -1      3851 7.03389E-01
 -1      3852 5.94284E-01
 -1      3853 6.62287E-01
 -1      3854 5.23428E-01
 -1      3855 4.45554E-01
 -1      3856 4.90660E-01
 -1      3857 3.92517E-01
 -1      3858 3.34576E-01
 -1      3859 3.66767E-01
 -1      3860 2.96426E-01
 -1      3861 2.52333E-01
 -1      3862 2.75581E-01
 -1      3863 2.22828E-01
 -1      3864 1.88997E-01
 -1      3865 2.07926E-01
 -1      3866 1.66249E-01
 -1      3867 1.40082E-01
 -1      3868 1.55672E-01
 -1      3869 1.22863E-01
 -1      3870 1.02740E-01
 -1      3871 1.15705E-01
 -1      3872 8.95297E-02
 -1      3873 7.41650E-02
 -1      3874 8.52757E-02
 -1      3875 6.39153E-02
 -1      3876 5.23168E-02
 -1      3877 6.18154E-02
 -1      3878 4.47099E-02
 -1      3879 3.62414E-02
 -1      3880 4.39586E-02
 -1      3881 3.07263E-02
 -1      3882 2.48435E-02
 -1      3883 3.08366E-02
 -1      3884 2.09530E-02
 -1      3885 1.66290E-02
 -1      3886 2.14310E-02
 -1      3887 1.37989E-02
 -1      3888 1.06986E-02
 -1      3889 1.47103E-02
 -1      3890 8.58397E-03
 -1      3891 6.40859E-03
 -1      3892 9.76563E-03
 -1      3893 4.89880E-03
 -1      3894 3.68907E-03
 -1      3895 6.14123E-03
 -1      3896 2.63502E-03
 -1      3897 2.56372E-03
 -1      3898 3.57738E-03
 -1      3899 2.16469E-03
 -1      3900 2.38124E-03
 -1      3901 2.12430E-03
 -1      3902 2.56952E-03
 -1      3903 2.60180E-03
 -1      3904 1.91354E-03
 -1      3905 2.64738E-03
 -1      3906 2.56663E-03
 -1      3907 2.14740E-03
 -1      3908 2.52320E-03
 -1      3909 2.37939E-03
 -1      3910 2.14955E-03
 -1      3911 2.28496E-03
 -1      3912 2.11218E-03
 -1      3913 2.01170E-03
 -1      3914 1.99290E-03
 -1      3915 1.84828E-03
 -1      3916 1.79799E-03
 -1      3917 1.72151E-03
 -1      3918 1.56975E-03
 -1      3919 1.55194E-03
 -1      3920 1.44615E-03
 -1      3921 1.29803E-03
 -1      3922 1.30158E-03
 -1      3923 1.18401E-03
 -1      3924 1.04704E-03
 -1      3925 1.06397E-03
 -1      3926 1.02322E-03
 -1      3927 9.01345E-04
 -1      3928 9.26128E-04
 -1      3929 3.53683E-01
 -1      3930 3.94905E-01
 -1      3931 2.73747E-01
 -1      3932 3.09058E-01
 -1      3933 3.36988E-01
 -1      3934 2.09883E-01
 -1      3935 2.39202E-01
 -1      3936 2.57818E-01
 -1      3937 1.58045E-01
 -1      3938 1.82098E-01
 -1      3939 1.95489E-01
 -1      3940 1.17141E-01
 -1      3941 1.36422E-01
 -1      3942 1.46082E-01
 -1      3943 8.52069E-02
 -1      3944 1.00402E-01
 -1      3945 1.07720E-01
 -1      3946 6.03742E-02
 -1      3947 7.21001E-02
 -1      3948 7.78751E-02
 -1      3949 4.19621E-02
 -1      3950 5.07924E-02
 -1      3951 5.51864E-02
 -1      3952 2.84113E-02
 -1      3953 3.45762E-02
 -1      3954 3.82187E-02
 -1      3955 1.88701E-02
 -1      3956 2.34420E-02
 -1      3957 2.58635E-02
 -1      3958 1.19457E-02
 -1      3959 1.52486E-02
 -1      3960 1.72728E-02
 -1      3961 7.13020E-03
 -1      3962 9.46020E-03
 -1      3963 1.11658E-02
 -1      3964 4.34284E-03
 -1      3965 5.53246E-03
 -1      3966 7.08257E-03
 -1      3967 3.03304E-03
 -1      3968 3.20086E-03
 -1      3969 4.34284E-03
 -1      3970 2.63472E-03
 -1      3971 2.41454E-03
 -1      3972 2.58236E-03
 -1      3973 2.90386E-03
 -1      3974 2.87675E-03
 -1      3975 2.20589E-03
 -1      3976 2.87982E-03
 -1      3977 2.97153E-03
 -1      3978 2.51559E-03
 -1      3979 2.67967E-03
 -1      3980 2.83762E-03
 -1      3981 2.54107E-03
 -1      3982 2.39251E-03
 -1      3983 2.57359E-03
 -1      3984 2.39280E-03
 -1      3985 2.10252E-03
 -1      3986 2.25443E-03
 -1      3987 2.14864E-03
 -1      3988 1.79666E-03
 -1      3989 1.95992E-03
 -1      3990 1.86797E-03
 -1      3991 1.50979E-03
 -1      3992 1.66986E-03
 -1      3993 1.59858E-03
 -1      3994 1.23622E-03
 -1      3995 1.38481E-03
 -1      3996 1.34680E-03
 -1      3997 1.02838E-03
 -1      3998 1.15893E-03
 -1      3999 1.14453E-03
 -1      4000 9.47601E-04
 -1      4001 1.04629E-03
 -1      4002 1.08515E-03
 -1      4003 9.34299E-04
 -1      4004 7.26038E-01
 -1      4005 8.23680E-01
 -1      4006 9.01345E-04
 -1      4007 9.46052E-01
 -1      4008 1.11171E+00
 -1      4009 9.39715E-01
 -1      4010 9.01345E-04
 -1      4011 4.51738E-01
 -1      4012 4.97758E-01
 -1      4013 4.38446E-01
 -1      4014 5.67485E-01
 -1      4015 6.34733E-01
 -1      4016 5.65006E-01
 -1      4017 9.02306E-04
 -1      4018 7.26038E-01
 -1      4019 1.36562E+00
 -1      4020 2.22766E+00
 -1      4021 3.46083E+00
 -1      4022 3.04733E+00
 -1      4023 3.00016E+00
 -1      4024 2.62318E+00
 -1      4025 2.74789E+00
 -1      4026 8.57625E-04
 -1      4027 9.34299E-04
 -1      4028 1.10305E-03
 -1      4029 4.24813E+00
 -1      4030 4.24813E+00
 -1      4031 2.80404E+00
 -1      4032 3.44794E+00
 -1      4033 2.22165E+00
 -1      4034 1.78934E+00
 -1      4035 2.59785E+00
 -1      4036 1.84946E+00
 -1      4037 2.11032E+00
 -1      4038 1.55051E+00
 -1      4039 1.30458E+00
 -1      4040 1.77662E+00
 -1      4041 9.67832E-01
 -1      4042 8.13676E-01
 -1      4043 1.20104E+00
 -1      4044 7.32427E-01
 -1      4045 6.31655E-01
 -1      4046 7.83044E-01
 -1      4047 5.80541E-01
 -1      4048 5.09685E-01
 -1      4049 6.50681E-01
 -1      4050 4.07341E-01
 -1      4051 3.54304E-01
 -1      4052 4.97222E-01
 -1      4053 2.97013E-01
 -1      4054 2.58863E-01
 -1      4055 3.37586E-01
 -1      4056 2.23688E-01
 -1      4057 1.94182E-01
 -1      4058 2.45120E-01
 -1      4059 1.68554E-01
 -1      4060 1.45806E-01
 -1      4061 1.84316E-01
 -1      4062 1.25977E-01
 -1      4063 1.08758E-01
 -1      4064 1.38859E-01
 -1      4065 9.27866E-02
 -1      4066 7.95760E-02
 -1      4067 1.03058E-01
 -1      4068 6.82704E-02
 -1      4069 5.80206E-02
 -1      4070 7.57813E-02
 -1      4071 6.01713E-02
 -1      4072 5.25643E-02
 -1      4073 6.66263E-02
 -1      4074 3.53695E-02
 -1      4075 2.98544E-02
 -1      4076 5.15821E-02
 -1      4077 2.43905E-02
 -1      4078 2.05000E-02
 -1      4079 2.89234E-02
 -1      4080 1.66510E-02
 -1      4081 1.38209E-02
 -1      4082 1.96106E-02
 -1      4083 1.11467E-02
 -1      4084 9.03206E-03
 -1      4085 1.30873E-02
 -1      4086 7.11592E-03
 -1      4087 5.60612E-03
 -1      4088 8.49696E-03
 -1      4089 4.24048E-03
 -1      4090 3.18643E-03
 -1      4091 5.21518E-03
 -1      4092 2.24442E-03
 -1      4093 1.84539E-03
 -1      4094 2.90752E-03
 -1      4095 1.48730E-03
 -1      4096 1.67558E-03
 -1      4097 1.60742E-03
 -1      4098 1.80102E-03
 -1      4099 1.84660E-03
 -1      4100 1.37477E-03
 -1      4101 1.89299E-03
 -1      4102 1.84957E-03
 -1      4103 1.54661E-03
 -1      4104 1.84114E-03
 -1      4105 1.74671E-03
 -1      4106 1.58458E-03
 -1      4107 1.69829E-03
 -1      4108 1.57901E-03
 -1      4109 1.52773E-03
 -1      4110 1.52463E-03
 -1      4111 1.39786E-03
 -1      4112 1.42493E-03
 -1      4113 1.32179E-03
 -1      4114 1.19820E-03
 -1      4115 1.29448E-03
 -1      4116 1.10924E-03
 -1      4117 9.95224E-04
 -1      4118 1.12946E-03
 -1      4119 9.45668E-04
 -1      4120 9.21846E-04
 -1      4121 9.90942E-04
 -1      4122 2.47395E-01
 -1      4123 2.81939E-01
 -1      4124 9.21846E-04
 -1      4125 3.43620E-01
 -1      4126 3.88246E-01
 -1      4127 3.33197E-01
 -1      4128 1.36109E-01
 -1      4129 1.57731E-01
 -1      4130 9.76034E-02
 -1      4131 1.14342E-01
 -1      4132 1.25992E-01
 -1      4133 7.51731E-02
 -1      4134 8.82799E-02
 -1      4135 9.49014E-02
 -1      4136 5.44972E-02
 -1      4137 6.40791E-02
 -1      4138 7.44838E-02
 -1      4139 3.38133E-02
 -1      4140 4.11992E-02
 -1      4141 5.00918E-02
 -1      4142 2.68863E-02
 -1      4143 3.18555E-02
 -1      4144 3.48360E-02
 -1      4145 1.64376E-02
 -1      4146 2.00591E-02
 -1      4147 2.60511E-02
 -1      4148 1.07780E-02
 -1      4149 1.32636E-02
 -1      4150 1.60498E-02
 -1      4151 6.94715E-03
 -1      4152 8.54488E-03
 -1      4153 1.06426E-02
 -1      4154 4.19219E-03
 -1      4155 5.33418E-03
 -1      4156 6.79650E-03
 -1      4157 2.43342E-03
 -1      4158 3.05191E-03
 -1      4159 4.04325E-03
 -1      4160 1.94839E-03
 -1      4161 1.70636E-03
 -1      4162 2.17592E-03
 -1      4163 2.20997E-03
 -1      4164 2.14230E-03
 -1      4165 1.64277E-03
 -1      4166 2.22993E-03
 -1      4167 2.27213E-03
 -1      4168 1.89884E-03
 -1      4169 2.09848E-03
 -1      4170 2.20455E-03
 -1      4171 1.93561E-03
 -1      4172 1.88363E-03
 -1      4173 2.02171E-03
 -1      4174 1.83347E-03
 -1      4175 1.63799E-03
 -1      4176 1.78059E-03
 -1      4177 1.65365E-03
 -1      4178 1.39928E-03
 -1      4179 1.52607E-03
 -1      4180 1.43869E-03
 -1      4181 1.16582E-03
 -1      4182 1.29081E-03
 -1      4183 1.21830E-03
 -1      4184 1.08515E-03
 -1      4185 1.16243E-03
 -1      4186 1.10644E-03
 -1      4187 1.36562E+00
 -1      4188 1.66916E+00
 -1      4189 7.56958E-01
 -1      4190 8.48263E-01
 -1      4191 9.39715E-01
 -1      4192 1.06209E+00
 -1      4193 9.70635E-01
 -1      4194 1.00268E-03
 -1      4195 1.88010E+00
 -1      4196 3.98969E-01
 -1      4197 4.55802E-01
 -1      4198 4.05601E-01
 -1      4199 1.85076E-01
 -1      4200 2.12860E-01
 -1      4201 2.36981E-01
 -1      4202 1.75102E-01
 -1      4203 5.42415E-01
 -1      4204 6.12143E-01
 -1      4205 5.02939E-01
 -1      4206 1.02222E-03
 -1      4207 9.41897E-04
 -1      4208 1.02273E-03
 -1      4209 7.34368E-01
 -1      4210 2.02409E+00
 -1      4211 2.02409E+00
 -1      4212 1.36562E+00
 -1      4213 2.60391E+00
 -1      4214 1.94757E+00
 -1      4215 2.30250E+00
 -1      4216 2.23503E+00
 -1      4217 2.97081E+00
 -1      4218 2.70310E+00
 -1      4219 7.44838E-02
 -1      4220 8.55779E-02
 -1      4221 7.34368E-01
 -1      4222 8.79183E-01
 -1      4223 1.10305E-03
 -1      4224 1.10305E-03
 -1      4225 1.53780E+00
 -1      4226 1.20104E+00
 -1      4227 8.71738E-01
 -1      4228 7.90489E-01
 -1      4229 7.39375E-01
 -1      4230 5.99567E-01
 -1      4231 4.97222E-01
 -1      4232 3.94878E-01
 -1      4233 3.37586E-01
 -1      4234 2.75905E-01
 -1      4235 2.40730E-01
 -1      4236 2.06196E-01
 -1      4237 1.80567E-01
 -1      4238 1.53223E-01
 -1      4239 1.33394E-01
 -1      4240 1.11627E-01
 -1      4241 9.56559E-02
 -1      4242 8.63324E-02
 -1      4243 7.50268E-02
 -1      4244 7.71774E-02
 -1      4245 6.87770E-02
 -1      4246 5.15821E-02
 -1      4247 3.36328E-02
 -1      4248 2.81689E-02
 -1      4249 2.13417E-02
 -1      4250 1.74927E-02
 -1      4251 1.43187E-02
 -1      4252 1.16444E-02
 -1      4253 9.41128E-03
 -1      4254 7.49514E-03
 -1      4255 5.88217E-03
 -1      4256 4.51654E-03
 -1      4257 3.37625E-03
 -1      4258 2.43424E-03
 -1      4259 1.70718E-03
 -1      4260 1.34910E-03
 -1      4261 1.54300E-03
 -1      4262 1.66845E-03
 -1      4263 1.73061E-03
 -1      4264 1.77700E-03
 -1      4265 1.75162E-03
 -1      4266 1.74319E-03
 -1      4267 1.66642E-03
 -1      4268 1.61800E-03
 -1      4269 1.51496E-03
 -1      4270 1.46058E-03
 -1      4271 1.34866E-03
 -1      4272 1.27259E-03
 -1      4273 1.16412E-03
 -1      4274 1.07516E-03
 -1      4275 9.91453E-04
 -1      4276 5.07946E-01
 -1      4277 5.94559E-01
 -1      4278 1.02273E-03
 -1      4279 5.27854E-02
 -1      4280 6.60834E-02
 -1      4281 5.08276E-02
 -1      4282 1.29994E+00
 -1      4283 1.60348E+00
 -1      4284 1.88188E+00
 -1      4285 2.12071E+00
 -1      4286 4.97222E-01
 -1      4287 1.20849E+00
 -1      4288 1.20849E+00
 -1      4289 1.88188E+00
 -1      4290 7.71774E-02
 -1      4291 7.39375E-01
 -1      4292 9.49014E-02
 -1      4293 1.02612E-03
 -3
 9999
