    1C
    1UUSER                                                              
    1UDATE              27.october.2022                                 
    1UTIME              00:27:46                                        
    1UHOST                                                              
    1UPGM               CalculiX                                        
    1UVERSION           Version 2.17                             
    1UCOMPILETIME       Thu Jul 23 21:43:50 CEST 2020                    
    1UDIR                                                               
    1UDBN                                                               
    1UMAT    1SOLIDMATERIAL                                             
    2C                          4231                                     1
 -1         1 1.39091E+02 3.35373E+01 0.00000E+00
 -1         2 1.45994E+02 2.65380E+01 0.00000E+00
 -1         3 1.50000E+02 0.00000E+00 0.00000E+00
 -1         4 1.50000E+02 5.00000E+01 0.00000E+00
 -1         5 0.00000E+00 0.00000E+00 0.00000E+00
 -1         6 0.00000E+00 5.00000E+01 0.00000E+00
 -1         7 0.00000E+00 4.70500E+01 0.00000E+00
 -1         8 0.00000E+00 4.41000E+01 0.00000E+00
 -1         9 0.00000E+00 4.11500E+01 0.00000E+00
 -1        10 0.00000E+00 3.82000E+01 0.00000E+00
 -1        11 0.00000E+00 3.52500E+01 0.00000E+00
 -1        12 0.00000E+00 3.23500E+01 0.00000E+00
 -1        13 0.00000E+00 2.94000E+01 0.00000E+00
 -1        14 0.00000E+00 2.64500E+01 0.00000E+00
 -1        15 0.00000E+00 2.35000E+01 0.00000E+00
 -1        16 0.00000E+00 2.05500E+01 0.00000E+00
 -1        17 0.00000E+00 1.76000E+01 0.00000E+00
 -1        18 0.00000E+00 1.47000E+01 0.00000E+00
 -1        19 0.00000E+00 1.17500E+01 0.00000E+00
 -1        20 0.00000E+00 8.80000E+00 0.00000E+00
 -1        21 0.00000E+00 5.85000E+00 0.00000E+00
 -1        22 0.00000E+00 2.90000E+00 0.00000E+00
 -1        23 3.15000E+00 5.00000E+01 0.00000E+00
 -1        24 6.15000E+00 5.00000E+01 0.00000E+00
 -1        25 9.15000E+00 5.00000E+01 0.00000E+00
 -1        26 1.21500E+01 5.00000E+01 0.00000E+00
 -1        27 1.51500E+01 5.00000E+01 0.00000E+00
 -1        28 1.81500E+01 5.00000E+01 0.00000E+00
 -1        29 2.11500E+01 5.00000E+01 0.00000E+00
 -1        30 2.41500E+01 5.00000E+01 0.00000E+00
 -1        31 2.71500E+01 5.00000E+01 0.00000E+00
 -1        32 3.01500E+01 5.00000E+01 0.00000E+00
 -1        33 3.31500E+01 5.00000E+01 0.00000E+00
 -1        34 3.61500E+01 5.00000E+01 0.00000E+00
 -1        35 3.91500E+01 5.00000E+01 0.00000E+00
 -1        36 4.21500E+01 5.00000E+01 0.00000E+00
 -1        37 4.51500E+01 5.00000E+01 0.00000E+00
 -1        38 4.81500E+01 5.00000E+01 0.00000E+00
 -1        39 5.11500E+01 5.00000E+01 0.00000E+00
 -1        40 5.41500E+01 5.00000E+01 0.00000E+00
 -1        41 5.71500E+01 5.00000E+01 0.00000E+00
 -1        42 6.01500E+01 5.00000E+01 0.00000E+00
 -1        43 6.31500E+01 5.00000E+01 0.00000E+00
 -1        44 6.61500E+01 5.00000E+01 0.00000E+00
 -1        45 6.91500E+01 5.00000E+01 0.00000E+00
 -1        46 7.21500E+01 5.00000E+01 0.00000E+00
 -1        47 7.51500E+01 5.00000E+01 0.00000E+00
 -1        48 7.81500E+01 5.00000E+01 0.00000E+00
 -1        49 8.11500E+01 5.00000E+01 0.00000E+00
 -1        50 8.41500E+01 5.00000E+01 0.00000E+00
 -1        51 8.71500E+01 5.00000E+01 0.00000E+00
 -1        52 9.01500E+01 5.00000E+01 0.00000E+00
 -1        53 9.31500E+01 5.00000E+01 0.00000E+00
 -1        54 9.61500E+01 5.00000E+01 0.00000E+00
 -1        55 9.91500E+01 5.00000E+01 0.00000E+00
 -1        56 1.02150E+02 5.00000E+01 0.00000E+00
 -1        57 1.05150E+02 5.00000E+01 0.00000E+00
 -1        58 1.08150E+02 5.00000E+01 0.00000E+00
 -1        59 1.11150E+02 5.00000E+01 0.00000E+00
 -1        60 1.14150E+02 5.00000E+01 0.00000E+00
 -1        61 1.17150E+02 5.00000E+01 0.00000E+00
 -1        62 1.20150E+02 5.00000E+01 0.00000E+00
 -1        63 1.23150E+02 5.00000E+01 0.00000E+00
 -1        64 1.26150E+02 5.00000E+01 0.00000E+00
 -1        65 1.29150E+02 5.00000E+01 0.00000E+00
 -1        66 1.32150E+02 5.00000E+01 0.00000E+00
 -1        67 1.35150E+02 5.00000E+01 0.00000E+00
 -1        68 1.38150E+02 5.00000E+01 0.00000E+00
 -1        69 1.41150E+02 5.00000E+01 0.00000E+00
 -1        70 1.44150E+02 5.00000E+01 0.00000E+00
 -1        71 1.47150E+02 5.00000E+01 0.00000E+00
 -1        72 3.15000E+00 0.00000E+00 0.00000E+00
 -1        73 6.15000E+00 0.00000E+00 0.00000E+00
 -1        74 9.15000E+00 0.00000E+00 0.00000E+00
 -1        75 1.21500E+01 0.00000E+00 0.00000E+00
 -1        76 1.51500E+01 0.00000E+00 0.00000E+00
 -1        77 1.81500E+01 0.00000E+00 0.00000E+00
 -1        78 2.11500E+01 0.00000E+00 0.00000E+00
 -1        79 2.41500E+01 0.00000E+00 0.00000E+00
 -1        80 2.71500E+01 0.00000E+00 0.00000E+00
 -1        81 3.01500E+01 0.00000E+00 0.00000E+00
 -1        82 3.31500E+01 0.00000E+00 0.00000E+00
 -1        83 3.61500E+01 0.00000E+00 0.00000E+00
 -1        84 3.91500E+01 0.00000E+00 0.00000E+00
 -1        85 4.21500E+01 0.00000E+00 0.00000E+00
 -1        86 4.51500E+01 0.00000E+00 0.00000E+00
 -1        87 4.81500E+01 0.00000E+00 0.00000E+00
 -1        88 5.11500E+01 0.00000E+00 0.00000E+00
 -1        89 5.41500E+01 0.00000E+00 0.00000E+00
 -1        90 5.71500E+01 0.00000E+00 0.00000E+00
 -1        91 6.01500E+01 0.00000E+00 0.00000E+00
 -1        92 6.31500E+01 0.00000E+00 0.00000E+00
 -1        93 6.61500E+01 0.00000E+00 0.00000E+00
 -1        94 6.91500E+01 0.00000E+00 0.00000E+00
 -1        95 7.21500E+01 0.00000E+00 0.00000E+00
 -1        96 7.51500E+01 0.00000E+00 0.00000E+00
 -1        97 7.81500E+01 0.00000E+00 0.00000E+00
 -1        98 8.11500E+01 0.00000E+00 0.00000E+00
 -1        99 8.41500E+01 0.00000E+00 0.00000E+00
 -1       100 8.71500E+01 0.00000E+00 0.00000E+00
 -1       101 9.01500E+01 0.00000E+00 0.00000E+00
 -1       102 9.31500E+01 0.00000E+00 0.00000E+00
 -1       103 9.61500E+01 0.00000E+00 0.00000E+00
 -1       104 9.91500E+01 0.00000E+00 0.00000E+00
 -1       105 1.02150E+02 0.00000E+00 0.00000E+00
 -1       106 1.05150E+02 0.00000E+00 0.00000E+00
 -1       107 1.08150E+02 0.00000E+00 0.00000E+00
 -1       108 1.11150E+02 0.00000E+00 0.00000E+00
 -1       109 1.14150E+02 0.00000E+00 0.00000E+00
 -1       110 1.17150E+02 0.00000E+00 0.00000E+00
 -1       111 1.20150E+02 0.00000E+00 0.00000E+00
 -1       112 1.23150E+02 0.00000E+00 0.00000E+00
 -1       113 1.26150E+02 0.00000E+00 0.00000E+00
 -1       114 1.29150E+02 0.00000E+00 0.00000E+00
 -1       115 1.32150E+02 0.00000E+00 0.00000E+00
 -1       116 1.35150E+02 0.00000E+00 0.00000E+00
 -1       117 1.38150E+02 0.00000E+00 0.00000E+00
 -1       118 1.41150E+02 0.00000E+00 0.00000E+00
 -1       119 1.44150E+02 0.00000E+00 0.00000E+00
 -1       120 1.47150E+02 0.00000E+00 0.00000E+00
 -1       121 1.50000E+02 3.10000E+00 0.00000E+00
 -1       122 1.50000E+02 6.20000E+00 0.00000E+00
 -1       123 1.50000E+02 9.25000E+00 0.00000E+00
 -1       124 1.50000E+02 1.23500E+01 0.00000E+00
 -1       125 1.50000E+02 1.52500E+01 0.00000E+00
 -1       126 1.50000E+02 1.78000E+01 0.00000E+00
 -1       127 1.50000E+02 2.00500E+01 0.00000E+00
 -1       128 1.50000E+02 2.21000E+01 0.00000E+00
 -1       129 1.50000E+02 2.40000E+01 0.00000E+00
 -1       130 1.50000E+02 2.59500E+01 0.00000E+00
 -1       131 1.50000E+02 2.78500E+01 0.00000E+00
 -1       132 1.50000E+02 3.00500E+01 0.00000E+00
 -1       133 1.50000E+02 3.20500E+01 0.00000E+00
 -1       134 1.50000E+02 3.46500E+01 0.00000E+00
 -1       135 1.50000E+02 3.77000E+01 0.00000E+00
 -1       136 1.50000E+02 4.08000E+01 0.00000E+00
 -1       137 1.50000E+02 4.38500E+01 0.00000E+00
 -1       138 1.50000E+02 4.69500E+01 0.00000E+00
 -1       139 1.45837E+02 2.50630E+01 0.00000E+00
 -1       140 1.45358E+02 2.36236E+01 0.00000E+00
 -1       141 1.44576E+02 2.23149E+01 0.00000E+00
 -1       142 1.43503E+02 2.11838E+01 0.00000E+00
 -1       143 1.42286E+02 2.03608E+01 0.00000E+00
 -1       144 1.40858E+02 1.97909E+01 0.00000E+00
 -1       145 1.39379E+02 1.95486E+01 0.00000E+00
 -1       146 1.37826E+02 1.96362E+01 0.00000E+00
 -1       147 1.36308E+02 2.00737E+01 0.00000E+00
 -1       148 1.35066E+02 2.07438E+01 0.00000E+00
 -1       149 1.33845E+02 2.17960E+01 0.00000E+00
 -1       150 1.32951E+02 2.30043E+01 0.00000E+00
 -1       151 1.32333E+02 2.43868E+01 0.00000E+00
 -1       152 1.32025E+02 2.58786E+01 0.00000E+00
 -1       153 1.32035E+02 2.73012E+01 0.00000E+00
 -1       154 1.32348E+02 2.87352E+01 0.00000E+00
 -1       155 1.32961E+02 3.00890E+01 0.00000E+00
 -1       156 1.33794E+02 3.12240E+01 0.00000E+00
 -1       157 1.34829E+02 3.21645E+01 0.00000E+00
 -1       158 1.36161E+02 3.29393E+01 0.00000E+00
 -1       159 1.37584E+02 3.33947E+01 0.00000E+00
 -1       160 1.40611E+02 3.33486E+01 0.00000E+00
 -1       161 1.42137E+02 3.27927E+01 0.00000E+00
 -1       162 1.43458E+02 3.19296E+01 0.00000E+00
 -1       163 1.44503E+02 3.08568E+01 0.00000E+00
 -1       164 1.45295E+02 2.95864E+01 0.00000E+00
 -1       165 1.45836E+02 2.80178E+01 0.00000E+00
 -1       166 2.59800E+00 4.55750E+01 0.00000E+00
 -1       167 2.59800E+00 4.26250E+01 0.00000E+00
 -1       168 2.59800E+00 3.96750E+01 0.00000E+00
 -1       169 2.59800E+00 3.67250E+01 0.00000E+00
 -1       170 2.59800E+00 3.38250E+01 0.00000E+00
 -1       171 2.59800E+00 3.08750E+01 0.00000E+00
 -1       172 2.59800E+00 2.79250E+01 0.00000E+00
 -1       173 2.59800E+00 2.49750E+01 0.00000E+00
 -1       174 2.59800E+00 2.20250E+01 0.00000E+00
 -1       175 2.59800E+00 1.90750E+01 0.00000E+00
 -1       176 2.59800E+00 1.61750E+01 0.00000E+00
 -1       177 2.59800E+00 1.32250E+01 0.00000E+00
 -1       178 2.59800E+00 1.02750E+01 0.00000E+00
 -1       179 2.59800E+00 7.32500E+00 0.00000E+00
 -1       180 2.59800E+00 4.37500E+00 0.00000E+00
 -1       181 2.87400E+00 2.18750E+00 0.00000E+00
 -1       182 4.65000E+00 4.74020E+01 0.00000E+00
 -1       183 7.65000E+00 4.74020E+01 0.00000E+00
 -1       184 1.06500E+01 4.74020E+01 0.00000E+00
 -1       185 1.36500E+01 4.74020E+01 0.00000E+00
 -1       186 1.66500E+01 4.74020E+01 0.00000E+00
 -1       187 1.96500E+01 4.74020E+01 0.00000E+00
 -1       188 2.26500E+01 4.74020E+01 0.00000E+00
 -1       189 2.56500E+01 4.74020E+01 0.00000E+00
 -1       190 2.86500E+01 4.74020E+01 0.00000E+00
 -1       191 3.16500E+01 4.74020E+01 0.00000E+00
 -1       192 3.46500E+01 4.74020E+01 0.00000E+00
 -1       193 3.76500E+01 4.74020E+01 0.00000E+00
 -1       194 4.06500E+01 4.74020E+01 0.00000E+00
 -1       195 4.36500E+01 4.74020E+01 0.00000E+00
 -1       196 4.66500E+01 4.74020E+01 0.00000E+00
 -1       197 4.96500E+01 4.74020E+01 0.00000E+00
 -1       198 5.26500E+01 4.74020E+01 0.00000E+00
 -1       199 5.56500E+01 4.74020E+01 0.00000E+00
 -1       200 5.86500E+01 4.74020E+01 0.00000E+00
 -1       201 6.16500E+01 4.74020E+01 0.00000E+00
 -1       202 6.46500E+01 4.74020E+01 0.00000E+00
 -1       203 6.76500E+01 4.74020E+01 0.00000E+00
 -1       204 7.06500E+01 4.74020E+01 0.00000E+00
 -1       205 7.36500E+01 4.74020E+01 0.00000E+00
 -1       206 7.66500E+01 4.74020E+01 0.00000E+00
 -1       207 7.96500E+01 4.74020E+01 0.00000E+00
 -1       208 8.26500E+01 4.74020E+01 0.00000E+00
 -1       209 8.56500E+01 4.74020E+01 0.00000E+00
 -1       210 8.86500E+01 4.74020E+01 0.00000E+00
 -1       211 9.16500E+01 4.74020E+01 0.00000E+00
 -1       212 9.46500E+01 4.74020E+01 0.00000E+00
 -1       213 9.76500E+01 4.74020E+01 0.00000E+00
 -1       214 1.00650E+02 4.74020E+01 0.00000E+00
 -1       215 1.03650E+02 4.74020E+01 0.00000E+00
 -1       216 1.06650E+02 4.74020E+01 0.00000E+00
 -1       217 1.09650E+02 4.74020E+01 0.00000E+00
 -1       218 1.12650E+02 4.74020E+01 0.00000E+00
 -1       219 1.15650E+02 4.74020E+01 0.00000E+00
 -1       220 1.18650E+02 4.74020E+01 0.00000E+00
 -1       221 1.21650E+02 4.74020E+01 0.00000E+00
 -1       222 1.24650E+02 4.74020E+01 0.00000E+00
 -1       223 1.27650E+02 4.74020E+01 0.00000E+00
 -1       224 1.30650E+02 4.74020E+01 0.00000E+00
 -1       225 1.33650E+02 4.74020E+01 0.00000E+00
 -1       226 1.36650E+02 4.74020E+01 0.00000E+00
 -1       227 1.39650E+02 4.74020E+01 0.00000E+00
 -1       228 1.42650E+02 4.74020E+01 0.00000E+00
 -1       229 1.45650E+02 4.74020E+01 0.00000E+00
 -1       230 5.87400E+00 2.18750E+00 0.00000E+00
 -1       231 8.87400E+00 2.18750E+00 0.00000E+00
 -1       232 1.18740E+01 2.18750E+00 0.00000E+00
 -1       233 1.48740E+01 2.18750E+00 0.00000E+00
 -1       234 1.78740E+01 2.18750E+00 0.00000E+00
 -1       235 2.08740E+01 2.18750E+00 0.00000E+00
 -1       236 2.38740E+01 2.18750E+00 0.00000E+00
 -1       237 2.68740E+01 2.18750E+00 0.00000E+00
 -1       238 2.98740E+01 2.18750E+00 0.00000E+00
 -1       239 3.28740E+01 2.18750E+00 0.00000E+00
 -1       240 3.58740E+01 2.18750E+00 0.00000E+00
 -1       241 3.88740E+01 2.18750E+00 0.00000E+00
 -1       242 4.18740E+01 2.18750E+00 0.00000E+00
 -1       243 4.48740E+01 2.18750E+00 0.00000E+00
 -1       244 4.78740E+01 2.18750E+00 0.00000E+00
 -1       245 5.08740E+01 2.18750E+00 0.00000E+00
 -1       246 5.38740E+01 2.18750E+00 0.00000E+00
 -1       247 5.68740E+01 2.18750E+00 0.00000E+00
 -1       248 5.98740E+01 2.18750E+00 0.00000E+00
 -1       249 6.28740E+01 2.18750E+00 0.00000E+00
 -1       250 6.58740E+01 2.18750E+00 0.00000E+00
 -1       251 6.88740E+01 2.18750E+00 0.00000E+00
 -1       252 7.18740E+01 2.18750E+00 0.00000E+00
 -1       253 7.48740E+01 2.18750E+00 0.00000E+00
 -1       254 7.78740E+01 2.18750E+00 0.00000E+00
 -1       255 8.08740E+01 2.18750E+00 0.00000E+00
 -1       256 8.38740E+01 2.18750E+00 0.00000E+00
 -1       257 8.68740E+01 2.18750E+00 0.00000E+00
 -1       258 8.98740E+01 2.18750E+00 0.00000E+00
 -1       259 9.28740E+01 2.18750E+00 0.00000E+00
 -1       260 9.58740E+01 2.18750E+00 0.00000E+00
 -1       261 9.88740E+01 2.18750E+00 0.00000E+00
 -1       262 1.01874E+02 2.18750E+00 0.00000E+00
 -1       263 1.04874E+02 2.18750E+00 0.00000E+00
 -1       264 1.07874E+02 2.18750E+00 0.00000E+00
 -1       265 1.10874E+02 2.18750E+00 0.00000E+00
 -1       266 1.13874E+02 2.18750E+00 0.00000E+00
 -1       267 1.16874E+02 2.18750E+00 0.00000E+00
 -1       268 1.19874E+02 2.18750E+00 0.00000E+00
 -1       269 1.22874E+02 2.18750E+00 0.00000E+00
 -1       270 1.25874E+02 2.18750E+00 0.00000E+00
 -1       271 1.28874E+02 2.18750E+00 0.00000E+00
 -1       272 1.31874E+02 2.18750E+00 0.00000E+00
 -1       273 1.34874E+02 2.18750E+00 0.00000E+00
 -1       274 1.37874E+02 2.18750E+00 0.00000E+00
 -1       275 1.40874E+02 2.18750E+00 0.00000E+00
 -1       276 1.43874E+02 2.18750E+00 0.00000E+00
 -1       277 1.46874E+02 2.18750E+00 0.00000E+00
 -1       278 1.47402E+02 4.65000E+00 0.00000E+00
 -1       279 1.47402E+02 7.70000E+00 0.00000E+00
 -1       280 1.47402E+02 1.08000E+01 0.00000E+00
 -1       281 1.47402E+02 1.37000E+01 0.00000E+00
 -1       282 1.47402E+02 1.62500E+01 0.00000E+00
 -1       283 1.47402E+02 1.85000E+01 0.00000E+00
 -1       284 1.48369E+02 2.30500E+01 0.00000E+00
 -1       285 1.48369E+02 2.50000E+01 0.00000E+00
 -1       286 1.48369E+02 2.69000E+01 0.00000E+00
 -1       287 1.48369E+02 2.91000E+01 0.00000E+00
 -1       288 1.48369E+02 3.11000E+01 0.00000E+00
 -1       289 1.48369E+02 3.37000E+01 0.00000E+00
 -1       290 1.48369E+02 3.67500E+01 0.00000E+00
 -1       291 1.48369E+02 3.98500E+01 0.00000E+00
 -1       292 1.48369E+02 4.29000E+01 0.00000E+00
 -1       293 1.47009E+02 4.51510E+01 0.00000E+00
 -1       294 1.47204E+02 2.56632E+01 0.00000E+00
 -1       295 1.46907E+02 2.39080E+01 0.00000E+00
 -1       296 1.46152E+02 2.22615E+01 0.00000E+00
 -1       297 1.44980E+02 2.08570E+01 0.00000E+00
 -1       298 1.43621E+02 1.96987E+01 0.00000E+00
 -1       299 1.42022E+02 1.89498E+01 0.00000E+00
 -1       300 1.40314E+02 1.84733E+01 0.00000E+00
 -1       301 1.38529E+02 1.82983E+01 0.00000E+00
 -1       302 1.36661E+02 1.84485E+01 0.00000E+00
 -1       303 1.35072E+02 1.92680E+01 0.00000E+00
 -1       304 1.33445E+02 2.00974E+01 0.00000E+00
 -1       305 1.32356E+02 2.16295E+01 0.00000E+00
 -1       306 1.31459E+02 2.31661E+01 0.00000E+00
 -1       307 1.30745E+02 2.48371E+01 0.00000E+00
 -1       308 1.30818E+02 2.65990E+01 0.00000E+00
 -1       309 1.30925E+02 2.82938E+01 0.00000E+00
 -1       310 1.31474E+02 2.99473E+01 0.00000E+00
 -1       311 1.32400E+02 3.13734E+01 0.00000E+00
 -1       312 1.33496E+02 3.25918E+01 0.00000E+00
 -1       313 1.34886E+02 3.35998E+01 0.00000E+00
 -1       314 1.36503E+02 3.43217E+01 0.00000E+00
 -1       315 1.38207E+02 3.48398E+01 0.00000E+00
 -1       316 1.40000E+02 3.46461E+01 0.00000E+00
 -1       317 1.41818E+02 3.42885E+01 0.00000E+00
 -1       318 1.43506E+02 3.34463E+01 0.00000E+00
 -1       319 1.44849E+02 3.22389E+01 0.00000E+00
 -1       320 1.45928E+02 3.08633E+01 0.00000E+00
 -1       321 1.46870E+02 2.92516E+01 0.00000E+00
 -1       322 1.47120E+02 2.74068E+01 0.00000E+00
 -1       323 1.47736E+02 2.08918E+01 0.00000E+00
 -1       324 5.19600E+00 4.11500E+01 0.00000E+00
 -1       325 5.19600E+00 4.41000E+01 0.00000E+00
 -1       326 5.19600E+00 3.52750E+01 0.00000E+00
 -1       327 5.19600E+00 3.23250E+01 0.00000E+00
 -1       328 5.19600E+00 2.93750E+01 0.00000E+00
 -1       329 5.19600E+00 2.64250E+01 0.00000E+00
 -1       330 5.19600E+00 2.34750E+01 0.00000E+00
 -1       331 5.19600E+00 2.05250E+01 0.00000E+00
 -1       332 5.19600E+00 1.76250E+01 0.00000E+00
 -1       333 5.19600E+00 1.46750E+01 0.00000E+00
 -1       334 5.19600E+00 1.17250E+01 0.00000E+00
 -1       335 5.19600E+00 8.77500E+00 0.00000E+00
 -1       336 5.19600E+00 5.82500E+00 0.00000E+00
 -1       337 5.53500E+00 4.00625E+00 0.00000E+00
 -1       338 8.53500E+00 4.00625E+00 0.00000E+00
 -1       339 9.15000E+00 4.48040E+01 0.00000E+00
 -1       340 1.21500E+01 4.48040E+01 0.00000E+00
 -1       341 1.51500E+01 4.48040E+01 0.00000E+00
 -1       342 1.81500E+01 4.48040E+01 0.00000E+00
 -1       343 2.11500E+01 4.48040E+01 0.00000E+00
 -1       344 2.41500E+01 4.48040E+01 0.00000E+00
 -1       345 2.71500E+01 4.48040E+01 0.00000E+00
 -1       346 3.01500E+01 4.48040E+01 0.00000E+00
 -1       347 3.31500E+01 4.48040E+01 0.00000E+00
 -1       348 3.61500E+01 4.48040E+01 0.00000E+00
 -1       349 3.91500E+01 4.48040E+01 0.00000E+00
 -1       350 4.21500E+01 4.48040E+01 0.00000E+00
 -1       351 4.51500E+01 4.48040E+01 0.00000E+00
 -1       352 4.81500E+01 4.48040E+01 0.00000E+00
 -1       353 5.11500E+01 4.48040E+01 0.00000E+00
 -1       354 5.41500E+01 4.48040E+01 0.00000E+00
 -1       355 5.71500E+01 4.48040E+01 0.00000E+00
 -1       356 6.01500E+01 4.48040E+01 0.00000E+00
 -1       357 6.31500E+01 4.48040E+01 0.00000E+00
 -1       358 6.61500E+01 4.48040E+01 0.00000E+00
 -1       359 6.91500E+01 4.48040E+01 0.00000E+00
 -1       360 7.21500E+01 4.48040E+01 0.00000E+00
 -1       361 7.51500E+01 4.48040E+01 0.00000E+00
 -1       362 7.81500E+01 4.48040E+01 0.00000E+00
 -1       363 8.11500E+01 4.48040E+01 0.00000E+00
 -1       364 8.41500E+01 4.48040E+01 0.00000E+00
 -1       365 8.71500E+01 4.48040E+01 0.00000E+00
 -1       366 9.01500E+01 4.48040E+01 0.00000E+00
 -1       367 9.31500E+01 4.48040E+01 0.00000E+00
 -1       368 9.61500E+01 4.48040E+01 0.00000E+00
 -1       369 9.91500E+01 4.48040E+01 0.00000E+00
 -1       370 1.02150E+02 4.48040E+01 0.00000E+00
 -1       371 1.05150E+02 4.48040E+01 0.00000E+00
 -1       372 1.08150E+02 4.48040E+01 0.00000E+00
 -1       373 1.11150E+02 4.48040E+01 0.00000E+00
 -1       374 1.14150E+02 4.48040E+01 0.00000E+00
 -1       375 1.17150E+02 4.48040E+01 0.00000E+00
 -1       376 1.20150E+02 4.48040E+01 0.00000E+00
 -1       377 1.23150E+02 4.48040E+01 0.00000E+00
 -1       378 1.26150E+02 4.48040E+01 0.00000E+00
 -1       379 1.29150E+02 4.48040E+01 0.00000E+00
 -1       380 1.32150E+02 4.48040E+01 0.00000E+00
 -1       381 1.35150E+02 4.48040E+01 0.00000E+00
 -1       382 1.38150E+02 4.48040E+01 0.00000E+00
 -1       383 1.41150E+02 4.48040E+01 0.00000E+00
 -1       384 1.44150E+02 4.48040E+01 0.00000E+00
 -1       385 1.15350E+01 4.00625E+00 0.00000E+00
 -1       386 1.45350E+01 4.00625E+00 0.00000E+00
 -1       387 1.75350E+01 4.00625E+00 0.00000E+00
 -1       388 2.05350E+01 4.00625E+00 0.00000E+00
 -1       389 2.35350E+01 4.00625E+00 0.00000E+00
 -1       390 2.65350E+01 4.00625E+00 0.00000E+00
 -1       391 2.95350E+01 4.00625E+00 0.00000E+00
 -1       392 3.25350E+01 4.00625E+00 0.00000E+00
 -1       393 3.55350E+01 4.00625E+00 0.00000E+00
 -1       394 3.85350E+01 4.00625E+00 0.00000E+00
 -1       395 4.15350E+01 4.00625E+00 0.00000E+00
 -1       396 4.45350E+01 4.00625E+00 0.00000E+00
 -1       397 4.75350E+01 4.00625E+00 0.00000E+00
 -1       398 5.05350E+01 4.00625E+00 0.00000E+00
 -1       399 5.35350E+01 4.00625E+00 0.00000E+00
 -1       400 5.65350E+01 4.00625E+00 0.00000E+00
 -1       401 5.95350E+01 4.00625E+00 0.00000E+00
 -1       402 6.25350E+01 4.00625E+00 0.00000E+00
 -1       403 6.55350E+01 4.00625E+00 0.00000E+00
 -1       404 6.85350E+01 4.00625E+00 0.00000E+00
 -1       405 7.15350E+01 4.00625E+00 0.00000E+00
 -1       406 7.45350E+01 4.00625E+00 0.00000E+00
 -1       407 7.75350E+01 4.00625E+00 0.00000E+00
 -1       408 8.05350E+01 4.00625E+00 0.00000E+00
 -1       409 8.35350E+01 4.00625E+00 0.00000E+00
 -1       410 8.65350E+01 4.00625E+00 0.00000E+00
 -1       411 8.95350E+01 4.00625E+00 0.00000E+00
 -1       412 9.25350E+01 4.00625E+00 0.00000E+00
 -1       413 9.55350E+01 4.00625E+00 0.00000E+00
 -1       414 9.85350E+01 4.00625E+00 0.00000E+00
 -1       415 1.01535E+02 4.00625E+00 0.00000E+00
 -1       416 1.04535E+02 4.00625E+00 0.00000E+00
 -1       417 1.07535E+02 4.00625E+00 0.00000E+00
 -1       418 1.10535E+02 4.00625E+00 0.00000E+00
 -1       419 1.13535E+02 4.00625E+00 0.00000E+00
 -1       420 1.16535E+02 4.00625E+00 0.00000E+00
 -1       421 1.19535E+02 4.00625E+00 0.00000E+00
 -1       422 1.22535E+02 4.00625E+00 0.00000E+00
 -1       423 1.25535E+02 4.00625E+00 0.00000E+00
 -1       424 1.28535E+02 4.00625E+00 0.00000E+00
 -1       425 1.31535E+02 4.00625E+00 0.00000E+00
 -1       426 1.34535E+02 4.00625E+00 0.00000E+00
 -1       427 1.37535E+02 4.00625E+00 0.00000E+00
 -1       428 1.40535E+02 4.00625E+00 0.00000E+00
 -1       429 1.43535E+02 4.00625E+00 0.00000E+00
 -1       430 1.45469E+02 4.32813E+00 0.00000E+00
 -1       431 1.44804E+02 1.22500E+01 0.00000E+00
 -1       432 1.44804E+02 9.15000E+00 0.00000E+00
 -1       433 1.45136E+02 6.73906E+00 0.00000E+00
 -1       434 1.44804E+02 1.48000E+01 0.00000E+00
 -1       435 1.44804E+02 1.70500E+01 0.00000E+00
 -1       436 1.46737E+02 3.24000E+01 0.00000E+00
 -1       437 1.45771E+02 3.83000E+01 0.00000E+00
 -1       438 1.45771E+02 4.13500E+01 0.00000E+00
 -1       439 5.19600E+00 3.82125E+01 0.00000E+00
 -1       440 1.43513E+02 1.78469E+01 0.00000E+00
 -1       441 1.41607E+02 1.71403E+01 0.00000E+00
 -1       442 1.39556E+02 1.70124E+01 0.00000E+00
 -1       443 1.37478E+02 1.69144E+01 0.00000E+00
 -1       444 1.35273E+02 1.77061E+01 0.00000E+00
 -1       445 1.33632E+02 1.84534E+01 0.00000E+00
 -1       446 1.31639E+02 1.99666E+01 0.00000E+00
 -1       447 1.30715E+02 2.17021E+01 0.00000E+00
 -1       448 1.29833E+02 2.34596E+01 0.00000E+00
 -1       449 1.29235E+02 2.57818E+01 0.00000E+00
 -1       450 1.29342E+02 2.74767E+01 0.00000E+00
 -1       451 1.29731E+02 2.96081E+01 0.00000E+00
 -1       452 1.30639E+02 3.15030E+01 0.00000E+00
 -1       453 1.31735E+02 3.27214E+01 0.00000E+00
 -1       454 1.33380E+02 3.42127E+01 0.00000E+00
 -1       455 1.35132E+02 3.52210E+01 0.00000E+00
 -1       456 1.36978E+02 3.58209E+01 0.00000E+00
 -1       457 1.39270E+02 3.62816E+01 0.00000E+00
 -1       458 1.41088E+02 3.59239E+01 0.00000E+00
 -1       459 1.43353E+02 3.52523E+01 0.00000E+00
 -1       460 1.45044E+02 3.38065E+01 0.00000E+00
 -1       461 1.45250E+02 1.91640E+01 0.00000E+00
 -1       462 1.46378E+02 1.93270E+01 0.00000E+00
 -1       463 1.31826E+02 1.83225E+01 0.00000E+00
 -1       464 1.46609E+02 3.44945E+01 0.00000E+00
 -1       465 7.79400E+00 3.08500E+01 0.00000E+00
 -1       466 7.79400E+00 3.38000E+01 0.00000E+00
 -1       467 7.79400E+00 2.49500E+01 0.00000E+00
 -1       468 7.79400E+00 2.20000E+01 0.00000E+00
 -1       469 7.79400E+00 1.91000E+01 0.00000E+00
 -1       470 7.79400E+00 1.61500E+01 0.00000E+00
 -1       471 7.79400E+00 1.32000E+01 0.00000E+00
 -1       472 7.79400E+00 1.02500E+01 0.00000E+00
 -1       473 7.79400E+00 7.30000E+00 0.00000E+00
 -1       474 8.16450E+00 5.65312E+00 0.00000E+00
 -1       475 1.06500E+01 4.22060E+01 0.00000E+00
 -1       476 1.60350E+01 6.60425E+00 0.00000E+00
 -1       477 1.30350E+01 6.60425E+00 0.00000E+00
 -1       478 7.92300E+00 4.16780E+01 0.00000E+00
 -1       479 1.36500E+01 4.22060E+01 0.00000E+00
 -1       480 1.66500E+01 4.22060E+01 0.00000E+00
 -1       481 1.96500E+01 4.22060E+01 0.00000E+00
 -1       482 2.26500E+01 4.22060E+01 0.00000E+00
 -1       483 2.56500E+01 4.22060E+01 0.00000E+00
 -1       484 2.86500E+01 4.22060E+01 0.00000E+00
 -1       485 3.16500E+01 4.22060E+01 0.00000E+00
 -1       486 3.46500E+01 4.22060E+01 0.00000E+00
 -1       487 3.76500E+01 4.22060E+01 0.00000E+00
 -1       488 4.06500E+01 4.22060E+01 0.00000E+00
 -1       489 4.36500E+01 4.22060E+01 0.00000E+00
 -1       490 4.66500E+01 4.22060E+01 0.00000E+00
 -1       491 4.96500E+01 4.22060E+01 0.00000E+00
 -1       492 5.26500E+01 4.22060E+01 0.00000E+00
 -1       493 5.56500E+01 4.22060E+01 0.00000E+00
 -1       494 5.86500E+01 4.22060E+01 0.00000E+00
 -1       495 6.16500E+01 4.22060E+01 0.00000E+00
 -1       496 6.46500E+01 4.22060E+01 0.00000E+00
 -1       497 6.76500E+01 4.22060E+01 0.00000E+00
 -1       498 7.06500E+01 4.22060E+01 0.00000E+00
 -1       499 7.36500E+01 4.22060E+01 0.00000E+00
 -1       500 7.66500E+01 4.22060E+01 0.00000E+00
 -1       501 7.96500E+01 4.22060E+01 0.00000E+00
 -1       502 8.26500E+01 4.22060E+01 0.00000E+00
 -1       503 8.56500E+01 4.22060E+01 0.00000E+00
 -1       504 8.86500E+01 4.22060E+01 0.00000E+00
 -1       505 9.16500E+01 4.22060E+01 0.00000E+00
 -1       506 9.46500E+01 4.22060E+01 0.00000E+00
 -1       507 9.76500E+01 4.22060E+01 0.00000E+00
 -1       508 1.00650E+02 4.22060E+01 0.00000E+00
 -1       509 1.03650E+02 4.22060E+01 0.00000E+00
 -1       510 1.06650E+02 4.22060E+01 0.00000E+00
 -1       511 1.09650E+02 4.22060E+01 0.00000E+00
 -1       512 1.12650E+02 4.22060E+01 0.00000E+00
 -1       513 1.15650E+02 4.22060E+01 0.00000E+00
 -1       514 1.18650E+02 4.22060E+01 0.00000E+00
 -1       515 1.21650E+02 4.22060E+01 0.00000E+00
 -1       516 1.24650E+02 4.22060E+01 0.00000E+00
 -1       517 1.27650E+02 4.22060E+01 0.00000E+00
 -1       518 1.30650E+02 4.22060E+01 0.00000E+00
 -1       519 1.33650E+02 4.22060E+01 0.00000E+00
 -1       520 1.36650E+02 4.22060E+01 0.00000E+00
 -1       521 1.39650E+02 4.22060E+01 0.00000E+00
 -1       522 1.42650E+02 4.22060E+01 0.00000E+00
 -1       523 1.05997E+01 6.12869E+00 0.00000E+00
 -1       524 1.90350E+01 6.60425E+00 0.00000E+00
 -1       525 2.20350E+01 6.60425E+00 0.00000E+00
 -1       526 2.50350E+01 6.60425E+00 0.00000E+00
 -1       527 2.80350E+01 6.60425E+00 0.00000E+00
 -1       528 3.10350E+01 6.60425E+00 0.00000E+00
 -1       529 3.40350E+01 6.60425E+00 0.00000E+00
 -1       530 3.70350E+01 6.60425E+00 0.00000E+00
 -1       531 4.00350E+01 6.60425E+00 0.00000E+00
 -1       532 4.30350E+01 6.60425E+00 0.00000E+00
 -1       533 4.60350E+01 6.60425E+00 0.00000E+00
 -1       534 4.90350E+01 6.60425E+00 0.00000E+00
 -1       535 5.20350E+01 6.60425E+00 0.00000E+00
 -1       536 5.50350E+01 6.60425E+00 0.00000E+00
 -1       537 5.80350E+01 6.60425E+00 0.00000E+00
 -1       538 6.10350E+01 6.60425E+00 0.00000E+00
 -1       539 6.40350E+01 6.60425E+00 0.00000E+00
 -1       540 6.70350E+01 6.60425E+00 0.00000E+00
 -1       541 7.00350E+01 6.60425E+00 0.00000E+00
 -1       542 7.30350E+01 6.60425E+00 0.00000E+00
 -1       543 7.60350E+01 6.60425E+00 0.00000E+00
 -1       544 7.90350E+01 6.60425E+00 0.00000E+00
 -1       545 8.20350E+01 6.60425E+00 0.00000E+00
 -1       546 8.50350E+01 6.60425E+00 0.00000E+00
 -1       547 8.80350E+01 6.60425E+00 0.00000E+00
 -1       548 9.10350E+01 6.60425E+00 0.00000E+00
 -1       549 9.40350E+01 6.60425E+00 0.00000E+00
 -1       550 9.70350E+01 6.60425E+00 0.00000E+00
 -1       551 1.00035E+02 6.60425E+00 0.00000E+00
 -1       552 1.03035E+02 6.60425E+00 0.00000E+00
 -1       553 1.06035E+02 6.60425E+00 0.00000E+00
 -1       554 1.09035E+02 6.60425E+00 0.00000E+00
 -1       555 1.12035E+02 6.60425E+00 0.00000E+00
 -1       556 1.15035E+02 6.60425E+00 0.00000E+00
 -1       557 1.18035E+02 6.60425E+00 0.00000E+00
 -1       558 1.21035E+02 6.60425E+00 0.00000E+00
 -1       559 1.24035E+02 6.60425E+00 0.00000E+00
 -1       560 1.27035E+02 6.60425E+00 0.00000E+00
 -1       561 1.30035E+02 6.60425E+00 0.00000E+00
 -1       562 1.33035E+02 6.60425E+00 0.00000E+00
 -1       563 1.36035E+02 6.60425E+00 0.00000E+00
 -1       564 1.39035E+02 6.60425E+00 0.00000E+00
 -1       565 1.42035E+02 6.60425E+00 0.00000E+00
 -1       566 1.42419E+02 1.07000E+01 0.00000E+00
 -1       567 1.42419E+02 1.32500E+01 0.00000E+00
 -1       568 1.38590E+02 1.54176E+01 0.00000E+00
 -1       569 1.45872E+02 3.68834E+01 0.00000E+00
 -1       570 1.27873E+02 2.41933E+01 0.00000E+00
 -1       571 1.43218E+02 3.98250E+01 0.00000E+00
 -1       572 1.28891E+02 2.18863E+01 0.00000E+00
 -1       573 1.42660E+02 3.70718E+01 0.00000E+00
 -1       574 1.37819E+02 3.75684E+01 0.00000E+00
 -1       575 1.27684E+02 2.88798E+01 0.00000E+00
 -1       576 1.40678E+02 1.55318E+01 0.00000E+00
 -1       577 7.79400E+00 2.79000E+01 0.00000E+00
 -1       578 1.28336E+02 3.14417E+01 0.00000E+00
 -1       579 1.33672E+02 1.63663E+01 0.00000E+00
 -1       580 1.35877E+02 1.55746E+01 0.00000E+00
 -1       581 1.43069E+02 1.61211E+01 0.00000E+00
 -1       582 1.29815E+02 2.01508E+01 0.00000E+00
 -1       583 1.27577E+02 2.71850E+01 0.00000E+00
 -1       584 1.33526E+02 3.59854E+01 0.00000E+00
 -1       585 1.29912E+02 3.32596E+01 0.00000E+00
 -1       586 1.31557E+02 3.47509E+01 0.00000E+00
 -1       587 1.35603E+02 3.69130E+01 0.00000E+00
 -1       588 1.40575E+02 3.81144E+01 0.00000E+00
 -1       589 7.79400E+00 3.67375E+01 0.00000E+00
 -1       590 7.85850E+00 3.92077E+01 0.00000E+00
 -1       591 1.30001E+02 1.85067E+01 0.00000E+00
 -1       592 1.03920E+01 2.05500E+01 0.00000E+00
 -1       593 1.03920E+01 2.35000E+01 0.00000E+00
 -1       594 1.03920E+01 1.46750E+01 0.00000E+00
 -1       595 1.03920E+01 1.17250E+01 0.00000E+00
 -1       596 1.21500E+01 3.96080E+01 0.00000E+00
 -1       597 2.35350E+01 9.20225E+00 0.00000E+00
 -1       598 2.05350E+01 9.20225E+00 0.00000E+00
 -1       599 1.00042E+01 3.94079E+01 0.00000E+00
 -1       600 1.75350E+01 9.20225E+00 0.00000E+00
 -1       601 1.26813E+02 2.23473E+01 0.00000E+00
 -1       602 1.51500E+01 3.96080E+01 0.00000E+00
 -1       603 1.81500E+01 3.96080E+01 0.00000E+00
 -1       604 2.11500E+01 3.96080E+01 0.00000E+00
 -1       605 2.41500E+01 3.96080E+01 0.00000E+00
 -1       606 2.71500E+01 3.96080E+01 0.00000E+00
 -1       607 3.01500E+01 3.96080E+01 0.00000E+00
 -1       608 3.31500E+01 3.96080E+01 0.00000E+00
 -1       609 3.61500E+01 3.96080E+01 0.00000E+00
 -1       610 3.91500E+01 3.96080E+01 0.00000E+00
 -1       611 4.21500E+01 3.96080E+01 0.00000E+00
 -1       612 4.51500E+01 3.96080E+01 0.00000E+00
 -1       613 4.81500E+01 3.96080E+01 0.00000E+00
 -1       614 5.11500E+01 3.96080E+01 0.00000E+00
 -1       615 5.41500E+01 3.96080E+01 0.00000E+00
 -1       616 5.71500E+01 3.96080E+01 0.00000E+00
 -1       617 6.01500E+01 3.96080E+01 0.00000E+00
 -1       618 6.31500E+01 3.96080E+01 0.00000E+00
 -1       619 6.61500E+01 3.96080E+01 0.00000E+00
 -1       620 6.91500E+01 3.96080E+01 0.00000E+00
 -1       621 7.21500E+01 3.96080E+01 0.00000E+00
 -1       622 7.51500E+01 3.96080E+01 0.00000E+00
 -1       623 7.81500E+01 3.96080E+01 0.00000E+00
 -1       624 8.11500E+01 3.96080E+01 0.00000E+00
 -1       625 8.41500E+01 3.96080E+01 0.00000E+00
 -1       626 8.71500E+01 3.96080E+01 0.00000E+00
 -1       627 9.01500E+01 3.96080E+01 0.00000E+00
 -1       628 9.31500E+01 3.96080E+01 0.00000E+00
 -1       629 9.61500E+01 3.96080E+01 0.00000E+00
 -1       630 9.91500E+01 3.96080E+01 0.00000E+00
 -1       631 1.02150E+02 3.96080E+01 0.00000E+00
 -1       632 1.05150E+02 3.96080E+01 0.00000E+00
 -1       633 1.08150E+02 3.96080E+01 0.00000E+00
 -1       634 1.11150E+02 3.96080E+01 0.00000E+00
 -1       635 1.14150E+02 3.96080E+01 0.00000E+00
 -1       636 1.17150E+02 3.96080E+01 0.00000E+00
 -1       637 1.20150E+02 3.96080E+01 0.00000E+00
 -1       638 1.23150E+02 3.96080E+01 0.00000E+00
 -1       639 1.26150E+02 3.96080E+01 0.00000E+00
 -1       640 1.29150E+02 3.96080E+01 0.00000E+00
 -1       641 1.32150E+02 3.96080E+01 0.00000E+00
 -1       642 1.38150E+02 3.98206E+01 0.00000E+00
 -1       643 1.40684E+02 3.98228E+01 0.00000E+00
 -1       644 2.65350E+01 9.20225E+00 0.00000E+00
 -1       645 2.95350E+01 9.20225E+00 0.00000E+00
 -1       646 3.25350E+01 9.20225E+00 0.00000E+00
 -1       647 3.55350E+01 9.20225E+00 0.00000E+00
 -1       648 3.85350E+01 9.20225E+00 0.00000E+00
 -1       649 4.15350E+01 9.20225E+00 0.00000E+00
 -1       650 4.45350E+01 9.20225E+00 0.00000E+00
 -1       651 4.75350E+01 9.20225E+00 0.00000E+00
 -1       652 5.05350E+01 9.20225E+00 0.00000E+00
 -1       653 5.35350E+01 9.20225E+00 0.00000E+00
 -1       654 5.65350E+01 9.20225E+00 0.00000E+00
 -1       655 5.95350E+01 9.20225E+00 0.00000E+00
 -1       656 6.25350E+01 9.20225E+00 0.00000E+00
 -1       657 6.55350E+01 9.20225E+00 0.00000E+00
 -1       658 6.85350E+01 9.20225E+00 0.00000E+00
 -1       659 7.15350E+01 9.20225E+00 0.00000E+00
 -1       660 7.45350E+01 9.20225E+00 0.00000E+00
 -1       661 7.75350E+01 9.20225E+00 0.00000E+00
 -1       662 8.05350E+01 9.20225E+00 0.00000E+00
 -1       663 8.35350E+01 9.20225E+00 0.00000E+00
 -1       664 8.65350E+01 9.20225E+00 0.00000E+00
 -1       665 8.95350E+01 9.20225E+00 0.00000E+00
 -1       666 9.25350E+01 9.20225E+00 0.00000E+00
 -1       667 9.55350E+01 9.20225E+00 0.00000E+00
 -1       668 9.85350E+01 9.20225E+00 0.00000E+00
 -1       669 1.01535E+02 9.20225E+00 0.00000E+00
 -1       670 1.04535E+02 9.20225E+00 0.00000E+00
 -1       671 1.07535E+02 9.20225E+00 0.00000E+00
 -1       672 1.10535E+02 9.20225E+00 0.00000E+00
 -1       673 1.13535E+02 9.20225E+00 0.00000E+00
 -1       674 1.16535E+02 9.20225E+00 0.00000E+00
 -1       675 1.19535E+02 9.20225E+00 0.00000E+00
 -1       676 1.22535E+02 9.20225E+00 0.00000E+00
 -1       677 1.25535E+02 9.20225E+00 0.00000E+00
 -1       678 1.28535E+02 9.20225E+00 0.00000E+00
 -1       679 1.31535E+02 9.20225E+00 0.00000E+00
 -1       680 1.34535E+02 9.20225E+00 0.00000E+00
 -1       681 1.37535E+02 9.20225E+00 0.00000E+00
 -1       682 1.39977E+02 9.95113E+00 0.00000E+00
 -1       683 1.37135E+02 1.37838E+01 0.00000E+00
 -1       684 1.40327E+02 1.27415E+01 0.00000E+00
 -1       685 1.31630E+02 3.68212E+01 0.00000E+00
 -1       686 1.27691E+02 2.01339E+01 0.00000E+00
 -1       687 1.34138E+02 1.41985E+01 0.00000E+00
 -1       688 1.33865E+02 3.80152E+01 0.00000E+00
 -1       689 1.45350E+01 9.20225E+00 0.00000E+00
 -1       690 1.25852E+02 2.55039E+01 0.00000E+00
 -1       691 1.25698E+02 3.07487E+01 0.00000E+00
 -1       692 1.25775E+02 2.81263E+01 0.00000E+00
 -1       693 1.36007E+02 3.89179E+01 0.00000E+00
 -1       694 1.03920E+01 1.76125E+01 0.00000E+00
 -1       695 1.29470E+02 3.54001E+01 0.00000E+00
 -1       696 1.03920E+01 3.23250E+01 0.00000E+00
 -1       697 1.31380E+02 1.60522E+01 0.00000E+00
 -1       698 1.27702E+02 3.35841E+01 0.00000E+00
 -1       699 1.03920E+01 3.52625E+01 0.00000E+00
 -1       700 1.03920E+01 2.64500E+01 0.00000E+00
 -1       701 1.04145E+01 8.42712E+00 0.00000E+00
 -1       702 1.24792E+02 2.36579E+01 0.00000E+00
 -1       703 1.31846E+02 1.38844E+01 0.00000E+00
 -1       704 1.27878E+02 1.84898E+01 0.00000E+00
 -1       705 1.39143E+02 1.34598E+01 0.00000E+00
 -1       706 1.03920E+01 2.93875E+01 0.00000E+00
 -1       707 1.01981E+01 3.73352E+01 0.00000E+00
 -1       708 1.45350E+01 1.21523E+01 0.00000E+00
 -1       709 2.80350E+01 1.18003E+01 0.00000E+00
 -1       710 1.90350E+01 1.18003E+01 0.00000E+00
 -1       711 1.36500E+01 3.70100E+01 0.00000E+00
 -1       712 2.50350E+01 1.18003E+01 0.00000E+00
 -1       713 1.66500E+01 3.70100E+01 0.00000E+00
 -1       714 1.96500E+01 3.70100E+01 0.00000E+00
 -1       715 2.26500E+01 3.70100E+01 0.00000E+00
 -1       716 2.56500E+01 3.70100E+01 0.00000E+00
 -1       717 2.86500E+01 3.70100E+01 0.00000E+00
 -1       718 3.16500E+01 3.70100E+01 0.00000E+00
 -1       719 3.46500E+01 3.70100E+01 0.00000E+00
 -1       720 3.76500E+01 3.70100E+01 0.00000E+00
 -1       721 4.06500E+01 3.70100E+01 0.00000E+00
 -1       722 4.36500E+01 3.70100E+01 0.00000E+00
 -1       723 4.66500E+01 3.70100E+01 0.00000E+00
 -1       724 4.96500E+01 3.70100E+01 0.00000E+00
 -1       725 5.26500E+01 3.70100E+01 0.00000E+00
 -1       726 5.56500E+01 3.70100E+01 0.00000E+00
 -1       727 5.86500E+01 3.70100E+01 0.00000E+00
 -1       728 6.16500E+01 3.70100E+01 0.00000E+00
 -1       729 6.46500E+01 3.70100E+01 0.00000E+00
 -1       730 6.76500E+01 3.70100E+01 0.00000E+00
 -1       731 7.06500E+01 3.70100E+01 0.00000E+00
 -1       732 7.36500E+01 3.70100E+01 0.00000E+00
 -1       733 7.66500E+01 3.70100E+01 0.00000E+00
 -1       734 7.96500E+01 3.70100E+01 0.00000E+00
 -1       735 8.26500E+01 3.70100E+01 0.00000E+00
 -1       736 8.56500E+01 3.70100E+01 0.00000E+00
 -1       737 8.86500E+01 3.70100E+01 0.00000E+00
 -1       738 9.16500E+01 3.70100E+01 0.00000E+00
 -1       739 9.46500E+01 3.70100E+01 0.00000E+00
 -1       740 9.76500E+01 3.70100E+01 0.00000E+00
 -1       741 1.00650E+02 3.70100E+01 0.00000E+00
 -1       742 1.03650E+02 3.70100E+01 0.00000E+00
 -1       743 1.06650E+02 3.70100E+01 0.00000E+00
 -1       744 1.09650E+02 3.70100E+01 0.00000E+00
 -1       745 1.12650E+02 3.70100E+01 0.00000E+00
 -1       746 1.15650E+02 3.70100E+01 0.00000E+00
 -1       747 1.18650E+02 3.70100E+01 0.00000E+00
 -1       748 1.21650E+02 3.70100E+01 0.00000E+00
 -1       749 1.24650E+02 3.70100E+01 0.00000E+00
 -1       750 1.67850E+01 1.19762E+01 0.00000E+00
 -1       751 3.40350E+01 1.18003E+01 0.00000E+00
 -1       752 3.70350E+01 1.18003E+01 0.00000E+00
 -1       753 4.00350E+01 1.18003E+01 0.00000E+00
 -1       754 4.30350E+01 1.18003E+01 0.00000E+00
 -1       755 4.60350E+01 1.18003E+01 0.00000E+00
 -1       756 4.90350E+01 1.18003E+01 0.00000E+00
 -1       757 5.20350E+01 1.18003E+01 0.00000E+00
 -1       758 5.50350E+01 1.18003E+01 0.00000E+00
 -1       759 5.80350E+01 1.18003E+01 0.00000E+00
 -1       760 6.10350E+01 1.18003E+01 0.00000E+00
 -1       761 6.40350E+01 1.18003E+01 0.00000E+00
 -1       762 6.70350E+01 1.18003E+01 0.00000E+00
 -1       763 7.00350E+01 1.18003E+01 0.00000E+00
 -1       764 7.30350E+01 1.18003E+01 0.00000E+00
 -1       765 7.60350E+01 1.18003E+01 0.00000E+00
 -1       766 7.90350E+01 1.18003E+01 0.00000E+00
 -1       767 8.20350E+01 1.18003E+01 0.00000E+00
 -1       768 8.50350E+01 1.18003E+01 0.00000E+00
 -1       769 8.80350E+01 1.18003E+01 0.00000E+00
 -1       770 9.10350E+01 1.18003E+01 0.00000E+00
 -1       771 9.40350E+01 1.18003E+01 0.00000E+00
 -1       772 9.70350E+01 1.18003E+01 0.00000E+00
 -1       773 1.00035E+02 1.18003E+01 0.00000E+00
 -1       774 1.03035E+02 1.18003E+01 0.00000E+00
 -1       775 1.06035E+02 1.18003E+01 0.00000E+00
 -1       776 1.09035E+02 1.18003E+01 0.00000E+00
 -1       777 1.12035E+02 1.18003E+01 0.00000E+00
 -1       778 1.15035E+02 1.18003E+01 0.00000E+00
 -1       779 1.18035E+02 1.18003E+01 0.00000E+00
 -1       780 1.21035E+02 1.18003E+01 0.00000E+00
 -1       781 1.24035E+02 1.18003E+01 0.00000E+00
 -1       782 1.27035E+02 1.18003E+01 0.00000E+00
 -1       783 1.30035E+02 1.18003E+01 0.00000E+00
 -1       784 2.20350E+01 1.18003E+01 0.00000E+00
 -1       785 1.29900E+01 2.20250E+01 0.00000E+00
 -1       786 1.24889E+02 3.34462E+01 0.00000E+00
 -1       787 1.27117E+02 3.59225E+01 0.00000E+00
 -1       788 1.29424E+02 3.78235E+01 0.00000E+00
 -1       789 1.25346E+02 2.04844E+01 0.00000E+00
 -1       790 1.29256E+02 1.60352E+01 0.00000E+00
 -1       791 3.10350E+01 1.18003E+01 0.00000E+00
 -1       792 1.29900E+01 2.49750E+01 0.00000E+00
 -1       793 1.23544E+02 2.56018E+01 0.00000E+00
 -1       794 1.27650E+02 3.72226E+01 0.00000E+00
 -1       795 1.45350E+01 1.50898E+01 0.00000E+00
 -1       796 1.29900E+01 1.90875E+01 0.00000E+00
 -1       797 1.23169E+02 3.14599E+01 0.00000E+00
 -1       798 1.23246E+02 2.88375E+01 0.00000E+00
 -1       799 1.25533E+02 1.88404E+01 0.00000E+00
 -1       800 1.29900E+01 3.37938E+01 0.00000E+00
 -1       801 1.29900E+01 3.08563E+01 0.00000E+00
 -1       802 3.85350E+01 1.43982E+01 0.00000E+00
 -1       803 1.51500E+01 3.44120E+01 0.00000E+00
 -1       804 1.81500E+01 3.44120E+01 0.00000E+00
 -1       805 2.11500E+01 3.44120E+01 0.00000E+00
 -1       806 2.41500E+01 3.44120E+01 0.00000E+00
 -1       807 2.71500E+01 3.44120E+01 0.00000E+00
 -1       808 3.01500E+01 3.44120E+01 0.00000E+00
 -1       809 3.31500E+01 3.44120E+01 0.00000E+00
 -1       810 3.61500E+01 3.44120E+01 0.00000E+00
 -1       811 3.91500E+01 3.44120E+01 0.00000E+00
 -1       812 4.21500E+01 3.44120E+01 0.00000E+00
 -1       813 4.51500E+01 3.44120E+01 0.00000E+00
 -1       814 4.81500E+01 3.44120E+01 0.00000E+00
 -1       815 5.11500E+01 3.44120E+01 0.00000E+00
 -1       816 5.41500E+01 3.44120E+01 0.00000E+00
 -1       817 5.71500E+01 3.44120E+01 0.00000E+00
 -1       818 6.01500E+01 3.44120E+01 0.00000E+00
 -1       819 6.31500E+01 3.44120E+01 0.00000E+00
 -1       820 6.61500E+01 3.44120E+01 0.00000E+00
 -1       821 6.91500E+01 3.44120E+01 0.00000E+00
 -1       822 7.21500E+01 3.44120E+01 0.00000E+00
 -1       823 7.51500E+01 3.44120E+01 0.00000E+00
 -1       824 7.81500E+01 3.44120E+01 0.00000E+00
 -1       825 8.11500E+01 3.44120E+01 0.00000E+00
 -1       826 8.41500E+01 3.44120E+01 0.00000E+00
 -1       827 8.71500E+01 3.44120E+01 0.00000E+00
 -1       828 9.01500E+01 3.44120E+01 0.00000E+00
 -1       829 9.31500E+01 3.44120E+01 0.00000E+00
 -1       830 9.61500E+01 3.44120E+01 0.00000E+00
 -1       831 9.91500E+01 3.44120E+01 0.00000E+00
 -1       832 1.02150E+02 3.44120E+01 0.00000E+00
 -1       833 1.05150E+02 3.44120E+01 0.00000E+00
 -1       834 1.08150E+02 3.44120E+01 0.00000E+00
 -1       835 1.11150E+02 3.44120E+01 0.00000E+00
 -1       836 1.14150E+02 3.44120E+01 0.00000E+00
 -1       837 1.17150E+02 3.44120E+01 0.00000E+00
 -1       838 1.20150E+02 3.44120E+01 0.00000E+00
 -1       839 1.29445E+02 1.45017E+01 0.00000E+00
 -1       840 4.15350E+01 1.43982E+01 0.00000E+00
 -1       841 3.55350E+01 1.43982E+01 0.00000E+00
 -1       842 4.45350E+01 1.43982E+01 0.00000E+00
 -1       843 4.75350E+01 1.43982E+01 0.00000E+00
 -1       844 5.05350E+01 1.43982E+01 0.00000E+00
 -1       845 5.35350E+01 1.43982E+01 0.00000E+00
 -1       846 5.65350E+01 1.43982E+01 0.00000E+00
 -1       847 5.95350E+01 1.43982E+01 0.00000E+00
 -1       848 6.25350E+01 1.43982E+01 0.00000E+00
 -1       849 6.55350E+01 1.43982E+01 0.00000E+00
 -1       850 6.85350E+01 1.43982E+01 0.00000E+00
 -1       851 7.15350E+01 1.43982E+01 0.00000E+00
 -1       852 7.45350E+01 1.43982E+01 0.00000E+00
 -1       853 7.75350E+01 1.43982E+01 0.00000E+00
 -1       854 8.05350E+01 1.43982E+01 0.00000E+00
 -1       855 8.35350E+01 1.43982E+01 0.00000E+00
 -1       856 8.65350E+01 1.43982E+01 0.00000E+00
 -1       857 8.95350E+01 1.43982E+01 0.00000E+00
 -1       858 9.25350E+01 1.43982E+01 0.00000E+00
 -1       859 9.55350E+01 1.43982E+01 0.00000E+00
 -1       860 9.85350E+01 1.43982E+01 0.00000E+00
 -1       861 1.01535E+02 1.43982E+01 0.00000E+00
 -1       862 1.04535E+02 1.43982E+01 0.00000E+00
 -1       863 1.07535E+02 1.43982E+01 0.00000E+00
 -1       864 1.10535E+02 1.43982E+01 0.00000E+00
 -1       865 1.13535E+02 1.43982E+01 0.00000E+00
 -1       866 1.16535E+02 1.43982E+01 0.00000E+00
 -1       867 1.19535E+02 1.43982E+01 0.00000E+00
 -1       868 1.22535E+02 1.43982E+01 0.00000E+00
 -1       869 1.25535E+02 1.43982E+01 0.00000E+00
 -1       870 1.22226E+02 3.40143E+01 0.00000E+00
 -1       871 2.95350E+01 1.43982E+01 0.00000E+00
 -1       872 1.22884E+02 2.16892E+01 0.00000E+00
 -1       873 1.26633E+02 1.61767E+01 0.00000E+00
 -1       874 1.29900E+01 2.79188E+01 0.00000E+00
 -1       875 2.65350E+01 1.43982E+01 0.00000E+00
 -1       876 3.25350E+01 1.43982E+01 0.00000E+00
 -1       877 1.21636E+02 2.36331E+01 0.00000E+00
 -1       878 1.20611E+02 3.00728E+01 0.00000E+00
 -1       879 1.67850E+01 1.49137E+01 0.00000E+00
 -1       880 1.51500E+01 3.14745E+01 0.00000E+00
 -1       881 1.24354E+02 3.61680E+01 0.00000E+00
 -1       882 1.90350E+01 1.47378E+01 0.00000E+00
 -1       883 2.35350E+01 1.43982E+01 0.00000E+00
 -1       884 1.55880E+01 2.05562E+01 0.00000E+00
 -1       885 1.20908E+02 2.68371E+01 0.00000E+00
 -1       886 1.23071E+02 2.00451E+01 0.00000E+00
 -1       887 1.55880E+01 2.35063E+01 0.00000E+00
 -1       888 1.55880E+01 2.64500E+01 0.00000E+00
 -1       889 3.10350E+01 1.69963E+01 0.00000E+00
 -1       890 1.96500E+01 3.18140E+01 0.00000E+00
 -1       891 2.26500E+01 3.18140E+01 0.00000E+00
 -1       892 2.56500E+01 3.18140E+01 0.00000E+00
 -1       893 2.86500E+01 3.18140E+01 0.00000E+00
 -1       894 3.16500E+01 3.18140E+01 0.00000E+00
 -1       895 3.46500E+01 3.18140E+01 0.00000E+00
 -1       896 3.76500E+01 3.18140E+01 0.00000E+00
 -1       897 4.06500E+01 3.18140E+01 0.00000E+00
 -1       898 4.36500E+01 3.18140E+01 0.00000E+00
 -1       899 4.66500E+01 3.18140E+01 0.00000E+00
 -1       900 4.96500E+01 3.18140E+01 0.00000E+00
 -1       901 5.26500E+01 3.18140E+01 0.00000E+00
 -1       902 5.56500E+01 3.18140E+01 0.00000E+00
 -1       903 5.86500E+01 3.18140E+01 0.00000E+00
 -1       904 6.16500E+01 3.18140E+01 0.00000E+00
 -1       905 6.46500E+01 3.18140E+01 0.00000E+00
 -1       906 6.76500E+01 3.18140E+01 0.00000E+00
 -1       907 7.06500E+01 3.18140E+01 0.00000E+00
 -1       908 7.36500E+01 3.18140E+01 0.00000E+00
 -1       909 7.66500E+01 3.18140E+01 0.00000E+00
 -1       910 7.96500E+01 3.18140E+01 0.00000E+00
 -1       911 8.26500E+01 3.18140E+01 0.00000E+00
 -1       912 8.56500E+01 3.18140E+01 0.00000E+00
 -1       913 8.86500E+01 3.18140E+01 0.00000E+00
 -1       914 9.16500E+01 3.18140E+01 0.00000E+00
 -1       915 9.46500E+01 3.18140E+01 0.00000E+00
 -1       916 9.76500E+01 3.18140E+01 0.00000E+00
 -1       917 1.00650E+02 3.18140E+01 0.00000E+00
 -1       918 1.03650E+02 3.18140E+01 0.00000E+00
 -1       919 1.06650E+02 3.18140E+01 0.00000E+00
 -1       920 1.09650E+02 3.18140E+01 0.00000E+00
 -1       921 1.12650E+02 3.18140E+01 0.00000E+00
 -1       922 1.15650E+02 3.18140E+01 0.00000E+00
 -1       923 4.00350E+01 1.69963E+01 0.00000E+00
 -1       924 3.70350E+01 1.69963E+01 0.00000E+00
 -1       925 4.90350E+01 1.69963E+01 0.00000E+00
 -1       926 5.20350E+01 1.69963E+01 0.00000E+00
 -1       927 5.50350E+01 1.69963E+01 0.00000E+00
 -1       928 5.80350E+01 1.69963E+01 0.00000E+00
 -1       929 6.10350E+01 1.69963E+01 0.00000E+00
 -1       930 6.40350E+01 1.69963E+01 0.00000E+00
 -1       931 6.70350E+01 1.69963E+01 0.00000E+00
 -1       932 7.00350E+01 1.69963E+01 0.00000E+00
 -1       933 7.30350E+01 1.69963E+01 0.00000E+00
 -1       934 7.60350E+01 1.69963E+01 0.00000E+00
 -1       935 7.90350E+01 1.69963E+01 0.00000E+00
 -1       936 8.20350E+01 1.69963E+01 0.00000E+00
 -1       937 8.50350E+01 1.69963E+01 0.00000E+00
 -1       938 8.80350E+01 1.69963E+01 0.00000E+00
 -1       939 9.10350E+01 1.69963E+01 0.00000E+00
 -1       940 9.40350E+01 1.69963E+01 0.00000E+00
 -1       941 9.70350E+01 1.69963E+01 0.00000E+00
 -1       942 1.00035E+02 1.69963E+01 0.00000E+00
 -1       943 1.03035E+02 1.69963E+01 0.00000E+00
 -1       944 1.06035E+02 1.69963E+01 0.00000E+00
 -1       945 1.09035E+02 1.69963E+01 0.00000E+00
 -1       946 1.12035E+02 1.69963E+01 0.00000E+00
 -1       947 1.15035E+02 1.69963E+01 0.00000E+00
 -1       948 1.18035E+02 1.69963E+01 0.00000E+00
 -1       949 1.21035E+02 1.69963E+01 0.00000E+00
 -1       950 1.23834E+02 1.65865E+01 0.00000E+00
 -1       951 4.30350E+01 1.69963E+01 0.00000E+00
 -1       952 1.53690E+01 2.89622E+01 0.00000E+00
 -1       953 1.18172E+02 2.82170E+01 0.00000E+00
 -1       954 2.80350E+01 1.69963E+01 0.00000E+00
 -1       955 1.20394E+02 2.14630E+01 0.00000E+00
 -1       956 3.40350E+01 1.69963E+01 0.00000E+00
 -1       957 1.61865E+01 1.77350E+01 0.00000E+00
 -1       958 1.18946E+02 2.47066E+01 0.00000E+00
 -1       959 4.60350E+01 1.69963E+01 0.00000E+00
 -1       960 1.17818E+02 3.12122E+01 0.00000E+00
 -1       961 2.50350E+01 1.69963E+01 0.00000E+00
 -1       962 1.84287E+01 1.96848E+01 0.00000E+00
 -1       963 1.84287E+01 2.26348E+01 0.00000E+00
 -1       964 1.20580E+02 1.98189E+01 0.00000E+00
 -1       965 2.14804E+01 1.71586E+01 0.00000E+00
 -1       966 1.17492E+02 2.21125E+01 0.00000E+00
 -1       967 3.25350E+01 1.95942E+01 0.00000E+00
 -1       968 1.16004E+02 2.88188E+01 0.00000E+00
 -1       969 2.41500E+01 2.92160E+01 0.00000E+00
 -1       970 2.71500E+01 2.92160E+01 0.00000E+00
 -1       971 3.01500E+01 2.92160E+01 0.00000E+00
 -1       972 3.31500E+01 2.92160E+01 0.00000E+00
 -1       973 3.61500E+01 2.92160E+01 0.00000E+00
 -1       974 3.91500E+01 2.92160E+01 0.00000E+00
 -1       975 4.21500E+01 2.92160E+01 0.00000E+00
 -1       976 4.51500E+01 2.92160E+01 0.00000E+00
 -1       977 4.81500E+01 2.92160E+01 0.00000E+00
 -1       978 5.11500E+01 2.92160E+01 0.00000E+00
 -1       979 5.41500E+01 2.92160E+01 0.00000E+00
 -1       980 5.71500E+01 2.92160E+01 0.00000E+00
 -1       981 6.01500E+01 2.92160E+01 0.00000E+00
 -1       982 6.31500E+01 2.92160E+01 0.00000E+00
 -1       983 6.61500E+01 2.92160E+01 0.00000E+00
 -1       984 6.91500E+01 2.92160E+01 0.00000E+00
 -1       985 7.21500E+01 2.92160E+01 0.00000E+00
 -1       986 7.51500E+01 2.92160E+01 0.00000E+00
 -1       987 7.81500E+01 2.92160E+01 0.00000E+00
 -1       988 8.11500E+01 2.92160E+01 0.00000E+00
 -1       989 8.41500E+01 2.92160E+01 0.00000E+00
 -1       990 8.71500E+01 2.92160E+01 0.00000E+00
 -1       991 9.01500E+01 2.92160E+01 0.00000E+00
 -1       992 9.31500E+01 2.92160E+01 0.00000E+00
 -1       993 9.61500E+01 2.92160E+01 0.00000E+00
 -1       994 9.91500E+01 2.92160E+01 0.00000E+00
 -1       995 1.02150E+02 2.92160E+01 0.00000E+00
 -1       996 1.05150E+02 2.92160E+01 0.00000E+00
 -1       997 1.08150E+02 2.92160E+01 0.00000E+00
 -1       998 1.11150E+02 2.92160E+01 0.00000E+00
 -1       999 1.13577E+02 2.90174E+01 0.00000E+00
 -1      1000 5.35350E+01 1.95942E+01 0.00000E+00
 -1      1001 5.05350E+01 1.95942E+01 0.00000E+00
 -1      1002 5.95350E+01 1.95942E+01 0.00000E+00
 -1      1003 6.25350E+01 1.95942E+01 0.00000E+00
 -1      1004 6.55350E+01 1.95942E+01 0.00000E+00
 -1      1005 6.85350E+01 1.95942E+01 0.00000E+00
 -1      1006 7.15350E+01 1.95942E+01 0.00000E+00
 -1      1007 7.45350E+01 1.95942E+01 0.00000E+00
 -1      1008 7.75350E+01 1.95942E+01 0.00000E+00
 -1      1009 8.05350E+01 1.95942E+01 0.00000E+00
 -1      1010 8.35350E+01 1.95942E+01 0.00000E+00
 -1      1011 8.65350E+01 1.95942E+01 0.00000E+00
 -1      1012 8.95350E+01 1.95942E+01 0.00000E+00
 -1      1013 9.25350E+01 1.95942E+01 0.00000E+00
 -1      1014 9.55350E+01 1.95942E+01 0.00000E+00
 -1      1015 9.85350E+01 1.95942E+01 0.00000E+00
 -1      1016 1.01535E+02 1.95942E+01 0.00000E+00
 -1      1017 1.04535E+02 1.95942E+01 0.00000E+00
 -1      1018 1.07535E+02 1.95942E+01 0.00000E+00
 -1      1019 1.10535E+02 1.95942E+01 0.00000E+00
 -1      1020 1.13535E+02 1.95942E+01 0.00000E+00
 -1      1021 1.84287E+01 2.55785E+01 0.00000E+00
 -1      1022 5.65350E+01 1.95942E+01 0.00000E+00
 -1      1023 2.16112E+01 2.04230E+01 0.00000E+00
 -1      1024 3.55350E+01 1.95942E+01 0.00000E+00
 -1      1025 2.95350E+01 1.95942E+01 0.00000E+00
 -1      1026 3.85350E+01 1.95942E+01 0.00000E+00
 -1      1027 4.15350E+01 1.95942E+01 0.00000E+00
 -1      1028 1.16748E+02 2.54657E+01 0.00000E+00
 -1      1029 2.11500E+01 2.92160E+01 0.00000E+00
 -1      1030 1.23270E+02 3.45418E+01 0.00000E+00
 -1      1031 1.75954E+01 2.90536E+01 0.00000E+00
 -1      1032 2.65350E+01 1.95942E+01 0.00000E+00
 -1      1033 4.75350E+01 1.95942E+01 0.00000E+00
 -1      1034 1.16535E+02 1.95942E+01 0.00000E+00
 -1      1035 4.45350E+01 1.95942E+01 0.00000E+00
 -1      1036 3.70350E+01 2.21922E+01 0.00000E+00
 -1      1037 2.26500E+01 2.66180E+01 0.00000E+00
 -1      1038 5.80350E+01 2.21922E+01 0.00000E+00
 -1      1039 2.86500E+01 2.66180E+01 0.00000E+00
 -1      1040 3.16500E+01 2.66180E+01 0.00000E+00
 -1      1041 3.46500E+01 2.66180E+01 0.00000E+00
 -1      1042 3.76500E+01 2.66180E+01 0.00000E+00
 -1      1043 4.06500E+01 2.66180E+01 0.00000E+00
 -1      1044 4.36500E+01 2.66180E+01 0.00000E+00
 -1      1045 4.66500E+01 2.66180E+01 0.00000E+00
 -1      1046 4.96500E+01 2.66180E+01 0.00000E+00
 -1      1047 5.26500E+01 2.66180E+01 0.00000E+00
 -1      1048 5.56500E+01 2.66180E+01 0.00000E+00
 -1      1049 5.86500E+01 2.66180E+01 0.00000E+00
 -1      1050 6.16500E+01 2.66180E+01 0.00000E+00
 -1      1051 6.46500E+01 2.66180E+01 0.00000E+00
 -1      1052 6.76500E+01 2.66180E+01 0.00000E+00
 -1      1053 7.06500E+01 2.66180E+01 0.00000E+00
 -1      1054 7.36500E+01 2.66180E+01 0.00000E+00
 -1      1055 7.66500E+01 2.66180E+01 0.00000E+00
 -1      1056 7.96500E+01 2.66180E+01 0.00000E+00
 -1      1057 8.26500E+01 2.66180E+01 0.00000E+00
 -1      1058 8.56500E+01 2.66180E+01 0.00000E+00
 -1      1059 8.86500E+01 2.66180E+01 0.00000E+00
 -1      1060 9.16500E+01 2.66180E+01 0.00000E+00
 -1      1061 9.46500E+01 2.66180E+01 0.00000E+00
 -1      1062 9.76500E+01 2.66180E+01 0.00000E+00
 -1      1063 1.00650E+02 2.66180E+01 0.00000E+00
 -1      1064 1.03650E+02 2.66180E+01 0.00000E+00
 -1      1065 1.06650E+02 2.66180E+01 0.00000E+00
 -1      1066 1.09650E+02 2.66180E+01 0.00000E+00
 -1      1067 5.20350E+01 2.21922E+01 0.00000E+00
 -1      1068 6.40350E+01 2.21922E+01 0.00000E+00
 -1      1069 6.10350E+01 2.21922E+01 0.00000E+00
 -1      1070 7.00350E+01 2.21922E+01 0.00000E+00
 -1      1071 7.30350E+01 2.21922E+01 0.00000E+00
 -1      1072 7.60350E+01 2.21922E+01 0.00000E+00
 -1      1073 7.90350E+01 2.21922E+01 0.00000E+00
 -1      1074 8.20350E+01 2.21922E+01 0.00000E+00
 -1      1075 8.50350E+01 2.21922E+01 0.00000E+00
 -1      1076 8.80350E+01 2.21922E+01 0.00000E+00
 -1      1077 9.10350E+01 2.21922E+01 0.00000E+00
 -1      1078 9.40350E+01 2.21922E+01 0.00000E+00
 -1      1079 9.70350E+01 2.21922E+01 0.00000E+00
 -1      1080 1.00035E+02 2.21922E+01 0.00000E+00
 -1      1081 1.03035E+02 2.21922E+01 0.00000E+00
 -1      1082 1.06035E+02 2.21922E+01 0.00000E+00
 -1      1083 1.09035E+02 2.21922E+01 0.00000E+00
 -1      1084 1.12035E+02 2.21922E+01 0.00000E+00
 -1      1085 2.15026E+01 2.36623E+01 0.00000E+00
 -1      1086 1.14763E+02 2.21524E+01 0.00000E+00
 -1      1087 6.70350E+01 2.21922E+01 0.00000E+00
 -1      1088 2.56500E+01 2.66180E+01 0.00000E+00
 -1      1089 4.00350E+01 2.21922E+01 0.00000E+00
 -1      1090 3.10350E+01 2.21922E+01 0.00000E+00
 -1      1091 3.40350E+01 2.21922E+01 0.00000E+00
 -1      1092 5.50350E+01 2.21922E+01 0.00000E+00
 -1      1093 4.90350E+01 2.21922E+01 0.00000E+00
 -1      1094 1.12077E+02 2.64194E+01 0.00000E+00
 -1      1095 2.80350E+01 2.21922E+01 0.00000E+00
 -1      1096 2.45925E+01 2.31061E+01 0.00000E+00
 -1      1097 1.14413E+02 2.59425E+01 0.00000E+00
 -1      1098 4.30350E+01 2.21922E+01 0.00000E+00
 -1      1099 4.60350E+01 2.21922E+01 0.00000E+00
 -1      1100 0.00000E+00 4.85250E+01 0.00000E+00
 -1      1101 0.00000E+00 4.55750E+01 0.00000E+00
 -1      1102 0.00000E+00 4.26250E+01 0.00000E+00
 -1      1103 0.00000E+00 3.96750E+01 0.00000E+00
 -1      1104 0.00000E+00 3.67250E+01 0.00000E+00
 -1      1105 0.00000E+00 3.38000E+01 0.00000E+00
 -1      1106 0.00000E+00 3.08750E+01 0.00000E+00
 -1      1107 0.00000E+00 2.79250E+01 0.00000E+00
 -1      1108 0.00000E+00 2.49750E+01 0.00000E+00
 -1      1109 0.00000E+00 2.20250E+01 0.00000E+00
 -1      1110 0.00000E+00 1.90750E+01 0.00000E+00
 -1      1111 0.00000E+00 1.61500E+01 0.00000E+00
 -1      1112 0.00000E+00 1.32250E+01 0.00000E+00
 -1      1113 0.00000E+00 1.02750E+01 0.00000E+00
 -1      1114 0.00000E+00 7.32500E+00 0.00000E+00
 -1      1115 0.00000E+00 4.37500E+00 0.00000E+00
 -1      1116 0.00000E+00 1.45000E+00 0.00000E+00
 -1      1117 1.57500E+00 5.00000E+01 0.00000E+00
 -1      1118 4.65000E+00 5.00000E+01 0.00000E+00
 -1      1119 7.65000E+00 5.00000E+01 0.00000E+00
 -1      1120 1.06500E+01 5.00000E+01 0.00000E+00
 -1      1121 1.36500E+01 5.00000E+01 0.00000E+00
 -1      1122 1.66500E+01 5.00000E+01 0.00000E+00
 -1      1123 1.96500E+01 5.00000E+01 0.00000E+00
 -1      1124 2.26500E+01 5.00000E+01 0.00000E+00
 -1      1125 2.56500E+01 5.00000E+01 0.00000E+00
 -1      1126 2.86500E+01 5.00000E+01 0.00000E+00
 -1      1127 3.16500E+01 5.00000E+01 0.00000E+00
 -1      1128 3.46500E+01 5.00000E+01 0.00000E+00
 -1      1129 3.76500E+01 5.00000E+01 0.00000E+00
 -1      1130 4.06500E+01 5.00000E+01 0.00000E+00
 -1      1131 4.36500E+01 5.00000E+01 0.00000E+00
 -1      1132 4.66500E+01 5.00000E+01 0.00000E+00
 -1      1133 4.96500E+01 5.00000E+01 0.00000E+00
 -1      1134 5.26500E+01 5.00000E+01 0.00000E+00
 -1      1135 5.56500E+01 5.00000E+01 0.00000E+00
 -1      1136 5.86500E+01 5.00000E+01 0.00000E+00
 -1      1137 6.16500E+01 5.00000E+01 0.00000E+00
 -1      1138 6.46500E+01 5.00000E+01 0.00000E+00
 -1      1139 6.76500E+01 5.00000E+01 0.00000E+00
 -1      1140 7.06500E+01 5.00000E+01 0.00000E+00
 -1      1141 7.36500E+01 5.00000E+01 0.00000E+00
 -1      1142 7.66500E+01 5.00000E+01 0.00000E+00
 -1      1143 7.96500E+01 5.00000E+01 0.00000E+00
 -1      1144 8.26500E+01 5.00000E+01 0.00000E+00
 -1      1145 8.56500E+01 5.00000E+01 0.00000E+00
 -1      1146 8.86500E+01 5.00000E+01 0.00000E+00
 -1      1147 9.16500E+01 5.00000E+01 0.00000E+00
 -1      1148 9.46500E+01 5.00000E+01 0.00000E+00
 -1      1149 9.76500E+01 5.00000E+01 0.00000E+00
 -1      1150 1.00650E+02 5.00000E+01 0.00000E+00
 -1      1151 1.03650E+02 5.00000E+01 0.00000E+00
 -1      1152 1.06650E+02 5.00000E+01 0.00000E+00
 -1      1153 1.09650E+02 5.00000E+01 0.00000E+00
 -1      1154 1.12650E+02 5.00000E+01 0.00000E+00
 -1      1155 1.15650E+02 5.00000E+01 0.00000E+00
 -1      1156 1.18650E+02 5.00000E+01 0.00000E+00
 -1      1157 1.21650E+02 5.00000E+01 0.00000E+00
 -1      1158 1.24650E+02 5.00000E+01 0.00000E+00
 -1      1159 1.27650E+02 5.00000E+01 0.00000E+00
 -1      1160 1.30650E+02 5.00000E+01 0.00000E+00
 -1      1161 1.33650E+02 5.00000E+01 0.00000E+00
 -1      1162 1.36650E+02 5.00000E+01 0.00000E+00
 -1      1163 1.39650E+02 5.00000E+01 0.00000E+00
 -1      1164 1.42650E+02 5.00000E+01 0.00000E+00
 -1      1165 1.45650E+02 5.00000E+01 0.00000E+00
 -1      1166 1.48575E+02 5.00000E+01 0.00000E+00
 -1      1167 1.57500E+00 0.00000E+00 0.00000E+00
 -1      1168 4.65000E+00 0.00000E+00 0.00000E+00
 -1      1169 7.65000E+00 0.00000E+00 0.00000E+00
 -1      1170 1.06500E+01 0.00000E+00 0.00000E+00
 -1      1171 1.36500E+01 0.00000E+00 0.00000E+00
 -1      1172 1.66500E+01 0.00000E+00 0.00000E+00
 -1      1173 1.96500E+01 0.00000E+00 0.00000E+00
 -1      1174 2.26500E+01 0.00000E+00 0.00000E+00
 -1      1175 2.56500E+01 0.00000E+00 0.00000E+00
 -1      1176 2.86500E+01 0.00000E+00 0.00000E+00
 -1      1177 3.16500E+01 0.00000E+00 0.00000E+00
 -1      1178 3.46500E+01 0.00000E+00 0.00000E+00
 -1      1179 3.76500E+01 0.00000E+00 0.00000E+00
 -1      1180 4.06500E+01 0.00000E+00 0.00000E+00
 -1      1181 4.36500E+01 0.00000E+00 0.00000E+00
 -1      1182 4.66500E+01 0.00000E+00 0.00000E+00
 -1      1183 4.96500E+01 0.00000E+00 0.00000E+00
 -1      1184 5.26500E+01 0.00000E+00 0.00000E+00
 -1      1185 5.56500E+01 0.00000E+00 0.00000E+00
 -1      1186 5.86500E+01 0.00000E+00 0.00000E+00
 -1      1187 6.16500E+01 0.00000E+00 0.00000E+00
 -1      1188 6.46500E+01 0.00000E+00 0.00000E+00
 -1      1189 6.76500E+01 0.00000E+00 0.00000E+00
 -1      1190 7.06500E+01 0.00000E+00 0.00000E+00
 -1      1191 7.36500E+01 0.00000E+00 0.00000E+00
 -1      1192 7.66500E+01 0.00000E+00 0.00000E+00
 -1      1193 7.96500E+01 0.00000E+00 0.00000E+00
 -1      1194 8.26500E+01 0.00000E+00 0.00000E+00
 -1      1195 8.56500E+01 0.00000E+00 0.00000E+00
 -1      1196 8.86500E+01 0.00000E+00 0.00000E+00
 -1      1197 9.16500E+01 0.00000E+00 0.00000E+00
 -1      1198 9.46500E+01 0.00000E+00 0.00000E+00
 -1      1199 9.76500E+01 0.00000E+00 0.00000E+00
 -1      1200 1.00650E+02 0.00000E+00 0.00000E+00
 -1      1201 1.03650E+02 0.00000E+00 0.00000E+00
 -1      1202 1.06650E+02 0.00000E+00 0.00000E+00
 -1      1203 1.09650E+02 0.00000E+00 0.00000E+00
 -1      1204 1.12650E+02 0.00000E+00 0.00000E+00
 -1      1205 1.15650E+02 0.00000E+00 0.00000E+00
 -1      1206 1.18650E+02 0.00000E+00 0.00000E+00
 -1      1207 1.21650E+02 0.00000E+00 0.00000E+00
 -1      1208 1.24650E+02 0.00000E+00 0.00000E+00
 -1      1209 1.27650E+02 0.00000E+00 0.00000E+00
 -1      1210 1.30650E+02 0.00000E+00 0.00000E+00
 -1      1211 1.33650E+02 0.00000E+00 0.00000E+00
 -1      1212 1.36650E+02 0.00000E+00 0.00000E+00
 -1      1213 1.39650E+02 0.00000E+00 0.00000E+00
 -1      1214 1.42650E+02 0.00000E+00 0.00000E+00
 -1      1215 1.45650E+02 0.00000E+00 0.00000E+00
 -1      1216 1.48575E+02 0.00000E+00 0.00000E+00
 -1      1217 1.50000E+02 1.55000E+00 0.00000E+00
 -1      1218 1.50000E+02 4.65000E+00 0.00000E+00
 -1      1219 1.50000E+02 7.72500E+00 0.00000E+00
 -1      1220 1.50000E+02 1.08000E+01 0.00000E+00
 -1      1221 1.50000E+02 1.38000E+01 0.00000E+00
 -1      1222 1.50000E+02 1.65250E+01 0.00000E+00
 -1      1223 1.50000E+02 1.89250E+01 0.00000E+00
 -1      1224 1.50000E+02 2.10750E+01 0.00000E+00
 -1      1225 1.50000E+02 2.30500E+01 0.00000E+00
 -1      1226 1.50000E+02 2.49750E+01 0.00000E+00
 -1      1227 1.50000E+02 2.69000E+01 0.00000E+00
 -1      1228 1.50000E+02 2.89500E+01 0.00000E+00
 -1      1229 1.50000E+02 3.10500E+01 0.00000E+00
 -1      1230 1.50000E+02 3.33500E+01 0.00000E+00
 -1      1231 1.50000E+02 3.61750E+01 0.00000E+00
 -1      1232 1.50000E+02 3.92500E+01 0.00000E+00
 -1      1233 1.50000E+02 4.23250E+01 0.00000E+00
 -1      1234 1.50000E+02 4.54000E+01 0.00000E+00
 -1      1235 1.50000E+02 4.84750E+01 0.00000E+00
 -1      1236 1.45954E+02 2.57963E+01 0.00000E+00
 -1      1237 1.45636E+02 2.43303E+01 0.00000E+00
 -1      1238 1.45003E+02 2.29479E+01 0.00000E+00
 -1      1239 1.44071E+02 2.17193E+01 0.00000E+00
 -1      1240 1.42916E+02 2.07403E+01 0.00000E+00
 -1      1241 1.41588E+02 2.00365E+01 0.00000E+00
 -1      1242 1.40125E+02 1.96300E+01 0.00000E+00
 -1      1243 1.38600E+02 1.95491E+01 0.00000E+00
 -1      1244 1.37055E+02 1.98120E+01 0.00000E+00
 -1      1245 1.35670E+02 2.03774E+01 0.00000E+00
 -1      1246 1.34425E+02 2.12346E+01 0.00000E+00
 -1      1247 1.33365E+02 2.23761E+01 0.00000E+00
 -1      1248 1.32604E+02 2.36788E+01 0.00000E+00
 -1      1249 1.32138E+02 2.51243E+01 0.00000E+00
 -1      1250 1.31994E+02 2.65902E+01 0.00000E+00
 -1      1251 1.32154E+02 2.80264E+01 0.00000E+00
 -1      1252 1.32618E+02 2.94284E+01 0.00000E+00
 -1      1253 1.33349E+02 3.06775E+01 0.00000E+00
 -1      1254 1.34288E+02 3.17202E+01 0.00000E+00
 -1      1255 1.35474E+02 3.25886E+01 0.00000E+00
 -1      1256 1.36861E+02 3.32051E+01 0.00000E+00
 -1      1257 1.38334E+02 3.35068E+01 0.00000E+00
 -1      1258 1.39856E+02 3.34847E+01 0.00000E+00
 -1      1259 1.41390E+02 3.31150E+01 0.00000E+00
 -1      1260 1.42822E+02 3.23985E+01 0.00000E+00
 -1      1261 1.44009E+02 3.14212E+01 0.00000E+00
 -1      1262 1.44933E+02 3.02428E+01 0.00000E+00
 -1      1263 1.45612E+02 2.88182E+01 0.00000E+00
 -1      1264 1.45954E+02 2.72821E+01 0.00000E+00
 -1      1265 1.57500E+00 4.85250E+01 0.00000E+00
 -1      1266 1.29900E+00 4.48375E+01 0.00000E+00
 -1      1267 1.29900E+00 4.63125E+01 0.00000E+00
 -1      1268 1.29900E+00 4.18875E+01 0.00000E+00
 -1      1269 1.29900E+00 4.33625E+01 0.00000E+00
 -1      1270 2.59800E+00 4.41000E+01 0.00000E+00
 -1      1271 1.29900E+00 3.89375E+01 0.00000E+00
 -1      1272 1.29900E+00 4.04125E+01 0.00000E+00
 -1      1273 2.59800E+00 4.11500E+01 0.00000E+00
 -1      1274 1.29900E+00 3.59875E+01 0.00000E+00
 -1      1275 1.29900E+00 3.74625E+01 0.00000E+00
 -1      1276 2.59800E+00 3.82000E+01 0.00000E+00
 -1      1277 1.29900E+00 3.30875E+01 0.00000E+00
 -1      1278 1.29900E+00 3.45375E+01 0.00000E+00
 -1      1279 2.59800E+00 3.52750E+01 0.00000E+00
 -1      1280 1.29900E+00 3.01375E+01 0.00000E+00
 -1      1281 1.29900E+00 3.16125E+01 0.00000E+00
 -1      1282 2.59800E+00 3.23500E+01 0.00000E+00
 -1      1283 1.29900E+00 2.71875E+01 0.00000E+00
 -1      1284 1.29900E+00 2.86625E+01 0.00000E+00
 -1      1285 2.59800E+00 2.94000E+01 0.00000E+00
 -1      1286 1.29900E+00 2.42375E+01 0.00000E+00
 -1      1287 1.29900E+00 2.57125E+01 0.00000E+00
 -1      1288 2.59800E+00 2.64500E+01 0.00000E+00
 -1      1289 1.29900E+00 2.12875E+01 0.00000E+00
 -1      1290 1.29900E+00 2.27625E+01 0.00000E+00
 -1      1291 2.59800E+00 2.35000E+01 0.00000E+00
 -1      1292 1.29900E+00 1.83375E+01 0.00000E+00
 -1      1293 1.29900E+00 1.98125E+01 0.00000E+00
 -1      1294 2.59800E+00 2.05500E+01 0.00000E+00
 -1      1295 1.29900E+00 1.54375E+01 0.00000E+00
 -1      1296 1.29900E+00 1.68875E+01 0.00000E+00
 -1      1297 2.59800E+00 1.76250E+01 0.00000E+00
 -1      1298 1.29900E+00 1.24875E+01 0.00000E+00
 -1      1299 1.29900E+00 1.39625E+01 0.00000E+00
 -1      1300 2.59800E+00 1.47000E+01 0.00000E+00
 -1      1301 1.29900E+00 9.53750E+00 0.00000E+00
 -1      1302 1.29900E+00 1.10125E+01 0.00000E+00
 -1      1303 2.59800E+00 1.17500E+01 0.00000E+00
 -1      1304 1.29900E+00 6.58750E+00 0.00000E+00
 -1      1305 1.29900E+00 8.06250E+00 0.00000E+00
 -1      1306 2.59800E+00 8.80000E+00 0.00000E+00
 -1      1307 1.29900E+00 3.63750E+00 0.00000E+00
 -1      1308 1.29900E+00 5.11250E+00 0.00000E+00
 -1      1309 2.59800E+00 5.85000E+00 0.00000E+00
 -1      1310 1.43700E+00 1.09375E+00 0.00000E+00
 -1      1311 1.43700E+00 2.54375E+00 0.00000E+00
 -1      1312 2.73600E+00 3.28125E+00 0.00000E+00
 -1      1313 3.01200E+00 1.09375E+00 0.00000E+00
 -1      1314 3.90000E+00 4.87010E+01 0.00000E+00
 -1      1315 5.40000E+00 4.87010E+01 0.00000E+00
 -1      1316 6.90000E+00 4.87010E+01 0.00000E+00
 -1      1317 8.40000E+00 4.87010E+01 0.00000E+00
 -1      1318 6.15000E+00 4.74020E+01 0.00000E+00
 -1      1319 9.90000E+00 4.87010E+01 0.00000E+00
 -1      1320 1.14000E+01 4.87010E+01 0.00000E+00
 -1      1321 9.15000E+00 4.74020E+01 0.00000E+00
 -1      1322 1.29000E+01 4.87010E+01 0.00000E+00
 -1      1323 1.44000E+01 4.87010E+01 0.00000E+00
 -1      1324 1.21500E+01 4.74020E+01 0.00000E+00
 -1      1325 1.59000E+01 4.87010E+01 0.00000E+00
 -1      1326 1.74000E+01 4.87010E+01 0.00000E+00
 -1      1327 1.51500E+01 4.74020E+01 0.00000E+00
 -1      1328 1.89000E+01 4.87010E+01 0.00000E+00
 -1      1329 2.04000E+01 4.87010E+01 0.00000E+00
 -1      1330 1.81500E+01 4.74020E+01 0.00000E+00
 -1      1331 2.19000E+01 4.87010E+01 0.00000E+00
 -1      1332 2.34000E+01 4.87010E+01 0.00000E+00
 -1      1333 2.11500E+01 4.74020E+01 0.00000E+00
 -1      1334 2.49000E+01 4.87010E+01 0.00000E+00
 -1      1335 2.64000E+01 4.87010E+01 0.00000E+00
 -1      1336 2.41500E+01 4.74020E+01 0.00000E+00
 -1      1337 2.79000E+01 4.87010E+01 0.00000E+00
 -1      1338 2.94000E+01 4.87010E+01 0.00000E+00
 -1      1339 2.71500E+01 4.74020E+01 0.00000E+00
 -1      1340 3.09000E+01 4.87010E+01 0.00000E+00
 -1      1341 3.24000E+01 4.87010E+01 0.00000E+00
 -1      1342 3.01500E+01 4.74020E+01 0.00000E+00
 -1      1343 3.39000E+01 4.87010E+01 0.00000E+00
 -1      1344 3.54000E+01 4.87010E+01 0.00000E+00
 -1      1345 3.31500E+01 4.74020E+01 0.00000E+00
 -1      1346 3.69000E+01 4.87010E+01 0.00000E+00
 -1      1347 3.84000E+01 4.87010E+01 0.00000E+00
 -1      1348 3.61500E+01 4.74020E+01 0.00000E+00
 -1      1349 3.99000E+01 4.87010E+01 0.00000E+00
 -1      1350 4.14000E+01 4.87010E+01 0.00000E+00
 -1      1351 3.91500E+01 4.74020E+01 0.00000E+00
 -1      1352 4.29000E+01 4.87010E+01 0.00000E+00
 -1      1353 4.44000E+01 4.87010E+01 0.00000E+00
 -1      1354 4.21500E+01 4.74020E+01 0.00000E+00
 -1      1355 4.59000E+01 4.87010E+01 0.00000E+00
 -1      1356 4.74000E+01 4.87010E+01 0.00000E+00
 -1      1357 4.51500E+01 4.74020E+01 0.00000E+00
 -1      1358 4.89000E+01 4.87010E+01 0.00000E+00
 -1      1359 5.04000E+01 4.87010E+01 0.00000E+00
 -1      1360 4.81500E+01 4.74020E+01 0.00000E+00
 -1      1361 5.19000E+01 4.87010E+01 0.00000E+00
 -1      1362 5.34000E+01 4.87010E+01 0.00000E+00
 -1      1363 5.11500E+01 4.74020E+01 0.00000E+00
 -1      1364 5.49000E+01 4.87010E+01 0.00000E+00
 -1      1365 5.64000E+01 4.87010E+01 0.00000E+00
 -1      1366 5.41500E+01 4.74020E+01 0.00000E+00
 -1      1367 5.79000E+01 4.87010E+01 0.00000E+00
 -1      1368 5.94000E+01 4.87010E+01 0.00000E+00
 -1      1369 5.71500E+01 4.74020E+01 0.00000E+00
 -1      1370 6.09000E+01 4.87010E+01 0.00000E+00
 -1      1371 6.24000E+01 4.87010E+01 0.00000E+00
 -1      1372 6.01500E+01 4.74020E+01 0.00000E+00
 -1      1373 6.39000E+01 4.87010E+01 0.00000E+00
 -1      1374 6.54000E+01 4.87010E+01 0.00000E+00
 -1      1375 6.31500E+01 4.74020E+01 0.00000E+00
 -1      1376 6.69000E+01 4.87010E+01 0.00000E+00
 -1      1377 6.84000E+01 4.87010E+01 0.00000E+00
 -1      1378 6.61500E+01 4.74020E+01 0.00000E+00
 -1      1379 6.99000E+01 4.87010E+01 0.00000E+00
 -1      1380 7.14000E+01 4.87010E+01 0.00000E+00
 -1      1381 6.91500E+01 4.74020E+01 0.00000E+00
 -1      1382 7.29000E+01 4.87010E+01 0.00000E+00
 -1      1383 7.44000E+01 4.87010E+01 0.00000E+00
 -1      1384 7.21500E+01 4.74020E+01 0.00000E+00
 -1      1385 7.59000E+01 4.87010E+01 0.00000E+00
 -1      1386 7.74000E+01 4.87010E+01 0.00000E+00
 -1      1387 7.51500E+01 4.74020E+01 0.00000E+00
 -1      1388 7.89000E+01 4.87010E+01 0.00000E+00
 -1      1389 8.04000E+01 4.87010E+01 0.00000E+00
 -1      1390 7.81500E+01 4.74020E+01 0.00000E+00
 -1      1391 8.19000E+01 4.87010E+01 0.00000E+00
 -1      1392 8.34000E+01 4.87010E+01 0.00000E+00
 -1      1393 8.11500E+01 4.74020E+01 0.00000E+00
 -1      1394 8.49000E+01 4.87010E+01 0.00000E+00
 -1      1395 8.64000E+01 4.87010E+01 0.00000E+00
 -1      1396 8.41500E+01 4.74020E+01 0.00000E+00
 -1      1397 8.79000E+01 4.87010E+01 0.00000E+00
 -1      1398 8.94000E+01 4.87010E+01 0.00000E+00
 -1      1399 8.71500E+01 4.74020E+01 0.00000E+00
 -1      1400 9.09000E+01 4.87010E+01 0.00000E+00
 -1      1401 9.24000E+01 4.87010E+01 0.00000E+00
 -1      1402 9.01500E+01 4.74020E+01 0.00000E+00
 -1      1403 9.39000E+01 4.87010E+01 0.00000E+00
 -1      1404 9.54000E+01 4.87010E+01 0.00000E+00
 -1      1405 9.31500E+01 4.74020E+01 0.00000E+00
 -1      1406 9.69000E+01 4.87010E+01 0.00000E+00
 -1      1407 9.84000E+01 4.87010E+01 0.00000E+00
 -1      1408 9.61500E+01 4.74020E+01 0.00000E+00
 -1      1409 9.99000E+01 4.87010E+01 0.00000E+00
 -1      1410 1.01400E+02 4.87010E+01 0.00000E+00
 -1      1411 9.91500E+01 4.74020E+01 0.00000E+00
 -1      1412 1.02900E+02 4.87010E+01 0.00000E+00
 -1      1413 1.04400E+02 4.87010E+01 0.00000E+00
 -1      1414 1.02150E+02 4.74020E+01 0.00000E+00
 -1      1415 1.05900E+02 4.87010E+01 0.00000E+00
 -1      1416 1.07400E+02 4.87010E+01 0.00000E+00
 -1      1417 1.05150E+02 4.74020E+01 0.00000E+00
 -1      1418 1.08900E+02 4.87010E+01 0.00000E+00
 -1      1419 1.10400E+02 4.87010E+01 0.00000E+00
 -1      1420 1.08150E+02 4.74020E+01 0.00000E+00
 -1      1421 1.11900E+02 4.87010E+01 0.00000E+00
 -1      1422 1.13400E+02 4.87010E+01 0.00000E+00
 -1      1423 1.11150E+02 4.74020E+01 0.00000E+00
 -1      1424 1.14900E+02 4.87010E+01 0.00000E+00
 -1      1425 1.16400E+02 4.87010E+01 0.00000E+00
 -1      1426 1.14150E+02 4.74020E+01 0.00000E+00
 -1      1427 1.17900E+02 4.87010E+01 0.00000E+00
 -1      1428 1.19400E+02 4.87010E+01 0.00000E+00
 -1      1429 1.17150E+02 4.74020E+01 0.00000E+00
 -1      1430 1.20900E+02 4.87010E+01 0.00000E+00
 -1      1431 1.22400E+02 4.87010E+01 0.00000E+00
 -1      1432 1.20150E+02 4.74020E+01 0.00000E+00
 -1      1433 1.23900E+02 4.87010E+01 0.00000E+00
 -1      1434 1.25400E+02 4.87010E+01 0.00000E+00
 -1      1435 1.23150E+02 4.74020E+01 0.00000E+00
 -1      1436 1.26900E+02 4.87010E+01 0.00000E+00
 -1      1437 1.28400E+02 4.87010E+01 0.00000E+00
 -1      1438 1.26150E+02 4.74020E+01 0.00000E+00
 -1      1439 1.29900E+02 4.87010E+01 0.00000E+00
 -1      1440 1.31400E+02 4.87010E+01 0.00000E+00
 -1      1441 1.29150E+02 4.74020E+01 0.00000E+00
 -1      1442 1.32900E+02 4.87010E+01 0.00000E+00
 -1      1443 1.34400E+02 4.87010E+01 0.00000E+00
 -1      1444 1.32150E+02 4.74020E+01 0.00000E+00
 -1      1445 1.35900E+02 4.87010E+01 0.00000E+00
 -1      1446 1.37400E+02 4.87010E+01 0.00000E+00
 -1      1447 1.35150E+02 4.74020E+01 0.00000E+00
 -1      1448 1.38900E+02 4.87010E+01 0.00000E+00
 -1      1449 1.40400E+02 4.87010E+01 0.00000E+00
 -1      1450 1.38150E+02 4.74020E+01 0.00000E+00
 -1      1451 1.41900E+02 4.87010E+01 0.00000E+00
 -1      1452 1.43400E+02 4.87010E+01 0.00000E+00
 -1      1453 1.41150E+02 4.74020E+01 0.00000E+00
 -1      1454 1.44900E+02 4.87010E+01 0.00000E+00
 -1      1455 1.46400E+02 4.87010E+01 0.00000E+00
 -1      1456 1.44150E+02 4.74020E+01 0.00000E+00
 -1      1457 1.48575E+02 4.84750E+01 0.00000E+00
 -1      1458 1.47825E+02 4.71760E+01 0.00000E+00
 -1      1459 6.01200E+00 1.09375E+00 0.00000E+00
 -1      1460 4.51200E+00 1.09375E+00 0.00000E+00
 -1      1461 4.37400E+00 2.18750E+00 0.00000E+00
 -1      1462 9.01200E+00 1.09375E+00 0.00000E+00
 -1      1463 7.51200E+00 1.09375E+00 0.00000E+00
 -1      1464 7.37400E+00 2.18750E+00 0.00000E+00
 -1      1465 1.20120E+01 1.09375E+00 0.00000E+00
 -1      1466 1.05120E+01 1.09375E+00 0.00000E+00
 -1      1467 1.03740E+01 2.18750E+00 0.00000E+00
 -1      1468 1.50120E+01 1.09375E+00 0.00000E+00
 -1      1469 1.35120E+01 1.09375E+00 0.00000E+00
 -1      1470 1.33740E+01 2.18750E+00 0.00000E+00
 -1      1471 1.80120E+01 1.09375E+00 0.00000E+00
 -1      1472 1.65120E+01 1.09375E+00 0.00000E+00
 -1      1473 1.63740E+01 2.18750E+00 0.00000E+00
 -1      1474 2.10120E+01 1.09375E+00 0.00000E+00
 -1      1475 1.95120E+01 1.09375E+00 0.00000E+00
 -1      1476 1.93740E+01 2.18750E+00 0.00000E+00
 -1      1477 2.40120E+01 1.09375E+00 0.00000E+00
 -1      1478 2.25120E+01 1.09375E+00 0.00000E+00
 -1      1479 2.23740E+01 2.18750E+00 0.00000E+00
 -1      1480 2.70120E+01 1.09375E+00 0.00000E+00
 -1      1481 2.55120E+01 1.09375E+00 0.00000E+00
 -1      1482 2.53740E+01 2.18750E+00 0.00000E+00
 -1      1483 3.00120E+01 1.09375E+00 0.00000E+00
 -1      1484 2.85120E+01 1.09375E+00 0.00000E+00
 -1      1485 2.83740E+01 2.18750E+00 0.00000E+00
 -1      1486 3.30120E+01 1.09375E+00 0.00000E+00
 -1      1487 3.15120E+01 1.09375E+00 0.00000E+00
 -1      1488 3.13740E+01 2.18750E+00 0.00000E+00
 -1      1489 3.60120E+01 1.09375E+00 0.00000E+00
 -1      1490 3.45120E+01 1.09375E+00 0.00000E+00
 -1      1491 3.43740E+01 2.18750E+00 0.00000E+00
 -1      1492 3.90120E+01 1.09375E+00 0.00000E+00
 -1      1493 3.75120E+01 1.09375E+00 0.00000E+00
 -1      1494 3.73740E+01 2.18750E+00 0.00000E+00
 -1      1495 4.20120E+01 1.09375E+00 0.00000E+00
 -1      1496 4.05120E+01 1.09375E+00 0.00000E+00
 -1      1497 4.03740E+01 2.18750E+00 0.00000E+00
 -1      1498 4.50120E+01 1.09375E+00 0.00000E+00
 -1      1499 4.35120E+01 1.09375E+00 0.00000E+00
 -1      1500 4.33740E+01 2.18750E+00 0.00000E+00
 -1      1501 4.80120E+01 1.09375E+00 0.00000E+00
 -1      1502 4.65120E+01 1.09375E+00 0.00000E+00
 -1      1503 4.63740E+01 2.18750E+00 0.00000E+00
 -1      1504 5.10120E+01 1.09375E+00 0.00000E+00
 -1      1505 4.95120E+01 1.09375E+00 0.00000E+00
 -1      1506 4.93740E+01 2.18750E+00 0.00000E+00
 -1      1507 5.40120E+01 1.09375E+00 0.00000E+00
 -1      1508 5.25120E+01 1.09375E+00 0.00000E+00
 -1      1509 5.23740E+01 2.18750E+00 0.00000E+00
 -1      1510 5.70120E+01 1.09375E+00 0.00000E+00
 -1      1511 5.55120E+01 1.09375E+00 0.00000E+00
 -1      1512 5.53740E+01 2.18750E+00 0.00000E+00
 -1      1513 6.00120E+01 1.09375E+00 0.00000E+00
 -1      1514 5.85120E+01 1.09375E+00 0.00000E+00
 -1      1515 5.83740E+01 2.18750E+00 0.00000E+00
 -1      1516 6.30120E+01 1.09375E+00 0.00000E+00
 -1      1517 6.15120E+01 1.09375E+00 0.00000E+00
 -1      1518 6.13740E+01 2.18750E+00 0.00000E+00
 -1      1519 6.60120E+01 1.09375E+00 0.00000E+00
 -1      1520 6.45120E+01 1.09375E+00 0.00000E+00
 -1      1521 6.43740E+01 2.18750E+00 0.00000E+00
 -1      1522 6.90120E+01 1.09375E+00 0.00000E+00
 -1      1523 6.75120E+01 1.09375E+00 0.00000E+00
 -1      1524 6.73740E+01 2.18750E+00 0.00000E+00
 -1      1525 7.20120E+01 1.09375E+00 0.00000E+00
 -1      1526 7.05120E+01 1.09375E+00 0.00000E+00
 -1      1527 7.03740E+01 2.18750E+00 0.00000E+00
 -1      1528 7.50120E+01 1.09375E+00 0.00000E+00
 -1      1529 7.35120E+01 1.09375E+00 0.00000E+00
 -1      1530 7.33740E+01 2.18750E+00 0.00000E+00
 -1      1531 7.80120E+01 1.09375E+00 0.00000E+00
 -1      1532 7.65120E+01 1.09375E+00 0.00000E+00
 -1      1533 7.63740E+01 2.18750E+00 0.00000E+00
 -1      1534 8.10120E+01 1.09375E+00 0.00000E+00
 -1      1535 7.95120E+01 1.09375E+00 0.00000E+00
 -1      1536 7.93740E+01 2.18750E+00 0.00000E+00
 -1      1537 8.40120E+01 1.09375E+00 0.00000E+00
 -1      1538 8.25120E+01 1.09375E+00 0.00000E+00
 -1      1539 8.23740E+01 2.18750E+00 0.00000E+00
 -1      1540 8.70120E+01 1.09375E+00 0.00000E+00
 -1      1541 8.55120E+01 1.09375E+00 0.00000E+00
 -1      1542 8.53740E+01 2.18750E+00 0.00000E+00
 -1      1543 9.00120E+01 1.09375E+00 0.00000E+00
 -1      1544 8.85120E+01 1.09375E+00 0.00000E+00
 -1      1545 8.83740E+01 2.18750E+00 0.00000E+00
 -1      1546 9.30120E+01 1.09375E+00 0.00000E+00
 -1      1547 9.15120E+01 1.09375E+00 0.00000E+00
 -1      1548 9.13740E+01 2.18750E+00 0.00000E+00
 -1      1549 9.60120E+01 1.09375E+00 0.00000E+00
 -1      1550 9.45120E+01 1.09375E+00 0.00000E+00
 -1      1551 9.43740E+01 2.18750E+00 0.00000E+00
 -1      1552 9.90120E+01 1.09375E+00 0.00000E+00
 -1      1553 9.75120E+01 1.09375E+00 0.00000E+00
 -1      1554 9.73740E+01 2.18750E+00 0.00000E+00
 -1      1555 1.02012E+02 1.09375E+00 0.00000E+00
 -1      1556 1.00512E+02 1.09375E+00 0.00000E+00
 -1      1557 1.00374E+02 2.18750E+00 0.00000E+00
 -1      1558 1.05012E+02 1.09375E+00 0.00000E+00
 -1      1559 1.03512E+02 1.09375E+00 0.00000E+00
 -1      1560 1.03374E+02 2.18750E+00 0.00000E+00
 -1      1561 1.08012E+02 1.09375E+00 0.00000E+00
 -1      1562 1.06512E+02 1.09375E+00 0.00000E+00
 -1      1563 1.06374E+02 2.18750E+00 0.00000E+00
 -1      1564 1.11012E+02 1.09375E+00 0.00000E+00
 -1      1565 1.09512E+02 1.09375E+00 0.00000E+00
 -1      1566 1.09374E+02 2.18750E+00 0.00000E+00
 -1      1567 1.14012E+02 1.09375E+00 0.00000E+00
 -1      1568 1.12512E+02 1.09375E+00 0.00000E+00
 -1      1569 1.12374E+02 2.18750E+00 0.00000E+00
 -1      1570 1.17012E+02 1.09375E+00 0.00000E+00
 -1      1571 1.15512E+02 1.09375E+00 0.00000E+00
 -1      1572 1.15374E+02 2.18750E+00 0.00000E+00
 -1      1573 1.20012E+02 1.09375E+00 0.00000E+00
 -1      1574 1.18512E+02 1.09375E+00 0.00000E+00
 -1      1575 1.18374E+02 2.18750E+00 0.00000E+00
 -1      1576 1.23012E+02 1.09375E+00 0.00000E+00
 -1      1577 1.21512E+02 1.09375E+00 0.00000E+00
 -1      1578 1.21374E+02 2.18750E+00 0.00000E+00
 -1      1579 1.26012E+02 1.09375E+00 0.00000E+00
 -1      1580 1.24512E+02 1.09375E+00 0.00000E+00
 -1      1581 1.24374E+02 2.18750E+00 0.00000E+00
 -1      1582 1.29012E+02 1.09375E+00 0.00000E+00
 -1      1583 1.27512E+02 1.09375E+00 0.00000E+00
 -1      1584 1.27374E+02 2.18750E+00 0.00000E+00
 -1      1585 1.32012E+02 1.09375E+00 0.00000E+00
 -1      1586 1.30512E+02 1.09375E+00 0.00000E+00
 -1      1587 1.30374E+02 2.18750E+00 0.00000E+00
 -1      1588 1.35012E+02 1.09375E+00 0.00000E+00
 -1      1589 1.33512E+02 1.09375E+00 0.00000E+00
 -1      1590 1.33374E+02 2.18750E+00 0.00000E+00
 -1      1591 1.38012E+02 1.09375E+00 0.00000E+00
 -1      1592 1.36512E+02 1.09375E+00 0.00000E+00
 -1      1593 1.36374E+02 2.18750E+00 0.00000E+00
 -1      1594 1.41012E+02 1.09375E+00 0.00000E+00
 -1      1595 1.39512E+02 1.09375E+00 0.00000E+00
 -1      1596 1.39374E+02 2.18750E+00 0.00000E+00
 -1      1597 1.44012E+02 1.09375E+00 0.00000E+00
 -1      1598 1.42512E+02 1.09375E+00 0.00000E+00
 -1      1599 1.42374E+02 2.18750E+00 0.00000E+00
 -1      1600 1.47012E+02 1.09375E+00 0.00000E+00
 -1      1601 1.45512E+02 1.09375E+00 0.00000E+00
 -1      1602 1.45374E+02 2.18750E+00 0.00000E+00
 -1      1603 1.48575E+02 1.55000E+00 0.00000E+00
 -1      1604 1.48701E+02 5.42500E+00 0.00000E+00
 -1      1605 1.48701E+02 3.87500E+00 0.00000E+00
 -1      1606 1.48701E+02 8.47500E+00 0.00000E+00
 -1      1607 1.48701E+02 6.95000E+00 0.00000E+00
 -1      1608 1.47402E+02 6.17500E+00 0.00000E+00
 -1      1609 1.48701E+02 1.15750E+01 0.00000E+00
 -1      1610 1.48701E+02 1.00250E+01 0.00000E+00
 -1      1611 1.47402E+02 9.25000E+00 0.00000E+00
 -1      1612 1.48701E+02 1.44750E+01 0.00000E+00
 -1      1613 1.48701E+02 1.30250E+01 0.00000E+00
 -1      1614 1.47402E+02 1.22500E+01 0.00000E+00
 -1      1615 1.48701E+02 1.70250E+01 0.00000E+00
 -1      1616 1.48701E+02 1.57500E+01 0.00000E+00
 -1      1617 1.47402E+02 1.49750E+01 0.00000E+00
 -1      1618 1.48701E+02 1.92750E+01 0.00000E+00
 -1      1619 1.48701E+02 1.81500E+01 0.00000E+00
 -1      1620 1.47402E+02 1.73750E+01 0.00000E+00
 -1      1621 1.49184E+02 2.35250E+01 0.00000E+00
 -1      1622 1.49184E+02 2.25750E+01 0.00000E+00
 -1      1623 1.49184E+02 2.54750E+01 0.00000E+00
 -1      1624 1.49184E+02 2.45000E+01 0.00000E+00
 -1      1625 1.48369E+02 2.40250E+01 0.00000E+00
 -1      1626 1.49184E+02 2.73750E+01 0.00000E+00
 -1      1627 1.49184E+02 2.64250E+01 0.00000E+00
 -1      1628 1.48369E+02 2.59500E+01 0.00000E+00
 -1      1629 1.49184E+02 2.95750E+01 0.00000E+00
 -1      1630 1.49184E+02 2.84750E+01 0.00000E+00
 -1      1631 1.48369E+02 2.80000E+01 0.00000E+00
 -1      1632 1.49184E+02 3.15750E+01 0.00000E+00
 -1      1633 1.49184E+02 3.05750E+01 0.00000E+00
 -1      1634 1.48369E+02 3.01000E+01 0.00000E+00
 -1      1635 1.49184E+02 3.41750E+01 0.00000E+00
 -1      1636 1.49184E+02 3.28750E+01 0.00000E+00
 -1      1637 1.48369E+02 3.24000E+01 0.00000E+00
 -1      1638 1.49184E+02 3.72250E+01 0.00000E+00
 -1      1639 1.49184E+02 3.57000E+01 0.00000E+00
 -1      1640 1.48369E+02 3.52250E+01 0.00000E+00
 -1      1641 1.49184E+02 4.03250E+01 0.00000E+00
 -1      1642 1.49184E+02 3.87750E+01 0.00000E+00
 -1      1643 1.48369E+02 3.83000E+01 0.00000E+00
 -1      1644 1.49184E+02 4.33750E+01 0.00000E+00
 -1      1645 1.49184E+02 4.18500E+01 0.00000E+00
 -1      1646 1.48369E+02 4.13750E+01 0.00000E+00
 -1      1647 1.48505E+02 4.60505E+01 0.00000E+00
 -1      1648 1.48505E+02 4.45005E+01 0.00000E+00
 -1      1649 1.47689E+02 4.40255E+01 0.00000E+00
 -1      1650 1.46330E+02 4.62765E+01 0.00000E+00
 -1      1651 1.46520E+02 2.53631E+01 0.00000E+00
 -1      1652 1.46599E+02 2.61006E+01 0.00000E+00
 -1      1653 1.46133E+02 2.37658E+01 0.00000E+00
 -1      1654 1.46372E+02 2.44855E+01 0.00000E+00
 -1      1655 1.45364E+02 2.22882E+01 0.00000E+00
 -1      1656 1.45755E+02 2.29425E+01 0.00000E+00
 -1      1657 1.44241E+02 2.10204E+01 0.00000E+00
 -1      1658 1.44778E+02 2.15860E+01 0.00000E+00
 -1      1659 1.42954E+02 2.00298E+01 0.00000E+00
 -1      1660 1.43562E+02 2.04413E+01 0.00000E+00
 -1      1661 1.41440E+02 1.93703E+01 0.00000E+00
 -1      1662 1.42154E+02 1.96553E+01 0.00000E+00
 -1      1663 1.39846E+02 1.90110E+01 0.00000E+00
 -1      1664 1.40586E+02 1.91321E+01 0.00000E+00
 -1      1665 1.38177E+02 1.89672E+01 0.00000E+00
 -1      1666 1.38954E+02 1.89234E+01 0.00000E+00
 -1      1667 1.36485E+02 1.92611E+01 0.00000E+00
 -1      1668 1.37244E+02 1.90423E+01 0.00000E+00
 -1      1669 1.35069E+02 2.00059E+01 0.00000E+00
 -1      1670 1.35690E+02 1.96708E+01 0.00000E+00
 -1      1671 1.33645E+02 2.09467E+01 0.00000E+00
 -1      1672 1.34256E+02 2.04206E+01 0.00000E+00
 -1      1673 1.32653E+02 2.23169E+01 0.00000E+00
 -1      1674 1.33100E+02 2.17127E+01 0.00000E+00
 -1      1675 1.31896E+02 2.37764E+01 0.00000E+00
 -1      1676 1.32205E+02 2.30852E+01 0.00000E+00
 -1      1677 1.31385E+02 2.53578E+01 0.00000E+00
 -1      1678 1.31539E+02 2.46119E+01 0.00000E+00
 -1      1679 1.31427E+02 2.69501E+01 0.00000E+00
 -1      1680 1.31421E+02 2.62388E+01 0.00000E+00
 -1      1681 1.31636E+02 2.85145E+01 0.00000E+00
 -1      1682 1.31480E+02 2.77975E+01 0.00000E+00
 -1      1683 1.32218E+02 3.00181E+01 0.00000E+00
 -1      1684 1.31911E+02 2.93412E+01 0.00000E+00
 -1      1685 1.33097E+02 3.12987E+01 0.00000E+00
 -1      1686 1.32681E+02 3.07312E+01 0.00000E+00
 -1      1687 1.34163E+02 3.23781E+01 0.00000E+00
 -1      1688 1.33645E+02 3.19079E+01 0.00000E+00
 -1      1689 1.35523E+02 3.32696E+01 0.00000E+00
 -1      1690 1.34857E+02 3.28821E+01 0.00000E+00
 -1      1691 1.37044E+02 3.38582E+01 0.00000E+00
 -1      1692 1.36332E+02 3.36305E+01 0.00000E+00
 -1      1693 1.38649E+02 3.41886E+01 0.00000E+00
 -1      1694 1.37896E+02 3.41172E+01 0.00000E+00
 -1      1695 1.40306E+02 3.39974E+01 0.00000E+00
 -1      1696 1.39546E+02 3.40917E+01 0.00000E+00
 -1      1697 1.41977E+02 3.35406E+01 0.00000E+00
 -1      1698 1.41214E+02 3.38186E+01 0.00000E+00
 -1      1699 1.43482E+02 3.26880E+01 0.00000E+00
 -1      1700 1.42822E+02 3.31195E+01 0.00000E+00
 -1      1701 1.44676E+02 3.15478E+01 0.00000E+00
 -1      1702 1.44154E+02 3.20843E+01 0.00000E+00
 -1      1703 1.45611E+02 3.02248E+01 0.00000E+00
 -1      1704 1.45215E+02 3.08600E+01 0.00000E+00
 -1      1705 1.46353E+02 2.86347E+01 0.00000E+00
 -1      1706 1.46083E+02 2.94190E+01 0.00000E+00
 -1      1707 1.46557E+02 2.69724E+01 0.00000E+00
 -1      1708 1.46478E+02 2.77123E+01 0.00000E+00
 -1      1709 1.45566E+02 2.15593E+01 0.00000E+00
 -1      1710 1.48437E+02 2.64375E+00 0.00000E+00
 -1      1711 1.47138E+02 3.41875E+00 0.00000E+00
 -1      1712 1.48868E+02 2.04709E+01 0.00000E+00
 -1      1713 1.47569E+02 1.96959E+01 0.00000E+00
 -1      1714 1.48868E+02 2.14959E+01 0.00000E+00
 -1      1715 1.47055E+02 2.47856E+01 0.00000E+00
 -1      1716 1.46529E+02 2.30848E+01 0.00000E+00
 -1      1717 1.47162E+02 2.65350E+01 0.00000E+00
 -1      1718 1.44300E+02 2.02779E+01 0.00000E+00
 -1      1719 1.42821E+02 1.93243E+01 0.00000E+00
 -1      1720 1.41168E+02 1.87115E+01 0.00000E+00
 -1      1721 1.39422E+02 1.83858E+01 0.00000E+00
 -1      1722 1.37595E+02 1.83734E+01 0.00000E+00
 -1      1723 1.35867E+02 1.88582E+01 0.00000E+00
 -1      1724 1.34258E+02 1.96827E+01 0.00000E+00
 -1      1725 1.32901E+02 2.08634E+01 0.00000E+00
 -1      1726 1.31907E+02 2.23978E+01 0.00000E+00
 -1      1727 1.31102E+02 2.40016E+01 0.00000E+00
 -1      1728 1.30781E+02 2.57180E+01 0.00000E+00
 -1      1729 1.30871E+02 2.74464E+01 0.00000E+00
 -1      1730 1.31199E+02 2.91205E+01 0.00000E+00
 -1      1731 1.31937E+02 3.06603E+01 0.00000E+00
 -1      1732 1.32948E+02 3.19826E+01 0.00000E+00
 -1      1733 1.34191E+02 3.30958E+01 0.00000E+00
 -1      1734 1.35694E+02 3.39608E+01 0.00000E+00
 -1      1735 1.37355E+02 3.45808E+01 0.00000E+00
 -1      1736 1.39104E+02 3.47430E+01 0.00000E+00
 -1      1737 1.40909E+02 3.44673E+01 0.00000E+00
 -1      1738 1.42662E+02 3.38674E+01 0.00000E+00
 -1      1739 1.44178E+02 3.28426E+01 0.00000E+00
 -1      1740 1.45388E+02 3.15511E+01 0.00000E+00
 -1      1741 1.46399E+02 3.00574E+01 0.00000E+00
 -1      1742 1.46995E+02 2.83292E+01 0.00000E+00
 -1      1743 2.87400E+00 4.77875E+01 0.00000E+00
 -1      1744 1.48053E+02 2.19709E+01 0.00000E+00
 -1      1745 3.89700E+00 4.04125E+01 0.00000E+00
 -1      1746 3.89700E+00 4.18875E+01 0.00000E+00
 -1      1747 3.89700E+00 4.33625E+01 0.00000E+00
 -1      1748 3.89700E+00 4.48375E+01 0.00000E+00
 -1      1749 5.19600E+00 4.26250E+01 0.00000E+00
 -1      1750 3.89700E+00 3.45500E+01 0.00000E+00
 -1      1751 3.89700E+00 3.60000E+01 0.00000E+00
 -1      1752 3.89700E+00 3.16000E+01 0.00000E+00
 -1      1753 3.89700E+00 3.30750E+01 0.00000E+00
 -1      1754 5.19600E+00 3.38000E+01 0.00000E+00
 -1      1755 3.89700E+00 2.86500E+01 0.00000E+00
 -1      1756 3.89700E+00 3.01250E+01 0.00000E+00
 -1      1757 5.19600E+00 3.08500E+01 0.00000E+00
 -1      1758 3.89700E+00 2.57000E+01 0.00000E+00
 -1      1759 3.89700E+00 2.71750E+01 0.00000E+00
 -1      1760 5.19600E+00 2.79000E+01 0.00000E+00
 -1      1761 3.89700E+00 2.27500E+01 0.00000E+00
 -1      1762 3.89700E+00 2.42250E+01 0.00000E+00
 -1      1763 5.19600E+00 2.49500E+01 0.00000E+00
 -1      1764 3.89700E+00 1.98000E+01 0.00000E+00
 -1      1765 3.89700E+00 2.12750E+01 0.00000E+00
 -1      1766 5.19600E+00 2.20000E+01 0.00000E+00
 -1      1767 3.89700E+00 1.69000E+01 0.00000E+00
 -1      1768 3.89700E+00 1.83500E+01 0.00000E+00
 -1      1769 5.19600E+00 1.90750E+01 0.00000E+00
 -1      1770 3.89700E+00 1.39500E+01 0.00000E+00
 -1      1771 3.89700E+00 1.54250E+01 0.00000E+00
 -1      1772 5.19600E+00 1.61500E+01 0.00000E+00
 -1      1773 3.89700E+00 1.10000E+01 0.00000E+00
 -1      1774 3.89700E+00 1.24750E+01 0.00000E+00
 -1      1775 5.19600E+00 1.32000E+01 0.00000E+00
 -1      1776 3.89700E+00 8.05000E+00 0.00000E+00
 -1      1777 3.89700E+00 9.52500E+00 0.00000E+00
 -1      1778 5.19600E+00 1.02500E+01 0.00000E+00
 -1      1779 3.89700E+00 5.10000E+00 0.00000E+00
 -1      1780 3.89700E+00 6.57500E+00 0.00000E+00
 -1      1781 5.19600E+00 7.30000E+00 0.00000E+00
 -1      1782 4.20450E+00 3.09687E+00 0.00000E+00
 -1      1783 4.06650E+00 4.19063E+00 0.00000E+00
 -1      1784 5.36550E+00 4.91563E+00 0.00000E+00
 -1      1785 5.70450E+00 3.09687E+00 0.00000E+00
 -1      1786 3.62400E+00 4.64885E+01 0.00000E+00
 -1      1787 8.70450E+00 3.09687E+00 0.00000E+00
 -1      1788 7.20450E+00 3.09687E+00 0.00000E+00
 -1      1789 7.03500E+00 4.00625E+00 0.00000E+00
 -1      1790 1.47260E+02 2.26557E+01 0.00000E+00
 -1      1791 1.46944E+02 2.15766E+01 0.00000E+00
 -1      1792 4.92300E+00 4.57510E+01 0.00000E+00
 -1      1793 8.40000E+00 4.61030E+01 0.00000E+00
 -1      1794 9.90000E+00 4.61030E+01 0.00000E+00
 -1      1795 1.14000E+01 4.61030E+01 0.00000E+00
 -1      1796 1.29000E+01 4.61030E+01 0.00000E+00
 -1      1797 1.06500E+01 4.48040E+01 0.00000E+00
 -1      1798 1.44000E+01 4.61030E+01 0.00000E+00
 -1      1799 1.59000E+01 4.61030E+01 0.00000E+00
 -1      1800 1.36500E+01 4.48040E+01 0.00000E+00
 -1      1801 1.74000E+01 4.61030E+01 0.00000E+00
 -1      1802 1.89000E+01 4.61030E+01 0.00000E+00
 -1      1803 1.66500E+01 4.48040E+01 0.00000E+00
 -1      1804 2.04000E+01 4.61030E+01 0.00000E+00
 -1      1805 2.19000E+01 4.61030E+01 0.00000E+00
 -1      1806 1.96500E+01 4.48040E+01 0.00000E+00
 -1      1807 2.34000E+01 4.61030E+01 0.00000E+00
 -1      1808 2.49000E+01 4.61030E+01 0.00000E+00
 -1      1809 2.26500E+01 4.48040E+01 0.00000E+00
 -1      1810 2.64000E+01 4.61030E+01 0.00000E+00
 -1      1811 2.79000E+01 4.61030E+01 0.00000E+00
 -1      1812 2.56500E+01 4.48040E+01 0.00000E+00
 -1      1813 2.94000E+01 4.61030E+01 0.00000E+00
 -1      1814 3.09000E+01 4.61030E+01 0.00000E+00
 -1      1815 2.86500E+01 4.48040E+01 0.00000E+00
 -1      1816 3.24000E+01 4.61030E+01 0.00000E+00
 -1      1817 3.39000E+01 4.61030E+01 0.00000E+00
 -1      1818 3.16500E+01 4.48040E+01 0.00000E+00
 -1      1819 3.54000E+01 4.61030E+01 0.00000E+00
 -1      1820 3.69000E+01 4.61030E+01 0.00000E+00
 -1      1821 3.46500E+01 4.48040E+01 0.00000E+00
 -1      1822 3.84000E+01 4.61030E+01 0.00000E+00
 -1      1823 3.99000E+01 4.61030E+01 0.00000E+00
 -1      1824 3.76500E+01 4.48040E+01 0.00000E+00
 -1      1825 4.14000E+01 4.61030E+01 0.00000E+00
 -1      1826 4.29000E+01 4.61030E+01 0.00000E+00
 -1      1827 4.06500E+01 4.48040E+01 0.00000E+00
 -1      1828 4.44000E+01 4.61030E+01 0.00000E+00
 -1      1829 4.59000E+01 4.61030E+01 0.00000E+00
 -1      1830 4.36500E+01 4.48040E+01 0.00000E+00
 -1      1831 4.74000E+01 4.61030E+01 0.00000E+00
 -1      1832 4.89000E+01 4.61030E+01 0.00000E+00
 -1      1833 4.66500E+01 4.48040E+01 0.00000E+00
 -1      1834 5.04000E+01 4.61030E+01 0.00000E+00
 -1      1835 5.19000E+01 4.61030E+01 0.00000E+00
 -1      1836 4.96500E+01 4.48040E+01 0.00000E+00
 -1      1837 5.34000E+01 4.61030E+01 0.00000E+00
 -1      1838 5.49000E+01 4.61030E+01 0.00000E+00
 -1      1839 5.26500E+01 4.48040E+01 0.00000E+00
 -1      1840 5.64000E+01 4.61030E+01 0.00000E+00
 -1      1841 5.79000E+01 4.61030E+01 0.00000E+00
 -1      1842 5.56500E+01 4.48040E+01 0.00000E+00
 -1      1843 5.94000E+01 4.61030E+01 0.00000E+00
 -1      1844 6.09000E+01 4.61030E+01 0.00000E+00
 -1      1845 5.86500E+01 4.48040E+01 0.00000E+00
 -1      1846 6.24000E+01 4.61030E+01 0.00000E+00
 -1      1847 6.39000E+01 4.61030E+01 0.00000E+00
 -1      1848 6.16500E+01 4.48040E+01 0.00000E+00
 -1      1849 6.54000E+01 4.61030E+01 0.00000E+00
 -1      1850 6.69000E+01 4.61030E+01 0.00000E+00
 -1      1851 6.46500E+01 4.48040E+01 0.00000E+00
 -1      1852 6.84000E+01 4.61030E+01 0.00000E+00
 -1      1853 6.99000E+01 4.61030E+01 0.00000E+00
 -1      1854 6.76500E+01 4.48040E+01 0.00000E+00
 -1      1855 7.14000E+01 4.61030E+01 0.00000E+00
 -1      1856 7.29000E+01 4.61030E+01 0.00000E+00
 -1      1857 7.06500E+01 4.48040E+01 0.00000E+00
 -1      1858 7.44000E+01 4.61030E+01 0.00000E+00
 -1      1859 7.59000E+01 4.61030E+01 0.00000E+00
 -1      1860 7.36500E+01 4.48040E+01 0.00000E+00
 -1      1861 7.74000E+01 4.61030E+01 0.00000E+00
 -1      1862 7.89000E+01 4.61030E+01 0.00000E+00
 -1      1863 7.66500E+01 4.48040E+01 0.00000E+00
 -1      1864 8.04000E+01 4.61030E+01 0.00000E+00
 -1      1865 8.19000E+01 4.61030E+01 0.00000E+00
 -1      1866 7.96500E+01 4.48040E+01 0.00000E+00
 -1      1867 8.34000E+01 4.61030E+01 0.00000E+00
 -1      1868 8.49000E+01 4.61030E+01 0.00000E+00
 -1      1869 8.26500E+01 4.48040E+01 0.00000E+00
 -1      1870 8.64000E+01 4.61030E+01 0.00000E+00
 -1      1871 8.79000E+01 4.61030E+01 0.00000E+00
 -1      1872 8.56500E+01 4.48040E+01 0.00000E+00
 -1      1873 8.94000E+01 4.61030E+01 0.00000E+00
 -1      1874 9.09000E+01 4.61030E+01 0.00000E+00
 -1      1875 8.86500E+01 4.48040E+01 0.00000E+00
 -1      1876 9.24000E+01 4.61030E+01 0.00000E+00
 -1      1877 9.39000E+01 4.61030E+01 0.00000E+00
 -1      1878 9.16500E+01 4.48040E+01 0.00000E+00
 -1      1879 9.54000E+01 4.61030E+01 0.00000E+00
 -1      1880 9.69000E+01 4.61030E+01 0.00000E+00
 -1      1881 9.46500E+01 4.48040E+01 0.00000E+00
 -1      1882 9.84000E+01 4.61030E+01 0.00000E+00
 -1      1883 9.99000E+01 4.61030E+01 0.00000E+00
 -1      1884 9.76500E+01 4.48040E+01 0.00000E+00
 -1      1885 1.01400E+02 4.61030E+01 0.00000E+00
 -1      1886 1.02900E+02 4.61030E+01 0.00000E+00
 -1      1887 1.00650E+02 4.48040E+01 0.00000E+00
 -1      1888 1.04400E+02 4.61030E+01 0.00000E+00
 -1      1889 1.05900E+02 4.61030E+01 0.00000E+00
 -1      1890 1.03650E+02 4.48040E+01 0.00000E+00
 -1      1891 1.07400E+02 4.61030E+01 0.00000E+00
 -1      1892 1.08900E+02 4.61030E+01 0.00000E+00
 -1      1893 1.06650E+02 4.48040E+01 0.00000E+00
 -1      1894 1.10400E+02 4.61030E+01 0.00000E+00
 -1      1895 1.11900E+02 4.61030E+01 0.00000E+00
 -1      1896 1.09650E+02 4.48040E+01 0.00000E+00
 -1      1897 1.13400E+02 4.61030E+01 0.00000E+00
 -1      1898 1.14900E+02 4.61030E+01 0.00000E+00
 -1      1899 1.12650E+02 4.48040E+01 0.00000E+00
 -1      1900 1.16400E+02 4.61030E+01 0.00000E+00
 -1      1901 1.17900E+02 4.61030E+01 0.00000E+00
 -1      1902 1.15650E+02 4.48040E+01 0.00000E+00
 -1      1903 1.19400E+02 4.61030E+01 0.00000E+00
 -1      1904 1.20900E+02 4.61030E+01 0.00000E+00
 -1      1905 1.18650E+02 4.48040E+01 0.00000E+00
 -1      1906 1.22400E+02 4.61030E+01 0.00000E+00
 -1      1907 1.23900E+02 4.61030E+01 0.00000E+00
 -1      1908 1.21650E+02 4.48040E+01 0.00000E+00
 -1      1909 1.25400E+02 4.61030E+01 0.00000E+00
 -1      1910 1.26900E+02 4.61030E+01 0.00000E+00
 -1      1911 1.24650E+02 4.48040E+01 0.00000E+00
 -1      1912 1.28400E+02 4.61030E+01 0.00000E+00
 -1      1913 1.29900E+02 4.61030E+01 0.00000E+00
 -1      1914 1.27650E+02 4.48040E+01 0.00000E+00
 -1      1915 1.31400E+02 4.61030E+01 0.00000E+00
 -1      1916 1.32900E+02 4.61030E+01 0.00000E+00
 -1      1917 1.30650E+02 4.48040E+01 0.00000E+00
 -1      1918 1.34400E+02 4.61030E+01 0.00000E+00
 -1      1919 1.35900E+02 4.61030E+01 0.00000E+00
 -1      1920 1.33650E+02 4.48040E+01 0.00000E+00
 -1      1921 1.37400E+02 4.61030E+01 0.00000E+00
 -1      1922 1.38900E+02 4.61030E+01 0.00000E+00
 -1      1923 1.36650E+02 4.48040E+01 0.00000E+00
 -1      1924 1.40400E+02 4.61030E+01 0.00000E+00
 -1      1925 1.41900E+02 4.61030E+01 0.00000E+00
 -1      1926 1.39650E+02 4.48040E+01 0.00000E+00
 -1      1927 1.43400E+02 4.61030E+01 0.00000E+00
 -1      1928 1.44900E+02 4.61030E+01 0.00000E+00
 -1      1929 1.42650E+02 4.48040E+01 0.00000E+00
 -1      1930 1.47744E+02 2.82534E+01 0.00000E+00
 -1      1931 1.47744E+02 2.71534E+01 0.00000E+00
 -1      1932 1.17045E+01 3.09687E+00 0.00000E+00
 -1      1933 1.02045E+01 3.09687E+00 0.00000E+00
 -1      1934 1.00350E+01 4.00625E+00 0.00000E+00
 -1      1935 1.47045E+01 3.09687E+00 0.00000E+00
 -1      1936 1.32045E+01 3.09687E+00 0.00000E+00
 -1      1937 1.30350E+01 4.00625E+00 0.00000E+00
 -1      1938 1.77045E+01 3.09687E+00 0.00000E+00
 -1      1939 1.62045E+01 3.09687E+00 0.00000E+00
 -1      1940 1.60350E+01 4.00625E+00 0.00000E+00
 -1      1941 2.07045E+01 3.09687E+00 0.00000E+00
 -1      1942 1.92045E+01 3.09687E+00 0.00000E+00
 -1      1943 1.90350E+01 4.00625E+00 0.00000E+00
 -1      1944 2.37045E+01 3.09687E+00 0.00000E+00
 -1      1945 2.22045E+01 3.09687E+00 0.00000E+00
 -1      1946 2.20350E+01 4.00625E+00 0.00000E+00
 -1      1947 2.67045E+01 3.09687E+00 0.00000E+00
 -1      1948 2.52045E+01 3.09687E+00 0.00000E+00
 -1      1949 2.50350E+01 4.00625E+00 0.00000E+00
 -1      1950 2.97045E+01 3.09687E+00 0.00000E+00
 -1      1951 2.82045E+01 3.09687E+00 0.00000E+00
 -1      1952 2.80350E+01 4.00625E+00 0.00000E+00
 -1      1953 3.27045E+01 3.09687E+00 0.00000E+00
 -1      1954 3.12045E+01 3.09687E+00 0.00000E+00
 -1      1955 3.10350E+01 4.00625E+00 0.00000E+00
 -1      1956 3.57045E+01 3.09687E+00 0.00000E+00
 -1      1957 3.42045E+01 3.09687E+00 0.00000E+00
 -1      1958 3.40350E+01 4.00625E+00 0.00000E+00
 -1      1959 3.87045E+01 3.09687E+00 0.00000E+00
 -1      1960 3.72045E+01 3.09687E+00 0.00000E+00
 -1      1961 3.70350E+01 4.00625E+00 0.00000E+00
 -1      1962 4.17045E+01 3.09687E+00 0.00000E+00
 -1      1963 4.02045E+01 3.09687E+00 0.00000E+00
 -1      1964 4.00350E+01 4.00625E+00 0.00000E+00
 -1      1965 4.47045E+01 3.09687E+00 0.00000E+00
 -1      1966 4.32045E+01 3.09687E+00 0.00000E+00
 -1      1967 4.30350E+01 4.00625E+00 0.00000E+00
 -1      1968 4.77045E+01 3.09687E+00 0.00000E+00
 -1      1969 4.62045E+01 3.09687E+00 0.00000E+00
 -1      1970 4.60350E+01 4.00625E+00 0.00000E+00
 -1      1971 5.07045E+01 3.09687E+00 0.00000E+00
 -1      1972 4.92045E+01 3.09687E+00 0.00000E+00
 -1      1973 4.90350E+01 4.00625E+00 0.00000E+00
 -1      1974 5.37045E+01 3.09687E+00 0.00000E+00
 -1      1975 5.22045E+01 3.09687E+00 0.00000E+00
 -1      1976 5.20350E+01 4.00625E+00 0.00000E+00
 -1      1977 5.67045E+01 3.09687E+00 0.00000E+00
 -1      1978 5.52045E+01 3.09687E+00 0.00000E+00
 -1      1979 5.50350E+01 4.00625E+00 0.00000E+00
 -1      1980 5.97045E+01 3.09687E+00 0.00000E+00
 -1      1981 5.82045E+01 3.09687E+00 0.00000E+00
 -1      1982 5.80350E+01 4.00625E+00 0.00000E+00
 -1      1983 6.27045E+01 3.09687E+00 0.00000E+00
 -1      1984 6.12045E+01 3.09687E+00 0.00000E+00
 -1      1985 6.10350E+01 4.00625E+00 0.00000E+00
 -1      1986 6.57045E+01 3.09687E+00 0.00000E+00
 -1      1987 6.42045E+01 3.09687E+00 0.00000E+00
 -1      1988 6.40350E+01 4.00625E+00 0.00000E+00
 -1      1989 6.87045E+01 3.09687E+00 0.00000E+00
 -1      1990 6.72045E+01 3.09687E+00 0.00000E+00
 -1      1991 6.70350E+01 4.00625E+00 0.00000E+00
 -1      1992 7.17045E+01 3.09687E+00 0.00000E+00
 -1      1993 7.02045E+01 3.09687E+00 0.00000E+00
 -1      1994 7.00350E+01 4.00625E+00 0.00000E+00
 -1      1995 7.47045E+01 3.09687E+00 0.00000E+00
 -1      1996 7.32045E+01 3.09687E+00 0.00000E+00
 -1      1997 7.30350E+01 4.00625E+00 0.00000E+00
 -1      1998 7.77045E+01 3.09687E+00 0.00000E+00
 -1      1999 7.62045E+01 3.09687E+00 0.00000E+00
 -1      2000 7.60350E+01 4.00625E+00 0.00000E+00
 -1      2001 8.07045E+01 3.09687E+00 0.00000E+00
 -1      2002 7.92045E+01 3.09687E+00 0.00000E+00
 -1      2003 7.90350E+01 4.00625E+00 0.00000E+00
 -1      2004 8.37045E+01 3.09687E+00 0.00000E+00
 -1      2005 8.22045E+01 3.09687E+00 0.00000E+00
 -1      2006 8.20350E+01 4.00625E+00 0.00000E+00
 -1      2007 8.67045E+01 3.09687E+00 0.00000E+00
 -1      2008 8.52045E+01 3.09687E+00 0.00000E+00
 -1      2009 8.50350E+01 4.00625E+00 0.00000E+00
 -1      2010 8.97045E+01 3.09687E+00 0.00000E+00
 -1      2011 8.82045E+01 3.09687E+00 0.00000E+00
 -1      2012 8.80350E+01 4.00625E+00 0.00000E+00
 -1      2013 9.27045E+01 3.09687E+00 0.00000E+00
 -1      2014 9.12045E+01 3.09687E+00 0.00000E+00
 -1      2015 9.10350E+01 4.00625E+00 0.00000E+00
 -1      2016 9.57045E+01 3.09687E+00 0.00000E+00
 -1      2017 9.42045E+01 3.09687E+00 0.00000E+00
 -1      2018 9.40350E+01 4.00625E+00 0.00000E+00
 -1      2019 9.87045E+01 3.09687E+00 0.00000E+00
 -1      2020 9.72045E+01 3.09687E+00 0.00000E+00
 -1      2021 9.70350E+01 4.00625E+00 0.00000E+00
 -1      2022 1.01704E+02 3.09687E+00 0.00000E+00
 -1      2023 1.00204E+02 3.09687E+00 0.00000E+00
 -1      2024 1.00035E+02 4.00625E+00 0.00000E+00
 -1      2025 1.04704E+02 3.09687E+00 0.00000E+00
 -1      2026 1.03204E+02 3.09687E+00 0.00000E+00
 -1      2027 1.03035E+02 4.00625E+00 0.00000E+00
 -1      2028 1.07704E+02 3.09687E+00 0.00000E+00
 -1      2029 1.06204E+02 3.09687E+00 0.00000E+00
 -1      2030 1.06035E+02 4.00625E+00 0.00000E+00
 -1      2031 1.10704E+02 3.09687E+00 0.00000E+00
 -1      2032 1.09204E+02 3.09687E+00 0.00000E+00
 -1      2033 1.09035E+02 4.00625E+00 0.00000E+00
 -1      2034 1.13704E+02 3.09687E+00 0.00000E+00
 -1      2035 1.12204E+02 3.09687E+00 0.00000E+00
 -1      2036 1.12035E+02 4.00625E+00 0.00000E+00
 -1      2037 1.16704E+02 3.09687E+00 0.00000E+00
 -1      2038 1.15204E+02 3.09687E+00 0.00000E+00
 -1      2039 1.15035E+02 4.00625E+00 0.00000E+00
 -1      2040 1.19704E+02 3.09687E+00 0.00000E+00
 -1      2041 1.18204E+02 3.09687E+00 0.00000E+00
 -1      2042 1.18035E+02 4.00625E+00 0.00000E+00
 -1      2043 1.22704E+02 3.09687E+00 0.00000E+00
 -1      2044 1.21204E+02 3.09687E+00 0.00000E+00
 -1      2045 1.21035E+02 4.00625E+00 0.00000E+00
 -1      2046 1.25704E+02 3.09687E+00 0.00000E+00
 -1      2047 1.24204E+02 3.09687E+00 0.00000E+00
 -1      2048 1.24035E+02 4.00625E+00 0.00000E+00
 -1      2049 1.28704E+02 3.09687E+00 0.00000E+00
 -1      2050 1.27204E+02 3.09687E+00 0.00000E+00
 -1      2051 1.27035E+02 4.00625E+00 0.00000E+00
 -1      2052 1.31704E+02 3.09687E+00 0.00000E+00
 -1      2053 1.30204E+02 3.09687E+00 0.00000E+00
 -1      2054 1.30035E+02 4.00625E+00 0.00000E+00
 -1      2055 1.34704E+02 3.09687E+00 0.00000E+00
 -1      2056 1.33204E+02 3.09687E+00 0.00000E+00
 -1      2057 1.33035E+02 4.00625E+00 0.00000E+00
 -1      2058 1.37704E+02 3.09687E+00 0.00000E+00
 -1      2059 1.36204E+02 3.09687E+00 0.00000E+00
 -1      2060 1.36035E+02 4.00625E+00 0.00000E+00
 -1      2061 1.40704E+02 3.09687E+00 0.00000E+00
 -1      2062 1.39204E+02 3.09687E+00 0.00000E+00
 -1      2063 1.39035E+02 4.00625E+00 0.00000E+00
 -1      2064 1.43704E+02 3.09687E+00 0.00000E+00
 -1      2065 1.42204E+02 3.09687E+00 0.00000E+00
 -1      2066 1.42035E+02 4.00625E+00 0.00000E+00
 -1      2067 1.46171E+02 3.25781E+00 0.00000E+00
 -1      2068 1.44671E+02 3.25781E+00 0.00000E+00
 -1      2069 1.44502E+02 4.16719E+00 0.00000E+00
 -1      2070 1.46435E+02 4.48906E+00 0.00000E+00
 -1      2071 1.46103E+02 1.29750E+01 0.00000E+00
 -1      2072 1.46103E+02 1.15250E+01 0.00000E+00
 -1      2073 1.46103E+02 9.97500E+00 0.00000E+00
 -1      2074 1.46103E+02 8.42500E+00 0.00000E+00
 -1      2075 1.44804E+02 1.07000E+01 0.00000E+00
 -1      2076 1.47638E+02 2.44540E+01 0.00000E+00
 -1      2077 1.47786E+02 2.53316E+01 0.00000E+00
 -1      2078 1.46269E+02 7.21953E+00 0.00000E+00
 -1      2079 1.46269E+02 5.69453E+00 0.00000E+00
 -1      2080 1.45302E+02 5.53359E+00 0.00000E+00
 -1      2081 1.44970E+02 7.94453E+00 0.00000E+00
 -1      2082 1.46103E+02 1.55250E+01 0.00000E+00
 -1      2083 1.46103E+02 1.42500E+01 0.00000E+00
 -1      2084 1.44804E+02 1.35250E+01 0.00000E+00
 -1      2085 1.46103E+02 1.77750E+01 0.00000E+00
 -1      2086 1.46103E+02 1.66500E+01 0.00000E+00
 -1      2087 1.44804E+02 1.59250E+01 0.00000E+00
 -1      2088 1.47786E+02 2.62816E+01 0.00000E+00
 -1      2089 1.47638E+02 2.34790E+01 0.00000E+00
 -1      2090 1.47619E+02 3.01758E+01 0.00000E+00
 -1      2091 1.47619E+02 2.91758E+01 0.00000E+00
 -1      2092 1.47553E+02 3.30500E+01 0.00000E+00
 -1      2093 1.47553E+02 3.17500E+01 0.00000E+00
 -1      2094 1.47070E+02 3.90750E+01 0.00000E+00
 -1      2095 1.47070E+02 3.75250E+01 0.00000E+00
 -1      2096 1.47070E+02 4.21250E+01 0.00000E+00
 -1      2097 1.47070E+02 4.06000E+01 0.00000E+00
 -1      2098 1.45771E+02 3.98250E+01 0.00000E+00
 -1      2099 1.46358E+02 2.08744E+01 0.00000E+00
 -1      2100 3.89700E+00 3.74688E+01 0.00000E+00
 -1      2101 3.89700E+00 3.89437E+01 0.00000E+00
 -1      2102 5.19600E+00 3.96813E+01 0.00000E+00
 -1      2103 5.19600E+00 3.67438E+01 0.00000E+00
 -1      2104 1.42767E+02 1.83983E+01 0.00000E+00
 -1      2105 1.43567E+02 1.87728E+01 0.00000E+00
 -1      2106 1.40960E+02 1.78068E+01 0.00000E+00
 -1      2107 1.41814E+02 1.80450E+01 0.00000E+00
 -1      2108 1.39043E+02 1.76553E+01 0.00000E+00
 -1      2109 1.39935E+02 1.77429E+01 0.00000E+00
 -1      2110 1.37070E+02 1.76814E+01 0.00000E+00
 -1      2111 1.38004E+02 1.76063E+01 0.00000E+00
 -1      2112 1.35172E+02 1.84871E+01 0.00000E+00
 -1      2113 1.35967E+02 1.80773E+01 0.00000E+00
 -1      2114 1.33538E+02 1.92754E+01 0.00000E+00
 -1      2115 1.34352E+02 1.88607E+01 0.00000E+00
 -1      2116 1.31998E+02 2.07980E+01 0.00000E+00
 -1      2117 1.32542E+02 2.00320E+01 0.00000E+00
 -1      2118 1.31087E+02 2.24341E+01 0.00000E+00
 -1      2119 1.31536E+02 2.16658E+01 0.00000E+00
 -1      2120 1.30289E+02 2.41483E+01 0.00000E+00
 -1      2121 1.30646E+02 2.33129E+01 0.00000E+00
 -1      2122 1.30027E+02 2.61904E+01 0.00000E+00
 -1      2123 1.29990E+02 2.53094E+01 0.00000E+00
 -1      2124 1.30134E+02 2.78852E+01 0.00000E+00
 -1      2125 1.30080E+02 2.70378E+01 0.00000E+00
 -1      2126 1.29289E+02 2.66292E+01 0.00000E+00
 -1      2127 1.30602E+02 2.97777E+01 0.00000E+00
 -1      2128 1.30328E+02 2.89510E+01 0.00000E+00
 -1      2129 1.31519E+02 3.14382E+01 0.00000E+00
 -1      2130 1.31056E+02 3.07251E+01 0.00000E+00
 -1      2131 1.32616E+02 3.26566E+01 0.00000E+00
 -1      2132 1.32068E+02 3.20474E+01 0.00000E+00
 -1      2133 1.31187E+02 3.21122E+01 0.00000E+00
 -1      2134 1.34133E+02 3.39063E+01 0.00000E+00
 -1      2135 1.33438E+02 3.34022E+01 0.00000E+00
 -1      2136 1.35818E+02 3.47713E+01 0.00000E+00
 -1      2137 1.35009E+02 3.44104E+01 0.00000E+00
 -1      2138 1.37593E+02 3.53304E+01 0.00000E+00
 -1      2139 1.36741E+02 3.50713E+01 0.00000E+00
 -1      2140 1.39635E+02 3.54639E+01 0.00000E+00
 -1      2141 1.38739E+02 3.55607E+01 0.00000E+00
 -1      2142 1.41453E+02 3.51062E+01 0.00000E+00
 -1      2143 1.40544E+02 3.52850E+01 0.00000E+00
 -1      2144 1.40179E+02 3.61027E+01 0.00000E+00
 -1      2145 1.43430E+02 3.43493E+01 0.00000E+00
 -1      2146 1.42585E+02 3.47704E+01 0.00000E+00
 -1      2147 1.44947E+02 3.30227E+01 0.00000E+00
 -1      2148 1.44275E+02 3.36264E+01 0.00000E+00
 -1      2149 1.46332E+02 3.16316E+01 0.00000E+00
 -1      2150 1.45793E+02 3.23195E+01 0.00000E+00
 -1      2151 1.47148E+02 3.09816E+01 0.00000E+00
 -1      2152 1.44436E+02 1.94313E+01 0.00000E+00
 -1      2153 1.45115E+02 2.00105E+01 0.00000E+00
 -1      2154 1.45679E+02 2.00920E+01 0.00000E+00
 -1      2155 1.47057E+02 2.01094E+01 0.00000E+00
 -1      2156 1.32635E+02 1.92100E+01 0.00000E+00
 -1      2157 1.32729E+02 1.83879E+01 0.00000E+00
 -1      2158 1.31732E+02 1.91445E+01 0.00000E+00
 -1      2159 6.42300E+00 4.57510E+01 0.00000E+00
 -1      2160 7.17300E+00 4.44520E+01 0.00000E+00
 -1      2161 1.45580E+02 4.49775E+01 0.00000E+00
 -1      2162 1.44382E+02 1.85054E+01 0.00000E+00
 -1      2163 1.38517E+02 1.69634E+01 0.00000E+00
 -1      2164 1.34452E+02 1.80797E+01 0.00000E+00
 -1      2165 1.45814E+02 1.92455E+01 0.00000E+00
 -1      2166 1.46390E+02 4.32505E+01 0.00000E+00
 -1      2167 1.30274E+02 2.25808E+01 0.00000E+00
 -1      2168 1.42560E+02 1.74936E+01 0.00000E+00
 -1      2169 1.47489E+02 3.40972E+01 0.00000E+00
 -1      2170 1.46673E+02 3.34472E+01 0.00000E+00
 -1      2171 1.45729E+02 3.33667E+01 0.00000E+00
 -1      2172 1.47489E+02 3.56222E+01 0.00000E+00
 -1      2173 1.29534E+02 2.46207E+01 0.00000E+00
 -1      2174 1.31177E+02 2.08343E+01 0.00000E+00
 -1      2175 1.36375E+02 1.73102E+01 0.00000E+00
 -1      2176 1.46890E+02 1.89135E+01 0.00000E+00
 -1      2177 1.42220E+02 3.55881E+01 0.00000E+00
 -1      2178 1.38124E+02 3.60512E+01 0.00000E+00
 -1      2179 1.36055E+02 3.55209E+01 0.00000E+00
 -1      2180 1.32558E+02 3.34670E+01 0.00000E+00
 -1      2181 1.29537E+02 2.85424E+01 0.00000E+00
 -1      2182 1.40581E+02 1.70763E+01 0.00000E+00
 -1      2183 1.30185E+02 3.05556E+01 0.00000E+00
 -1      2184 1.34256E+02 3.47168E+01 0.00000E+00
 -1      2185 1.44199E+02 3.45294E+01 0.00000E+00
 -1      2186 6.49500E+00 3.01125E+01 0.00000E+00
 -1      2187 6.49500E+00 3.15875E+01 0.00000E+00
 -1      2188 6.49500E+00 3.30625E+01 0.00000E+00
 -1      2189 6.49500E+00 3.45375E+01 0.00000E+00
 -1      2190 7.79400E+00 3.23250E+01 0.00000E+00
 -1      2191 6.49500E+00 2.42125E+01 0.00000E+00
 -1      2192 6.49500E+00 2.56875E+01 0.00000E+00
 -1      2193 6.49500E+00 2.12625E+01 0.00000E+00
 -1      2194 6.49500E+00 2.27375E+01 0.00000E+00
 -1      2195 7.79400E+00 2.34750E+01 0.00000E+00
 -1      2196 6.49500E+00 1.83625E+01 0.00000E+00
 -1      2197 6.49500E+00 1.98125E+01 0.00000E+00
 -1      2198 7.79400E+00 2.05500E+01 0.00000E+00
 -1      2199 6.49500E+00 1.54125E+01 0.00000E+00
 -1      2200 6.49500E+00 1.68875E+01 0.00000E+00
 -1      2201 7.79400E+00 1.76250E+01 0.00000E+00
 -1      2202 6.49500E+00 1.24625E+01 0.00000E+00
 -1      2203 6.49500E+00 1.39375E+01 0.00000E+00
 -1      2204 7.79400E+00 1.46750E+01 0.00000E+00
 -1      2205 6.49500E+00 9.51250E+00 0.00000E+00
 -1      2206 6.49500E+00 1.09875E+01 0.00000E+00
 -1      2207 7.79400E+00 1.17250E+01 0.00000E+00
 -1      2208 6.49500E+00 6.56250E+00 0.00000E+00
 -1      2209 6.49500E+00 8.03750E+00 0.00000E+00
 -1      2210 7.79400E+00 8.77500E+00 0.00000E+00
 -1      2211 6.84975E+00 4.82969E+00 0.00000E+00
 -1      2212 6.68025E+00 5.73906E+00 0.00000E+00
 -1      2213 7.97925E+00 6.47656E+00 0.00000E+00
 -1      2214 8.34975E+00 4.82969E+00 0.00000E+00
 -1      2215 9.90000E+00 4.35050E+01 0.00000E+00
 -1      2216 1.14000E+01 4.35050E+01 0.00000E+00
 -1      2217 1.67850E+01 5.30525E+00 0.00000E+00
 -1      2218 1.52850E+01 5.30525E+00 0.00000E+00
 -1      2219 1.37850E+01 5.30525E+00 0.00000E+00
 -1      2220 1.22850E+01 5.30525E+00 0.00000E+00
 -1      2221 1.45350E+01 6.60425E+00 0.00000E+00
 -1      2222 6.55950E+00 4.28890E+01 0.00000E+00
 -1      2223 8.53650E+00 4.32410E+01 0.00000E+00
 -1      2224 9.28650E+00 4.19420E+01 0.00000E+00
 -1      2225 6.55950E+00 4.14140E+01 0.00000E+00
 -1      2226 1.29000E+01 4.35050E+01 0.00000E+00
 -1      2227 1.44000E+01 4.35050E+01 0.00000E+00
 -1      2228 1.21500E+01 4.22060E+01 0.00000E+00
 -1      2229 1.59000E+01 4.35050E+01 0.00000E+00
 -1      2230 1.74000E+01 4.35050E+01 0.00000E+00
 -1      2231 1.51500E+01 4.22060E+01 0.00000E+00
 -1      2232 1.89000E+01 4.35050E+01 0.00000E+00
 -1      2233 2.04000E+01 4.35050E+01 0.00000E+00
 -1      2234 1.81500E+01 4.22060E+01 0.00000E+00
 -1      2235 2.19000E+01 4.35050E+01 0.00000E+00
 -1      2236 2.34000E+01 4.35050E+01 0.00000E+00
 -1      2237 2.11500E+01 4.22060E+01 0.00000E+00
 -1      2238 2.49000E+01 4.35050E+01 0.00000E+00
 -1      2239 2.64000E+01 4.35050E+01 0.00000E+00
 -1      2240 2.41500E+01 4.22060E+01 0.00000E+00
 -1      2241 2.79000E+01 4.35050E+01 0.00000E+00
 -1      2242 2.94000E+01 4.35050E+01 0.00000E+00
 -1      2243 2.71500E+01 4.22060E+01 0.00000E+00
 -1      2244 3.09000E+01 4.35050E+01 0.00000E+00
 -1      2245 3.24000E+01 4.35050E+01 0.00000E+00
 -1      2246 3.01500E+01 4.22060E+01 0.00000E+00
 -1      2247 3.39000E+01 4.35050E+01 0.00000E+00
 -1      2248 3.54000E+01 4.35050E+01 0.00000E+00
 -1      2249 3.31500E+01 4.22060E+01 0.00000E+00
 -1      2250 3.69000E+01 4.35050E+01 0.00000E+00
 -1      2251 3.84000E+01 4.35050E+01 0.00000E+00
 -1      2252 3.61500E+01 4.22060E+01 0.00000E+00
 -1      2253 3.99000E+01 4.35050E+01 0.00000E+00
 -1      2254 4.14000E+01 4.35050E+01 0.00000E+00
 -1      2255 3.91500E+01 4.22060E+01 0.00000E+00
 -1      2256 4.29000E+01 4.35050E+01 0.00000E+00
 -1      2257 4.44000E+01 4.35050E+01 0.00000E+00
 -1      2258 4.21500E+01 4.22060E+01 0.00000E+00
 -1      2259 4.59000E+01 4.35050E+01 0.00000E+00
 -1      2260 4.74000E+01 4.35050E+01 0.00000E+00
 -1      2261 4.51500E+01 4.22060E+01 0.00000E+00
 -1      2262 4.89000E+01 4.35050E+01 0.00000E+00
 -1      2263 5.04000E+01 4.35050E+01 0.00000E+00
 -1      2264 4.81500E+01 4.22060E+01 0.00000E+00
 -1      2265 5.19000E+01 4.35050E+01 0.00000E+00
 -1      2266 5.34000E+01 4.35050E+01 0.00000E+00
 -1      2267 5.11500E+01 4.22060E+01 0.00000E+00
 -1      2268 5.49000E+01 4.35050E+01 0.00000E+00
 -1      2269 5.64000E+01 4.35050E+01 0.00000E+00
 -1      2270 5.41500E+01 4.22060E+01 0.00000E+00
 -1      2271 5.79000E+01 4.35050E+01 0.00000E+00
 -1      2272 5.94000E+01 4.35050E+01 0.00000E+00
 -1      2273 5.71500E+01 4.22060E+01 0.00000E+00
 -1      2274 6.09000E+01 4.35050E+01 0.00000E+00
 -1      2275 6.24000E+01 4.35050E+01 0.00000E+00
 -1      2276 6.01500E+01 4.22060E+01 0.00000E+00
 -1      2277 6.39000E+01 4.35050E+01 0.00000E+00
 -1      2278 6.54000E+01 4.35050E+01 0.00000E+00
 -1      2279 6.31500E+01 4.22060E+01 0.00000E+00
 -1      2280 6.69000E+01 4.35050E+01 0.00000E+00
 -1      2281 6.84000E+01 4.35050E+01 0.00000E+00
 -1      2282 6.61500E+01 4.22060E+01 0.00000E+00
 -1      2283 6.99000E+01 4.35050E+01 0.00000E+00
 -1      2284 7.14000E+01 4.35050E+01 0.00000E+00
 -1      2285 6.91500E+01 4.22060E+01 0.00000E+00
 -1      2286 7.29000E+01 4.35050E+01 0.00000E+00
 -1      2287 7.44000E+01 4.35050E+01 0.00000E+00
 -1      2288 7.21500E+01 4.22060E+01 0.00000E+00
 -1      2289 7.59000E+01 4.35050E+01 0.00000E+00
 -1      2290 7.74000E+01 4.35050E+01 0.00000E+00
 -1      2291 7.51500E+01 4.22060E+01 0.00000E+00
 -1      2292 7.89000E+01 4.35050E+01 0.00000E+00
 -1      2293 8.04000E+01 4.35050E+01 0.00000E+00
 -1      2294 7.81500E+01 4.22060E+01 0.00000E+00
 -1      2295 8.19000E+01 4.35050E+01 0.00000E+00
 -1      2296 8.34000E+01 4.35050E+01 0.00000E+00
 -1      2297 8.11500E+01 4.22060E+01 0.00000E+00
 -1      2298 8.49000E+01 4.35050E+01 0.00000E+00
 -1      2299 8.64000E+01 4.35050E+01 0.00000E+00
 -1      2300 8.41500E+01 4.22060E+01 0.00000E+00
 -1      2301 8.79000E+01 4.35050E+01 0.00000E+00
 -1      2302 8.94000E+01 4.35050E+01 0.00000E+00
 -1      2303 8.71500E+01 4.22060E+01 0.00000E+00
 -1      2304 9.09000E+01 4.35050E+01 0.00000E+00
 -1      2305 9.24000E+01 4.35050E+01 0.00000E+00
 -1      2306 9.01500E+01 4.22060E+01 0.00000E+00
 -1      2307 9.39000E+01 4.35050E+01 0.00000E+00
 -1      2308 9.54000E+01 4.35050E+01 0.00000E+00
 -1      2309 9.31500E+01 4.22060E+01 0.00000E+00
 -1      2310 9.69000E+01 4.35050E+01 0.00000E+00
 -1      2311 9.84000E+01 4.35050E+01 0.00000E+00
 -1      2312 9.61500E+01 4.22060E+01 0.00000E+00
 -1      2313 9.99000E+01 4.35050E+01 0.00000E+00
 -1      2314 1.01400E+02 4.35050E+01 0.00000E+00
 -1      2315 9.91500E+01 4.22060E+01 0.00000E+00
 -1      2316 1.02900E+02 4.35050E+01 0.00000E+00
 -1      2317 1.04400E+02 4.35050E+01 0.00000E+00
 -1      2318 1.02150E+02 4.22060E+01 0.00000E+00
 -1      2319 1.05900E+02 4.35050E+01 0.00000E+00
 -1      2320 1.07400E+02 4.35050E+01 0.00000E+00
 -1      2321 1.05150E+02 4.22060E+01 0.00000E+00
 -1      2322 1.08900E+02 4.35050E+01 0.00000E+00
 -1      2323 1.10400E+02 4.35050E+01 0.00000E+00
 -1      2324 1.08150E+02 4.22060E+01 0.00000E+00
 -1      2325 1.11900E+02 4.35050E+01 0.00000E+00
 -1      2326 1.13400E+02 4.35050E+01 0.00000E+00
 -1      2327 1.11150E+02 4.22060E+01 0.00000E+00
 -1      2328 1.14900E+02 4.35050E+01 0.00000E+00
 -1      2329 1.16400E+02 4.35050E+01 0.00000E+00
 -1      2330 1.14150E+02 4.22060E+01 0.00000E+00
 -1      2331 1.17900E+02 4.35050E+01 0.00000E+00
 -1      2332 1.19400E+02 4.35050E+01 0.00000E+00
 -1      2333 1.17150E+02 4.22060E+01 0.00000E+00
 -1      2334 1.20900E+02 4.35050E+01 0.00000E+00
 -1      2335 1.22400E+02 4.35050E+01 0.00000E+00
 -1      2336 1.20150E+02 4.22060E+01 0.00000E+00
 -1      2337 1.23900E+02 4.35050E+01 0.00000E+00
 -1      2338 1.25400E+02 4.35050E+01 0.00000E+00
 -1      2339 1.23150E+02 4.22060E+01 0.00000E+00
 -1      2340 1.26900E+02 4.35050E+01 0.00000E+00
 -1      2341 1.28400E+02 4.35050E+01 0.00000E+00
 -1      2342 1.26150E+02 4.22060E+01 0.00000E+00
 -1      2343 1.29900E+02 4.35050E+01 0.00000E+00
 -1      2344 1.31400E+02 4.35050E+01 0.00000E+00
 -1      2345 1.29150E+02 4.22060E+01 0.00000E+00
 -1      2346 1.32900E+02 4.35050E+01 0.00000E+00
 -1      2347 1.34400E+02 4.35050E+01 0.00000E+00
 -1      2348 1.32150E+02 4.22060E+01 0.00000E+00
 -1      2349 1.35900E+02 4.35050E+01 0.00000E+00
 -1      2350 1.37400E+02 4.35050E+01 0.00000E+00
 -1      2351 1.35150E+02 4.22060E+01 0.00000E+00
 -1      2352 1.38900E+02 4.35050E+01 0.00000E+00
 -1      2353 1.40400E+02 4.35050E+01 0.00000E+00
 -1      2354 1.38150E+02 4.22060E+01 0.00000E+00
 -1      2355 1.41900E+02 4.35050E+01 0.00000E+00
 -1      2356 1.43400E+02 4.35050E+01 0.00000E+00
 -1      2357 1.41150E+02 4.22060E+01 0.00000E+00
 -1      2358 1.10674E+01 5.06747E+00 0.00000E+00
 -1      2359 9.56738E+00 5.06747E+00 0.00000E+00
 -1      2360 9.38212E+00 5.89091E+00 0.00000E+00
 -1      2361 1.18174E+01 6.36647E+00 0.00000E+00
 -1      2362 1.97850E+01 5.30525E+00 0.00000E+00
 -1      2363 1.82850E+01 5.30525E+00 0.00000E+00
 -1      2364 1.75350E+01 6.60425E+00 0.00000E+00
 -1      2365 2.27850E+01 5.30525E+00 0.00000E+00
 -1      2366 2.12850E+01 5.30525E+00 0.00000E+00
 -1      2367 2.05350E+01 6.60425E+00 0.00000E+00
 -1      2368 2.57850E+01 5.30525E+00 0.00000E+00
 -1      2369 2.42850E+01 5.30525E+00 0.00000E+00
 -1      2370 2.35350E+01 6.60425E+00 0.00000E+00
 -1      2371 2.87850E+01 5.30525E+00 0.00000E+00
 -1      2372 2.72850E+01 5.30525E+00 0.00000E+00
 -1      2373 2.65350E+01 6.60425E+00 0.00000E+00
 -1      2374 3.17850E+01 5.30525E+00 0.00000E+00
 -1      2375 3.02850E+01 5.30525E+00 0.00000E+00
 -1      2376 2.95350E+01 6.60425E+00 0.00000E+00
 -1      2377 3.47850E+01 5.30525E+00 0.00000E+00
 -1      2378 3.32850E+01 5.30525E+00 0.00000E+00
 -1      2379 3.25350E+01 6.60425E+00 0.00000E+00
 -1      2380 3.77850E+01 5.30525E+00 0.00000E+00
 -1      2381 3.62850E+01 5.30525E+00 0.00000E+00
 -1      2382 3.55350E+01 6.60425E+00 0.00000E+00
 -1      2383 4.07850E+01 5.30525E+00 0.00000E+00
 -1      2384 3.92850E+01 5.30525E+00 0.00000E+00
 -1      2385 3.85350E+01 6.60425E+00 0.00000E+00
 -1      2386 4.37850E+01 5.30525E+00 0.00000E+00
 -1      2387 4.22850E+01 5.30525E+00 0.00000E+00
 -1      2388 4.15350E+01 6.60425E+00 0.00000E+00
 -1      2389 4.67850E+01 5.30525E+00 0.00000E+00
 -1      2390 4.52850E+01 5.30525E+00 0.00000E+00
 -1      2391 4.45350E+01 6.60425E+00 0.00000E+00
 -1      2392 4.97850E+01 5.30525E+00 0.00000E+00
 -1      2393 4.82850E+01 5.30525E+00 0.00000E+00
 -1      2394 4.75350E+01 6.60425E+00 0.00000E+00
 -1      2395 5.27850E+01 5.30525E+00 0.00000E+00
 -1      2396 5.12850E+01 5.30525E+00 0.00000E+00
 -1      2397 5.05350E+01 6.60425E+00 0.00000E+00
 -1      2398 5.57850E+01 5.30525E+00 0.00000E+00
 -1      2399 5.42850E+01 5.30525E+00 0.00000E+00
 -1      2400 5.35350E+01 6.60425E+00 0.00000E+00
 -1      2401 5.87850E+01 5.30525E+00 0.00000E+00
 -1      2402 5.72850E+01 5.30525E+00 0.00000E+00
 -1      2403 5.65350E+01 6.60425E+00 0.00000E+00
 -1      2404 6.17850E+01 5.30525E+00 0.00000E+00
 -1      2405 6.02850E+01 5.30525E+00 0.00000E+00
 -1      2406 5.95350E+01 6.60425E+00 0.00000E+00
 -1      2407 6.47850E+01 5.30525E+00 0.00000E+00
 -1      2408 6.32850E+01 5.30525E+00 0.00000E+00
 -1      2409 6.25350E+01 6.60425E+00 0.00000E+00
 -1      2410 6.77850E+01 5.30525E+00 0.00000E+00
 -1      2411 6.62850E+01 5.30525E+00 0.00000E+00
 -1      2412 6.55350E+01 6.60425E+00 0.00000E+00
 -1      2413 7.07850E+01 5.30525E+00 0.00000E+00
 -1      2414 6.92850E+01 5.30525E+00 0.00000E+00
 -1      2415 6.85350E+01 6.60425E+00 0.00000E+00
 -1      2416 7.37850E+01 5.30525E+00 0.00000E+00
 -1      2417 7.22850E+01 5.30525E+00 0.00000E+00
 -1      2418 7.15350E+01 6.60425E+00 0.00000E+00
 -1      2419 7.67850E+01 5.30525E+00 0.00000E+00
 -1      2420 7.52850E+01 5.30525E+00 0.00000E+00
 -1      2421 7.45350E+01 6.60425E+00 0.00000E+00
 -1      2422 7.97850E+01 5.30525E+00 0.00000E+00
 -1      2423 7.82850E+01 5.30525E+00 0.00000E+00
 -1      2424 7.75350E+01 6.60425E+00 0.00000E+00
 -1      2425 8.27850E+01 5.30525E+00 0.00000E+00
 -1      2426 8.12850E+01 5.30525E+00 0.00000E+00
 -1      2427 8.05350E+01 6.60425E+00 0.00000E+00
 -1      2428 8.57850E+01 5.30525E+00 0.00000E+00
 -1      2429 8.42850E+01 5.30525E+00 0.00000E+00
 -1      2430 8.35350E+01 6.60425E+00 0.00000E+00
 -1      2431 8.87850E+01 5.30525E+00 0.00000E+00
 -1      2432 8.72850E+01 5.30525E+00 0.00000E+00
 -1      2433 8.65350E+01 6.60425E+00 0.00000E+00
 -1      2434 9.17850E+01 5.30525E+00 0.00000E+00
 -1      2435 9.02850E+01 5.30525E+00 0.00000E+00
 -1      2436 8.95350E+01 6.60425E+00 0.00000E+00
 -1      2437 9.47850E+01 5.30525E+00 0.00000E+00
 -1      2438 9.32850E+01 5.30525E+00 0.00000E+00
 -1      2439 9.25350E+01 6.60425E+00 0.00000E+00
 -1      2440 9.77850E+01 5.30525E+00 0.00000E+00
 -1      2441 9.62850E+01 5.30525E+00 0.00000E+00
 -1      2442 9.55350E+01 6.60425E+00 0.00000E+00
 -1      2443 1.00785E+02 5.30525E+00 0.00000E+00
 -1      2444 9.92850E+01 5.30525E+00 0.00000E+00
 -1      2445 9.85350E+01 6.60425E+00 0.00000E+00
 -1      2446 1.03785E+02 5.30525E+00 0.00000E+00
 -1      2447 1.02285E+02 5.30525E+00 0.00000E+00
 -1      2448 1.01535E+02 6.60425E+00 0.00000E+00
 -1      2449 1.06785E+02 5.30525E+00 0.00000E+00
 -1      2450 1.05285E+02 5.30525E+00 0.00000E+00
 -1      2451 1.04535E+02 6.60425E+00 0.00000E+00
 -1      2452 1.09785E+02 5.30525E+00 0.00000E+00
 -1      2453 1.08285E+02 5.30525E+00 0.00000E+00
 -1      2454 1.07535E+02 6.60425E+00 0.00000E+00
 -1      2455 1.12785E+02 5.30525E+00 0.00000E+00
 -1      2456 1.11285E+02 5.30525E+00 0.00000E+00
 -1      2457 1.10535E+02 6.60425E+00 0.00000E+00
 -1      2458 1.15785E+02 5.30525E+00 0.00000E+00
 -1      2459 1.14285E+02 5.30525E+00 0.00000E+00
 -1      2460 1.13535E+02 6.60425E+00 0.00000E+00
 -1      2461 1.18785E+02 5.30525E+00 0.00000E+00
 -1      2462 1.17285E+02 5.30525E+00 0.00000E+00
 -1      2463 1.16535E+02 6.60425E+00 0.00000E+00
 -1      2464 1.21785E+02 5.30525E+00 0.00000E+00
 -1      2465 1.20285E+02 5.30525E+00 0.00000E+00
 -1      2466 1.19535E+02 6.60425E+00 0.00000E+00
 -1      2467 1.24785E+02 5.30525E+00 0.00000E+00
 -1      2468 1.23285E+02 5.30525E+00 0.00000E+00
 -1      2469 1.22535E+02 6.60425E+00 0.00000E+00
 -1      2470 1.27785E+02 5.30525E+00 0.00000E+00
 -1      2471 1.26285E+02 5.30525E+00 0.00000E+00
 -1      2472 1.25535E+02 6.60425E+00 0.00000E+00
 -1      2473 1.30785E+02 5.30525E+00 0.00000E+00
 -1      2474 1.29285E+02 5.30525E+00 0.00000E+00
 -1      2475 1.28535E+02 6.60425E+00 0.00000E+00
 -1      2476 1.33785E+02 5.30525E+00 0.00000E+00
 -1      2477 1.32285E+02 5.30525E+00 0.00000E+00
 -1      2478 1.31535E+02 6.60425E+00 0.00000E+00
 -1      2479 1.36785E+02 5.30525E+00 0.00000E+00
 -1      2480 1.35285E+02 5.30525E+00 0.00000E+00
 -1      2481 1.34535E+02 6.60425E+00 0.00000E+00
 -1      2482 1.39785E+02 5.30525E+00 0.00000E+00
 -1      2483 1.38285E+02 5.30525E+00 0.00000E+00
 -1      2484 1.37535E+02 6.60425E+00 0.00000E+00
 -1      2485 1.42785E+02 5.30525E+00 0.00000E+00
 -1      2486 1.41285E+02 5.30525E+00 0.00000E+00
 -1      2487 1.40535E+02 6.60425E+00 0.00000E+00
 -1      2488 1.44336E+02 5.37266E+00 0.00000E+00
 -1      2489 1.43611E+02 1.14750E+01 0.00000E+00
 -1      2490 1.43611E+02 9.92500E+00 0.00000E+00
 -1      2491 1.43611E+02 1.40250E+01 0.00000E+00
 -1      2492 1.43611E+02 1.27500E+01 0.00000E+00
 -1      2493 1.42419E+02 1.19750E+01 0.00000E+00
 -1      2494 1.45591E+02 1.81885E+01 0.00000E+00
 -1      2495 1.38034E+02 1.61660E+01 0.00000E+00
 -1      2496 1.39073E+02 1.62150E+01 0.00000E+00
 -1      2497 1.47120E+02 3.68167E+01 0.00000E+00
 -1      2498 1.46241E+02 3.56889E+01 0.00000E+00
 -1      2499 1.44960E+02 4.30770E+01 0.00000E+00
 -1      2500 1.45822E+02 3.75917E+01 0.00000E+00
 -1      2501 1.28554E+02 2.49876E+01 0.00000E+00
 -1      2502 1.28853E+02 2.38264E+01 0.00000E+00
 -1      2503 1.44494E+02 4.05875E+01 0.00000E+00
 -1      2504 1.44494E+02 3.90625E+01 0.00000E+00
 -1      2505 1.29362E+02 2.26730E+01 0.00000E+00
 -1      2506 1.29803E+02 2.17942E+01 0.00000E+00
 -1      2507 1.43006E+02 3.61620E+01 0.00000E+00
 -1      2508 1.41874E+02 3.64979E+01 0.00000E+00
 -1      2509 1.38545E+02 3.69250E+01 0.00000E+00
 -1      2510 1.37399E+02 3.66947E+01 0.00000E+00
 -1      2511 1.28708E+02 2.92440E+01 0.00000E+00
 -1      2512 1.28513E+02 2.81783E+01 0.00000E+00
 -1      2513 1.40117E+02 1.62721E+01 0.00000E+00
 -1      2514 1.41142E+02 1.63360E+01 0.00000E+00
 -1      2515 6.49500E+00 2.71625E+01 0.00000E+00
 -1      2516 6.49500E+00 2.86375E+01 0.00000E+00
 -1      2517 7.79400E+00 2.93750E+01 0.00000E+00
 -1      2518 7.79400E+00 2.64250E+01 0.00000E+00
 -1      2519 1.29487E+02 3.14723E+01 0.00000E+00
 -1      2520 1.29033E+02 3.05249E+01 0.00000E+00
 -1      2521 1.33652E+02 1.74099E+01 0.00000E+00
 -1      2522 1.34472E+02 1.70362E+01 0.00000E+00
 -1      2523 1.35575E+02 1.66404E+01 0.00000E+00
 -1      2524 1.36678E+02 1.62445E+01 0.00000E+00
 -1      2525 1.34775E+02 1.59705E+01 0.00000E+00
 -1      2526 1.42338E+02 1.66307E+01 0.00000E+00
 -1      2527 1.43291E+02 1.69840E+01 0.00000E+00
 -1      2528 1.30265E+02 2.09264E+01 0.00000E+00
 -1      2529 1.30727E+02 2.00587E+01 0.00000E+00
 -1      2530 1.29353E+02 2.10186E+01 0.00000E+00
 -1      2531 1.28460E+02 2.73308E+01 0.00000E+00
 -1      2532 1.28406E+02 2.64834E+01 0.00000E+00
 -1      2533 1.27631E+02 2.80324E+01 0.00000E+00
 -1      2534 1.34329E+02 3.56032E+01 0.00000E+00
 -1      2535 1.33453E+02 3.50991E+01 0.00000E+00
 -1      2536 1.30824E+02 3.29905E+01 0.00000E+00
 -1      2537 1.30276E+02 3.23813E+01 0.00000E+00
 -1      2538 1.32469E+02 3.44818E+01 0.00000E+00
 -1      2539 1.31646E+02 3.37361E+01 0.00000E+00
 -1      2540 1.30735E+02 3.40053E+01 0.00000E+00
 -1      2541 1.36291E+02 3.63670E+01 0.00000E+00
 -1      2542 1.35367E+02 3.60670E+01 0.00000E+00
 -1      2543 1.40831E+02 3.70192E+01 0.00000E+00
 -1      2544 1.39922E+02 3.71980E+01 0.00000E+00
 -1      2545 1.32749E+02 1.73444E+01 0.00000E+00
 -1      2546 7.79400E+00 3.52687E+01 0.00000E+00
 -1      2547 6.49500E+00 3.60062E+01 0.00000E+00
 -1      2548 6.49500E+00 3.74750E+01 0.00000E+00
 -1      2549 6.52725E+00 3.87101E+01 0.00000E+00
 -1      2550 6.52725E+00 4.01789E+01 0.00000E+00
 -1      2551 7.89075E+00 4.04429E+01 0.00000E+00
 -1      2552 7.82625E+00 3.79726E+01 0.00000E+00
 -1      2553 1.44613E+02 3.60678E+01 0.00000E+00
 -1      2554 1.44266E+02 3.69776E+01 0.00000E+00
 -1      2555 1.28382E+02 2.30398E+01 0.00000E+00
 -1      2556 1.43586E+02 6.67166E+00 0.00000E+00
 -1      2557 1.43936E+02 1.65855E+01 0.00000E+00
 -1      2558 1.43936E+02 1.54605E+01 0.00000E+00
 -1      2559 1.37234E+02 1.54961E+01 0.00000E+00
 -1      2560 1.44210E+02 4.17780E+01 0.00000E+00
 -1      2561 1.42934E+02 4.10155E+01 0.00000E+00
 -1      2562 1.27725E+02 2.56891E+01 0.00000E+00
 -1      2563 1.41617E+02 3.75931E+01 0.00000E+00
 -1      2564 1.44159E+02 1.74484E+01 0.00000E+00
 -1      2565 1.45027E+02 1.81070E+01 0.00000E+00
 -1      2566 1.32542E+02 3.53682E+01 0.00000E+00
 -1      2567 1.34564E+02 3.64492E+01 0.00000E+00
 -1      2568 1.36711E+02 3.72407E+01 0.00000E+00
 -1      2569 1.45827E+02 3.41505E+01 0.00000E+00
 -1      2570 1.39634E+02 1.54747E+01 0.00000E+00
 -1      2571 1.28010E+02 3.01607E+01 0.00000E+00
 -1      2572 1.41873E+02 1.58264E+01 0.00000E+00
 -1      2573 1.39197E+02 3.78414E+01 0.00000E+00
 -1      2574 1.43419E+02 7.87712E+00 0.00000E+00
 -1      2575 1.29908E+02 1.93288E+01 0.00000E+00
 -1      2576 1.30820E+02 1.92367E+01 0.00000E+00
 -1      2577 1.30913E+02 1.84146E+01 0.00000E+00
 -1      2578 1.29124E+02 3.23506E+01 0.00000E+00
 -1      2579 1.45458E+02 3.53449E+01 0.00000E+00
 -1      2580 1.42744E+02 1.46855E+01 0.00000E+00
 -1      2581 1.42227E+02 8.65213E+00 0.00000E+00
 -1      2582 9.09300E+00 1.98250E+01 0.00000E+00
 -1      2583 9.09300E+00 2.12750E+01 0.00000E+00
 -1      2584 9.09300E+00 2.27500E+01 0.00000E+00
 -1      2585 9.09300E+00 2.42250E+01 0.00000E+00
 -1      2586 1.03920E+01 2.20250E+01 0.00000E+00
 -1      2587 9.09300E+00 1.39375E+01 0.00000E+00
 -1      2588 9.09300E+00 1.54125E+01 0.00000E+00
 -1      2589 9.09300E+00 1.09875E+01 0.00000E+00
 -1      2590 9.09300E+00 1.24625E+01 0.00000E+00
 -1      2591 1.03920E+01 1.32000E+01 0.00000E+00
 -1      2592 9.19687E+00 6.71434E+00 0.00000E+00
 -1      2593 1.14000E+01 4.09070E+01 0.00000E+00
 -1      2594 1.29000E+01 4.09070E+01 0.00000E+00
 -1      2595 2.42850E+01 7.90325E+00 0.00000E+00
 -1      2596 2.27850E+01 7.90325E+00 0.00000E+00
 -1      2597 2.12850E+01 7.90325E+00 0.00000E+00
 -1      2598 1.97850E+01 7.90325E+00 0.00000E+00
 -1      2599 2.20350E+01 9.20225E+00 0.00000E+00
 -1      2600 8.96362E+00 4.05429E+01 0.00000E+00
 -1      2601 1.03271E+01 4.08069E+01 0.00000E+00
 -1      2602 1.10771E+01 3.95079E+01 0.00000E+00
 -1      2603 8.93137E+00 3.93078E+01 0.00000E+00
 -1      2604 1.82850E+01 7.90325E+00 0.00000E+00
 -1      2605 1.67850E+01 7.90325E+00 0.00000E+00
 -1      2606 1.90350E+01 9.20225E+00 0.00000E+00
 -1      2607 1.41548E+02 1.43909E+01 0.00000E+00
 -1      2608 1.27343E+02 2.32703E+01 0.00000E+00
 -1      2609 1.27852E+02 2.21168E+01 0.00000E+00
 -1      2610 1.44000E+01 4.09070E+01 0.00000E+00
 -1      2611 1.59000E+01 4.09070E+01 0.00000E+00
 -1      2612 1.36500E+01 3.96080E+01 0.00000E+00
 -1      2613 1.74000E+01 4.09070E+01 0.00000E+00
 -1      2614 1.89000E+01 4.09070E+01 0.00000E+00
 -1      2615 1.66500E+01 3.96080E+01 0.00000E+00
 -1      2616 2.04000E+01 4.09070E+01 0.00000E+00
 -1      2617 2.19000E+01 4.09070E+01 0.00000E+00
 -1      2618 1.96500E+01 3.96080E+01 0.00000E+00
 -1      2619 2.34000E+01 4.09070E+01 0.00000E+00
 -1      2620 2.49000E+01 4.09070E+01 0.00000E+00
 -1      2621 2.26500E+01 3.96080E+01 0.00000E+00
 -1      2622 2.64000E+01 4.09070E+01 0.00000E+00
 -1      2623 2.79000E+01 4.09070E+01 0.00000E+00
 -1      2624 2.56500E+01 3.96080E+01 0.00000E+00
 -1      2625 2.94000E+01 4.09070E+01 0.00000E+00
 -1      2626 3.09000E+01 4.09070E+01 0.00000E+00
 -1      2627 2.86500E+01 3.96080E+01 0.00000E+00
 -1      2628 3.24000E+01 4.09070E+01 0.00000E+00
 -1      2629 3.39000E+01 4.09070E+01 0.00000E+00
 -1      2630 3.16500E+01 3.96080E+01 0.00000E+00
 -1      2631 3.54000E+01 4.09070E+01 0.00000E+00
 -1      2632 3.69000E+01 4.09070E+01 0.00000E+00
 -1      2633 3.46500E+01 3.96080E+01 0.00000E+00
 -1      2634 3.84000E+01 4.09070E+01 0.00000E+00
 -1      2635 3.99000E+01 4.09070E+01 0.00000E+00
 -1      2636 3.76500E+01 3.96080E+01 0.00000E+00
 -1      2637 4.14000E+01 4.09070E+01 0.00000E+00
 -1      2638 4.29000E+01 4.09070E+01 0.00000E+00
 -1      2639 4.06500E+01 3.96080E+01 0.00000E+00
 -1      2640 4.44000E+01 4.09070E+01 0.00000E+00
 -1      2641 4.59000E+01 4.09070E+01 0.00000E+00
 -1      2642 4.36500E+01 3.96080E+01 0.00000E+00
 -1      2643 4.74000E+01 4.09070E+01 0.00000E+00
 -1      2644 4.89000E+01 4.09070E+01 0.00000E+00
 -1      2645 4.66500E+01 3.96080E+01 0.00000E+00
 -1      2646 5.04000E+01 4.09070E+01 0.00000E+00
 -1      2647 5.19000E+01 4.09070E+01 0.00000E+00
 -1      2648 4.96500E+01 3.96080E+01 0.00000E+00
 -1      2649 5.34000E+01 4.09070E+01 0.00000E+00
 -1      2650 5.49000E+01 4.09070E+01 0.00000E+00
 -1      2651 5.26500E+01 3.96080E+01 0.00000E+00
 -1      2652 5.64000E+01 4.09070E+01 0.00000E+00
 -1      2653 5.79000E+01 4.09070E+01 0.00000E+00
 -1      2654 5.56500E+01 3.96080E+01 0.00000E+00
 -1      2655 5.94000E+01 4.09070E+01 0.00000E+00
 -1      2656 6.09000E+01 4.09070E+01 0.00000E+00
 -1      2657 5.86500E+01 3.96080E+01 0.00000E+00
 -1      2658 6.24000E+01 4.09070E+01 0.00000E+00
 -1      2659 6.39000E+01 4.09070E+01 0.00000E+00
 -1      2660 6.16500E+01 3.96080E+01 0.00000E+00
 -1      2661 6.54000E+01 4.09070E+01 0.00000E+00
 -1      2662 6.69000E+01 4.09070E+01 0.00000E+00
 -1      2663 6.46500E+01 3.96080E+01 0.00000E+00
 -1      2664 6.84000E+01 4.09070E+01 0.00000E+00
 -1      2665 6.99000E+01 4.09070E+01 0.00000E+00
 -1      2666 6.76500E+01 3.96080E+01 0.00000E+00
 -1      2667 7.14000E+01 4.09070E+01 0.00000E+00
 -1      2668 7.29000E+01 4.09070E+01 0.00000E+00
 -1      2669 7.06500E+01 3.96080E+01 0.00000E+00
 -1      2670 7.44000E+01 4.09070E+01 0.00000E+00
 -1      2671 7.59000E+01 4.09070E+01 0.00000E+00
 -1      2672 7.36500E+01 3.96080E+01 0.00000E+00
 -1      2673 7.74000E+01 4.09070E+01 0.00000E+00
 -1      2674 7.89000E+01 4.09070E+01 0.00000E+00
 -1      2675 7.66500E+01 3.96080E+01 0.00000E+00
 -1      2676 8.04000E+01 4.09070E+01 0.00000E+00
 -1      2677 8.19000E+01 4.09070E+01 0.00000E+00
 -1      2678 7.96500E+01 3.96080E+01 0.00000E+00
 -1      2679 8.34000E+01 4.09070E+01 0.00000E+00
 -1      2680 8.49000E+01 4.09070E+01 0.00000E+00
 -1      2681 8.26500E+01 3.96080E+01 0.00000E+00
 -1      2682 8.64000E+01 4.09070E+01 0.00000E+00
 -1      2683 8.79000E+01 4.09070E+01 0.00000E+00
 -1      2684 8.56500E+01 3.96080E+01 0.00000E+00
 -1      2685 8.94000E+01 4.09070E+01 0.00000E+00
 -1      2686 9.09000E+01 4.09070E+01 0.00000E+00
 -1      2687 8.86500E+01 3.96080E+01 0.00000E+00
 -1      2688 9.24000E+01 4.09070E+01 0.00000E+00
 -1      2689 9.39000E+01 4.09070E+01 0.00000E+00
 -1      2690 9.16500E+01 3.96080E+01 0.00000E+00
 -1      2691 9.54000E+01 4.09070E+01 0.00000E+00
 -1      2692 9.69000E+01 4.09070E+01 0.00000E+00
 -1      2693 9.46500E+01 3.96080E+01 0.00000E+00
 -1      2694 9.84000E+01 4.09070E+01 0.00000E+00
 -1      2695 9.99000E+01 4.09070E+01 0.00000E+00
 -1      2696 9.76500E+01 3.96080E+01 0.00000E+00
 -1      2697 1.01400E+02 4.09070E+01 0.00000E+00
 -1      2698 1.02900E+02 4.09070E+01 0.00000E+00
 -1      2699 1.00650E+02 3.96080E+01 0.00000E+00
 -1      2700 1.04400E+02 4.09070E+01 0.00000E+00
 -1      2701 1.05900E+02 4.09070E+01 0.00000E+00
 -1      2702 1.03650E+02 3.96080E+01 0.00000E+00
 -1      2703 1.07400E+02 4.09070E+01 0.00000E+00
 -1      2704 1.08900E+02 4.09070E+01 0.00000E+00
 -1      2705 1.06650E+02 3.96080E+01 0.00000E+00
 -1      2706 1.10400E+02 4.09070E+01 0.00000E+00
 -1      2707 1.11900E+02 4.09070E+01 0.00000E+00
 -1      2708 1.09650E+02 3.96080E+01 0.00000E+00
 -1      2709 1.13400E+02 4.09070E+01 0.00000E+00
 -1      2710 1.14900E+02 4.09070E+01 0.00000E+00
 -1      2711 1.12650E+02 3.96080E+01 0.00000E+00
 -1      2712 1.16400E+02 4.09070E+01 0.00000E+00
 -1      2713 1.17900E+02 4.09070E+01 0.00000E+00
 -1      2714 1.15650E+02 3.96080E+01 0.00000E+00
 -1      2715 1.19400E+02 4.09070E+01 0.00000E+00
 -1      2716 1.20900E+02 4.09070E+01 0.00000E+00
 -1      2717 1.18650E+02 3.96080E+01 0.00000E+00
 -1      2718 1.22400E+02 4.09070E+01 0.00000E+00
 -1      2719 1.23900E+02 4.09070E+01 0.00000E+00
 -1      2720 1.21650E+02 3.96080E+01 0.00000E+00
 -1      2721 1.25400E+02 4.09070E+01 0.00000E+00
 -1      2722 1.26900E+02 4.09070E+01 0.00000E+00
 -1      2723 1.24650E+02 3.96080E+01 0.00000E+00
 -1      2724 1.28400E+02 4.09070E+01 0.00000E+00
 -1      2725 1.29900E+02 4.09070E+01 0.00000E+00
 -1      2726 1.27650E+02 3.96080E+01 0.00000E+00
 -1      2727 1.31400E+02 4.09070E+01 0.00000E+00
 -1      2728 1.32900E+02 4.09070E+01 0.00000E+00
 -1      2729 1.30650E+02 3.96080E+01 0.00000E+00
 -1      2730 1.37400E+02 4.10133E+01 0.00000E+00
 -1      2731 1.38900E+02 4.10133E+01 0.00000E+00
 -1      2732 1.40167E+02 4.10144E+01 0.00000E+00
 -1      2733 1.41667E+02 4.10144E+01 0.00000E+00
 -1      2734 1.41951E+02 3.98239E+01 0.00000E+00
 -1      2735 1.39417E+02 3.98217E+01 0.00000E+00
 -1      2736 2.72850E+01 7.90325E+00 0.00000E+00
 -1      2737 2.57850E+01 7.90325E+00 0.00000E+00
 -1      2738 2.50350E+01 9.20225E+00 0.00000E+00
 -1      2739 3.02850E+01 7.90325E+00 0.00000E+00
 -1      2740 2.87850E+01 7.90325E+00 0.00000E+00
 -1      2741 2.80350E+01 9.20225E+00 0.00000E+00
 -1      2742 3.32850E+01 7.90325E+00 0.00000E+00
 -1      2743 3.17850E+01 7.90325E+00 0.00000E+00
 -1      2744 3.10350E+01 9.20225E+00 0.00000E+00
 -1      2745 3.62850E+01 7.90325E+00 0.00000E+00
 -1      2746 3.47850E+01 7.90325E+00 0.00000E+00
 -1      2747 3.40350E+01 9.20225E+00 0.00000E+00
 -1      2748 3.92850E+01 7.90325E+00 0.00000E+00
 -1      2749 3.77850E+01 7.90325E+00 0.00000E+00
 -1      2750 3.70350E+01 9.20225E+00 0.00000E+00
 -1      2751 4.22850E+01 7.90325E+00 0.00000E+00
 -1      2752 4.07850E+01 7.90325E+00 0.00000E+00
 -1      2753 4.00350E+01 9.20225E+00 0.00000E+00
 -1      2754 4.52850E+01 7.90325E+00 0.00000E+00
 -1      2755 4.37850E+01 7.90325E+00 0.00000E+00
 -1      2756 4.30350E+01 9.20225E+00 0.00000E+00
 -1      2757 4.82850E+01 7.90325E+00 0.00000E+00
 -1      2758 4.67850E+01 7.90325E+00 0.00000E+00
 -1      2759 4.60350E+01 9.20225E+00 0.00000E+00
 -1      2760 5.12850E+01 7.90325E+00 0.00000E+00
 -1      2761 4.97850E+01 7.90325E+00 0.00000E+00
 -1      2762 4.90350E+01 9.20225E+00 0.00000E+00
 -1      2763 5.42850E+01 7.90325E+00 0.00000E+00
 -1      2764 5.27850E+01 7.90325E+00 0.00000E+00
 -1      2765 5.20350E+01 9.20225E+00 0.00000E+00
 -1      2766 5.72850E+01 7.90325E+00 0.00000E+00
 -1      2767 5.57850E+01 7.90325E+00 0.00000E+00
 -1      2768 5.50350E+01 9.20225E+00 0.00000E+00
 -1      2769 6.02850E+01 7.90325E+00 0.00000E+00
 -1      2770 5.87850E+01 7.90325E+00 0.00000E+00
 -1      2771 5.80350E+01 9.20225E+00 0.00000E+00
 -1      2772 6.32850E+01 7.90325E+00 0.00000E+00
 -1      2773 6.17850E+01 7.90325E+00 0.00000E+00
 -1      2774 6.10350E+01 9.20225E+00 0.00000E+00
 -1      2775 6.62850E+01 7.90325E+00 0.00000E+00
 -1      2776 6.47850E+01 7.90325E+00 0.00000E+00
 -1      2777 6.40350E+01 9.20225E+00 0.00000E+00
 -1      2778 6.92850E+01 7.90325E+00 0.00000E+00
 -1      2779 6.77850E+01 7.90325E+00 0.00000E+00
 -1      2780 6.70350E+01 9.20225E+00 0.00000E+00
 -1      2781 7.22850E+01 7.90325E+00 0.00000E+00
 -1      2782 7.07850E+01 7.90325E+00 0.00000E+00
 -1      2783 7.00350E+01 9.20225E+00 0.00000E+00
 -1      2784 7.52850E+01 7.90325E+00 0.00000E+00
 -1      2785 7.37850E+01 7.90325E+00 0.00000E+00
 -1      2786 7.30350E+01 9.20225E+00 0.00000E+00
 -1      2787 7.82850E+01 7.90325E+00 0.00000E+00
 -1      2788 7.67850E+01 7.90325E+00 0.00000E+00
 -1      2789 7.60350E+01 9.20225E+00 0.00000E+00
 -1      2790 8.12850E+01 7.90325E+00 0.00000E+00
 -1      2791 7.97850E+01 7.90325E+00 0.00000E+00
 -1      2792 7.90350E+01 9.20225E+00 0.00000E+00
 -1      2793 8.42850E+01 7.90325E+00 0.00000E+00
 -1      2794 8.27850E+01 7.90325E+00 0.00000E+00
 -1      2795 8.20350E+01 9.20225E+00 0.00000E+00
 -1      2796 8.72850E+01 7.90325E+00 0.00000E+00
 -1      2797 8.57850E+01 7.90325E+00 0.00000E+00
 -1      2798 8.50350E+01 9.20225E+00 0.00000E+00
 -1      2799 9.02850E+01 7.90325E+00 0.00000E+00
 -1      2800 8.87850E+01 7.90325E+00 0.00000E+00
 -1      2801 8.80350E+01 9.20225E+00 0.00000E+00
 -1      2802 9.32850E+01 7.90325E+00 0.00000E+00
 -1      2803 9.17850E+01 7.90325E+00 0.00000E+00
 -1      2804 9.10350E+01 9.20225E+00 0.00000E+00
 -1      2805 9.62850E+01 7.90325E+00 0.00000E+00
 -1      2806 9.47850E+01 7.90325E+00 0.00000E+00
 -1      2807 9.40350E+01 9.20225E+00 0.00000E+00
 -1      2808 9.92850E+01 7.90325E+00 0.00000E+00
 -1      2809 9.77850E+01 7.90325E+00 0.00000E+00
 -1      2810 9.70350E+01 9.20225E+00 0.00000E+00
 -1      2811 1.02285E+02 7.90325E+00 0.00000E+00
 -1      2812 1.00785E+02 7.90325E+00 0.00000E+00
 -1      2813 1.00035E+02 9.20225E+00 0.00000E+00
 -1      2814 1.05285E+02 7.90325E+00 0.00000E+00
 -1      2815 1.03785E+02 7.90325E+00 0.00000E+00
 -1      2816 1.03035E+02 9.20225E+00 0.00000E+00
 -1      2817 1.08285E+02 7.90325E+00 0.00000E+00
 -1      2818 1.06785E+02 7.90325E+00 0.00000E+00
 -1      2819 1.06035E+02 9.20225E+00 0.00000E+00
 -1      2820 1.11285E+02 7.90325E+00 0.00000E+00
 -1      2821 1.09785E+02 7.90325E+00 0.00000E+00
 -1      2822 1.09035E+02 9.20225E+00 0.00000E+00
 -1      2823 1.14285E+02 7.90325E+00 0.00000E+00
 -1      2824 1.12785E+02 7.90325E+00 0.00000E+00
 -1      2825 1.12035E+02 9.20225E+00 0.00000E+00
 -1      2826 1.17285E+02 7.90325E+00 0.00000E+00
 -1      2827 1.15785E+02 7.90325E+00 0.00000E+00
 -1      2828 1.15035E+02 9.20225E+00 0.00000E+00
 -1      2829 1.20285E+02 7.90325E+00 0.00000E+00
 -1      2830 1.18785E+02 7.90325E+00 0.00000E+00
 -1      2831 1.18035E+02 9.20225E+00 0.00000E+00
 -1      2832 1.23285E+02 7.90325E+00 0.00000E+00
 -1      2833 1.21785E+02 7.90325E+00 0.00000E+00
 -1      2834 1.21035E+02 9.20225E+00 0.00000E+00
 -1      2835 1.26285E+02 7.90325E+00 0.00000E+00
 -1      2836 1.24785E+02 7.90325E+00 0.00000E+00
 -1      2837 1.24035E+02 9.20225E+00 0.00000E+00
 -1      2838 1.29285E+02 7.90325E+00 0.00000E+00
 -1      2839 1.27785E+02 7.90325E+00 0.00000E+00
 -1      2840 1.27035E+02 9.20225E+00 0.00000E+00
 -1      2841 1.32285E+02 7.90325E+00 0.00000E+00
 -1      2842 1.30785E+02 7.90325E+00 0.00000E+00
 -1      2843 1.30035E+02 9.20225E+00 0.00000E+00
 -1      2844 1.35285E+02 7.90325E+00 0.00000E+00
 -1      2845 1.33785E+02 7.90325E+00 0.00000E+00
 -1      2846 1.33035E+02 9.20225E+00 0.00000E+00
 -1      2847 1.38285E+02 7.90325E+00 0.00000E+00
 -1      2848 1.36785E+02 7.90325E+00 0.00000E+00
 -1      2849 1.36035E+02 9.20225E+00 0.00000E+00
 -1      2850 1.41006E+02 8.27769E+00 0.00000E+00
 -1      2851 1.39506E+02 8.27769E+00 0.00000E+00
 -1      2852 1.38756E+02 9.57669E+00 0.00000E+00
 -1      2853 1.41198E+02 1.03256E+01 0.00000E+00
 -1      2854 1.36506E+02 1.46792E+01 0.00000E+00
 -1      2855 1.37862E+02 1.46007E+01 0.00000E+00
 -1      2856 1.41373E+02 1.29957E+01 0.00000E+00
 -1      2857 1.41373E+02 1.17207E+01 0.00000E+00
 -1      2858 1.40152E+02 1.13463E+01 0.00000E+00
 -1      2859 1.40503E+02 1.41366E+01 0.00000E+00
 -1      2860 1.42939E+02 3.84484E+01 0.00000E+00
 -1      2861 1.44215E+02 3.76859E+01 0.00000E+00
 -1      2862 1.32578E+02 3.64033E+01 0.00000E+00
 -1      2863 1.31594E+02 3.57861E+01 0.00000E+00
 -1      2864 1.28291E+02 2.10101E+01 0.00000E+00
 -1      2865 1.28753E+02 2.01423E+01 0.00000E+00
 -1      2866 1.33905E+02 1.52824E+01 0.00000E+00
 -1      2867 1.35008E+02 1.48866E+01 0.00000E+00
 -1      2868 1.34734E+02 3.74641E+01 0.00000E+00
 -1      2869 1.33695E+02 3.70003E+01 0.00000E+00
 -1      2870 1.52850E+01 7.90325E+00 0.00000E+00
 -1      2871 1.37850E+01 7.90325E+00 0.00000E+00
 -1      2872 1.60350E+01 9.20225E+00 0.00000E+00
 -1      2873 1.26714E+02 2.63444E+01 0.00000E+00
 -1      2874 1.26862E+02 2.48486E+01 0.00000E+00
 -1      2875 1.27017E+02 3.10952E+01 0.00000E+00
 -1      2876 1.26691E+02 2.98143E+01 0.00000E+00
 -1      2877 1.39362E+02 3.89675E+01 0.00000E+00
 -1      2878 1.37985E+02 3.86945E+01 0.00000E+00
 -1      2879 1.26730E+02 2.85031E+01 0.00000E+00
 -1      2880 1.26676E+02 2.76556E+01 0.00000E+00
 -1      2881 1.25813E+02 2.68151E+01 0.00000E+00
 -1      2882 1.25737E+02 2.94375E+01 0.00000E+00
 -1      2883 1.36913E+02 3.82432E+01 0.00000E+00
 -1      2884 1.35805E+02 3.79155E+01 0.00000E+00
 -1      2885 1.34936E+02 3.84666E+01 0.00000E+00
 -1      2886 1.37079E+02 3.93693E+01 0.00000E+00
 -1      2887 9.09300E+00 1.68813E+01 0.00000E+00
 -1      2888 9.09300E+00 1.83563E+01 0.00000E+00
 -1      2889 1.03920E+01 1.90812E+01 0.00000E+00
 -1      2890 1.03920E+01 1.61437E+01 0.00000E+00
 -1      2891 1.30514E+02 3.50755E+01 0.00000E+00
 -1      2892 1.29691E+02 3.43298E+01 0.00000E+00
 -1      2893 9.09300E+00 3.15875E+01 0.00000E+00
 -1      2894 9.09300E+00 3.30625E+01 0.00000E+00
 -1      2895 1.31603E+02 1.71873E+01 0.00000E+00
 -1      2896 1.32526E+02 1.62093E+01 0.00000E+00
 -1      2897 1.28807E+02 3.34218E+01 0.00000E+00
 -1      2898 1.28019E+02 3.25129E+01 0.00000E+00
 -1      2899 9.09300E+00 3.45313E+01 0.00000E+00
 -1      2900 9.09300E+00 3.60000E+01 0.00000E+00
 -1      2901 1.03920E+01 3.37938E+01 0.00000E+00
 -1      2902 1.03920E+01 2.49750E+01 0.00000E+00
 -1      2903 9.09300E+00 2.57000E+01 0.00000E+00
 -1      2904 9.09300E+00 2.71750E+01 0.00000E+00
 -1      2905 1.05071E+01 7.27791E+00 0.00000E+00
 -1      2906 9.10425E+00 7.86356E+00 0.00000E+00
 -1      2907 9.10425E+00 9.33856E+00 0.00000E+00
 -1      2908 1.17247E+01 7.51569E+00 0.00000E+00
 -1      2909 1.40629E+02 3.89686E+01 0.00000E+00
 -1      2910 1.26332E+02 2.39256E+01 0.00000E+00
 -1      2911 1.25802E+02 2.30026E+01 0.00000E+00
 -1      2912 1.25322E+02 2.45809E+01 0.00000E+00
 -1      2913 1.36329E+02 4.05620E+01 0.00000E+00
 -1      2914 1.34829E+02 4.05620E+01 0.00000E+00
 -1      2915 1.41896E+02 3.89697E+01 0.00000E+00
 -1      2916 1.32759E+02 1.51254E+01 0.00000E+00
 -1      2917 1.32992E+02 1.40415E+01 0.00000E+00
 -1      2918 1.31613E+02 1.49683E+01 0.00000E+00
 -1      2919 1.28846E+02 1.93203E+01 0.00000E+00
 -1      2920 1.28939E+02 1.84983E+01 0.00000E+00
 -1      2921 1.27784E+02 1.93118E+01 0.00000E+00
 -1      2922 1.26700E+02 3.21664E+01 0.00000E+00
 -1      2923 1.32748E+02 3.74182E+01 0.00000E+00
 -1      2924 1.28586E+02 3.44921E+01 0.00000E+00
 -1      2925 1.30550E+02 3.61106E+01 0.00000E+00
 -1      2926 1.30690E+02 1.72795E+01 0.00000E+00
 -1      2927 1.38139E+02 1.36218E+01 0.00000E+00
 -1      2928 1.38867E+02 1.44387E+01 0.00000E+00
 -1      2929 1.35636E+02 1.39912E+01 0.00000E+00
 -1      2930 1.24747E+01 8.81469E+00 0.00000E+00
 -1      2931 1.04032E+01 1.00761E+01 0.00000E+00
 -1      2932 9.09300E+00 2.86437E+01 0.00000E+00
 -1      2933 9.09300E+00 3.01187E+01 0.00000E+00
 -1      2934 1.03920E+01 3.08563E+01 0.00000E+00
 -1      2935 1.03920E+01 2.79188E+01 0.00000E+00
 -1      2936 1.39910E+02 1.44958E+01 0.00000E+00
 -1      2937 1.27252E+02 2.12406E+01 0.00000E+00
 -1      2938 8.99606E+00 3.70363E+01 0.00000E+00
 -1      2939 9.02831E+00 3.82715E+01 0.00000E+00
 -1      2940 1.01012E+01 3.83715E+01 0.00000E+00
 -1      2941 1.02951E+01 3.62988E+01 0.00000E+00
 -1      2942 1.24635E+01 1.04636E+01 0.00000E+00
 -1      2943 1.24635E+01 1.19386E+01 0.00000E+00
 -1      2944 1.24635E+01 1.34136E+01 0.00000E+00
 -1      2945 1.45350E+01 1.06772E+01 0.00000E+00
 -1      2946 2.87850E+01 1.05013E+01 0.00000E+00
 -1      2947 2.72850E+01 1.05013E+01 0.00000E+00
 -1      2948 1.97850E+01 1.05013E+01 0.00000E+00
 -1      2949 1.82850E+01 1.05013E+01 0.00000E+00
 -1      2950 1.29000E+01 3.83090E+01 0.00000E+00
 -1      2951 1.44000E+01 3.83090E+01 0.00000E+00
 -1      2952 2.57850E+01 1.05013E+01 0.00000E+00
 -1      2953 2.42850E+01 1.05013E+01 0.00000E+00
 -1      2954 2.65350E+01 1.18003E+01 0.00000E+00
 -1      2955 1.59000E+01 3.83090E+01 0.00000E+00
 -1      2956 1.74000E+01 3.83090E+01 0.00000E+00
 -1      2957 1.51500E+01 3.70100E+01 0.00000E+00
 -1      2958 1.89000E+01 3.83090E+01 0.00000E+00
 -1      2959 2.04000E+01 3.83090E+01 0.00000E+00
 -1      2960 1.81500E+01 3.70100E+01 0.00000E+00
 -1      2961 2.19000E+01 3.83090E+01 0.00000E+00
 -1      2962 2.34000E+01 3.83090E+01 0.00000E+00
 -1      2963 2.11500E+01 3.70100E+01 0.00000E+00
 -1      2964 2.49000E+01 3.83090E+01 0.00000E+00
 -1      2965 2.64000E+01 3.83090E+01 0.00000E+00
 -1      2966 2.41500E+01 3.70100E+01 0.00000E+00
 -1      2967 2.79000E+01 3.83090E+01 0.00000E+00
 -1      2968 2.94000E+01 3.83090E+01 0.00000E+00
 -1      2969 2.71500E+01 3.70100E+01 0.00000E+00
 -1      2970 3.09000E+01 3.83090E+01 0.00000E+00
 -1      2971 3.24000E+01 3.83090E+01 0.00000E+00
 -1      2972 3.01500E+01 3.70100E+01 0.00000E+00
 -1      2973 3.39000E+01 3.83090E+01 0.00000E+00
 -1      2974 3.54000E+01 3.83090E+01 0.00000E+00
 -1      2975 3.31500E+01 3.70100E+01 0.00000E+00
 -1      2976 3.69000E+01 3.83090E+01 0.00000E+00
 -1      2977 3.84000E+01 3.83090E+01 0.00000E+00
 -1      2978 3.61500E+01 3.70100E+01 0.00000E+00
 -1      2979 3.99000E+01 3.83090E+01 0.00000E+00
 -1      2980 4.14000E+01 3.83090E+01 0.00000E+00
 -1      2981 3.91500E+01 3.70100E+01 0.00000E+00
 -1      2982 4.29000E+01 3.83090E+01 0.00000E+00
 -1      2983 4.44000E+01 3.83090E+01 0.00000E+00
 -1      2984 4.21500E+01 3.70100E+01 0.00000E+00
 -1      2985 4.59000E+01 3.83090E+01 0.00000E+00
 -1      2986 4.74000E+01 3.83090E+01 0.00000E+00
 -1      2987 4.51500E+01 3.70100E+01 0.00000E+00
 -1      2988 4.89000E+01 3.83090E+01 0.00000E+00
 -1      2989 5.04000E+01 3.83090E+01 0.00000E+00
 -1      2990 4.81500E+01 3.70100E+01 0.00000E+00
 -1      2991 5.19000E+01 3.83090E+01 0.00000E+00
 -1      2992 5.34000E+01 3.83090E+01 0.00000E+00
 -1      2993 5.11500E+01 3.70100E+01 0.00000E+00
 -1      2994 5.49000E+01 3.83090E+01 0.00000E+00
 -1      2995 5.64000E+01 3.83090E+01 0.00000E+00
 -1      2996 5.41500E+01 3.70100E+01 0.00000E+00
 -1      2997 5.79000E+01 3.83090E+01 0.00000E+00
 -1      2998 5.94000E+01 3.83090E+01 0.00000E+00
 -1      2999 5.71500E+01 3.70100E+01 0.00000E+00
 -1      3000 6.09000E+01 3.83090E+01 0.00000E+00
 -1      3001 6.24000E+01 3.83090E+01 0.00000E+00
 -1      3002 6.01500E+01 3.70100E+01 0.00000E+00
 -1      3003 6.39000E+01 3.83090E+01 0.00000E+00
 -1      3004 6.54000E+01 3.83090E+01 0.00000E+00
 -1      3005 6.31500E+01 3.70100E+01 0.00000E+00
 -1      3006 6.69000E+01 3.83090E+01 0.00000E+00
 -1      3007 6.84000E+01 3.83090E+01 0.00000E+00
 -1      3008 6.61500E+01 3.70100E+01 0.00000E+00
 -1      3009 6.99000E+01 3.83090E+01 0.00000E+00
 -1      3010 7.14000E+01 3.83090E+01 0.00000E+00
 -1      3011 6.91500E+01 3.70100E+01 0.00000E+00
 -1      3012 7.29000E+01 3.83090E+01 0.00000E+00
 -1      3013 7.44000E+01 3.83090E+01 0.00000E+00
 -1      3014 7.21500E+01 3.70100E+01 0.00000E+00
 -1      3015 7.59000E+01 3.83090E+01 0.00000E+00
 -1      3016 7.74000E+01 3.83090E+01 0.00000E+00
 -1      3017 7.51500E+01 3.70100E+01 0.00000E+00
 -1      3018 7.89000E+01 3.83090E+01 0.00000E+00
 -1      3019 8.04000E+01 3.83090E+01 0.00000E+00
 -1      3020 7.81500E+01 3.70100E+01 0.00000E+00
 -1      3021 8.19000E+01 3.83090E+01 0.00000E+00
 -1      3022 8.34000E+01 3.83090E+01 0.00000E+00
 -1      3023 8.11500E+01 3.70100E+01 0.00000E+00
 -1      3024 8.49000E+01 3.83090E+01 0.00000E+00
 -1      3025 8.64000E+01 3.83090E+01 0.00000E+00
 -1      3026 8.41500E+01 3.70100E+01 0.00000E+00
 -1      3027 8.79000E+01 3.83090E+01 0.00000E+00
 -1      3028 8.94000E+01 3.83090E+01 0.00000E+00
 -1      3029 8.71500E+01 3.70100E+01 0.00000E+00
 -1      3030 9.09000E+01 3.83090E+01 0.00000E+00
 -1      3031 9.24000E+01 3.83090E+01 0.00000E+00
 -1      3032 9.01500E+01 3.70100E+01 0.00000E+00
 -1      3033 9.39000E+01 3.83090E+01 0.00000E+00
 -1      3034 9.54000E+01 3.83090E+01 0.00000E+00
 -1      3035 9.31500E+01 3.70100E+01 0.00000E+00
 -1      3036 9.69000E+01 3.83090E+01 0.00000E+00
 -1      3037 9.84000E+01 3.83090E+01 0.00000E+00
 -1      3038 9.61500E+01 3.70100E+01 0.00000E+00
 -1      3039 9.99000E+01 3.83090E+01 0.00000E+00
 -1      3040 1.01400E+02 3.83090E+01 0.00000E+00
 -1      3041 9.91500E+01 3.70100E+01 0.00000E+00
 -1      3042 1.02900E+02 3.83090E+01 0.00000E+00
 -1      3043 1.04400E+02 3.83090E+01 0.00000E+00
 -1      3044 1.02150E+02 3.70100E+01 0.00000E+00
 -1      3045 1.05900E+02 3.83090E+01 0.00000E+00
 -1      3046 1.07400E+02 3.83090E+01 0.00000E+00
 -1      3047 1.05150E+02 3.70100E+01 0.00000E+00
 -1      3048 1.08900E+02 3.83090E+01 0.00000E+00
 -1      3049 1.10400E+02 3.83090E+01 0.00000E+00
 -1      3050 1.08150E+02 3.70100E+01 0.00000E+00
 -1      3051 1.11900E+02 3.83090E+01 0.00000E+00
 -1      3052 1.13400E+02 3.83090E+01 0.00000E+00
 -1      3053 1.11150E+02 3.70100E+01 0.00000E+00
 -1      3054 1.14900E+02 3.83090E+01 0.00000E+00
 -1      3055 1.16400E+02 3.83090E+01 0.00000E+00
 -1      3056 1.14150E+02 3.70100E+01 0.00000E+00
 -1      3057 1.17900E+02 3.83090E+01 0.00000E+00
 -1      3058 1.19400E+02 3.83090E+01 0.00000E+00
 -1      3059 1.17150E+02 3.70100E+01 0.00000E+00
 -1      3060 1.20900E+02 3.83090E+01 0.00000E+00
 -1      3061 1.22400E+02 3.83090E+01 0.00000E+00
 -1      3062 1.20150E+02 3.70100E+01 0.00000E+00
 -1      3063 1.23900E+02 3.83090E+01 0.00000E+00
 -1      3064 1.25400E+02 3.83090E+01 0.00000E+00
 -1      3065 1.23150E+02 3.70100E+01 0.00000E+00
 -1      3066 1.71600E+01 1.05892E+01 0.00000E+00
 -1      3067 1.56600E+01 1.05892E+01 0.00000E+00
 -1      3068 1.56600E+01 1.20642E+01 0.00000E+00
 -1      3069 1.79100E+01 1.18883E+01 0.00000E+00
 -1      3070 3.47850E+01 1.05013E+01 0.00000E+00
 -1      3071 3.32850E+01 1.05013E+01 0.00000E+00
 -1      3072 3.77850E+01 1.05013E+01 0.00000E+00
 -1      3073 3.62850E+01 1.05013E+01 0.00000E+00
 -1      3074 3.55350E+01 1.18003E+01 0.00000E+00
 -1      3075 4.07850E+01 1.05013E+01 0.00000E+00
 -1      3076 3.92850E+01 1.05013E+01 0.00000E+00
 -1      3077 3.85350E+01 1.18003E+01 0.00000E+00
 -1      3078 4.37850E+01 1.05013E+01 0.00000E+00
 -1      3079 4.22850E+01 1.05013E+01 0.00000E+00
 -1      3080 4.15350E+01 1.18003E+01 0.00000E+00
 -1      3081 4.67850E+01 1.05013E+01 0.00000E+00
 -1      3082 4.52850E+01 1.05013E+01 0.00000E+00
 -1      3083 4.45350E+01 1.18003E+01 0.00000E+00
 -1      3084 4.97850E+01 1.05013E+01 0.00000E+00
 -1      3085 4.82850E+01 1.05013E+01 0.00000E+00
 -1      3086 4.75350E+01 1.18003E+01 0.00000E+00
 -1      3087 5.27850E+01 1.05013E+01 0.00000E+00
 -1      3088 5.12850E+01 1.05013E+01 0.00000E+00
 -1      3089 5.05350E+01 1.18003E+01 0.00000E+00
 -1      3090 5.57850E+01 1.05013E+01 0.00000E+00
 -1      3091 5.42850E+01 1.05013E+01 0.00000E+00
 -1      3092 5.35350E+01 1.18003E+01 0.00000E+00
 -1      3093 5.87850E+01 1.05013E+01 0.00000E+00
 -1      3094 5.72850E+01 1.05013E+01 0.00000E+00
 -1      3095 5.65350E+01 1.18003E+01 0.00000E+00
 -1      3096 6.17850E+01 1.05013E+01 0.00000E+00
 -1      3097 6.02850E+01 1.05013E+01 0.00000E+00
 -1      3098 5.95350E+01 1.18003E+01 0.00000E+00
 -1      3099 6.47850E+01 1.05013E+01 0.00000E+00
 -1      3100 6.32850E+01 1.05013E+01 0.00000E+00
 -1      3101 6.25350E+01 1.18003E+01 0.00000E+00
 -1      3102 6.77850E+01 1.05013E+01 0.00000E+00
 -1      3103 6.62850E+01 1.05013E+01 0.00000E+00
 -1      3104 6.55350E+01 1.18003E+01 0.00000E+00
 -1      3105 7.07850E+01 1.05013E+01 0.00000E+00
 -1      3106 6.92850E+01 1.05013E+01 0.00000E+00
 -1      3107 6.85350E+01 1.18003E+01 0.00000E+00
 -1      3108 7.37850E+01 1.05013E+01 0.00000E+00
 -1      3109 7.22850E+01 1.05013E+01 0.00000E+00
 -1      3110 7.15350E+01 1.18003E+01 0.00000E+00
 -1      3111 7.67850E+01 1.05013E+01 0.00000E+00
 -1      3112 7.52850E+01 1.05013E+01 0.00000E+00
 -1      3113 7.45350E+01 1.18003E+01 0.00000E+00
 -1      3114 7.97850E+01 1.05013E+01 0.00000E+00
 -1      3115 7.82850E+01 1.05013E+01 0.00000E+00
 -1      3116 7.75350E+01 1.18003E+01 0.00000E+00
 -1      3117 8.27850E+01 1.05013E+01 0.00000E+00
 -1      3118 8.12850E+01 1.05013E+01 0.00000E+00
 -1      3119 8.05350E+01 1.18003E+01 0.00000E+00
 -1      3120 8.57850E+01 1.05013E+01 0.00000E+00
 -1      3121 8.42850E+01 1.05013E+01 0.00000E+00
 -1      3122 8.35350E+01 1.18003E+01 0.00000E+00
 -1      3123 8.87850E+01 1.05013E+01 0.00000E+00
 -1      3124 8.72850E+01 1.05013E+01 0.00000E+00
 -1      3125 8.65350E+01 1.18003E+01 0.00000E+00
 -1      3126 9.17850E+01 1.05013E+01 0.00000E+00
 -1      3127 9.02850E+01 1.05013E+01 0.00000E+00
 -1      3128 8.95350E+01 1.18003E+01 0.00000E+00
 -1      3129 9.47850E+01 1.05013E+01 0.00000E+00
 -1      3130 9.32850E+01 1.05013E+01 0.00000E+00
 -1      3131 9.25350E+01 1.18003E+01 0.00000E+00
 -1      3132 9.77850E+01 1.05013E+01 0.00000E+00
 -1      3133 9.62850E+01 1.05013E+01 0.00000E+00
 -1      3134 9.55350E+01 1.18003E+01 0.00000E+00
 -1      3135 1.00785E+02 1.05013E+01 0.00000E+00
 -1      3136 9.92850E+01 1.05013E+01 0.00000E+00
 -1      3137 9.85350E+01 1.18003E+01 0.00000E+00
 -1      3138 1.03785E+02 1.05013E+01 0.00000E+00
 -1      3139 1.02285E+02 1.05013E+01 0.00000E+00
 -1      3140 1.01535E+02 1.18003E+01 0.00000E+00
 -1      3141 1.06785E+02 1.05013E+01 0.00000E+00
 -1      3142 1.05285E+02 1.05013E+01 0.00000E+00
 -1      3143 1.04535E+02 1.18003E+01 0.00000E+00
 -1      3144 1.09785E+02 1.05013E+01 0.00000E+00
 -1      3145 1.08285E+02 1.05013E+01 0.00000E+00
 -1      3146 1.07535E+02 1.18003E+01 0.00000E+00
 -1      3147 1.12785E+02 1.05013E+01 0.00000E+00
 -1      3148 1.11285E+02 1.05013E+01 0.00000E+00
 -1      3149 1.10535E+02 1.18003E+01 0.00000E+00
 -1      3150 1.15785E+02 1.05013E+01 0.00000E+00
 -1      3151 1.14285E+02 1.05013E+01 0.00000E+00
 -1      3152 1.13535E+02 1.18003E+01 0.00000E+00
 -1      3153 1.18785E+02 1.05013E+01 0.00000E+00
 -1      3154 1.17285E+02 1.05013E+01 0.00000E+00
 -1      3155 1.16535E+02 1.18003E+01 0.00000E+00
 -1      3156 1.21785E+02 1.05013E+01 0.00000E+00
 -1      3157 1.20285E+02 1.05013E+01 0.00000E+00
 -1      3158 1.19535E+02 1.18003E+01 0.00000E+00
 -1      3159 1.24785E+02 1.05013E+01 0.00000E+00
 -1      3160 1.23285E+02 1.05013E+01 0.00000E+00
 -1      3161 1.22535E+02 1.18003E+01 0.00000E+00
 -1      3162 1.27785E+02 1.05013E+01 0.00000E+00
 -1      3163 1.26285E+02 1.05013E+01 0.00000E+00
 -1      3164 1.25535E+02 1.18003E+01 0.00000E+00
 -1      3165 1.30785E+02 1.05013E+01 0.00000E+00
 -1      3166 1.29285E+02 1.05013E+01 0.00000E+00
 -1      3167 1.28535E+02 1.18003E+01 0.00000E+00
 -1      3168 1.33191E+02 1.15433E+01 0.00000E+00
 -1      3169 1.31691E+02 1.15433E+01 0.00000E+00
 -1      3170 1.37335E+02 1.14930E+01 0.00000E+00
 -1      3171 1.35835E+02 1.14930E+01 0.00000E+00
 -1      3172 1.38556E+02 1.18675E+01 0.00000E+00
 -1      3173 2.27850E+01 1.05013E+01 0.00000E+00
 -1      3174 2.12850E+01 1.05013E+01 0.00000E+00
 -1      3175 2.05350E+01 1.18003E+01 0.00000E+00
 -1      3176 2.35350E+01 1.18003E+01 0.00000E+00
 -1      3177 1.39735E+02 1.31006E+01 0.00000E+00
 -1      3178 1.16910E+01 2.12875E+01 0.00000E+00
 -1      3179 1.16910E+01 2.27625E+01 0.00000E+00
 -1      3180 1.26295E+02 3.35151E+01 0.00000E+00
 -1      3181 1.25294E+02 3.20975E+01 0.00000E+00
 -1      3182 1.28294E+02 3.56613E+01 0.00000E+00
 -1      3183 1.27410E+02 3.47533E+01 0.00000E+00
 -1      3184 1.34079E+02 3.92630E+01 0.00000E+00
 -1      3185 1.30527E+02 3.73223E+01 0.00000E+00
 -1      3186 1.29447E+02 3.66118E+01 0.00000E+00
 -1      3187 1.26080E+02 2.14158E+01 0.00000E+00
 -1      3188 1.26519E+02 2.03091E+01 0.00000E+00
 -1      3189 1.29629E+02 1.72710E+01 0.00000E+00
 -1      3190 1.30318E+02 1.60437E+01 0.00000E+00
 -1      3191 1.28567E+02 1.72625E+01 0.00000E+00
 -1      3192 3.17850E+01 1.05013E+01 0.00000E+00
 -1      3193 3.02850E+01 1.05013E+01 0.00000E+00
 -1      3194 2.95350E+01 1.18003E+01 0.00000E+00
 -1      3195 1.16910E+01 2.42375E+01 0.00000E+00
 -1      3196 1.16910E+01 2.57125E+01 0.00000E+00
 -1      3197 1.29900E+01 2.35000E+01 0.00000E+00
 -1      3198 3.25350E+01 1.18003E+01 0.00000E+00
 -1      3199 1.11741E+01 3.84716E+01 0.00000E+00
 -1      3200 1.24698E+02 2.55528E+01 0.00000E+00
 -1      3201 1.24168E+02 2.46298E+01 0.00000E+00
 -1      3202 1.26003E+02 3.46844E+01 0.00000E+00
 -1      3203 1.25069E+02 2.20711E+01 0.00000E+00
 -1      3204 1.26900E+02 3.84153E+01 0.00000E+00
 -1      3205 1.28400E+02 3.84153E+01 0.00000E+00
 -1      3206 1.30390E+02 3.82146E+01 0.00000E+00
 -1      3207 1.31890E+02 3.82146E+01 0.00000E+00
 -1      3208 1.34337E+02 1.17004E+01 0.00000E+00
 -1      3209 1.24635E+01 1.48824E+01 0.00000E+00
 -1      3210 1.24635E+01 1.63511E+01 0.00000E+00
 -1      3211 1.45350E+01 1.36210E+01 0.00000E+00
 -1      3212 1.28560E+02 3.63113E+01 0.00000E+00
 -1      3213 1.27384E+02 3.65726E+01 0.00000E+00
 -1      3214 1.16910E+01 1.98188E+01 0.00000E+00
 -1      3215 1.29900E+01 2.05562E+01 0.00000E+00
 -1      3216 1.16910E+01 1.83500E+01 0.00000E+00
 -1      3217 1.24029E+02 3.24531E+01 0.00000E+00
 -1      3218 1.24434E+02 3.11043E+01 0.00000E+00
 -1      3219 1.23208E+02 3.01487E+01 0.00000E+00
 -1      3220 1.24472E+02 2.97931E+01 0.00000E+00
 -1      3221 1.24510E+02 2.84819E+01 0.00000E+00
 -1      3222 1.26612E+02 1.94871E+01 0.00000E+00
 -1      3223 1.26705E+02 1.86651E+01 0.00000E+00
 -1      3224 1.25440E+02 1.96624E+01 0.00000E+00
 -1      3225 1.16910E+01 3.30594E+01 0.00000E+00
 -1      3226 1.16910E+01 3.45281E+01 0.00000E+00
 -1      3227 1.24659E+02 2.68640E+01 0.00000E+00
 -1      3228 1.16910E+01 3.01219E+01 0.00000E+00
 -1      3229 1.16910E+01 3.15906E+01 0.00000E+00
 -1      3230 1.29900E+01 3.23250E+01 0.00000E+00
 -1      3231 1.19241E+01 3.71726E+01 0.00000E+00
 -1      3232 1.33007E+02 3.88116E+01 0.00000E+00
 -1      3233 1.26150E+02 3.71163E+01 0.00000E+00
 -1      3234 3.92850E+01 1.30992E+01 0.00000E+00
 -1      3235 3.77850E+01 1.30992E+01 0.00000E+00
 -1      3236 1.44000E+01 3.57110E+01 0.00000E+00
 -1      3237 1.59000E+01 3.57110E+01 0.00000E+00
 -1      3238 1.74000E+01 3.57110E+01 0.00000E+00
 -1      3239 1.89000E+01 3.57110E+01 0.00000E+00
 -1      3240 1.66500E+01 3.44120E+01 0.00000E+00
 -1      3241 2.04000E+01 3.57110E+01 0.00000E+00
 -1      3242 2.19000E+01 3.57110E+01 0.00000E+00
 -1      3243 1.96500E+01 3.44120E+01 0.00000E+00
 -1      3244 2.34000E+01 3.57110E+01 0.00000E+00
 -1      3245 2.49000E+01 3.57110E+01 0.00000E+00
 -1      3246 2.26500E+01 3.44120E+01 0.00000E+00
 -1      3247 2.64000E+01 3.57110E+01 0.00000E+00
 -1      3248 2.79000E+01 3.57110E+01 0.00000E+00
 -1      3249 2.56500E+01 3.44120E+01 0.00000E+00
 -1      3250 2.94000E+01 3.57110E+01 0.00000E+00
 -1      3251 3.09000E+01 3.57110E+01 0.00000E+00
 -1      3252 2.86500E+01 3.44120E+01 0.00000E+00
 -1      3253 3.24000E+01 3.57110E+01 0.00000E+00
 -1      3254 3.39000E+01 3.57110E+01 0.00000E+00
 -1      3255 3.16500E+01 3.44120E+01 0.00000E+00
 -1      3256 3.54000E+01 3.57110E+01 0.00000E+00
 -1      3257 3.69000E+01 3.57110E+01 0.00000E+00
 -1      3258 3.46500E+01 3.44120E+01 0.00000E+00
 -1      3259 3.84000E+01 3.57110E+01 0.00000E+00
 -1      3260 3.99000E+01 3.57110E+01 0.00000E+00
 -1      3261 3.76500E+01 3.44120E+01 0.00000E+00
 -1      3262 4.14000E+01 3.57110E+01 0.00000E+00
 -1      3263 4.29000E+01 3.57110E+01 0.00000E+00
 -1      3264 4.06500E+01 3.44120E+01 0.00000E+00
 -1      3265 4.44000E+01 3.57110E+01 0.00000E+00
 -1      3266 4.59000E+01 3.57110E+01 0.00000E+00
 -1      3267 4.36500E+01 3.44120E+01 0.00000E+00
 -1      3268 4.74000E+01 3.57110E+01 0.00000E+00
 -1      3269 4.89000E+01 3.57110E+01 0.00000E+00
 -1      3270 4.66500E+01 3.44120E+01 0.00000E+00
 -1      3271 5.04000E+01 3.57110E+01 0.00000E+00
 -1      3272 5.19000E+01 3.57110E+01 0.00000E+00
 -1      3273 4.96500E+01 3.44120E+01 0.00000E+00
 -1      3274 5.34000E+01 3.57110E+01 0.00000E+00
 -1      3275 5.49000E+01 3.57110E+01 0.00000E+00
 -1      3276 5.26500E+01 3.44120E+01 0.00000E+00
 -1      3277 5.64000E+01 3.57110E+01 0.00000E+00
 -1      3278 5.79000E+01 3.57110E+01 0.00000E+00
 -1      3279 5.56500E+01 3.44120E+01 0.00000E+00
 -1      3280 5.94000E+01 3.57110E+01 0.00000E+00
 -1      3281 6.09000E+01 3.57110E+01 0.00000E+00
 -1      3282 5.86500E+01 3.44120E+01 0.00000E+00
 -1      3283 6.24000E+01 3.57110E+01 0.00000E+00
 -1      3284 6.39000E+01 3.57110E+01 0.00000E+00
 -1      3285 6.16500E+01 3.44120E+01 0.00000E+00
 -1      3286 6.54000E+01 3.57110E+01 0.00000E+00
 -1      3287 6.69000E+01 3.57110E+01 0.00000E+00
 -1      3288 6.46500E+01 3.44120E+01 0.00000E+00
 -1      3289 6.84000E+01 3.57110E+01 0.00000E+00
 -1      3290 6.99000E+01 3.57110E+01 0.00000E+00
 -1      3291 6.76500E+01 3.44120E+01 0.00000E+00
 -1      3292 7.14000E+01 3.57110E+01 0.00000E+00
 -1      3293 7.29000E+01 3.57110E+01 0.00000E+00
 -1      3294 7.06500E+01 3.44120E+01 0.00000E+00
 -1      3295 7.44000E+01 3.57110E+01 0.00000E+00
 -1      3296 7.59000E+01 3.57110E+01 0.00000E+00
 -1      3297 7.36500E+01 3.44120E+01 0.00000E+00
 -1      3298 7.74000E+01 3.57110E+01 0.00000E+00
 -1      3299 7.89000E+01 3.57110E+01 0.00000E+00
 -1      3300 7.66500E+01 3.44120E+01 0.00000E+00
 -1      3301 8.04000E+01 3.57110E+01 0.00000E+00
 -1      3302 8.19000E+01 3.57110E+01 0.00000E+00
 -1      3303 7.96500E+01 3.44120E+01 0.00000E+00
 -1      3304 8.34000E+01 3.57110E+01 0.00000E+00
 -1      3305 8.49000E+01 3.57110E+01 0.00000E+00
 -1      3306 8.26500E+01 3.44120E+01 0.00000E+00
 -1      3307 8.64000E+01 3.57110E+01 0.00000E+00
 -1      3308 8.79000E+01 3.57110E+01 0.00000E+00
 -1      3309 8.56500E+01 3.44120E+01 0.00000E+00
 -1      3310 8.94000E+01 3.57110E+01 0.00000E+00
 -1      3311 9.09000E+01 3.57110E+01 0.00000E+00
 -1      3312 8.86500E+01 3.44120E+01 0.00000E+00
 -1      3313 9.24000E+01 3.57110E+01 0.00000E+00
 -1      3314 9.39000E+01 3.57110E+01 0.00000E+00
 -1      3315 9.16500E+01 3.44120E+01 0.00000E+00
 -1      3316 9.54000E+01 3.57110E+01 0.00000E+00
 -1      3317 9.69000E+01 3.57110E+01 0.00000E+00
 -1      3318 9.46500E+01 3.44120E+01 0.00000E+00
 -1      3319 9.84000E+01 3.57110E+01 0.00000E+00
 -1      3320 9.99000E+01 3.57110E+01 0.00000E+00
 -1      3321 9.76500E+01 3.44120E+01 0.00000E+00
 -1      3322 1.01400E+02 3.57110E+01 0.00000E+00
 -1      3323 1.02900E+02 3.57110E+01 0.00000E+00
 -1      3324 1.00650E+02 3.44120E+01 0.00000E+00
 -1      3325 1.04400E+02 3.57110E+01 0.00000E+00
 -1      3326 1.05900E+02 3.57110E+01 0.00000E+00
 -1      3327 1.03650E+02 3.44120E+01 0.00000E+00
 -1      3328 1.07400E+02 3.57110E+01 0.00000E+00
 -1      3329 1.08900E+02 3.57110E+01 0.00000E+00
 -1      3330 1.06650E+02 3.44120E+01 0.00000E+00
 -1      3331 1.10400E+02 3.57110E+01 0.00000E+00
 -1      3332 1.11900E+02 3.57110E+01 0.00000E+00
 -1      3333 1.09650E+02 3.44120E+01 0.00000E+00
 -1      3334 1.13400E+02 3.57110E+01 0.00000E+00
 -1      3335 1.14900E+02 3.57110E+01 0.00000E+00
 -1      3336 1.12650E+02 3.44120E+01 0.00000E+00
 -1      3337 1.16400E+02 3.57110E+01 0.00000E+00
 -1      3338 1.17900E+02 3.57110E+01 0.00000E+00
 -1      3339 1.15650E+02 3.44120E+01 0.00000E+00
 -1      3340 1.19400E+02 3.57110E+01 0.00000E+00
 -1      3341 1.20900E+02 3.57110E+01 0.00000E+00
 -1      3342 1.18650E+02 3.44120E+01 0.00000E+00
 -1      3343 1.30412E+02 1.52769E+01 0.00000E+00
 -1      3344 1.30645E+02 1.41930E+01 0.00000E+00
 -1      3345 4.22850E+01 1.30992E+01 0.00000E+00
 -1      3346 4.07850E+01 1.30992E+01 0.00000E+00
 -1      3347 4.00350E+01 1.43982E+01 0.00000E+00
 -1      3348 3.62850E+01 1.30992E+01 0.00000E+00
 -1      3349 3.47850E+01 1.30992E+01 0.00000E+00
 -1      3350 3.70350E+01 1.43982E+01 0.00000E+00
 -1      3351 4.52850E+01 1.30992E+01 0.00000E+00
 -1      3352 4.37850E+01 1.30992E+01 0.00000E+00
 -1      3353 4.30350E+01 1.43982E+01 0.00000E+00
 -1      3354 4.82850E+01 1.30992E+01 0.00000E+00
 -1      3355 4.67850E+01 1.30992E+01 0.00000E+00
 -1      3356 4.60350E+01 1.43982E+01 0.00000E+00
 -1      3357 5.12850E+01 1.30992E+01 0.00000E+00
 -1      3358 4.97850E+01 1.30992E+01 0.00000E+00
 -1      3359 4.90350E+01 1.43982E+01 0.00000E+00
 -1      3360 5.42850E+01 1.30992E+01 0.00000E+00
 -1      3361 5.27850E+01 1.30992E+01 0.00000E+00
 -1      3362 5.20350E+01 1.43982E+01 0.00000E+00
 -1      3363 5.72850E+01 1.30992E+01 0.00000E+00
 -1      3364 5.57850E+01 1.30992E+01 0.00000E+00
 -1      3365 5.50350E+01 1.43982E+01 0.00000E+00
 -1      3366 6.02850E+01 1.30992E+01 0.00000E+00
 -1      3367 5.87850E+01 1.30992E+01 0.00000E+00
 -1      3368 5.80350E+01 1.43982E+01 0.00000E+00
 -1      3369 6.32850E+01 1.30992E+01 0.00000E+00
 -1      3370 6.17850E+01 1.30992E+01 0.00000E+00
 -1      3371 6.10350E+01 1.43982E+01 0.00000E+00
 -1      3372 6.62850E+01 1.30992E+01 0.00000E+00
 -1      3373 6.47850E+01 1.30992E+01 0.00000E+00
 -1      3374 6.40350E+01 1.43982E+01 0.00000E+00
 -1      3375 6.92850E+01 1.30992E+01 0.00000E+00
 -1      3376 6.77850E+01 1.30992E+01 0.00000E+00
 -1      3377 6.70350E+01 1.43982E+01 0.00000E+00
 -1      3378 7.22850E+01 1.30992E+01 0.00000E+00
 -1      3379 7.07850E+01 1.30992E+01 0.00000E+00
 -1      3380 7.00350E+01 1.43982E+01 0.00000E+00
 -1      3381 7.52850E+01 1.30992E+01 0.00000E+00
 -1      3382 7.37850E+01 1.30992E+01 0.00000E+00
 -1      3383 7.30350E+01 1.43982E+01 0.00000E+00
 -1      3384 7.82850E+01 1.30992E+01 0.00000E+00
 -1      3385 7.67850E+01 1.30992E+01 0.00000E+00
 -1      3386 7.60350E+01 1.43982E+01 0.00000E+00
 -1      3387 8.12850E+01 1.30992E+01 0.00000E+00
 -1      3388 7.97850E+01 1.30992E+01 0.00000E+00
 -1      3389 7.90350E+01 1.43982E+01 0.00000E+00
 -1      3390 8.42850E+01 1.30992E+01 0.00000E+00
 -1      3391 8.27850E+01 1.30992E+01 0.00000E+00
 -1      3392 8.20350E+01 1.43982E+01 0.00000E+00
 -1      3393 8.72850E+01 1.30992E+01 0.00000E+00
 -1      3394 8.57850E+01 1.30992E+01 0.00000E+00
 -1      3395 8.50350E+01 1.43982E+01 0.00000E+00
 -1      3396 9.02850E+01 1.30992E+01 0.00000E+00
 -1      3397 8.87850E+01 1.30992E+01 0.00000E+00
 -1      3398 8.80350E+01 1.43982E+01 0.00000E+00
 -1      3399 9.32850E+01 1.30992E+01 0.00000E+00
 -1      3400 9.17850E+01 1.30992E+01 0.00000E+00
 -1      3401 9.10350E+01 1.43982E+01 0.00000E+00
 -1      3402 9.62850E+01 1.30992E+01 0.00000E+00
 -1      3403 9.47850E+01 1.30992E+01 0.00000E+00
 -1      3404 9.40350E+01 1.43982E+01 0.00000E+00
 -1      3405 9.92850E+01 1.30992E+01 0.00000E+00
 -1      3406 9.77850E+01 1.30992E+01 0.00000E+00
 -1      3407 9.70350E+01 1.43982E+01 0.00000E+00
 -1      3408 1.02285E+02 1.30992E+01 0.00000E+00
 -1      3409 1.00785E+02 1.30992E+01 0.00000E+00
 -1      3410 1.00035E+02 1.43982E+01 0.00000E+00
 -1      3411 1.05285E+02 1.30992E+01 0.00000E+00
 -1      3412 1.03785E+02 1.30992E+01 0.00000E+00
 -1      3413 1.03035E+02 1.43982E+01 0.00000E+00
 -1      3414 1.08285E+02 1.30992E+01 0.00000E+00
 -1      3415 1.06785E+02 1.30992E+01 0.00000E+00
 -1      3416 1.06035E+02 1.43982E+01 0.00000E+00
 -1      3417 1.11285E+02 1.30992E+01 0.00000E+00
 -1      3418 1.09785E+02 1.30992E+01 0.00000E+00
 -1      3419 1.09035E+02 1.43982E+01 0.00000E+00
 -1      3420 1.14285E+02 1.30992E+01 0.00000E+00
 -1      3421 1.12785E+02 1.30992E+01 0.00000E+00
 -1      3422 1.12035E+02 1.43982E+01 0.00000E+00
 -1      3423 1.17285E+02 1.30992E+01 0.00000E+00
 -1      3424 1.15785E+02 1.30992E+01 0.00000E+00
 -1      3425 1.15035E+02 1.43982E+01 0.00000E+00
 -1      3426 1.20285E+02 1.30992E+01 0.00000E+00
 -1      3427 1.18785E+02 1.30992E+01 0.00000E+00
 -1      3428 1.18035E+02 1.43982E+01 0.00000E+00
 -1      3429 1.23285E+02 1.30992E+01 0.00000E+00
 -1      3430 1.21785E+02 1.30992E+01 0.00000E+00
 -1      3431 1.21035E+02 1.43982E+01 0.00000E+00
 -1      3432 1.26285E+02 1.30992E+01 0.00000E+00
 -1      3433 1.24785E+02 1.30992E+01 0.00000E+00
 -1      3434 1.24035E+02 1.43982E+01 0.00000E+00
 -1      3435 1.29740E+02 1.31510E+01 0.00000E+00
 -1      3436 1.28240E+02 1.31510E+01 0.00000E+00
 -1      3437 1.30941E+02 1.28423E+01 0.00000E+00
 -1      3438 1.39560E+02 1.17055E+01 0.00000E+00
 -1      3439 1.28537E+02 3.75230E+01 0.00000E+00
 -1      3440 1.23557E+02 3.37303E+01 0.00000E+00
 -1      3441 1.22697E+02 3.27371E+01 0.00000E+00
 -1      3442 3.02850E+01 1.30992E+01 0.00000E+00
 -1      3443 2.87850E+01 1.30992E+01 0.00000E+00
 -1      3444 1.23838E+02 2.26735E+01 0.00000E+00
 -1      3445 1.24115E+02 2.10868E+01 0.00000E+00
 -1      3446 1.27255E+02 1.73332E+01 0.00000E+00
 -1      3447 1.27944E+02 1.61060E+01 0.00000E+00
 -1      3448 1.16910E+01 2.71844E+01 0.00000E+00
 -1      3449 1.16910E+01 2.86531E+01 0.00000E+00
 -1      3450 1.29900E+01 2.93875E+01 0.00000E+00
 -1      3451 1.20210E+01 3.61362E+01 0.00000E+00
 -1      3452 2.72850E+01 1.30992E+01 0.00000E+00
 -1      3453 2.57850E+01 1.30992E+01 0.00000E+00
 -1      3454 2.80350E+01 1.43982E+01 0.00000E+00
 -1      3455 1.23395E+02 2.72197E+01 0.00000E+00
 -1      3456 1.29350E+02 1.52685E+01 0.00000E+00
 -1      3457 3.32850E+01 1.30992E+01 0.00000E+00
 -1      3458 3.17850E+01 1.30992E+01 0.00000E+00
 -1      3459 3.40350E+01 1.43982E+01 0.00000E+00
 -1      3460 1.22590E+02 2.46174E+01 0.00000E+00
 -1      3461 1.23214E+02 2.36455E+01 0.00000E+00
 -1      3462 1.22260E+02 2.26611E+01 0.00000E+00
 -1      3463 1.27490E+02 1.44500E+01 0.00000E+00
 -1      3464 1.21890E+02 3.07664E+01 0.00000E+00
 -1      3465 1.21928E+02 2.94552E+01 0.00000E+00
 -1      3466 1.33200E+01 3.54019E+01 0.00000E+00
 -1      3467 1.40700E+01 3.41029E+01 0.00000E+00
 -1      3468 1.29900E+01 2.64469E+01 0.00000E+00
 -1      3469 1.37625E+01 1.70886E+01 0.00000E+00
 -1      3470 1.67850E+01 1.34450E+01 0.00000E+00
 -1      3471 1.56600E+01 1.35330E+01 0.00000E+00
 -1      3472 1.56600E+01 1.50017E+01 0.00000E+00
 -1      3473 1.40700E+01 3.11654E+01 0.00000E+00
 -1      3474 1.40700E+01 3.26341E+01 0.00000E+00
 -1      3475 1.51500E+01 3.29432E+01 0.00000E+00
 -1      3476 1.25736E+02 3.60452E+01 0.00000E+00
 -1      3477 1.24622E+02 3.48071E+01 0.00000E+00
 -1      3478 1.29287E+02 3.87157E+01 0.00000E+00
 -1      3479 1.21188E+02 3.42132E+01 0.00000E+00
 -1      3480 1.21938E+02 3.55122E+01 0.00000E+00
 -1      3481 3.10350E+01 1.43982E+01 0.00000E+00
 -1      3482 1.23438E+02 3.55122E+01 0.00000E+00
 -1      3483 1.90350E+01 1.32690E+01 0.00000E+00
 -1      3484 1.79100E+01 1.33570E+01 0.00000E+00
 -1      3485 1.79100E+01 1.48258E+01 0.00000E+00
 -1      3486 1.25884E+02 3.64663E+01 0.00000E+00
 -1      3487 1.21418E+02 3.20436E+01 0.00000E+00
 -1      3488 2.05350E+01 1.32690E+01 0.00000E+00
 -1      3489 2.42850E+01 1.30992E+01 0.00000E+00
 -1      3490 2.27850E+01 1.30992E+01 0.00000E+00
 -1      3491 2.50350E+01 1.43982E+01 0.00000E+00
 -1      3492 1.42890E+01 1.98219E+01 0.00000E+00
 -1      3493 1.42890E+01 2.12906E+01 0.00000E+00
 -1      3494 1.22077E+02 2.78373E+01 0.00000E+00
 -1      3495 1.22226E+02 2.62195E+01 0.00000E+00
 -1      3496 1.20760E+02 2.84550E+01 0.00000E+00
 -1      3497 1.28039E+02 1.53392E+01 0.00000E+00
 -1      3498 1.22977E+02 2.08671E+01 0.00000E+00
 -1      3499 1.24209E+02 2.02648E+01 0.00000E+00
 -1      3500 1.24302E+02 1.94427E+01 0.00000E+00
 -1      3501 1.26083E+02 1.75085E+01 0.00000E+00
 -1      3502 1.21272E+02 2.52351E+01 0.00000E+00
 -1      3503 1.55880E+01 2.20313E+01 0.00000E+00
 -1      3504 1.42890E+01 2.27656E+01 0.00000E+00
 -1      3505 1.42890E+01 2.42406E+01 0.00000E+00
 -1      3506 1.26084E+02 1.52875E+01 0.00000E+00
 -1      3507 1.42890E+01 2.57125E+01 0.00000E+00
 -1      3508 1.42890E+01 2.71844E+01 0.00000E+00
 -1      3509 1.55880E+01 2.49781E+01 0.00000E+00
 -1      3510 1.66500E+01 3.29432E+01 0.00000E+00
 -1      3511 3.17850E+01 1.56973E+01 0.00000E+00
 -1      3512 3.02850E+01 1.56973E+01 0.00000E+00
 -1      3513 1.89000E+01 3.31130E+01 0.00000E+00
 -1      3514 2.04000E+01 3.31130E+01 0.00000E+00
 -1      3515 2.19000E+01 3.31130E+01 0.00000E+00
 -1      3516 2.34000E+01 3.31130E+01 0.00000E+00
 -1      3517 2.11500E+01 3.18140E+01 0.00000E+00
 -1      3518 2.49000E+01 3.31130E+01 0.00000E+00
 -1      3519 2.64000E+01 3.31130E+01 0.00000E+00
 -1      3520 2.41500E+01 3.18140E+01 0.00000E+00
 -1      3521 2.79000E+01 3.31130E+01 0.00000E+00
 -1      3522 2.94000E+01 3.31130E+01 0.00000E+00
 -1      3523 2.71500E+01 3.18140E+01 0.00000E+00
 -1      3524 3.09000E+01 3.31130E+01 0.00000E+00
 -1      3525 3.24000E+01 3.31130E+01 0.00000E+00
 -1      3526 3.01500E+01 3.18140E+01 0.00000E+00
 -1      3527 3.39000E+01 3.31130E+01 0.00000E+00
 -1      3528 3.54000E+01 3.31130E+01 0.00000E+00
 -1      3529 3.31500E+01 3.18140E+01 0.00000E+00
 -1      3530 3.69000E+01 3.31130E+01 0.00000E+00
 -1      3531 3.84000E+01 3.31130E+01 0.00000E+00
 -1      3532 3.61500E+01 3.18140E+01 0.00000E+00
 -1      3533 3.99000E+01 3.31130E+01 0.00000E+00
 -1      3534 4.14000E+01 3.31130E+01 0.00000E+00
 -1      3535 3.91500E+01 3.18140E+01 0.00000E+00
 -1      3536 4.29000E+01 3.31130E+01 0.00000E+00
 -1      3537 4.44000E+01 3.31130E+01 0.00000E+00
 -1      3538 4.21500E+01 3.18140E+01 0.00000E+00
 -1      3539 4.59000E+01 3.31130E+01 0.00000E+00
 -1      3540 4.74000E+01 3.31130E+01 0.00000E+00
 -1      3541 4.51500E+01 3.18140E+01 0.00000E+00
 -1      3542 4.89000E+01 3.31130E+01 0.00000E+00
 -1      3543 5.04000E+01 3.31130E+01 0.00000E+00
 -1      3544 4.81500E+01 3.18140E+01 0.00000E+00
 -1      3545 5.19000E+01 3.31130E+01 0.00000E+00
 -1      3546 5.34000E+01 3.31130E+01 0.00000E+00
 -1      3547 5.11500E+01 3.18140E+01 0.00000E+00
 -1      3548 5.49000E+01 3.31130E+01 0.00000E+00
 -1      3549 5.64000E+01 3.31130E+01 0.00000E+00
 -1      3550 5.41500E+01 3.18140E+01 0.00000E+00
 -1      3551 5.79000E+01 3.31130E+01 0.00000E+00
 -1      3552 5.94000E+01 3.31130E+01 0.00000E+00
 -1      3553 5.71500E+01 3.18140E+01 0.00000E+00
 -1      3554 6.09000E+01 3.31130E+01 0.00000E+00
 -1      3555 6.24000E+01 3.31130E+01 0.00000E+00
 -1      3556 6.01500E+01 3.18140E+01 0.00000E+00
 -1      3557 6.39000E+01 3.31130E+01 0.00000E+00
 -1      3558 6.54000E+01 3.31130E+01 0.00000E+00
 -1      3559 6.31500E+01 3.18140E+01 0.00000E+00
 -1      3560 6.69000E+01 3.31130E+01 0.00000E+00
 -1      3561 6.84000E+01 3.31130E+01 0.00000E+00
 -1      3562 6.61500E+01 3.18140E+01 0.00000E+00
 -1      3563 6.99000E+01 3.31130E+01 0.00000E+00
 -1      3564 7.14000E+01 3.31130E+01 0.00000E+00
 -1      3565 6.91500E+01 3.18140E+01 0.00000E+00
 -1      3566 7.29000E+01 3.31130E+01 0.00000E+00
 -1      3567 7.44000E+01 3.31130E+01 0.00000E+00
 -1      3568 7.21500E+01 3.18140E+01 0.00000E+00
 -1      3569 7.59000E+01 3.31130E+01 0.00000E+00
 -1      3570 7.74000E+01 3.31130E+01 0.00000E+00
 -1      3571 7.51500E+01 3.18140E+01 0.00000E+00
 -1      3572 7.89000E+01 3.31130E+01 0.00000E+00
 -1      3573 8.04000E+01 3.31130E+01 0.00000E+00
 -1      3574 7.81500E+01 3.18140E+01 0.00000E+00
 -1      3575 8.19000E+01 3.31130E+01 0.00000E+00
 -1      3576 8.34000E+01 3.31130E+01 0.00000E+00
 -1      3577 8.11500E+01 3.18140E+01 0.00000E+00
 -1      3578 8.49000E+01 3.31130E+01 0.00000E+00
 -1      3579 8.64000E+01 3.31130E+01 0.00000E+00
 -1      3580 8.41500E+01 3.18140E+01 0.00000E+00
 -1      3581 8.79000E+01 3.31130E+01 0.00000E+00
 -1      3582 8.94000E+01 3.31130E+01 0.00000E+00
 -1      3583 8.71500E+01 3.18140E+01 0.00000E+00
 -1      3584 9.09000E+01 3.31130E+01 0.00000E+00
 -1      3585 9.24000E+01 3.31130E+01 0.00000E+00
 -1      3586 9.01500E+01 3.18140E+01 0.00000E+00
 -1      3587 9.39000E+01 3.31130E+01 0.00000E+00
 -1      3588 9.54000E+01 3.31130E+01 0.00000E+00
 -1      3589 9.31500E+01 3.18140E+01 0.00000E+00
 -1      3590 9.69000E+01 3.31130E+01 0.00000E+00
 -1      3591 9.84000E+01 3.31130E+01 0.00000E+00
 -1      3592 9.61500E+01 3.18140E+01 0.00000E+00
 -1      3593 9.99000E+01 3.31130E+01 0.00000E+00
 -1      3594 1.01400E+02 3.31130E+01 0.00000E+00
 -1      3595 9.91500E+01 3.18140E+01 0.00000E+00
 -1      3596 1.02900E+02 3.31130E+01 0.00000E+00
 -1      3597 1.04400E+02 3.31130E+01 0.00000E+00
 -1      3598 1.02150E+02 3.18140E+01 0.00000E+00
 -1      3599 1.05900E+02 3.31130E+01 0.00000E+00
 -1      3600 1.07400E+02 3.31130E+01 0.00000E+00
 -1      3601 1.05150E+02 3.18140E+01 0.00000E+00
 -1      3602 1.08900E+02 3.31130E+01 0.00000E+00
 -1      3603 1.10400E+02 3.31130E+01 0.00000E+00
 -1      3604 1.08150E+02 3.18140E+01 0.00000E+00
 -1      3605 1.11900E+02 3.31130E+01 0.00000E+00
 -1      3606 1.13400E+02 3.31130E+01 0.00000E+00
 -1      3607 1.11150E+02 3.18140E+01 0.00000E+00
 -1      3608 1.14900E+02 3.31130E+01 0.00000E+00
 -1      3609 1.16400E+02 3.31130E+01 0.00000E+00
 -1      3610 1.14150E+02 3.18140E+01 0.00000E+00
 -1      3611 4.07850E+01 1.56973E+01 0.00000E+00
 -1      3612 3.92850E+01 1.56973E+01 0.00000E+00
 -1      3613 3.77850E+01 1.56973E+01 0.00000E+00
 -1      3614 3.62850E+01 1.56973E+01 0.00000E+00
 -1      3615 3.85350E+01 1.69963E+01 0.00000E+00
 -1      3616 4.97850E+01 1.56973E+01 0.00000E+00
 -1      3617 4.82850E+01 1.56973E+01 0.00000E+00
 -1      3618 5.27850E+01 1.56973E+01 0.00000E+00
 -1      3619 5.12850E+01 1.56973E+01 0.00000E+00
 -1      3620 5.05350E+01 1.69963E+01 0.00000E+00
 -1      3621 5.57850E+01 1.56973E+01 0.00000E+00
 -1      3622 5.42850E+01 1.56973E+01 0.00000E+00
 -1      3623 5.35350E+01 1.69963E+01 0.00000E+00
 -1      3624 5.87850E+01 1.56973E+01 0.00000E+00
 -1      3625 5.72850E+01 1.56973E+01 0.00000E+00
 -1      3626 5.65350E+01 1.69963E+01 0.00000E+00
 -1      3627 6.17850E+01 1.56973E+01 0.00000E+00
 -1      3628 6.02850E+01 1.56973E+01 0.00000E+00
 -1      3629 5.95350E+01 1.69963E+01 0.00000E+00
 -1      3630 6.47850E+01 1.56973E+01 0.00000E+00
 -1      3631 6.32850E+01 1.56973E+01 0.00000E+00
 -1      3632 6.25350E+01 1.69963E+01 0.00000E+00
 -1      3633 6.77850E+01 1.56973E+01 0.00000E+00
 -1      3634 6.62850E+01 1.56973E+01 0.00000E+00
 -1      3635 6.55350E+01 1.69963E+01 0.00000E+00
 -1      3636 7.07850E+01 1.56973E+01 0.00000E+00
 -1      3637 6.92850E+01 1.56973E+01 0.00000E+00
 -1      3638 6.85350E+01 1.69963E+01 0.00000E+00
 -1      3639 7.37850E+01 1.56973E+01 0.00000E+00
 -1      3640 7.22850E+01 1.56973E+01 0.00000E+00
 -1      3641 7.15350E+01 1.69963E+01 0.00000E+00
 -1      3642 7.67850E+01 1.56973E+01 0.00000E+00
 -1      3643 7.52850E+01 1.56973E+01 0.00000E+00
 -1      3644 7.45350E+01 1.69963E+01 0.00000E+00
 -1      3645 7.97850E+01 1.56973E+01 0.00000E+00
 -1      3646 7.82850E+01 1.56973E+01 0.00000E+00
 -1      3647 7.75350E+01 1.69963E+01 0.00000E+00
 -1      3648 8.27850E+01 1.56973E+01 0.00000E+00
 -1      3649 8.12850E+01 1.56973E+01 0.00000E+00
 -1      3650 8.05350E+01 1.69963E+01 0.00000E+00
 -1      3651 8.57850E+01 1.56973E+01 0.00000E+00
 -1      3652 8.42850E+01 1.56973E+01 0.00000E+00
 -1      3653 8.35350E+01 1.69963E+01 0.00000E+00
 -1      3654 8.87850E+01 1.56973E+01 0.00000E+00
 -1      3655 8.72850E+01 1.56973E+01 0.00000E+00
 -1      3656 8.65350E+01 1.69963E+01 0.00000E+00
 -1      3657 9.17850E+01 1.56973E+01 0.00000E+00
 -1      3658 9.02850E+01 1.56973E+01 0.00000E+00
 -1      3659 8.95350E+01 1.69963E+01 0.00000E+00
 -1      3660 9.47850E+01 1.56973E+01 0.00000E+00
 -1      3661 9.32850E+01 1.56973E+01 0.00000E+00
 -1      3662 9.25350E+01 1.69963E+01 0.00000E+00
 -1      3663 9.77850E+01 1.56973E+01 0.00000E+00
 -1      3664 9.62850E+01 1.56973E+01 0.00000E+00
 -1      3665 9.55350E+01 1.69963E+01 0.00000E+00
 -1      3666 1.00785E+02 1.56973E+01 0.00000E+00
 -1      3667 9.92850E+01 1.56973E+01 0.00000E+00
 -1      3668 9.85350E+01 1.69963E+01 0.00000E+00
 -1      3669 1.03785E+02 1.56973E+01 0.00000E+00
 -1      3670 1.02285E+02 1.56973E+01 0.00000E+00
 -1      3671 1.01535E+02 1.69963E+01 0.00000E+00
 -1      3672 1.06785E+02 1.56973E+01 0.00000E+00
 -1      3673 1.05285E+02 1.56973E+01 0.00000E+00
 -1      3674 1.04535E+02 1.69963E+01 0.00000E+00
 -1      3675 1.09785E+02 1.56973E+01 0.00000E+00
 -1      3676 1.08285E+02 1.56973E+01 0.00000E+00
 -1      3677 1.07535E+02 1.69963E+01 0.00000E+00
 -1      3678 1.12785E+02 1.56973E+01 0.00000E+00
 -1      3679 1.11285E+02 1.56973E+01 0.00000E+00
 -1      3680 1.10535E+02 1.69963E+01 0.00000E+00
 -1      3681 1.15785E+02 1.56973E+01 0.00000E+00
 -1      3682 1.14285E+02 1.56973E+01 0.00000E+00
 -1      3683 1.13535E+02 1.69963E+01 0.00000E+00
 -1      3684 1.18785E+02 1.56973E+01 0.00000E+00
 -1      3685 1.17285E+02 1.56973E+01 0.00000E+00
 -1      3686 1.16535E+02 1.69963E+01 0.00000E+00
 -1      3687 1.21785E+02 1.56973E+01 0.00000E+00
 -1      3688 1.20285E+02 1.56973E+01 0.00000E+00
 -1      3689 1.19535E+02 1.69963E+01 0.00000E+00
 -1      3690 1.24684E+02 1.54924E+01 0.00000E+00
 -1      3691 1.23184E+02 1.54924E+01 0.00000E+00
 -1      3692 1.22434E+02 1.67914E+01 0.00000E+00
 -1      3693 1.25233E+02 1.63816E+01 0.00000E+00
 -1      3694 2.12850E+01 1.45680E+01 0.00000E+00
 -1      3695 4.37850E+01 1.56973E+01 0.00000E+00
 -1      3696 4.22850E+01 1.56973E+01 0.00000E+00
 -1      3697 4.15350E+01 1.69963E+01 0.00000E+00
 -1      3698 1.41795E+01 2.84405E+01 0.00000E+00
 -1      3699 1.41795E+01 2.99093E+01 0.00000E+00
 -1      3700 1.52595E+01 3.02184E+01 0.00000E+00
 -1      3701 1.54785E+01 2.77061E+01 0.00000E+00
 -1      3702 1.19392E+02 2.91449E+01 0.00000E+00
 -1      3703 1.19540E+02 2.75270E+01 0.00000E+00
 -1      3704 1.24683E+02 1.77134E+01 0.00000E+00
 -1      3705 2.87850E+01 1.56973E+01 0.00000E+00
 -1      3706 2.72850E+01 1.56973E+01 0.00000E+00
 -1      3707 2.95350E+01 1.69963E+01 0.00000E+00
 -1      3708 1.21015E+02 2.25480E+01 0.00000E+00
 -1      3709 1.21639E+02 2.15761E+01 0.00000E+00
 -1      3710 3.47850E+01 1.56973E+01 0.00000E+00
 -1      3711 3.32850E+01 1.56973E+01 0.00000E+00
 -1      3712 3.55350E+01 1.69963E+01 0.00000E+00
 -1      3713 1.53608E+01 1.64124E+01 0.00000E+00
 -1      3714 1.45883E+01 1.84112E+01 0.00000E+00
 -1      3715 1.58872E+01 1.91456E+01 0.00000E+00
 -1      3716 1.64858E+01 1.63244E+01 0.00000E+00
 -1      3717 1.19927E+02 2.57719E+01 0.00000E+00
 -1      3718 1.20291E+02 2.41698E+01 0.00000E+00
 -1      3719 4.67850E+01 1.56973E+01 0.00000E+00
 -1      3720 4.52850E+01 1.56973E+01 0.00000E+00
 -1      3721 4.45350E+01 1.69963E+01 0.00000E+00
 -1      3722 4.75350E+01 1.69963E+01 0.00000E+00
 -1      3723 1.74000E+01 3.16443E+01 0.00000E+00
 -1      3724 1.19214E+02 3.06425E+01 0.00000E+00
 -1      3725 1.17995E+02 2.97146E+01 0.00000E+00
 -1      3726 3.25350E+01 1.69963E+01 0.00000E+00
 -1      3727 1.16734E+02 3.15131E+01 0.00000E+00
 -1      3728 1.17484E+02 3.28121E+01 0.00000E+00
 -1      3729 1.18984E+02 3.28121E+01 0.00000E+00
 -1      3730 2.57850E+01 1.56973E+01 0.00000E+00
 -1      3731 2.42850E+01 1.56973E+01 0.00000E+00
 -1      3732 2.65350E+01 1.69963E+01 0.00000E+00
 -1      3733 1.73076E+01 1.87099E+01 0.00000E+00
 -1      3734 1.70083E+01 2.01205E+01 0.00000E+00
 -1      3735 1.84287E+01 2.11598E+01 0.00000E+00
 -1      3736 1.70083E+01 2.15955E+01 0.00000E+00
 -1      3737 1.70083E+01 2.30705E+01 0.00000E+00
 -1      3738 1.18559E+02 2.64618E+01 0.00000E+00
 -1      3739 1.20380E+02 3.22424E+01 0.00000E+00
 -1      3740 1.20487E+02 2.06409E+01 0.00000E+00
 -1      3741 1.21732E+02 2.07540E+01 0.00000E+00
 -1      3742 1.21825E+02 1.99320E+01 0.00000E+00
 -1      3743 1.19670E+02 2.30848E+01 0.00000E+00
 -1      3744 1.23452E+02 1.83158E+01 0.00000E+00
 -1      3745 2.25077E+01 1.57784E+01 0.00000E+00
 -1      3746 2.02577E+01 1.59482E+01 0.00000E+00
 -1      3747 1.99546E+01 1.84217E+01 0.00000E+00
 -1      3748 1.87318E+01 1.72113E+01 0.00000E+00
 -1      3749 1.18219E+02 2.34096E+01 0.00000E+00
 -1      3750 1.18943E+02 2.17878E+01 0.00000E+00
 -1      3751 3.32850E+01 1.82952E+01 0.00000E+00
 -1      3752 3.17850E+01 1.82952E+01 0.00000E+00
 -1      3753 1.15827E+02 3.03164E+01 0.00000E+00
 -1      3754 1.16911E+02 3.00155E+01 0.00000E+00
 -1      3755 1.17088E+02 2.85179E+01 0.00000E+00
 -1      3756 2.34000E+01 3.05150E+01 0.00000E+00
 -1      3757 2.49000E+01 3.05150E+01 0.00000E+00
 -1      3758 2.64000E+01 3.05150E+01 0.00000E+00
 -1      3759 2.79000E+01 3.05150E+01 0.00000E+00
 -1      3760 2.56500E+01 2.92160E+01 0.00000E+00
 -1      3761 2.94000E+01 3.05150E+01 0.00000E+00
 -1      3762 3.09000E+01 3.05150E+01 0.00000E+00
 -1      3763 2.86500E+01 2.92160E+01 0.00000E+00
 -1      3764 3.24000E+01 3.05150E+01 0.00000E+00
 -1      3765 3.39000E+01 3.05150E+01 0.00000E+00
 -1      3766 3.16500E+01 2.92160E+01 0.00000E+00
 -1      3767 3.54000E+01 3.05150E+01 0.00000E+00
 -1      3768 3.69000E+01 3.05150E+01 0.00000E+00
 -1      3769 3.46500E+01 2.92160E+01 0.00000E+00
 -1      3770 3.84000E+01 3.05150E+01 0.00000E+00
 -1      3771 3.99000E+01 3.05150E+01 0.00000E+00
 -1      3772 3.76500E+01 2.92160E+01 0.00000E+00
 -1      3773 4.14000E+01 3.05150E+01 0.00000E+00
 -1      3774 4.29000E+01 3.05150E+01 0.00000E+00
 -1      3775 4.06500E+01 2.92160E+01 0.00000E+00
 -1      3776 4.44000E+01 3.05150E+01 0.00000E+00
 -1      3777 4.59000E+01 3.05150E+01 0.00000E+00
 -1      3778 4.36500E+01 2.92160E+01 0.00000E+00
 -1      3779 4.74000E+01 3.05150E+01 0.00000E+00
 -1      3780 4.89000E+01 3.05150E+01 0.00000E+00
 -1      3781 4.66500E+01 2.92160E+01 0.00000E+00
 -1      3782 5.04000E+01 3.05150E+01 0.00000E+00
 -1      3783 5.19000E+01 3.05150E+01 0.00000E+00
 -1      3784 4.96500E+01 2.92160E+01 0.00000E+00
 -1      3785 5.34000E+01 3.05150E+01 0.00000E+00
 -1      3786 5.49000E+01 3.05150E+01 0.00000E+00
 -1      3787 5.26500E+01 2.92160E+01 0.00000E+00
 -1      3788 5.64000E+01 3.05150E+01 0.00000E+00
 -1      3789 5.79000E+01 3.05150E+01 0.00000E+00
 -1      3790 5.56500E+01 2.92160E+01 0.00000E+00
 -1      3791 5.94000E+01 3.05150E+01 0.00000E+00
 -1      3792 6.09000E+01 3.05150E+01 0.00000E+00
 -1      3793 5.86500E+01 2.92160E+01 0.00000E+00
 -1      3794 6.24000E+01 3.05150E+01 0.00000E+00
 -1      3795 6.39000E+01 3.05150E+01 0.00000E+00
 -1      3796 6.16500E+01 2.92160E+01 0.00000E+00
 -1      3797 6.54000E+01 3.05150E+01 0.00000E+00
 -1      3798 6.69000E+01 3.05150E+01 0.00000E+00
 -1      3799 6.46500E+01 2.92160E+01 0.00000E+00
 -1      3800 6.84000E+01 3.05150E+01 0.00000E+00
 -1      3801 6.99000E+01 3.05150E+01 0.00000E+00
 -1      3802 6.76500E+01 2.92160E+01 0.00000E+00
 -1      3803 7.14000E+01 3.05150E+01 0.00000E+00
 -1      3804 7.29000E+01 3.05150E+01 0.00000E+00
 -1      3805 7.06500E+01 2.92160E+01 0.00000E+00
 -1      3806 7.44000E+01 3.05150E+01 0.00000E+00
 -1      3807 7.59000E+01 3.05150E+01 0.00000E+00
 -1      3808 7.36500E+01 2.92160E+01 0.00000E+00
 -1      3809 7.74000E+01 3.05150E+01 0.00000E+00
 -1      3810 7.89000E+01 3.05150E+01 0.00000E+00
 -1      3811 7.66500E+01 2.92160E+01 0.00000E+00
 -1      3812 8.04000E+01 3.05150E+01 0.00000E+00
 -1      3813 8.19000E+01 3.05150E+01 0.00000E+00
 -1      3814 7.96500E+01 2.92160E+01 0.00000E+00
 -1      3815 8.34000E+01 3.05150E+01 0.00000E+00
 -1      3816 8.49000E+01 3.05150E+01 0.00000E+00
 -1      3817 8.26500E+01 2.92160E+01 0.00000E+00
 -1      3818 8.64000E+01 3.05150E+01 0.00000E+00
 -1      3819 8.79000E+01 3.05150E+01 0.00000E+00
 -1      3820 8.56500E+01 2.92160E+01 0.00000E+00
 -1      3821 8.94000E+01 3.05150E+01 0.00000E+00
 -1      3822 9.09000E+01 3.05150E+01 0.00000E+00
 -1      3823 8.86500E+01 2.92160E+01 0.00000E+00
 -1      3824 9.24000E+01 3.05150E+01 0.00000E+00
 -1      3825 9.39000E+01 3.05150E+01 0.00000E+00
 -1      3826 9.16500E+01 2.92160E+01 0.00000E+00
 -1      3827 9.54000E+01 3.05150E+01 0.00000E+00
 -1      3828 9.69000E+01 3.05150E+01 0.00000E+00
 -1      3829 9.46500E+01 2.92160E+01 0.00000E+00
 -1      3830 9.84000E+01 3.05150E+01 0.00000E+00
 -1      3831 9.99000E+01 3.05150E+01 0.00000E+00
 -1      3832 9.76500E+01 2.92160E+01 0.00000E+00
 -1      3833 1.01400E+02 3.05150E+01 0.00000E+00
 -1      3834 1.02900E+02 3.05150E+01 0.00000E+00
 -1      3835 1.00650E+02 2.92160E+01 0.00000E+00
 -1      3836 1.04400E+02 3.05150E+01 0.00000E+00
 -1      3837 1.05900E+02 3.05150E+01 0.00000E+00
 -1      3838 1.03650E+02 2.92160E+01 0.00000E+00
 -1      3839 1.07400E+02 3.05150E+01 0.00000E+00
 -1      3840 1.08900E+02 3.05150E+01 0.00000E+00
 -1      3841 1.06650E+02 2.92160E+01 0.00000E+00
 -1      3842 1.10400E+02 3.05150E+01 0.00000E+00
 -1      3843 1.11900E+02 3.05150E+01 0.00000E+00
 -1      3844 1.09650E+02 2.92160E+01 0.00000E+00
 -1      3845 1.13114E+02 3.04157E+01 0.00000E+00
 -1      3846 1.14614E+02 3.04157E+01 0.00000E+00
 -1      3847 1.14791E+02 2.89181E+01 0.00000E+00
 -1      3848 1.12364E+02 2.91167E+01 0.00000E+00
 -1      3849 5.42850E+01 1.82952E+01 0.00000E+00
 -1      3850 5.27850E+01 1.82952E+01 0.00000E+00
 -1      3851 5.12850E+01 1.82952E+01 0.00000E+00
 -1      3852 4.97850E+01 1.82952E+01 0.00000E+00
 -1      3853 5.20350E+01 1.95942E+01 0.00000E+00
 -1      3854 6.02850E+01 1.82952E+01 0.00000E+00
 -1      3855 5.87850E+01 1.82952E+01 0.00000E+00
 -1      3856 6.32850E+01 1.82952E+01 0.00000E+00
 -1      3857 6.17850E+01 1.82952E+01 0.00000E+00
 -1      3858 6.10350E+01 1.95942E+01 0.00000E+00
 -1      3859 6.62850E+01 1.82952E+01 0.00000E+00
 -1      3860 6.47850E+01 1.82952E+01 0.00000E+00
 -1      3861 6.40350E+01 1.95942E+01 0.00000E+00
 -1      3862 6.92850E+01 1.82952E+01 0.00000E+00
 -1      3863 6.77850E+01 1.82952E+01 0.00000E+00
 -1      3864 6.70350E+01 1.95942E+01 0.00000E+00
 -1      3865 7.22850E+01 1.82952E+01 0.00000E+00
 -1      3866 7.07850E+01 1.82952E+01 0.00000E+00
 -1      3867 7.00350E+01 1.95942E+01 0.00000E+00
 -1      3868 7.52850E+01 1.82952E+01 0.00000E+00
 -1      3869 7.37850E+01 1.82952E+01 0.00000E+00
 -1      3870 7.30350E+01 1.95942E+01 0.00000E+00
 -1      3871 7.82850E+01 1.82952E+01 0.00000E+00
 -1      3872 7.67850E+01 1.82952E+01 0.00000E+00
 -1      3873 7.60350E+01 1.95942E+01 0.00000E+00
 -1      3874 8.12850E+01 1.82952E+01 0.00000E+00
 -1      3875 7.97850E+01 1.82952E+01 0.00000E+00
 -1      3876 7.90350E+01 1.95942E+01 0.00000E+00
 -1      3877 8.42850E+01 1.82952E+01 0.00000E+00
 -1      3878 8.27850E+01 1.82952E+01 0.00000E+00
 -1      3879 8.20350E+01 1.95942E+01 0.00000E+00
 -1      3880 8.72850E+01 1.82952E+01 0.00000E+00
 -1      3881 8.57850E+01 1.82952E+01 0.00000E+00
 -1      3882 8.50350E+01 1.95942E+01 0.00000E+00
 -1      3883 9.02850E+01 1.82952E+01 0.00000E+00
 -1      3884 8.87850E+01 1.82952E+01 0.00000E+00
 -1      3885 8.80350E+01 1.95942E+01 0.00000E+00
 -1      3886 9.32850E+01 1.82952E+01 0.00000E+00
 -1      3887 9.17850E+01 1.82952E+01 0.00000E+00
 -1      3888 9.10350E+01 1.95942E+01 0.00000E+00
 -1      3889 9.62850E+01 1.82952E+01 0.00000E+00
 -1      3890 9.47850E+01 1.82952E+01 0.00000E+00
 -1      3891 9.40350E+01 1.95942E+01 0.00000E+00
 -1      3892 9.92850E+01 1.82952E+01 0.00000E+00
 -1      3893 9.77850E+01 1.82952E+01 0.00000E+00
 -1      3894 9.70350E+01 1.95942E+01 0.00000E+00
 -1      3895 1.02285E+02 1.82952E+01 0.00000E+00
 -1      3896 1.00785E+02 1.82952E+01 0.00000E+00
 -1      3897 1.00035E+02 1.95942E+01 0.00000E+00
 -1      3898 1.05285E+02 1.82952E+01 0.00000E+00
 -1      3899 1.03785E+02 1.82952E+01 0.00000E+00
 -1      3900 1.03035E+02 1.95942E+01 0.00000E+00
 -1      3901 1.08285E+02 1.82952E+01 0.00000E+00
 -1      3902 1.06785E+02 1.82952E+01 0.00000E+00
 -1      3903 1.06035E+02 1.95942E+01 0.00000E+00
 -1      3904 1.11285E+02 1.82952E+01 0.00000E+00
 -1      3905 1.09785E+02 1.82952E+01 0.00000E+00
 -1      3906 1.09035E+02 1.95942E+01 0.00000E+00
 -1      3907 1.14285E+02 1.82952E+01 0.00000E+00
 -1      3908 1.12785E+02 1.82952E+01 0.00000E+00
 -1      3909 1.12035E+02 1.95942E+01 0.00000E+00
 -1      3910 1.20808E+02 1.84076E+01 0.00000E+00
 -1      3911 1.19308E+02 1.84076E+01 0.00000E+00
 -1      3912 1.22053E+02 1.85207E+01 0.00000E+00
 -1      3913 1.70083E+01 2.45424E+01 0.00000E+00
 -1      3914 1.70083E+01 2.60143E+01 0.00000E+00
 -1      3915 1.84287E+01 2.41066E+01 0.00000E+00
 -1      3916 1.76108E+01 1.62364E+01 0.00000E+00
 -1      3917 5.72850E+01 1.82952E+01 0.00000E+00
 -1      3918 5.57850E+01 1.82952E+01 0.00000E+00
 -1      3919 5.50350E+01 1.95942E+01 0.00000E+00
 -1      3920 2.15458E+01 1.87908E+01 0.00000E+00
 -1      3921 2.00199E+01 2.00539E+01 0.00000E+00
 -1      3922 2.32577E+01 1.70774E+01 0.00000E+00
 -1      3923 3.62850E+01 1.82952E+01 0.00000E+00
 -1      3924 3.47850E+01 1.82952E+01 0.00000E+00
 -1      3925 3.40350E+01 1.95942E+01 0.00000E+00
 -1      3926 3.02850E+01 1.82952E+01 0.00000E+00
 -1      3927 2.87850E+01 1.82952E+01 0.00000E+00
 -1      3928 3.10350E+01 1.95942E+01 0.00000E+00
 -1      3929 3.92850E+01 1.82952E+01 0.00000E+00
 -1      3930 3.77850E+01 1.82952E+01 0.00000E+00
 -1      3931 3.70350E+01 1.95942E+01 0.00000E+00
 -1      3932 4.22850E+01 1.82952E+01 0.00000E+00
 -1      3933 4.07850E+01 1.82952E+01 0.00000E+00
 -1      3934 4.00350E+01 1.95942E+01 0.00000E+00
 -1      3935 1.17460E+02 2.68413E+01 0.00000E+00
 -1      3936 1.17847E+02 2.50861E+01 0.00000E+00
 -1      3937 1.17120E+02 2.37891E+01 0.00000E+00
 -1      3938 1.16376E+02 2.71422E+01 0.00000E+00
 -1      3939 2.04000E+01 3.05150E+01 0.00000E+00
 -1      3940 2.19000E+01 3.05150E+01 0.00000E+00
 -1      3941 2.26500E+01 2.92160E+01 0.00000E+00
 -1      3942 1.23812E+02 3.53549E+01 0.00000E+00
 -1      3943 1.24079E+02 3.39940E+01 0.00000E+00
 -1      3944 1.63727E+01 3.02641E+01 0.00000E+00
 -1      3945 1.86227E+01 3.04338E+01 0.00000E+00
 -1      3946 5.80350E+01 1.95942E+01 0.00000E+00
 -1      3947 1.64822E+01 2.90079E+01 0.00000E+00
 -1      3948 2.72850E+01 1.82952E+01 0.00000E+00
 -1      3949 2.57850E+01 1.82952E+01 0.00000E+00
 -1      3950 2.80350E+01 1.95942E+01 0.00000E+00
 -1      3951 4.90350E+01 1.95942E+01 0.00000E+00
 -1      3952 4.82850E+01 1.82952E+01 0.00000E+00
 -1      3953 4.67850E+01 1.82952E+01 0.00000E+00
 -1      3954 1.93727E+01 2.91348E+01 0.00000E+00
 -1      3955 1.22748E+02 3.42781E+01 0.00000E+00
 -1      3956 1.17285E+02 1.82952E+01 0.00000E+00
 -1      3957 1.15785E+02 1.82952E+01 0.00000E+00
 -1      3958 1.15035E+02 1.95942E+01 0.00000E+00
 -1      3959 2.00199E+01 2.15289E+01 0.00000E+00
 -1      3960 2.33231E+01 1.87096E+01 0.00000E+00
 -1      3961 1.65917E+01 2.77518E+01 0.00000E+00
 -1      3962 1.17013E+02 2.08534E+01 0.00000E+00
 -1      3963 1.18465E+02 2.05286E+01 0.00000E+00
 -1      3964 1.80121E+01 2.73161E+01 0.00000E+00
 -1      3965 4.37850E+01 1.82952E+01 0.00000E+00
 -1      3966 4.30350E+01 1.95942E+01 0.00000E+00
 -1      3967 4.52850E+01 1.82952E+01 0.00000E+00
 -1      3968 3.77850E+01 2.08932E+01 0.00000E+00
 -1      3969 3.62850E+01 2.08932E+01 0.00000E+00
 -1      3970 2.19000E+01 2.79170E+01 0.00000E+00
 -1      3971 2.34000E+01 2.79170E+01 0.00000E+00
 -1      3972 5.87850E+01 2.08932E+01 0.00000E+00
 -1      3973 5.72850E+01 2.08932E+01 0.00000E+00
 -1      3974 2.79000E+01 2.79170E+01 0.00000E+00
 -1      3975 2.94000E+01 2.79170E+01 0.00000E+00
 -1      3976 3.09000E+01 2.79170E+01 0.00000E+00
 -1      3977 3.24000E+01 2.79170E+01 0.00000E+00
 -1      3978 3.01500E+01 2.66180E+01 0.00000E+00
 -1      3979 3.39000E+01 2.79170E+01 0.00000E+00
 -1      3980 3.54000E+01 2.79170E+01 0.00000E+00
 -1      3981 3.31500E+01 2.66180E+01 0.00000E+00
 -1      3982 3.69000E+01 2.79170E+01 0.00000E+00
 -1      3983 3.84000E+01 2.79170E+01 0.00000E+00
 -1      3984 3.61500E+01 2.66180E+01 0.00000E+00
 -1      3985 3.99000E+01 2.79170E+01 0.00000E+00
 -1      3986 4.14000E+01 2.79170E+01 0.00000E+00
 -1      3987 3.91500E+01 2.66180E+01 0.00000E+00
 -1      3988 4.29000E+01 2.79170E+01 0.00000E+00
 -1      3989 4.44000E+01 2.79170E+01 0.00000E+00
 -1      3990 4.21500E+01 2.66180E+01 0.00000E+00
 -1      3991 4.59000E+01 2.79170E+01 0.00000E+00
 -1      3992 4.74000E+01 2.79170E+01 0.00000E+00
 -1      3993 4.51500E+01 2.66180E+01 0.00000E+00
 -1      3994 4.89000E+01 2.79170E+01 0.00000E+00
 -1      3995 5.04000E+01 2.79170E+01 0.00000E+00
 -1      3996 4.81500E+01 2.66180E+01 0.00000E+00
 -1      3997 5.19000E+01 2.79170E+01 0.00000E+00
 -1      3998 5.34000E+01 2.79170E+01 0.00000E+00
 -1      3999 5.11500E+01 2.66180E+01 0.00000E+00
 -1      4000 5.49000E+01 2.79170E+01 0.00000E+00
 -1      4001 5.64000E+01 2.79170E+01 0.00000E+00
 -1      4002 5.41500E+01 2.66180E+01 0.00000E+00
 -1      4003 5.79000E+01 2.79170E+01 0.00000E+00
 -1      4004 5.94000E+01 2.79170E+01 0.00000E+00
 -1      4005 5.71500E+01 2.66180E+01 0.00000E+00
 -1      4006 6.09000E+01 2.79170E+01 0.00000E+00
 -1      4007 6.24000E+01 2.79170E+01 0.00000E+00
 -1      4008 6.01500E+01 2.66180E+01 0.00000E+00
 -1      4009 6.39000E+01 2.79170E+01 0.00000E+00
 -1      4010 6.54000E+01 2.79170E+01 0.00000E+00
 -1      4011 6.31500E+01 2.66180E+01 0.00000E+00
 -1      4012 6.69000E+01 2.79170E+01 0.00000E+00
 -1      4013 6.84000E+01 2.79170E+01 0.00000E+00
 -1      4014 6.61500E+01 2.66180E+01 0.00000E+00
 -1      4015 6.99000E+01 2.79170E+01 0.00000E+00
 -1      4016 7.14000E+01 2.79170E+01 0.00000E+00
 -1      4017 6.91500E+01 2.66180E+01 0.00000E+00
 -1      4018 7.29000E+01 2.79170E+01 0.00000E+00
 -1      4019 7.44000E+01 2.79170E+01 0.00000E+00
 -1      4020 7.21500E+01 2.66180E+01 0.00000E+00
 -1      4021 7.59000E+01 2.79170E+01 0.00000E+00
 -1      4022 7.74000E+01 2.79170E+01 0.00000E+00
 -1      4023 7.51500E+01 2.66180E+01 0.00000E+00
 -1      4024 7.89000E+01 2.79170E+01 0.00000E+00
 -1      4025 8.04000E+01 2.79170E+01 0.00000E+00
 -1      4026 7.81500E+01 2.66180E+01 0.00000E+00
 -1      4027 8.19000E+01 2.79170E+01 0.00000E+00
 -1      4028 8.34000E+01 2.79170E+01 0.00000E+00
 -1      4029 8.11500E+01 2.66180E+01 0.00000E+00
 -1      4030 8.49000E+01 2.79170E+01 0.00000E+00
 -1      4031 8.64000E+01 2.79170E+01 0.00000E+00
 -1      4032 8.41500E+01 2.66180E+01 0.00000E+00
 -1      4033 8.79000E+01 2.79170E+01 0.00000E+00
 -1      4034 8.94000E+01 2.79170E+01 0.00000E+00
 -1      4035 8.71500E+01 2.66180E+01 0.00000E+00
 -1      4036 9.09000E+01 2.79170E+01 0.00000E+00
 -1      4037 9.24000E+01 2.79170E+01 0.00000E+00
 -1      4038 9.01500E+01 2.66180E+01 0.00000E+00
 -1      4039 9.39000E+01 2.79170E+01 0.00000E+00
 -1      4040 9.54000E+01 2.79170E+01 0.00000E+00
 -1      4041 9.31500E+01 2.66180E+01 0.00000E+00
 -1      4042 9.69000E+01 2.79170E+01 0.00000E+00
 -1      4043 9.84000E+01 2.79170E+01 0.00000E+00
 -1      4044 9.61500E+01 2.66180E+01 0.00000E+00
 -1      4045 9.99000E+01 2.79170E+01 0.00000E+00
 -1      4046 1.01400E+02 2.79170E+01 0.00000E+00
 -1      4047 9.91500E+01 2.66180E+01 0.00000E+00
 -1      4048 1.02900E+02 2.79170E+01 0.00000E+00
 -1      4049 1.04400E+02 2.79170E+01 0.00000E+00
 -1      4050 1.02150E+02 2.66180E+01 0.00000E+00
 -1      4051 1.05900E+02 2.79170E+01 0.00000E+00
 -1      4052 1.07400E+02 2.79170E+01 0.00000E+00
 -1      4053 1.05150E+02 2.66180E+01 0.00000E+00
 -1      4054 1.08900E+02 2.79170E+01 0.00000E+00
 -1      4055 1.10400E+02 2.79170E+01 0.00000E+00
 -1      4056 1.08150E+02 2.66180E+01 0.00000E+00
 -1      4057 5.27850E+01 2.08932E+01 0.00000E+00
 -1      4058 5.12850E+01 2.08932E+01 0.00000E+00
 -1      4059 6.47850E+01 2.08932E+01 0.00000E+00
 -1      4060 6.32850E+01 2.08932E+01 0.00000E+00
 -1      4061 6.17850E+01 2.08932E+01 0.00000E+00
 -1      4062 6.02850E+01 2.08932E+01 0.00000E+00
 -1      4063 5.95350E+01 2.21922E+01 0.00000E+00
 -1      4064 6.25350E+01 2.21922E+01 0.00000E+00
 -1      4065 7.07850E+01 2.08932E+01 0.00000E+00
 -1      4066 6.92850E+01 2.08932E+01 0.00000E+00
 -1      4067 7.37850E+01 2.08932E+01 0.00000E+00
 -1      4068 7.22850E+01 2.08932E+01 0.00000E+00
 -1      4069 7.15350E+01 2.21922E+01 0.00000E+00
 -1      4070 7.67850E+01 2.08932E+01 0.00000E+00
 -1      4071 7.52850E+01 2.08932E+01 0.00000E+00
 -1      4072 7.45350E+01 2.21922E+01 0.00000E+00
 -1      4073 7.97850E+01 2.08932E+01 0.00000E+00
 -1      4074 7.82850E+01 2.08932E+01 0.00000E+00
 -1      4075 7.75350E+01 2.21922E+01 0.00000E+00
 -1      4076 8.27850E+01 2.08932E+01 0.00000E+00
 -1      4077 8.12850E+01 2.08932E+01 0.00000E+00
 -1      4078 8.05350E+01 2.21922E+01 0.00000E+00
 -1      4079 8.57850E+01 2.08932E+01 0.00000E+00
 -1      4080 8.42850E+01 2.08932E+01 0.00000E+00
 -1      4081 8.35350E+01 2.21922E+01 0.00000E+00
 -1      4082 8.87850E+01 2.08932E+01 0.00000E+00
 -1      4083 8.72850E+01 2.08932E+01 0.00000E+00
 -1      4084 8.65350E+01 2.21922E+01 0.00000E+00
 -1      4085 9.17850E+01 2.08932E+01 0.00000E+00
 -1      4086 9.02850E+01 2.08932E+01 0.00000E+00
 -1      4087 8.95350E+01 2.21922E+01 0.00000E+00
 -1      4088 9.47850E+01 2.08932E+01 0.00000E+00
 -1      4089 9.32850E+01 2.08932E+01 0.00000E+00
 -1      4090 9.25350E+01 2.21922E+01 0.00000E+00
 -1      4091 9.77850E+01 2.08932E+01 0.00000E+00
 -1      4092 9.62850E+01 2.08932E+01 0.00000E+00
 -1      4093 9.55350E+01 2.21922E+01 0.00000E+00
 -1      4094 1.00785E+02 2.08932E+01 0.00000E+00
 -1      4095 9.92850E+01 2.08932E+01 0.00000E+00
 -1      4096 9.85350E+01 2.21922E+01 0.00000E+00
 -1      4097 1.03785E+02 2.08932E+01 0.00000E+00
 -1      4098 1.02285E+02 2.08932E+01 0.00000E+00
 -1      4099 1.01535E+02 2.21922E+01 0.00000E+00
 -1      4100 1.06785E+02 2.08932E+01 0.00000E+00
 -1      4101 1.05285E+02 2.08932E+01 0.00000E+00
 -1      4102 1.04535E+02 2.21922E+01 0.00000E+00
 -1      4103 1.09785E+02 2.08932E+01 0.00000E+00
 -1      4104 1.08285E+02 2.08932E+01 0.00000E+00
 -1      4105 1.07535E+02 2.21922E+01 0.00000E+00
 -1      4106 1.12785E+02 2.08932E+01 0.00000E+00
 -1      4107 1.11285E+02 2.08932E+01 0.00000E+00
 -1      4108 1.10535E+02 2.21922E+01 0.00000E+00
 -1      4109 1.18558E+02 1.97066E+01 0.00000E+00
 -1      4110 2.15569E+01 2.20426E+01 0.00000E+00
 -1      4111 1.99656E+01 2.31485E+01 0.00000E+00
 -1      4112 1.15649E+02 2.08733E+01 0.00000E+00
 -1      4113 1.14149E+02 2.08733E+01 0.00000E+00
 -1      4114 1.13399E+02 2.21723E+01 0.00000E+00
 -1      4115 1.16128E+02 2.21325E+01 0.00000E+00
 -1      4116 1.99656E+01 2.46204E+01 0.00000E+00
 -1      4117 6.77850E+01 2.08932E+01 0.00000E+00
 -1      4118 6.62850E+01 2.08932E+01 0.00000E+00
 -1      4119 6.55350E+01 2.21922E+01 0.00000E+00
 -1      4120 6.85350E+01 2.21922E+01 0.00000E+00
 -1      4121 2.49000E+01 2.79170E+01 0.00000E+00
 -1      4122 2.64000E+01 2.79170E+01 0.00000E+00
 -1      4123 2.41500E+01 2.66180E+01 0.00000E+00
 -1      4124 2.40731E+01 2.00086E+01 0.00000E+00
 -1      4125 4.07850E+01 2.08932E+01 0.00000E+00
 -1      4126 3.92850E+01 2.08932E+01 0.00000E+00
 -1      4127 3.85350E+01 2.21922E+01 0.00000E+00
 -1      4128 3.17850E+01 2.08932E+01 0.00000E+00
 -1      4129 3.02850E+01 2.08932E+01 0.00000E+00
 -1      4130 1.97893E+01 2.73973E+01 0.00000E+00
 -1      4131 3.47850E+01 2.08932E+01 0.00000E+00
 -1      4132 3.32850E+01 2.08932E+01 0.00000E+00
 -1      4133 3.55350E+01 2.21922E+01 0.00000E+00
 -1      4134 5.57850E+01 2.08932E+01 0.00000E+00
 -1      4135 5.42850E+01 2.08932E+01 0.00000E+00
 -1      4136 5.65350E+01 2.21922E+01 0.00000E+00
 -1      4137 2.05393E+01 2.60983E+01 0.00000E+00
 -1      4138 2.20763E+01 2.51401E+01 0.00000E+00
 -1      4139 5.05350E+01 2.21922E+01 0.00000E+00
 -1      4140 4.97850E+01 2.08932E+01 0.00000E+00
 -1      4141 4.82850E+01 2.08932E+01 0.00000E+00
 -1      4142 1.10864E+02 2.65187E+01 0.00000E+00
 -1      4143 1.11614E+02 2.78177E+01 0.00000E+00
 -1      4144 1.12827E+02 2.77184E+01 0.00000E+00
 -1      4145 5.35350E+01 2.21922E+01 0.00000E+00
 -1      4146 2.71500E+01 2.66180E+01 0.00000E+00
 -1      4147 2.87850E+01 2.08932E+01 0.00000E+00
 -1      4148 2.72850E+01 2.08932E+01 0.00000E+00
 -1      4149 2.95350E+01 2.21922E+01 0.00000E+00
 -1      4150 1.15756E+02 2.38090E+01 0.00000E+00
 -1      4151 2.31018E+01 2.17646E+01 0.00000E+00
 -1      4152 2.30475E+01 2.33842E+01 0.00000E+00
 -1      4153 2.36213E+01 2.48621E+01 0.00000E+00
 -1      4154 2.55637E+01 2.13502E+01 0.00000E+00
 -1      4155 1.23960E+02 3.57759E+01 0.00000E+00
 -1      4156 4.60350E+01 1.95942E+01 0.00000E+00
 -1      4157 1.13995E+02 2.74800E+01 0.00000E+00
 -1      4158 1.15209E+02 2.73807E+01 0.00000E+00
 -1      4159 1.15580E+02 2.57041E+01 0.00000E+00
 -1      4160 1.13245E+02 2.61810E+01 0.00000E+00
 -1      4161 4.22850E+01 2.08932E+01 0.00000E+00
 -1      4162 4.15350E+01 2.21922E+01 0.00000E+00
 -1      4163 4.37850E+01 2.08932E+01 0.00000E+00
 -1      4164 3.25350E+01 2.21922E+01 0.00000E+00
 -1      4165 2.98425E+01 2.44051E+01 0.00000E+00
 -1      4166 3.13425E+01 2.44051E+01 0.00000E+00
 -1      4167 4.67850E+01 2.08932E+01 0.00000E+00
 -1      4168 4.52850E+01 2.08932E+01 0.00000E+00
 -1      4169 4.45350E+01 2.21922E+01 0.00000E+00
 -1      4170 4.75350E+01 2.21922E+01 0.00000E+00
 -1      4171 3.28425E+01 2.44051E+01 0.00000E+00
 -1      4172 3.43425E+01 2.44051E+01 0.00000E+00
 -1      4173 3.58425E+01 2.44051E+01 0.00000E+00
 -1      4174 3.73425E+01 2.44051E+01 0.00000E+00
 -1      4175 3.88425E+01 2.44051E+01 0.00000E+00
 -1      4176 4.03425E+01 2.44051E+01 0.00000E+00
 -1      4177 4.18425E+01 2.44051E+01 0.00000E+00
 -1      4178 4.33425E+01 2.44051E+01 0.00000E+00
 -1      4179 4.48425E+01 2.44051E+01 0.00000E+00
 -1      4180 4.63425E+01 2.44051E+01 0.00000E+00
 -1      4181 4.78425E+01 2.44051E+01 0.00000E+00
 -1      4182 4.93425E+01 2.44051E+01 0.00000E+00
 -1      4183 5.08425E+01 2.44051E+01 0.00000E+00
 -1      4184 5.23425E+01 2.44051E+01 0.00000E+00
 -1      4185 5.38425E+01 2.44051E+01 0.00000E+00
 -1      4186 5.53425E+01 2.44051E+01 0.00000E+00
 -1      4187 5.68425E+01 2.44051E+01 0.00000E+00
 -1      4188 5.83425E+01 2.44051E+01 0.00000E+00
 -1      4189 5.98425E+01 2.44051E+01 0.00000E+00
 -1      4190 6.13425E+01 2.44051E+01 0.00000E+00
 -1      4191 6.28425E+01 2.44051E+01 0.00000E+00
 -1      4192 6.43425E+01 2.44051E+01 0.00000E+00
 -1      4193 6.58425E+01 2.44051E+01 0.00000E+00
 -1      4194 6.73425E+01 2.44051E+01 0.00000E+00
 -1      4195 6.88425E+01 2.44051E+01 0.00000E+00
 -1      4196 7.03425E+01 2.44051E+01 0.00000E+00
 -1      4197 7.18425E+01 2.44051E+01 0.00000E+00
 -1      4198 7.33425E+01 2.44051E+01 0.00000E+00
 -1      4199 7.48425E+01 2.44051E+01 0.00000E+00
 -1      4200 7.63425E+01 2.44051E+01 0.00000E+00
 -1      4201 7.78425E+01 2.44051E+01 0.00000E+00
 -1      4202 7.93425E+01 2.44051E+01 0.00000E+00
 -1      4203 8.08425E+01 2.44051E+01 0.00000E+00
 -1      4204 8.23425E+01 2.44051E+01 0.00000E+00
 -1      4205 8.38425E+01 2.44051E+01 0.00000E+00
 -1      4206 8.53425E+01 2.44051E+01 0.00000E+00
 -1      4207 8.68425E+01 2.44051E+01 0.00000E+00
 -1      4208 8.83425E+01 2.44051E+01 0.00000E+00
 -1      4209 8.98425E+01 2.44051E+01 0.00000E+00
 -1      4210 9.13425E+01 2.44051E+01 0.00000E+00
 -1      4211 9.28425E+01 2.44051E+01 0.00000E+00
 -1      4212 9.43425E+01 2.44051E+01 0.00000E+00
 -1      4213 9.58425E+01 2.44051E+01 0.00000E+00
 -1      4214 9.73425E+01 2.44051E+01 0.00000E+00
 -1      4215 9.88425E+01 2.44051E+01 0.00000E+00
 -1      4216 1.00342E+02 2.44051E+01 0.00000E+00
 -1      4217 1.01842E+02 2.44051E+01 0.00000E+00
 -1      4218 1.03342E+02 2.44051E+01 0.00000E+00
 -1      4219 1.04842E+02 2.44051E+01 0.00000E+00
 -1      4220 1.06342E+02 2.44051E+01 0.00000E+00
 -1      4221 1.07842E+02 2.44051E+01 0.00000E+00
 -1      4222 1.09342E+02 2.44051E+01 0.00000E+00
 -1      4223 2.51213E+01 2.48621E+01 0.00000E+00
 -1      4224 1.10842E+02 2.44051E+01 0.00000E+00
 -1      4225 1.14588E+02 2.40475E+01 0.00000E+00
 -1      4226 1.13224E+02 2.40674E+01 0.00000E+00
 -1      4227 2.83425E+01 2.44051E+01 0.00000E+00
 -1      4228 2.68425E+01 2.44051E+01 0.00000E+00
 -1      4229 2.63137E+01 2.26492E+01 0.00000E+00
 -1      4230 1.12056E+02 2.43058E+01 0.00000E+00
 -1      4231 1.24502E+02 3.65890E+01 0.00000E+00
 -3
    3C                          2033                                     1
 -1       166    8    0    1
 -2         6         7        23      1100      1265      1117
 -1       167    8    0    1
 -2         7         8       166      1101      1266      1267
 -1       168    8    0    1
 -2         8         9       167      1102      1268      1269
 -1       169    8    0    1
 -2         8       167       166      1269      1270      1266
 -1       170    8    0    1
 -2         9        10       168      1103      1271      1272
 -1       171    8    0    1
 -2         9       168       167      1272      1273      1268
 -1       172    8    0    1
 -2        10        11       169      1104      1274      1275
 -1       173    8    0    1
 -2        10       169       168      1275      1276      1271
 -1       174    8    0    1
 -2        11        12       170      1105      1277      1278
 -1       175    8    0    1
 -2        11       170       169      1278      1279      1274
 -1       176    8    0    1
 -2        12        13       171      1106      1280      1281
 -1       177    8    0    1
 -2        12       171       170      1281      1282      1277
 -1       178    8    0    1
 -2        13        14       172      1107      1283      1284
 -1       179    8    0    1
 -2        13       172       171      1284      1285      1280
 -1       180    8    0    1
 -2        14        15       173      1108      1286      1287
 -1       181    8    0    1
 -2        14       173       172      1287      1288      1283
 -1       182    8    0    1
 -2        15        16       174      1109      1289      1290
 -1       183    8    0    1
 -2        15       174       173      1290      1291      1286
 -1       184    8    0    1
 -2        16        17       175      1110      1292      1293
 -1       185    8    0    1
 -2        16       175       174      1293      1294      1289
 -1       186    8    0    1
 -2        17        18       176      1111      1295      1296
 -1       187    8    0    1
 -2        17       176       175      1296      1297      1292
 -1       188    8    0    1
 -2        18        19       177      1112      1298      1299
 -1       189    8    0    1
 -2        18       177       176      1299      1300      1295
 -1       190    8    0    1
 -2        19        20       178      1113      1301      1302
 -1       191    8    0    1
 -2        19       178       177      1302      1303      1298
 -1       192    8    0    1
 -2        20        21       179      1114      1304      1305
 -1       193    8    0    1
 -2        20       179       178      1305      1306      1301
 -1       194    8    0    1
 -2        21        22       180      1115      1307      1308
 -1       195    8    0    1
 -2        21       180       179      1308      1309      1304
 -1       196    8    0    1
 -2        22         5       181      1116      1310      1311
 -1       197    8    0    1
 -2       180        22       181      1307      1311      1312
 -1       198    8    0    1
 -2         5        72       181      1167      1313      1310
 -1       199    8    0    1
 -2        24        23       182      1118      1314      1315
 -1       200    8    0    1
 -2        25        24       183      1119      1316      1317
 -1       201    8    0    1
 -2        24       182       183      1315      1318      1316
 -1       202    8    0    1
 -2        26        25       184      1120      1319      1320
 -1       203    8    0    1
 -2        25       183       184      1317      1321      1319
 -1       204    8    0    1
 -2        27        26       185      1121      1322      1323
 -1       205    8    0    1
 -2        26       184       185      1320      1324      1322
 -1       206    8    0    1
 -2        28        27       186      1122      1325      1326
 -1       207    8    0    1
 -2        27       185       186      1323      1327      1325
 -1       208    8    0    1
 -2        29        28       187      1123      1328      1329
 -1       209    8    0    1
 -2        28       186       187      1326      1330      1328
 -1       210    8    0    1
 -2        30        29       188      1124      1331      1332
 -1       211    8    0    1
 -2        29       187       188      1329      1333      1331
 -1       212    8    0    1
 -2        31        30       189      1125      1334      1335
 -1       213    8    0    1
 -2        30       188       189      1332      1336      1334
 -1       214    8    0    1
 -2        32        31       190      1126      1337      1338
 -1       215    8    0    1
 -2        31       189       190      1335      1339      1337
 -1       216    8    0    1
 -2        33        32       191      1127      1340      1341
 -1       217    8    0    1
 -2        32       190       191      1338      1342      1340
 -1       218    8    0    1
 -2        34        33       192      1128      1343      1344
 -1       219    8    0    1
 -2        33       191       192      1341      1345      1343
 -1       220    8    0    1
 -2        35        34       193      1129      1346      1347
 -1       221    8    0    1
 -2        34       192       193      1344      1348      1346
 -1       222    8    0    1
 -2        36        35       194      1130      1349      1350
 -1       223    8    0    1
 -2        35       193       194      1347      1351      1349
 -1       224    8    0    1
 -2        37        36       195      1131      1352      1353
 -1       225    8    0    1
 -2        36       194       195      1350      1354      1352
 -1       226    8    0    1
 -2        38        37       196      1132      1355      1356
 -1       227    8    0    1
 -2        37       195       196      1353      1357      1355
 -1       228    8    0    1
 -2        39        38       197      1133      1358      1359
 -1       229    8    0    1
 -2        38       196       197      1356      1360      1358
 -1       230    8    0    1
 -2        40        39       198      1134      1361      1362
 -1       231    8    0    1
 -2        39       197       198      1359      1363      1361
 -1       232    8    0    1
 -2        41        40       199      1135      1364      1365
 -1       233    8    0    1
 -2        40       198       199      1362      1366      1364
 -1       234    8    0    1
 -2        42        41       200      1136      1367      1368
 -1       235    8    0    1
 -2        41       199       200      1365      1369      1367
 -1       236    8    0    1
 -2        43        42       201      1137      1370      1371
 -1       237    8    0    1
 -2        42       200       201      1368      1372      1370
 -1       238    8    0    1
 -2        44        43       202      1138      1373      1374
 -1       239    8    0    1
 -2        43       201       202      1371      1375      1373
 -1       240    8    0    1
 -2        45        44       203      1139      1376      1377
 -1       241    8    0    1
 -2        44       202       203      1374      1378      1376
 -1       242    8    0    1
 -2        46        45       204      1140      1379      1380
 -1       243    8    0    1
 -2        45       203       204      1377      1381      1379
 -1       244    8    0    1
 -2        47        46       205      1141      1382      1383
 -1       245    8    0    1
 -2        46       204       205      1380      1384      1382
 -1       246    8    0    1
 -2        48        47       206      1142      1385      1386
 -1       247    8    0    1
 -2        47       205       206      1383      1387      1385
 -1       248    8    0    1
 -2        49        48       207      1143      1388      1389
 -1       249    8    0    1
 -2        48       206       207      1386      1390      1388
 -1       250    8    0    1
 -2        50        49       208      1144      1391      1392
 -1       251    8    0    1
 -2        49       207       208      1389      1393      1391
 -1       252    8    0    1
 -2        51        50       209      1145      1394      1395
 -1       253    8    0    1
 -2        50       208       209      1392      1396      1394
 -1       254    8    0    1
 -2        52        51       210      1146      1397      1398
 -1       255    8    0    1
 -2        51       209       210      1395      1399      1397
 -1       256    8    0    1
 -2        53        52       211      1147      1400      1401
 -1       257    8    0    1
 -2        52       210       211      1398      1402      1400
 -1       258    8    0    1
 -2        54        53       212      1148      1403      1404
 -1       259    8    0    1
 -2        53       211       212      1401      1405      1403
 -1       260    8    0    1
 -2        55        54       213      1149      1406      1407
 -1       261    8    0    1
 -2        54       212       213      1404      1408      1406
 -1       262    8    0    1
 -2        56        55       214      1150      1409      1410
 -1       263    8    0    1
 -2        55       213       214      1407      1411      1409
 -1       264    8    0    1
 -2        57        56       215      1151      1412      1413
 -1       265    8    0    1
 -2        56       214       215      1410      1414      1412
 -1       266    8    0    1
 -2        58        57       216      1152      1415      1416
 -1       267    8    0    1
 -2        57       215       216      1413      1417      1415
 -1       268    8    0    1
 -2        59        58       217      1153      1418      1419
 -1       269    8    0    1
 -2        58       216       217      1416      1420      1418
 -1       270    8    0    1
 -2        60        59       218      1154      1421      1422
 -1       271    8    0    1
 -2        59       217       218      1419      1423      1421
 -1       272    8    0    1
 -2        61        60       219      1155      1424      1425
 -1       273    8    0    1
 -2        60       218       219      1422      1426      1424
 -1       274    8    0    1
 -2        62        61       220      1156      1427      1428
 -1       275    8    0    1
 -2        61       219       220      1425      1429      1427
 -1       276    8    0    1
 -2        63        62       221      1157      1430      1431
 -1       277    8    0    1
 -2        62       220       221      1428      1432      1430
 -1       278    8    0    1
 -2        64        63       222      1158      1433      1434
 -1       279    8    0    1
 -2        63       221       222      1431      1435      1433
 -1       280    8    0    1
 -2        65        64       223      1159      1436      1437
 -1       281    8    0    1
 -2        64       222       223      1434      1438      1436
 -1       282    8    0    1
 -2        66        65       224      1160      1439      1440
 -1       283    8    0    1
 -2        65       223       224      1437      1441      1439
 -1       284    8    0    1
 -2        67        66       225      1161      1442      1443
 -1       285    8    0    1
 -2        66       224       225      1440      1444      1442
 -1       286    8    0    1
 -2        68        67       226      1162      1445      1446
 -1       287    8    0    1
 -2        67       225       226      1443      1447      1445
 -1       288    8    0    1
 -2        69        68       227      1163      1448      1449
 -1       289    8    0    1
 -2        68       226       227      1446      1450      1448
 -1       290    8    0    1
 -2        70        69       228      1164      1451      1452
 -1       291    8    0    1
 -2        69       227       228      1449      1453      1451
 -1       292    8    0    1
 -2        71        70       229      1165      1454      1455
 -1       293    8    0    1
 -2        70       228       229      1452      1456      1454
 -1       294    8    0    1
 -2         4        71       138      1166      1457      1235
 -1       295    8    0    1
 -2       138        71       229      1457      1455      1458
 -1       296    8    0    1
 -2        72        73       230      1168      1459      1460
 -1       297    8    0    1
 -2        72       230       181      1460      1461      1313
 -1       298    8    0    1
 -2        73        74       231      1169      1462      1463
 -1       299    8    0    1
 -2        73       231       230      1463      1464      1459
 -1       300    8    0    1
 -2        74        75       232      1170      1465      1466
 -1       301    8    0    1
 -2        74       232       231      1466      1467      1462
 -1       302    8    0    1
 -2        75        76       233      1171      1468      1469
 -1       303    8    0    1
 -2        75       233       232      1469      1470      1465
 -1       304    8    0    1
 -2        76        77       234      1172      1471      1472
 -1       305    8    0    1
 -2        76       234       233      1472      1473      1468
 -1       306    8    0    1
 -2        77        78       235      1173      1474      1475
 -1       307    8    0    1
 -2        77       235       234      1475      1476      1471
 -1       308    8    0    1
 -2        78        79       236      1174      1477      1478
 -1       309    8    0    1
 -2        78       236       235      1478      1479      1474
 -1       310    8    0    1
 -2        79        80       237      1175      1480      1481
 -1       311    8    0    1
 -2        79       237       236      1481      1482      1477
 -1       312    8    0    1
 -2        80        81       238      1176      1483      1484
 -1       313    8    0    1
 -2        80       238       237      1484      1485      1480
 -1       314    8    0    1
 -2        81        82       239      1177      1486      1487
 -1       315    8    0    1
 -2        81       239       238      1487      1488      1483
 -1       316    8    0    1
 -2        82        83       240      1178      1489      1490
 -1       317    8    0    1
 -2        82       240       239      1490      1491      1486
 -1       318    8    0    1
 -2        83        84       241      1179      1492      1493
 -1       319    8    0    1
 -2        83       241       240      1493      1494      1489
 -1       320    8    0    1
 -2        84        85       242      1180      1495      1496
 -1       321    8    0    1
 -2        84       242       241      1496      1497      1492
 -1       322    8    0    1
 -2        85        86       243      1181      1498      1499
 -1       323    8    0    1
 -2        85       243       242      1499      1500      1495
 -1       324    8    0    1
 -2        86        87       244      1182      1501      1502
 -1       325    8    0    1
 -2        86       244       243      1502      1503      1498
 -1       326    8    0    1
 -2        87        88       245      1183      1504      1505
 -1       327    8    0    1
 -2        87       245       244      1505      1506      1501
 -1       328    8    0    1
 -2        88        89       246      1184      1507      1508
 -1       329    8    0    1
 -2        88       246       245      1508      1509      1504
 -1       330    8    0    1
 -2        89        90       247      1185      1510      1511
 -1       331    8    0    1
 -2        89       247       246      1511      1512      1507
 -1       332    8    0    1
 -2        90        91       248      1186      1513      1514
 -1       333    8    0    1
 -2        90       248       247      1514      1515      1510
 -1       334    8    0    1
 -2        91        92       249      1187      1516      1517
 -1       335    8    0    1
 -2        91       249       248      1517      1518      1513
 -1       336    8    0    1
 -2        92        93       250      1188      1519      1520
 -1       337    8    0    1
 -2        92       250       249      1520      1521      1516
 -1       338    8    0    1
 -2        93        94       251      1189      1522      1523
 -1       339    8    0    1
 -2        93       251       250      1523      1524      1519
 -1       340    8    0    1
 -2        94        95       252      1190      1525      1526
 -1       341    8    0    1
 -2        94       252       251      1526      1527      1522
 -1       342    8    0    1
 -2        95        96       253      1191      1528      1529
 -1       343    8    0    1
 -2        95       253       252      1529      1530      1525
 -1       344    8    0    1
 -2        96        97       254      1192      1531      1532
 -1       345    8    0    1
 -2        96       254       253      1532      1533      1528
 -1       346    8    0    1
 -2        97        98       255      1193      1534      1535
 -1       347    8    0    1
 -2        97       255       254      1535      1536      1531
 -1       348    8    0    1
 -2        98        99       256      1194      1537      1538
 -1       349    8    0    1
 -2        98       256       255      1538      1539      1534
 -1       350    8    0    1
 -2        99       100       257      1195      1540      1541
 -1       351    8    0    1
 -2        99       257       256      1541      1542      1537
 -1       352    8    0    1
 -2       100       101       258      1196      1543      1544
 -1       353    8    0    1
 -2       100       258       257      1544      1545      1540
 -1       354    8    0    1
 -2       101       102       259      1197      1546      1547
 -1       355    8    0    1
 -2       101       259       258      1547      1548      1543
 -1       356    8    0    1
 -2       102       103       260      1198      1549      1550
 -1       357    8    0    1
 -2       102       260       259      1550      1551      1546
 -1       358    8    0    1
 -2       103       104       261      1199      1552      1553
 -1       359    8    0    1
 -2       103       261       260      1553      1554      1549
 -1       360    8    0    1
 -2       104       105       262      1200      1555      1556
 -1       361    8    0    1
 -2       104       262       261      1556      1557      1552
 -1       362    8    0    1
 -2       105       106       263      1201      1558      1559
 -1       363    8    0    1
 -2       105       263       262      1559      1560      1555
 -1       364    8    0    1
 -2       106       107       264      1202      1561      1562
 -1       365    8    0    1
 -2       106       264       263      1562      1563      1558
 -1       366    8    0    1
 -2       107       108       265      1203      1564      1565
 -1       367    8    0    1
 -2       107       265       264      1565      1566      1561
 -1       368    8    0    1
 -2       108       109       266      1204      1567      1568
 -1       369    8    0    1
 -2       108       266       265      1568      1569      1564
 -1       370    8    0    1
 -2       109       110       267      1205      1570      1571
 -1       371    8    0    1
 -2       109       267       266      1571      1572      1567
 -1       372    8    0    1
 -2       110       111       268      1206      1573      1574
 -1       373    8    0    1
 -2       110       268       267      1574      1575      1570
 -1       374    8    0    1
 -2       111       112       269      1207      1576      1577
 -1       375    8    0    1
 -2       111       269       268      1577      1578      1573
 -1       376    8    0    1
 -2       112       113       270      1208      1579      1580
 -1       377    8    0    1
 -2       112       270       269      1580      1581      1576
 -1       378    8    0    1
 -2       113       114       271      1209      1582      1583
 -1       379    8    0    1
 -2       113       271       270      1583      1584      1579
 -1       380    8    0    1
 -2       114       115       272      1210      1585      1586
 -1       381    8    0    1
 -2       114       272       271      1586      1587      1582
 -1       382    8    0    1
 -2       115       116       273      1211      1588      1589
 -1       383    8    0    1
 -2       115       273       272      1589      1590      1585
 -1       384    8    0    1
 -2       116       117       274      1212      1591      1592
 -1       385    8    0    1
 -2       116       274       273      1592      1593      1588
 -1       386    8    0    1
 -2       117       118       275      1213      1594      1595
 -1       387    8    0    1
 -2       117       275       274      1595      1596      1591
 -1       388    8    0    1
 -2       118       119       276      1214      1597      1598
 -1       389    8    0    1
 -2       118       276       275      1598      1599      1594
 -1       390    8    0    1
 -2       119       120       277      1215      1600      1601
 -1       391    8    0    1
 -2       119       277       276      1601      1602      1597
 -1       392    8    0    1
 -2       120         3       121      1216      1217      1603
 -1       393    8    0    1
 -2       121       122       278      1218      1604      1605
 -1       394    8    0    1
 -2       122       123       279      1219      1606      1607
 -1       395    8    0    1
 -2       122       279       278      1607      1608      1604
 -1       396    8    0    1
 -2       123       124       280      1220      1609      1610
 -1       397    8    0    1
 -2       123       280       279      1610      1611      1606
 -1       398    8    0    1
 -2       124       125       281      1221      1612      1613
 -1       399    8    0    1
 -2       124       281       280      1613      1614      1609
 -1       400    8    0    1
 -2       125       126       282      1222      1615      1616
 -1       401    8    0    1
 -2       125       282       281      1616      1617      1612
 -1       402    8    0    1
 -2       126       127       283      1223      1618      1619
 -1       403    8    0    1
 -2       126       283       282      1619      1620      1615
 -1       404    8    0    1
 -2       128       129       284      1225      1621      1622
 -1       405    8    0    1
 -2       129       130       285      1226      1623      1624
 -1       406    8    0    1
 -2       129       285       284      1624      1625      1621
 -1       407    8    0    1
 -2       130       131       286      1227      1626      1627
 -1       408    8    0    1
 -2       130       286       285      1627      1628      1623
 -1       409    8    0    1
 -2       131       132       287      1228      1629      1630
 -1       410    8    0    1
 -2       131       287       286      1630      1631      1626
 -1       411    8    0    1
 -2       132       133       288      1229      1632      1633
 -1       412    8    0    1
 -2       132       288       287      1633      1634      1629
 -1       413    8    0    1
 -2       133       134       289      1230      1635      1636
 -1       414    8    0    1
 -2       133       289       288      1636      1637      1632
 -1       415    8    0    1
 -2       134       135       290      1231      1638      1639
 -1       416    8    0    1
 -2       134       290       289      1639      1640      1635
 -1       417    8    0    1
 -2       135       136       291      1232      1641      1642
 -1       418    8    0    1
 -2       135       291       290      1642      1643      1638
 -1       419    8    0    1
 -2       136       137       292      1233      1644      1645
 -1       420    8    0    1
 -2       136       292       291      1645      1646      1641
 -1       421    8    0    1
 -2       137       138       293      1234      1647      1648
 -1       422    8    0    1
 -2       292       137       293      1644      1648      1649
 -1       423    8    0    1
 -2       138       229       293      1458      1650      1647
 -1       424    8    0    1
 -2         2       139       294      1236      1651      1652
 -1       425    8    0    1
 -2       139       140       295      1237      1653      1654
 -1       426    8    0    1
 -2       140       141       296      1238      1655      1656
 -1       427    8    0    1
 -2       141       142       297      1239      1657      1658
 -1       428    8    0    1
 -2       142       143       298      1240      1659      1660
 -1       429    8    0    1
 -2       143       144       299      1241      1661      1662
 -1       430    8    0    1
 -2       144       145       300      1242      1663      1664
 -1       431    8    0    1
 -2       145       146       301      1243      1665      1666
 -1       432    8    0    1
 -2       146       147       302      1244      1667      1668
 -1       433    8    0    1
 -2       147       148       303      1245      1669      1670
 -1       434    8    0    1
 -2       148       149       304      1246      1671      1672
 -1       435    8    0    1
 -2       149       150       305      1247      1673      1674
 -1       436    8    0    1
 -2       150       151       306      1248      1675      1676
 -1       437    8    0    1
 -2       151       152       307      1249      1677      1678
 -1       438    8    0    1
 -2       152       153       308      1250      1679      1680
 -1       439    8    0    1
 -2       153       154       309      1251      1681      1682
 -1       440    8    0    1
 -2       154       155       310      1252      1683      1684
 -1       441    8    0    1
 -2       155       156       311      1253      1685      1686
 -1       442    8    0    1
 -2       156       157       312      1254      1687      1688
 -1       443    8    0    1
 -2       157       158       313      1255      1689      1690
 -1       444    8    0    1
 -2       158       159       314      1256      1691      1692
 -1       445    8    0    1
 -2       159         1       315      1257      1693      1694
 -1       446    8    0    1
 -2         1       160       316      1258      1695      1696
 -1       447    8    0    1
 -2       160       161       317      1259      1697      1698
 -1       448    8    0    1
 -2       161       162       318      1260      1699      1700
 -1       449    8    0    1
 -2       162       163       319      1261      1701      1702
 -1       450    8    0    1
 -2       163       164       320      1262      1703      1704
 -1       451    8    0    1
 -2       164       165       321      1263      1705      1706
 -1       452    8    0    1
 -2       165         2       322      1264      1707      1708
 -1       453    8    0    1
 -2       296       141       297      1655      1658      1709
 -1       454    8    0    1
 -2       120       121       277      1603      1710      1600
 -1       455    8    0    1
 -2       121       278       277      1605      1711      1710
 -1       456    8    0    1
 -2       283       127       323      1618      1712      1713
 -1       457    8    0    1
 -2       127       128       323      1224      1714      1712
 -1       458    8    0    1
 -2       294       139       295      1651      1654      1715
 -1       459    8    0    1
 -2       295       140       296      1653      1656      1716
 -1       460    8    0    1
 -2         2       294       322      1652      1717      1707
 -1       461    8    0    1
 -2       142       298       297      1660      1718      1657
 -1       462    8    0    1
 -2       143       299       298      1662      1719      1659
 -1       463    8    0    1
 -2       144       300       299      1664      1720      1661
 -1       464    8    0    1
 -2       145       301       300      1666      1721      1663
 -1       465    8    0    1
 -2       146       302       301      1668      1722      1665
 -1       466    8    0    1
 -2       147       303       302      1670      1723      1667
 -1       467    8    0    1
 -2       148       304       303      1672      1724      1669
 -1       468    8    0    1
 -2       149       305       304      1674      1725      1671
 -1       469    8    0    1
 -2       150       306       305      1676      1726      1673
 -1       470    8    0    1
 -2       151       307       306      1678      1727      1675
 -1       471    8    0    1
 -2       152       308       307      1680      1728      1677
 -1       472    8    0    1
 -2       153       309       308      1682      1729      1679
 -1       473    8    0    1
 -2       154       310       309      1684      1730      1681
 -1       474    8    0    1
 -2       155       311       310      1686      1731      1683
 -1       475    8    0    1
 -2       156       312       311      1688      1732      1685
 -1       476    8    0    1
 -2       157       313       312      1690      1733      1687
 -1       477    8    0    1
 -2       158       314       313      1692      1734      1689
 -1       478    8    0    1
 -2       159       315       314      1694      1735      1691
 -1       479    8    0    1
 -2         1       316       315      1696      1736      1693
 -1       480    8    0    1
 -2       160       317       316      1698      1737      1695
 -1       481    8    0    1
 -2       161       318       317      1700      1738      1697
 -1       482    8    0    1
 -2       162       319       318      1702      1739      1699
 -1       483    8    0    1
 -2       163       320       319      1704      1740      1701
 -1       484    8    0    1
 -2       164       321       320      1706      1741      1703
 -1       485    8    0    1
 -2       165       322       321      1708      1742      1705
 -1       486    8    0    1
 -2        23         7       166      1265      1267      1743
 -1       487    8    0    1
 -2       323       128       284      1714      1622      1744
 -1       488    8    0    1
 -2       167       168       324      1273      1745      1746
 -1       489    8    0    1
 -2       166       167       325      1270      1747      1748
 -1       490    8    0    1
 -2       167       324       325      1746      1749      1747
 -1       491    8    0    1
 -2       169       170       326      1279      1750      1751
 -1       492    8    0    1
 -2       170       171       327      1282      1752      1753
 -1       493    8    0    1
 -2       170       327       326      1753      1754      1750
 -1       494    8    0    1
 -2       171       172       328      1285      1755      1756
 -1       495    8    0    1
 -2       171       328       327      1756      1757      1752
 -1       496    8    0    1
 -2       172       173       329      1288      1758      1759
 -1       497    8    0    1
 -2       172       329       328      1759      1760      1755
 -1       498    8    0    1
 -2       173       174       330      1291      1761      1762
 -1       499    8    0    1
 -2       173       330       329      1762      1763      1758
 -1       500    8    0    1
 -2       174       175       331      1294      1764      1765
 -1       501    8    0    1
 -2       174       331       330      1765      1766      1761
 -1       502    8    0    1
 -2       175       176       332      1297      1767      1768
 -1       503    8    0    1
 -2       175       332       331      1768      1769      1764
 -1       504    8    0    1
 -2       176       177       333      1300      1770      1771
 -1       505    8    0    1
 -2       176       333       332      1771      1772      1767
 -1       506    8    0    1
 -2       177       178       334      1303      1773      1774
 -1       507    8    0    1
 -2       177       334       333      1774      1775      1770
 -1       508    8    0    1
 -2       178       179       335      1306      1776      1777
 -1       509    8    0    1
 -2       178       335       334      1777      1778      1773
 -1       510    8    0    1
 -2       179       180       336      1309      1779      1780
 -1       511    8    0    1
 -2       179       336       335      1780      1781      1776
 -1       512    8    0    1
 -2       180       181       337      1312      1782      1783
 -1       513    8    0    1
 -2       336       180       337      1779      1783      1784
 -1       514    8    0    1
 -2       181       230       337      1461      1785      1782
 -1       515    8    0    1
 -2       182        23       166      1314      1743      1786
 -1       516    8    0    1
 -2       230       231       338      1464      1787      1788
 -1       517    8    0    1
 -2       230       338       337      1788      1789      1785
 -1       518    8    0    1
 -2       323       284       296      1744      1790      1791
 -1       519    8    0    1
 -2       182       166       325      1786      1748      1792
 -1       520    8    0    1
 -2       184       183       339      1321      1793      1794
 -1       521    8    0    1
 -2       185       184       340      1324      1795      1796
 -1       522    8    0    1
 -2       184       339       340      1794      1797      1795
 -1       523    8    0    1
 -2       186       185       341      1327      1798      1799
 -1       524    8    0    1
 -2       185       340       341      1796      1800      1798
 -1       525    8    0    1
 -2       187       186       342      1330      1801      1802
 -1       526    8    0    1
 -2       186       341       342      1799      1803      1801
 -1       527    8    0    1
 -2       188       187       343      1333      1804      1805
 -1       528    8    0    1
 -2       187       342       343      1802      1806      1804
 -1       529    8    0    1
 -2       189       188       344      1336      1807      1808
 -1       530    8    0    1
 -2       188       343       344      1805      1809      1807
 -1       531    8    0    1
 -2       190       189       345      1339      1810      1811
 -1       532    8    0    1
 -2       189       344       345      1808      1812      1810
 -1       533    8    0    1
 -2       191       190       346      1342      1813      1814
 -1       534    8    0    1
 -2       190       345       346      1811      1815      1813
 -1       535    8    0    1
 -2       192       191       347      1345      1816      1817
 -1       536    8    0    1
 -2       191       346       347      1814      1818      1816
 -1       537    8    0    1
 -2       193       192       348      1348      1819      1820
 -1       538    8    0    1
 -2       192       347       348      1817      1821      1819
 -1       539    8    0    1
 -2       194       193       349      1351      1822      1823
 -1       540    8    0    1
 -2       193       348       349      1820      1824      1822
 -1       541    8    0    1
 -2       195       194       350      1354      1825      1826
 -1       542    8    0    1
 -2       194       349       350      1823      1827      1825
 -1       543    8    0    1
 -2       196       195       351      1357      1828      1829
 -1       544    8    0    1
 -2       195       350       351      1826      1830      1828
 -1       545    8    0    1
 -2       197       196       352      1360      1831      1832
 -1       546    8    0    1
 -2       196       351       352      1829      1833      1831
 -1       547    8    0    1
 -2       198       197       353      1363      1834      1835
 -1       548    8    0    1
 -2       197       352       353      1832      1836      1834
 -1       549    8    0    1
 -2       199       198       354      1366      1837      1838
 -1       550    8    0    1
 -2       198       353       354      1835      1839      1837
 -1       551    8    0    1
 -2       200       199       355      1369      1840      1841
 -1       552    8    0    1
 -2       199       354       355      1838      1842      1840
 -1       553    8    0    1
 -2       201       200       356      1372      1843      1844
 -1       554    8    0    1
 -2       200       355       356      1841      1845      1843
 -1       555    8    0    1
 -2       202       201       357      1375      1846      1847
 -1       556    8    0    1
 -2       201       356       357      1844      1848      1846
 -1       557    8    0    1
 -2       203       202       358      1378      1849      1850
 -1       558    8    0    1
 -2       202       357       358      1847      1851      1849
 -1       559    8    0    1
 -2       204       203       359      1381      1852      1853
 -1       560    8    0    1
 -2       203       358       359      1850      1854      1852
 -1       561    8    0    1
 -2       205       204       360      1384      1855      1856
 -1       562    8    0    1
 -2       204       359       360      1853      1857      1855
 -1       563    8    0    1
 -2       206       205       361      1387      1858      1859
 -1       564    8    0    1
 -2       205       360       361      1856      1860      1858
 -1       565    8    0    1
 -2       207       206       362      1390      1861      1862
 -1       566    8    0    1
 -2       206       361       362      1859      1863      1861
 -1       567    8    0    1
 -2       208       207       363      1393      1864      1865
 -1       568    8    0    1
 -2       207       362       363      1862      1866      1864
 -1       569    8    0    1
 -2       209       208       364      1396      1867      1868
 -1       570    8    0    1
 -2       208       363       364      1865      1869      1867
 -1       571    8    0    1
 -2       210       209       365      1399      1870      1871
 -1       572    8    0    1
 -2       209       364       365      1868      1872      1870
 -1       573    8    0    1
 -2       211       210       366      1402      1873      1874
 -1       574    8    0    1
 -2       210       365       366      1871      1875      1873
 -1       575    8    0    1
 -2       212       211       367      1405      1876      1877
 -1       576    8    0    1
 -2       211       366       367      1874      1878      1876
 -1       577    8    0    1
 -2       213       212       368      1408      1879      1880
 -1       578    8    0    1
 -2       212       367       368      1877      1881      1879
 -1       579    8    0    1
 -2       214       213       369      1411      1882      1883
 -1       580    8    0    1
 -2       213       368       369      1880      1884      1882
 -1       581    8    0    1
 -2       215       214       370      1414      1885      1886
 -1       582    8    0    1
 -2       214       369       370      1883      1887      1885
 -1       583    8    0    1
 -2       216       215       371      1417      1888      1889
 -1       584    8    0    1
 -2       215       370       371      1886      1890      1888
 -1       585    8    0    1
 -2       217       216       372      1420      1891      1892
 -1       586    8    0    1
 -2       216       371       372      1889      1893      1891
 -1       587    8    0    1
 -2       218       217       373      1423      1894      1895
 -1       588    8    0    1
 -2       217       372       373      1892      1896      1894
 -1       589    8    0    1
 -2       219       218       374      1426      1897      1898
 -1       590    8    0    1
 -2       218       373       374      1895      1899      1897
 -1       591    8    0    1
 -2       220       219       375      1429      1900      1901
 -1       592    8    0    1
 -2       219       374       375      1898      1902      1900
 -1       593    8    0    1
 -2       221       220       376      1432      1903      1904
 -1       594    8    0    1
 -2       220       375       376      1901      1905      1903
 -1       595    8    0    1
 -2       222       221       377      1435      1906      1907
 -1       596    8    0    1
 -2       221       376       377      1904      1908      1906
 -1       597    8    0    1
 -2       223       222       378      1438      1909      1910
 -1       598    8    0    1
 -2       222       377       378      1907      1911      1909
 -1       599    8    0    1
 -2       224       223       379      1441      1912      1913
 -1       600    8    0    1
 -2       223       378       379      1910      1914      1912
 -1       601    8    0    1
 -2       225       224       380      1444      1915      1916
 -1       602    8    0    1
 -2       224       379       380      1913      1917      1915
 -1       603    8    0    1
 -2       226       225       381      1447      1918      1919
 -1       604    8    0    1
 -2       225       380       381      1916      1920      1918
 -1       605    8    0    1
 -2       227       226       382      1450      1921      1922
 -1       606    8    0    1
 -2       226       381       382      1919      1923      1921
 -1       607    8    0    1
 -2       228       227       383      1453      1924      1925
 -1       608    8    0    1
 -2       227       382       383      1922      1926      1924
 -1       609    8    0    1
 -2       229       228       384      1456      1927      1928
 -1       610    8    0    1
 -2       228       383       384      1925      1929      1927
 -1       611    8    0    1
 -2       286       287       322      1631      1930      1931
 -1       612    8    0    1
 -2       231       232       385      1467      1932      1933
 -1       613    8    0    1
 -2       231       385       338      1933      1934      1787
 -1       614    8    0    1
 -2       232       233       386      1470      1935      1936
 -1       615    8    0    1
 -2       232       386       385      1936      1937      1932
 -1       616    8    0    1
 -2       233       234       387      1473      1938      1939
 -1       617    8    0    1
 -2       233       387       386      1939      1940      1935
 -1       618    8    0    1
 -2       234       235       388      1476      1941      1942
 -1       619    8    0    1
 -2       234       388       387      1942      1943      1938
 -1       620    8    0    1
 -2       235       236       389      1479      1944      1945
 -1       621    8    0    1
 -2       235       389       388      1945      1946      1941
 -1       622    8    0    1
 -2       236       237       390      1482      1947      1948
 -1       623    8    0    1
 -2       236       390       389      1948      1949      1944
 -1       624    8    0    1
 -2       237       238       391      1485      1950      1951
 -1       625    8    0    1
 -2       237       391       390      1951      1952      1947
 -1       626    8    0    1
 -2       238       239       392      1488      1953      1954
 -1       627    8    0    1
 -2       238       392       391      1954      1955      1950
 -1       628    8    0    1
 -2       239       240       393      1491      1956      1957
 -1       629    8    0    1
 -2       239       393       392      1957      1958      1953
 -1       630    8    0    1
 -2       240       241       394      1494      1959      1960
 -1       631    8    0    1
 -2       240       394       393      1960      1961      1956
 -1       632    8    0    1
 -2       241       242       395      1497      1962      1963
 -1       633    8    0    1
 -2       241       395       394      1963      1964      1959
 -1       634    8    0    1
 -2       242       243       396      1500      1965      1966
 -1       635    8    0    1
 -2       242       396       395      1966      1967      1962
 -1       636    8    0    1
 -2       243       244       397      1503      1968      1969
 -1       637    8    0    1
 -2       243       397       396      1969      1970      1965
 -1       638    8    0    1
 -2       244       245       398      1506      1971      1972
 -1       639    8    0    1
 -2       244       398       397      1972      1973      1968
 -1       640    8    0    1
 -2       245       246       399      1509      1974      1975
 -1       641    8    0    1
 -2       245       399       398      1975      1976      1971
 -1       642    8    0    1
 -2       246       247       400      1512      1977      1978
 -1       643    8    0    1
 -2       246       400       399      1978      1979      1974
 -1       644    8    0    1
 -2       247       248       401      1515      1980      1981
 -1       645    8    0    1
 -2       247       401       400      1981      1982      1977
 -1       646    8    0    1
 -2       248       249       402      1518      1983      1984
 -1       647    8    0    1
 -2       248       402       401      1984      1985      1980
 -1       648    8    0    1
 -2       249       250       403      1521      1986      1987
 -1       649    8    0    1
 -2       249       403       402      1987      1988      1983
 -1       650    8    0    1
 -2       250       251       404      1524      1989      1990
 -1       651    8    0    1
 -2       250       404       403      1990      1991      1986
 -1       652    8    0    1
 -2       251       252       405      1527      1992      1993
 -1       653    8    0    1
 -2       251       405       404      1993      1994      1989
 -1       654    8    0    1
 -2       252       253       406      1530      1995      1996
 -1       655    8    0    1
 -2       252       406       405      1996      1997      1992
 -1       656    8    0    1
 -2       253       254       407      1533      1998      1999
 -1       657    8    0    1
 -2       253       407       406      1999      2000      1995
 -1       658    8    0    1
 -2       254       255       408      1536      2001      2002
 -1       659    8    0    1
 -2       254       408       407      2002      2003      1998
 -1       660    8    0    1
 -2       255       256       409      1539      2004      2005
 -1       661    8    0    1
 -2       255       409       408      2005      2006      2001
 -1       662    8    0    1
 -2       256       257       410      1542      2007      2008
 -1       663    8    0    1
 -2       256       410       409      2008      2009      2004
 -1       664    8    0    1
 -2       257       258       411      1545      2010      2011
 -1       665    8    0    1
 -2       257       411       410      2011      2012      2007
 -1       666    8    0    1
 -2       258       259       412      1548      2013      2014
 -1       667    8    0    1
 -2       258       412       411      2014      2015      2010
 -1       668    8    0    1
 -2       259       260       413      1551      2016      2017
 -1       669    8    0    1
 -2       259       413       412      2017      2018      2013
 -1       670    8    0    1
 -2       260       261       414      1554      2019      2020
 -1       671    8    0    1
 -2       260       414       413      2020      2021      2016
 -1       672    8    0    1
 -2       261       262       415      1557      2022      2023
 -1       673    8    0    1
 -2       261       415       414      2023      2024      2019
 -1       674    8    0    1
 -2       262       263       416      1560      2025      2026
 -1       675    8    0    1
 -2       262       416       415      2026      2027      2022
 -1       676    8    0    1
 -2       263       264       417      1563      2028      2029
 -1       677    8    0    1
 -2       263       417       416      2029      2030      2025
 -1       678    8    0    1
 -2       264       265       418      1566      2031      2032
 -1       679    8    0    1
 -2       264       418       417      2032      2033      2028
 -1       680    8    0    1
 -2       265       266       419      1569      2034      2035
 -1       681    8    0    1
 -2       265       419       418      2035      2036      2031
 -1       682    8    0    1
 -2       266       267       420      1572      2037      2038
 -1       683    8    0    1
 -2       266       420       419      2038      2039      2034
 -1       684    8    0    1
 -2       267       268       421      1575      2040      2041
 -1       685    8    0    1
 -2       267       421       420      2041      2042      2037
 -1       686    8    0    1
 -2       268       269       422      1578      2043      2044
 -1       687    8    0    1
 -2       268       422       421      2044      2045      2040
 -1       688    8    0    1
 -2       269       270       423      1581      2046      2047
 -1       689    8    0    1
 -2       269       423       422      2047      2048      2043
 -1       690    8    0    1
 -2       270       271       424      1584      2049      2050
 -1       691    8    0    1
 -2       270       424       423      2050      2051      2046
 -1       692    8    0    1
 -2       271       272       425      1587      2052      2053
 -1       693    8    0    1
 -2       271       425       424      2053      2054      2049
 -1       694    8    0    1
 -2       272       273       426      1590      2055      2056
 -1       695    8    0    1
 -2       272       426       425      2056      2057      2052
 -1       696    8    0    1
 -2       273       274       427      1593      2058      2059
 -1       697    8    0    1
 -2       273       427       426      2059      2060      2055
 -1       698    8    0    1
 -2       274       275       428      1596      2061      2062
 -1       699    8    0    1
 -2       274       428       427      2062      2063      2058
 -1       700    8    0    1
 -2       275       276       429      1599      2064      2065
 -1       701    8    0    1
 -2       275       429       428      2065      2066      2061
 -1       702    8    0    1
 -2       276       277       430      1602      2067      2068
 -1       703    8    0    1
 -2       429       276       430      2064      2068      2069
 -1       704    8    0    1
 -2       277       278       430      1711      2070      2067
 -1       705    8    0    1
 -2       280       281       431      1614      2071      2072
 -1       706    8    0    1
 -2       279       280       432      1611      2073      2074
 -1       707    8    0    1
 -2       280       431       432      2072      2075      2073
 -1       708    8    0    1
 -2       294       295       285      1715      2076      2077
 -1       709    8    0    1
 -2       278       279       433      1608      2078      2079
 -1       710    8    0    1
 -2       430       278       433      2070      2079      2080
 -1       711    8    0    1
 -2       279       432       433      2074      2081      2078
 -1       712    8    0    1
 -2       281       282       434      1617      2082      2083
 -1       713    8    0    1
 -2       281       434       431      2083      2084      2071
 -1       714    8    0    1
 -2       282       283       435      1620      2085      2086
 -1       715    8    0    1
 -2       282       435       434      2086      2087      2082
 -1       716    8    0    1
 -2       285       286       294      1628      2088      2077
 -1       717    8    0    1
 -2       284       285       295      1625      2076      2089
 -1       718    8    0    1
 -2       287       288       321      1634      2090      2091
 -1       719    8    0    1
 -2       288       289       436      1637      2092      2093
 -1       720    8    0    1
 -2       290       291       437      1643      2094      2095
 -1       721    8    0    1
 -2       291       292       438      1646      2096      2097
 -1       722    8    0    1
 -2       291       438       437      2097      2098      2094
 -1       723    8    0    1
 -2       295       296       284      1716      1790      2089
 -1       724    8    0    1
 -2       322       294       286      1717      2088      1931
 -1       725    8    0    1
 -2       296       297       323      1709      2099      1791
 -1       726    8    0    1
 -2       168       169       439      1276      2100      2101
 -1       727    8    0    1
 -2       324       168       439      1745      2101      2102
 -1       728    8    0    1
 -2       169       326       439      1751      2103      2100
 -1       729    8    0    1
 -2       298       299       440      1719      2104      2105
 -1       730    8    0    1
 -2       299       300       441      1720      2106      2107
 -1       731    8    0    1
 -2       300       301       442      1721      2108      2109
 -1       732    8    0    1
 -2       301       302       443      1722      2110      2111
 -1       733    8    0    1
 -2       302       303       444      1723      2112      2113
 -1       734    8    0    1
 -2       303       304       445      1724      2114      2115
 -1       735    8    0    1
 -2       304       305       446      1725      2116      2117
 -1       736    8    0    1
 -2       305       306       447      1726      2118      2119
 -1       737    8    0    1
 -2       306       307       448      1727      2120      2121
 -1       738    8    0    1
 -2       307       308       449      1728      2122      2123
 -1       739    8    0    1
 -2       308       309       450      1729      2124      2125
 -1       740    8    0    1
 -2       308       450       449      2125      2126      2122
 -1       741    8    0    1
 -2       309       310       451      1730      2127      2128
 -1       742    8    0    1
 -2       310       311       452      1731      2129      2130
 -1       743    8    0    1
 -2       311       312       453      1732      2131      2132
 -1       744    8    0    1
 -2       311       453       452      2132      2133      2129
 -1       745    8    0    1
 -2       312       313       454      1733      2134      2135
 -1       746    8    0    1
 -2       313       314       455      1734      2136      2137
 -1       747    8    0    1
 -2       314       315       456      1735      2138      2139
 -1       748    8    0    1
 -2       315       316       457      1736      2140      2141
 -1       749    8    0    1
 -2       316       317       458      1737      2142      2143
 -1       750    8    0    1
 -2       316       458       457      2143      2144      2140
 -1       751    8    0    1
 -2       317       318       459      1738      2145      2146
 -1       752    8    0    1
 -2       318       319       460      1739      2147      2148
 -1       753    8    0    1
 -2       319       320       436      1740      2149      2150
 -1       754    8    0    1
 -2       320       321       288      1741      2090      2151
 -1       755    8    0    1
 -2       321       322       287      1742      1930      2091
 -1       756    8    0    1
 -2       297       298       461      1718      2152      2153
 -1       757    8    0    1
 -2       320       288       436      2151      2093      2149
 -1       758    8    0    1
 -2       323       297       462      2099      2154      2155
 -1       759    8    0    1
 -2       445       304       463      2114      2156      2157
 -1       760    8    0    1
 -2       304       446       463      2117      2158      2156
 -1       761    8    0    1
 -2       183       182       325      1318      1792      2159
 -1       762    8    0    1
 -2       339       183       325      1793      2159      2160
 -1       763    8    0    1
 -2       229       384       293      1928      2161      1650
 -1       764    8    0    1
 -2       461       298       440      2152      2105      2162
 -1       765    8    0    1
 -2       442       301       443      2108      2111      2163
 -1       766    8    0    1
 -2       444       303       445      2112      2115      2164
 -1       767    8    0    1
 -2       297       461       462      2153      2165      2154
 -1       768    8    0    1
 -2       438       292       293      2096      1649      2166
 -1       769    8    0    1
 -2       447       306       448      2118      2121      2167
 -1       770    8    0    1
 -2       440       299       441      2104      2107      2168
 -1       771    8    0    1
 -2       436       289       464      2092      2169      2170
 -1       772    8    0    1
 -2       319       436       464      2150      2170      2171
 -1       773    8    0    1
 -2       289       290       464      1640      2172      2169
 -1       774    8    0    1
 -2       448       307       449      2120      2123      2173
 -1       775    8    0    1
 -2       446       305       447      2116      2119      2174
 -1       776    8    0    1
 -2       443       302       444      2110      2113      2175
 -1       777    8    0    1
 -2       283       323       462      1713      2155      2176
 -1       778    8    0    1
 -2       458       317       459      2142      2146      2177
 -1       779    8    0    1
 -2       456       315       457      2138      2141      2178
 -1       780    8    0    1
 -2       455       314       456      2136      2139      2179
 -1       781    8    0    1
 -2       453       312       454      2131      2135      2180
 -1       782    8    0    1
 -2       450       309       451      2124      2128      2181
 -1       783    8    0    1
 -2       441       300       442      2106      2109      2182
 -1       784    8    0    1
 -2       451       310       452      2127      2130      2183
 -1       785    8    0    1
 -2       454       313       455      2134      2137      2184
 -1       786    8    0    1
 -2       459       318       460      2145      2148      2185
 -1       787    8    0    1
 -2       327       328       465      1757      2186      2187
 -1       788    8    0    1
 -2       326       327       466      1754      2188      2189
 -1       789    8    0    1
 -2       327       465       466      2187      2190      2188
 -1       790    8    0    1
 -2       329       330       467      1763      2191      2192
 -1       791    8    0    1
 -2       330       331       468      1766      2193      2194
 -1       792    8    0    1
 -2       330       468       467      2194      2195      2191
 -1       793    8    0    1
 -2       331       332       469      1769      2196      2197
 -1       794    8    0    1
 -2       331       469       468      2197      2198      2193
 -1       795    8    0    1
 -2       332       333       470      1772      2199      2200
 -1       796    8    0    1
 -2       332       470       469      2200      2201      2196
 -1       797    8    0    1
 -2       333       334       471      1775      2202      2203
 -1       798    8    0    1
 -2       333       471       470      2203      2204      2199
 -1       799    8    0    1
 -2       334       335       472      1778      2205      2206
 -1       800    8    0    1
 -2       334       472       471      2206      2207      2202
 -1       801    8    0    1
 -2       335       336       473      1781      2208      2209
 -1       802    8    0    1
 -2       335       473       472      2209      2210      2205
 -1       803    8    0    1
 -2       336       337       474      1784      2211      2212
 -1       804    8    0    1
 -2       473       336       474      2208      2212      2213
 -1       805    8    0    1
 -2       337       338       474      1789      2214      2211
 -1       806    8    0    1
 -2       340       339       475      1797      2215      2216
 -1       807    8    0    1
 -2       386       387       476      1940      2217      2218
 -1       808    8    0    1
 -2       385       386       477      1937      2219      2220
 -1       809    8    0    1
 -2       386       476       477      2218      2221      2219
 -1       810    8    0    1
 -2       339       325       478      2160      2222      2223
 -1       811    8    0    1
 -2       475       339       478      2215      2223      2224
 -1       812    8    0    1
 -2       325       324       478      1749      2225      2222
 -1       813    8    0    1
 -2       341       340       479      1800      2226      2227
 -1       814    8    0    1
 -2       340       475       479      2216      2228      2226
 -1       815    8    0    1
 -2       342       341       480      1803      2229      2230
 -1       816    8    0    1
 -2       341       479       480      2227      2231      2229
 -1       817    8    0    1
 -2       343       342       481      1806      2232      2233
 -1       818    8    0    1
 -2       342       480       481      2230      2234      2232
 -1       819    8    0    1
 -2       344       343       482      1809      2235      2236
 -1       820    8    0    1
 -2       343       481       482      2233      2237      2235
 -1       821    8    0    1
 -2       345       344       483      1812      2238      2239
 -1       822    8    0    1
 -2       344       482       483      2236      2240      2238
 -1       823    8    0    1
 -2       346       345       484      1815      2241      2242
 -1       824    8    0    1
 -2       345       483       484      2239      2243      2241
 -1       825    8    0    1
 -2       347       346       485      1818      2244      2245
 -1       826    8    0    1
 -2       346       484       485      2242      2246      2244
 -1       827    8    0    1
 -2       348       347       486      1821      2247      2248
 -1       828    8    0    1
 -2       347       485       486      2245      2249      2247
 -1       829    8    0    1
 -2       349       348       487      1824      2250      2251
 -1       830    8    0    1
 -2       348       486       487      2248      2252      2250
 -1       831    8    0    1
 -2       350       349       488      1827      2253      2254
 -1       832    8    0    1
 -2       349       487       488      2251      2255      2253
 -1       833    8    0    1
 -2       351       350       489      1830      2256      2257
 -1       834    8    0    1
 -2       350       488       489      2254      2258      2256
 -1       835    8    0    1
 -2       352       351       490      1833      2259      2260
 -1       836    8    0    1
 -2       351       489       490      2257      2261      2259
 -1       837    8    0    1
 -2       353       352       491      1836      2262      2263
 -1       838    8    0    1
 -2       352       490       491      2260      2264      2262
 -1       839    8    0    1
 -2       354       353       492      1839      2265      2266
 -1       840    8    0    1
 -2       353       491       492      2263      2267      2265
 -1       841    8    0    1
 -2       355       354       493      1842      2268      2269
 -1       842    8    0    1
 -2       354       492       493      2266      2270      2268
 -1       843    8    0    1
 -2       356       355       494      1845      2271      2272
 -1       844    8    0    1
 -2       355       493       494      2269      2273      2271
 -1       845    8    0    1
 -2       357       356       495      1848      2274      2275
 -1       846    8    0    1
 -2       356       494       495      2272      2276      2274
 -1       847    8    0    1
 -2       358       357       496      1851      2277      2278
 -1       848    8    0    1
 -2       357       495       496      2275      2279      2277
 -1       849    8    0    1
 -2       359       358       497      1854      2280      2281
 -1       850    8    0    1
 -2       358       496       497      2278      2282      2280
 -1       851    8    0    1
 -2       360       359       498      1857      2283      2284
 -1       852    8    0    1
 -2       359       497       498      2281      2285      2283
 -1       853    8    0    1
 -2       361       360       499      1860      2286      2287
 -1       854    8    0    1
 -2       360       498       499      2284      2288      2286
 -1       855    8    0    1
 -2       362       361       500      1863      2289      2290
 -1       856    8    0    1
 -2       361       499       500      2287      2291      2289
 -1       857    8    0    1
 -2       363       362       501      1866      2292      2293
 -1       858    8    0    1
 -2       362       500       501      2290      2294      2292
 -1       859    8    0    1
 -2       364       363       502      1869      2295      2296
 -1       860    8    0    1
 -2       363       501       502      2293      2297      2295
 -1       861    8    0    1
 -2       365       364       503      1872      2298      2299
 -1       862    8    0    1
 -2       364       502       503      2296      2300      2298
 -1       863    8    0    1
 -2       366       365       504      1875      2301      2302
 -1       864    8    0    1
 -2       365       503       504      2299      2303      2301
 -1       865    8    0    1
 -2       367       366       505      1878      2304      2305
 -1       866    8    0    1
 -2       366       504       505      2302      2306      2304
 -1       867    8    0    1
 -2       368       367       506      1881      2307      2308
 -1       868    8    0    1
 -2       367       505       506      2305      2309      2307
 -1       869    8    0    1
 -2       369       368       507      1884      2310      2311
 -1       870    8    0    1
 -2       368       506       507      2308      2312      2310
 -1       871    8    0    1
 -2       370       369       508      1887      2313      2314
 -1       872    8    0    1
 -2       369       507       508      2311      2315      2313
 -1       873    8    0    1
 -2       371       370       509      1890      2316      2317
 -1       874    8    0    1
 -2       370       508       509      2314      2318      2316
 -1       875    8    0    1
 -2       372       371       510      1893      2319      2320
 -1       876    8    0    1
 -2       371       509       510      2317      2321      2319
 -1       877    8    0    1
 -2       373       372       511      1896      2322      2323
 -1       878    8    0    1
 -2       372       510       511      2320      2324      2322
 -1       879    8    0    1
 -2       374       373       512      1899      2325      2326
 -1       880    8    0    1
 -2       373       511       512      2323      2327      2325
 -1       881    8    0    1
 -2       375       374       513      1902      2328      2329
 -1       882    8    0    1
 -2       374       512       513      2326      2330      2328
 -1       883    8    0    1
 -2       376       375       514      1905      2331      2332
 -1       884    8    0    1
 -2       375       513       514      2329      2333      2331
 -1       885    8    0    1
 -2       377       376       515      1908      2334      2335
 -1       886    8    0    1
 -2       376       514       515      2332      2336      2334
 -1       887    8    0    1
 -2       378       377       516      1911      2337      2338
 -1       888    8    0    1
 -2       377       515       516      2335      2339      2337
 -1       889    8    0    1
 -2       379       378       517      1914      2340      2341
 -1       890    8    0    1
 -2       378       516       517      2338      2342      2340
 -1       891    8    0    1
 -2       380       379       518      1917      2343      2344
 -1       892    8    0    1
 -2       379       517       518      2341      2345      2343
 -1       893    8    0    1
 -2       381       380       519      1920      2346      2347
 -1       894    8    0    1
 -2       380       518       519      2344      2348      2346
 -1       895    8    0    1
 -2       382       381       520      1923      2349      2350
 -1       896    8    0    1
 -2       381       519       520      2347      2351      2349
 -1       897    8    0    1
 -2       383       382       521      1926      2352      2353
 -1       898    8    0    1
 -2       382       520       521      2350      2354      2352
 -1       899    8    0    1
 -2       384       383       522      1929      2355      2356
 -1       900    8    0    1
 -2       383       521       522      2353      2357      2355
 -1       901    8    0    1
 -2       338       385       523      1934      2358      2359
 -1       902    8    0    1
 -2       474       338       523      2214      2359      2360
 -1       903    8    0    1
 -2       385       477       523      2220      2361      2358
 -1       904    8    0    1
 -2       387       388       524      1943      2362      2363
 -1       905    8    0    1
 -2       387       524       476      2363      2364      2217
 -1       906    8    0    1
 -2       388       389       525      1946      2365      2366
 -1       907    8    0    1
 -2       388       525       524      2366      2367      2362
 -1       908    8    0    1
 -2       389       390       526      1949      2368      2369
 -1       909    8    0    1
 -2       389       526       525      2369      2370      2365
 -1       910    8    0    1
 -2       390       391       527      1952      2371      2372
 -1       911    8    0    1
 -2       390       527       526      2372      2373      2368
 -1       912    8    0    1
 -2       391       392       528      1955      2374      2375
 -1       913    8    0    1
 -2       391       528       527      2375      2376      2371
 -1       914    8    0    1
 -2       392       393       529      1958      2377      2378
 -1       915    8    0    1
 -2       392       529       528      2378      2379      2374
 -1       916    8    0    1
 -2       393       394       530      1961      2380      2381
 -1       917    8    0    1
 -2       393       530       529      2381      2382      2377
 -1       918    8    0    1
 -2       394       395       531      1964      2383      2384
 -1       919    8    0    1
 -2       394       531       530      2384      2385      2380
 -1       920    8    0    1
 -2       395       396       532      1967      2386      2387
 -1       921    8    0    1
 -2       395       532       531      2387      2388      2383
 -1       922    8    0    1
 -2       396       397       533      1970      2389      2390
 -1       923    8    0    1
 -2       396       533       532      2390      2391      2386
 -1       924    8    0    1
 -2       397       398       534      1973      2392      2393
 -1       925    8    0    1
 -2       397       534       533      2393      2394      2389
 -1       926    8    0    1
 -2       398       399       535      1976      2395      2396
 -1       927    8    0    1
 -2       398       535       534      2396      2397      2392
 -1       928    8    0    1
 -2       399       400       536      1979      2398      2399
 -1       929    8    0    1
 -2       399       536       535      2399      2400      2395
 -1       930    8    0    1
 -2       400       401       537      1982      2401      2402
 -1       931    8    0    1
 -2       400       537       536      2402      2403      2398
 -1       932    8    0    1
 -2       401       402       538      1985      2404      2405
 -1       933    8    0    1
 -2       401       538       537      2405      2406      2401
 -1       934    8    0    1
 -2       402       403       539      1988      2407      2408
 -1       935    8    0    1
 -2       402       539       538      2408      2409      2404
 -1       936    8    0    1
 -2       403       404       540      1991      2410      2411
 -1       937    8    0    1
 -2       403       540       539      2411      2412      2407
 -1       938    8    0    1
 -2       404       405       541      1994      2413      2414
 -1       939    8    0    1
 -2       404       541       540      2414      2415      2410
 -1       940    8    0    1
 -2       405       406       542      1997      2416      2417
 -1       941    8    0    1
 -2       405       542       541      2417      2418      2413
 -1       942    8    0    1
 -2       406       407       543      2000      2419      2420
 -1       943    8    0    1
 -2       406       543       542      2420      2421      2416
 -1       944    8    0    1
 -2       407       408       544      2003      2422      2423
 -1       945    8    0    1
 -2       407       544       543      2423      2424      2419
 -1       946    8    0    1
 -2       408       409       545      2006      2425      2426
 -1       947    8    0    1
 -2       408       545       544      2426      2427      2422
 -1       948    8    0    1
 -2       409       410       546      2009      2428      2429
 -1       949    8    0    1
 -2       409       546       545      2429      2430      2425
 -1       950    8    0    1
 -2       410       411       547      2012      2431      2432
 -1       951    8    0    1
 -2       410       547       546      2432      2433      2428
 -1       952    8    0    1
 -2       411       412       548      2015      2434      2435
 -1       953    8    0    1
 -2       411       548       547      2435      2436      2431
 -1       954    8    0    1
 -2       412       413       549      2018      2437      2438
 -1       955    8    0    1
 -2       412       549       548      2438      2439      2434
 -1       956    8    0    1
 -2       413       414       550      2021      2440      2441
 -1       957    8    0    1
 -2       413       550       549      2441      2442      2437
 -1       958    8    0    1
 -2       414       415       551      2024      2443      2444
 -1       959    8    0    1
 -2       414       551       550      2444      2445      2440
 -1       960    8    0    1
 -2       415       416       552      2027      2446      2447
 -1       961    8    0    1
 -2       415       552       551      2447      2448      2443
 -1       962    8    0    1
 -2       416       417       553      2030      2449      2450
 -1       963    8    0    1
 -2       416       553       552      2450      2451      2446
 -1       964    8    0    1
 -2       417       418       554      2033      2452      2453
 -1       965    8    0    1
 -2       417       554       553      2453      2454      2449
 -1       966    8    0    1
 -2       418       419       555      2036      2455      2456
 -1       967    8    0    1
 -2       418       555       554      2456      2457      2452
 -1       968    8    0    1
 -2       419       420       556      2039      2458      2459
 -1       969    8    0    1
 -2       419       556       555      2459      2460      2455
 -1       970    8    0    1
 -2       420       421       557      2042      2461      2462
 -1       971    8    0    1
 -2       420       557       556      2462      2463      2458
 -1       972    8    0    1
 -2       421       422       558      2045      2464      2465
 -1       973    8    0    1
 -2       421       558       557      2465      2466      2461
 -1       974    8    0    1
 -2       422       423       559      2048      2467      2468
 -1       975    8    0    1
 -2       422       559       558      2468      2469      2464
 -1       976    8    0    1
 -2       423       424       560      2051      2470      2471
 -1       977    8    0    1
 -2       423       560       559      2471      2472      2467
 -1       978    8    0    1
 -2       424       425       561      2054      2473      2474
 -1       979    8    0    1
 -2       424       561       560      2474      2475      2470
 -1       980    8    0    1
 -2       425       426       562      2057      2476      2477
 -1       981    8    0    1
 -2       425       562       561      2477      2478      2473
 -1       982    8    0    1
 -2       426       427       563      2060      2479      2480
 -1       983    8    0    1
 -2       426       563       562      2480      2481      2476
 -1       984    8    0    1
 -2       427       428       564      2063      2482      2483
 -1       985    8    0    1
 -2       427       564       563      2483      2484      2479
 -1       986    8    0    1
 -2       428       429       565      2066      2485      2486
 -1       987    8    0    1
 -2       428       565       564      2486      2487      2482
 -1       988    8    0    1
 -2       429       430       433      2069      2080      2488
 -1       989    8    0    1
 -2       432       431       566      2075      2489      2490
 -1       990    8    0    1
 -2       431       434       567      2084      2491      2492
 -1       991    8    0    1
 -2       431       567       566      2492      2493      2489
 -1       992    8    0    1
 -2       435       283       462      2085      2176      2494
 -1       993    8    0    1
 -2       442       443       568      2163      2495      2496
 -1       994    8    0    1
 -2       464       290       569      2172      2497      2498
 -1       995    8    0    1
 -2       438       293       384      2166      2161      2499
 -1       996    8    0    1
 -2       290       437       569      2095      2500      2497
 -1       997    8    0    1
 -2       448       449       570      2173      2501      2502
 -1       998    8    0    1
 -2       437       438       571      2098      2503      2504
 -1       999    8    0    1
 -2       447       448       572      2167      2505      2506
 -1      1000    8    0    1
 -2       458       459       573      2177      2507      2508
 -1      1001    8    0    1
 -2       456       457       574      2178      2509      2510
 -1      1002    8    0    1
 -2       450       451       575      2181      2511      2512
 -1      1003    8    0    1
 -2       441       442       576      2182      2513      2514
 -1      1004    8    0    1
 -2       328       329       577      1760      2515      2516
 -1      1005    8    0    1
 -2       465       328       577      2186      2516      2517
 -1      1006    8    0    1
 -2       329       467       577      2192      2518      2515
 -1      1007    8    0    1
 -2       451       452       578      2183      2519      2520
 -1      1008    8    0    1
 -2       444       445       579      2164      2521      2522
 -1      1009    8    0    1
 -2       443       444       580      2175      2523      2524
 -1      1010    8    0    1
 -2       444       579       580      2522      2525      2523
 -1      1011    8    0    1
 -2       440       441       581      2168      2526      2527
 -1      1012    8    0    1
 -2       446       447       582      2174      2528      2529
 -1      1013    8    0    1
 -2       447       572       582      2506      2530      2528
 -1      1014    8    0    1
 -2       449       450       583      2126      2531      2532
 -1      1015    8    0    1
 -2       450       575       583      2512      2533      2531
 -1      1016    8    0    1
 -2       454       455       584      2184      2534      2535
 -1      1017    8    0    1
 -2       452       453       585      2133      2536      2537
 -1      1018    8    0    1
 -2       453       454       586      2180      2538      2539
 -1      1019    8    0    1
 -2       453       586       585      2539      2540      2536
 -1      1020    8    0    1
 -2       455       456       587      2179      2541      2542
 -1      1021    8    0    1
 -2       457       458       588      2144      2543      2544
 -1      1022    8    0    1
 -2       445       463       579      2157      2545      2521
 -1      1023    8    0    1
 -2       326       466       589      2189      2546      2547
 -1      1024    8    0    1
 -2       326       589       439      2547      2548      2103
 -1      1025    8    0    1
 -2       324       439       590      2102      2549      2550
 -1      1026    8    0    1
 -2       478       324       590      2225      2550      2551
 -1      1027    8    0    1
 -2       439       589       590      2548      2552      2549
 -1      1028    8    0    1
 -2       573       459       569      2507      2553      2554
 -1      1029    8    0    1
 -2       572       448       570      2505      2502      2555
 -1      1030    8    0    1
 -2       429       433       565      2488      2556      2485
 -1      1031    8    0    1
 -2       434       435       581      2087      2557      2558
 -1      1032    8    0    1
 -2       568       443       580      2495      2524      2559
 -1      1033    8    0    1
 -2       438       384       522      2499      2356      2560
 -1      1034    8    0    1
 -2       571       438       522      2503      2560      2561
 -1      1035    8    0    1
 -2       570       449       583      2501      2532      2562
 -1      1036    8    0    1
 -2       588       458       573      2543      2508      2563
 -1      1037    8    0    1
 -2       461       440       435      2162      2564      2565
 -1      1038    8    0    1
 -2       586       454       584      2538      2535      2566
 -1      1039    8    0    1
 -2       455       587       584      2542      2567      2534
 -1      1040    8    0    1
 -2       456       574       587      2510      2568      2541
 -1      1041    8    0    1
 -2       460       319       464      2147      2171      2569
 -1      1042    8    0    1
 -2       576       442       568      2513      2496      2570
 -1      1043    8    0    1
 -2       575       451       578      2511      2520      2571
 -1      1044    8    0    1
 -2       441       576       581      2514      2572      2526
 -1      1045    8    0    1
 -2       574       457       588      2509      2544      2573
 -1      1046    8    0    1
 -2       433       432       565      2081      2574      2556
 -1      1047    8    0    1
 -2       440       581       435      2527      2557      2564
 -1      1048    8    0    1
 -2       446       582       591      2529      2575      2576
 -1      1049    8    0    1
 -2       446       591       463      2576      2577      2158
 -1      1050    8    0    1
 -2       452       585       578      2537      2578      2519
 -1      1051    8    0    1
 -2       459       460       569      2185      2579      2553
 -1      1052    8    0    1
 -2       434       581       567      2558      2580      2491
 -1      1053    8    0    1
 -2       460       464       569      2569      2498      2579
 -1      1054    8    0    1
 -2       565       432       566      2574      2490      2581
 -1      1055    8    0    1
 -2       468       469       592      2198      2582      2583
 -1      1056    8    0    1
 -2       467       468       593      2195      2584      2585
 -1      1057    8    0    1
 -2       468       592       593      2583      2586      2584
 -1      1058    8    0    1
 -2       470       471       594      2204      2587      2588
 -1      1059    8    0    1
 -2       471       472       595      2207      2589      2590
 -1      1060    8    0    1
 -2       471       595       594      2590      2591      2587
 -1      1061    8    0    1
 -2       473       474       523      2213      2360      2592
 -1      1062    8    0    1
 -2       479       475       596      2228      2593      2594
 -1      1063    8    0    1
 -2       525       526       597      2370      2595      2596
 -1      1064    8    0    1
 -2       524       525       598      2367      2597      2598
 -1      1065    8    0    1
 -2       525       597       598      2596      2599      2597
 -1      1066    8    0    1
 -2       475       478       599      2224      2600      2601
 -1      1067    8    0    1
 -2       596       475       599      2593      2601      2602
 -1      1068    8    0    1
 -2       478       590       599      2551      2603      2600
 -1      1069    8    0    1
 -2       476       524       600      2364      2604      2605
 -1      1070    8    0    1
 -2       524       598       600      2598      2606      2604
 -1      1071    8    0    1
 -2       567       581       576      2580      2572      2607
 -1      1072    8    0    1
 -2       572       570       601      2555      2608      2609
 -1      1073    8    0    1
 -2       480       479       602      2231      2610      2611
 -1      1074    8    0    1
 -2       479       596       602      2594      2612      2610
 -1      1075    8    0    1
 -2       481       480       603      2234      2613      2614
 -1      1076    8    0    1
 -2       480       602       603      2611      2615      2613
 -1      1077    8    0    1
 -2       482       481       604      2237      2616      2617
 -1      1078    8    0    1
 -2       481       603       604      2614      2618      2616
 -1      1079    8    0    1
 -2       483       482       605      2240      2619      2620
 -1      1080    8    0    1
 -2       482       604       605      2617      2621      2619
 -1      1081    8    0    1
 -2       484       483       606      2243      2622      2623
 -1      1082    8    0    1
 -2       483       605       606      2620      2624      2622
 -1      1083    8    0    1
 -2       485       484       607      2246      2625      2626
 -1      1084    8    0    1
 -2       484       606       607      2623      2627      2625
 -1      1085    8    0    1
 -2       486       485       608      2249      2628      2629
 -1      1086    8    0    1
 -2       485       607       608      2626      2630      2628
 -1      1087    8    0    1
 -2       487       486       609      2252      2631      2632
 -1      1088    8    0    1
 -2       486       608       609      2629      2633      2631
 -1      1089    8    0    1
 -2       488       487       610      2255      2634      2635
 -1      1090    8    0    1
 -2       487       609       610      2632      2636      2634
 -1      1091    8    0    1
 -2       489       488       611      2258      2637      2638
 -1      1092    8    0    1
 -2       488       610       611      2635      2639      2637
 -1      1093    8    0    1
 -2       490       489       612      2261      2640      2641
 -1      1094    8    0    1
 -2       489       611       612      2638      2642      2640
 -1      1095    8    0    1
 -2       491       490       613      2264      2643      2644
 -1      1096    8    0    1
 -2       490       612       613      2641      2645      2643
 -1      1097    8    0    1
 -2       492       491       614      2267      2646      2647
 -1      1098    8    0    1
 -2       491       613       614      2644      2648      2646
 -1      1099    8    0    1
 -2       493       492       615      2270      2649      2650
 -1      1100    8    0    1
 -2       492       614       615      2647      2651      2649
 -1      1101    8    0    1
 -2       494       493       616      2273      2652      2653
 -1      1102    8    0    1
 -2       493       615       616      2650      2654      2652
 -1      1103    8    0    1
 -2       495       494       617      2276      2655      2656
 -1      1104    8    0    1
 -2       494       616       617      2653      2657      2655
 -1      1105    8    0    1
 -2       496       495       618      2279      2658      2659
 -1      1106    8    0    1
 -2       495       617       618      2656      2660      2658
 -1      1107    8    0    1
 -2       497       496       619      2282      2661      2662
 -1      1108    8    0    1
 -2       496       618       619      2659      2663      2661
 -1      1109    8    0    1
 -2       498       497       620      2285      2664      2665
 -1      1110    8    0    1
 -2       497       619       620      2662      2666      2664
 -1      1111    8    0    1
 -2       499       498       621      2288      2667      2668
 -1      1112    8    0    1
 -2       498       620       621      2665      2669      2667
 -1      1113    8    0    1
 -2       500       499       622      2291      2670      2671
 -1      1114    8    0    1
 -2       499       621       622      2668      2672      2670
 -1      1115    8    0    1
 -2       501       500       623      2294      2673      2674
 -1      1116    8    0    1
 -2       500       622       623      2671      2675      2673
 -1      1117    8    0    1
 -2       502       501       624      2297      2676      2677
 -1      1118    8    0    1
 -2       501       623       624      2674      2678      2676
 -1      1119    8    0    1
 -2       503       502       625      2300      2679      2680
 -1      1120    8    0    1
 -2       502       624       625      2677      2681      2679
 -1      1121    8    0    1
 -2       504       503       626      2303      2682      2683
 -1      1122    8    0    1
 -2       503       625       626      2680      2684      2682
 -1      1123    8    0    1
 -2       505       504       627      2306      2685      2686
 -1      1124    8    0    1
 -2       504       626       627      2683      2687      2685
 -1      1125    8    0    1
 -2       506       505       628      2309      2688      2689
 -1      1126    8    0    1
 -2       505       627       628      2686      2690      2688
 -1      1127    8    0    1
 -2       507       506       629      2312      2691      2692
 -1      1128    8    0    1
 -2       506       628       629      2689      2693      2691
 -1      1129    8    0    1
 -2       508       507       630      2315      2694      2695
 -1      1130    8    0    1
 -2       507       629       630      2692      2696      2694
 -1      1131    8    0    1
 -2       509       508       631      2318      2697      2698
 -1      1132    8    0    1
 -2       508       630       631      2695      2699      2697
 -1      1133    8    0    1
 -2       510       509       632      2321      2700      2701
 -1      1134    8    0    1
 -2       509       631       632      2698      2702      2700
 -1      1135    8    0    1
 -2       511       510       633      2324      2703      2704
 -1      1136    8    0    1
 -2       510       632       633      2701      2705      2703
 -1      1137    8    0    1
 -2       512       511       634      2327      2706      2707
 -1      1138    8    0    1
 -2       511       633       634      2704      2708      2706
 -1      1139    8    0    1
 -2       513       512       635      2330      2709      2710
 -1      1140    8    0    1
 -2       512       634       635      2707      2711      2709
 -1      1141    8    0    1
 -2       514       513       636      2333      2712      2713
 -1      1142    8    0    1
 -2       513       635       636      2710      2714      2712
 -1      1143    8    0    1
 -2       515       514       637      2336      2715      2716
 -1      1144    8    0    1
 -2       514       636       637      2713      2717      2715
 -1      1145    8    0    1
 -2       516       515       638      2339      2718      2719
 -1      1146    8    0    1
 -2       515       637       638      2716      2720      2718
 -1      1147    8    0    1
 -2       517       516       639      2342      2721      2722
 -1      1148    8    0    1
 -2       516       638       639      2719      2723      2721
 -1      1149    8    0    1
 -2       518       517       640      2345      2724      2725
 -1      1150    8    0    1
 -2       517       639       640      2722      2726      2724
 -1      1151    8    0    1
 -2       519       518       641      2348      2727      2728
 -1      1152    8    0    1
 -2       518       640       641      2725      2729      2727
 -1      1153    8    0    1
 -2       521       520       642      2354      2730      2731
 -1      1154    8    0    1
 -2       522       521       643      2357      2732      2733
 -1      1155    8    0    1
 -2       571       522       643      2561      2733      2734
 -1      1156    8    0    1
 -2       521       642       643      2731      2735      2732
 -1      1157    8    0    1
 -2       526       527       644      2373      2736      2737
 -1      1158    8    0    1
 -2       526       644       597      2737      2738      2595
 -1      1159    8    0    1
 -2       527       528       645      2376      2739      2740
 -1      1160    8    0    1
 -2       527       645       644      2740      2741      2736
 -1      1161    8    0    1
 -2       528       529       646      2379      2742      2743
 -1      1162    8    0    1
 -2       528       646       645      2743      2744      2739
 -1      1163    8    0    1
 -2       529       530       647      2382      2745      2746
 -1      1164    8    0    1
 -2       529       647       646      2746      2747      2742
 -1      1165    8    0    1
 -2       530       531       648      2385      2748      2749
 -1      1166    8    0    1
 -2       530       648       647      2749      2750      2745
 -1      1167    8    0    1
 -2       531       532       649      2388      2751      2752
 -1      1168    8    0    1
 -2       531       649       648      2752      2753      2748
 -1      1169    8    0    1
 -2       532       533       650      2391      2754      2755
 -1      1170    8    0    1
 -2       532       650       649      2755      2756      2751
 -1      1171    8    0    1
 -2       533       534       651      2394      2757      2758
 -1      1172    8    0    1
 -2       533       651       650      2758      2759      2754
 -1      1173    8    0    1
 -2       534       535       652      2397      2760      2761
 -1      1174    8    0    1
 -2       534       652       651      2761      2762      2757
 -1      1175    8    0    1
 -2       535       536       653      2400      2763      2764
 -1      1176    8    0    1
 -2       535       653       652      2764      2765      2760
 -1      1177    8    0    1
 -2       536       537       654      2403      2766      2767
 -1      1178    8    0    1
 -2       536       654       653      2767      2768      2763
 -1      1179    8    0    1
 -2       537       538       655      2406      2769      2770
 -1      1180    8    0    1
 -2       537       655       654      2770      2771      2766
 -1      1181    8    0    1
 -2       538       539       656      2409      2772      2773
 -1      1182    8    0    1
 -2       538       656       655      2773      2774      2769
 -1      1183    8    0    1
 -2       539       540       657      2412      2775      2776
 -1      1184    8    0    1
 -2       539       657       656      2776      2777      2772
 -1      1185    8    0    1
 -2       540       541       658      2415      2778      2779
 -1      1186    8    0    1
 -2       540       658       657      2779      2780      2775
 -1      1187    8    0    1
 -2       541       542       659      2418      2781      2782
 -1      1188    8    0    1
 -2       541       659       658      2782      2783      2778
 -1      1189    8    0    1
 -2       542       543       660      2421      2784      2785
 -1      1190    8    0    1
 -2       542       660       659      2785      2786      2781
 -1      1191    8    0    1
 -2       543       544       661      2424      2787      2788
 -1      1192    8    0    1
 -2       543       661       660      2788      2789      2784
 -1      1193    8    0    1
 -2       544       545       662      2427      2790      2791
 -1      1194    8    0    1
 -2       544       662       661      2791      2792      2787
 -1      1195    8    0    1
 -2       545       546       663      2430      2793      2794
 -1      1196    8    0    1
 -2       545       663       662      2794      2795      2790
 -1      1197    8    0    1
 -2       546       547       664      2433      2796      2797
 -1      1198    8    0    1
 -2       546       664       663      2797      2798      2793
 -1      1199    8    0    1
 -2       547       548       665      2436      2799      2800
 -1      1200    8    0    1
 -2       547       665       664      2800      2801      2796
 -1      1201    8    0    1
 -2       548       549       666      2439      2802      2803
 -1      1202    8    0    1
 -2       548       666       665      2803      2804      2799
 -1      1203    8    0    1
 -2       549       550       667      2442      2805      2806
 -1      1204    8    0    1
 -2       549       667       666      2806      2807      2802
 -1      1205    8    0    1
 -2       550       551       668      2445      2808      2809
 -1      1206    8    0    1
 -2       550       668       667      2809      2810      2805
 -1      1207    8    0    1
 -2       551       552       669      2448      2811      2812
 -1      1208    8    0    1
 -2       551       669       668      2812      2813      2808
 -1      1209    8    0    1
 -2       552       553       670      2451      2814      2815
 -1      1210    8    0    1
 -2       552       670       669      2815      2816      2811
 -1      1211    8    0    1
 -2       553       554       671      2454      2817      2818
 -1      1212    8    0    1
 -2       553       671       670      2818      2819      2814
 -1      1213    8    0    1
 -2       554       555       672      2457      2820      2821
 -1      1214    8    0    1
 -2       554       672       671      2821      2822      2817
 -1      1215    8    0    1
 -2       555       556       673      2460      2823      2824
 -1      1216    8    0    1
 -2       555       673       672      2824      2825      2820
 -1      1217    8    0    1
 -2       556       557       674      2463      2826      2827
 -1      1218    8    0    1
 -2       556       674       673      2827      2828      2823
 -1      1219    8    0    1
 -2       557       558       675      2466      2829      2830
 -1      1220    8    0    1
 -2       557       675       674      2830      2831      2826
 -1      1221    8    0    1
 -2       558       559       676      2469      2832      2833
 -1      1222    8    0    1
 -2       558       676       675      2833      2834      2829
 -1      1223    8    0    1
 -2       559       560       677      2472      2835      2836
 -1      1224    8    0    1
 -2       559       677       676      2836      2837      2832
 -1      1225    8    0    1
 -2       560       561       678      2475      2838      2839
 -1      1226    8    0    1
 -2       560       678       677      2839      2840      2835
 -1      1227    8    0    1
 -2       561       562       679      2478      2841      2842
 -1      1228    8    0    1
 -2       561       679       678      2842      2843      2838
 -1      1229    8    0    1
 -2       562       563       680      2481      2844      2845
 -1      1230    8    0    1
 -2       562       680       679      2845      2846      2841
 -1      1231    8    0    1
 -2       563       564       681      2484      2847      2848
 -1      1232    8    0    1
 -2       563       681       680      2848      2849      2844
 -1      1233    8    0    1
 -2       564       565       682      2487      2850      2851
 -1      1234    8    0    1
 -2       681       564       682      2847      2851      2852
 -1      1235    8    0    1
 -2       565       566       682      2581      2853      2850
 -1      1236    8    0    1
 -2       435       462       461      2494      2165      2565
 -1      1237    8    0    1
 -2       568       580       683      2559      2854      2855
 -1      1238    8    0    1
 -2       566       567       684      2493      2856      2857
 -1      1239    8    0    1
 -2       682       566       684      2853      2857      2858
 -1      1240    8    0    1
 -2       567       576       684      2607      2859      2856
 -1      1241    8    0    1
 -2       437       571       573      2504      2860      2861
 -1      1242    8    0    1
 -2       586       584       685      2566      2862      2863
 -1      1243    8    0    1
 -2       582       572       686      2530      2864      2865
 -1      1244    8    0    1
 -2       580       579       687      2525      2866      2867
 -1      1245    8    0    1
 -2       584       587       688      2567      2868      2869
 -1      1246    8    0    1
 -2       477       476       689      2221      2870      2871
 -1      1247    8    0    1
 -2       476       600       689      2605      2872      2870
 -1      1248    8    0    1
 -2       570       583       690      2562      2873      2874
 -1      1249    8    0    1
 -2       575       578       691      2571      2875      2876
 -1      1250    8    0    1
 -2       569       437       573      2500      2861      2554
 -1      1251    8    0    1
 -2       574       588       642      2573      2877      2878
 -1      1252    8    0    1
 -2       583       575       692      2533      2879      2880
 -1      1253    8    0    1
 -2       690       583       692      2873      2880      2881
 -1      1254    8    0    1
 -2       575       691       692      2876      2882      2879
 -1      1255    8    0    1
 -2       587       574       693      2568      2883      2884
 -1      1256    8    0    1
 -2       688       587       693      2868      2884      2885
 -1      1257    8    0    1
 -2       574       642       693      2878      2886      2883
 -1      1258    8    0    1
 -2       469       470       694      2201      2887      2888
 -1      1259    8    0    1
 -2       592       469       694      2582      2888      2889
 -1      1260    8    0    1
 -2       470       594       694      2588      2890      2887
 -1      1261    8    0    1
 -2       585       586       695      2540      2891      2892
 -1      1262    8    0    1
 -2       466       465       696      2190      2893      2894
 -1      1263    8    0    1
 -2       579       463       697      2545      2895      2896
 -1      1264    8    0    1
 -2       578       585       698      2578      2897      2898
 -1      1265    8    0    1
 -2       589       466       699      2546      2899      2900
 -1      1266    8    0    1
 -2       466       696       699      2894      2901      2899
 -1      1267    8    0    1
 -2       467       593       700      2585      2902      2903
 -1      1268    8    0    1
 -2       467       700       577      2903      2904      2518
 -1      1269    8    0    1
 -2       473       523       701      2592      2905      2906
 -1      1270    8    0    1
 -2       472       473       701      2210      2906      2907
 -1      1271    8    0    1
 -2       523       477       701      2361      2908      2905
 -1      1272    8    0    1
 -2       642       588       643      2877      2909      2735
 -1      1273    8    0    1
 -2       601       570       702      2608      2910      2911
 -1      1274    8    0    1
 -2       570       690       702      2874      2912      2910
 -1      1275    8    0    1
 -2       642       520       693      2730      2913      2886
 -1      1276    8    0    1
 -2       520       519       693      2351      2914      2913
 -1      1277    8    0    1
 -2       571       643       588      2734      2909      2915
 -1      1278    8    0    1
 -2       687       579       703      2866      2916      2917
 -1      1279    8    0    1
 -2       579       697       703      2896      2918      2916
 -1      1280    8    0    1
 -2       573       571       588      2860      2915      2563
 -1      1281    8    0    1
 -2       591       582       704      2575      2919      2920
 -1      1282    8    0    1
 -2       582       686       704      2865      2921      2919
 -1      1283    8    0    1
 -2       691       578       698      2875      2898      2922
 -1      1284    8    0    1
 -2       685       584       688      2862      2869      2923
 -1      1285    8    0    1
 -2       585       695       698      2892      2924      2897
 -1      1286    8    0    1
 -2       586       685       695      2863      2925      2891
 -1      1287    8    0    1
 -2       463       591       697      2577      2926      2895
 -1      1288    8    0    1
 -2       568       683       705      2855      2927      2928
 -1      1289    8    0    1
 -2       580       687       683      2867      2929      2854
 -1      1290    8    0    1
 -2       477       689       701      2871      2930      2908
 -1      1291    8    0    1
 -2       472       701       595      2907      2931      2589
 -1      1292    8    0    1
 -2       465       577       706      2517      2932      2933
 -1      1293    8    0    1
 -2       696       465       706      2893      2933      2934
 -1      1294    8    0    1
 -2       577       700       706      2904      2935      2932
 -1      1295    8    0    1
 -2       576       568       705      2570      2928      2936
 -1      1296    8    0    1
 -2       686       572       601      2864      2609      2937
 -1      1297    8    0    1
 -2       590       589       707      2552      2938      2939
 -1      1298    8    0    1
 -2       599       590       707      2603      2939      2940
 -1      1299    8    0    1
 -2       589       699       707      2900      2941      2938
 -1      1300    8    0    1
 -2       595       701       689      2931      2930      2942
 -1      1301    8    0    1
 -2       594       595       708      2591      2943      2944
 -1      1302    8    0    1
 -2       595       689       708      2942      2945      2943
 -1      1303    8    0    1
 -2       644       645       709      2741      2946      2947
 -1      1304    8    0    1
 -2       600       598       710      2606      2948      2949
 -1      1305    8    0    1
 -2       602       596       711      2612      2950      2951
 -1      1306    8    0    1
 -2       597       644       712      2738      2952      2953
 -1      1307    8    0    1
 -2       644       709       712      2947      2954      2952
 -1      1308    8    0    1
 -2       603       602       713      2615      2955      2956
 -1      1309    8    0    1
 -2       602       711       713      2951      2957      2955
 -1      1310    8    0    1
 -2       604       603       714      2618      2958      2959
 -1      1311    8    0    1
 -2       603       713       714      2956      2960      2958
 -1      1312    8    0    1
 -2       605       604       715      2621      2961      2962
 -1      1313    8    0    1
 -2       604       714       715      2959      2963      2961
 -1      1314    8    0    1
 -2       606       605       716      2624      2964      2965
 -1      1315    8    0    1
 -2       605       715       716      2962      2966      2964
 -1      1316    8    0    1
 -2       607       606       717      2627      2967      2968
 -1      1317    8    0    1
 -2       606       716       717      2965      2969      2967
 -1      1318    8    0    1
 -2       608       607       718      2630      2970      2971
 -1      1319    8    0    1
 -2       607       717       718      2968      2972      2970
 -1      1320    8    0    1
 -2       609       608       719      2633      2973      2974
 -1      1321    8    0    1
 -2       608       718       719      2971      2975      2973
 -1      1322    8    0    1
 -2       610       609       720      2636      2976      2977
 -1      1323    8    0    1
 -2       609       719       720      2974      2978      2976
 -1      1324    8    0    1
 -2       611       610       721      2639      2979      2980
 -1      1325    8    0    1
 -2       610       720       721      2977      2981      2979
 -1      1326    8    0    1
 -2       612       611       722      2642      2982      2983
 -1      1327    8    0    1
 -2       611       721       722      2980      2984      2982
 -1      1328    8    0    1
 -2       613       612       723      2645      2985      2986
 -1      1329    8    0    1
 -2       612       722       723      2983      2987      2985
 -1      1330    8    0    1
 -2       614       613       724      2648      2988      2989
 -1      1331    8    0    1
 -2       613       723       724      2986      2990      2988
 -1      1332    8    0    1
 -2       615       614       725      2651      2991      2992
 -1      1333    8    0    1
 -2       614       724       725      2989      2993      2991
 -1      1334    8    0    1
 -2       616       615       726      2654      2994      2995
 -1      1335    8    0    1
 -2       615       725       726      2992      2996      2994
 -1      1336    8    0    1
 -2       617       616       727      2657      2997      2998
 -1      1337    8    0    1
 -2       616       726       727      2995      2999      2997
 -1      1338    8    0    1
 -2       618       617       728      2660      3000      3001
 -1      1339    8    0    1
 -2       617       727       728      2998      3002      3000
 -1      1340    8    0    1
 -2       619       618       729      2663      3003      3004
 -1      1341    8    0    1
 -2       618       728       729      3001      3005      3003
 -1      1342    8    0    1
 -2       620       619       730      2666      3006      3007
 -1      1343    8    0    1
 -2       619       729       730      3004      3008      3006
 -1      1344    8    0    1
 -2       621       620       731      2669      3009      3010
 -1      1345    8    0    1
 -2       620       730       731      3007      3011      3009
 -1      1346    8    0    1
 -2       622       621       732      2672      3012      3013
 -1      1347    8    0    1
 -2       621       731       732      3010      3014      3012
 -1      1348    8    0    1
 -2       623       622       733      2675      3015      3016
 -1      1349    8    0    1
 -2       622       732       733      3013      3017      3015
 -1      1350    8    0    1
 -2       624       623       734      2678      3018      3019
 -1      1351    8    0    1
 -2       623       733       734      3016      3020      3018
 -1      1352    8    0    1
 -2       625       624       735      2681      3021      3022
 -1      1353    8    0    1
 -2       624       734       735      3019      3023      3021
 -1      1354    8    0    1
 -2       626       625       736      2684      3024      3025
 -1      1355    8    0    1
 -2       625       735       736      3022      3026      3024
 -1      1356    8    0    1
 -2       627       626       737      2687      3027      3028
 -1      1357    8    0    1
 -2       626       736       737      3025      3029      3027
 -1      1358    8    0    1
 -2       628       627       738      2690      3030      3031
 -1      1359    8    0    1
 -2       627       737       738      3028      3032      3030
 -1      1360    8    0    1
 -2       629       628       739      2693      3033      3034
 -1      1361    8    0    1
 -2       628       738       739      3031      3035      3033
 -1      1362    8    0    1
 -2       630       629       740      2696      3036      3037
 -1      1363    8    0    1
 -2       629       739       740      3034      3038      3036
 -1      1364    8    0    1
 -2       631       630       741      2699      3039      3040
 -1      1365    8    0    1
 -2       630       740       741      3037      3041      3039
 -1      1366    8    0    1
 -2       632       631       742      2702      3042      3043
 -1      1367    8    0    1
 -2       631       741       742      3040      3044      3042
 -1      1368    8    0    1
 -2       633       632       743      2705      3045      3046
 -1      1369    8    0    1
 -2       632       742       743      3043      3047      3045
 -1      1370    8    0    1
 -2       634       633       744      2708      3048      3049
 -1      1371    8    0    1
 -2       633       743       744      3046      3050      3048
 -1      1372    8    0    1
 -2       635       634       745      2711      3051      3052
 -1      1373    8    0    1
 -2       634       744       745      3049      3053      3051
 -1      1374    8    0    1
 -2       636       635       746      2714      3054      3055
 -1      1375    8    0    1
 -2       635       745       746      3052      3056      3054
 -1      1376    8    0    1
 -2       637       636       747      2717      3057      3058
 -1      1377    8    0    1
 -2       636       746       747      3055      3059      3057
 -1      1378    8    0    1
 -2       638       637       748      2720      3060      3061
 -1      1379    8    0    1
 -2       637       747       748      3058      3062      3060
 -1      1380    8    0    1
 -2       639       638       749      2723      3063      3064
 -1      1381    8    0    1
 -2       638       748       749      3061      3065      3063
 -1      1382    8    0    1
 -2       689       600       750      2872      3066      3067
 -1      1383    8    0    1
 -2       708       689       750      2945      3067      3068
 -1      1384    8    0    1
 -2       600       710       750      2949      3069      3066
 -1      1385    8    0    1
 -2       646       647       751      2747      3070      3071
 -1      1386    8    0    1
 -2       647       648       752      2750      3072      3073
 -1      1387    8    0    1
 -2       647       752       751      3073      3074      3070
 -1      1388    8    0    1
 -2       648       649       753      2753      3075      3076
 -1      1389    8    0    1
 -2       648       753       752      3076      3077      3072
 -1      1390    8    0    1
 -2       649       650       754      2756      3078      3079
 -1      1391    8    0    1
 -2       649       754       753      3079      3080      3075
 -1      1392    8    0    1
 -2       650       651       755      2759      3081      3082
 -1      1393    8    0    1
 -2       650       755       754      3082      3083      3078
 -1      1394    8    0    1
 -2       651       652       756      2762      3084      3085
 -1      1395    8    0    1
 -2       651       756       755      3085      3086      3081
 -1      1396    8    0    1
 -2       652       653       757      2765      3087      3088
 -1      1397    8    0    1
 -2       652       757       756      3088      3089      3084
 -1      1398    8    0    1
 -2       653       654       758      2768      3090      3091
 -1      1399    8    0    1
 -2       653       758       757      3091      3092      3087
 -1      1400    8    0    1
 -2       654       655       759      2771      3093      3094
 -1      1401    8    0    1
 -2       654       759       758      3094      3095      3090
 -1      1402    8    0    1
 -2       655       656       760      2774      3096      3097
 -1      1403    8    0    1
 -2       655       760       759      3097      3098      3093
 -1      1404    8    0    1
 -2       656       657       761      2777      3099      3100
 -1      1405    8    0    1
 -2       656       761       760      3100      3101      3096
 -1      1406    8    0    1
 -2       657       658       762      2780      3102      3103
 -1      1407    8    0    1
 -2       657       762       761      3103      3104      3099
 -1      1408    8    0    1
 -2       658       659       763      2783      3105      3106
 -1      1409    8    0    1
 -2       658       763       762      3106      3107      3102
 -1      1410    8    0    1
 -2       659       660       764      2786      3108      3109
 -1      1411    8    0    1
 -2       659       764       763      3109      3110      3105
 -1      1412    8    0    1
 -2       660       661       765      2789      3111      3112
 -1      1413    8    0    1
 -2       660       765       764      3112      3113      3108
 -1      1414    8    0    1
 -2       661       662       766      2792      3114      3115
 -1      1415    8    0    1
 -2       661       766       765      3115      3116      3111
 -1      1416    8    0    1
 -2       662       663       767      2795      3117      3118
 -1      1417    8    0    1
 -2       662       767       766      3118      3119      3114
 -1      1418    8    0    1
 -2       663       664       768      2798      3120      3121
 -1      1419    8    0    1
 -2       663       768       767      3121      3122      3117
 -1      1420    8    0    1
 -2       664       665       769      2801      3123      3124
 -1      1421    8    0    1
 -2       664       769       768      3124      3125      3120
 -1      1422    8    0    1
 -2       665       666       770      2804      3126      3127
 -1      1423    8    0    1
 -2       665       770       769      3127      3128      3123
 -1      1424    8    0    1
 -2       666       667       771      2807      3129      3130
 -1      1425    8    0    1
 -2       666       771       770      3130      3131      3126
 -1      1426    8    0    1
 -2       667       668       772      2810      3132      3133
 -1      1427    8    0    1
 -2       667       772       771      3133      3134      3129
 -1      1428    8    0    1
 -2       668       669       773      2813      3135      3136
 -1      1429    8    0    1
 -2       668       773       772      3136      3137      3132
 -1      1430    8    0    1
 -2       669       670       774      2816      3138      3139
 -1      1431    8    0    1
 -2       669       774       773      3139      3140      3135
 -1      1432    8    0    1
 -2       670       671       775      2819      3141      3142
 -1      1433    8    0    1
 -2       670       775       774      3142      3143      3138
 -1      1434    8    0    1
 -2       671       672       776      2822      3144      3145
 -1      1435    8    0    1
 -2       671       776       775      3145      3146      3141
 -1      1436    8    0    1
 -2       672       673       777      2825      3147      3148
 -1      1437    8    0    1
 -2       672       777       776      3148      3149      3144
 -1      1438    8    0    1
 -2       673       674       778      2828      3150      3151
 -1      1439    8    0    1
 -2       673       778       777      3151      3152      3147
 -1      1440    8    0    1
 -2       674       675       779      2831      3153      3154
 -1      1441    8    0    1
 -2       674       779       778      3154      3155      3150
 -1      1442    8    0    1
 -2       675       676       780      2834      3156      3157
 -1      1443    8    0    1
 -2       675       780       779      3157      3158      3153
 -1      1444    8    0    1
 -2       676       677       781      2837      3159      3160
 -1      1445    8    0    1
 -2       676       781       780      3160      3161      3156
 -1      1446    8    0    1
 -2       677       678       782      2840      3162      3163
 -1      1447    8    0    1
 -2       677       782       781      3163      3164      3159
 -1      1448    8    0    1
 -2       678       679       783      2843      3165      3166
 -1      1449    8    0    1
 -2       678       783       782      3166      3167      3162
 -1      1450    8    0    1
 -2       679       680       703      2846      3168      3169
 -1      1451    8    0    1
 -2       680       681       683      2849      3170      3171
 -1      1452    8    0    1
 -2       681       682       683      2852      3172      3170
 -1      1453    8    0    1
 -2       598       597       784      2599      3173      3174
 -1      1454    8    0    1
 -2       710       598       784      2948      3174      3175
 -1      1455    8    0    1
 -2       597       712       784      2953      3176      3173
 -1      1456    8    0    1
 -2       684       576       705      2859      2936      3177
 -1      1457    8    0    1
 -2       593       592       785      2586      3178      3179
 -1      1458    8    0    1
 -2       691       698       786      2922      3180      3181
 -1      1459    8    0    1
 -2       698       695       787      2924      3182      3183
 -1      1460    8    0    1
 -2       519       641       693      2728      3184      2914
 -1      1461    8    0    1
 -2       695       685       788      2925      3185      3186
 -1      1462    8    0    1
 -2       686       601       789      2937      3187      3188
 -1      1463    8    0    1
 -2       697       591       790      2926      3189      3190
 -1      1464    8    0    1
 -2       591       704       790      2920      3191      3189
 -1      1465    8    0    1
 -2       645       646       791      2744      3192      3193
 -1      1466    8    0    1
 -2       645       791       709      3193      3194      2946
 -1      1467    8    0    1
 -2       700       593       792      2902      3195      3196
 -1      1468    8    0    1
 -2       593       785       792      3179      3197      3195
 -1      1469    8    0    1
 -2       646       751       791      3071      3198      3192
 -1      1470    8    0    1
 -2       596       599       707      2602      2940      3199
 -1      1471    8    0    1
 -2       702       690       793      2912      3200      3201
 -1      1472    8    0    1
 -2       786       698       787      3180      3183      3202
 -1      1473    8    0    1
 -2       601       702       789      2911      3203      3187
 -1      1474    8    0    1
 -2       640       639       794      2726      3204      3205
 -1      1475    8    0    1
 -2       641       640       685      2729      3206      3207
 -1      1476    8    0    1
 -2       680       683       687      3171      2929      3208
 -1      1477    8    0    1
 -2       694       594       795      2890      3209      3210
 -1      1478    8    0    1
 -2       594       708       795      2944      3211      3209
 -1      1479    8    0    1
 -2       787       695       794      3182      3212      3213
 -1      1480    8    0    1
 -2       785       592       796      3178      3214      3215
 -1      1481    8    0    1
 -2       592       694       796      2889      3216      3214
 -1      1482    8    0    1
 -2       691       786       797      3181      3217      3218
 -1      1483    8    0    1
 -2       691       797       798      3218      3219      3220
 -1      1484    8    0    1
 -2       691       798       692      3220      3221      2882
 -1      1485    8    0    1
 -2       704       686       799      2921      3222      3223
 -1      1486    8    0    1
 -2       686       789       799      3188      3224      3222
 -1      1487    8    0    1
 -2       699       696       800      2901      3225      3226
 -1      1488    8    0    1
 -2       690       692       793      2881      3227      3200
 -1      1489    8    0    1
 -2       696       706       801      2934      3228      3229
 -1      1490    8    0    1
 -2       696       801       800      3229      3230      3225
 -1      1491    8    0    1
 -2       596       707       711      3199      3231      2950
 -1      1492    8    0    1
 -2       685       688       641      2923      3232      3207
 -1      1493    8    0    1
 -2       639       749       794      3064      3233      3204
 -1      1494    8    0    1
 -2       641       688       693      3232      2885      3184
 -1      1495    8    0    1
 -2       752       753       802      3077      3234      3235
 -1      1496    8    0    1
 -2       713       711       803      2957      3236      3237
 -1      1497    8    0    1
 -2       714       713       804      2960      3238      3239
 -1      1498    8    0    1
 -2       713       803       804      3237      3240      3238
 -1      1499    8    0    1
 -2       715       714       805      2963      3241      3242
 -1      1500    8    0    1
 -2       714       804       805      3239      3243      3241
 -1      1501    8    0    1
 -2       716       715       806      2966      3244      3245
 -1      1502    8    0    1
 -2       715       805       806      3242      3246      3244
 -1      1503    8    0    1
 -2       717       716       807      2969      3247      3248
 -1      1504    8    0    1
 -2       716       806       807      3245      3249      3247
 -1      1505    8    0    1
 -2       718       717       808      2972      3250      3251
 -1      1506    8    0    1
 -2       717       807       808      3248      3252      3250
 -1      1507    8    0    1
 -2       719       718       809      2975      3253      3254
 -1      1508    8    0    1
 -2       718       808       809      3251      3255      3253
 -1      1509    8    0    1
 -2       720       719       810      2978      3256      3257
 -1      1510    8    0    1
 -2       719       809       810      3254      3258      3256
 -1      1511    8    0    1
 -2       721       720       811      2981      3259      3260
 -1      1512    8    0    1
 -2       720       810       811      3257      3261      3259
 -1      1513    8    0    1
 -2       722       721       812      2984      3262      3263
 -1      1514    8    0    1
 -2       721       811       812      3260      3264      3262
 -1      1515    8    0    1
 -2       723       722       813      2987      3265      3266
 -1      1516    8    0    1
 -2       722       812       813      3263      3267      3265
 -1      1517    8    0    1
 -2       724       723       814      2990      3268      3269
 -1      1518    8    0    1
 -2       723       813       814      3266      3270      3268
 -1      1519    8    0    1
 -2       725       724       815      2993      3271      3272
 -1      1520    8    0    1
 -2       724       814       815      3269      3273      3271
 -1      1521    8    0    1
 -2       726       725       816      2996      3274      3275
 -1      1522    8    0    1
 -2       725       815       816      3272      3276      3274
 -1      1523    8    0    1
 -2       727       726       817      2999      3277      3278
 -1      1524    8    0    1
 -2       726       816       817      3275      3279      3277
 -1      1525    8    0    1
 -2       728       727       818      3002      3280      3281
 -1      1526    8    0    1
 -2       727       817       818      3278      3282      3280
 -1      1527    8    0    1
 -2       729       728       819      3005      3283      3284
 -1      1528    8    0    1
 -2       728       818       819      3281      3285      3283
 -1      1529    8    0    1
 -2       730       729       820      3008      3286      3287
 -1      1530    8    0    1
 -2       729       819       820      3284      3288      3286
 -1      1531    8    0    1
 -2       731       730       821      3011      3289      3290
 -1      1532    8    0    1
 -2       730       820       821      3287      3291      3289
 -1      1533    8    0    1
 -2       732       731       822      3014      3292      3293
 -1      1534    8    0    1
 -2       731       821       822      3290      3294      3292
 -1      1535    8    0    1
 -2       733       732       823      3017      3295      3296
 -1      1536    8    0    1
 -2       732       822       823      3293      3297      3295
 -1      1537    8    0    1
 -2       734       733       824      3020      3298      3299
 -1      1538    8    0    1
 -2       733       823       824      3296      3300      3298
 -1      1539    8    0    1
 -2       735       734       825      3023      3301      3302
 -1      1540    8    0    1
 -2       734       824       825      3299      3303      3301
 -1      1541    8    0    1
 -2       736       735       826      3026      3304      3305
 -1      1542    8    0    1
 -2       735       825       826      3302      3306      3304
 -1      1543    8    0    1
 -2       737       736       827      3029      3307      3308
 -1      1544    8    0    1
 -2       736       826       827      3305      3309      3307
 -1      1545    8    0    1
 -2       738       737       828      3032      3310      3311
 -1      1546    8    0    1
 -2       737       827       828      3308      3312      3310
 -1      1547    8    0    1
 -2       739       738       829      3035      3313      3314
 -1      1548    8    0    1
 -2       738       828       829      3311      3315      3313
 -1      1549    8    0    1
 -2       740       739       830      3038      3316      3317
 -1      1550    8    0    1
 -2       739       829       830      3314      3318      3316
 -1      1551    8    0    1
 -2       741       740       831      3041      3319      3320
 -1      1552    8    0    1
 -2       740       830       831      3317      3321      3319
 -1      1553    8    0    1
 -2       742       741       832      3044      3322      3323
 -1      1554    8    0    1
 -2       741       831       832      3320      3324      3322
 -1      1555    8    0    1
 -2       743       742       833      3047      3325      3326
 -1      1556    8    0    1
 -2       742       832       833      3323      3327      3325
 -1      1557    8    0    1
 -2       744       743       834      3050      3328      3329
 -1      1558    8    0    1
 -2       743       833       834      3326      3330      3328
 -1      1559    8    0    1
 -2       745       744       835      3053      3331      3332
 -1      1560    8    0    1
 -2       744       834       835      3329      3333      3331
 -1      1561    8    0    1
 -2       746       745       836      3056      3334      3335
 -1      1562    8    0    1
 -2       745       835       836      3332      3336      3334
 -1      1563    8    0    1
 -2       747       746       837      3059      3337      3338
 -1      1564    8    0    1
 -2       746       836       837      3335      3339      3337
 -1      1565    8    0    1
 -2       748       747       838      3062      3340      3341
 -1      1566    8    0    1
 -2       747       837       838      3338      3342      3340
 -1      1567    8    0    1
 -2       703       697       839      2918      3343      3344
 -1      1568    8    0    1
 -2       753       754       840      3080      3345      3346
 -1      1569    8    0    1
 -2       753       840       802      3346      3347      3234
 -1      1570    8    0    1
 -2       751       752       841      3074      3348      3349
 -1      1571    8    0    1
 -2       752       802       841      3235      3350      3348
 -1      1572    8    0    1
 -2       754       755       842      3083      3351      3352
 -1      1573    8    0    1
 -2       754       842       840      3352      3353      3345
 -1      1574    8    0    1
 -2       755       756       843      3086      3354      3355
 -1      1575    8    0    1
 -2       755       843       842      3355      3356      3351
 -1      1576    8    0    1
 -2       756       757       844      3089      3357      3358
 -1      1577    8    0    1
 -2       756       844       843      3358      3359      3354
 -1      1578    8    0    1
 -2       757       758       845      3092      3360      3361
 -1      1579    8    0    1
 -2       757       845       844      3361      3362      3357
 -1      1580    8    0    1
 -2       758       759       846      3095      3363      3364
 -1      1581    8    0    1
 -2       758       846       845      3364      3365      3360
 -1      1582    8    0    1
 -2       759       760       847      3098      3366      3367
 -1      1583    8    0    1
 -2       759       847       846      3367      3368      3363
 -1      1584    8    0    1
 -2       760       761       848      3101      3369      3370
 -1      1585    8    0    1
 -2       760       848       847      3370      3371      3366
 -1      1586    8    0    1
 -2       761       762       849      3104      3372      3373
 -1      1587    8    0    1
 -2       761       849       848      3373      3374      3369
 -1      1588    8    0    1
 -2       762       763       850      3107      3375      3376
 -1      1589    8    0    1
 -2       762       850       849      3376      3377      3372
 -1      1590    8    0    1
 -2       763       764       851      3110      3378      3379
 -1      1591    8    0    1
 -2       763       851       850      3379      3380      3375
 -1      1592    8    0    1
 -2       764       765       852      3113      3381      3382
 -1      1593    8    0    1
 -2       764       852       851      3382      3383      3378
 -1      1594    8    0    1
 -2       765       766       853      3116      3384      3385
 -1      1595    8    0    1
 -2       765       853       852      3385      3386      3381
 -1      1596    8    0    1
 -2       766       767       854      3119      3387      3388
 -1      1597    8    0    1
 -2       766       854       853      3388      3389      3384
 -1      1598    8    0    1
 -2       767       768       855      3122      3390      3391
 -1      1599    8    0    1
 -2       767       855       854      3391      3392      3387
 -1      1600    8    0    1
 -2       768       769       856      3125      3393      3394
 -1      1601    8    0    1
 -2       768       856       855      3394      3395      3390
 -1      1602    8    0    1
 -2       769       770       857      3128      3396      3397
 -1      1603    8    0    1
 -2       769       857       856      3397      3398      3393
 -1      1604    8    0    1
 -2       770       771       858      3131      3399      3400
 -1      1605    8    0    1
 -2       770       858       857      3400      3401      3396
 -1      1606    8    0    1
 -2       771       772       859      3134      3402      3403
 -1      1607    8    0    1
 -2       771       859       858      3403      3404      3399
 -1      1608    8    0    1
 -2       772       773       860      3137      3405      3406
 -1      1609    8    0    1
 -2       772       860       859      3406      3407      3402
 -1      1610    8    0    1
 -2       773       774       861      3140      3408      3409
 -1      1611    8    0    1
 -2       773       861       860      3409      3410      3405
 -1      1612    8    0    1
 -2       774       775       862      3143      3411      3412
 -1      1613    8    0    1
 -2       774       862       861      3412      3413      3408
 -1      1614    8    0    1
 -2       775       776       863      3146      3414      3415
 -1      1615    8    0    1
 -2       775       863       862      3415      3416      3411
 -1      1616    8    0    1
 -2       776       777       864      3149      3417      3418
 -1      1617    8    0    1
 -2       776       864       863      3418      3419      3414
 -1      1618    8    0    1
 -2       777       778       865      3152      3420      3421
 -1      1619    8    0    1
 -2       777       865       864      3421      3422      3417
 -1      1620    8    0    1
 -2       778       779       866      3155      3423      3424
 -1      1621    8    0    1
 -2       778       866       865      3424      3425      3420
 -1      1622    8    0    1
 -2       779       780       867      3158      3426      3427
 -1      1623    8    0    1
 -2       779       867       866      3427      3428      3423
 -1      1624    8    0    1
 -2       780       781       868      3161      3429      3430
 -1      1625    8    0    1
 -2       780       868       867      3430      3431      3426
 -1      1626    8    0    1
 -2       781       782       869      3164      3432      3433
 -1      1627    8    0    1
 -2       781       869       868      3433      3434      3429
 -1      1628    8    0    1
 -2       782       783       839      3167      3435      3436
 -1      1629    8    0    1
 -2       679       703       783      3169      3437      3165
 -1      1630    8    0    1
 -2       683       682       705      3172      3438      2927
 -1      1631    8    0    1
 -2       794       695       788      3212      3186      3439
 -1      1632    8    0    1
 -2       797       786       870      3217      3440      3441
 -1      1633    8    0    1
 -2       709       791       871      3194      3442      3443
 -1      1634    8    0    1
 -2       789       702       872      3203      3444      3445
 -1      1635    8    0    1
 -2       790       704       873      3191      3446      3447
 -1      1636    8    0    1
 -2       706       700       874      2935      3448      3449
 -1      1637    8    0    1
 -2       706       874       801      3449      3450      3228
 -1      1638    8    0    1
 -2       711       707       699      3231      2941      3451
 -1      1639    8    0    1
 -2       712       709       875      2954      3452      3453
 -1      1640    8    0    1
 -2       709       871       875      3443      3454      3452
 -1      1641    8    0    1
 -2       793       692       798      3227      3221      3455
 -1      1642    8    0    1
 -2       697       790       839      3190      3456      3343
 -1      1643    8    0    1
 -2       791       751       876      3198      3457      3458
 -1      1644    8    0    1
 -2       751       841       876      3349      3459      3457
 -1      1645    8    0    1
 -2       702       793       877      3201      3460      3461
 -1      1646    8    0    1
 -2       702       877       872      3461      3462      3444
 -1      1647    8    0    1
 -2       703       839       783      3344      3435      3437
 -1      1648    8    0    1
 -2       782       839       869      3436      3463      3432
 -1      1649    8    0    1
 -2       798       797       878      3219      3464      3465
 -1      1650    8    0    1
 -2       803       711       800      3236      3466      3467
 -1      1651    8    0    1
 -2       700       792       874      3196      3468      3448
 -1      1652    8    0    1
 -2       796       694       795      3216      3210      3469
 -1      1653    8    0    1
 -2       708       750       879      3068      3470      3471
 -1      1654    8    0    1
 -2       708       879       795      3471      3472      3211
 -1      1655    8    0    1
 -2       800       801       880      3230      3473      3474
 -1      1656    8    0    1
 -2       800       880       803      3474      3475      3467
 -1      1657    8    0    1
 -2       786       787       881      3202      3476      3477
 -1      1658    8    0    1
 -2       685       640       788      3206      3478      3185
 -1      1659    8    0    1
 -2       684       705       682      3177      3438      2858
 -1      1660    8    0    1
 -2       748       838       870      3341      3479      3480
 -1      1661    8    0    1
 -2       791       876       871      3458      3481      3442
 -1      1662    8    0    1
 -2       749       748       870      3065      3480      3482
 -1      1663    8    0    1
 -2       750       710       882      3069      3483      3484
 -1      1664    8    0    1
 -2       750       882       879      3484      3485      3470
 -1      1665    8    0    1
 -2       794       749       787      3233      3486      3213
 -1      1666    8    0    1
 -2       680       687       703      3208      2917      3168
 -1      1667    8    0    1
 -2       878       797       870      3464      3441      3487
 -1      1668    8    0    1
 -2       800       711       699      3466      3451      3226
 -1      1669    8    0    1
 -2       788       640       794      3478      3205      3439
 -1      1670    8    0    1
 -2       882       710       784      3483      3175      3488
 -1      1671    8    0    1
 -2       784       712       883      3176      3489      3490
 -1      1672    8    0    1
 -2       712       875       883      3453      3491      3489
 -1      1673    8    0    1
 -2       785       796       884      3215      3492      3493
 -1      1674    8    0    1
 -2       793       798       885      3455      3494      3495
 -1      1675    8    0    1
 -2       798       878       885      3465      3496      3494
 -1      1676    8    0    1
 -2       839       790       873      3456      3447      3497
 -1      1677    8    0    1
 -2       789       872       886      3445      3498      3499
 -1      1678    8    0    1
 -2       789       886       799      3499      3500      3224
 -1      1679    8    0    1
 -2       704       799       873      3223      3501      3446
 -1      1680    8    0    1
 -2       877       793       885      3460      3495      3502
 -1      1681    8    0    1
 -2       785       884       887      3493      3503      3504
 -1      1682    8    0    1
 -2       785       887       792      3504      3505      3197
 -1      1683    8    0    1
 -2       839       873       869      3497      3506      3463
 -1      1684    8    0    1
 -2       874       792       888      3468      3507      3508
 -1      1685    8    0    1
 -2       792       887       888      3505      3509      3507
 -1      1686    8    0    1
 -2       804       803       880      3240      3475      3510
 -1      1687    8    0    1
 -2       871       876       889      3481      3511      3512
 -1      1688    8    0    1
 -2       805       804       890      3243      3513      3514
 -1      1689    8    0    1
 -2       806       805       891      3246      3515      3516
 -1      1690    8    0    1
 -2       805       890       891      3514      3517      3515
 -1      1691    8    0    1
 -2       807       806       892      3249      3518      3519
 -1      1692    8    0    1
 -2       806       891       892      3516      3520      3518
 -1      1693    8    0    1
 -2       808       807       893      3252      3521      3522
 -1      1694    8    0    1
 -2       807       892       893      3519      3523      3521
 -1      1695    8    0    1
 -2       809       808       894      3255      3524      3525
 -1      1696    8    0    1
 -2       808       893       894      3522      3526      3524
 -1      1697    8    0    1
 -2       810       809       895      3258      3527      3528
 -1      1698    8    0    1
 -2       809       894       895      3525      3529      3527
 -1      1699    8    0    1
 -2       811       810       896      3261      3530      3531
 -1      1700    8    0    1
 -2       810       895       896      3528      3532      3530
 -1      1701    8    0    1
 -2       812       811       897      3264      3533      3534
 -1      1702    8    0    1
 -2       811       896       897      3531      3535      3533
 -1      1703    8    0    1
 -2       813       812       898      3267      3536      3537
 -1      1704    8    0    1
 -2       812       897       898      3534      3538      3536
 -1      1705    8    0    1
 -2       814       813       899      3270      3539      3540
 -1      1706    8    0    1
 -2       813       898       899      3537      3541      3539
 -1      1707    8    0    1
 -2       815       814       900      3273      3542      3543
 -1      1708    8    0    1
 -2       814       899       900      3540      3544      3542
 -1      1709    8    0    1
 -2       816       815       901      3276      3545      3546
 -1      1710    8    0    1
 -2       815       900       901      3543      3547      3545
 -1      1711    8    0    1
 -2       817       816       902      3279      3548      3549
 -1      1712    8    0    1
 -2       816       901       902      3546      3550      3548
 -1      1713    8    0    1
 -2       818       817       903      3282      3551      3552
 -1      1714    8    0    1
 -2       817       902       903      3549      3553      3551
 -1      1715    8    0    1
 -2       819       818       904      3285      3554      3555
 -1      1716    8    0    1
 -2       818       903       904      3552      3556      3554
 -1      1717    8    0    1
 -2       820       819       905      3288      3557      3558
 -1      1718    8    0    1
 -2       819       904       905      3555      3559      3557
 -1      1719    8    0    1
 -2       821       820       906      3291      3560      3561
 -1      1720    8    0    1
 -2       820       905       906      3558      3562      3560
 -1      1721    8    0    1
 -2       822       821       907      3294      3563      3564
 -1      1722    8    0    1
 -2       821       906       907      3561      3565      3563
 -1      1723    8    0    1
 -2       823       822       908      3297      3566      3567
 -1      1724    8    0    1
 -2       822       907       908      3564      3568      3566
 -1      1725    8    0    1
 -2       824       823       909      3300      3569      3570
 -1      1726    8    0    1
 -2       823       908       909      3567      3571      3569
 -1      1727    8    0    1
 -2       825       824       910      3303      3572      3573
 -1      1728    8    0    1
 -2       824       909       910      3570      3574      3572
 -1      1729    8    0    1
 -2       826       825       911      3306      3575      3576
 -1      1730    8    0    1
 -2       825       910       911      3573      3577      3575
 -1      1731    8    0    1
 -2       827       826       912      3309      3578      3579
 -1      1732    8    0    1
 -2       826       911       912      3576      3580      3578
 -1      1733    8    0    1
 -2       828       827       913      3312      3581      3582
 -1      1734    8    0    1
 -2       827       912       913      3579      3583      3581
 -1      1735    8    0    1
 -2       829       828       914      3315      3584      3585
 -1      1736    8    0    1
 -2       828       913       914      3582      3586      3584
 -1      1737    8    0    1
 -2       830       829       915      3318      3587      3588
 -1      1738    8    0    1
 -2       829       914       915      3585      3589      3587
 -1      1739    8    0    1
 -2       831       830       916      3321      3590      3591
 -1      1740    8    0    1
 -2       830       915       916      3588      3592      3590
 -1      1741    8    0    1
 -2       832       831       917      3324      3593      3594
 -1      1742    8    0    1
 -2       831       916       917      3591      3595      3593
 -1      1743    8    0    1
 -2       833       832       918      3327      3596      3597
 -1      1744    8    0    1
 -2       832       917       918      3594      3598      3596
 -1      1745    8    0    1
 -2       834       833       919      3330      3599      3600
 -1      1746    8    0    1
 -2       833       918       919      3597      3601      3599
 -1      1747    8    0    1
 -2       835       834       920      3333      3602      3603
 -1      1748    8    0    1
 -2       834       919       920      3600      3604      3602
 -1      1749    8    0    1
 -2       836       835       921      3336      3605      3606
 -1      1750    8    0    1
 -2       835       920       921      3603      3607      3605
 -1      1751    8    0    1
 -2       837       836       922      3339      3608      3609
 -1      1752    8    0    1
 -2       836       921       922      3606      3610      3608
 -1      1753    8    0    1
 -2       802       840       923      3347      3611      3612
 -1      1754    8    0    1
 -2       841       802       924      3350      3613      3614
 -1      1755    8    0    1
 -2       802       923       924      3612      3615      3613
 -1      1756    8    0    1
 -2       843       844       925      3359      3616      3617
 -1      1757    8    0    1
 -2       844       845       926      3362      3618      3619
 -1      1758    8    0    1
 -2       844       926       925      3619      3620      3616
 -1      1759    8    0    1
 -2       845       846       927      3365      3621      3622
 -1      1760    8    0    1
 -2       845       927       926      3622      3623      3618
 -1      1761    8    0    1
 -2       846       847       928      3368      3624      3625
 -1      1762    8    0    1
 -2       846       928       927      3625      3626      3621
 -1      1763    8    0    1
 -2       847       848       929      3371      3627      3628
 -1      1764    8    0    1
 -2       847       929       928      3628      3629      3624
 -1      1765    8    0    1
 -2       848       849       930      3374      3630      3631
 -1      1766    8    0    1
 -2       848       930       929      3631      3632      3627
 -1      1767    8    0    1
 -2       849       850       931      3377      3633      3634
 -1      1768    8    0    1
 -2       849       931       930      3634      3635      3630
 -1      1769    8    0    1
 -2       850       851       932      3380      3636      3637
 -1      1770    8    0    1
 -2       850       932       931      3637      3638      3633
 -1      1771    8    0    1
 -2       851       852       933      3383      3639      3640
 -1      1772    8    0    1
 -2       851       933       932      3640      3641      3636
 -1      1773    8    0    1
 -2       852       853       934      3386      3642      3643
 -1      1774    8    0    1
 -2       852       934       933      3643      3644      3639
 -1      1775    8    0    1
 -2       853       854       935      3389      3645      3646
 -1      1776    8    0    1
 -2       853       935       934      3646      3647      3642
 -1      1777    8    0    1
 -2       854       855       936      3392      3648      3649
 -1      1778    8    0    1
 -2       854       936       935      3649      3650      3645
 -1      1779    8    0    1
 -2       855       856       937      3395      3651      3652
 -1      1780    8    0    1
 -2       855       937       936      3652      3653      3648
 -1      1781    8    0    1
 -2       856       857       938      3398      3654      3655
 -1      1782    8    0    1
 -2       856       938       937      3655      3656      3651
 -1      1783    8    0    1
 -2       857       858       939      3401      3657      3658
 -1      1784    8    0    1
 -2       857       939       938      3658      3659      3654
 -1      1785    8    0    1
 -2       858       859       940      3404      3660      3661
 -1      1786    8    0    1
 -2       858       940       939      3661      3662      3657
 -1      1787    8    0    1
 -2       859       860       941      3407      3663      3664
 -1      1788    8    0    1
 -2       859       941       940      3664      3665      3660
 -1      1789    8    0    1
 -2       860       861       942      3410      3666      3667
 -1      1790    8    0    1
 -2       860       942       941      3667      3668      3663
 -1      1791    8    0    1
 -2       861       862       943      3413      3669      3670
 -1      1792    8    0    1
 -2       861       943       942      3670      3671      3666
 -1      1793    8    0    1
 -2       862       863       944      3416      3672      3673
 -1      1794    8    0    1
 -2       862       944       943      3673      3674      3669
 -1      1795    8    0    1
 -2       863       864       945      3419      3675      3676
 -1      1796    8    0    1
 -2       863       945       944      3676      3677      3672
 -1      1797    8    0    1
 -2       864       865       946      3422      3678      3679
 -1      1798    8    0    1
 -2       864       946       945      3679      3680      3675
 -1      1799    8    0    1
 -2       865       866       947      3425      3681      3682
 -1      1800    8    0    1
 -2       865       947       946      3682      3683      3678
 -1      1801    8    0    1
 -2       866       867       948      3428      3684      3685
 -1      1802    8    0    1
 -2       866       948       947      3685      3686      3681
 -1      1803    8    0    1
 -2       867       868       949      3431      3687      3688
 -1      1804    8    0    1
 -2       867       949       948      3688      3689      3684
 -1      1805    8    0    1
 -2       868       869       950      3434      3690      3691
 -1      1806    8    0    1
 -2       949       868       950      3687      3691      3692
 -1      1807    8    0    1
 -2       869       873       950      3506      3693      3690
 -1      1808    8    0    1
 -2       882       784       883      3488      3490      3694
 -1      1809    8    0    1
 -2       840       842       951      3353      3695      3696
 -1      1810    8    0    1
 -2       840       951       923      3696      3697      3611
 -1      1811    8    0    1
 -2       801       874       952      3450      3698      3699
 -1      1812    8    0    1
 -2       880       801       952      3473      3699      3700
 -1      1813    8    0    1
 -2       874       888       952      3508      3701      3698
 -1      1814    8    0    1
 -2       885       878       953      3496      3702      3703
 -1      1815    8    0    1
 -2       873       799       950      3501      3704      3693
 -1      1816    8    0    1
 -2       875       871       954      3454      3705      3706
 -1      1817    8    0    1
 -2       871       889       954      3512      3707      3705
 -1      1818    8    0    1
 -2       872       877       955      3462      3708      3709
 -1      1819    8    0    1
 -2       876       841       956      3459      3710      3711
 -1      1820    8    0    1
 -2       841       924       956      3614      3712      3710
 -1      1821    8    0    1
 -2       796       795       957      3469      3713      3714
 -1      1822    8    0    1
 -2       884       796       957      3492      3714      3715
 -1      1823    8    0    1
 -2       795       879       957      3472      3716      3713
 -1      1824    8    0    1
 -2       877       885       958      3502      3717      3718
 -1      1825    8    0    1
 -2       842       843       959      3356      3719      3720
 -1      1826    8    0    1
 -2       951       842       959      3695      3720      3721
 -1      1827    8    0    1
 -2       843       925       959      3617      3722      3719
 -1      1828    8    0    1
 -2       890       804       880      3513      3510      3723
 -1      1829    8    0    1
 -2       953       878       960      3702      3724      3725
 -1      1830    8    0    1
 -2       889       876       956      3511      3711      3726
 -1      1831    8    0    1
 -2       837       922       960      3609      3727      3728
 -1      1832    8    0    1
 -2       838       837       960      3342      3728      3729
 -1      1833    8    0    1
 -2       883       875       961      3491      3730      3731
 -1      1834    8    0    1
 -2       875       954       961      3706      3732      3730
 -1      1835    8    0    1
 -2       884       957       962      3715      3733      3734
 -1      1836    8    0    1
 -2       884       962       963      3734      3735      3736
 -1      1837    8    0    1
 -2       884       963       887      3736      3737      3503
 -1      1838    8    0    1
 -2       885       953       958      3703      3738      3717
 -1      1839    8    0    1
 -2       870       838       878      3479      3739      3487
 -1      1840    8    0    1
 -2       872       955       964      3709      3740      3741
 -1      1841    8    0    1
 -2       872       964       886      3741      3742      3498
 -1      1842    8    0    1
 -2       878       838       960      3739      3729      3724
 -1      1843    8    0    1
 -2       877       958       955      3718      3743      3708
 -1      1844    8    0    1
 -2       799       886       950      3500      3744      3704
 -1      1845    8    0    1
 -2       882       883       965      3694      3745      3746
 -1      1846    8    0    1
 -2       882       965       962      3746      3747      3748
 -1      1847    8    0    1
 -2       955       958       966      3743      3749      3750
 -1      1848    8    0    1
 -2       889       956       967      3726      3751      3752
 -1      1849    8    0    1
 -2       960       922       968      3727      3753      3754
 -1      1850    8    0    1
 -2       960       968       953      3754      3755      3725
 -1      1851    8    0    1
 -2       892       891       969      3520      3756      3757
 -1      1852    8    0    1
 -2       893       892       970      3523      3758      3759
 -1      1853    8    0    1
 -2       892       969       970      3757      3760      3758
 -1      1854    8    0    1
 -2       894       893       971      3526      3761      3762
 -1      1855    8    0    1
 -2       893       970       971      3759      3763      3761
 -1      1856    8    0    1
 -2       895       894       972      3529      3764      3765
 -1      1857    8    0    1
 -2       894       971       972      3762      3766      3764
 -1      1858    8    0    1
 -2       896       895       973      3532      3767      3768
 -1      1859    8    0    1
 -2       895       972       973      3765      3769      3767
 -1      1860    8    0    1
 -2       897       896       974      3535      3770      3771
 -1      1861    8    0    1
 -2       896       973       974      3768      3772      3770
 -1      1862    8    0    1
 -2       898       897       975      3538      3773      3774
 -1      1863    8    0    1
 -2       897       974       975      3771      3775      3773
 -1      1864    8    0    1
 -2       899       898       976      3541      3776      3777
 -1      1865    8    0    1
 -2       898       975       976      3774      3778      3776
 -1      1866    8    0    1
 -2       900       899       977      3544      3779      3780
 -1      1867    8    0    1
 -2       899       976       977      3777      3781      3779
 -1      1868    8    0    1
 -2       901       900       978      3547      3782      3783
 -1      1869    8    0    1
 -2       900       977       978      3780      3784      3782
 -1      1870    8    0    1
 -2       902       901       979      3550      3785      3786
 -1      1871    8    0    1
 -2       901       978       979      3783      3787      3785
 -1      1872    8    0    1
 -2       903       902       980      3553      3788      3789
 -1      1873    8    0    1
 -2       902       979       980      3786      3790      3788
 -1      1874    8    0    1
 -2       904       903       981      3556      3791      3792
 -1      1875    8    0    1
 -2       903       980       981      3789      3793      3791
 -1      1876    8    0    1
 -2       905       904       982      3559      3794      3795
 -1      1877    8    0    1
 -2       904       981       982      3792      3796      3794
 -1      1878    8    0    1
 -2       906       905       983      3562      3797      3798
 -1      1879    8    0    1
 -2       905       982       983      3795      3799      3797
 -1      1880    8    0    1
 -2       907       906       984      3565      3800      3801
 -1      1881    8    0    1
 -2       906       983       984      3798      3802      3800
 -1      1882    8    0    1
 -2       908       907       985      3568      3803      3804
 -1      1883    8    0    1
 -2       907       984       985      3801      3805      3803
 -1      1884    8    0    1
 -2       909       908       986      3571      3806      3807
 -1      1885    8    0    1
 -2       908       985       986      3804      3808      3806
 -1      1886    8    0    1
 -2       910       909       987      3574      3809      3810
 -1      1887    8    0    1
 -2       909       986       987      3807      3811      3809
 -1      1888    8    0    1
 -2       911       910       988      3577      3812      3813
 -1      1889    8    0    1
 -2       910       987       988      3810      3814      3812
 -1      1890    8    0    1
 -2       912       911       989      3580      3815      3816
 -1      1891    8    0    1
 -2       911       988       989      3813      3817      3815
 -1      1892    8    0    1
 -2       913       912       990      3583      3818      3819
 -1      1893    8    0    1
 -2       912       989       990      3816      3820      3818
 -1      1894    8    0    1
 -2       914       913       991      3586      3821      3822
 -1      1895    8    0    1
 -2       913       990       991      3819      3823      3821
 -1      1896    8    0    1
 -2       915       914       992      3589      3824      3825
 -1      1897    8    0    1
 -2       914       991       992      3822      3826      3824
 -1      1898    8    0    1
 -2       916       915       993      3592      3827      3828
 -1      1899    8    0    1
 -2       915       992       993      3825      3829      3827
 -1      1900    8    0    1
 -2       917       916       994      3595      3830      3831
 -1      1901    8    0    1
 -2       916       993       994      3828      3832      3830
 -1      1902    8    0    1
 -2       918       917       995      3598      3833      3834
 -1      1903    8    0    1
 -2       917       994       995      3831      3835      3833
 -1      1904    8    0    1
 -2       919       918       996      3601      3836      3837
 -1      1905    8    0    1
 -2       918       995       996      3834      3838      3836
 -1      1906    8    0    1
 -2       920       919       997      3604      3839      3840
 -1      1907    8    0    1
 -2       919       996       997      3837      3841      3839
 -1      1908    8    0    1
 -2       921       920       998      3607      3842      3843
 -1      1909    8    0    1
 -2       920       997       998      3840      3844      3842
 -1      1910    8    0    1
 -2       922       921       999      3610      3845      3846
 -1      1911    8    0    1
 -2       968       922       999      3753      3846      3847
 -1      1912    8    0    1
 -2       921       998       999      3843      3848      3845
 -1      1913    8    0    1
 -2       926       927      1000      3623      3849      3850
 -1      1914    8    0    1
 -2       925       926      1001      3620      3851      3852
 -1      1915    8    0    1
 -2       926      1000      1001      3850      3853      3851
 -1      1916    8    0    1
 -2       928       929      1002      3629      3854      3855
 -1      1917    8    0    1
 -2       929       930      1003      3632      3856      3857
 -1      1918    8    0    1
 -2       929      1003      1002      3857      3858      3854
 -1      1919    8    0    1
 -2       930       931      1004      3635      3859      3860
 -1      1920    8    0    1
 -2       930      1004      1003      3860      3861      3856
 -1      1921    8    0    1
 -2       931       932      1005      3638      3862      3863
 -1      1922    8    0    1
 -2       931      1005      1004      3863      3864      3859
 -1      1923    8    0    1
 -2       932       933      1006      3641      3865      3866
 -1      1924    8    0    1
 -2       932      1006      1005      3866      3867      3862
 -1      1925    8    0    1
 -2       933       934      1007      3644      3868      3869
 -1      1926    8    0    1
 -2       933      1007      1006      3869      3870      3865
 -1      1927    8    0    1
 -2       934       935      1008      3647      3871      3872
 -1      1928    8    0    1
 -2       934      1008      1007      3872      3873      3868
 -1      1929    8    0    1
 -2       935       936      1009      3650      3874      3875
 -1      1930    8    0    1
 -2       935      1009      1008      3875      3876      3871
 -1      1931    8    0    1
 -2       936       937      1010      3653      3877      3878
 -1      1932    8    0    1
 -2       936      1010      1009      3878      3879      3874
 -1      1933    8    0    1
 -2       937       938      1011      3656      3880      3881
 -1      1934    8    0    1
 -2       937      1011      1010      3881      3882      3877
 -1      1935    8    0    1
 -2       938       939      1012      3659      3883      3884
 -1      1936    8    0    1
 -2       938      1012      1011      3884      3885      3880
 -1      1937    8    0    1
 -2       939       940      1013      3662      3886      3887
 -1      1938    8    0    1
 -2       939      1013      1012      3887      3888      3883
 -1      1939    8    0    1
 -2       940       941      1014      3665      3889      3890
 -1      1940    8    0    1
 -2       940      1014      1013      3890      3891      3886
 -1      1941    8    0    1
 -2       941       942      1015      3668      3892      3893
 -1      1942    8    0    1
 -2       941      1015      1014      3893      3894      3889
 -1      1943    8    0    1
 -2       942       943      1016      3671      3895      3896
 -1      1944    8    0    1
 -2       942      1016      1015      3896      3897      3892
 -1      1945    8    0    1
 -2       943       944      1017      3674      3898      3899
 -1      1946    8    0    1
 -2       943      1017      1016      3899      3900      3895
 -1      1947    8    0    1
 -2       944       945      1018      3677      3901      3902
 -1      1948    8    0    1
 -2       944      1018      1017      3902      3903      3898
 -1      1949    8    0    1
 -2       945       946      1019      3680      3904      3905
 -1      1950    8    0    1
 -2       945      1019      1018      3905      3906      3901
 -1      1951    8    0    1
 -2       946       947      1020      3683      3907      3908
 -1      1952    8    0    1
 -2       946      1020      1019      3908      3909      3904
 -1      1953    8    0    1
 -2       948       949       964      3689      3910      3911
 -1      1954    8    0    1
 -2       949       950       886      3692      3744      3912
 -1      1955    8    0    1
 -2       888       887      1021      3509      3913      3914
 -1      1956    8    0    1
 -2       887       963      1021      3737      3915      3913
 -1      1957    8    0    1
 -2       879       882       957      3485      3916      3716
 -1      1958    8    0    1
 -2       927       928      1022      3626      3917      3918
 -1      1959    8    0    1
 -2       927      1022      1000      3918      3919      3849
 -1      1960    8    0    1
 -2       962       965      1023      3747      3920      3921
 -1      1961    8    0    1
 -2       965       883       961      3745      3731      3922
 -1      1962    8    0    1
 -2       956       924      1024      3712      3923      3924
 -1      1963    8    0    1
 -2       956      1024       967      3924      3925      3751
 -1      1964    8    0    1
 -2       954       889      1025      3707      3926      3927
 -1      1965    8    0    1
 -2       889       967      1025      3752      3928      3926
 -1      1966    8    0    1
 -2       924       923      1026      3615      3929      3930
 -1      1967    8    0    1
 -2       924      1026      1024      3930      3931      3923
 -1      1968    8    0    1
 -2       923       951      1027      3697      3932      3933
 -1      1969    8    0    1
 -2       923      1027      1026      3933      3934      3929
 -1      1970    8    0    1
 -2       958       953      1028      3738      3935      3936
 -1      1971    8    0    1
 -2       966       958      1028      3749      3936      3937
 -1      1972    8    0    1
 -2       953       968      1028      3755      3938      3935
 -1      1973    8    0    1
 -2       891       890      1029      3517      3939      3940
 -1      1974    8    0    1
 -2       891      1029       969      3940      3941      3756
 -1      1975    8    0    1
 -2       882       962       957      3748      3733      3916
 -1      1976    8    0    1
 -2       949       886       964      3912      3742      3910
 -1      1977    8    0    1
 -2       786       881      1030      3477      3942      3943
 -1      1978    8    0    1
 -2       890       880      1031      3723      3944      3945
 -1      1979    8    0    1
 -2       928      1002      1022      3855      3946      3917
 -1      1980    8    0    1
 -2       880       952      1031      3700      3947      3944
 -1      1981    8    0    1
 -2       961       954      1032      3732      3948      3949
 -1      1982    8    0    1
 -2       954      1025      1032      3927      3950      3948
 -1      1983    8    0    1
 -2       925      1001      1033      3852      3951      3952
 -1      1984    8    0    1
 -2       925      1033       959      3952      3953      3722
 -1      1985    8    0    1
 -2       890      1031      1029      3945      3954      3939
 -1      1986    8    0    1
 -2       786      1030       870      3943      3955      3440
 -1      1987    8    0    1
 -2       947       948      1034      3686      3956      3957
 -1      1988    8    0    1
 -2       947      1034      1020      3957      3958      3907
 -1      1989    8    0    1
 -2       962      1023       963      3921      3959      3735
 -1      1990    8    0    1
 -2      1023       965       961      3920      3922      3960
 -1      1991    8    0    1
 -2       952       888      1031      3701      3961      3947
 -1      1992    8    0    1
 -2       955       966      1034      3750      3962      3963
 -1      1993    8    0    1
 -2       888      1021      1031      3914      3964      3961
 -1      1994    8    0    1
 -2      1027       951      1035      3932      3965      3966
 -1      1995    8    0    1
 -2       951       959      1035      3721      3967      3965
 -1      1996    8    0    1
 -2      1024      1026      1036      3931      3968      3969
 -1      1997    8    0    1
 -2       969      1029      1037      3941      3970      3971
 -1      1998    8    0    1
 -2      1022      1002      1038      3946      3972      3973
 -1      1999    8    0    1
 -2       971       970      1039      3763      3974      3975
 -1      2000    8    0    1
 -2       972       971      1040      3766      3976      3977
 -1      2001    8    0    1
 -2       971      1039      1040      3975      3978      3976
 -1      2002    8    0    1
 -2       973       972      1041      3769      3979      3980
 -1      2003    8    0    1
 -2       972      1040      1041      3977      3981      3979
 -1      2004    8    0    1
 -2       974       973      1042      3772      3982      3983
 -1      2005    8    0    1
 -2       973      1041      1042      3980      3984      3982
 -1      2006    8    0    1
 -2       975       974      1043      3775      3985      3986
 -1      2007    8    0    1
 -2       974      1042      1043      3983      3987      3985
 -1      2008    8    0    1
 -2       976       975      1044      3778      3988      3989
 -1      2009    8    0    1
 -2       975      1043      1044      3986      3990      3988
 -1      2010    8    0    1
 -2       977       976      1045      3781      3991      3992
 -1      2011    8    0    1
 -2       976      1044      1045      3989      3993      3991
 -1      2012    8    0    1
 -2       978       977      1046      3784      3994      3995
 -1      2013    8    0    1
 -2       977      1045      1046      3992      3996      3994
 -1      2014    8    0    1
 -2       979       978      1047      3787      3997      3998
 -1      2015    8    0    1
 -2       978      1046      1047      3995      3999      3997
 -1      2016    8    0    1
 -2       980       979      1048      3790      4000      4001
 -1      2017    8    0    1
 -2       979      1047      1048      3998      4002      4000
 -1      2018    8    0    1
 -2       981       980      1049      3793      4003      4004
 -1      2019    8    0    1
 -2       980      1048      1049      4001      4005      4003
 -1      2020    8    0    1
 -2       982       981      1050      3796      4006      4007
 -1      2021    8    0    1
 -2       981      1049      1050      4004      4008      4006
 -1      2022    8    0    1
 -2       983       982      1051      3799      4009      4010
 -1      2023    8    0    1
 -2       982      1050      1051      4007      4011      4009
 -1      2024    8    0    1
 -2       984       983      1052      3802      4012      4013
 -1      2025    8    0    1
 -2       983      1051      1052      4010      4014      4012
 -1      2026    8    0    1
 -2       985       984      1053      3805      4015      4016
 -1      2027    8    0    1
 -2       984      1052      1053      4013      4017      4015
 -1      2028    8    0    1
 -2       986       985      1054      3808      4018      4019
 -1      2029    8    0    1
 -2       985      1053      1054      4016      4020      4018
 -1      2030    8    0    1
 -2       987       986      1055      3811      4021      4022
 -1      2031    8    0    1
 -2       986      1054      1055      4019      4023      4021
 -1      2032    8    0    1
 -2       988       987      1056      3814      4024      4025
 -1      2033    8    0    1
 -2       987      1055      1056      4022      4026      4024
 -1      2034    8    0    1
 -2       989       988      1057      3817      4027      4028
 -1      2035    8    0    1
 -2       988      1056      1057      4025      4029      4027
 -1      2036    8    0    1
 -2       990       989      1058      3820      4030      4031
 -1      2037    8    0    1
 -2       989      1057      1058      4028      4032      4030
 -1      2038    8    0    1
 -2       991       990      1059      3823      4033      4034
 -1      2039    8    0    1
 -2       990      1058      1059      4031      4035      4033
 -1      2040    8    0    1
 -2       992       991      1060      3826      4036      4037
 -1      2041    8    0    1
 -2       991      1059      1060      4034      4038      4036
 -1      2042    8    0    1
 -2       993       992      1061      3829      4039      4040
 -1      2043    8    0    1
 -2       992      1060      1061      4037      4041      4039
 -1      2044    8    0    1
 -2       994       993      1062      3832      4042      4043
 -1      2045    8    0    1
 -2       993      1061      1062      4040      4044      4042
 -1      2046    8    0    1
 -2       995       994      1063      3835      4045      4046
 -1      2047    8    0    1
 -2       994      1062      1063      4043      4047      4045
 -1      2048    8    0    1
 -2       996       995      1064      3838      4048      4049
 -1      2049    8    0    1
 -2       995      1063      1064      4046      4050      4048
 -1      2050    8    0    1
 -2       997       996      1065      3841      4051      4052
 -1      2051    8    0    1
 -2       996      1064      1065      4049      4053      4051
 -1      2052    8    0    1
 -2       998       997      1066      3844      4054      4055
 -1      2053    8    0    1
 -2       997      1065      1066      4052      4056      4054
 -1      2054    8    0    1
 -2      1001      1000      1067      3853      4057      4058
 -1      2055    8    0    1
 -2      1003      1004      1068      3861      4059      4060
 -1      2056    8    0    1
 -2      1002      1003      1069      3858      4061      4062
 -1      2057    8    0    1
 -2      1038      1002      1069      3972      4062      4063
 -1      2058    8    0    1
 -2      1003      1068      1069      4060      4064      4061
 -1      2059    8    0    1
 -2      1005      1006      1070      3867      4065      4066
 -1      2060    8    0    1
 -2      1006      1007      1071      3870      4067      4068
 -1      2061    8    0    1
 -2      1006      1071      1070      4068      4069      4065
 -1      2062    8    0    1
 -2      1007      1008      1072      3873      4070      4071
 -1      2063    8    0    1
 -2      1007      1072      1071      4071      4072      4067
 -1      2064    8    0    1
 -2      1008      1009      1073      3876      4073      4074
 -1      2065    8    0    1
 -2      1008      1073      1072      4074      4075      4070
 -1      2066    8    0    1
 -2      1009      1010      1074      3879      4076      4077
 -1      2067    8    0    1
 -2      1009      1074      1073      4077      4078      4073
 -1      2068    8    0    1
 -2      1010      1011      1075      3882      4079      4080
 -1      2069    8    0    1
 -2      1010      1075      1074      4080      4081      4076
 -1      2070    8    0    1
 -2      1011      1012      1076      3885      4082      4083
 -1      2071    8    0    1
 -2      1011      1076      1075      4083      4084      4079
 -1      2072    8    0    1
 -2      1012      1013      1077      3888      4085      4086
 -1      2073    8    0    1
 -2      1012      1077      1076      4086      4087      4082
 -1      2074    8    0    1
 -2      1013      1014      1078      3891      4088      4089
 -1      2075    8    0    1
 -2      1013      1078      1077      4089      4090      4085
 -1      2076    8    0    1
 -2      1014      1015      1079      3894      4091      4092
 -1      2077    8    0    1
 -2      1014      1079      1078      4092      4093      4088
 -1      2078    8    0    1
 -2      1015      1016      1080      3897      4094      4095
 -1      2079    8    0    1
 -2      1015      1080      1079      4095      4096      4091
 -1      2080    8    0    1
 -2      1016      1017      1081      3900      4097      4098
 -1      2081    8    0    1
 -2      1016      1081      1080      4098      4099      4094
 -1      2082    8    0    1
 -2      1017      1018      1082      3903      4100      4101
 -1      2083    8    0    1
 -2      1017      1082      1081      4101      4102      4097
 -1      2084    8    0    1
 -2      1018      1019      1083      3906      4103      4104
 -1      2085    8    0    1
 -2      1018      1083      1082      4104      4105      4100
 -1      2086    8    0    1
 -2      1019      1020      1084      3909      4106      4107
 -1      2087    8    0    1
 -2      1019      1084      1083      4107      4108      4103
 -1      2088    8    0    1
 -2       948       964      1034      3911      4109      3956
 -1      2089    8    0    1
 -2       963      1023      1085      3959      4110      4111
 -1      2090    8    0    1
 -2      1020      1034      1086      3958      4112      4113
 -1      2091    8    0    1
 -2      1084      1020      1086      4106      4113      4114
 -1      2092    8    0    1
 -2      1034       966      1086      3962      4115      4112
 -1      2093    8    0    1
 -2      1021       963      1085      3915      4111      4116
 -1      2094    8    0    1
 -2      1004      1005      1087      3864      4117      4118
 -1      2095    8    0    1
 -2      1068      1004      1087      4059      4118      4119
 -1      2096    8    0    1
 -2      1005      1070      1087      4066      4120      4117
 -1      2097    8    0    1
 -2       970       969      1088      3760      4121      4122
 -1      2098    8    0    1
 -2       969      1037      1088      3971      4123      4121
 -1      2099    8    0    1
 -2      1023       961      1032      3960      3949      4124
 -1      2100    8    0    1
 -2      1026      1027      1089      3934      4125      4126
 -1      2101    8    0    1
 -2      1026      1089      1036      4126      4127      3968
 -1      2102    8    0    1
 -2      1025       967      1090      3928      4128      4129
 -1      2103    8    0    1
 -2      1031      1021      1029      3964      4130      3954
 -1      2104    8    0    1
 -2       967      1024      1091      3925      4131      4132
 -1      2105    8    0    1
 -2      1024      1036      1091      3969      4133      4131
 -1      2106    8    0    1
 -2      1000      1022      1092      3919      4134      4135
 -1      2107    8    0    1
 -2      1022      1038      1092      3973      4136      4134
 -1      2108    8    0    1
 -2      1029      1021      1037      4130      4137      3970
 -1      2109    8    0    1
 -2      1037      1021      1085      4137      4116      4138
 -1      2110    8    0    1
 -2      1001      1067      1093      4058      4139      4140
 -1      2111    8    0    1
 -2      1001      1093      1033      4140      4141      3951
 -1      2112    8    0    1
 -2       998      1066      1094      4055      4142      4143
 -1      2113    8    0    1
 -2       998      1094       999      4143      4144      3848
 -1      2114    8    0    1
 -2      1067      1000      1092      4057      4135      4145
 -1      2115    8    0    1
 -2       970      1088      1039      4122      4146      3974
 -1      2116    8    0    1
 -2      1032      1025      1095      3950      4147      4148
 -1      2117    8    0    1
 -2      1025      1090      1095      4129      4149      4147
 -1      2118    8    0    1
 -2      1086       966      1028      4115      3937      4150
 -1      2119    8    0    1
 -2      1085      1023      1096      4110      4151      4152
 -1      2120    8    0    1
 -2      1037      1085      1096      4138      4152      4153
 -1      2121    8    0    1
 -2      1023      1032      1096      4124      4154      4151
 -1      2122    8    0    1
 -2       964       955      1034      3740      3963      4109
 -1      2123    8    0    1
 -2       749       870      1030      3482      3955      4155
 -1      2124    8    0    1
 -2       959      1033      1035      3953      4156      3967
 -1      2125    8    0    1
 -2       968       999      1097      3847      4157      4158
 -1      2126    8    0    1
 -2      1028       968      1097      3938      4158      4159
 -1      2127    8    0    1
 -2       999      1094      1097      4144      4160      4157
 -1      2128    8    0    1
 -2      1089      1027      1098      4125      4161      4162
 -1      2129    8    0    1
 -2      1027      1035      1098      3966      4163      4161
 -1      2130    8    0    1
 -2      1090       967      1091      4128      4132      4164
 -1      2131    8    0    1
 -2      1040      1039      1090      3978      4165      4166
 -1      2132    8    0    1
 -2      1035      1033      1099      4156      4167      4168
 -1      2133    8    0    1
 -2      1098      1035      1099      4163      4168      4169
 -1      2134    8    0    1
 -2      1033      1093      1099      4141      4170      4167
 -1      2135    8    0    1
 -2      1041      1040      1091      3981      4171      4172
 -1      2136    8    0    1
 -2      1042      1041      1036      3984      4173      4174
 -1      2137    8    0    1
 -2      1043      1042      1089      3987      4175      4176
 -1      2138    8    0    1
 -2      1044      1043      1098      3990      4177      4178
 -1      2139    8    0    1
 -2      1045      1044      1099      3993      4179      4180
 -1      2140    8    0    1
 -2      1046      1045      1093      3996      4181      4182
 -1      2141    8    0    1
 -2      1047      1046      1067      3999      4183      4184
 -1      2142    8    0    1
 -2      1048      1047      1092      4002      4185      4186
 -1      2143    8    0    1
 -2      1049      1048      1038      4005      4187      4188
 -1      2144    8    0    1
 -2      1050      1049      1069      4008      4189      4190
 -1      2145    8    0    1
 -2      1051      1050      1068      4011      4191      4192
 -1      2146    8    0    1
 -2      1052      1051      1087      4014      4193      4194
 -1      2147    8    0    1
 -2      1053      1052      1070      4017      4195      4196
 -1      2148    8    0    1
 -2      1054      1053      1071      4020      4197      4198
 -1      2149    8    0    1
 -2      1055      1054      1072      4023      4199      4200
 -1      2150    8    0    1
 -2      1056      1055      1073      4026      4201      4202
 -1      2151    8    0    1
 -2      1057      1056      1074      4029      4203      4204
 -1      2152    8    0    1
 -2      1058      1057      1075      4032      4205      4206
 -1      2153    8    0    1
 -2      1059      1058      1076      4035      4207      4208
 -1      2154    8    0    1
 -2      1060      1059      1077      4038      4209      4210
 -1      2155    8    0    1
 -2      1061      1060      1078      4041      4211      4212
 -1      2156    8    0    1
 -2      1062      1061      1079      4044      4213      4214
 -1      2157    8    0    1
 -2      1063      1062      1080      4047      4215      4216
 -1      2158    8    0    1
 -2      1064      1063      1081      4050      4217      4218
 -1      2159    8    0    1
 -2      1065      1064      1082      4053      4219      4220
 -1      2160    8    0    1
 -2      1066      1065      1083      4056      4221      4222
 -1      2161    8    0    1
 -2      1068      1050      1069      4191      4190      4064
 -1      2162    8    0    1
 -2      1067      1092      1047      4145      4185      4184
 -1      2163    8    0    1
 -2      1077      1059      1076      4209      4208      4087
 -1      2164    8    0    1
 -2      1076      1058      1075      4207      4206      4084
 -1      2165    8    0    1
 -2      1088      1037      1096      4123      4153      4223
 -1      2166    8    0    1
 -2      1072      1073      1055      4075      4201      4200
 -1      2167    8    0    1
 -2      1070      1071      1053      4069      4197      4196
 -1      2168    8    0    1
 -2      1073      1074      1056      4078      4203      4202
 -1      2169    8    0    1
 -2      1074      1075      1057      4081      4205      4204
 -1      2170    8    0    1
 -2      1077      1078      1060      4090      4211      4210
 -1      2171    8    0    1
 -2      1078      1079      1061      4093      4213      4212
 -1      2172    8    0    1
 -2      1079      1080      1062      4096      4215      4214
 -1      2173    8    0    1
 -2      1080      1081      1063      4099      4217      4216
 -1      2174    8    0    1
 -2      1081      1082      1064      4102      4219      4218
 -1      2175    8    0    1
 -2      1082      1083      1065      4105      4221      4220
 -1      2176    8    0    1
 -2      1083      1084      1066      4108      4224      4222
 -1      2177    8    0    1
 -2      1038      1048      1092      4187      4186      4136
 -1      2178    8    0    1
 -2      1084      1086      1097      4114      4225      4226
 -1      2179    8    0    1
 -2      1036      1089      1042      4127      4175      4174
 -1      2180    8    0    1
 -2      1072      1054      1071      4199      4198      4072
 -1      2181    8    0    1
 -2      1090      1091      1040      4164      4171      4166
 -1      2182    8    0    1
 -2      1090      1039      1095      4165      4227      4149
 -1      2183    8    0    1
 -2      1041      1091      1036      4172      4133      4173
 -1      2184    8    0    1
 -2      1070      1052      1087      4195      4194      4120
 -1      2185    8    0    1
 -2      1086      1028      1097      4150      4159      4225
 -1      2186    8    0    1
 -2      1039      1088      1095      4146      4228      4227
 -1      2187    8    0    1
 -2      1067      1046      1093      4183      4182      4139
 -1      2188    8    0    1
 -2      1043      1089      1098      4176      4162      4177
 -1      2189    8    0    1
 -2      1049      1038      1069      4188      4063      4189
 -1      2190    8    0    1
 -2      1051      1068      1087      4192      4119      4193
 -1      2191    8    0    1
 -2      1044      1098      1099      4178      4169      4179
 -1      2192    8    0    1
 -2      1045      1099      1093      4180      4170      4181
 -1      2193    8    0    1
 -2      1095      1088      1096      4228      4223      4229
 -1      2194    8    0    1
 -2      1066      1084      1094      4224      4230      4142
 -1      2195    8    0    1
 -2      1094      1084      1097      4230      4226      4160
 -1      2196    8    0    1
 -2      1096      1032      1095      4154      4148      4229
 -1      2197    8    0    1
 -2       749      1030       881      4155      3942      4231
 -1      2198    8    0    1
 -2       749       881       787      4231      3476      3486
 -3
    1PSTEP                         1           1           1          
  100CL  101 1.000000000        4231                     0    1           1
 -4  DISP        4    1
 -5  D1          1    2    1    0
 -5  D2          1    2    2    0
 -5  D3          1    2    3    0
 -5  ALL         1    2    0    0    1ALL
 -1         1 1.40480E-02-1.37367E-03-6.63426E-14
 -1         2 1.85923E-02-1.21692E-04-7.11236E-14
 -1         3 1.42684E-02 8.70621E-04-7.21207E-14
 -1         4 1.42915E-02-9.10148E-04-7.55113E-14
 -1         5 0.00000E+00 0.00000E+00 0.00000E+00
 -1         6 0.00000E+00 0.00000E+00 0.00000E+00
 -1         7 0.00000E+00 0.00000E+00 0.00000E+00
 -1         8 0.00000E+00 0.00000E+00 0.00000E+00
 -1         9 0.00000E+00 0.00000E+00 0.00000E+00
 -1        10 0.00000E+00 0.00000E+00 0.00000E+00
 -1        11 0.00000E+00 0.00000E+00 0.00000E+00
 -1        12 0.00000E+00 0.00000E+00 0.00000E+00
 -1        13 0.00000E+00 0.00000E+00 0.00000E+00
 -1        14 0.00000E+00 0.00000E+00 0.00000E+00
 -1        15 0.00000E+00 0.00000E+00 0.00000E+00
 -1        16 0.00000E+00 0.00000E+00 0.00000E+00
 -1        17 0.00000E+00 0.00000E+00 0.00000E+00
 -1        18 0.00000E+00 0.00000E+00 0.00000E+00
 -1        19 0.00000E+00 0.00000E+00 0.00000E+00
 -1        20 0.00000E+00 0.00000E+00 0.00000E+00
 -1        21 0.00000E+00 0.00000E+00 0.00000E+00
 -1        22 0.00000E+00 0.00000E+00 0.00000E+00
 -1        23 4.11416E-04-2.60730E-04 2.33442E-17
 -1        24 7.03446E-04-4.00967E-04-3.60836E-17
 -1        25 9.73571E-04-4.98342E-04-1.76813E-16
 -1        26 1.23813E-03-5.67093E-04-3.98614E-16
 -1        27 1.50174E-03-6.16370E-04-6.99856E-16
 -1        28 1.76650E-03-6.51562E-04-1.08052E-15
 -1        29 2.03337E-03-6.76382E-04-1.54036E-15
 -1        30 2.30271E-03-6.93535E-04-2.07689E-15
 -1        31 2.57456E-03-7.05049E-04-2.69048E-15
 -1        32 2.84880E-03-7.12461E-04-3.38083E-15
 -1        33 3.12520E-03-7.16936E-04-4.14910E-15
 -1        34 3.40346E-03-7.19353E-04-4.98631E-15
 -1        35 3.68331E-03-7.20360E-04-5.89463E-15
 -1        36 3.96446E-03-7.20432E-04-6.87044E-15
 -1        37 4.24666E-03-7.19903E-04-7.91441E-15
 -1        38 4.52969E-03-7.19000E-04-9.03106E-15
 -1        39 4.81335E-03-7.17869E-04-1.02112E-14
 -1        40 5.09749E-03-7.16592E-04-1.14534E-14
 -1        41 5.38198E-03-7.15200E-04-1.27639E-14
 -1        42 5.66674E-03-7.13689E-04-1.41430E-14
 -1        43 5.95169E-03-7.12025E-04-1.55936E-14
 -1        44 6.23682E-03-7.10150E-04-1.71112E-14
 -1        45 6.52213E-03-7.07990E-04-1.86981E-14
 -1        46 6.80768E-03-7.05461E-04-2.03578E-14
 -1        47 7.09355E-03-7.02471E-04-2.20806E-14
 -1        48 7.37992E-03-6.98932E-04-2.38606E-14
 -1        49 7.66699E-03-6.94771E-04-2.56894E-14
 -1        50 7.95510E-03-6.89948E-04-2.75709E-14
 -1        51 8.24468E-03-6.84478E-04-2.95015E-14
 -1        52 8.53628E-03-6.78471E-04-3.14788E-14
 -1        53 8.83064E-03-6.72179E-04-3.34936E-14
 -1        54 9.12867E-03-6.66069E-04-3.55372E-14
 -1        55 9.43149E-03-6.60921E-04-3.76096E-14
 -1        56 9.74043E-03-6.57956E-04-3.97091E-14
 -1        57 1.00570E-02-6.59006E-04-4.18323E-14
 -1        58 1.03828E-02-6.66717E-04-4.39696E-14
 -1        59 1.07191E-02-6.84759E-04-4.61287E-14
 -1        60 1.10666E-02-7.17964E-04-4.83047E-14
 -1        61 1.14246E-02-7.72219E-04-5.04991E-14
 -1        62 1.17893E-02-8.53755E-04-5.27053E-14
 -1        63 1.21531E-02-9.67312E-04-5.49469E-14
 -1        64 1.25026E-02-1.11262E-03-5.72136E-14
 -1        65 1.28201E-02-1.27932E-03-5.95058E-14
 -1        66 1.30878E-02-1.44222E-03-6.18162E-14
 -1        67 1.32970E-02-1.56169E-03-6.41415E-14
 -1        68 1.34587E-02-1.59422E-03-6.64585E-14
 -1        69 1.36063E-02-1.51342E-03-6.87672E-14
 -1        70 1.37847E-02-1.33147E-03-7.10671E-14
 -1        71 1.40245E-02-1.10352E-03-7.33609E-14
 -1        72 4.13861E-04 2.61436E-04 4.31919E-17
 -1        73 7.03266E-04 4.03675E-04 1.74285E-17
 -1        74 9.74103E-04 5.00106E-04-7.64396E-17
 -1        75 1.23896E-03 5.68794E-04-2.41896E-16
 -1        76 1.50270E-03 6.18130E-04-4.79963E-16
 -1        77 1.76753E-03 6.53416E-04-7.91024E-16
 -1        78 2.03443E-03 6.78346E-04-1.17502E-15
 -1        79 2.30379E-03 6.95619E-04-1.63152E-15
 -1        80 2.57566E-03 7.07260E-04-2.16177E-15
 -1        81 2.84991E-03 7.14802E-04-2.76612E-15
 -1        82 3.12631E-03 7.19411E-04-3.44645E-15
 -1        83 3.40458E-03 7.21961E-04-4.19807E-15
 -1        84 3.68443E-03 7.23102E-04-5.02402E-15
 -1        85 3.96559E-03 7.23307E-04-5.93149E-15
 -1        86 4.24779E-03 7.22912E-04-6.91192E-15
 -1        87 4.53082E-03 7.22144E-04-7.96383E-15
 -1        88 4.81448E-03 7.21147E-04-9.08506E-15
 -1        89 5.09862E-03 7.20004E-04-1.02728E-14
 -1        90 5.38312E-03 7.18747E-04-1.15268E-14
 -1        91 5.66788E-03 7.17371E-04-1.28450E-14
 -1        92 5.95284E-03 7.15844E-04-1.42315E-14
 -1        93 6.23797E-03 7.14108E-04-1.56841E-14
 -1        94 6.52330E-03 7.12093E-04-1.72087E-14
 -1        95 6.80886E-03 7.09718E-04-1.87911E-14
 -1        96 7.09476E-03 7.06895E-04-2.04328E-14
 -1        97 7.38116E-03 7.03549E-04-2.21314E-14
 -1        98 7.66827E-03 6.99618E-04-2.38807E-14
 -1        99 7.95641E-03 6.95083E-04-2.56726E-14
 -1       100 8.24599E-03 6.89988E-04-2.75107E-14
 -1       101 8.53754E-03 6.84480E-04-2.94041E-14
 -1       102 8.83173E-03 6.78860E-04-3.13354E-14
 -1       103 9.12935E-03 6.73648E-04-3.33067E-14
 -1       104 9.43133E-03 6.69670E-04-3.53110E-14
 -1       105 9.73871E-03 6.68161E-04-3.73510E-14
 -1       106 1.00525E-02 6.70880E-04-3.94351E-14
 -1       107 1.03736E-02 6.80216E-04-4.15627E-14
 -1       108 1.07023E-02 6.99240E-04-4.37134E-14
 -1       109 1.10382E-02 7.31611E-04-4.58994E-14
 -1       110 1.13792E-02 7.81196E-04-4.81134E-14
 -1       111 1.17210E-02 8.51178E-04-5.03382E-14
 -1       112 1.20562E-02 9.42438E-04-5.25728E-14
 -1       113 1.23749E-02 1.05119E-03-5.48119E-14
 -1       114 1.26659E-02 1.16642E-03-5.70567E-14
 -1       115 1.29205E-02 1.26869E-03-5.92958E-14
 -1       116 1.31382E-02 1.33261E-03-6.15133E-14
 -1       117 1.33306E-02 1.33468E-03-6.37089E-14
 -1       118 1.35218E-02 1.26513E-03-6.58835E-14
 -1       119 1.37394E-02 1.13833E-03-6.80222E-14
 -1       120 1.39983E-02 9.92425E-04-7.01275E-14
 -1       121 1.43863E-02 7.79941E-04-7.23053E-14
 -1       122 1.44830E-02 6.56680E-04-7.24942E-14
 -1       123 1.45958E-02 4.69304E-04-7.26705E-14
 -1       124 1.47990E-02 1.86356E-04-7.28663E-14
 -1       125 1.51708E-02-1.73523E-04-7.30624E-14
 -1       126 1.57524E-02-5.36898E-04-7.32542E-14
 -1       127 1.65262E-02-8.07346E-04-7.34281E-14
 -1       128 1.74068E-02-8.91995E-04-7.36091E-14
 -1       129 1.82019E-02-7.27710E-04-7.37935E-14
 -1       130 1.86809E-02-3.03622E-04-7.39810E-14
 -1       131 1.85845E-02 1.88099E-04-7.41562E-14
 -1       132 1.78631E-02 5.60254E-04-7.43379E-14
 -1       133 1.69949E-02 6.00433E-04-7.44783E-14
 -1       134 1.60130E-02 3.56648E-04-7.46738E-14
 -1       135 1.52688E-02-6.03866E-05-7.48577E-14
 -1       136 1.48639E-02-4.24172E-04-7.50282E-14
 -1       137 1.46460E-02-6.68391E-04-7.51883E-14
 -1       138 1.44789E-02-8.16369E-04-7.53531E-14
 -1       139 1.83625E-02 2.39227E-04-7.09119E-14
 -1       140 1.77708E-02 5.59682E-04-7.04749E-14
 -1       141 1.70025E-02 8.06782E-04-6.98069E-14
 -1       142 1.61878E-02 9.77138E-04-6.89361E-14
 -1       143 1.54600E-02 1.07137E-03-6.79770E-14
 -1       144 1.47503E-02 1.11241E-03-6.68800E-14
 -1       145 1.41099E-02 1.10293E-03-6.57708E-14
 -1       146 1.34986E-02 1.04524E-03-6.46296E-14
 -1       147 1.29409E-02 9.39984E-04-6.35296E-14
 -1       148 1.25011E-02 8.11065E-04-6.26448E-14
 -1       149 1.20828E-02 6.29526E-04-6.17962E-14
 -1       150 1.17825E-02 4.34857E-04-6.12008E-14
 -1       151 1.15781E-02 2.20086E-04-6.08141E-14
 -1       152 1.14777E-02-4.76252E-06-6.06623E-14
 -1       153 1.14826E-02-2.22470E-04-6.07312E-14
 -1       154 1.15878E-02-4.44713E-04-6.10178E-14
 -1       155 1.17951E-02-6.63234E-04-6.15397E-14
 -1       156 1.20799E-02-8.57718E-04-6.22219E-14
 -1       157 1.24415E-02-1.03158E-03-6.30443E-14
 -1       158 1.29201E-02-1.19163E-03-6.40744E-14
 -1       159 1.34536E-02-1.30586E-03-6.51801E-14
 -1       160 1.47031E-02-1.38988E-03-6.74986E-14
 -1       161 1.54483E-02-1.34665E-03-6.86353E-14
 -1       162 1.62246E-02-1.24167E-03-6.95896E-14
 -1       163 1.69983E-02-1.07626E-03-7.03129E-14
 -1       164 1.77473E-02-8.36000E-04-7.08196E-14
 -1       165 1.83854E-02-4.86929E-04-7.11123E-14
 -1       166 2.40430E-04-1.25496E-04-1.42505E-17
 -1       167 2.25284E-04-9.45908E-05-2.57634E-17
 -1       168 2.19532E-04-7.27548E-05-3.19738E-17
 -1       169 2.16710E-04-5.50791E-05-3.52840E-17
 -1       170 2.15208E-04-3.99445E-05-3.67409E-17
 -1       171 2.14367E-04-2.58993E-05-3.72593E-17
 -1       172 2.13944E-04-1.26361E-05-3.71610E-17
 -1       173 2.13821E-04 2.72174E-07-3.67036E-17
 -1       174 2.13964E-04 1.31930E-05-3.56804E-17
 -1       175 2.14408E-04 2.64964E-05-3.43319E-17
 -1       176 2.15256E-04 4.03704E-05-3.21263E-17
 -1       177 2.16813E-04 5.58858E-05-2.86568E-17
 -1       178 2.19686E-04 7.37883E-05-2.33612E-17
 -1       179 2.25457E-04 9.59972E-05-1.47960E-17
 -1       180 2.39360E-04 1.27574E-04-9.89334E-19
 -1       181 2.97742E-04 1.85490E-04 1.45724E-17
 -1       182 4.68681E-04-2.63528E-04-3.94006E-17
 -1       183 7.66866E-04-3.82112E-04-1.55651E-16
 -1       184 1.05076E-03-4.64991E-04-3.48314E-16
 -1       185 1.32821E-03-5.23773E-04-6.18493E-16
 -1       186 1.60288E-03-5.65486E-04-9.65980E-16
 -1       187 1.87684E-03-5.94819E-04-1.39050E-15
 -1       188 2.15124E-03-6.15083E-04-1.89152E-15
 -1       189 2.42665E-03-6.28708E-04-2.46820E-15
 -1       190 2.70335E-03-6.37518E-04-3.12068E-15
 -1       191 2.98139E-03-6.42882E-04-3.84885E-15
 -1       192 3.26072E-03-6.45829E-04-4.64941E-15
 -1       193 3.54123E-03-6.47125E-04-5.51886E-15
 -1       194 3.82277E-03-6.47323E-04-6.45786E-15
 -1       195 4.10517E-03-6.46823E-04-7.46504E-15
 -1       196 4.38829E-03-6.45895E-04-8.54158E-15
 -1       197 4.67198E-03-6.44717E-04-9.68466E-15
 -1       198 4.95614E-03-6.43393E-04-1.08913E-14
 -1       199 5.24065E-03-6.41972E-04-1.21623E-14
 -1       200 5.52544E-03-6.40458E-04-1.35027E-14
 -1       201 5.81047E-03-6.38824E-04-1.49120E-14
 -1       202 6.09569E-03-6.37016E-04-1.63905E-14
 -1       203 6.38113E-03-6.34958E-04-1.79358E-14
 -1       204 6.66681E-03-6.32562E-04-1.95523E-14
 -1       205 6.95280E-03-6.29727E-04-2.12339E-14
 -1       206 7.23921E-03-6.26348E-04-2.29761E-14
 -1       207 7.52621E-03-6.22327E-04-2.47706E-14
 -1       208 7.81403E-03-6.17584E-04-2.66175E-14
 -1       209 8.10298E-03-6.12077E-04-2.85153E-14
 -1       210 8.39345E-03-6.05835E-04-3.04617E-14
 -1       211 8.68594E-03-5.98994E-04-3.24510E-14
 -1       212 8.98106E-03-5.91865E-04-3.44746E-14
 -1       213 9.27957E-03-5.85011E-04-3.65281E-14
 -1       214 9.58232E-03-5.79371E-04-3.86066E-14
 -1       215 9.89027E-03-5.76415E-04-4.07121E-14
 -1       216 1.02044E-02-5.78342E-04-4.28395E-14
 -1       217 1.05257E-02-5.88326E-04-4.49865E-14
 -1       218 1.08545E-02-6.10743E-04-4.71510E-14
 -1       219 1.11909E-02-6.51283E-04-4.93349E-14
 -1       220 1.15335E-02-7.16685E-04-5.15341E-14
 -1       221 1.18788E-02-8.13616E-04-5.37556E-14
 -1       222 1.22210E-02-9.46025E-04-5.60071E-14
 -1       223 1.25512E-02-1.11045E-03-5.82763E-14
 -1       224 1.28588E-02-1.28993E-03-6.05644E-14
 -1       225 1.31349E-02-1.44989E-03-6.28708E-14
 -1       226 1.33779E-02-1.54246E-03-6.51811E-14
 -1       227 1.35979E-02-1.52415E-03-6.74894E-14
 -1       228 1.38158E-02-1.38232E-03-6.97899E-14
 -1       229 1.40539E-02-1.15477E-03-7.20789E-14
 -1       230 6.04642E-04 3.31020E-04-2.48215E-17
 -1       231 8.93781E-04 4.32616E-04-1.28864E-16
 -1       232 1.17272E-03 5.04350E-04-3.01279E-16
 -1       233 1.44713E-03 5.55465E-04-5.44446E-16
 -1       234 1.72001E-03 5.91746E-04-8.59081E-16
 -1       235 1.99300E-03 6.17184E-04-1.24561E-15
 -1       236 2.26692E-03 6.34663E-04-1.70489E-15
 -1       237 2.54218E-03 6.46323E-04-2.23697E-15
 -1       238 2.81891E-03 6.53777E-04-2.84160E-15
 -1       239 3.09711E-03 6.58240E-04-3.52035E-15
 -1       240 3.37665E-03 6.60621E-04-4.27173E-15
 -1       241 3.65738E-03 6.61591E-04-5.09611E-15
 -1       242 3.93913E-03 6.61637E-04-5.99818E-15
 -1       243 4.22173E-03 6.61100E-04-6.97319E-15
 -1       244 4.50502E-03 6.60213E-04-8.01927E-15
 -1       245 4.78885E-03 6.59120E-04-9.13407E-15
 -1       246 5.07312E-03 6.57902E-04-1.03167E-14
 -1       247 5.35772E-03 6.56591E-04-1.15643E-14
 -1       248 5.64258E-03 6.55177E-04-1.28760E-14
 -1       249 5.92767E-03 6.53624E-04-1.42603E-14
 -1       250 6.21295E-03 6.51870E-04-1.57108E-14
 -1       251 6.49846E-03 6.49839E-04-1.72281E-14
 -1       252 6.78423E-03 6.47439E-04-1.88038E-14
 -1       253 7.07035E-03 6.44575E-04-2.04391E-14
 -1       254 7.35697E-03 6.41157E-04-2.21336E-14
 -1       255 7.64426E-03 6.37106E-04-2.38784E-14
 -1       256 7.93250E-03 6.32380E-04-2.56673E-14
 -1       257 8.22201E-03 6.26996E-04-2.75043E-14
 -1       258 8.51322E-03 6.21065E-04-2.93920E-14
 -1       259 8.80664E-03 6.14845E-04-3.13216E-14
 -1       260 9.10290E-03 6.08807E-04-3.32892E-14
 -1       261 9.40267E-03 6.03723E-04-3.52906E-14
 -1       262 9.70669E-03 6.00775E-04-3.73315E-14
 -1       263 1.00157E-02 6.01679E-04-3.94144E-14
 -1       264 1.03302E-02 6.08814E-04-4.15367E-14
 -1       265 1.06504E-02 6.25302E-04-4.36845E-14
 -1       266 1.09759E-02 6.54970E-04-4.58606E-14
 -1       267 1.13052E-02 7.02031E-04-4.80661E-14
 -1       268 1.16354E-02 7.70265E-04-5.02863E-14
 -1       269 1.19618E-02 8.61426E-04-5.25175E-14
 -1       270 1.22779E-02 9.72767E-04-5.47557E-14
 -1       271 1.25767E-02 1.09410E-03-5.69970E-14
 -1       272 1.28523E-02 1.20595E-03-5.92300E-14
 -1       273 1.31034E-02 1.28131E-03-6.14415E-14
 -1       274 1.33357E-02 1.29340E-03-6.36318E-14
 -1       275 1.35626E-02 1.22856E-03-6.58064E-14
 -1       276 1.38005E-02 1.09897E-03-6.79506E-14
 -1       277 1.40609E-02 9.44270E-04-7.00643E-14
 -1       278 1.41831E-02 8.38067E-04-7.05808E-14
 -1       279 1.42681E-02 7.17785E-04-7.07621E-14
 -1       280 1.44001E-02 5.67323E-04-7.09526E-14
 -1       281 1.46441E-02 4.01513E-04-7.11411E-14
 -1       282 1.50495E-02 2.42421E-04-7.13201E-14
 -1       283 1.56445E-02 1.03434E-04-7.14869E-14
 -1       284 1.77123E-02-3.21013E-04-7.25436E-14
 -1       285 1.84576E-02-2.45540E-04-7.27192E-14
 -1       286 1.86731E-02-1.10078E-04-7.28836E-14
 -1       287 1.81475E-02 2.54603E-05-7.30581E-14
 -1       288 1.72662E-02 5.04525E-05-7.32054E-14
 -1       289 1.61446E-02-5.34722E-05-7.33855E-14
 -1       290 1.52556E-02-2.88282E-04-7.35779E-14
 -1       291 1.47734E-02-5.36914E-04-7.37495E-14
 -1       292 1.45297E-02-7.37771E-04-7.39091E-14
 -1       293 1.42804E-02-9.66922E-04-7.29956E-14
 -1       294 1.85661E-02-1.02713E-04-7.19386E-14
 -1       295 1.79820E-02 9.71584E-06-7.15840E-14
 -1       296 1.70998E-02 2.69673E-04-7.09115E-14
 -1       297 1.62266E-02 6.19394E-04-6.99619E-14
 -1       298 1.54753E-02 9.09646E-04-6.88946E-14
 -1       299 1.48694E-02 1.11081E-03-6.76757E-14
 -1       300 1.43262E-02 1.19593E-03-6.63906E-14
 -1       301 1.38321E-02 1.17128E-03-6.50682E-14
 -1       302 1.33651E-02 1.04018E-03-6.37018E-14
 -1       303 1.29081E-02 8.37114E-04-6.25766E-14
 -1       304 1.24855E-02 5.90752E-04-6.14231E-14
 -1       305 1.20462E-02 3.72121E-04-6.06986E-14
 -1       306 1.17157E-02 1.79504E-04-6.01147E-14
 -1       307 1.14989E-02 1.58722E-05-5.96663E-14
 -1       308 1.14334E-02-1.08227E-04-5.98017E-14
 -1       309 1.15108E-02-2.38060E-04-5.99572E-14
 -1       310 1.17305E-02-3.97243E-04-6.04356E-14
 -1       311 1.20497E-02-5.98899E-04-6.11891E-14
 -1       312 1.24311E-02-8.18773E-04-6.20655E-14
 -1       313 1.28680E-02-1.05994E-03-6.31535E-14
 -1       314 1.33349E-02-1.28123E-03-6.44074E-14
 -1       315 1.38056E-02-1.43779E-03-6.57336E-14
 -1       316 1.42955E-02-1.47723E-03-6.70961E-14
 -1       317 1.48426E-02-1.40049E-03-6.84693E-14
 -1       318 1.54943E-02-1.19096E-03-6.97099E-14
 -1       319 1.62628E-02-9.09204E-04-7.06535E-14
 -1       320 1.71087E-02-5.92370E-04-7.13740E-14
 -1       321 1.79859E-02-2.82363E-04-7.19651E-14
 -1       322 1.85788E-02-1.66634E-04-7.20119E-14
 -1       323 1.66287E-02-1.12072E-04-7.19125E-14
 -1       324 4.55317E-04-1.64696E-04-1.09711E-16
 -1       325 4.74304E-04-2.12939E-04-9.10594E-17
 -1       326 4.40428E-04-9.39733E-05-1.27123E-16
 -1       327 4.37449E-04-6.48788E-05-1.29942E-16
 -1       328 4.35817E-04-3.78853E-05-1.30907E-16
 -1       329 4.35102E-04-1.20112E-05-1.29921E-16
 -1       330 4.35133E-04 1.35270E-05-1.27905E-16
 -1       331 4.35916E-04 3.94588E-05-1.24226E-16
 -1       332 4.37591E-04 6.61039E-05-1.18747E-16
 -1       333 4.40662E-04 9.53729E-05-1.11016E-16
 -1       334 4.46070E-04 1.28285E-04-9.98008E-17
 -1       335 4.56011E-04 1.67274E-04-8.28432E-17
 -1       336 4.75928E-04 2.16942E-04-5.82352E-17
 -1       337 5.32047E-04 2.69930E-04-4.57737E-17
 -1       338 8.24578E-04 3.73447E-04-1.55641E-16
 -1       339 8.63369E-04-3.57356E-04-2.89414E-16
 -1       340 1.14976E-03-4.26107E-04-5.30703E-16
 -1       341 1.43259E-03-4.75290E-04-8.46969E-16
 -1       342 1.71335E-03-5.10050E-04-1.23861E-15
 -1       343 1.99319E-03-5.34192E-04-1.70538E-15
 -1       344 2.27284E-03-5.50545E-04-2.24704E-15
 -1       345 2.55279E-03-5.61232E-04-2.86229E-15
 -1       346 2.83329E-03-5.67855E-04-3.55227E-15
 -1       347 3.11445E-03-5.71615E-04-4.31501E-15
 -1       348 3.39631E-03-5.73406E-04-5.14797E-15
 -1       349 3.67881E-03-5.73883E-04-6.05025E-15
 -1       350 3.96191E-03-5.73518E-04-7.01975E-15
 -1       351 4.24552E-03-5.72637E-04-8.05761E-15
 -1       352 4.52956E-03-5.71458E-04-9.16386E-15
 -1       353 4.81396E-03-5.70115E-04-1.03334E-14
 -1       354 5.09866E-03-5.68676E-04-1.15672E-14
 -1       355 5.38360E-03-5.67164E-04-1.28680E-14
 -1       356 5.66874E-03-5.65559E-04-1.42388E-14
 -1       357 5.95406E-03-5.63817E-04-1.56777E-14
 -1       358 6.23956E-03-5.61866E-04-1.71831E-14
 -1       359 6.52526E-03-5.59619E-04-1.87583E-14
 -1       360 6.81120E-03-5.56973E-04-2.03995E-14
 -1       361 7.09745E-03-5.53816E-04-2.21030E-14
 -1       362 7.38411E-03-5.50036E-04-2.38617E-14
 -1       363 7.67133E-03-5.45529E-04-2.56728E-14
 -1       364 7.95930E-03-5.40219E-04-2.75373E-14
 -1       365 8.24825E-03-5.34075E-04-2.94543E-14
 -1       366 8.53849E-03-5.27151E-04-3.14155E-14
 -1       367 8.83039E-03-5.19636E-04-3.34166E-14
 -1       368 9.12440E-03-5.11920E-04-3.54488E-14
 -1       369 9.42102E-03-5.04697E-04-3.75111E-14
 -1       370 9.72085E-03-4.99097E-04-3.95992E-14
 -1       371 1.00245E-02-4.96860E-04-4.17134E-14
 -1       372 1.03327E-02-5.00558E-04-4.38461E-14
 -1       373 1.06462E-02-5.13841E-04-4.59986E-14
 -1       374 1.09655E-02-5.41658E-04-4.81750E-14
 -1       375 1.12913E-02-5.90300E-04-5.03661E-14
 -1       376 1.16237E-02-6.66998E-04-5.25729E-14
 -1       377 1.19621E-02-7.78498E-04-5.48051E-14
 -1       378 1.23038E-02-9.27854E-04-5.70613E-14
 -1       379 1.26425E-02-1.10868E-03-5.93309E-14
 -1       380 1.29682E-02-1.29761E-03-6.16123E-14
 -1       381 1.32693E-02-1.44985E-03-6.39070E-14
 -1       382 1.35408E-02-1.50800E-03-6.62082E-14
 -1       383 1.37912E-02-1.42920E-03-6.85110E-14
 -1       384 1.40405E-02-1.21818E-03-7.08052E-14
 -1       385 1.11008E-03 4.47741E-04-3.32067E-16
 -1       386 1.39092E-03 5.00852E-04-5.77317E-16
 -1       387 1.66929E-03 5.38488E-04-8.92454E-16
 -1       388 1.94675E-03 5.64811E-04-1.27884E-15
 -1       389 2.22425E-03 5.82839E-04-1.73749E-15
 -1       390 2.50231E-03 5.94816E-04-2.26828E-15
 -1       391 2.78122E-03 6.02429E-04-2.87163E-15
 -1       392 3.06106E-03 6.06949E-04-3.54738E-15
 -1       393 3.34184E-03 6.09323E-04-4.29470E-15
 -1       394 3.62349E-03 6.10249E-04-5.11429E-15
 -1       395 3.90591E-03 6.10234E-04-6.01012E-15
 -1       396 4.18900E-03 6.09630E-04-6.97808E-15
 -1       397 4.47263E-03 6.08679E-04-8.01673E-15
 -1       398 4.75672E-03 6.07531E-04-9.12470E-15
 -1       399 5.04118E-03 6.06269E-04-1.03003E-14
 -1       400 5.32593E-03 6.04925E-04-1.15411E-14
 -1       401 5.61092E-03 6.03491E-04-1.28483E-14
 -1       402 5.89611E-03 6.01928E-04-1.42249E-14
 -1       403 6.18150E-03 6.00175E-04-1.56710E-14
 -1       404 6.46710E-03 5.98149E-04-1.71810E-14
 -1       405 6.75295E-03 5.95757E-04-1.87496E-14
 -1       406 7.03912E-03 5.92897E-04-2.03772E-14
 -1       407 7.32572E-03 5.89468E-04-2.20657E-14
 -1       408 7.61291E-03 5.85383E-04-2.38048E-14
 -1       409 7.90089E-03 5.80582E-04-2.55910E-14
 -1       410 8.18993E-03 5.75060E-04-2.74248E-14
 -1       411 8.48036E-03 5.68900E-04-2.93082E-14
 -1       412 8.77257E-03 5.62323E-04-3.12336E-14
 -1       413 9.06704E-03 5.55752E-04-3.31979E-14
 -1       414 9.36429E-03 5.49901E-04-3.51968E-14
 -1       415 9.66489E-03 5.45881E-04-3.72334E-14
 -1       416 9.96941E-03 5.45329E-04-3.93140E-14
 -1       417 1.02783E-02 5.50543E-04-4.14304E-14
 -1       418 1.05920E-02 5.64584E-04-4.35750E-14
 -1       419 1.09102E-02 5.91282E-04-4.57471E-14
 -1       420 1.12326E-02 6.34993E-04-4.79453E-14
 -1       421 1.15574E-02 6.99908E-04-5.01622E-14
 -1       422 1.18819E-02 7.88616E-04-5.23887E-14
 -1       423 1.22018E-02 8.99708E-04-5.46258E-14
 -1       424 1.25114E-02 1.02463E-03-5.68647E-14
 -1       425 1.28046E-02 1.14502E-03-5.90937E-14
 -1       426 1.30773E-02 1.23321E-03-6.13031E-14
 -1       427 1.33310E-02 1.25908E-03-6.34933E-14
 -1       428 1.35742E-02 1.20343E-03-6.56684E-14
 -1       429 1.38211E-02 1.07298E-03-6.78161E-14
 -1       430 1.39966E-02 9.57188E-04-6.92048E-14
 -1       431 1.42408E-02 8.07188E-04-6.92169E-14
 -1       432 1.40734E-02 8.72716E-04-6.90224E-14
 -1       433 1.40278E-02 9.09424E-04-6.91121E-14
 -1       434 1.45000E-02 7.62624E-04-6.93836E-14
 -1       435 1.48908E-02 7.23600E-04-6.95416E-14
 -1       436 1.64657E-02-4.22900E-04-7.20775E-14
 -1       437 1.46817E-02-8.73094E-04-7.17037E-14
 -1       438 1.43714E-02-9.66558E-04-7.18639E-14
 -1       439 4.45682E-04-1.26441E-04-1.20767E-16
 -1       440 1.48791E-02 9.33317E-04-6.86749E-14
 -1       441 1.44109E-02 1.15144E-03-6.72480E-14
 -1       442 1.40179E-02 1.22398E-03-6.57429E-14
 -1       443 1.36206E-02 1.15177E-03-6.42146E-14
 -1       444 1.31665E-02 9.30659E-04-6.26405E-14
 -1       445 1.27966E-02 7.05724E-04-6.14756E-14
 -1       446 1.22775E-02 3.90352E-04-6.00908E-14
 -1       447 1.19016E-02 1.97997E-04-5.94968E-14
 -1       448 1.16057E-02 4.79140E-05-5.89286E-14
 -1       449 1.14201E-02-6.95867E-05-5.85979E-14
 -1       450 1.14297E-02-1.36306E-04-5.87540E-14
 -1       451 1.16083E-02-2.44156E-04-5.91346E-14
 -1       452 1.19314E-02-4.09931E-04-5.98911E-14
 -1       453 1.22493E-02-5.94331E-04-6.07583E-14
 -1       454 1.27337E-02-8.91600E-04-6.20549E-14
 -1       455 1.31734E-02-1.16817E-03-6.34197E-14
 -1       456 1.35721E-02-1.38270E-03-6.48478E-14
 -1       457 1.40128E-02-1.50507E-03-6.66219E-14
 -1       458 1.43839E-02-1.46321E-03-6.79969E-14
 -1       459 1.49170E-02-1.22580E-03-6.96917E-14
 -1       460 1.56329E-02-8.86693E-04-7.08933E-14
 -1       461 1.55586E-02 5.83029E-04-7.00163E-14
 -1       462 1.57908E-02 3.13347E-04-7.08285E-14
 -1       463 1.25294E-02 5.25500E-04-6.01419E-14
 -1       464 1.56388E-02-5.52620E-04-7.21127E-14
 -1       465 6.65779E-04-7.51035E-05-2.78884E-16
 -1       466 6.69757E-04-1.15849E-04-2.75164E-16
 -1       467 6.63094E-04 1.10360E-06-2.76163E-16
 -1       468 6.63818E-04 3.87468E-05-2.70559E-16
 -1       469 6.65967E-04 7.67823E-05-2.62001E-16
 -1       470 6.70077E-04 1.17680E-04-2.49638E-16
 -1       471 6.77111E-04 1.62303E-04-2.32768E-16
 -1       472 6.89031E-04 2.12683E-04-2.08882E-16
 -1       473 7.09819E-04 2.71684E-04-1.75417E-16
 -1       474 7.63569E-04 3.20483E-04-1.68780E-16
 -1       475 9.76376E-04-3.28578E-04-4.38699E-16
 -1       476 1.50139E-03 4.50160E-04-8.09852E-16
 -1       477 1.21727E-03 4.06497E-04-5.16334E-16
 -1       478 7.12735E-04-2.51821E-04-2.46514E-16
 -1       479 1.26231E-03-3.83455E-04-7.25396E-16
 -1       480 1.54735E-03-4.23219E-04-1.08507E-15
 -1       481 1.83151E-03-4.51307E-04-1.51906E-15
 -1       482 2.11507E-03-4.70625E-04-2.02629E-15
 -1       483 2.39838E-03-4.83471E-04-2.60598E-15
 -1       484 2.68166E-03-4.91622E-04-3.25905E-15
 -1       485 2.96507E-03-4.96433E-04-3.98392E-15
 -1       486 3.24872E-03-4.98923E-04-4.78076E-15
 -1       487 3.53264E-03-4.99847E-04-5.64667E-15
 -1       488 3.81683E-03-4.99752E-04-6.57910E-15
 -1       489 4.10128E-03-4.99023E-04-7.57849E-15
 -1       490 4.38596E-03-4.97924E-04-8.64625E-15
 -1       491 4.67085E-03-4.96621E-04-9.77942E-15
 -1       492 4.95592E-03-4.95210E-04-1.09767E-14
 -1       493 5.24113E-03-4.93731E-04-1.22401E-14
 -1       494 5.52647E-03-4.92182E-04-1.35718E-14
 -1       495 5.81193E-03-4.90529E-04-1.49716E-14
 -1       496 6.09751E-03-4.88710E-04-1.64399E-14
 -1       497 6.38321E-03-4.86644E-04-1.79750E-14
 -1       498 6.66904E-03-4.84235E-04-1.95762E-14
 -1       499 6.95506E-03-4.81372E-04-2.12404E-14
 -1       500 7.24129E-03-4.77940E-04-2.29624E-14
 -1       501 7.52782E-03-4.73827E-04-2.47409E-14
 -1       502 7.81472E-03-4.68934E-04-2.65718E-14
 -1       503 8.10212E-03-4.63196E-04-2.84542E-14
 -1       504 8.39016E-03-4.56611E-04-3.03889E-14
 -1       505 8.67899E-03-4.49275E-04-3.23649E-14
 -1       506 8.96882E-03-4.41439E-04-3.43770E-14
 -1       507 9.25989E-03-4.33588E-04-3.64189E-14
 -1       508 9.55248E-03-4.26544E-04-3.84887E-14
 -1       509 9.84695E-03-4.21598E-04-4.05850E-14
 -1       510 1.01438E-02-4.20685E-04-4.27072E-14
 -1       511 1.04437E-02-4.26591E-04-4.48493E-14
 -1       512 1.07476E-02-4.43173E-04-4.70140E-14
 -1       513 1.10573E-02-4.75569E-04-4.91994E-14
 -1       514 1.13750E-02-5.30278E-04-5.13945E-14
 -1       515 1.17041E-02-6.14928E-04-5.36110E-14
 -1       516 1.20473E-02-7.37152E-04-5.58499E-14
 -1       517 1.24053E-02-9.01306E-04-5.81044E-14
 -1       518 1.27715E-02-1.10092E-03-6.03657E-14
 -1       519 1.31298E-02-1.30639E-03-6.26398E-14
 -1       520 1.34610E-02-1.45539E-03-6.49271E-14
 -1       521 1.37564E-02-1.47113E-03-6.72270E-14
 -1       522 1.40288E-02-1.31061E-03-6.95261E-14
 -1       523 9.90930E-04 3.71027E-04-3.18376E-16
 -1       524 1.78418E-03 4.81066E-04-1.17252E-15
 -1       525 2.06621E-03 5.02464E-04-1.60621E-15
 -1       526 2.34800E-03 5.16851E-04-2.11149E-15
 -1       527 2.62988E-03 5.26146E-04-2.68731E-15
 -1       528 2.91207E-03 5.31805E-04-3.33532E-15
 -1       529 3.19466E-03 5.34924E-04-4.05391E-15
 -1       530 3.47770E-03 5.36314E-04-4.84323E-15
 -1       531 3.76117E-03 5.36568E-04-5.70468E-15
 -1       532 4.04504E-03 5.36105E-04-6.64014E-15
 -1       533 4.32926E-03 5.35215E-04-7.64573E-15
 -1       534 4.61378E-03 5.34086E-04-8.71993E-15
 -1       535 4.89856E-03 5.32827E-04-9.86418E-15
 -1       536 5.18355E-03 5.31491E-04-1.10737E-14
 -1       537 5.46871E-03 5.30085E-04-1.23498E-14
 -1       538 5.75404E-03 5.28581E-04-1.36947E-14
 -1       539 6.03951E-03 5.26925E-04-1.51078E-14
 -1       540 6.32514E-03 5.25041E-04-1.65879E-14
 -1       541 6.61093E-03 5.22837E-04-1.81275E-14
 -1       542 6.89694E-03 5.20209E-04-1.97255E-14
 -1       543 7.18322E-03 5.17050E-04-2.13843E-14
 -1       544 7.46987E-03 5.13256E-04-2.30989E-14
 -1       545 7.75698E-03 5.08743E-04-2.48639E-14
 -1       546 8.04473E-03 5.03460E-04-2.66762E-14
 -1       547 8.33328E-03 4.97427E-04-2.85385E-14
 -1       548 8.62288E-03 4.90764E-04-3.04453E-14
 -1       549 8.91381E-03 4.83756E-04-3.23921E-14
 -1       550 9.20638E-03 4.76917E-04-3.43780E-14
 -1       551 9.50097E-03 4.71090E-04-3.63967E-14
 -1       552 9.79803E-03 4.67556E-04-3.84559E-14
 -1       553 1.00981E-02 4.68171E-04-4.05536E-14
 -1       554 1.04016E-02 4.75489E-04-4.26850E-14
 -1       555 1.07093E-02 4.92859E-04-4.48444E-14
 -1       556 1.10219E-02 5.24401E-04-4.70266E-14
 -1       557 1.13398E-02 5.74727E-04-4.92323E-14
 -1       558 1.16632E-02 6.48175E-04-5.14530E-14
 -1       559 1.19911E-02 7.47204E-04-5.36825E-14
 -1       560 1.23199E-02 8.69572E-04-5.59145E-14
 -1       561 1.26432E-02 1.00429E-03-5.81456E-14
 -1       562 1.29517E-02 1.12778E-03-6.03583E-14
 -1       563 1.32381E-02 1.20552E-03-6.25557E-14
 -1       564 1.35023E-02 1.20129E-03-6.47388E-14
 -1       565 1.37555E-02 1.09918E-03-6.69004E-14
 -1       566 1.39269E-02 1.04047E-03-6.74244E-14
 -1       567 1.40842E-02 1.04581E-03-6.75812E-14
 -1       568 1.37734E-02 1.20824E-03-6.49421E-14
 -1       569 1.49290E-02-8.08578E-04-7.16987E-14
 -1       570 1.14603E-02-2.52939E-05-5.75180E-14
 -1       571 1.42407E-02-1.24888E-03-6.98377E-14
 -1       572 1.17326E-02 9.47221E-05-5.81581E-14
 -1       573 1.44752E-02-1.31749E-03-6.92636E-14
 -1       574 1.37239E-02-1.46524E-03-6.55803E-14
 -1       575 1.14591E-02-1.58192E-04-5.75917E-14
 -1       576 1.40777E-02 1.19005E-03-6.64704E-14
 -1       577 6.63706E-04-3.65062E-05-2.79148E-16
 -1       578 1.17338E-02-2.82915E-04-5.81853E-14
 -1       579 1.29918E-02 8.30173E-04-6.13917E-14
 -1       580 1.33668E-02 1.06055E-03-6.29640E-14
 -1       581 1.44771E-02 9.96317E-04-6.82359E-14
 -1       582 1.20355E-02 2.42403E-04-5.87564E-14
 -1       583 1.13818E-02-1.08433E-04-5.74385E-14
 -1       584 1.29657E-02-1.02202E-03-6.22485E-14
 -1       585 1.21141E-02-4.76770E-04-5.94319E-14
 -1       586 1.25251E-02-7.24996E-04-6.07202E-14
 -1       587 1.33670E-02-1.28922E-03-6.38594E-14
 -1       588 1.40843E-02-1.47093E-03-6.77190E-14
 -1       589 6.76577E-04-1.60022E-04-2.67134E-16
 -1       590 6.91833E-04-2.02849E-04-2.59761E-16
 -1       591 1.22517E-02 3.70657E-04-5.88077E-14
 -1       592 8.99689E-04 7.40920E-05-4.61115E-16
 -1       593 8.97593E-04 2.51737E-05-4.72309E-16
 -1       594 9.11803E-04 1.78177E-04-4.22822E-16
 -1       595 9.24173E-04 2.36700E-04-3.92549E-16
 -1       596 1.09777E-03-2.94574E-04-6.03247E-16
 -1       597 2.19077E-03 4.37504E-04-1.94668E-15
 -1       598 1.90577E-03 4.20693E-04-1.46683E-15
 -1       599 8.93515E-04-2.51755E-04-4.13440E-16
 -1       600 1.62041E-03 3.96191E-04-1.05749E-15
 -1       601 1.15404E-02 3.34490E-05-5.66476E-14
 -1       602 1.38333E-03-3.37010E-04-9.32333E-16
 -1       603 1.66953E-03-3.67949E-04-1.33306E-15
 -1       604 1.95575E-03-3.89765E-04-1.80642E-15
 -1       605 2.24180E-03-4.04618E-04-2.35196E-15
 -1       606 2.52765E-03-4.14305E-04-2.96918E-15
 -1       607 2.81337E-03-4.20252E-04-3.65728E-15
 -1       608 3.09899E-03-4.23559E-04-4.41672E-15
 -1       609 3.38456E-03-4.25055E-04-5.24611E-15
 -1       610 3.67011E-03-4.25350E-04-6.14347E-15
 -1       611 3.95565E-03-4.24883E-04-7.10622E-15
 -1       612 4.24121E-03-4.23958E-04-8.13470E-15
 -1       613 4.52679E-03-4.22776E-04-9.23056E-15
 -1       614 4.81239E-03-4.21458E-04-1.03908E-14
 -1       615 5.09801E-03-4.20066E-04-1.16184E-14
 -1       616 5.38366E-03-4.18617E-04-1.29114E-14
 -1       617 5.66933E-03-4.17090E-04-1.42733E-14
 -1       618 5.95503E-03-4.15440E-04-1.57048E-14
 -1       619 6.24076E-03-4.13597E-04-1.72019E-14
 -1       620 6.52652E-03-4.11474E-04-1.87633E-14
 -1       621 6.81231E-03-4.08971E-04-2.03887E-14
 -1       622 7.09816E-03-4.05981E-04-2.20740E-14
 -1       623 7.38405E-03-4.02391E-04-2.38180E-14
 -1       624 7.67001E-03-3.98099E-04-2.56150E-14
 -1       625 7.95604E-03-3.93022E-04-2.74653E-14
 -1       626 8.24215E-03-3.87121E-04-2.93673E-14
 -1       627 8.52835E-03-3.80428E-04-3.13173E-14
 -1       628 8.81465E-03-3.73092E-04-3.33074E-14
 -1       629 9.10106E-03-3.65429E-04-3.53313E-14
 -1       630 9.38763E-03-3.58000E-04-3.73823E-14
 -1       631 9.67442E-03-3.51707E-04-3.94610E-14
 -1       632 9.96164E-03-3.47905E-04-4.15692E-14
 -1       633 1.02497E-02-3.48541E-04-4.37016E-14
 -1       634 1.05396E-02-3.56319E-04-4.58553E-14
 -1       635 1.08329E-02-3.74882E-04-4.80280E-14
 -1       636 1.11326E-02-4.09077E-04-5.02150E-14
 -1       637 1.14435E-02-4.65315E-04-5.24219E-14
 -1       638 1.17726E-02-5.52200E-04-5.46461E-14
 -1       639 1.21275E-02-6.80595E-04-5.68821E-14
 -1       640 1.25124E-02-8.61178E-04-5.91316E-14
 -1       641 1.29200E-02-1.09140E-03-6.13861E-14
 -1       642 1.36959E-02-1.47908E-03-6.59527E-14
 -1       643 1.39774E-02-1.44611E-03-6.78937E-14
 -1       644 2.47556E-03 4.48601E-04-2.49710E-15
 -1       645 2.76024E-03 4.55564E-04-3.11751E-15
 -1       646 3.04493E-03 4.59598E-04-3.80852E-15
 -1       647 3.32969E-03 4.61612E-04-4.56831E-15
 -1       648 3.61454E-03 4.62277E-04-5.39848E-15
 -1       649 3.89951E-03 4.62076E-04-6.30037E-15
 -1       650 4.18459E-03 4.61348E-04-7.27283E-15
 -1       651 4.46979E-03 4.60318E-04-8.31626E-15
 -1       652 4.75508E-03 4.59127E-04-9.42775E-15
 -1       653 5.04047E-03 4.57850E-04-1.06082E-14
 -1       654 5.32593E-03 4.56513E-04-1.18537E-14
 -1       655 5.61146E-03 4.55102E-04-1.31652E-14
 -1       656 5.89707E-03 4.53576E-04-1.45467E-14
 -1       657 6.18274E-03 4.51870E-04-1.59957E-14
 -1       658 6.46848E-03 4.49898E-04-1.75066E-14
 -1       659 6.75432E-03 4.47565E-04-1.90752E-14
 -1       660 7.04027E-03 4.44764E-04-2.07037E-14
 -1       661 7.32636E-03 4.41388E-04-2.23926E-14
 -1       662 7.61263E-03 4.37337E-04-2.41340E-14
 -1       663 7.89915E-03 4.32536E-04-2.59242E-14
 -1       664 8.18597E-03 4.26955E-04-2.77650E-14
 -1       665 8.47319E-03 4.20640E-04-2.96538E-14
 -1       666 8.76093E-03 4.13752E-04-3.15855E-14
 -1       667 9.04934E-03 4.06631E-04-3.35543E-14
 -1       668 9.33864E-03 3.99862E-04-3.55596E-14
 -1       669 9.62910E-03 3.94368E-04-3.76007E-14
 -1       670 9.92117E-03 3.91520E-04-3.96782E-14
 -1       671 1.02155E-02 3.93258E-04-4.17943E-14
 -1       672 1.05130E-02 4.02214E-04-4.39395E-14
 -1       673 1.08151E-02 4.21813E-04-4.61104E-14
 -1       674 1.11238E-02 4.56318E-04-4.83056E-14
 -1       675 1.14414E-02 5.10697E-04-5.05193E-14
 -1       676 1.17700E-02 5.90087E-04-5.27414E-14
 -1       677 1.21102E-02 6.98265E-04-5.49655E-14
 -1       678 1.24585E-02 8.34169E-04-5.71938E-14
 -1       679 1.28047E-02 9.85693E-04-5.94104E-14
 -1       680 1.31323E-02 1.11895E-03-6.16135E-14
 -1       681 1.34317E-02 1.18814E-03-6.38070E-14
 -1       682 1.36780E-02 1.15905E-03-6.56233E-14
 -1       683 1.35232E-02 1.16124E-03-6.37829E-14
 -1       684 1.38388E-02 1.16620E-03-6.60447E-14
 -1       685 1.27270E-02-8.81698E-04-6.08687E-14
 -1       686 1.18141E-02 1.59347E-04-5.71842E-14
 -1       687 1.31263E-02 9.65407E-04-6.16142E-14
 -1       688 1.31274E-02-1.16674E-03-6.26011E-14
 -1       689 1.33475E-03 3.61596E-04-7.17616E-16
 -1       690 1.13269E-02-6.30800E-05-5.60881E-14
 -1       691 1.14796E-02-1.96022E-04-5.62060E-14
 -1       692 1.13426E-02-1.19461E-04-5.61494E-14
 -1       693 1.34458E-02-1.37556E-03-6.42686E-14
 -1       694 9.04119E-04 1.24512E-04-4.44814E-16
 -1       695 1.22958E-02-6.03167E-04-5.91982E-14
 -1       696 9.03785E-04-1.22173E-04-4.78645E-16
 -1       697 1.26559E-02 6.45424E-04-5.96882E-14
 -1       698 1.19020E-02-3.84120E-04-5.78086E-14
 -1       699 9.11200E-04-1.75556E-04-4.70019E-16
 -1       700 8.97532E-04-2.31493E-05-4.79085E-16
 -1       701 9.48983E-04 3.10305E-04-3.48236E-16
 -1       702 1.13365E-02-1.59154E-05-5.52200E-14
 -1       703 1.28104E-02 8.07817E-04-5.99125E-14
 -1       704 1.19868E-02 2.67351E-04-5.72371E-14
 -1       705 1.37483E-02 1.19573E-03-6.52290E-14
 -1       706 8.99486E-04-7.18054E-05-4.81196E-16
 -1       707 9.00975E-04-2.12788E-04-4.43418E-16
 -1       708 1.31389E-03 2.87273E-04-7.74957E-16
 -1       709 2.60668E-03 3.78437E-04-2.89506E-15
 -1       710 1.74567E-03 3.39072E-04-1.32148E-15
 -1       711 1.22454E-03-2.54977E-04-7.82238E-16
 -1       712 2.31977E-03 3.70271E-04-2.30096E-15
 -1       713 1.51019E-03-2.86485E-04-1.15107E-15
 -1       714 1.79727E-03-3.09482E-04-1.59084E-15
 -1       715 2.08492E-03-3.25600E-04-2.10129E-15
 -1       716 2.37270E-03-3.36433E-04-2.68354E-15
 -1       717 2.66038E-03-3.43338E-04-3.33564E-15
 -1       718 2.94786E-03-3.47409E-04-4.05887E-15
 -1       719 3.23510E-03-3.49497E-04-4.85154E-15
 -1       720 3.52211E-03-3.50243E-04-5.71191E-15
 -1       721 3.80889E-03-3.50116E-04-6.63888E-15
 -1       722 4.09547E-03-3.49448E-04-7.62994E-15
 -1       723 4.38188E-03-3.48467E-04-8.68767E-15
 -1       724 4.66814E-03-3.47315E-04-9.81203E-15
 -1       725 4.95429E-03-3.46074E-04-1.10013E-14
 -1       726 5.24033E-03-3.44779E-04-1.22576E-14
 -1       727 5.52630E-03-3.43426E-04-1.35825E-14
 -1       728 5.81219E-03-3.41986E-04-1.49766E-14
 -1       729 6.09801E-03-3.40404E-04-1.64370E-14
 -1       730 6.38375E-03-3.38610E-04-1.79612E-14
 -1       731 6.66941E-03-3.36520E-04-1.95496E-14
 -1       732 6.95497E-03-3.34037E-04-2.11985E-14
 -1       733 7.24038E-03-3.31063E-04-2.29063E-14
 -1       734 7.52560E-03-3.27501E-04-2.46694E-14
 -1       735 7.81057E-03-3.23265E-04-2.64883E-14
 -1       736 8.09519E-03-3.18299E-04-2.83552E-14
 -1       737 8.37936E-03-3.12597E-04-3.02747E-14
 -1       738 8.66295E-03-3.06233E-04-3.22409E-14
 -1       739 8.94579E-03-2.99402E-04-3.42464E-14
 -1       740 9.22772E-03-2.92467E-04-3.62814E-14
 -1       741 9.50857E-03-2.86024E-04-3.83423E-14
 -1       742 9.78825E-03-2.80968E-04-4.04323E-14
 -1       743 1.00668E-02-2.78569E-04-4.25506E-14
 -1       744 1.03446E-02-2.80550E-04-4.46947E-14
 -1       745 1.06227E-02-2.89173E-04-4.68582E-14
 -1       746 1.09033E-02-3.07413E-04-4.90318E-14
 -1       747 1.11904E-02-3.39376E-04-5.12297E-14
 -1       748 1.14907E-02-3.91011E-04-5.34478E-14
 -1       749 1.18157E-02-4.73132E-04-5.56714E-14
 -1       750 1.52951E-03 3.15546E-04-1.02954E-15
 -1       751 3.17997E-03 3.86092E-04-4.28966E-15
 -1       752 3.46637E-03 3.87257E-04-5.09084E-15
 -1       753 3.75262E-03 3.87415E-04-5.96127E-15
 -1       754 4.03877E-03 3.86943E-04-6.90139E-15
 -1       755 4.32482E-03 3.86100E-04-7.91220E-15
 -1       756 4.61079E-03 3.85053E-04-8.99178E-15
 -1       757 4.89670E-03 3.83900E-04-1.01423E-14
 -1       758 5.18257E-03 3.82686E-04-1.13573E-14
 -1       759 5.46840E-03 3.81415E-04-1.26385E-14
 -1       760 5.75420E-03 3.80061E-04-1.39870E-14
 -1       761 6.03998E-03 3.78572E-04-1.54036E-14
 -1       762 6.32573E-03 3.76879E-04-1.68866E-14
 -1       763 6.61145E-03 3.74894E-04-1.84269E-14
 -1       764 6.89713E-03 3.72523E-04-2.00260E-14
 -1       765 7.18277E-03 3.69663E-04-2.16855E-14
 -1       766 7.46834E-03 3.66214E-04-2.34051E-14
 -1       767 7.75383E-03 3.62087E-04-2.51732E-14
 -1       768 8.03922E-03 3.57223E-04-2.69894E-14
 -1       769 8.32447E-03 3.51612E-04-2.88586E-14
 -1       770 8.60958E-03 3.45324E-04-3.07732E-14
 -1       771 8.89455E-03 3.38550E-04-3.27268E-14
 -1       772 9.17942E-03 3.31653E-04-3.47188E-14
 -1       773 9.46431E-03 3.25235E-04-3.67469E-14
 -1       774 9.74948E-03 3.20212E-04-3.88055E-14
 -1       775 1.00354E-02 3.17906E-04-4.09008E-14
 -1       776 1.03231E-02 3.20150E-04-4.30342E-14
 -1       777 1.06139E-02 3.29417E-04-4.51948E-14
 -1       778 1.09103E-02 3.48993E-04-4.73795E-14
 -1       779 1.12158E-02 3.83229E-04-4.95842E-14
 -1       780 1.15349E-02 4.37876E-04-5.17970E-14
 -1       781 1.18726E-02 5.20273E-04-5.40163E-14
 -1       782 1.22316E-02 6.38002E-04-5.62361E-14
 -1       783 1.26075E-02 7.94635E-04-5.84575E-14
 -1       784 2.03274E-03 3.57677E-04-1.77632E-15
 -1       785 1.13816E-03 5.90539E-05-7.15184E-16
 -1       786 1.16082E-02-2.96686E-04-5.57180E-14
 -1       787 1.20360E-02-5.07507E-04-5.74664E-14
 -1       788 1.24669E-02-7.69101E-04-5.92626E-14
 -1       789 1.15672E-02 1.00900E-04-5.54713E-14
 -1       790 1.23523E-02 5.00408E-04-5.81209E-14
 -1       791 2.89341E-03 3.83393E-04-3.55885E-15
 -1       792 1.13679E-03 1.19945E-06-7.27716E-16
 -1       793 1.12167E-02-5.75918E-05-5.43901E-14
 -1       794 1.21926E-02-6.17523E-04-5.79133E-14
 -1       795 1.29943E-03 2.17304E-04-8.19420E-16
 -1       796 1.14233E-03 1.17839E-04-6.96210E-16
 -1       797 1.13410E-02-1.95061E-04-5.43684E-14
 -1       798 1.12343E-02-1.23264E-04-5.43134E-14
 -1       799 1.17014E-02 1.84351E-04-5.55227E-14
 -1       800 1.14919E-03-1.76094E-04-7.27544E-16
 -1       801 1.14195E-03-1.15174E-04-7.34323E-16
 -1       802 3.60476E-03 3.12087E-04-5.62203E-15
 -1       803 1.35536E-03-2.09613E-04-9.74501E-16
 -1       804 1.64154E-03-2.31732E-04-1.38120E-15
 -1       805 1.92944E-03-2.47771E-04-1.85752E-15
 -1       806 2.21821E-03-2.58901E-04-2.40403E-15
 -1       807 2.50725E-03-2.66251E-04-3.02047E-15
 -1       808 2.79623E-03-2.70798E-04-3.70679E-15
 -1       809 3.08496E-03-2.73339E-04-4.46308E-15
 -1       810 3.37335E-03-2.74489E-04-5.28696E-15
 -1       811 3.66136E-03-2.74714E-04-6.17653E-15
 -1       812 3.94900E-03-2.74348E-04-7.13227E-15
 -1       813 4.23631E-03-2.73627E-04-8.15189E-15
 -1       814 4.52331E-03-2.72705E-04-9.23895E-15
 -1       815 4.81005E-03-2.71677E-04-1.03927E-14
 -1       816 5.09657E-03-2.70592E-04-1.16122E-14
 -1       817 5.38289E-03-2.69461E-04-1.28981E-14
 -1       818 5.66904E-03-2.68271E-04-1.42549E-14
 -1       819 5.95502E-03-2.66986E-04-1.56793E-14
 -1       820 6.24083E-03-2.65552E-04-1.71692E-14
 -1       821 6.52646E-03-2.63905E-04-1.87207E-14
 -1       822 6.81186E-03-2.61968E-04-2.03351E-14
 -1       823 7.09697E-03-2.59660E-04-2.20056E-14
 -1       824 7.38172E-03-2.56897E-04-2.37341E-14
 -1       825 7.66598E-03-2.53605E-04-2.55206E-14
 -1       826 7.94960E-03-2.49725E-04-2.73561E-14
 -1       827 8.23240E-03-2.45233E-04-2.92440E-14
 -1       828 8.51414E-03-2.40159E-04-3.11820E-14
 -1       829 8.79455E-03-2.34613E-04-3.31646E-14
 -1       830 9.07331E-03-2.28822E-04-3.51809E-14
 -1       831 9.35007E-03-2.23165E-04-3.72238E-14
 -1       832 9.62447E-03-2.18213E-04-3.92985E-14
 -1       833 9.89619E-03-2.14761E-04-4.14028E-14
 -1       834 1.01651E-02-2.13846E-04-4.35332E-14
 -1       835 1.04312E-02-2.16754E-04-4.56866E-14
 -1       836 1.06954E-02-2.25009E-04-4.78534E-14
 -1       837 1.09593E-02-2.40452E-04-5.00370E-14
 -1       838 1.12271E-02-2.66099E-04-5.22453E-14
 -1       839 1.24566E-02 6.10787E-04-5.81747E-14
 -1       840 3.89204E-03 3.11930E-04-6.53134E-15
 -1       841 3.31717E-03 3.11538E-04-4.78174E-15
 -1       842 4.17904E-03 3.11344E-04-7.50939E-15
 -1       843 4.46580E-03 3.10513E-04-8.55712E-15
 -1       844 4.75234E-03 3.09551E-04-9.67562E-15
 -1       845 5.03870E-03 3.08520E-04-1.08613E-14
 -1       846 5.32491E-03 3.07441E-04-1.21132E-14
 -1       847 5.61098E-03 3.06303E-04-1.34302E-14
 -1       848 5.89693E-03 3.05071E-04-1.48158E-14
 -1       849 6.18276E-03 3.03693E-04-1.62675E-14
 -1       850 6.46844E-03 3.02097E-04-1.77804E-14
 -1       851 6.75397E-03 3.00205E-04-1.93511E-14
 -1       852 7.03930E-03 2.97927E-04-2.09818E-14
 -1       853 7.32438E-03 2.95171E-04-2.26755E-14
 -1       854 7.60913E-03 2.91850E-04-2.44232E-14
 -1       855 7.89346E-03 2.87891E-04-2.62160E-14
 -1       856 8.17726E-03 2.83252E-04-2.80602E-14
 -1       857 8.46040E-03 2.77937E-04-2.99550E-14
 -1       858 8.74277E-03 2.72029E-04-3.18933E-14
 -1       859 9.02424E-03 2.65719E-04-3.38717E-14
 -1       860 9.30476E-03 2.59349E-04-3.58849E-14
 -1       861 9.58436E-03 2.53460E-04-3.79315E-14
 -1       862 9.86327E-03 2.48845E-04-4.00116E-14
 -1       863 1.01421E-02 2.46612E-04-4.21254E-14
 -1       864 1.04218E-02 2.48278E-04-4.42748E-14
 -1       865 1.07045E-02 2.55912E-04-4.64523E-14
 -1       866 1.09934E-02 2.72442E-04-4.86473E-14
 -1       867 1.12934E-02 3.02273E-04-5.08517E-14
 -1       868 1.16119E-02 3.52591E-04-5.30637E-14
 -1       869 1.19577E-02 4.35083E-04-5.52800E-14
 -1       870 1.13965E-02-2.77076E-04-5.37700E-14
 -1       871 2.74106E-03 3.06609E-04-3.30521E-15
 -1       872 1.12985E-02 4.43380E-05-5.37184E-14
 -1       873 1.20022E-02 3.68901E-04-5.61913E-14
 -1       874 1.13800E-03-5.65045E-05-7.34300E-16
 -1       875 2.45263E-03 3.00974E-04-2.66820E-15
 -1       876 3.02926E-03 3.09892E-04-4.00966E-15
 -1       877 1.11411E-02-7.54062E-06-5.28970E-14
 -1       878 1.10983E-02-1.41148E-04-5.24202E-14
 -1       879 1.51427E-03 2.40952E-04-1.08379E-15
 -1       880 1.34642E-03-1.41972E-04-9.83897E-16
 -1       881 1.17330E-02-4.19492E-04-5.54229E-14
 -1       882 1.73036E-03 2.61098E-04-1.38540E-15
 -1       883 2.16412E-03 2.92040E-04-2.10067E-15
 -1       884 1.38409E-03 9.99675E-05-1.00249E-15
 -1       885 1.10604E-02-7.26544E-05-5.25041E-14
 -1       886 1.13953E-02 1.03386E-04-5.37725E-14
 -1       887 1.38090E-03 3.39671E-05-1.02320E-15
 -1       888 1.38081E-03-3.13971E-05-1.03595E-15
 -1       889 2.87838E-03 2.33340E-04-3.72602E-15
 -1       890 1.77664E-03-1.72671E-04-1.62066E-15
 -1       891 2.06541E-03-1.82852E-04-2.13227E-15
 -1       892 2.35507E-03-1.89789E-04-2.71292E-15
 -1       893 2.64503E-03-1.94259E-04-3.36210E-15
 -1       894 2.93489E-03-1.96914E-04-4.08119E-15
 -1       895 3.22444E-03-1.98284E-04-4.86826E-15
 -1       896 3.51355E-03-1.98775E-04-5.72171E-15
 -1       897 3.80220E-03-1.98690E-04-6.64007E-15
 -1       898 4.09037E-03-1.98248E-04-7.62395E-15
 -1       899 4.37812E-03-1.97596E-04-8.67341E-15
 -1       900 4.66547E-03-1.96829E-04-9.79018E-15
 -1       901 4.95249E-03-1.96001E-04-1.09736E-14
 -1       902 5.23921E-03-1.95135E-04-1.22227E-14
 -1       903 5.52566E-03-1.94231E-04-1.35401E-14
 -1       904 5.81186E-03-1.93269E-04-1.49278E-14
 -1       905 6.09781E-03-1.92214E-04-1.63814E-14
 -1       906 6.38350E-03-1.91022E-04-1.78988E-14
 -1       907 6.66888E-03-1.89638E-04-1.94783E-14
 -1       908 6.95388E-03-1.88004E-04-2.11168E-14
 -1       909 7.23840E-03-1.86056E-04-2.28107E-14
 -1       910 7.52230E-03-1.83738E-04-2.45615E-14
 -1       911 7.80540E-03-1.81000E-04-2.63657E-14
 -1       912 8.08745E-03-1.77815E-04-2.82220E-14
 -1       913 8.36819E-03-1.74192E-04-3.01313E-14
 -1       914 8.64725E-03-1.70192E-04-3.20884E-14
 -1       915 8.92424E-03-1.65953E-04-3.40833E-14
 -1       916 9.19868E-03-1.61709E-04-3.61088E-14
 -1       917 9.47006E-03-1.57820E-04-3.81642E-14
 -1       918 9.73781E-03-1.54780E-04-4.02564E-14
 -1       919 1.00013E-02-1.53214E-04-4.23729E-14
 -1       920 1.02601E-02-1.53853E-04-4.45152E-14
 -1       921 1.05135E-02-1.57455E-04-4.66758E-14
 -1       922 1.07613E-02-1.64804E-04-4.88489E-14
 -1       923 3.74479E-03 2.36325E-04-6.16178E-15
 -1       924 3.45640E-03 2.36173E-04-5.28278E-15
 -1       925 4.60753E-03 2.34742E-04-9.21039E-15
 -1       926 4.89443E-03 2.33949E-04-1.03658E-14
 -1       927 5.18107E-03 2.33111E-04-1.15870E-14
 -1       928 5.46747E-03 2.32231E-04-1.28761E-14
 -1       929 5.75365E-03 2.31291E-04-1.42298E-14
 -1       930 6.03962E-03 2.30255E-04-1.56501E-14
 -1       931 6.32537E-03 2.29072E-04-1.71355E-14
 -1       932 6.61087E-03 2.27682E-04-1.86786E-14
 -1       933 6.89606E-03 2.26015E-04-2.02814E-14
 -1       934 7.18086E-03 2.23995E-04-2.19466E-14
 -1       935 7.46517E-03 2.21547E-04-2.36712E-14
 -1       936 7.74885E-03 2.18600E-04-2.54444E-14
 -1       937 8.03173E-03 2.15098E-04-2.72640E-14
 -1       938 8.31361E-03 2.11011E-04-2.91345E-14
 -1       939 8.59426E-03 2.06349E-04-3.10558E-14
 -1       940 8.87345E-03 2.01184E-04-3.30184E-14
 -1       941 9.15094E-03 1.95673E-04-3.50182E-14
 -1       942 9.42655E-03 1.90080E-04-3.70539E-14
 -1       943 9.70020E-03 1.84804E-04-3.91202E-14
 -1       944 9.97200E-03 1.80404E-04-4.12182E-14
 -1       945 1.02424E-02 1.77631E-04-4.33521E-14
 -1       946 1.05125E-02 1.77496E-04-4.55151E-14
 -1       947 1.07841E-02 1.81449E-04-4.77037E-14
 -1       948 1.10608E-02 1.91899E-04-4.99033E-14
 -1       949 1.13484E-02 2.12906E-04-5.21092E-14
 -1       950 1.16569E-02 2.70840E-04-5.41498E-14
 -1       951 4.03275E-03 2.36026E-04-7.10878E-15
 -1       952 1.36247E-03-8.67037E-05-1.01288E-15
 -1       953 1.08886E-02-9.19345E-05-5.05532E-14
 -1       954 2.58888E-03 2.29791E-04-3.04817E-15
 -1       955 1.11162E-02 5.22306E-05-5.18786E-14
 -1       956 3.16759E-03 2.35301E-04-4.47132E-15
 -1       957 1.44711E-03 1.68221E-04-1.04793E-15
 -1       958 1.09389E-02-2.29615E-05-5.09679E-14
 -1       959 4.32031E-03 2.35458E-04-8.12437E-15
 -1       960 1.09207E-02-1.57856E-04-5.04102E-14
 -1       961 2.29932E-03 2.24015E-04-2.43859E-15
 -1       962 1.65619E-03 1.31760E-04-1.37478E-15
 -1       963 1.65168E-03 5.88493E-05-1.40435E-15
 -1       964 1.11910E-02 1.03780E-04-5.19297E-14
 -1       965 1.95609E-03 2.08852E-04-1.80859E-15
 -1       966 1.08731E-02 4.00102E-05-4.97815E-14
 -1       967 3.01832E-03 1.58868E-04-4.15793E-15
 -1       968 1.07364E-02-9.87264E-05-4.89945E-14
 -1       969 2.20474E-03-1.14883E-04-2.41338E-15
 -1       970 2.49510E-03-1.18466E-04-3.02635E-15
 -1       971 2.78565E-03-1.20696E-04-3.70760E-15
 -1       972 3.07603E-03-1.21941E-04-4.45758E-15
 -1       973 3.36601E-03-1.22497E-04-5.27364E-15
 -1       974 3.65549E-03-1.22592E-04-6.15518E-15
 -1       975 3.94443E-03-1.22390E-04-7.10244E-15
 -1       976 4.23284E-03-1.22008E-04-8.11509E-15
 -1       977 4.52077E-03-1.21524E-04-9.19484E-15
 -1       978 4.80826E-03-1.20986E-04-1.03418E-14
 -1       979 5.09537E-03-1.20416E-04-1.15550E-14
 -1       980 5.38213E-03-1.19823E-04-1.28352E-14
 -1       981 5.66858E-03-1.19200E-04-1.41843E-14
 -1       982 5.95472E-03-1.18530E-04-1.55999E-14
 -1       983 6.24055E-03-1.17786E-04-1.70825E-14
 -1       984 6.52602E-03-1.16938E-04-1.86275E-14
 -1       985 6.81107E-03-1.15950E-04-2.02331E-14
 -1       986 7.09559E-03-1.14785E-04-2.18952E-14
 -1       987 7.37944E-03-1.13406E-04-2.36141E-14
 -1       988 7.66241E-03-1.11782E-04-2.53859E-14
 -1       989 7.94428E-03-1.09897E-04-2.72111E-14
 -1       990 8.22473E-03-1.07753E-04-2.90882E-14
 -1       991 8.50339E-03-1.05385E-04-3.10162E-14
 -1       992 8.77982E-03-1.02877E-04-3.29892E-14
 -1       993 9.05352E-03-1.00372E-04-3.49962E-14
 -1       994 9.32390E-03-9.80930E-05-3.70340E-14
 -1       995 9.59028E-03-9.63477E-05-3.91075E-14
 -1       996 9.85190E-03-9.55274E-05-4.12111E-14
 -1       997 1.01078E-02-9.60821E-05-4.33402E-14
 -1       998 1.03570E-02-9.85050E-05-4.54921E-14
 -1       999 1.05505E-02-9.78712E-05-4.72387E-14
 -1      1000 5.03701E-03 1.58382E-04-1.10626E-14
 -1      1001 4.74993E-03 1.58941E-04-9.87056E-15
 -1      1002 5.61021E-03 1.57172E-04-1.36448E-14
 -1      1003 5.89638E-03 1.56495E-04-1.50349E-14
 -1      1004 6.18227E-03 1.55732E-04-1.64888E-14
 -1      1005 6.46784E-03 1.54843E-04-1.80071E-14
 -1      1006 6.75303E-03 1.53782E-04-1.95839E-14
 -1      1007 7.03777E-03 1.52494E-04-2.12230E-14
 -1      1008 7.32193E-03 1.50925E-04-2.29202E-14
 -1      1009 7.60534E-03 1.49016E-04-2.46701E-14
 -1      1010 7.88781E-03 1.46717E-04-2.64716E-14
 -1      1011 8.16909E-03 1.43983E-04-2.83184E-14
 -1      1012 8.44888E-03 1.40790E-04-3.02168E-14
 -1      1013 8.72687E-03 1.37138E-04-3.21653E-14
 -1      1014 9.00270E-03 1.33065E-04-3.41498E-14
 -1      1015 9.27601E-03 1.28656E-04-3.61714E-14
 -1      1016 9.54645E-03 1.24050E-04-3.82272E-14
 -1      1017 9.81376E-03 1.19445E-04-4.03139E-14
 -1      1018 1.00778E-02 1.15097E-04-4.24280E-14
 -1      1019 1.03385E-02 1.11310E-04-4.45761E-14
 -1      1020 1.05965E-02 1.08502E-04-4.67525E-14
 -1      1021 1.65060E-03-1.32791E-05-1.42345E-15
 -1      1022 5.32376E-03 1.57795E-04-1.23208E-14
 -1      1023 1.96044E-03 1.21996E-04-1.88270E-15
 -1      1024 3.30813E-03 1.59869E-04-4.94188E-15
 -1      1025 2.72814E-03 1.56930E-04-3.43994E-15
 -1      1026 3.59747E-03 1.60235E-04-5.79193E-15
 -1      1027 3.88630E-03 1.60191E-04-6.70936E-15
 -1      1028 1.07763E-02-3.23085E-05-4.93929E-14
 -1      1029 1.91517E-03-1.09496E-04-1.86876E-15
 -1      1030 1.15248E-02-3.15907E-04-5.45636E-14
 -1      1031 1.57406E-03-9.62851E-05-1.31204E-15
 -1      1032 2.43781E-03 1.53652E-04-2.78999E-15
 -1      1033 4.46249E-03 1.59458E-04-8.74784E-15
 -1      1034 1.08528E-02 1.07400E-04-4.89476E-14
 -1      1035 4.17463E-03 1.59897E-04-7.69387E-15
 -1      1036 3.45059E-03 8.38599E-05-5.42244E-15
 -1      1037 2.05691E-03-4.24881E-05-2.12282E-15
 -1      1038 5.46669E-03 8.26823E-05-1.30607E-14
 -1      1039 2.63792E-03-4.52494E-05-3.34353E-15
 -1      1040 2.92875E-03-4.58733E-05-4.05526E-15
 -1      1041 3.21929E-03-4.61732E-05-4.83398E-15
 -1      1042 3.50935E-03-4.62511E-05-5.67756E-15
 -1      1043 3.79886E-03-4.61829E-05-6.58765E-15
 -1      1044 4.08780E-03-4.60233E-05-7.56187E-15
 -1      1045 4.37619E-03-4.58097E-05-8.60533E-15
 -1      1046 4.66408E-03-4.55664E-05-9.71712E-15
 -1      1047 4.95153E-03-4.53071E-05-1.08939E-14
 -1      1048 5.23858E-03-4.50378E-05-1.21378E-14
 -1      1049 5.52526E-03-4.47584E-05-1.34485E-14
 -1      1050 5.81161E-03-4.44643E-05-1.48271E-14
 -1      1051 6.09761E-03-4.41472E-05-1.62727E-14
 -1      1052 6.38325E-03-4.37966E-05-1.77835E-14
 -1      1053 6.66846E-03-4.34002E-05-1.93542E-14
 -1      1054 6.95314E-03-4.29455E-05-2.09864E-14
 -1      1055 7.23717E-03-4.24210E-05-2.26749E-14
 -1      1056 7.52035E-03-4.18186E-05-2.44145E-14
 -1      1057 7.80246E-03-4.11368E-05-2.62065E-14
 -1      1058 8.08320E-03-4.03852E-05-2.80531E-14
 -1      1059 8.36222E-03-3.95904E-05-2.99521E-14
 -1      1060 8.63908E-03-3.88036E-05-3.18979E-14
 -1      1061 8.91329E-03-3.81099E-05-3.38847E-14
 -1      1062 9.18428E-03-3.76378E-05-3.59052E-14
 -1      1063 9.45140E-03-3.75675E-05-3.79575E-14
 -1      1064 9.71389E-03-3.81366E-05-4.00451E-14
 -1      1065 9.97084E-03-3.96353E-05-4.21603E-14
 -1      1066 1.02211E-02-4.23798E-05-4.42998E-14
 -1      1067 4.89288E-03 8.32485E-05-1.05391E-14
 -1      1068 6.03915E-03 8.20163E-05-1.58448E-14
 -1      1069 5.75308E-03 8.23679E-05-1.44187E-14
 -1      1070 6.61019E-03 8.11186E-05-1.88859E-14
 -1      1071 6.89502E-03 8.05198E-05-2.04976E-14
 -1      1072 7.17926E-03 7.97798E-05-2.21704E-14
 -1      1073 7.46273E-03 7.88643E-05-2.38971E-14
 -1      1074 7.74523E-03 7.77371E-05-2.56742E-14
 -1      1075 8.02648E-03 7.63620E-05-2.75023E-14
 -1      1076 8.30618E-03 7.47042E-05-2.93788E-14
 -1      1077 8.58395E-03 7.27321E-05-3.13070E-14
 -1      1078 8.85937E-03 7.04194E-05-3.32777E-14
 -1      1079 9.13198E-03 6.77458E-05-3.52868E-14
 -1      1080 9.40126E-03 6.46965E-05-3.73297E-14
 -1      1081 9.66668E-03 6.12584E-05-3.94057E-14
 -1      1082 9.92768E-03 5.74132E-05-4.15066E-14
 -1      1083 1.01837E-02 5.31247E-05-4.36368E-14
 -1      1084 1.04338E-02 4.82644E-05-4.57980E-14
 -1      1085 1.94614E-03 3.61745E-05-1.90053E-15
 -1      1086 1.06564E-02 4.44076E-05-4.77844E-14
 -1      1087 6.32487E-03 8.16079E-05-1.73339E-14
 -1      1088 2.34713E-03-4.41696E-05-2.69919E-15
 -1      1089 3.74011E-03 8.39676E-05-6.31005E-15
 -1      1090 2.87004E-03 8.26792E-05-3.84367E-15
 -1      1091 3.16054E-03 8.34772E-05-4.60003E-15
 -1      1092 5.17996E-03 8.29735E-05-1.17662E-14
 -1      1093 4.60541E-03 8.35056E-05-9.37955E-15
 -1      1094 1.04172E-02-4.18111E-05-4.60397E-14
 -1      1095 2.57929E-03 8.12783E-05-3.15309E-15
 -1      1096 2.24501E-03 5.33790E-05-2.45668E-15
 -1      1097 1.05999E-02-3.63863E-05-4.77132E-14
 -1      1098 4.02907E-03 8.39016E-05-7.26509E-15
 -1      1099 4.31748E-03 8.37323E-05-8.28806E-15
 -1      1100 0.00000E+00 0.00000E+00 0.00000E+00
 -1      1101 0.00000E+00 0.00000E+00 0.00000E+00
 -1      1102 0.00000E+00 0.00000E+00 0.00000E+00
 -1      1103 0.00000E+00 0.00000E+00 0.00000E+00
 -1      1104 0.00000E+00 0.00000E+00 0.00000E+00
 -1      1105 0.00000E+00 0.00000E+00 0.00000E+00
 -1      1106 0.00000E+00 0.00000E+00 0.00000E+00
 -1      1107 0.00000E+00 0.00000E+00 0.00000E+00
 -1      1108 0.00000E+00 0.00000E+00 0.00000E+00
 -1      1109 0.00000E+00 0.00000E+00 0.00000E+00
 -1      1110 0.00000E+00 0.00000E+00 0.00000E+00
 -1      1111 0.00000E+00 0.00000E+00 0.00000E+00
 -1      1112 0.00000E+00 0.00000E+00 0.00000E+00
 -1      1113 0.00000E+00 0.00000E+00 0.00000E+00
 -1      1114 0.00000E+00 0.00000E+00 0.00000E+00
 -1      1115 0.00000E+00 0.00000E+00 0.00000E+00
 -1      1116 0.00000E+00 0.00000E+00 0.00000E+00
 -1      1117 2.11679E-04-1.48328E-04 1.01644E-17
 -1      1118 5.51684E-04-3.37493E-04-1.73066E-17
 -1      1119 8.33551E-04-4.58971E-04-1.15969E-16
 -1      1120 1.10319E-03-5.40646E-04-2.97735E-16
 -1      1121 1.36867E-03-5.97899E-04-5.59963E-16
 -1      1122 1.63357E-03-6.38628E-04-9.01243E-16
 -1      1123 1.89974E-03-6.67487E-04-1.32171E-15
 -1      1124 2.16802E-03-6.87602E-04-1.81982E-15
 -1      1125 2.43871E-03-7.01265E-04-2.39449E-15
 -1      1126 2.71180E-03-7.10210E-04-3.04638E-15
 -1      1127 2.98714E-03-7.15756E-04-3.77521E-15
 -1      1128 3.26447E-03-7.18900E-04-4.57770E-15
 -1      1129 3.54352E-03-7.20385E-04-5.45022E-15
 -1      1130 3.82400E-03-7.20758E-04-6.39312E-15
 -1      1131 4.10566E-03-7.20411E-04-7.40280E-15
 -1      1132 4.38826E-03-7.19613E-04-8.48232E-15
 -1      1133 4.67159E-03-7.18544E-04-9.63075E-15
 -1      1134 4.95548E-03-7.17310E-04-1.08411E-14
 -1      1135 5.23979E-03-7.15963E-04-1.21180E-14
 -1      1136 5.52440E-03-7.14512E-04-1.34635E-14
 -1      1137 5.80926E-03-7.12936E-04-1.48789E-14
 -1      1138 6.09430E-03-7.11184E-04-1.63631E-14
 -1      1139 6.37953E-03-7.09190E-04-1.79153E-14
 -1      1140 6.66497E-03-7.06870E-04-1.95387E-14
 -1      1141 6.95070E-03-7.04133E-04-2.12289E-14
 -1      1142 7.23684E-03-7.00885E-04-2.29804E-14
 -1      1143 7.52360E-03-6.97038E-04-2.47824E-14
 -1      1144 7.81124E-03-6.92527E-04-2.66357E-14
 -1      1145 8.10014E-03-6.87326E-04-2.85449E-14
 -1      1146 8.39080E-03-6.81480E-04-3.04978E-14
 -1      1147 8.68387E-03-6.75147E-04-3.24897E-14
 -1      1148 8.98016E-03-6.68652E-04-3.45187E-14
 -1      1149 9.28068E-03-6.62580E-04-3.65743E-14
 -1      1150 9.58666E-03-6.57878E-04-3.86600E-14
 -1      1151 9.89949E-03-6.56016E-04-4.07716E-14
 -1      1152 1.02207E-02-6.59182E-04-4.29036E-14
 -1      1153 1.05516E-02-6.70511E-04-4.50517E-14
 -1      1154 1.08933E-02-6.94314E-04-4.72198E-14
 -1      1155 1.12456E-02-7.36188E-04-4.94056E-14
 -1      1156 1.16064E-02-8.02731E-04-5.16039E-14
 -1      1157 1.19701E-02-9.00387E-04-5.38251E-14
 -1      1158 1.23264E-02-1.03273E-03-5.60824E-14
 -1      1159 1.26601E-02-1.19569E-03-5.83666E-14
 -1      1160 1.29534E-02-1.37165E-03-6.06666E-14
 -1      1161 1.31926E-02-1.52596E-03-6.29828E-14
 -1      1162 1.33780E-02-1.61210E-03-6.52983E-14
 -1      1163 1.35311E-02-1.58914E-03-6.76097E-14
 -1      1164 1.36917E-02-1.44672E-03-6.99144E-14
 -1      1165 1.38999E-02-1.22347E-03-7.22107E-14
 -1      1166 1.41592E-02-1.00079E-03-7.44342E-14
 -1      1167 2.28438E-04 1.60705E-04 2.17654E-17
 -1      1168 5.53855E-04 3.42130E-04 2.25921E-17
 -1      1169 8.34476E-04 4.61145E-04-3.76218E-17
 -1      1170 1.10408E-03 5.42330E-04-1.68377E-16
 -1      1171 1.36958E-03 5.99576E-04-3.70946E-16
 -1      1172 1.63453E-03 6.40399E-04-6.45751E-16
 -1      1173 1.90074E-03 6.69364E-04-9.93468E-16
 -1      1174 2.16906E-03 6.89596E-04-1.41358E-15
 -1      1175 2.43978E-03 7.03386E-04-1.90703E-15
 -1      1176 2.71289E-03 7.12463E-04-2.47453E-15
 -1      1177 2.98824E-03 7.18145E-04-3.11749E-15
 -1      1178 3.26558E-03 7.21424E-04-3.83363E-15
 -1      1179 3.54463E-03 7.23046E-04-4.62143E-15
 -1      1180 3.82512E-03 7.23556E-04-5.48923E-15
 -1      1181 4.10679E-03 7.23344E-04-6.43319E-15
 -1      1182 4.38939E-03 7.22683E-04-7.44888E-15
 -1      1183 4.67272E-03 7.21749E-04-8.53378E-15
 -1      1184 4.95661E-03 7.20651E-04-9.68752E-15
 -1      1185 5.24092E-03 7.19439E-04-1.09097E-14
 -1      1186 5.52554E-03 7.18125E-04-1.21979E-14
 -1      1187 5.81040E-03 7.16685E-04-1.35499E-14
 -1      1188 6.09545E-03 7.15072E-04-1.49674E-14
 -1      1189 6.38069E-03 7.13219E-04-1.64539E-14
 -1      1190 6.66614E-03 7.11048E-04-1.80089E-14
 -1      1191 6.95189E-03 7.08470E-04-1.96214E-14
 -1      1192 7.23806E-03 7.05399E-04-2.12888E-14
 -1      1193 7.52485E-03 7.01759E-04-2.30112E-14
 -1      1194 7.81252E-03 6.97500E-04-2.47846E-14
 -1      1195 8.10143E-03 6.92622E-04-2.65994E-14
 -1      1196 8.39205E-03 6.87203E-04-2.84641E-14
 -1      1197 8.68499E-03 6.81445E-04-3.03752E-14
 -1      1198 8.98097E-03 6.75730E-04-3.23248E-14
 -1      1199 9.28084E-03 6.70700E-04-3.43139E-14
 -1      1200 9.58557E-03 6.67352E-04-3.63356E-14
 -1      1201 9.89617E-03 6.67157E-04-3.83963E-14
 -1      1202 1.02136E-02 6.72179E-04-4.05028E-14
 -1      1203 1.05383E-02 6.85190E-04-4.26395E-14
 -1      1204 1.08704E-02 7.09683E-04-4.48081E-14
 -1      1205 1.12086E-02 7.49693E-04-4.70094E-14
 -1      1206 1.15495E-02 8.09210E-04-4.92297E-14
 -1      1207 1.18876E-02 8.90918E-04-5.14591E-14
 -1      1208 1.22144E-02 9.94069E-04-5.36936E-14
 -1      1209 1.25194E-02 1.11166E-03-5.59318E-14
 -1      1210 1.27926E-02 1.22798E-03-5.81735E-14
 -1      1211 1.30292E-02 1.31879E-03-6.03977E-14
 -1      1212 1.32342E-02 1.35655E-03-6.26063E-14
 -1      1213 1.34252E-02 1.32150E-03-6.47926E-14
 -1      1214 1.36285E-02 1.21487E-03-6.69522E-14
 -1      1215 1.38670E-02 1.06608E-03-6.90745E-14
 -1      1216 1.41352E-02 9.25570E-04-7.11250E-14
 -1      1217 1.43320E-02 8.21492E-04-7.22141E-14
 -1      1218 1.44305E-02 7.18161E-04-7.23971E-14
 -1      1219 1.45152E-02 5.64959E-04-7.25798E-14
 -1      1220 1.46429E-02 3.35643E-04-7.27657E-14
 -1      1221 1.48972E-02 2.07313E-05-7.29665E-14
 -1      1222 1.53571E-02-3.39220E-04-7.31600E-14
 -1      1223 1.60537E-02-6.64091E-04-7.33434E-14
 -1      1224 1.69441E-02-8.61195E-04-7.35229E-14
 -1      1225 1.78772E-02-8.40010E-04-7.37043E-14
 -1      1226 1.86129E-02-5.42238E-04-7.38836E-14
 -1      1227 1.88309E-02-5.10619E-05-7.40620E-14
 -1      1228 1.83682E-02 4.15535E-04-7.42432E-14
 -1      1229 1.74524E-02 6.05793E-04-7.44007E-14
 -1      1230 1.64300E-02 4.88069E-04-7.45675E-14
 -1      1231 1.55227E-02 1.33747E-04-7.47666E-14
 -1      1232 1.49775E-02-2.60264E-04-7.49384E-14
 -1      1233 1.47098E-02-5.56355E-04-7.51058E-14
 -1      1234 1.45504E-02-7.45735E-04-7.52739E-14
 -1      1235 1.43898E-02-8.59606E-04-7.54267E-14
 -1      1236 1.86538E-02 5.20235E-05-7.10366E-14
 -1      1237 1.81714E-02 3.84746E-04-7.07240E-14
 -1      1238 1.73972E-02 6.75280E-04-7.01751E-14
 -1      1239 1.65397E-02 9.10033E-04-6.93960E-14
 -1      1240 1.57495E-02 1.07360E-03-6.84665E-14
 -1      1241 1.50474E-02 1.16723E-03-6.74307E-14
 -1      1242 1.44087E-02 1.19155E-03-6.63257E-14
 -1      1243 1.38203E-02 1.14628E-03-6.52032E-14
 -1      1244 1.32619E-02 1.03518E-03-6.40694E-14
 -1      1245 1.27712E-02 8.81954E-04-6.30658E-14
 -1      1246 1.23263E-02 6.94136E-04-6.21844E-14
 -1      1247 1.19389E-02 4.85982E-04-6.14638E-14
 -1      1248 1.16537E-02 2.81609E-04-6.09723E-14
 -1      1249 1.14763E-02 8.01956E-05-6.07047E-14
 -1      1250 1.14200E-02-1.12772E-04-6.06721E-14
 -1      1251 1.14841E-02-3.04815E-04-6.08465E-14
 -1      1252 1.16653E-02-5.07465E-04-6.12559E-14
 -1      1253 1.19439E-02-7.13387E-04-6.18720E-14
 -1      1254 1.22949E-02-9.15020E-04-6.26282E-14
 -1      1255 1.27292E-02-1.11504E-03-6.35537E-14
 -1      1256 1.32321E-02-1.28990E-03-6.46282E-14
 -1      1257 1.37730E-02-1.41061E-03-6.57667E-14
 -1      1258 1.43610E-02-1.46731E-03-6.69268E-14
 -1      1259 1.50227E-02-1.44648E-03-6.80758E-14
 -1      1260 1.57642E-02-1.34575E-03-6.91223E-14
 -1      1261 1.65562E-02-1.17848E-03-6.99661E-14
 -1      1262 1.73798E-02-9.50041E-04-7.05816E-14
 -1      1263 1.81763E-02-6.46552E-04-7.09849E-14
 -1      1264 1.86672E-02-2.96833E-04-7.11311E-14
 -1      1265 1.66714E-04-1.10333E-04-1.46367E-18
 -1      1266 1.12551E-04-5.69600E-05-1.54363E-17
 -1      1267 1.17634E-04-6.75704E-05-1.16145E-17
 -1      1268 1.08422E-04-4.34757E-05-2.17383E-17
 -1      1269 1.10286E-04-4.95884E-05-1.98138E-17
 -1      1270 2.26342E-04-1.07593E-04-4.67427E-17
 -1      1271 1.06849E-04-3.36040E-05-2.51941E-17
 -1      1272 1.07695E-04-3.83292E-05-2.42048E-17
 -1      1273 2.19108E-04-8.24404E-05-5.79371E-17
 -1      1274 1.06065E-04-2.53348E-05-2.71186E-17
 -1      1275 1.06500E-04-2.93662E-05-2.66307E-17
 -1      1276 2.15883E-04-6.32537E-05-6.44152E-17
 -1      1277 1.05654E-04-1.80800E-05-2.79589E-17
 -1      1278 1.05885E-04-2.16464E-05-2.78504E-17
 -1      1279 2.14206E-04-4.71613E-05-6.80201E-17
 -1      1280 1.05431E-04-1.12318E-05-2.84468E-17
 -1      1281 1.05555E-04-1.46152E-05-2.84061E-17
 -1      1282 2.13280E-04-3.27339E-05-6.97549E-17
 -1      1283 1.05330E-04-4.68602E-06-2.84468E-17
 -1      1284 1.05383E-04-7.93730E-06-2.85010E-17
 -1      1285 2.12779E-04-1.91783E-05-7.03647E-17
 -1      1286 1.05318E-04 1.74159E-06-2.81079E-17
 -1      1287 1.05316E-04-1.46974E-06-2.82570E-17
 -1      1288 2.12562E-04-6.15675E-06-7.01208E-17
 -1      1289 1.05392E-04 8.21918E-06-2.73083E-17
 -1      1290 1.05334E-04 4.96126E-06-2.75387E-17
 -1      1291 2.12571E-04 6.70368E-06-6.88739E-17
 -1      1292 1.05571E-04 1.49227E-05-2.63732E-17
 -1      1293 1.05442E-04 1.15244E-05-2.67256E-17
 -1      1294 2.12805E-04 1.97517E-05-6.69359E-17
 -1      1295 1.05907E-04 2.19382E-05-2.46656E-17
 -1      1296 1.05670E-04 1.83485E-05-2.51399E-17
 -1      1297 2.13320E-04 3.32473E-05-6.40221E-17
 -1      1298 1.06535E-04 2.98020E-05-2.20635E-17
 -1      1299 1.06093E-04 2.57261E-05-2.29580E-17
 -1      1300 2.14267E-04 4.77693E-05-5.94820E-17
 -1      1301 1.07738E-04 3.89002E-05-1.84043E-17
 -1      1302 1.06883E-04 3.41046E-05-1.97731E-17
 -1      1303 2.15986E-04 6.41760E-05-5.30175E-17
 -1      1304 1.10276E-04 5.03389E-05-1.27123E-17
 -1      1305 1.08440E-04 4.41556E-05-1.51517E-17
 -1      1306 2.19235E-04 8.36861E-05-4.36527E-17
 -1      1307 1.16941E-04 6.76061E-05-3.78116E-18
 -1      1308 1.12189E-04 5.77593E-05-8.13152E-18
 -1      1309 2.26328E-04 1.09424E-04-3.00324E-17
 -1      1310 1.57591E-04 1.09851E-04 1.00289E-17
 -1      1311 1.35674E-04 8.60791E-05 1.62630E-18
 -1      1312 2.56057E-04 1.52068E-04-1.36609E-17
 -1      1313 3.35113E-04 2.20719E-04 9.60874E-18
 -1      1314 4.21582E-04-2.61715E-04-2.72812E-17
 -1      1315 5.74699E-04-3.36766E-04-5.99835E-17
 -1      1316 7.21908E-04-3.97361E-04-1.14194E-16
 -1      1317 8.65100E-04-4.46649E-04-1.88489E-16
 -1      1318 6.12144E-04-3.30851E-04-1.08989E-16
 -1      1319 1.00515E-03-4.87717E-04-2.81879E-16
 -1      1320 1.14302E-03-5.21703E-04-3.95192E-16
 -1      1321 9.05420E-04-4.31535E-04-2.63204E-16
 -1      1322 1.27955E-03-5.50477E-04-5.28142E-16
 -1      1323 1.41523E-03-5.74518E-04-6.80920E-16
 -1      1324 1.18790E-03-5.00950E-04-4.94749E-16
 -1      1325 1.55051E-03-5.94891E-04-8.53010E-16
 -1      1326 1.68565E-03-6.11931E-04-1.04510E-15
 -1      1327 1.46489E-03-5.49729E-04-8.03733E-16
 -1      1328 1.82088E-03-6.26266E-04-1.25627E-15
 -1      1329 1.95631E-03-6.38189E-04-1.48658E-15
 -1      1330 1.73965E-03-5.84057E-04-1.18979E-15
 -1      1331 2.09208E-03-6.48104E-04-1.73615E-15
 -1      1332 2.22822E-03-6.56261E-04-2.00531E-15
 -1      1333 2.01404E-03-6.07918E-04-1.65262E-15
 -1      1334 2.36478E-03-6.62936E-04-2.29321E-15
 -1      1335 2.50178E-03-6.68336E-04-2.59963E-15
 -1      1336 2.28905E-03-6.24132E-04-2.19119E-15
 -1      1337 2.63924E-03-6.72657E-04-2.92603E-15
 -1      1338 2.77713E-03-6.76063E-04-3.27169E-15
 -1      1339 2.56516E-03-6.34780E-04-2.80585E-15
 -1      1340 2.91546E-03-6.78697E-04-3.63537E-15
 -1      1341 3.05421E-03-6.80688E-04-4.01751E-15
 -1      1342 2.84254E-03-6.41425E-04-3.49593E-15
 -1      1343 3.19335E-03-6.82138E-04-4.41777E-15
 -1      1344 3.33287E-03-6.83146E-04-4.83596E-15
 -1      1345 3.12123E-03-6.45242E-04-4.25940E-15
 -1      1346 3.47273E-03-6.83785E-04-5.27173E-15
 -1      1347 3.61291E-03-6.84130E-04-5.72470E-15
 -1      1348 3.40114E-03-6.47106E-04-5.09385E-15
 -1      1349 3.75339E-03-6.84231E-04-6.19520E-15
 -1      1350 3.89413E-03-6.84143E-04-6.68313E-15
 -1      1351 3.68214E-03-6.47662E-04-5.99888E-15
 -1      1352 4.03512E-03-6.83900E-04-7.18746E-15
 -1      1353 4.17633E-03-6.83542E-04-7.70853E-15
 -1      1354 3.96409E-03-6.47371E-04-6.97221E-15
 -1      1355 4.31773E-03-6.83088E-04-8.24723E-15
 -1      1356 4.45931E-03-6.82568E-04-8.80338E-15
 -1      1357 4.24683E-03-6.46559E-04-8.01346E-15
 -1      1358 4.60104E-03-6.81991E-04-9.37529E-15
 -1      1359 4.74292E-03-6.81376E-04-9.96338E-15
 -1      1360 4.53022E-03-6.45440E-04-9.12198E-15
 -1      1361 4.88491E-03-6.80727E-04-1.05679E-14
 -1      1362 5.02701E-03-6.80055E-04-1.11889E-14
 -1      1363 4.81413E-03-6.44149E-04-1.02963E-14
 -1      1364 5.16920E-03-6.79358E-04-1.18271E-14
 -1      1365 5.31147E-03-6.78641E-04-1.24816E-14
 -1      1366 5.09845E-03-6.42755E-04-1.15366E-14
 -1      1367 5.45381E-03-6.77898E-04-1.31528E-14
 -1      1368 5.59622E-03-6.77130E-04-1.38411E-14
 -1      1369 5.38309E-03-6.41281E-04-1.28429E-14
 -1      1370 5.73868E-03-6.76328E-04-1.45471E-14
 -1      1371 5.88120E-03-6.75489E-04-1.52712E-14
 -1      1372 5.66799E-03-6.39713E-04-1.42179E-14
 -1      1373 6.02377E-03-6.74601E-04-1.60119E-14
 -1      1374 6.16639E-03-6.73660E-04-1.67682E-14
 -1      1375 5.95312E-03-6.38005E-04-1.56612E-14
 -1      1376 6.30906E-03-6.72650E-04-1.75441E-14
 -1      1377 6.45179E-03-6.71565E-04-1.83371E-14
 -1      1378 6.23846E-03-6.36092E-04-1.71750E-14
 -1      1379 6.59458E-03-6.70389E-04-1.91457E-14
 -1      1380 6.73744E-03-6.69115E-04-1.99715E-14
 -1      1381 6.52402E-03-6.33888E-04-1.87555E-14
 -1      1382 6.88039E-03-6.67724E-04-2.08139E-14
 -1      1383 7.02344E-03-6.66210E-04-2.16728E-14
 -1      1384 6.80987E-03-6.31295E-04-2.04033E-14
 -1      1385 7.16661E-03-6.64552E-04-2.25456E-14
 -1      1386 7.30992E-03-6.62748E-04-2.34317E-14
 -1      1387 7.09609E-03-6.28206E-04-2.21138E-14
 -1      1388 7.45340E-03-6.60776E-04-2.43315E-14
 -1      1389 7.59708E-03-6.58638E-04-2.52422E-14
 -1      1390 7.38283E-03-6.24515E-04-2.38815E-14
 -1      1391 7.74100E-03-6.56313E-04-2.61673E-14
 -1      1392 7.88520E-03-6.53810E-04-2.71066E-14
 -1      1393 7.67029E-03-6.20124E-04-2.57017E-14
 -1      1394 8.02973E-03-6.51111E-04-2.80579E-14
 -1      1395 8.17465E-03-6.48239E-04-2.90225E-14
 -1      1396 7.95873E-03-6.14962E-04-2.75741E-14
 -1      1397 8.32002E-03-6.45180E-04-2.99970E-14
 -1      1398 8.46591E-03-6.41976E-04-3.09797E-14
 -1      1399 8.24851E-03-6.09007E-04-2.94960E-14
 -1      1400 8.61241E-03-6.38625E-04-3.19755E-14
 -1      1401 8.75960E-03-6.35195E-04-3.29796E-14
 -1      1402 8.54008E-03-6.02322E-04-3.14623E-14
 -1      1403 8.90759E-03-6.31704E-04-3.39924E-14
 -1      1404 9.05647E-03-6.28257E-04-3.50124E-14
 -1      1405 8.83398E-03-5.95102E-04-3.34676E-14
 -1      1406 9.20639E-03-6.24903E-04-3.60385E-14
 -1      1407 9.35745E-03-6.21798E-04-3.70731E-14
 -1      1408 9.13092E-03-5.87751E-04-3.55042E-14
 -1      1409 9.50980E-03-6.19044E-04-3.81152E-14
 -1      1410 9.66358E-03-6.16861E-04-3.91631E-14
 -1      1411 9.43167E-03-5.80974E-04-3.75704E-14
 -1      1412 9.81895E-03-6.15430E-04-4.02168E-14
 -1      1413 9.97605E-03-6.15058E-04-4.12763E-14
 -1      1414 9.73713E-03-5.75923E-04-3.96636E-14
 -1      1415 1.01350E-02-6.16041E-04-4.23407E-14
 -1      1416 1.02960E-02-6.18789E-04-4.34087E-14
 -1      1417 1.00483E-02-5.74377E-04-4.17792E-14
 -1      1418 1.04591E-02-6.23766E-04-4.44831E-14
 -1      1419 1.06245E-02-6.31497E-04-4.55623E-14
 -1      1420 1.03660E-02-5.78982E-04-4.39155E-14
 -1      1421 1.07921E-02-6.42665E-04-4.66469E-14
 -1      1422 1.09618E-02-6.57904E-04-4.77365E-14
 -1      1423 1.06909E-02-5.93516E-04-4.60737E-14
 -1      1424 1.11337E-02-6.78149E-04-4.88267E-14
 -1      1425 1.13074E-02-7.04094E-04-4.99205E-14
 -1      1426 1.10232E-02-6.23133E-04-4.82479E-14
 -1      1427 1.14825E-02-7.36878E-04-5.10220E-14
 -1      1428 1.16585E-02-7.77116E-04-5.21278E-14
 -1      1429 1.13621E-02-6.74382E-04-5.04400E-14
 -1      1430 1.18346E-02-8.25927E-04-5.32379E-14
 -1      1431 1.20098E-02-8.83548E-04-5.43549E-14
 -1      1432 1.17052E-02-7.54657E-04-5.26489E-14
 -1      1433 1.21828E-02-9.50545E-04-5.54813E-14
 -1      1434 1.23523E-02-1.02625E-03-5.66164E-14
 -1      1435 1.20481E-02-8.70412E-04-5.48847E-14
 -1      1436 1.25166E-02-1.10980E-03-5.77543E-14
 -1      1437 1.26741E-02-1.19893E-03-5.88969E-14
 -1      1438 1.23838E-02-1.02335E-03-5.71455E-14
 -1      1439 1.28233E-02-1.29039E-03-6.00442E-14
 -1      1440 1.29628E-02-1.37982E-03-6.11933E-14
 -1      1441 1.27028E-02-1.20436E-03-5.94233E-14
 -1      1442 1.30918E-02-1.46135E-03-6.23472E-14
 -1      1443 1.32104E-02-1.52907E-03-6.35046E-14
 -1      1444 1.29955E-02-1.38708E-03-6.17180E-14
 -1      1445 1.33194E-02-1.57600E-03-6.46615E-14
 -1      1446 1.34209E-02-1.59674E-03-6.58151E-14
 -1      1447 1.32560E-02-1.52671E-03-6.40238E-14
 -1      1448 1.35172E-02-1.58669E-03-6.69690E-14
 -1      1449 1.36124E-02-1.54416E-03-6.81233E-14
 -1      1450 1.34877E-02-1.57133E-03-6.63308E-14
 -1      1451 1.37097E-02-1.47069E-03-6.92771E-14
 -1      1452 1.38132E-02-1.37067E-03-7.04253E-14
 -1      1453 1.37055E-02-1.48691E-03-6.86365E-14
 -1      1454 1.39251E-02-1.25311E-03-7.15698E-14
 -1      1455 1.40475E-02-1.12870E-03-7.27128E-14
 -1      1456 1.39314E-02-1.28432E-03-7.09329E-14
 -1      1457 1.42556E-02-9.55132E-04-7.43536E-14
 -1      1458 1.42574E-02-9.69118E-04-7.37170E-14
 -1      1459 6.43145E-04 3.71990E-04-2.20229E-17
 -1      1460 4.93000E-04 3.03669E-04 2.12775E-18
 -1      1461 4.44927E-04 2.65867E-04-1.50704E-17
 -1      1462 9.28779E-04 4.71933E-04-1.22474E-16
 -1      1463 7.87893E-04 4.26450E-04-6.36156E-17
 -1      1464 7.44833E-04 3.90673E-04-8.59501E-17
 -1      1465 1.20373E-03 5.41336E-04-2.92369E-16
 -1      1466 1.06703E-03 5.09662E-04-1.98450E-16
 -1      1467 1.03092E-03 4.76094E-04-2.24891E-16
 -1      1468 1.47435E-03 5.90544E-04-5.33427E-16
 -1      1469 1.33926E-03 5.68077E-04-4.03920E-16
 -1      1470 1.30890E-03 5.35915E-04-4.33329E-16
 -1      1471 1.74396E-03 6.25470E-04-8.46274E-16
 -1      1472 1.60910E-03 6.09553E-04-6.80662E-16
 -1      1473 1.58319E-03 5.78222E-04-7.12321E-16
 -1      1474 2.01426E-03 6.49974E-04-1.23167E-15
 -1      1475 1.87893E-03 6.38851E-04-1.02978E-15
 -1      1476 1.85643E-03 6.07981E-04-1.06276E-15
 -1      1477 2.28605E-03 6.66817E-04-1.68936E-15
 -1      1478 2.14993E-03 6.59221E-04-1.45157E-15
 -1      1479 2.13003E-03 6.28584E-04-1.48586E-15
 -1      1480 2.55965E-03 6.78051E-04-2.22074E-15
 -1      1481 2.42261E-03 6.73034E-04-1.94575E-15
 -1      1482 2.40469E-03 6.42488E-04-1.98131E-15
 -1      1483 2.83511E-03 6.85223E-04-2.82585E-15
 -1      1484 2.69715E-03 6.82067E-04-2.51417E-15
 -1      1485 2.68072E-03 6.51528E-04-2.55012E-15
 -1      1486 3.11235E-03 6.89507E-04-3.50547E-15
 -1      1487 2.97352E-03 6.87667E-04-3.15625E-15
 -1      1488 2.95819E-03 6.57087E-04-3.19224E-15
 -1      1489 3.39117E-03 6.91780E-04-4.25639E-15
 -1      1490 3.25157E-03 6.90851E-04-3.87190E-15
 -1      1491 3.23705E-03 6.60204E-04-3.90718E-15
 -1      1492 3.67138E-03 6.92691E-04-5.08301E-15
 -1      1493 3.53112E-03 6.92373E-04-4.66006E-15
 -1      1494 3.51717E-03 6.61650E-04-4.69488E-15
 -1      1495 3.95275E-03 6.92711E-04-5.98682E-15
 -1      1496 3.81193E-03 6.92789E-04-5.52507E-15
 -1      1497 3.79839E-03 6.61988E-04-5.55820E-15
 -1      1498 4.23507E-03 6.92169E-04-6.96355E-15
 -1      1499 4.09380E-03 6.92494E-04-6.46615E-15
 -1      1500 4.08054E-03 6.61621E-04-6.49620E-15
 -1      1501 4.51817E-03 6.91290E-04-8.01194E-15
 -1      1502 4.37653E-03 6.91761E-04-7.47927E-15
 -1      1503 4.36347E-03 6.60825E-04-7.50650E-15
 -1      1504 4.80186E-03 6.90212E-04-9.12775E-15
 -1      1505 4.65995E-03 6.90770E-04-8.56136E-15
 -1      1506 4.64701E-03 6.59780E-04-8.58581E-15
 -1      1507 5.08602E-03 6.89014E-04-1.03143E-14
 -1      1508 4.94389E-03 6.89625E-04-9.71288E-15
 -1      1509 4.93105E-03 6.58593E-04-9.73485E-15
 -1      1510 5.37054E-03 6.87722E-04-1.15657E-14
 -1      1511 5.22824E-03 6.88379E-04-1.09319E-14
 -1      1512 5.21547E-03 6.57314E-04-1.09514E-14
 -1      1513 5.65533E-03 6.86329E-04-1.28842E-14
 -1      1514 5.51290E-03 6.87040E-04-1.22161E-14
 -1      1515 5.50019E-03 6.55950E-04-1.22331E-14
 -1      1516 5.94035E-03 6.84796E-04-1.42653E-14
 -1      1517 5.79781E-03 6.85583E-04-1.35662E-14
 -1      1518 5.78516E-03 6.54476E-04-1.35797E-14
 -1      1519 6.22557E-03 6.83062E-04-1.57171E-14
 -1      1520 6.08293E-03 6.83958E-04-1.49830E-14
 -1      1521 6.07035E-03 6.52838E-04-1.49960E-14
 -1      1522 6.51101E-03 6.81051E-04-1.72343E-14
 -1      1523 6.36826E-03 6.82096E-04-1.64674E-14
 -1      1524 6.35575E-03 6.50966E-04-1.64785E-14
 -1      1525 6.79671E-03 6.78674E-04-1.88151E-14
 -1      1526 6.65382E-03 6.79913E-04-1.80174E-14
 -1      1527 6.64140E-03 6.48772E-04-1.80245E-14
 -1      1528 7.08279E-03 6.75838E-04-2.04547E-14
 -1      1529 6.93970E-03 6.77317E-04-1.96280E-14
 -1      1530 6.92737E-03 6.46160E-04-1.96305E-14
 -1      1531 7.36938E-03 6.72452E-04-2.21441E-14
 -1      1532 7.22601E-03 6.74215E-04-2.12922E-14
 -1      1533 7.21376E-03 6.43031E-04-2.12935E-14
 -1      1534 7.65670E-03 6.68443E-04-2.38927E-14
 -1      1535 7.51293E-03 6.70524E-04-2.30125E-14
 -1      1536 7.50075E-03 6.39294E-04-2.30115E-14
 -1      1537 7.94504E-03 6.63771E-04-2.56840E-14
 -1      1538 7.80072E-03 6.66183E-04-2.47830E-14
 -1      1539 7.78856E-03 6.34880E-04-2.47800E-14
 -1      1540 8.23477E-03 6.58455E-04-2.75239E-14
 -1      1541 8.08970E-03 6.61178E-04-2.65972E-14
 -1      1542 8.07749E-03 6.29765E-04-2.65934E-14
 -1      1543 8.52638E-03 6.52611E-04-2.94087E-14
 -1      1544 8.38031E-03 6.55574E-04-2.84613E-14
 -1      1545 8.36792E-03 6.23995E-04-2.84553E-14
 -1      1546 8.82044E-03 6.46502E-04-3.13400E-14
 -1      1547 8.67306E-03 6.49550E-04-3.03693E-14
 -1      1548 8.66032E-03 6.17735E-04-3.03627E-14
 -1      1549 9.11767E-03 6.40604E-04-3.33065E-14
 -1      1550 8.96862E-03 6.43467E-04-3.23192E-14
 -1      1551 8.95524E-03 6.11323E-04-3.23101E-14
 -1      1552 9.41884E-03 6.35696E-04-3.53131E-14
 -1      1553 9.26771E-03 6.37941E-04-3.43047E-14
 -1      1554 9.25335E-03 6.05352E-04-3.42961E-14
 -1      1555 9.72481E-03 6.32968E-04-3.73523E-14
 -1      1556 9.57117E-03 6.33942E-04-3.63275E-14
 -1      1557 9.55532E-03 6.00765E-04-3.63165E-14
 -1      1558 1.00364E-02 6.34152E-04-3.94352E-14
 -1      1559 9.87984E-03 6.32917E-04-3.83885E-14
 -1      1560 9.86187E-03 5.98987E-04-3.83774E-14
 -1      1561 1.03541E-02 6.41651E-04-4.15540E-14
 -1      1562 1.01944E-02 6.36922E-04-4.04904E-14
 -1      1563 1.01736E-02 6.02054E-04-4.04776E-14
 -1      1564 1.06783E-02 6.58627E-04-4.37068E-14
 -1      1565 1.05154E-02 6.48736E-04-4.26267E-14
 -1      1566 1.04909E-02 6.12749E-04-4.26114E-14
 -1      1567 1.10081E-02 6.88970E-04-4.58873E-14
 -1      1568 1.08425E-02 6.71906E-04-4.47928E-14
 -1      1569 1.08135E-02 6.34656E-04-4.47757E-14
 -1      1570 1.13418E-02 7.36975E-04-4.80931E-14
 -1      1571 1.11746E-02 7.10594E-04-4.69881E-14
 -1      1572 1.11405E-02 6.72030E-04-4.69657E-14
 -1      1573 1.16756E-02 8.06498E-04-5.03175E-14
 -1      1574 1.15090E-02 7.69018E-04-4.92037E-14
 -1      1575 1.14697E-02 7.29284E-04-4.91786E-14
 -1      1576 1.20038E-02 8.99292E-04-5.25472E-14
 -1      1577 1.18409E-02 8.50234E-04-5.14324E-14
 -1      1578 1.17973E-02 8.09797E-04-5.14036E-14
 -1      1579 1.23187E-02 1.01242E-03-5.47844E-14
 -1      1580 1.21635E-02 9.53988E-04-5.36654E-14
 -1      1581 1.21181E-02 9.13781E-04-5.36384E-14
 -1      1582 1.26121E-02 1.13519E-03-5.70234E-14
 -1      1583 1.24686E-02 1.07379E-03-5.59024E-14
 -1      1584 1.24254E-02 1.03528E-03-5.58739E-14
 -1      1585 1.28777E-02 1.24736E-03-5.92539E-14
 -1      1586 1.27486E-02 1.19421E-03-5.81405E-14
 -1      1587 1.27129E-02 1.15921E-03-5.81079E-14
 -1      1588 1.31152E-02 1.32111E-03-6.14683E-14
 -1      1589 1.29997E-02 1.29064E-03-6.03642E-14
 -1      1590 1.29768E-02 1.26078E-03-6.03293E-14
 -1      1591 1.33327E-02 1.32932E-03-6.36650E-14
 -1      1592 1.32255E-02 1.33428E-03-6.25697E-14
 -1      1593 1.32190E-02 1.31014E-03-6.25335E-14
 -1      1594 1.35470E-02 1.25897E-03-6.58364E-14
 -1      1595 1.34389E-02 1.30335E-03-6.47533E-14
 -1      1596 1.34488E-02 1.28366E-03-6.47167E-14
 -1      1597 1.37771E-02 1.12395E-03-6.79772E-14
 -1      1598 1.36589E-02 1.19724E-03-6.69103E-14
 -1      1599 1.36808E-02 1.17872E-03-6.68738E-14
 -1      1600 1.40350E-02 9.66455E-04-7.00917E-14
 -1      1601 1.39023E-02 1.04473E-03-6.90374E-14
 -1      1602 1.39294E-02 1.02323E-03-6.90016E-14
 -1      1603 1.41972E-02 8.79868E-04-7.12150E-14
 -1      1604 1.43233E-02 7.37068E-04-7.15333E-14
 -1      1605 1.42836E-02 7.97920E-04-7.14415E-14
 -1      1606 1.44045E-02 5.86316E-04-7.17172E-14
 -1      1607 1.43614E-02 6.67351E-04-7.16255E-14
 -1      1608 1.42140E-02 7.76336E-04-7.06689E-14
 -1      1609 1.45466E-02 3.82781E-04-7.19099E-14
 -1      1610 1.44631E-02 4.91451E-04-7.18088E-14
 -1      1611 1.42990E-02 6.42852E-04-7.08521E-14
 -1      1612 1.48286E-02 1.45585E-04-7.21026E-14
 -1      1613 1.46620E-02 2.69731E-04-7.20045E-14
 -1      1614 1.44573E-02 4.90473E-04-7.10399E-14
 -1      1615 1.53112E-02-8.66513E-05-7.22868E-14
 -1      1616 1.50330E-02 3.09056E-05-7.21934E-14
 -1      1617 1.47557E-02 3.36564E-04-7.12249E-14
 -1      1618 1.60205E-02-2.79408E-04-7.24618E-14
 -1      1619 1.56244E-02-1.87393E-04-7.23716E-14
 -1      1620 1.52441E-02 1.93078E-04-7.13995E-14
 -1      1621 1.80448E-02-5.21865E-04-7.31705E-14
 -1      1622 1.75907E-02-5.64785E-04-7.30856E-14
 -1      1623 1.87265E-02-3.06479E-04-7.33412E-14
 -1      1624 1.84474E-02-4.34122E-04-7.32551E-14
 -1      1625 1.82126E-02-2.95970E-04-7.26331E-14
 -1      1626 1.87837E-02-1.02014E-05-7.35102E-14
 -1      1627 1.88430E-02-1.61557E-04-7.34260E-14
 -1      1628 1.87782E-02-1.83132E-04-7.27952E-14
 -1      1629 1.80810E-02 2.43281E-04-7.36880E-14
 -1      1630 1.85098E-02 1.38562E-04-7.36005E-14
 -1      1631 1.86167E-02-3.22934E-05-7.29627E-14
 -1      1632 1.71212E-02 2.87604E-04-7.38320E-14
 -1      1633 1.76094E-02 2.88305E-04-7.37627E-14
 -1      1634 1.77729E-02 4.76123E-05-7.31222E-14
 -1      1635 1.60101E-02 1.29258E-04-7.40225E-14
 -1      1636 1.65268E-02 2.31273E-04-7.39255E-14
 -1      1637 1.66469E-02-2.42016E-07-7.32867E-14
 -1      1638 1.51879E-02-1.74679E-04-7.42065E-14
 -1      1639 1.55387E-02-1.56999E-05-7.41210E-14
 -1      1640 1.55763E-02-1.83792E-04-7.34743E-14
 -1      1641 1.47686E-02-4.67929E-04-7.43836E-14
 -1      1642 1.49401E-02-3.27647E-04-7.42950E-14
 -1      1643 1.49148E-02-4.25373E-04-7.36549E-14
 -1      1644 1.45650E-02-6.89266E-04-7.45443E-14
 -1      1645 1.46508E-02-5.88125E-04-7.44643E-14
 -1      1646 1.45962E-02-6.42315E-04-7.38213E-14
 -1      1647 1.43739E-02-8.74928E-04-7.41736E-14
 -1      1648 1.44425E-02-8.06726E-04-7.40916E-14
 -1      1649 1.43818E-02-8.55240E-04-7.34482E-14
 -1      1650 1.41614E-02-1.06518E-03-7.25340E-14
 -1      1651 1.86003E-02-8.45253E-07-7.14157E-14
 -1      1652 1.87468E-02-8.35682E-05-7.15216E-14
 -1      1653 1.79200E-02 2.14298E-04-7.10309E-14
 -1      1654 1.82808E-02 1.01236E-04-7.12511E-14
 -1      1655 1.70110E-02 5.08059E-04-7.03651E-14
 -1      1656 1.74360E-02 3.68897E-04-7.06971E-14
 -1      1657 1.61326E-02 8.24729E-04-6.94502E-14
 -1      1658 1.65314E-02 6.87284E-04-6.98874E-14
 -1      1659 1.54029E-02 1.06036E-03-6.84335E-14
 -1      1660 1.57176E-02 9.63636E-04-6.89091E-14
 -1      1661 1.47858E-02 1.20593E-03-6.72717E-14
 -1      1662 1.50670E-02 1.15229E-03-6.78188E-14
 -1      1663 1.42419E-02 1.24278E-03-6.60847E-14
 -1      1664 1.44832E-02 1.23898E-03-6.66300E-14
 -1      1665 1.37358E-02 1.17730E-03-6.48559E-14
 -1      1666 1.39653E-02 1.22208E-03-6.54261E-14
 -1      1667 1.32520E-02 1.01483E-03-6.36149E-14
 -1      1668 1.34736E-02 1.10224E-03-6.41667E-14
 -1      1669 1.27930E-02 8.06335E-04-6.26034E-14
 -1      1670 1.29912E-02 9.04354E-04-6.30483E-14
 -1      1671 1.23498E-02 5.52081E-04-6.16016E-14
 -1      1672 1.25633E-02 6.69821E-04-6.20240E-14
 -1      1673 1.19297E-02 3.38914E-04-6.09399E-14
 -1      1674 1.21034E-02 4.37262E-04-6.12375E-14
 -1      1675 1.16207E-02 1.50691E-04-6.04569E-14
 -1      1676 1.17500E-02 2.32722E-04-6.06495E-14
 -1      1677 1.14366E-02-9.52680E-06-6.01618E-14
 -1      1678 1.15048E-02 5.57527E-05-6.02367E-14
 -1      1679 1.14034E-02-1.40535E-04-6.02668E-14
 -1      1680 1.14006E-02-7.95865E-05-6.02307E-14
 -1      1681 1.15152E-02-2.81837E-04-6.04865E-14
 -1      1682 1.14452E-02-2.13904E-04-6.03416E-14
 -1      1683 1.17644E-02-4.55512E-04-6.09916E-14
 -1      1684 1.16337E-02-3.71114E-04-6.07270E-14
 -1      1685 1.21017E-02-6.64495E-04-6.17145E-14
 -1      1686 1.19366E-02-5.67481E-04-6.13756E-14
 -1      1687 1.24995E-02-8.90710E-04-6.25624E-14
 -1      1688 1.23099E-02-7.83639E-04-6.21537E-14
 -1      1689 1.29610E-02-1.13731E-03-6.36237E-14
 -1      1690 1.27387E-02-1.02175E-03-6.31065E-14
 -1      1691 1.34399E-02-1.34918E-03-6.48058E-14
 -1      1692 1.32199E-02-1.25836E-03-6.42540E-14
 -1      1693 1.39304E-02-1.49058E-03-6.60436E-14
 -1      1694 1.37081E-02-1.43730E-03-6.54673E-14
 -1      1695 1.44507E-02-1.52165E-03-6.72970E-14
 -1      1696 1.42053E-02-1.51880E-03-6.67217E-14
 -1      1697 1.50478E-02-1.43778E-03-6.85451E-14
 -1      1698 1.47573E-02-1.49339E-03-6.79799E-14
 -1      1699 1.57464E-02-1.23780E-03-6.96365E-14
 -1      1700 1.54119E-02-1.34217E-03-6.91614E-14
 -1      1701 1.65504E-02-9.73721E-04-7.04740E-14
 -1      1702 1.61721E-02-1.10429E-03-7.01107E-14
 -1      1703 1.74268E-02-6.72433E-04-7.10829E-14
 -1      1704 1.70136E-02-8.11820E-04-7.08335E-14
 -1      1705 1.82971E-02-3.60907E-04-7.15208E-14
 -1      1706 1.79076E-02-4.86986E-04-7.13772E-14
 -1      1707 1.87533E-02-1.72134E-04-7.15537E-14
 -1      1708 1.86197E-02-2.59208E-04-7.15467E-14
 -1      1709 1.66198E-02 4.43665E-04-7.04388E-14
 -1      1710 1.42225E-02 8.52133E-04-7.11820E-14
 -1      1711 1.41228E-02 8.89945E-04-7.03172E-14
 -1      1712 1.65367E-02-4.13091E-04-7.26782E-14
 -1      1713 1.60451E-02 9.52877E-06-7.16992E-14
 -1      1714 1.70234E-02-4.56402E-04-7.27656E-14
 -1      1715 1.84340E-02-7.09215E-05-7.17568E-14
 -1      1716 1.75877E-02 1.12984E-04-7.12505E-14
 -1      1717 1.87849E-02-1.29562E-04-7.19636E-14
 -1      1718 1.57717E-02 7.99641E-04-6.94281E-14
 -1      1719 1.51058E-02 1.07752E-03-6.82795E-14
 -1      1720 1.45613E-02 1.23572E-03-6.70304E-14
 -1      1721 1.40802E-02 1.26326E-03-6.57329E-14
 -1      1722 1.36323E-02 1.16352E-03-6.43892E-14
 -1      1723 1.31961E-02 9.59633E-04-6.31363E-14
 -1      1724 1.27459E-02 6.98921E-04-6.19932E-14
 -1      1725 1.22945E-02 4.37141E-04-6.10510E-14
 -1      1726 1.18734E-02 2.21772E-04-6.03967E-14
 -1      1727 1.15684E-02 5.27913E-05-5.98846E-14
 -1      1728 1.14086E-02-5.74719E-05-5.97322E-14
 -1      1729 1.14149E-02-1.57434E-04-5.98768E-14
 -1      1730 1.15825E-02-2.74304E-04-6.01928E-14
 -1      1731 1.18836E-02-4.42902E-04-6.08151E-14
 -1      1732 1.22668E-02-6.62372E-04-6.16347E-14
 -1      1733 1.26996E-02-9.19174E-04-6.26168E-14
 -1      1734 1.31588E-02-1.18904E-03-6.37901E-14
 -1      1735 1.36185E-02-1.41431E-03-6.50809E-14
 -1      1736 1.40557E-02-1.53716E-03-6.64201E-14
 -1      1737 1.45416E-02-1.52578E-03-6.77821E-14
 -1      1738 1.51026E-02-1.36560E-03-6.90825E-14
 -1      1739 1.58008E-02-1.08768E-03-7.01725E-14
 -1      1740 1.66417E-02-7.53074E-04-7.10039E-14
 -1      1741 1.75908E-02-4.06939E-04-7.16577E-14
 -1      1742 1.84473E-02-1.99131E-04-7.19741E-14
 -1      1743 2.85271E-04-1.76209E-04-2.57362E-17
 -1      1744 1.71765E-02-2.25530E-04-7.22322E-14
 -1      1745 3.32161E-04-1.16744E-04-9.24418E-17
 -1      1746 3.36269E-04-1.32948E-04-8.63025E-17
 -1      1747 3.42229E-04-1.51954E-04-7.87537E-17
 -1      1748 3.51799E-04-1.73967E-04-6.82234E-17
 -1      1749 4.58332E-04-1.88008E-04-1.25293E-16
 -1      1750 3.24545E-04-6.53423E-05-1.05086E-16
 -1      1751 3.25698E-04-7.66323E-05-1.03270E-16
 -1      1752 3.23049E-04-4.38585E-05-1.07065E-16
 -1      1753 3.23705E-04-5.43420E-05-1.06211E-16
 -1      1754 4.36480E-04-7.92424E-05-1.56315E-16
 -1      1755 3.22261E-04-2.37537E-05-1.07702E-16
 -1      1756 3.22594E-04-3.36601E-05-1.07621E-16
 -1      1757 4.34477E-04-5.12827E-05-1.58673E-16
 -1      1758 3.21966E-04-4.33434E-06-1.06740E-16
 -1      1759 3.22063E-04-1.39790E-05-1.07322E-16
 -1      1760 4.33452E-04-2.49061E-05-1.58754E-16
 -1      1761 3.22089E-04 1.49683E-05-1.04639E-16
 -1      1762 3.21974E-04 5.31341E-06-1.05954E-16
 -1      1763 4.33153E-04 7.55862E-07-1.57114E-16
 -1      1764 3.22658E-04 3.47034E-05-1.01468E-16
 -1      1765 3.22305E-04 2.47642E-05-1.03202E-16
 -1      1766 4.33512E-04 2.64466E-05-1.53740E-16
 -1      1767 3.23791E-04 5.51289E-05-9.64398E-17
 -1      1768 3.23125E-04 4.47721E-05-9.92452E-17
 -1      1769 4.34592E-04 5.26854E-05-1.48387E-16
 -1      1770 3.25854E-04 7.77711E-05-8.92569E-17
 -1      1771 3.24653E-04 6.61944E-05-9.32820E-17
 -1      1772 4.36654E-04 8.05512E-05-1.40784E-16
 -1      1773 3.29562E-04 1.03601E-04-7.89841E-17
 -1      1774 3.27399E-04 9.02570E-05-8.47982E-17
 -1      1775 4.40312E-04 1.11516E-04-1.30064E-16
 -1      1776 3.36654E-04 1.35090E-04-6.37917E-17
 -1      1777 3.32480E-04 1.18561E-04-7.22621E-17
 -1      1778 4.46843E-04 1.47291E-04-1.14438E-16
 -1      1779 3.52288E-04 1.77536E-04-4.17011E-17
 -1      1780 3.42811E-04 1.54694E-04-5.39255E-17
 -1      1781 4.59315E-04 1.91385E-04-9.19810E-17
 -1      1782 4.07717E-04 2.33644E-04-2.54788E-17
 -1      1783 3.78105E-04 2.02627E-04-3.59549E-17
 -1      1784 4.95890E-04 2.43966E-04-7.15167E-17
 -1      1785 5.58588E-04 3.02466E-04-5.39391E-17
 -1      1786 3.40060E-04-1.90874E-04-4.80979E-17
 -1      1787 8.53681E-04 4.07060E-04-1.61939E-16
 -1      1788 7.07256E-04 3.59326E-04-9.95840E-17
 -1      1789 6.73503E-04 3.28762E-04-1.11022E-16
 -1      1790 1.74349E-02-5.24435E-05-7.17321E-14
 -1      1791 1.68260E-02 6.92265E-05-7.14156E-14
 -1      1792 4.59008E-04-2.36672E-04-8.83896E-17
 -1      1793 8.07325E-04-3.74047E-04-2.42251E-16
 -1      1794 9.52613E-04-4.15222E-04-3.41361E-16
 -1      1795 1.09547E-03-4.49901E-04-4.59553E-16
 -1      1796 1.23717E-03-4.78792E-04-5.96758E-16
 -1      1797 1.00404E-03-3.97829E-04-4.22880E-16
 -1      1798 1.37760E-03-5.03274E-04-7.52897E-16
 -1      1799 1.51732E-03-5.23648E-04-9.28321E-16
 -1      1800 1.28976E-03-4.55781E-04-7.01262E-16
 -1      1801 1.65651E-03-5.40833E-04-1.12269E-15
 -1      1802 1.79539E-03-5.55067E-04-1.33617E-15
 -1      1803 1.57222E-03-4.96730E-04-1.05487E-15
 -1      1804 1.93414E-03-5.66959E-04-1.56838E-15
 -1      1805 2.07284E-03-5.76713E-04-1.81943E-15
 -1      1806 1.85289E-03-5.25292E-04-1.48381E-15
 -1      1807 2.21163E-03-5.84749E-04-2.08977E-15
 -1      1808 2.35051E-03-5.91238E-04-2.37833E-15
 -1      1809 2.13285E-03-5.44810E-04-1.98794E-15
 -1      1810 2.48959E-03-5.96477E-04-2.68547E-15
 -1      1811 2.62885E-03-6.00608E-04-3.01208E-15
 -1      1812 2.41278E-03-5.57743E-04-2.56608E-15
 -1      1813 2.76836E-03-6.03844E-04-3.35733E-15
 -1      1814 2.90808E-03-6.06298E-04-3.72039E-15
 -1      1815 2.69307E-03-5.65934E-04-3.21875E-15
 -1      1816 3.04806E-03-6.08125E-04-4.10200E-15
 -1      1817 3.18826E-03-6.09413E-04-4.50058E-15
 -1      1818 2.97395E-03-5.70761E-04-3.94484E-15
 -1      1819 3.32870E-03-6.10272E-04-4.91698E-15
 -1      1820 3.46935E-03-6.10770E-04-5.35176E-15
 -1      1821 3.25547E-03-5.73254E-04-4.74183E-15
 -1      1822 3.61022E-03-6.10985E-04-5.80372E-15
 -1      1823 3.75128E-03-6.10968E-04-6.27265E-15
 -1      1824 3.53765E-03-5.74175E-04-5.60955E-15
 -1      1825 3.89253E-03-6.10770E-04-6.75816E-15
 -1      1826 4.03394E-03-6.10430E-04-7.26127E-15
 -1      1827 3.82045E-03-5.74071E-04-6.54556E-15
 -1      1828 4.17552E-03-6.09981E-04-7.78078E-15
 -1      1829 4.31723E-03-6.09450E-04-8.31742E-15
 -1      1830 4.10380E-03-5.73333E-04-7.54878E-15
 -1      1831 4.45908E-03-6.08857E-04-8.87047E-15
 -1      1832 4.60104E-03-6.08219E-04-9.43967E-15
 -1      1833 4.38761E-03-5.72222E-04-8.62007E-15
 -1      1834 4.74311E-03-6.07547E-04-1.00262E-14
 -1      1835 4.88526E-03-6.06851E-04-1.06286E-14
 -1      1836 4.67183E-03-5.70908E-04-9.75722E-15
 -1      1837 5.02751E-03-6.06134E-04-1.12470E-14
 -1      1838 5.16983E-03-6.05401E-04-1.18825E-14
 -1      1839 4.95637E-03-5.69485E-04-1.09593E-14
 -1      1840 5.31222E-03-6.04649E-04-1.25353E-14
 -1      1841 5.45466E-03-6.03878E-04-1.32042E-14
 -1      1842 5.24118E-03-5.67993E-04-1.22278E-14
 -1      1843 5.59717E-03-6.03082E-04-1.38902E-14
 -1      1844 5.73973E-03-6.02257E-04-1.45938E-14
 -1      1845 5.52621E-03-5.66432E-04-1.35647E-14
 -1      1846 5.88235E-03-6.01393E-04-1.53142E-14
 -1      1847 6.02501E-03-6.00485E-04-1.60519E-14
 -1      1848 5.81144E-03-5.64765E-04-1.49687E-14
 -1      1849 6.16772E-03-5.99518E-04-1.68066E-14
 -1      1850 6.31049E-03-5.98487E-04-1.75797E-14
 -1      1851 6.09686E-03-5.62932E-04-1.64421E-14
 -1      1852 6.45331E-03-5.97373E-04-1.83680E-14
 -1      1853 6.59620E-03-5.96170E-04-1.91727E-14
 -1      1854 6.38247E-03-5.60850E-04-1.79818E-14
 -1      1855 6.73916E-03-5.94857E-04-1.99944E-14
 -1      1856 6.88221E-03-5.93429E-04-2.08321E-14
 -1      1857 6.66830E-03-5.58421E-04-1.95888E-14
 -1      1858 7.02534E-03-5.91862E-04-2.16849E-14
 -1      1859 7.16860E-03-5.90152E-04-2.25525E-14
 -1      1860 6.95441E-03-5.55534E-04-2.12590E-14
 -1      1861 7.31197E-03-5.88275E-04-2.34346E-14
 -1      1862 7.45551E-03-5.86228E-04-2.43292E-14
 -1      1863 7.24089E-03-5.52072E-04-2.29898E-14
 -1      1864 7.59921E-03-5.83988E-04-2.52385E-14
 -1      1865 7.74312E-03-5.81557E-04-2.61593E-14
 -1      1866 7.52787E-03-5.47921E-04-2.47763E-14
 -1      1867 7.88727E-03-5.78913E-04-2.70929E-14
 -1      1868 8.03170E-03-5.76068E-04-2.80405E-14
 -1      1869 7.81550E-03-5.42982E-04-2.66152E-14
 -1      1870 8.17643E-03-5.73005E-04-2.89989E-14
 -1      1871 8.32155E-03-5.69747E-04-2.99697E-14
 -1      1872 8.10401E-03-5.37188E-04-2.85039E-14
 -1      1873 8.46706E-03-5.66290E-04-3.09509E-14
 -1      1874 8.61308E-03-5.62672E-04-3.19422E-14
 -1      1875 8.39367E-03-5.30535E-04-3.04419E-14
 -1      1876 8.75960E-03-5.58911E-04-3.29441E-14
 -1      1877 8.90676E-03-5.55069E-04-3.39532E-14
 -1      1878 8.68481E-03-5.23123E-04-3.24216E-14
 -1      1879 9.05457E-03-5.51196E-04-3.49713E-14
 -1      1880 9.20319E-03-5.47388E-04-3.59950E-14
 -1      1881 8.97784E-03-5.15210E-04-3.44391E-14
 -1      1882 9.35260E-03-5.43748E-04-3.70253E-14
 -1      1883 9.50302E-03-5.40415E-04-3.80648E-14
 -1      1884 9.27323E-03-5.07305E-04-3.64841E-14
 -1      1885 9.65441E-03-5.37572E-04-3.91112E-14
 -1      1886 9.80700E-03-5.35419E-04-4.01623E-14
 -1      1887 9.57151E-03-5.00274E-04-3.85581E-14
 -1      1888 9.96074E-03-5.34250E-04-4.12193E-14
 -1      1889 1.01159E-02-5.34349E-04-4.22816E-14
 -1      1890 9.87327E-03-4.95507E-04-4.06591E-14
 -1      1891 1.02724E-02-5.36165E-04-4.33486E-14
 -1      1892 1.04304E-02-5.40087E-04-4.44214E-14
 -1      1893 1.01792E-02-4.95116E-04-4.27829E-14
 -1      1894 1.05899E-02-5.46766E-04-4.54994E-14
 -1      1895 1.07511E-02-5.56721E-04-4.65832E-14
 -1      1896 1.04898E-02-5.02194E-04-4.49265E-14
 -1      1897 1.09139E-02-5.70831E-04-4.76696E-14
 -1      1898 1.10782E-02-5.89766E-04-4.87592E-14
 -1      1899 1.08059E-02-5.21086E-04-4.70900E-14
 -1      1900 1.12442E-02-6.14601E-04-4.98551E-14
 -1      1901 1.14113E-02-6.46134E-04-5.09561E-14
 -1      1902 1.11280E-02-5.57588E-04-4.92731E-14
 -1      1903 1.15799E-02-6.85477E-04-5.20619E-14
 -1      1904 1.17489E-02-7.33435E-04-5.31710E-14
 -1      1905 1.14566E-02-6.18868E-04-5.14725E-14
 -1      1906 1.19191E-02-7.90762E-04-5.42875E-14
 -1      1907 1.20883E-02-8.57915E-04-5.54111E-14
 -1      1908 1.17916E-02-7.12694E-04-5.36932E-14
 -1      1909 1.22575E-02-9.34610E-04-5.65383E-14
 -1      1910 1.24240E-02-1.02021E-03-5.76725E-14
 -1      1911 1.21318E-02-8.45215E-04-5.59351E-14
 -1      1912 1.25887E-02-1.11251E-03-5.88093E-14
 -1      1913 1.27483E-02-1.20869E-03-5.99489E-14
 -1      1914 1.24734E-02-1.01633E-03-5.81970E-14
 -1      1915 1.29031E-02-1.30400E-03-6.10951E-14
 -1      1916 1.30511E-02-1.39267E-03-6.22421E-14
 -1      1917 1.28079E-02-1.21222E-03-6.04716E-14
 -1      1918 1.31913E-02-1.46787E-03-6.33894E-14
 -1      1919 1.33251E-02-1.52210E-03-6.45400E-14
 -1      1920 1.31231E-02-1.39747E-03-6.27593E-14
 -1      1921 1.34499E-02-1.54914E-03-6.56933E-14
 -1      1922 1.35716E-02-1.54277E-03-6.68443E-14
 -1      1923 1.34085E-02-1.51601E-03-6.50532E-14
 -1      1924 1.36869E-02-1.50122E-03-6.79971E-14
 -1      1925 1.38044E-02-1.42478E-03-6.91485E-14
 -1      1926 1.36647E-02-1.50992E-03-6.73582E-14
 -1      1927 1.39214E-02-1.31853E-03-7.02934E-14
 -1      1928 1.40451E-02-1.19122E-03-7.14366E-14
 -1      1929 1.39077E-02-1.35452E-03-6.96541E-14
 -1      1930 1.85169E-02-9.55150E-05-7.25218E-14
 -1      1931 1.87726E-02-1.14662E-04-7.24375E-14
 -1      1932 1.13877E-03 4.79986E-04-3.36835E-16
 -1      1933 9.96980E-04 4.46757E-04-2.40598E-16
 -1      1934 9.64613E-04 4.17321E-04-2.54151E-16
 -1      1935 1.41795E-03 5.31471E-04-5.81458E-16
 -1      1936 1.27876E-03 5.08019E-04-4.50269E-16
 -1      1937 1.24911E-03 4.79879E-04-4.64933E-16
 -1      1938 1.69438E-03 5.67783E-04-8.96662E-16
 -1      1939 1.55632E-03 5.51281E-04-7.30441E-16
 -1      1940 1.52943E-03 5.24103E-04-7.45660E-16
 -1      1941 1.97003E-03 5.93096E-04-1.28309E-15
 -1      1942 1.83221E-03 5.81643E-04-1.08076E-15
 -1      1943 1.80773E-03 5.55101E-04-1.09662E-15
 -1      1944 2.24595E-03 6.10379E-04-1.74197E-15
 -1      1945 2.10791E-03 6.02615E-04-1.50353E-15
 -1      1946 2.08542E-03 5.76477E-04-1.51913E-15
 -1      1947 2.52270E-03 6.21817E-04-2.27346E-15
 -1      1948 2.38420E-03 6.16735E-04-1.99867E-15
 -1      1949 2.36331E-03 5.90841E-04-2.01378E-15
 -1      1950 2.80055E-03 6.29046E-04-2.87780E-15
 -1      1951 2.66149E-03 6.25887E-04-2.56625E-15
 -1      1952 2.64186E-03 6.00131E-04-2.58067E-15
 -1      1953 3.07954E-03 6.33296E-04-3.55490E-15
 -1      1954 2.93991E-03 6.31491E-04-3.20706E-15
 -1      1955 2.92126E-03 6.05803E-04-3.21994E-15
 -1      1956 3.35966E-03 6.35487E-04-4.30386E-15
 -1      1957 3.21947E-03 6.34610E-04-3.92056E-15
 -1      1958 3.20158E-03 6.08944E-04-3.93153E-15
 -1      1959 3.64080E-03 6.36292E-04-5.12742E-15
 -1      1960 3.50011E-03 6.36034E-04-4.70643E-15
 -1      1961 3.48279E-03 6.10362E-04-4.71557E-15
 -1      1962 3.92283E-03 6.36200E-04-6.02501E-15
 -1      1963 3.78171E-03 6.36338E-04-5.56657E-15
 -1      1964 3.76481E-03 6.10645E-04-5.57293E-15
 -1      1965 4.20562E-03 6.35552E-04-6.99537E-15
 -1      1966 4.06414E-03 6.35932E-04-6.50126E-15
 -1      1967 4.04755E-03 6.10209E-04-6.50439E-15
 -1      1968 4.48903E-03 6.34577E-04-8.03749E-15
 -1      1969 4.34726E-03 6.35097E-04-7.50792E-15
 -1      1970 4.33090E-03 6.09343E-04-7.50737E-15
 -1      1971 4.77295E-03 6.33420E-04-9.14790E-15
 -1      1972 4.63094E-03 6.34017E-04-8.58455E-15
 -1      1973 4.61475E-03 6.08234E-04-8.58044E-15
 -1      1974 5.05728E-03 6.32158E-04-1.03281E-14
 -1      1975 4.91507E-03 6.32800E-04-9.72945E-15
 -1      1976 4.89901E-03 6.06993E-04-9.72294E-15
 -1      1977 5.34193E-03 6.30818E-04-1.15725E-14
 -1      1978 5.19957E-03 6.31498E-04-1.09418E-14
 -1      1979 5.18360E-03 6.05671E-04-1.09313E-14
 -1      1980 5.62684E-03 6.29391E-04-1.28848E-14
 -1      1981 5.48436E-03 6.30118E-04-1.22200E-14
 -1      1982 5.46847E-03 6.04278E-04-1.22060E-14
 -1      1983 5.91198E-03 6.27836E-04-1.42627E-14
 -1      1984 5.76939E-03 6.28633E-04-1.35651E-14
 -1      1985 5.75356E-03 6.02785E-04-1.35479E-14
 -1      1986 6.19732E-03 6.26088E-04-1.57103E-14
 -1      1987 6.05462E-03 6.26990E-04-1.49781E-14
 -1      1988 6.03885E-03 6.01140E-04-1.49590E-14
 -1      1989 6.48289E-03 6.24067E-04-1.72208E-14
 -1      1990 6.34008E-03 6.25116E-04-1.64578E-14
 -1      1991 6.32435E-03 5.99267E-04-1.64352E-14
 -1      1992 6.76874E-03 6.21676E-04-1.87936E-14
 -1      1993 6.62578E-03 6.22921E-04-1.80004E-14
 -1      1994 6.61008E-03 5.97076E-04-1.79746E-14
 -1      1995 7.05493E-03 6.18814E-04-2.04269E-14
 -1      1996 6.91178E-03 6.20307E-04-1.96017E-14
 -1      1997 6.89611E-03 5.94466E-04-1.95727E-14
 -1      1998 7.34161E-03 6.15380E-04-2.21119E-14
 -1      1999 7.19820E-03 6.17171E-04-2.12629E-14
 -1      2000 7.18252E-03 5.91331E-04-2.12297E-14
 -1      2001 7.62894E-03 6.11287E-04-2.38553E-14
 -1      2002 7.48518E-03 6.13416E-04-2.29770E-14
 -1      2003 7.46945E-03 5.87569E-04-2.29422E-14
 -1      2004 7.91716E-03 6.06475E-04-2.56420E-14
 -1      2005 7.77292E-03 6.08967E-04-2.47430E-14
 -1      2006 7.75708E-03 5.83100E-04-2.47052E-14
 -1      2007 8.20658E-03 6.00940E-04-2.74797E-14
 -1      2008 8.06169E-03 6.03789E-04-2.65542E-14
 -1      2009 8.04564E-03 5.77878E-04-2.65146E-14
 -1      2010 8.49756E-03 5.94768E-04-2.93616E-14
 -1      2011 8.35184E-03 5.97916E-04-2.84152E-14
 -1      2012 8.33543E-03 5.71927E-04-2.83729E-14
 -1      2013 8.79056E-03 5.88183E-04-3.12882E-14
 -1      2014 8.64377E-03 5.91498E-04-3.03199E-14
 -1      2015 8.62681E-03 5.65381E-04-3.02763E-14
 -1      2016 9.08613E-03 5.81616E-04-3.32526E-14
 -1      2017 8.93798E-03 5.84852E-04-3.22653E-14
 -1      2018 8.92022E-03 5.58537E-04-3.22199E-14
 -1      2019 9.38484E-03 5.75793E-04-3.52546E-14
 -1      2020 9.23503E-03 5.78545E-04-3.42491E-14
 -1      2021 9.21614E-03 5.51936E-04-3.42021E-14
 -1      2022 9.68732E-03 5.71849E-04-3.72947E-14
 -1      2023 9.53555E-03 5.73492E-04-3.62711E-14
 -1      2024 9.51512E-03 5.46461E-04-3.62214E-14
 -1      2025 9.99416E-03 5.71459E-04-3.93749E-14
 -1      2026 9.84014E-03 5.71082E-04-3.83294E-14
 -1      2027 9.81769E-03 5.43461E-04-3.82810E-14
 -1      2028 1.03058E-02 5.76984E-04-4.14888E-14
 -1      2029 1.01493E-02 5.73318E-04-4.04279E-14
 -1      2030 1.01244E-02 5.44891E-04-4.03763E-14
 -1      2031 1.06225E-02 5.91582E-04-4.36365E-14
 -1      2032 1.04635E-02 5.82948E-04-4.25579E-14
 -1      2033 1.04355E-02 5.53456E-04-4.25053E-14
 -1      2034 1.09438E-02 6.19214E-04-4.58110E-14
 -1      2035 1.07826E-02 6.03545E-04-4.47210E-14
 -1      2036 1.07512E-02 5.72693E-04-4.46643E-14
 -1      2037 1.12687E-02 6.64390E-04-4.80094E-14
 -1      2038 1.11059E-02 6.39398E-04-4.69069E-14
 -1      2039 1.10712E-02 6.06902E-04-4.68479E-14
 -1      2040 1.15948E-02 7.31417E-04-5.02273E-14
 -1      2041 1.14318E-02 6.95047E-04-4.91163E-14
 -1      2042 1.13943E-02 6.60730E-04-4.90559E-14
 -1      2043 1.19188E-02 8.22837E-04-5.24561E-14
 -1      2044 1.17575E-02 7.74165E-04-5.13405E-14
 -1      2045 1.17186E-02 7.38140E-04-5.12768E-14
 -1      2046 1.22354E-02 9.36848E-04-5.46906E-14
 -1      2047 1.20786E-02 8.77492E-04-5.35726E-14
 -1      2048 1.20407E-02 8.40440E-04-5.35075E-14
 -1      2049 1.25389E-02 1.06400E-03-5.69250E-14
 -1      2050 1.23894E-02 9.99791E-04-5.58069E-14
 -1      2051 1.23558E-02 9.63243E-04-5.57400E-14
 -1      2052 1.28235E-02 1.18471E-03-5.91512E-14
 -1      2053 1.26839E-02 1.12673E-03-5.80415E-14
 -1      2054 1.26580E-02 1.09308E-03-5.79729E-14
 -1      2055 1.30868E-02 1.27019E-03-6.13651E-14
 -1      2056 1.29577E-02 1.23360E-03-6.02614E-14
 -1      2057 1.29416E-02 1.20555E-03-6.01920E-14
 -1      2058 1.33321E-02 1.29037E-03-6.35584E-14
 -1      2059 1.32109E-02 1.28969E-03-6.24622E-14
 -1      2060 1.32049E-02 1.26894E-03-6.23947E-14
 -1      2061 1.35691E-02 1.22751E-03-6.57288E-14
 -1      2062 1.34502E-02 1.26908E-03-6.46463E-14
 -1      2063 1.34520E-02 1.25492E-03-6.45762E-14
 -1      2064 1.38124E-02 1.09148E-03-6.78735E-14
 -1      2065 1.36885E-02 1.16642E-03-6.68062E-14
 -1      2066 1.36947E-02 1.15485E-03-6.67372E-14
 -1      2067 1.40302E-02 9.49119E-04-6.96269E-14
 -1      2068 1.38981E-02 1.03409E-03-6.85673E-14
 -1      2069 1.39051E-02 1.02051E-03-6.85026E-14
 -1      2070 1.40849E-02 8.95571E-04-6.98860E-14
 -1      2071 1.43867E-02 6.37010E-04-7.01740E-14
 -1      2072 1.42814E-02 6.84969E-04-7.00807E-14
 -1      2073 1.42021E-02 7.35673E-04-6.99810E-14
 -1      2074 1.41492E-02 7.88180E-04-6.98882E-14
 -1      2075 1.41157E-02 8.50765E-04-6.91091E-14
 -1      2076 1.83411E-02-1.65418E-04-7.21471E-14
 -1      2077 1.86453E-02-1.69172E-04-7.23209E-14
 -1      2078 1.41319E-02 8.15383E-04-6.99316E-14
 -1      2079 1.40969E-02 8.67292E-04-6.98392E-14
 -1      2080 1.40052E-02 9.35294E-04-6.91467E-14
 -1      2081 1.40321E-02 8.94742E-04-6.90558E-14
 -1      2082 1.46993E-02 5.53537E-04-7.03497E-14
 -1      2083 1.45187E-02 5.95425E-04-7.02602E-14
 -1      2084 1.43090E-02 8.07078E-04-6.92922E-14
 -1      2085 1.51848E-02 4.70859E-04-7.05123E-14
 -1      2086 1.49088E-02 5.13007E-04-7.04296E-14
 -1      2087 1.46135E-02 7.75047E-04-6.94555E-14
 -1      2088 1.87971E-02-1.46642E-04-7.23996E-14
 -1      2089 1.79035E-02-1.61661E-04-7.20698E-14
 -1      2090 1.76626E-02-1.14765E-04-7.25708E-14
 -1      2091 1.81448E-02-1.03624E-04-7.24977E-14
 -1      2092 1.62461E-02-2.54043E-04-7.27222E-14
 -1      2093 1.68497E-02-1.89342E-04-7.26335E-14
 -1      2094 1.46707E-02-7.01038E-04-7.27166E-14
 -1      2095 1.48925E-02-6.25583E-04-7.26289E-14
 -1      2096 1.44187E-02-8.40708E-04-7.28777E-14
 -1      2097 1.45210E-02-7.72593E-04-7.27979E-14
 -1      2098 1.44588E-02-9.36603E-04-7.17703E-14
 -1      2099 1.63844E-02 2.63246E-04-7.09423E-14
 -1      2100 3.27203E-04-8.89330E-05-1.00628E-16
 -1      2101 3.29317E-04-1.02108E-04-9.70090E-17
 -1      2102 4.46350E-04-1.45071E-04-1.41339E-16
 -1      2103 4.40029E-04-1.09901E-04-1.51070E-16
 -1      2104 1.48251E-02 1.09239E-03-6.81702E-14
 -1      2105 1.50723E-02 9.61911E-04-6.87770E-14
 -1      2106 1.43634E-02 1.25764E-03-6.68175E-14
 -1      2107 1.45659E-02 1.19801E-03-6.74530E-14
 -1      2108 1.39619E-02 1.27128E-03-6.54099E-14
 -1      2109 1.41478E-02 1.28497E-03-6.60656E-14
 -1      2110 1.35616E-02 1.14019E-03-6.39594E-14
 -1      2111 1.37477E-02 1.22152E-03-6.46456E-14
 -1      2112 1.31176E-02 8.89067E-04-6.26043E-14
 -1      2113 1.33163E-02 1.01061E-03-6.31688E-14
 -1      2114 1.27071E-02 6.21483E-04-6.14436E-14
 -1      2115 1.29143E-02 7.60215E-04-6.20208E-14
 -1      2116 1.22033E-02 3.26247E-04-6.03849E-14
 -1      2117 1.24225E-02 4.44770E-04-6.07482E-14
 -1      2118 1.18102E-02 1.34985E-04-5.97954E-14
 -1      2119 1.19897E-02 2.21732E-04-6.00866E-14
 -1      2120 1.15229E-02-9.39222E-07-5.92944E-14
 -1      2121 1.16456E-02 5.50576E-05-5.95156E-14
 -1      2122 1.13836E-02-8.76342E-05-5.91986E-14
 -1      2123 1.14192E-02-5.87814E-05-5.91302E-14
 -1      2124 1.14297E-02-1.52291E-04-5.93532E-14
 -1      2125 1.13874E-02-1.21030E-04-5.92768E-14
 -1      2126 1.13756E-02-1.01003E-04-5.86753E-14
 -1      2127 1.16543E-02-2.60563E-04-5.97824E-14
 -1      2128 1.15314E-02-2.06648E-04-5.95412E-14
 -1      2129 1.20092E-02-4.37968E-04-6.05433E-14
 -1      2130 1.18346E-02-3.48897E-04-6.01631E-14
 -1      2131 1.23819E-02-6.55013E-04-6.14169E-14
 -1      2132 1.21860E-02-5.40514E-04-6.09807E-14
 -1      2133 1.21019E-02-4.52395E-04-6.03258E-14
 -1      2134 1.28627E-02-9.58599E-04-6.26129E-14
 -1      2135 1.26509E-02-8.20124E-04-6.20687E-14
 -1      2136 1.33103E-02-1.24869E-03-6.39258E-14
 -1      2137 1.31046E-02-1.11463E-03-6.32950E-14
 -1      2138 1.37167E-02-1.46654E-03-6.53000E-14
 -1      2139 1.35279E-02-1.37225E-03-6.46396E-14
 -1      2140 1.41366E-02-1.56755E-03-6.68634E-14
 -1      2141 1.39536E-02-1.54305E-03-6.61866E-14
 -1      2142 1.45471E-02-1.50264E-03-6.82322E-14
 -1      2143 1.43412E-02-1.55476E-03-6.75481E-14
 -1      2144 1.41865E-02-1.56161E-03-6.73145E-14
 -1      2145 1.51034E-02-1.25041E-03-6.96908E-14
 -1      2146 1.48360E-02-1.38512E-03-6.90747E-14
 -1      2147 1.58551E-02-9.07854E-04-7.07621E-14
 -1      2148 1.54958E-02-1.07917E-03-7.02891E-14
 -1      2149 1.67384E-02-4.92264E-04-7.17148E-14
 -1      2150 1.63108E-02-6.72023E-04-7.13560E-14
 -1      2151 1.71821E-02-2.56692E-04-7.22786E-14
 -1      2152 1.54466E-02 7.84520E-04-6.94520E-14
 -1      2153 1.57936E-02 6.07048E-04-6.99860E-14
 -1      2154 1.59194E-02 4.67812E-04-7.03922E-14
 -1      2155 1.61459E-02 1.23818E-04-7.13696E-14
 -1      2156 1.25756E-02 5.15426E-04-6.07762E-14
 -1      2157 1.27041E-02 5.90875E-04-6.08034E-14
 -1      2158 1.24458E-02 4.26048E-04-6.01090E-14
 -1      2159 6.07950E-04-2.98074E-04-1.45392E-16
 -1      2160 6.63672E-04-2.92355E-04-1.98179E-16
 -1      2161 1.41477E-02-1.09846E-03-7.18985E-14
 -1      2162 1.51347E-02 8.11371E-04-6.93408E-14
 -1      2163 1.38357E-02 1.25609E-03-6.49799E-14
 -1      2164 1.30344E-02 8.20129E-04-6.20539E-14
 -1      2165 1.56064E-02 4.73340E-04-7.04173E-14
 -1      2166 1.42940E-02-9.62867E-04-7.24221E-14
 -1      2167 1.17335E-02 7.46151E-05-5.92054E-14
 -1      2168 1.45916E-02 1.11535E-03-6.79562E-14
 -1      2169 1.58284E-02-3.37171E-04-7.27415E-14
 -1      2170 1.59614E-02-4.98973E-04-7.20871E-14
 -1      2171 1.58418E-02-7.28337E-04-7.13725E-14
 -1      2172 1.53515E-02-4.24991E-04-7.28351E-14
 -1      2173 1.14598E-02-4.08570E-05-5.87612E-14
 -1      2174 1.21027E-02 2.47042E-04-5.97842E-14
 -1      2175 1.34449E-02 1.08346E-03-6.34265E-14
 -1      2176 1.56470E-02 2.30322E-04-7.11541E-14
 -1      2177 1.46030E-02-1.42726E-03-6.88433E-14
 -1      2178 1.38254E-02-1.51630E-03-6.57428E-14
 -1      2179 1.34244E-02-1.31082E-03-6.41410E-14
 -1      2180 1.25274E-02-7.08106E-04-6.14125E-14
 -1      2181 1.14705E-02-1.61421E-04-5.89411E-14
 -1      2182 1.42025E-02 1.26882E-03-6.64936E-14
 -1      2183 1.17485E-02-2.78208E-04-5.95095E-14
 -1      2184 1.30083E-02-1.02879E-03-6.27454E-14
 -1      2185 1.51879E-02-1.10880E-03-7.02857E-14
 -1      2186 5.47735E-04-5.52707E-05-2.25772E-16
 -1      2187 5.48777E-04-7.19795E-05-2.24864E-16
 -1      2188 5.50203E-04-8.92963E-05-2.23359E-16
 -1      2189 5.52076E-04-1.07269E-04-2.20988E-16
 -1      2190 6.65236E-04-9.54493E-05-3.04214E-16
 -1      2191 5.46344E-04 8.85017E-06-2.22573E-16
 -1      2192 5.46324E-04-6.97797E-06-2.24321E-16
 -1      2193 5.47105E-04 4.08424E-05-2.17220E-16
 -1      2194 5.46601E-04 2.47771E-05-2.20229E-16
 -1      2195 6.61266E-04 1.99187E-05-3.00460E-16
 -1      2196 5.48940E-04 7.34488E-05-2.09332E-16
 -1      2197 5.47873E-04 5.69638E-05-2.13723E-16
 -1      2198 6.62602E-04 5.77524E-05-2.92857E-16
 -1      2199 5.52349E-04 1.08910E-04-1.98097E-16
 -1      2200 5.50415E-04 9.08389E-05-2.04128E-16
 -1      2201 6.65474E-04 9.72021E-05-2.81567E-16
 -1      2202 5.58250E-04 1.48247E-04-1.82403E-16
 -1      2203 5.54922E-04 1.28019E-04-1.90847E-16
 -1      2204 6.70594E-04 1.39963E-04-2.65928E-16
 -1      2205 5.68649E-04 1.93844E-04-1.60299E-16
 -1      2206 5.62749E-04 1.70134E-04-1.72510E-16
 -1      2207 6.79269E-04 1.87523E-04-2.44420E-16
 -1      2208 5.88072E-04 2.49434E-04-1.29007E-16
 -1      2209 5.76932E-04 2.20175E-04-1.46083E-16
 -1      2210 6.94259E-04 2.42433E-04-2.14577E-16
 -1      2211 6.42210E-04 3.01261E-04-1.18178E-16
 -1      2212 6.14479E-04 2.73768E-04-1.25374E-16
 -1      2213 7.31627E-04 2.97792E-04-1.92785E-16
 -1      2214 7.88670E-04 3.49671E-04-1.82241E-16
 -1      2215 9.15263E-04-3.46299E-04-3.84892E-16
 -1      2216 1.05937E-03-3.79608E-04-5.07691E-16
 -1      2217 1.58465E-03 4.96984E-04-8.72308E-16
 -1      2218 1.44369E-03 4.78661E-04-7.11142E-16
 -1      2219 1.30221E-03 4.56653E-04-5.67580E-16
 -1      2220 1.15988E-03 4.30686E-04-4.41175E-16
 -1      2221 1.35793E-03 4.32647E-04-6.74116E-16
 -1      2222 5.88572E-04-2.37934E-04-1.83311E-16
 -1      2223 7.81377E-04-3.04775E-04-2.92558E-16
 -1      2224 8.40818E-04-2.93535E-04-3.58912E-16
 -1      2225 5.78994E-04-2.10102E-04-1.95319E-16
 -1      2226 1.20264E-03-4.07982E-04-6.48719E-16
 -1      2227 1.34547E-03-4.31852E-04-8.08503E-16
 -1      2228 1.11705E-03-3.60415E-04-5.95783E-16
 -1      2229 1.48765E-03-4.52071E-04-9.86665E-16
 -1      2230 1.62945E-03-4.68911E-04-1.18369E-15
 -1      2231 1.40339E-03-4.07173E-04-9.18373E-16
 -1      2232 1.77089E-03-4.83046E-04-1.39934E-15
 -1      2233 1.91209E-03-4.94693E-04-1.63353E-15
 -1      2234 1.68854E-03-4.40412E-04-1.31457E-15
 -1      2235 2.05313E-03-5.04347E-04-1.88597E-15
 -1      2236 2.19407E-03-5.12184E-04-2.15751E-15
 -1      2237 1.97275E-03-4.63473E-04-1.78464E-15
 -1      2238 2.33499E-03-5.18566E-04-2.44685E-15
 -1      2239 2.47589E-03-5.23636E-04-2.75474E-15
 -1      2240 2.25641E-03-4.79003E-04-2.32763E-15
 -1      2241 2.61686E-03-5.27658E-04-3.08095E-15
 -1      2242 2.75788E-03-5.30749E-04-3.42581E-15
 -1      2243 2.53985E-03-4.89045E-04-2.94422E-15
 -1      2244 2.89900E-03-5.33102E-04-3.78864E-15
 -1      2245 3.04019E-03-5.34807E-04-4.16922E-15
 -1      2246 2.82329E-03-4.95157E-04-3.63299E-15
 -1      2247 3.18152E-03-5.36004E-04-4.56731E-15
 -1      2248 3.32293E-03-5.36762E-04-4.98302E-15
 -1      2249 3.10688E-03-4.98515E-04-4.39350E-15
 -1      2250 3.46447E-03-5.37182E-04-5.41609E-15
 -1      2251 3.60611E-03-5.37315E-04-5.86660E-15
 -1      2252 3.39070E-03-4.99995E-04-5.22415E-15
 -1      2253 3.74786E-03-5.37231E-04-6.33368E-15
 -1      2254 3.88970E-03-5.36970E-04-6.81769E-15
 -1      2255 3.67477E-03-5.00236E-04-6.12309E-15
 -1      2256 4.03166E-03-5.36576E-04-7.31824E-15
 -1      2257 4.17369E-03-5.36078E-04-7.83594E-15
 -1      2258 3.95910E-03-4.99695E-04-7.08897E-15
 -1      2259 4.31581E-03-5.35504E-04-8.37136E-15
 -1      2260 4.45801E-03-5.34874E-04-8.92228E-15
 -1      2261 4.24368E-03-4.98688E-04-8.12218E-15
 -1      2262 4.60028E-03-5.34204E-04-9.48919E-15
 -1      2263 4.74261E-03-5.33505E-04-1.00728E-14
 -1      2264 4.52846E-03-4.97423E-04-9.22282E-15
 -1      2265 4.88501E-03-5.32784E-04-1.06733E-14
 -1      2266 5.02746E-03-5.32049E-04-1.12892E-14
 -1      2267 4.81344E-03-4.96024E-04-1.03874E-14
 -1      2268 5.16997E-03-5.31298E-04-1.19220E-14
 -1      2269 5.31251E-03-5.30533E-04-1.25732E-14
 -1      2270 5.09857E-03-4.94554E-04-1.16188E-14
 -1      2271 5.45511E-03-5.29750E-04-1.32402E-14
 -1      2272 5.59774E-03-5.28946E-04-1.39234E-14
 -1      2273 5.38385E-03-4.93029E-04-1.29166E-14
 -1      2274 5.74041E-03-5.28111E-04-1.46246E-14
 -1      2275 5.88312E-03-5.27242E-04-1.53434E-14
 -1      2276 5.66925E-03-4.91427E-04-1.42823E-14
 -1      2277 6.02588E-03-5.26325E-04-1.60786E-14
 -1      2278 6.16867E-03-5.25355E-04-1.68305E-14
 -1      2279 5.95478E-03-4.89697E-04-1.57166E-14
 -1      2280 6.31150E-03-5.24315E-04-1.75998E-14
 -1      2281 6.45438E-03-5.23197E-04-1.83846E-14
 -1      2282 6.24042E-03-4.87766E-04-1.72184E-14
 -1      2283 6.59730E-03-5.21982E-04-1.91874E-14
 -1      2284 6.74029E-03-5.20663E-04-2.00045E-14
 -1      2285 6.52620E-03-4.85541E-04-1.87869E-14
 -1      2286 6.88333E-03-5.19218E-04-2.08371E-14
 -1      2287 7.02645E-03-5.17640E-04-2.16853E-14
 -1      2288 6.81214E-03-4.82915E-04-2.04185E-14
 -1      2289 7.16964E-03-5.15906E-04-2.25486E-14
 -1      2290 7.31294E-03-5.14009E-04-2.34262E-14
 -1      2291 7.09828E-03-4.79773E-04-2.21103E-14
 -1      2292 7.45634E-03-5.11926E-04-2.43172E-14
 -1      2293 7.59986E-03-5.09654E-04-2.52224E-14
 -1      2294 7.38469E-03-4.75993E-04-2.38615E-14
 -1      2295 7.74352E-03-5.07171E-04-2.61386E-14
 -1      2296 7.88736E-03-5.04478E-04-2.70682E-14
 -1      2297 7.67144E-03-4.71465E-04-2.56652E-14
 -1      2298 8.03136E-03-5.01560E-04-2.80115E-14
 -1      2299 8.17560E-03-4.98424E-04-2.89670E-14
 -1      2300 7.95863E-03-4.66095E-04-2.75201E-14
 -1      2301 8.32005E-03-4.95064E-04-2.99348E-14
 -1      2302 8.46480E-03-4.91501E-04-3.09126E-14
 -1      2303 8.24639E-03-4.59838E-04-2.94289E-14
 -1      2304 8.60983E-03-4.87746E-04-3.19017E-14
 -1      2305 8.75523E-03-4.83834E-04-3.29003E-14
 -1      2306 8.53486E-03-4.52720E-04-3.13832E-14
 -1      2307 8.90097E-03-4.79806E-04-3.39062E-14
 -1      2308 9.04718E-03-4.75722E-04-3.49211E-14
 -1      2309 8.82423E-03-4.44896E-04-3.33761E-14
 -1      2310 9.19382E-03-4.71664E-04-3.59441E-14
 -1      2311 9.34103E-03-4.67728E-04-3.69709E-14
 -1      2312 9.11471E-03-4.36703E-04-3.54023E-14
 -1      2313 9.48876E-03-4.64059E-04-3.80075E-14
 -1      2314 9.63718E-03-4.60800E-04-3.90514E-14
 -1      2315 9.40654E-03-4.28762E-04-3.74584E-14
 -1      2316 9.78624E-03-4.58187E-04-4.01004E-14
 -1      2317 9.93611E-03-4.56430E-04-4.11556E-14
 -1      2318 9.70004E-03-4.22089E-04-3.95414E-14
 -1      2319 1.00868E-02-4.55887E-04-4.22161E-14
 -1      2320 1.02384E-02-4.56864E-04-4.32821E-14
 -1      2321 9.99557E-03-4.18260E-04-4.16506E-14
 -1      2322 1.03910E-02-4.59869E-04-4.43534E-14
 -1      2323 1.05447E-02-4.65344E-04-4.54309E-14
 -1      2324 1.02937E-02-4.19604E-04-4.37810E-14
 -1      2325 1.06996E-02-4.73969E-04-4.65123E-14
 -1      2326 1.08559E-02-4.86372E-04-4.75988E-14
 -1      2327 1.05953E-02-4.29437E-04-4.59344E-14
 -1      2328 1.10138E-02-5.03388E-04-4.86899E-14
 -1      2329 1.11733E-02-5.25893E-04-4.97842E-14
 -1      2330 1.09016E-02-4.52306E-04-4.81076E-14
 -1      2331 1.13350E-02-5.54788E-04-5.08851E-14
 -1      2332 1.14985E-02-5.91225E-04-5.19908E-14
 -1      2333 1.12147E-02-4.94186E-04-5.02971E-14
 -1      2334 1.16648E-02-6.35954E-04-5.30996E-14
 -1      2335 1.18331E-02-6.90321E-04-5.42134E-14
 -1      2336 1.15378E-02-5.62495E-04-5.25061E-14
 -1      2337 1.20047E-02-7.54531E-04-5.53344E-14
 -1      2338 1.21778E-02-8.29620E-04-5.64583E-14
 -1      2339 1.18744E-02-6.65627E-04-5.47331E-14
 -1      2340 1.23539E-02-9.14680E-04-5.75856E-14
 -1      2341 1.25298E-02-1.00915E-03-5.87178E-14
 -1      2342 1.22270E-02-8.11071E-04-5.69776E-14
 -1      2343 1.27064E-02-1.11029E-03-5.98511E-14
 -1      2344 1.28795E-02-1.21386E-03-6.09886E-14
 -1      2345 1.25934E-02-1.00014E-03-5.92342E-14
 -1      2346 1.30485E-02-1.31465E-03-6.21330E-14
 -1      2347 1.32103E-02-1.40331E-03-6.32727E-14
 -1      2348 1.29610E-02-1.21682E-03-6.15024E-14
 -1      2349 1.33620E-02-1.47347E-03-6.44173E-14
 -1      2350 1.35066E-02-1.51294E-03-6.55675E-14
 -1      2351 1.33070E-02-1.41349E-03-6.37845E-14
 -1      2352 1.36397E-02-1.51694E-03-6.67175E-14
 -1      2353 1.37698E-02-1.47800E-03-6.78687E-14
 -1      2354 1.36134E-02-1.51226E-03-6.60783E-14
 -1      2355 1.38923E-02-1.39721E-03-6.90170E-14
 -1      2356 1.40192E-02-1.27909E-03-7.01620E-14
 -1      2357 1.38839E-02-1.44057E-03-6.83756E-14
 -1      2358 1.04709E-03 4.12392E-04-3.45603E-16
 -1      2359 9.02854E-04 3.76916E-04-2.50993E-16
 -1      2360 8.73746E-04 3.50553E-04-2.57010E-16
 -1      2361 1.10169E-03 3.93052E-04-4.30604E-16
 -1      2362 1.86543E-03 5.25160E-04-1.24697E-15
 -1      2363 1.72518E-03 5.12411E-04-1.05103E-15
 -1      2364 1.64197E-03 4.69123E-04-1.00248E-15
 -1      2365 2.14556E-03 5.44447E-04-1.69314E-15
 -1      2366 2.00554E-03 5.35778E-04-1.46115E-15
 -1      2367 1.92473E-03 4.94540E-04-1.40088E-15
 -1      2368 2.42566E-03 5.57254E-04-2.21080E-15
 -1      2369 2.28559E-03 5.51555E-04-1.94278E-15
 -1      2370 2.20686E-03 5.11810E-04-1.87029E-15
 -1      2371 2.70611E-03 5.65392E-04-2.80013E-15
 -1      2372 2.56584E-03 5.61825E-04-2.49643E-15
 -1      2373 2.48883E-03 5.23142E-04-2.41056E-15
 -1      2374 2.98713E-03 5.70222E-04-3.46180E-15
 -1      2375 2.84656E-03 5.68158E-04-3.12182E-15
 -1      2376 2.77095E-03 5.30211E-04-3.02211E-15
 -1      2377 3.26878E-03 5.72761E-04-4.19456E-15
 -1      2378 3.12788E-03 5.71731E-04-3.81939E-15
 -1      2379 3.05339E-03 5.34278E-04-3.70568E-15
 -1      2380 3.55106E-03 5.73756E-04-4.99968E-15
 -1      2381 3.40985E-03 5.73416E-04-4.58758E-15
 -1      2382 3.33623E-03 5.36283E-04-4.45961E-15
 -1      2383 3.83394E-03 5.73749E-04-5.87762E-15
 -1      2384 3.69244E-03 5.73852E-04-5.42956E-15
 -1      2385 3.61950E-03 5.36915E-04-5.28512E-15
 -1      2386 4.11736E-03 5.73121E-04-6.82790E-15
 -1      2387 3.97559E-03 5.73494E-04-6.34375E-15
 -1      2388 3.90317E-03 5.36670E-04-6.18310E-15
 -1      2389 4.40123E-03 5.72131E-04-7.84994E-15
 -1      2390 4.25924E-03 5.72659E-04-7.33028E-15
 -1      2391 4.18721E-03 5.35891E-04-7.15296E-15
 -1      2392 4.68548E-03 5.70943E-04-8.94108E-15
 -1      2393 4.54331E-03 5.71554E-04-8.38693E-15
 -1      2394 4.47158E-03 5.34810E-04-8.19345E-15
 -1      2395 4.97006E-03 5.69650E-04-1.01006E-14
 -1      2396 4.82774E-03 5.70306E-04-9.51206E-15
 -1      2397 4.75623E-03 5.33570E-04-9.30231E-15
 -1      2398 5.25490E-03 5.68290E-04-1.13264E-14
 -1      2399 5.11245E-03 5.68977E-04-1.07055E-14
 -1      2400 5.04110E-03 5.32245E-04-1.04796E-14
 -1      2401 5.53995E-03 5.66860E-04-1.26193E-14
 -1      2402 5.39740E-03 5.67584E-04-1.19638E-14
 -1      2403 5.32618E-03 5.30861E-04-1.17231E-14
 -1      2404 5.82520E-03 5.65323E-04-1.39793E-14
 -1      2405 5.68256E-03 5.66106E-04-1.32907E-14
 -1      2406 5.61143E-03 5.29404E-04-1.30335E-14
 -1      2407 6.11064E-03 5.63617E-04-1.54085E-14
 -1      2408 5.96790E-03 5.64494E-04-1.46854E-14
 -1      2409 5.89683E-03 5.27831E-04-1.44121E-14
 -1      2410 6.39626E-03 5.61663E-04-1.69001E-14
 -1      2411 6.25342E-03 5.62675E-04-1.61464E-14
 -1      2412 6.18238E-03 5.26072E-04-1.58582E-14
 -1      2413 6.68211E-03 5.59362E-04-1.84555E-14
 -1      2414 6.53915E-03 5.60560E-04-1.76705E-14
 -1      2415 6.46810E-03 5.24041E-04-1.73673E-14
 -1      2416 6.96823E-03 5.56610E-04-2.00691E-14
 -1      2417 6.82513E-03 5.58047E-04-1.92542E-14
 -1      2418 6.75402E-03 5.21638E-04-1.89365E-14
 -1      2419 7.25472E-03 5.53296E-04-2.17385E-14
 -1      2420 7.11142E-03 5.55027E-04-2.08971E-14
 -1      2421 7.04018E-03 5.18752E-04-2.05637E-14
 -1      2422 7.54170E-03 5.49319E-04-2.34663E-14
 -1      2423 7.39814E-03 5.51393E-04-2.25963E-14
 -1      2424 7.32667E-03 5.15272E-04-2.22505E-14
 -1      2425 7.82932E-03 5.44597E-04-2.52398E-14
 -1      2426 7.68541E-03 5.47051E-04-2.43464E-14
 -1      2427 7.61358E-03 5.11097E-04-2.39884E-14
 -1      2428 8.11779E-03 5.39095E-04-2.70649E-14
 -1      2429 7.97343E-03 5.41940E-04-2.61464E-14
 -1      2430 7.90104E-03 5.06151E-04-2.57771E-14
 -1      2431 8.40737E-03 5.32849E-04-2.89351E-14
 -1      2432 8.26242E-03 5.36055E-04-2.79940E-14
 -1      2433 8.18923E-03 5.00405E-04-2.76141E-14
 -1      2434 8.69837E-03 5.26017E-04-3.08495E-14
 -1      2435 8.55266E-03 5.29488E-04-2.98865E-14
 -1      2436 8.47835E-03 4.93913E-04-2.94970E-14
 -1      2437 8.99113E-03 5.18935E-04-3.28045E-14
 -1      2438 8.84449E-03 5.22476E-04-3.18221E-14
 -1      2439 8.76865E-03 4.86858E-04-3.14241E-14
 -1      2440 9.28609E-03 5.12201E-04-3.47962E-14
 -1      2441 9.13829E-03 5.15475E-04-3.37957E-14
 -1      2442 9.06042E-03 4.79618E-04-3.33894E-14
 -1      2443 9.58369E-03 5.06780E-04-3.68268E-14
 -1      2444 9.43451E-03 5.09253E-04-3.58066E-14
 -1      2445 9.35401E-03 4.72844E-04-3.53922E-14
 -1      2446 9.88441E-03 5.04129E-04-3.88956E-14
 -1      2447 9.73361E-03 5.05003E-04-3.78571E-14
 -1      2448 9.64981E-03 4.67574E-04-3.74322E-14
 -1      2449 1.01887E-02 5.06344E-04-4.09992E-14
 -1      2450 1.00361E-02 5.04484E-04-3.99434E-14
 -1      2451 9.94827E-03 4.65361E-04-3.95108E-14
 -1      2452 1.04970E-02 5.16295E-04-4.31361E-14
 -1      2453 1.03423E-02 5.10162E-04-4.20635E-14
 -1      2454 1.02499E-02 4.68411E-04-4.16232E-14
 -1      2455 1.08096E-02 5.37699E-04-4.53018E-14
 -1      2456 1.06528E-02 5.25326E-04-4.42155E-14
 -1      2457 1.05553E-02 4.79719E-04-4.37675E-14
 -1      2458 1.11266E-02 5.75020E-04-4.74900E-14
 -1      2459 1.09677E-02 5.54093E-04-4.63940E-14
 -1      2460 1.08651E-02 5.03131E-04-4.59390E-14
 -1      2461 1.14477E-02 6.33007E-04-4.97007E-14
 -1      2462 1.12868E-02 6.01157E-04-4.85935E-14
 -1      2463 1.11801E-02 5.43238E-04-4.81327E-14
 -1      2464 1.17716E-02 7.15571E-04-5.19229E-14
 -1      2465 1.16096E-02 6.71041E-04-5.08099E-14
 -1      2466 1.15006E-02 6.04906E-04-5.03451E-14
 -1      2467 1.20958E-02 8.23674E-04-5.41524E-14
 -1      2468 1.19342E-02 7.66535E-04-5.30369E-14
 -1      2469 1.18265E-02 6.92147E-04-5.25670E-14
 -1      2470 1.24159E-02 9.52012E-04-5.63842E-14
 -1      2471 1.22570E-02 8.85968E-04-5.52688E-14
 -1      2472 1.21559E-02 8.05869E-04-5.47964E-14
 -1      2473 1.27250E-02 1.08520E-03-5.86085E-14
 -1      2474 1.25724E-02 1.01940E-03-5.74972E-14
 -1      2475 1.24836E-02 9.40137E-04-5.70231E-14
 -1      2476 1.30161E-02 1.19606E-03-6.08240E-14
 -1      2477 1.28730E-02 1.14568E-03-5.97185E-14
 -1      2478 1.28012E-02 1.07777E-03-5.92438E-14
 -1      2479 1.32852E-02 1.24959E-03-6.30210E-14
 -1      2480 1.31528E-02 1.23220E-03-6.19249E-14
 -1      2481 1.30991E-02 1.18752E-03-6.14521E-14
 -1      2482 1.35368E-02 1.21707E-03-6.51939E-14
 -1      2483 1.34117E-02 1.24543E-03-6.41086E-14
 -1      2484 1.33717E-02 1.23076E-03-6.36426E-14
 -1      2485 1.37838E-02 1.09288E-03-6.73484E-14
 -1      2486 1.36588E-02 1.16512E-03-6.62751E-14
 -1      2487 1.36250E-02 1.17633E-03-6.58128E-14
 -1      2488 1.39161E-02 1.00078E-03-6.84544E-14
 -1      2489 1.40503E-02 9.59807E-04-6.83115E-14
 -1      2490 1.39792E-02 9.71101E-04-6.82145E-14
 -1      2491 1.42397E-02 9.58909E-04-6.84773E-14
 -1      2492 1.41333E-02 9.57789E-04-6.83934E-14
 -1      2493 1.39746E-02 1.06789E-03-6.74917E-14
 -1      2494 1.52306E-02 5.65874E-04-7.01785E-14
 -1      2495 1.37349E-02 1.23472E-03-6.45779E-14
 -1      2496 1.38926E-02 1.27410E-03-6.53403E-14
 -1      2497 1.50293E-02-5.78626E-04-7.26285E-14
 -1      2498 1.51767E-02-7.12827E-04-7.18976E-14
 -1      2499 1.41713E-02-1.11602E-03-7.13253E-14
 -1      2500 1.47389E-02-8.65934E-04-7.16885E-14
 -1      2501 1.14076E-02-6.14080E-05-5.80566E-14
 -1      2502 1.15064E-02-2.67235E-05-5.82200E-14
 -1      2503 1.42748E-02-1.12936E-03-7.08406E-14
 -1      2504 1.44067E-02-1.11325E-03-7.07601E-14
 -1      2505 1.16598E-02 3.33678E-05-5.85415E-14
 -1      2506 1.18151E-02 9.58076E-05-5.88220E-14
 -1      2507 1.46208E-02-1.32452E-03-6.94700E-14
 -1      2508 1.44080E-02-1.45810E-03-6.86277E-14
 -1      2509 1.38712E-02-1.54343E-03-6.61089E-14
 -1      2510 1.36975E-02-1.47570E-03-6.52224E-14
 -1      2511 1.15076E-02-1.63918E-04-5.83602E-14
 -1      2512 1.14152E-02-1.32175E-04-5.81720E-14
 -1      2513 1.40534E-02 1.27328E-03-6.61036E-14
 -1      2514 1.42038E-02 1.23190E-03-6.68504E-14
 -1      2515 5.46539E-04-2.28887E-05-2.25284E-16
 -1      2516 5.47000E-04-3.89209E-05-2.25948E-16
 -1      2517 6.62451E-04-5.57884E-05-3.06260E-16
 -1      2518 6.61214E-04-1.76966E-05-3.05027E-16
 -1      2519 1.18310E-02-2.94496E-04-5.90370E-14
 -1      2520 1.16653E-02-2.26555E-04-5.86568E-14
 -1      2521 1.29587E-02 7.64263E-04-6.14289E-14
 -1      2522 1.31274E-02 8.85109E-04-6.20115E-14
 -1      2523 1.33341E-02 1.02213E-03-6.28002E-14
 -1      2524 1.35213E-02 1.14208E-03-6.35894E-14
 -1      2525 1.32214E-02 9.67864E-04-6.21750E-14
 -1      2526 1.44125E-02 1.13485E-03-6.77354E-14
 -1      2527 1.46039E-02 1.01405E-03-6.84469E-14
 -1      2528 1.19866E-02 1.75559E-04-5.91178E-14
 -1      2529 1.21739E-02 2.70341E-04-5.94163E-14
 -1      2530 1.18804E-02 1.27712E-04-5.84535E-14
 -1      2531 1.13749E-02-1.10733E-04-5.80935E-14
 -1      2532 1.13625E-02-9.63953E-05-5.80161E-14
 -1      2533 1.13843E-02-1.19847E-04-5.75126E-14
 -1      2534 1.31180E-02-1.09712E-03-6.28429E-14
 -1      2535 1.29134E-02-9.46639E-04-6.21608E-14
 -1      2536 1.22061E-02-4.87366E-04-6.00975E-14
 -1      2537 1.20424E-02-3.99729E-04-5.96616E-14
 -1      2538 1.26720E-02-7.78823E-04-6.13928E-14
 -1      2539 1.24337E-02-6.24114E-04-6.07435E-14
 -1      2540 1.23386E-02-5.64811E-04-6.00770E-14
 -1      2541 1.35065E-02-1.36979E-03-6.43636E-14
 -1      2542 1.33346E-02-1.25045E-03-6.36491E-14
 -1      2543 1.41984E-02-1.52787E-03-6.78613E-14
 -1      2544 1.40599E-02-1.55479E-03-6.71755E-14
 -1      2545 1.28101E-02 6.71680E-04-6.07613E-14
 -1      2546 6.70180E-04-1.37918E-04-2.97898E-16
 -1      2547 5.54562E-04-1.26169E-04-2.17491E-16
 -1      2548 5.57781E-04-1.46140E-04-2.12639E-16
 -1      2549 5.64284E-04-1.64901E-04-2.09278E-16
 -1      2550 5.69733E-04-1.87967E-04-2.01580E-16
 -1      2551 6.97848E-04-2.27693E-04-2.78057E-16
 -1      2552 6.80693E-04-1.81615E-04-2.89265E-16
 -1      2553 1.48656E-02-1.05887E-03-7.06863E-14
 -1      2554 1.46552E-02-1.13120E-03-7.04741E-14
 -1      2555 1.15620E-02-1.53128E-06-5.78368E-14
 -1      2556 1.38805E-02 1.01989E-03-6.79980E-14
 -1      2557 1.46208E-02 9.14533E-04-6.88816E-14
 -1      2558 1.44430E-02 9.18414E-04-6.88046E-14
 -1      2559 1.35959E-02 1.19024E-03-6.39516E-14
 -1      2560 1.41717E-02-1.17600E-03-7.06891E-14
 -1      2561 1.41019E-02-1.30862E-03-6.96761E-14
 -1      2562 1.13619E-02-7.76234E-05-5.74760E-14
 -1      2563 1.42434E-02-1.46262E-03-6.84900E-14
 -1      2564 1.48236E-02 8.71472E-04-6.91026E-14
 -1      2565 1.51202E-02 6.85425E-04-6.97719E-14
 -1      2566 1.27849E-02-8.59304E-04-6.14878E-14
 -1      2567 1.32138E-02-1.17421E-03-6.30616E-14
 -1      2568 1.35835E-02-1.42822E-03-6.47274E-14
 -1      2569 1.55672E-02-7.41249E-04-7.14930E-14
 -1      2570 1.39249E-02 1.26499E-03-6.57016E-14
 -1      2571 1.15636E-02-1.87399E-04-5.78868E-14
 -1      2572 1.42437E-02 1.16627E-03-6.73458E-14
 -1      2573 1.39199E-02-1.54696E-03-6.66541E-14
 -1      2574 1.38947E-02 1.01012E-03-6.79541E-14
 -1      2575 1.21641E-02 2.74989E-04-5.87758E-14
 -1      2576 1.23015E-02 3.41258E-04-5.94425E-14
 -1      2577 1.24148E-02 4.17379E-04-5.94686E-14
 -1      2578 1.19154E-02-3.36178E-04-5.88075E-14
 -1      2579 1.51551E-02-8.65623E-04-7.12847E-14
 -1      2580 1.42166E-02 1.06481E-03-6.78978E-14
 -1      2581 1.38171E-02 1.08109E-03-6.71510E-14
 -1      2582 7.80128E-04 7.72919E-05-3.79999E-16
 -1      2583 7.78859E-04 5.54441E-05-3.85800E-16
 -1      2584 7.78008E-04 3.35444E-05-3.90557E-16
 -1      2585 7.77584E-04 1.18907E-05-3.94419E-16
 -1      2586 8.96406E-04 4.96626E-05-4.92485E-16
 -1      2587 7.91519E-04 1.73066E-04-3.43746E-16
 -1      2588 7.87490E-04 1.47653E-04-3.55117E-16
 -1      2589 8.03401E-04 2.28289E-04-3.15489E-16
 -1      2590 7.96779E-04 1.99894E-04-3.30682E-16
 -1      2591 9.14849E-04 2.07766E-04-4.31296E-16
 -1      2592 8.46301E-04 3.25134E-04-2.61374E-16
 -1      2593 1.03373E-03-3.14159E-04-5.42521E-16
 -1      2594 1.17698E-03-3.40266E-04-6.87194E-16
 -1      2595 2.26930E-03 4.78536E-04-2.05013E-15
 -1      2596 2.12747E-03 4.71676E-04-1.79529E-15
 -1      2597 1.98555E-03 4.63195E-04-1.55834E-15
 -1      2598 1.84349E-03 4.52931E-04-1.33880E-15
 -1      2599 2.04768E-03 4.31270E-04-1.71884E-15
 -1      2600 7.99451E-04-2.55138E-04-3.49045E-16
 -1      2601 9.30762E-04-2.90712E-04-4.51096E-16
 -1      2602 9.92849E-04-2.75390E-04-5.27708E-16
 -1      2603 7.89271E-04-2.29181E-04-3.56499E-16
 -1      2604 1.70127E-03 4.40466E-04-1.13656E-15
 -1      2605 1.55881E-03 4.25593E-04-9.52079E-16
 -1      2606 1.76216E-03 4.11142E-04-1.27459E-15
 -1      2607 1.40647E-02 1.16713E-03-6.70194E-14
 -1      2608 1.14831E-02-1.78083E-05-5.70806E-14
 -1      2609 1.16235E-02 2.94551E-05-5.74009E-14
 -1      2610 1.32018E-03-3.62687E-04-8.49974E-16
 -1      2611 1.46341E-03-3.81668E-04-1.03091E-15
 -1      2612 1.23843E-03-3.19004E-04-7.82049E-16
 -1      2613 1.60646E-03-3.97750E-04-1.23026E-15
 -1      2614 1.74940E-03-4.11164E-04-1.44783E-15
 -1      2615 1.52499E-03-3.55340E-04-1.14627E-15
 -1      2616 1.89218E-03-4.22378E-04-1.68370E-15
 -1      2617 2.03484E-03-4.31581E-04-1.93737E-15
 -1      2618 1.81168E-03-3.81251E-04-1.58304E-15
 -1      2619 2.17739E-03-4.39149E-04-2.20954E-15
 -1      2620 2.31986E-03-4.45235E-04-2.49986E-15
 -1      2621 2.09814E-03-3.99125E-04-2.09201E-15
 -1      2622 2.46228E-03-4.50128E-04-2.80785E-15
 -1      2623 2.60465E-03-4.53952E-04-3.13413E-15
 -1      2624 2.38431E-03-4.10984E-04-2.67278E-15
 -1      2625 2.74701E-03-4.56926E-04-3.47899E-15
 -1      2626 2.88935E-03-4.59145E-04-3.84129E-15
 -1      2627 2.67026E-03-4.18453E-04-3.32545E-15
 -1      2628 3.03170E-03-4.60771E-04-4.22077E-15
 -1      2629 3.17405E-03-4.61879E-04-4.61787E-15
 -1      2630 2.95603E-03-4.22794E-04-4.04917E-15
 -1      2631 3.31643E-03-4.62588E-04-5.03274E-15
 -1      2632 3.45882E-03-4.62951E-04-5.46484E-15
 -1      2633 3.24170E-03-4.24968E-04-4.84253E-15
 -1      2634 3.60125E-03-4.63054E-04-5.91343E-15
 -1      2635 3.74369E-03-4.62937E-04-6.37900E-15
 -1      2636 3.52731E-03-4.25685E-04-5.70542E-15
 -1      2637 3.88618E-03-4.62660E-04-6.86112E-15
 -1      2638 4.02868E-03-4.62249E-04-7.35978E-15
 -1      2639 3.81289E-03-4.25464E-04-6.63454E-15
 -1      2640 4.17122E-03-4.61745E-04-7.87562E-15
 -1      2641 4.31378E-03-4.61167E-04-8.40825E-15
 -1      2642 4.09846E-03-4.24668E-04-7.63051E-15
 -1      2643 4.45638E-03-4.60538E-04-8.95766E-15
 -1      2644 4.59900E-03-4.59871E-04-9.52199E-15
 -1      2645 4.38404E-03-4.23542E-04-8.69289E-15
 -1      2646 4.74164E-03-4.59179E-04-1.01034E-14
 -1      2647 4.88431E-03-4.58468E-04-1.07015E-14
 -1      2648 4.66963E-03-4.22242E-04-9.82152E-15
 -1      2649 5.02700E-03-4.57743E-04-1.13163E-14
 -1      2650 5.16971E-03-4.57005E-04-1.19476E-14
 -1      2651 4.95525E-03-4.20855E-04-1.10149E-14
 -1      2652 5.31244E-03-4.56254E-04-1.25957E-14
 -1      2653 5.45519E-03-4.55487E-04-1.32606E-14
 -1      2654 5.24089E-03-4.19417E-04-1.22759E-14
 -1      2655 5.59796E-03-4.54699E-04-1.39419E-14
 -1      2656 5.74075E-03-4.53885E-04-1.46413E-14
 -1      2657 5.52655E-03-4.17922E-04-1.36040E-14
 -1      2658 5.88356E-03-4.53035E-04-1.53567E-14
 -1      2659 6.02639E-03-4.52142E-04-1.60899E-14
 -1      2660 5.81224E-03-4.16334E-04-1.49994E-14
 -1      2661 6.16923E-03-4.51194E-04-1.68403E-14
 -1      2662 6.31210E-03-4.50181E-04-1.76064E-14
 -1      2663 6.09796E-03-4.14592E-04-1.64638E-14
 -1      2664 6.45499E-03-4.49088E-04-1.83892E-14
 -1      2665 6.59791E-03-4.47906E-04-1.91875E-14
 -1      2666 6.38371E-03-4.12617E-04-1.79939E-14
 -1      2667 6.74085E-03-4.46616E-04-2.00021E-14
 -1      2668 6.88383E-03-4.45209E-04-2.08307E-14
 -1      2669 6.66951E-03-4.10311E-04-1.95873E-14
 -1      2670 7.02683E-03-4.43665E-04-2.16753E-14
 -1      2671 7.16988E-03-4.41974E-04-2.25343E-14
 -1      2672 6.95534E-03-4.07568E-04-2.12433E-14
 -1      2673 7.31297E-03-4.40116E-04-2.34068E-14
 -1      2674 7.45611E-03-4.38082E-04-2.42944E-14
 -1      2675 7.24123E-03-4.04272E-04-2.29565E-14
 -1      2676 7.59930E-03-4.35855E-04-2.51954E-14
 -1      2677 7.74256E-03-4.33427E-04-2.61081E-14
 -1      2678 7.52719E-03-4.00311E-04-2.47263E-14
 -1      2679 7.88588E-03-4.30785E-04-2.70332E-14
 -1      2680 8.02929E-03-4.27925E-04-2.79728E-14
 -1      2681 7.81321E-03-3.95583E-04-2.65501E-14
 -1      2682 8.17277E-03-4.24843E-04-2.89263E-14
 -1      2683 8.31636E-03-4.21543E-04-2.98906E-14
 -1      2684 8.09931E-03-3.90019E-04-2.84250E-14
 -1      2685 8.46004E-03-4.18034E-04-3.08659E-14
 -1      2686 8.60386E-03-4.14331E-04-3.18520E-14
 -1      2687 8.38549E-03-3.83601E-04-3.03507E-14
 -1      2688 8.74777E-03-4.10466E-04-3.28469E-14
 -1      2689 8.89187E-03-4.06470E-04-3.38505E-14
 -1      2690 8.67176E-03-3.76401E-04-3.23185E-14
 -1      2691 9.03608E-03-4.02409E-04-3.48618E-14
 -1      2692 9.18050E-03-3.98339E-04-3.58818E-14
 -1      2693 8.95812E-03-3.68631E-04-3.43232E-14
 -1      2694 9.32508E-03-3.94374E-04-3.69100E-14
 -1      2695 9.46991E-03-3.90604E-04-3.79438E-14
 -1      2696 9.24457E-03-3.60703E-04-3.63612E-14
 -1      2697 9.61494E-03-3.87211E-04-3.89846E-14
 -1      2698 9.76029E-03-3.84335E-04-4.00317E-14
 -1      2699 9.53117E-03-3.53321E-04-3.84281E-14
 -1      2700 9.90591E-03-3.82244E-04-4.10851E-14
 -1      2701 1.00520E-02-3.81150E-04-4.21450E-14
 -1      2702 9.81802E-03-3.47579E-04-4.05210E-14
 -1      2703 1.01984E-02-3.81430E-04-4.32099E-14
 -1      2704 1.03455E-02-3.83402E-04-4.42811E-14
 -1      2705 1.01054E-02-3.45097E-04-4.26395E-14
 -1      2706 1.04933E-02-3.87556E-04-4.53571E-14
 -1      2707 1.06420E-02-3.94379E-04-4.64394E-14
 -1      2708 1.03940E-02-3.48170E-04-4.47802E-14
 -1      2709 1.07918E-02-4.04459E-04-4.75251E-14
 -1      2710 1.09431E-02-4.18541E-04-4.86139E-14
 -1      2711 1.06850E-02-3.59949E-04-4.69414E-14
 -1      2712 1.10964E-02-4.37256E-04-4.97101E-14
 -1      2713 1.12521E-02-4.61754E-04-5.08106E-14
 -1      2714 1.09808E-02-3.84665E-04-4.91220E-14
 -1      2715 1.14110E-02-4.92602E-04-5.19138E-14
 -1      2716 1.15734E-02-5.31510E-04-5.30213E-14
 -1      2717 1.12855E-02-4.27957E-04-5.13209E-14
 -1      2718 1.17408E-02-5.78786E-04-5.41335E-14
 -1      2719 1.19130E-02-6.36863E-04-5.52496E-14
 -1      2720 1.16055E-02-4.97409E-04-5.35348E-14
 -1      2721 1.20919E-02-7.05512E-04-5.63716E-14
 -1      2722 1.22758E-02-7.87251E-04-5.74934E-14
 -1      2723 1.19491E-02-6.03440E-04-5.57650E-14
 -1      2724 1.24667E-02-8.80950E-04-5.86184E-14
 -1      2725 1.26601E-02-9.86856E-04-5.97464E-14
 -1      2726 1.23240E-02-7.59008E-04-5.80062E-14
 -1      2727 1.28577E-02-1.10142E-03-6.08794E-14
 -1      2728 1.30514E-02-1.21959E-03-6.20147E-14
 -1      2729 1.27296E-02-9.72589E-04-6.02591E-14
 -1      2730 1.35784E-02-1.49682E-03-6.54430E-14
 -1      2731 1.37326E-02-1.51596E-03-6.65903E-14
 -1      2732 1.38510E-02-1.49443E-03-6.75601E-14
 -1      2733 1.39903E-02-1.41581E-03-6.87092E-14
 -1      2734 1.40906E-02-1.40389E-03-6.88610E-14
 -1      2735 1.38372E-02-1.52205E-03-6.69233E-14
 -1      2736 2.55285E-03 4.88484E-04-2.61337E-15
 -1      2737 2.41109E-03 4.84095E-04-2.32311E-15
 -1      2738 2.33280E-03 4.44753E-04-2.23370E-15
 -1      2739 2.83640E-03 4.94573E-04-3.24694E-15
 -1      2740 2.69462E-03 4.91942E-04-2.92102E-15
 -1      2741 2.61769E-03 4.53390E-04-2.81902E-15
 -1      2742 3.12009E-03 4.97959E-04-3.95139E-15
 -1      2743 2.97823E-03 4.96552E-04-3.59029E-15
 -1      2744 2.90247E-03 4.58569E-04-3.47414E-15
 -1      2745 3.40400E-03 4.99504E-04-4.72634E-15
 -1      2746 3.26202E-03 4.98923E-04-4.33018E-15
 -1      2747 3.18726E-03 4.61338E-04-4.19945E-15
 -1      2748 3.68815E-03 4.99835E-04-5.57218E-15
 -1      2749 3.54605E-03 4.99793E-04-5.14022E-15
 -1      2750 3.47211E-03 4.62480E-04-4.99482E-15
 -1      2751 3.97254E-03 4.99403E-04-6.48982E-15
 -1      2752 3.83032E-03 4.99695E-04-6.02254E-15
 -1      2753 3.75705E-03 4.62561E-04-5.86064E-15
 -1      2754 4.25716E-03 4.98517E-04-7.47869E-15
 -1      2755 4.11483E-03 4.99003E-04-6.97479E-15
 -1      2756 4.04209E-03 4.61984E-04-6.79784E-15
 -1      2757 4.54199E-03 4.97379E-04-8.53781E-15
 -1      2758 4.39956E-03 4.97970E-04-7.99989E-15
 -1      2759 4.32724E-03 4.61025E-04-7.80573E-15
 -1      2760 4.82700E-03 4.96112E-04-9.66527E-15
 -1      2761 4.68448E-03 4.96757E-04-9.09310E-15
 -1      2762 4.61248E-03 4.59859E-04-8.88333E-15
 -1      2763 5.11216E-03 4.94777E-04-1.08599E-14
 -1      2764 4.96956E-03 4.95451E-04-1.02538E-14
 -1      2765 4.89782E-03 4.58589E-04-1.00289E-14
 -1      2766 5.39746E-03 4.93386E-04-1.21207E-14
 -1      2767 5.25480E-03 4.94089E-04-1.14821E-14
 -1      2768 5.18325E-03 4.57261E-04-1.12411E-14
 -1      2769 5.68288E-03 4.91917E-04-1.34501E-14
 -1      2770 5.54015E-03 4.92663E-04-1.27773E-14
 -1      2771 5.46875E-03 4.55878E-04-1.25201E-14
 -1      2772 5.96841E-03 4.90319E-04-1.48468E-14
 -1      2773 5.82563E-03 4.91137E-04-1.41398E-14
 -1      2774 5.75432E-03 4.54409E-04-1.38673E-14
 -1      2775 6.25406E-03 4.88518E-04-1.63087E-14
 -1      2776 6.11122E-03 4.89448E-04-1.55699E-14
 -1      2777 6.03996E-03 4.52798E-04-1.52816E-14
 -1      2778 6.53984E-03 4.86423E-04-1.78335E-14
 -1      2779 6.39693E-03 4.87512E-04-1.70635E-14
 -1      2780 6.32568E-03 4.50968E-04-1.67604E-14
 -1      2781 6.82578E-03 4.83931E-04-1.94183E-14
 -1      2782 6.68279E-03 4.85232E-04-1.86189E-14
 -1      2783 6.61148E-03 4.48825E-04-1.83010E-14
 -1      2784 7.11192E-03 4.80931E-04-2.10599E-14
 -1      2785 6.96882E-03 4.82500E-04-2.02319E-14
 -1      2786 6.89739E-03 4.46263E-04-1.98997E-14
 -1      2787 7.39831E-03 4.77310E-04-2.27613E-14
 -1      2788 7.25508E-03 4.79203E-04-2.19031E-14
 -1      2789 7.18343E-03 4.43172E-04-2.15572E-14
 -1      2790 7.68504E-03 4.72971E-04-2.45114E-14
 -1      2791 7.54163E-03 4.75235E-04-2.36300E-14
 -1      2792 7.46964E-03 4.39442E-04-2.32711E-14
 -1      2793 7.97220E-03 4.67843E-04-2.63147E-14
 -1      2794 7.82855E-03 4.70507E-04-2.54067E-14
 -1      2795 7.75606E-03 4.34979E-04-2.50373E-14
 -1      2796 8.25991E-03 4.61908E-04-2.81651E-14
 -1      2797 8.11597E-03 4.64974E-04-2.72336E-14
 -1      2798 8.04275E-03 4.29719E-04-2.68522E-14
 -1      2799 8.54834E-03 4.55239E-04-3.00600E-14
 -1      2800 8.40401E-03 4.58656E-04-2.91071E-14
 -1      2801 8.32980E-03 4.23659E-04-2.87158E-14
 -1      2802 8.83766E-03 4.48044E-04-3.19986E-14
 -1      2803 8.69286E-03 4.51688E-04-3.10242E-14
 -1      2804 8.61729E-03 4.16886E-04-3.06238E-14
 -1      2805 9.12811E-03 4.40734E-04-3.39746E-14
 -1      2806 8.98271E-03 4.44370E-04-3.29823E-14
 -1      2807 8.90537E-03 4.09633E-04-3.25738E-14
 -1      2808 9.41998E-03 4.34009E-04-3.59887E-14
 -1      2809 9.27383E-03 4.37246E-04-3.49767E-14
 -1      2810 9.19420E-03 4.02341E-04-3.45619E-14
 -1      2811 9.71361E-03 4.28964E-04-3.80394E-14
 -1      2812 9.56653E-03 4.31197E-04-3.70089E-14
 -1      2813 9.48401E-03 3.95741E-04-3.65853E-14
 -1      2814 1.00095E-02 4.27213E-04-4.01254E-14
 -1      2815 9.86122E-03 4.27561E-04-3.90787E-14
 -1      2816 9.77516E-03 3.90963E-04-3.86457E-14
 -1      2817 1.03082E-02 4.31031E-04-4.22461E-14
 -1      2818 1.01584E-02 4.28264E-04-4.11819E-14
 -1      2819 1.00682E-02 3.89649E-04-4.07406E-14
 -1      2820 1.06106E-02 4.43477E-04-4.43978E-14
 -1      2821 1.04589E-02 4.35955E-04-4.33191E-14
 -1      2822 1.03638E-02 3.94089E-04-4.28703E-14
 -1      2823 1.09179E-02 4.68466E-04-4.65754E-14
 -1      2824 1.07636E-02 4.54116E-04-4.54828E-14
 -1      2825 1.06633E-02 4.07348E-04-4.50277E-14
 -1      2826 1.12315E-02 5.10688E-04-4.87722E-14
 -1      2827 1.10739E-02 4.87071E-04-4.76713E-14
 -1      2828 1.09683E-02 4.33359E-04-4.72107E-14
 -1      2829 1.15528E-02 5.75202E-04-5.09854E-14
 -1      2830 1.13912E-02 5.39777E-04-4.98769E-14
 -1      2831 1.12813E-02 4.76923E-04-4.94103E-14
 -1      2832 1.18827E-02 6.66373E-04-5.32096E-14
 -1      2833 1.17169E-02 6.17152E-04-5.20979E-14
 -1      2834 1.16047E-02 5.43461E-04-5.16262E-14
 -1      2835 1.22197E-02 7.85602E-04-5.54373E-14
 -1      2836 1.20509E-02 7.22537E-04-5.43241E-14
 -1      2837 1.19404E-02 6.38173E-04-5.38502E-14
 -1      2838 1.25579E-02 9.26974E-04-5.76587E-14
 -1      2839 1.23895E-02 8.54416E-04-5.65497E-14
 -1      2840 1.22873E-02 7.63611E-04-5.60738E-14
 -1      2841 1.28859E-02 1.07115E-03-5.98760E-14
 -1      2842 1.27242E-02 1.00086E-03-5.87681E-14
 -1      2843 1.26378E-02 9.14129E-04-5.82946E-14
 -1      2844 1.31914E-02 1.18259E-03-6.20810E-14
 -1      2845 1.30421E-02 1.13430E-03-6.09806E-14
 -1      2846 1.29775E-02 1.06814E-03-6.05068E-14
 -1      2847 1.34654E-02 1.21541E-03-6.42648E-14
 -1      2848 1.33309E-02 1.21226E-03-6.31758E-14
 -1      2849 1.32888E-02 1.18270E-03-6.27057E-14
 -1      2850 1.37060E-02 1.14567E-03-6.62535E-14
 -1      2851 1.35789E-02 1.19593E-03-6.51717E-14
 -1      2852 1.35516E-02 1.20525E-03-6.47081E-14
 -1      2853 1.37891E-02 1.13468E-03-6.65150E-14
 -1      2854 1.34813E-02 1.14892E-03-6.33709E-14
 -1      2855 1.36545E-02 1.22449E-03-6.43581E-14
 -1      2856 1.39431E-02 1.15341E-03-6.68071E-14
 -1      2857 1.38712E-02 1.13670E-03-6.67272E-14
 -1      2858 1.37444E-02 1.18848E-03-6.58258E-14
 -1      2859 1.39325E-02 1.21962E-03-6.62493E-14
 -1      2860 1.43069E-02-1.32010E-03-6.95417E-14
 -1      2861 1.45431E-02-1.14521E-03-7.04728E-14
 -1      2862 1.28804E-02-9.42102E-04-6.15644E-14
 -1      2863 1.26697E-02-7.89756E-04-6.07970E-14
 -1      2864 1.17784E-02 9.51633E-05-5.76711E-14
 -1      2865 1.19280E-02 1.62937E-04-5.79668E-14
 -1      2866 1.31039E-02 9.12928E-04-6.15003E-14
 -1      2867 1.32718E-02 1.03004E-03-6.22873E-14
 -1      2868 1.32794E-02-1.24370E-03-6.32397E-14
 -1      2869 1.30975E-02-1.10409E-03-6.24339E-14
 -1      2870 1.41612E-03 4.07791E-04-7.85098E-16
 -1      2871 1.27309E-03 3.86768E-04-6.34922E-16
 -1      2872 1.47616E-03 3.82126E-04-8.99793E-16
 -1      2873 1.13241E-02-8.46271E-05-5.67594E-14
 -1      2874 1.13642E-02-6.10900E-05-5.67999E-14
 -1      2875 1.15899E-02-2.06840E-04-5.71942E-14
 -1      2876 1.14577E-02-1.57502E-04-5.68981E-14
 -1      2877 1.38748E-02-1.53384E-03-6.68374E-14
 -1      2878 1.37282E-02-1.51521E-03-6.57716E-14
 -1      2879 1.13766E-02-1.22716E-04-5.68691E-14
 -1      2880 1.13388E-02-1.07518E-04-5.67912E-14
 -1      2881 1.12965E-02-8.99161E-05-5.61171E-14
 -1      2882 1.13829E-02-1.41150E-04-5.61761E-14
 -1      2883 1.35999E-02-1.45877E-03-6.49331E-14
 -1      2884 1.34483E-02-1.36302E-03-6.40734E-14
 -1      2885 1.33207E-02-1.29986E-03-6.34414E-14
 -1      2886 1.35935E-02-1.47433E-03-6.51149E-14
 -1      2887 7.84318E-04 1.23381E-04-3.64536E-16
 -1      2888 7.81930E-04 9.99641E-05-3.72844E-16
 -1      2889 8.99524E-04 9.93852E-05-4.78147E-16
 -1      2890 9.05308E-04 1.51504E-04-4.58184E-16
 -1      2891 1.24339E-02-6.34511E-04-5.99601E-14
 -1      2892 1.22313E-02-5.12055E-04-5.93150E-14
 -1      2893 7.81671E-04-9.79287E-05-3.98648E-16
 -1      2894 7.83991E-04-1.21275E-04-3.96276E-16
 -1      2895 1.26396E-02 5.71048E-04-5.99098E-14
 -1      2896 1.28535E-02 7.29740E-04-6.05362E-14
 -1      2897 1.20145E-02-3.93861E-04-5.86189E-14
 -1      2898 1.18215E-02-3.03901E-04-5.79950E-14
 -1      2899 7.87049E-04-1.45415E-04-3.92197E-16
 -1      2900 7.90929E-04-1.70583E-04-3.86762E-16
 -1      2901 9.04821E-04-1.49010E-04-5.00305E-16
 -1      2902 8.95378E-04 1.01154E-06-5.01782E-16
 -1      2903 7.77555E-04-9.71629E-06-3.97279E-16
 -1      2904 7.77921E-04-3.13545E-05-3.99108E-16
 -1      2905 9.65958E-04 3.42413E-04-3.54344E-16
 -1      2906 8.25849E-04 2.95472E-04-2.74737E-16
 -1      2907 8.14422E-04 2.62648E-04-2.96028E-16
 -1      2908 1.08011E-03 3.61235E-04-4.48480E-16
 -1      2909 1.40158E-02-1.50291E-03-6.78077E-14
 -1      2910 1.13870E-02-3.85828E-05-5.63656E-14
 -1      2911 1.14168E-02-1.18508E-05-5.59312E-14
 -1      2912 1.13102E-02-4.87409E-05-5.56507E-14
 -1      2913 1.34752E-02-1.44768E-03-6.46035E-14
 -1      2914 1.32954E-02-1.35586E-03-6.34624E-14
 -1      2915 1.41516E-02-1.41866E-03-6.87756E-14
 -1      2916 1.29359E-02 8.17678E-04-6.06474E-14
 -1      2917 1.29900E-02 8.94235E-04-6.07606E-14
 -1      2918 1.27672E-02 7.28445E-04-5.97950E-14
 -1      2919 1.20311E-02 2.23062E-04-5.79915E-14
 -1      2920 1.21293E-02 2.88943E-04-5.80176E-14
 -1      2921 1.19063E-02 1.88365E-04-5.72088E-14
 -1      2922 1.16654E-02-2.53215E-04-5.70046E-14
 -1      2923 1.29623E-02-1.02930E-03-6.17391E-14
 -1      2924 1.21033E-02-4.62312E-04-5.85000E-14
 -1      2925 1.25336E-02-7.22582E-04-6.00322E-14
 -1      2926 1.24889E-02 4.90736E-04-5.92426E-14
 -1      2927 1.36468E-02 1.22310E-03-6.45012E-14
 -1      2928 1.37704E-02 1.24688E-03-6.50813E-14
 -1      2929 1.33512E-02 1.09998E-03-6.26950E-14
 -1      2930 1.13938E-03 3.41839E-04-5.36504E-16
 -1      2931 9.32402E-04 2.74007E-04-3.93362E-16
 -1      2932 7.78704E-04-5.31304E-05-3.99962E-16
 -1      2933 7.79927E-04-7.53110E-05-3.99732E-16
 -1      2934 8.99252E-04-9.70621E-05-5.06187E-16
 -1      2935 8.96280E-04-4.75086E-05-5.06350E-16
 -1      2936 1.38909E-02 1.24374E-03-6.58419E-14
 -1      2937 1.16631E-02 6.59212E-05-5.69145E-14
 -1      2938 7.85413E-04-1.87453E-04-3.74836E-16
 -1      2939 7.93278E-04-2.10992E-04-3.70336E-16
 -1      2940 8.94175E-04-2.33191E-04-4.53183E-16
 -1      2941 9.03388E-04-1.94869E-04-4.81616E-16
 -1      2942 1.12556E-03 3.01129E-04-5.65710E-16
 -1      2943 1.11621E-03 2.66439E-04-5.88925E-16
 -1      2944 1.10871E-03 2.33094E-04-6.09498E-16
 -1      2945 1.32155E-03 3.25465E-04-7.69011E-16
 -1      2946 2.68334E-03 4.17842E-04-3.02694E-15
 -1      2947 2.54036E-03 4.14602E-04-2.71479E-15
 -1      2948 1.82457E-03 3.81099E-04-1.41640E-15
 -1      2949 1.68122E-03 3.69506E-04-1.20864E-15
 -1      2950 1.15848E-03-2.76874E-04-7.14516E-16
 -1      2951 1.30136E-03-2.96658E-04-8.79830E-16
 -1      2952 2.39733E-03 4.10432E-04-2.42031E-15
 -1      2953 2.25424E-03 4.05220E-04-2.14256E-15
 -1      2954 2.46279E-03 3.75656E-04-2.60958E-15
 -1      2955 1.44457E-03-3.13680E-04-1.06313E-15
 -1      2956 1.58807E-03-3.28154E-04-1.26430E-15
 -1      2957 1.36541E-03-2.73069E-04-9.80945E-16
 -1      2958 1.73166E-03-3.40410E-04-1.48349E-15
 -1      2959 1.87532E-03-3.50624E-04-1.72045E-15
 -1      2960 1.65233E-03-3.00086E-04-1.38507E-15
 -1      2961 2.01898E-03-3.59125E-04-1.97529E-15
 -1      2962 2.16261E-03-3.66065E-04-2.24824E-15
 -1      2963 1.94010E-03-3.19317E-04-1.86000E-15
 -1      2964 2.30621E-03-3.71723E-04-2.53878E-15
 -1      2965 2.44975E-03-3.76225E-04-2.84694E-15
 -1      2966 2.22812E-03-3.32462E-04-2.40587E-15
 -1      2967 2.59324E-03-3.79795E-04-3.17326E-15
 -1      2968 2.73666E-03-3.82531E-04-3.51775E-15
 -1      2969 2.51607E-03-3.41029E-04-3.02274E-15
 -1      2970 2.88004E-03-3.84607E-04-3.87873E-15
 -1      2971 3.02336E-03-3.86099E-04-4.25753E-15
 -1      2972 2.80381E-03-3.46258E-04-3.70992E-15
 -1      2973 3.16663E-03-3.87137E-04-4.65426E-15
 -1      2974 3.30985E-03-3.87778E-04-5.06785E-15
 -1      2975 3.09129E-03-3.49124E-04-4.46682E-15
 -1      2976 3.45304E-03-3.88119E-04-5.49861E-15
 -1      2977 3.59618E-03-3.88200E-04-5.94567E-15
 -1      2978 3.37850E-03-3.50370E-04-5.29305E-15
 -1      2979 3.73930E-03-3.88091E-04-6.40930E-15
 -1      2980 3.88237E-03-3.87820E-04-6.88992E-15
 -1      2981 3.66544E-03-3.50546E-04-6.18567E-15
 -1      2982 4.02543E-03-3.87435E-04-7.38621E-15
 -1      2983 4.16846E-03-3.86955E-04-7.89994E-15
 -1      2984 3.95216E-03-3.50047E-04-7.14469E-15
 -1      2985 4.31147E-03-3.86412E-04-8.43057E-15
 -1      2986 4.45445E-03-3.85818E-04-8.97737E-15
 -1      2987 4.23868E-03-3.49147E-04-8.16903E-15
 -1      2988 4.59743E-03-3.85193E-04-9.54034E-15
 -1      2989 4.74038E-03-3.84542E-04-1.01195E-14
 -1      2990 4.52504E-03-3.48027E-04-9.26090E-15
 -1      2991 4.88333E-03-3.83875E-04-1.07153E-14
 -1      2992 5.02626E-03-3.83194E-04-1.13279E-14
 -1      2993 4.81125E-03-3.46794E-04-1.04175E-14
 -1      2994 5.16919E-03-3.82502E-04-1.19576E-14
 -1      2995 5.31210E-03-3.81799E-04-1.26038E-14
 -1      2996 5.09736E-03-3.45504E-04-1.16408E-14
 -1      2997 5.45502E-03-3.81080E-04-1.32673E-14
 -1      2998 5.59792E-03-3.80343E-04-1.39473E-14
 -1      2999 5.38337E-03-3.44167E-04-1.29315E-14
 -1      3000 5.74082E-03-3.79580E-04-1.46449E-14
 -1      3001 5.88371E-03-3.78785E-04-1.53586E-14
 -1      3002 5.66930E-03-3.42766E-04-1.42909E-14
 -1      3003 6.02660E-03-3.77949E-04-1.60888E-14
 -1      3004 6.16948E-03-3.77063E-04-1.68367E-14
 -1      3005 5.95517E-03-3.41256E-04-1.57171E-14
 -1      3006 6.31236E-03-3.76115E-04-1.76009E-14
 -1      3007 6.45524E-03-3.75095E-04-1.83800E-14
 -1      3008 6.24096E-03-3.39572E-04-1.72091E-14
 -1      3009 6.59811E-03-3.73988E-04-1.91755E-14
 -1      3010 6.74097E-03-3.72785E-04-1.99864E-14
 -1      3011 6.52668E-03-3.37634E-04-1.87665E-14
 -1      3012 6.88382E-03-3.71469E-04-2.08120E-14
 -1      3013 7.02667E-03-3.70028E-04-2.16525E-14
 -1      3014 6.81230E-03-3.35350E-04-2.03841E-14
 -1      3015 7.16950E-03-3.68448E-04-2.25086E-14
 -1      3016 7.31232E-03-3.66715E-04-2.33773E-14
 -1      3017 7.09780E-03-3.32617E-04-2.20623E-14
 -1      3018 7.45512E-03-3.64816E-04-2.42600E-14
 -1      3019 7.59790E-03-3.62739E-04-2.51577E-14
 -1      3020 7.38314E-03-3.29334E-04-2.37973E-14
 -1      3021 7.74065E-03-3.60473E-04-2.60688E-14
 -1      3022 7.88338E-03-3.58009E-04-2.69909E-14
 -1      3023 7.66826E-03-3.25404E-04-2.55886E-14
 -1      3024 8.02606E-03-3.55343E-04-2.79264E-14
 -1      3025 8.16870E-03-3.52469E-04-2.88756E-14
 -1      3026 7.95307E-03-3.20747E-04-2.74313E-14
 -1      3027 8.31128E-03-3.49394E-04-2.98370E-14
 -1      3028 8.45382E-03-3.46119E-04-3.08096E-14
 -1      3029 8.23748E-03-3.15322E-04-2.93253E-14
 -1      3030 8.59626E-03-3.42671E-04-3.17914E-14
 -1      3031 8.73865E-03-3.39057E-04-3.27844E-14
 -1      3032 8.52137E-03-3.09152E-04-3.12666E-14
 -1      3033 8.88092E-03-3.35332E-04-3.37856E-14
 -1      3034 9.02311E-03-3.31519E-04-3.47953E-14
 -1      3035 8.80457E-03-3.02354E-04-3.32490E-14
 -1      3036 9.16515E-03-3.27709E-04-3.58133E-14
 -1      3037 9.30711E-03-3.23946E-04-3.68397E-14
 -1      3038 9.08691E-03-2.95188E-04-3.52677E-14
 -1      3039 9.44889E-03-3.20372E-04-3.78710E-14
 -1      3040 9.59059E-03-3.17060E-04-3.89098E-14
 -1      3041 9.36820E-03-2.88114E-04-3.73149E-14
 -1      3042 9.73211E-03-3.14214E-04-3.99562E-14
 -1      3043 9.87358E-03-3.11953E-04-4.10084E-14
 -1      3044 9.64829E-03-2.81852E-04-3.93905E-14
 -1      3045 1.00149E-02-3.10551E-04-4.20674E-14
 -1      3046 1.01563E-02-3.10195E-04-4.31321E-14
 -1      3047 9.92713E-03-2.77458E-04-4.14955E-14
 -1      3048 1.02978E-02-3.11230E-04-4.42036E-14
 -1      3049 1.04395E-02-3.13950E-04-4.52799E-14
 -1      3050 1.02049E-02-2.76397E-04-4.36252E-14
 -1      3051 1.05816E-02-3.18753E-04-4.63596E-14
 -1      3052 1.07246E-02-3.26120E-04-4.74440E-14
 -1      3053 1.04823E-02-2.80615E-04-4.57779E-14
 -1      3054 1.08686E-02-3.36466E-04-4.85343E-14
 -1      3055 1.10144E-02-3.50588E-04-4.96286E-14
 -1      3056 1.07608E-02-2.92647E-04-4.79458E-14
 -1      3057 1.11625E-02-3.68822E-04-5.07272E-14
 -1      3058 1.13139E-02-3.92620E-04-5.18314E-14
 -1      3059 1.10438E-02-3.15855E-04-5.01323E-14
 -1      3060 1.14697E-02-4.22107E-04-5.29359E-14
 -1      3061 1.16312E-02-4.59963E-04-5.40454E-14
 -1      3062 1.13369E-02-3.55042E-04-5.23382E-14
 -1      3063 1.18000E-02-5.05885E-04-5.51620E-14
 -1      3064 1.19773E-02-5.64572E-04-5.62787E-14
 -1      3065 1.16498E-02-4.18088E-04-5.45591E-14
 -1      3066 1.57308E-03 3.56977E-04-1.06661E-15
 -1      3067 1.42967E-03 3.41303E-04-8.89357E-16
 -1      3068 1.41997E-03 3.03347E-04-9.19173E-16
 -1      3069 1.63628E-03 3.29145E-04-1.19260E-15
 -1      3070 3.25492E-03 4.24412E-04-4.44965E-15
 -1      3071 3.11207E-03 4.23524E-04-4.06789E-15
 -1      3072 3.54059E-03 4.25211E-04-5.26501E-15
 -1      3073 3.39777E-03 4.24959E-04-4.84876E-15
 -1      3074 3.32307E-03 3.87242E-04-4.70187E-15
 -1      3075 3.82622E-03 4.25094E-04-6.15126E-15
 -1      3076 3.68341E-03 4.25245E-04-5.69920E-15
 -1      3077 3.60945E-03 3.87751E-04-5.53754E-15
 -1      3078 4.11184E-03 4.24416E-04-7.10712E-15
 -1      3079 3.96904E-03 4.24810E-04-6.62095E-15
 -1      3080 3.89569E-03 3.87478E-04-6.44329E-15
 -1      3081 4.39745E-03 4.23419E-04-8.13393E-15
 -1      3082 4.25465E-03 4.23948E-04-7.61153E-15
 -1      3083 4.18181E-03 3.86735E-04-7.41825E-15
 -1      3084 4.68308E-03 4.22253E-04-9.23012E-15
 -1      3085 4.54027E-03 4.22851E-04-8.67314E-15
 -1      3086 4.46783E-03 3.85729E-04-8.46330E-15
 -1      3087 4.96872E-03 4.21004E-04-1.03941E-14
 -1      3088 4.82590E-03 4.21636E-04-9.80407E-15
 -1      3089 4.75379E-03 3.84587E-04-9.57844E-15
 -1      3090 5.25437E-03 4.19703E-04-1.16235E-14
 -1      3091 5.11154E-03 4.20359E-04-1.10004E-14
 -1      3092 5.03968E-03 3.83377E-04-1.07602E-14
 -1      3093 5.54005E-03 4.18345E-04-1.29214E-14
 -1      3094 5.39721E-03 4.19032E-04-1.22639E-14
 -1      3095 5.32554E-03 3.82120E-04-1.20085E-14
 -1      3096 5.82574E-03 4.16892E-04-1.42870E-14
 -1      3097 5.68289E-03 4.17633E-04-1.35962E-14
 -1      3098 5.61136E-03 3.80802E-04-1.33246E-14
 -1      3099 6.11147E-03 4.15285E-04-1.57175E-14
 -1      3100 5.96860E-03 4.16112E-04-1.49940E-14
 -1      3101 5.89716E-03 3.79381E-04-1.47072E-14
 -1      3102 6.39722E-03 4.13443E-04-1.72124E-14
 -1      3103 6.25434E-03 4.14398E-04-1.64571E-14
 -1      3104 6.18293E-03 3.77794E-04-1.61548E-14
 -1      3105 6.68300E-03 4.11273E-04-1.87693E-14
 -1      3106 6.54010E-03 4.12405E-04-1.79835E-14
 -1      3107 6.46867E-03 3.75961E-04-1.76666E-14
 -1      3108 6.96882E-03 4.08668E-04-2.03823E-14
 -1      3109 6.82590E-03 4.10031E-04-1.95687E-14
 -1      3110 6.75439E-03 3.73787E-04-1.92373E-14
 -1      3111 7.25469E-03 4.05520E-04-2.20563E-14
 -1      3112 7.11175E-03 4.07168E-04-2.12120E-14
 -1      3113 7.04007E-03 3.71170E-04-2.08667E-14
 -1      3114 7.54062E-03 4.01723E-04-2.37826E-14
 -1      3115 7.39764E-03 4.03708E-04-2.29122E-14
 -1      3116 7.32569E-03 3.68004E-04-2.25542E-14
 -1      3117 7.82661E-03 3.97190E-04-2.55622E-14
 -1      3118 7.68360E-03 3.99553E-04-2.46669E-14
 -1      3119 7.61124E-03 3.64189E-04-2.42970E-14
 -1      3120 8.11270E-03 3.91865E-04-2.73927E-14
 -1      3121 7.96964E-03 3.94628E-04-2.64719E-14
 -1      3122 7.89670E-03 3.59643E-04-2.60897E-14
 -1      3123 8.39890E-03 3.85755E-04-2.92681E-14
 -1      3124 8.25577E-03 3.88906E-04-2.83239E-14
 -1      3125 8.18203E-03 3.54323E-04-2.79328E-14
 -1      3126 8.68526E-03 3.78966E-04-3.11884E-14
 -1      3127 8.54205E-03 3.82437E-04-3.02226E-14
 -1      3128 8.46722E-03 3.48245E-04-2.98212E-14
 -1      3129 8.97185E-03 3.71747E-04-3.31498E-14
 -1      3130 8.82851E-03 3.75392E-04-3.21642E-14
 -1      3131 8.75224E-03 3.41527E-04-3.17533E-14
 -1      3132 9.25878E-03 3.64557E-04-3.51491E-14
 -1      3133 9.11525E-03 3.68116E-04-3.41445E-14
 -1      3134 9.03711E-03 3.34430E-04-3.37265E-14
 -1      3135 9.54626E-03 3.58144E-04-3.71831E-14
 -1      3136 9.40242E-03 3.61201E-04-3.61612E-14
 -1      3137 9.32190E-03 3.27417E-04-3.57361E-14
 -1      3138 9.83463E-03 3.53639E-04-3.92515E-14
 -1      3139 9.69029E-03 3.55572E-04-3.82129E-14
 -1      3140 9.60679E-03 3.21228E-04-3.77803E-14
 -1      3141 1.01245E-02 3.52669E-04-4.13551E-14
 -1      3142 9.97931E-03 3.52593E-04-4.02991E-14
 -1      3143 9.89212E-03 3.16963E-04-3.98575E-14
 -1      3144 1.04168E-02 3.57480E-04-4.34946E-14
 -1      3145 1.02703E-02 3.54180E-04-4.24208E-14
 -1      3146 1.01786E-02 3.16184E-04-4.19714E-14
 -1      3147 1.07132E-02 3.71076E-04-4.56588E-14
 -1      3148 1.05644E-02 3.62938E-04-4.45734E-14
 -1      3149 1.04674E-02 3.21031E-04-4.41180E-14
 -1      3150 1.10161E-02 3.97354E-04-4.78459E-14
 -1      3151 1.08637E-02 3.82291E-04-4.67496E-14
 -1      3152 1.07606E-02 3.34373E-04-4.62890E-14
 -1      3153 1.13286E-02 4.41244E-04-5.00488E-14
 -1      3154 1.11710E-02 4.16638E-04-4.89458E-14
 -1      3155 1.10612E-02 3.60033E-04-4.84804E-14
 -1      3156 1.16547E-02 5.08706E-04-5.22663E-14
 -1      3157 1.14899E-02 4.71446E-04-5.11562E-14
 -1      3158 1.13735E-02 4.03127E-04-5.06867E-14
 -1      3159 1.19975E-02 6.06209E-04-5.44876E-14
 -1      3160 1.18242E-02 5.53084E-04-5.33768E-14
 -1      3161 1.17028E-02 4.70486E-04-5.29033E-14
 -1      3162 1.23565E-02 7.38442E-04-5.67098E-14
 -1      3163 1.21758E-02 6.67782E-04-5.55993E-14
 -1      3164 1.20539E-02 5.70816E-04-5.51224E-14
 -1      3165 1.27235E-02 9.00569E-04-5.89253E-14
 -1      3166 1.25408E-02 8.16795E-04-5.78188E-14
 -1      3167 1.24272E-02 7.11756E-04-5.73424E-14
 -1      3168 1.30183E-02 1.00298E-03-6.07602E-14
 -1      3169 1.28324E-02 9.09907E-04-5.96545E-14
 -1      3170 1.34846E-02 1.19803E-03-6.37902E-14
 -1      3171 1.33254E-02 1.15144E-03-6.26955E-14
 -1      3172 1.36211E-02 1.21349E-03-6.46998E-14
 -1      3173 2.11109E-03 3.98721E-04-1.88285E-15
 -1      3174 1.96786E-03 3.90786E-04-1.64099E-15
 -1      3175 1.88822E-03 3.50369E-04-1.56175E-15
 -1      3176 2.17559E-03 3.65619E-04-2.05099E-15
 -1      3177 1.37917E-02 1.22158E-03-6.56315E-14
 -1      3178 1.01646E-03 6.81927E-05-6.05933E-16
 -1      3179 1.01529E-03 4.12160E-05-6.12940E-16
 -1      3180 1.17492E-02-3.13855E-04-5.67582E-14
 -1      3181 1.15386E-02-2.27504E-04-5.59602E-14
 -1      3182 1.21744E-02-5.31289E-04-5.83325E-14
 -1      3183 1.19813E-02-4.25787E-04-5.76379E-14
 -1      3184 1.32015E-02-1.25389E-03-6.28295E-14
 -1      3185 1.26163E-02-8.11780E-04-6.00676E-14
 -1      3186 1.24089E-02-6.73835E-04-5.92299E-14
 -1      3187 1.15506E-02 4.71134E-05-5.60584E-14
 -1      3188 1.16835E-02 1.03324E-04-5.63265E-14
 -1      3189 1.23342E-02 4.17927E-04-5.84592E-14
 -1      3190 1.25225E-02 5.56759E-04-5.89005E-14
 -1      3191 1.21862E-02 3.63015E-04-5.76757E-14
 -1      3192 2.96919E-03 4.22189E-04-3.70313E-15
 -1      3193 2.82629E-03 4.20343E-04-3.35623E-15
 -1      3194 2.74976E-03 3.81921E-04-3.23764E-15
 -1      3195 1.01469E-03 1.44468E-05-6.18402E-16
 -1      3196 1.01466E-03-1.22218E-05-6.22590E-16
 -1      3197 1.13536E-03 3.01621E-05-7.46663E-16
 -1      3198 3.03652E-03 3.85505E-04-3.93532E-15
 -1      3199 9.95847E-04-2.53955E-04-5.45191E-16
 -1      3200 1.12565E-02-6.48520E-05-5.52358E-14
 -1      3201 1.12523E-02-4.55562E-05-5.48031E-14
 -1      3202 1.18145E-02-3.74165E-04-5.65887E-14
 -1      3203 1.14283E-02 2.07533E-05-5.53453E-14
 -1      3204 1.21712E-02-6.41903E-04-5.74002E-14
 -1      3205 1.23693E-02-7.31188E-04-5.85198E-14
 -1      3206 1.26428E-02-8.62324E-04-6.00028E-14
 -1      3207 1.28636E-02-9.93084E-04-6.11308E-14
 -1      3208 1.31595E-02 1.06847E-03-6.16122E-14
 -1      3209 1.10260E-03 2.01092E-04-6.27618E-16
 -1      3210 1.09777E-03 1.70170E-04-6.43298E-16
 -1      3211 1.30411E-03 2.52920E-04-8.20606E-16
 -1      3212 1.22620E-02-5.93288E-04-5.85564E-14
 -1      3213 1.21233E-02-5.48081E-04-5.76900E-14
 -1      3214 1.01828E-03 9.54522E-05-5.97436E-16
 -1      3215 1.13804E-03 8.85585E-05-7.30373E-16
 -1      3216 1.02075E-03 1.23239E-04-5.87231E-16
 -1      3217 1.14593E-02-2.26984E-04-5.50373E-14
 -1      3218 1.14033E-02-1.80925E-04-5.52825E-14
 -1      3219 1.12683E-02-1.47434E-04-5.43378E-14
 -1      3220 1.13314E-02-1.42318E-04-5.52588E-14
 -1      3221 1.12754E-02-1.13616E-04-5.52303E-14
 -1      3222 1.17630E-02 1.49694E-04-5.63525E-14
 -1      3223 1.18425E-02 2.01573E-04-5.63771E-14
 -1      3224 1.16313E-02 1.24667E-04-5.54965E-14
 -1      3225 1.02360E-03-1.49062E-04-6.21831E-16
 -1      3226 1.02767E-03-1.78300E-04-6.16504E-16
 -1      3227 1.12498E-02-8.45706E-05-5.52680E-14
 -1      3228 1.01801E-03-9.29608E-05-6.26669E-16
 -1      3229 1.02040E-03-1.20667E-04-6.25192E-16
 -1      3230 1.14319E-03-1.45855E-04-7.56245E-16
 -1      3231 1.05994E-03-2.36977E-04-6.24839E-16
 -1      3232 1.30468E-02-1.13521E-03-6.20011E-14
 -1      3233 1.20037E-02-5.26248E-04-5.67914E-14
 -1      3234 3.67871E-03 3.50102E-04-5.81214E-15
 -1      3235 3.53525E-03 3.50073E-04-5.37575E-15
 -1      3236 1.28769E-03-2.33996E-04-9.00186E-16
 -1      3237 1.43056E-03-2.48321E-04-1.08530E-15
 -1      3238 1.57395E-03-2.60647E-04-1.28764E-15
 -1      3239 1.71775E-03-2.71121E-04-1.50823E-15
 -1      3240 1.49663E-03-2.22300E-04-1.19222E-15
 -1      3241 1.86178E-03-2.79961E-04-1.74611E-15
 -1      3242 2.00599E-03-2.87302E-04-2.00137E-15
 -1      3243 1.78415E-03-2.41245E-04-1.63358E-15
 -1      3244 2.15029E-03-2.93373E-04-2.27441E-15
 -1      3245 2.29463E-03-2.98294E-04-2.56490E-15
 -1      3246 2.07285E-03-2.54600E-04-2.14459E-15
 -1      3247 2.43897E-03-3.02265E-04-2.87320E-15
 -1      3248 2.58327E-03-3.05383E-04-3.19937E-15
 -1      3249 2.36203E-03-2.63606E-04-2.72575E-15
 -1      3250 2.72752E-03-3.07812E-04-3.54216E-15
 -1      3251 2.87170E-03-3.09628E-04-3.90272E-15
 -1      3252 2.65126E-03-2.69341E-04-3.37616E-15
 -1      3253 3.01581E-03-3.10962E-04-4.28112E-15
 -1      3254 3.15983E-03-3.11870E-04-4.67657E-15
 -1      3255 2.94027E-03-2.72700E-04-4.09673E-15
 -1      3256 3.30378E-03-3.12451E-04-5.08897E-15
 -1      3257 3.44763E-03-3.12746E-04-5.51767E-15
 -1      3258 3.22895E-03-2.74393E-04-4.88615E-15
 -1      3259 3.59140E-03-3.12829E-04-5.96325E-15
 -1      3260 3.73509E-03-3.12728E-04-6.42536E-15
 -1      3261 3.51723E-03-2.74958E-04-5.74248E-15
 -1      3262 3.87871E-03-3.12496E-04-6.90401E-15
 -1      3263 4.02225E-03-3.12152E-04-7.39813E-15
 -1      3264 3.80512E-03-2.74792E-04-6.66454E-15
 -1      3265 4.16573E-03-3.11734E-04-7.90963E-15
 -1      3266 4.30914E-03-3.11252E-04-8.43801E-15
 -1      3267 4.09263E-03-2.74177E-04-7.65222E-15
 -1      3268 4.45249E-03-3.10730E-04-8.98275E-15
 -1      3269 4.59579E-03-3.10175E-04-9.54399E-15
 -1      3270 4.37982E-03-2.73302E-04-8.70622E-15
 -1      3271 4.73904E-03-3.09600E-04-1.01215E-14
 -1      3272 4.88224E-03-3.09009E-04-1.07156E-14
 -1      3273 4.66671E-03-2.72290E-04-9.82713E-15
 -1      3274 5.02541E-03-3.08407E-04-1.13264E-14
 -1      3275 5.16853E-03-3.07794E-04-1.19539E-14
 -1      3276 4.95335E-03-2.71209E-04-1.10140E-14
 -1      3277 5.31162E-03-3.07171E-04-1.25987E-14
 -1      3278 5.45468E-03-3.06534E-04-1.32605E-14
 -1      3279 5.23978E-03-2.70086E-04-1.22671E-14
 -1      3280 5.59770E-03-3.05881E-04-1.39387E-14
 -1      3281 5.74070E-03-3.05206E-04-1.46346E-14
 -1      3282 5.52602E-03-2.68918E-04-1.35887E-14
 -1      3283 5.88366E-03-3.04502E-04-1.53470E-14
 -1      3284 6.02660E-03-3.03762E-04-1.60752E-14
 -1      3285 5.81210E-03-2.67678E-04-1.49777E-14
 -1      3286 6.16950E-03-3.02977E-04-1.68204E-14
 -1      3287 6.31238E-03-3.02139E-04-1.75824E-14
 -1      3288 6.09801E-03-2.66319E-04-1.64341E-14
 -1      3289 6.45522E-03-3.01236E-04-1.83600E-14
 -1      3290 6.59802E-03-3.00259E-04-1.91525E-14
 -1      3291 6.38374E-03-2.64781E-04-1.79551E-14
 -1      3292 6.74078E-03-2.99196E-04-1.99601E-14
 -1      3293 6.88349E-03-2.98035E-04-2.07823E-14
 -1      3294 6.66927E-03-2.62990E-04-1.95379E-14
 -1      3295 7.02614E-03-2.96765E-04-2.16200E-14
 -1      3296 7.16874E-03-2.95372E-04-2.24719E-14
 -1      3297 6.95454E-03-2.60865E-04-2.11804E-14
 -1      3298 7.31126E-03-2.93847E-04-2.33378E-14
 -1      3299 7.45370E-03-2.92176E-04-2.42176E-14
 -1      3300 7.23949E-03-2.58320E-04-2.28802E-14
 -1      3301 7.59604E-03-2.90352E-04-2.51111E-14
 -1      3302 7.73827E-03-2.88361E-04-2.60186E-14
 -1      3303 7.52401E-03-2.55271E-04-2.46367E-14
 -1      3304 7.88037E-03-2.86203E-04-2.69377E-14
 -1      3305 8.02233E-03-2.83864E-04-2.78699E-14
 -1      3306 7.80797E-03-2.51646E-04-2.64467E-14
 -1      3307 8.16411E-03-2.81353E-04-2.88151E-14
 -1      3308 8.30572E-03-2.78659E-04-2.97738E-14
 -1      3309 8.09119E-03-2.47397E-04-2.83078E-14
 -1      3310 8.44710E-03-2.75806E-04-3.07436E-14
 -1      3311 8.58825E-03-2.72788E-04-3.17231E-14
 -1      3312 8.37346E-03-2.42517E-04-3.02213E-14
 -1      3313 8.72910E-03-2.69649E-04-3.27135E-14
 -1      3314 8.86967E-03-2.66389E-04-3.37132E-14
 -1      3315 8.65451E-03-2.37066E-04-3.21800E-14
 -1      3316 9.00987E-03-2.63083E-04-3.47215E-14
 -1      3317 9.14973E-03-2.59741E-04-3.57375E-14
 -1      3318 8.93405E-03-2.31200E-04-3.41771E-14
 -1      3319 9.28914E-03-2.56474E-04-3.67611E-14
 -1      3320 9.42815E-03-2.53307E-04-3.77909E-14
 -1      3321 9.21171E-03-2.25207E-04-3.62063E-14
 -1      3322 9.56664E-03-2.50397E-04-3.88281E-14
 -1      3323 9.70467E-03-2.47790E-04-3.98734E-14
 -1      3324 9.48712E-03-2.19544E-04-3.82663E-14
 -1      3325 9.84213E-03-2.45693E-04-4.09260E-14
 -1      3326 9.97913E-03-2.44180E-04-4.19838E-14
 -1      3327 9.75991E-03-2.14877E-04-4.03558E-14
 -1      3328 1.01156E-02-2.43508E-04-4.30474E-14
 -1      3329 1.02516E-02-2.43793E-04-4.41195E-14
 -1      3330 1.00298E-02-2.12098E-04-4.24714E-14
 -1      3331 1.03872E-02-2.45329E-04-4.51952E-14
 -1      3332 1.05228E-02-2.48301E-04-4.62738E-14
 -1      3333 1.02968E-02-2.12332E-04-4.46119E-14
 -1      3334 1.06581E-02-2.52998E-04-4.73589E-14
 -1      3335 1.07940E-02-2.59783E-04-4.84474E-14
 -1      3336 1.05612E-02-2.16908E-04-4.67714E-14
 -1      3337 1.09305E-02-2.68891E-04-4.95424E-14
 -1      3338 1.10687E-02-2.81058E-04-5.06408E-14
 -1      3339 1.08242E-02-2.27368E-04-4.89502E-14
 -1      3340 1.12087E-02-2.96205E-04-5.17423E-14
 -1      3341 1.13527E-02-3.16209E-04-5.28491E-14
 -1      3342 1.10888E-02-2.45761E-04-5.11460E-14
 -1      3343 1.25775E-02 6.17072E-04-5.89282E-14
 -1      3344 1.26515E-02 7.05139E-04-5.90391E-14
 -1      3345 3.96546E-03 3.49719E-04-6.73727E-15
 -1      3346 3.82211E-03 3.49977E-04-6.26585E-15
 -1      3347 3.74834E-03 3.12314E-04-6.08857E-15
 -1      3348 3.39172E-03 3.49829E-04-4.95690E-15
 -1      3349 3.24813E-03 3.49337E-04-4.55492E-15
 -1      3350 3.46084E-03 3.12229E-04-5.21382E-15
 -1      3351 4.25200E-03 3.48947E-04-7.73036E-15
 -1      3352 4.10876E-03 3.49371E-04-7.22522E-15
 -1      3353 4.03552E-03 3.11858E-04-7.03228E-15
 -1      3354 4.53838E-03 3.47962E-04-8.79518E-15
 -1      3355 4.39521E-03 3.48475E-04-8.25413E-15
 -1      3356 4.32243E-03 3.11087E-04-8.04524E-15
 -1      3357 4.82461E-03 3.46868E-04-9.92815E-15
 -1      3358 4.68152E-03 3.47425E-04-9.35249E-15
 -1      3359 4.60909E-03 3.10147E-04-9.12779E-15
 -1      3360 5.11073E-03 3.45718E-04-1.11277E-14
 -1      3361 4.96769E-03 3.46300E-04-1.05200E-14
 -1      3362 4.89556E-03 3.09121E-04-1.02794E-14
 -1      3363 5.39675E-03 3.44523E-04-1.23946E-14
 -1      3364 5.25375E-03 3.45127E-04-1.17527E-14
 -1      3365 5.18185E-03 3.08047E-04-1.14979E-14
 -1      3366 5.68269E-03 3.43262E-04-1.37294E-14
 -1      3367 5.53973E-03 3.43903E-04-1.30530E-14
 -1      3368 5.46800E-03 3.06929E-04-1.27827E-14
 -1      3369 5.96855E-03 3.41891E-04-1.51283E-14
 -1      3370 5.82563E-03 3.42594E-04-1.44211E-14
 -1      3371 5.75402E-03 3.05742E-04-1.41344E-14
 -1      3372 6.25433E-03 3.40345E-04-1.65938E-14
 -1      3373 6.11145E-03 3.41144E-04-1.58532E-14
 -1      3374 6.03992E-03 3.04437E-04-1.55522E-14
 -1      3375 6.54004E-03 3.38544E-04-1.81205E-14
 -1      3376 6.39720E-03 3.39481E-04-1.73486E-14
 -1      3377 6.32569E-03 3.02953E-04-1.70340E-14
 -1      3378 6.82564E-03 3.36398E-04-1.97062E-14
 -1      3379 6.68285E-03 3.37520E-04-1.89064E-14
 -1      3380 6.61131E-03 3.01212E-04-1.85752E-14
 -1      3381 7.11112E-03 3.33806E-04-2.13519E-14
 -1      3382 6.96840E-03 3.35164E-04-2.05216E-14
 -1      3383 6.89675E-03 2.99126E-04-2.01770E-14
 -1      3384 7.39643E-03 3.30669E-04-2.30542E-14
 -1      3385 7.25379E-03 3.32312E-04-2.21962E-14
 -1      3386 7.18198E-03 2.96602E-04-2.18381E-14
 -1      3387 7.68152E-03 3.26894E-04-2.48109E-14
 -1      3388 7.53900E-03 3.28867E-04-2.39258E-14
 -1      3389 7.46690E-03 2.93546E-04-2.35570E-14
 -1      3390 7.96633E-03 3.22406E-04-2.66186E-14
 -1      3391 7.82396E-03 3.24744E-04-2.57088E-14
 -1      3392 7.75146E-03 2.89872E-04-2.53279E-14
 -1      3393 8.25079E-03 3.17171E-04-2.84730E-14
 -1      3394 8.10860E-03 3.19885E-04-2.75403E-14
 -1      3395 8.03553E-03 2.85515E-04-2.71470E-14
 -1      3396 8.53481E-03 3.11216E-04-3.03744E-14
 -1      3397 8.39285E-03 3.14282E-04-2.94184E-14
 -1      3398 8.31900E-03 2.80449E-04-2.90147E-14
 -1      3399 8.81834E-03 3.04663E-04-3.23206E-14
 -1      3400 8.67663E-03 3.08007E-04-3.13423E-14
 -1      3401 8.60173E-03 2.74706E-04-3.09300E-14
 -1      3402 9.10131E-03 2.97776E-04-3.43036E-14
 -1      3403 8.95988E-03 3.01245E-04-3.33069E-14
 -1      3404 8.88360E-03 2.68411E-04-3.28876E-14
 -1      3405 9.38375E-03 2.91008E-04-3.63253E-14
 -1      3406 9.24258E-03 2.94348E-04-3.53107E-14
 -1      3407 9.16450E-03 2.61816E-04-3.48828E-14
 -1      3408 9.66581E-03 2.85066E-04-3.83767E-14
 -1      3409 9.52479E-03 2.87886E-04-3.73461E-14
 -1      3410 9.44440E-03 2.55345E-04-3.69117E-14
 -1      3411 9.94786E-03 2.80983E-04-4.04647E-14
 -1      3412 9.80678E-03 2.82719E-04-3.94171E-14
 -1      3413 9.72343E-03 2.49648E-04-3.89749E-14
 -1      3414 1.02307E-02 2.80207E-04-4.25876E-14
 -1      3415 1.00891E-02 2.80072E-04-4.15222E-14
 -1      3416 1.00019E-02 2.45652E-04-4.10726E-14
 -1      3417 1.05157E-02 2.84710E-04-4.47416E-14
 -1      3418 1.03728E-02 2.81635E-04-4.36608E-14
 -1      3419 1.02808E-02 2.44636E-04-4.32037E-14
 -1      3420 1.08051E-02 2.97165E-04-4.69184E-14
 -1      3421 1.06596E-02 2.89695E-04-4.58268E-14
 -1      3422 1.05615E-02 2.48338E-04-4.53635E-14
 -1      3423 1.11028E-02 3.21263E-04-4.91140E-14
 -1      3424 1.09526E-02 3.07362E-04-4.80146E-14
 -1      3425 1.08467E-02 2.59146E-04-4.75473E-14
 -1      3426 1.14141E-02 3.62326E-04-5.13229E-14
 -1      3427 1.12564E-02 3.39045E-04-5.02179E-14
 -1      3428 1.11407E-02 2.80575E-04-4.97470E-14
 -1      3429 1.17460E-02 4.28283E-04-5.35376E-14
 -1      3430 1.15772E-02 3.91235E-04-5.24289E-14
 -1      3431 1.14501E-02 3.18190E-04-5.19562E-14
 -1      3432 1.21055E-02 5.30473E-04-5.57570E-14
 -1      3433 1.19224E-02 4.73470E-04-5.46475E-14
 -1      3434 1.17838E-02 3.81407E-04-5.41707E-14
 -1      3435 1.25546E-02 7.05537E-04-5.83100E-14
 -1      3436 1.23555E-02 6.19477E-04-5.72036E-14
 -1      3437 1.27236E-02 8.01664E-04-5.91777E-14
 -1      3438 1.37083E-02 1.20780E-03-6.54194E-14
 -1      3439 1.23408E-02-6.79427E-04-5.85879E-14
 -1      3440 1.14990E-02-2.72925E-04-5.47380E-14
 -1      3441 1.13632E-02-2.24158E-04-5.40621E-14
 -1      3442 2.81695E-03 3.45615E-04-3.45196E-15
 -1      3443 2.67309E-03 3.43364E-04-3.11873E-15
 -1      3444 1.13097E-02 2.88723E-06-5.44660E-14
 -1      3445 1.14183E-02 5.41031E-05-5.45928E-14
 -1      3446 1.20105E-02 3.02605E-04-5.67122E-14
 -1      3447 1.21837E-02 4.15469E-04-5.71527E-14
 -1      3448 1.01518E-03-3.89192E-05-6.25381E-16
 -1      3449 1.01628E-03-6.57517E-05-6.26669E-16
 -1      3450 1.13778E-03-8.59547E-05-7.59809E-16
 -1      3451 1.06451E-03-2.15874E-04-6.40736E-16
 -1      3452 2.52916E-03 3.40407E-04-2.80268E-15
 -1      3453 2.38518E-03 3.36660E-04-2.50418E-15
 -1      3454 2.59637E-03 3.04746E-04-2.99889E-15
 -1      3455 1.11930E-02-8.74316E-05-5.43513E-14
 -1      3456 1.24235E-02 5.47378E-04-5.81429E-14
 -1      3457 3.10447E-03 3.48513E-04-4.17006E-15
 -1      3458 2.96075E-03 3.47310E-04-3.80209E-15
 -1      3459 3.17301E-03 3.11275E-04-4.40738E-15
 -1      3460 1.11652E-02-3.74592E-05-5.36392E-14
 -1      3461 1.12293E-02-2.02971E-05-5.40533E-14
 -1      3462 1.12040E-02 8.23652E-06-5.33040E-14
 -1      3463 1.22090E-02 5.03316E-04-5.67251E-14
 -1      3464 1.12050E-02-1.57177E-04-5.33903E-14
 -1      3465 1.11584E-02-1.25811E-04-5.33675E-14
 -1      3466 1.18402E-03-2.15403E-04-7.79718E-16
 -1      3467 1.25014E-03-1.93742E-04-8.70492E-16
 -1      3468 1.13528E-03-2.76880E-05-7.56353E-16
 -1      3469 1.21772E-03 1.66222E-04-7.82333E-16
 -1      3470 1.51978E-03 2.79008E-04-1.08022E-15
 -1      3471 1.41179E-03 2.66527E-04-9.45506E-16
 -1      3472 1.40502E-03 2.30512E-04-9.69372E-16
 -1      3473 1.24208E-03-1.29007E-04-8.79058E-16
 -1      3474 1.24561E-03-1.61029E-04-8.75697E-16
 -1      3475 1.34873E-03-1.76150E-04-1.00412E-15
 -1      3476 1.18840E-02-4.44526E-04-5.64453E-14
 -1      3477 1.16746E-02-3.44094E-04-5.55715E-14
 -1      3478 1.25071E-02-8.10436E-04-5.91965E-14
 -1      3479 1.13078E-02-2.62461E-04-5.30045E-14
 -1      3480 1.14442E-02-3.24181E-04-5.36045E-14
 -1      3481 2.88484E-03 3.08989E-04-3.66902E-15
 -1      3482 1.15962E-02-3.53244E-04-5.47186E-14
 -1      3483 1.73630E-03 3.00937E-04-1.37671E-15
 -1      3484 1.62795E-03 2.90456E-04-1.22363E-15
 -1      3485 1.62082E-03 2.52333E-04-1.25183E-15
 -1      3486 1.19295E-02-4.74938E-04-5.65697E-14
 -1      3487 1.12254E-02-1.91780E-04-5.30904E-14
 -1      3488 1.88022E-03 3.10225E-04-1.59786E-15
 -1      3489 2.24117E-03 3.31930E-04-2.22232E-15
 -1      3490 2.09712E-03 3.26130E-04-1.95811E-15
 -1      3491 2.30768E-03 2.97724E-04-2.39727E-15
 -1      3492 1.26104E-03 1.10537E-04-8.65749E-16
 -1      3493 1.25882E-03 7.90559E-05-8.77106E-16
 -1      3494 1.11290E-02-9.30506E-05-5.34079E-14
 -1      3495 1.11259E-02-6.62236E-05-5.34457E-14
 -1      3496 1.10593E-02-1.01810E-04-5.24640E-14
 -1      3497 1.22386E-02 4.72447E-04-5.71795E-14
 -1      3498 1.13382E-02 6.17544E-05-5.37430E-14
 -1      3499 1.14768E-02 8.73370E-05-5.46199E-14
 -1      3500 1.15384E-02 1.24783E-04-5.46460E-14
 -1      3501 1.18561E-02 2.57669E-04-5.58568E-14
 -1      3502 1.10774E-02-4.39915E-05-5.26988E-14
 -1      3503 1.38050E-03 6.70800E-05-1.03738E-15
 -1      3504 1.25734E-03 4.77792E-05-8.86498E-16
 -1      3505 1.25660E-03 1.67183E-05-8.93870E-16
 -1      3506 1.19888E-02 3.92849E-04-5.57349E-14
 -1      3507 1.25656E-03-1.42107E-05-8.99522E-16
 -1      3508 1.25721E-03-4.51899E-05-9.03357E-16
 -1      3509 1.37889E-03 1.28929E-06-1.05432E-15
 -1      3510 1.49146E-03-1.86339E-04-1.19872E-15
 -1      3511 2.95343E-03 2.72040E-04-3.88834E-15
 -1      3512 2.80895E-03 2.70603E-04-3.53457E-15
 -1      3513 1.70736E-03-2.03449E-04-1.52259E-15
 -1      3514 1.85152E-03-2.10452E-04-1.76088E-15
 -1      3515 1.99598E-03-2.16346E-04-2.01671E-15
 -1      3516 2.14065E-03-2.21208E-04-2.28958E-15
 -1      3517 1.91976E-03-1.78760E-04-1.89025E-15
 -1      3518 2.28545E-03-2.25197E-04-2.57994E-15
 -1      3519 2.43031E-03-2.28394E-04-2.88760E-15
 -1      3520 2.20931E-03-1.87155E-04-2.43628E-15
 -1      3521 2.57518E-03-2.30941E-04-3.21290E-15
 -1      3522 2.72002E-03-2.32903E-04-3.55491E-15
 -1      3523 2.49938E-03-1.92701E-04-3.05086E-15
 -1      3524 2.86481E-03-2.34398E-04-3.91435E-15
 -1      3525 3.00951E-03-2.35476E-04-4.29181E-15
 -1      3526 2.78949E-03-1.96121E-04-3.73468E-15
 -1      3527 3.15411E-03-2.36232E-04-4.68545E-15
 -1      3528 3.29861E-03-2.36699E-04-5.09622E-15
 -1      3529 3.07935E-03-1.98011E-04-4.48648E-15
 -1      3530 3.44301E-03-2.36953E-04-5.52332E-15
 -1      3531 3.58728E-03-2.37015E-04-5.96676E-15
 -1      3532 3.36879E-03-1.98841E-04-5.30592E-15
 -1      3533 3.73145E-03-2.36942E-04-6.42730E-15
 -1      3534 3.87550E-03-2.36749E-04-6.90375E-15
 -1      3535 3.65775E-03-1.98964E-04-6.19140E-15
 -1      3536 4.01945E-03-2.36475E-04-7.39652E-15
 -1      3537 4.16330E-03-2.36129E-04-7.90626E-15
 -1      3538 3.94622E-03-1.98639E-04-7.14272E-15
 -1      3539 4.30705E-03-2.35739E-04-8.43241E-15
 -1      3540 4.45071E-03-2.35309E-04-8.97515E-15
 -1      3541 4.23422E-03-1.98045E-04-8.15981E-15
 -1      3542 4.59429E-03-2.34857E-04-9.53358E-15
 -1      3543 4.73779E-03-2.34384E-04-1.01097E-14
 -1      3544 4.52180E-03-1.97302E-04-9.24292E-15
 -1      3545 4.88121E-03-2.33901E-04-1.07032E-14
 -1      3546 5.02457E-03-2.33405E-04-1.13121E-14
 -1      3547 4.80901E-03-1.96481E-04-1.03931E-14
 -1      3548 5.16787E-03-2.32903E-04-1.19377E-14
 -1      3549 5.31110E-03-2.32390E-04-1.25805E-14
 -1      3550 5.09589E-03-1.95619E-04-1.16105E-14
 -1      3551 5.45428E-03-2.31868E-04-1.32399E-14
 -1      3552 5.59741E-03-2.31330E-04-1.39164E-14
 -1      3553 5.38249E-03-1.94725E-04-1.28934E-14
 -1      3554 5.74048E-03-2.30775E-04-1.46118E-14
 -1      3555 5.88351E-03-2.30197E-04-1.53218E-14
 -1      3556 5.66882E-03-1.93788E-04-1.42459E-14
 -1      3557 6.02648E-03-2.29589E-04-1.60489E-14
 -1      3558 6.16939E-03-2.28945E-04-1.67926E-14
 -1      3559 5.95491E-03-1.92778E-04-1.56660E-14
 -1      3560 6.31225E-03-2.28258E-04-1.75516E-14
 -1      3561 6.45505E-03-2.27518E-04-1.83263E-14
 -1      3562 6.24075E-03-1.91655E-04-1.71505E-14
 -1      3563 6.59778E-03-2.26719E-04-1.91174E-14
 -1      3564 6.74043E-03-2.25850E-04-1.99230E-14
 -1      3565 6.52630E-03-1.90368E-04-1.86973E-14
 -1      3566 6.88300E-03-2.24903E-04-2.07428E-14
 -1      3567 7.02547E-03-2.23866E-04-2.15767E-14
 -1      3568 6.81151E-03-1.88857E-04-2.03071E-14
 -1      3569 7.16783E-03-2.22734E-04-2.24253E-14
 -1      3570 7.31008E-03-2.21493E-04-2.32881E-14
 -1      3571 7.09628E-03-1.87060E-04-2.19728E-14
 -1      3572 7.45217E-03-2.20139E-04-2.41655E-14
 -1      3573 7.59411E-03-2.18658E-04-2.50554E-14
 -1      3574 7.38051E-03-1.84914E-04-2.36956E-14
 -1      3575 7.73585E-03-2.17051E-04-2.59592E-14
 -1      3576 7.87740E-03-2.15304E-04-2.68754E-14
 -1      3577 7.66402E-03-1.82362E-04-2.54740E-14
 -1      3578 8.01869E-03-2.13425E-04-2.78039E-14
 -1      3579 8.15972E-03-2.11399E-04-2.87466E-14
 -1      3580 7.94661E-03-1.79360E-04-2.73032E-14
 -1      3581 8.30044E-03-2.09247E-04-2.97023E-14
 -1      3582 8.44081E-03-2.06953E-04-3.06699E-14
 -1      3583 8.22800E-03-1.75894E-04-2.91855E-14
 -1      3584 8.58079E-03-2.04558E-04-3.16480E-14
 -1      3585 8.72034E-03-2.02045E-04-3.26360E-14
 -1      3586 8.50787E-03-1.71992E-04-3.11162E-14
 -1      3587 8.85940E-03-1.99477E-04-3.36336E-14
 -1      3588 8.99793E-03-1.96842E-04-3.46393E-14
 -1      3589 8.78585E-03-1.67744E-04-3.30918E-14
 -1      3590 9.13585E-03-1.94230E-04-3.56526E-14
 -1      3591 9.27314E-03-1.91635E-04-3.66741E-14
 -1      3592 9.06147E-03-1.63328E-04-3.51015E-14
 -1      3593 9.40969E-03-1.89182E-04-3.77030E-14
 -1      3594 9.54550E-03-1.86867E-04-3.87405E-14
 -1      3595 9.33423E-03-1.59031E-04-3.71408E-14
 -1      3596 9.68044E-03-1.84857E-04-3.97843E-14
 -1      3597 9.81454E-03-1.83149E-04-4.08363E-14
 -1      3598 9.60355E-03-1.55268E-04-3.92143E-14
 -1      3599 9.94764E-03-1.81953E-04-4.18945E-14
 -1      3600 1.00798E-02-1.81262E-04-4.29585E-14
 -1      3601 9.86884E-03-1.52586E-04-4.13171E-14
 -1      3602 1.02109E-02-1.81324E-04-4.40280E-14
 -1      3603 1.03410E-02-1.82125E-04-4.51024E-14
 -1      3604 1.01295E-02-1.51642E-04-4.34440E-14
 -1      3605 1.04700E-02-1.83941E-04-4.61833E-14
 -1      3606 1.05982E-02-1.86738E-04-4.72676E-14
 -1      3607 1.03848E-02-1.53148E-04-4.55950E-14
 -1      3608 1.07252E-02-1.90771E-04-4.83553E-14
 -1      3609 1.08518E-02-1.96065E-04-4.94507E-14
 -1      3610 1.06344E-02-1.57738E-04-4.77632E-14
 -1      3611 3.81834E-03 2.74393E-04-6.36680E-15
 -1      3612 3.67444E-03 2.74494E-04-5.91107E-15
 -1      3613 3.53044E-03 2.74447E-04-5.47270E-15
 -1      3614 3.38634E-03 2.74235E-04-5.05145E-15
 -1      3615 3.60047E-03 2.36533E-04-5.73364E-15
 -1      3616 4.67997E-03 2.72292E-04-9.46273E-15
 -1      3617 4.53656E-03 2.72741E-04-8.90373E-15
 -1      3618 4.96662E-03 2.71354E-04-1.06330E-14
 -1      3619 4.82333E-03 2.71830E-04-1.00390E-14
 -1      3620 4.75101E-03 2.34426E-04-9.79976E-15
 -1      3621 5.25305E-03 2.70375E-04-1.18695E-14
 -1      3622 5.10986E-03 2.70870E-04-1.12430E-14
 -1      3623 5.03779E-03 2.33591E-04-1.09878E-14
 -1      3624 5.53930E-03 2.69351E-04-1.31722E-14
 -1      3625 5.39620E-03 2.69870E-04-1.25118E-14
 -1      3626 5.32432E-03 2.32721E-04-1.22423E-14
 -1      3627 5.82537E-03 2.68254E-04-1.45417E-14
 -1      3628 5.68235E-03 2.68814E-04-1.38490E-14
 -1      3629 5.61063E-03 2.31805E-04-1.35632E-14
 -1      3630 6.11127E-03 2.67037E-04-1.59774E-14
 -1      3631 5.96834E-03 2.67664E-04-1.52516E-14
 -1      3632 5.89671E-03 2.30816E-04-1.49505E-14
 -1      3633 6.39698E-03 2.65640E-04-1.74736E-14
 -1      3634 6.25415E-03 2.66366E-04-1.67178E-14
 -1      3635 6.18259E-03 2.29708E-04-1.64025E-14
 -1      3636 6.68249E-03 2.63989E-04-1.90321E-14
 -1      3637 6.53976E-03 2.64852E-04-1.82453E-14
 -1      3638 6.46822E-03 2.28423E-04-1.79161E-14
 -1      3639 6.96774E-03 2.62002E-04-2.06502E-14
 -1      3640 6.82515E-03 2.63043E-04-1.98337E-14
 -1      3641 6.75358E-03 2.26894E-04-1.94906E-14
 -1      3642 7.25265E-03 2.59593E-04-2.23274E-14
 -1      3643 7.11024E-03 2.60857E-04-2.14811E-14
 -1      3644 7.03859E-03 2.25047E-04-2.11248E-14
 -1      3645 7.53715E-03 2.56675E-04-2.40598E-14
 -1      3646 7.39496E-03 2.58204E-04-2.31873E-14
 -1      3647 7.32316E-03 2.22803E-04-2.28178E-14
 -1      3648 7.82109E-03 2.53172E-04-2.58451E-14
 -1      3649 7.67919E-03 2.55003E-04-2.49456E-14
 -1      3650 7.60717E-03 2.20084E-04-2.45654E-14
 -1      3651 8.10435E-03 2.49027E-04-2.76767E-14
 -1      3652 7.96281E-03 2.51186E-04-2.67555E-14
 -1      3653 7.89046E-03 2.16824E-04-2.63630E-14
 -1      3654 8.38674E-03 2.44219E-04-2.95578E-14
 -1      3655 8.24566E-03 2.46710E-04-2.86121E-14
 -1      3656 8.17283E-03 2.12973E-04-2.82087E-14
 -1      3657 8.66808E-03 2.38784E-04-3.14866E-14
 -1      3658 8.52755E-03 2.41581E-04-3.05158E-14
 -1      3659 8.45407E-03 2.08513E-04-3.01032E-14
 -1      3660 8.94819E-03 2.32839E-04-3.34544E-14
 -1      3661 8.80829E-03 2.35872E-04-3.24659E-14
 -1      3662 8.73394E-03 2.03478E-04-3.20437E-14
 -1      3663 9.22689E-03 2.26615E-04-3.54612E-14
 -1      3664 9.08771E-03 2.29752E-04-3.44528E-14
 -1      3665 9.01219E-03 1.97971E-04-3.40233E-14
 -1      3666 9.50411E-03 2.20493E-04-3.74998E-14
 -1      3667 9.36567E-03 2.23522E-04-3.64767E-14
 -1      3668 9.28860E-03 1.92191E-04-3.60393E-14
 -1      3669 9.77992E-03 2.15037E-04-3.95754E-14
 -1      3670 9.64216E-03 2.17649E-04-3.85333E-14
 -1      3671 9.56301E-03 1.86454E-04-3.80921E-14
 -1      3672 1.00546E-02 2.11039E-04-4.16815E-14
 -1      3673 9.91735E-03 2.12805E-04-4.06240E-14
 -1      3674 9.83542E-03 1.81220E-04-4.01757E-14
 -1      3675 1.03291E-02 2.09570E-04-4.38208E-14
 -1      3676 1.01918E-02 2.09908E-04-4.27477E-14
 -1      3677 1.01061E-02 1.77106E-04-4.22900E-14
 -1      3678 1.06049E-02 2.12086E-04-4.59870E-14
 -1      3679 1.04667E-02 2.10197E-04-4.49008E-14
 -1      3680 1.03758E-02 1.74934E-04-4.44368E-14
 -1      3681 1.08848E-02 2.20640E-04-4.81746E-14
 -1      3682 1.07440E-02 2.15384E-04-4.70781E-14
 -1      3683 1.06459E-02 1.75820E-04-4.66085E-14
 -1      3684 1.11735E-02 2.38458E-04-5.03766E-14
 -1      3685 1.10276E-02 2.27961E-04-4.92746E-14
 -1      3686 1.09193E-02 1.81334E-04-4.88011E-14
 -1      3687 1.14785E-02 2.71421E-04-5.25847E-14
 -1      3688 1.13232E-02 2.52205E-04-5.14803E-14
 -1      3689 1.12008E-02 1.94410E-04-5.10030E-14
 -1      3690 1.18095E-02 3.39182E-04-5.47135E-14
 -1      3691 1.16388E-02 3.04570E-04-5.36051E-14
 -1      3692 1.14981E-02 2.29347E-04-5.31269E-14
 -1      3693 1.18277E-02 3.02587E-04-5.51669E-14
 -1      3694 1.94611E-03 2.78801E-04-1.74554E-15
 -1      3695 4.10588E-03 2.73904E-04-7.32937E-15
 -1      3696 3.96216E-03 2.74193E-04-6.83969E-15
 -1      3697 3.88870E-03 2.36384E-04-6.64711E-15
 -1      3698 1.24805E-03-7.14015E-05-8.92407E-16
 -1      3699 1.25004E-03-1.02635E-04-8.92922E-16
 -1      3700 1.35250E-03-1.14724E-04-1.02307E-15
 -1      3701 1.36974E-03-5.93055E-05-1.04905E-15
 -1      3702 1.09812E-02-1.11455E-04-5.14886E-14
 -1      3703 1.09669E-02-8.05277E-05-5.15311E-14
 -1      3704 1.16856E-02 2.15732E-04-5.48349E-14
 -1      3705 2.66439E-03 2.68666E-04-3.19783E-15
 -1      3706 2.51978E-03 2.66170E-04-2.87812E-15
 -1      3707 2.73315E-03 2.32220E-04-3.39958E-15
 -1      3708 1.11196E-02 1.57425E-05-5.23829E-14
 -1      3709 1.12008E-02 4.00924E-05-5.27937E-14
 -1      3710 3.24213E-03 2.73792E-04-4.64651E-15
 -1      3711 3.09783E-03 2.73089E-04-4.25846E-15
 -1      3712 3.31179E-03 2.36120E-04-4.88799E-15
 -1      3713 1.37119E-03 1.94399E-04-9.53664E-16
 -1      3714 1.29219E-03 1.43147E-04-8.86918E-16
 -1      3715 1.41355E-03 1.34021E-04-1.04941E-15
 -1      3716 1.47868E-03 2.04826E-04-1.08979E-15
 -1      3717 1.09880E-02-4.87240E-05-5.17367E-14
 -1      3718 1.10297E-02-1.92412E-05-5.19298E-14
 -1      3719 4.39307E-03 2.73164E-04-8.36107E-15
 -1      3720 4.24952E-03 2.73559E-04-7.83640E-15
 -1      3721 4.17651E-03 2.35893E-04-7.62835E-15
 -1      3722 4.46393E-03 2.35209E-04-8.67912E-15
 -1      3723 1.55932E-03-1.58868E-04-1.30614E-15
 -1      3724 1.10051E-02-1.44207E-04-5.14178E-14
 -1      3725 1.08930E-02-1.20227E-04-5.04894E-14
 -1      3726 3.02266E-03 2.34826E-04-4.10994E-15
 -1      3727 1.08369E-02-1.57291E-04-4.96350E-14
 -1      3728 1.09335E-02-1.92810E-04-5.02330E-14
 -1      3729 1.10581E-02-2.00093E-04-5.13321E-14
 -1      3730 2.37513E-03 2.62976E-04-2.57490E-15
 -1      3731 2.23049E-03 2.59002E-04-2.28931E-15
 -1      3732 2.44342E-03 2.27733E-04-2.75611E-15
 -1      3733 1.54986E-03 1.51494E-04-1.22883E-15
 -1      3734 1.51823E-03 1.16113E-04-1.20452E-15
 -1      3735 1.65215E-03 9.54913E-05-1.41362E-15
 -1      3736 1.51588E-03 8.10332E-05-1.21845E-15
 -1      3737 1.51438E-03 4.62048E-05-1.22999E-15
 -1      3738 1.08964E-02-5.75324E-05-5.07655E-14
 -1      3739 1.11503E-02-1.91996E-04-5.23375E-14
 -1      3740 1.11463E-02 7.04878E-05-5.19007E-14
 -1      3741 1.12426E-02 6.57586E-05-5.28210E-14
 -1      3742 1.12880E-02 9.40189E-05-5.28478E-14
 -1      3743 1.10095E-02 7.25277E-06-5.14241E-14
 -1      3744 1.15224E-02 1.70264E-04-5.39602E-14
 -1      3745 2.05889E-03 2.50835E-04-1.97500E-15
 -1      3746 1.84162E-03 2.36650E-04-1.61225E-15
 -1      3747 1.80436E-03 1.70154E-04-1.60787E-15
 -1      3748 1.69055E-03 1.96080E-04-1.40668E-15
 -1      3749 1.08977E-02 4.99717E-06-5.03740E-14
 -1      3750 1.09876E-02 4.09764E-05-5.08250E-14
 -1      3751 3.09251E-03 1.97353E-04-4.33389E-15
 -1      3752 2.94762E-03 1.96544E-04-3.96071E-15
 -1      3753 1.07403E-02-1.27963E-04-4.89269E-14
 -1      3754 1.08180E-02-1.23754E-04-4.97063E-14
 -1      3755 1.08072E-02-9.32313E-05-4.97760E-14
 -1      3756 2.13373E-03-1.49635E-04-2.29438E-15
 -1      3757 2.27880E-03-1.52452E-04-2.58395E-15
 -1      3758 2.42398E-03-1.54737E-04-2.89052E-15
 -1      3759 2.56922E-03-1.56540E-04-3.21477E-15
 -1      3760 2.34906E-03-1.17145E-04-2.73276E-15
 -1      3761 2.71445E-03-1.57951E-04-3.55621E-15
 -1      3762 2.85964E-03-1.59008E-04-3.91419E-15
 -1      3763 2.63976E-03-1.19960E-04-3.37927E-15
 -1      3764 3.00476E-03-1.59788E-04-4.28970E-15
 -1      3765 3.14978E-03-1.60318E-04-4.68177E-15
 -1      3766 2.93041E-03-1.21615E-04-4.09483E-15
 -1      3767 3.29468E-03-1.60660E-04-5.09060E-15
 -1      3768 3.43946E-03-1.60831E-04-5.51551E-15
 -1      3769 3.22073E-03-1.22447E-04-4.87728E-15
 -1      3770 3.58411E-03-1.60880E-04-5.95757E-15
 -1      3771 3.72862E-03-1.60817E-04-6.41592E-15
 -1      3772 3.51057E-03-1.22716E-04-5.72556E-15
 -1      3773 3.87301E-03-1.60681E-04-6.89028E-15
 -1      3774 4.01726E-03-1.60474E-04-7.38119E-15
 -1      3775 3.79985E-03-1.22618E-04-6.63965E-15
 -1      3776 4.16139E-03-1.60226E-04-7.88855E-15
 -1      3777 4.30540E-03-1.59936E-04-8.41322E-15
 -1      3778 4.08858E-03-1.22292E-04-7.61941E-15
 -1      3779 4.44930E-03-1.59625E-04-8.95353E-15
 -1      3780 4.59309E-03-1.59291E-04-9.51042E-15
 -1      3781 4.37679E-03-1.21834E-04-8.66526E-15
 -1      3782 4.73678E-03-1.58948E-04-1.00845E-14
 -1      3783 4.88037E-03-1.58592E-04-1.06759E-14
 -1      3784 4.66453E-03-1.21304E-04-9.77880E-15
 -1      3785 5.02388E-03-1.58231E-04-1.12843E-14
 -1      3786 5.16731E-03-1.57861E-04-1.19086E-14
 -1      3787 4.95185E-03-1.20738E-04-1.09591E-14
 -1      3788 5.31066E-03-1.57487E-04-1.25499E-14
 -1      3789 5.45393E-03-1.57102E-04-1.32074E-14
 -1      3790 5.23880E-03-1.20150E-04-1.22071E-14
 -1      3791 5.59713E-03-1.56710E-04-1.38816E-14
 -1      3792 5.74027E-03-1.56302E-04-1.45748E-14
 -1      3793 5.52542E-03-1.19537E-04-1.35212E-14
 -1      3794 5.88333E-03-1.55880E-04-1.52845E-14
 -1      3795 6.02632E-03-1.55435E-04-1.60092E-14
 -1      3796 5.81173E-03-1.18888E-04-1.49031E-14
 -1      3797 6.16924E-03-1.54965E-04-1.67504E-14
 -1      3798 6.31208E-03-1.54464E-04-1.75078E-14
 -1      3799 6.09773E-03-1.18181E-04-1.63523E-14
 -1      3800 6.45484E-03-1.53927E-04-1.82805E-14
 -1      3801 6.59750E-03-1.53346E-04-1.90691E-14
 -1      3802 6.38339E-03-1.17385E-04-1.78651E-14
 -1      3803 6.74006E-03-1.52717E-04-1.98722E-14
 -1      3804 6.88251E-03-1.52031E-04-2.06898E-14
 -1      3805 6.66867E-03-1.16466E-04-1.94389E-14
 -1      3806 7.02483E-03-1.51285E-04-2.15226E-14
 -1      3807 7.16701E-03-1.50469E-04-2.23687E-14
 -1      3808 6.95347E-03-1.15386E-04-2.10736E-14
 -1      3809 7.30902E-03-1.49581E-04-2.32283E-14
 -1      3810 7.45084E-03-1.48609E-04-2.41021E-14
 -1      3811 7.23767E-03-1.14107E-04-2.27630E-14
 -1      3812 7.59244E-03-1.47556E-04-2.49903E-14
 -1      3813 7.73381E-03-1.46409E-04-2.58906E-14
 -1      3814 7.52109E-03-1.12593E-04-2.45084E-14
 -1      3815 7.87490E-03-1.45177E-04-2.68043E-14
 -1      3816 8.01568E-03-1.43843E-04-2.77309E-14
 -1      3817 7.80352E-03-1.10816E-04-2.63071E-14
 -1      3818 8.15610E-03-1.42427E-04-2.86714E-14
 -1      3819 8.29613E-03-1.40911E-04-2.96237E-14
 -1      3820 8.08468E-03-1.08767E-04-2.81590E-14
 -1      3821 8.43571E-03-1.39327E-04-3.05875E-14
 -1      3822 8.57480E-03-1.37655E-04-3.15632E-14
 -1      3823 8.36421E-03-1.06460E-04-3.00607E-14
 -1      3824 8.71333E-03-1.35947E-04-3.25487E-14
 -1      3825 8.85125E-03-1.34178E-04-3.35437E-14
 -1      3826 8.64171E-03-1.03949E-04-3.20087E-14
 -1      3827 8.98848E-03-1.32424E-04-3.45481E-14
 -1      3828 9.12496E-03-1.30660E-04-3.55599E-14
 -1      3829 8.91670E-03-1.01344E-04-3.39959E-14
 -1      3830 9.26060E-03-1.28987E-04-3.65807E-14
 -1      3831 9.39535E-03-1.27376E-04-3.76082E-14
 -1      3832 9.18860E-03-9.88223E-05-3.60194E-14
 -1      3833 9.52909E-03-1.25965E-04-3.86437E-14
 -1      3834 9.66176E-03-1.24711E-04-3.96877E-14
 -1      3835 9.45677E-03-9.66438E-05-3.80734E-14
 -1      3836 9.79323E-03-1.23792E-04-4.07389E-14
 -1      3837 9.92346E-03-1.23143E-04-4.17968E-14
 -1      3838 9.72046E-03-9.51546E-05-4.01603E-14
 -1      3839 1.00523E-02-1.22988E-04-4.28613E-14
 -1      3840 1.01796E-02-1.23216E-04-4.39297E-14
 -1      3841 9.97880E-03-9.47693E-05-4.22755E-14
 -1      3842 1.03052E-02-1.24108E-04-4.50043E-14
 -1      3843 1.04292E-02-1.25453E-04-4.60858E-14
 -1      3844 1.02307E-02-9.59252E-05-4.44149E-14
 -1      3845 1.05266E-02-1.25022E-04-4.69567E-14
 -1      3846 1.06467E-02-1.27414E-04-4.80456E-14
 -1      3847 1.06397E-02-9.63839E-05-4.81156E-14
 -1      3848 1.04510E-02-9.66042E-05-4.63624E-14
 -1      3849 5.10907E-03 1.95842E-04-1.13450E-14
 -1      3850 4.96567E-03 1.96205E-04-1.07332E-14
 -1      3851 4.82219E-03 1.96558E-04-1.01379E-14
 -1      3852 4.67863E-03 1.96904E-04-9.56060E-15
 -1      3853 4.89350E-03 1.58711E-04-1.04790E-14
 -1      3854 5.68199E-03 1.94304E-04-1.39564E-14
 -1      3855 5.53885E-03 1.94707E-04-1.32788E-14
 -1      3856 5.96806E-03 1.93441E-04-1.53607E-14
 -1      3857 5.82506E-03 1.93884E-04-1.46498E-14
 -1      3858 5.75337E-03 1.56864E-04-1.43501E-14
 -1      3859 6.25388E-03 1.92463E-04-1.68287E-14
 -1      3860 6.11101E-03 1.92970E-04-1.60873E-14
 -1      3861 6.03941E-03 1.56143E-04-1.57714E-14
 -1      3862 6.53941E-03 1.91319E-04-1.83603E-14
 -1      3863 6.39669E-03 1.91916E-04-1.75870E-14
 -1      3864 6.32515E-03 1.55318E-04-1.72577E-14
 -1      3865 6.82459E-03 1.89948E-04-1.99512E-14
 -1      3866 6.68205E-03 1.90667E-04-1.91479E-14
 -1      3867 6.61055E-03 1.54344E-04-1.88059E-14
 -1      3868 7.10934E-03 1.88285E-04-2.16012E-14
 -1      3869 6.96702E-03 1.89159E-04-2.07690E-14
 -1      3870 6.89553E-03 1.53168E-04-2.04134E-14
 -1      3871 7.39353E-03 1.86260E-04-2.33103E-14
 -1      3872 7.25151E-03 1.87324E-04-2.24492E-14
 -1      3873 7.17999E-03 1.51735E-04-2.20804E-14
 -1      3874 7.67702E-03 1.83806E-04-2.50699E-14
 -1      3875 7.53538E-03 1.85093E-04-2.41832E-14
 -1      3876 7.46379E-03 1.49986E-04-2.38032E-14
 -1      3877 7.95961E-03 1.80865E-04-2.68822E-14
 -1      3878 7.81844E-03 1.82403E-04-2.59704E-14
 -1      3879 7.74674E-03 1.47863E-04-2.55774E-14
 -1      3880 8.24107E-03 1.77391E-04-2.87418E-14
 -1      3881 8.10049E-03 1.79201E-04-2.78062E-14
 -1      3882 8.02861E-03 1.45315E-04-2.74038E-14
 -1      3883 8.52113E-03 1.73371E-04-3.06489E-14
 -1      3884 8.38129E-03 1.75456E-04-2.96891E-14
 -1      3885 8.30913E-03 1.42305E-04-2.92757E-14
 -1      3886 8.79948E-03 1.68829E-04-3.26028E-14
 -1      3887 8.66053E-03 1.71170E-04-3.16211E-14
 -1      3888 8.58798E-03 1.38813E-04-3.11980E-14
 -1      3889 9.07583E-03 1.63848E-04-3.45940E-14
 -1      3890 8.93792E-03 1.66397E-04-3.35941E-14
 -1      3891 8.86481E-03 1.34854E-04-3.31645E-14
 -1      3892 9.34989E-03 1.58582E-04-3.66214E-14
 -1      3893 9.21315E-03 1.61251E-04-3.56030E-14
 -1      3894 9.13925E-03 1.30480E-04-3.51662E-14
 -1      3895 9.62141E-03 1.53274E-04-3.86820E-14
 -1      3896 9.48596E-03 1.55930E-04-3.76465E-14
 -1      3897 9.41093E-03 1.25793E-04-3.72030E-14
 -1      3898 9.89030E-03 1.48259E-04-4.07742E-14
 -1      3899 9.75616E-03 1.50721E-04-3.97250E-14
 -1      3900 9.67951E-03 1.20947E-04-3.92732E-14
 -1      3901 1.01567E-02 1.43973E-04-4.28994E-14
 -1      3902 1.00238E-02 1.46010E-04-4.18335E-14
 -1      3903 9.94478E-03 1.16146E-04-4.13761E-14
 -1      3904 1.04211E-02 1.40965E-04-4.50519E-14
 -1      3905 1.02890E-02 1.42277E-04-4.39724E-14
 -1      3906 1.02066E-02 1.11621E-04-4.35069E-14
 -1      3907 1.06848E-02 1.40010E-04-4.72304E-14
 -1      3908 1.05528E-02 1.40159E-04-4.61391E-14
 -1      3909 1.04653E-02 1.07633E-04-4.56668E-14
 -1      3910 1.12650E-02 1.48160E-04-5.20176E-14
 -1      3911 1.11275E-02 1.42450E-04-5.09147E-14
 -1      3912 1.13760E-02 1.49600E-04-5.29408E-14
 -1      3913 1.51370E-03 1.15963E-05-1.23901E-15
 -1      3914 1.51381E-03-2.29702E-05-1.24591E-15
 -1      3915 1.64938E-03 2.28267E-05-1.43823E-15
 -1      3916 1.58652E-03 2.14470E-04-1.23511E-15
 -1      3917 5.39566E-03 1.95095E-04-1.26172E-14
 -1      3918 5.25240E-03 1.95474E-04-1.19727E-14
 -1      3919 5.18043E-03 1.58128E-04-1.17033E-14
 -1      3920 1.95664E-03 1.65808E-04-1.86876E-15
 -1      3921 1.80680E-03 1.27987E-04-1.64053E-15
 -1      3922 2.12669E-03 2.17548E-04-2.13307E-15
 -1      3923 3.38196E-03 1.98267E-04-5.13179E-15
 -1      3924 3.23730E-03 1.97920E-04-4.72429E-15
 -1      3925 3.16292E-03 1.59676E-04-4.56110E-15
 -1      3926 2.80264E-03 1.95413E-04-3.60371E-15
 -1      3927 2.65759E-03 1.93927E-04-3.26356E-15
 -1      3928 2.87278E-03 1.58299E-04-3.81085E-15
 -1      3929 3.67093E-03 1.98498E-04-5.99694E-15
 -1      3930 3.52651E-03 1.98454E-04-5.55651E-15
 -1      3931 3.45261E-03 1.60283E-04-5.37847E-15
 -1      3932 3.95940E-03 1.98296E-04-6.92933E-15
 -1      3933 3.81523E-03 1.98442E-04-6.45453E-15
 -1      3934 3.74177E-03 1.60385E-04-6.26257E-15
 -1      3935 1.08207E-02-6.13461E-05-4.99770E-14
 -1      3936 1.08508E-02-2.87505E-05-5.01793E-14
 -1      3937 1.08116E-02 1.43807E-07-4.95855E-14
 -1      3938 1.07440E-02-6.46192E-05-4.91966E-14
 -1      3939 1.84432E-03-1.42040E-04-1.76638E-15
 -1      3940 1.98888E-03-1.46182E-04-2.02198E-15
 -1      3941 2.05880E-03-1.12759E-04-2.15465E-15
 -1      3942 1.16259E-02-3.53460E-04-5.49925E-14
 -1      3943 1.15654E-02-2.93133E-04-5.51355E-14
 -1      3944 1.45820E-03-1.20894E-04-1.16668E-15
 -1      3945 1.67343E-03-1.34054E-04-1.48624E-15
 -1      3946 5.46705E-03 1.57516E-04-1.29941E-14
 -1      3947 1.46648E-03-9.19424E-05-1.18136E-15
 -1      3948 2.51251E-03 1.91989E-04-2.94042E-15
 -1      3949 2.36742E-03 1.89563E-04-2.63403E-15
 -1      3950 2.58233E-03 1.55803E-04-3.12716E-15
 -1      3951 4.60622E-03 1.59266E-04-9.32166E-15
 -1      3952 4.53498E-03 1.97234E-04-8.99961E-15
 -1      3953 4.39125E-03 1.97550E-04-8.45558E-15
 -1      3954 1.74292E-03-1.03542E-04-1.60126E-15
 -1      3955 1.14558E-02-2.84835E-04-5.41583E-14
 -1      3956 1.09500E-02 1.42173E-04-4.94228E-14
 -1      3957 1.08168E-02 1.40604E-04-4.83232E-14
 -1      3958 1.07215E-02 1.04611E-04-4.78486E-14
 -1      3959 1.80429E-03 8.99204E-05-1.65819E-15
 -1      3960 2.12838E-03 1.72785E-04-2.17556E-15
 -1      3961 1.47534E-03-6.29776E-05-1.19425E-15
 -1      3962 1.08579E-02 6.93022E-05-4.93607E-14
 -1      3963 1.09846E-02 7.57305E-05-5.04087E-14
 -1      3964 1.61033E-03-5.53808E-05-1.39216E-15
 -1      3965 4.10346E-03 1.98093E-04-7.42098E-15
 -1      3966 4.03040E-03 1.60170E-04-7.21381E-15
 -1      3967 4.24740E-03 1.97837E-04-7.92964E-15
 -1      3968 3.52370E-03 1.22185E-04-5.62687E-15
 -1      3969 3.37885E-03 1.22057E-04-5.19985E-15
 -1      3970 1.98458E-03-7.66751E-05-2.01748E-15
 -1      3971 2.12952E-03-7.85208E-05-2.28890E-15
 -1      3972 5.53848E-03 1.19994E-04-1.33714E-14
 -1      3973 5.39522E-03 1.20230E-04-1.27088E-14
 -1      3974 2.56551E-03-8.22390E-05-3.20519E-15
 -1      3975 2.71097E-03-8.29895E-05-3.54502E-15
 -1      3976 2.85640E-03-8.35612E-05-3.90196E-15
 -1      3977 3.00176E-03-8.39681E-05-4.27548E-15
 -1      3978 2.78279E-03-4.56760E-05-3.71128E-15
 -1      3979 3.14703E-03-8.42520E-05-4.66561E-15
 -1      3980 3.29218E-03-8.44199E-05-5.07191E-15
 -1      3981 3.07364E-03-4.61122E-05-4.45589E-15
 -1      3982 3.43720E-03-8.45071E-05-5.49506E-15
 -1      3983 3.58208E-03-8.45154E-05-5.93465E-15
 -1      3984 3.36407E-03-4.62798E-05-5.26662E-15
 -1      3985 3.72682E-03-8.44740E-05-6.39065E-15
 -1      3986 3.87140E-03-8.43809E-05-6.86265E-15
 -1      3987 3.65395E-03-4.62676E-05-6.14332E-15
 -1      3988 4.01585E-03-8.42594E-05-7.35234E-15
 -1      3989 4.16016E-03-8.41056E-05-7.85770E-15
 -1      3990 3.94324E-03-4.61403E-05-7.08640E-15
 -1      3991 4.30433E-03-8.39374E-05-8.38021E-15
 -1      3992 4.44838E-03-8.37498E-05-8.91943E-15
 -1      3993 4.23196E-03-4.59437E-05-8.09620E-15
 -1      3994 4.59231E-03-8.35562E-05-9.47468E-15
 -1      3995 4.73612E-03-8.33512E-05-1.00473E-14
 -1      3996 4.52014E-03-4.57079E-05-9.17300E-15
 -1      3997 4.87983E-03-8.31443E-05-1.06365E-14
 -1      3998 5.02343E-03-8.29302E-05-1.12432E-14
 -1      3999 4.80783E-03-4.54515E-05-1.03164E-14
 -1      4000 5.16694E-03-8.27150E-05-1.18659E-14
 -1      4001 5.31036E-03-8.24938E-05-1.25059E-14
 -1      4002 5.09510E-03-4.51839E-05-1.15268E-14
 -1      4003 5.45370E-03-8.22701E-05-1.31627E-14
 -1      4004 5.59695E-03-8.20391E-05-1.38350E-14
 -1      4005 5.38198E-03-4.49075E-05-1.28053E-14
 -1      4006 5.74012E-03-8.18024E-05-1.45252E-14
 -1      4007 5.88321E-03-8.15553E-05-1.52328E-14
 -1      4008 5.66851E-03-4.46196E-05-1.41502E-14
 -1      4009 6.02621E-03-8.12980E-05-1.59565E-14
 -1      4010 6.16913E-03-8.10257E-05-1.66954E-14
 -1      4011 5.95470E-03-4.43135E-05-1.55618E-14
 -1      4012 6.31196E-03-8.07378E-05-1.74515E-14
 -1      4013 6.45468E-03-8.04290E-05-1.82223E-14
 -1      4014 6.24053E-03-4.39794E-05-1.70395E-14
 -1      4015 6.59730E-03-8.00987E-05-1.90086E-14
 -1      4016 6.73980E-03-7.97408E-05-1.98103E-14
 -1      4017 6.52597E-03-4.36054E-05-1.85796E-14
 -1      4018 6.88217E-03-7.93553E-05-2.06256E-14
 -1      4019 7.02439E-03-7.89353E-05-2.14569E-14
 -1      4020 6.81093E-03-4.31787E-05-2.01804E-14
 -1      4021 7.16644E-03-7.84820E-05-2.23010E-14
 -1      4022 7.30829E-03-7.79874E-05-2.31585E-14
 -1      4023 7.09530E-03-4.26865E-05-2.18400E-14
 -1      4024 7.44993E-03-7.74555E-05-2.40296E-14
 -1      4025 7.59132E-03-7.68766E-05-2.49141E-14
 -1      4026 7.37892E-03-4.21184E-05-2.35536E-14
 -1      4027 7.73243E-03-7.62590E-05-2.58119E-14
 -1      4028 7.87323E-03-7.55910E-05-2.67232E-14
 -1      4029 7.66158E-03-4.14684E-05-2.53188E-14
 -1      4030 8.01367E-03-7.48875E-05-2.76480E-14
 -1      4031 8.15371E-03-7.41342E-05-2.85859E-14
 -1      4032 7.94300E-03-4.07393E-05-2.71391E-14
 -1      4033 8.29330E-03-7.33556E-05-2.95344E-14
 -1      4034 8.43239E-03-7.25341E-05-3.04961E-14
 -1      4035 8.22287E-03-3.99479E-05-2.90106E-14
 -1      4036 8.57091E-03-7.17072E-05-3.14703E-14
 -1      4037 8.70881E-03-7.08532E-05-3.24530E-14
 -1      4038 8.50077E-03-3.91315E-05-3.09311E-14
 -1      4039 8.84601E-03-7.00270E-05-3.34457E-14
 -1      4040 8.98246E-03-6.92015E-05-3.44478E-14
 -1      4041 8.77623E-03-3.83567E-05-3.28973E-14
 -1      4042 9.11805E-03-6.84537E-05-3.54594E-14
 -1      4043 9.25273E-03-6.77481E-05-3.64783E-14
 -1      4044 9.04871E-03-3.77292E-05-3.48997E-14
 -1      4045 9.38638E-03-6.71906E-05-3.75052E-14
 -1      4046 9.51893E-03-6.67312E-05-3.85392E-14
 -1      4047 9.31759E-03-3.74035E-05-3.69356E-14
 -1      4048 9.65023E-03-6.65121E-05-3.95821E-14
 -1      4049 9.78023E-03-6.64576E-05-4.06335E-14
 -1      4050 9.58212E-03-3.75904E-05-3.90046E-14
 -1      4051 9.90873E-03-6.67571E-05-4.16898E-14
 -1      4052 1.00356E-02-6.72844E-05-4.27528E-14
 -1      4053 9.84146E-03-3.85591E-05-4.11043E-14
 -1      4054 1.01607E-02-6.82927E-05-4.38248E-14
 -1      4055 1.02839E-02-6.95700E-05-4.48999E-14
 -1      4056 1.00945E-02-4.06220E-05-4.32303E-14
 -1      4057 4.96493E-03 1.20897E-04-1.08211E-14
 -1      4058 4.82133E-03 1.21111E-04-1.02246E-14
 -1      4059 6.11076E-03 1.18935E-04-1.61849E-14
 -1      4060 5.96781E-03 1.19224E-04-1.54577E-14
 -1      4061 5.82478E-03 1.19494E-04-1.47461E-14
 -1      4062 5.68167E-03 1.19750E-04-1.40513E-14
 -1      4063 5.60996E-03 8.25411E-05-1.37510E-14
 -1      4064 5.89620E-03 8.22074E-05-1.51435E-14
 -1      4065 6.68165E-03 1.17512E-04-1.92537E-14
 -1      4066 6.53908E-03 1.17919E-04-1.84636E-14
 -1      4067 6.96642E-03 1.16570E-04-2.08775E-14
 -1      4068 6.82411E-03 1.17066E-04-2.00573E-14
 -1      4069 6.75273E-03 8.08356E-05-1.97014E-14
 -1      4070 7.25059E-03 1.15414E-04-2.25605E-14
 -1      4071 7.10859E-03 1.16023E-04-2.17117E-14
 -1      4072 7.03728E-03 8.01656E-05-2.13426E-14
 -1      4073 7.53398E-03 1.13997E-04-2.42966E-14
 -1      4074 7.39239E-03 1.14743E-04-2.34230E-14
 -1      4075 7.32115E-03 7.93353E-05-2.30416E-14
 -1      4076 7.81639E-03 1.12271E-04-2.60873E-14
 -1      4077 7.67532E-03 1.13179E-04-2.51854E-14
 -1      4078 7.60414E-03 7.83085E-05-2.47934E-14
 -1      4079 8.09755E-03 1.10193E-04-2.79257E-14
 -1      4080 7.95714E-03 1.11284E-04-2.70004E-14
 -1      4081 7.88602E-03 7.70477E-05-2.65968E-14
 -1      4082 8.37714E-03 1.07728E-04-2.98125E-14
 -1      4083 8.23756E-03 1.09017E-04-2.88632E-14
 -1      4084 8.16648E-03 7.55157E-05-2.84489E-14
 -1      4085 8.65481E-03 1.04852E-04-3.17488E-14
 -1      4086 8.51623E-03 1.06350E-04-3.07744E-14
 -1      4087 8.44519E-03 7.36771E-05-3.03513E-14
 -1      4088 8.93014E-03 1.01560E-04-3.37248E-14
 -1      4089 8.79279E-03 1.03267E-04-3.27315E-14
 -1      4090 8.72172E-03 7.15003E-05-3.22992E-14
 -1      4091 9.20271E-03 9.78707E-05-3.57376E-14
 -1      4092 9.06679E-03 9.97751E-05-3.47270E-14
 -1      4093 8.99562E-03 6.89581E-05-3.42868E-14
 -1      4094 9.47206E-03 9.38260E-05-3.77863E-14
 -1      4095 9.33780E-03 9.59036E-05-3.67588E-14
 -1      4096 9.26640E-03 6.60278E-05-3.63111E-14
 -1      4097 9.73774E-03 8.94894E-05-3.98652E-14
 -1      4098 9.60536E-03 9.17064E-05-3.88209E-14
 -1      4099 9.53350E-03 6.26876E-05-3.83702E-14
 -1      4100 9.99936E-03 8.49328E-05-4.19759E-14
 -1      4101 9.86905E-03 8.72539E-05-4.09166E-14
 -1      4102 9.79637E-03 5.89084E-05-4.04577E-14
 -1      4103 1.02566E-02 8.01999E-05-4.41135E-14
 -1      4104 1.01285E-02 8.26142E-05-4.30420E-14
 -1      4105 1.00544E-02 5.46385E-05-4.25747E-14
 -1      4106 1.05091E-02 7.52748E-05-4.62823E-14
 -1      4107 1.03833E-02 7.77706E-05-4.51958E-14
 -1      4108 1.03069E-02 4.97406E-05-4.47227E-14
 -1      4109 1.10177E-02 9.95015E-05-5.04337E-14
 -1      4110 1.95165E-03 7.91946E-05-1.91503E-15
 -1      4111 1.79733E-03 4.82729E-05-1.66573E-15
 -1      4112 1.07462E-02 7.10133E-05-4.83655E-14
 -1      4113 1.06226E-02 7.35647E-05-4.72727E-14
 -1      4114 1.05422E-02 4.46810E-05-4.67956E-14
 -1      4115 1.07607E-02 3.95611E-05-4.87814E-14
 -1      4116 1.79665E-03 1.06249E-05-1.67687E-15
 -1      4117 6.39640E-03 1.18287E-04-1.76882E-14
 -1      4118 6.25363E-03 1.18625E-04-1.69279E-14
 -1      4119 6.18210E-03 8.18277E-05-1.66002E-14
 -1      4120 6.46764E-03 8.13794E-05-1.81205E-14
 -1      4121 2.27471E-03-8.00411E-05-2.57731E-15
 -1      4122 2.42007E-03-8.12631E-05-2.88280E-15
 -1      4123 2.20098E-03-4.35152E-05-2.42426E-15
 -1      4124 2.19800E-03 1.38554E-04-2.33552E-15
 -1      4125 3.81297E-03 1.22210E-04-6.52916E-15
 -1      4126 3.66841E-03 1.22236E-04-6.06949E-15
 -1      4127 3.59518E-03 8.40136E-05-5.87663E-15
 -1      4128 2.94355E-03 1.20896E-04-4.02064E-15
 -1      4129 2.79825E-03 1.20168E-04-3.66055E-15
 -1      4130 1.78075E-03-6.01514E-05-1.66296E-15
 -1      4131 3.23387E-03 1.21810E-04-4.79036E-15
 -1      4132 3.08877E-03 1.21440E-04-4.39720E-15
 -1      4133 3.30529E-03 8.38017E-05-5.02179E-15
 -1      4134 5.25187E-03 1.20457E-04-1.20632E-14
 -1      4135 5.10845E-03 1.20681E-04-1.14340E-14
 -1      4136 5.32338E-03 8.28460E-05-1.24244E-14
 -1      4137 1.85202E-03-2.74841E-05-1.77865E-15
 -1      4138 1.99998E-03-2.74479E-06-2.03349E-15
 -1      4139 4.74916E-03 8.34061E-05-9.97111E-15
 -1      4140 4.67762E-03 1.21316E-04-9.64541E-15
 -1      4141 4.53382E-03 1.21516E-04-9.08338E-15
 -1      4142 1.03166E-02-4.16991E-05-4.51696E-14
 -1      4143 1.03813E-02-6.91066E-05-4.57667E-14
 -1      4144 1.04771E-02-6.87500E-05-4.66388E-14
 -1      4145 5.03646E-03 8.31332E-05-1.11644E-14
 -1      4146 2.49176E-03-4.48546E-05-3.03364E-15
 -1      4147 2.65289E-03 1.19191E-04-3.31737E-15
 -1      4148 2.50751E-03 1.17951E-04-2.99123E-15
 -1      4149 2.72408E-03 8.22030E-05-3.51017E-15
 -1      4150 1.07087E-02 3.68677E-06-4.85924E-14
 -1      4151 2.10121E-03 8.88539E-05-2.18227E-15
 -1      4152 2.09438E-03 4.48147E-05-2.19136E-15
 -1      4153 2.14935E-03 4.78722E-06-2.31110E-15
 -1      4154 2.34007E-03 1.03280E-04-2.64467E-15
 -1      4155 1.16668E-02-3.77955E-04-5.51154E-14
 -1      4156 4.31854E-03 1.59769E-04-8.23304E-15
 -1      4157 1.05667E-02-6.61153E-05-4.74760E-14
 -1      4158 1.06586E-02-6.63831E-05-4.83561E-14
 -1      4159 1.06834E-02-3.44948E-05-4.85510E-14
 -1      4160 1.05051E-02-3.87691E-05-4.68735E-14
 -1      4161 3.95740E-03 1.22137E-04-7.00641E-15
 -1      4162 3.88449E-03 8.40084E-05-6.79856E-15
 -1      4163 4.10169E-03 1.22018E-04-7.49989E-15
 -1      4164 3.01488E-03 8.32524E-05-4.23297E-15
 -1      4165 2.75266E-03 1.83558E-05-3.61427E-15
 -1      4166 2.89817E-03 1.85134E-05-3.97319E-15
 -1      4167 4.38989E-03 1.21700E-04-8.53809E-15
 -1      4168 4.24586E-03 1.21873E-04-8.01040E-15
 -1      4169 4.17323E-03 8.38709E-05-7.78789E-15
 -1      4170 4.46144E-03 8.36583E-05-8.84519E-15
 -1      4171 3.04359E-03 1.86208E-05-4.34856E-15
 -1      4172 3.18892E-03 1.87213E-05-4.74008E-15
 -1      4173 3.33412E-03 1.87829E-05-5.14821E-15
 -1      4174 3.47919E-03 1.88440E-05-5.57306E-15
 -1      4175 3.62411E-03 1.88759E-05-6.01446E-15
 -1      4176 3.76888E-03 1.89111E-05-6.47183E-15
 -1      4177 3.91350E-03 1.89248E-05-6.94629E-15
 -1      4178 4.05798E-03 1.89437E-05-7.43799E-15
 -1      4179 4.20231E-03 1.89470E-05-7.94614E-15
 -1      4180 4.34651E-03 1.89562E-05-8.47155E-15
 -1      4181 4.49057E-03 1.89543E-05-9.01406E-15
 -1      4182 4.63451E-03 1.89580E-05-9.57203E-15
 -1      4183 4.77834E-03 1.89537E-05-1.01478E-14
 -1      4184 4.92205E-03 1.89543E-05-1.07406E-14
 -1      4185 5.06567E-03 1.89491E-05-1.13497E-14
 -1      4186 5.20918E-03 1.89475E-05-1.19759E-14
 -1      4187 5.35260E-03 1.89414E-05-1.26185E-14
 -1      4188 5.49593E-03 1.89376E-05-1.32781E-14
 -1      4189 5.63918E-03 1.89296E-05-1.39548E-14
 -1      4190 5.78233E-03 1.89227E-05-1.46473E-14
 -1      4191 5.92540E-03 1.89111E-05-1.53563E-14
 -1      4192 6.06839E-03 1.88992E-05-1.60819E-14
 -1      4193 6.21128E-03 1.88814E-05-1.68232E-14
 -1      4194 6.35407E-03 1.88620E-05-1.75800E-14
 -1      4195 6.49675E-03 1.88348E-05-1.83535E-14
 -1      4196 6.63931E-03 1.88047E-05-1.91422E-14
 -1      4197 6.78175E-03 1.87638E-05-1.99446E-14
 -1      4198 6.92404E-03 1.87187E-05-2.07622E-14
 -1      4199 7.06617E-03 1.86588E-05-2.15944E-14
 -1      4200 7.20811E-03 1.85934E-05-2.24414E-14
 -1      4201 7.34984E-03 1.85076E-05-2.33010E-14
 -1      4202 7.49134E-03 1.84151E-05-2.41736E-14
 -1      4203 7.63257E-03 1.82946E-05-2.50592E-14
 -1      4204 7.77350E-03 1.81658E-05-2.59579E-14
 -1      4205 7.91410E-03 1.79991E-05-2.68695E-14
 -1      4206 8.05431E-03 1.78220E-05-2.77949E-14
 -1      4207 8.19409E-03 1.75937E-05-2.87334E-14
 -1      4208 8.33339E-03 1.73520E-05-2.96820E-14
 -1      4209 8.47216E-03 1.70414E-05-3.06433E-14
 -1      4210 8.61034E-03 1.67128E-05-3.16168E-14
 -1      4211 8.74787E-03 1.62921E-05-3.25998E-14
 -1      4212 8.88468E-03 1.58463E-05-3.35924E-14
 -1      4213 9.02069E-03 1.52775E-05-3.45953E-14
 -1      4214 9.15584E-03 1.46734E-05-3.56073E-14
 -1      4215 9.29004E-03 1.39054E-05-3.66273E-14
 -1      4216 9.42321E-03 1.30879E-05-3.76562E-14
 -1      4217 9.55526E-03 1.20521E-05-3.86906E-14
 -1      4218 9.68609E-03 1.09489E-05-3.97333E-14
 -1      4219 9.81560E-03 9.55468E-06-4.07853E-14
 -1      4220 9.94365E-03 8.07385E-06-4.18413E-14
 -1      4221 1.00702E-02 6.20340E-06-4.29061E-14
 -1      4222 1.01949E-02 4.23992E-06-4.39785E-14
 -1      4223 2.29463E-03 4.90356E-06-2.59979E-15
 -1      4224 1.03178E-02 1.71283E-06-4.50575E-14
 -1      4225 1.06171E-02 1.53940E-06-4.77503E-14
 -1      4226 1.05102E-02 4.37856E-06-4.67611E-14
 -1      4227 2.60713E-03 1.81819E-05-3.27277E-15
 -1      4228 2.46160E-03 1.79457E-05-2.94784E-15
 -1      4229 2.41128E-03 6.73820E-05-2.81547E-15
 -1      4230 1.04162E-02 1.87335E-06-4.59260E-14
 -1      4231 1.17754E-02-4.34852E-04-5.55504E-14
 -3
    1PSTEP                         2           1           1          
  100CL  101 1.000000000        4231                     0    1           1
 -4  STRESS      6    1
 -5  SXX         1    4    1    1
 -5  SYY         1    4    2    2
 -5  SZZ         1    4    3    3
 -5  SXY         1    4    1    2
 -5  SYZ         1    4    2    3
 -5  SZX         1    4    3    1
 -1         1 8.61260E+01 9.15965E-01 3.91183E+00-1.35814E+00-1.81175E-14-6.59139E-13
 -1         2-2.18242E+00-5.41316E+01-1.37556E+01-1.17377E-01 9.23872E-13 4.54081E-14
 -1         3 2.02122E+01 2.48142E-01 1.19896E-01 2.26610E-01 2.77926E-13 6.58814E-14
 -1         4 2.02775E+01 3.15413E-01 3.15804E-01-2.89230E-01 1.70546E-13-6.63428E-14
 -1         5 3.27687E+01 6.14278E+00 2.74213E+00 6.22409E+00-2.85535E-14 1.80812E-12
 -1         6 3.57524E+01 1.22633E+01 5.12515E+00-8.64632E+00-9.48547E-14 1.58379E-12
 -1         7 2.08203E+01 6.10013E+00-1.28497E-01-4.72480E+00-1.25872E-14 3.15227E-13
 -1         8 1.96728E+01 5.93523E+00 5.08279E-02-3.27371E+00-1.98175E-14-7.76410E-14
 -1         9 1.91377E+01 5.77214E+00 4.90291E-02-2.52578E+00-1.68910E-14-2.95847E-13
 -1        10 1.88961E+01 5.69232E+00 5.12570E-02-1.95027E+00-1.24770E-14-4.00190E-13
 -1        11 1.87734E+01 5.65123E+00 5.03965E-02-1.45515E+00-6.35993E-15-4.45105E-13
 -1        12 1.87093E+01 5.62937E+00 4.87586E-02-1.01447E+00-4.19955E-15-4.56170E-13
 -1        13 1.86755E+01 5.61784E+00 4.73863E-02-5.94928E-01-2.89222E-15-4.54104E-13
 -1        14 1.86612E+01 5.61296E+00 4.66565E-02-1.91073E-01 2.04066E-15-4.48462E-13
 -1        15 1.86617E+01 5.61312E+00 4.67003E-02 2.08034E-01 5.50173E-15-4.35043E-13
 -1        16 1.86770E+01 5.61833E+00 4.75263E-02 6.12737E-01 1.00238E-14-4.18263E-13
 -1        17 1.87121E+01 5.63012E+00 4.90453E-02 1.03425E+00 7.80604E-15-3.85513E-13
 -1        18 1.87773E+01 5.65228E+00 5.07961E-02 1.47810E+00 1.22497E-14-3.36500E-13
 -1        19 1.89013E+01 5.69395E+00 5.16947E-02 1.97904E+00 1.86370E-14-2.44702E-13
 -1        20 1.91441E+01 5.77486E+00 4.91613E-02 2.56299E+00 2.20362E-14-1.00679E-13
 -1        21 1.96681E+01 5.94986E+00 4.58614E-02 3.30801E+00 2.42584E-14 1.71251E-13
 -1        22 2.12028E+01 6.38181E+00 1.39551E-01 4.52239E+00 5.39846E-15 7.00027E-13
 -1        23 2.30314E+01-1.37933E+00-9.38333E-01-7.11047E-01-6.04829E-14 1.25872E-12
 -1        24 1.93694E+01-9.94725E-02-3.09825E-01 6.32180E-02-2.05148E-14 9.57659E-13
 -1        25 1.86819E+01-5.63230E-02-6.87766E-02 6.07612E-02-8.83842E-16 6.66685E-13
 -1        26 1.84803E+01-2.20926E-02-6.44535E-03 3.29981E-02-1.56727E-14 4.36949E-13
 -1        27 1.84926E+01-1.18035E-02 1.59174E-03 2.26234E-02-1.14393E-14 2.96116E-13
 -1        28 1.86077E+01-6.24091E-03 1.77623E-03 1.63341E-02-1.17571E-15 1.85269E-13
 -1        29 1.87686E+01-3.08240E-03 1.72001E-03 1.21961E-02 2.66028E-15 1.03803E-13
 -1        30 1.89440E+01-1.22300E-03 1.90696E-03 9.24961E-03 8.19171E-15 3.95751E-14
 -1        31 1.91161E+01-1.21598E-04 2.07318E-03 7.03754E-03-1.44195E-14-1.57079E-15
 -1        32 1.92749E+01 5.12362E-04 2.11188E-03 5.32754E-03-1.31201E-14-1.19901E-13
 -1        33 1.94156E+01 8.48749E-04 2.03097E-03 3.98867E-03 2.40660E-15-2.04676E-13
 -1        34 1.95363E+01 9.93678E-04 1.86909E-03 2.93741E-03-6.48496E-15-2.41997E-13
 -1        35 1.96370E+01 1.01659E-03 1.66256E-03 2.11420E-03-1.16461E-14-2.97262E-13
 -1        36 1.97191E+01 9.63922E-04 1.43827E-03 1.47299E-03 1.99804E-14-2.20504E-13
 -1        37 1.97844E+01 8.66648E-04 1.21396E-03 9.76496E-04-5.23967E-14-2.37330E-13
 -1        38 1.98353E+01 7.44749E-04 9.99928E-04 5.93873E-04-1.68741E-14-4.41112E-13
 -1        39 1.98739E+01 6.10146E-04 8.00613E-04 2.99650E-04 2.28421E-14-4.50986E-13
 -1        40 1.99028E+01 4.68719E-04 6.15860E-04 7.31335E-05 1.91293E-15-4.26701E-13
 -1        41 1.99240E+01 3.21719E-04 4.41886E-04-1.01910E-04 9.35548E-15-5.30761E-13
 -1        42 1.99400E+01 1.66792E-04 2.71951E-04-2.37402E-04-4.30930E-14-5.17934E-13
 -1        43 1.99529E+01-1.30601E-06 9.67653E-05-3.40940E-04-4.67561E-14-5.79876E-13
 -1        44 1.99651E+01-1.90200E-04-9.53215E-05-4.15599E-04 4.90518E-14-5.58590E-13
 -1        45 1.99793E+01-4.09512E-04-3.18314E-04-4.59491E-04-2.43024E-14-4.86159E-13
 -1        46 1.99987E+01-6.70525E-04-5.88689E-04-4.65001E-04 5.39640E-14-6.01741E-13
 -1        47 2.00268E+01-9.85771E-04-9.25573E-04-4.17612E-04 7.03375E-15-4.07398E-13
 -1        48 2.00683E+01-1.36838E-03-1.35087E-03-2.94208E-04 1.17533E-14-3.22532E-13
 -1        49 2.01288E+01-1.83097E-03-1.88919E-03-6.06749E-05 3.47429E-14-3.25025E-13
 -1        50 2.02153E+01-2.38361E-03-2.56715E-03 3.31348E-04-6.45486E-14-5.48123E-13
 -1        51 2.03364E+01-3.03019E-03-3.41141E-03 9.48765E-04 8.80928E-15-4.44674E-13
 -1        52 2.05024E+01-3.76203E-03-4.44396E-03 1.88233E-03-1.40616E-14-2.95476E-13
 -1        53 2.07256E+01-4.54676E-03-5.67164E-03 3.25241E-03-8.61423E-15-2.58658E-13
 -1        54 2.10198E+01-5.30952E-03-7.06437E-03 5.21307E-03 2.68191E-14-3.20738E-13
 -1        55 2.13998E+01-5.90240E-03-8.51152E-03 7.94882E-03-3.21098E-14-5.87390E-13
 -1        56 2.18793E+01-6.05764E-03-9.73879E-03 1.16505E-02-3.21471E-14-6.71903E-13
 -1        57 2.24671E+01-5.32340E-03-1.01609E-02 1.64412E-02 1.39122E-14-7.57149E-13
 -1        58 2.31599E+01-2.99378E-03-8.64881E-03 2.21972E-02 8.75275E-14-4.55516E-13
 -1        59 2.39293E+01 1.91843E-03-3.24365E-03 2.81733E-02-5.56269E-15-4.45696E-13
 -1        60 2.47028E+01 1.05465E-02 8.99260E-03 3.23258E-02-1.70919E-14-1.18456E-13
 -1        61 2.53359E+01 2.36235E-02 3.13827E-02 3.03371E-02 9.80982E-14-6.15384E-14
 -1        62 2.55860E+01 4.02387E-02 6.52597E-02 1.48259E-02-5.67935E-14 6.38138E-14
 -1        63 2.51090E+01 5.58885E-02 1.04654E-01-2.35656E-02-1.29204E-13-6.35502E-13
 -1        64 2.35290E+01 6.10048E-02 1.29600E-01-9.01437E-02 1.51931E-14-8.31408E-13
 -1        65 2.06367E+01 4.31060E-02 1.05977E-01-1.73224E-01-1.19643E-13-4.68826E-13
 -1        66 1.67099E+01-4.56083E-03 4.79838E-03-2.31602E-01 1.21960E-13-4.41674E-13
 -1        67 1.27662E+01-7.02642E-02-1.58061E-01-2.04057E-01 7.98645E-14-2.54033E-13
 -1        68 1.03919E+01-1.19646E-01-3.01342E-01-5.30013E-02 2.43208E-14 1.01942E-13
 -1        69 1.09538E+01-1.10765E-01-3.06032E-01 1.83836E-01 5.19662E-14-4.60153E-13
 -1        70 1.44699E+01-4.28386E-02-1.03156E-01 3.62291E-01 3.11990E-14-6.14717E-13
 -1        71 1.88822E+01-1.90416E-02 2.24711E-01 3.24907E-01-7.21901E-14-6.42604E-13
 -1        72 2.10438E+01-4.05115E-01-9.80578E-01-3.11672E-01 1.27606E-14 1.68932E-12
 -1        73 1.93338E+01-6.59703E-02-2.90841E-01-5.40040E-02 8.95117E-15 1.33121E-12
 -1        74 1.86916E+01-2.03932E-02-6.36460E-02-2.04815E-02-3.73790E-15 1.04915E-12
 -1        75 1.84900E+01-9.91480E-03-8.93503E-03-1.53694E-02 5.86185E-15 8.76408E-13
 -1        76 1.85014E+01-5.16880E-03 5.20147E-04-1.23355E-02 8.95475E-15 7.55963E-13
 -1        77 1.86158E+01-2.62330E-03 1.63526E-03-1.01548E-02 5.79978E-15 6.57988E-13
 -1        78 1.87759E+01-1.14545E-03 1.85693E-03-8.39698E-03 3.50434E-15 6.05752E-13
 -1        79 1.89503E+01-2.77808E-04 2.06440E-03-6.96473E-03 3.55033E-15 5.70177E-13
 -1        80 1.91213E+01 2.25224E-04 2.20735E-03-5.74572E-03 1.02198E-15 4.62301E-13
 -1        81 1.92793E+01 5.00959E-04 2.22374E-03-4.68699E-03 3.84517E-14 4.42894E-13
 -1        82 1.94192E+01 6.31199E-04 2.12354E-03-3.77055E-03-1.89637E-15 4.43749E-13
 -1        83 1.95392E+01 6.68529E-04 1.94463E-03-2.98531E-03-6.83874E-15 5.23984E-13
 -1        84 1.96394E+01 6.47808E-04 1.72318E-03-2.32017E-03 2.38623E-14 3.09892E-13
 -1        85 1.97210E+01 5.92265E-04 1.48593E-03-1.76275E-03-6.60248E-15 1.44266E-13
 -1        86 1.97859E+01 5.17072E-04 1.25040E-03-1.29946E-03-2.52023E-14 2.07812E-13
 -1        87 1.98364E+01 4.31582E-04 1.02661E-03-9.15911E-04-5.36030E-15 2.68783E-13
 -1        88 1.98748E+01 3.40818E-04 8.18631E-04-5.97598E-04-5.28978E-15 1.48093E-13
 -1        89 1.99034E+01 2.46525E-04 6.25924E-04-3.30485E-04 5.93252E-14-1.28706E-13
 -1        90 1.99245E+01 1.47921E-04 4.44268E-04-1.01549E-04-6.63603E-14-2.33639E-13
 -1        91 1.99404E+01 4.22469E-05 2.66479E-04 1.00762E-04-1.30746E-14-4.27746E-14
 -1        92 1.99533E+01-7.48052E-05 8.28754E-05 2.86085E-04-1.40458E-15 2.65705E-13
 -1        93 1.99656E+01-2.08743E-04-1.18441E-04 4.61630E-04 1.16992E-15 5.20000E-14
 -1        94 1.99800E+01-3.65905E-04-3.51389E-04 6.31503E-04 6.35413E-15-2.59445E-13
 -1        95 1.99996E+01-5.53000E-04-6.31708E-04 7.95733E-04 2.01114E-14-6.68208E-14
 -1        96 2.00280E+01-7.76407E-04-9.76586E-04 9.48880E-04 5.02248E-14 2.83346E-13
 -1        97 2.00697E+01-1.04108E-03-1.40389E-03 1.07802E-03 3.73054E-14 4.37320E-15
 -1        98 2.01301E+01-1.34875E-03-1.93064E-03 1.15994E-03-9.20782E-14-3.63388E-14
 -1        99 2.02157E+01-1.69515E-03-2.57010E-03 1.15719E-03-1.78642E-14 1.23530E-13
 -1       100 2.03343E+01-2.06552E-03-3.32653E-03 1.01288E-03-1.10077E-14 3.42956E-13
 -1       101 2.04946E+01-2.42777E-03-4.18592E-03 6.43976E-04 8.44272E-15 2.99970E-13
 -1       102 2.07062E+01-2.72239E-03-5.09984E-03-6.65113E-05 3.50265E-15 2.04009E-13
 -1       103 2.09790E+01-2.84816E-03-5.95844E-03-1.27679E-03-3.90611E-14 9.03823E-14
 -1       104 2.13211E+01-2.64395E-03-6.54638E-03-3.18826E-03 3.72446E-14 3.22357E-13
 -1       105 2.17364E+01-1.86986E-03-6.47631E-03-6.03092E-03 2.34904E-14 1.26794E-13
 -1       106 2.22200E+01-1.98540E-04-5.10027E-03-1.00091E-02-2.03354E-14-7.62888E-14
 -1       107 2.27514E+01 2.75784E-03-1.42348E-03-1.51651E-02 2.10941E-14-2.54137E-16
 -1       108 2.32838E+01 7.33507E-03 5.89373E-03-2.10979E-02 4.49548E-14-6.30711E-14
 -1       109 2.37320E+01 1.35449E-02 1.82449E-02-2.64779E-02 7.69320E-14-2.41474E-15
 -1       110 2.39605E+01 2.05855E-02 3.61550E-02-2.83995E-02 2.07402E-14-4.11165E-13
 -1       111 2.37830E+01 2.62184E-02 5.73825E-02-2.19429E-02-4.31192E-14-3.98654E-13
 -1       112 2.29883E+01 2.64700E-02 7.43199E-02-9.85366E-04-9.09977E-14 9.32605E-14
 -1       113 2.14178E+01 1.67843E-02 7.29216E-02 3.81671E-02 2.61484E-14-1.44433E-14
 -1       114 1.91012E+01-4.76179E-03 3.71620E-02 8.98784E-02-4.31422E-14 3.54924E-14
 -1       115 1.64081E+01-3.33436E-02-3.82303E-02 1.32967E-01 5.35752E-14-2.00978E-13
 -1       116 1.40940E+01-5.59726E-02-1.33823E-01 1.34527E-01 8.71425E-14-5.88210E-13
 -1       117 1.31032E+01-5.54832E-02-1.98202E-01 6.58824E-02 5.97048E-14-5.80693E-13
 -1       118 1.40797E+01-2.49556E-02-1.67764E-01-6.79568E-02 1.12410E-14-6.32293E-13
 -1       119 1.67407E+01 3.54830E-02-1.41397E-02-2.14619E-01-8.46825E-14-3.14138E-13
 -1       120 1.94039E+01-2.58021E-02 9.58516E-02-2.09054E-01-6.85558E-14-5.75373E-14
 -1       121 2.00536E+01-8.43427E-01 1.97213E-01-1.91964E-01 1.30694E-14-1.14275E-13
 -1       122 2.00705E+01-4.34666E+00 2.19611E-01-2.72440E-01 4.88914E-13 6.48388E-14
 -1       123 2.00022E+01-9.72204E+00 1.72863E-01-4.17652E-01 3.35731E-13-1.59122E-14
 -1       124 1.98757E+01-1.65921E+01-1.12067E-01-6.60384E-01-4.32598E-13-2.66115E-13
 -1       125 1.96787E+01-2.26195E+01-9.56286E-01-7.18842E-01-6.58196E-13 1.92471E-13
 -1       126 1.95378E+01-2.30800E+01-2.00267E+00 9.05273E-02-2.49759E-13-1.50543E-13
 -1       127 1.93709E+01-1.30966E+01-2.13357E+00 1.85007E+00-5.99243E-13 8.16153E-14
 -1       128 1.95874E+01 9.87016E+00 2.10625E-01 2.97081E+00-1.32017E-12-2.15798E-13
 -1       129 2.04699E+01 4.05038E+01 5.04364E+00 2.64445E+00-1.81877E-12 1.52371E-13
 -1       130 2.06358E+01 6.23857E+01 8.95254E+00 8.70395E-01-1.76961E-12-1.94289E-15
 -1       131 2.05709E+01 5.70910E+01 8.00397E+00-1.64710E+00-1.46810E-12 1.65104E-13
 -1       132 2.01934E+01 2.56754E+01 2.57421E+00-2.52420E+00-5.80869E-13 3.98882E-14
 -1       133 1.97815E+01-3.82760E+00-1.53914E+00-1.55999E+00-9.44023E-13-3.38788E-13
 -1       134 1.97254E+01-2.18149E+01-2.42508E+00-2.28047E-01-1.65465E-12 1.73191E-13
 -1       135 1.98304E+01-2.21842E+01-1.10149E+00 3.85227E-01 4.64490E-14-7.20214E-14
 -1       136 1.99340E+01-1.46614E+01-1.06929E-01 3.52708E-01 1.56652E-13 2.13154E-14
 -1       137 2.00957E+01-7.15628E+00 1.91718E-01 5.98487E-01-2.39725E-13 1.03090E-13
 -1       138 2.01047E+01-1.67124E+00 3.14665E-01 5.17871E-01 5.80563E-13 1.01629E-13
 -1       139-2.14544E+00-3.53094E+01-1.02004E+01-4.58702E+00 1.89881E-12 7.05977E-13
 -1       140 2.96793E+00 1.38466E+00-3.05170E+00 4.18384E+00 6.57252E-13-5.86198E-14
 -1       141 1.82777E+01 2.64402E+01 2.39806E+00 2.14141E+01-7.25642E-13-2.11386E-13
 -1       142 4.26427E+01 2.94486E+01 4.53618E+00 3.43446E+01-7.98972E-13-1.14986E-12
 -1       143 6.60767E+01 1.93266E+01 4.65482E+00 3.45784E+01-7.15067E-13-1.26832E-12
 -1       144 8.28844E+01 7.17044E+00 4.26920E+00 2.27708E+01-4.13499E-13-6.87842E-13
 -1       145 8.58526E+01 1.12053E+00 3.79726E+00 4.86540E+00 8.18373E-14-5.24220E-13
 -1       146 7.34733E+01 2.75522E+00 3.10325E+00-1.17757E+01 3.45106E-13-1.65357E-12
 -1       147 5.03028E+01 8.17924E+00 2.03888E+00-1.94516E+01 8.26034E-13-1.88127E-12
 -1       148 2.69898E+01 1.10527E+01 7.52484E-01-1.69938E+01 1.00986E-12-1.51601E-12
 -1       149 7.50332E+00 6.28963E+00-7.68219E-01-7.05297E+00 5.46452E-13-7.91922E-13
 -1       150-1.33697E+00-5.95715E+00-2.12875E+00 2.39586E+00 2.73004E-13-8.21565E-14
 -1       151-2.40422E+00-2.08597E+01-3.15677E+00 5.77607E+00 6.62248E-14-1.13271E-13
 -1       152-1.09581E+00-3.05975E+01-3.69502E+00 2.82629E+00-2.59431E-13 8.23092E-14
 -1       153-1.09436E+00-3.06376E+01-3.72120E+00-3.18510E+00 8.84876E-13 6.53765E-14
 -1       154-2.58201E+00-2.10380E+01-3.23886E+00-6.19647E+00 3.51663E-13 1.01835E-13
 -1       155-1.56676E+00-6.51614E+00-2.27317E+00-2.74357E+00-5.59219E-13-5.69156E-13
 -1       156 6.13843E+00 5.57206E+00-9.99747E-01 6.04928E+00-3.68150E-13-2.11720E-13
 -1       157 2.26085E+01 1.10719E+01 4.32712E-01 1.57580E+01 3.49942E-13 5.17253E-13
 -1       158 4.79062E+01 9.06798E+00 1.96185E+00 2.02301E+01 1.04805E-13 1.26232E-13
 -1       159 7.19660E+01 3.47116E+00 3.17317E+00 1.37723E+01-1.05402E-13-4.67515E-13
 -1       160 8.51235E+01 5.77836E+00 4.32967E+00-2.02215E+01 6.98261E-14-5.82083E-13
 -1       161 6.82835E+01 1.77587E+01 4.59547E+00-3.35720E+01 3.62516E-13-2.88713E-13
 -1       162 4.30826E+01 2.85592E+01 4.38248E+00-3.41702E+01 4.92661E-13-6.58140E-13
 -1       163 1.90676E+01 2.67885E+01 2.43152E+00-2.20662E+01 4.51861E-14-2.25597E-13
 -1       164 3.17270E+00 3.43805E+00-2.69225E+00-4.76261E+00-4.48086E-13 1.97842E-13
 -1       165-2.35660E+00-3.58365E+01-1.03098E+01 5.23118E+00 4.12337E-13 1.12535E-13
 -1       166 2.10151E+01 3.69367E+00-5.73852E-02-3.60933E+00-2.26485E-13 9.69051E-14
 -1       167 1.99910E+01 4.20847E+00-4.59430E-02-2.80754E+00-2.16126E-13-1.40991E-13
 -1       168 1.95107E+01 4.47667E+00-3.13375E-02-2.19504E+00-1.70158E-13-2.70244E-13
 -1       169 1.92675E+01 4.61539E+00-2.34978E-02-1.67387E+00-1.19893E-13-3.47881E-13
 -1       170 1.91363E+01 4.69708E+00-1.95356E-02-1.21842E+00-8.12702E-14-3.71340E-13
 -1       171 1.90622E+01 4.74806E+00-1.74347E-02-7.91595E-01-4.14732E-14-3.79657E-13
 -1       172 1.90247E+01 4.77593E+00-1.64209E-02-3.86641E-01 8.98831E-15-3.71548E-13
 -1       173 1.90138E+01 4.78447E+00-1.61293E-02 8.24216E-03 4.49892E-14-3.63013E-13
 -1       174 1.90265E+01 4.77463E+00-1.64637E-02 4.03477E-01 8.27786E-14-3.49428E-13
 -1       175 1.90658E+01 4.74507E+00-1.75209E-02 8.09522E-01 1.18048E-13-3.33926E-13
 -1       176 1.91407E+01 4.69266E+00-1.96902E-02 1.23083E+00 1.50405E-13-2.92351E-13
 -1       177 1.92768E+01 4.60562E+00-2.39794E-02 1.69733E+00 1.95826E-13-2.28779E-13
 -1       178 1.95249E+01 4.45967E+00-3.25767E-02 2.22490E+00 2.35786E-13-1.25778E-13
 -1       179 2.00137E+01 4.18418E+00-4.71890E-02 2.84705E+00 2.60307E-13 7.02598E-14
 -1       180 2.11365E+01 3.46352E+00-6.00652E-02 3.53556E+00 2.42114E-13 3.80876E-13
 -1       181 2.24212E+01 1.14339E+00-3.36574E-01 3.01432E+00 1.60445E-13 7.95461E-13
 -1       182 2.19737E+01 8.58160E-01 6.92389E-04-1.95862E+00-1.94761E-13 3.87204E-13
 -1       183 2.04495E+01 1.90351E-01-9.93453E-03-7.63627E-01-1.67264E-13 3.00739E-13
 -1       184 1.96746E+01 1.01665E-01 1.36036E-02-2.85030E-01-1.53013E-13 1.99873E-13
 -1       185 1.93355E+01 4.72126E-02 1.00162E-02-6.72982E-02-9.87769E-14 9.09611E-14
 -1       186 1.92064E+01 2.26080E-02 5.15701E-03 4.00789E-02-7.02852E-14 6.26526E-14
 -1       187 1.91937E+01 9.56381E-03 2.43090E-03 9.28020E-02-4.67917E-14 4.14070E-14
 -1       188 1.92431E+01 2.15822E-03 1.12748E-03 1.15270E-01-4.02979E-14 4.54124E-14
 -1       189 1.93231E+01-2.08874E-03 4.92098E-04 1.20252E-01-5.11325E-14 7.75627E-15
 -1       190 1.94148E+01-4.41248E-03 1.54932E-04 1.15146E-01-5.00132E-14-3.85618E-14
 -1       191 1.95070E+01-5.51671E-03-3.43296E-05 1.04530E-01-5.61812E-14 6.16071E-16
 -1       192 1.95934E+01-5.84302E-03-1.38953E-04 9.13198E-02-6.93849E-14-1.51490E-13
 -1       193 1.96704E+01-5.68391E-03-1.90640E-04 7.73785E-02 1.45270E-15-1.87082E-13
 -1       194 1.97368E+01-5.23706E-03-2.08260E-04 6.38654E-02 2.89049E-14-1.16842E-13
 -1       195 1.97923E+01-4.63514E-03-2.04078E-04 5.14680E-02-5.35183E-14-1.47640E-13
 -1       196 1.98376E+01-3.96387E-03-1.86206E-04 4.05603E-02-1.08125E-13-9.41509E-14
 -1       197 1.98739E+01-3.27413E-03-1.59870E-04 3.13174E-02-5.12429E-14-1.84526E-13
 -1       198 1.99026E+01-2.59050E-03-1.28195E-04 2.38012E-02 1.66396E-14-3.27666E-13
 -1       199 1.99251E+01-1.91734E-03-9.27335E-05 1.80247E-02-5.63970E-14-3.55228E-13
 -1       200 1.99432E+01-1.24330E-03-5.38380E-05 1.40020E-02-4.29316E-14-3.88361E-13
 -1       201 1.99586E+01-5.44301E-04-1.09279E-05 1.17871E-02-1.45303E-14-3.85699E-13
 -1       202 1.99731E+01 2.14451E-04 3.73134E-05 1.15059E-02-1.12608E-15-2.96324E-13
 -1       203 1.99889E+01 1.07724E-03 9.27817E-05 1.33832E-02 3.29248E-14-3.36072E-13
 -1       204 2.00084E+01 2.09713E-03 1.57808E-04 1.77664E-02 6.68777E-14-1.71122E-13
 -1       205 2.00343E+01 3.33533E-03 2.34994E-04 2.51470E-02 1.43703E-13-5.25272E-14
 -1       206 2.00701E+01 4.86034E-03 3.26974E-04 3.61785E-02 1.78166E-15-1.73523E-14
 -1       207 2.01197E+01 6.74584E-03 4.36035E-04 5.16903E-02-4.23473E-14-1.14749E-13
 -1       208 2.01882E+01 9.06646E-03 5.63457E-04 7.26901E-02-1.42132E-13-2.40291E-13
 -1       209 2.02812E+01 1.18888E-02 7.08388E-04 1.00349E-01 1.45635E-14-2.84554E-13
 -1       210 2.04056E+01 1.52541E-02 8.65909E-04 1.35949E-01 9.89504E-14-1.47258E-13
 -1       211 2.05693E+01 1.91446E-02 1.02384E-03 1.80761E-01-5.77358E-14-1.03145E-13
 -1       212 2.07805E+01 2.34216E-02 1.15764E-03 2.35803E-01-1.63348E-14-1.93786E-13
 -1       213 2.10480E+01 2.77135E-02 1.22299E-03 3.01369E-01-1.81398E-13-2.32679E-13
 -1       214 2.13791E+01 3.12205E-02 1.14625E-03 3.76192E-01-4.55530E-14-3.54980E-13
 -1       215 2.17778E+01 3.23937E-02 8.16053E-04 4.55974E-01 7.23747E-14-2.83400E-13
 -1       216 2.22412E+01 2.84543E-02 8.48725E-05 5.30986E-01 1.39481E-13-3.16754E-13
 -1       217 2.27534E+01 1.47972E-02-1.19901E-03 5.82451E-01 8.59370E-14-3.93505E-13
 -1       218 2.32772E+01-1.54311E-02-3.10437E-03 5.77876E-01 7.27490E-14-4.03372E-13
 -1       219 2.37439E+01-7.06585E-02-5.43933E-03 4.66900E-01 5.43730E-14-1.44623E-13
 -1       220 2.40424E+01-1.57102E-01-7.56022E-03 1.82593E-01-4.84760E-14-2.10644E-13
 -1       221 2.40167E+01-2.68748E-01-8.24877E-03-3.41177E-01-2.21478E-13-2.98434E-13
 -1       222 2.34834E+01-3.70307E-01-6.20856E-03-1.12120E+00-9.45737E-14-1.97076E-13
 -1       223 2.22917E+01-3.83119E-01-1.40903E-03-2.04005E+00 2.74876E-13-1.02908E-13
 -1       224 2.04403E+01-2.05336E-01 3.53313E-03-2.76576E+00 1.54678E-13 3.48594E-13
 -1       225 1.82261E+01 1.99758E-01 3.94615E-03-2.79543E+00 1.85964E-13 2.41911E-13
 -1       226 1.62932E+01 6.93929E-01-4.16828E-04-1.74335E+00 7.13631E-14 1.39092E-13
 -1       227 1.54057E+01 9.66365E-01-6.30794E-03 2.36635E-01-2.61079E-13-1.38483E-13
 -1       228 1.59665E+01 7.04370E-01-7.16698E-03 2.25462E+00-1.35602E-13-2.96646E-13
 -1       229 1.77258E+01-2.30803E-01 1.70469E-02 3.00548E+00 3.93435E-14-1.12726E-13
 -1       230 2.09663E+01 2.78008E-01-5.07564E-02 1.16472E+00 1.87562E-13 6.87635E-13
 -1       231 1.98711E+01 1.27945E-01 8.89017E-03 4.43178E-01 1.43883E-13 5.33924E-13
 -1       232 1.93656E+01 5.75332E-02 1.27230E-02 1.49730E-01 9.77361E-14 3.97999E-13
 -1       233 1.91565E+01 2.79702E-02 7.52249E-03 1.04370E-02 6.57517E-14 3.31416E-13
 -1       234 1.91075E+01 1.31048E-02 3.75445E-03-5.90661E-02 5.90295E-14 2.89125E-13
 -1       235 1.91441E+01 5.12433E-03 1.89371E-03-9.15187E-02 2.74604E-14 2.34626E-13
 -1       236 1.92241E+01 6.09739E-04 1.00164E-03-1.03327E-01 5.06261E-14 2.08851E-13
 -1       237 1.93226E+01-1.97805E-03 5.40399E-04-1.03204E-01 4.28391E-14 1.66847E-13
 -1       238 1.94250E+01-3.36617E-03 2.75741E-04-9.62980E-02 1.19393E-14 1.48507E-13
 -1       239 1.95228E+01-3.98450E-03 1.13780E-04-8.58613E-02-3.62230E-14 2.21947E-13
 -1       240 1.96113E+01-4.11321E-03 1.41975E-05-7.39743E-02 3.08219E-14 2.00079E-13
 -1       241 1.96883E+01-3.93959E-03-4.42586E-05-6.19524E-02 1.04454E-13 1.50461E-13
 -1       242 1.97534E+01-3.59004E-03-7.48943E-05-5.05999E-02 4.41094E-14 1.12667E-13
 -1       243 1.98069E+01-3.14867E-03-8.66691E-05-4.03778E-02-3.91580E-14 1.29498E-13
 -1       244 1.98499E+01-2.66889E-03-8.56939E-05-3.15226E-02 2.53138E-14 1.23135E-13
 -1       245 1.98839E+01-2.18111E-03-7.60735E-05-2.41329E-02 6.56605E-14 4.09384E-14
 -1       246 1.99105E+01-1.69834E-03-6.04561E-05-1.82344E-02 1.46855E-13 3.08418E-15
 -1       247 1.99313E+01-1.22017E-03-4.04149E-05-1.38294E-02 3.43729E-14 3.28044E-14
 -1       248 1.99481E+01-7.35704E-04-1.67276E-05-1.09347E-02-1.15898E-13 7.60143E-14
 -1       249 1.99627E+01-2.25628E-04 1.04020E-05-9.61137E-03-9.28902E-14 4.95898E-14
 -1       250 1.99773E+01 3.36296E-04 4.11520E-05-9.98912E-03 3.02654E-14 4.37436E-14
 -1       251 1.99941E+01 9.82039E-04 7.58937E-05-1.22851E-02 1.10858E-13 1.53237E-13
 -1       252 2.00157E+01 1.74808E-03 1.14980E-04-1.68190E-02-5.02102E-14-3.51448E-15
 -1       253 2.00451E+01 2.67375E-03 1.58480E-04-2.40230E-02-7.24508E-14 8.81756E-14
 -1       254 2.00860E+01 3.79840E-03 2.05816E-04-3.44433E-02 9.16885E-14 1.54838E-13
 -1       255 2.01428E+01 5.15672E-03 2.55249E-04-4.87294E-02-9.84475E-14 1.44190E-13
 -1       256 2.02204E+01 6.77055E-03 3.03160E-04-6.76022E-02-5.14046E-14 2.62950E-13
 -1       257 2.03246E+01 8.63516E-03 3.43031E-04-9.17862E-02-1.12825E-13 2.51243E-13
 -1       258 2.04619E+01 1.06966E-02 3.64141E-04-1.21885E-01 5.10632E-14 1.97293E-13
 -1       259 2.06389E+01 1.28152E-02 3.50067E-04-1.58164E-01 1.31364E-13 7.40200E-14
 -1       260 2.08616E+01 1.47072E-02 2.77521E-04-2.00194E-01-8.22508E-15 5.66599E-15
 -1       261 2.11346E+01 1.58577E-02 1.16881E-04-2.46272E-01 4.36823E-14-3.49543E-14
 -1       262 2.14584E+01 1.53967E-02-1.62696E-04-2.92550E-01 1.47271E-13-8.60729E-14
 -1       263 2.18266E+01 1.19465E-02-5.78585E-04-3.31776E-01-5.63525E-14-1.48081E-13
 -1       264 2.22215E+01 3.48891E-03-1.10448E-03-3.51670E-01 2.34845E-14-1.19973E-13
 -1       265 2.26077E+01-1.26032E-02-1.62192E-03-3.33257E-01 9.91799E-14-7.46623E-14
 -1       266 2.29264E+01-3.90412E-02-1.86965E-03-2.50132E-01-1.75255E-14-1.18745E-13
 -1       267 2.30899E+01-7.70285E-02-1.44763E-03-7.09153E-02 1.54453E-13-9.03565E-14
 -1       268 2.29846E+01-1.22916E-01 3.44464E-05 2.31202E-01-1.72291E-13 1.68595E-13
 -1       269 2.24883E+01-1.63210E-01 2.51459E-03 6.57252E-01-6.80497E-14 1.61867E-13
 -1       270 2.15136E+01-1.70988E-01 4.75869E-03 1.14932E+00 1.73286E-14 1.74253E-14
 -1       271 2.00797E+01-1.11135E-01 4.68057E-03 1.56004E+00-7.95104E-14 8.03489E-14
 -1       272 1.83915E+01 3.61401E-02 7.65683E-05 1.66300E+00 3.62526E-13-2.20952E-14
 -1       273 1.68666E+01 2.42172E-01-8.78552E-03 1.24823E+00 8.17141E-14-2.06342E-13
 -1       274 1.60278E+01 4.13337E-01-1.69154E-02 2.85829E-01-8.04357E-14-1.08762E-13
 -1       275 1.62497E+01 4.15764E-01-1.52593E-02-9.18603E-01-1.13753E-13 4.96252E-14
 -1       276 1.74456E+01 1.43658E-01 4.81132E-03-1.71774E+00-1.17524E-13 1.73153E-13
 -1       277 1.90207E+01-4.05393E-01 3.58848E-02-1.44541E+00-6.85370E-14 5.70481E-14
 -1       278 1.94385E+01-1.65994E+00 1.55519E-02-2.30346E+00 1.76626E-13 3.11631E-13
 -1       279 1.95652E+01-3.32708E+00 2.04669E-02-3.36114E+00 2.58508E-13-8.53581E-14
 -1       280 1.97426E+01-5.09735E+00 1.92148E-02-3.99355E+00 6.34180E-14-4.51847E-13
 -1       281 2.06115E+01-6.18579E+00-3.72756E-02-3.37916E+00 1.06866E-13-2.38011E-13
 -1       282 2.26947E+01-5.92642E+00-1.39166E-01-9.90014E-02 1.39462E-13 5.10925E-13
 -1       283 2.57358E+01-4.63748E+00-2.02553E-01 6.58566E+00 8.82731E-14-3.20119E-13
 -1       284 2.05383E+01 8.44819E+00 4.27791E-01 1.88032E+01-6.67286E-13-4.85140E-13
 -1       285 1.45623E+01 1.71578E+01 8.68883E-01 1.25929E+01-1.00103E-12 1.07525E-13
 -1       286 1.21475E+01 1.96102E+01 8.92614E-01-3.13300E+00-5.66037E-13 1.44218E-13
 -1       287 1.78619E+01 1.43003E+01 8.94669E-01-1.73379E+01-5.03590E-13 4.05953E-13
 -1       288 2.29520E+01 3.74129E+00 1.12565E-01-1.75089E+01-5.87697E-13-2.73642E-13
 -1       289 2.32594E+01-6.89259E+00-6.44749E-01-7.78172E+00-5.17794E-13-3.19467E-13
 -1       290 2.12342E+01-1.09972E+01-4.43137E-01 5.27340E-01-3.19945E-13 8.70165E-13
 -1       291 2.00972E+01-9.41185E+00-7.51358E-02 3.31796E+00 1.63661E-13 5.78357E-15
 -1       292 1.97483E+01-5.79621E+00 7.43740E-02 3.23154E+00 2.87256E-13-8.19995E-14
 -1       293 1.92244E+01-1.90204E+00 5.58766E-02 3.88783E+00 4.05724E-13 2.95253E-13
 -1       294 3.59199E+00-5.42003E+00-3.29243E+00 7.71084E+00-3.13971E-13 3.23241E-13
 -1       295 1.34603E+01-4.26423E+00-1.82470E+00 1.80413E+01-6.41154E-14-4.18582E-13
 -1       296 2.51334E+01 3.32073E-01-1.95454E-01 1.94942E+01 1.02973E-13-6.97081E-13
 -1       297 3.55745E+01 9.47068E+00 1.04440E+00 1.82448E+01-1.38334E-13-5.75484E-13
 -1       298 4.54432E+01 1.45833E+01 1.42126E+00 1.74828E+01-3.64556E-13-3.48332E-13
 -1       299 5.49752E+01 1.43985E+01 1.43583E+00 1.54454E+01-5.07067E-13-3.42504E-13
 -1       300 5.97729E+01 1.13561E+01 1.22273E+00 9.64587E+00-1.03778E-13-6.00985E-13
 -1       301 5.70248E+01 8.67288E+00 8.96406E-01 2.83274E+00 3.72480E-13-7.53564E-13
 -1       302 4.83726E+01 5.80972E+00 5.13944E-01-1.71777E+00 4.39787E-13-6.68299E-13
 -1       303 3.86702E+01 2.62555E+00 3.21331E-01-5.95372E+00 4.06800E-13-8.69915E-13
 -1       304 2.74877E+01-2.70748E+00-3.45408E-02-6.09596E+00 3.02119E-13-9.51655E-13
 -1       305 1.43347E+01-6.02828E+00-4.05193E-01-6.05284E+00 3.69205E-13-6.75293E-13
 -1       306 5.24870E+00-1.06727E+01-7.31573E-01-4.06896E+00 3.58963E-13-3.21914E-13
 -1       307 9.35567E-03-1.31168E+01-7.64289E-01-2.53637E+00 2.57572E-13-3.48582E-13
 -1       308-2.06695E+00-1.59901E+01-1.09124E+00-1.14376E-01 2.70547E-14 4.39510E-13
 -1       309-2.53631E-01-1.42082E+01-9.63609E-01 1.86683E+00 7.58005E-14-2.21809E-13
 -1       310 5.23710E+00-1.09352E+01-7.74705E-01 3.90815E+00 1.69642E-13-6.57314E-13
 -1       311 1.34685E+01-6.38508E+00-5.17284E-01 5.57804E+00-1.42719E-13-6.47538E-14
 -1       312 2.43878E+01-1.77094E+00-1.26595E-01 6.96086E+00-2.68785E-13 2.40863E-13
 -1       313 3.73271E+01 2.25960E+00 3.35295E-01 6.80917E+00 1.85685E-13-4.52749E-13
 -1       314 4.96702E+01 5.35032E+00 7.42862E-01 3.98410E+00 1.43760E-13-2.87326E-13
 -1       315 5.58396E+01 8.43676E+00 8.39012E-01-2.07904E+00-4.04121E-14-2.58737E-13
 -1       316 6.06448E+01 1.07160E+01 1.23497E+00-8.13058E+00 1.87489E-13-4.34604E-13
 -1       317 5.54595E+01 1.37778E+01 1.32344E+00-1.38576E+01 7.31637E-14-4.98407E-13
 -1       318 4.64425E+01 1.43215E+01 1.45084E+00-1.72515E+01 3.18853E-13-5.22582E-13
 -1       319 3.62973E+01 1.03228E+01 1.20065E+00-1.84454E+01-4.37983E-14-4.65794E-13
 -1       320 2.51292E+01 1.66700E+00-9.16179E-02-1.88294E+01 6.21725E-14-3.72619E-13
 -1       321 1.41440E+01-3.93983E+00-1.67220E+00-1.81007E+01-8.06577E-14 3.92464E-13
 -1       322 2.83366E+00-7.14023E+00-3.68863E+00-6.98690E+00-9.22318E-14 1.24234E-13
 -1       323 2.58691E+01-2.19368E+00-1.93634E-01 1.58915E+01-2.05239E-13-4.23869E-13
 -1       324 2.01371E+01 3.00096E+00-2.20082E-02-2.09603E+00-2.24161E-13-1.22853E-13
 -1       325 2.07580E+01 2.20822E+00-1.76821E-02-2.36340E+00-2.45936E-13-1.73993E-15
 -1       326 1.95828E+01 3.69199E+00-1.56162E-02-1.31636E+00-1.22969E-13-2.56784E-13
 -1       327 1.94592E+01 3.84902E+00-1.37098E-02-9.23006E-01-6.47746E-14-2.88533E-13
 -1       328 1.93898E+01 3.93997E+00-1.27111E-02-5.43461E-01-1.76748E-14-2.68651E-13
 -1       329 1.93591E+01 3.98135E+00-1.22907E-02-1.73118E-01 4.34667E-14-2.76590E-13
 -1       330 1.93604E+01 3.97976E+00-1.23120E-02 1.94196E-01 7.93827E-14-2.68318E-13
 -1       331 1.93941E+01 3.93473E+00-1.27707E-02 5.64913E-01 1.22290E-13-2.55533E-13
 -1       332 1.94651E+01 3.84135E+00-1.38247E-02 9.38619E-01 1.66708E-13-2.21704E-13
 -1       333 1.95926E+01 3.67869E+00-1.57656E-02 1.33257E+00 2.09477E-13-1.67441E-13
 -1       334 1.98084E+01 3.40990E+00-1.91019E-02 1.73831E+00 2.50910E-13-1.06419E-13
 -1       335 2.01758E+01 2.95119E+00-2.33418E-02 2.12363E+00 2.89470E-13 1.76621E-14
 -1       336 2.07618E+01 2.10586E+00-2.95147E-02 2.30604E+00 2.93406E-13 2.13385E-13
 -1       337 2.10950E+01 1.18657E+00-2.40670E-02 1.91419E+00 2.57025E-13 3.97971E-13
 -1       338 2.03841E+01 4.92204E-01 8.73122E-03 9.21208E-01 2.21273E-13 3.23759E-13
 -1       339 2.04603E+01 6.75392E-01 1.25828E-02-1.02393E+00-2.04582E-13 1.39220E-14
 -1       340 2.00389E+01 3.36953E-01 7.17113E-03-4.56759E-01-1.62333E-13 1.87312E-14
 -1       341 1.97851E+01 1.76649E-01 4.10023E-03-1.47639E-01-8.66878E-14 3.70669E-14
 -1       342 1.96501E+01 9.06171E-02 1.88686E-03 2.36733E-02-6.35536E-14-9.06165E-15
 -1       343 1.95952E+01 4.14682E-02 7.88100E-04 1.14937E-01-5.63644E-14-2.44775E-14
 -1       344 1.95902E+01 1.24579E-02 2.71546E-04 1.58179E-01-4.67176E-14-4.69839E-14
 -1       345 1.96146E+01-4.59911E-03 1.39780E-05 1.72261E-01-4.04125E-14-5.44091E-14
 -1       346 1.96542E+01-1.41645E-02-1.21751E-04 1.68898E-01-5.64282E-14-6.27818E-14
 -1       347 1.97001E+01-1.89142E-02-1.90773E-04 1.55622E-01-1.30208E-13-7.66751E-14
 -1       348 1.97465E+01-2.05655E-02-2.19220E-04 1.37348E-01-2.41326E-14-5.32358E-14
 -1       349 1.97902E+01-2.02639E-02-2.22220E-04 1.17265E-01-7.28913E-15-4.79034E-14
 -1       350 1.98292E+01-1.87835E-02-2.09577E-04 9.74027E-02 1.44317E-15-7.86626E-14
 -1       351 1.98630E+01-1.66401E-02-1.87788E-04 7.90012E-02-4.90153E-14-5.57912E-14
 -1       352 1.98914E+01-1.41636E-02-1.61025E-04 6.27799E-02-7.92341E-14-6.10969E-15
 -1       353 1.99150E+01-1.15455E-02-1.31754E-04 4.91289E-02-8.34434E-14 9.24795E-15
 -1       354 1.99345E+01-8.87274E-03-1.01169E-04 3.82541E-02-7.42927E-14-1.03474E-13
 -1       355 1.99508E+01-6.15226E-03-6.94872E-05 3.02863E-02-1.58476E-14-3.07097E-14
 -1       356 1.99651E+01-3.32812E-03-3.61642E-05 2.53650E-02-8.50107E-14-8.64209E-14
 -1       357 1.99786E+01-2.93612E-04-4.27580E-08 2.37049E-02 5.66686E-14-1.33595E-13
 -1       358 1.99927E+01 3.10058E-03 4.05440E-05 2.56495E-02 9.75791E-14-8.07880E-14
 -1       359 2.00092E+01 7.04064E-03 8.76943E-05 3.17149E-02 1.27153E-13 1.93050E-14
 -1       360 2.00297E+01 1.17449E-02 1.43867E-04 4.26265E-02 9.87073E-14-7.29518E-15
 -1       361 2.00567E+01 1.74585E-02 2.11790E-04 5.93482E-02 4.31371E-14-2.26385E-13
 -1       362 2.00926E+01 2.44442E-02 2.94305E-04 8.31007E-02-7.04680E-14-2.85048E-13
 -1       363 2.01406E+01 3.29659E-02 3.94087E-04 1.15364E-01-3.29963E-14-1.70703E-13
 -1       364 2.02042E+01 4.32583E-02 5.13111E-04 1.57848E-01-6.71885E-14 7.65743E-14
 -1       365 2.02874E+01 5.54695E-02 6.51684E-04 2.12418E-01 4.40881E-14 6.32455E-14
 -1       366 2.03946E+01 6.95576E-02 8.06682E-04 2.80928E-01 3.53907E-14-1.32645E-13
 -1       367 2.05306E+01 8.51065E-02 9.68497E-04 3.64904E-01-4.35320E-14-5.91288E-14
 -1       368 2.06999E+01 1.01003E-01 1.11591E-03 4.64981E-01-1.34049E-14 3.77544E-14
 -1       369 2.09069E+01 1.14892E-01 1.20804E-03 5.79916E-01-1.70138E-13 1.07613E-13
 -1       370 2.11544E+01 1.22291E-01 1.17287E-03 7.04952E-01-2.28325E-14-2.14171E-14
 -1       371 2.14434E+01 1.15264E-01 8.94062E-04 8.29201E-01 4.32699E-14-3.38003E-14
 -1       372 2.17717E+01 8.06881E-02 2.02140E-04 9.31709E-01 1.25558E-13 1.90061E-14
 -1       373 2.21329E+01-1.32253E-03-1.10780E-03 9.76128E-01 2.00313E-14 7.46966E-14
 -1       374 2.25148E+01-1.57017E-01-3.21926E-03 9.04823E-01 1.29185E-13 2.07371E-13
 -1       375 2.28970E+01-4.12136E-01-6.09126E-03 6.35597E-01 5.46969E-14 1.60982E-13
 -1       376 2.32430E+01-7.70377E-01-9.27111E-03 6.92652E-02-1.54640E-14 4.41934E-13
 -1       377 2.34835E+01-1.16835E+00-1.13561E-02-8.75273E-01-1.64738E-13 5.36788E-13
 -1       378 2.34891E+01-1.41626E+00-1.05363E-02-2.17571E+00 6.99085E-14 4.14289E-13
 -1       379 2.30629E+01-1.18385E+00-6.57296E-03-3.56654E+00 3.58176E-13 2.44982E-13
 -1       380 2.20292E+01-1.66699E-01-3.29478E-03-4.42926E+00 1.91240E-13 2.99088E-13
 -1       381 2.04712E+01 1.51137E+00-5.53184E-03-3.95357E+00-1.65330E-13-1.78256E-14
 -1       382 1.89115E+01 3.02477E+00-2.17326E-03-1.77063E+00-2.75183E-13-2.47908E-13
 -1       383 1.80441E+01 3.17500E+00-3.10190E-03 1.40404E+00-1.65515E-13 4.23424E-15
 -1       384 1.81657E+01 1.31450E+00-1.18027E-02 3.89622E+00 4.14274E-14 2.73811E-13
 -1       385 1.98878E+01 2.33592E-01 1.10493E-02 3.99330E-01 1.83575E-13 2.60094E-13
 -1       386 1.96044E+01 1.16008E-01 5.87556E-03 1.19481E-01 1.04749E-13 1.68265E-13
 -1       387 1.94707E+01 5.77349E-02 2.70791E-03-3.00127E-02 7.50933E-14 1.43365E-13
 -1       388 1.94314E+01 2.57253E-02 1.16300E-03-1.06790E-01 4.88254E-14 1.34497E-13
 -1       389 1.94476E+01 7.33997E-03 4.51102E-04-1.42018E-01 4.46703E-14 8.09914E-14
 -1       390 1.94941E+01-3.39859E-03 1.01251E-04-1.52495E-01 4.51034E-14 1.03748E-13
 -1       391 1.95549E+01-9.38262E-03-8.27860E-05-1.48352E-01 2.78745E-14 1.33139E-13
 -1       392 1.96197E+01-1.23231E-02-1.80529E-04-1.36023E-01-5.69722E-14 1.27584E-13
 -1       393 1.96825E+01-1.33150E-02-2.26479E-04-1.19652E-01 6.15890E-14 9.32276E-14
 -1       394 1.97399E+01-1.30842E-02-2.39541E-04-1.01907E-01 6.86987E-14 1.33414E-13
 -1       395 1.97903E+01-1.21190E-02-2.31867E-04-8.44699E-02 8.62631E-14 1.74583E-13
 -1       396 1.98331E+01-1.07459E-02-2.11630E-04-6.83595E-02-2.20113E-15 1.45524E-13
 -1       397 1.98685E+01-9.17437E-03-1.84209E-04-5.41533E-02 2.67464E-14 5.29985E-14
 -1       398 1.98974E+01-7.52767E-03-1.52923E-04-4.21510E-02 1.23335E-13 3.93840E-14
 -1       399 1.99207E+01-5.86384E-03-1.19554E-04-3.24942E-02 1.23124E-13 1.09960E-14
 -1       400 1.99397E+01-4.19115E-03-8.47172E-05-2.52577E-02 8.91298E-14 1.16799E-13
 -1       401 1.99557E+01-2.47926E-03-4.81382E-05-2.05193E-02-8.65215E-14 1.20450E-13
 -1       402 1.99701E+01-6.67321E-04-8.85455E-06-1.84132E-02-1.24115E-13 5.91376E-14
 -1       403 1.99847E+01 1.32998E-03 3.46203E-05-1.91731E-02 1.13645E-14 1.47092E-13
 -1       404 2.00012E+01 3.61739E-03 8.41499E-05-2.31644E-02 1.22528E-13 1.86682E-13
 -1       405 2.00218E+01 6.31397E-03 1.41812E-04-3.09092E-02 5.15721E-14 1.72815E-13
 -1       406 2.00490E+01 9.54610E-03 2.09680E-04-4.30995E-02-1.65523E-13 8.85017E-14
 -1       407 2.00856E+01 1.34368E-02 2.89497E-04-6.05978E-02 1.49962E-14 1.82889E-13
 -1       408 2.01349E+01 1.80879E-02 3.82155E-04-8.44135E-02 1.85741E-14 2.79428E-13
 -1       409 2.02010E+01 2.35507E-02 4.86868E-04-1.15644E-01-7.67313E-14 1.61183E-13
 -1       410 2.02880E+01 2.97782E-02 5.99874E-04-1.55360E-01-1.02379E-13 1.02516E-13
 -1       411 2.04007E+01 3.65479E-02 7.12443E-04-2.04394E-01 9.19147E-14 2.62722E-13
 -1       412 2.05438E+01 4.33409E-02 8.07966E-04-2.63001E-01 1.88627E-13 2.64626E-13
 -1       413 2.07216E+01 4.91562E-02 8.58006E-04-3.30294E-01 2.20528E-14 2.13768E-13
 -1       414 2.09370E+01 5.22396E-02 8.17635E-04-4.03382E-01 5.40578E-14 3.12688E-14
 -1       415 2.11905E+01 4.97154E-02 6.21523E-04-4.76091E-01 6.31311E-14-5.13461E-14
 -1       416 2.14782E+01 3.71592E-02 1.84575E-04-5.37184E-01-2.86644E-14 2.13957E-13
 -1       417 2.17892E+01 8.27661E-03-5.85848E-04-5.68135E-01 1.55493E-13 1.88772E-13
 -1       418 2.21030E+01-4.48663E-02-1.75606E-03-5.40928E-01 7.18268E-14-1.61021E-14
 -1       419 2.23853E+01-1.30099E-01-3.29558E-03-4.17186E-01-6.29545E-14 6.04619E-14
 -1       420 2.25852E+01-2.50281E-01-4.98067E-03-1.51575E-01 8.41202E-14 1.97353E-13
 -1       421 2.26332E+01-3.93551E-01-6.29631E-03 2.95470E-01-2.56045E-13 3.15056E-13
 -1       422 2.24445E+01-5.18959E-01-6.39381E-03 9.29473E-01-3.93695E-15 1.69415E-13
 -1       423 2.19334E+01-5.45663E-01-4.68144E-03 1.67607E+00-3.70073E-14 3.28000E-13
 -1       424 2.10510E+01-3.67520E-01-1.66320E-03 2.33331E+00 4.52136E-14 5.07976E-13
 -1       425 1.98557E+01 8.13815E-02 3.43160E-03 2.57425E+00 3.59142E-13 2.25987E-13
 -1       426 1.85770E+01 7.16425E-01 6.02740E-03 2.07159E+00 1.73458E-13 1.73324E-13
 -1       427 1.76036E+01 1.26351E+00 9.17160E-03 7.33156E-01-2.11524E-13 3.65333E-13
 -1       428 1.73204E+01 1.30936E+00 6.92614E-03-1.04743E+00-2.42565E-13 4.71904E-13
 -1       429 1.78994E+01 5.56801E-01 3.92521E-03-2.37630E+00-9.56726E-14 7.11235E-13
 -1       430 1.86677E+01-4.00573E-01 2.51482E-03-2.69061E+00 3.34654E-14 5.00824E-13
 -1       431 2.07536E+01 2.59453E+00-4.77729E-02-3.58160E+00 1.70197E-13-1.57707E-13
 -1       432 1.91491E+01 1.02990E+00-1.40676E-02-3.89608E+00 1.56639E-13-2.68978E-13
 -1       433 1.89005E+01-1.24524E-01-7.95171E-03-3.50630E+00 7.45428E-14 1.46752E-13
 -1       434 2.44011E+01 4.18360E+00-1.29674E-01-1.57961E+00 8.82627E-14-1.68060E-14
 -1       435 3.09475E+01 5.37730E+00-4.15662E-02 2.81606E+00-8.61672E-14 3.35926E-13
 -1       436 2.96819E+01-6.50830E-01 2.78344E-02-1.54606E+01-8.78464E-15-3.20577E-13
 -1       437 2.33324E+01 9.52246E-01-8.35730E-02 2.61471E+00-2.00447E-13 3.63216E-13
 -1       438 2.01168E+01-1.42187E-01-3.02179E-02 4.82020E+00 5.54413E-14 3.27852E-13
 -1       439 1.97906E+01 3.43353E+00-1.87141E-02-1.71894E+00-1.78919E-13-2.11235E-13
 -1       440 3.80507E+01 1.07399E+01 1.00422E-01 6.59117E+00-3.37702E-13-2.77389E-13
 -1       441 4.02780E+01 1.39030E+01 1.45749E-02 5.90721E+00-3.23436E-13-5.13894E-14
 -1       442 4.32141E+01 1.29134E+01 2.67061E-02 5.84482E+00 1.17378E-13-1.28016E-13
 -1       443 4.13695E+01 8.96359E+00-2.99129E-02 4.81133E+00 2.97484E-13-2.54005E-13
 -1       444 3.90633E+01 2.26508E+00-2.12774E-02 1.76457E+00 2.38004E-13-2.00673E-13
 -1       445 3.38402E+01-2.72744E+00-2.86576E-02-1.06773E+00 7.08253E-14-4.63463E-13
 -1       446 2.46109E+01-7.66142E+00-3.20074E-03-5.36397E+00 2.64122E-13-6.35082E-13
 -1       447 1.48730E+01-8.67757E+00-3.64881E-02-7.11832E+00 4.63268E-13-7.00797E-13
 -1       448 6.52222E+00-8.35274E+00-1.82591E-02-6.20661E+00 1.88724E-13-4.14571E-13
 -1       449 9.00137E-01-7.16485E+00-5.21126E-03-1.97526E+00 1.98348E-13-1.15741E-13
 -1       450 1.07882E+00-7.47743E+00 1.57389E-02 1.99820E+00 5.21458E-14 2.70617E-14
 -1       451 6.52518E+00-8.20812E+00 6.61969E-03 5.97044E+00 1.22236E-13-3.19703E-13
 -1       452 1.55522E+01-8.92370E+00-1.61362E-03 6.94411E+00 2.01533E-13-3.82958E-14
 -1       453 2.30360E+01-8.10887E+00-7.16330E-02 5.61516E+00-1.31617E-13 3.73479E-13
 -1       454 3.29433E+01-4.19716E+00-1.71878E-02 2.15655E+00 5.77594E-14-3.10280E-13
 -1       455 3.93606E+01 1.41457E+00 1.16733E-02-1.47587E+00 2.58918E-13-4.15196E-13
 -1       456 4.29118E+01 7.18757E+00 2.27855E-02-4.01537E+00 5.97716E-14-1.97786E-13
 -1       457 4.20213E+01 1.25129E+01-1.03663E-03-5.49716E+00 7.85483E-14 2.35541E-13
 -1       458 4.22672E+01 1.37419E+01 6.12659E-02-5.72237E+00-1.24595E-13 3.04048E-13
 -1       459 3.89302E+01 1.09620E+01 1.42530E-01-6.27649E+00 7.15122E-14 3.00149E-13
 -1       460 3.62155E+01 5.80917E+00 2.62870E-01-1.05903E+01 9.20158E-14-2.71366E-13
 -1       461 3.51264E+01 4.92527E+00 1.68316E-01 1.00743E+01-2.39163E-13-4.73815E-13
 -1       462 3.11427E+01-5.64912E-01-3.84726E-02 1.02166E+01 6.98053E-14-6.34576E-13
 -1       463 2.99904E+01-6.83117E+00-3.61038E-02-1.69092E+00 1.63897E-14-3.33643E-13
 -1       464 2.90353E+01-1.74523E+00-1.97512E-01-6.85718E+00-1.94136E-13-1.08608E-13
 -1       465 1.97313E+01 3.10473E+00-5.39382E-03-6.33349E-01-3.19467E-14-2.49602E-13
 -1       466 1.98280E+01 2.93116E+00-5.99187E-03-9.49719E-01-7.39021E-14-2.16715E-13
 -1       467 1.96632E+01 3.22752E+00-5.02487E-03 8.85659E-03 4.93743E-14-2.33486E-13
 -1       468 1.96818E+01 3.19474E+00-5.09000E-03 3.30027E-01 9.59542E-14-2.31163E-13
 -1       469 1.97365E+01 3.09727E+00-5.44431E-03 6.45383E-01 1.34489E-13-2.06390E-13
 -1       470 1.98350E+01 2.91933E+00-6.18075E-03 9.59902E-01 2.01227E-13-1.71826E-13
 -1       471 1.99925E+01 2.63216E+00-6.93961E-03 1.25578E+00 2.26657E-13-1.22697E-13
 -1       472 2.02216E+01 2.19188E+00-6.25562E-03 1.48829E+00 2.43454E-13-3.67601E-14
 -1       473 2.04945E+01 1.53146E+00-1.76576E-03 1.53550E+00 2.61338E-13 9.71267E-14
 -1       474 2.05325E+01 9.92865E-01 3.72093E-03 1.29536E+00 2.49788E-13 1.99324E-13
 -1       475 2.03445E+01 9.73475E-01 2.64562E-03-9.40297E-01-1.67772E-13-5.53713E-14
 -1       476 1.99269E+01 2.46263E-01 2.28081E-03 1.56769E-01 1.21303E-13 5.76056E-14
 -1       477 2.01141E+01 4.44786E-01 2.71852E-03 4.67079E-01 1.85562E-13 1.01863E-13
 -1       478 2.03914E+01 1.75717E+00-5.28046E-03-1.52290E+00-2.09198E-13-9.51406E-14
 -1       479 2.01731E+01 5.44077E-01 1.89479E-03-4.66193E-01-1.08040E-13-4.74136E-14
 -1       480 2.00259E+01 3.03892E-01 1.04528E-03-1.64931E-01-9.74813E-14-5.80320E-14
 -1       481 1.99252E+01 1.61870E-01 4.45544E-04 1.65807E-02-8.56834E-14-9.36982E-14
 -1       482 1.98665E+01 7.55298E-02 1.56987E-04 1.19253E-01-5.63068E-14-1.39132E-13
 -1       483 1.98392E+01 2.26967E-02 2.21347E-05 1.70596E-01-6.37223E-14-1.23393E-13
 -1       484 1.98330E+01-8.97381E-03-4.69174E-05 1.89143E-01-7.66025E-14-1.52393E-13
 -1       485 1.98400E+01-2.68944E-02-8.26482E-05 1.87400E-01-7.91811E-14-1.65303E-13
 -1       486 1.98545E+01-3.57980E-02-9.86436E-05 1.73828E-01-4.30342E-14-5.47045E-14
 -1       487 1.98724E+01-3.88362E-02-1.02106E-04 1.54118E-01 2.56853E-14-3.14375E-14
 -1       488 1.98912E+01-3.81515E-02-9.77223E-05 1.32045E-01-1.87882E-16 3.86675E-14
 -1       489 1.99092E+01-3.51998E-02-8.86951E-05 1.10052E-01-3.78191E-14 3.61339E-14
 -1       490 1.99258E+01-3.09478E-02-7.71484E-05 8.96700E-02-6.38293E-14 7.19194E-14
 -1       491 1.99405E+01-2.60028E-02-6.43942E-05 7.18222E-02-9.28680E-14 8.73260E-14
 -1       492 1.99534E+01-2.07033E-02-5.11323E-05 5.70547E-02-1.36190E-13 3.38793E-14
 -1       493 1.99648E+01-1.51838E-02-3.75976E-05 4.57087E-02-4.87924E-14 9.63361E-15
 -1       494 1.99752E+01-9.42100E-03-2.36660E-05 3.80516E-02-1.21826E-13-8.46976E-14
 -1       495 1.99852E+01-3.26802E-03-8.92841E-06 3.43787E-02-3.86500E-14-4.44935E-14
 -1       496 1.99955E+01 3.52260E-03 7.25907E-06 3.50929E-02 5.29044E-14-1.58410E-13
 -1       497 2.00070E+01 1.12815E-02 2.57406E-05 4.07676E-02 1.69774E-13-1.11902E-13
 -1       498 2.00208E+01 2.04092E-02 4.75344E-05 5.21963E-02 8.70589E-14-4.39286E-14
 -1       499 2.00380E+01 3.13620E-02 7.38051E-05 7.04309E-02-1.05699E-14-4.19221E-14
 -1       500 2.00600E+01 4.46338E-02 1.05822E-04 9.68041E-02-4.09541E-14-7.38770E-14
 -1       501 2.00883E+01 6.07259E-02 1.44885E-04 1.32933E-01-1.23625E-14-6.84249E-14
 -1       502 2.01246E+01 8.00955E-02 1.92174E-04 1.80690E-01 7.90003E-14-5.71393E-14
 -1       503 2.01708E+01 1.03065E-01 2.48478E-04 2.42129E-01 6.07811E-16-3.81087E-14
 -1       504 2.02287E+01 1.29662E-01 3.13678E-04 3.19331E-01 4.63080E-15 3.15079E-15
 -1       505 2.03002E+01 1.59353E-01 3.85831E-04 4.14124E-01-1.05084E-13-3.74144E-14
 -1       506 2.03873E+01 1.90573E-01 4.59559E-04 5.27619E-01-5.69506E-15-7.21016E-14
 -1       507 2.04917E+01 2.19968E-01 5.23336E-04 6.59438E-01-1.40196E-14-6.50427E-15
 -1       508 2.06153E+01 2.41160E-01 5.55162E-04 8.06503E-01-6.09316E-14 2.11439E-13
 -1       509 2.07609E+01 2.42870E-01 5.16238E-04 9.61163E-01-5.59940E-14 4.18228E-13
 -1       510 2.09337E+01 2.06315E-01 3.43799E-04 1.10841E+00 7.88363E-14 2.62234E-13
 -1       511 2.11441E+01 1.02203E-01-5.57603E-05 1.22192E+00 1.31073E-13 3.44204E-13
 -1       512 2.14126E+01-1.11037E-01-7.82328E-04 1.25863E+00 2.60806E-13 2.72093E-13
 -1       513 2.17743E+01-4.83514E-01-1.95341E-03 1.15238E+00-1.50030E-14 2.72342E-13
 -1       514 2.22794E+01-1.05505E+00-3.41694E-03 8.07740E-01 1.49250E-13 2.02281E-13
 -1       515 2.29753E+01-1.80361E+00-5.15965E-03 1.00773E-01 2.24873E-14 2.06880E-13
 -1       516 2.38481E+01-2.54370E+00-6.11523E-03-1.08882E+00-8.89576E-14 5.32598E-13
 -1       517 2.47156E+01-2.80793E+00-6.86728E-03-2.76914E+00 7.16235E-15 4.68856E-13
 -1       518 2.51437E+01-1.86999E+00-1.36443E-02-4.58839E+00 3.48264E-13 3.03168E-13
 -1       519 2.45499E+01 7.62862E-01-2.74478E-02-5.58064E+00-4.03870E-14 4.78549E-13
 -1       520 2.29379E+01 4.30699E+00-7.68235E-02-4.58326E+00-3.40426E-13 4.62885E-13
 -1       521 2.12306E+01 6.42263E+00-7.37575E-02-1.28642E+00-2.96544E-13 3.84474E-13
 -1       522 2.00537E+01 5.04511E+00-6.22478E-02 2.59871E+00-7.61283E-14 2.97548E-13
 -1       523 2.02823E+01 6.52240E-01 5.29974E-03 8.00596E-01 2.16658E-13 1.51919E-13
 -1       524 1.98116E+01 1.28892E-01 9.77204E-04-2.10393E-02 8.85976E-14 1.17609E-14
 -1       525 1.97538E+01 5.97244E-02 3.88429E-04-1.19597E-01 7.91999E-14 3.33547E-14
 -1       526 1.97352E+01 1.78978E-02 8.87576E-05-1.67901E-01 3.28153E-14 3.75025E-14
 -1       527 1.97413E+01-6.97078E-03-5.13821E-05-1.84539E-01-1.41071E-14 5.95372E-14
 -1       528 1.97617E+01-2.09703E-02-1.22606E-04-1.81918E-01-4.01357E-15 1.29441E-13
 -1       529 1.97891E+01-2.79143E-02-1.55981E-04-1.68200E-01 2.07093E-14 1.00732E-13
 -1       530 1.98189E+01-3.02950E-02-1.66026E-04-1.48796E-01 4.74290E-14 1.02620E-13
 -1       531 1.98481E+01-2.97890E-02-1.61458E-04-1.27263E-01 7.39819E-15 1.52085E-13
 -1       532 1.98750E+01-2.75320E-02-1.48128E-04-1.05887E-01 7.08862E-14 1.44032E-13
 -1       533 1.98988E+01-2.42791E-02-1.29926E-04-8.60834E-02 7.46880E-14 7.18419E-14
 -1       534 1.99194E+01-2.05081E-02-1.09298E-04-6.86949E-02 4.09692E-14 9.82816E-15
 -1       535 1.99368E+01-1.64903E-02-8.76207E-05-5.42018E-02 1.01618E-13 7.21085E-14
 -1       536 1.99517E+01-1.23405E-02-6.54700E-05-4.28862E-02 2.88113E-14 2.30454E-13
 -1       537 1.99648E+01-8.05418E-03-4.28192E-05-3.49537E-02-5.49050E-14 3.21392E-13
 -1       538 1.99767E+01-3.53416E-03-1.91793E-05-3.06274E-02-5.30300E-14 1.89695E-13
 -1       539 1.99886E+01 1.38931E-03 6.29284E-06-3.02199E-02-1.30505E-14 3.08117E-14
 -1       540 2.00016E+01 6.94245E-03 3.47065E-05-3.41881E-02-2.29071E-14-1.23830E-14
 -1       541 2.00170E+01 1.33930E-02 6.73508E-05-4.31734E-02 9.32647E-14 1.27170E-13
 -1       542 2.00362E+01 2.10328E-02 1.05590E-04-5.80271E-02 6.99510E-16 1.62408E-13
 -1       543 2.00611E+01 3.01532E-02 1.50713E-04-7.98159E-02 3.94599E-15-4.77592E-14
 -1       544 2.00935E+01 4.10068E-02 2.03698E-04-1.09800E-01 1.19803E-14-4.84780E-14
 -1       545 2.01357E+01 5.37471E-02 2.64837E-04-1.49372E-01 3.18347E-14 1.10128E-14
 -1       546 2.01903E+01 6.83322E-02 3.33130E-04-1.99931E-01-5.45032E-15-1.39096E-13
 -1       547 2.02598E+01 8.43736E-02 4.05346E-04-2.62663E-01-9.15149E-14-2.37664E-13
 -1       548 2.03471E+01 1.00903E-01 4.74585E-04-3.38182E-01 2.33800E-14-1.17896E-13
 -1       549 2.04548E+01 1.16020E-01 5.28185E-04-4.25967E-01 6.88440E-14 4.53223E-14
 -1       550 2.05856E+01 1.26384E-01 5.44899E-04-5.23503E-01 9.69388E-14 1.05883E-13
 -1       551 2.07413E+01 1.26512E-01 4.91583E-04-6.25036E-01-3.31553E-14 1.75090E-13
 -1       552 2.09236E+01 1.07922E-01 3.20353E-04-7.19834E-01-5.76602E-14 3.73089E-13
 -1       553 2.11332E+01 5.83233E-02-3.10706E-05-7.89921E-01 1.51513E-13 1.67780E-13
 -1       554 2.13704E+01-3.85293E-02-6.32126E-04-8.07465E-01 1.31784E-13 1.21479E-13
 -1       555 2.16342E+01-2.00939E-01-1.54008E-03-7.32496E-01 9.59720E-14 2.04305E-13
 -1       556 2.19207E+01-4.42635E-01-2.73647E-03-5.12689E-01-1.88395E-13 7.34833E-14
 -1       557 2.22170E+01-7.57516E-01-4.04804E-03-8.90280E-02-2.75488E-14 1.24415E-13
 -1       558 2.24880E+01-1.09271E+00-5.00082E-03 5.85776E-01-2.35319E-13 1.03302E-13
 -1       559 2.26558E+01-1.31482E+00-4.55800E-03 1.50631E+00-1.67953E-13 2.95571E-13
 -1       560 2.25821E+01-1.19831E+00-2.99828E-03 2.54550E+00-2.83064E-14 2.00769E-13
 -1       561 2.20899E+01-4.98303E-01-4.20779E-03 3.37609E+00 2.64896E-13 2.83254E-13
 -1       562 2.11354E+01 8.06325E-01-8.02549E-06 3.47566E+00 3.08887E-13 5.27236E-13
 -1       563 1.98437E+01 2.36799E+00-2.61665E-03 2.44620E+00-4.46500E-14 6.26469E-13
 -1       564 1.87771E+01 3.18184E+00 6.55972E-03 2.66829E-01-2.41712E-13 5.28106E-13
 -1       565 1.83093E+01 2.55504E+00-1.26216E-03-2.15884E+00-2.66913E-13 2.95495E-13
 -1       566 2.00805E+01 5.79441E+00-6.98568E-02-1.92428E+00 5.69492E-14-2.34377E-13
 -1       567 2.32836E+01 8.73986E+00-1.71104E-01-7.91951E-01-2.74433E-14-3.29167E-13
 -1       568 3.34164E+01 1.13435E+01-2.20092E-01 5.46244E+00 1.11661E-13 5.22984E-14
 -1       569 2.59574E+01 5.03988E-01-2.54306E-01 4.40187E-01-1.48437E-13 1.15129E-12
 -1       570 6.71770E+00-4.58091E+00 2.15476E-01-4.87837E+00 2.21628E-14-3.71314E-13
 -1       571 2.29341E+01 6.93142E+00-1.34950E-01 2.20660E+00-7.55646E-14 2.79353E-13
 -1       572 1.38456E+01-7.17602E+00 1.47188E-01-7.16486E+00 1.01572E-13-5.62182E-13
 -1       573 3.16426E+01 1.10730E+01-1.82713E-01-1.62314E+00-1.89820E-13 8.03788E-13
 -1       574 3.42737E+01 9.52953E+00-2.26561E-01-5.90507E+00-2.21448E-13 4.11754E-13
 -1       575 6.96276E+00-4.31076E+00 2.07688E-01 4.40795E+00 5.04527E-14-1.61177E-13
 -1       576 3.20948E+01 1.31432E+01-2.32665E-01 3.71546E+00 4.89886E-14-1.16236E-13
 -1       577 1.96790E+01 3.19882E+00-5.11036E-03-3.12569E-01 1.43837E-14-2.31372E-13
 -1       578 1.46582E+01-6.75100E+00 1.61368E-01 6.70935E+00 2.88186E-13-5.47826E-14
 -1       579 3.34354E+01-1.51832E+00-1.25934E-01 3.70301E+00 2.64355E-13 2.67703E-14
 -1       580 3.36935E+01 5.08983E+00-1.93210E-01 6.00134E+00 1.89834E-13 1.01412E-13
 -1       581 3.11710E+01 1.04828E+01-1.68451E-01 2.00122E+00-2.98359E-13 3.06088E-13
 -1       582 2.12527E+01-8.24273E+00 9.37102E-02-6.07609E+00 4.40342E-14-3.74674E-13
 -1       583 4.35496E+00-3.52795E+00 2.23453E-01 1.10672E+00 8.22207E-14 9.54375E-14
 -1       584 3.42951E+01-2.93582E+00-9.37906E-02-2.70577E+00-2.51388E-14-3.42823E-13
 -1       585 2.26483E+01-8.59836E+00 8.69110E-02 5.36612E+00 1.26642E-13 1.58634E-13
 -1       586 2.95605E+01-7.49662E+00-9.39846E-03 1.70479E+00-3.65680E-14-3.85345E-13
 -1       587 3.57127E+01 3.56378E+00-1.50524E-01-5.64927E+00 2.32245E-14 1.02474E-13
 -1       588 2.99806E+01 1.22341E+01-2.62134E-01-2.85585E+00-8.21843E-14 8.51257E-13
 -1       589 1.99780E+01 2.65381E+00-6.74908E-03-1.24293E+00-1.38740E-13-1.81805E-13
 -1       590 2.01633E+01 2.28284E+00-6.10292E-03-1.43457E+00-1.80525E-13-1.57310E-13
 -1       591 2.61317E+01-7.90703E+00 2.89482E-02-3.42041E+00-4.13419E-14-2.87680E-13
 -1       592 1.99578E+01 2.45086E+00-1.53246E-03 3.94305E-01 1.02003E-13-1.72757E-13
 -1       593 1.99264E+01 2.52494E+00-1.50862E-03 1.35852E-01 6.86347E-14-1.92874E-13
 -1       594 2.01286E+01 2.03620E+00-1.24154E-03 8.53662E-01 2.05156E-13-1.32734E-13
 -1       595 2.02492E+01 1.66800E+00-1.64803E-03 9.95750E-01 2.13100E-13-5.60576E-14
 -1       596 2.02927E+01 1.11635E+00-4.07172E-04-7.61886E-01-1.15561E-13-1.11210E-13
 -1       597 1.99738E+01 8.79929E-02 8.65273E-05-1.21090E-01 4.67298E-14 3.83002E-14
 -1       598 2.00275E+01 1.88959E-01 1.66774E-04-2.22467E-02 6.90380E-14-1.00027E-14
 -1       599 2.02701E+01 1.62770E+00 7.15544E-04-1.08754E+00-1.48561E-13-1.49569E-13
 -1       600 2.01057E+01 3.54161E-01 7.26259E-04 1.48207E-01 1.47703E-13 1.88749E-14
 -1       601 1.26673E+01-4.55998E+00 1.38522E-01-5.89421E+00 2.36373E-14-5.02480E-13
 -1       602 2.02405E+01 6.73627E-01 4.28934E-04-3.91739E-01-9.68738E-14-1.16683E-13
 -1       603 2.01677E+01 3.91991E-01 1.76638E-04-1.38425E-01-1.12671E-13-1.17533E-13
 -1       604 2.01021E+01 2.12576E-01 5.09070E-05 2.35116E-02-6.24917E-14-7.51360E-14
 -1       605 2.00517E+01 9.81680E-02 6.36605E-06 1.18486E-01-4.67488E-14-8.22653E-14
 -1       606 2.00165E+01 2.62663E-02-1.49987E-05 1.67115E-01-7.14956E-14-1.14335E-13
 -1       607 1.99938E+01-1.73497E-02-2.62233E-05 1.84955E-01-4.39939E-14 3.57054E-15
 -1       608 1.99805E+01-4.19975E-02-3.18542E-05 1.83277E-01-3.09339E-14 7.10964E-14
 -1       609 1.99738E+01-5.39824E-02-3.35959E-05 1.70059E-01 7.83293E-15 7.23966E-14
 -1       610 1.99715E+01-5.76545E-02-3.26614E-05 1.50823E-01 3.30361E-15 4.15960E-14
 -1       611 1.99722E+01-5.60248E-02-3.00415E-05 1.29297E-01-9.43067E-15 1.32691E-14
 -1       612 1.99745E+01-5.11482E-02-2.64728E-05 1.07934E-01-2.81089E-14 3.56351E-14
 -1       613 1.99778E+01-4.43782E-02-2.24501E-05 8.82980E-02-1.08371E-13-2.72426E-16
 -1       614 1.99817E+01-3.65444E-02-1.82624E-05 7.13647E-02-1.15886E-13 6.63769E-15
 -1       615 1.99859E+01-2.80807E-02-1.40364E-05 5.77524E-02-1.07261E-13 3.86557E-14
 -1       616 1.99903E+01-1.91182E-02-9.77414E-06 4.78941E-02-1.27366E-13 7.16584E-14
 -1       617 1.99950E+01-9.55374E-03-5.38022E-06 4.21716E-02-7.71447E-14 2.17187E-14
 -1       618 2.00001E+01 9.01218E-04-6.80598E-07 4.10187E-02-4.82412E-14-2.10240E-14
 -1       619 2.00059E+01 1.26845E-02 4.56498E-06 4.50008E-02 1.35538E-13-1.67501E-13
 -1       620 2.00125E+01 2.63551E-02 1.06549E-05 5.48765E-02 1.41932E-13-2.51068E-13
 -1       621 2.00204E+01 4.25675E-02 1.79394E-05 7.16423E-02 1.00109E-13-7.63446E-14
 -1       622 2.00298E+01 6.20422E-02 2.68140E-05 9.65603E-02-4.65039E-14-6.13203E-15
 -1       623 2.00409E+01 8.55230E-02 3.77074E-05 1.31165E-01 1.07323E-14 3.93175E-14
 -1       624 2.00542E+01 1.13710E-01 5.10598E-05 1.77242E-01-4.25112E-15 1.25650E-13
 -1       625 2.00696E+01 1.47147E-01 6.72809E-05 2.36765E-01 6.22058E-14 1.13677E-13
 -1       626 2.00872E+01 1.86041E-01 8.66708E-05 3.11775E-01-1.98844E-14 6.99466E-14
 -1       627 2.01068E+01 2.29954E-01 1.09275E-04 4.04178E-01-1.39764E-13 3.16732E-16
 -1       628 2.01280E+01 2.77306E-01 1.34623E-04 5.15427E-01-3.75766E-14 1.38271E-13
 -1       629 2.01502E+01 3.24576E-01 1.61242E-04 6.46056E-01-1.89430E-14-1.04208E-14
 -1       630 2.01736E+01 3.65022E-01 1.85743E-04 7.95011E-01-5.13131E-14 4.99872E-14
 -1       631 2.01999E+01 3.86747E-01 2.00996E-04 9.58740E-01-4.31296E-14 9.60484E-14
 -1       632 2.02346E+01 3.69880E-01 1.92909E-04 1.12996E+00-4.35348E-14 2.55165E-13
 -1       633 2.02914E+01 2.82884E-01 1.38831E-04 1.29601E+00 2.16696E-14 1.76945E-13
 -1       634 2.03991E+01 7.85666E-02 3.05451E-06 1.43619E+00 1.51697E-13 6.76950E-14
 -1       635 2.06116E+01-3.07518E-01-1.70289E-04 1.51701E+00 1.18382E-14-1.08169E-13
 -1       636 2.10191E+01-9.49793E-01-4.90435E-04 1.48365E+00-1.35723E-13-1.92413E-13
 -1       637 2.17585E+01-1.90528E+00 1.15984E-04 1.24118E+00 1.11439E-13-2.43233E-13
 -1       638 2.29756E+01-3.11481E+00 6.89037E-04 6.18573E-01 1.50114E-13-5.87330E-14
 -1       639 2.47414E+01-4.24366E+00 1.77234E-03-6.22573E-01 7.29593E-14 2.14193E-13
 -1       640 2.68470E+01-4.42897E+00 8.93070E-03-2.66973E+00 2.27021E-13 2.86683E-13
 -1       641 2.82475E+01-2.19455E+00-7.77283E-02-5.21803E+00 1.78467E-13 1.83499E-13
 -1       642 2.65018E+01 8.37213E+00-1.81035E-01-4.61843E+00-3.39825E-13 5.40869E-14
 -1       643 2.49339E+01 9.53050E+00-1.66830E-01-1.23178E+00-1.79343E-13 7.02407E-14
 -1       644 1.99418E+01 2.47360E-02 5.26574E-06-1.70841E-01 4.66969E-15 9.50910E-14
 -1       645 1.99259E+01-1.34495E-02-2.74185E-05-1.88919E-01-4.28385E-14 8.30590E-14
 -1       646 1.99211E+01-3.50392E-02-4.43978E-05-1.87057E-01 3.29778E-14 5.21878E-14
 -1       647 1.99233E+01-4.56346E-02-5.20923E-05-1.73465E-01 4.34590E-14 1.05094E-13
 -1       648 1.99295E+01-4.90361E-02-5.35010E-05-1.53772E-01 1.57455E-14 1.23162E-13
 -1       649 1.99377E+01-4.78573E-02-5.08875E-05-1.31755E-01 5.88727E-14 1.39351E-13
 -1       650 1.99467E+01-4.38797E-02-4.59066E-05-1.09880E-01 1.07108E-13 9.13844E-14
 -1       651 1.99556E+01-3.82811E-02-3.96526E-05-8.97063E-02 5.34467E-14 1.03562E-13
 -1       652 1.99641E+01-3.17917E-02-3.27840E-05-7.21957E-02 1.43174E-14 1.80377E-13
 -1       653 1.99720E+01-2.48049E-02-2.56351E-05-5.79384E-02-2.68545E-14 2.58724E-13
 -1       654 1.99795E+01-1.74581E-02-1.82980E-05-4.73290E-02-3.99167E-15 2.04363E-13
 -1       655 1.99867E+01-9.69298E-03-1.06809E-05-4.06997E-02 4.48212E-14 1.84490E-13
 -1       656 1.99941E+01-1.29921E-03-2.54953E-06-3.84208E-02 7.10160E-14 1.87518E-13
 -1       657 2.00020E+01 8.05054E-03 6.44169E-06-4.09784E-02 8.09491E-14 1.17250E-13
 -1       658 2.00111E+01 1.87710E-02 1.67224E-05-4.90307E-02-1.84527E-14 7.97385E-14
 -1       659 2.00219E+01 3.13335E-02 2.87776E-05-6.34466E-02 1.26926E-13 1.37596E-13
 -1       660 2.00353E+01 4.62271E-02 4.31100E-05-8.53218E-02 4.08371E-14 2.56967E-13
 -1       661 2.00520E+01 6.39027E-02 6.01815E-05-1.15970E-01 4.67898E-14 2.40809E-13
 -1       662 2.00730E+01 8.46880E-02 8.03205E-05-1.56876E-01-6.81227E-14 2.30535E-13
 -1       663 2.00993E+01 1.08655E-01 1.03573E-04-2.09593E-01 1.58434E-13 1.03744E-13
 -1       664 2.01319E+01 1.35420E-01 1.29461E-04-2.75571E-01 6.50679E-14 2.24401E-14
 -1       665 2.01721E+01 1.63833E-01 1.56611E-04-3.55864E-01-7.39784E-14-1.26538E-13
 -1       666 2.02212E+01 1.91526E-01 1.82186E-04-4.50695E-01-3.15473E-14-1.70314E-13
 -1       667 2.02811E+01 2.14253E-01 2.01060E-04-5.58815E-01 2.84092E-14-1.63857E-13
 -1       668 2.03543E+01 2.24978E-01 2.04707E-04-6.76584E-01-1.04075E-13-2.28739E-13
 -1       669 2.04449E+01 2.12695E-01 1.79807E-04-7.96710E-01-1.77066E-13-7.44690E-14
 -1       670 2.05599E+01 1.61107E-01 1.06481E-04-9.06556E-01 1.23431E-13-1.63710E-13
 -1       671 2.07110E+01 4.76422E-02-4.25757E-05-9.85928E-01 2.00125E-13-7.67313E-14
 -1       672 2.09170E+01-1.55995E-01-3.06184E-04-1.00433E+00-2.74440E-14-8.54093E-14
 -1       673 2.12053E+01-4.79176E-01-7.49083E-04-9.17783E-01 1.72635E-14 1.60182E-13
 -1       674 2.16094E+01-9.38610E-01-1.37405E-03-6.65970E-01-1.49101E-13 2.15545E-13
 -1       675 2.21558E+01-1.50858E+00-2.12200E-03-1.73071E-01-2.30603E-13 3.78885E-13
 -1       676 2.28304E+01-2.06883E+00-2.69686E-03 6.37936E-01-1.61057E-13 1.29406E-13
 -1       677 2.35224E+01-2.34197E+00-1.22637E-03 1.79387E+00 1.08397E-13-2.50623E-14
 -1       678 2.39681E+01-1.88325E+00-1.58067E-03 3.16442E+00-7.08786E-14-2.95094E-14
 -1       679 2.38193E+01-1.78837E-01 8.36865E-03 4.36441E+00 1.75668E-13-4.95472E-14
 -1       680 2.24764E+01 2.48988E+00-4.68513E-02 4.40917E+00 4.39126E-14 2.41517E-14
 -1       681 2.11226E+01 4.93611E+00-6.01499E-04 2.75370E+00-1.49126E-13 1.98171E-13
 -1       682 2.00762E+01 6.49360E+00-1.16691E-01 5.57275E-01-2.59480E-14-8.29449E-14
 -1       683 2.80222E+01 7.93755E+00-1.65981E-01 5.62668E+00 6.01949E-14-4.03526E-13
 -1       684 2.38278E+01 9.63686E+00-1.63711E-01 1.49282E+00-4.01693E-14-3.56753E-13
 -1       685 3.06867E+01-5.46362E+00-4.52532E-02-2.27176E+00 6.63644E-14-1.93956E-13
 -1       686 1.90780E+01-6.60643E+00 1.12318E-01-5.88451E+00 4.76286E-14-4.65166E-13
 -1       687 2.97500E+01 1.54489E+00-1.02926E-01 5.84482E+00 2.69174E-13-9.64298E-14
 -1       688 3.16834E+01-5.31799E-01-1.33025E-01-5.52909E+00-1.03532E-13-3.16483E-14
 -1       689 2.02189E+01 6.00071E-01 1.76589E-03 4.17903E-01 1.71104E-13 9.95083E-15
 -1       690 7.77605E+00-1.95657E+00 1.73456E-01-1.89154E+00-7.63859E-14-1.75915E-13
 -1       691 1.30894E+01-3.51873E+00 1.25470E-01 4.91444E+00 4.13506E-14-4.71949E-14
 -1       692 8.38565E+00-2.05008E+00 1.53869E-01 2.27804E+00 6.80185E-15 5.82798E-14
 -1       693 2.98157E+01 4.85232E+00-1.36731E-01-6.55366E+00-3.29868E-13 1.02349E-15
 -1       694 2.00272E+01 2.29306E+00-8.61048E-04 6.41956E-01 1.60821E-13-1.36421E-13
 -1       695 2.66395E+01-7.68800E+00 2.89599E-02 2.01329E+00 2.33664E-13-1.96839E-13
 -1       696 2.00172E+01 2.30585E+00-1.63681E-03-6.28751E-01-5.78833E-14-1.92938E-13
 -1       697 3.00968E+01-5.03267E+00-3.06183E-02 1.73540E+00 1.50230E-13-2.70822E-13
 -1       698 2.06983E+01-6.95473E+00 8.91679E-02 5.05482E+00 2.08892E-13-1.75970E-14
 -1       699 2.01163E+01 2.05876E+00-6.76221E-04-8.42977E-01-9.89110E-14-1.72380E-13
 -1       700 1.99254E+01 2.52664E+00-1.51751E-03-1.26300E-01 1.90293E-14-1.94462E-13
 -1       701 2.03486E+01 1.12276E+00 3.10579E-03 9.91000E-01 2.18202E-13 4.72037E-14
 -1       702 1.14065E+01-2.13596E+00 1.04116E-01-3.77096E+00 5.98480E-16-5.14758E-13
 -1       703 2.86188E+01-2.26344E+00-3.73981E-02 4.32826E+00 6.45165E-14-1.55639E-13
 -1       704 2.30077E+01-7.03524E+00 4.34353E-02-4.12418E+00 2.89213E-14-3.70144E-13
 -1       705 2.63604E+01 1.02307E+01-1.40086E-01 3.80978E+00-1.14762E-13-3.76862E-13
 -1       706 1.99554E+01 2.45574E+00-1.56878E-03-3.83958E-01-1.48466E-14-1.90302E-13
 -1       707 2.01893E+01 1.87168E+00-1.56760E-05-9.83604E-01-1.31569E-13-1.40309E-13
 -1       708 2.02870E+01 9.25989E-01-3.82853E-04 4.75732E-01 1.69164E-13-6.18888E-14
 -1       709 2.00885E+01 2.28586E-02-1.36047E-05-1.61427E-01-3.04548E-14 2.43017E-14
 -1       710 2.02175E+01 4.16424E-01-9.44374E-05 1.09269E-01 8.40098E-14-1.62369E-15
 -1       711 2.02815E+01 1.16344E+00-4.86795E-04-5.66527E-01-1.18432E-13-1.51281E-13
 -1       712 2.01251E+01 1.01006E-01 1.91401E-05-1.18160E-01 3.73571E-15 3.78735E-14
 -1       713 2.02886E+01 7.29605E-01-9.06833E-05-2.90024E-01-7.74768E-14-1.51389E-13
 -1       714 2.02613E+01 4.33174E-01 1.10317E-05-9.24773E-02-3.40786E-14-9.60908E-14
 -1       715 2.02209E+01 2.34246E-01-8.99380E-06 3.69734E-02-5.51925E-14-6.52958E-14
 -1       716 2.01792E+01 1.03555E-01-1.06237E-05 1.14041E-01-8.97228E-14-3.29613E-14
 -1       717 2.01414E+01 2.01475E-02-1.01263E-05 1.53396E-01-8.32865E-15-3.40175E-14
 -1       718 2.01092E+01-3.05601E-02-9.77102E-06 1.67059E-01 3.88226E-14-3.64123E-14
 -1       719 2.00829E+01-5.88219E-02-9.41117E-06 1.64236E-01 1.74111E-14 7.13994E-14
 -1       720 2.00620E+01-7.19157E-02-8.82599E-06 1.51658E-01-2.30220E-14 1.12242E-13
 -1       721 2.00457E+01-7.50006E-02-8.00988E-06 1.34078E-01-9.47900E-15 1.62598E-13
 -1       722 2.00334E+01-7.16897E-02-7.02832E-06 1.14749E-01-2.98595E-14 5.22427E-14
 -1       723 2.00243E+01-6.44463E-02-5.97166E-06 9.58347E-02-1.03335E-13-5.34950E-15
 -1       724 2.00178E+01-5.48693E-02-4.90876E-06 7.87359E-02-8.33480E-14 1.10279E-14
 -1       725 2.00134E+01-4.39029E-02-3.87580E-06 6.43566E-02-6.69365E-14 1.05529E-13
 -1       726 2.00106E+01-3.19919E-02-2.87936E-06 5.33050E-02-1.31158E-13 8.23410E-14
 -1       727 2.00090E+01-1.91975E-02-1.90241E-06 4.60499E-02-1.32163E-13 3.42370E-14
 -1       728 2.00083E+01-5.28247E-03-9.09349E-07 4.30412E-02-2.16589E-14 4.60933E-14
 -1       729 2.00081E+01 1.02263E-02 1.50679E-07 4.48013E-02-4.77995E-14 7.21014E-14
 -1       730 2.00080E+01 2.79891E-02 1.34187E-06 5.19948E-02 9.74332E-14 3.53437E-14
 -1       731 2.00076E+01 4.88124E-02 2.74106E-06 6.54790E-02 2.49402E-13-1.00339E-13
 -1       732 2.00065E+01 7.36058E-02 4.43804E-06 8.63351E-02 1.04301E-13-4.55867E-14
 -1       733 2.00040E+01 1.03329E-01 6.53696E-06 1.15880E-01-5.66321E-15 4.05220E-14
 -1       734 1.99993E+01 1.38913E-01 9.15932E-06 1.55651E-01-1.08050E-14-7.57323E-14
 -1       735 1.99912E+01 1.81141E-01 1.24498E-05 2.07361E-01 5.96536E-14-1.45346E-13
 -1       736 1.99783E+01 2.30458E-01 1.65876E-05 2.72807E-01 3.58713E-14-5.86205E-14
 -1       737 1.99587E+01 2.86680E-01 2.18081E-05 3.53737E-01-1.00099E-13 6.41284E-14
 -1       738 1.99304E+01 3.48524E-01 2.84429E-05 4.51654E-01-1.05994E-13 1.82643E-13
 -1       739 1.98909E+01 4.12902E-01 3.69784E-05 5.67581E-01-1.45742E-13 1.27335E-13
 -1       740 1.98379E+01 4.73820E-01 4.80646E-05 7.01808E-01-1.48718E-13-3.33271E-14
 -1       741 1.97703E+01 5.20743E-01 6.20994E-05 8.53698E-01-1.69782E-14-1.37573E-13
 -1       742 1.96898E+01 5.36204E-01 7.72678E-05 1.02166E+00 2.49352E-14-1.39758E-13
 -1       743 1.96041E+01 4.92501E-01 8.63440E-05 1.20347E+00-9.64693E-14-1.95883E-13
 -1       744 1.95333E+01 3.47408E-01 8.78851E-05 1.39688E+00 4.51775E-14-1.07502E-13
 -1       745 1.95194E+01 3.90039E-02 9.93968E-05 1.60017E+00 9.43673E-15-8.58891E-14
 -1       746 1.96438E+01-5.17571E-01 7.81337E-04 1.80750E+00-1.30749E-13-1.99180E-13
 -1       747 2.00387E+01-1.41668E+00 2.15846E-03 1.99739E+00-4.72713E-14-1.61482E-13
 -1       748 2.09387E+01-2.77268E+00 5.99024E-03 2.11101E+00 5.05474E-13-3.50220E-13
 -1       749 2.26860E+01-4.53876E+00 3.32955E-02 1.96124E+00 2.26287E-13-9.63769E-15
 -1       750 2.02624E+01 6.35674E-01 2.37939E-04 2.70646E-01 1.22943E-13-4.86099E-14
 -1       751 2.00397E+01-5.12790E-02-1.35271E-05-1.74189E-01 1.16217E-14 2.31223E-14
 -1       752 2.00248E+01-6.38885E-02-1.45523E-05-1.61097E-01 2.07229E-14 5.36136E-14
 -1       753 2.00144E+01-6.72515E-02-1.42762E-05-1.42561E-01-6.74783E-15 5.41173E-14
 -1       754 2.00075E+01-6.47083E-02-1.31483E-05-1.22057E-01 5.65313E-14 1.29217E-14
 -1       755 2.00033E+01-5.85395E-02-1.15594E-05-1.01883E-01 9.23521E-14 1.41851E-13
 -1       756 2.00009E+01-5.02355E-02-9.75640E-06-8.35185E-02 3.83499E-14 4.55433E-14
 -1       757 2.00000E+01-4.06919E-02-7.87186E-06-6.79041E-02 2.27577E-14 9.65526E-14
 -1       758 2.00002E+01-3.03531E-02-5.95833E-06-5.56554E-02 1.71621E-14 1.73699E-14
 -1       759 2.00012E+01-1.93192E-02-4.01078E-06-4.72284E-02-3.79548E-14-9.19849E-14
 -1       760 2.00029E+01-7.42628E-03-1.98079E-06-4.30445E-02-2.23566E-14 4.41299E-14
 -1       761 2.00051E+01 5.69306E-03 2.14060E-07-4.35870E-02 4.12465E-14 1.63620E-13
 -1       762 2.00077E+01 2.05593E-02 2.68336E-06-4.94717E-02 4.03831E-14 2.10509E-13
 -1       763 2.00107E+01 3.77993E-02 5.55816E-06-6.14976E-02-1.55708E-14 1.76503E-13
 -1       764 2.00140E+01 5.80943E-02 8.98484E-06-8.06769E-02 2.44215E-14 2.73582E-13
 -1       765 2.00174E+01 8.21104E-02 1.31170E-05-1.08240E-01 1.01475E-13 1.74598E-13
 -1       766 2.00209E+01 1.10399E-01 1.81033E-05-1.45612E-01 6.25493E-14 1.44746E-13
 -1       767 2.00241E+01 1.43245E-01 2.40678E-05-1.94350E-01 2.06765E-14 6.04430E-14
 -1       768 2.00269E+01 1.80448E-01 3.10794E-05-2.56021E-01 1.64795E-13 1.79741E-13
 -1       769 2.00291E+01 2.20982E-01 3.91039E-05-3.32020E-01 7.77919E-14 2.40496E-13
 -1       770 2.00308E+01 2.62518E-01 4.79307E-05-4.23284E-01-1.23815E-15 2.00037E-13
 -1       771 2.00325E+01 3.00728E-01 5.70713E-05-5.29911E-01-2.42239E-14-2.24990E-14
 -1       772 2.00360E+01 3.28323E-01 6.56334E-05-6.50637E-01-4.05220E-14 6.04087E-14
 -1       773 2.00451E+01 3.33781E-01 7.21641E-05-7.82169E-01-8.24944E-14-3.20498E-14
 -1       774 2.00676E+01 2.99763E-01 7.41718E-05-9.18325E-01-1.71037E-14-1.88329E-13
 -1       775 2.01180E+01 2.01449E-01 6.55588E-05-1.04884E+00 6.94937E-14-1.17456E-13
 -1       776 2.02212E+01 5.46512E-03 3.56510E-05-1.15758E+00-2.65376E-15-1.48283E-14
 -1       777 2.04176E+01-3.29011E-01-5.10035E-05-1.21937E+00-1.70876E-13 5.58466E-14
 -1       778 2.07670E+01-8.43613E-01-3.29011E-04-1.19399E+00-2.37993E-13 3.19572E-13
 -1       779 2.13484E+01-1.56031E+00-6.07749E-04-1.01523E+00-2.99975E-13 2.53138E-13
 -1       780 2.22416E+01-2.43596E+00-8.55001E-04-5.74670E-01-8.78120E-14-2.36612E-13
 -1       781 2.34721E+01-3.26995E+00-5.08964E-04 2.84591E-01-1.06978E-13-9.24056E-14
 -1       782 2.48810E+01-3.60045E+00 1.52757E-03 1.68829E+00 7.18991E-14-2.27203E-14
 -1       783 2.59110E+01-2.50710E+00-2.51814E-02 3.48246E+00 1.79551E-14-3.64103E-13
 -1       784 2.01713E+01 2.20773E-01-1.57445E-04-3.33294E-02 1.97838E-14 4.05384E-14
 -1       785 2.01374E+01 1.88848E+00-2.95179E-04 1.99063E-01 6.98079E-14-1.54708E-13
 -1       786 1.84441E+01-4.38252E+00 3.80589E-02 4.29951E+00 3.77889E-13 3.33150E-13
 -1       787 2.39180E+01-6.29701E+00 2.87565E-02 2.39822E+00 1.36663E-13-2.06910E-13
 -1       788 2.74993E+01-5.60954E+00 3.00083E-03-1.29716E+00 2.46159E-13 1.01016E-13
 -1       789 1.70269E+01-4.37677E+00 8.21547E-02-5.13270E+00-1.74558E-13-5.07001E-13
 -1       790 2.73165E+01-6.16726E+00 1.46793E-02-2.61216E-01 3.03828E-14-3.74055E-13
 -1       791 2.00604E+01-2.46339E-02-1.13949E-05-1.76733E-01-1.40108E-14 9.15726E-15
 -1       792 2.01251E+01 1.92751E+00-3.29737E-04 3.25628E-03 2.86619E-14-1.41377E-13
 -1       793 1.07051E+01-7.90277E-01 8.73369E-02-1.24554E+00 8.66637E-14-5.25829E-14
 -1       794 2.55936E+01-6.02997E+00 1.02780E-02 6.18656E-01 2.59324E-13-9.77581E-14
 -1       795 2.02880E+01 1.20147E+00 8.57096E-05 4.47614E-01 1.16796E-13-6.85802E-14
 -1       796 2.01697E+01 1.77108E+00-1.57515E-03 3.80029E-01 1.09967E-13-1.20163E-13
 -1       797 1.51438E+01-2.23297E+00 3.21571E-02 3.64351E+00-1.04637E-13 1.74542E-13
 -1       798 1.19366E+01-1.04454E+00 7.32315E-02 2.15758E+00-1.65935E-13-1.26586E-13
 -1       799 2.01383E+01-5.20531E+00 3.92098E-02-4.31190E+00-7.07403E-14-4.91352E-13
 -1       800 2.02136E+01 1.59430E+00-5.76886E-04-5.27708E-01-8.62188E-14-1.27459E-13
 -1       801 2.01651E+01 1.78370E+00-5.98425E-04-3.74199E-01-3.97464E-14-1.59639E-13
 -1       802 2.00974E+01-8.10500E-02-8.98252E-07-1.37120E-01 1.63085E-14 3.99976E-14
 -1       803 2.02931E+01 1.15004E+00 7.20752E-04-3.85656E-01-7.44192E-14-1.30078E-13
 -1       804 2.03340E+01 7.22577E-01-3.65615E-04-1.89064E-01-1.28900E-14-1.04731E-13
 -1       805 2.03287E+01 4.30759E-01 3.11210E-05-4.54674E-02-1.18767E-14-6.73317E-14
 -1       806 2.03025E+01 2.27288E-01-1.18333E-05 4.83301E-02-1.31758E-14-4.83653E-14
 -1       807 2.02660E+01 9.15588E-02-7.56319E-06 1.03902E-01-6.56866E-14 6.48036E-14
 -1       808 2.02264E+01 4.60044E-03-5.85444E-06 1.31357E-01-2.86784E-14 1.84587E-14
 -1       809 2.01881E+01-4.77790E-02-4.33318E-06 1.39506E-01 4.68603E-14-3.97156E-14
 -1       810 2.01532E+01-7.61086E-02-3.17491E-06 1.35275E-01 4.50923E-14-4.43362E-14
 -1       811 2.01228E+01-8.80967E-02-2.39520E-06 1.23823E-01-4.65110E-15-2.81845E-14
 -1       812 2.00971E+01-8.92958E-02-1.82983E-06 1.08829E-01-3.07152E-14 5.82085E-16
 -1       813 2.00760E+01-8.36082E-02-1.39465E-06 9.28324E-02-7.80716E-14-2.21001E-14
 -1       814 2.00590E+01-7.36720E-02-1.05464E-06 7.75304E-02-9.48975E-14-1.65335E-14
 -1       815 2.00456E+01-6.11583E-02-7.93547E-07 6.40410E-02-4.33225E-14 2.36853E-15
 -1       816 2.00351E+01-4.69983E-02-6.01277E-07 5.31086E-02-6.12649E-14-4.46814E-14
 -1       817 2.00268E+01-3.15558E-02-4.70082E-07 4.52667E-02-1.39687E-13 9.10835E-14
 -1       818 2.00201E+01-1.47565E-02-3.93850E-07 4.09632E-02-3.48957E-14 1.95709E-13
 -1       819 2.00142E+01 3.81525E-03-3.68086E-07 4.06567E-02-6.33289E-14 2.27489E-13
 -1       820 2.00083E+01 2.48422E-02-3.89868E-07 4.48885E-02 1.71229E-14 1.15976E-13
 -1       821 2.00013E+01 4.92140E-02-4.57487E-07 5.43344E-02 7.81075E-14 4.73210E-14
 -1       822 1.99923E+01 7.79701E-02-5.69523E-07 6.98382E-02 1.53880E-13-3.77612E-14
 -1       823 1.99798E+01 1.12235E-01-7.22898E-07 9.24262E-02-3.65355E-14-2.17011E-13
 -1       824 1.99624E+01 1.53134E-01-9.09196E-07 1.23299E-01 3.56355E-14-2.58613E-13
 -1       825 1.99379E+01 2.01668E-01-1.10797E-06 1.63797E-01-5.47957E-14-1.88853E-13
 -1       826 1.99041E+01 2.58534E-01-1.27491E-06 2.15339E-01 6.39320E-14-3.10366E-13
 -1       827 1.98580E+01 3.23854E-01-1.32082E-06 2.79322E-01 1.06201E-13-2.87800E-13
 -1       828 1.97962E+01 3.96775E-01-1.07371E-06 3.57007E-01 5.89420E-14-2.27562E-13
 -1       829 1.97147E+01 4.74890E-01-2.12173E-07 4.49400E-01-6.27844E-14-7.20481E-14
 -1       830 1.96093E+01 5.53394E-01 1.80995E-06 5.57204E-01-2.02910E-13-6.36162E-15
 -1       831 1.94758E+01 6.23894E-01 5.56356E-06 6.80954E-01-2.55148E-13-1.01236E-13
 -1       832 1.93111E+01 6.72729E-01 9.76078E-06 8.21544E-01-1.22868E-14-2.48582E-13
 -1       833 1.91145E+01 6.78685E-01 2.85466E-06 9.81454E-01-6.51880E-14-2.42434E-13
 -1       834 1.88911E+01 6.09938E-01-4.85158E-05 1.16710E+00 1.60458E-13-6.64594E-14
 -1       835 1.86562E+01 4.20211E-01-9.85646E-05 1.39263E+00 2.44876E-14-2.54139E-14
 -1       836 1.84423E+01 4.32206E-02-4.42109E-04 1.68724E+00-2.62887E-14 3.88313E-14
 -1       837 1.83241E+01-6.32445E-01-1.82715E-03 2.10540E+00 8.55854E-14 2.38528E-13
 -1       838 1.84490E+01-1.71277E+00 3.31759E-03 2.69100E+00-3.29413E-14 5.85331E-13
 -1       839 2.74098E+01-5.01086E+00-2.67596E-04 1.53416E+00 1.03491E-13-8.00219E-14
 -1       840 2.00757E+01-8.30795E-02-9.44760E-07-1.20767E-01 4.34596E-14 1.92913E-14
 -1       841 2.01238E+01-6.85812E-02-7.27591E-07-1.49328E-01-1.38857E-14-3.02598E-14
 -1       842 2.00582E+01-7.84402E-02-8.88573E-07-1.03120E-01 2.00496E-14-1.48187E-14
 -1       843 2.00446E+01-6.96925E-02-7.90778E-07-8.60853E-02 2.01431E-14 1.72764E-14
 -1       844 2.00340E+01-5.84774E-02-6.78292E-07-7.09054E-02-2.02826E-15 3.26493E-14
 -1       845 2.00261E+01-4.57350E-02-5.57765E-07-5.83968E-02 7.73525E-14-5.27347E-15
 -1       846 2.00202E+01-3.18706E-02-4.26466E-07-4.91284E-02-1.11484E-15 2.99431E-14
 -1       847 2.00157E+01-1.68803E-02-2.75924E-07-4.35610E-02-9.60886E-14-4.17206E-14
 -1       848 2.00120E+01-4.46127E-04-9.26175E-08-4.21544E-02-6.22326E-14-1.52994E-14
 -1       849 2.00086E+01 1.79885E-02 1.42298E-07-4.54476E-02-1.57260E-14 1.04781E-13
 -1       850 2.00048E+01 3.91535E-02 4.53734E-07-5.41179E-02 1.77514E-14 5.39553E-14
 -1       851 1.99999E+01 6.38865E-02 8.73890E-07-6.90207E-02 1.85444E-14-9.71210E-15
 -1       852 1.99930E+01 9.30541E-02 1.44413E-06-9.12094E-02 5.84001E-14-9.19468E-14
 -1       853 1.99830E+01 1.27446E-01 2.21781E-06-1.21933E-01-3.34381E-14-9.26867E-14
 -1       854 1.99690E+01 1.67622E-01 3.26458E-06-1.62609E-01 1.01214E-13 2.91294E-14
 -1       855 1.99496E+01 2.13690E-01 4.67695E-06-2.14756E-01-7.33062E-14 6.30042E-15
 -1       856 1.99233E+01 2.64984E-01 6.58009E-06-2.79899E-01 3.01494E-14 2.55222E-13
 -1       857 1.98890E+01 3.19604E-01 9.14815E-06-3.59427E-01 1.33776E-13 3.97221E-14
 -1       858 1.98458E+01 3.73777E-01 1.26381E-05-4.54412E-01 4.03478E-14 1.57807E-13
 -1       859 1.97935E+01 4.20977E-01 1.74852E-05-5.65414E-01-1.36259E-13 1.18726E-13
 -1       860 1.97341E+01 4.50764E-01 2.45774E-05-6.92302E-01 6.87799E-14 1.10694E-14
 -1       861 1.96726E+01 4.47290E-01 3.58403E-05-8.34132E-01 1.01285E-13 2.37271E-14
 -1       862 1.96199E+01 3.87488E-01 5.42895E-05-9.89077E-01-3.03881E-14 1.57293E-14
 -1       863 1.95964E+01 2.39099E-01 7.72293E-05-1.15421E+00-5.94715E-14 4.16356E-14
 -1       864 1.96376E+01-4.07549E-02 1.07468E-04-1.32444E+00-1.31806E-13 1.84108E-13
 -1       865 1.98020E+01-5.05196E-01 1.12963E-04-1.48946E+00-2.82653E-13 6.40956E-15
 -1       866 2.01822E+01-1.21303E+00-3.16599E-04-1.62286E+00-2.80730E-13-1.61822E-13
 -1       867 2.09163E+01-2.20829E+00 1.49299E-04-1.66335E+00 8.54078E-14-2.54419E-13
 -1       868 2.21682E+01-3.44306E+00 5.42613E-03-1.45949E+00-2.01759E-13-2.54474E-13
 -1       869 2.40783E+01-4.68551E+00 1.43840E-02-7.24606E-01 2.51329E-15-2.43714E-13
 -1       870 1.84734E+01-2.68914E+00 3.35506E-02 3.28043E+00-3.29758E-14 6.21485E-13
 -1       871 2.01905E+01 1.12688E-02-6.92668E-06-1.43018E-01-1.72679E-14-1.50742E-14
 -1       872 1.51660E+01-2.14382E+00 4.01952E-02-3.73871E+00 3.98032E-14-3.16561E-13
 -1       873 2.42620E+01-5.80194E+00 1.10996E-02-1.89168E+00-7.27456E-15-1.79601E-13
 -1       874 2.01347E+01 1.89268E+00-5.09427E-04-1.91530E-01 8.24238E-15-1.78169E-13
 -1       875 2.02292E+01 9.64117E-02-9.13893E-06-1.10966E-01-2.04739E-14 2.21241E-14
 -1       876 2.01550E+01-4.03063E-02-9.89942E-07-1.53240E-01-9.77170E-15-1.49260E-14
 -1       877 1.36496E+01-8.08266E-01 2.80042E-02-2.38673E+00 1.62467E-13-2.32768E-13
 -1       878 1.46133E+01-6.11981E-01 1.15616E-02 2.18051E+00 1.71170E-13 3.35240E-14
 -1       879 2.03132E+01 8.60996E-01 7.65037E-04 2.77157E-01 8.68599E-14-3.98277E-14
 -1       880 2.02798E+01 1.32681E+00 2.14957E-04-2.92482E-01-2.90854E-14-1.11977E-13
 -1       881 2.17332E+01-4.34464E+00 3.63301E-02 2.50178E+00 2.59239E-13-9.30201E-13
 -1       882 2.03222E+01 5.77142E-01-2.14602E-04 1.40294E-01 4.72369E-14-4.65083E-14
 -1       883 2.02688E+01 2.26346E-01 1.66016E-04-4.71112E-02 7.81325E-15-2.70816E-14
 -1       884 2.02829E+01 1.33881E+00 1.03221E-04 1.95087E-01 6.75599E-14-1.30087E-13
 -1       885 1.29670E+01-8.20657E-02 2.64363E-02 8.69768E-02 1.86024E-13-2.15309E-13
 -1       886 1.74241E+01-3.07549E+00 3.07343E-02-3.98848E+00 3.99659E-14-5.26301E-13
 -1       887 2.02733E+01 1.40619E+00 5.43300E-06 6.78666E-02 6.01481E-14-1.28090E-13
 -1       888 2.02724E+01 1.40901E+00 1.84599E-04-6.63029E-02 3.52850E-14-1.67719E-13
 -1       889 2.02574E+01-8.44379E-03 3.16972E-06-1.16671E-01 4.16888E-15-7.72052E-14
 -1       890 2.03751E+01 6.71279E-01 1.92027E-04-1.01104E-01-1.49187E-14-1.41058E-13
 -1       891 2.03778E+01 3.92786E-01-4.78804E-07-8.80508E-03-1.13909E-14-1.14688E-13
 -1       892 2.03567E+01 1.96673E-01-4.64909E-06 5.12705E-02 3.47166E-14-1.23209E-13
 -1       893 2.03211E+01 6.55312E-02-3.87480E-06 8.59126E-02 7.43599E-15-4.57955E-14
 -1       894 2.02793E+01-1.78143E-02-2.20173E-06 1.01849E-01 5.13182E-15 1.81220E-14
 -1       895 2.02365E+01-6.69132E-02-1.99410E-07 1.04988E-01 5.16728E-14 3.71485E-14
 -1       896 2.01960E+01-9.20918E-02 1.00034E-06 1.00034E-01 7.12808E-15 1.04398E-14
 -1       897 2.01596E+01-1.01033E-01 1.58405E-06 9.05103E-02-2.70800E-14-5.90895E-14
 -1       898 2.01281E+01-9.92974E-02 1.78897E-06 7.89347E-02-3.46822E-14-8.34962E-14
 -1       899 2.01015E+01-9.07715E-02 1.76348E-06 6.70446E-02-3.65441E-14-1.25063E-14
 -1       900 2.00796E+01-7.80367E-02 1.58904E-06 5.60079E-02-7.84753E-14-2.02806E-14
 -1       901 2.00617E+01-6.26671E-02 1.30569E-06 4.66054E-02-9.96294E-14 2.25666E-16
 -1       902 2.00471E+01-4.54617E-02 9.25892E-07 3.93764E-02-3.44050E-14-4.58411E-14
 -1       903 2.00348E+01-2.66227E-02 4.41118E-07 3.47340E-02 1.36978E-14 4.19654E-14
 -1       904 2.00239E+01-5.89099E-03-1.74752E-07 3.30534E-02-2.60870E-15 5.92328E-14
 -1       905 2.00131E+01 1.73508E-02-9.63759E-07 3.47383E-02-8.18044E-14 8.89439E-14
 -1       906 2.00013E+01 4.39959E-02-1.98308E-06 4.02687E-02-4.60163E-15 1.00553E-13
 -1       907 1.99869E+01 7.51406E-02-3.30467E-06 5.02323E-02 4.32916E-14-1.86613E-14
 -1       908 1.99682E+01 1.12009E-01-5.01494E-06 6.53388E-02-5.40887E-14-7.83725E-14
 -1       909 1.99430E+01 1.55863E-01-7.21415E-06 8.64164E-02-1.61450E-14-5.16902E-14
 -1       910 1.99090E+01 2.07876E-01-1.00159E-05 1.14387E-01 1.05716E-13-1.24842E-13
 -1       911 1.98631E+01 2.68966E-01-1.35478E-05 1.50219E-01-6.43118E-15 1.11068E-14
 -1       912 1.98019E+01 3.39545E-01-1.79572E-05 1.94852E-01 1.33568E-13-1.03793E-13
 -1       913 1.97210E+01 4.19182E-01-2.34292E-05 2.49116E-01 8.69928E-14-1.55932E-13
 -1       914 1.96157E+01 5.06133E-01-3.02321E-05 3.13646E-01 1.03534E-13-5.14936E-14
 -1       915 1.94806E+01 5.96724E-01-3.88240E-05 3.88870E-01-1.73764E-13-1.25885E-14
 -1       916 1.93094E+01 6.84535E-01-5.01888E-05 4.75163E-01-2.14386E-13 1.33522E-14
 -1       917 1.90955E+01 7.59385E-01-6.74101E-05 5.73363E-01-1.58355E-13 1.55182E-13
 -1       918 1.88318E+01 8.06058E-01-1.03045E-04 6.85969E-01-4.45166E-14-1.55176E-14
 -1       919 1.85112E+01 8.02751E-01-1.98907E-04 8.19365E-01 7.15211E-14-8.59005E-14
 -1       920 1.81255E+01 7.19505E-01-5.77613E-04 9.88003E-01 5.29131E-14-2.47586E-13
 -1       921 1.76662E+01 5.11510E-01-1.92806E-03 1.22335E+00 1.26690E-13-2.51235E-13
 -1       922 1.71329E+01 1.29163E-01 6.15118E-04 1.57087E+00 3.60327E-13 1.60985E-13
 -1       923 2.01446E+01-9.56111E-02 8.89086E-06-1.05964E-01 5.48558E-14-9.84018E-14
 -1       924 2.01785E+01-8.53749E-02 9.80917E-06-1.16610E-01-1.06655E-14-4.54479E-14
 -1       925 2.00713E+01-7.62780E-02 5.32460E-06-6.57940E-02-4.58652E-14 2.10081E-14
 -1       926 2.00552E+01-6.21355E-02 4.19535E-06-5.45313E-02 9.91214E-14 4.10337E-14
 -1       927 2.00423E+01-4.62474E-02 3.15283E-06-4.56576E-02 4.92200E-14 5.72436E-14
 -1       928 2.00317E+01-2.88928E-02 2.19551E-06-3.96420E-02-4.95834E-14 3.57957E-14
 -1       929 2.00226E+01-9.90587E-03 1.30675E-06-3.68985E-02-4.98984E-14 8.47770E-15
 -1       930 2.00139E+01 1.12196E-02 4.60496E-07-3.78672E-02-6.90282E-14-1.45723E-14
 -1       931 2.00047E+01 3.52435E-02-3.74371E-07-4.30748E-02 1.67519E-14-7.92339E-14
 -1       932 1.99936E+01 6.31001E-02-1.23058E-06-5.31789E-02 3.77878E-14-5.36081E-14
 -1       933 1.99795E+01 9.58127E-02-2.13937E-06-6.89967E-02-3.38029E-14-9.23474E-14
 -1       934 1.99605E+01 1.34386E-01-3.12730E-06-9.15185E-02 7.73403E-14-1.54324E-14
 -1       935 1.99350E+01 1.79663E-01-4.21279E-06-1.21905E-01 2.01222E-14-1.71516E-13
 -1       936 1.99007E+01 2.32113E-01-5.40276E-06-1.61469E-01 5.33614E-14-1.89749E-13
 -1       937 1.98555E+01 2.91550E-01-6.69051E-06-2.11637E-01-4.63360E-14-2.23338E-13
 -1       938 1.97968E+01 3.56717E-01-8.05738E-06-2.73902E-01 3.73679E-14-1.00704E-13
 -1       939 1.97223E+01 4.24746E-01-9.47962E-06-3.49784E-01 3.60635E-15 4.95683E-14
 -1       940 1.96301E+01 4.90418E-01-1.09244E-05-4.40827E-01-5.77860E-14 5.26513E-15
 -1       941 1.95193E+01 5.45225E-01-1.22345E-05-5.48694E-01 3.81301E-14 2.95848E-15
 -1       942 1.93909E+01 5.76190E-01-1.25652E-05-6.75465E-01-6.08781E-14-2.44495E-14
 -1       943 1.92494E+01 5.64410E-01-9.02236E-06-8.24267E-01-3.12593E-14 1.29005E-13
 -1       944 1.91051E+01 4.83241E-01 2.67251E-06-1.00036E+00-2.08610E-14 1.56466E-13
 -1       945 1.89783E+01 2.95943E-01 6.14343E-06-1.21234E+00-1.10724E-13 1.20188E-13
 -1       946 1.89056E+01-4.64259E-02 6.63945E-05-1.47249E+00-4.39529E-14 2.38973E-14
 -1       947 1.89478E+01-6.05424E-01-4.08885E-05-1.79834E+00-2.73675E-14-1.84674E-13
 -1       948 1.92356E+01-1.47071E+00-1.69818E-03-2.18328E+00-9.08214E-15-3.93382E-13
 -1       949 1.99565E+01-2.72949E+00 2.49035E-03-2.61640E+00-7.57243E-15-3.62928E-13
 -1       950 2.16307E+01-4.28997E+00 1.32850E-02-2.66091E+00-8.84998E-14-3.55691E-13
 -1       951 2.01155E+01-9.51277E-02 7.73563E-06-9.26719E-02 7.95184E-14-3.97903E-14
 -1       952 2.02700E+01 1.39917E+00 9.16964E-04-1.80797E-01-8.02197E-15-1.17558E-13
 -1       953 1.49131E+01 2.45770E-01 5.65376E-03 7.47603E-01 3.28839E-13-5.35803E-13
 -1       954 2.02981E+01 7.64179E-02 4.22025E-06-9.62541E-02-6.68618E-15-9.57336E-14
 -1       955 1.60042E+01-1.17886E+00 1.68208E-02-2.78530E+00 1.68628E-13-3.41200E-13
 -1       956 2.02166E+01-5.88727E-02 9.57461E-06-1.21590E-01-7.45534E-15-4.85124E-14
 -1       957 2.03198E+01 1.11248E+00 6.22338E-04 2.67871E-01 8.52010E-14-7.99817E-14
 -1       958 1.45505E+01 5.25643E-02 9.07366E-03-1.13348E+00 5.29370E-13-1.48042E-13
 -1       959 2.00912E+01-8.78147E-02 6.52045E-06-7.88163E-02-2.58871E-14-1.55311E-14
 -1       960 1.63558E+01-1.89693E-01 2.51997E-03 1.82783E+00 2.91337E-13 2.54464E-13
 -1       961 2.03352E+01 2.05114E-01-2.87962E-04-5.25497E-02-1.48741E-14-8.22186E-14
 -1       962 2.03684E+01 8.74910E-01-5.51941E-05 1.26614E-01 5.99858E-14-6.42942E-14
 -1       963 2.03732E+01 9.44492E-01 2.03999E-04 6.04468E-02 4.67197E-14-1.26707E-13
 -1       964 1.74938E+01-1.83516E+00 4.37458E-03-3.02474E+00 8.06243E-14-3.71968E-13
 -1       965 2.03639E+01 4.54886E-01-2.47341E-04 4.07338E-02 1.57578E-14-5.85590E-14
 -1       966 1.62583E+01-2.40960E-01-3.21763E-03-1.84292E+00 4.79284E-13-1.18505E-13
 -1       967 2.02950E+01-3.30816E-02-5.05851E-06-8.34179E-02-3.12827E-14-8.25179E-14
 -1       968 1.59617E+01 4.56017E-01 1.94962E-03 8.01699E-01 4.44314E-13-6.38424E-13
 -1       969 2.04100E+01 3.28903E-01-7.49308E-06 1.05859E-02-1.49827E-14-1.10490E-13
 -1       970 2.03872E+01 1.49312E-01-4.12979E-05 4.19751E-02 3.73843E-14-1.43121E-13
 -1       971 2.03493E+01 3.05691E-02-2.82960E-05 5.91705E-02 5.13096E-14-1.14845E-13
 -1       972 2.03046E+01-4.34271E-02-1.38070E-05 6.60366E-02 4.68867E-14-7.03195E-14
 -1       973 2.02587E+01-8.53383E-02-3.87042E-06 6.59560E-02 3.80244E-14-6.67771E-14
 -1       974 2.02150E+01-1.04926E-01 2.18222E-06 6.16170E-02-1.40032E-14-5.12297E-14
 -1       975 2.01756E+01-1.09468E-01 5.48236E-06 5.50105E-02-3.25419E-14 7.86586E-14
 -1       976 2.01412E+01-1.04198E-01 6.88599E-06 4.75491E-02-1.16077E-13-5.23734E-14
 -1       977 2.01121E+01-9.27199E-02 6.98072E-06 4.02041E-02-6.24336E-15-9.67295E-14
 -1       978 2.00878E+01-7.73596E-02 6.15375E-06 3.36313E-02-9.51853E-14-1.13346E-13
 -1       979 2.00676E+01-5.94539E-02 4.64379E-06 2.82767E-02-1.01038E-13-1.06219E-13
 -1       980 2.00505E+01-3.95768E-02 2.57552E-06 2.44627E-02 2.26511E-14-5.59455E-14
 -1       981 2.00356E+01-1.77144E-02-1.52282E-08 2.24539E-02 3.23507E-14-9.50106E-14
 -1       982 2.00213E+01 6.60135E-03-3.16210E-06 2.25074E-02-8.00314E-14-1.49416E-13
 -1       983 2.00063E+01 3.41875E-02-6.95252E-06 2.49090E-02 2.84529E-14-2.98936E-14
 -1       984 1.99890E+01 6.61212E-02-1.15143E-05 2.99967E-02-8.31124E-14-7.61904E-14
 -1       985 1.99672E+01 1.03655E-01-1.70034E-05 3.81715E-02-2.75171E-14-8.46781E-14
 -1       986 1.99388E+01 1.48120E-01-2.35914E-05 4.98948E-02 9.63148E-14-1.02764E-13
 -1       987 1.99010E+01 2.00806E-01-3.14553E-05 6.56699E-02 4.77537E-14 4.19917E-14
 -1       988 1.98507E+01 2.62797E-01-4.07708E-05 8.60049E-02-3.81448E-14-7.22385E-14
 -1       989 1.97839E+01 3.34748E-01-5.17231E-05 1.11357E-01 6.41765E-15-1.56535E-13
 -1       990 1.96964E+01 4.16582E-01-6.45556E-05 1.42057E-01 6.58603E-14-1.59360E-13
 -1       991 1.95829E+01 5.07098E-01-7.97061E-05 1.78232E-01 2.06638E-13-2.78996E-13
 -1       992 1.94377E+01 6.03479E-01-9.81178E-05 2.19751E-01 4.80957E-14-2.78602E-13
 -1       993 1.92540E+01 7.00714E-01-1.21875E-04 2.66247E-01-1.43910E-13-1.09626E-13
 -1       994 1.90236E+01 7.90974E-01-1.55418E-04 3.17342E-01-8.09015E-14 2.45392E-14
 -1       995 1.87368E+01 8.63022E-01-2.08368E-04 3.73258E-01-1.72950E-13 1.58586E-13
 -1       996 1.83806E+01 9.01722E-01-3.11790E-04 4.36214E-01-5.55857E-14 1.92790E-13
 -1       997 1.79368E+01 8.87071E-01-5.84052E-04 5.13197E-01-1.09779E-13 1.58136E-14
 -1       998 1.73762E+01 7.95999E-01-1.70556E-04 6.16465E-01 3.81074E-15-2.92415E-13
 -1       999 1.67589E+01 6.64336E-01 1.30668E-03 6.93163E-01 4.74135E-13-4.64497E-13
 -1      1000 2.00655E+01-6.10029E-02 9.22307E-06-3.64721E-02 2.60268E-14 2.44991E-14
 -1      1001 2.00849E+01-7.78644E-02 1.16291E-05-4.36332E-02-3.47175E-14-1.02341E-13
 -1      1002 2.00355E+01-2.16542E-02 3.55994E-06-2.80882E-02-2.40158E-14 2.42015E-13
 -1      1003 2.00226E+01 1.11477E-03 3.82591E-07-2.75227E-02-1.85752E-14 8.65028E-14
 -1      1004 2.00094E+01 2.67774E-02-3.06364E-06-2.98441E-02 4.10135E-14 1.95342E-14
 -1      1005 1.99945E+01 5.62906E-02-6.84556E-06-3.54949E-02 7.78155E-14-4.64532E-14
 -1      1006 1.99760E+01 9.07685E-02-1.10385E-05-4.50279E-02 6.49183E-15-1.37946E-13
 -1      1007 1.99520E+01 1.31378E-01-1.57080E-05-5.91274E-02-1.78678E-13-1.55280E-13
 -1      1008 1.99203E+01 1.79203E-01-2.08912E-05-7.86222E-02-1.32606E-14 1.77809E-17
 -1      1009 1.98783E+01 2.35066E-01-2.65779E-05-1.04493E-01 6.91012E-14 8.09142E-14
 -1      1010 1.98229E+01 2.99273E-01-3.26973E-05-1.37873E-01 2.38497E-14-4.31562E-14
 -1      1011 1.97508E+01 3.71268E-01-3.91186E-05-1.80061E-01-1.09884E-13 3.22993E-14
 -1      1012 1.96587E+01 4.49183E-01-4.56866E-05-2.32542E-01-1.15557E-13 4.41976E-15
 -1      1013 1.95430E+01 5.29246E-01-5.23226E-05-2.97073E-01 3.18554E-14 5.97222E-14
 -1      1014 1.94004E+01 6.05063E-01-5.92131E-05-3.75867E-01-5.89885E-14-7.64370E-14
 -1      1015 1.92282E+01 6.66767E-01-6.69685E-05-4.71979E-01 2.16407E-14-9.55235E-14
 -1      1016 1.90249E+01 7.00058E-01-7.60530E-05-5.90043E-01-6.53810E-14-2.48267E-13
 -1      1017 1.87908E+01 6.85169E-01-8.51612E-05-7.37612E-01-1.09184E-13-1.80535E-13
 -1      1018 1.85288E+01 5.95497E-01-1.27997E-04-9.27686E-01-8.07489E-14 8.04529E-14
 -1      1019 1.82488E+01 3.93782E-01-2.44718E-04-1.18193E+00-1.66857E-15 3.09610E-14
 -1      1020 1.79683E+01 3.10803E-02-8.35199E-04-1.53116E+00 1.56538E-13 4.83547E-14
 -1      1021 2.03752E+01 9.59683E-01 6.33191E-05-1.66009E-02 3.40618E-14-1.14548E-13
 -1      1022 2.00494E+01-4.22380E-02 6.50867E-06-3.11787E-02-2.38508E-14 2.08099E-13
 -1      1023 2.04103E+01 5.27800E-01 1.64851E-05 3.25196E-02 3.78260E-14-8.25677E-14
 -1      1024 2.02504E+01-7.79670E-02 7.46725E-06-8.42939E-02-2.65166E-14-2.03003E-13
 -1      1025 2.03385E+01 4.46925E-02-5.35876E-05-7.31772E-02-4.78394E-15-8.42805E-14
 -1      1026 2.02080E+01-9.98716E-02 1.26478E-05-7.93326E-02 1.39910E-14-1.97531E-13
 -1      1027 2.01697E+01-1.06232E-01 1.46427E-05-7.11790E-02 2.17307E-14-1.08877E-13
 -1      1028 1.54252E+01 4.17107E-01 2.82039E-03-5.43916E-01 3.87531E-13-3.13193E-13
 -1      1029 2.04083E+01 5.85239E-01-1.44715E-04-4.05906E-02-1.23036E-14-9.61066E-14
 -1      1030 1.93371E+01-3.56219E+00-1.28940E-02 3.31422E+00 4.12379E-13-6.06013E-13
 -1      1031 2.03503E+01 1.02692E+00-5.30707E-04-1.22037E-01-9.07306E-15-1.00653E-13
 -1      1032 2.03772E+01 1.66460E-01 2.90436E-04-4.85544E-02 1.40239E-15-9.90889E-14
 -1      1033 2.01083E+01-9.21490E-02 1.35579E-05-5.22446E-02-7.28972E-14-6.61451E-14
 -1      1034 1.77480E+01-5.42358E-01 1.22276E-04-2.01518E+00 1.17591E-13 5.95836E-14
 -1      1035 2.01364E+01-1.02417E-01 1.47147E-05-6.17175E-02 2.16784E-14-5.85659E-14
 -1      1036 2.02612E+01-9.45837E-02-1.86082E-05-4.39384E-02 3.27169E-14-1.59618E-13
 -1      1037 2.04303E+01 4.76530E-01 2.57026E-04-6.55124E-03-3.49745E-16-4.11676E-14
 -1      1038 2.00493E+01-3.43469E-02-4.01685E-06-1.62234E-02-3.04793E-14-2.91734E-15
 -1      1039 2.03956E+01 9.50521E-02 8.85833E-05 1.98021E-02 5.27845E-14-8.52016E-14
 -1      1040 2.03539E+01-6.30478E-03 8.45810E-05 2.44667E-02 6.57666E-14-1.07039E-13
 -1      1041 2.03067E+01-6.74350E-02 7.09836E-05 2.57431E-02 3.83995E-14-1.22060E-13
 -1      1042 2.02592E+01-9.99503E-02 5.72008E-05 2.48619E-02 2.62561E-14-7.65470E-14
 -1      1043 2.02146E+01-1.12769E-01 4.45357E-05 2.27248E-02-1.81055E-14-7.27614E-14
 -1      1044 2.01747E+01-1.12464E-01 3.37858E-05 1.99892E-02-8.41093E-14-1.00366E-13
 -1      1045 2.01401E+01-1.03690E-01 2.51074E-05 1.71181E-02-3.89623E-14-1.26523E-14
 -1      1046 2.01108E+01-8.95761E-02 1.83790E-05 1.44289E-02-5.11233E-14-2.05254E-14
 -1      1047 2.00862E+01-7.20589E-02 1.33939E-05 1.21379E-02-9.99646E-14-6.12922E-14
 -1      1048 2.00654E+01-5.21505E-02 9.94074E-06 1.03967E-02-1.45218E-14-8.70858E-14
 -1      1049 2.00475E+01-3.01507E-02 7.83876E-06 9.32101E-03 3.71319E-14-1.23654E-13
 -1      1050 2.00309E+01-5.81055E-03 6.95351E-06 9.01259E-03-2.07344E-14-6.84042E-14
 -1      1051 2.00143E+01 2.15404E-02 7.20184E-06 9.57421E-03 3.30835E-14-1.62452E-14
 -1      1052 1.99959E+01 5.28900E-02 8.55048E-06 1.11183E-02-6.72347E-14-1.08176E-13
 -1      1053 1.99737E+01 8.94488E-02 1.10093E-05 1.37689E-02-7.72782E-14-6.61923E-14
 -1      1054 1.99454E+01 1.32552E-01 1.46201E-05 1.76558E-02-6.92388E-14-1.21837E-13
 -1      1055 1.99082E+01 1.83540E-01 1.94389E-05 2.28985E-02 4.58842E-14-2.24194E-13
 -1      1056 1.98590E+01 2.43606E-01 2.55138E-05 2.95780E-02 5.16487E-14-2.80602E-13
 -1      1057 1.97941E+01 3.13583E-01 3.28541E-05 3.76938E-02-3.44714E-14-1.67228E-13
 -1      1058 1.97091E+01 3.93677E-01 4.13926E-05 4.71029E-02 5.51060E-14-9.59747E-14
 -1      1059 1.95992E+01 4.83103E-01 5.09342E-05 5.74413E-02 8.38404E-14-7.75525E-14
 -1      1060 1.94586E+01 5.79660E-01 6.10652E-05 6.80337E-02-9.75862E-15-2.47130E-13
 -1      1061 1.92809E+01 6.79234E-01 7.09362E-05 7.78028E-02-1.59548E-14-2.91420E-13
 -1      1062 1.90584E+01 7.75307E-01 7.86870E-05 8.52017E-02-3.49684E-14-2.18190E-13
 -1      1063 1.87818E+01 8.58557E-01 8.00804E-05 8.82001E-02 1.28700E-13-7.63119E-14
 -1      1064 1.84384E+01 9.16737E-01 6.60562E-05 8.43283E-02-6.55502E-14 1.05111E-13
 -1      1065 1.80093E+01 9.35120E-01 2.54842E-05 7.06690E-02-8.07895E-14 8.66351E-14
 -1      1066 1.74601E+01 8.96454E-01-5.67217E-04 4.47194E-02-2.52153E-13 2.22823E-13
 -1      1067 2.00877E+01-7.47188E-02-9.26781E-06-2.19070E-02-9.47451E-14-7.30076E-14
 -1      1068 2.00175E+01 1.51887E-02-3.94428E-07-1.56388E-02 5.41062E-14-2.12694E-14
 -1      1069 2.00332E+01-1.09594E-02-1.93355E-06-1.51984E-02 7.53988E-14-2.53089E-14
 -1      1070 1.99801E+01 7.95991E-02 3.34608E-07-2.18862E-02 6.80968E-15 9.48428E-14
 -1      1071 1.99544E+01 1.20242E-01-9.77259E-07-2.83447E-02-7.81400E-14 2.05665E-13
 -1      1072 1.99210E+01 1.68183E-01-3.86543E-06-3.76099E-02-1.19699E-13 7.83148E-14
 -1      1073 1.98768E+01 2.24525E-01-8.77353E-06-5.02601E-02-2.71965E-14 9.68823E-14
 -1      1074 1.98186E+01 2.90004E-01-1.62090E-05-6.70140E-02 1.44972E-13 8.11471E-14
 -1      1075 1.97426E+01 3.64701E-01-2.67007E-05-8.87653E-02 1.13684E-13 4.36985E-14
 -1      1076 1.96447E+01 4.47669E-01-4.07193E-05-1.16639E-01-7.17194E-14-9.99899E-14
 -1      1077 1.95202E+01 5.36464E-01-5.85513E-05-1.52090E-01 1.19606E-14-2.63565E-13
 -1      1078 1.93641E+01 6.26583E-01-8.01225E-05-1.97070E-01 8.47946E-14-2.19268E-13
 -1      1079 1.91714E+01 7.10846E-01-1.04738E-04-2.54332E-01 7.13385E-15-2.80199E-13
 -1      1080 1.89363E+01 7.78783E-01-1.30305E-04-3.27948E-01 4.27012E-14-3.14735E-13
 -1      1081 1.86525E+01 8.16103E-01-1.48522E-04-4.24177E-01-4.46444E-14-5.25898E-13
 -1      1082 1.83119E+01 8.04445E-01-1.09673E-04-5.52807E-01-8.44996E-14-7.22774E-13
 -1      1083 1.79023E+01 7.22396E-01 2.77941E-04-7.29022E-01-1.47849E-13-6.39861E-13
 -1      1084 1.73872E+01 5.43075E-01-3.04389E-03-9.90391E-01-1.59328E-13-4.52779E-13
 -1      1085 2.04221E+01 5.88381E-01-1.69379E-04 1.23126E-02 5.57735E-14-9.43661E-14
 -1      1086 1.68967E+01 2.36146E-01 2.46886E-03-1.34292E+00 1.43816E-13 5.30138E-14
 -1      1087 2.00004E+01 4.49990E-02 4.33952E-07-1.77725E-02 2.60723E-14-9.12583E-14
 -1      1088 2.04243E+01 2.50097E-01 5.61798E-05 1.03743E-02-8.86364E-15-3.77235E-14
 -1      1089 2.02167E+01-1.10234E-01-1.85900E-05-4.06555E-02-2.15640E-14-2.44631E-13
 -1      1090 2.03546E+01 8.55944E-03-1.39023E-05-4.10422E-02-1.30329E-14-1.29049E-13
 -1      1091 2.03082E+01-5.80795E-02-1.74672E-05-4.46407E-02 2.19587E-14-1.46219E-13
 -1      1092 2.00670E+01-5.55515E-02-6.50650E-06-1.85212E-02-4.25722E-14 3.66650E-14
 -1      1093 2.01125E+01-9.14298E-02-1.21389E-05-2.61684E-02-9.84278E-14-1.66934E-13
 -1      1094 1.69454E+01 7.97348E-01 6.02844E-03-3.55041E-02-1.63718E-13 1.52478E-13
 -1      1095 2.03946E+01 1.17354E-01-1.73235E-05-3.05192E-02-2.73618E-14-1.11265E-13
 -1      1096 2.04291E+01 3.16650E-01-2.56651E-04-5.88954E-03 1.25724E-14-1.21456E-13
 -1      1097 1.62427E+01 6.50456E-01-1.08339E-03-2.50268E-01-7.04515E-15-2.77860E-13
 -1      1098 2.01767E+01-1.11912E-01-1.71982E-05-3.60533E-02 2.43693E-14-2.20591E-13
 -1      1099 2.01420E+01-1.04530E-01-1.48934E-05-3.10212E-02-3.44653E-14-1.60688E-13
 -1      1100 2.79643E+01 9.08693E+00 2.32532E+00-6.69790E+00-2.53131E-14 9.33059E-13
 -1      1101 2.05488E+01 6.22757E+00 2.09751E-01-3.90324E+00-1.49880E-14 1.59150E-13
 -1      1102 1.94353E+01 5.85314E+00 7.51858E-02-2.88718E+00-1.13798E-14-1.77306E-13
 -1      1103 1.90265E+01 5.72607E+00 6.03690E-02-2.23443E+00-7.50788E-15-3.41963E-13
 -1      1104 1.88400E+01 5.66936E+00 5.78086E-02-1.70059E+00-5.44703E-15-4.10566E-13
 -1      1105 1.87454E+01 5.64028E+00 5.55312E-02-1.23344E+00-2.51795E-15-4.42467E-13
 -1      1106 1.86960E+01 5.62494E+00 5.37317E-02-8.03859E-01-1.77375E-15-4.47275E-13
 -1      1107 1.86718E+01 5.61729E+00 5.24794E-02-3.92605E-01-3.61907E-16-4.40839E-13
 -1      1108 1.86649E+01 5.61510E+00 5.20825E-02 8.45953E-03 3.57461E-16-4.32852E-13
 -1      1109 1.86729E+01 5.61764E+00 5.25982E-02 4.09943E-01 2.69966E-15-4.17276E-13
 -1      1110 1.86982E+01 5.62566E+00 5.39897E-02 8.22558E-01 3.66721E-15-3.95180E-13
 -1      1111 1.87492E+01 5.64163E+00 5.62001E-02 1.25477E+00 5.83561E-15-3.51758E-13
 -1      1112 1.88450E+01 5.67105E+00 5.84834E-02 1.72637E+00 7.75074E-15-2.80529E-13
 -1      1113 1.90325E+01 5.72796E+00 6.07013E-02 2.26746E+00 9.66588E-15-1.62730E-13
 -1      1114 1.94325E+01 5.85060E+00 6.94951E-02 2.92797E+00 1.18933E-14 4.38885E-14
 -1      1115 2.04544E+01 6.18224E+00 1.53026E-01 3.87797E+00 1.20459E-14 4.40713E-13
 -1      1116 2.52186E+01 7.99471E+00 1.43030E+00 5.84604E+00 2.29816E-14 1.21392E-12
 -1      1117 2.88139E+01 3.61619E+00 1.27109E+00-4.21689E+00-1.11022E-13 1.42986E-12
 -1      1118 2.02299E+01-1.77722E-01-6.16311E-01-1.09865E-01-3.60822E-14 1.18208E-12
 -1      1119 1.88364E+01-9.63929E-02-2.36364E-01 6.25464E-02-1.40547E-14 8.06870E-13
 -1      1120 1.85034E+01-4.80663E-02-5.95750E-02 4.05451E-02-8.02657E-15 5.55937E-13
 -1      1121 1.84492E+01-2.46258E-02-1.51856E-02 2.68152E-02-7.83466E-15 3.71658E-13
 -1      1122 1.85319E+01-1.30692E-02-4.98998E-03 1.90941E-02-1.61015E-14 2.41543E-13
 -1      1123 1.86799E+01-6.61869E-03-1.49226E-03 1.41606E-02 3.98986E-16 1.47991E-13
 -1      1124 1.88536E+01-2.84331E-03 5.51628E-04 1.07421E-02-1.99520E-15 6.55344E-14
 -1      1125 1.90305E+01-6.01273E-04 1.87871E-03 8.21603E-03 1.98985E-15 3.29511E-14
 -1      1126 1.91978E+01 7.05257E-04 2.63631E-03 6.27428E-03-1.00624E-14-5.01075E-14
 -1      1127 1.93485E+01 1.41895E-03 2.96118E-03 4.75227E-03-9.49166E-15-1.97144E-13
 -1      1128 1.94795E+01 1.75101E-03 2.98882E-03 3.55131E-03-6.64020E-15-2.03585E-13
 -1      1129 1.95902E+01 1.83868E-03 2.82878E-03 2.60435E-03-1.03464E-14-2.89565E-13
 -1      1130 1.96814E+01 1.77383E-03 2.56065E-03 1.86104E-03 1.37157E-15-2.75365E-13
 -1      1131 1.97547E+01 1.61818E-03 2.23889E-03 1.28111E-03-1.03567E-14-2.07096E-13
 -1      1132 1.98124E+01 1.41230E-03 1.89854E-03 8.31296E-04-4.01567E-14-3.63322E-13
 -1      1133 1.98567E+01 1.18137E-03 1.55985E-03 4.83912E-04 1.86080E-14-4.42249E-13
 -1      1134 1.98900E+01 9.39008E-04 1.23176E-03 2.16148E-04 8.73124E-15-4.12764E-13
 -1      1135 1.99146E+01 6.90133E-04 9.14461E-04 9.71479E-06-1.29501E-14-5.04278E-13
 -1      1136 1.99328E+01 4.32888E-04 6.01279E-04-1.49319E-04 8.52318E-16-5.17385E-13
 -1      1137 1.99468E+01 1.60060E-04 2.79913E-04-2.70548E-04-3.07278E-14-5.57517E-13
 -1      1138 1.99588E+01-1.39948E-04-6.67443E-05-3.59086E-04-1.76520E-14-5.48380E-13
 -1      1139 1.99715E+01-4.82429E-04-4.60180E-04-4.15212E-04 3.23192E-14-4.91286E-13
 -1      1140 1.99876E+01-8.85851E-04-9.26061E-04-4.33742E-04-2.45387E-14-5.46741E-13
 -1      1141 2.00105E+01-1.37134E-03-1.49415E-03-4.03047E-04 3.75853E-14-5.47173E-13
 -1      1142 2.00443E+01-1.96192E-03-2.19811E-03-3.03602E-04-7.79425E-15-3.88565E-13
 -1      1143 2.00941E+01-2.68131E-03-3.07490E-03-1.05968E-04 5.22107E-14-2.58355E-13
 -1      1144 2.01660E+01-3.55157E-03-4.16326E-03 2.31975E-04-3.35425E-14-4.57727E-13
 -1      1145 2.02680E+01-4.58895E-03-5.50015E-03 7.68641E-04-7.59961E-15-5.41285E-13
 -1      1146 2.04093E+01-5.79633E-03-7.11338E-03 1.58323E-03 9.48341E-15-3.44270E-13
 -1      1147 2.06014E+01-7.14981E-03-9.00669E-03 2.78066E-03-3.32617E-14-3.12062E-13
 -1      1148 2.08575E+01-8.57540E-03-1.11307E-02 4.49545E-03 1.79094E-14-2.23002E-13
 -1      1149 2.11920E+01-9.90947E-03-1.33277E-02 6.89037E-03-1.92230E-14-5.05813E-13
 -1      1150 2.16198E+01-1.08344E-02-1.52315E-02 1.01401E-02 2.82160E-14-6.57361E-13
 -1      1151 2.21533E+01-1.07806E-02-1.60948E-02 1.43787E-02-5.65560E-14-7.27725E-13
 -1      1152 2.27968E+01-8.79280E-03-1.45184E-02 1.95702E-02 7.70924E-14-5.57176E-13
 -1      1153 2.35376E+01-3.38975E-03-8.10287E-03 2.52335E-02 2.61889E-14-4.84234E-13
 -1      1154 2.43294E+01 7.47163E-03 6.80702E-03 2.99295E-02 4.60269E-14-2.84057E-13
 -1      1155 2.50684E+01 2.60599E-02 3.47263E-02 3.04746E-02-2.13241E-15-1.25521E-13
 -1      1156 2.55635E+01 5.35799E-02 7.88172E-02 2.11166E-02 6.40373E-14 9.16819E-14
 -1      1157 2.55157E+01 8.72786E-02 1.35321E-01-6.27779E-03-7.94477E-14-2.03395E-13
 -1      1158 2.45414E+01 1.15901E-01 1.84738E-01-5.87646E-02-6.05366E-14-8.22169E-13
 -1      1159 2.23017E+01 1.16516E-01 1.86297E-01-1.33137E-01-7.79585E-15-6.38004E-13
 -1      1160 1.87774E+01 6.10637E-02 9.13269E-02-2.03304E-01-2.28732E-14-3.30513E-13
 -1      1161 1.46058E+01-5.91119E-02-1.12153E-01-2.18425E-01 6.71043E-14-4.01790E-13
 -1      1162 1.11749E+01-2.01035E-01-3.50461E-01-1.29126E-01 7.08617E-14-5.13894E-14
 -1      1163 1.01342E+01-2.74693E-01-4.69570E-01 6.46553E-02 1.96718E-15-1.93776E-13
 -1      1164 1.23445E+01-1.97837E-01-3.22196E-01 2.77713E-01 3.57925E-14-4.84807E-13
 -1      1165 1.68309E+01 1.54167E-02 1.24945E-01 3.73292E-01 1.14765E-14-6.87367E-13
 -1      1166 1.97979E+01 1.47124E-01 2.90050E-01 4.60290E-02 8.65974E-15-3.66429E-13
 -1      1167 2.77935E+01 5.25657E-01 3.76722E-01 1.96659E+00-2.62290E-14 1.84325E-12
 -1      1168 2.00871E+01-6.65850E-02-5.73716E-01 1.29498E-01 1.80758E-15 1.53016E-12
 -1      1169 1.89110E+01-4.08909E-02-1.92867E-01 1.92825E-02 1.92468E-15 1.20484E-12
 -1      1170 1.85328E+01-2.12574E-02-4.99537E-02 1.39156E-03 1.33704E-15 9.67164E-13
 -1      1171 1.84620E+01-1.24885E-02-1.33428E-02-4.03329E-03 5.50189E-15 8.23681E-13
 -1      1172 1.85380E+01-7.41975E-03-4.85775E-03-5.53175E-03-6.10406E-16 7.08364E-13
 -1      1173 1.86831E+01-4.35055E-03-2.02606E-03-5.75697E-03 8.16805E-15 6.33158E-13
 -1      1174 1.88552E+01-2.37687E-03-3.92550E-04-5.47671E-03-9.84591E-15 6.22830E-13
 -1      1175 1.90312E+01-1.09522E-03 7.36595E-04-4.98972E-03 7.84706E-15 5.06485E-13
 -1      1176 1.91979E+01-2.77305E-04 1.45874E-03-4.40798E-03 1.60738E-14 4.75047E-13
 -1      1177 1.93483E+01 2.25751E-04 1.84414E-03-3.79497E-03 2.89889E-14 4.12070E-13
 -1      1178 1.94791E+01 5.13960E-04 1.98179E-03-3.19369E-03-9.18371E-15 4.83778E-13
 -1      1179 1.95898E+01 6.56424E-04 1.95350E-03-2.63075E-03-2.50022E-15 4.69386E-13
 -1      1180 1.96810E+01 7.01486E-04 1.82236E-03-2.12046E-03 8.44095E-15 2.04942E-13
 -1      1181 1.97544E+01 6.82660E-04 1.63302E-03-1.66834E-03-2.05976E-14 1.63512E-13
 -1      1182 1.98121E+01 6.22433E-04 1.41512E-03-1.27366E-03-2.35135E-15 2.57249E-13
 -1      1183 1.98565E+01 5.34843E-04 1.18637E-03-9.31352E-04-7.49845E-15 2.03696E-13
 -1      1184 1.98899E+01 4.27289E-04 9.55078E-04-6.33531E-04 2.35342E-14 6.74219E-15
 -1      1185 1.99147E+01 3.01821E-04 7.21989E-04-3.70634E-04 4.30038E-15-2.12651E-13
 -1      1186 1.99330E+01 1.56058E-04 4.81630E-04-1.32335E-04-1.23838E-14-1.42832E-13
 -1      1187 1.99471E+01-1.61706E-05 2.23227E-04 9.17279E-05-2.21217E-14 1.56194E-13
 -1      1188 1.99594E+01-2.24349E-04-6.86974E-05 3.11309E-04 1.00463E-14 2.06294E-13
 -1      1189 1.99724E+01-4.80878E-04-4.13945E-04 5.34874E-04 2.95383E-14-8.35121E-14
 -1      1190 1.99889E+01-8.00598E-04-8.36312E-04 7.68755E-04 2.67244E-15-1.94061E-13
 -1      1191 2.00123E+01-1.20006E-03-1.36309E-03 1.01598E-03-2.39159E-14 6.52699E-14
 -1      1192 2.00465E+01-1.69622E-03-2.02406E-03 1.27456E-03 4.60268E-14 2.13112E-13
 -1      1193 2.00966E+01-2.30422E-03-2.84945E-03 1.53500E-03-1.11270E-14-4.97800E-14
 -1      1194 2.01682E+01-3.03340E-03-3.86604E-03 1.77663E-03-3.98500E-14 9.06549E-14
 -1      1195 2.02687E+01-3.88067E-03-5.09002E-03 1.96229E-03-1.96832E-14 2.24459E-13
 -1      1196 2.04061E+01-4.81961E-03-6.51435E-03 2.03091E-03-4.35882E-15 3.29437E-13
 -1      1197 2.05898E+01-5.78279E-03-8.08697E-03 1.88735E-03-1.00913E-14 2.36811E-13
 -1      1198 2.08296E+01-6.63471E-03-9.67446E-03 1.38950E-03 2.45885E-14 8.71308E-14
 -1      1199 2.11347E+01-7.13192E-03-1.10034E-02 3.34273E-04-3.17912E-14 1.29797E-13
 -1      1200 2.15117E+01-6.87022E-03-1.15718E-02-1.55191E-03-2.31693E-14 2.47767E-13
 -1      1201 2.19613E+01-5.22680E-03-1.05283E-02-4.60367E-03 9.24082E-15 5.05290E-14
 -1      1202 2.24721E+01-1.32782E-03-6.54372E-03-9.15666E-03 2.47976E-14-1.64022E-13
 -1      1203 2.30128E+01 5.88358E-03 2.23901E-03-1.53795E-02 6.64456E-14-5.54973E-14
 -1      1204 2.35202E+01 1.73314E-02 1.79572E-02-2.29138E-02 1.74877E-14-4.96339E-14
 -1      1205 2.38863E+01 3.30288E-02 4.20826E-02-3.02569E-02 2.39873E-14-1.69077E-13
 -1      1206 2.39501E+01 5.06992E-02 7.32918E-02-3.39804E-02 2.38091E-14-4.66716E-13
 -1      1207 2.35064E+01 6.41358E-02 1.04129E-01-2.83555E-02-9.39492E-14-1.40006E-13
 -1      1208 2.23536E+01 6.27716E-02 1.18236E-01-6.71579E-03 2.89404E-14 5.07094E-14
 -1      1209 2.04012E+01 3.56022E-02 9.28943E-02 3.39745E-02-2.24499E-14-4.96825E-15
 -1      1210 1.78247E+01-1.98822E-02 1.17566E-02 8.59021E-02 3.20130E-14-1.07941E-13
 -1      1211 1.51863E+01-8.79780E-02-1.15292E-01 1.25954E-01 7.42280E-14-4.49141E-13
 -1      1212 1.33791E+01-1.33272E-01-2.37036E-01 1.21394E-01 2.92717E-14-6.03628E-13
 -1      1213 1.32855E+01-1.14627E-01-2.69078E-01 4.84628E-02 6.37684E-14-5.91555E-13
 -1      1214 1.51852E+01-1.45607E-02-1.42147E-01-8.21464E-02-2.14819E-14-4.81781E-13
 -1      1215 1.82053E+01 1.42743E-01 1.23368E-01-1.97087E-01-2.61423E-14-1.99812E-13
 -1      1216 1.99442E+01 3.18487E-02 1.08138E-01-1.85803E-02 4.90562E-14 3.50622E-14
 -1      1217 2.00021E+01-1.01305E-01 1.58180E-01-4.83152E-02 1.46452E-13-1.24224E-13
 -1      1218 2.01327E+01-2.22671E+00 3.17465E-01-1.97290E-01 2.14828E-13 4.83823E-14
 -1      1219 2.00867E+01-6.79573E+00 2.53546E-01-3.42063E-01 5.05707E-13 1.07525E-13
 -1      1220 1.99820E+01-1.31184E+01 4.67125E-02-5.34028E-01-6.60028E-14-1.67381E-13
 -1      1221 1.97186E+01-2.02717E+01-6.94914E-01-6.79996E-01-3.45057E-13-1.23158E-13
 -1      1222 1.92757E+01-2.46713E+01-2.01647E+00-3.13226E-01-4.46226E-13 9.88237E-14
 -1      1223 1.87206E+01-2.04967E+01-2.88741E+00 9.67190E-01-2.89546E-13-1.00142E-13
 -1      1224 1.84953E+01-3.80825E+00-1.85369E+00 2.44751E+00-9.90763E-13-6.98851E-14
 -1      1225 1.97784E+01 2.46760E+01 2.36407E+00 2.76032E+00-1.77236E-12 4.78784E-15
 -1      1226 2.13932E+01 5.45248E+01 8.05349E+00 1.89983E+00-1.81855E-12-4.76841E-14
 -1      1227 2.20448E+01 6.40631E+01 1.00324E+01-4.50304E-01-1.73572E-12 7.68829E-15
 -1      1228 2.05095E+01 4.33950E+01 5.84425E+00-2.16743E+00-1.07936E-12 8.63198E-14
 -1      1229 1.95686E+01 9.98706E+00 1.40076E-01-2.01171E+00-4.28546E-13 2.81858E-14
 -1      1230 1.92289E+01-1.47605E+01-2.59124E+00-9.47222E-01-1.71951E-12-1.78042E-13
 -1      1231 1.96970E+01-2.33568E+01-2.03737E+00-9.83146E-02-4.59494E-13 7.53078E-14
 -1      1232 1.99553E+01-1.87687E+01-6.26913E-01 2.60051E-01-4.18554E-14-8.03455E-14
 -1      1233 2.01270E+01-1.06935E+01 1.43520E-01 3.89488E-01 7.66054E-15-6.10293E-14
 -1      1234 2.02819E+01-3.78701E+00 4.95117E-01 5.02591E-01 1.54488E-13 3.04749E-13
 -1      1235 2.00068E+01-3.75634E-01 3.03009E-01 1.78497E-01 5.51947E-13-4.59129E-14
 -1      1236-2.78475E+00-5.07365E+01-1.38050E+01-3.35898E+00 1.63514E-12 4.41147E-13
 -1      1237-3.52865E-01-1.86243E+01-7.27995E+00-1.68960E+00 1.76970E-12 4.10338E-13
 -1      1238 1.02547E+01 1.58325E+01 1.01284E-01 1.26796E+01-4.44089E-13-2.67342E-13
 -1      1239 3.12326E+01 3.03588E+01 4.33514E+00 2.93440E+01-7.13207E-13-6.91447E-13
 -1      1240 5.61233E+01 2.58023E+01 5.47276E+00 3.58760E+01-8.64198E-13-1.20925E-12
 -1      1241 7.68953E+01 1.37237E+01 5.25367E+00 2.98008E+01-5.68295E-13-1.08491E-12
 -1      1242 8.70619E+01 4.25746E+00 4.81753E+00 1.41750E+01-1.13257E-13-4.71456E-13
 -1      1243 8.23502E+01 2.02429E+00 4.21958E+00-3.90211E+00 1.28585E-13-1.10734E-12
 -1      1244 6.35464E+01 6.16464E+00 3.23493E+00-1.65140E+01 5.82479E-13-1.86318E-12
 -1      1245 3.93411E+01 1.05358E+01 1.86124E+00-1.91244E+01 1.02074E-12-1.75659E-12
 -1      1246 1.68785E+01 9.52103E+00 1.35707E-01-1.22631E+01 8.61089E-13-1.11355E-12
 -1      1247 2.37000E+00 3.88387E-01-1.55975E+00-1.83190E+00 3.76366E-13-4.60965E-13
 -1      1248-2.43214E+00-1.44326E+01-3.07315E+00 4.98591E+00 1.89626E-13-7.68274E-14
 -1      1249-2.04832E+00-2.74285E+01-3.96091E+00 4.83963E+00-2.87881E-13-1.45856E-14
 -1      1250-1.04239E+00-3.28830E+01-4.31675E+00-1.87391E-01 3.62099E-13 8.04704E-14
 -1      1251-2.04621E+00-2.75564E+01-3.99911E+00-5.26372E+00 8.37219E-13 7.60780E-14
 -1      1252-2.64489E+00-1.46825E+01-3.15376E+00-5.27508E+00-2.24265E-13-2.64677E-13
 -1      1253 1.55659E+00-4.39390E-01-1.82475E+00 1.16374E+00-5.33129E-13-5.50004E-13
 -1      1254 1.39309E+01 8.95252E+00-2.15506E-01 1.09497E+01 1.19904E-14 1.23235E-13
 -1      1255 3.55475E+01 1.08900E+01 1.51411E+00 1.87216E+01 3.55049E-13 6.65246E-13
 -1      1256 6.16616E+01 6.77786E+00 3.20167E+00 1.79855E+01-9.92539E-14-3.35731E-13
 -1      1257 8.14209E+01 2.64185E+00 4.33583E+00 6.69193E+00-2.07681E-14-5.73763E-13
 -1      1258 8.86678E+01 3.29609E+00 4.95493E+00-1.10259E+01-1.47243E-14-6.74683E-13
 -1      1259 7.92727E+01 1.22046E+01 5.27832E+00-2.79684E+01 2.40780E-13-3.79807E-13
 -1      1260 5.74263E+01 2.45023E+01 5.33570E+00-3.53358E+01 3.96794E-13-3.48388E-13
 -1      1261 3.18913E+01 2.98224E+01 4.22853E+00-2.94285E+01 3.91243E-13-6.11067E-13
 -1      1262 1.07237E+01 1.70417E+01 2.66227E-01-1.35173E+01-4.84057E-13 1.06581E-14
 -1      1263-3.59310E-01-1.76594E+01-7.07591E+00 1.69686E+00-8.88178E-14 2.05613E-13
 -1      1264-2.63282E+00-5.14066E+01-1.39033E+01 3.55994E+00 5.34017E-13 2.28983E-15
 -1      1265 2.22684E+01 1.83828E+00-7.25821E-01-2.79029E+00-3.93852E-14 7.71272E-13
 -1      1266 2.03606E+01 4.69018E+00-4.87386E-02-3.30613E+00-1.18197E-13-1.51268E-15
 -1      1267 2.08684E+01 4.81071E+00-1.13331E-01-4.16050E+00-1.48576E-13 1.74187E-13
 -1      1268 1.95319E+01 4.99403E+00-1.97153E-02-2.65370E+00-1.18197E-13-2.51233E-13
 -1      1269 1.98304E+01 5.09047E+00 5.38998E-05-3.04459E+00-1.33692E-13-1.43149E-13
 -1      1270 2.05272E+01 3.95280E+00-2.59816E-02-3.07370E+00-2.06758E-13-1.24900E-15
 -1      1271 1.91853E+01 5.08422E+00-3.39806E-03-2.06998E+00-9.35294E-14-3.70683E-13
 -1      1272 1.93337E+01 5.13946E+00 1.05294E-02-2.36333E+00-1.05416E-13-3.13100E-13
 -1      1273 1.97556E+01 4.36724E+00-2.38555E-02-2.48967E+00-1.84320E-13-1.99958E-13
 -1      1274 1.90089E+01 5.13102E+00 3.45975E-03-1.56381E+00-6.43296E-14-4.29793E-13
 -1      1275 1.90873E+01 5.16079E+00 1.28127E-02-1.81374E+00-7.67476E-14-4.03195E-13
 -1      1276 1.93931E+01 4.55524E+00-1.94881E-02-1.93062E+00-1.39258E-13-3.06054E-13
 -1      1277 1.89148E+01 5.16063E+00 6.55069E-03-1.11644E+00-4.07330E-14-4.47590E-13
 -1      1278 1.89574E+01 5.17706E+00 1.27664E-02-1.33780E+00-5.28206E-14-4.36777E-13
 -1      1279 1.92052E+01 4.66160E+00-1.60450E-02-1.44405E+00-9.92531E-14-3.52659E-13
 -1      1280 1.88630E+01 5.18037E+00 8.17455E-03-6.93406E-01-1.98934E-14-4.49338E-13
 -1      1281 1.88861E+01 5.18927E+00 1.19915E-02-9.03506E-01-2.71241E-14-4.53360E-13
 -1      1282 1.91019E+01 4.72694E+00-1.39997E-02-1.00374E+00-5.63939E-14-3.76966E-13
 -1      1283 1.88389E+01 5.19227E+00 9.27040E-03-2.88988E-01 9.50672E-15-4.45002E-13
 -1      1284 1.88488E+01 5.19612E+00 1.10529E-02-4.90966E-01 3.88578E-16-4.44984E-13
 -1      1285 1.90459E+01 4.76589E+00-1.29269E-02-5.88441E-01-1.57398E-14-3.67532E-13
 -1      1286 1.88352E+01 5.19722E+00 1.02060E-02 1.08122E-01 2.90555E-14-4.32012E-13
 -1      1287 1.88348E+01 5.19708E+00 1.01322E-02-9.14032E-02 2.12200E-14-4.40575E-13
 -1      1288 1.90215E+01 4.78391E+00-1.24770E-02-1.88995E-01 2.65654E-14-3.66224E-13
 -1      1289 1.88506E+01 5.19575E+00 1.11473E-02 5.08288E-01 5.39200E-14-4.14863E-13
 -1      1290 1.88399E+01 5.19162E+00 9.20650E-03 3.05881E-01 4.18038E-14-4.24813E-13
 -1      1291 1.90224E+01 4.78326E+00-1.24931E-02 2.05617E-01 5.61860E-14-3.52579E-13
 -1      1292 1.88894E+01 5.18810E+00 1.20832E-02 9.22328E-01 6.97168E-14-3.92122E-13
 -1      1293 1.88655E+01 5.17903E+00 8.11547E-03 7.11264E-01 6.57328E-14-4.09327E-13
 -1      1294 1.90485E+01 4.76380E+00-1.29843E-02 6.05777E-01 9.95946E-14-3.38493E-13
 -1      1295 1.89616E+01 5.17519E+00 1.28905E-02 1.35536E+00 9.28441E-14-3.43576E-13
 -1      1296 1.89182E+01 5.15838E+00 6.43203E-03 1.13256E+00 8.27255E-14-3.71163E-13
 -1      1297 1.91062E+01 4.72337E+00-1.40075E-02 1.01890E+00 1.26563E-13-3.11494E-13
 -1      1298 1.90949E+01 5.15691E+00 1.29206E-02 1.83983E+00 1.21703E-13-2.63605E-13
 -1      1299 1.90150E+01 5.12642E+00 3.13970E-03 1.58710E+00 1.06456E-13-3.10597E-13
 -1      1300 1.92120E+01 4.65503E+00-1.61591E-02 1.46186E+00 1.63025E-13-2.54505E-13
 -1      1301 1.93451E+01 5.13338E+00 1.04544E-02 2.39688E+00 1.47042E-13-1.36932E-13
 -1      1302 1.91942E+01 5.07645E+00-4.15835E-03 2.09950E+00 1.33633E-13-2.14492E-13
 -1      1303 1.94054E+01 4.54259E+00-1.99020E-02 1.95716E+00 2.06272E-13-1.75686E-13
 -1      1304 1.98557E+01 5.09968E+00 6.03986E-03 3.08355E+00 1.62620E-13 9.69780E-14
 -1      1305 1.95445E+01 4.98474E+00-2.02509E-02 2.69631E+00 1.46529E-13-3.97529E-14
 -1      1306 1.97749E+01 4.34586E+00-2.47304E-02 2.52759E+00 2.35178E-13-2.00465E-14
 -1      1307 2.11042E+01 4.90672E+00 7.99577E-03 4.05329E+00 1.33393E-13 5.07275E-13
 -1      1308 2.03349E+01 4.73407E+00-4.80941E-02 3.41546E+00 1.33810E-13 2.52992E-13
 -1      1309 2.05639E+01 3.91595E+00-2.29256E-02 3.17813E+00 2.45387E-13 2.32855E-13
 -1      1310 2.72038E+01 3.20535E+00 9.28841E-01 4.58206E+00 5.46230E-14 1.26066E-12
 -1      1311 2.20212E+01 3.52227E+00-1.82126E-01 3.88462E+00 6.40044E-14 7.43072E-13
 -1      1312 2.21146E+01 2.56165E+00-3.25029E-02 3.45635E+00 2.10078E-13 5.99715E-13
 -1      1313 2.14282E+01 3.59570E-01-7.63656E-01 1.18355E+00 1.02425E-13 1.22918E-12
 -1      1314 2.20028E+01 1.31285E-01-4.00857E-01-1.28553E+00-1.18211E-13 8.10962E-13
 -1      1315 2.06804E+01 3.06712E-01-1.64784E-01-8.05624E-01-1.17413E-13 6.66460E-13
 -1      1316 2.00828E+01 1.53526E-01-7.35222E-02-4.01885E-01-9.09342E-14 6.10564E-13
 -1      1317 1.96133E+01 9.12265E-02-1.48967E-02-3.29708E-01-8.35061E-14 4.76365E-13
 -1      1318 2.09742E+01 3.69308E-01-1.04171E-01-1.27359E+00-1.97481E-13 3.53412E-13
 -1      1319 1.92562E+01 6.45190E-02 3.05986E-03-1.35043E-01-7.92196E-14 4.33695E-13
 -1      1320 1.91022E+01 4.12678E-02 1.32491E-02-1.17244E-01-8.56190E-14 3.19890E-13
 -1      1321 1.99238E+01 1.33922E-01-3.51162E-02-5.03436E-01-1.57131E-13 2.59764E-13
 -1      1322 1.89421E+01 3.15374E-02 1.32567E-02-2.77159E-02-5.69302E-14 2.61083E-13
 -1      1323 1.89231E+01 1.93983E-02 1.10671E-02-1.83325E-02-4.99279E-14 1.83180E-13
 -1      1324 1.94471E+01 5.54685E-02-8.49697E-03-1.69428E-01-1.31764E-13 1.55820E-13
 -1      1325 1.88673E+01 1.60305E-02 8.77537E-03 2.53452E-02-3.59738E-14 1.62656E-13
 -1      1326 1.89101E+01 9.09182E-03 6.43053E-03 2.99854E-02-3.37202E-14 1.19483E-13
 -1      1327 1.92387E+01 2.44228E-02-3.51161E-03-1.05459E-02-7.85110E-14 6.13468E-14
 -1      1328 1.89104E+01 7.87510E-03 4.66597E-03 5.11867E-02-2.41184E-14 1.05048E-13
 -1      1329 1.89812E+01 3.51630E-03 3.63857E-03 5.30871E-02-1.80642E-14 6.58796E-14
 -1      1330 1.91825E+01 1.02329E-02-2.22347E-03 6.82231E-02-6.62367E-14 6.19860E-14
 -1      1331 1.90110E+01 3.20304E-03 2.43762E-03 6.19125E-02-2.25907E-14 6.24622E-14
 -1      1332 1.90921E+01 3.37576E-04 2.20855E-03 6.21873E-02-2.64425E-14 2.81788E-14
 -1      1333 1.92092E+01 2.80616E-03-1.32576E-03 1.05132E-01-3.43844E-14 4.81512E-14
 -1      1334 1.91360E+01 4.52510E-04 1.32676E-03 6.38874E-02-1.85961E-14 3.28730E-14
 -1      1335 1.92173E+01-1.46551E-03 1.43603E-03 6.32084E-02-3.71842E-14 1.63931E-16
 -1      1336 1.92789E+01-1.28383E-03-5.58659E-04 1.18454E-01-4.99434E-14 4.18398E-14
 -1      1337 1.92662E+01-1.14085E-03 7.40246E-04 6.08193E-02-3.59370E-14-2.86060E-14
 -1      1338 1.93423E+01-2.42074E-03 9.65700E-04 5.96171E-02-3.71408E-14-7.67459E-14
 -1      1339 1.93678E+01-3.49932E-03 3.36877E-06 1.18134E-01-5.18462E-14-3.67831E-14
 -1      1340 1.93907E+01-2.00193E-03 4.01681E-04 5.50137E-02-4.13053E-14-6.19890E-14
 -1      1341 1.94587E+01-2.83746E-03 6.52008E-04 5.35697E-02-3.21351E-14-1.11057E-13
 -1      1342 1.94615E+01-4.57639E-03 3.59814E-04 1.10100E-01-5.59352E-14-2.45392E-14
 -1      1343 1.95036E+01-2.39113E-03 1.95116E-04 4.79443E-02-2.35105E-14-1.68554E-13
 -1      1344 1.95624E+01-2.91303E-03 4.33871E-04 4.64409E-02-2.55049E-14-1.94971E-13
 -1      1345 1.95518E+01-4.94084E-03 5.55530E-04 9.80687E-02-6.08175E-14-8.57265E-14
 -1      1346 1.96022E+01-2.47831E-03 6.80905E-05 4.05520E-02-1.08841E-14-2.10880E-13
 -1      1347 1.96515E+01-2.77887E-03 2.80840E-04 3.91032E-02-2.08673E-14-2.42057E-13
 -1      1348 1.96340E+01-4.86261E-03 6.39018E-04 8.44135E-02-3.26654E-14-1.77435E-13
 -1      1349 1.96856E+01-2.37784E-03-7.28493E-06 3.34217E-02 4.98679E-16-1.93442E-13
 -1      1350 1.97260E+01-2.52351E-03 1.74637E-04 3.20948E-02 5.58971E-15-1.60863E-13
 -1      1351 1.97058E+01-4.52063E-03 6.48802E-04 7.06334E-02 1.68306E-14-1.67437E-13
 -1      1352 1.97545E+01-2.16712E-03-4.79953E-05 2.68978E-02 3.12489E-15-1.94072E-13
 -1      1353 1.97868E+01-2.20573E-03 1.02987E-04 2.57282E-02-4.43279E-14-2.10635E-13
 -1      1354 1.97667E+01-4.03467E-03 6.12555E-04 5.76441E-02-1.23264E-14-1.31017E-13
 -1      1355 1.98099E+01-1.89742E-03-6.51676E-05 2.11648E-02-7.27585E-14-1.83604E-13
 -1      1356 1.98351E+01-1.86275E-03 5.72437E-05 2.01675E-02-6.20477E-14-2.61500E-13
 -1      1357 1.98169E+01-3.48315E-03 5.49217E-04 4.59706E-02-8.49789E-14-1.30415E-13
 -1      1358 1.98536E+01-1.60080E-03-6.63007E-05 1.63057E-02-3.69755E-14-3.07084E-13
 -1      1359 1.98729E+01-1.51581E-03 3.12293E-05 1.54835E-02-1.79241E-14-3.34528E-13
 -1      1360 1.98575E+01-2.91425E-03 4.71132E-04 3.58827E-02-8.68892E-14-1.19492E-13
 -1      1361 1.98874E+01-1.29490E-03-5.64733E-05 1.23453E-02 2.99798E-14-4.05228E-13
 -1      1362 1.99019E+01-1.17406E-03 2.05668E-05 1.16951E-02 1.30264E-14-3.76449E-13
 -1      1363 1.98897E+01-2.35351E-03 3.85676E-04 2.74957E-02-1.21088E-14-2.64887E-13
 -1      1364 1.99132E+01-9.86305E-04-3.90926E-05 9.28337E-03-2.00430E-14-3.96938E-13
 -1      1365 1.99241E+01-8.37495E-04 2.22499E-05 8.80154E-03-4.14590E-14-4.18740E-13
 -1      1366 1.99149E+01-1.80918E-03 2.96461E-04 2.08442E-02-1.74798E-14-3.56386E-13
 -1      1367 1.99331E+01-6.72992E-04-1.64051E-05 7.11981E-03-1.05929E-14-4.62882E-13
 -1      1368 1.99414E+01-4.98931E-04 3.43431E-05 6.80568E-03-3.81624E-14-4.59064E-13
 -1      1369 1.99349E+01-1.27618E-03 2.04203E-04 1.59397E-02-7.30787E-14-3.63830E-13
 -1      1370 1.99490E+01-3.46016E-04 1.01254E-05 5.87487E-03-3.12303E-14-4.58984E-13
 -1      1371 1.99557E+01-1.45459E-04 5.57511E-05 5.73399E-03-4.08168E-14-4.94393E-13
 -1      1372 1.99513E+01-7.38700E-04 1.07363E-04 1.28145E-02-1.77270E-14-3.95199E-13
 -1      1373 1.99629E+01 9.34960E-06 3.95069E-05 5.60527E-03-2.52866E-14-4.36393E-13
 -1      1374 1.99694E+01 2.40620E-04 8.60193E-05 5.65200E-03 1.90781E-14-4.14440E-13
 -1      1375 1.99658E+01-1.72099E-04 2.59782E-06 1.15574E-02-7.19881E-15-3.43195E-13
 -1      1376 1.99772E+01 4.12901E-04 7.09375E-05 6.41803E-03 5.59572E-14-4.65101E-13
 -1      1377 1.99848E+01 6.81176E-04 1.25136E-04 6.67792E-03 1.84060E-14-4.14036E-13
 -1      1378 1.99805E+01 4.56082E-04-1.14919E-04 1.23424E-02 3.48436E-15-3.26631E-13
 -1      1379 1.99943E+01 8.89076E-04 1.03514E-04 8.48277E-03 9.81061E-15-3.82082E-13
 -1      1380 2.00045E+01 1.20180E-03 1.73303E-04 8.99473E-03 4.06006E-14-3.64487E-13
 -1      1381 1.99976E+01 1.18552E-03-2.51266E-04 1.54549E-02 4.82570E-14-2.78237E-13
 -1      1382 2.00173E+01 1.46664E-03 1.35897E-04 1.20428E-02 1.07995E-13-3.50507E-13
 -1      1383 2.00320E+01 1.83132E-03 2.30643E-04 1.28612E-02 8.87952E-14-2.24913E-13
 -1      1384 2.00197E+01 2.06283E-03-4.13575E-04 2.13137E-02 1.00021E-13-1.02550E-13
 -1      1385 2.00498E+01 2.17828E-03 1.65889E-04 1.74249E-02 2.22621E-14-2.44999E-13
 -1      1386 2.00712E+01 2.60103E-03 2.96764E-04 1.86215E-02 2.20191E-15-1.92315E-13
 -1      1387 2.00498E+01 3.14120E-03-6.09808E-04 3.04910E-02 8.34359E-14-6.57734E-14
 -1      1388 2.00959E+01 3.05977E-03 1.89852E-04 2.50472E-02-1.58364E-15-1.99634E-13
 -1      1389 2.01269E+01 3.54323E-03 3.70113E-04 2.67125E-02 2.39760E-15-2.51967E-13
 -1      1390 2.00916E+01 4.47957E-03-8.48447E-04 4.37281E-02-2.85488E-14 2.29476E-14
 -1      1391 2.01612E+01 4.14823E-03 2.01905E-04 3.54219E-02-4.12628E-14-2.94573E-13
 -1      1392 2.02051E+01 4.68824E-03 4.46956E-04 3.76661E-02-1.05739E-13-3.58822E-13
 -1      1393 2.01495E+01 6.14046E-03-1.13796E-03 6.19446E-02-8.71007E-14-2.36280E-13
 -1      1394 2.02518E+01 5.47844E-03 1.92777E-04 4.91505E-02-3.55076E-16-4.08751E-13
 -1      1395 2.03130E+01 6.05887E-03 5.19812E-04 5.21015E-02 3.92982E-14-3.75173E-13
 -1      1396 2.02289E+01 8.18520E-03-1.48591E-03 8.62320E-02-6.26270E-14-2.93706E-13
 -1      1397 2.03757E+01 7.07562E-03 1.48232E-04 6.69001E-02 3.24136E-14-2.93274E-13
 -1      1398 2.04592E+01 7.65983E-03 5.75097E-04 7.06989E-02 4.56770E-14-2.20334E-13
 -1      1399 2.03361E+01 1.06637E-02-1.89736E-03 1.17821E-01 3.99731E-14-2.09872E-13
 -1      1400 2.05419E+01 8.94156E-03 4.70767E-05 8.93491E-02-2.53890E-14-2.22081E-13
 -1      1401 2.06535E+01 9.45847E-03 5.89856E-04 9.41365E-02-5.09900E-15-1.70350E-13
 -1      1402 2.04785E+01 1.35942E-02-2.37217E-03 1.57997E-01 2.38429E-14-1.73260E-13
 -1      1403 2.07607E+01 1.10288E-02-1.40898E-04 1.17072E-01 1.27320E-14-1.91315E-13
 -1      1404 2.09072E+01 1.13500E-02 5.27832E-04 1.22962E-01 4.66771E-15-1.87783E-13
 -1      1405 2.06642E+01 1.69246E-02-2.90020E-03 2.07919E-01-2.32453E-14-1.51348E-13
 -1      1406 2.10433E+01 1.31938E-02-4.55695E-04 1.50318E-01-6.90259E-14-2.90238E-13
 -1      1407 2.12315E+01 1.30970E-02 3.36443E-04 1.57343E-01-1.09356E-13-4.44905E-13
 -1      1408 2.09019E+01 2.04595E-02-3.45290E-03 2.68271E-01-1.11569E-13-1.60478E-13
 -1      1409 2.14006E+01 1.51146E-02-9.43015E-04 1.88600E-01-7.66763E-14-4.39427E-13
 -1      1410 2.16367E+01 1.42279E-02-5.07650E-05 1.96613E-01-3.56729E-14-5.62709E-13
 -1      1411 2.11999E+01 2.37309E-02-3.96842E-03 3.38618E-01-1.53799E-13-2.95615E-13
 -1      1412 2.18410E+01 1.61543E-02-1.63712E-03 2.29980E-01-2.33756E-14-4.91265E-13
 -1      1413 2.21284E+01 1.38785E-02-6.95765E-04 2.38470E-01 7.91554E-15-5.17295E-13
 -1      1414 2.15646E+01 2.57766E-02-4.32563E-03 4.16257E-01 2.45947E-14-3.97539E-13
 -1      1415 2.23668E+01 1.51506E-02-2.51522E-03 2.69862E-01 6.65027E-14-5.15496E-13
 -1      1416 2.27022E+01 1.05715E-02-1.60250E-03 2.77653E-01 1.12423E-13-3.97054E-13
 -1      1417 2.19975E+01 2.47931E-02-4.29998E-03 4.94309E-01 9.15849E-14-2.57654E-13
 -1      1418 2.29670E+01 1.01396E-02-3.40043E-03 2.99157E-01 1.41284E-13-4.50712E-13
 -1      1419 2.33348E+01 1.98533E-03-2.60533E-03 3.03922E-01 5.98088E-14-4.16677E-13
 -1      1420 2.24907E+01 1.76627E-02-3.49473E-03 5.58712E-01 1.43143E-13-3.96112E-13
 -1      1421 2.36070E+01-1.88987E-03-3.80081E-03 3.01807E-01 5.09866E-14-3.93742E-13
 -1      1422 2.39692E+01-1.50917E-02-3.19296E-03 2.99432E-01 5.05876E-14-2.67418E-13
 -1      1423 2.30195E+01-4.94693E-04-1.25344E-03 5.84064E-01 6.36639E-14-3.74306E-13
 -1      1424 2.42133E+01-2.48666E-02-2.72196E-03 2.52391E-01-3.32733E-14-9.92678E-14
 -1      1425 2.44979E+01-4.40967E-02-2.35998E-03 2.36389E-01 6.17501E-14-1.63499E-13
 -1      1426 2.35333E+01-3.62255E-02 3.39430E-03 5.29086E-01 3.25026E-14-3.09312E-13
 -1      1427 2.46554E+01-6.23340E-02 1.31028E-03 1.16132E-01 3.95899E-14-1.12277E-13
 -1      1428 2.47459E+01-8.63149E-02 1.25774E-03 7.78878E-02-8.34185E-14-1.55406E-13
 -1      1429 2.39436E+01-9.57509E-02 1.15997E-02 3.34860E-01 5.00676E-14-1.69944E-13
 -1      1430 2.47337E+01-1.13553E-01 9.59702E-03-1.43345E-01-1.43465E-13-1.37660E-13
 -1      1431 2.44714E+01-1.35608E-01 8.43431E-03-2.11771E-01-2.20155E-13-4.61162E-13
 -1      1432 2.41153E+01-1.78916E-01 2.40134E-02-6.65419E-02-1.18306E-13-2.71224E-13
 -1      1433 2.41906E+01-1.66150E-01 2.13111E-02-5.40397E-01-1.17597E-13-5.25122E-13
 -1      1434 2.34126E+01-1.70977E-01 1.72515E-02-6.38553E-01-1.63775E-14-5.71529E-13
 -1      1435 2.38703E+01-2.67359E-01 3.91371E-02-7.19970E-01-2.18704E-13-2.74965E-13
 -1      1436 2.27801E+01-1.88267E-01 3.07018E-02-1.02369E+00 1.11531E-13-4.54199E-13
 -1      1437 2.14123E+01-1.53630E-01 2.09226E-02-1.12997E+00 5.29091E-14-3.19161E-13
 -1      1438 2.30231E+01-3.11551E-01 5.06283E-02-1.58034E+00 8.75550E-14-1.38434E-13
 -1      1439 2.04250E+01-1.32494E-01 2.66138E-02-1.43050E+00 6.52863E-15-8.76244E-14
 -1      1440 1.86191E+01-4.35571E-02 9.13476E-03-1.49317E+00 1.49030E-13-4.99600E-15
 -1      1441 2.14706E+01-2.35475E-01 4.57848E-02-2.42619E+00 2.39878E-13 1.36377E-13
 -1      1442 1.74361E+01 3.03890E-02-6.45361E-04-1.49866E+00 1.33781E-13-2.14245E-13
 -1      1443 1.56632E+01 1.56037E-01-2.24209E-02-1.45188E+00 1.07900E-13-3.06005E-14
 -1      1444 1.93410E+01 1.41929E-02 1.09024E-02-2.83250E+00 1.68649E-13 2.46698E-13
 -1      1445 1.46347E+01 2.59049E-01-4.49703E-02-1.00399E+00 1.10200E-13-1.06068E-13
 -1      1446 1.35890E+01 3.59471E-01-6.12427E-02-8.17544E-01 8.36796E-14 1.16615E-13
 -1      1447 1.71238E+01 3.87460E-01-5.17067E-02-2.33257E+00 1.33765E-13 1.89140E-13
 -1      1448 1.31338E+01 4.26272E-01-8.13633E-02 1.55069E-02-1.64466E-13-4.28396E-14
 -1      1449 1.33839E+01 4.20989E-01-7.75572E-02 2.84220E-01-1.40818E-13-2.98678E-13
 -1      1450 1.55965E+01 7.00331E-01-1.08766E-01-7.88379E-01-9.70474E-14-1.57947E-14
 -1      1451 1.37264E+01 3.81136E-01-7.41255E-02 1.12592E+00-2.77209E-15-3.73951E-13
 -1      1452 1.52337E+01 2.13234E-01-4.62873E-02 1.33167E+00 8.73607E-15-4.21552E-13
 -1      1453 1.54355E+01 6.96930E-01-1.14918E-01 1.27307E+00-2.36491E-13-2.00100E-13
 -1      1454 1.61836E+01 7.43150E-02 1.04990E-02 1.58822E+00-6.54338E-15-3.61544E-13
 -1      1455 1.80923E+01-2.21536E-01 6.11697E-02 1.62443E+00-4.10152E-14-3.64819E-13
 -1      1456 1.67085E+01 1.83959E-01-4.42841E-02 2.68944E+00 8.93036E-15-1.87982E-13
 -1      1457 1.95270E+01-5.71660E-01 2.82669E-01 5.04023E-01 2.93571E-13-3.37119E-13
 -1      1458 1.90758E+01-1.16778E+00 1.25878E-01 1.89919E+00 1.84797E-13-4.76043E-14
 -1      1459 2.02614E+01 7.60207E-02-1.51724E-01 4.83508E-01 1.00770E-13 1.00050E-12
 -1      1460 2.15316E+01 2.16176E-01-2.29228E-01 7.20932E-01 9.15240E-14 1.15392E-12
 -1      1461 2.17304E+01 8.82287E-01-8.52617E-02 2.06495E+00 1.78663E-13 7.82693E-13
 -1      1462 1.93333E+01 3.27196E-02-2.09283E-02 1.85761E-01 7.67563E-14 7.84664E-13
 -1      1463 1.97540E+01 1.13583E-01-6.23633E-02 2.37940E-01 7.39062E-14 9.03277E-13
 -1      1464 2.03054E+01 1.88167E-01-5.47479E-02 7.86177E-01 1.55577E-13 6.17561E-13
 -1      1465 1.89527E+01 1.48431E-02 5.84327E-03 5.33749E-02 5.38024E-14 6.27623E-13
 -1      1466 1.90910E+01 5.14915E-02 1.36260E-03 7.93782E-02 4.85263E-14 7.10411E-13
 -1      1467 1.95605E+01 7.27248E-02-1.16519E-02 2.98576E-01 1.24484E-13 4.87601E-13
 -1      1468 1.88424E+01 7.20082E-03 6.84721E-03-9.11402E-03 4.44332E-14 5.40464E-13
 -1      1469 1.88569E+01 2.59562E-02 1.11840E-02 5.33888E-03 3.06252E-14 5.95256E-13
 -1      1470 1.92257E+01 3.09207E-02-2.54186E-03 8.32417E-02 7.02520E-14 3.65954E-13
 -1      1471 1.88692E+01 3.21500E-03 4.70287E-03-3.96053E-02 3.11214E-14 4.60076E-13
 -1      1472 1.88250E+01 1.38559E-02 8.41502E-03-3.14148E-02 2.77204E-14 5.01798E-13
 -1      1473 1.91096E+01 1.34343E-02-1.70022E-03-2.19751E-02 6.52473E-14 3.16604E-13
 -1      1474 1.89642E+01 1.05140E-03 3.28193E-03-5.30255E-02 2.08932E-14 4.10355E-13
 -1      1475 1.88932E+01 7.28962E-03 5.32420E-03-4.85457E-02 1.96204E-14 4.40686E-13
 -1      1476 1.91115E+01 4.52446E-03-1.68456E-03-7.36313E-02 4.35307E-14 2.73266E-13
 -1      1477 1.90893E+01-1.89226E-04 2.50999E-03-5.69801E-02 3.02760E-14 3.87200E-13
 -1      1478 1.90087E+01 3.46307E-03 3.42519E-03-5.47519E-02 2.04359E-14 4.02373E-13
 -1      1479 1.91748E+01-1.21098E-04-1.39667E-03-9.62731E-02 3.32472E-14 2.36035E-13
 -1      1480 1.92228E+01-8.98167E-04 2.04479E-03-5.54994E-02 2.12869E-14 2.95954E-13
 -1      1481 1.91422E+01 1.13340E-03 2.32817E-03-5.46857E-02 2.78224E-14 3.40630E-13
 -1      1482 1.92674E+01-2.62172E-03-1.01398E-03-1.02486E-01 6.25555E-14 1.88521E-13
 -1      1483 1.93523E+01-1.26498E-03 1.70109E-03-5.09829E-02 2.09449E-14 2.98169E-13
 -1      1484 1.92769E+01-2.78673E-04 1.64905E-03-5.10491E-02 8.94765E-16 3.03597E-13
 -1      1485 1.93701E+01-3.89756E-03-6.71665E-04-9.92313E-02 2.09414E-14 1.67825E-13
 -1      1486 1.94707E+01-1.40900E-03 1.41202E-03-4.49596E-02-1.51927E-14 3.32231E-13
 -1      1487 1.94034E+01-1.09319E-03 1.18801E-03-4.55466E-02 6.36389E-15 3.21585E-13
 -1      1488 1.94718E+01-4.40976E-03-4.07692E-04-9.07435E-02-8.31583E-16 1.85087E-13
 -1      1489 1.95747E+01-1.41101E-03 1.15972E-03-3.84066E-02 1.79552E-14 3.53297E-13
 -1      1490 1.95166E+01-1.51331E-03 8.55540E-04-3.92729E-02 2.90208E-15 3.37636E-13
 -1      1491 1.95659E+01-4.44675E-03-2.17916E-04-7.97108E-02-1.61417E-14 2.22619E-13
 -1      1492 1.96631E+01-1.32619E-03 9.39919E-04-3.19363E-02 7.76841E-14 2.35234E-13
 -1      1493 1.96144E+01-1.67459E-03 6.09795E-04-3.29214E-02 5.56715E-14 3.17303E-13
 -1      1494 1.96494E+01-4.19803E-03-8.70541E-05-6.78463E-02 6.31869E-14 1.74467E-13
 -1      1495 1.97364E+01-1.19205E-03 7.50827E-04-2.59168E-02 1.91658E-14 1.23206E-13
 -1      1496 1.96966E+01-1.66964E-03 4.27389E-04-2.69162E-02 3.28308E-14 1.81297E-13
 -1      1497 1.97209E+01-3.78935E-03-3.02913E-07-5.62202E-02 7.49205E-14 1.40568E-13
 -1      1498 1.97957E+01-1.03341E-03 5.90491E-04-2.05522E-02-4.10085E-14 1.62407E-13
 -1      1499 1.97638E+01-1.56188E-03 2.92952E-04-2.15001E-02-2.08757E-14 1.30584E-13
 -1      1500 1.97804E+01-3.30376E-03 5.40829E-05-4.54730E-02 4.51408E-16 1.23486E-13
 -1      1501 1.98425E+01-8.65661E-04 4.56333E-04-1.59400E-02-1.93964E-15 1.96706E-13
 -1      1502 1.98176E+01-1.39378E-03 1.95427E-04-1.67971E-02 2.21378E-15 1.47748E-13
 -1      1503 1.98289E+01-2.79419E-03 8.48304E-05-3.59586E-02 1.32813E-14 1.22173E-13
 -1      1504 1.98788E+01-6.97029E-04 3.45182E-04-1.21135E-02 3.20332E-14 1.03778E-13
 -1      1505 1.98598E+01-1.19214E-03 1.26534E-04-1.28573E-02 2.67658E-14 1.55391E-13
 -1      1506 1.98674E+01-2.29150E-03 9.81010E-05-2.78483E-02 2.51723E-14 1.03830E-13
 -1      1507 1.99065E+01-5.30270E-04 2.53428E-04-9.07359E-03 8.25234E-14-5.59500E-14
 -1      1508 1.98922E+01-9.71795E-04 7.99760E-05-9.69093E-03 6.50900E-14 5.03107E-14
 -1      1509 1.98977E+01-1.81018E-03 9.78772E-05-2.12066E-02 1.15818E-13-1.46509E-14
 -1      1510 1.99276E+01-3.63879E-04 1.77170E-04-6.81295E-03-5.43503E-14-1.14125E-13
 -1      1511 1.99169E+01-7.38212E-04 5.09689E-05-7.29425E-03 4.79189E-14-4.68383E-14
 -1      1512 1.99213E+01-1.35237E-03 8.62461E-05-1.60489E-02 1.22183E-13 4.42556E-14
 -1      1513 1.99440E+01-1.92986E-04 1.12335E-04-5.33488E-03-3.35358E-14 2.76326E-14
 -1      1514 1.99359E+01-4.89382E-04 3.59318E-05-5.66913E-03-7.74814E-14-3.01472E-14
 -1      1515 1.99400E+01-9.10874E-04 6.35924E-05-1.23847E-02-7.27450E-14 3.13716E-14
 -1      1516 1.99580E+01-9.98540E-06 5.47491E-05-4.66813E-03-6.04988E-14 1.62230E-13
 -1      1517 1.99513E+01-2.17129E-04 3.22601E-05-4.83884E-03-7.35390E-14 3.49857E-14
 -1      1518 1.99555E+01-4.71326E-04 2.87172E-05-1.02526E-02-1.08820E-13 6.74445E-14
 -1      1519 1.99716E+01 1.94984E-04 1.52074E-07-4.87885E-03 2.52252E-14 5.40709E-14
 -1      1520 1.99651E+01 9.19560E-05 3.81367E-05-4.86038E-03 2.60551E-14 1.38322E-13
 -1      1521 1.99700E+01-1.37135E-05-2.11076E-05-9.74639E-03-2.20724E-14 4.12629E-14
 -1      1522 1.99874E+01 4.33637E-04-5.58173E-05-6.08039E-03 7.97857E-14-3.79236E-14
 -1      1523 1.99799E+01 4.55829E-04 5.23536E-05-5.83464E-03 5.51243E-14 7.82425E-14
 -1      1524 1.99854E+01 4.86450E-04-9.01305E-05-1.10373E-02 6.73506E-14 1.27760E-13
 -1      1525 2.00082E+01 7.19075E-04-1.17658E-04-8.44105E-03 2.11094E-16-5.28610E-14
 -1      1526 1.99981E+01 8.96354E-04 7.41222E-05-7.91433E-03-2.74871E-14-1.27096E-13
 -1      1527 2.00042E+01 1.05711E-03-1.84129E-04-1.43909E-02 4.29172E-14 1.04275E-13
 -1      1528 2.00375E+01 1.06508E-03-1.90035E-04-1.21892E-02-4.28884E-14 1.45819E-13
 -1      1529 2.00229E+01 1.43848E-03 1.02849E-04-1.13095E-02-6.63904E-14-3.93229E-15
 -1      1530 2.00292E+01 1.72848E-03-3.10394E-04-2.01797E-02-7.38144E-14 6.33261E-15
 -1      1531 2.00792E+01 1.48497E-03-2.77765E-04-1.76146E-02 6.04464E-14 6.59159E-14
 -1      1532 2.00580E+01 2.10890E-03 1.37845E-04-1.62896E-02 1.03312E-13 2.14164E-13
 -1      1533 2.00637E+01 2.53129E-03-4.77613E-04-2.88889E-02 3.81391E-14 1.36148E-13
 -1      1534 2.01383E+01 1.98954E-03-3.85696E-04-2.50633E-02-1.06674E-13 3.56720E-14
 -1      1535 2.01077E+01 2.93361E-03 1.77936E-04-2.31791E-02-2.56101E-14 5.12689E-14
 -1      1536 2.01118E+01 3.49382E-03-6.95545E-04-4.11128E-02 5.21447E-16 1.60925E-13
 -1      1537 2.02204E+01 2.58372E-03-5.18381E-04-3.49211E-02-3.32108E-14 1.76537E-13
 -1      1538 2.01775E+01 3.93368E-03 2.20918E-04-3.23445E-02-5.64525E-14 7.97128E-14
 -1      1539 2.01780E+01 4.63696E-03-9.74288E-04-5.75336E-02-6.69454E-14 1.89240E-13
 -1      1540 2.03325E+01 3.26090E-03-6.79319E-04-4.75789E-02-6.72295E-14 2.82016E-13
 -1      1541 2.02733E+01 5.11788E-03 2.62816E-04-4.41629E-02-1.11731E-13 1.74692E-13
 -1      1542 2.02678E+01 5.96577E-03-1.32281E-03-7.88734E-02-1.31273E-13 2.68815E-13
 -1      1543 2.04821E+01 3.99374E-03-8.69356E-04-6.33674E-02 2.97082E-14 2.79992E-13
 -1      1544 2.04024E+01 6.47020E-03 2.96951E-04-5.89656E-02 3.44337E-14 2.85150E-13
 -1      1545 2.03872E+01 7.45556E-03-1.74622E-03-1.05800E-01 4.52676E-15 2.42354E-13
 -1      1546 2.06772E+01 4.71944E-03-1.08340E-03-8.24431E-02 4.80708E-14 1.36916E-13
 -1      1547 2.05724E+01 7.92937E-03 3.12933E-04-7.69372E-02 6.16747E-14 2.16161E-13
 -1      1548 2.05428E+01 9.02918E-03-2.24078E-03-1.38759E-01 9.02299E-14 1.80505E-13
 -1      1549 2.09256E+01 5.31707E-03-1.30388E-03-1.04596E-01-8.77651E-15 1.12146E-13
 -1      1550 2.07912E+01 9.35581E-03 2.96077E-04-9.79462E-02 3.94207E-14 1.11505E-13
 -1      1551 2.07411E+01 1.05207E-02-2.78527E-03-1.77695E-01 8.90672E-14-5.09985E-14
 -1      1552 2.12336E+01 5.57404E-03-1.48823E-03-1.28942E-01 6.45023E-14 1.72439E-13
 -1      1553 2.10658E+01 1.04808E-02 2.28484E-04-1.21273E-01-4.70911E-14 1.25655E-13
 -1      1554 2.09875E+01 1.16190E-02-3.32629E-03-2.21591E-01-3.63355E-14 4.31004E-14
 -1      1555 2.16030E+01 5.14084E-03-1.54645E-03-1.53444E-01 9.31923E-14-4.73753E-15
 -1      1556 2.14004E+01 1.08327E-02 9.43648E-05-1.45190E-01 1.04085E-13 1.47484E-13
 -1      1557 2.12851E+01 1.17858E-02-3.75453E-03-2.67755E-01 1.10856E-13-5.66973E-14
 -1      1558 2.20277E+01 3.47974E-03-1.30478E-03-1.74225E-01-3.00315E-14-2.98650E-14
 -1      1559 2.17934E+01 9.64197E-03-1.05879E-04-1.66344E-01 1.89863E-14-3.46910E-14
 -1      1560 2.16314E+01 1.01453E-02-3.86924E-03-3.10770E-01 3.19176E-14-1.81466E-13
 -1      1561 2.24878E+01-1.68491E-04-4.57463E-04-1.84669E-01-1.46977E-14-2.67807E-14
 -1      1562 2.22326E+01 5.74630E-03-3.27236E-04-1.78953E-01 1.47351E-14-8.00089E-14
 -1      1563 2.20154E+01 5.36727E-03-3.33273E-03-3.41066E-01 3.35313E-14-9.43061E-14
 -1      1564 2.29415E+01-6.73602E-03 1.47069E-03-1.74478E-01 9.27741E-14-5.20382E-14
 -1      1565 2.26890E+01-2.43078E-03-4.34981E-04-1.73914E-01 6.47561E-14-3.21375E-14
 -1      1566 2.24118E+01-4.38738E-03-1.63097E-03-3.43263E-01 3.94992E-14-1.49030E-13
 -1      1567 2.33158E+01-1.70644E-02 5.07922E-03-1.29246E-01 4.77305E-14-4.56944E-14
 -1      1568 2.31079E+01-1.66585E-02-1.57787E-04-1.38282E-01-2.90054E-14-5.60645E-14
 -1      1569 2.27751E+01-2.12726E-02 1.90995E-03-2.94908E-01-1.45110E-14-5.64271E-14
 -1      1570 2.34993E+01-3.12162E-02 1.08156E-02-3.18009E-02 7.61231E-14-2.11694E-13
 -1      1571 2.34012E+01-3.81241E-02 9.04487E-04-5.61272E-02 1.23568E-13 8.33014E-15
 -1      1572 2.30332E+01-4.69586E-02 7.94112E-03-1.67167E-01 1.37700E-13-7.77711E-14
 -1      1573 2.33437E+01-4.71662E-02 1.82684E-02 1.32471E-01-1.02644E-13-1.39323E-13
 -1      1574 2.34428E+01-6.57123E-02 3.10442E-03 8.73561E-02-2.81953E-14-1.63574E-13
 -1      1575 2.30851E+01-8.07053E-02 1.65826E-02 6.95003E-02 2.66367E-14-8.80285E-15
 -1      1576 2.26871E+01-5.90814E-02 2.49825E-02 3.63729E-01-1.45032E-13 1.16830E-13
 -1      1577 2.30793E+01-9.32685E-02 6.24080E-03 2.96122E-01-8.88040E-14-9.08874E-14
 -1      1578 2.28093E+01-1.15947E-01 2.64985E-02 4.30401E-01-1.48184E-13 2.13448E-13
 -1      1579 2.14148E+01-5.66068E-02 2.55215E-02 6.29171E-01 1.68962E-14 2.70894E-14
 -1      1580 2.21675E+01-1.07145E-01 8.73435E-03 5.47121E-01-3.24289E-14 3.07809E-14
 -1      1581 2.20919E+01-1.36495E-01 3.37863E-02 8.89578E-01-2.84772E-14-3.47639E-15
 -1      1582 1.95598E+01-2.81336E-02 1.27695E-02 8.46504E-01-8.52257E-14 5.78843E-14
 -1      1583 2.06501E+01-8.76906E-02 7.36672E-03 7.73496E-01-4.21503E-14 8.73607E-15
 -1      1584 2.08850E+01-1.16645E-01 3.20015E-02 1.34704E+00-1.39472E-14 1.35864E-13
 -1      1585 1.74119E+01 2.97936E-02-1.69727E-02 8.90889E-01 1.99913E-13-9.58678E-14
 -1      1586 1.86615E+01-1.96090E-02-1.43200E-03 8.64586E-01 1.50476E-13 4.92523E-14
 -1      1587 1.92883E+01-3.09576E-02 1.57333E-02 1.61661E+00 1.00997E-13 7.63972E-14
 -1      1588 1.55463E+01 1.01441E-01-5.72919E-02 6.49010E-01 5.77038E-14-4.21475E-13
 -1      1589 1.66071E+01 9.03527E-02-1.82551E-02 7.05333E-01 6.94982E-14-2.28290E-13
 -1      1590 1.76125E+01 1.19244E-01-1.52138E-02 1.47527E+00 2.65694E-13-1.47070E-13
 -1      1591 1.46699E+01 1.49716E-01-8.65658E-02 1.09578E-01-2.49592E-14-3.68571E-13
 -1      1592 1.51191E+01 2.00673E-01-3.69169E-02 2.56484E-01-2.85327E-14-3.04475E-13
 -1      1593 1.63497E+01 2.86418E-01-4.89025E-02 7.95091E-01-2.20934E-14-1.84691E-13
 -1      1594 1.52573E+01 1.27845E-01-7.57347E-02-5.51953E-01-5.05880E-14-2.83940E-13
 -1      1595 1.48219E+01 2.39678E-01-4.36045E-02-3.61152E-01-1.20320E-14-2.37504E-13
 -1      1596 1.59900E+01 3.69165E-01-6.52613E-02-2.96395E-01-8.81656E-14-4.29153E-14
 -1      1597 1.70991E+01 2.03353E-02-1.02425E-02-9.81382E-01-4.00999E-14-8.06022E-14
 -1      1598 1.59395E+01 1.44169E-01-2.17631E-02-8.42799E-01-2.56271E-14-1.77164E-13
 -1      1599 1.67226E+01 2.56677E-01-4.45644E-02-1.32394E+00-1.19755E-13 1.42802E-13
 -1      1600 1.91163E+01-1.93215E-01 4.85311E-02-7.95251E-01-2.88164E-14-2.85327E-14
 -1      1601 1.79614E+01-1.13786E-01 2.40914E-02-8.18371E-01-7.91615E-14-1.38167E-13
 -1      1602 1.81885E+01-1.43597E-01 7.24644E-03-1.62581E+00-7.44363E-14 7.88605E-14
 -1      1603 1.97276E+01-3.77406E-01 1.29679E-01-2.77229E-01-6.66273E-14-1.45592E-13
 -1      1604 1.97972E+01-3.07528E+00 6.78821E-02-1.31844E+00 2.88436E-13 1.17090E-13
 -1      1605 1.97156E+01-1.44705E+00 6.15957E-02-1.14383E+00 1.59942E-13 1.60229E-13
 -1      1606 1.98590E+01-6.50849E+00 6.52255E-02-1.88798E+00 2.44249E-13-1.13867E-13
 -1      1607 1.97773E+01-4.03065E+00 8.22078E-02-1.76557E+00 4.05176E-13 4.54688E-14
 -1      1608 1.95533E+01-2.40389E+00 5.55767E-02-2.84215E+00 2.36283E-13 1.52505E-13
 -1      1609 2.00157E+01-1.06036E+01 1.55588E-02-2.27120E+00-2.16716E-13-3.96235E-13
 -1      1610 1.98385E+01-7.57414E+00 9.21970E-02-2.17590E+00 1.52212E-13-2.26430E-13
 -1      1611 1.96633E+01-4.26629E+00 1.05354E-02-3.70572E+00 1.28536E-13-3.34361E-13
 -1      1612 2.05442E+01-1.37260E+01-2.26185E-01-1.89832E+00-2.81275E-13-9.12742E-14
 -1      1613 2.01470E+01-1.13471E+01-1.94837E-02-2.04904E+00-1.67755E-13-2.64413E-13
 -1      1614 2.00662E+01-5.94909E+00-1.07244E-01-3.79909E+00 1.69739E-13-3.18537E-13
 -1      1615 2.16521E+01-1.34620E+01-5.71701E-01 2.56518E-01-1.05596E-13 1.86989E-13
 -1      1616 2.09791E+01-1.37126E+01-3.83740E-01-5.07660E-01-3.43919E-13 4.29823E-13
 -1      1617 2.13789E+01-6.69675E+00-3.39985E-01-1.92503E+00 1.14575E-13 1.56125E-13
 -1      1618 2.28607E+01-8.05149E+00-6.56320E-01 4.70593E+00-3.09974E-13-1.53794E-13
 -1      1619 2.23201E+01-1.26409E+01-8.13207E-01 3.30138E+00-2.15328E-13-2.20435E-13
 -1      1620 2.37836E+01-5.95449E+00-5.21460E-01 2.98821E+00 1.37071E-13 1.18294E-13
 -1      1621 1.95371E+01 2.37355E+01 2.28855E+00 1.02292E+01-1.28675E-12-2.09277E-14
 -1      1622 2.06370E+01 1.02509E+01 5.85365E-01 1.03168E+01-9.69447E-13-2.99316E-13
 -1      1623 1.70840E+01 3.78676E+01 4.14551E+00 6.25533E+00-1.39622E-12 6.37268E-14
 -1      1624 1.83502E+01 2.85998E+01 2.86410E+00 7.85699E+00-1.40554E-12 6.03961E-14
 -1      1625 1.78040E+01 1.36748E+01 9.02338E-01 1.64248E+01-9.31977E-13-1.92069E-13
 -1      1626 1.70516E+01 3.70265E+01 4.05386E+00-2.89560E+00-9.42801E-13 2.48357E-13
 -1      1627 1.64734E+01 3.93677E+01 4.31969E+00-5.75625E-01-1.12588E-12 1.50435E-13
 -1      1628 1.36097E+01 1.95007E+01 1.32852E+00 5.16920E+00-8.78003E-13 1.23013E-13
 -1      1629 1.99433E+01 1.97336E+01 1.74284E+00-9.84583E+00-5.30687E-13 1.38112E-13
 -1      1630 1.80852E+01 3.35610E+01 3.59488E+00-8.97063E+00-8.83071E-13 3.06088E-13
 -1      1631 1.50599E+01 1.78249E+01 1.18734E+00-1.07793E+01-5.00579E-13 3.29736E-13
 -1      1632 2.14182E+01 1.07993E+00-4.98623E-01-8.88131E+00-6.75460E-13-2.30538E-13
 -1      1633 2.03958E+01 1.40446E+01 9.65811E-01-9.60252E+00-5.33351E-13-5.17919E-14
 -1      1634 2.07377E+01 8.86086E+00 4.50705E-01-1.78664E+01-5.14366E-13 3.67484E-14
 -1      1635 2.11786E+01-1.37757E+01-1.46471E+00-3.53459E+00-1.12410E-12 1.06679E-13
 -1      1636 2.13953E+01-5.25750E+00-9.32929E-01-4.98291E+00-8.98837E-13-4.03927E-13
 -1      1637 2.28849E+01-1.76770E+00-4.07297E-01-1.26814E+01-6.30163E-13-5.07427E-13
 -1      1638 2.01847E+01-1.65079E+01-8.09758E-01 6.77353E-01-4.06897E-14 3.46778E-13
 -1      1639 2.09700E+01-1.58945E+01-1.06059E+00-2.65519E-01-8.51597E-13 4.89192E-13
 -1      1640 2.19360E+01-9.77754E+00-8.01727E-01-3.34923E+00-4.32487E-13 5.09592E-13
 -1      1641 1.98311E+01-1.20570E+01-1.24520E-01 1.84677E+00 1.68809E-13 4.10713E-14
 -1      1642 2.04468E+01-1.52476E+01-3.22447E-01 1.54697E+00 4.17444E-14-1.24900E-13
 -1      1643 2.04281E+01-1.07443E+01-4.36899E-01 2.10582E+00 1.03251E-14 2.24154E-13
 -1      1644 1.98542E+01-6.70094E+00 5.47253E-02 1.78941E+00 6.69464E-14-3.50622E-14
 -1      1645 2.01213E+01-1.00440E+01 5.19143E-02 1.65661E+00 2.15827E-13-2.99530E-14
 -1      1646 1.98543E+01-7.85095E+00-9.86994E-02 3.41841E+00 1.63536E-13 2.06571E-14
 -1      1647 1.95004E+01-2.28332E+00 4.61815E-02 2.01749E+00 3.58491E-13 2.96138E-13
 -1      1648 1.97177E+01-4.58282E+00 5.18068E-02 2.29924E+00 1.35975E-13 3.31386E-13
 -1      1649 1.97307E+01-3.48351E+00 2.08406E-01 3.52622E+00 4.62144E-13 1.75554E-13
 -1      1650 1.86484E+01-7.01965E-01 1.64626E-01 3.43349E+00 1.60994E-13 3.32165E-14
 -1      1651 1.38646E+00-1.92477E+01-6.06126E+00 2.47725E+00 6.67466E-13 4.32099E-13
 -1      1652 9.50304E-01-2.68409E+01-7.53765E+00 2.94390E+00 3.35787E-13 1.94178E-13
 -1      1653 8.92090E+00-1.69446E+00-2.14220E+00 1.10768E+01 4.17888E-13-3.67817E-13
 -1      1654 5.90911E+00-1.68243E+01-5.18444E+00 7.01841E+00 8.39773E-13 1.53058E-13
 -1      1655 2.17053E+01 1.32724E+01 1.13934E+00 1.94214E+01-3.51275E-13-3.72147E-13
 -1      1656 1.41758E+01 1.78043E+00-1.52356E+00 1.24477E+01 2.95763E-13-3.90799E-13
 -1      1657 3.79655E+01 1.97398E+01 2.56136E+00 2.54308E+01-4.25215E-13-7.86704E-13
 -1      1658 2.65248E+01 1.71091E+01 1.20296E+00 2.01385E+01-4.26326E-13-2.62901E-13
 -1      1659 5.43047E+01 1.71282E+01 2.68458E+00 2.56724E+01-4.91662E-13-6.82565E-13
 -1      1660 4.35296E+01 2.03503E+01 2.26080E+00 2.57184E+01-5.34683E-13-7.04770E-13
 -1      1661 6.76162E+01 1.07437E+01 2.44322E+00 1.93669E+01-4.77007E-13-5.59552E-13
 -1      1662 5.98632E+01 1.55077E+01 2.41243E+00 2.45351E+01-5.42275E-13-7.98916E-13
 -1      1663 7.16978E+01 5.70322E+00 1.99753E+00 7.70525E+00 6.38378E-15-5.12757E-13
 -1      1664 7.04359E+01 8.46141E+00 2.24316E+00 1.55049E+01-2.31870E-13-5.69220E-13
 -1      1665 6.44131E+01 4.80117E+00 1.43193E+00-3.94985E+00 3.84637E-13-1.13776E-12
 -1      1666 7.02230E+01 4.76603E+00 1.96757E+00 3.34756E+00 2.63567E-13-6.44818E-13
 -1      1667 4.90764E+01 5.87615E+00 7.97063E-01-1.02392E+01 6.13176E-13-1.25899E-12
 -1      1668 5.94355E+01 4.48510E+00 1.48453E+00-6.72003E+00 4.61159E-13-1.13110E-12
 -1      1669 3.25809E+01 6.11999E+00 1.85732E-01-1.16413E+01 7.00995E-13-1.24523E-12
 -1      1670 4.34499E+01 5.67473E+00 1.00566E+00-1.23673E+01 6.26443E-13-1.30784E-12
 -1      1671 1.76392E+01 1.50745E+00-5.36007E-01-7.18697E+00 3.88578E-13-8.50653E-13
 -1      1672 2.69181E+01 4.19300E+00 3.51886E-01-1.08889E+01 5.77316E-13-1.16906E-12
 -1      1673 6.18844E+00-5.57448E+00-1.28432E+00-2.25610E+00 3.72369E-13-3.92131E-13
 -1      1674 1.11400E+01 2.08944E-01-4.31429E-01-6.16440E+00 4.92717E-13-7.22866E-13
 -1      1675 1.25906E+00-1.47666E+01-1.73074E+00 6.98085E-01 3.01092E-13-1.63952E-13
 -1      1676 2.70171E+00-8.12312E+00-1.09875E+00-8.31877E-01 3.10196E-13-1.78746E-13
 -1      1677-5.03175E-01-2.06932E+01-1.89006E+00 2.58988E-01 1.72085E-15-1.19044E-13
 -1      1678-4.11024E-01-1.65091E+01-1.54440E+00 1.21219E+00 8.65974E-14-2.79984E-13
 -1      1679-1.21317E+00-2.25628E+01-2.05950E+00-1.27041E+00 3.54217E-13 2.49578E-13
 -1      1680-1.18944E+00-2.24875E+01-2.02369E+00 1.00072E+00-5.94802E-14 2.56906E-13
 -1      1681-6.61096E-01-1.71683E+01-1.70534E+00-1.83909E+00 2.37588E-13-9.87543E-14
 -1      1682-6.42684E-01-2.14273E+01-2.04973E+00-8.38262E-01 4.35096E-13-1.11966E-13
 -1      1683 2.64472E+00-8.56225E+00-1.17951E+00 5.95292E-01-2.09832E-13-5.66991E-13
 -1      1684 1.15698E+00-1.50731E+01-1.82151E+00-9.85198E-01 2.42251E-13-2.34146E-13
 -1      1685 1.02140E+01-2.42150E-01-5.35147E-01 5.50995E+00-2.85993E-13-3.17524E-14
 -1      1686 5.70093E+00-5.98214E+00-1.38486E+00 1.82849E+00-2.93543E-13-3.20188E-13
 -1      1687 2.33987E+01 4.82775E+00 2.36486E-01 1.08816E+01 2.17604E-14 3.51941E-13
 -1      1688 1.51956E+01 1.70014E+00-7.06721E-01 6.97706E+00-2.79554E-13 1.17684E-13
 -1      1689 4.18054E+01 5.99523E+00 1.06547E+00 1.31978E+01 1.75082E-13-1.38556E-13
 -1      1690 2.98868E+01 5.96079E+00 8.49674E-02 1.15379E+01 2.66787E-13 9.25926E-14
 -1      1691 5.94491E+01 4.54974E+00 1.63514E+00 8.94642E+00 3.45557E-15-3.40838E-13
 -1      1692 4.84772E+01 6.21022E+00 9.04548E-01 1.19379E+01 1.22791E-13-1.72085E-13
 -1      1693 6.95182E+01 4.59979E+00 1.95404E+00-1.26080E+00-5.86198E-14-3.92131E-13
 -1      1694 6.31971E+01 5.02313E+00 1.47043E+00 5.25112E+00-2.34812E-14-2.99094E-13
 -1      1695 7.19206E+01 7.56255E+00 2.28982E+00-1.34889E+01 1.44662E-13-6.16625E-13
 -1      1696 7.21892E+01 5.23340E+00 2.01620E+00-5.22777E+00 1.27953E-13-5.49172E-13
 -1      1697 6.11997E+01 1.43623E+01 2.31164E+00-2.31158E+01 1.90681E-13-4.42091E-13
 -1      1698 6.88496E+01 9.67041E+00 2.36456E+00-1.73222E+01 4.26326E-14-6.27276E-13
 -1      1699 4.43386E+01 1.98688E+01 2.25487E+00-2.55121E+01 3.70703E-13-5.24469E-13
 -1      1700 5.57613E+01 1.62103E+01 2.62715E+00-2.50890E+01 3.66540E-13-3.74478E-13
 -1      1701 2.70879E+01 1.78467E+01 1.32401E+00-2.06152E+01 1.10800E-13-2.94653E-13
 -1      1702 3.82034E+01 1.97280E+01 2.49340E+00-2.54857E+01 2.38476E-13-5.44675E-13
 -1      1703 1.38550E+01 3.57749E+00-1.32026E+00-1.19888E+01-1.71418E-13-1.06137E-13
 -1      1704 2.17899E+01 1.43413E+01 1.20052E+00-1.92832E+01 3.24185E-14-2.25597E-13
 -1      1705 6.04549E+00-1.74377E+01-5.26889E+00-6.56507E+00 1.72751E-13 3.77760E-13
 -1      1706 9.37919E+00-1.03816E+00-1.93880E+00-1.13929E+01-1.57208E-13 2.84106E-13
 -1      1707 6.16884E-01-2.81875E+01-7.82835E+00-2.62312E+00 3.12750E-13 1.15463E-14
 -1      1708 8.45061E-01-2.05712E+01-6.36819E+00-1.76680E+00 1.49880E-13-1.26565E-14
 -1      1709 3.08892E+01 5.29162E+00 6.98358E-01 1.88709E+01-2.00062E-13-5.88418E-13
 -1      1710 1.96459E+01-7.43213E-01 1.09672E-01-8.48590E-01-5.31658E-14-1.87871E-14
 -1      1711 1.92767E+01-9.07792E-01 7.49840E-02-1.86542E+00 5.33883E-14 2.52333E-13
 -1      1712 2.25955E+01-5.92277E+00-7.86228E-01 8.79241E+00-4.22218E-13-2.53825E-13
 -1      1713 2.54610E+01-3.95370E+00-5.38664E-01 1.10644E+01-1.54279E-13-4.58078E-13
 -1      1714 2.21799E+01 4.04397E+00 1.37281E-01 9.96816E+00-6.44595E-13-3.37032E-13
 -1      1715 7.53419E+00-6.21177E+00-3.22577E+00 1.33924E+01-1.19904E-13 1.37224E-13
 -1      1716 1.92901E+01-2.88002E+00-1.23388E+00 1.91424E+01 1.90070E-13-8.08451E-13
 -1      1717 1.60677E+00-8.29293E+00-4.48398E+00 3.46953E-01-1.70308E-13 2.67786E-13
 -1      1718 4.14939E+01 1.33384E+01 1.84410E+00 1.81944E+01-2.50133E-13-4.31211E-13
 -1      1719 5.16401E+01 1.56623E+01 2.15376E+00 1.68541E+01-4.24577E-13-3.26850E-13
 -1      1720 5.91621E+01 1.38550E+01 2.09064E+00 1.28736E+01-3.90743E-13-4.62436E-13
 -1      1721 6.01766E+01 1.07480E+01 1.75245E+00 6.26543E+00 1.51212E-13-6.94445E-13
 -1      1722 5.39050E+01 8.02977E+00 1.27283E+00 4.49239E-01 4.24161E-13-7.82596E-13
 -1      1723 4.47388E+01 4.72251E+00 8.77921E-01-4.11195E+00 3.95434E-13-8.26006E-13
 -1      1724 3.30785E+01 2.26839E-01 2.49560E-01-5.95365E+00 4.10449E-13-8.91509E-13
 -1      1725 2.11614E+01-4.06538E+00-8.64127E-02-6.45087E+00 3.61711E-13-8.27449E-13
 -1      1726 9.41618E+00-8.76770E+00-7.70349E-01-4.95336E+00 2.89990E-13-5.07011E-13
 -1      1727 2.13077E+00-1.28794E+01-1.13493E+00-3.14752E+00 3.30846E-13-3.59573E-13
 -1      1728-1.64411E+00-1.55139E+01-1.36041E+00-1.28398E+00 1.93179E-13 1.15574E-13
 -1      1729-1.75650E+00-1.62166E+01-1.49137E+00 8.20737E-01 6.71685E-15 1.45550E-13
 -1      1730 1.96453E+00-1.34439E+01-1.24577E+00 2.75003E+00 1.70530E-13-4.07285E-13
 -1      1731 8.94206E+00-9.21703E+00-9.02837E-01 4.58295E+00-3.96350E-14-5.20556E-13
 -1      1732 1.88532E+01-4.10779E+00-3.43246E-01 6.30260E+00-2.58238E-13 2.17382E-13
 -1      1733 3.11979E+01 5.10331E-01 2.76503E-01 6.99969E+00-2.68674E-14-8.16014E-14
 -1      1734 4.44170E+01 4.36807E+00 9.53266E-01 5.61471E+00 1.70336E-13-4.14335E-13
 -1      1735 5.43692E+01 7.53144E+00 1.40299E+00 1.08932E+00 2.07057E-14-2.52354E-13
 -1      1736 5.97695E+01 1.04784E+01 1.72168E+00-5.05662E+00 4.15223E-14-3.69038E-13
 -1      1737 5.99476E+01 1.31171E+01 2.03144E+00-1.12786E+01 6.63358E-14-6.00631E-13
 -1      1738 5.24073E+01 1.51792E+01 2.09718E+00-1.59032E+01 2.78277E-13-3.40283E-13
 -1      1739 4.22164E+01 1.34006E+01 1.85390E+00-1.81468E+01 1.65423E-13-5.51115E-13
 -1      1740 3.11929E+01 6.66964E+00 8.88875E-01-1.87356E+01-6.39488E-14-3.95239E-13
 -1      1741 1.93470E+01-2.80158E+00-1.34321E+00-1.85332E+01 4.19664E-14-8.64309E-14
 -1      1742 7.63174E+00-7.20520E+00-3.38109E+00-1.28760E+01-1.09468E-13 3.48499E-13
 -1      1743 2.28614E+01 1.98479E+00-2.35594E-02-2.72195E+00-1.43861E-13 6.27443E-13
 -1      1744 2.30649E+01 1.91194E+00-2.12461E-01 1.79625E+01-3.25184E-13-5.12035E-13
 -1      1745 1.98226E+01 3.71864E+00-3.49152E-02-2.15415E+00-1.91453E-13-1.68338E-13
 -1      1746 2.00522E+01 3.56063E+00-4.29459E-02-2.44065E+00-2.26296E-13-1.05426E-13
 -1      1747 2.03663E+01 3.18233E+00-4.52082E-02-2.58419E+00-2.24645E-13-3.26128E-14
 -1      1748 2.05856E+01 2.80916E+00-1.42600E-01-2.85248E+00-2.37418E-13 7.49192E-14
 -1      1749 2.04309E+01 2.69109E+00-3.10320E-03-2.22040E+00-2.35092E-13-5.70169E-14
 -1      1750 1.93540E+01 4.18926E+00-2.02009E-02-1.26973E+00-1.06864E-13-2.85324E-13
 -1      1751 1.94276E+01 4.14954E+00-1.71838E-02-1.49409E+00-1.22530E-13-2.72862E-13
 -1      1752 1.92570E+01 4.29501E+00-1.68088E-02-8.59057E-01-5.33432E-14-3.02886E-13
 -1      1753 1.92999E+01 4.27107E+00-1.43584E-02-1.06974E+00-7.59189E-14-2.99894E-13
 -1      1754 1.95257E+01 3.78335E+00-9.30656E-03-1.11881E+00-9.84566E-14-2.70461E-13
 -1      1755 1.92051E+01 4.35548E+00-1.48062E-02-4.66429E-01-6.71609E-15-2.88982E-13
 -1      1756 1.92272E+01 4.34263E+00-1.33196E-02-6.66608E-01-2.65571E-14-2.95316E-13
 -1      1757 1.94282E+01 3.90378E+00-9.21925E-03-7.32636E-01-3.47368E-14-2.79478E-13
 -1      1758 1.91856E+01 4.38112E+00-1.36691E-02-8.35660E-02 4.58702E-14-2.85083E-13
 -1      1759 1.91921E+01 4.37720E+00-1.32140E-02-2.78871E-01 2.27718E-14-2.88861E-13
 -1      1760 1.93776E+01 3.96832E+00-9.16327E-03-3.57998E-01 6.70297E-15-2.72293E-13
 -1      1761 1.91938E+01 4.37582E+00-1.31674E-02 2.97867E-01 8.11593E-14-2.75963E-13
 -1      1762 1.91861E+01 4.38029E+00-1.37525E-02 1.02403E-01 6.39577E-14-2.83069E-13
 -1      1763 1.93627E+01 3.98778E+00-9.14667E-03 1.05306E-02 6.24558E-14-2.77634E-13
 -1      1764 1.92313E+01 4.33857E+00-1.33374E-02 6.86363E-01 1.23175E-13-2.64254E-13
 -1      1765 1.92080E+01 4.35227E+00-1.49254E-02 4.85664E-01 1.07284E-13-2.73580E-13
 -1      1766 1.93803E+01 3.96503E+00-9.18557E-03 3.79241E-01 9.79499E-14-2.61215E-13
 -1      1767 1.93052E+01 4.26514E+00-1.44251E-02 1.08378E+00 1.61467E-13-2.24400E-13
 -1      1768 1.92616E+01 4.28958E+00-1.70013E-02 8.75928E-01 1.41576E-13-2.42422E-13
 -1      1769 1.94334E+01 3.89743E+00-9.22798E-03 7.51185E-01 1.38309E-13-2.37674E-13
 -1      1770 1.94374E+01 4.13783E+00-1.74437E-02 1.51369E+00 2.07060E-13-1.71019E-13
 -1      1771 1.93606E+01 4.18034E+00-2.05531E-02 1.28420E+00 1.79495E-13-2.00276E-13
 -1      1772 1.95335E+01 3.77325E+00-9.33114E-03 1.13469E+00 1.85901E-13-1.96641E-13
 -1      1773 1.96669E+01 3.92139E+00-2.53113E-02 1.97871E+00 2.44013E-13-9.21312E-14
 -1      1774 1.95341E+01 3.99820E+00-2.69160E-02 1.72138E+00 2.24320E-13-1.43770E-13
 -1      1775 1.97074E+01 3.56582E+00-8.95865E-03 1.53443E+00 2.31545E-13-1.35909E-13
 -1      1776 2.00796E+01 3.52266E+00-4.43488E-02 2.47528E+00 2.77211E-13 6.36088E-14
 -1      1777 1.98419E+01 3.68400E+00-3.78903E-02 2.18050E+00 2.57525E-13-2.75335E-14
 -1      1778 2.00028E+01 3.22133E+00-6.53075E-03 1.93112E+00 2.60629E-13-4.19526E-14
 -1      1779 2.09207E+01 2.66935E+00-6.21900E-02 2.85452E+00 2.76128E-13 3.14831E-13
 -1      1780 2.04140E+01 3.10032E+00-4.97169E-02 2.61228E+00 2.69590E-13 1.67436E-13
 -1      1781 2.04992E+01 2.60881E+00-8.14752E-04 2.23787E+00 2.88432E-13 1.18242E-13
 -1      1782 2.17314E+01 1.21151E+00-1.23374E-01 2.32822E+00 2.16736E-13 6.17187E-13
 -1      1783 2.12791E+01 2.27267E+00 3.35419E-03 2.74107E+00 2.48830E-13 4.18762E-13
 -1      1784 2.09615E+01 1.68907E+00-1.35418E-02 2.14501E+00 2.83669E-13 3.02747E-13
 -1      1785 2.09614E+01 7.79081E-01-6.05448E-02 1.52279E+00 2.30385E-13 5.49666E-13
 -1      1786 2.17995E+01 2.45796E+00 9.08921E-02-3.04748E+00-1.98348E-13 2.74503E-13
 -1      1787 2.01072E+01 2.98010E-01-7.86935E-03 6.56552E-01 1.85831E-13 4.28416E-13
 -1      1788 2.06516E+01 4.39317E-01-1.40865E-02 1.03386E+00 1.95267E-13 4.99792E-13
 -1      1789 2.07502E+01 8.46663E-01 5.38495E-03 1.40852E+00 2.31582E-13 3.67522E-13
 -1      1790 2.20432E+01 3.43639E+00-1.16679E-02 1.96342E+01-2.24154E-13-7.82513E-13
 -1      1791 2.62244E+01-1.37455E+00-2.79948E-01 1.74456E+01-9.04832E-14-4.62963E-13
 -1      1792 2.15100E+01 1.74226E+00 7.95269E-02-2.33659E+00-2.14995E-13 1.86635E-13
 -1      1793 2.05237E+01 5.00858E-01 3.24933E-02-9.20748E-01-1.80880E-13 1.62207E-13
 -1      1794 2.00925E+01 3.52090E-01 7.66873E-03-6.28799E-01-1.71904E-13 9.23124E-14
 -1      1795 1.98982E+01 2.57331E-01 2.74348E-02-3.90408E-01-1.63880E-13 9.95853E-14
 -1      1796 1.97075E+01 1.78092E-01 1.04209E-02-2.52569E-01-1.34262E-13 5.77888E-14
 -1      1797 2.02018E+01 4.83424E-01-5.90731E-03-7.21552E-01-1.88946E-13 9.45077E-15
 -1      1798 1.95856E+01 1.32779E-01 1.66478E-02-1.18990E-01-9.62711E-14 6.39853E-14
 -1      1799 1.95078E+01 9.31159E-02 6.94980E-03-4.81835E-02-8.22142E-14 4.15909E-14
 -1      1800 1.98762E+01 2.43958E-01-5.80392E-03-2.94536E-01-1.26358E-13 3.28374E-14
 -1      1801 1.94432E+01 6.84217E-02 8.67391E-03 2.53509E-02-7.42884E-14 4.12361E-14
 -1      1802 1.94289E+01 4.67067E-02 4.10456E-03 6.15213E-02-4.84794E-14 1.33843E-14
 -1      1803 1.96940E+01 1.25301E-01-4.64406E-03-5.76727E-02-8.15192E-14 9.96794E-15
 -1      1804 1.94030E+01 3.23429E-02 4.22716E-03 1.00190E-01-6.21931E-14 2.82077E-14
 -1      1805 1.94231E+01 1.98750E-02 2.42688E-03 1.16925E-01-4.49484E-14 8.50253E-15
 -1      1806 1.96078E+01 6.08915E-02-3.45795E-03 7.18570E-02-5.58079E-14-1.43645E-14
 -1      1807 1.94214E+01 1.12068E-02 1.84465E-03 1.34761E-01-3.59884E-14 7.54984E-15
 -1      1808 1.94587E+01 3.99042E-03 1.43987E-03 1.40109E-01-3.98115E-14 1.11671E-14
 -1      1809 1.95838E+01 2.39251E-02-2.32999E-03 1.38113E-01-5.20895E-14-4.92809E-14
 -1      1810 1.94712E+01-1.24231E-03 5.41246E-04 1.45354E-01-5.50105E-14-1.60516E-14
 -1      1811 1.95155E+01-5.27233E-03 8.21199E-04 1.44013E-01-3.90388E-14-2.74866E-14
 -1      1812 1.95974E+01 2.28981E-03-1.42628E-03 1.66170E-01-5.37299E-14-4.06698E-14
 -1      1813 1.95354E+01-8.31254E-03-1.83689E-04 1.41775E-01-4.26585E-14-2.13082E-14
 -1      1814 1.95807E+01-1.03376E-02 4.17936E-04 1.36665E-01-4.89319E-14-1.30675E-14
 -1      1815 1.96319E+01-1.01074E-02-7.76720E-04 1.71142E-01-4.08918E-14-6.55427E-14
 -1      1816 1.96035E+01-1.19427E-02-5.74502E-04 1.30222E-01-9.30120E-14-2.90957E-14
 -1      1817 1.96464E+01-1.26944E-02 1.55473E-04 1.23217E-01-9.93196E-14-8.88545E-14
 -1      1818 1.96763E+01-1.66835E-02-3.39157E-04 1.62568E-01-1.07813E-13-9.65045E-14
 -1      1819 1.96694E+01-1.33586E-02-7.60843E-04 1.14701E-01-6.42657E-14-9.42409E-14
 -1      1820 1.97079E+01-1.33137E-02-9.58080E-06 1.07004E-01 3.33200E-15-1.16004E-13
 -1      1821 1.97235E+01-1.95323E-02-5.92782E-05 1.46625E-01-7.10608E-14-5.97999E-14
 -1      1822 1.97295E+01-1.33720E-02-8.19463E-04 9.77947E-02 1.49486E-14-1.26923E-13
 -1      1823 1.97628E+01-1.28487E-02-1.06116E-04 9.01689E-02 3.72018E-14-9.29550E-14
 -1      1824 1.97691E+01-2.00134E-02 1.08626E-04 1.27338E-01-1.78454E-14-7.28211E-14
 -1      1825 1.97821E+01-1.25303E-02-7.99349E-04 8.11384E-02 2.47112E-14-1.26900E-13
 -1      1826 1.98101E+01-1.17404E-02-1.54325E-04 7.40452E-02-3.69204E-14-1.04521E-13
 -1      1827 1.98108E+01-1.90354E-02 1.98803E-04 1.07297E-01 2.17296E-15-6.33767E-14
 -1      1828 1.98267E+01-1.12007E-02-7.32793E-04 6.57229E-02-6.42583E-14-8.09752E-14
 -1      1829 1.98497E+01-1.02809E-02-1.68200E-04 5.94245E-02-7.15139E-14-5.52978E-14
 -1      1830 1.98473E+01-1.72075E-02 2.35876E-04 8.81235E-02-2.65443E-14-6.80843E-14
 -1      1831 1.98637E+01-9.62069E-03-6.41058E-04 5.21130E-02-1.02161E-13-3.66031E-14
 -1      1832 1.98821E+01-8.65304E-03-1.57004E-04 4.67438E-02-6.16693E-14-5.37172E-14
 -1      1833 1.98783E+01-1.49280E-02 2.37130E-04 7.07887E-02-6.68600E-14-4.14772E-14
 -1      1834 1.98937E+01-7.93269E-03-5.37757E-04 4.06034E-02-7.12590E-14-8.87636E-14
 -1      1835 1.99084E+01-6.95841E-03-1.26286E-04 3.62231E-02-4.28225E-14-1.30791E-13
 -1      1836 1.99042E+01-1.24409E-02 2.14339E-04 5.58400E-02-9.44621E-14 2.99626E-15
 -1      1837 1.99179E+01-6.20719E-03-4.31064E-04 3.13352E-02-4.37679E-14-1.95602E-13
 -1      1838 1.99295E+01-5.23655E-03-7.85970E-05 2.79692E-02-5.24249E-14-2.33654E-13
 -1      1839 1.99256E+01-9.87520E-03 1.75120E-04 4.35700E-02-8.13910E-14-3.05609E-14
 -1      1840 1.99375E+01-4.45990E-03-3.25266E-04 2.43839E-02-4.20125E-14-1.97649E-13
 -1      1841 1.99469E+01-3.47918E-03-1.40000E-05 2.20540E-02-3.33505E-14-2.00679E-13
 -1      1842 1.99432E+01-7.27237E-03 1.23951E-04 3.41431E-02-3.53362E-14-5.96073E-14
 -1      1843 1.99539E+01-2.66384E-03-2.21885E-04 1.98276E-02-5.25335E-14-2.29865E-13
 -1      1844 1.99619E+01-1.64019E-03 6.95832E-05 1.85759E-02-4.15371E-14-2.22184E-13
 -1      1845 1.99583E+01-4.60588E-03 6.29253E-05 2.76910E-02-5.09473E-14-9.08609E-14
 -1      1846 1.99685E+01-7.57853E-04-1.20510E-04 1.77996E-02 3.41210E-14-2.49146E-13
 -1      1847 1.99761E+01 3.57545E-04 1.76129E-04 1.77084E-02 4.72059E-14-2.33066E-13
 -1      1848 1.99719E+01-1.79522E-03-7.66370E-06 2.43884E-02-2.16109E-14-9.92138E-14
 -1      1849 1.99830E+01 1.34764E-03-1.94408E-05 1.85321E-02 9.32828E-15-1.71623E-13
 -1      1850 1.99913E+01 2.61748E-03 3.11330E-04 1.97401E-02 3.25616E-14-1.82512E-13
 -1      1851 1.99853E+01 1.28471E-03-8.88602E-05 2.45124E-02 7.60719E-14-1.13138E-13
 -1      1852 1.99993E+01 3.76665E-03 8.38020E-05 2.23920E-02 7.79520E-14-1.10632E-13
 -1      1853 2.00095E+01 5.26617E-03 4.82426E-04 2.51082E-02 1.21013E-13-5.50962E-14
 -1      1854 2.00002E+01 4.79714E-03-1.82653E-04 2.84910E-02 1.08375E-13-4.15086E-14
 -1      1855 2.00196E+01 6.63464E-03 1.92026E-04 2.99111E-02 8.90040E-14-4.07177E-14
 -1      1856 2.00332E+01 8.45032E-03 6.97970E-04 3.44271E-02 1.17321E-13-1.69336E-14
 -1      1857 2.00183E+01 8.93874E-03-2.91604E-04 3.69434E-02 1.13972E-13 2.47391E-14
 -1      1858 2.00463E+01 1.01054E-02 3.07916E-04 4.18121E-02 1.07134E-13-1.07811E-13
 -1      1859 2.00649E+01 1.23331E-02 9.67432E-04 4.85120E-02 3.63786E-14-1.11845E-13
 -1      1860 2.00415E+01 1.39350E-02-4.18447E-04 5.07134E-02 8.16196E-14-1.15214E-13
 -1      1861 2.00825E+01 1.43460E-02 4.33523E-04 5.90271E-02-5.02811E-14-1.15229E-13
 -1      1862 2.01082E+01 1.70874E-02 1.30047E-03 6.83937E-02-6.39088E-14-1.58053E-13
 -1      1863 2.00723E+01 2.00337E-02-5.65602E-04 7.08928E-02-8.55335E-15-2.83732E-13
 -1      1864 2.01317E+01 1.95284E-02 5.69600E-04 8.27056E-02-6.83856E-14-1.58183E-13
 -1      1865 2.01670E+01 2.28838E-02 1.70559E-03 9.53205E-02-1.05272E-13-1.78267E-13
 -1      1866 2.01136E+01 2.74930E-02-7.34562E-04 9.88322E-02-7.99478E-14-2.09969E-13
 -1      1867 2.01982E+01 2.58127E-02 7.14707E-04 1.14204E-01-1.19355E-13-7.06304E-14
 -1      1868 2.02460E+01 2.98670E-02 2.18771E-03 1.30735E-01-5.06631E-14-1.20470E-13
 -1      1869 2.01686E+01 3.65595E-02-9.25081E-04 1.36129E-01-3.20486E-14-2.55596E-14
 -1      1870 2.02868E+01 3.33164E-02 8.63977E-04 1.55039E-01 9.87047E-15-7.03586E-14
 -1      1871 2.03506E+01 3.81131E-02 2.74388E-03 1.76204E-01 9.92040E-14-2.25727E-14
 -1      1872 2.02410E+01 4.74259E-02-1.13418E-03 1.84575E-01-7.90015E-15 5.95422E-14
 -1      1873 2.04032E+01 4.20579E-02 1.00746E-03 2.06783E-01 6.17344E-14-1.09722E-13
 -1      1874 2.04867E+01 4.75511E-02 3.35587E-03 2.33277E-01-2.43644E-14-1.19948E-13
 -1      1875 2.03352E+01 6.01541E-02-1.35498E-03 2.46040E-01 1.85631E-14-8.15171E-15
 -1      1876 2.05536E+01 5.18544E-02 1.12802E-03 2.70847E-01-7.94775E-14-7.28481E-14
 -1      1877 2.06611E+01 5.78232E-02 3.97776E-03 3.03189E-01-3.81422E-15-1.34826E-13
 -1      1878 2.04558E+01 7.45350E-02-1.57565E-03 3.22231E-01 6.95841E-15-1.90222E-13
 -1      1879 2.07444E+01 6.21426E-02 1.19910E-03 3.48081E-01-3.74772E-14-1.09520E-13
 -1      1880 2.08800E+01 6.80414E-02 4.51608E-03 3.86343E-01-9.26644E-14-6.40151E-14
 -1      1881 2.06076E+01 8.98415E-02-1.77884E-03 4.14262E-01-3.85423E-14 1.44932E-14
 -1      1882 2.09821E+01 7.16690E-02 1.18316E-03 4.38054E-01-1.94057E-13-4.55293E-14
 -1      1883 2.11492E+01 7.63782E-02 4.80002E-03 4.81373E-01-8.66802E-14-7.44566E-14
 -1      1884 2.07951E+01 1.04401E-01-1.94281E-03 5.21881E-01-6.87538E-14 8.12877E-14
 -1      1885 2.12716E+01 7.79808E-02 1.03316E-03 5.37823E-01-6.00279E-15-1.57577E-13
 -1      1886 2.14716E+01 7.94107E-02 4.54138E-03 5.83575E-01 4.24025E-14-1.01208E-13
 -1      1887 2.10223E+01 1.14889E-01-2.04536E-03 6.42181E-01-1.17318E-13 2.45192E-14
 -1      1888 2.16152E+01 7.66363E-02 7.01508E-04 6.39898E-01 9.19310E-14-1.62526E-13
 -1      1889 2.18458E+01 7.11622E-02 3.29130E-03 6.82373E-01 1.12292E-13-1.49050E-13
 -1      1890 2.12913E+01 1.15232E-01-2.07221E-03 7.67483E-01 2.29067E-14-7.51425E-14
 -1      1891 2.20100E+01 6.01196E-02 1.62920E-04 7.29081E-01 1.65380E-13-1.11713E-13
 -1      1892 2.22620E+01 4.19231E-02 4.21087E-04 7.57532E-01 9.88098E-14-1.35651E-13
 -1      1893 2.16019E+01 9.50779E-02-2.02814E-03 8.82082E-01 7.84724E-14 3.01374E-14
 -1      1894 2.24446E+01 1.66965E-02-5.41767E-04 7.77993E-01-1.84916E-14-1.64100E-13
 -1      1895 2.26977E+01-2.26080E-02-4.81386E-03 7.74197E-01 1.62983E-14-1.50615E-13
 -1      1896 2.19502E+01 3.81252E-02-1.93925E-03 9.57607E-01 8.60306E-14 2.87201E-14
 -1      1897 2.28940E+01-6.98709E-02-1.26620E-03 7.41791E-01 1.10042E-13-6.07786E-14
 -1      1898 2.31117E+01-1.40255E-01-1.30066E-02 6.77990E-01 1.21499E-13 1.05767E-13
 -1      1899 2.23272E+01-7.84887E-02-1.81854E-03 9.47359E-01 6.99844E-14 1.51905E-13
 -1      1900 2.33133E+01-2.17307E-01-1.76120E-03 5.54454E-01 7.00759E-14 5.15690E-14
 -1      1901 2.34386E+01-3.25702E-01-2.39607E-02 3.94313E-01 2.03795E-14 5.28453E-14
 -1      1902 2.27168E+01-2.80655E-01-1.53291E-03 7.81511E-01 5.65915E-14 1.81333E-13
 -1      1903 2.36284E+01-4.33705E-01-1.97838E-03 1.33315E-01-3.71370E-14 1.70280E-13
 -1      1904 2.35846E+01-5.72280E-01-3.55095E-02-1.58718E-01-8.35079E-14 1.19912E-13
 -1      1905 2.30909E+01-5.82949E-01-4.58837E-04 3.68735E-01 6.66290E-14 2.93355E-13
 -1      1906 2.37261E+01-6.91933E-01-2.52838E-03-5.94629E-01-1.91737E-13 1.75427E-13
 -1      1907 2.34289E+01-8.18389E-01-4.21408E-02-1.02768E+00-1.20673E-13 2.74666E-13
 -1      1908 2.33972E+01-9.55352E-01 2.89815E-03-3.83563E-01-1.20757E-13 4.68216E-13
 -1      1909 2.34501E+01-8.91442E-01-5.43176E-03-1.62610E+00-4.82843E-14 2.01758E-13
 -1      1910 2.28417E+01-9.12385E-01-3.53545E-02-2.13813E+00 1.88237E-13 1.53169E-13
 -1      1911 2.35372E+01-1.27065E+00 1.06563E-02-1.51033E+00-2.72733E-14 4.52945E-13
 -1      1912 2.26297E+01-8.36805E-01-1.35139E-02-2.77136E+00 4.14660E-13 1.45961E-13
 -1      1913 2.17345E+01-6.30061E-01-9.06766E-03-3.18448E+00 3.21512E-13 3.01911E-13
 -1      1914 2.33446E+01-1.26886E+00 2.23177E-02-2.87637E+00 2.10468E-13 3.69683E-13
 -1      1915 2.11860E+01-3.10590E-01-2.61314E-02-3.56290E+00 1.67198E-13 3.67893E-13
 -1      1916 2.01644E+01 1.70192E-01 2.83977E-02-3.59997E+00 2.12315E-13 4.06591E-13
 -1      1917 2.26179E+01-6.37030E-01 2.87805E-02-4.04382E+00 2.79699E-13 2.77872E-13
 -1      1918 1.93249E+01 6.93832E-01-3.35516E-02-3.35861E+00 2.47406E-14 3.06595E-13
 -1      1919 1.84693E+01 1.28289E+00 5.32091E-02-2.79998E+00-7.38992E-14 1.61093E-13
 -1      1920 2.12883E+01 6.92704E-01 1.11954E-02-4.27919E+00 1.22229E-14 1.82467E-13
 -1      1921 1.76284E+01 1.75584E+00-1.70614E-02-1.78187E+00-1.76349E-13-4.91829E-14
 -1      1922 1.72497E+01 2.08143E+00 4.50940E-02-7.04012E-01-2.02546E-13-1.95197E-13
 -1      1923 1.96661E+01 2.24969E+00-2.31445E-02-2.94871E+00-2.40044E-13-2.32171E-13
 -1      1924 1.68049E+01 2.12619E+00 1.90605E-02 7.60499E-01-2.14211E-13-1.70566E-13
 -1      1925 1.70455E+01 1.83487E+00 1.00282E-03 1.85946E+00-2.01141E-13-1.06193E-13
 -1      1926 1.84049E+01 3.06082E+00-4.66408E-02-2.00048E-01-2.37699E-13-2.50790E-13
 -1      1927 1.72153E+01 1.23295E+00 6.35147E-02 3.00478E+00-6.10623E-14-1.89640E-14
 -1      1928 1.79100E+01 1.42316E-01-7.11458E-02 3.40247E+00 1.30309E-13 3.61100E-14
 -1      1929 1.80766E+01 2.21274E+00-3.64853E-02 2.73253E+00-1.21968E-14 3.50646E-13
 -1      1930 1.11092E+01 4.72750E+00-1.05915E+00-1.21963E+01-3.06755E-13 4.18332E-13
 -1      1931 7.30536E+00 6.60033E+00-1.31050E+00-5.40991E+00-2.99150E-13 1.44995E-13
 -1      1932 1.96231E+01 1.39689E-01 7.46886E-03 2.57438E-01 1.47173E-13 3.25531E-13
 -1      1933 1.98902E+01 2.04256E-01 1.54471E-02 4.30573E-01 1.61728E-13 3.95970E-13
 -1      1934 2.01074E+01 3.57349E-01 2.18244E-03 6.56246E-01 2.01349E-13 3.00627E-13
 -1      1935 1.93810E+01 7.23183E-02 6.81813E-03 5.58978E-02 8.92064E-14 2.39834E-13
 -1      1936 1.94953E+01 1.01921E-01 1.39921E-02 1.44761E-01 9.37653E-14 2.79713E-13
 -1      1937 1.97154E+01 1.63645E-01-1.99937E-03 2.56278E-01 1.36101E-13 2.21705E-13
 -1      1938 1.92913E+01 3.62242E-02 4.34700E-03-5.01860E-02 7.06991E-14 2.27898E-13
 -1      1939 1.93211E+01 5.22398E-02 8.25681E-03-2.80192E-03 7.21775E-14 2.35155E-13
 -1      1940 1.95137E+01 8.11632E-02-2.98846E-03 4.30726E-02 9.67533E-14 1.45608E-13
 -1      1941 1.92904E+01 1.62279E-02 2.85967E-03-1.02695E-01 3.22448E-14 1.83079E-13
 -1      1942 1.92747E+01 2.50760E-02 4.30565E-03-7.80272E-02 5.60583E-14 2.24030E-13
 -1      1943 1.94355E+01 3.75185E-02-2.89146E-03-6.90420E-02 6.41815E-14 1.51361E-13
 -1      1944 1.93383E+01 4.63288E-03 1.99516E-03-1.24859E-01 4.49446E-14 1.49274E-13
 -1      1945 1.92995E+01 9.65413E-03 2.14277E-03-1.13373E-01 3.37563E-14 1.58359E-13
 -1      1946 1.94295E+01 1.36854E-02-2.32360E-03-1.24644E-01 4.65330E-14 1.06205E-13
 -1      1947 1.94106E+01-2.17142E-03 1.44969E-03-1.29151E-01 4.86308E-14 1.41317E-13
 -1      1948 1.93616E+01 5.87340E-04 9.48781E-04-1.25595E-01 5.64794E-14 1.53530E-13
 -1      1949 1.94646E+01 1.36764E-04-1.69214E-03-1.47297E-01 5.34998E-14 8.59493E-14
 -1      1950 1.94918E+01-5.97728E-03 1.06640E-03-1.23042E-01 1.20142E-14 1.29207E-13
 -1      1951 1.94404E+01-4.63700E-03 2.72325E-04-1.24227E-01 2.49209E-14 1.48291E-13
 -1      1952 1.95208E+01-7.50146E-03-1.16879E-03-1.50356E-01 3.40918E-14 1.19570E-13
 -1      1953 1.95728E+01-7.85340E-03 7.79255E-04-1.11273E-01-4.64273E-14 1.77935E-13
 -1      1954 1.95234E+01-7.40546E-03-1.14033E-04-1.15154E-01-2.07192E-14 1.30465E-13
 -1      1955 1.95852E+01-1.14618E-02-7.75981E-04-1.42067E-01-1.56482E-14 1.32094E-13
 -1      1956 1.96482E+01-8.48921E-03 5.60690E-04-9.68947E-02 5.32429E-14 1.45308E-13
 -1      1957 1.96033E+01-8.59171E-03-3.26372E-04-1.02135E-01 1.86223E-15 1.64736E-13
 -1      1958 1.96502E+01-1.30897E-02-4.93355E-04-1.27695E-01 2.44813E-16 1.28050E-13
 -1      1959 1.97151E+01-8.34440E-03 3.95102E-04-8.18574E-02 8.64322E-14 1.58100E-13
 -1      1960 1.96760E+01-8.77060E-03-4.28682E-04-8.75880E-02 5.63402E-14 1.59058E-13
 -1      1961 1.97110E+01-1.32513E-02-2.95083E-04-1.10633E-01 6.79375E-14 1.01464E-13
 -1      1962 1.97726E+01-7.72946E-03 2.71381E-04-6.73751E-02 6.99266E-14 1.51107E-13
 -1      1963 1.97395E+01-8.32850E-03-4.60451E-04-7.30424E-02 8.67152E-14 1.72937E-13
 -1      1964 1.97653E+01-1.25200E-02-1.59387E-04-9.30490E-02 8.40057E-14 1.67391E-13
 -1      1965 1.98206E+01-6.85190E-03 1.81077E-04-5.41671E-02-1.20139E-14 1.36545E-13
 -1      1966 1.97933E+01-7.52545E-03-4.47660E-04-5.94320E-02 1.49728E-14 1.60890E-13
 -1      1967 1.98121E+01-1.12780E-02-6.96916E-05-7.62869E-02 3.25956E-14 1.73109E-13
 -1      1968 1.98597E+01-5.84477E-03 1.17814E-04-4.26266E-02 4.68259E-14 1.04685E-13
 -1      1969 1.98377E+01-6.53201E-03-4.07628E-04-4.72930E-02 1.36336E-15 8.83070E-14
 -1      1970 1.98514E+01-9.77525E-03-1.37924E-05-6.11419E-02 1.80592E-14 5.89679E-14
 -1      1971 1.98910E+01-4.78569E-03 7.69538E-05-3.29430E-02 7.11358E-14 4.23777E-14
 -1      1972 1.98736E+01-5.45303E-03-3.51631E-04-3.69051E-02 4.78307E-14 7.65217E-14
 -1      1973 1.98835E+01-8.16564E-03 1.71176E-05-4.80498E-02 6.82511E-14 3.98372E-14
 -1      1974 1.99159E+01-3.71037E-03 5.53710E-05-2.51942E-02 1.19904E-13-1.15305E-14
 -1      1975 1.99022E+01-4.34401E-03-2.86579E-04-2.83965E-02 1.00450E-13-1.24954E-17
 -1      1976 1.99096E+01-6.53147E-03 2.92031E-05-3.72294E-02 1.48263E-13 2.67696E-14
 -1      1977 1.99357E+01-2.62234E-03 5.13050E-05-1.94157E-02 7.69958E-14 9.41591E-14
 -1      1978 1.99250E+01-3.22284E-03-2.16161E-04-2.18227E-02 1.35047E-13 8.67636E-14
 -1      1979 1.99306E+01-4.90104E-03 2.65385E-05-2.87871E-02 9.68157E-14 6.31383E-14
 -1      1980 1.99520E+01-1.50001E-03 6.42636E-05-1.56542E-02-1.29891E-13 5.64830E-14
 -1      1981 1.99434E+01-2.07830E-03-1.41679E-04-1.72260E-02-2.52677E-14 7.42870E-14
 -1      1982 1.99479E+01-3.26112E-03 1.15155E-05-2.27976E-02 3.78987E-15 1.24256E-13
 -1      1983 1.99666E+01-3.01878E-04 9.49493E-05-1.40088E-02-9.78722E-14 1.58212E-14
 -1      1984 1.99590E+01-8.76314E-04-6.26549E-05-1.46823E-02-1.39078E-13 4.95343E-14
 -1      1985 1.99629E+01-1.56618E-03-1.48495E-05-1.93655E-02-1.17637E-13 9.64171E-14
 -1      1986 1.99812E+01 1.02967E-03 1.45185E-04-1.46641E-02 1.11915E-14 6.21930E-14
 -1      1987 1.99737E+01 4.35578E-04 2.26966E-05-1.43373E-02-1.27409E-14 6.43976E-14
 -1      1988 1.99772E+01 2.54989E-04-5.26764E-05-1.86730E-02-4.30548E-14 7.51105E-14
 -1      1989 1.99980E+01 2.56510E-03 2.17803E-04-1.79160E-02 1.05986E-13 1.46908E-13
 -1      1990 1.99893E+01 1.92459E-03 1.17071E-04-1.64348E-02 5.19995E-14 1.04747E-13
 -1      1991 1.99925E+01 2.29405E-03-1.03023E-04-2.10178E-02 5.63186E-14 1.86291E-13
 -1      1992 2.00192E+01 4.38427E-03 3.16461E-04-2.41914E-02-4.80602E-15 7.50914E-14
 -1      1993 2.00081E+01 3.66929E-03 2.23699E-04-2.13391E-02 7.81209E-14 1.45460E-13
 -1      1994 2.00107E+01 4.65835E-03-1.67702E-04-2.68418E-02 9.86628E-14 1.69175E-13
 -1      1995 2.00477E+01 6.57169E-03 4.45294E-04-3.40590E-02-9.55729E-14 1.02430E-13
 -1      1996 2.00326E+01 5.75541E-03 3.45915E-04-2.95496E-02-1.33429E-13 3.87720E-14
 -1      1997 2.00341E+01 7.46522E-03-2.49075E-04-3.67500E-02-8.60368E-14 1.15556E-13
 -1      1998 2.00867E+01 9.20907E-03 6.08311E-04-4.82304E-02 2.53506E-14 2.00897E-13
 -1      1999 2.00658E+01 8.26952E-03 4.86604E-04-4.17057E-02 1.01073E-14 1.51797E-13
 -1      2000 2.00655E+01 1.08337E-02-3.49810E-04-5.15182E-02-3.67999E-14 1.55441E-13
 -1      2001 2.01401E+01 1.23629E-02 8.08345E-04-6.75417E-02-3.68493E-14 2.27339E-13
 -1      2002 2.01113E+01 1.12887E-02 6.47396E-04-5.85769E-02 3.96789E-14 2.37737E-13
 -1      2003 2.01078E+01 1.48708E-02-4.72540E-04-7.20811E-02 1.73466E-14 2.32144E-13
 -1      2004 2.02124E+01 1.60641E-02 1.04528E-03-9.29070E-02-6.43072E-14 2.76107E-13
 -1      2005 2.01730E+01 1.48637E-02 8.27488E-04-8.10291E-02-9.64443E-14 1.86363E-13
 -1      2006 2.01648E+01 1.96495E-02-6.19399E-04-9.94930E-02-2.79186E-14 2.18375E-13
 -1      2007 2.03085E+01 2.02742E-02 1.31320E-03-1.25224E-01-1.00969E-13 1.65138E-13
 -1      2008 2.02557E+01 1.89905E-02 1.02188E-03-1.09952E-01-1.18213E-13 2.07900E-13
 -1      2009 2.02405E+01 2.51716E-02-7.91385E-04-1.34841E-01-1.11064E-13 9.43140E-14
 -1      2010 2.04341E+01 2.48317E-02 1.59577E-03-1.65202E-01 3.43969E-14 2.06278E-13
 -1      2011 2.03647E+01 2.35654E-02 1.21881E-03-1.46127E-01 7.85754E-15 2.67001E-13
 -1      2012 2.03395E+01 3.13078E-02-9.87481E-04-1.79086E-01-9.18081E-15 2.05207E-13
 -1      2013 2.05948E+01 2.93676E-02 1.85947E-03-2.13080E-01 1.74194E-13 1.64737E-13
 -1      2014 2.05055E+01 2.83132E-02 1.39611E-03-1.89991E-01 1.19959E-13 1.76449E-13
 -1      2015 2.04665E+01 3.77032E-02-1.20347E-03-2.32789E-01 1.43952E-13 2.55359E-13
 -1      2016 2.07956E+01 3.31752E-02 2.04391E-03-2.68152E-01-1.56338E-14 1.13459E-14
 -1      2017 2.06835E+01 3.26756E-02 1.51643E-03-2.41266E-01 8.41848E-14 7.85704E-14
 -1      2018 2.06261E+01 4.36294E-02-1.43027E-03-2.95666E-01 1.24185E-13 2.39124E-13
 -1      2019 2.10401E+01 3.50225E-02 2.04988E-03-3.28037E-01 7.96611E-14-1.06026E-13
 -1      2020 2.09033E+01 3.56461E-02 1.52157E-03-2.98349E-01-9.20704E-16 1.36815E-14
 -1      2021 2.08221E+01 4.77647E-02-1.65143E-03-3.65882E-01 1.44644E-14 1.57250E-13
 -1      2022 2.13287E+01 3.28983E-02 1.72803E-03-3.87582E-01 1.05110E-13-4.06663E-14
 -1      2023 2.11672E+01 3.55386E-02 1.32737E-03-3.57414E-01 1.01504E-13-1.04608E-13
 -1      2024 2.10565E+01 4.78855E-02-1.83884E-03-4.38991E-01 1.10161E-13-3.08837E-14
 -1      2025 2.16556E+01 2.37262E-02 8.76642E-04-4.37319E-01-1.08300E-13 1.90982E-14
 -1      2026 2.14731E+01 2.97014E-02 8.22713E-04-4.11097E-01 1.41323E-14 6.33599E-14
 -1      2027 2.13280E+01 4.04836E-02-1.94494E-03-5.06413E-01-2.00718E-15 7.43828E-14
 -1      2028 2.20061E+01 3.17057E-03-7.33815E-04-4.61528E-01 1.15475E-13 6.90420E-16
 -1      2029 2.18124E+01 1.42525E-02-1.20393E-04-4.46789E-01 1.20821E-14-8.88005E-15
 -1      2030 2.16296E+01 2.04064E-02-1.88841E-03-5.53439E-01 1.46213E-14 2.00825E-13
 -1      2031 2.23516E+01-3.41349E-02-3.27857E-03-4.36301E-01 1.12902E-13-9.36668E-14
 -1      2032 2.21650E+01-1.59336E-02-1.61583E-03-4.44743E-01 4.49846E-14-6.50413E-14
 -1      2033 2.19463E+01-1.91777E-02-1.53028E-03-5.56995E-01 1.36772E-13 1.57826E-13
 -1      2034 2.26452E+01-9.32424E-02-6.70096E-03-3.28816E-01-9.04225E-14-8.41068E-14
 -1      2035 2.24957E+01-6.64610E-02-3.69879E-03-3.76786E-01 2.17747E-14 9.56787E-15
 -1      2036 2.22512E+01-8.58049E-02-6.40250E-04-4.84018E-01 3.23938E-14-1.21196E-14
 -1      2037 2.28180E+01-1.75320E-01-1.04334E-02-1.00479E-01 9.34530E-14 8.19106E-14
 -1      2038 2.27489E+01-1.40913E-01-6.23072E-03-2.07553E-01 5.71444E-14 4.40854E-14
 -1      2039 2.25022E+01-1.84471E-01 1.13013E-03-2.92531E-01-1.24119E-14 1.03947E-13
 -1      2040 2.27806E+01-2.70741E-01-1.30999E-02 2.81500E-01-2.32796E-13 2.68227E-13
 -1      2041 2.28458E+01-2.35361E-01-8.79760E-03 9.82224E-02-7.52540E-14 1.05232E-13
 -1      2042 2.26389E+01-3.10494E-01 4.20357E-03 6.06477E-02-9.54540E-14 2.98185E-13
 -1      2043 2.24339E+01-3.49490E-01-1.25543E-02 8.18689E-01 8.56606E-15 1.65057E-13
 -1      2044 2.26881E+01-3.29380E-01-1.06359E-02 5.57417E-01-1.37746E-13 2.38254E-13
 -1      2045 2.25822E+01-4.37857E-01 8.85430E-03 5.99881E-01-1.63555E-13 2.47652E-13
 -1      2046 2.16973E+01-3.55379E-01-7.06311E-03 1.44134E+00-1.44607E-14 8.54889E-14
 -1      2047 2.21751E+01-3.76988E-01-1.08467E-02 1.13592E+00 2.76723E-14 1.47876E-13
 -1      2048 2.22431E+01-5.07130E-01 1.45347E-02 1.29382E+00 4.87336E-14 1.58906E-13
 -1      2049 2.05593E+01-2.19368E-01 2.63195E-03 1.96973E+00 6.43192E-15 2.57495E-13
 -1      2050 2.12440E+01-3.09276E-01-8.85220E-03 1.70887E+00 4.25528E-15 2.93423E-13
 -1      2051 2.15471E+01-4.28028E-01 1.86153E-02 2.00743E+00-8.13837E-14 4.69533E-13
 -1      2052 1.91455E+01 9.32717E-02 1.23251E-02 2.12413E+00 3.19967E-13 2.90358E-14
 -1      2053 1.99397E+01-6.68499E-02-3.29993E-03 2.04543E+00 1.10732E-13 1.30770E-13
 -1      2054 2.04910E+01-1.22362E-01 1.65559E-02 2.47527E+00 2.34314E-13 4.07795E-13
 -1      2055 1.77658E+01 5.12965E-01 1.36203E-02 1.63892E+00 1.03450E-13 3.70919E-14
 -1      2056 1.84819E+01 3.32228E-01 4.44045E-03 1.86925E+00 3.30468E-13 1.34198E-14
 -1      2057 1.92168E+01 4.01187E-01 6.20658E-03 2.36101E+00 3.00594E-13 1.49802E-13
 -1      2058 1.68561E+01 8.45338E-01 3.53100E-03 4.66351E-01-1.23762E-13 1.17436E-13
 -1      2059 1.72681E+01 7.45524E-01 1.39723E-02 1.02494E+00-5.28987E-14 1.25989E-13
 -1      2060 1.80438E+01 9.59163E-01-1.29466E-02 1.44204E+00-6.76594E-14 3.65789E-13
 -1      2061 1.67920E+01 8.18510E-01-1.63940E-02-1.03106E+00-2.08267E-13 2.06370E-13
 -1      2062 1.67361E+01 9.12665E-01 1.96412E-02-3.26149E-01-1.34517E-13 1.82930E-13
 -1      2063 1.73894E+01 1.24374E+00-2.27387E-02-1.42059E-01-1.98234E-13 3.63660E-13
 -1      2064 1.76432E+01 2.59553E-01-2.44543E-02-2.04323E+00-1.34653E-13 4.51542E-13
 -1      2065 1.71350E+01 5.87298E-01 1.91795E-02-1.61398E+00-9.20965E-14 3.79179E-13
 -1      2066 1.75408E+01 8.92406E-01-2.29482E-02-1.76391E+00-1.77561E-13 5.92876E-13
 -1      2067 1.88045E+01-5.35206E-01-6.15894E-03-2.03749E+00-5.72042E-14 2.67779E-13
 -1      2068 1.80699E+01-2.59384E-03 2.52507E-02-2.19214E+00-1.59538E-13 3.32873E-13
 -1      2069 1.82545E+01 1.63518E-01 7.45485E-03-2.56759E+00-8.57907E-15 6.57675E-13
 -1      2070 1.90340E+01-1.06570E+00 4.32883E-03-2.51501E+00 9.84074E-14 4.40620E-13
 -1      2071 2.09950E+01-1.58730E+00 2.51674E-02-3.37799E+00 2.48844E-13-2.07140E-13
 -1      2072 2.00852E+01-1.16296E+00 1.06320E-02-3.85727E+00 1.07211E-13-2.46025E-13
 -1      2073 1.95968E+01-1.87711E+00 2.93871E-02-3.90675E+00 1.39489E-13-4.50246E-13
 -1      2074 1.93224E+01-1.11274E+00 4.06213E-02-3.67151E+00 1.89255E-13-2.07090E-13
 -1      2075 1.98215E+01 1.54220E+00-1.02521E-01-3.81126E+00 1.38296E-13-1.61281E-13
 -1      2076 1.27231E+01 6.21629E+00-6.72448E-01 1.51534E+01-5.36016E-13-5.45120E-14
 -1      2077 9.83364E+00 5.93539E+00-1.01896E+00 9.90912E+00-5.83589E-13 3.09086E-13
 -1      2078 1.92473E+01-1.71679E+00 2.92660E-03-3.40776E+00 1.51500E-13 6.69603E-15
 -1      2079 1.91114E+01-9.67499E-01 1.37633E-02-2.88730E+00 9.64524E-14 2.74194E-13
 -1      2080 1.87959E+01-3.26374E-01-2.91193E-03-3.05900E+00 1.62561E-13 3.51403E-13
 -1      2081 1.89884E+01 3.00642E-01-5.33457E-02-3.69455E+00 7.19268E-14-9.12517E-14
 -1      2082 2.40942E+01-6.80460E-01-1.23053E-02-7.44753E-01 1.81861E-13 2.40696E-13
 -1      2083 2.23037E+01-9.01029E-01-8.92001E-02-2.54748E+00 1.08944E-13-7.04992E-14
 -1      2084 2.24960E+01 3.12289E+00-1.57574E-01-2.66818E+00 1.49894E-13-1.13673E-13
 -1      2085 2.88566E+01 4.13683E-01-2.82472E-02 4.60703E+00 1.81258E-13-5.60663E-15
 -1      2086 2.64668E+01-4.27718E-01-2.07597E-01 1.32844E+00 4.92453E-14 4.52527E-13
 -1      2087 2.73939E+01 4.57517E+00-1.78442E-01 4.34991E-01-3.35565E-14 1.98730E-13
 -1      2088 7.38655E+00 7.34265E+00-1.19567E+00 2.37575E+00-5.12812E-13 1.19682E-13
 -1      2089 1.81417E+01 2.02088E+00-5.28323E-01 1.83263E+01-4.10894E-13-4.64739E-13
 -1      2090 1.99604E+01 1.49727E+00-3.38318E-01-1.80195E+01-3.94573E-13-1.62648E-14
 -1      2091 1.55890E+01 6.14944E+00-1.99516E-01-1.80841E+01-3.89133E-13 3.73923E-13
 -1      2092 2.69356E+01-3.77672E+00-2.85949E-01-1.18098E+01-1.92901E-13-4.09450E-13
 -1      2093 2.58566E+01 2.25051E-01-1.71742E-01-1.64601E+01-3.07490E-13-3.34108E-13
 -1      2094 2.13835E+01-4.24500E+00-9.15696E-02 3.12238E+00-7.85483E-15 2.05336E-13
 -1      2095 2.27520E+01-4.60358E+00-9.61566E-02 1.33754E+00-2.22551E-13 5.66741E-13
 -1      2096 1.97103E+01-3.11213E+00-3.25565E-03 4.20942E+00 2.12316E-13 1.11189E-13
 -1      2097 2.05219E+01-4.47280E+00 6.40517E-02 4.02016E+00 8.89150E-14 2.35187E-13
 -1      2098 2.15584E+01 6.35287E-02-1.55686E-01 3.91023E+00-2.49939E-14 2.36755E-13
 -1      2099 3.05829E+01 2.74451E+00 3.74122E-01 1.68641E+01-1.32894E-13-5.50948E-13
 -1      2100 1.95227E+01 4.01618E+00-2.56693E-02-1.69992E+00-1.47103E-13-2.55723E-13
 -1      2101 1.96514E+01 3.94264E+00-2.43454E-02-1.95505E+00-1.78797E-13-2.12479E-13
 -1      2102 1.99734E+01 3.25324E+00-8.05452E-03-1.90812E+00-1.97005E-13-1.64051E-13
 -1      2103 1.96932E+01 3.58335E+00-9.29199E-03-1.51666E+00-1.42498E-13-2.38060E-13
 -1      2104 4.54774E+01 1.27270E+01 5.68571E-01 1.09210E+01-4.75953E-13-3.76921E-13
 -1      2105 4.14589E+01 1.18117E+01 4.15246E-01 1.16290E+01-4.15473E-13-5.01710E-13
 -1      2106 4.89387E+01 1.26970E+01 3.46267E-01 8.07210E+00-2.52354E-13-4.59993E-13
 -1      2107 4.69454E+01 1.34211E+01 3.43626E-01 1.00637E+01-3.53162E-13-3.14249E-13
 -1      2108 4.93908E+01 1.05004E+01 1.51040E-01 4.70625E+00 1.93290E-13-4.04343E-13
 -1      2109 5.08001E+01 1.18657E+01 3.86410E-01 7.27484E+00 5.86198E-14-3.99777E-13
 -1      2110 4.45459E+01 7.03534E+00 7.03697E-03 1.92546E+00 3.57325E-13-3.98570E-13
 -1      2111 4.86807E+01 8.78845E+00 3.52451E-01 3.51934E+00 3.08087E-13-5.10647E-13
 -1      2112 3.88068E+01 2.03946E+00-2.46688E-02-1.89183E+00 3.46639E-13-5.82867E-13
 -1      2113 4.32262E+01 4.05007E+00 1.64101E-01-2.40112E-01 3.40561E-13-4.18332E-13
 -1      2114 3.07894E+01-2.73126E+00-6.40648E-02-3.71436E+00 2.05669E-13-7.51177E-13
 -1      2115 3.63029E+01 3.47175E-02 2.64794E-01-3.62506E+00 2.03726E-13-6.71241E-13
 -1      2116 1.95690E+01-7.07362E+00-3.21550E-01-5.63089E+00 2.96874E-13-6.39766E-13
 -1      2117 2.55983E+01-5.35964E+00-1.21779E-01-5.57048E+00 3.24463E-13-7.79543E-13
 -1      2118 9.97535E+00-9.50287E+00-4.22902E-01-5.56813E+00 3.41283E-13-5.56003E-13
 -1      2119 1.47523E+01-7.38336E+00-1.36660E-01-6.62122E+00 4.14224E-13-6.95860E-13
 -1      2120 3.25185E+00-1.04186E+01-3.46859E-01-4.21736E+00 2.15883E-13-4.23273E-13
 -1      2121 6.22830E+00-9.44895E+00-2.49229E-01-5.36155E+00 2.97540E-13-4.39482E-13
 -1      2122-4.26970E-01-1.11648E+01-4.34220E-01-8.13373E-01 1.20244E-13 2.09943E-13
 -1      2123 6.03093E-01-9.83522E+00-2.48031E-01-2.43982E+00 2.62929E-13-1.85019E-13
 -1      2124 5.61674E-01-1.04864E+01-3.12208E-01 2.19796E+00 4.24105E-14-3.77476E-14
 -1      2125-3.97832E-01-1.13142E+01-4.19694E-01 7.02959E-01 2.51466E-14 2.18936E-13
 -1      2126 7.32135E-01-7.73869E+00-1.90306E-01-5.93378E-02 1.12053E-13 3.72480E-14
 -1      2127 6.20471E+00-9.38708E+00-2.12300E-01 5.18417E+00 1.24123E-13-5.14144E-13
 -1      2128 3.11590E+00-1.08032E+01-4.17318E-01 3.82017E+00 1.49936E-13-2.79998E-13
 -1      2129 1.48955E+01-7.64951E+00-9.92988E-02 6.35565E+00 1.63203E-14-1.57901E-13
 -1      2130 1.03726E+01-9.67317E+00-3.92529E-01 5.48061E+00 2.14162E-13-4.65961E-13
 -1      2131 2.36721E+01-4.96522E+00-2.91926E-02 6.23906E+00-2.39808E-13 2.55518E-13
 -1      2132 1.81694E+01-7.34395E+00-3.95689E-01 5.57612E+00-4.27436E-14 7.57727E-14
 -1      2133 1.92703E+01-8.68099E+00-7.32988E-02 6.20587E+00 6.98330E-14 1.94428E-13
 -1      2134 3.49050E+01-9.64983E-01 1.64997E-01 4.41949E+00 1.19071E-13-3.54605E-13
 -1      2135 2.86356E+01-3.28119E+00-2.31742E-01 4.46322E+00-6.62803E-14-1.09468E-13
 -1      2136 4.39460E+01 3.38154E+00 2.89555E-01 1.31624E+00 1.80946E-13-3.45723E-13
 -1      2137 3.82263E+01 1.37553E+00-5.33517E-02 2.39152E+00 1.75804E-13-4.32876E-13
 -1      2138 4.86755E+01 7.67289E+00 2.35191E-01-2.72591E+00-3.55271E-15-2.38254E-13
 -1      2139 4.60099E+01 5.90084E+00 1.79531E-01-4.60041E-01 1.17073E-13-2.83551E-13
 -1      2140 5.06288E+01 1.13629E+01 4.13235E-01-6.29807E+00 1.06803E-13-2.24820E-15
 -1      2141 4.83191E+01 1.02372E+01 1.50060E-01-4.22331E+00 7.41629E-14-2.80331E-14
 -1      2142 4.83225E+01 1.31616E+01 3.60335E-01-9.26592E+00-5.93414E-14-1.55431E-13
 -1      2143 5.04691E+01 1.21672E+01 3.70053E-01-7.29111E+00-4.99600E-15-5.33011E-14
 -1      2144 4.29313E+01 1.38030E+01 4.61641E-01-5.62932E+00-2.35367E-14 2.18041E-13
 -1      2145 4.26365E+01 1.17021E+01 4.96063E-01-1.13229E+01 1.90847E-13-4.14113E-14
 -1      2146 4.63110E+01 1.24978E+01 5.54481E-01-1.01747E+01 1.24456E-13-5.31797E-14
 -1      2147 3.70634E+01 7.90122E+00 8.40175E-01-1.48143E+01 1.05249E-13-5.05818E-13
 -1      2148 4.07558E+01 1.03670E+01 8.35823E-01-1.40361E+01 2.39697E-13-4.87721E-13
 -1      2149 2.76381E+01 6.46169E-01-4.50781E-02-1.72799E+01-1.60982E-14-3.42837E-13
 -1      2150 3.27196E+01 4.52965E+00 5.56445E-01-1.67950E+01-4.08562E-14-3.27627E-13
 -1      2151 2.45984E+01 1.88065E+00 9.40876E-02-1.92535E+01-2.67342E-13-2.50244E-13
 -1      2152 3.98197E+01 9.92915E+00 7.86833E-01 1.36854E+01-4.20323E-13-4.73732E-13
 -1      2153 3.55173E+01 6.91619E+00 4.56095E-01 1.43298E+01-1.99618E-13-5.14144E-13
 -1      2154 3.36654E+01 3.86289E+00 4.41535E-01 1.41252E+01-6.83897E-14-6.35381E-13
 -1      2155 2.88694E+01-1.37609E+00 9.86044E-02 1.27621E+01-9.18987E-14-5.20584E-13
 -1      2156 2.90370E+01-5.02761E+00 6.42111E-03-3.65821E+00 1.71474E-13-6.58529E-13
 -1      2157 3.14387E+01-5.30300E+00-2.80458E-01-1.33042E+00 6.72240E-14-3.71647E-13
 -1      2158 2.77091E+01-6.91358E+00 1.74080E-01-3.65411E+00 1.78524E-13-4.79033E-13
 -1      2159 2.07383E+01 1.10872E+00-2.05677E-02-1.61531E+00-2.07251E-13 1.44556E-13
 -1      2160 2.06280E+01 1.32948E+00-1.88430E-02-1.67655E+00-2.26884E-13 2.72837E-14
 -1      2161 1.85556E+01-3.17900E-01-5.72205E-03 4.07366E+00 1.95899E-13 1.48860E-13
 -1      2162 3.74783E+01 8.29671E+00 4.92491E-01 8.43686E+00-3.15581E-13-4.36096E-13
 -1      2163 4.30568E+01 1.14270E+01 3.29651E-01 5.35637E+00 2.44360E-13-2.57655E-13
 -1      2164 3.68822E+01-8.01011E-02 1.60014E-01 3.76578E-01 1.63747E-13-3.66429E-13
 -1      2165 3.29823E+01 1.90419E+00-6.40616E-02 1.02099E+01-6.43478E-14-5.43343E-13
 -1      2166 1.94958E+01-1.52909E+00-6.13230E-02 4.35067E+00 2.79277E-13 2.68408E-13
 -1      2167 1.05564E+01-8.81439E+00-1.29441E-01-6.66232E+00 3.54383E-13-5.54057E-13
 -1      2168 4.00565E+01 1.29840E+01 4.69076E-01 6.37159E+00-3.11584E-13-9.18710E-14
 -1      2169 2.60872E+01-4.02207E+00-3.15712E-01-7.33245E+00-2.38226E-13-3.05755E-13
 -1      2170 2.99528E+01-1.01686E+00 4.41419E-02-1.13464E+01-6.58223E-14-3.83082E-13
 -1      2171 3.31299E+01 3.23787E+00 2.64308E-01-1.23358E+01-1.68920E-13-4.61409E-13
 -1      2172 2.47138E+01-6.05158E+00-2.94315E-01-2.96436E+00-3.62373E-13 5.96745E-13
 -1      2173 3.44362E+00-8.18582E+00-1.25949E-01-4.12031E+00 1.65645E-13-3.09752E-13
 -1      2174 1.99273E+01-8.14320E+00 3.34546E-02-6.35396E+00 4.13558E-13-6.67494E-13
 -1      2175 4.11188E+01 5.84706E+00 2.26577E-01 3.27806E+00 2.82357E-13-2.38476E-13
 -1      2176 2.84803E+01-2.75894E+00-2.04594E-01 8.26703E+00 1.70391E-13-4.66627E-13
 -1      2177 4.17180E+01 1.29288E+01 4.83733E-01-6.21217E+00-6.69464E-14 2.34368E-13
 -1      2178 4.35531E+01 1.01853E+01 3.18453E-01-4.79969E+00 4.54636E-14 3.25850E-14
 -1      2179 4.18110E+01 4.69282E+00 3.15395E-01-2.74595E+00 1.90681E-13-2.73670E-13
 -1      2180 2.82459E+01-6.18244E+00 3.30870E-02 3.99757E+00-1.00364E-13 9.10938E-14
 -1      2181 3.42804E+00-8.27965E+00-1.59435E-01 4.03102E+00 1.17295E-13-1.27121E-13
 -1      2182 4.27883E+01 1.40341E+01 4.48421E-01 6.00418E+00-1.74638E-13-1.19245E-13
 -1      2183 1.08979E+01-8.94453E+00-1.15004E-01 6.49028E+00 1.37779E-13-3.21104E-13
 -1      2184 3.66529E+01-1.22299E+00 1.71611E-01 3.74191E-01 1.44523E-13-3.44058E-13
 -1      2185 3.84983E+01 8.90438E+00 5.83102E-01-8.50633E+00 1.29285E-13 1.04583E-13
 -1      2186 1.95584E+01 3.51675E+00-1.11256E-02-5.91043E-01-2.17968E-14-2.51313E-13
 -1      2187 1.95941E+01 3.47083E+00-1.05144E-02-7.75304E-01-4.94265E-14-2.70894E-13
 -1      2188 1.96410E+01 3.38270E+00-1.28048E-02-9.39694E-01-6.56778E-14-2.54757E-13
 -1      2189 1.97021E+01 3.30209E+00-1.28755E-02-1.12886E+00-1.02887E-13-2.31099E-13
 -1      2190 1.97855E+01 3.03401E+00 1.92467E-04-7.91595E-01-5.28725E-14-2.40970E-13
 -1      2191 1.95107E+01 3.59935E+00-9.62713E-03 9.93881E-02 6.76981E-14-2.55281E-13
 -1      2192 1.95100E+01 3.60018E+00-9.62218E-03-7.99805E-02 4.62716E-14-2.61107E-13
 -1      2193 1.95371E+01 3.55997E+00-9.71720E-03 4.45131E-01 1.07648E-13-2.42650E-13
 -1      2194 1.95195E+01 3.58259E+00-1.01377E-02 2.64417E-01 8.60086E-14-2.51115E-13
 -1      2195 1.96767E+01 3.22229E+00-9.08160E-04 1.69461E-01 7.64262E-14-2.33384E-13
 -1      2196 1.95991E+01 3.46323E+00-1.07090E-02 7.89002E-01 1.51575E-13-2.22267E-13
 -1      2197 1.95628E+01 3.51033E+00-1.12406E-02 6.07589E-01 1.28487E-13-2.33723E-13
 -1      2198 1.97141E+01 3.15890E+00-4.44646E-04 4.87474E-01 1.14166E-13-2.16283E-13
 -1      2199 1.97106E+01 3.28904E+00-1.31178E-02 1.14194E+00 2.04794E-13-1.71732E-13
 -1      2200 1.96474E+01 3.37262E+00-1.30425E-02 9.52661E-01 1.79954E-13-2.05045E-13
 -1      2201 1.97918E+01 3.02511E+00 3.79733E-04 8.03150E-01 1.59701E-13-1.94299E-13
 -1      2202 1.98906E+01 3.00296E+00-1.84575E-02 1.48919E+00 2.45791E-13-1.14029E-13
 -1      2203 1.97908E+01 3.14415E+00-1.54657E-02 1.29875E+00 2.15479E-13-1.45595E-13
 -1      2204 1.99221E+01 2.79883E+00 1.80227E-03 1.10867E+00 2.12506E-13-1.43609E-13
 -1      2205 2.01695E+01 2.53696E+00-2.85398E-02 1.78791E+00 2.66987E-13-1.18603E-14
 -1      2206 2.00178E+01 2.78378E+00-1.73816E-02 1.62038E+00 2.46357E-13-7.38472E-14
 -1      2207 2.01179E+01 2.44754E+00 5.54109E-03 1.37619E+00 2.38017E-13-8.24835E-14
 -1      2208 2.05860E+01 1.78540E+00-2.96468E-02 1.88725E+00 2.75221E-13 1.43819E-13
 -1      2209 2.03635E+01 2.22686E+00-1.07204E-02 1.85079E+00 2.73774E-13 5.35162E-14
 -1      2210 2.03830E+01 1.91323E+00 1.32369E-02 1.53045E+00 2.45863E-13 3.97772E-14
 -1      2211 2.07922E+01 1.06895E+00-1.78319E-02 1.59035E+00 2.42764E-13 2.92062E-13
 -1      2212 2.06817E+01 1.54288E+00 3.24319E-03 1.79445E+00 2.65853E-13 2.05029E-13
 -1      2213 2.05324E+01 1.28601E+00 1.07766E-02 1.42641E+00 2.59249E-13 1.44435E-13
 -1      2214 2.04519E+01 7.41914E-01-2.12463E-03 1.10594E+00 2.39761E-13 2.66861E-13
 -1      2215 2.04033E+01 8.54613E-01 1.31824E-02-9.99480E-01-1.82124E-13-2.66616E-14
 -1      2216 2.01912E+01 6.27389E-01-4.51244E-03-6.90163E-01-1.58820E-13-1.69185E-14
 -1      2217 1.97075E+01 1.43615E-01 3.16796E-03 5.85623E-02 9.74804E-14 9.66013E-14
 -1      2218 1.97857E+01 1.99008E-01 1.22316E-02 1.45079E-01 1.15274E-13 1.23755E-13
 -1      2219 1.98723E+01 2.71937E-01 5.07382E-03 2.85293E-01 1.51164E-13 1.36000E-13
 -1      2220 2.00246E+01 3.66028E-01 1.62956E-02 4.47208E-01 1.83339E-13 1.81903E-13
 -1      2221 1.99950E+01 3.40405E-01-4.41084E-03 3.02403E-01 1.59424E-13 8.51877E-14
 -1      2222 2.05483E+01 1.95549E+00-1.36761E-02-1.90081E+00-2.18074E-13-5.36585E-14
 -1      2223 2.04120E+01 1.21679E+00-6.34502E-03-1.28666E+00-2.05713E-13-4.52388E-14
 -1      2224 2.03750E+01 1.37629E+00 3.96663E-03-1.23073E+00-1.90294E-13-7.04827E-14
 -1      2225 2.02881E+01 2.36509E+00-7.74562E-03-1.82521E+00-2.12719E-13-1.02808E-13
 -1      2226 2.01264E+01 4.69671E-01 1.61900E-02-4.74007E-01-1.27638E-13-3.76121E-15
 -1      2227 1.99852E+01 3.44729E-01-4.71994E-05-3.02316E-01-8.94198E-14-1.86212E-15
 -1      2228 2.02447E+01 7.45863E-01-2.21502E-03-6.91857E-01-1.42105E-13-4.81260E-14
 -1      2229 1.99220E+01 2.59666E-01 1.08265E-02-1.64772E-01-9.12440E-14 3.55510E-16
 -1      2230 1.98435E+01 1.88139E-01 6.80625E-04-6.75441E-02-9.02817E-14-2.01710E-14
 -1      2231 2.00816E+01 4.16613E-01-3.75797E-03-3.08953E-01-1.00015E-13-5.17335E-14
 -1      2232 1.97991E+01 1.38623E-01 6.37709E-03 1.44965E-02-6.83927E-14-4.30958E-14
 -1      2233 1.97642E+01 9.62546E-02 7.08741E-04 6.77928E-02-5.34125E-14-5.23857E-14
 -1      2234 1.99611E+01 2.27337E-01-3.65196E-03-7.00507E-02-9.20320E-14-7.72986E-14
 -1      2235 1.97383E+01 6.63074E-02 3.57338E-03 1.13464E-01-4.59161E-14-9.05303E-14
 -1      2236 1.97311E+01 4.07154E-02 6.11011E-04 1.39976E-01-4.82739E-14-9.72034E-14
 -1      2237 1.98854E+01 1.14848E-01-2.92999E-03 7.05860E-02-7.72072E-14-1.22253E-13
 -1      2238 1.97194E+01 2.23932E-02 1.85302E-03 1.62127E-01-6.76280E-14-9.83620E-14
 -1      2239 1.97286E+01 7.06058E-03 4.87076E-04 1.72149E-01-4.15456E-14-9.45937E-14
 -1      2240 1.98457E+01 4.65586E-02-2.11441E-03 1.46640E-01-6.41073E-14-1.14972E-13
 -1      2241 1.97265E+01-3.94556E-03 7.91062E-04 1.79369E-01-4.55633E-14-1.16419E-13
 -1      2242 1.97446E+01-1.27451E-02 3.65212E-04 1.79377E-01-6.35182E-14-1.27295E-13
 -1      2243 1.98315E+01 5.25296E-03-1.42378E-03 1.80950E-01-6.41365E-14-1.32453E-13
 -1      2244 1.97486E+01-1.89940E-02 1.40415E-04 1.77437E-01-8.33935E-14-1.29714E-13
 -1      2245 1.97706E+01-2.35543E-02 2.60424E-04 1.71631E-01-1.14426E-13-1.25676E-13
 -1      2246 1.98337E+01-1.88730E-02-9.01011E-04 1.88923E-01-8.48244E-14-1.66677E-13
 -1      2247 1.97779E+01-2.66758E-02-2.43680E-04 1.64421E-01-7.05821E-14-5.36157E-14
 -1      2248 1.98007E+01-2.84870E-02 1.77967E-04 1.55563E-01-1.48247E-14-3.04218E-14
 -1      2249 1.98457E+01-3.18269E-02-5.27741E-04 1.80976E-01-5.37271E-14-1.17670E-13
 -1      2250 1.98095E+01-2.95677E-02-4.52085E-04 1.45687E-01 2.22893E-15-4.58496E-14
 -1      2251 1.98313E+01-2.96296E-02 1.17453E-04 1.35584E-01 1.19992E-14-1.21900E-14
 -1      2252 1.98628E+01-3.74959E-02-2.72273E-04 1.64141E-01-2.47897E-14-6.64827E-14
 -1      2253 1.98404E+01-2.94104E-02-5.45180E-04 1.24763E-01-4.54704E-15 2.16945E-14
 -1      2254 1.98601E+01-2.84003E-02 7.63200E-05 1.14579E-01 2.01239E-15 1.31001E-14
 -1      2255 1.98816E+01-3.84842E-02-1.05058E-04 1.43122E-01 3.24972E-14 1.12503E-14
 -1      2256 1.98688E+01-2.73863E-02-5.64318E-04 1.03919E-01-2.46835E-14-3.17127E-15
 -1      2257 1.98860E+01-2.57578E-02 5.18734E-05 9.43742E-02-5.33747E-14-2.68206E-15
 -1      2258 1.99004E+01-3.65586E-02-2.31051E-06 1.21007E-01-2.81559E-14 5.16040E-14
 -1      2259 1.98939E+01-2.42853E-02-5.38045E-04 8.45613E-02-6.91902E-14 4.50312E-16
 -1      2260 1.99085E+01-2.23299E-02 4.21746E-05 7.60857E-02-6.11207E-14 2.41491E-14
 -1      2261 1.99178E+01-3.29063E-02 5.40430E-05 9.97701E-02-6.28579E-14 2.75054E-14
 -1      2262 1.99155E+01-2.06110E-02-4.85944E-04 6.75282E-02-9.77140E-14 3.75656E-14
 -1      2263 1.99276E+01-1.85005E-02 4.63256E-05 6.03645E-02-9.07337E-14 4.84160E-14
 -1      2264 1.99335E+01-2.82971E-02 7.72562E-05 8.06253E-02-7.52114E-14 8.48586E-14
 -1      2265 1.99338E+01-1.66539E-02-4.21205E-04 5.32990E-02-1.06888E-13 1.88586E-14
 -1      2266 1.99439E+01-1.44699E-02 6.45211E-05 4.75830E-02-9.83363E-14-3.39288E-14
 -1      2267 1.99473E+01-2.31922E-02 7.67312E-05 6.42999E-02-1.24816E-13 5.92781E-14
 -1      2268 1.99493E+01-1.25431E-02-3.52448E-04 4.21542E-02-4.95019E-14-9.54847E-14
 -1      2269 1.99579E+01-1.02984E-02 9.80331E-05 3.79758E-02-1.01965E-14-2.68361E-14
 -1      2270 1.99594E+01-1.78202E-02 5.88680E-05 5.12311E-02-8.71059E-14 1.70152E-14
 -1      2271 1.99627E+01-8.28395E-03-2.85050E-04 3.42975E-02-6.64454E-14-7.00504E-14
 -1      2272 1.99703E+01-5.93747E-03 1.49185E-04 3.17462E-02-1.05742E-13-7.80910E-14
 -1      2273 1.99702E+01-1.22320E-02 2.77679E-05 4.17182E-02-7.34235E-14-3.41116E-14
 -1      2274 1.99750E+01-3.78464E-03-2.22138E-04 2.99487E-02-7.63859E-14-5.18593E-14
 -1      2275 1.99822E+01-1.25225E-03 2.21329E-04 2.91505E-02-1.71149E-14-7.26193E-14
 -1      2276 1.99802E+01-6.34017E-03-1.41900E-05 3.60389E-02-8.88072E-14-6.21742E-14
 -1      2277 1.99870E+01 1.12492E-03-1.65351E-04 2.94173E-02 2.17773E-14-1.18104E-13
 -1      2278 1.99945E+01 3.96306E-03 3.18801E-04 3.05637E-02 9.65609E-14-1.23890E-13
 -1      2279 1.99901E+01 5.30115E-05-6.58669E-05 3.45393E-02-1.03406E-14-1.14813E-13
 -1      2280 1.99999E+01 6.67964E-03-1.15414E-04 3.31614E-02 1.49547E-13-1.42507E-13
 -1      2281 2.00087E+01 9.97379E-03 4.46852E-04 3.65329E-02 1.44446E-13-1.16706E-13
 -1      2282 2.00008E+01 7.23606E-03-1.26939E-04 3.77051E-02 1.13167E-13-1.33115E-13
 -1      2283 2.00151E+01 1.31692E-02-7.26012E-05 4.18347E-02 9.74251E-14-5.93589E-14
 -1      2284 2.00261E+01 1.70954E-02 6.11470E-04 4.78204E-02 1.08888E-13-6.21186E-14
 -1      2285 2.00132E+01 1.55732E-02-1.97492E-04 4.62179E-02 1.34089E-13-6.92594E-14
 -1      2286 2.00342E+01 2.09287E-02-3.71029E-05 5.63242E-02 6.86423E-14-7.63675E-14
 -1      2287 2.00485E+01 2.56835E-02 8.19074E-04 6.54360E-02 1.11274E-14-1.30746E-13
 -1      2288 2.00284E+01 2.54914E-02-2.77595E-04 6.09993E-02 4.25620E-14-5.40871E-14
 -1      2289 2.00588E+01 3.03267E-02-9.32308E-06 7.77766E-02-4.51013E-14-1.83709E-13
 -1      2290 2.00778E+01 3.61188E-02 1.07594E-03 9.06580E-02-4.26331E-14-2.12112E-13
 -1      2291 2.00476E+01 3.74645E-02-3.66831E-04 8.32407E-02-3.62296E-14-3.92845E-14
 -1      2292 2.00911E+01 4.17465E-02 9.89513E-06 1.07609E-01-2.83764E-14-2.09729E-13
 -1      2293 2.01164E+01 4.87822E-02 1.38721E-03 1.25034E-01 1.44137E-14-1.64592E-13
 -1      2294 2.00724E+01 5.19905E-02-4.63749E-04 1.14417E-01-1.87888E-14-8.83094E-14
 -1      2295 2.01335E+01 5.55533E-02 1.91607E-05 1.47499E-01 4.39132E-14-1.27249E-13
 -1      2296 2.01667E+01 6.40103E-02 1.75525E-03 1.70352E-01 7.21241E-15 5.87004E-14
 -1      2297 2.01043E+01 6.95506E-02-5.65269E-04 1.56276E-01 4.09719E-14-8.38869E-14
 -1      2298 2.01885E+01 7.20359E-02 1.66607E-05 1.99328E-01-2.47947E-14-5.14655E-15
 -1      2299 2.02319E+01 8.20171E-02 2.17693E-03 2.28562E-01 1.67124E-14 1.25655E-15
 -1      2300 2.01452E+01 9.05395E-02-6.66122E-04 2.10786E-01 2.94729E-14-3.13019E-14
 -1      2301 2.02592E+01 9.13038E-02 7.73762E-07 2.65072E-01-7.80685E-15-2.72112E-14
 -1      2302 2.03149E+01 1.02755E-01 2.63925E-03 3.01617E-01 2.95056E-14 4.75375E-16
 -1      2303 2.01968E+01 1.15142E-01-7.58573E-04 2.80021E-01-1.27978E-14-3.94942E-14
 -1      2304 2.03488E+01 1.13107E-01-2.83414E-05 3.46579E-01-1.04482E-14-1.07352E-13
 -1      2305 2.04190E+01 1.25675E-01 3.11247E-03 3.91166E-01-4.57487E-14-7.45916E-14
 -1      2306 2.02611E+01 1.43121E-01-8.32981E-04 3.65951E-01-4.53357E-14 6.27599E-14
 -1      2307 2.04605E+01 1.36527E-01-6.53188E-05 4.45174E-01-3.05943E-14-9.73060E-14
 -1      2308 2.05475E+01 1.49318E-01 3.53961E-03 4.98043E-01 8.44702E-16-1.48264E-14
 -1      2309 2.03402E+01 1.73446E-01-8.80271E-04 4.70073E-01-3.34006E-14-1.13130E-13
 -1      2310 2.05975E+01 1.59450E-01-9.29067E-05 5.60993E-01-1.56051E-14-3.60843E-14
 -1      2311 2.07031E+01 1.70632E-01 3.82119E-03 6.21381E-01-7.97143E-14 5.35629E-14
 -1      2312 2.04358E+01 2.03682E-01-8.98252E-04 5.92792E-01-2.41914E-14-1.45344E-14
 -1      2313 2.07629E+01 1.77717E-01-6.99726E-05 6.91876E-01-1.07901E-13 9.98287E-14
 -1      2314 2.08883E+01 1.83884E-01 3.79438E-03 7.57191E-01-2.96750E-14 1.40832E-13
 -1      2315 2.05499E+01 2.28981E-01-9.04876E-04 7.32447E-01-3.60354E-14 6.43395E-15
 -1      2316 2.09597E+01 1.83778E-01 8.81936E-05 8.31598E-01-3.23788E-14 1.54339E-13
 -1      2317 2.11047E+01 1.79020E-01 3.20782E-03 8.96125E-01-1.16829E-14 1.43752E-13
 -1      2318 2.06847E+01 2.40512E-01-9.62580E-04 8.83770E-01-5.56368E-14 4.06546E-13
 -1      2319 2.11911E+01 1.64782E-01 5.38614E-04 9.67147E-01 3.55688E-14 9.91862E-14
 -1      2320 2.13537E+01 1.39471E-01 1.69609E-03 1.02015E+00 7.74423E-14 6.12964E-14
 -1      2321 2.08440E+01 2.23186E-01-1.21680E-03 1.03558E+00 2.86365E-16 3.42525E-13
 -1      2322 2.14617E+01 1.00231E-01 1.54019E-03 1.07473E+00 6.14366E-14 1.16440E-13
 -1      2323 2.16371E+01 3.98909E-02-1.22630E-03 1.09792E+00 7.96478E-14 1.48407E-13
 -1      2324 2.10350E+01 1.52793E-01-1.94389E-03 1.16741E+00 1.13456E-13 3.15263E-13
 -1      2325 2.17790E+01-3.97807E-02 3.46698E-03 1.11437E+00 1.47217E-13 1.90827E-13
 -1      2326 2.19592E+01-1.54350E-01-6.12708E-03 1.07925E+00 1.66961E-13 1.85914E-13
 -1      2327 2.12722E+01-6.46957E-03-3.57020E-03 1.24485E+00 2.01216E-13 2.62104E-13
 -1      2328 2.21551E+01-2.92854E-01 6.67908E-03 1.02382E+00 9.58515E-14 2.13512E-13
 -1      2329 2.23272E+01-4.81380E-01-1.35079E-02 8.90241E-01 5.45545E-14 2.24213E-13
 -1      2330 2.15820E+01-3.00972E-01-6.57971E-03 1.21360E+00 1.11566E-13 2.14625E-13
 -1      2331 2.26045E+01-6.92465E-01 1.12300E-02 7.14083E-01 1.11189E-13 1.88429E-13
 -1      2332 2.27476E+01-9.61168E-01-2.33382E-02 4.33848E-01 8.58124E-14 3.04134E-13
 -1      2333 2.20061E+01-7.76599E-01-1.11691E-02 9.93206E-01 6.62454E-14 3.25270E-13
 -1      2334 2.31299E+01-1.23398E+00 1.55831E-02 7.47598E-02-3.34455E-15 2.73428E-13
 -1      2335 2.32090E+01-1.54396E+00-3.37687E-02-3.92751E-01-5.86579E-14 3.36006E-13
 -1      2336 2.25954E+01-1.44192E+00-1.60678E-02 4.73916E-01 5.03725E-14 1.57098E-13
 -1      2337 2.36822E+01-1.80525E+00 1.56769E-02-9.91127E-01-1.19297E-13 5.00731E-13
 -1      2338 2.36411E+01-2.02576E+00-3.89857E-02-1.63982E+00 1.91652E-14 5.21099E-13
 -1      2339 2.33748E+01-2.19167E+00-1.75771E-02-4.68622E-01-8.45417E-15 3.81104E-13
 -1      2340 2.40944E+01-2.09916E+00 3.19802E-03-2.46820E+00 5.32890E-14 3.60827E-13
 -1      2341 2.38608E+01-1.98113E+00-2.92686E-02-3.17883E+00 1.51766E-13 2.92780E-13
 -1      2342 2.42629E+01-2.69019E+00-8.44007E-03-1.90581E+00-5.27493E-14 5.05613E-13
 -1      2343 2.40446E+01-1.60552E+00-3.13935E-02-4.04364E+00 3.16936E-13 2.04986E-13
 -1      2344 2.35792E+01-8.83167E-01 1.40103E-03-4.52184E+00 2.66101E-13 2.07873E-13
 -1      2345 2.49626E+01-2.32833E+00 1.18797E-02-3.68334E+00 1.57755E-13 4.59288E-13
 -1      2346 2.31917E+01 1.07770E-01-8.36357E-02-4.94405E+00 4.35658E-14 2.22928E-13
 -1      2347 2.25474E+01 1.38299E+00 2.70504E-02-4.76028E+00-1.10852E-13 2.30972E-13
 -1      2348 2.49611E+01-4.83058E-01 2.32888E-02-5.17578E+00 1.52770E-13 3.48254E-13
 -1      2349 2.16281E+01 2.66725E+00-1.09483E-01-4.19700E+00-2.73188E-13 1.83135E-13
 -1      2350 2.09908E+01 3.87149E+00 2.57702E-02-3.14046E+00-2.96374E-13 1.04020E-13
 -1      2351 2.39038E+01 2.52079E+00-8.58764E-03-5.20489E+00-1.89931E-13 5.56277E-13
 -1      2352 2.00196E+01 4.62196E+00-6.76353E-02-1.50824E+00-2.33091E-13 1.28843E-13
 -1      2353 1.96348E+01 4.80803E+00-1.38633E-02 5.99572E-02-2.05350E-13 2.15969E-13
 -1      2354 2.22485E+01 5.46397E+00-3.69496E-02-3.01256E+00-3.16601E-13 3.83506E-13
 -1      2355 1.90458E+01 4.24021E+00-5.79328E-03 1.98905E+00-4.79894E-14 3.01411E-13
 -1      2356 1.90777E+01 3.00875E+00-5.96551E-02 3.19088E+00-2.81650E-14 3.18287E-13
 -1      2357 2.07270E+01 5.87610E+00-3.85172E-02 6.65453E-01-1.28030E-13 4.10765E-13
 -1      2358 2.00993E+01 4.33077E-01 6.46161E-03 5.93113E-01 2.04152E-13 2.07273E-13
 -1      2359 2.03425E+01 5.97975E-01 1.20650E-02 8.73002E-01 2.22083E-13 2.38262E-13
 -1      2360 2.03846E+01 8.12276E-01-5.84851E-03 1.04245E+00 2.36346E-13 1.80446E-13
 -1      2361 2.01706E+01 5.24105E-01-1.10666E-02 6.24350E-01 1.98893E-13 1.27000E-13
 -1      2362 1.96268E+01 7.25882E-02 2.06470E-03-6.74073E-02 6.42366E-14 8.17247E-14
 -1      2363 1.96539E+01 1.04276E-01 6.82588E-03-2.12205E-02 8.02260E-14 8.24453E-14
 -1      2364 1.98512E+01 1.80806E-01-4.05504E-03 6.39196E-02 1.07757E-13 1.40077E-14
 -1      2365 1.96035E+01 3.08447E-02 1.34922E-03-1.33182E-01 5.34281E-14 5.55355E-14
 -1      2366 1.96002E+01 4.97138E-02 3.68173E-03-1.10611E-01 6.27130E-14 6.86270E-14
 -1      2367 1.97705E+01 8.99727E-02-3.15377E-03-7.29147E-02 8.43159E-14 2.19325E-14
 -1      2368 1.96159E+01 5.74958E-03 8.70666E-04-1.61730E-01 2.39726E-14 7.83370E-14
 -1      2369 1.95956E+01 1.70418E-02 1.82122E-03-1.53459E-01 3.04659E-14 5.63251E-14
 -1      2370 1.97366E+01 3.60341E-02-2.26860E-03-1.45410E-01 5.63047E-14 3.15826E-14
 -1      2371 1.96483E+01-8.96243E-03 5.45034E-04-1.67396E-01 2.05370E-14 1.00158E-13
 -1      2372 1.96197E+01-2.47401E-03 7.15135E-04-1.67716E-01 1.22823E-14 8.87229E-14
 -1      2373 1.97334E+01 3.80679E-03-1.50240E-03-1.77249E-01 6.83368E-15 5.37508E-14
 -1      2374 1.96903E+01-1.69918E-02 3.16195E-04-1.59517E-01-2.98015E-14 1.07055E-13
 -1      2375 1.96589E+01-1.35989E-02 5.90836E-05-1.64783E-01 2.11228E-14 1.25142E-13
 -1      2376 1.97487E+01-1.48654E-02-9.25462E-04-1.83849E-01-1.99777E-15 9.16909E-14
 -1      2377 1.97352E+01-2.06862E-02 1.58266E-04-1.44200E-01 3.94238E-14 9.17205E-14
 -1      2378 1.97042E+01-1.92927E-02-3.18556E-04-1.52042E-01-1.54564E-14 1.12660E-13
 -1      2379 1.97741E+01-2.48271E-02-5.18244E-04-1.75407E-01 4.89783E-15 1.32025E-13
 -1      2380 1.97786E+01-2.15935E-02 5.39925E-05-1.25447E-01 4.57664E-14 1.02907E-13
 -1      2381 1.97500E+01-2.14723E-02-5.17415E-04-1.34323E-01 5.70065E-14 9.32681E-14
 -1      2382 1.98036E+01-2.91636E-02-2.43777E-04-1.58663E-01 4.96563E-14 8.67258E-14
 -1      2383 1.98184E+01-2.07590E-02-9.98612E-06-1.05852E-01 4.32828E-14 1.46906E-13
 -1      2384 1.97931E+01-2.14190E-02-6.00353E-04-1.14776E-01 3.29465E-14 1.29376E-13
 -1      2385 1.98337E+01-2.99057E-02-6.71937E-05-1.38075E-01 1.53904E-14 1.31651E-13
 -1      2386 1.98533E+01-1.88882E-02-4.37933E-05-8.70470E-02 2.63283E-14 1.62185E-13
 -1      2387 1.98317E+01-2.00004E-02-6.09464E-04-9.54099E-02 6.72605E-14 1.77054E-13
 -1      2388 1.98620E+01-2.84202E-02 3.90111E-05-1.16543E-01 4.22024E-14 1.44615E-13
 -1      2389 1.98830E+01-1.64456E-02-5.45716E-05-7.00170E-02 4.19149E-14 7.54063E-14
 -1      2390 1.98650E+01-1.77967E-02-5.73418E-04-7.74600E-02 3.07637E-14 1.13674E-13
 -1      2391 1.98875E+01-2.56241E-02 9.52744E-05-9.59062E-02 7.28566E-14 1.07528E-13
 -1      2392 1.99078E+01-1.37181E-02-4.68673E-05-5.53226E-02 9.34449E-14 3.78390E-14
 -1      2393 1.98931E+01-1.51805E-02-5.11590E-04-6.16479E-02 3.58112E-14 4.33046E-14
 -1      2394 1.99097E+01-2.21141E-02 1.16349E-04-7.72825E-02 6.09483E-14 4.40907E-14
 -1      2395 1.99284E+01-1.08596E-02-2.30243E-05-4.32695E-02 1.08579E-13 7.14894E-14
 -1      2396 1.99164E+01-1.23700E-02-4.36742E-04-4.83720E-02 1.26358E-13 7.16208E-14
 -1      2397 1.99287E+01-1.82508E-02 1.12567E-04-6.13253E-02 6.70323E-14 5.78972E-15
 -1      2398 1.99455E+01-7.92321E-03 1.64860E-05-3.40330E-02 6.45542E-14 1.38026E-13
 -1      2399 1.99357E+01-9.46716E-03-3.56891E-04-3.78495E-02 9.06688E-14 1.25294E-13
 -1      2400 1.99447E+01-1.42187E-02 9.08603E-05-4.84102E-02 7.12619E-14 1.55463E-13
 -1      2401 1.99602E+01-4.88424E-03 7.28039E-05-2.77543E-02-5.06733E-14 2.10835E-13
 -1      2402 1.99518E+01-6.48503E-03-2.76644E-04-3.02240E-02 1.95424E-14 1.90728E-13
 -1      2403 1.99585E+01-1.00678E-02 5.55587E-05-3.87768E-02-2.75169E-14 2.72698E-13
 -1      2404 1.99736E+01-1.65748E-03 1.48469E-04-2.46133E-02-1.12090E-13 1.45498E-13
 -1      2405 1.99660E+01-3.36804E-03-1.98186E-04-2.56475E-02-7.89089E-14 1.64224E-13
 -1      2406 1.99708E+01-5.74497E-03 9.02916E-06-3.26358E-02-5.76240E-14 2.58338E-13
 -1      2407 1.99870E+01 1.89006E-03 2.47212E-04-2.48857E-02 6.91586E-15 7.40087E-14
 -1      2408 1.99793E+01-6.69859E-06-1.22027E-04-2.43441E-02-3.30739E-14 6.63486E-14
 -1      2409 1.99825E+01-1.11668E-03-4.78115E-05-3.02526E-02-2.61879E-14 1.37765E-13
 -1      2410 2.00020E+01 5.92850E-03 3.73712E-04-2.89865E-02 4.88942E-14 9.90519E-14
 -1      2411 1.99933E+01 3.75084E-03-4.75714E-05-2.66590E-02-2.89937E-15 1.08334E-13
 -1      2412 1.99947E+01 4.01373E-03-1.15061E-04-3.20098E-02-1.89301E-14-4.98493E-15
 -1      2413 2.00203E+01 1.06548E-02 5.33232E-04-3.75022E-02 9.76661E-14 1.83307E-13
 -1      2414 2.00095E+01 8.08854E-03 2.64283E-05-3.30952E-02 1.26948E-13 1.70473E-13
 -1      2415 2.00086E+01 9.89096E-03-1.93433E-04-3.84552E-02 3.47440E-14 3.44326E-14
 -1      2416 2.00438E+01 1.62795E-02 7.31052E-04-5.12093E-02-9.95613E-14 1.19504E-13
 -1      2417 2.00296E+01 1.32113E-02 1.01486E-04-4.43387E-02 1.57401E-14 1.88136E-13
 -1      2418 2.00255E+01 1.67921E-02-2.83862E-04-5.03345E-02 6.42850E-14 1.74448E-13
 -1      2419 2.00749E+01 2.30084E-02 9.71567E-04-7.10768E-02-1.28653E-14 8.56851E-14
 -1      2420 2.00559E+01 1.93295E-02 1.79037E-04-6.12686E-02-8.86446E-14 5.72572E-14
 -1      2421 2.00471E+01 2.50062E-02-3.87073E-04-6.86069E-02-3.58389E-14 7.85742E-14
 -1      2422 2.01162E+01 3.10116E-02 1.25683E-03-9.82421E-02 1.41820E-14 1.32536E-13
 -1      2423 2.00907E+01 2.66356E-02 2.60098E-04-8.49465E-02 8.73721E-15 5.29124E-14
 -1      2424 2.00753E+01 3.48039E-02-5.03101E-04-9.44377E-02 2.87291E-14-6.40547E-14
 -1      2425 2.01708E+01 4.03760E-02 1.58432E-03-1.33949E-01-2.34757E-15 2.41800E-14
 -1      2426 2.01369E+01 3.52664E-02 3.44916E-04-1.16574E-01 2.10161E-14 1.39300E-13
 -1      2427 2.01121E+01 4.63890E-02-6.30760E-04-1.29157E-01 7.68488E-15 2.24201E-14
 -1      2428 2.02421E+01 5.10281E-02 1.94342E-03-1.79425E-01-5.51065E-14-8.88793E-14
 -1      2429 2.01975E+01 4.52428E-02 4.32625E-04-1.57402E-01-3.75337E-14-3.91664E-14
 -1      2430 2.01600E+01 5.98210E-02-7.67102E-04-1.74167E-01 6.63507E-14-4.61655E-14
 -1      2431 2.03335E+01 6.26124E-02 2.31035E-03-2.35663E-01 1.20043E-15 3.88623E-15
 -1      2432 2.02762E+01 5.63741E-02 5.20958E-04-2.08562E-01-7.14951E-14-2.52637E-14
 -1      2433 2.02215E+01 7.48936E-02-9.07015E-04-2.30773E-01-7.48763E-14-2.05926E-13
 -1      2434 2.04490E+01 7.43052E-02 2.64062E-03-3.03062E-01 8.46342E-14 1.55594E-13
 -1      2435 2.03765E+01 6.81088E-02 6.06164E-04-2.70783E-01 1.00439E-13 1.48956E-13
 -1      2436 2.02994E+01 9.09435E-02-1.04321E-03-2.99894E-01-3.97535E-14-1.55775E-13
 -1      2437 2.05917E+01 8.45325E-02 2.85887E-03-3.80862E-01 9.25898E-14 2.06436E-13
 -1      2438 2.05022E+01 7.93068E-02 6.83403E-04-3.43937E-01 1.29381E-13 2.40108E-13
 -1      2439 2.03965E+01 1.06560E-01-1.16710E-03-3.81605E-01 3.40870E-14-3.13435E-14
 -1      2440 2.07644E+01 9.05636E-02 2.84588E-03-4.66271E-01 4.85668E-14 8.18184E-14
 -1      2441 2.06566E+01 8.79019E-02 7.48066E-04-4.26329E-01 7.37397E-14 1.66860E-13
 -1      2442 2.05155E+01 1.19156E-01-1.27118E-03-4.74433E-01 1.01377E-13 1.35170E-14
 -1      2443 2.09680E+01 8.79645E-02 2.42466E-03-5.53190E-01 3.24663E-14 5.85752E-14
 -1      2444 2.08421E+01 9.04291E-02 7.98605E-04-5.13635E-01 3.89857E-14 8.72261E-14
 -1      2445 2.06587E+01 1.24360E-01-1.35363E-03-5.74307E-01 2.47502E-14 1.27104E-13
 -1      2446 2.12011E+01 6.99553E-02 1.35110E-03-6.30449E-01-2.95935E-14 2.91735E-13
 -1      2447 2.10596E+01 8.14192E-02 8.41186E-04-5.97388E-01-2.53538E-14 1.21330E-13
 -1      2448 2.08282E+01 1.15232E-01-1.42496E-03-6.73073E-01-3.73109E-14 2.49672E-13
 -1      2449 2.14585E+01 2.68856E-02-6.78302E-04-6.79564E-01 1.32950E-13 1.54405E-13
 -1      2450 2.13074E+01 5.27693E-02 8.95161E-04-6.62947E-01 6.42820E-14 2.17947E-13
 -1      2451 2.10250E+01 8.14268E-02-1.51405E-03-7.56486E-01 4.07725E-15 3.77017E-13
 -1      2452 2.17297E+01-5.35940E-02-3.97896E-03-6.72353E-01 1.05356E-13 7.64446E-14
 -1      2453 2.15801E+01-6.55678E-03 9.93278E-04-6.87066E-01 1.71016E-13 1.68212E-13
 -1      2454 2.12497E+01 8.69838E-03-1.66536E-03-8.01766E-01 1.66371E-13 8.39918E-14
 -1      2455 2.19973E+01-1.84398E-01-8.74597E-03-5.69429E-01-1.31175E-14 9.86394E-14
 -1      2456 2.18669E+01-1.09641E-01 1.15945E-03-6.35664E-01 4.99720E-14 7.78952E-14
 -1      2457 2.15019E+01-1.20228E-01-1.90847E-03-7.75101E-01 9.98873E-14 1.83263E-13
 -1      2458 2.22342E+01-3.72657E-01-1.47783E-02-3.21939E-01-8.53666E-14 7.54407E-14
 -1      2459 2.21486E+01-2.67806E-01 1.34402E-03-4.63345E-01-1.24138E-13 1.28888E-13
 -1      2460 2.17793E+01-3.21366E-01-2.15617E-03-6.30298E-01-2.63216E-14 1.37776E-13
 -1      2461 2.24003E+01-6.06295E-01-2.10119E-02 1.19003E-01-1.39343E-13 2.08806E-13
 -1      2462 2.23929E+01-4.81229E-01 1.26264E-03-1.18109E-01 4.84369E-14 2.02720E-13
 -1      2463 2.20739E+01-5.98397E-01-1.99240E-03-3.11281E-01-9.64968E-14 1.08582E-13
 -1      2464 2.24378E+01-8.32499E-01-2.48643E-02 7.78630E-01-1.18606E-13 1.78349E-13
 -1      2465 2.25474E+01-7.21406E-01 1.90240E-04 4.42748E-01-2.16350E-13 1.91053E-13
 -1      2466 2.23631E+01-9.21307E-01-3.99935E-04 2.36253E-01-1.63154E-13 7.87183E-14
 -1      2467 2.22685E+01-9.36139E-01-2.21934E-02 1.61461E+00-1.09213E-13 3.68436E-13
 -1      2468 2.25298E+01-9.07313E-01-3.00140E-03 1.21776E+00-8.67032E-14 2.67511E-13
 -1      2469 2.25925E+01-1.19600E+00 4.31863E-03 1.03572E+00-1.97771E-13 2.34205E-13
 -1      2470 2.18038E+01-7.45847E-01-9.39610E-03 2.45845E+00 1.52040E-14 3.06069E-13
 -1      2471 2.22290E+01-8.91918E-01-1.00024E-02 2.10418E+00-6.80012E-14 3.58364E-13
 -1      2472 2.26555E+01-1.24150E+00 1.31512E-02 2.02483E+00-1.27333E-13 3.20476E-13
 -1      2473 2.09879E+01-1.17103E-01 1.28828E-02 2.97808E+00 3.48462E-13 3.21946E-13
 -1      2474 2.15383E+01-4.98503E-01-2.13149E-02 2.83707E+00 2.32665E-13 4.05462E-13
 -1      2475 2.23903E+01-8.23251E-01 2.14795E-02 2.98057E+00 1.25765E-13 1.50415E-13
 -1      2476 1.98999E+01 8.88003E-01 3.61998E-02 2.75609E+00 2.49514E-13 3.48324E-13
 -1      2477 2.04659E+01 3.43189E-01-2.70075E-02 3.00315E+00 3.63336E-13 4.06836E-13
 -1      2478 2.16587E+01 1.78138E-01 1.79798E-02 3.46920E+00 2.95935E-13 3.98260E-13
 -1      2479 1.87896E+01 1.90177E+00 4.23794E-02 1.54780E+00-1.48465E-13 4.92505E-13
 -1      2480 1.92135E+01 1.42525E+00-2.44944E-02 2.23909E+00 4.90667E-14 4.10299E-13
 -1      2481 2.05252E+01 1.60454E+00 1.02439E-02 3.03156E+00 1.06786E-13 5.93112E-13
 -1      2482 1.81043E+01 2.23839E+00 2.59801E-02-4.05775E-01-2.43855E-13 4.88071E-13
 -1      2483 1.82285E+01 2.18397E+00 9.44658E-04 5.05951E-01-1.90879E-13 4.78862E-13
 -1      2484 1.93044E+01 2.78522E+00-9.88322E-03 1.39149E+00-7.52705E-14 6.48403E-13
 -1      2485 1.80979E+01 1.38089E+00-2.95905E-02-2.25705E+00-1.70157E-13 4.10259E-13
 -1      2486 1.78952E+01 1.97206E+00 2.29600E-02-1.56991E+00-2.43059E-13 4.35479E-13
 -1      2487 1.85584E+01 2.88229E+00 3.56272E-03-9.44717E-01-3.00039E-13 3.89849E-13
 -1      2488 1.84636E+01 4.02682E-01 3.85453E-02-2.93401E+00 6.27363E-15 4.12455E-13
 -1      2489 2.06259E+01 4.41922E+00 7.56021E-03-2.62526E+00 1.42816E-13-2.37518E-13
 -1      2490 1.95358E+01 3.49535E+00-2.34330E-02-2.98737E+00 1.08667E-13-2.16962E-13
 -1      2491 2.42591E+01 6.75877E+00-2.73084E-02-1.10353E+00 2.07334E-14-2.28831E-13
 -1      2492 2.19636E+01 5.75799E+00-1.16519E-01-2.23787E+00 1.87211E-14-2.09707E-13
 -1      2493 2.15700E+01 6.94772E+00-2.14951E-01-1.38518E+00-6.70297E-15-1.58373E-13
 -1      2494 3.13673E+01 2.57575E+00 2.52512E-03 6.47287E+00-1.44398E-14-1.64702E-13
 -1      2495 3.70923E+01 1.02450E+01-2.03543E-01 5.32189E+00 2.14495E-13-1.11966E-13
 -1      2496 3.80208E+01 1.18791E+01-2.01713E-01 5.40016E+00 1.94955E-13-1.10356E-13
 -1      2497 2.36455E+01-4.77070E+00-2.67001E-01 3.42989E-01-2.28751E-13 1.03401E-12
 -1      2498 2.77837E+01-2.54824E-01-2.97881E-02-3.26973E+00-1.47715E-13 7.25087E-13
 -1      2499 1.92686E+01 9.36006E-01 5.36901E-02 4.30264E+00-6.16781E-15 2.88655E-13
 -1      2500 2.46646E+01 5.81308E-01-2.26088E-01 1.41026E+00-2.60805E-13 6.36519E-13
 -1      2501 3.82444E+00-5.72844E+00 1.42434E-01-3.38126E+00 8.20316E-14-2.97817E-13
 -1      2502 6.53103E+00-6.45939E+00 9.20242E-02-5.66379E+00 1.04694E-13-3.35898E-13
 -1      2503 2.12765E+01 3.45671E+00-1.09632E-01 3.51691E+00-3.09405E-14 3.05561E-13
 -1      2504 2.34666E+01 4.25611E+00-1.67019E-03 2.33288E+00-1.49700E-13 3.73326E-13
 -1      2505 1.02739E+01-7.60102E+00 8.45509E-02-6.61999E+00 1.55431E-13-4.68958E-13
 -1      2506 1.42553E+01-7.99126E+00 2.84298E-02-7.21433E+00 2.49079E-13-6.49175E-13
 -1      2507 3.49583E+01 1.08759E+01-1.70314E-01-3.72331E+00-1.67200E-13 5.18252E-13
 -1      2508 3.65524E+01 1.23867E+01-1.74724E-01-3.86070E+00-1.17351E-13 6.17117E-13
 -1      2509 3.77410E+01 1.08266E+01-2.69735E-01-5.50236E+00-5.46230E-14 2.52118E-13
 -1      2510 3.85366E+01 8.42966E+00-1.16269E-01-5.24929E+00-9.00391E-14 1.59317E-13
 -1      2511 6.61850E+00-6.20837E+00 1.00859E-01 5.27523E+00 1.04750E-13-1.48825E-13
 -1      2512 4.11054E+00-5.70973E+00 1.51289E-01 3.15207E+00 5.98271E-14-1.61482E-13
 -1      2513 3.74231E+01 1.30028E+01-1.79412E-01 5.03779E+00 4.92384E-14-6.27831E-14
 -1      2514 3.60886E+01 1.31940E+01-2.43889E-01 4.57574E+00-1.07303E-13 4.75592E-14
 -1      2515 1.95174E+01 3.58550E+00-1.00970E-02-2.45088E-01 3.08263E-14-2.61436E-13
 -1      2516 1.95336E+01 3.56479E+00-9.67011E-03-4.25715E-01-4.17448E-15-2.51793E-13
 -1      2517 1.97099E+01 3.16431E+00-5.91465E-04-4.72971E-01-5.82677E-15-2.34777E-13
 -1      2518 1.96754E+01 3.22426E+00-9.25141E-04-1.51845E-01 2.90283E-14-2.36386E-13
 -1      2519 1.50238E+01-7.87765E+00 6.98490E-02 6.91849E+00 2.73559E-13-2.95597E-14
 -1      2520 1.08075E+01-7.28947E+00 1.22791E-01 6.30780E+00 2.04003E-13-1.94372E-13
 -1      2521 3.38643E+01-2.12849E+00-7.08543E-02 1.57186E+00 1.47365E-13-1.80245E-13
 -1      2522 3.58088E+01 1.37004E-01-1.91855E-01 2.66394E+00 2.00839E-13-5.91749E-14
 -1      2523 3.63822E+01 3.71080E+00-1.40137E-01 4.14702E+00 1.59733E-13-3.88578E-15
 -1      2524 3.70623E+01 6.75598E+00-2.62600E-01 5.24581E+00 1.75304E-13-6.20060E-14
 -1      2525 3.38985E+01 1.88189E+00-5.44922E-02 4.91218E+00 2.13815E-13 2.38420E-14
 -1      2526 3.54360E+01 1.22303E+01-1.34046E-01 4.19039E+00-3.21743E-13 2.70256E-13
 -1      2527 3.45350E+01 1.03199E+01-1.30294E-01 4.17720E+00-1.86573E-13 1.72529E-13
 -1      2528 1.82425E+01-8.41715E+00 4.14695E-02-6.50679E+00 2.73892E-13-4.68390E-13
 -1      2529 2.25848E+01-8.07656E+00-3.96601E-02-5.71015E+00 1.34892E-13-4.87957E-13
 -1      2530 1.76937E+01-7.79829E+00 1.46559E-01-6.68089E+00 1.06137E-13-4.64226E-13
 -1      2531 2.97446E+00-5.38600E+00 1.68217E-01 1.67731E+00 8.57370E-14 1.05582E-13
 -1      2532 2.54998E+00-5.18874E+00 1.18579E-01-4.62633E-01 1.18851E-13-4.82392E-14
 -1      2533 5.73152E+00-4.08987E+00 1.78328E-01 2.73552E+00 7.12208E-14-4.91829E-14
 -1      2534 3.64455E+01-9.62444E-01-1.52299E-01-1.94504E+00 1.44091E-13-4.10949E-13
 -1      2535 3.36716E+01-3.48207E+00-6.45062E-02-4.43882E-01 3.50275E-14-4.39648E-13
 -1      2536 2.28308E+01-8.41151E+00 1.56634E-03 5.60676E+00-2.91434E-14 3.18523E-13
 -1      2537 1.91762E+01-8.60280E+00 5.21759E-02 6.09229E+00 1.96787E-13 1.66398E-13
 -1      2538 3.09920E+01-6.02958E+00-8.06889E-02 2.03452E+00 7.66054E-15-3.65236E-13
 -1      2539 2.64898E+01-7.68514E+00-3.16001E-02 3.64124E+00-1.15963E-13 3.97460E-14
 -1      2540 2.62405E+01-8.12664E+00 6.80131E-02 3.54943E+00-5.81757E-14-8.75966E-14
 -1      2541 3.88375E+01 5.13162E+00-2.07607E-01-4.64657E+00 4.51861E-14-1.26787E-13
 -1      2542 3.75018E+01 2.53758E+00-9.70837E-02-3.76951E+00 1.57679E-13-2.23210E-13
 -1      2543 3.57821E+01 1.25754E+01-2.24160E-01-3.96908E+00-8.18234E-14 6.14425E-13
 -1      2544 3.55204E+01 1.23246E+01-2.48494E-01-4.43728E+00 1.07137E-14 5.30138E-13
 -1      2545 3.22383E+01-4.08943E+00 1.91969E-02 8.74634E-01 8.12683E-14-1.20903E-13
 -1      2546 1.99109E+01 2.81390E+00 1.13564E-03-1.09813E+00-1.07702E-13-2.00391E-13
 -1      2547 1.97812E+01 3.16202E+00-1.47350E-02-1.28576E+00-1.25663E-13-2.26523E-13
 -1      2548 1.98779E+01 3.02611E+00-1.71511E-02-1.47527E+00-1.61752E-13-1.98877E-13
 -1      2549 1.99862E+01 2.83965E+00-1.50544E-02-1.58541E+00-1.76562E-13-1.84472E-13
 -1      2550 2.01320E+01 2.61402E+00-2.20103E-02-1.75191E+00-2.01658E-13-1.43514E-13
 -1      2551 2.02802E+01 2.05050E+00 1.28767E-03-1.48454E+00-2.01590E-13-1.19666E-13
 -1      2552 2.00822E+01 2.49339E+00 2.56183E-03-1.34070E+00-1.60869E-13-1.66967E-13
 -1      2553 3.16745E+01 5.66909E+00-1.92732E-01-2.86529E+00-6.99441E-15 7.92588E-13
 -1      2554 2.93076E+01 6.15720E+00-4.39534E-02-6.70193E-01-2.71672E-13 8.85625E-13
 -1      2555 1.01363E+01-6.05327E+00 1.52304E-01-6.13944E+00 8.67917E-14-4.65489E-13
 -1      2556 1.85980E+01 1.37028E+00-1.11467E-04-2.92017E+00-7.64159E-14 1.85550E-13
 -1      2557 3.14363E+01 8.10778E+00 3.90197E-02 2.49596E+00-1.53433E-13 3.71592E-13
 -1      2558 2.73825E+01 7.21709E+00-2.47897E-01 1.88671E-01-1.60039E-13 1.46577E-13
 -1      2559 3.40454E+01 8.48111E+00-4.85072E-02 5.83678E+00 1.46383E-13 1.18350E-13
 -1      2560 2.03132E+01 2.67394E+00-1.20862E-02 3.75822E+00-1.18620E-13 3.16344E-13
 -1      2561 2.13886E+01 5.86743E+00-1.47171E-01 2.52466E+00-1.15657E-13 1.93220E-13
 -1      2562 5.06054E+00-4.08874E+00 1.84330E-01-1.90147E+00 4.25632E-14-1.82854E-13
 -1      2563 3.12531E+01 1.20208E+01-1.33182E-02-2.32867E+00-1.02418E-13 7.65110E-13
 -1      2564 3.41067E+01 7.92510E+00-7.99184E-02 4.87057E+00-1.89349E-13 6.05627E-14
 -1      2565 3.33719E+01 5.02790E+00 8.52441E-02 6.34116E+00-1.67921E-13-5.12923E-14
 -1      2566 3.22247E+01-5.26273E+00 2.79401E-02-5.07460E-01-5.48450E-14-4.18360E-13
 -1      2567 3.54126E+01 4.48683E-01 5.84035E-03-4.20856E+00 5.43732E-14-6.24500E-14
 -1      2568 3.54943E+01 6.76578E+00-2.62457E-02-5.84213E+00-1.67671E-13 2.80276E-13
 -1      2569 3.22856E+01 1.33265E+00-2.36994E-01-8.53693E+00-1.56389E-13-1.70974E-13
 -1      2570 3.33437E+01 1.25523E+01-2.11719E-02 4.61159E+00 9.50351E-14-1.93179E-13
 -1      2571 1.07815E+01-5.65125E+00 1.80484E-01 5.70484E+00 1.37501E-13-9.19265E-14
 -1      2572 3.22617E+01 1.21970E+01-5.28151E-03 2.90209E+00-1.55431E-13 9.64229E-14
 -1      2573 3.26924E+01 1.12206E+01-9.09250E-02-4.43212E+00-1.15685E-13 5.90167E-13
 -1      2574 1.88936E+01 2.04283E+00 5.11026E-02-2.92738E+00-5.86475E-14 2.69645E-14
 -1      2575 2.38470E+01-7.93732E+00 1.37329E-01-4.85184E+00-1.51823E-14-3.64157E-13
 -1      2576 2.56433E+01-7.79047E+00 9.32620E-02-4.35646E+00 5.69544E-14-4.70665E-13
 -1      2577 2.74911E+01-7.59695E+00-1.99865E-01-2.56534E+00-3.40006E-15-2.95541E-13
 -1      2578 1.86745E+01-7.81775E+00 1.37904E-01 6.04551E+00 3.00537E-13 3.87468E-14
 -1      2579 3.09169E+01 2.68303E+00-1.51406E-01-4.62687E+00-7.84928E-14 5.57554E-13
 -1      2580 2.68733E+01 9.46524E+00-2.63551E-01 3.80510E-01-1.82271E-13-1.94622E-13
 -1      2581 1.91008E+01 3.92193E+00-9.10714E-02-2.13889E+00-1.31133E-13 4.14000E-14
 -1      2582 1.98435E+01 2.76569E+00-6.37006E-03 5.15730E-01 1.18432E-13-1.85839E-13
 -1      2583 1.98181E+01 2.81607E+00-5.66245E-03 3.65229E-01 9.71346E-14-2.05018E-13
 -1      2584 1.98014E+01 2.85328E+00-5.57659E-03 2.29768E-01 8.56806E-14-2.18519E-13
 -1      2585 1.97928E+01 2.87000E+00-5.42406E-03 7.52982E-02 6.05836E-14-2.10351E-13
 -1      2586 1.99478E+01 2.50190E+00 3.70323E-03 2.65492E-01 8.45227E-14-1.93048E-13
 -1      2587 2.00434E+01 2.32152E+00-1.20118E-02 1.04373E+00 2.19549E-13-1.31391E-13
 -1      2588 1.99786E+01 2.47249E+00-7.05042E-03 9.10014E-01 2.05192E-13-1.47155E-13
 -1      2589 2.02042E+01 1.90818E+00-1.82176E-02 1.22935E+00 2.37484E-13-4.17030E-14
 -1      2590 2.01229E+01 2.14556E+00-6.06943E-03 1.13328E+00 2.15386E-13-8.34155E-14
 -1      2591 2.02085E+01 1.89813E+00 1.59415E-02 9.32536E-01 2.01040E-13-9.95692E-14
 -1      2592 2.04085E+01 1.08199E+00 7.40060E-03 1.16218E+00 2.34595E-13 1.28806E-13
 -1      2593 2.03221E+01 1.06083E+00 5.88950E-03-8.55298E-01-1.43341E-13-8.49925E-14
 -1      2594 2.02285E+01 8.15708E-01-5.71071E-03-6.13109E-01-1.15942E-13-8.55545E-14
 -1      2595 1.98564E+01 4.94712E-02 5.66730E-05-1.45417E-01 4.27085E-14 3.54761E-14
 -1      2596 1.98703E+01 8.14887E-02 3.20175E-03-1.17050E-01 6.67144E-14 5.26695E-14
 -1      2597 1.98933E+01 1.18862E-01-2.25393E-04-7.23330E-02 7.47481E-14 1.81888E-14
 -1      2598 1.99290E+01 1.70257E-01 5.23398E-03-1.69234E-02 7.11207E-14 1.36490E-14
 -1      2599 1.99922E+01 1.35409E-01-2.40146E-03-7.41814E-02 6.43178E-14 2.18120E-15
 -1      2600 2.03161E+01 1.68913E+00-6.79701E-03-1.29401E+00-1.79914E-13-1.20375E-13
 -1      2601 2.02987E+01 1.30283E+00-3.04444E-03-1.01917E+00-1.62825E-13-1.03516E-13
 -1      2602 2.02808E+01 1.37408E+00 6.22652E-04-9.22441E-01-1.33409E-13-1.30533E-13
 -1      2603 2.02233E+01 1.95328E+00-4.25880E-04-1.26487E+00-1.59928E-13-1.47331E-13
 -1      2604 1.99622E+01 2.31503E-01-7.45109E-04 6.11140E-02 1.19309E-13 1.05636E-14
 -1      2605 2.00287E+01 3.14870E-01 7.92208E-03 1.59239E-01 1.38297E-13 3.97289E-14
 -1      2606 2.00564E+01 2.65256E-01-2.99286E-03 5.88106E-02 1.04206E-13-2.12428E-15
 -1      2607 2.72527E+01 1.09927E+01-2.44380E-01 1.53672E+00 4.44089E-15-2.24015E-13
 -1      2608 9.78561E+00-4.51314E+00 1.77923E-01-5.44281E+00 9.92401E-14-4.15057E-13
 -1      2609 1.30811E+01-5.92540E+00 9.48870E-02-6.57213E+00 5.84532E-14-4.98546E-13
 -1      2610 2.02178E+01 6.28216E-01 8.59096E-03-4.35376E-01-1.00301E-13-8.04860E-14
 -1      2611 2.01333E+01 4.75719E-01-3.38382E-03-2.76887E-01-9.09685E-14-9.20239E-14
 -1      2612 2.02613E+01 8.93388E-01 6.54404E-05-5.70190E-01-1.08129E-13-1.14084E-13
 -1      2613 2.01072E+01 3.62779E-01 6.59154E-03-1.57212E-01-1.04582E-13-9.71227E-14
 -1      2614 2.00480E+01 2.68078E-01-1.77956E-03-5.94942E-02-1.03014E-13-1.26070E-13
 -1      2615 2.01959E+01 5.29081E-01-1.64002E-03-2.60459E-01-1.10193E-13-1.06926E-13
 -1      2616 2.00218E+01 1.97832E-01 4.51774E-03 1.58823E-02-8.54526E-14-1.01596E-13
 -1      2617 1.99860E+01 1.38261E-01-8.40131E-04 7.25074E-02-6.72662E-14-1.08114E-13
 -1      2618 2.01267E+01 2.99024E-01-2.08550E-03-5.40384E-02-8.87235E-14-1.08093E-13
 -1      2619 1.99650E+01 9.40815E-02 2.89837E-03 1.15914E-01-4.52228E-14-1.01814E-13
 -1      2620 1.99469E+01 5.67469E-02-2.99078E-04 1.45370E-01-4.55274E-14-9.24075E-14
 -1      2621 2.00701E+01 1.52790E-01-1.89260E-03 7.33746E-02-5.46334E-14-7.43126E-14
 -1      2622 1.99319E+01 2.92252E-02 1.73481E-03 1.66839E-01-6.76639E-14-1.12719E-13
 -1      2623 1.99259E+01 6.38334E-03-3.59370E-06 1.78708E-01-7.44787E-14-1.18718E-13
 -1      2624 2.00288E+01 6.02844E-02-1.51394E-03 1.44395E-01-6.68169E-14-9.86207E-14
 -1      2625 1.99160E+01-1.01911E-02 9.30592E-04 1.85726E-01-6.44001E-14-7.91359E-14
 -1      2626 1.99178E+01-2.34279E-02 1.49253E-04 1.86565E-01-6.10067E-14-7.54590E-14
 -1      2627 2.00013E+01 3.07618E-03-1.13181E-03 1.77067E-01-4.76934E-14-6.62865E-14
 -1      2628 1.99119E+01-3.27129E-02 3.93083E-04 1.84514E-01-4.02928E-14-3.78561E-14
 -1      2629 1.99181E+01-3.95632E-02 2.20803E-04 1.78801E-01-4.27894E-14-1.49896E-14
 -1      2630 1.99844E+01-3.06260E-02-8.09232E-04 1.84748E-01-4.29383E-14 7.58497E-14
 -1      2631 1.99150E+01-4.40030E-02 4.85433E-05 1.71467E-01-4.59453E-14-4.95399E-15
 -1      2632 1.99235E+01-4.66516E-02 2.46628E-04 1.62241E-01 4.30849E-15 4.06679E-15
 -1      2633 1.99753E+01-4.86215E-02-5.57917E-04 1.77021E-01-1.72964E-14 5.36873E-14
 -1      2634 1.99224E+01-4.79213E-02-1.59468E-04 1.52230E-01 2.99491E-14 1.82302E-14
 -1      2635 1.99317E+01-4.78716E-02 2.47565E-04 1.41522E-01 1.73428E-14 1.79570E-14
 -1      2636 1.99715E+01-5.62188E-02-3.71248E-04 1.60604E-01 1.59007E-14 7.14289E-14
 -1      2637 1.99318E+01-4.71263E-02-2.73353E-04 1.30586E-01-1.06458E-14 2.43827E-15
 -1      2638 1.99409E+01-4.54083E-02 2.36415E-04 1.19725E-01-1.05127E-14 2.66028E-14
 -1      2639 1.99711E+01-5.70792E-02-2.37793E-04 1.40096E-01-5.70290E-15-6.76954E-15
 -1      2640 1.99418E+01-4.34348E-02-3.24462E-04 1.09004E-01-1.94202E-14 1.64091E-14
 -1      2641 1.99503E+01-4.07373E-02 2.21573E-04 9.88330E-02-3.62313E-14 2.99942E-14
 -1      2642 1.99729E+01-5.37190E-02-1.46163E-04 1.18570E-01-1.93603E-14 5.51241E-14
 -1      2643 1.99516E+01-3.80526E-02-3.35682E-04 8.90490E-02-9.75575E-14 5.06315E-14
 -1      2644 1.99593E+01-3.48126E-02 2.08938E-04 8.00864E-02-8.73072E-14 4.37676E-14
 -1      2645 1.99759E+01-4.78291E-02-8.66180E-05 9.80193E-02-7.09017E-14-7.19623E-15
 -1      2646 1.99609E+01-3.17326E-02-3.23542E-04 7.16835E-02-1.00384E-13 4.39191E-14
 -1      2647 1.99677E+01-2.81982E-02 2.02985E-04 6.42438E-02-1.41164E-13 3.73456E-14
 -1      2648 1.99796E+01-4.04909E-02-5.13893E-05 7.97024E-02-1.01439E-13 1.17472E-15
 -1      2649 1.99694E+01-2.48868E-02-2.99879E-04 5.74988E-02-1.15574E-13 5.61542E-15
 -1      2650 1.99755E+01-2.11626E-02 2.07398E-04 5.17831E-02-8.15933E-14 3.56557E-14
 -1      2651 1.99837E+01-3.23285E-02-3.45226E-05 6.44087E-02-1.18387E-13 1.67156E-14
 -1      2652 1.99773E+01-1.76672E-02-2.73138E-04 4.68883E-02-8.86784E-14 6.59752E-14
 -1      2653 1.99830E+01-1.37476E-02 2.25489E-04 4.30538E-02-1.16467E-13-8.94689E-15
 -1      2654 1.99880E+01-2.36189E-02-3.15650E-05 5.26571E-02-1.10031E-13 8.32425E-14
 -1      2655 1.99849E+01-1.00252E-02-2.49386E-04 4.01812E-02-1.13705E-13-3.06863E-14
 -1      2656 1.99904E+01-5.81796E-03 2.60469E-04 3.83944E-02-5.05214E-14-2.28791E-15
 -1      2657 1.99925E+01-1.43721E-02-3.92236E-05 4.48503E-02-1.08512E-13 4.78812E-14
 -1      2658 1.99925E+01-1.75416E-03-2.33097E-04 3.77452E-02-3.27064E-14-5.71379E-14
 -1      2659 1.99982E+01 2.90237E-03 3.15618E-04 3.82236E-02 7.89026E-15-1.06598E-13
 -1      2660 1.99974E+01-4.38963E-03-5.50310E-05 4.13921E-02-6.80293E-14-2.85052E-14
 -1      2661 2.00006E+01 7.48012E-03-2.27758E-04 4.00664E-02 1.24637E-13-1.25173E-13
 -1      2662 2.00070E+01 1.28044E-02 3.94350E-04 4.31112E-02 1.65148E-13-9.73890E-14
 -1      2663 2.00027E+01 6.69389E-03-7.70216E-05 4.27792E-02 5.22186E-14-8.15866E-14
 -1      2664 2.00097E+01 1.81159E-02-2.36323E-04 4.78123E-02 1.61343E-13-1.47786E-13
 -1      2665 2.00173E+01 2.43731E-02 5.00155E-04 5.38336E-02 1.22168E-13-1.23828E-13
 -1      2666 2.00088E+01 1.93785E-02-1.03405E-04 4.96715E-02 1.12962E-13-2.49950E-13
 -1      2667 2.00206E+01 3.06758E-02-2.61547E-04 6.18791E-02 9.06424E-14-6.93770E-14
 -1      2668 2.00300E+01 3.81671E-02 6.36402E-04 7.14148E-02 2.59743E-14-2.59945E-14
 -1      2669 2.00160E+01 3.42728E-02-1.32224E-04 6.29449E-02 1.50346E-13-1.93930E-13
 -1      2670 2.00339E+01 4.57451E-02-3.06190E-04 8.34247E-02-4.95962E-14-2.86087E-14
 -1      2671 2.00459E+01 5.47942E-02 8.05950E-04 9.71508E-02-3.09969E-14-1.46398E-14
 -1      2672 2.00245E+01 5.20667E-02-1.60978E-04 8.37279E-02-1.18516E-14-1.63910E-14
 -1      2673 2.00505E+01 6.39417E-02-3.73066E-04 1.13884E-01-1.02030E-16-1.72344E-14
 -1      2674 2.00659E+01 7.48734E-02 1.01051E-03 1.32614E-01-1.45513E-14 9.58770E-15
 -1      2675 2.00346E+01 7.34959E-02-1.86231E-04 1.13419E-01-3.35847E-15-1.76834E-14
 -1      2676 2.00713E+01 8.58689E-02-4.64873E-04 1.54961E-01-4.97971E-14 5.86335E-14
 -1      2677 2.00909E+01 9.89733E-02 1.24971E-03 1.79629E-01 3.42704E-14-8.96012E-16
 -1      2678 2.00468E+01 9.92874E-02-2.03232E-04 1.53680E-01-8.50761E-15 7.82057E-14
 -1      2679 2.00971E+01 1.12036E-01-5.83646E-04 2.08582E-01 8.77249E-14 9.17327E-15
 -1      2680 2.01219E+01 1.27508E-01 1.51972E-03 2.40199E-01 3.30372E-14-2.01457E-14
 -1      2681 2.00610E+01 1.30071E-01-2.05683E-04 2.06395E-01 6.51962E-14 1.43604E-13
 -1      2682 2.01290E+01 1.42722E-01-7.29564E-04 2.76798E-01-1.55800E-15 1.30335E-14
 -1      2683 2.01599E+01 1.60561E-01 1.81154E-03 3.16372E-01-1.01063E-14-8.77159E-15
 -1      2684 2.00776E+01 1.66233E-01-1.85930E-04 2.73576E-01 1.00632E-14 4.66792E-14
 -1      2685 2.01676E+01 1.77754E-01-8.98606E-04 3.61605E-01-5.47106E-14-2.87328E-14
 -1      2686 2.02056E+01 1.97595E-01 2.10873E-03 4.09996E-01-1.41882E-13-3.34504E-14
 -1      2687 2.00963E+01 2.07668E-01-1.36127E-04 3.57210E-01-8.05557E-14 3.65846E-14
 -1      2688 2.02138E+01 2.16129E-01-1.07823E-03 4.64648E-01-1.02339E-13 9.45199E-15
 -1      2689 2.02597E+01 2.36959E-01 2.38505E-03 5.22330E-01-3.42900E-14 1.98703E-14
 -1      2690 2.01169E+01 2.53383E-01-5.14545E-05 4.58992E-01-9.34274E-14 2.71474E-14
 -1      2691 2.02683E+01 2.55393E-01-1.23979E-03 5.86744E-01-4.71607E-14 1.59017E-14
 -1      2692 2.03229E+01 2.75101E-01 2.60221E-03 6.53428E-01-2.15341E-14 2.57728E-14
 -1      2693 2.01390E+01 3.00834E-01 6.27850E-05 5.79940E-01-2.37738E-14 9.36611E-14
 -1      2694 2.03322E+01 2.90643E-01-1.32573E-03 7.27157E-01-3.00242E-14 9.42637E-14
 -1      2695 2.03962E+01 3.05307E-01 2.70860E-03 8.01210E-01-6.33737E-14 1.33200E-13
 -1      2696 2.01623E+01 3.44881E-01 1.77125E-04 7.19826E-01-5.09657E-14-4.02842E-14
 -1      2697 2.04073E+01 3.12973E-01-1.22908E-03 8.82513E-01-3.07681E-14 2.24385E-13
 -1      2698 2.04818E+01 3.15784E-01 2.63938E-03 9.60087E-01-9.78276E-15 2.26390E-13
 -1      2699 2.01875E+01 3.76159E-01 2.12434E-04 8.76394E-01-3.02440E-14 1.34478E-13
 -1      2700 2.04982E+01 3.07173E-01-7.62271E-04 1.04522E+00-7.15454E-14 3.40851E-13
 -1      2701 2.05853E+01 2.86940E-01 2.31660E-03 1.11900E+00 2.45030E-17 3.19273E-13
 -1      2702 2.02179E+01 3.78657E-01-2.79379E-06 1.04429E+00-2.84278E-14 1.22032E-13
 -1      2703 2.06148E+01 2.48647E-01 3.89267E-04 1.20118E+00 9.73750E-14 2.90722E-13
 -1      2704 2.07192E+01 1.88006E-01 1.63471E-03 1.25866E+00 1.43402E-13 3.10859E-13
 -1      2705 2.02622E+01 3.26399E-01-7.96010E-04 1.21361E+00 4.77081E-15 2.54421E-13
 -1      2706 2.07780E+01 1.00018E-01 2.71855E-03 1.32642E+00 1.57834E-13 2.17442E-13
 -1      2707 2.09087E+01-2.59333E-02 4.22207E-04 1.34760E+00 2.06804E-13 2.11966E-13
 -1      2708 2.03401E+01 1.79499E-01-2.72883E-03 1.36781E+00 6.58857E-14 5.67160E-14
 -1      2709 2.10261E+01-1.90494E-01 6.96939E-03 1.38191E+00 1.45818E-13 1.00947E-13
 -1      2710 2.11989E+01-4.12907E-01-1.64499E-03 1.33653E+00-7.23304E-14 6.39111E-14
 -1      2711 2.04906E+01-1.18858E-01-6.61543E-03 1.48007E+00 9.71627E-14-7.89115E-15
 -1      2712 2.14231E+01-6.83568E-01 1.39295E-02 1.30615E+00-1.27313E-13-3.64514E-15
 -1      2713 2.16600E+01-1.03171E+00-5.41132E-03 1.15112E+00 4.46251E-14-2.44455E-14
 -1      2714 2.07827E+01-6.38927E-01-1.33013E-02 1.50659E+00-7.28820E-14-1.18355E-13
 -1      2715 2.20620E+01-1.42574E+00 2.44197E-02 1.00266E+00 1.16291E-13-8.82330E-14
 -1      2716 2.23814E+01-1.90061E+00-1.21918E-02 6.81314E-01 4.18879E-14 6.62448E-16
 -1      2717 2.13262E+01-1.44879E+00-2.34505E-02 1.37418E+00 1.48763E-15-2.40697E-13
 -1      2718 2.30357E+01-2.38240E+00 3.58187E-02 3.26098E-01 1.17871E-13 1.42160E-13
 -1      2719 2.34252E+01-2.89485E+00-2.31320E-02-2.20297E-01 6.21595E-14 1.80332E-13
 -1      2720 2.22693E+01-2.54688E+00-3.37651E-02 9.49781E-01 1.21040E-13-8.69782E-14
 -1      2721 2.43564E+01-3.30661E+00 4.02426E-02-8.97677E-01-6.56320E-14 3.04383E-13
 -1      2722 2.47326E+01-3.58624E+00-3.39248E-02-1.68865E+00 1.01447E-14 3.50878E-13
 -1      2723 2.37378E+01-3.73198E+00-3.84498E-02 3.35498E-02 1.22449E-13 3.81596E-14
 -1      2724 2.57738E+01-3.55570E+00 1.60183E-02-2.74501E+00 8.89510E-14 4.32526E-13
 -1      2725 2.59872E+01-3.09676E+00-2.37045E-02-3.63933E+00 2.73945E-13 3.58207E-13
 -1      2726 2.56682E+01-4.36947E+00-2.73456E-02-1.61191E+00 1.04914E-13 2.95315E-13
 -1      2727 2.66591E+01-2.17808E+00-8.17274E-02-4.83285E+00 3.45838E-13 2.89251E-13
 -1      2728 2.64229E+01-5.14395E-01-2.15307E-02-5.42071E+00 8.39190E-14 4.22220E-13
 -1      2729 2.75912E+01-3.32293E+00-2.07537E-03-3.94570E+00 2.42775E-13 2.07737E-13
 -1      2730 2.44730E+01 6.09895E+00-2.22734E-01-4.52136E+00-2.95819E-13 2.04687E-13
 -1      2731 2.37276E+01 7.51975E+00-1.16210E-01-2.99589E+00-3.50359E-13 2.00086E-13
 -1      2732 2.28662E+01 7.92741E+00-1.70549E-01-1.17239E+00-2.81608E-13 1.41338E-13
 -1      2733 2.22560E+01 7.38859E+00-9.96028E-02 6.42459E-01-1.17378E-13 1.55320E-13
 -1      2734 2.41990E+01 8.43464E+00-6.79085E-02 3.77673E-01-1.00087E-13 1.28036E-13
 -1      2735 2.58827E+01 9.12236E+00-1.38083E-01-2.87848E+00-3.01731E-13 9.44557E-14
 -1      2736 1.98429E+01 6.75390E-03 1.85080E-04-1.78314E-01-2.13394E-14 7.23815E-14
 -1      2737 1.98428E+01 2.61553E-02 1.78953E-03-1.67249E-01 2.61250E-14 6.52168E-14
 -1      2738 1.99517E+01 5.42156E-02-1.74847E-03-1.47575E-01 2.48326E-14 6.55819E-14
 -1      2739 1.98447E+01-1.84288E-02 2.32611E-04-1.85783E-01-2.82531E-14 1.07070E-13
 -1      2740 1.98363E+01-7.23231E-03 8.79652E-04-1.85402E-01-3.41200E-14 8.00329E-14
 -1      2741 1.99297E+01 4.16410E-03-1.24668E-03-1.80938E-01-1.66824E-14 1.01097E-13
 -1      2742 1.98557E+01-3.20997E-02 2.35246E-04-1.77816E-01 2.36658E-14 1.09969E-13
 -1      2743 1.98429E+01-2.62969E-02 2.95924E-04-1.83715E-01 4.78617E-15 1.07249E-13
 -1      2744 1.99208E+01-2.51895E-02-8.39353E-04-1.88633E-01-1.09306E-14 6.14702E-14
 -1      2745 1.98714E+01-3.81974E-02 2.18366E-04-1.61202E-01 4.84233E-14 1.11983E-13
 -1      2746 1.98570E+01-3.59236E-02-6.62409E-05-1.70436E-01 4.18848E-14 8.81919E-14
 -1      2747 1.99205E+01-4.09041E-02-5.36338E-04-1.80620E-01 5.28636E-14 6.66311E-14
 -1      2748 1.98890E+01-3.93937E-02 1.95080E-04-1.40520E-01 5.03280E-15 1.60106E-13
 -1      2749 1.98745E+01-3.93791E-02-2.75798E-04-1.51134E-01 3.10942E-14 1.42470E-13
 -1      2750 1.99254E+01-4.76419E-02-3.20954E-04-1.63784E-01 3.30014E-14 1.35579E-13
 -1      2751 1.99064E+01-3.75176E-02 1.72239E-04-1.18786E-01 7.56596E-14 1.30761E-13
 -1      2752 1.98929E+01-3.88954E-02-3.82139E-04-1.29514E-01 4.37445E-14 1.53069E-13
 -1      2753 1.99331E+01-4.85810E-02-1.73906E-04-1.42802E-01 2.24779E-14 1.01227E-13
 -1      2754 1.99228E+01-3.38046E-02 1.53856E-04-9.79337E-02 9.36168E-14 1.92776E-14
 -1      2755 1.99106E+01-3.59947E-02-4.20746E-04-1.07977E-01 9.50144E-14 1.04420E-13
 -1      2756 1.99420E+01-4.58958E-02-7.85117E-05-1.20773E-01 9.11863E-14 1.63023E-13
 -1      2757 1.99375E+01-2.90583E-02 1.42722E-04-7.91568E-02 4.34062E-14 5.55302E-14
 -1      2758 1.99269E+01-3.16903E-02-4.16891E-04-8.80341E-02 8.29768E-14 6.51326E-14
 -1      2759 1.99512E+01-4.10482E-02-2.14579E-05-9.96975E-02 9.48033E-14 4.64520E-14
 -1      2760 1.99505E+01-2.37608E-02 1.41181E-04-6.31723E-02 6.83312E-14 1.41144E-13
 -1      2761 1.99414E+01-2.66207E-02-3.88399E-04-7.05985E-02 1.59045E-14 1.05579E-13
 -1      2762 1.99600E+01-3.49792E-02 7.39802E-06-8.08243E-02 1.45471E-14 1.38656E-13
 -1      2763 1.99620E+01-1.81520E-02 1.51522E-04-5.04141E-02-2.53797E-14 2.61085E-13
 -1      2764 1.99541E+01-2.11440E-02-3.47684E-04-5.62165E-02 3.92505E-14 1.73177E-13
 -1      2765 1.99682E+01-2.82411E-02 1.55036E-05-6.49206E-02 1.38876E-14 2.26652E-13
 -1      2766 1.99723E+01-1.22869E-02 1.76210E-04-4.11814E-02-2.83387E-14 2.99493E-13
 -1      2767 1.99653E+01-1.54054E-02-3.03260E-04-4.52333E-02-1.08593E-14 2.62128E-13
 -1      2768 1.99758E+01-2.10928E-02 8.14174E-06-5.24727E-02-2.81753E-14 2.33803E-13
 -1      2769 1.99819E+01-6.07839E-03 2.18007E-04-3.57517E-02 2.00849E-14 1.71629E-13
 -1      2770 1.99755E+01-9.38719E-03-2.60872E-04-3.79223E-02-1.93716E-16 2.65849E-13
 -1      2771 1.99831E+01-1.35697E-02-1.10755E-05-4.38392E-02 2.08143E-14 1.92898E-13
 -1      2772 1.99917E+01 6.71165E-04 2.80018E-04-3.44671E-02-9.96304E-15 1.20899E-13
 -1      2773 1.99852E+01-2.94598E-03-2.24352E-04-3.45830E-02 3.26424E-14 1.65861E-13
 -1      2774 1.99903E+01-5.53491E-03-3.97736E-05-3.93675E-02 7.37671E-14 1.70973E-13
 -1      2775 2.00023E+01 8.24470E-03 3.65638E-04-3.77999E-02 1.47903E-14 5.16598E-14
 -1      2776 1.99952E+01 4.15943E-03-1.96250E-04-3.56162E-02 1.97219E-14 8.28764E-14
 -1      2777 1.99978E+01 3.28189E-03-7.64349E-05-3.94830E-02 6.70649E-14 1.60815E-13
 -1      2778 2.00147E+01 1.69879E-02 4.78377E-04-4.64008E-02 2.79542E-14 9.19512E-14
 -1      2779 2.00063E+01 1.22445E-02-1.78285E-04-4.15802E-02 1.91716E-15 3.98808E-14
 -1      2780 2.00061E+01 1.32524E-02-1.20057E-04-4.47559E-02 3.38610E-14 8.38612E-14
 -1      2781 2.00299E+01 2.72845E-02 6.21504E-04-6.11303E-02 9.35951E-14 1.09512E-13
 -1      2782 2.00195E+01 2.16762E-02-1.71640E-04-5.32300E-02 9.41290E-14 1.03519E-13
 -1      2783 2.00159E+01 2.48201E-02-1.69834E-04-5.59486E-02 4.39233E-14 8.65105E-14
 -1      2784 2.00493E+01 3.95234E-02 7.97449E-04-8.30690E-02 2.14908E-14 2.23666E-14
 -1      2785 2.00359E+01 3.28447E-02-1.77087E-04-7.15391E-02 3.56223E-14 1.71435E-13
 -1      2786 2.00278E+01 3.84658E-02-2.24856E-04-7.40431E-02 9.18542E-14 2.37816E-13
 -1      2787 2.00741E+01 5.40502E-02 1.00687E-03-1.13502E-01 2.63447E-14 3.90122E-14
 -1      2788 2.00568E+01 4.61247E-02-1.94926E-04-9.76973E-02 6.92838E-14 4.74341E-14
 -1      2789 2.00427E+01 5.46607E-02-2.83833E-04-1.00245E-01 1.99396E-14 2.20276E-13
 -1      2790 2.01060E+01 7.10910E-02 1.24723E-03-1.53862E-01-2.33563E-14 1.13569E-13
 -1      2791 2.00836E+01 6.18148E-02-2.24662E-04-1.33077E-01 1.95452E-15 9.17895E-14
 -1      2792 2.00613E+01 7.37963E-02-3.44904E-04-1.35957E-01-4.28866E-15 2.31634E-13
 -1      2793 2.01467E+01 9.06351E-02 1.51084E-03-2.05618E-01 1.10380E-13 5.37488E-15
 -1      2794 2.01179E+01 8.00442E-02-2.64309E-04-1.79152E-01 1.15534E-13 5.75126E-14
 -1      2795 2.00847E+01 9.60764E-02-4.05626E-04-1.82704E-01 5.19229E-14 1.52897E-13
 -1      2796 2.01980E+01 1.12253E-01 1.78200E-03-2.70074E-01-7.73524E-16-1.51313E-13
 -1      2797 2.01616E+01 1.00627E-01-3.09096E-04-2.37347E-01 2.46067E-14-3.86704E-14
 -1      2798 2.01139E+01 1.21350E-01-4.63369E-04-2.41996E-01 9.64948E-14 8.20072E-14
 -1      2799 2.02619E+01 1.34819E-01 2.03336E-03-3.48046E-01-3.11772E-14-2.20329E-13
 -1      2800 2.02165E+01 1.22841E-01-3.49258E-04-3.08782E-01-7.20804E-14-1.80459E-13
 -1      2801 2.01501E+01 1.48857E-01-5.16527E-04-3.15101E-01 8.38396E-15-4.28252E-14
 -1      2802 2.03404E+01 1.56102E-01 2.22117E-03-4.39359E-01-1.46877E-14-1.49373E-13
 -1      2803 2.02848E+01 1.45086E-01-3.66430E-04-3.93874E-01 2.03914E-15-2.37834E-13
 -1      2804 2.01947E+01 1.76845E-01-5.67167E-04-4.02680E-01-4.21118E-14-1.33123E-13
 -1      2805 2.04356E+01 1.72166E-01 2.27955E-03-5.42104E-01 5.52176E-14-3.48037E-14
 -1      2806 2.03688E+01 1.64400E-01-3.28022E-04-4.91731E-01 4.65185E-14-8.33238E-14
 -1      2807 2.02491E+01 2.02008E-01-6.26114E-04-5.04253E-01-1.93332E-15-1.45841E-13
 -1      2808 2.05498E+01 1.76563E-01 2.11419E-03-6.51556E-01-5.46223E-14-3.05478E-14
 -1      2809 2.04710E+01 1.75752E-01-1.78991E-04-5.99257E-01 4.00946E-14 5.25420E-14
 -1      2810 2.03156E+01 2.18695E-01-7.21603E-04-6.17421E-01-1.47450E-14-2.10788E-13
 -1      2811 2.06856E+01 1.59297E-01 1.59592E-03-7.58684E-01-1.02268E-13 1.26462E-13
 -1      2812 2.05947E+01 1.71124E-01 1.68911E-04-7.09892E-01-1.43948E-13 1.21250E-13
 -1      2813 2.03973E+01 2.17851E-01-9.12369E-04-7.36782E-01-1.77047E-13-2.01509E-13
 -1      2814 2.08471E+01 1.05775E-01 5.55619E-04-8.48190E-01 1.37037E-13-1.11389E-14
 -1      2815 2.07441E+01 1.38432E-01 8.47995E-04-8.11876E-01 4.18590E-14 1.09651E-13
 -1      2816 2.04996E+01 1.85742E-01-1.30402E-03-8.52455E-01-1.69541E-14-7.56754E-14
 -1      2817 2.10401E+01-3.73728E-03-1.21820E-03-8.96113E-01 1.27731E-13 5.35645E-14
 -1      2818 2.09260E+01 6.06181E-02 2.03816E-03-8.86003E-01 1.86790E-13 3.91705E-15
 -1      2819 2.06313E+01 1.02786E-01-2.06182E-03-9.48130E-01 1.91868E-13-1.12868E-13
 -1      2820 2.12735E+01-1.92808E-01-3.98165E-03-8.67326E-01 7.45322E-14 1.01563E-13
 -1      2821 2.11501E+01-8.42106E-02 3.94111E-03-9.02941E-01 6.24800E-14 1.02739E-13
 -1      2822 2.08072E+01-5.66886E-02-3.40273E-03-9.98596E-01 5.76705E-14-4.84287E-14
 -1      2823 2.15590E+01-4.82961E-01-7.99271E-03-7.13786E-01-4.94520E-14 8.75119E-14
 -1      2824 2.14297E+01-3.19718E-01 6.67521E-03-8.20550E-01 1.42198E-13 2.15183E-13
 -1      2825 2.10497E+01-3.21817E-01-5.53024E-03-9.66771E-01-1.94344E-14 8.95692E-15
 -1      2826 2.19065E+01-8.78622E-01-1.33382E-02-3.75829E-01-4.01953E-14 1.28699E-13
 -1      2827 2.17793E+01-6.61673E-01 1.00660E-02-5.82561E-01-1.11684E-13 1.63542E-13
 -1      2828 2.13892E+01-7.15876E-01-8.38311E-03-8.00641E-01-4.81805E-14 1.48718E-13
 -1      2829 2.23109E+01-1.33742E+00-1.94155E-02 2.08489E-01-2.21620E-13 1.65617E-13
 -1      2830 2.22038E+01-1.09655E+00 1.31414E-02-1.22295E-01-1.28544E-13 1.92080E-13
 -1      2831 2.18576E+01-1.23407E+00-1.11088E-02-4.32094E-01-2.13222E-13 2.99333E-13
 -1      2832 2.27264E+01-1.72516E+00-2.36004E-02 1.07590E+00-1.86179E-13 1.84623E-13
 -1      2833 2.26744E+01-1.54391E+00 1.34943E-02 6.20147E-01-2.43479E-13 1.11595E-13
 -1      2834 2.24662E+01-1.80158E+00-1.13325E-02 2.16198E-01-1.98126E-13 2.43408E-13
 -1      2835 2.30307E+01-1.77832E+00-2.09294E-02 2.17713E+00 4.56323E-14 7.87801E-14
 -1      2836 2.30899E+01-1.80935E+00 7.51183E-03 1.65187E+00-1.16606E-14 1.06710E-13
 -1      2837 2.31614E+01-2.21575E+00-4.59180E-03 1.19961E+00-3.05454E-14 9.69385E-14
 -1      2838 2.30037E+01-1.14303E+00-1.18322E-02 3.27636E+00 2.94300E-14 1.13451E-13
 -1      2839 2.32422E+01-1.56829E+00-1.10746E-02 2.83900E+00-2.80366E-14 4.04030E-14
 -1      2840 2.37637E+01-2.10611E+00 1.27063E-02 2.47555E+00 8.52009E-15-8.48449E-14
 -1      2841 2.24211E+01 4.36505E-01 1.54867E-02 3.86897E+00 2.46024E-13 2.14619E-13
 -1      2842 2.28521E+01-4.53268E-01-3.92368E-02 3.79880E+00 2.32375E-13 1.29428E-13
 -1      2843 2.39262E+01-1.07608E+00 1.02963E-02 3.78292E+00 7.54553E-14-2.39288E-14
 -1      2844 2.12805E+01 2.53176E+00 2.22653E-02 3.37137E+00-4.34895E-14 3.37739E-13
 -1      2845 2.18164E+01 1.39863E+00-8.00022E-02 3.82783E+00 1.41963E-13 3.22100E-13
 -1      2846 2.32901E+01 1.20878E+00 8.86950E-04 4.46027E+00 1.23172E-13 5.82347E-15
 -1      2847 1.99071E+01 4.19343E+00 2.51632E-02 1.44970E+00-1.80130E-13 4.85211E-13
 -1      2848 2.03911E+01 3.52378E+00-6.68921E-02 2.52561E+00-7.98979E-14 4.46669E-13
 -1      2849 2.20150E+01 3.62250E+00 3.45217E-02 3.59287E+00-1.24512E-13 4.80865E-15
 -1      2850 1.92620E+01 4.42780E+00-1.40819E-02-8.64190E-01-1.37477E-13 2.12878E-13
 -1      2851 1.95081E+01 4.63777E+00-6.99300E-02 3.32707E-01-1.02275E-13 2.38655E-13
 -1      2852 2.07599E+01 5.90186E+00 2.99215E-03 1.75758E+00-3.97529E-14 2.06293E-13
 -1      2853 2.05117E+01 6.29657E+00 4.49096E-02-5.42877E-01-1.56750E-14-1.43850E-13
 -1      2854 3.10812E+01 6.64365E+00-1.48079E-01 5.95914E+00 1.59095E-13-1.63203E-14
 -1      2855 3.05223E+01 9.29201E+00-3.39896E-01 5.40554E+00 2.91711E-14-4.18415E-14
 -1      2856 2.38727E+01 9.38996E+00-4.56108E-02 5.08361E-01-3.18634E-14-2.78458E-13
 -1      2857 2.17240E+01 7.88030E+00-1.35730E-01-1.86980E-01 2.70339E-14-2.35055E-13
 -1      2858 2.17406E+01 7.98757E+00-1.89510E-01 9.78927E-01-4.46032E-14-2.96679E-13
 -1      2859 2.75579E+01 1.11460E+01-2.74489E-01 2.53866E+00-3.36675E-14-2.44253E-13
 -1      2860 2.70783E+01 8.54503E+00-2.50167E-01 4.62414E-01-1.34143E-13 5.89528E-13
 -1      2861 2.73121E+01 6.04954E+00-1.55509E-01 5.43579E-01-1.31395E-13 6.93445E-13
 -1      2862 3.21533E+01-4.47164E+00-1.99085E-01-2.33083E+00-5.05672E-14-3.03563E-13
 -1      2863 3.02473E+01-6.26512E+00 2.35414E-02-3.73375E-01 4.67959E-14-3.62543E-13
 -1      2864 1.66728E+01-6.81582E+00 1.62241E-01-6.44579E+00 1.26968E-13-5.08441E-13
 -1      2865 1.99479E+01-7.51852E+00 3.67035E-02-5.99561E+00 8.21287E-14-4.57134E-13
 -1      2866 3.14955E+01 1.92016E-01-1.14268E-01 4.75131E+00 3.29570E-13-4.95992E-14
 -1      2867 3.14877E+01 2.97362E+00-2.64848E-01 5.68042E+00 2.75974E-13 6.64191E-14
 -1      2868 3.33339E+01 1.36914E+00-2.35199E-01-5.45349E+00-7.68829E-15 9.35085E-14
 -1      2869 3.30651E+01-1.50296E+00-6.38733E-02-4.32734E+00-5.13270E-14-1.22430E-13
 -1      2870 2.00712E+01 4.19520E-01-6.86660E-04 2.86315E-01 1.53105E-13 4.09348E-14
 -1      2871 2.01829E+01 5.58316E-01 1.64853E-02 4.52870E-01 1.71832E-13 5.63028E-14
 -1      2872 2.01421E+01 4.77664E-01-3.63748E-03 2.77451E-01 1.68343E-13 2.48798E-14
 -1      2873 5.91244E+00-2.75264E+00 1.59519E-01-3.98009E-01 1.24900E-15-4.72677E-14
 -1      2874 7.16486E+00-3.21792E+00 1.85804E-01-3.31709E+00-2.86854E-14-2.86521E-13
 -1      2875 1.36105E+01-5.18904E+00 6.94980E-02 5.85118E+00 1.34975E-13 9.65894E-15
 -1      2876 1.02869E+01-3.78843E+00 2.23817E-01 4.60684E+00 3.67761E-14-7.51899E-14
 -1      2877 2.81834E+01 1.03779E+01-2.42712E-01-3.78949E+00-2.65510E-13 4.37327E-13
 -1      2878 3.03181E+01 8.88292E+00-1.99954E-01-5.39797E+00-2.47025E-13 2.30760E-13
 -1      2879 7.62020E+00-3.25663E+00 1.20059E-01 3.38060E+00 1.15741E-14-9.75053E-14
 -1      2880 6.57738E+00-2.75179E+00 2.15896E-01 1.62350E+00-4.00721E-15 5.27078E-14
 -1      2881 7.88594E+00-2.02155E+00 1.43814E-01 2.39613E-01-6.58536E-14-3.46945E-15
 -1      2882 1.07568E+01-2.84081E+00 1.34768E-01 3.72099E+00 4.50126E-14-9.49518E-14
 -1      2883 3.16703E+01 7.00270E+00-3.10425E-01-6.08178E+00-2.44249E-13 2.61402E-13
 -1      2884 3.27467E+01 4.33611E+00-1.40992E-01-6.26286E+00-1.31867E-13 2.68646E-13
 -1      2885 3.10072E+01 2.37443E+00-3.26900E-02-6.05759E+00-2.03143E-13 1.24720E-13
 -1      2886 2.84604E+01 6.74035E+00-8.10173E-02-5.56381E+00-2.80082E-13-5.62050E-14
 -1      2887 1.99201E+01 2.59451E+00-9.38377E-03 7.90522E-01 1.89171E-13-1.58619E-13
 -1      2888 1.98769E+01 2.69055E+00-6.17640E-03 6.44355E-01 1.40862E-13-1.72103E-13
 -1      2889 1.99978E+01 2.39528E+00 6.43258E-03 5.19155E-01 1.20229E-13-1.49588E-13
 -1      2890 2.00942E+01 2.19292E+00 1.09811E-02 7.51867E-01 1.86515E-13-1.34165E-13
 -1      2891 2.78474E+01-7.78431E+00-7.91641E-02 1.98629E+00 9.65894E-14-1.75061E-13
 -1      2892 2.47666E+01-7.99206E+00 8.85260E-02 3.59780E+00 1.24567E-13 1.54043E-14
 -1      2893 1.98733E+01 2.69748E+00-6.09898E-03-6.34699E-01-4.36028E-14-2.28354E-13
 -1      2894 1.99166E+01 2.60777E+00-7.73519E-03-7.83933E-01-6.87256E-14-2.05688E-13
 -1      2895 3.03767E+01-5.69203E+00 7.59908E-02 1.45728E-01 6.73767E-15-3.11917E-13
 -1      2896 3.14279E+01-3.44900E+00-1.73058E-01 2.65942E+00 1.88337E-13-1.34975E-13
 -1      2897 2.14889E+01-7.89747E+00 1.14711E-02 5.26852E+00 2.01561E-13 1.13728E-13
 -1      2898 1.77693E+01-6.78109E+00 1.38069E-01 5.80488E+00 2.38115E-13 4.99600E-16
 -1      2899 1.99715E+01 2.48814E+00-6.02879E-03-9.01368E-01-8.30553E-14-1.92784E-13
 -1      2900 2.00365E+01 2.34400E+00-8.97243E-03-1.03401E+00-1.18724E-13-1.73117E-13
 -1      2901 2.00726E+01 2.20535E+00 6.05763E-03-7.38788E-01-7.54947E-14-1.79910E-13
 -1      2902 1.99311E+01 2.53926E+00 3.42847E-03 4.75964E-03 4.41149E-14-1.84128E-13
 -1      2903 1.97922E+01 2.87082E+00-5.47852E-03-6.17522E-02 3.33273E-14-2.13339E-13
 -1      2904 1.97997E+01 2.85612E+00-5.54623E-03-2.16346E-01 1.44330E-14-2.15366E-13
 -1      2905 2.03369E+01 9.19342E-01 1.72424E-02 9.04744E-01 2.14296E-13 9.82821E-14
 -1      2906 2.03846E+01 1.30145E+00-1.56300E-02 1.24972E+00 2.43466E-13 7.87499E-14
 -1      2907 2.03083E+01 1.65034E+00 1.28644E-03 1.25824E+00 2.27236E-13 7.06032E-15
 -1      2908 2.02388E+01 7.58927E-01-1.03587E-05 7.18256E-01 1.90914E-13 7.49130E-14
 -1      2909 2.73139E+01 1.06744E+01-2.75116E-01-2.01884E+00-1.43302E-13 4.69513E-13
 -1      2910 9.43426E+00-3.27446E+00 1.89702E-01-4.23110E+00 3.36814E-14-4.25146E-13
 -1      2911 1.18070E+01-3.38608E+00 5.22317E-02-4.79987E+00 8.32043E-14-4.47725E-13
 -1      2912 9.58345E+00-2.05071E+00 1.16496E-01-2.92246E+00-1.04083E-14-3.69080E-13
 -1      2913 2.62113E+01 4.80761E+00-7.87785E-02-5.58014E+00-3.44030E-13 1.30368E-13
 -1      2914 2.68881E+01 2.37956E+00-1.64812E-01-5.99683E+00-2.34743E-13 1.19849E-13
 -1      2915 2.62463E+01 9.63612E+00-2.20519E-01-2.27591E-01-6.33937E-14 5.22138E-13
 -1      2916 3.08863E+01-2.12635E+00-1.00554E-01 3.96849E+00 2.63373E-13-7.78405E-14
 -1      2917 2.91848E+01-3.73392E-01-5.70133E-02 5.11243E+00 1.78406E-13-2.02158E-13
 -1      2918 2.93480E+01-3.59961E+00-1.93254E-02 2.95323E+00 1.88751E-13-1.49190E-13
 -1      2919 2.23094E+01-7.55150E+00 1.17719E-01-5.01050E+00 2.94764E-14-4.07511E-13
 -1      2920 2.41689E+01-7.62331E+00-9.45417E-02-3.80690E+00 3.41394E-14-3.61881E-13
 -1      2921 2.10847E+01-6.77219E+00 9.71596E-02-5.05020E+00 3.00870E-14-3.65999E-13
 -1      2922 1.68027E+01-5.30363E+00 1.32959E-01 5.18507E+00 1.30923E-13-5.45120E-14
 -1      2923 3.14973E+01-2.97608E+00-2.34406E-02-4.04103E+00-7.71477E-14-1.07220E-13
 -1      2924 2.38381E+01-7.33274E+00 1.14530E-01 3.55009E+00 2.04739E-13-1.61191E-14
 -1      2925 2.89128E+01-6.66934E+00 4.69885E-02-6.91201E-02 1.94740E-13-1.96010E-13
 -1      2926 2.85666E+01-6.47575E+00 6.96203E-02-8.54114E-01 3.04617E-14-2.10901E-13
 -1      2927 2.76186E+01 9.47655E+00 2.49894E-02 4.77466E+00-2.03171E-14-3.83665E-13
 -1      2928 2.96475E+01 1.08964E+01-1.92071E-01 4.78749E+00-1.06970E-13-6.81677E-14
 -1      2929 2.94627E+01 4.67253E+00-3.05118E-02 5.98096E+00 1.52600E-13-1.87489E-13
 -1      2930 2.02533E+01 8.24669E-01-1.14061E-02 6.83649E-01 1.90714E-13 2.89762E-14
 -1      2931 2.03246E+01 1.43824E+00 1.67596E-02 1.00932E+00 2.19959E-13-4.29593E-15
 -1      2932 1.98154E+01 2.82062E+00-5.70021E-03-3.51424E-01 3.43709E-15-2.03479E-13
 -1      2933 1.98397E+01 2.77231E+00-6.19747E-03-5.04942E-01-2.19354E-14-2.17949E-13
 -1      2934 1.99926E+01 2.39681E+00 4.26696E-03-5.07172E-01-3.97354E-14-1.96243E-13
 -1      2935 1.99459E+01 2.50523E+00 3.61031E-03-2.55422E-01 4.11329E-15-1.96738E-13
 -1      2936 2.89955E+01 1.16478E+01-2.37694E-01 3.70353E+00-2.26485E-14-2.93449E-13
 -1      2937 1.60120E+01-5.66420E+00 1.65468E-01-5.98780E+00-1.01447E-14-5.30714E-13
 -1      2938 2.00844E+01 2.25123E+00-6.07174E-03-1.11675E+00-1.28952E-13-1.52750E-13
 -1      2939 2.01631E+01 2.06807E+00-8.25524E-03-1.19909E+00-1.57686E-13-1.45580E-13
 -1      2940 2.02343E+01 1.76662E+00 5.80557E-03-1.03747E+00-1.39980E-13-1.44690E-13
 -1      2941 2.01665E+01 1.98088E+00 8.00124E-03-9.14388E-01-1.12039E-13-1.54185E-13
 -1      2942 2.02491E+01 1.09361E+00-4.12285E-03 7.05726E-01 1.88924E-13-2.92060E-14
 -1      2943 2.02521E+01 1.25401E+00-1.32567E-02 7.21899E-01 1.94942E-13-6.62240E-14
 -1      2944 2.02137E+01 1.44160E+00-8.54587E-03 6.67123E-01 1.85833E-13-9.77264E-14
 -1      2945 2.02743E+01 7.91332E-01 1.26044E-02 4.56952E-01 1.66191E-13-2.87233E-14
 -1      2946 2.00082E+01 2.50747E-03-1.28906E-04-1.75678E-01-3.62623E-14 3.20441E-14
 -1      2947 2.00187E+01 2.81622E-02 1.58210E-03-1.64335E-01 2.07652E-15 4.51812E-14
 -1      2948 2.01239E+01 2.93223E-01-2.17039E-03 4.10813E-02 7.97224E-14 2.27617E-15
 -1      2949 2.01683E+01 3.93965E-01 3.54136E-03 1.32805E-01 1.09898E-13-2.15056E-15
 -1      2950 2.02932E+01 1.15553E+00 5.75901E-03-6.65648E-01-1.16561E-13-1.27835E-13
 -1      2951 2.02561E+01 9.10087E-01-4.84382E-03-4.79116E-01-1.08038E-13-1.41479E-13
 -1      2952 2.00345E+01 5.92864E-02-5.12211E-04-1.45202E-01 7.39941E-16 5.99474E-14
 -1      2953 2.00547E+01 1.01006E-01 2.59988E-03-1.17141E-01 1.75588E-14 3.36246E-14
 -1      2954 2.01025E+01 6.02955E-02-1.18070E-03-1.41255E-01-1.81782E-15 2.99001E-14
 -1      2955 2.02707E+01 7.13881E-01 4.65744E-03-3.44510E-01-8.95372E-14-1.45783E-13
 -1      2956 2.02264E+01 5.50956E-01-3.69937E-03-2.14225E-01-8.77949E-14-1.35181E-13
 -1      2957 2.02829E+01 9.46317E-01 2.75863E-04-4.23437E-01-9.60711E-14-1.57818E-13
 -1      2958 2.02209E+01 4.23396E-01 4.16951E-03-1.18924E-01-7.33548E-14-1.07050E-13
 -1      2959 2.01813E+01 3.15400E-01-2.32551E-03-3.40880E-02-4.50266E-14-7.83222E-14
 -1      2960 2.02715E+01 5.80032E-01-3.06011E-04-1.87861E-01-5.44150E-14-1.22948E-13
 -1      2961 2.01671E+01 2.31703E-01 3.17941E-03 2.73697E-02-6.28583E-14-6.59949E-14
 -1      2962 2.01367E+01 1.60996E-01-1.31465E-03 7.82569E-02-6.59250E-14-7.68942E-14
 -1      2963 2.02368E+01 3.32056E-01-8.22746E-04-2.51492E-02-4.69390E-14-7.00079E-14
 -1      2964 2.01198E+01 1.06838E-01 2.23997E-03 1.14033E-01-7.30386E-14-7.17580E-14
 -1      2965 2.00986E+01 6.14890E-02-6.37566E-04 1.41092E-01-7.81424E-14-8.92810E-14
 -1      2966 2.01958E+01 1.67277E-01-1.00750E-03 7.74166E-02-7.14228E-14-5.46735E-14
 -1      2967 2.00822E+01 2.73079E-02 1.47158E-03 1.58607E-01-3.99531E-14-8.45780E-14
 -1      2968 2.00684E+01-7.16835E-04-2.07671E-04 1.69633E-01-2.03449E-14-4.57165E-14
 -1      2969 2.01566E+01 6.04646E-02-9.62791E-04 1.35042E-01-5.33861E-14-2.92158E-14
 -1      2970 2.00538E+01-2.12825E-02 8.90165E-04 1.74831E-01 4.25154E-15-1.06636E-14
 -1      2971 2.00456E+01-3.74716E-02 5.36692E-05 1.75558E-01-3.72955E-15 2.36610E-14
 -1      2972 2.01222E+01-6.33643E-03-8.35357E-04 1.61097E-01 2.27690E-14-3.76918E-14
 -1      2973 2.00332E+01-4.87810E-02 4.74327E-04 1.72945E-01-1.49941E-14 5.64147E-14
 -1      2974 2.00290E+01-5.69618E-02 2.03210E-04 1.67473E-01 2.25683E-14 8.14851E-14
 -1      2975 2.00936E+01-4.55836E-02-6.89495E-04 1.66183E-01 1.98946E-14 8.30622E-15
 -1      2976 2.00189E+01-6.20585E-02 1.90785E-04 1.60318E-01-3.91987E-15 9.67150E-14
 -1      2977 2.00174E+01-6.49233E-02 2.80063E-04 1.51508E-01-3.17147E-14 9.26239E-14
 -1      2978 2.00705E+01-6.60589E-02-5.52293E-04 1.58243E-01-2.93646E-15 9.12423E-14
 -1      2979 2.00092E+01-6.59437E-02 6.65813E-06 1.42107E-01-2.82204E-14 9.03083E-14
 -1      2980 2.00095E+01-6.53796E-02 3.11141E-04 1.31908E-01-5.67517E-16 8.15607E-14
 -1      2981 2.00524E+01-7.39835E-02-4.33812E-04 1.42999E-01-2.22178E-14 1.49890E-13
 -1      2982 2.00031E+01-6.38105E-02-1.06114E-04 1.21819E-01-1.45232E-14 6.33527E-14
 -1      2983 2.00044E+01-6.11175E-02 3.15199E-04 1.11525E-01-4.03403E-14 5.08549E-14
 -1      2984 2.00385E+01-7.37406E-02-3.36212E-04 1.24434E-01-8.35825E-15 1.33035E-13
 -1      2985 1.99995E+01-5.79681E-02-1.70000E-04 1.01776E-01-7.64445E-14 2.20122E-14
 -1      2986 2.00015E+01-5.40092E-02 3.05483E-04 9.22225E-02-9.93977E-14-4.78651E-15
 -1      2987 2.00280E+01-6.83636E-02-2.58282E-04 1.05240E-01-7.11658E-14-6.49196E-15
 -1      2988 1.99979E+01-4.99317E-02-2.02396E-04 8.34713E-02-1.01232E-13 1.03156E-14
 -1      2989 2.00001E+01-4.52417E-02 2.91473E-04 7.51886E-02-8.42381E-14 4.96393E-15
 -1      2990 2.00205E+01-5.98787E-02-1.97544E-04 8.71868E-02-9.93773E-14-4.22562E-15
 -1      2991 1.99975E+01-4.06185E-02-2.16557E-04 6.78552E-02-9.02195E-14 5.25148E-14
 -1      2992 2.00000E+01-3.54830E-02 2.80059E-04 6.11842E-02-1.07227E-13 7.80278E-14
 -1      2993 2.00152E+01-4.95526E-02-1.51144E-04 7.14175E-02-5.72012E-14 3.21706E-14
 -1      2994 1.99982E+01-3.04910E-02-2.22555E-04 5.55476E-02-1.26077E-13 7.51556E-14
 -1      2995 2.00008E+01-2.50052E-02 2.76354E-04 5.07292E-02-1.38156E-13 8.81066E-14
 -1      2996 2.00117E+01-3.80756E-02-1.16215E-04 5.86806E-02-1.02960E-13 9.19236E-14
 -1      2997 1.99995E+01-1.96636E-02-2.28143E-04 4.70048E-02-1.47367E-13 4.82884E-14
 -1      2998 2.00023E+01-1.37754E-02 2.84281E-04 4.42487E-02-9.62461E-14 3.56261E-14
 -1      2999 2.00095E+01-2.56968E-02-8.99702E-05 4.95088E-02-1.43497E-13 4.01714E-14
 -1      3000 2.00015E+01-7.97967E-03-2.39466E-04 4.26472E-02-3.79310E-14 2.75424E-14
 -1      3001 2.00046E+01-1.52119E-03 3.06955E-04 4.21838E-02-1.87539E-14 4.18737E-14
 -1      3002 2.00084E+01-1.23247E-02-6.96737E-05 4.43572E-02-7.27903E-14 2.71065E-14
 -1      3003 2.00039E+01 4.93044E-03-2.61633E-04 4.29564E-02-6.58957E-14 8.65751E-14
 -1      3004 2.00074E+01 1.22197E-02 3.46923E-04 4.50779E-02 1.21805E-14-3.76806E-14
 -1      3005 2.00080E+01 2.39930E-03-5.25329E-05 4.37085E-02-2.96920E-14 7.09364E-14
 -1      3006 2.00067E+01 1.96072E-02-2.99147E-04 4.85507E-02 7.70294E-14-6.43003E-14
 -1      3007 2.00107E+01 2.80616E-02 4.06244E-04 5.36412E-02 1.11527E-13-1.14431E-13
 -1      3008 2.00078E+01 1.90455E-02-3.55442E-05 4.81537E-02-1.26845E-15 5.89763E-14
 -1      3009 2.00099E+01 3.67266E-02-3.56206E-04 6.02409E-02 2.02384E-13-1.44857E-13
 -1      3010 2.00146E+01 4.67374E-02 4.86422E-04 6.87988E-02 1.92998E-13-9.69496E-14
 -1      3011 2.00077E+01 3.83511E-02-1.52942E-05 5.84520E-02 1.77770E-13-3.60207E-14
 -1      3012 2.00132E+01 5.70660E-02-4.36870E-04 7.90690E-02 6.90643E-14-4.37615E-14
 -1      3013 2.00188E+01 6.90619E-02 5.88186E-04 9.17193E-02-2.17254E-15 1.67330E-14
 -1      3014 2.00070E+01 6.11789E-02 1.22700E-05 7.55718E-02 2.00258E-13-9.86493E-14
 -1      3015 2.00165E+01 8.14627E-02-5.45083E-04 1.06328E-01-7.33338E-15 3.38476E-14
 -1      3016 2.00232E+01 9.58824E-02 7.11109E-04 1.23824E-01-4.10600E-15 8.61434E-14
 -1      3017 2.00053E+01 8.84692E-02 5.20851E-05 1.00712E-01 4.56900E-14-2.18416E-14
 -1      3018 2.00196E+01 1.10755E-01-6.84487E-04 1.43557E-01-3.44864E-14 7.07993E-15
 -1      3019 2.00275E+01 1.28005E-01 8.53109E-04 1.66768E-01-2.36339E-15 1.46401E-14
 -1      3020 2.00018E+01 1.21175E-01 1.10184E-04 1.35302E-01-2.67135E-14 2.76761E-14
 -1      3021 2.00220E+01 1.45688E-01-8.57964E-04 1.92510E-01 5.24197E-14 2.33814E-14
 -1      3022 2.00312E+01 1.66078E-01 1.00989E-03 2.22384E-01 6.38851E-14 8.04434E-14
 -1      3023 1.99956E+01 1.60162E-01 1.93770E-04 1.80968E-01 3.76006E-14-1.78017E-13
 -1      3024 2.00230E+01 1.86768E-01-1.06674E-03 2.55079E-01 1.66998E-14 9.37867E-14
 -1      3025 2.00336E+01 2.10402E-01 1.17457E-03 2.92581E-01 3.65588E-15 6.46908E-14
 -1      3026 1.99854E+01 2.06056E-01 3.10951E-04 2.39471E-01 4.82808E-14-7.67429E-14
 -1      3027 2.00218E+01 2.34025E-01-1.30883E-03 3.33161E-01-9.21978E-14 1.26857E-13
 -1      3028 2.00335E+01 2.60631E-01 1.33785E-03 3.79170E-01-1.42848E-13 1.04055E-13
 -1      3029 1.99697E+01 2.58999E-01 4.69721E-04 3.12591E-01-2.22410E-14-3.52015E-14
 -1      3030 2.00171E+01 2.86629E-01-1.57638E-03 4.28465E-01-1.60774E-13 9.18022E-14
 -1      3031 2.00298E+01 3.15292E-01 1.48965E-03 4.83615E-01-5.10422E-14 1.59816E-13
 -1      3032 1.99464E+01 3.18270E-01 6.75466E-04 4.01962E-01-1.43113E-13 1.17558E-13
 -1      3033 2.00075E+01 3.42293E-01-1.85135E-03 5.42226E-01-8.82275E-14 1.73599E-13
 -1      3034 2.00209E+01 3.71030E-01 1.62336E-03 6.06683E-01-7.19973E-14 7.51404E-14
 -1      3035 1.99133E+01 3.81691E-01 9.25709E-04 5.08859E-01-7.40643E-14 1.27364E-13
 -1      3036 1.99918E+01 3.96328E-01-2.09844E-03 6.74842E-01-4.98133E-14-6.18002E-14
 -1      3037 2.00058E+01 4.21436E-01 1.74473E-03 7.48000E-01-7.29044E-14-6.56554E-14
 -1      3038 1.98679E+01 4.44714E-01 1.19996E-03 6.33949E-01-1.79867E-13 4.36004E-14
 -1      3039 1.99694E+01 4.40192E-01-2.25385E-03 8.25424E-01-1.22594E-14-5.44079E-14
 -1      3040 1.99849E+01 4.55273E-01 1.88723E-03 9.05513E-01-5.28718E-14-4.08725E-14
 -1      3041 1.98086E+01 4.99040E-01 1.44121E-03 7.77068E-01-6.66467E-14-6.50113E-14
 -1      3042 1.99425E+01 4.59345E-01-2.20713E-03 9.91305E-01-5.96632E-14-5.36152E-14
 -1      3043 1.99620E+01 4.53902E-01 2.13456E-03 1.07491E+00-8.36408E-15 6.64493E-15
 -1      3044 1.97352E+01 5.30571E-01 1.52368E-03 9.37097E-01-1.66264E-14-1.59581E-13
 -1      3045 1.99180E+01 4.30222E-01-1.76879E-03 1.16753E+00-7.19429E-14 4.50108E-14
 -1      3046 1.99486E+01 3.87790E-01 2.64838E-03 1.24896E+00-6.26731E-14-3.44398E-14
 -1      3047 1.96517E+01 5.16517E-01 1.19977E-03 1.11210E+00-1.24126E-14-1.29198E-13
 -1      3048 1.99139E+01 3.16354E-01-5.94953E-04 1.34625E+00-7.85723E-15-1.54555E-14
 -1      3049 1.99700E+01 2.12283E-01 3.66641E-03 1.41670E+00 9.80176E-14-1.49746E-14
 -1      3050 1.95710E+01 4.21512E-01 2.10200E-05 1.29978E+00-3.18902E-14-2.08783E-13
 -1      3051 1.99668E+01 6.41248E-02 1.95023E-03 1.51549E+00 1.09772E-13-7.54686E-15
 -1      3052 2.00755E+01-1.36306E-01 5.38025E-03 1.56128E+00 2.41127E-14-1.53159E-13
 -1      3053 1.95217E+01 1.92877E-01-2.76594E-03 1.49811E+00 3.72286E-14-4.95283E-14
 -1      3054 2.01468E+01-3.99304E-01 7.19453E-03 1.65416E+00-1.17909E-13-1.77003E-13
 -1      3055 2.03523E+01-7.38414E-01 8.02094E-03 1.65281E+00-1.89331E-13-2.17091E-13
 -1      3056 1.95616E+01-2.44705E-01-8.24136E-03 1.70375E+00-6.22861E-14-1.03591E-13
 -1      3057 2.05689E+01-1.15659E+00 1.66978E-02 1.72271E+00-1.15804E-13-1.74701E-13
 -1      3058 2.09385E+01-1.67430E+00 1.17409E-02 1.63543E+00 3.57258E-14-2.66951E-13
 -1      3059 1.97947E+01-9.80246E-01-1.62980E-02 1.90247E+00-6.20080E-14-1.93794E-13
 -1      3060 2.14188E+01-2.28829E+00 3.14574E-02 1.63949E+00 2.69277E-13-1.91633E-13
 -1      3061 2.20229E+01-2.98229E+00 1.08614E-02 1.38456E+00 3.27589E-13-1.32887E-13
 -1      3062 2.03886E+01-2.11225E+00-2.89117E-02 2.05892E+00 1.53328E-13-2.85196E-13
 -1      3063 2.29293E+01-3.72712E+00 5.49336E-02 1.19245E+00 1.63780E-13 1.48631E-13
 -1      3064 2.37738E+01-4.47221E+00-4.08049E-03 6.59589E-01 1.44804E-13 2.26505E-13
 -1      3065 2.16562E+01-3.68066E+00-2.83818E-02 2.04725E+00 5.46122E-13-1.87621E-13
 -1      3066 2.01854E+01 4.90300E-01-1.19736E-03 2.08763E-01 1.35018E-13-2.04595E-14
 -1      3067 2.02378E+01 6.25103E-01 4.66815E-05 3.43847E-01 1.51299E-13-3.46894E-14
 -1      3068 2.02677E+01 7.92595E-01 1.10204E-03 3.76401E-01 1.46047E-13-5.29464E-14
 -1      3069 2.02367E+01 5.26896E-01-1.82059E-05 1.90380E-01 1.00751E-13-2.77531E-14
 -1      3070 1.99821E+01-4.90690E-02 2.13400E-04-1.74118E-01 3.42470E-14 5.17531E-14
 -1      3071 1.99820E+01-4.14822E-02 4.49186E-04-1.79807E-01 4.85279E-14 2.57776E-14
 -1      3072 1.99777E+01-5.66480E-02 2.70502E-04-1.57653E-01 2.26561E-14 8.63271E-14
 -1      3073 1.99750E+01-5.38718E-02 1.38148E-04-1.66768E-01 2.70190E-14 8.83898E-14
 -1      3074 2.00304E+01-5.82467E-02-5.47442E-04-1.67964E-01 7.75314E-15 1.44506E-14
 -1      3075 1.99765E+01-5.74646E-02 2.89773E-04-1.37323E-01 3.99575E-15 8.26244E-14
 -1      3076 1.99725E+01-5.77870E-02-5.76691E-05-1.47867E-01 8.42538E-15 6.05439E-14
 -1      3077 2.00183E+01-6.60414E-02-4.01897E-04-1.51974E-01 1.96833E-14 5.28772E-14
 -1      3078 1.99775E+01-5.40320E-02 2.87774E-04-1.16096E-01 9.16919E-14 1.21408E-13
 -1      3079 1.99729E+01-5.62754E-02-1.72238E-04-1.26752E-01 6.64764E-14 9.27107E-14
 -1      3080 2.00100E+01-6.63091E-02-2.90473E-04-1.32336E-01 6.23024E-15 2.04985E-14
 -1      3081 1.99798E+01-4.80431E-02 2.75919E-04-9.58991E-02 5.80028E-14 1.21920E-13
 -1      3082 1.99750E+01-5.14228E-02-2.31785E-04-1.05823E-01 1.05962E-13 1.29613E-13
 -1      3083 2.00048E+01-6.18509E-02-2.07851E-04-1.11920E-01 9.04642E-14 6.59576E-14
 -1      3084 1.99828E+01-4.05811E-02 2.62349E-04-7.79497E-02 3.23791E-14 5.52546E-14
 -1      3085 1.99782E+01-4.46055E-02-2.56064E-04-8.66134E-02 4.63218E-14 9.60020E-14
 -1      3086 2.00017E+01-5.45438E-02-1.48600E-04-9.26015E-02 5.14448E-14 1.33377E-13
 -1      3087 1.99863E+01-3.22697E-02 2.53055E-04-6.30124E-02-4.80454E-15 1.64124E-13
 -1      3088 1.99819E+01-3.66684E-02-2.59747E-04-7.00845E-02 1.13685E-14 1.31175E-13
 -1      3089 2.00002E+01-4.55737E-02-1.07857E-04-7.55808E-02 3.00801E-14 1.41076E-14
 -1      3090 1.99901E+01-2.33841E-02 2.52617E-04-5.15915E-02-1.67945E-15 6.03375E-14
 -1      3091 1.99860E+01-2.80550E-02-2.53672E-04-5.68475E-02 1.27581E-14 1.55040E-13
 -1      3092 1.99999E+01-3.56050E-02-8.15047E-05-6.16279E-02 3.42290E-14 1.01900E-13
 -1      3093 1.99943E+01-1.39330E-02 2.64711E-04-4.40804E-02-1.43513E-14 6.10303E-14
 -1      3094 1.99902E+01-1.89026E-02-2.45876E-04-4.73335E-02-2.07742E-14 4.64231E-14
 -1      3095 2.00005E+01-2.49056E-02-6.61184E-05-5.12725E-02-1.72348E-14-6.81787E-14
 -1      3096 1.99988E+01-3.71975E-03 2.92440E-04-4.08747E-02 2.63910E-14 1.46181E-13
 -1      3097 1.99946E+01-9.11394E-03-2.42407E-04-4.19237E-02 1.62963E-15 1.24467E-13
 -1      3098 2.00019E+01-1.34400E-02-5.88294E-05-4.49487E-02-4.43152E-14-5.35545E-14
 -1      3099 2.00040E+01 7.60995E-03 3.38515E-04-4.24587E-02 6.14303E-14 1.38234E-13
 -1      3100 1.99994E+01 1.58917E-03-2.47946E-04-4.10484E-02 6.95237E-14 1.86184E-13
 -1      3101 2.00038E+01-9.39267E-04-5.71526E-05-4.31054E-02 2.25165E-14 1.25424E-13
 -1      3102 2.00099E+01 2.05286E-02 4.05300E-04-4.94691E-02-7.64314E-15 1.35156E-13
 -1      3103 2.00047E+01 1.36228E-02-2.66237E-04-4.52609E-02 8.46986E-14 1.84233E-13
 -1      3104 2.00062E+01 1.30430E-02-5.88135E-05-4.62895E-02 4.40117E-14 1.78206E-13
 -1      3105 2.00169E+01 3.55876E-02 4.94699E-04-6.27385E-02 6.62881E-14 1.97267E-13
 -1      3106 2.00108E+01 2.75024E-02-3.00354E-04-5.52920E-02-1.44788E-14 1.36978E-13
 -1      3107 2.00090E+01 2.90833E-02-6.15864E-05-5.52069E-02 5.18742E-16 1.29657E-13
 -1      3108 2.00254E+01 5.33716E-02 6.07878E-04-8.33194E-02 1.81763E-14 3.16194E-13
 -1      3109 2.00178E+01 4.38015E-02-3.52763E-04-7.20838E-02 5.86712E-14 2.63633E-13
 -1      3110 2.00121E+01 4.78383E-02-6.31636E-05-7.07624E-02 1.01249E-14 2.51364E-13
 -1      3111 2.00356E+01 7.44339E-02 7.44792E-04-1.12481E-01 7.12583E-14 2.44266E-13
 -1      3112 2.00262E+01 6.30982E-02-4.25167E-04-9.68009E-02 7.73436E-14 2.65503E-13
 -1      3113 2.00154E+01 6.99849E-02-6.10915E-05-9.40774E-02 6.16703E-14 2.46411E-13
 -1      3114 2.00480E+01 9.92031E-02 9.03528E-04-1.51673E-01-5.50844E-14 1.97932E-13
 -1      3115 2.00362E+01 8.58985E-02-5.18053E-04-1.30814E-01 7.59000E-14 2.50048E-13
 -1      3116 2.00189E+01 9.61353E-02-5.28398E-05-1.26482E-01 9.47687E-14 1.50342E-13
 -1      3117 2.00628E+01 1.27839E-01 1.07945E-03-2.02445E-01 9.24308E-14 1.14177E-13
 -1      3118 2.00483E+01 1.12521E-01-6.29832E-04-1.75645E-01-1.76114E-14 1.64345E-13
 -1      3119 2.00222E+01 1.26712E-01-3.61310E-05-1.69470E-01 4.30281E-14 3.71454E-14
 -1      3120 2.00807E+01 1.60019E-01 1.26426E-03-2.66297E-01 9.51922E-14 1.07384E-13
 -1      3121 2.00627E+01 1.42921E-01-7.55387E-04-2.32854E-01 1.54661E-13 1.22812E-13
 -1      3122 2.00253E+01 1.61761E-01-9.74881E-06-2.24611E-01 7.60463E-14 1.21594E-13
 -1      3123 2.01019E+01 1.94612E-01 1.44505E-03-3.44443E-01-2.45575E-15 2.51868E-14
 -1      3124 2.00801E+01 1.76428E-01-8.83780E-04-3.03861E-01 8.42656E-14 1.00309E-13
 -1      3125 2.00280E+01 2.00672E-01 2.48031E-05-2.93395E-01 1.29590E-13 1.76619E-13
 -1      3126 2.01274E+01 2.29209E-01 1.60380E-03-4.37454E-01-2.41110E-14 9.10321E-15
 -1      3127 2.01009E+01 2.11357E-01-9.94699E-04-3.89655E-01-6.32377E-14 6.33786E-14
 -1      3128 2.00301E+01 2.41765E-01 6.01905E-05-3.77003E-01-4.15168E-15 2.34299E-13
 -1      3129 2.01581E+01 2.59444E-01 1.71747E-03-5.44750E-01-1.97099E-14-1.06853E-13
 -1      3130 2.01263E+01 2.44440E-01-1.05311E-03-4.90380E-01-5.54991E-15-7.52803E-14
 -1      3131 2.00319E+01 2.81702E-01 7.77789E-05-4.75972E-01 1.73800E-15 6.35633E-14
 -1      3132 2.01964E+01 2.78056E-01 1.75911E-03-6.63885E-01-7.34739E-14-1.11200E-13
 -1      3133 2.01582E+01 2.70026E-01-1.00134E-03-6.04749E-01 1.74753E-14-5.78266E-14
 -1      3134 2.00346E+01 3.14645E-01 3.85357E-05-5.89743E-01-3.25250E-14-2.14613E-14
 -1      3135 2.02462E+01 2.73659E-01 1.69917E-03-7.89601E-01-1.73949E-13-1.36326E-13
 -1      3136 2.01997E+01 2.79007E-01-7.47638E-04-7.29237E-01-1.70711E-13-1.82684E-13
 -1      3137 2.00407E+01 3.31129E-01-1.31217E-04-7.16070E-01-5.96154E-14-3.13760E-15
 -1      3138 2.03151E+01 2.29286E-01 1.50321E-03-9.12560E-01 5.95896E-14-1.53129E-13
 -1      3139 2.02573E+01 2.57452E-01-1.50690E-04-8.57000E-01-6.10234E-14-1.52643E-13
 -1      3140 2.00557E+01 3.16607E-01-5.60413E-04-8.50256E-01-6.31896E-14-1.38296E-13
 -1      3141 2.04163E+01 1.21044E-01 1.11877E-03-1.01768E+00 1.83509E-13-6.61805E-14
 -1      3142 2.03419E+01 1.85153E-01 9.98082E-04-9.76411E-01 1.17606E-13-1.59231E-13
 -1      3143 2.00902E+01 2.49793E-01-1.45925E-03-9.84135E-01 2.89286E-14-1.22894E-13
 -1      3144 2.05721E+01-8.22104E-02 4.31953E-04-1.08183E+00-5.75885E-14-8.64226E-14
 -1      3145 2.04724E+01 3.46342E-02 2.99077E-03-1.06902E+00 1.02093E-13-7.42961E-14
 -1      3146 2.01629E+01 1.01261E-01-3.14076E-03-1.10459E+00 4.80280E-14-2.00090E-14
 -1      3147 2.08164E+01-4.16127E-01-8.70823E-04-1.07073E+00-1.20785E-13 1.37870E-13
 -1      3148 2.06790E+01-2.27963E-01 6.19251E-03-1.10661E+00-8.73604E-14-3.08412E-14
 -1      3149 2.03054E+01-1.66566E-01-6.02308E-03-1.19113E+00-7.53155E-14 2.47292E-14
 -1      3150 2.11956E+01-9.10712E-01-3.42716E-03-9.34224E-01-1.79055E-13 2.65464E-13
 -1      3151 2.10060E+01-6.37259E-01 1.09232E-02-1.04663E+00-8.39869E-14 2.49826E-13
 -1      3152 2.05662E+01-5.95567E-01-1.05937E-02-1.21144E+00-2.23853E-13 1.24511E-13
 -1      3153 2.17605E+01-1.56498E+00-8.22788E-03-6.01020E-01-2.94400E-13 2.96437E-13
 -1      3154 2.15091E+01-1.21201E+00 1.73366E-02-8.25592E-01-3.13192E-13 2.93792E-13
 -1      3155 2.10143E+01-1.21822E+00-1.69272E-02-1.11291E+00-2.86842E-13 3.92480E-13
 -1      3156 2.25406E+01-2.29549E+00-1.60836E-02 2.30798E-02-9.68670E-14-5.72088E-14
 -1      3157 2.22386E+01-1.91926E+00 2.43518E-02-3.52536E-01-1.58487E-13 1.14721E-13
 -1      3158 2.17315E+01-2.02377E+00-2.36679E-02-8.09376E-01-1.71550E-13-6.00550E-14
 -1      3159 2.34911E+01-2.84951E+00-2.27525E-02 1.03348E+00-2.13033E-14-1.75472E-14
 -1      3160 2.31905E+01-2.60631E+00 2.79973E-02 4.84274E-01-1.17624E-13 1.22086E-14
 -1      3161 2.27787E+01-2.88785E+00-2.70189E-02-1.69847E-01-1.07942E-13-2.01939E-13
 -1      3162 2.44355E+01-2.74186E+00-1.43364E-02 2.44295E+00 9.65547E-15-4.56839E-14
 -1      3163 2.42230E+01-2.92365E+00 1.90766E-02 1.75373E+00 8.44411E-14-6.18185E-15
 -1      3164 2.41112E+01-3.45866E+00-1.85656E-02 9.55077E-01-2.21719E-14-3.10082E-16
 -1      3165 2.49807E+01-1.34634E+00 2.42785E-03 3.95019E+00 5.97218E-14-1.54021E-13
 -1      3166 2.49796E+01-2.23370E+00-4.16791E-03 3.30714E+00 1.97897E-14-2.07474E-13
 -1      3167 2.54477E+01-3.03094E+00 2.46114E-02 2.61831E+00 1.20038E-13-2.98511E-13
 -1      3168 2.56987E+01 5.54235E-01-2.25553E-02 4.70344E+00 1.01912E-13-1.51833E-13
 -1      3169 2.60545E+01-1.05269E+00-4.58498E-02 4.43879E+00 6.54234E-14-2.09659E-13
 -1      3170 2.40315E+01 6.37356E+00-1.52466E-01 4.10914E+00-5.91333E-14-3.18787E-13
 -1      3171 2.47597E+01 4.84749E+00-1.62315E-01 4.89129E+00 2.29747E-14-2.22291E-13
 -1      3172 2.38219E+01 7.65741E+00-1.27761E-01 3.13457E+00-7.42462E-15-4.40453E-13
 -1      3173 2.00725E+01 1.51545E-01-9.34499E-04-7.79187E-02 2.86232E-14 3.32681E-14
 -1      3174 2.01071E+01 2.16452E-01 4.41036E-03-2.31134E-02 4.82758E-14 1.55283E-14
 -1      3175 2.01889E+01 3.08428E-01-3.53644E-03 3.37904E-02 6.31455E-14 2.53930E-14
 -1      3176 2.01415E+01 1.61406E-01-1.35748E-03-7.86431E-02 3.98650E-15 3.88591E-14
 -1      3177 2.52299E+01 9.83055E+00-1.33046E-01 2.58350E+00-5.37625E-14-4.13846E-13
 -1      3178 2.00429E+01 2.16087E+00-4.35856E-03 2.93137E-01 9.01744E-14-1.72345E-13
 -1      3179 2.00300E+01 2.19959E+00-3.33495E-03 1.70844E-01 6.37538E-14-1.84687E-13
 -1      3180 1.93818E+01-5.71266E+00 1.89088E-02 4.73586E+00 2.81906E-13-2.83315E-14
 -1      3181 1.58503E+01-3.99917E+00 7.38575E-02 4.65629E+00 1.51740E-13 1.38813E-13
 -1      3182 2.50607E+01-7.03123E+00-2.20599E-02 2.24485E+00 2.24043E-13-1.94544E-13
 -1      3183 2.24650E+01-6.58222E+00 7.39056E-02 3.62420E+00 2.41702E-13-9.95107E-14
 -1      3184 2.91678E+01 1.05720E+00-8.47473E-02-6.02012E+00-1.61191E-13 8.23924E-14
 -1      3185 2.89183E+01-5.66635E+00-5.33162E-02-1.74619E+00 2.17375E-13-8.16951E-14
 -1      3186 2.71895E+01-6.59763E+00 2.16865E-02 2.63016E-01 2.76780E-13-1.42769E-13
 -1      3187 1.51014E+01-4.40151E+00 1.76958E-01-5.49869E+00-1.04021E-13-5.16281E-13
 -1      3188 1.78374E+01-5.55525E+00 2.84284E-02-5.49831E+00-9.77135E-14-5.32491E-13
 -1      3189 2.70341E+01-6.86000E+00 1.12350E-01-1.71756E+00-9.81853E-15-3.51372E-13
 -1      3190 2.84755E+01-5.74639E+00-8.86151E-02 7.14567E-01 1.06621E-13-3.48041E-13
 -1      3191 2.54435E+01-6.72933E+00 5.72249E-02-2.26991E+00 2.63609E-14-3.37418E-13
 -1      3192 1.99916E+01-3.10907E-02 9.34539E-05-1.82280E-01 7.62483E-15 1.84853E-14
 -1      3193 1.99956E+01-1.62352E-02 9.17519E-04-1.81590E-01-3.27398E-14 3.63894E-14
 -1      3194 2.00711E+01-2.11192E-03-9.50288E-04-1.70026E-01-3.83494E-14 1.61629E-14
 -1      3195 2.00227E+01 2.21872E+00-3.67528E-03 6.60356E-02 5.29691E-14-1.56257E-13
 -1      3196 2.00222E+01 2.21964E+00-3.66904E-03-5.80321E-02 1.93690E-14-1.54567E-13
 -1      3197 2.01368E+01 1.92262E+00 4.95845E-03 1.01312E-01 4.93632E-14-1.55029E-13
 -1      3198 2.00475E+01-3.88697E-02-7.30636E-04-1.76039E-01 1.07145E-14 1.86369E-14
 -1      3199 2.02384E+01 1.48380E+00-5.29057E-03-8.76770E-01-1.22205E-13-1.32109E-13
 -1      3200 9.50635E+00-1.28560E+00 2.07435E-01-1.60825E+00-2.89040E-14-1.43677E-13
 -1      3201 1.10127E+01-1.48765E+00 8.78721E-02-2.39384E+00 4.08094E-14-3.49457E-13
 -1      3202 2.13049E+01-5.40523E+00 7.70698E-02 3.47092E+00 3.27106E-13-5.38146E-14
 -1      3203 1.41653E+01-3.28497E+00 1.12206E-01-4.61399E+00-3.42365E-14-3.97980E-13
 -1      3204 2.52836E+01-5.03047E+00 6.47774E-02-4.99999E-02 1.21408E-13 1.53860E-13
 -1      3205 2.63373E+01-5.30350E+00-1.25121E-02-1.01577E+00 2.13492E-13 1.12577E-13
 -1      3206 2.85725E+01-5.02740E+00-4.90793E-02-2.49173E+00 2.03549E-13 7.35800E-14
 -1      3207 2.95988E+01-3.53704E+00-6.05468E-03-3.82053E+00 6.00145E-14 4.69555E-14
 -1      3208 2.58956E+01 2.24267E+00-6.26531E-02 5.31057E+00 1.41880E-13-1.36384E-13
 -1      3209 2.01994E+01 1.58354E+00-9.83812E-03 6.40901E-01 1.66617E-13-1.04724E-13
 -1      3210 2.01660E+01 1.72152E+00-4.27398E-03 5.51160E-01 1.44298E-13-9.65492E-14
 -1      3211 2.03019E+01 1.08849E+00 9.77470E-03 4.65046E-01 1.43030E-13-7.73623E-14
 -1      3212 2.60870E+01-6.78558E+00 2.33543E-02 1.24210E+00 3.32991E-13-3.39617E-13
 -1      3213 2.47116E+01-6.13968E+00 1.42369E-02 1.55213E+00 2.27988E-13-1.62668E-13
 -1      3214 2.00647E+01 2.10223E+00-3.48386E-03 3.90696E-01 1.03683E-13-1.43202E-13
 -1      3215 2.01596E+01 1.84522E+00 4.78412E-03 2.89496E-01 9.60457E-14-1.37917E-13
 -1      3216 2.00917E+01 2.01437E+00-7.60144E-03 5.10398E-01 1.29600E-13-1.23504E-13
 -1      3217 1.67773E+01-3.22929E+00 6.20624E-02 3.90926E+00 9.29968E-14 2.93099E-13
 -1      3218 1.43090E+01-2.82174E+00 1.13079E-01 4.20128E+00-1.71356E-14 6.11872E-14
 -1      3219 1.34909E+01-1.69520E+00 2.98916E-02 2.99709E+00-1.32436E-13-3.35565E-14
 -1      3220 1.22429E+01-2.28490E+00 3.42020E-02 3.42743E+00-3.94094E-14-1.50144E-13
 -1      3221 1.04491E+01-1.42107E+00 2.05027E-01 2.19850E+00-3.22095E-14 2.22600E-14
 -1      3222 1.97339E+01-5.80847E+00 1.22956E-01-4.97627E+00-6.01047E-14-3.98473E-13
 -1      3223 2.12903E+01-6.18974E+00-4.11644E-02-4.23874E+00 2.41474E-15-3.87440E-13
 -1      3224 1.85150E+01-4.80525E+00 3.24590E-02-4.72786E+00-1.84366E-13-5.06241E-13
 -1      3225 2.01187E+01 1.94020E+00-2.66196E-03-5.82441E-01-6.60348E-14-1.51970E-13
 -1      3226 2.01567E+01 1.81179E+00-6.43047E-03-6.81974E-01-9.20206E-14-1.50045E-13
 -1      3227 9.26660E+00-1.41986E+00 5.54490E-02 3.56959E-01 3.65159E-14 2.48412E-14
 -1      3228 2.00609E+01 2.11175E+00-3.02778E-03-3.82966E-01-2.15258E-14-1.73632E-13
 -1      3229 2.00855E+01 2.03436E+00-5.09817E-03-4.97776E-01-4.69380E-14-1.77863E-13
 -1      3230 2.01946E+01 1.70252E+00 4.10841E-03-4.51791E-01-6.68671E-14-1.51504E-13
 -1      3231 2.02322E+01 1.50393E+00-2.76939E-03-7.68926E-01-1.26015E-13-1.41125E-13
 -1      3232 2.98328E+01-1.64356E+00-1.93598E-01-5.33724E+00-1.06980E-14 3.68039E-14
 -1      3233 2.39423E+01-5.31062E+00-1.97147E-02 1.29972E+00 9.25839E-14 1.04304E-13
 -1      3234 2.00566E+01-7.42099E-02 2.92404E-04-1.40152E-01 1.30656E-14 6.11896E-14
 -1      3235 2.00621E+01-7.16455E-02 2.19767E-04-1.48566E-01 2.63207E-14 5.31018E-14
 -1      3236 2.02846E+01 1.16225E+00-5.85010E-05-4.75924E-01-9.61684E-14-1.46963E-13
 -1      3237 2.02861E+01 9.30660E-01-4.10982E-03-3.36616E-01-7.60185E-14-1.40205E-13
 -1      3238 2.03158E+01 7.36409E-01 3.34874E-03-2.41851E-01-4.64925E-14-1.22518E-13
 -1      3239 2.02939E+01 5.72752E-01-3.18799E-03-1.41023E-01-2.36760E-14-1.10131E-13
 -1      3240 2.03132E+01 9.28542E-01-1.09204E-03-2.82874E-01-4.05837E-14-1.21032E-13
 -1      3241 2.02992E+01 4.39621E-01 2.74448E-03-7.09354E-02-2.36846E-14-7.74277E-14
 -1      3242 2.02737E+01 3.26560E-01-2.16382E-03-4.26544E-03-2.34648E-14-6.32342E-14
 -1      3243 2.03291E+01 5.79943E-01 9.40174E-04-1.14109E-01-1.96123E-14-7.85089E-14
 -1      3244 2.02654E+01 2.36822E-01 2.14802E-03 4.07312E-02-3.42687E-14-4.77815E-14
 -1      3245 2.02407E+01 1.61222E-01-1.29593E-03 8.13983E-02-5.70944E-14-1.62181E-14
 -1      3246 2.03135E+01 3.28215E-01-4.76219E-05 3.29105E-03-1.75553E-14-5.72576E-14
 -1      3247 2.02257E+01 1.02115E-01 1.62257E-03 1.07352E-01-7.92333E-14 2.88734E-14
 -1      3248 2.02040E+01 5.30694E-02-6.66538E-04 1.28988E-01-3.48006E-14 2.55870E-14
 -1      3249 2.02816E+01 1.58450E-01-4.27370E-04 7.75361E-02-3.55182E-14 1.18779E-14
 -1      3250 2.01864E+01 1.56021E-02 1.13668E-03 1.41084E-01-1.86954E-14 1.28716E-14
 -1      3251 2.01684E+01-1.46770E-02-2.36568E-04 1.49600E-01 7.55743E-16-2.54564E-14
 -1      3252 2.02435E+01 4.70806E-02-5.84312E-04 1.18623E-01-4.49498E-14 6.92835E-14
 -1      3253 2.01505E+01-3.70042E-02 7.44038E-04 1.52286E-01 3.96958E-14-3.79309E-14
 -1      3254 2.01362E+01-5.42100E-02 4.03559E-05 1.52270E-01 3.88452E-14-1.33824E-14
 -1      3255 2.02048E+01-2.25228E-02-6.24105E-04 1.36086E-01 5.84817E-15-2.15512E-14
 -1      3256 2.01194E+01-6.61034E-02 4.48040E-04 1.49008E-01 2.26422E-14 1.57749E-14
 -1      3257 2.01083E+01-7.43759E-02 2.06395E-04 1.43845E-01 1.85116E-14 2.32614E-14
 -1      3258 2.01684E+01-6.27718E-02-5.99847E-04 1.37790E-01 4.84827E-14-5.16833E-14
 -1      3259 2.00934E+01-7.92285E-02 2.35609E-04 1.37192E-01-1.43980E-14 5.39278E-14
 -1      3260 2.00850E+01-8.15499E-02 2.95652E-04 1.29296E-01-1.48042E-14 7.21170E-14
 -1      3261 2.01361E+01-8.28132E-02-5.43995E-04 1.29764E-01 1.64918E-14-2.66508E-14
 -1      3262 2.00721E+01-8.17821E-02 8.91629E-05 1.21060E-01-3.75229E-14 6.86773E-14
 -1      3263 2.00659E+01-8.02638E-02 3.34278E-04 1.12096E-01-3.99007E-14 6.88748E-14
 -1      3264 2.01084E+01-8.92913E-02-4.74994E-04 1.16413E-01-2.01640E-14-4.09701E-14
 -1      3265 2.00552E+01-7.75654E-02-8.49860E-06 1.03517E-01-5.88445E-14 6.15522E-15
 -1      3266 2.00507E+01-7.36589E-02 3.41716E-04 9.46024E-02-8.36884E-14-1.62142E-15
 -1      3267 2.00853E+01-8.69410E-02-4.03173E-04 1.00831E-01-5.64002E-14 1.95876E-14
 -1      3268 2.00419E+01-6.91666E-02-7.23112E-05 8.64978E-02-1.10663E-13-1.04873E-14
 -1      3269 2.00389E+01-6.38212E-02 3.32151E-04 7.83673E-02-1.06562E-13 2.81355E-14
 -1      3270 2.00664E+01-7.90353E-02-3.34059E-04 8.51248E-02-6.99911E-14-5.74393E-14
 -1      3271 2.00319E+01-5.82511E-02-1.14553E-04 7.12708E-02-6.22927E-14 7.60903E-15
 -1      3272 2.00299E+01-5.20334E-02 3.15778E-04 6.44035E-02-2.32131E-14 4.05777E-14
 -1      3273 2.00514E+01-6.77294E-02-2.70167E-04 7.06916E-02-7.93486E-14-9.26075E-15
 -1      3274 2.00243E+01-4.57808E-02-1.45122E-04 5.86658E-02-6.03605E-14 6.97461E-15
 -1      3275 2.00233E+01-3.89649E-02 2.99833E-04 5.33882E-02-9.17641E-14 2.51287E-14
 -1      3276 2.00397E+01-5.43234E-02-2.12036E-04 5.84552E-02-4.71428E-14-4.94409E-14
 -1      3277 2.00187E+01-3.21793E-02-1.72028E-04 4.92589E-02-1.42795E-13 5.52842E-14
 -1      3278 2.00183E+01-2.48142E-02 2.89388E-04 4.58225E-02-1.36399E-13 5.51108E-14
 -1      3279 2.00305E+01-3.94625E-02-1.58839E-04 4.90484E-02-1.04670E-13 2.21600E-14
 -1      3280 2.00145E+01-1.74551E-02-2.01904E-04 4.35132E-02-7.29893E-14 1.20431E-13
 -1      3281 2.00146E+01-9.41527E-03 2.87940E-04 4.21545E-02-2.20247E-14 1.02409E-13
 -1      3282 2.00231E+01-2.32886E-02-1.08749E-04 4.29574E-02-9.44813E-14 1.64666E-13
 -1      3283 2.00111E+01-1.29405E-03-2.40447E-04 4.18872E-02-3.91377E-14 1.16522E-13
 -1      3284 2.00115E+01 7.68327E-03 2.97802E-04 4.28735E-02-1.27646E-14 1.14995E-13
 -1      3285 2.00170E+01-5.55310E-03-5.91240E-05 4.06319E-02-3.76662E-14 1.95650E-13
 -1      3286 2.00079E+01 1.68721E-02-2.92771E-04 4.49169E-02 1.91198E-14 5.37974E-14
 -1      3287 2.00084E+01 2.71575E-02 3.20334E-04 4.85804E-02 7.74253E-14 6.49311E-14
 -1      3288 2.00111E+01 1.42975E-02-6.58397E-06 4.25695E-02-3.61661E-14 1.36370E-13
 -1      3289 2.00043E+01 3.78106E-02-3.63661E-04 5.32765E-02 9.39528E-14 1.71123E-14
 -1      3290 2.00048E+01 4.98573E-02 3.56003E-04 6.00388E-02 1.57894E-13-4.12197E-14
 -1      3291 2.00048E+01 3.70544E-02 5.29960E-05 4.93766E-02 3.07595E-14 9.47303E-14
 -1      3292 1.99995E+01 6.24385E-02-4.57702E-04 6.78208E-02 2.21769E-13-4.75723E-14
 -1      3293 1.99997E+01 7.67564E-02 4.04311E-04 7.82074E-02 1.69156E-13-3.69280E-14
 -1      3294 1.99970E+01 6.36881E-02 1.24551E-04 6.18123E-02 1.63023E-13 2.48440E-14
 -1      3295 1.99926E+01 9.17691E-02-5.79292E-04 8.96081E-02 3.71566E-14-1.13684E-13
 -1      3296 1.99922E+01 1.08893E-01 4.63592E-04 1.04252E-01-1.59779E-14-1.45198E-13
 -1      3297 1.99865E+01 9.52877E-02 2.13920E-04 8.08115E-02 3.67038E-14-9.84845E-14
 -1      3298 1.99824E+01 1.26843E-01-7.32516E-04 1.19902E-01-9.90061E-15-1.38926E-13
 -1      3299 1.99811E+01 1.47285E-01 5.30752E-04 1.39535E-01-5.35878E-15-1.33183E-13
 -1      3300 1.99719E+01 1.32986E-01 3.27933E-04 1.07488E-01 9.75469E-15-2.75070E-13
 -1      3301 1.99675E+01 1.68629E-01-9.20862E-04 1.60148E-01-2.34666E-14-1.62316E-13
 -1      3302 1.99647E+01 1.92813E-01 6.01064E-04 1.85574E-01 6.59247E-15-1.99060E-13
 -1      3303 1.99513E+01 1.77857E-01 4.74426E-04 1.43116E-01-2.03039E-14-2.21016E-13
 -1      3304 1.99462E+01 2.17871E-01-1.14677E-03 2.11916E-01 6.31107E-14-2.93994E-13
 -1      3305 1.99412E+01 2.46029E-01 6.68266E-04 2.43965E-01 5.50001E-14-2.44032E-13
 -1      3306 1.99227E+01 2.30761E-01 6.62065E-04 1.89076E-01 9.68690E-15-2.32923E-13
 -1      3307 1.99163E+01 2.74865E-01-1.41099E-03 2.76812E-01 4.97604E-14-2.89503E-13
 -1      3308 1.99081E+01 3.06877E-01 7.25454E-04 3.16268E-01 4.30165E-14-1.80599E-13
 -1      3309 1.98835E+01 2.92119E-01 8.99800E-04 2.46783E-01 6.30699E-14-3.45153E-13
 -1      3310 1.98752E+01 3.39104E-01-1.71189E-03 3.56344E-01-2.85423E-14-1.18430E-13
 -1      3311 1.98627E+01 3.74267E-01 7.67617E-04 4.03852E-01-2.55903E-14 3.09438E-14
 -1      3312 1.98304E+01 3.61581E-01 1.19559E-03 3.17571E-01 9.57623E-14-2.42991E-13
 -1      3313 1.98197E+01 4.08759E-01-2.04459E-03 4.51772E-01-7.02802E-14 2.90858E-14
 -1      3314 1.98018E+01 4.45436E-01 7.97251E-04 5.07724E-01-1.02355E-13 1.00342E-14
 -1      3315 1.97598E+01 4.37527E-01 1.55388E-03 4.02579E-01 1.70330E-14-1.77001E-13
 -1      3316 1.97466E+01 4.79897E-01-2.40032E-03 5.63958E-01-1.76161E-13 3.14150E-14
 -1      3317 1.97220E+01 5.14996E-01 8.35160E-04 6.28383E-01-2.04990E-13-2.79008E-15
 -1      3318 1.96677E+01 5.16358E-01 1.97086E-03 5.02662E-01-1.51898E-13-5.53127E-14
 -1      3319 1.96527E+01 5.45321E-01-2.76588E-03 6.93302E-01-2.03630E-13 6.92561E-16
 -1      3320 1.96209E+01 5.73550E-01 9.38923E-04 7.65811E-01-1.21652E-13-9.01387E-14
 -1      3321 1.95498E+01 5.91469E-01 2.42585E-03 6.18428E-01-2.41579E-13-1.50159E-14
 -1      3322 1.95359E+01 5.92902E-01-3.12315E-03 8.39895E-01-3.25181E-14-1.56948E-13
 -1      3323 1.94980E+01 6.05708E-01 1.23092E-03 9.19744E-01 1.36887E-14-2.06095E-13
 -1      3324 1.94023E+01 6.51797E-01 2.86564E-03 7.50558E-01-1.29900E-13-1.93011E-13
 -1      3325 1.93971E+01 6.03226E-01-3.44798E-03 1.00410E+00 1.07968E-14-1.83373E-13
 -1      3326 1.93573E+01 5.87348E-01 1.93845E-03 1.09048E+00-7.09810E-14-2.47182E-13
 -1      3327 1.92231E+01 6.79821E-01 3.17554E-03 9.00668E-01-3.07085E-14-2.74839E-13
 -1      3328 1.92430E+01 5.46422E-01-3.69478E-03 1.18784E+00 4.41796E-14-1.60544E-13
 -1      3329 1.92121E+01 4.81985E-01 3.45312E-03 1.28042E+00 1.26601E-13-9.65330E-14
 -1      3330 1.90139E+01 6.48867E-01 3.13247E-03 1.07307E+00 2.50940E-14-1.65000E-13
 -1      3331 1.90922E+01 3.78122E-01-3.67931E-03 1.39670E+00 1.88335E-14 1.32569E-14
 -1      3332 1.90927E+01 2.36401E-01 6.54140E-03 1.49628E+00-1.41063E-14-2.63506E-14
 -1      3333 1.87837E+01 5.19441E-01 2.34882E-03 1.27784E+00 1.06943E-13-7.47858E-15
 -1      3334 1.89849E+01 3.41535E-02-2.90616E-03 1.64354E+00-2.06792E-14-1.58980E-14
 -1      3335 1.90591E+01-2.26000E-01 1.21236E-02 1.75090E+00-1.98815E-14-1.04472E-14
 -1      3336 1.85553E+01 2.35597E-01 4.25501E-04 1.53579E+00-6.48814E-15-3.17341E-14
 -1      3337 1.90078E+01-5.81493E-01-9.47032E-05 1.94416E+00 1.92682E-14 4.00754E-15
 -1      3338 1.92266E+01-1.00514E+00 2.20410E-02 2.04849E+00 4.53834E-14 7.27437E-14
 -1      3339 1.83848E+01-2.87257E-01-1.75975E-03 1.88956E+00 3.56542E-14 1.09831E-13
 -1      3340 1.93000E+01-1.57115E+00 5.86571E-03 2.30271E+00-3.22771E-14 2.00154E-13
 -1      3341 1.97750E+01-2.22122E+00 3.42704E-02 2.38469E+00 2.03112E-13-1.34745E-14
 -1      3342 1.84003E+01-1.13890E+00 1.14212E-02 2.37967E+00 2.51244E-14 4.14803E-13
 -1      3343 2.86491E+01-5.06844E+00-3.28309E-02 1.60490E+00 1.48694E-13-1.57187E-13
 -1      3344 2.82030E+01-3.69386E+00 2.63917E-02 2.94272E+00 4.80878E-14 1.86240E-14
 -1      3345 2.00422E+01-7.37031E-02 3.28584E-04-1.21682E-01 3.71499E-14 7.59561E-15
 -1      3346 2.00457E+01-7.47948E-02 5.64664E-05-1.31293E-01 1.68781E-14 5.15284E-14
 -1      3347 2.00850E+01-8.26285E-02-4.51867E-04-1.29048E-01 3.17621E-14 2.81523E-14
 -1      3348 2.00750E+01-6.66848E-02 2.07143E-04-1.55566E-01-2.59673E-15 1.37244E-14
 -1      3349 2.00832E+01-5.84555E-02 4.63207E-04-1.60987E-01-1.97262E-14 2.31441E-15
 -1      3350 2.01087E+01-7.55138E-02-5.39487E-04-1.43474E-01-5.12744E-15 7.72291E-17
 -1      3351 2.00313E+01-6.81458E-02 3.34971E-04-1.02735E-01 4.59209E-14 6.12665E-14
 -1      3352 2.00333E+01-7.15102E-02-4.83260E-05-1.12345E-01 3.13275E-14 2.13799E-14
 -1      3353 2.00658E+01-8.12086E-02-3.70891E-04-1.11951E-01 4.29376E-14 1.15495E-14
 -1      3354 2.00232E+01-5.95291E-02 3.25486E-04-8.50042E-02 9.94417E-15 5.86226E-14
 -1      3355 2.00241E+01-6.42549E-02-1.12763E-04-9.38320E-02 5.11867E-14 7.85214E-14
 -1      3356 2.00505E+01-7.44196E-02-2.99405E-04-9.45465E-02 9.75376E-15-3.10314E-14
 -1      3357 2.00175E+01-4.90951E-02 3.10154E-04-6.95829E-02 9.98217E-15 6.31625E-14
 -1      3358 2.00176E+01-5.46286E-02-1.51324E-04-7.71251E-02 1.73225E-14 4.07557E-14
 -1      3359 2.00386E+01-6.43605E-02-2.37943E-04-7.83975E-02 3.13108E-14 2.26117E-14
 -1      3360 2.00135E+01-3.75163E-02 2.96173E-04-5.71875E-02 4.96221E-14 3.60568E-14
 -1      3361 2.00131E+01-4.35761E-02-1.75348E-04-6.31097E-02 6.22373E-14 8.01056E-14
 -1      3362 2.00295E+01-5.23193E-02-1.85704E-04-6.45256E-02 1.68085E-14 2.19383E-14
 -1      3363 2.00111E+01-2.50305E-02 2.88720E-04-4.83301E-02-2.99863E-14-1.31114E-14
 -1      3364 2.00102E+01-3.15433E-02-1.93714E-04-5.23843E-02-4.47249E-15 9.21935E-15
 -1      3365 2.00227E+01-3.89657E-02-1.41095E-04-5.36165E-02 4.76104E-14-8.34188E-15
 -1      3366 2.00096E+01-1.15428E-02 2.91539E-04-4.34516E-02-5.08928E-14-3.99503E-14
 -1      3367 2.00084E+01-1.85946E-02-2.13487E-04-4.54121E-02-5.48529E-14-8.47070E-14
 -1      3368 2.00176E+01-2.44972E-02-1.02007E-04-4.61801E-02-4.45276E-14 3.49993E-14
 -1      3369 2.00089E+01 3.29764E-03 3.07347E-04-4.30223E-02-3.65270E-14 1.09570E-13
 -1      3370 2.00073E+01-4.50180E-03-2.40435E-04-4.26382E-02-3.57386E-14 4.44005E-14
 -1      3371 2.00136E+01-8.74943E-03-6.59486E-05-4.26728E-02-7.64744E-14-2.35133E-14
 -1      3372 2.00086E+01 2.00346E-02 3.38081E-04-4.76184E-02 3.64298E-15 1.94258E-13
 -1      3373 2.00067E+01 1.11872E-02-2.79430E-04-4.45772E-02-2.92580E-16 1.37581E-13
 -1      3374 2.00102E+01 8.71853E-03-3.01065E-05-4.35910E-02-6.30516E-14 3.19839E-14
 -1      3375 2.00082E+01 3.93495E-02 3.85001E-04-5.79762E-02-5.56368E-15 5.09361E-14
 -1      3376 2.00060E+01 2.90901E-02-3.34680E-04-5.18792E-02 2.60781E-14 1.30767E-13
 -1      3377 2.00067E+01 2.85538E-02 8.63029E-06-4.95409E-02 2.08169E-14 1.12014E-13
 -1      3378 2.00074E+01 6.20020E-02 4.48664E-04-7.50268E-02 3.29470E-14 8.36457E-14
 -1      3379 2.00050E+01 4.99341E-02-4.09816E-04-6.53746E-02-7.02647E-15 9.60516E-14
 -1      3380 2.00024E+01 5.15446E-02 5.36351E-05-6.12875E-02 2.26252E-14 4.16418E-14
 -1      3381 2.00057E+01 8.87554E-02 5.28796E-04-9.99089E-02 8.24357E-14 1.30674E-14
 -1      3382 2.00030E+01 7.44906E-02-5.07764E-04-8.60989E-02 6.19486E-14 5.93271E-14
 -1      3383 1.99966E+01 7.85475E-02 1.08453E-04-7.97850E-02 3.18985E-14-6.86749E-14
 -1      3384 2.00025E+01 1.20273E-01 6.24102E-04-1.33955E-01 2.31266E-14 7.85964E-14
 -1      3385 1.99997E+01 1.03489E-01-6.30397E-04-1.15295E-01 3.85408E-14 5.53297E-14
 -1      3386 1.99884E+01 1.10396E-01 1.76583E-04-1.06185E-01 1.59190E-14-9.77731E-14
 -1      3387 1.99971E+01 1.56966E-01 7.32106E-04-1.78647E-01 4.48539E-14 5.41881E-14
 -1      3388 1.99942E+01 1.37489E-01-7.77866E-04-1.54385E-01 9.15332E-14 9.15664E-14
 -1      3389 1.99766E+01 1.47769E-01 2.61027E-04-1.41823E-01 4.18048E-14-4.96515E-14
 -1      3390 1.99887E+01 1.98769E-01 8.49195E-04-2.35522E-01 3.64602E-14 8.55103E-14
 -1      3391 1.99859E+01 1.76701E-01-9.47544E-04-2.04909E-01-3.98527E-14 4.67365E-14
 -1      3392 1.99602E+01 1.91006E-01 3.63438E-04-1.88170E-01 2.42217E-14 4.16350E-14
 -1      3393 1.99767E+01 2.44813E-01 9.71156E-04-3.06035E-01 4.33138E-14 3.06785E-13
 -1      3394 1.99739E+01 2.20710E-01-1.13245E-03-2.68413E-01 9.91791E-14 2.47052E-13
 -1      3395 1.99377E+01 2.39829E-01 4.82585E-04-2.46754E-01-3.48900E-14 7.98371E-14
 -1      3396 1.99603E+01 2.92956E-01 1.09469E-03-3.91346E-01 6.84134E-14 1.93681E-13
 -1      3397 1.99577E+01 2.68087E-01-1.31897E-03-3.46280E-01 8.47487E-14 2.61524E-13
 -1      3398 1.99079E+01 2.92954E-01 6.11739E-04-3.19039E-01 7.75577E-14 1.52195E-13
 -1      3399 1.99394E+01 3.39114E-01 1.22059E-03-4.92045E-01 7.07489E-15 1.36842E-13
 -1      3400 1.99367E+01 3.15824E-01-1.48365E-03-4.39504E-01 5.51943E-14 2.22180E-13
 -1      3401 1.98695E+01 3.47534E-01 7.34318E-04-4.06263E-01 7.33845E-14 6.91826E-14
 -1      3402 1.99150E+01 3.76357E-01 1.35934E-03-6.07800E-01-1.28864E-13 1.16861E-13
 -1      3403 1.99113E+01 3.58559E-01-1.58846E-03-5.48388E-01-9.82039E-14 8.45370E-14
 -1      3404 1.98222E+01 3.98394E-01 8.16863E-04-5.09251E-01-3.21410E-14 1.18524E-13
 -1      3405 1.98899E+01 3.93690E-01 1.53937E-03-7.36946E-01 2.40704E-14 6.14144E-14
 -1      3406 1.98834E+01 3.87514E-01-1.57355E-03-6.72184E-01-3.63671E-14 1.02963E-13
 -1      3407 1.97666E+01 4.36999E-01 7.97925E-04-6.28225E-01-6.00695E-14 1.59844E-14
 -1      3408 1.98709E+01 3.74525E-01 1.81573E-03-8.76011E-01 3.09665E-14-9.40609E-14
 -1      3409 1.98577E+01 3.89127E-01-1.34506E-03-8.08687E-01 1.04606E-13 8.48059E-14
 -1      3410 1.97058E+01 4.50109E-01 5.70714E-04-7.62649E-01 1.30310E-13 5.43822E-14
 -1      3411 1.98709E+01 2.94916E-01 2.26829E-03-1.01912E+00-1.41703E-15-8.01105E-14
 -1      3412 1.98439E+01 3.43389E-01-7.53802E-04-9.53738E-01-3.04090E-14-9.93383E-14
 -1      3413 1.96475E+01 4.18097E-01-4.42731E-05-9.11135E-01 4.56510E-15-6.51957E-15
 -1      3414 1.99131E+01 1.21972E-01 2.97908E-03-1.15698E+00-7.79989E-15-7.48666E-15
 -1      3415 1.98600E+01 2.22104E-01 4.37546E-04-1.10048E+00 3.40294E-15-9.95971E-14
 -1      3416 1.96064E+01 3.13005E-01-1.34178E-03-1.07131E+00-3.88320E-14 5.84273E-14
 -1      3417 2.00360E+01-1.86493E-01 3.95849E-03-1.27485E+00-1.56838E-13 7.34479E-14
 -1      3418 1.99370E+01-1.22264E-02 2.61895E-03-1.23787E+00-4.02548E-14 5.57265E-14
 -1      3419 1.96090E+01 9.67936E-02-3.77297E-03-1.23924E+00-8.46102E-14 1.31633E-13
 -1      3420 2.02993E+01-6.79100E-01 4.75255E-03-1.34802E+00-3.62615E-13 8.64093E-14
 -1      3421 2.01256E+01-4.05284E-01 6.42411E-03-1.34748E+00-2.61246E-13 4.40434E-14
 -1      3422 1.97005E+01-2.79167E-01-7.99862E-03-1.40733E+00-2.08279E-13 1.32557E-13
 -1      3423 2.07887E+01-1.39834E+00 4.39970E-03-1.33053E+00-2.53230E-13 1.29732E-13
 -1      3424 2.05039E+01-1.00486E+00 1.27211E-02-1.39522E+00-2.98353E-13 1.45456E-13
 -1      3425 1.99532E+01-8.72473E-01-1.52723E-02-1.55820E+00-3.14345E-13-1.27113E-13
 -1      3426 2.16102E+01-2.35024E+00 6.93947E-04-1.13635E+00-3.74408E-14-2.20977E-13
 -1      3427 2.11809E+01-1.83994E+00 2.33029E-02-1.31514E+00-6.67912E-14-6.06343E-14
 -1      3428 2.04781E+01-1.73532E+00-2.63825E-02-1.64912E+00-4.40235E-14-1.82930E-13
 -1      3429 2.28554E+01-3.41689E+00-9.11345E-03-6.07437E-01-1.34016E-13-1.67436E-13
 -1      3430 2.22809E+01-2.86850E+00 3.88819E-02-9.73537E-01-1.45856E-13-2.28783E-13
 -1      3431 2.14363E+01-2.87042E+00-3.67118E-02-1.57373E+00-8.37108E-14-2.43448E-13
 -1      3432 2.44870E+01-4.21740E+00-2.20640E-02 4.56093E-01-5.38666E-14-8.43110E-14
 -1      3433 2.38709E+01-3.86459E+00 5.26481E-02-1.54578E-01-7.78978E-14-1.60989E-13
 -1      3434 2.29835E+01-4.11278E+00-3.95102E-02-1.12102E+00-9.99593E-14-2.44900E-13
 -1      3435 2.66202E+01-3.65920E+00-3.11494E-02 2.60875E+00 8.11903E-14-1.85654E-13
 -1      3436 2.61084E+01-4.25765E+00 1.50486E-02 1.65028E+00 1.35839E-13-4.21200E-14
 -1      3437 2.70884E+01-2.38231E+00-4.71303E-02 3.84011E+00-5.04141E-14-2.51659E-13
 -1      3438 2.27759E+01 8.09920E+00-2.83010E-01 2.00112E+00-6.12010E-14-4.62803E-13
 -1      3439 2.65806E+01-5.89487E+00-1.05237E-02-3.35068E-01 2.72257E-13-1.88434E-14
 -1      3440 1.84510E+01-3.46749E+00 3.95431E-02 3.69937E+00 1.20102E-13 7.03410E-13
 -1      3441 1.68355E+01-2.48303E+00 3.12144E-02 3.43688E+00-1.02236E-13 5.38087E-13
 -1      3442 2.01261E+01-8.57036E-03-2.30998E-04-1.60287E-01-1.64614E-14 1.42269E-14
 -1      3443 2.01423E+01 2.06650E-02 1.27392E-03-1.50792E-01-3.79846E-14 3.30926E-14
 -1      3444 1.33744E+01-2.11413E+00 9.18506E-02-3.79192E+00-3.00992E-14-4.58272E-13
 -1      3445 1.59128E+01-3.29578E+00 2.14316E-02-4.44323E+00-2.60798E-14-3.57728E-13
 -1      3446 2.39019E+01-6.22077E+00 1.30683E-01-2.90966E+00 1.38396E-14-3.03911E-13
 -1      3447 2.55281E+01-6.20785E+00-1.00879E-01-1.15558E+00-9.97813E-15-2.14551E-13
 -1      3448 2.00288E+01 2.20241E+00-3.29446E-03-1.62633E-01 1.65004E-14-1.84394E-13
 -1      3449 2.00411E+01 2.16587E+00-4.16274E-03-2.84428E-01-5.89531E-15-1.82446E-13
 -1      3450 2.01553E+01 1.85203E+00 4.32634E-03-2.83333E-01-1.19482E-14-1.57825E-13
 -1      3451 2.02040E+01 1.59562E+00-2.76067E-03-7.09882E-01-1.10051E-13-1.57308E-13
 -1      3452 2.01592E+01 5.66077E-02-6.86633E-04-1.36493E-01-2.97809E-14 5.08361E-14
 -1      3453 2.01807E+01 1.04099E-01 1.93226E-03-1.12725E-01 5.76046E-15 3.24019E-14
 -1      3454 2.02067E+01 5.27427E-02-7.32722E-04-1.28010E-01-3.39643E-14 1.48117E-14
 -1      3455 1.11642E+01-9.03670E-01 7.44552E-02 5.33233E-01-2.76081E-14 2.87270E-15
 -1      3456 2.74057E+01-5.43821E+00 6.65032E-02 6.43449E-01 4.78445E-14-2.87078E-13
 -1      3457 2.00980E+01-4.68295E-02 4.58304E-05-1.64105E-01-8.96723E-15 1.25520E-14
 -1      3458 2.01097E+01-3.00885E-02 8.09977E-04-1.63920E-01-3.24672E-15 1.64275E-14
 -1      3459 2.01371E+01-5.52931E-02-6.26970E-04-1.51741E-01-8.94389E-16-4.16561E-14
 -1      3460 1.21291E+01-8.90574E-01-2.02135E-03-1.85223E+00 1.80982E-13-1.46674E-13
 -1      3461 1.26139E+01-1.45126E+00 6.72517E-02-3.05236E+00 2.83610E-14-4.10311E-13
 -1      3462 1.44687E+01-1.46327E+00 6.21693E-02-3.03565E+00 2.32878E-14-2.77400E-13
 -1      3463 2.55929E+01-4.97037E+00-2.06903E-02 3.11247E-01 7.14602E-14-2.06034E-13
 -1      3464 1.47253E+01-1.44156E+00-2.36739E-02 2.91123E+00 1.52439E-15 6.35290E-14
 -1      3465 1.35370E+01-7.59914E-01 1.08409E-01 2.08480E+00-5.72845E-14-1.21129E-13
 -1      3466 2.02530E+01 1.39286E+00 3.13612E-03-5.53342E-01-9.91606E-14-1.43089E-13
 -1      3467 2.02552E+01 1.37741E+00 2.19870E-03-4.60760E-01-7.70470E-14-1.25500E-13
 -1      3468 2.01355E+01 1.92414E+00 4.68536E-03-9.43926E-02 1.46068E-14-1.59512E-13
 -1      3469 2.02398E+01 1.50394E+00 5.21754E-03 4.21485E-01 1.07239E-13-8.04629E-14
 -1      3470 2.02859E+01 7.50290E-01-3.70722E-04 2.72004E-01 1.04088E-13-3.64981E-14
 -1      3471 2.02941E+01 8.97283E-01-1.87773E-03 3.71968E-01 1.29727E-13-5.52472E-14
 -1      3472 2.02990E+01 1.03918E+00 2.44790E-03 3.65268E-01 9.61761E-14-5.99017E-14
 -1      3473 2.02201E+01 1.55491E+00-9.61395E-04-3.35517E-01-3.83832E-14-1.30079E-13
 -1      3474 2.02375E+01 1.45947E+00-3.47038E-03-4.04266E-01-7.13321E-14-1.30239E-13
 -1      3475 2.02905E+01 1.25064E+00 4.19251E-03-3.43153E-01-5.93204E-14-1.31715E-13
 -1      3476 2.27368E+01-5.31711E+00 2.89389E-02 2.44439E+00 1.42598E-13-4.98671E-13
 -1      3477 2.02241E+01-4.41289E+00 4.34818E-02 3.40820E+00 3.97918E-13-2.63664E-13
 -1      3478 2.73261E+01-4.95100E+00 7.07835E-02-1.93915E+00 2.51374E-13 2.00228E-13
 -1      3479 1.84445E+01-2.21167E+00 6.86770E-03 2.96660E+00-6.21144E-14 7.02330E-13
 -1      3480 1.97419E+01-2.76329E+00 1.13064E-02 2.69045E+00 2.75987E-13-1.44714E-13
 -1      3481 2.01700E+01-1.55247E-02-7.00885E-04-1.48876E-01-1.36083E-14-1.01795E-14
 -1      3482 2.05312E+01-3.65920E+00 2.52926E-02 2.72997E+00 2.83018E-13-3.55018E-13
 -1      3483 2.02734E+01 5.06108E-01 2.86376E-03 1.26484E-01 5.76786E-14-2.42599E-14
 -1      3484 2.02908E+01 6.10175E-01-2.65095E-05 2.03432E-01 7.31442E-14-3.55050E-14
 -1      3485 2.03117E+01 7.12539E-01-2.80323E-03 2.08601E-01 6.78645E-14-4.12995E-14
 -1      3486 2.32753E+01-5.34051E+00 4.72304E-02 2.10284E+00 2.91468E-14 1.41016E-14
 -1      3487 1.63877E+01-1.63817E+00 1.60208E-02 2.84302E+00 8.24046E-14 4.81794E-13
 -1      3488 2.02479E+01 3.85730E-01-2.01461E-03 5.12927E-02 2.79773E-14-2.38793E-15
 -1      3489 2.01965E+01 1.58728E-01-1.82534E-03-8.23628E-02 1.30285E-14 2.45767E-14
 -1      3490 2.02263E+01 2.31881E-01 3.60499E-03-3.90555E-02 8.15358E-15 2.18199E-14
 -1      3491 2.02453E+01 1.61729E-01-6.49939E-04-7.97748E-02 9.54249E-15-1.29811E-14
 -1      3492 2.02176E+01 1.54586E+00-5.31738E-03 2.82422E-01 9.52786E-14-1.31210E-13
 -1      3493 2.02103E+01 1.60749E+00-1.58739E-03 2.00936E-01 6.66708E-14-1.32635E-13
 -1      3494 1.22714E+01-6.43182E-01-2.50512E-02 1.09468E+00 6.78537E-15-2.10554E-13
 -1      3495 1.19647E+01-3.83010E-01 9.64873E-02-5.70960E-01 1.64179E-13-3.21965E-14
 -1      3496 1.37854E+01-3.37041E-01 2.91850E-02 1.15869E+00 1.42430E-13-2.51519E-13
 -1      3497 2.58279E+01-5.59829E+00-3.27949E-02-2.75386E-01-1.16435E-14-1.89565E-13
 -1      3498 1.62668E+01-2.59840E+00 3.90219E-02-3.89164E+00 9.63144E-14-3.64042E-13
 -1      3499 1.73185E+01-3.63309E+00 1.09320E-01-4.46093E+00-6.17735E-14-5.64493E-13
 -1      3500 1.85379E+01-4.16433E+00-2.00207E-02-4.17948E+00-5.19515E-14-5.93907E-13
 -1      3501 2.23676E+01-5.54113E+00 5.02172E-02-3.17420E+00 2.73323E-14-3.86455E-13
 -1      3502 1.32880E+01-3.89948E-01 6.03966E-02-1.14562E+00 2.22882E-13-1.43066E-13
 -1      3503 2.02835E+01 1.38660E+00 5.03078E-03 1.31408E-01 6.39239E-14-1.23072E-13
 -1      3504 2.02009E+01 1.63955E+00-3.40285E-03 1.29938E-01 6.47227E-14-1.25235E-13
 -1      3505 2.01969E+01 1.66014E+00-2.53974E-03 3.95774E-02 4.20625E-14-1.44834E-13
 -1      3506 2.42871E+01-5.09770E+00 9.23545E-02-1.25998E+00 5.05993E-14-2.23946E-13
 -1      3507 2.01966E+01 1.66052E+00-2.64033E-03-3.51147E-02 3.29085E-14-1.56264E-13
 -1      3508 2.01998E+01 1.64363E+00-2.89687E-03-1.25249E-01 2.35586E-14-1.79689E-13
 -1      3509 2.02789E+01 1.42069E+00 5.06134E-03 6.52673E-04 4.46097E-14-1.47413E-13
 -1      3510 2.03095E+01 1.01196E+00-2.83009E-03-2.47375E-01-1.79747E-14-1.11334E-13
 -1      3511 2.02068E+01-2.57646E-02-1.90288E-04-1.35343E-01-1.21962E-15-2.65046E-14
 -1      3512 2.02261E+01 4.10737E-03 9.41685E-04-1.28729E-01 4.20280E-15-3.95054E-14
 -1      3513 2.03578E+01 7.03906E-01 2.47541E-03-1.44906E-01-1.53083E-14-1.07395E-13
 -1      3514 2.03482E+01 5.45359E-01-3.21918E-03-7.36763E-02-1.66850E-14-1.05801E-13
 -1      3515 2.03553E+01 4.16843E-01 1.54526E-03-2.83385E-02-1.88938E-14-1.03766E-13
 -1      3516 2.03389E+01 3.05756E-01-1.76467E-03 1.95170E-02-1.09229E-14-9.80758E-14
 -1      3517 2.03761E+01 5.34468E-01 1.18969E-03-5.37066E-02-1.38959E-14-1.39977E-13
 -1      3518 2.03319E+01 2.16136E-01 1.34528E-03 4.85490E-02 1.78019E-14-1.07980E-13
 -1      3519 2.03110E+01 1.41076E-01-1.05325E-03 7.76866E-02-1.71917E-14-4.67005E-14
 -1      3520 2.03663E+01 2.94478E-01 3.34839E-04 2.24273E-02 2.27446E-15-9.99819E-14
 -1      3521 2.02957E+01 8.17427E-02 1.07780E-03 9.37508E-02-3.23403E-14 6.01574E-15
 -1      3522 2.02740E+01 3.30892E-02-5.26546E-04 1.08926E-01-1.25401E-14 3.42741E-15
 -1      3523 2.03372E+01 1.30490E-01-1.14231E-04 6.95311E-02 3.07354E-14-8.34975E-14
 -1      3524 2.02547E+01-4.28463E-03 8.05536E-04 1.15601E-01-8.86570E-15 2.23387E-14
 -1      3525 2.02343E+01-3.39458E-02-1.56449E-04 1.21067E-01 2.19058E-14 1.62701E-15
 -1      3526 2.02982E+01 2.30853E-02-3.74867E-04 9.45394E-02 2.21776E-15-3.43462E-15
 -1      3527 2.02138E+01-5.57467E-02 5.70616E-04 1.21414E-01 3.34156E-14 3.33436E-15
 -1      3528 2.01956E+01-7.20581E-02 8.56870E-05 1.20558E-01 4.36379E-14-9.35696E-15
 -1      3529 2.02557E+01-4.31759E-02-5.03138E-04 1.03849E-01 1.99202E-14 1.67253E-14
 -1      3530 2.01758E+01-8.30629E-02 3.82612E-04 1.16981E-01 2.71439E-14-2.25854E-14
 -1      3531 2.01602E+01-9.02271E-02 2.30767E-04 1.12353E-01 1.16565E-14-2.40734E-14
 -1      3532 2.02142E+01-8.02863E-02-5.46754E-04 1.02768E-01 2.78171E-14 7.25605E-15
 -1      3533 2.01422E+01-9.39464E-02 2.39395E-04 1.06634E-01-9.98838E-15-5.96086E-14
 -1      3534 2.01291E+01-9.50273E-02 3.06814E-04 1.00068E-01-1.44312E-14-6.68254E-14
 -1      3535 2.01759E+01-9.72788E-02-5.37288E-04 9.54037E-02-2.19670E-14-4.33325E-15
 -1      3536 2.01133E+01-9.39815E-02 1.33365E-04 9.34701E-02-2.18436E-14-7.28069E-14
 -1      3537 2.01028E+01-9.11500E-02 3.36644E-04 8.62432E-02-6.91209E-14-5.99385E-14
 -1      3538 2.01422E+01-1.00795E-01-4.96229E-04 8.47664E-02-2.00448E-14-1.03778E-13
 -1      3539 2.00893E+01-8.70907E-02 5.55008E-05 7.96268E-02-5.94151E-14-1.69651E-14
 -1      3540 2.00809E+01-8.18238E-02 3.37718E-04 7.26039E-02-4.96869E-14 5.24366E-15
 -1      3541 2.01134E+01-9.55717E-02-4.37988E-04 7.29742E-02-4.55905E-14-3.72768E-14
 -1      3542 2.00697E+01-7.59093E-02-2.82909E-06 6.65404E-02-8.58011E-14 1.71288E-14
 -1      3543 2.00632E+01-6.91488E-02 3.22841E-04 6.02976E-02-7.97604E-14-1.52317E-16
 -1      3544 2.00894E+01-8.48494E-02-3.71690E-04 6.14714E-02-5.67976E-14-1.00089E-14
 -1      3545 2.00539E+01-6.20812E-02-4.93017E-05 5.51635E-02-7.83177E-14 1.63746E-14
 -1      3546 2.00489E+01-5.43577E-02 3.01086E-04 5.00894E-02-7.23294E-14 8.26130E-15
 -1      3547 2.00697E+01-7.07097E-02-3.02537E-04 5.12253E-02-9.34718E-14-4.40369E-14
 -1      3548 2.00412E+01-4.64893E-02-9.06095E-05 4.61416E-02-4.98897E-14 1.41160E-14
 -1      3549 2.00374E+01-3.80172E-02 2.78638E-04 4.25168E-02-6.55415E-14 5.03950E-14
 -1      3550 2.00537E+01-5.43398E-02-2.32823E-04 4.28905E-02-7.55971E-14 1.07247E-14
 -1      3551 2.00309E+01-2.94308E-02-1.32637E-04 3.99521E-02-6.74953E-14 9.66492E-14
 -1      3552 2.00278E+01-2.01807E-02 2.59501E-04 3.80099E-02-4.67975E-14 1.38440E-13
 -1      3553 2.00404E+01-3.62392E-02-1.62657E-04 3.69389E-02 1.81244E-14-3.48246E-14
 -1      3554 2.00219E+01-1.07507E-02-1.80692E-04 3.70108E-02-1.79892E-15 1.27066E-13
 -1      3555 2.00193E+01-5.04049E-04 2.46010E-04 3.69843E-02-1.39835E-14 1.94079E-13
 -1      3556 2.00290E+01-1.63766E-02-9.04677E-05 3.37616E-02-1.62465E-14 1.63943E-14
 -1      3557 2.00135E+01 1.00577E-02-2.39709E-04 3.77529E-02-8.03474E-14 1.75360E-13
 -1      3558 2.00109E+01 2.16672E-02 2.39174E-04 3.99101E-02-2.55799E-14 1.21518E-13
 -1      3559 2.00184E+01 5.69036E-03-1.33344E-05 3.37455E-02-4.87064E-14 7.93014E-14
 -1      3560 2.00045E+01 3.37746E-02-3.14407E-04 4.26936E-02-1.06599E-14 1.35891E-13
 -1      3561 2.00015E+01 4.72258E-02 2.38862E-04 4.73618E-02 2.91508E-15 8.86213E-14
 -1      3562 2.00073E+01 3.07221E-02 7.28099E-05 3.73309E-02-4.03389E-14 7.95942E-14
 -1      3563 1.99936E+01 6.13868E-02-4.09358E-04 5.24694E-02 8.44207E-14 5.47246E-14
 -1      3564 1.99897E+01 7.72386E-02 2.43841E-04 6.00508E-02 9.52443E-14-2.97530E-14
 -1      3565 1.99945E+01 5.97199E-02 1.73065E-04 4.50506E-02 3.71209E-14 9.84982E-14
 -1      3566 1.99795E+01 9.40216E-02-5.28975E-04 6.78623E-02 2.31814E-14-8.71934E-14
 -1      3567 1.99740E+01 1.12876E-01 2.51704E-04 7.88393E-02-2.76133E-14-9.39853E-14
 -1      3568 1.99782E+01 9.38515E-02 2.93504E-04 5.75532E-02-2.45244E-14-8.80269E-14
 -1      3569 1.99605E+01 1.32869E-01-6.77406E-04 8.98053E-02-2.20415E-15-1.69644E-13
 -1      3570 1.99526E+01 1.55323E-01 2.58737E-04 1.04735E-01 5.67630E-14-1.59645E-13
 -1      3571 1.99567E+01 1.34368E-01 4.41140E-04 7.56083E-02-2.84043E-14-6.37852E-14
 -1      3572 1.99345E+01 1.79080E-01-8.58354E-04 1.19366E-01 7.86244E-14-1.97315E-13
 -1      3573 1.99231E+01 2.05656E-01 2.59809E-04 1.38859E-01 1.22839E-14-1.36795E-13
 -1      3574 1.99276E+01 1.82499E-01 6.23878E-04 1.00093E-01 5.77626E-14-8.14310E-14
 -1      3575 1.98989E+01 2.33614E-01-1.07488E-03 1.57705E-01-4.40649E-14-3.35482E-14
 -1      3576 1.98830E+01 2.64666E-01 2.48488E-04 1.82395E-01 1.19319E-14-3.72158E-14
 -1      3577 1.98883E+01 2.39300E-01 8.50417E-04 1.31953E-01 3.76860E-14-6.38148E-14
 -1      3578 1.98509E+01 2.97033E-01-1.32931E-03 2.06009E-01 7.83191E-14-1.25026E-13
 -1      3579 1.98290E+01 3.32603E-01 2.17709E-04 2.36499E-01 1.17228E-13-1.76777E-13
 -1      3580 1.98355E+01 3.05449E-01 1.13006E-03 1.72149E-01 5.26745E-14-4.73974E-14
 -1      3581 1.97869E+01 3.69186E-01-1.62360E-03 2.65400E-01 1.02152E-13-1.58289E-13
 -1      3582 1.97571E+01 4.08807E-01 1.61602E-04 3.02204E-01 8.74039E-14-2.04197E-13
 -1      3583 1.97655E+01 3.80951E-01 1.47242E-03 2.21568E-01 1.15020E-13-1.68429E-13
 -1      3584 1.97026E+01 4.48777E-01-1.96053E-03 3.36835E-01 7.84078E-14-1.61665E-13
 -1      3585 1.96631E+01 4.91196E-01 7.94788E-05 3.80318E-01 5.81520E-14-6.25917E-14
 -1      3586 1.96737E+01 4.64734E-01 1.88699E-03 2.80947E-01 1.02253E-13-1.19641E-13
 -1      3587 1.95935E+01 5.32753E-01-2.34681E-03 4.21040E-01-1.16161E-13 2.52257E-15
 -1      3588 1.95421E+01 5.75547E-01-1.64364E-05 4.71402E-01-1.70500E-13 1.14206E-14
 -1      3589 1.95550E+01 5.54105E-01 2.38263E-03 3.50816E-01-4.80141E-14-3.65976E-14
 -1      3590 1.94542E+01 6.15459E-01-2.79925E-03 5.18567E-01-1.98597E-13-2.99145E-15
 -1      3591 1.93889E+01 6.54528E-01-8.73787E-05 5.75914E-01-2.48814E-13-6.80523E-14
 -1      3592 1.94037E+01 6.44033E-01 2.96719E-03 4.31565E-01-1.58265E-13-2.87883E-14
 -1      3593 1.92794E+01 6.87501E-01-3.35614E-03 6.30114E-01-2.51502E-13-1.59059E-14
 -1      3594 1.91987E+01 7.16390E-01-4.71187E-05 6.94750E-01-1.01075E-13-4.21843E-14
 -1      3595 1.92135E+01 7.26235E-01 3.64683E-03 5.23770E-01-2.19996E-13 1.48625E-13
 -1      3596 1.90639E+01 7.34236E-01-4.09690E-03 7.57391E-01-1.14598E-14-1.11111E-13
 -1      3597 1.89679E+01 7.43245E-01 2.60168E-04 8.30472E-01-3.15335E-14-8.82488E-14
 -1      3598 1.89774E+01 7.88035E-01 4.42196E-03 6.29030E-01-9.87595E-14 1.52656E-14
 -1      3599 1.88038E+01 7.33792E-01-5.17812E-03 9.04852E-01 2.62159E-14-1.25529E-13
 -1      3600 1.86956E+01 7.08914E-01 1.11262E-03 9.89612E-01 1.10711E-13-5.09504E-14
 -1      3601 1.86885E+01 8.10925E-01 5.27035E-03 7.51674E-01 3.43420E-14-3.09664E-14
 -1      3602 1.84977E+01 6.54583E-01-6.88889E-03 1.08298E+00 7.01707E-14-1.53264E-13
 -1      3603 1.83862E+01 5.76041E-01 2.89423E-03 1.18676E+00 5.62938E-14-1.72179E-13
 -1      3604 1.83395E+01 7.69064E-01 6.12879E-03 9.01813E-01 6.20462E-14-1.37075E-13
 -1      3605 1.81508E+01 4.51008E-01-9.62337E-03 1.31303E+00 1.14401E-13-1.73945E-13
 -1      3606 1.80527E+01 2.91351E-01 5.72871E-03 1.45022E+00 6.74065E-14-7.85567E-14
 -1      3607 1.79239E+01 6.26350E-01 7.12463E-03 1.10208E+00 9.77275E-14-2.98455E-13
 -1      3608 1.77701E+01 6.29063E-02-1.49121E-02 1.63177E+00 1.28072E-13 6.23872E-14
 -1      3609 1.76977E+01-2.38874E-01-6.16066E-04 1.84379E+00 2.09856E-13 1.36391E-13
 -1      3610 1.74432E+01 3.38654E-01 1.25632E-02 1.38609E+00 2.35338E-13-2.70977E-14
 -1      3611 2.01109E+01-8.92651E-02 3.08360E-04-1.13741E-01 2.89480E-14-4.98870E-14
 -1      3612 2.01220E+01-8.76503E-02 2.41261E-04-1.21005E-01 2.81914E-14-4.24083E-14
 -1      3613 2.01387E+01-8.34441E-02 2.26249E-04-1.27268E-01-1.24529E-14-1.31090E-14
 -1      3614 2.01525E+01-7.58084E-02 4.14736E-04-1.32268E-01-1.83166E-14-6.65945E-14
 -1      3615 2.01597E+01-9.12023E-02-5.26553E-04-1.11453E-01 3.07505E-14-6.04674E-14
 -1      3616 2.00532E+01-6.69229E-02 3.32683E-04-6.86078E-02-2.25341E-14 3.19032E-14
 -1      3617 2.00583E+01-7.30686E-02-3.11330E-05-7.57301E-02-8.30589E-15 2.59483E-14
 -1      3618 2.00412E+01-5.34442E-02 3.12943E-04-5.66865E-02 8.18533E-14-7.39320E-15
 -1      3619 2.00449E+01-6.05103E-02-7.64704E-05-6.25768E-02 3.30863E-14 1.84069E-14
 -1      3620 2.00624E+01-6.95468E-02-2.85044E-04-6.00736E-02 2.29310E-14 3.63928E-14
 -1      3621 2.00317E+01-3.85435E-02 2.93144E-04-4.75844E-02 3.06034E-14 2.04209E-14
 -1      3622 2.00343E+01-4.62869E-02-1.13843E-04-5.19411E-02 7.82318E-14-3.03672E-15
 -1      3623 2.00481E+01-5.44552E-02-2.21641E-04-4.99835E-02 8.50950E-14 5.22074E-14
 -1      3624 2.00241E+01-2.23462E-02 2.77883E-04-4.17664E-02-9.36904E-14 2.00564E-16
 -1      3625 2.00260E+01-3.07571E-02-1.50028E-04-4.43463E-02-1.96635E-14 1.01185E-14
 -1      3626 2.00365E+01-3.77637E-02-1.59868E-04-4.25212E-02-8.81621E-15 4.34422E-14
 -1      3627 2.00176E+01-4.60181E-03 2.70169E-04-3.96684E-02-4.53116E-14-2.20420E-14
 -1      3628 2.00190E+01-1.38491E-02-1.90850E-04-4.02343E-02-8.55866E-14-2.56137E-16
 -1      3629 2.00268E+01-1.95264E-02-9.82259E-05-3.81244E-02-5.39986E-14 3.29160E-14
 -1      3630 2.00115E+01 1.52269E-02 2.71836E-04-4.17782E-02-6.21610E-14 8.87437E-15
 -1      3631 2.00128E+01 4.83829E-03-2.41465E-04-4.00590E-02-5.35140E-14-3.68532E-14
 -1      3632 2.00181E+01 5.96550E-04-3.41921E-05-3.72173E-02-5.26591E-14 2.29146E-14
 -1      3633 2.00050E+01 3.78881E-02 2.83818E-04-4.86954E-02 1.81503E-14 2.62385E-14
 -1      3634 2.00064E+01 2.59548E-02-3.06546E-04-4.43575E-02 1.75065E-14 4.90045E-15
 -1      3635 2.00093E+01 2.32425E-02 3.55510E-05-4.02811E-02-2.93399E-14-7.54329E-14
 -1      3636 1.99970E+01 6.42688E-02 3.06317E-04-6.11735E-02 2.30818E-14 8.68048E-15
 -1      3637 1.99988E+01 5.03259E-02-3.90368E-04-5.38013E-02 2.62023E-14 2.22441E-15
 -1      3638 1.99994E+01 4.92636E-02 1.14926E-04-4.79063E-02 3.92314E-14-5.84651E-14
 -1      3639 1.99864E+01 9.53126E-02 3.38899E-04-8.01440E-02 5.37371E-15-7.54737E-14
 -1      3640 1.99891E+01 7.88771E-02-4.96748E-04-6.92307E-02 2.04317E-14-4.35872E-14
 -1      3641 1.99870E+01 7.96445E-02 2.08257E-04-6.08296E-02 1.27081E-14-2.84614E-14
 -1      3642 1.99719E+01 1.31913E-01 3.80580E-04-1.06722E-01 3.27468E-14-9.76057E-14
 -1      3643 1.99760E+01 1.12542E-01-6.28829E-04-9.16716E-02 5.74301E-14-1.41184E-14
 -1      3644 1.99707E+01 1.15405E-01 3.19978E-04-7.99546E-02-1.88664E-14-5.82338E-14
 -1      3645 1.99520E+01 1.74764E-01 4.30017E-04-1.42192E-01 6.53368E-14-1.44760E-13
 -1      3646 1.99580E+01 1.52136E-01-7.88679E-04-1.22333E-01 3.95406E-15-1.73062E-13
 -1      3647 1.99489E+01 1.57476E-01 4.54195E-04-1.06357E-01 7.25244E-14-8.72206E-14
 -1      3648 1.99250E+01 2.24146E-01 4.85957E-04-1.87963E-01-1.88893E-14-9.45432E-14
 -1      3649 1.99336E+01 1.98179E-01-9.76699E-04-1.62581E-01 7.91527E-14-1.05395E-13
 -1      3650 1.99194E+01 2.06518E-01 6.13966E-04-1.41276E-01 2.61989E-14-2.14942E-13
 -1      3651 1.98891E+01 2.79622E-01 5.48258E-04-2.45509E-01-1.90352E-14-3.25076E-14
 -1      3652 1.99009E+01 2.50640E-01-1.19083E-03-2.13891E-01-7.46772E-14-5.44475E-14
 -1      3653 1.98802E+01 2.62678E-01 8.00174E-04-1.86081E-01-5.31148E-15-1.62884E-13
 -1      3654 1.98424E+01 3.39606E-01 6.19926E-04-3.16269E-01 1.12644E-13-4.53137E-14
 -1      3655 1.98581E+01 3.08569E-01-1.42559E-03-2.77770E-01 6.17020E-14 8.30514E-14
 -1      3656 1.98289E+01 3.25236E-01 1.00977E-03-2.42236E-01-1.90201E-14-2.37230E-13
 -1      3657 1.97834E+01 4.00773E-01 7.10883E-04-4.01545E-01-9.79647E-15 5.78676E-14
 -1      3658 1.98033E+01 3.69600E-01-1.67105E-03-3.55667E-01 6.01062E-14-1.66605E-15
 -1      3659 1.97630E+01 3.92124E-01 1.23313E-03-3.11248E-01 1.83625E-14 8.39233E-15
 -1      3660 1.97110E+01 4.57268E-01 8.44460E-04-5.02405E-01-5.49197E-14 4.72405E-14
 -1      3661 1.97352E+01 4.29254E-01-1.91171E-03-4.48875E-01 2.17143E-14 6.62775E-14
 -1      3662 1.96805E+01 4.59285E-01 1.45001E-03-3.94649E-01 7.54305E-15 4.38909E-14
 -1      3663 1.96258E+01 4.99666E-01 1.06795E-03-6.19655E-01 6.11442E-14-7.71899E-14
 -1      3664 1.96533E+01 4.80033E-01-2.12503E-03-5.58480E-01-3.96066E-14 3.00924E-14
 -1      3665 1.95797E+01 5.19826E-01 1.62359E-03-4.94036E-01-5.00566E-14-3.71703E-14
 -1      3666 1.95311E+01 5.13654E-01 1.46862E-03-7.53934E-01-2.52329E-14-4.55006E-14
 -1      3667 1.95593E+01 5.10240E-01-2.27814E-03-6.85407E-01 3.89546E-14-7.58467E-14
 -1      3668 1.94606E+01 5.62952E-01 1.69132E-03-6.11261E-01 1.31542E-14-1.34644E-14
 -1      3669 1.94349E+01 4.78416E-01 2.19328E-03-9.06026E-01-2.39362E-14 8.37704E-14
 -1      3670 1.94581E+01 5.02513E-01-2.31808E-03-8.30664E-01-1.71716E-15 8.62519E-14
 -1      3671 1.93258E+01 5.72629E-01 1.54983E-03-7.48890E-01-7.08921E-14 1.04490E-13
 -1      3672 1.93531E+01 3.64681E-01 3.44425E-03-1.07732E+00-3.99943E-14 1.21585E-13
 -1      3673 1.93607E+01 4.32060E-01-2.14447E-03-9.95803E-01-2.77744E-14 1.02588E-13
 -1      3674 1.91820E+01 5.25931E-01 1.02336E-03-9.11046E-01-4.09454E-15 1.85100E-13
 -1      3675 1.93141E+01 1.32755E-01 5.46673E-03-1.26993E+00-1.57780E-13 1.73157E-13
 -1      3676 1.92880E+01 2.64626E-01-1.56122E-03-1.18336E+00-1.04454E-13 1.17783E-13
 -1      3677 1.90437E+01 3.90858E-01-2.16363E-04-1.10461E+00-5.95150E-14 8.95421E-14
 -1      3678 1.93671E+01-2.68372E-01 8.67762E-03-1.48519E+00-1.22746E-13 3.49059E-14
 -1      3679 1.92772E+01-4.50869E-02-1.26695E-04-1.39644E+00-9.39554E-14 1.30165E-13
 -1      3680 1.89378E+01 1.24002E-01-2.68133E-03-1.34004E+00-7.69063E-14 9.03634E-14
 -1      3681 1.95898E+01-9.03456E-01 1.16949E-02-1.72078E+00-1.86327E-13-2.24333E-13
 -1      3682 1.93915E+01-5.52902E-01 3.23512E-03-1.63706E+00-9.96593E-14-7.21563E-14
 -1      3683 1.89109E+01-3.30453E-01-7.14418E-03-1.63094E+00-2.88331E-14-4.50809E-14
 -1      3684 2.01121E+01-1.83186E+00 1.70146E-02-1.94939E+00 4.91187E-14-3.21438E-13
 -1      3685 1.97403E+01-1.32114E+00 1.20562E-02-1.89080E+00-1.50512E-13-3.19284E-13
 -1      3686 1.90457E+01-1.05589E+00-1.80018E-02-1.99017E+00-3.55998E-14-2.85628E-13
 -1      3687 2.10848E+01-3.11590E+00 9.14449E-03-2.07788E+00-1.39225E-13-3.44475E-13
 -1      3688 2.04890E+01-2.42392E+00 2.63544E-02-2.10965E+00 3.20722E-14-3.33427E-13
 -1      3689 1.94805E+01-2.14105E+00-4.31104E-02-2.39373E+00 3.51164E-14-3.59411E-13
 -1      3690 2.28448E+01-4.57097E+00-1.23181E-02-1.71850E+00-6.51042E-15-2.62279E-13
 -1      3691 2.20019E+01-3.75993E+00 6.51089E-02-1.99585E+00-1.93804E-13-3.50442E-13
 -1      3692 2.06328E+01-3.58169E+00-5.27527E-02-2.66323E+00-1.37586E-13-3.93026E-13
 -1      3693 2.27035E+01-5.08950E+00-5.74101E-02-2.32070E+00 3.24393E-15-1.83527E-13
 -1      3694 2.02922E+01 3.91281E-01-7.78470E-04 3.92271E-02 2.00132E-14-3.55688E-14
 -1      3695 2.00876E+01-8.65088E-02 3.41999E-04-9.82340E-02 5.92432E-14-4.98064E-14
 -1      3696 2.00963E+01-8.87728E-02 1.17250E-04-1.06317E-01 6.43253E-14-1.34579E-14
 -1      3697 2.01285E+01-9.59822E-02-4.76902E-04-9.93786E-02 5.75397E-14-7.72971E-14
 -1      3698 2.02024E+01 1.63828E+00-1.68706E-03-1.88507E-01 3.73995E-15-1.50621E-13
 -1      3699 2.02133E+01 1.58387E+00-3.01118E-03-2.73343E-01-2.45882E-14-1.35864E-13
 -1      3700 2.02727E+01 1.37367E+00 2.25258E-03-2.34649E-01-1.21345E-14-1.03842E-13
 -1      3701 2.02735E+01 1.41289E+00 3.31295E-03-1.24776E-01 1.28133E-14-1.50942E-13
 -1      3702 1.46597E+01-2.24021E-01-3.83366E-02 1.40351E+00 2.48999E-13-2.05744E-13
 -1      3703 1.40740E+01 1.19378E-01 5.25508E-02 4.23499E-01 2.20550E-13-3.86043E-13
 -1      3704 2.11073E+01-4.62492E+00 1.06315E-01-3.45452E+00-1.59352E-14-4.89153E-13
 -1      3705 2.02446E+01 4.14593E-02-6.03861E-04-1.19939E-01-1.02502E-14-4.47075E-14
 -1      3706 2.02665E+01 9.03040E-02 1.41033E-03-1.02188E-01-2.51886E-14-2.94270E-14
 -1      3707 2.02755E+01 3.30828E-02-4.46385E-04-1.07254E-01 3.31630E-15-7.88320E-14
 -1      3708 1.47559E+01-1.05346E+00-1.14142E-02-2.60583E+00 1.29562E-13-2.89841E-13
 -1      3709 1.56161E+01-1.69831E+00 1.94763E-02-3.24601E+00 9.59463E-14-3.06200E-13
 -1      3710 2.01709E+01-6.44321E-02 7.11016E-05-1.35870E-01-9.26924E-15-4.49829E-14
 -1      3711 2.01875E+01-4.77556E-02 6.48641E-04-1.36518E-01-9.01366E-15-3.89614E-14
 -1      3712 2.01955E+01-7.29185E-02-5.52094E-04-1.19418E-01-1.33895E-14-6.49110E-14
 -1      3713 2.02936E+01 1.15616E+00-3.97248E-03 3.55392E-01 9.90712E-14-6.19520E-14
 -1      3714 2.02477E+01 1.44497E+00 1.86179E-03 3.27779E-01 9.03877E-14-9.50457E-14
 -1      3715 2.03046E+01 1.23764E+00 4.38871E-03 2.34004E-01 6.92426E-14-1.10675E-13
 -1      3716 2.03200E+01 9.92198E-01 2.88959E-03 2.75069E-01 9.36658E-14-4.97420E-14
 -1      3717 1.36814E+01-8.35516E-02-2.98958E-02-5.53249E-01 3.23310E-13-1.42442E-13
 -1      3718 1.41303E+01-3.56144E-01 3.41983E-02-1.73465E+00 3.46048E-13-1.87485E-13
 -1      3719 2.00685E+01-7.83633E-02 3.45596E-04-8.27481E-02-6.54954E-15-1.54019E-14
 -1      3720 2.00752E+01-8.30409E-02 3.02272E-05-9.06735E-02 1.48498E-14-2.78056E-14
 -1      3721 2.01020E+01-9.19870E-02-4.15574E-04-8.57336E-02 3.57401E-14-1.41985E-14
 -1      3722 2.00801E+01-8.24705E-02-3.50238E-04-7.22474E-02-5.38443E-14-4.82035E-14
 -1      3723 2.03335E+01 9.85676E-01 5.97516E-04-1.94356E-01-2.05925E-14-1.25211E-13
 -1      3724 1.56527E+01-3.54790E-01 5.15957E-02 1.96665E+00 2.66838E-13 2.08814E-13
 -1      3725 1.56115E+01-9.97866E-04-1.01090E-02 1.33389E+00 3.24409E-13-1.19924E-13
 -1      3726 2.02348E+01-3.45082E-02-5.35641E-04-1.19659E-01 8.27143E-15-5.62264E-14
 -1      3727 1.68414E+01 4.48831E-03 3.51954E-02 1.67580E+00 3.00252E-13 2.16402E-13
 -1      3728 1.72772E+01-4.53036E-01-2.65654E-02 1.98937E+00 2.16545E-13 2.32853E-13
 -1      3729 1.72822E+01-9.32442E-01-1.01798E-02 2.30427E+00 1.60879E-13 3.83491E-13
 -1      3730 2.02807E+01 1.49213E-01-1.32468E-03-8.16960E-02-1.18425E-14-4.99710E-14
 -1      3731 2.03065E+01 2.25617E-01 3.16402E-03-4.64065E-02 7.31609E-15-6.31197E-14
 -1      3732 2.03129E+01 1.42840E-01-2.72946E-04-7.58863E-02-2.50451E-14-9.34438E-14
 -1      3733 2.03366E+01 9.84779E-01-4.62521E-03 1.93707E-01 7.30463E-14-1.01896E-13
 -1      3734 2.03276E+01 1.10408E+00 6.60549E-04 1.63244E-01 6.81898E-14-1.05534E-13
 -1      3735 2.03762E+01 9.22477E-01 5.11136E-03 9.38206E-02 5.21041E-14-8.73589E-14
 -1      3736 2.03222E+01 1.13479E+00-3.40322E-03 1.21943E-01 5.50798E-14-1.32003E-13
 -1      3737 2.03214E+01 1.16934E+00-1.71125E-03 6.63919E-02 5.18336E-14-1.36457E-13
 -1      3738 1.47133E+01 1.74645E-01 2.01429E-02-1.63012E-01 3.47613E-13-3.98637E-13
 -1      3739 1.64980E+01-1.23903E+00-1.45952E-02 2.56691E+00 1.23125E-13 4.37338E-13
 -1      3740 1.68112E+01-1.51502E+00 2.63158E-02-2.91175E+00 1.28759E-13-3.81680E-13
 -1      3741 1.63779E+01-1.97307E+00 2.57366E-02-3.35233E+00 1.16102E-13-3.91472E-13
 -1      3742 1.73455E+01-2.50431E+00-3.63170E-02-3.48460E+00 9.90909E-14-3.83939E-13
 -1      3743 1.52162E+01-5.11689E-01 3.10171E-02-1.99063E+00 3.73235E-13-2.34108E-13
 -1      3744 1.96290E+01-3.73163E+00 3.51739E-02-3.41633E+00-3.65957E-14-5.09365E-13
 -1      3745 2.03116E+01 3.33523E-01-2.99310E-03-6.42459E-03 7.03525E-15-6.02240E-14
 -1      3746 2.03410E+01 5.18076E-01-5.21071E-04 8.87757E-02 3.11136E-14-6.07391E-14
 -1      3747 2.03712E+01 6.63031E-01 6.81127E-04 8.93126E-02 3.07629E-14-4.96327E-14
 -1      3748 2.03497E+01 7.41243E-01 2.18574E-03 1.39355E-01 6.67180E-14-6.14185E-14
 -1      3749 1.53488E+01-1.41309E-01-2.70434E-02-1.51880E+00 5.77381E-13-7.85847E-14
 -1      3750 1.61317E+01-6.78816E-01 1.38794E-02-2.28855E+00 2.98341E-13-2.70577E-13
 -1      3751 2.02564E+01-4.67313E-02-7.14013E-05-1.02889E-01-8.45529E-15-6.93678E-14
 -1      3752 2.02778E+01-1.88298E-02 6.60369E-04-9.91809E-02-1.53434E-14-8.17387E-14
 -1      3753 1.64947E+01 2.56592E-01-2.18386E-02 1.21642E+00 4.24754E-13-1.65954E-13
 -1      3754 1.60879E+01 1.06681E-01-2.35299E-02 1.30603E+00 2.98166E-13-1.02784E-13
 -1      3755 1.55579E+01 4.01528E-01 4.84858E-02 7.68178E-01 4.20446E-13-5.83322E-13
 -1      3756 2.03951E+01 3.64044E-01 8.04014E-04 2.12796E-04-1.47339E-14-1.00430E-13
 -1      3757 2.03825E+01 2.60096E-01-1.23313E-03 3.07398E-02-2.63960E-15-1.09019E-13
 -1      3758 2.03733E+01 1.75619E-01 7.18552E-04 4.58388E-02 3.88801E-14-1.33768E-13
 -1      3759 2.03540E+01 1.05653E-01-6.96610E-04 6.40738E-02 2.46809E-14-1.10700E-13
 -1      3760 2.03980E+01 2.38961E-01 3.54613E-04 2.69257E-02 7.51189E-15-1.19768E-13
 -1      3761 2.03366E+01 5.01321E-02 6.32271E-04 7.17104E-02 2.37860E-14-9.09706E-14
 -1      3762 2.03146E+01 5.32824E-03-2.92488E-04 8.08188E-02 3.05377E-14-4.44340E-14
 -1      3763 2.03667E+01 8.93507E-02-1.39242E-04 5.10522E-02 4.06185E-14-1.39608E-13
 -1      3764 2.02933E+01-2.90530E-02 5.27835E-04 8.31578E-02 3.01764E-14-4.36501E-14
 -1      3765 2.02712E+01-5.56794E-02-1.11098E-05 8.59228E-02 6.77726E-14-7.97949E-15
 -1      3766 2.03250E+01-7.19419E-03-3.97538E-04 6.29320E-02 4.82972E-14-9.10538E-14
 -1      3767 2.02488E+01-7.50013E-02 4.20261E-04 8.47700E-02 4.78181E-14-1.12100E-14
 -1      3768 2.02281E+01-8.88424E-02 1.68263E-04 8.34450E-02 2.35497E-14-2.22152E-14
 -1      3769 2.02795E+01-6.52122E-02-5.30520E-04 6.62018E-02 3.58913E-14-7.26518E-14
 -1      3770 2.02066E+01-9.77394E-02 3.22732E-04 8.02208E-02-6.70488E-15 4.52782E-15
 -1      3771 2.01881E+01-1.02855E-01 2.69823E-04 7.65107E-02-3.22658E-14-9.71600E-15
 -1      3772 2.02348E+01-9.59471E-02-5.78431E-04 6.39006E-02 2.38331E-14-7.10565E-14
 -1      3773 2.01685E+01-1.04755E-01 2.38966E-04 7.22546E-02-2.49000E-14 1.17226E-14
 -1      3774 2.01526E+01-1.04105E-01 3.16303E-04 6.73908E-02-1.66072E-14 1.85400E-14
 -1      3775 2.01934E+01-1.07951E-01-5.70029E-04 5.83627E-02-2.93240E-14 1.00071E-14
 -1      3776 2.01354E+01-1.01459E-01 1.68407E-04 6.28301E-02-5.77487E-14-4.60880E-14
 -1      3777 2.01221E+01-9.71236E-02 3.26272E-04 5.76720E-02-6.47394E-14-4.41108E-14
 -1      3778 2.01567E+01-1.07501E-01-5.26659E-04 5.12837E-02-6.79269E-14 3.15435E-14
 -1      3779 2.01074E+01-9.16123E-02 1.08551E-04 5.32985E-02-3.52297E-14-8.43550E-14
 -1      3780 2.00965E+01-8.49782E-02 3.13767E-04 4.84318E-02-4.34368E-14-8.51925E-14
 -1      3781 2.01252E+01-9.90295E-02-4.63187E-04 4.38503E-02-6.21235E-14-9.68556E-14
 -1      3782 2.00841E+01-7.76841E-02 5.60266E-05 4.45710E-02-7.59363E-14-8.54554E-14
 -1      3783 2.00753E+01-6.96012E-02 2.88823E-04 4.03930E-02-9.99596E-14-1.09147E-13
 -1      3784 2.00987E+01-8.55102E-02-3.89176E-04 3.68710E-02-5.13774E-14-1.07067E-13
 -1      3785 2.00649E+01-6.11429E-02 7.12530E-06 3.72624E-02-1.04552E-13-8.22783E-14
 -1      3786 2.00578E+01-5.20473E-02 2.58227E-04 3.40508E-02-7.83052E-14-1.11919E-13
 -1      3787 2.00767E+01-6.87783E-02-3.10023E-04 3.08929E-02-1.01008E-13-1.28749E-13
 -1      3788 2.00490E+01-4.26864E-02-4.19985E-05 3.18057E-02-1.43385E-14-1.15647E-13
 -1      3789 2.00430E+01-3.26953E-02 2.26218E-04 2.97733E-02 4.01749E-14-6.09956E-14
 -1      3790 2.00584E+01-4.97900E-02-2.27917E-04 2.62973E-02-4.38392E-14-7.57574E-14
 -1      3791 2.00352E+01-2.24188E-02-9.52683E-05 2.85429E-02 5.86374E-14-7.10221E-14
 -1      3792 2.00300E+01-1.14029E-02 1.95055E-04 2.78794E-02 6.23631E-15-5.86627E-14
 -1      3793 2.00426E+01-2.88239E-02-1.42588E-04 2.33752E-02 4.36409E-14-9.36245E-14
 -1      3794 2.00225E+01 1.54192E-05-1.56686E-04 2.77939E-02-7.27848E-14-4.86173E-14
 -1      3795 2.00174E+01 1.23757E-02 1.65438E-04 2.86972E-02-8.59022E-14-4.84345E-14
 -1      3796 2.00282E+01-5.63528E-03-5.18429E-05 2.23857E-02-5.44238E-14-1.32220E-13
 -1      3797 2.00095E+01 2.53261E-02-2.30336E-04 2.99075E-02-4.98198E-14 1.56601E-14
 -1      3798 2.00039E+01 3.94963E-02 1.36765E-04 3.26062E-02 9.50696E-15 1.92380E-14
 -1      3799 2.00139E+01 2.04233E-02 4.80505E-05 2.35992E-02-5.60360E-15-1.02737E-13
 -1      3800 1.99947E+01 5.44923E-02-3.20358E-04 3.52977E-02-1.17523E-14 9.95273E-15
 -1      3801 1.99879E+01 7.10436E-02 1.07269E-04 4.00648E-02-2.47516E-14-7.49471E-14
 -1      3802 1.99980E+01 5.03055E-02 1.62111E-04 2.73267E-02-2.26422E-14-2.16417E-14
 -1      3803 1.99764E+01 8.86836E-02-4.30868E-04 4.44638E-02-4.31472E-15-1.24421E-13
 -1      3804 1.99675E+01 1.08252E-01 7.40280E-05 5.16226E-02-3.96885E-14-1.21805E-13
 -1      3805 1.99788E+01 8.51837E-02 2.96469E-04 3.39376E-02-6.67924E-14-9.21876E-14
 -1      3806 1.99526E+01 1.29174E-01-5.65828E-04 5.79972E-02 9.04779E-15-9.53345E-14
 -1      3807 1.99405E+01 1.52409E-01 3.29071E-05 6.79175E-02 1.92376E-14-6.02350E-14
 -1      3808 1.99542E+01 1.26359E-01 4.58250E-04 4.38635E-02 1.95267E-14-8.44573E-14
 -1      3809 1.99209E+01 1.77238E-01-7.28863E-04 7.65699E-02 6.15378E-15 6.36052E-14
 -1      3810 1.99044E+01 2.04738E-01-2.15346E-05 8.96538E-02 1.11891E-13 1.55549E-14
 -1      3811 1.99217E+01 1.75152E-01 6.55468E-04 5.75880E-02 8.41354E-14-5.57189E-14
 -1      3812 1.98783E+01 2.34005E-01-9.23111E-04 1.00903E-01 5.14322E-14-1.28637E-13
 -1      3813 1.98559E+01 2.66223E-01-9.60698E-05 1.17560E-01 1.42184E-14-4.43197E-14
 -1      3814 1.98783E+01 2.32761E-01 8.96956E-04 7.56187E-02-3.52045E-15-4.09460E-15
 -1      3815 1.98215E+01 3.00262E-01-1.15124E-03 1.31717E-01 3.31770E-14-1.07630E-13
 -1      3816 1.97914E+01 3.37383E-01-1.98608E-04 1.52322E-01 9.76455E-14-1.17049E-13
 -1      3817 1.98205E+01 3.00068E-01 1.19234E-03 9.84410E-02 1.51938E-15-9.72390E-14
 -1      3818 1.97465E+01 3.76179E-01-1.41595E-03 1.69656E-01 1.03979E-13-1.33000E-13
 -1      3819 1.97067E+01 4.17944E-01-3.37519E-04 1.94509E-01 8.40577E-14-1.35271E-13
 -1      3820 1.97445E+01 3.77376E-01 1.55219E-03 1.26453E-01 2.15556E-14-1.92111E-13
 -1      3821 1.96487E+01 4.60938E-01-1.72159E-03 2.15208E-01 1.42501E-13-1.95435E-13
 -1      3822 1.95967E+01 5.06420E-01-5.20078E-04 2.44488E-01 1.66805E-13-1.38175E-13
 -1      3823 1.96453E+01 4.64063E-01 1.98858E-03 1.59888E-01 1.30044E-13-1.92284E-13
 -1      3824 1.95226E+01 5.52246E-01-2.07791E-03 2.68637E-01 3.77668E-14-1.44677E-13
 -1      3825 1.94556E+01 5.99564E-01-7.49425E-04 3.02393E-01-1.02642E-13-1.08181E-13
 -1      3826 1.95176E+01 5.58139E-01 2.51661E-03 1.98745E-01 1.27352E-13-3.19383E-13
 -1      3827 1.93621E+01 6.45719E-01-2.50780E-03 3.29995E-01-2.03079E-13-6.43735E-14
 -1      3828 1.92770E+01 6.91691E-01-1.01920E-03 3.68212E-01-2.10383E-13-5.86477E-14
 -1      3829 1.93552E+01 6.55719E-01 3.15793E-03 2.42772E-01-6.88745E-14-1.73073E-13
 -1      3830 1.91600E+01 7.34136E-01-3.06179E-03 3.99314E-01-1.47495E-13 4.84169E-14
 -1      3831 1.90536E+01 7.73887E-01-1.30451E-03 4.42158E-01-9.11968E-14 1.26908E-13
 -1      3832 1.91507E+01 7.50422E-01 3.94812E-03 2.91583E-01-9.38808E-14-6.41253E-14
 -1      3833 1.89080E+01 8.06586E-01-3.84365E-03 4.77188E-01-1.30976E-13 1.04800E-13
 -1      3834 1.87768E+01 8.33122E-01-1.54717E-03 5.25571E-01-1.19633E-13 3.45241E-14
 -1      3835 1.88955E+01 8.32787E-01 4.95084E-03 3.45063E-01-1.25226E-13 7.01292E-14
 -1      3836 1.85957E+01 8.47520E-01-5.05181E-03 5.66081E-01-7.48291E-14 8.37748E-14
 -1      3837 1.84365E+01 8.51245E-01-1.65725E-03 6.22751E-01-2.26070E-14 4.97120E-16
 -1      3838 1.85785E+01 8.89760E-01 6.27745E-03 4.04344E-01-9.66089E-14 2.11933E-13
 -1      3839 1.82101E+01 8.35560E-01-7.05377E-03 6.72665E-01-1.96685E-15-9.20393E-14
 -1      3840 1.80191E+01 8.03424E-01-1.88109E-03 7.44305E-01 2.92823E-14-1.40393E-13
 -1      3841 1.81847E+01 9.04137E-01 8.07988E-03 4.73794E-01-6.91494E-14 1.36535E-13
 -1      3842 1.77321E+01 7.44873E-01-1.00476E-02 8.10083E-01 2.55438E-14-2.79572E-13
 -1      3843 1.74974E+01 6.56196E-01-4.14396E-03 9.14455E-01 5.25177E-14-2.90607E-13
 -1      3844 1.76944E+01 8.53649E-01 1.09827E-02 5.63082E-01-7.07293E-14-1.13639E-13
 -1      3845 1.71766E+01 5.66348E-01-1.60980E-02 9.70627E-01 2.74227E-13-2.91390E-13
 -1      3846 1.68978E+01 3.99554E-01-7.66066E-03 1.12570E+00 4.68808E-13-1.40022E-13
 -1      3847 1.64496E+01 5.98177E-01 3.36860E-02 7.36497E-01 4.91172E-13-6.22326E-13
 -1      3848 1.71277E+01 7.50227E-01 2.06069E-02 6.49832E-01 2.21216E-13-3.11913E-13
 -1      3849 2.00544E+01-5.31749E-02 2.85357E-04-4.12932E-02 2.77969E-14 8.13136E-14
 -1      3850 2.00607E+01-6.16915E-02-1.49188E-05-4.53319E-02 5.93490E-14 6.46415E-14
 -1      3851 2.00706E+01-6.95588E-02 3.13288E-04-4.93561E-02 4.20157E-14-2.82610E-14
 -1      3852 2.00785E+01-7.70879E-02 3.42747E-05-5.44746E-02-2.91759E-14-6.19624E-15
 -1      3853 2.00742E+01-6.98058E-02-3.06212E-04-3.99768E-02-4.10246E-15-7.81411E-14
 -1      3854 2.00294E+01-1.53211E-02 2.30110E-04-3.26361E-02-4.61668E-14 1.06013E-13
 -1      3855 2.00337E+01-2.55690E-02-1.11307E-04-3.38162E-02-2.21683E-14 1.23389E-13
 -1      3856 2.00185E+01 6.63910E-03 2.07833E-04-3.27954E-02-6.21135E-14 4.37513E-14
 -1      3857 2.00225E+01-4.78102E-03-1.67950E-04-3.22205E-02-4.34081E-14 2.26495E-14
 -1      3858 2.00288E+01-1.03730E-02-6.98110E-05-2.76910E-02-2.55419E-14 1.57215E-13
 -1      3859 2.00072E+01 3.15057E-02 1.90358E-04-3.65150E-02 5.55908E-14-4.23668E-14
 -1      3860 2.00115E+01 1.85087E-02-2.36260E-04-3.39286E-02 2.10157E-14-3.03393E-14
 -1      3861 2.00160E+01 1.39382E-02 1.89971E-05-2.85535E-02 3.98141E-15 3.21983E-14
 -1      3862 1.99941E+01 6.02255E-02 1.77518E-04-4.43413E-02 3.79603E-14-1.32025E-13
 -1      3863 1.99992E+01 4.51510E-02-3.20645E-04-3.94296E-02 3.71407E-14-1.04799E-13
 -1      3864 2.00022E+01 4.16328E-02 1.18990E-04-3.25200E-02 7.33716E-14 2.84791E-14
 -1      3865 1.99777E+01 9.38661E-02 1.68572E-04-5.69553E-02-2.95790E-14-1.36907E-13
 -1      3866 1.99843E+01 7.61637E-02-4.25405E-04-4.93331E-02 2.51613E-14-1.30816E-13
 -1      3867 1.99858E+01 7.37528E-02 2.35204E-04-4.00868E-02 3.37700E-14-8.98645E-14
 -1      3868 1.99561E+01 1.33511E-01 1.62440E-04-7.51898E-02-7.55375E-14-8.63283E-14
 -1      3869 1.99650E+01 1.12636E-01-5.54617E-04-6.43948E-02-1.23131E-13-1.44153E-13
 -1      3870 1.99649E+01 1.11446E-01 3.73173E-04-5.18717E-02-8.98641E-14-1.68954E-13
 -1      3871 1.99273E+01 1.80120E-01 1.58033E-04-1.00034E-01 2.08923E-14-4.65907E-14
 -1      3872 1.99394E+01 1.55610E-01-7.11941E-04-8.55290E-02 4.74452E-14-2.39662E-14
 -1      3873 1.99376E+01 1.55846E-01 5.38581E-04-6.86309E-02-1.09991E-13-8.17236E-14
 -1      3874 1.98889E+01 2.34335E-01 1.54788E-04-1.32630E-01 8.72466E-14-6.17635E-14
 -1      3875 1.99052E+01 2.05913E-01-9.00366E-04-1.13811E-01 5.99445E-14-8.38399E-15
 -1      3876 1.99012E+01 2.07914E-01 7.36777E-04-9.12685E-02 5.28824E-14 8.07914E-14
 -1      3877 1.98383E+01 2.96211E-01 1.53631E-04-1.74254E-01-2.48664E-14-1.29137E-13
 -1      3878 1.98600E+01 2.63933E-01-1.12196E-03-1.50467E-01 2.65714E-14-1.24990E-13
 -1      3879 1.98532E+01 2.68221E-01 9.72113E-04-1.20841E-01 2.74879E-14-2.90296E-14
 -1      3880 1.97727E+01 3.64842E-01 1.58666E-04-2.26298E-01-6.56179E-14-5.52044E-14
 -1      3881 1.98009E+01 3.29296E-01-1.37777E-03-1.96861E-01-7.03837E-14-1.49584E-13
 -1      3882 1.97903E+01 3.36648E-01 1.24706E-03-1.58565E-01-3.74354E-14-4.57022E-14
 -1      3883 1.96891E+01 4.37867E-01 1.80084E-04-2.90267E-01-4.18816E-14 5.54211E-14
 -1      3884 1.97250E+01 4.00438E-01-1.66820E-03-2.54485E-01-4.22818E-14-4.32464E-14
 -1      3885 1.97092E+01 4.11989E-01 1.56108E-03-2.05827E-01-1.32436E-13 2.86146E-14
 -1      3886 1.95848E+01 5.10818E-01 2.39018E-04-3.67821E-01-4.13384E-14 6.49268E-14
 -1      3887 1.96293E+01 4.74028E-01-1.99416E-03-3.24973E-01 1.04930E-14 6.06600E-15
 -1      3888 1.96064E+01 4.91422E-01 1.90936E-03-2.64246E-01-3.89713E-14 1.55688E-14
 -1      3889 1.94578E+01 5.76302E-01 3.75445E-04-4.60918E-01-2.63381E-14 6.90216E-15
 -1      3890 1.95112E+01 5.44236E-01-2.35973E-03-4.10196E-01-9.73958E-14-5.02783E-14
 -1      3891 1.94784E+01 5.69862E-01 2.28142E-03-3.35793E-01 3.48816E-14 1.57163E-14
 -1      3892 1.93073E+01 6.23010E-01 6.61098E-04-5.72164E-01-3.01612E-14-2.06818E-14
 -1      3893 1.93691E+01 6.01821E-01-2.77662E-03-5.12502E-01 2.92851E-14 3.26426E-14
 -1      3894 1.93224E+01 6.39164E-01 2.65987E-03-4.23078E-01-4.80754E-14-5.92802E-14
 -1      3895 1.91351E+01 6.34549E-01 1.22224E-03-7.05505E-01-5.95663E-14-1.65959E-13
 -1      3896 1.92027E+01 6.33045E-01-3.26994E-03-6.35227E-01-3.48996E-14-1.14941E-13
 -1      3897 1.91361E+01 6.87228E-01 3.01961E-03-5.29904E-01 4.71342E-15-1.44263E-13
 -1      3898 1.89468E+01 5.88065E-01 2.28499E-03-8.67458E-01-5.92965E-14 1.72785E-14
 -1      3899 1.90144E+01 6.18400E-01-3.88049E-03-7.83682E-01-7.18273E-14-1.31127E-13
 -1      3900 1.89188E+01 6.96991E-01 3.32666E-03-6.62285E-01-1.23484E-13-3.04226E-13
 -1      3901 1.87545E+01 4.52233E-01 4.13132E-03-1.06910E+00-7.60546E-14 8.33331E-14
 -1      3902 1.88112E+01 5.31051E-01-4.64519E-03-9.66912E-01-6.26938E-14 6.63780E-14
 -1      3903 1.86720E+01 6.45266E-01 3.51084E-03-8.30311E-01-9.09038E-14-1.70659E-14
 -1      3904 1.85821E+01 1.84613E-01 7.19981E-03-1.32780E+00-5.34613E-14 6.08929E-15
 -1      3905 1.86082E+01 3.34316E-01-5.55033E-03-1.19982E+00-3.76157E-14 6.63589E-15
 -1      3906 1.84010E+01 5.00162E-01 3.25364E-03-1.05140E+00-2.17551E-14-1.15472E-14
 -1      3907 1.84713E+01-2.69552E-01 1.19286E-02-1.66637E+00 5.55064E-14-1.24839E-13
 -1      3908 1.84354E+01-2.14134E-02-6.44849E-03-1.50389E+00 4.50293E-14-4.84687E-14
 -1      3909 1.81196E+01 2.17499E-01 1.95769E-03-1.35136E+00 5.94777E-14 9.64041E-14
 -1      3910 1.88294E+01-2.26588E+00 4.16542E-02-2.85345E+00 8.26058E-14-2.92911E-13
 -1      3911 1.84295E+01-1.63675E+00 1.41856E-02-2.58679E+00 2.21503E-14-3.47646E-13
 -1      3912 1.88550E+01-2.85561E+00 5.04604E-02-3.27223E+00 5.19983E-15-3.96942E-13
 -1      3913 2.03194E+01 1.17716E+00-2.90884E-03 2.12203E-02 5.12149E-14-1.26103E-13
 -1      3914 2.03218E+01 1.18252E+00-6.69598E-04-3.75838E-02 3.13794E-14-1.42206E-13
 -1      3915 2.03788E+01 9.68203E-01 5.40973E-03 2.26242E-02 4.54151E-14-1.24777E-13
 -1      3916 2.03259E+01 8.42789E-01 7.58834E-04 2.10954E-01 8.35197E-14-6.91536E-14
 -1      3917 2.00410E+01-3.51119E-02 2.56539E-04-3.55951E-02-2.02559E-14 1.40359E-13
 -1      3918 2.00460E+01-4.44539E-02-6.18358E-05-3.83106E-02 1.40016E-14 1.38366E-13
 -1      3919 2.00568E+01-5.19021E-02-2.29867E-04-3.37357E-02 5.61791E-15 9.96229E-14
 -1      3920 2.03950E+01 5.05320E-01 5.10136E-03 4.08057E-02 3.41098E-14-6.83690E-14
 -1      3921 2.03813E+01 6.91711E-01-4.24475E-03 7.45170E-02 4.86716E-14-6.21876E-14
 -1      3922 2.03452E+01 3.23146E-01-2.45336E-03-1.13706E-02 1.57783E-14-5.99516E-14
 -1      3923 2.02152E+01-8.19514E-02 1.41612E-04-1.00881E-01-1.29001E-14-1.30624E-13
 -1      3924 2.02349E+01-6.70647E-02 4.99730E-04-1.02193E-01-1.46596E-14-1.17025E-13
 -1      3925 2.02705E+01-5.63378E-02-5.28602E-04-8.41713E-02-1.47021E-14-1.35141E-13
 -1      3926 2.02982E+01 1.67074E-02-4.23820E-04-9.51893E-02-7.10953E-15-1.13238E-13
 -1      3927 2.03199E+01 6.31683E-02 8.08102E-04-8.37843E-02 7.49528E-15-1.07164E-13
 -1      3928 2.03147E+01 5.08038E-03-4.13951E-04-7.87728E-02-2.25206E-14-7.42202E-14
 -1      3929 2.01771E+01-9.77038E-02 2.64262E-04-9.30783E-02 5.17824E-14-1.10654E-13
 -1      3930 2.01944E+01-9.17219E-02 3.60636E-04-9.73437E-02 9.31284E-15-9.27510E-14
 -1      3931 2.02271E+01-8.97178E-02-5.68887E-04-8.19934E-02-2.02361E-14-2.40991E-13
 -1      3932 2.01434E+01-1.00442E-01 3.24211E-04-8.23305E-02 4.09584E-14-6.50227E-14
 -1      3933 2.01581E+01-1.00363E-01 2.48546E-04-8.80586E-02 4.19627E-14-7.97455E-14
 -1      3934 2.01869E+01-1.03790E-01-5.57323E-04-7.53391E-02 2.69347E-14-1.51081E-13
 -1      3935 1.50680E+01 2.83138E-01-3.37308E-02 8.05132E-02 3.47329E-13-4.86312E-13
 -1      3936 1.50714E+01 2.65702E-01 3.38433E-02-8.22501E-01 4.34085E-13-2.64991E-13
 -1      3937 1.58273E+01 1.20697E-01 1.37558E-02-1.19135E+00 4.86024E-13-1.63754E-13
 -1      3938 1.56506E+01 4.30900E-01-5.05618E-03 1.58383E-01 4.32809E-13-4.47998E-13
 -1      3939 2.03924E+01 6.33816E-01 1.13968E-03-7.15265E-02-5.30283E-16-1.31126E-13
 -1      3940 2.03902E+01 4.85880E-01-2.16255E-03-2.48015E-02 6.06909E-15-1.19565E-13
 -1      3941 2.04092E+01 4.59515E-01 1.31671E-03-1.39166E-02-1.03732E-14-9.07132E-14
 -1      3942 2.05403E+01-3.96248E+00 8.56983E-03 2.91436E+00 3.60750E-13-9.78098E-13
 -1      3943 1.88987E+01-3.96958E+00-8.13926E-03 3.74547E+00 3.68060E-13 2.03608E-13
 -1      3944 2.03152E+01 1.17749E+00 4.38559E-04-2.02551E-01-1.12294E-14-1.06382E-13
 -1      3945 2.03596E+01 8.44400E-01-2.30247E-03-1.12312E-01-1.61135E-14-1.23104E-13
 -1      3946 2.00420E+01-3.21392E-02-1.51693E-04-2.95317E-02-1.18713E-14 2.40166E-13
 -1      3947 2.03104E+01 1.21321E+00 5.69602E-04-1.52300E-01-9.40004E-15-9.63715E-14
 -1      3948 2.03366E+01 1.19130E-01-1.20312E-03-7.29829E-02-2.54668E-15-1.14552E-13
 -1      3949 2.03591E+01 1.90147E-01 1.75354E-03-5.00941E-02-1.66953E-14-9.23833E-14
 -1      3950 2.03557E+01 1.06019E-01-1.10757E-04-6.16003E-02-3.60419E-15-8.25294E-14
 -1      3951 2.00954E+01-8.54724E-02-3.80867E-04-4.78823E-02-7.07199E-14-7.67596E-14
 -1      3952 2.00904E+01-8.37990E-02 3.35013E-04-5.93399E-02-6.85156E-14-2.36298E-14
 -1      3953 2.01003E+01-8.98618E-02 9.08843E-05-6.52123E-02-5.36295E-14-1.08149E-14
 -1      3954 2.03815E+01 8.06542E-01 1.43637E-03-7.83478E-02-1.42838E-14-9.61727E-14
 -1      3955 1.88935E+01-3.10103E+00 1.50263E-02 3.28191E+00 1.79832E-13 1.45575E-13
 -1      3956 1.85148E+01-9.92190E-01 1.73110E-02-2.11608E+00 5.06379E-14-2.93683E-13
 -1      3957 1.83466E+01-5.88149E-01-3.00650E-03-1.91317E+00 7.68962E-14-1.54644E-13
 -1      3958 1.78587E+01-2.56682E-01 1.41039E-03-1.77046E+00 1.72005E-13 8.49079E-14
 -1      3959 2.03891E+01 7.29796E-01-2.23965E-03 5.01287E-02 4.05595E-14-9.43219E-14
 -1      3960 2.03758E+01 3.57791E-01-1.19599E-03-7.16403E-03 1.20829E-14-7.65240E-14
 -1      3961 2.03093E+01 1.21426E+00-2.42549E-03-9.79746E-02 1.58410E-14-1.33069E-13
 -1      3962 1.70223E+01-4.22404E-01-9.10034E-03-1.95278E+00 2.36488E-13-8.47217E-15
 -1      3963 1.69470E+01-8.49376E-01 8.70868E-03-2.34693E+00 1.37718E-13-1.12388E-13
 -1      3964 2.03642E+01 1.00412E+00 1.95395E-03-7.02626E-02 1.37274E-14-1.18874E-13
 -1      3965 2.01267E+01-9.84672E-02 1.60403E-04-7.67855E-02 4.66475E-14-1.79418E-14
 -1      3966 2.01514E+01-1.04980E-01-5.13551E-04-6.64650E-02 1.50845E-14-7.86867E-14
 -1      3967 2.01146E+01-9.47619E-02 3.42500E-04-7.06329E-02 2.99986E-15-1.06067E-14
 -1      3968 2.02347E+01-9.69075E-02 2.81057E-04-6.22822E-02 1.07721E-14-1.98383E-13
 -1      3969 2.02564E+01-8.50800E-02 5.22091E-04-6.31648E-02-2.28200E-15-1.82990E-13
 -1      3970 2.04177E+01 5.31949E-01-3.64584E-04-2.47191E-02-1.82654E-14-7.17143E-14
 -1      3971 2.04182E+01 4.01340E-01-1.16222E-03 2.67600E-03-4.59672E-15-7.86288E-14
 -1      3972 2.00426E+01-2.75774E-02 2.10953E-04-2.22571E-02-3.75150E-14 1.55176E-13
 -1      3973 2.00494E+01-3.83423E-02-1.06133E-05-2.34661E-02-4.32876E-14 1.27152E-13
 -1      3974 2.03910E+01 1.23160E-01 2.07252E-04 2.97776E-02 5.72523E-14-9.64014E-14
 -1      3975 2.03724E+01 6.22161E-02 8.18267E-06 4.01327E-02 7.10994E-14-9.88579E-14
 -1      3976 2.03516E+01 1.31273E-02 3.15805E-04 4.07835E-02 6.84999E-14-9.94451E-14
 -1      3977 2.03294E+01-2.49568E-02 2.14834E-04 4.60321E-02 5.22396E-14-6.81694E-14
 -1      3978 2.03713E+01 4.21904E-02-8.76388E-04 2.15919E-02 7.11671E-14-9.69537E-14
 -1      3979 2.03058E+01-5.45157E-02 3.53589E-04 4.49782E-02 3.97947E-14-9.36225E-14
 -1      3980 2.02830E+01-7.61474E-02 3.33646E-04 4.66713E-02 4.50082E-14-8.30859E-14
 -1      3981 2.03264E+01-3.90494E-02-1.13782E-03 2.46745E-02 3.81069E-14-1.22513E-13
 -1      3982 2.02592E+01-9.18415E-02 3.52747E-04 4.46319E-02 2.46454E-14-4.85018E-14
 -1      3983 2.02375E+01-1.02003E-01 3.88475E-04 4.40352E-02-7.59734E-16-6.85976E-14
 -1      3984 2.02790E+01-8.57145E-02-1.22756E-03 2.49667E-02 4.33286E-14-8.10963E-14
 -1      3985 2.02152E+01-1.08171E-01 3.26900E-04 4.15245E-02 1.82160E-15-5.61649E-14
 -1      3986 2.01955E+01-1.10587E-01 3.98880E-04 3.95969E-02-1.48115E-14-2.59918E-14
 -1      3987 2.02332E+01-1.08158E-01-1.20626E-03 2.35327E-02 5.44417E-15-7.19013E-14
 -1      3988 2.01755E+01-1.10416E-01 2.86783E-04 3.69721E-02-8.40631E-14-9.61548E-16
 -1      3989 2.01583E+01-1.07770E-01 3.80967E-04 3.44107E-02-1.30549E-13-5.94361E-14
 -1      3990 2.01913E+01-1.14165E-01-1.11554E-03 2.11547E-02-4.89002E-14-9.88628E-14
 -1      3991 2.01410E+01-1.03517E-01 2.39081E-04 3.19095E-02-9.71656E-14-1.66813E-14
 -1      3992 2.01264E+01-9.76596E-02 3.46682E-04 2.92061E-02-1.54912E-14-1.47374E-14
 -1      3993 2.01545E+01-1.09373E-01-9.85083E-04 1.83951E-02-6.11713E-14-8.54420E-14
 -1      3994 2.01117E+01-9.08372E-02 1.87377E-04 2.69803E-02-1.45373E-14-3.71420E-14
 -1      3995 2.00996E+01-8.29645E-02 3.04267E-04 2.44770E-02-6.99169E-14-2.78698E-14
 -1      3996 2.01230E+01-9.76874E-02-8.34577E-04 1.56463E-02-4.07689E-14-4.02524E-14
 -1      3997 2.00872E+01-7.45107E-02 1.33014E-04 2.26216E-02-8.60527E-14-5.67837E-14
 -1      3998 2.00771E+01-6.53097E-02 2.58927E-04 2.05577E-02-8.44045E-14-4.72723E-14
 -1      3999 2.00965E+01-8.16474E-02-6.75480E-04 1.31771E-02-8.58188E-14-3.52246E-14
 -1      4000 2.00666E+01-5.57153E-02 7.56925E-05 1.91346E-02-6.91025E-14-4.26669E-14
 -1      4001 2.00582E+01-4.54811E-02 2.13472E-04 1.76854E-02 8.44166E-15-1.32426E-14
 -1      4002 2.00743E+01-6.27265E-02-5.12734E-04 1.11731E-02-6.10516E-14-7.33951E-14
 -1      4003 2.00491E+01-3.48929E-02 1.38885E-05 1.67413E-02 2.67165E-14 1.08132E-14
 -1      4004 2.00417E+01-2.36183E-02 1.68842E-04 1.60482E-02 1.68797E-15-3.32937E-14
 -1      4005 2.00554E+01-4.15759E-02-3.46206E-04 9.76998E-03 2.16055E-14-7.73431E-14
 -1      4006 2.00332E+01-1.19180E-02-5.48574E-05 1.56284E-02-1.82903E-14-1.46040E-14
 -1      4007 2.00262E+01 6.37607E-04 1.24484E-04 1.58214E-02-6.61107E-14-8.55230E-14
 -1      4008 2.00386E+01-1.82125E-02-1.71783E-04 9.07819E-03 1.50494E-14-1.26480E-13
 -1      4009 2.00177E+01 1.37720E-02-1.33715E-04 1.59799E-02-3.54066E-14-5.66562E-14
 -1      4010 2.00104E+01 2.80276E-02 7.85854E-05 1.71937E-02 4.44675E-14-4.82226E-14
 -1      4011 2.00225E+01 7.83446E-03 1.78632E-05 9.20209E-03-4.12560E-15-4.42913E-14
 -1      4012 2.00009E+01 4.30722E-02-2.26370E-04 1.79999E-02 4.38052E-15-7.17037E-14
 -1      4013 1.99925E+01 5.95790E-02 2.81730E-05 2.03835E-02-6.64619E-14-7.33566E-14
 -1      4014 2.00056E+01 3.74076E-02 2.32766E-04 1.02518E-02-4.78785E-16-8.86068E-14
 -1      4015 1.99810E+01 7.71194E-02-3.36829E-04 2.19247E-02-8.51139E-14-8.32850E-14
 -1      4016 1.99704E+01 9.65156E-02-3.09082E-05 2.56449E-02-5.85906E-14-6.00134E-14
 -1      4017 1.99859E+01 7.16220E-02 4.85353E-04 1.23487E-02-7.44679E-14-8.74958E-14
 -1      4018 1.99558E+01 1.17200E-01-4.69185E-04 2.80263E-02-5.62148E-14-9.27814E-14
 -1      4019 1.99420E+01 1.40160E-01-1.04116E-04 3.32640E-02 1.38103E-14-9.34835E-14
 -1      4020 1.99615E+01 1.11769E-01 7.90251E-04 1.56242E-02-7.22672E-14-1.23741E-13
 -1      4021 1.99228E+01 1.64645E-01-6.27360E-04 3.66030E-02 1.42531E-13-1.58550E-13
 -1      4022 1.99044E+01 1.91814E-01-1.98419E-04 4.35414E-02 9.42349E-14-1.33251E-13
 -1      4023 1.99297E+01 1.59208E-01 1.16419E-03 2.02087E-02-1.76649E-14-1.36077E-13
 -1      4024 1.98791E+01 2.20690E-01-8.14826E-04 4.79564E-02 3.73482E-14-1.00343E-13
 -1      4025 1.98544E+01 2.52598E-01-3.22571E-04 5.67595E-02-4.90652E-15-1.31408E-13
 -1      4026 1.98877E+01 2.15229E-01 1.62598E-03 2.62104E-02 3.14238E-14-2.62140E-13
 -1      4027 1.98213E+01 2.86289E-01-1.03444E-03 6.23519E-02-7.50069E-14-9.67536E-14
 -1      4028 1.97884E+01 3.23235E-01-4.87432E-04 7.31329E-02-3.52899E-14-1.53230E-13
 -1      4029 1.98322E+01 2.80874E-01 2.19673E-03 3.36803E-02 7.97053E-15-2.44722E-13
 -1      4030 1.97452E+01 3.61871E-01-1.28859E-03 7.99604E-02-1.54940E-14-1.88997E-13
 -1      4031 1.97019E+01 4.03763E-01-7.06309E-04 9.27406E-02 3.80403E-14-1.64593E-13
 -1      4032 1.97591E+01 3.56695E-01 2.90054E-03 4.25603E-02 8.13348E-15-1.36071E-13
 -1      4033 1.96462E+01 4.46999E-01-1.58018E-03 1.00783E-01 7.20705E-14-1.71672E-13
 -1      4034 1.95899E+01 4.93160E-01-9.95357E-04 1.15447E-01 1.53631E-13-1.74533E-13
 -1      4035 1.96640E+01 4.42441E-01 3.76625E-03 5.26144E-02 7.17388E-14-8.34013E-14
 -1      4036 1.95189E+01 5.39960E-01-1.91527E-03 1.24569E-01 8.26680E-14-3.06963E-13
 -1      4037 1.94465E+01 5.88885E-01-1.37423E-03 1.40824E-01 4.02827E-14-2.69332E-13
 -1      4038 1.95417E+01 5.36671E-01 4.83156E-03 6.33447E-02 5.05039E-14-1.23505E-13
 -1      4039 1.93572E+01 6.37257E-01-2.30886E-03 1.50740E-01 2.84209E-14-2.93949E-13
 -1      4040 1.92652E+01 6.86340E-01-1.86757E-03 1.68118E-01-4.89231E-14-2.35124E-13
 -1      4041 1.93863E+01 6.36299E-01 6.15150E-03 7.39005E-02-4.01893E-14-2.40828E-13
 -1      4042 1.91538E+01 7.33050E-01-2.79632E-03 1.78385E-01-5.81956E-14-1.75706E-13
 -1      4043 1.90380E+01 7.78316E-01-2.50912E-03 1.96312E-01-8.18370E-14-9.05989E-14
 -1      4044 1.91909E+01 7.36118E-01 7.81476E-03 8.30001E-02-1.15977E-14-3.29763E-13
 -1      4045 1.88999E+01 8.18614E-01-3.45440E-03 2.06368E-01 1.32593E-15 3.39564E-15
 -1      4046 1.87553E+01 8.54499E-01-3.35240E-03 2.24416E-01-4.23627E-14 6.88087E-14
 -1      4047 1.89474E+01 8.28384E-01 9.97264E-03 8.88931E-02 4.51098E-14-1.71567E-13
 -1      4048 1.85842E+01 8.81930E-01-4.43739E-03 2.33722E-01-1.44665E-13 1.58715E-13
 -1      4049 1.84039E+01 9.01184E-01-4.49358E-03 2.52164E-01-6.98928E-14 1.19157E-13
 -1      4050 1.86457E+01 9.02594E-01 1.28816E-02 8.93845E-02 4.50283E-14 3.46316E-14
 -1      4051 1.81902E+01 9.07680E-01-6.02171E-03 2.60598E-01-5.27292E-14 1.30769E-13
 -1      4052 1.79650E+01 9.01309E-01-6.01247E-03 2.81552E-01-1.23205E-13 6.10956E-14
 -1      4053 1.82712E+01 9.45605E-01 1.69106E-02 8.18857E-02-7.91326E-14 5.69169E-14
 -1      4054 1.76921E+01 8.77283E-01-8.72885E-03 2.91335E-01-2.26028E-13 9.33039E-14
 -1      4055 1.74008E+01 8.29801E-01-1.08335E-02 3.21230E-01-1.36311E-13 5.35775E-14
 -1      4056 1.77989E+01 9.41813E-01 2.19329E-02 6.35526E-02-1.53585E-13 6.62101E-14
 -1      4057 2.00769E+01-6.73030E-02 3.06189E-04-2.93821E-02-2.24275E-14-3.14336E-14
 -1      4058 2.00864E+01-7.60958E-02 9.89808E-05-3.23331E-02-6.48772E-14-9.86781E-14
 -1      4059 2.00135E+01 2.12629E-02 1.12822E-04-2.27615E-02-8.59961E-15 2.60910E-14
 -1      4060 2.00199E+01 7.84243E-03-1.33077E-04-2.15423E-02 3.45296E-14 8.33654E-14
 -1      4061 2.00281E+01-4.57067E-03 1.62009E-04-2.14222E-02 5.72807E-14 4.42751E-14
 -1      4062 2.00343E+01-1.64802E-02-6.79759E-05-2.15053E-02 3.38888E-14 1.58937E-13
 -1      4063 2.00405E+01-2.30018E-02-2.66176E-04-1.57049E-02 2.05432E-14 1.09980E-14
 -1      4064 2.00251E+01 1.94985E-03-8.43932E-05-1.53952E-02 7.69041E-14-1.83008E-14
 -1      4065 1.99779E+01 8.53131E-02 9.59849E-06-3.33667E-02 2.38329E-14 2.37735E-14
 -1      4066 1.99870E+01 6.72890E-02-3.06407E-04-2.88827E-02 6.10114E-14 5.61009E-14
 -1      4067 1.99531E+01 1.25853E-01-4.77394E-05-4.35643E-02-9.35128E-14 4.66840E-15
 -1      4068 1.99648E+01 1.04619E-01-4.25542E-04-3.70234E-02 1.64921E-14 7.57973E-14
 -1      4069 1.99688E+01 1.00463E-01 6.09230E-04-2.50349E-02-2.61940E-14 1.97799E-13
 -1      4070 1.99204E+01 1.73639E-01-1.11152E-04-5.78351E-02-1.00636E-13 1.12798E-14
 -1      4071 1.99360E+01 1.48613E-01-5.74333E-04-4.88807E-02-1.44900E-13-8.79508E-15
 -1      4072 1.99401E+01 1.45101E-01 9.32170E-04-3.28628E-02-9.64263E-14 1.31654E-13
 -1      4073 1.98771E+01 2.29627E-01-1.81611E-04-7.69491E-02 1.66153E-14 1.20349E-13
 -1      4074 1.98979E+01 2.00353E-01-7.59436E-04-6.51665E-02-3.15632E-14 4.62569E-14
 -1      4075 1.99024E+01 1.97678E-01 1.32628E-03-4.37709E-02-8.09815E-14 4.56700E-14
 -1      4076 1.98202E+01 2.94337E-01-2.58608E-04-1.01822E-01 7.21229E-14 5.67950E-14
 -1      4077 1.98475E+01 2.60606E-01-9.88232E-04-8.67383E-02 6.54355E-14 7.86514E-14
 -1      4078 1.98525E+01 2.59142E-01 1.80886E-03-5.84007E-02 7.09489E-14 8.36460E-14
 -1      4079 1.97462E+01 3.67531E-01-3.38961E-04-1.33536E-01-3.22398E-14 7.05018E-14
 -1      4080 1.97816E+01 3.29549E-01-1.26929E-03-1.14618E-01 8.26957E-14 6.27300E-14
 -1      4081 1.97871E+01 3.29930E-01 2.39873E-03-7.75490E-02 1.44135E-13 5.72838E-14
 -1      4082 1.96511E+01 4.47810E-01-4.15063E-04-1.73383E-01-1.09167E-13-6.19302E-14
 -1      4083 1.96963E+01 4.06412E-01-1.61342E-03-1.50022E-01-7.73963E-14 4.97145E-14
 -1      4084 1.97021E+01 4.09644E-01 3.11684E-03-1.02212E-01-8.41319E-15-1.63955E-14
 -1      4085 1.95309E+01 5.32084E-01-4.72270E-04-2.22950E-01 3.02591E-14-1.18781E-13
 -1      4086 1.95877E+01 4.89004E-01-2.03590E-03-1.94426E-01-5.56360E-14-1.06664E-13
 -1      4087 1.95933E+01 4.96629E-01 3.98835E-03-1.33662E-01-3.91552E-14-1.99005E-13
 -1      4088 1.93818E+01 6.14941E-01-4.85017E-04-2.84298E-01 7.50911E-14-1.50308E-13
 -1      4089 1.94515E+01 5.73135E-01-2.56077E-03-2.49686E-01 1.32331E-13-6.67566E-14
 -1      4090 1.94561E+01 5.87465E-01 5.04732E-03-1.73574E-01 5.67866E-14-2.77679E-13
 -1      4091 1.91996E+01 6.87925E-01-4.11003E-04-3.60302E-01 1.98769E-14-2.31097E-13
 -1      4092 1.92834E+01 6.51922E-01-3.22868E-03-3.18287E-01-5.61074E-14-1.48558E-13
 -1      4093 1.92854E+01 6.76382E-01 6.34639E-03-2.24263E-01 4.08479E-14-2.07036E-13
 -1      4094 1.89811E+01 7.38760E-01-1.82419E-04-4.55271E-01-1.21308E-14-2.28918E-13
 -1      4095 1.90793E+01 7.15029E-01-4.11014E-03-4.03796E-01 5.54678E-14-2.75960E-13
 -1      4096 1.90762E+01 7.54669E-01 7.97494E-03-2.89083E-01 2.74744E-14-3.88846E-13
 -1      4097 1.87233E+01 7.50601E-01 3.07520E-04-5.76044E-01-1.32361E-13-3.29469E-13
 -1      4098 1.88352E+01 7.47880E-01-5.32691E-03-5.11672E-01-1.20068E-13-3.08376E-13
 -1      4099 1.88228E+01 8.10125E-01 1.00903E-02-3.73107E-01-4.17082E-15-3.35902E-13
 -1      4100 1.84238E+01 7.01354E-01 1.24153E-03-7.33909E-01-6.80226E-14-3.84286E-13
 -1      4101 1.85471E+01 7.30954E-01-7.08132E-03-6.50656E-01-5.63553E-14-4.18243E-13
 -1      4102 1.85187E+01 8.26685E-01 1.29610E-02-4.84235E-01-7.26991E-14-6.73272E-13
 -1      4103 1.80822E+01 5.63173E-01 3.50841E-03-9.48169E-01-3.52400E-14-2.59027E-13
 -1      4104 1.82098E+01 6.39589E-01-9.62611E-03-8.35554E-01-6.37631E-14-2.56197E-13
 -1      4105 1.81547E+01 7.84307E-01 1.69078E-02-6.34887E-01-1.17194E-13-7.24600E-13
 -1      4106 1.76975E+01 2.90112E-01 5.46587E-03-1.25546E+00 2.19285E-14-8.13760E-14
 -1      4107 1.78180E+01 4.37838E-01-1.41510E-02-1.09550E+00-3.70016E-14-1.28937E-13
 -1      4108 1.77088E+01 6.57696E-01 2.00660E-02-8.46706E-01-1.53430E-13-6.19722E-13
 -1      4109 1.75602E+01-1.17362E+00-1.69394E-02-2.48869E+00 3.85714E-14-2.23497E-13
 -1      4110 2.04190E+01 5.71686E-01 3.40687E-03 2.24229E-02 4.56530E-14-9.42671E-14
 -1      4111 2.03962E+01 7.56531E-01-2.65413E-03 3.34854E-02 5.71763E-14-1.12872E-13
 -1      4112 1.73101E+01-1.41136E-01 9.98058E-03-1.68195E+00 1.25447E-13 1.78194E-13
 -1      4113 1.74052E+01 1.05876E-01-1.70505E-02-1.44133E+00 1.36193E-13 1.10485E-13
 -1      4114 1.72087E+01 3.99546E-01 1.70463E-02-1.16097E+00-3.15377E-14-1.97494E-13
 -1      4115 1.66255E+01 2.76245E-02 1.83957E-02-1.58228E+00 3.14066E-13-6.15046E-15
 -1      4116 2.03973E+01 7.63873E-01-2.65304E-03 1.79719E-03 4.53524E-14-1.05392E-13
 -1      4117 1.99974E+01 5.08515E-02 6.25219E-05-2.66050E-02 9.59557E-14-1.64804E-14
 -1      4118 2.00047E+01 3.54212E-02-2.10805E-04-2.38778E-02 1.96972E-14 6.32887E-15
 -1      4119 2.00092E+01 3.01289E-02 1.14556E-04-1.66666E-02 1.52863E-14-8.86415E-14
 -1      4120 1.99911E+01 6.25644E-02 3.41510E-04-1.97725E-02 2.50358E-14-2.63167E-14
 -1      4121 2.04165E+01 2.90863E-01 8.79088E-05 9.74737E-03-2.41825E-15-7.65494E-14
 -1      4122 2.04054E+01 1.98657E-01-3.79136E-04 2.66366E-02 1.32283E-14-7.89079E-14
 -1      4123 2.04262E+01 3.64251E-01 6.98366E-04 2.45237E-03 2.40312E-15-2.55734E-14
 -1      4124 2.03941E+01 3.36852E-01-4.40257E-04-1.00982E-02 1.80161E-14-8.77041E-14
 -1      4125 2.01935E+01-1.07712E-01 3.60175E-04-5.64385E-02 1.23497E-14-1.93520E-13
 -1      4126 2.02129E+01-1.04128E-01 4.09231E-04-5.91188E-02-1.28085E-15-2.11824E-13
 -1      4127 2.02349E+01-1.04134E-01-1.33118E-03-4.28678E-02-2.74205E-15-2.07170E-13
 -1      4128 2.03242E+01-1.28511E-02-1.43546E-04-6.31818E-02-3.95459E-14-9.91077E-14
 -1      4129 2.03474E+01 2.84572E-02 7.50889E-04-5.61805E-02-1.65181E-14-1.06704E-13
 -1      4130 2.03931E+01 7.69076E-01-1.17457E-03-3.33642E-02 1.01821E-15-9.68194E-14
 -1      4131 2.02791E+01-6.80552E-02 1.24367E-04-6.52565E-02 1.03021E-14-1.59460E-13
 -1      4132 2.03024E+01-4.40812E-02 6.45080E-04-6.30534E-02 7.17877E-17-1.23628E-13
 -1      4133 2.02805E+01-7.81881E-02-1.33529E-03-4.50913E-02 3.43076E-14-1.33653E-13
 -1      4134 2.00585E+01-4.84015E-02 2.59528E-04-2.49936E-02-4.96599E-14 1.08920E-13
 -1      4135 2.00663E+01-5.82070E-02 4.35940E-05-2.71630E-02 7.19393E-15 3.30072E-14
 -1      4136 2.00569E+01-4.54775E-02-4.39391E-04-1.73892E-02-3.68581E-14 6.29113E-15
 -1      4137 2.04056E+01 7.09520E-01 2.65782E-04-1.29407E-02 1.67752E-14-7.69050E-14
 -1      4138 2.04278E+01 5.36924E-01 1.38132E-03 2.48894E-03 3.16958E-14-6.65652E-14
 -1      4139 2.00979E+01-8.39813E-02-7.80413E-04-2.41348E-02-9.98243E-14-1.33828E-13
 -1      4140 2.00990E+01-8.40380E-02 3.47443E-04-3.51526E-02-6.95311E-14-1.41067E-13
 -1      4141 2.01106E+01-9.14536E-02 1.59659E-04-3.86602E-02-6.89786E-14-1.58351E-13
 -1      4142 1.72541E+01 8.74199E-01 2.36167E-02 7.16443E-03-2.49156E-13 2.96944E-13
 -1      4143 1.71255E+01 7.91253E-01-7.79559E-03 3.08524E-01-6.88030E-14-1.33764E-13
 -1      4144 1.68065E+01 7.14464E-01-1.34080E-02 3.27111E-01 1.64034E-13-2.11252E-13
 -1      4145 2.00757E+01-6.58477E-02-6.09950E-04-2.02637E-02-5.26889E-14 1.10149E-14
 -1      4146 2.04078E+01 1.71109E-01-3.22535E-04 1.43140E-02 1.38673E-14-6.18629E-14
 -1      4147 2.03652E+01 7.94146E-02-7.11074E-04-5.32581E-02-1.93565E-14-9.94502E-14
 -1      4148 2.03862E+01 1.43855E-01 4.68813E-04-3.83032E-02-1.20048E-14-1.12042E-13
 -1      4149 2.03712E+01 6.13502E-02-8.20728E-04-3.73757E-02-1.80558E-14-1.13198E-13
 -1      4150 1.61164E+01 2.95616E-01-2.10480E-02-9.81523E-01 2.97723E-13-1.09665E-13
 -1      4151 2.04196E+01 4.20890E-01-4.51465E-04 9.30645E-03 2.67346E-14-1.09177E-13
 -1      4152 2.04254E+01 4.54285E-01 6.25892E-04 4.79012E-03 3.66061E-14-9.89941E-14
 -1      4153 2.04310E+01 3.96711E-01-5.53682E-04-4.17209E-03 1.43438E-14-7.57887E-14
 -1      4154 2.04027E+01 2.40829E-01-3.85169E-04-2.77928E-02 7.18558E-15-1.13600E-13
 -1      4155 2.10745E+01-4.08742E+00 2.52615E-02 2.70269E+00 3.75637E-13-7.72299E-13
 -1      4156 2.01209E+01-9.78443E-02-4.51697E-04-5.69534E-02-1.57209E-14-6.72890E-14
 -1      4157 1.64667E+01 6.38467E-01-1.24506E-02 2.49372E-01 2.57610E-13-4.00026E-13
 -1      4158 1.60435E+01 5.30023E-01-2.07598E-02 2.65535E-01 2.72511E-13-5.62259E-13
 -1      4159 1.59151E+01 5.65354E-01 2.80779E-02-3.93982E-01 2.31484E-13-3.28064E-13
 -1      4160 1.66500E+01 7.31857E-01 1.71155E-02-1.49792E-01-8.91329E-14-1.31204E-14
 -1      4161 2.01736E+01-1.08379E-01 3.11835E-04-5.28435E-02 1.75226E-14-1.67207E-13
 -1      4162 2.01931E+01-1.12610E-01-1.24380E-03-3.87481E-02-4.17936E-15-2.54570E-13
 -1      4163 2.01569E+01-1.06551E-01 3.86009E-04-4.92993E-02 2.11737E-14-1.62046E-13
 -1      4164 2.03273E+01-2.66422E-02-1.20506E-03-4.39321E-02-6.84918E-16-1.28347E-13
 -1      4165 2.03794E+01 5.13816E-02 2.47487E-04-9.43041E-03 1.81980E-14-1.14313E-13
 -1      4166 2.03588E+01 3.78807E-03 9.76547E-04-7.02999E-03 3.33118E-14-1.41658E-13
 -1      4167 2.01254E+01-9.77054E-02 3.77205E-04-4.19576E-02-4.93367E-14-1.39113E-13
 -1      4168 2.01395E+01-1.02975E-01 2.29476E-04-4.57095E-02-1.13305E-14-1.41164E-13
 -1      4169 2.01562E+01-1.09548E-01-1.10840E-03-3.37987E-02 5.86527E-15-1.91063E-13
 -1      4170 2.01245E+01-9.90931E-02-9.49028E-04-2.87601E-02-6.06785E-14-1.81245E-13
 -1      4171 2.03358E+01-3.22384E-02 6.07039E-04-9.62139E-03 2.68300E-14-1.54708E-13
 -1      4172 2.03121E+01-6.08218E-02 9.84985E-04-8.42472E-03 1.89944E-14-1.50397E-13
 -1      4173 2.02886E+01-8.08206E-02 7.77458E-04-9.11296E-03 4.11184E-14-1.43668E-13
 -1      4174 2.02646E+01-9.58984E-02 9.25609E-04-8.71195E-03 4.43365E-14-1.52094E-13
 -1      4175 2.02422E+01-1.04771E-01 8.31774E-04-8.20302E-03 9.65349E-15-1.69474E-13
 -1      4176 2.02197E+01-1.10559E-01 8.31088E-04-8.30946E-03-3.07147E-14-1.37398E-13
 -1      4177 2.01995E+01-1.11961E-01 8.10488E-04-7.12256E-03-2.08860E-14-1.28921E-13
 -1      4178 2.01792E+01-1.11556E-01 7.20517E-04-7.51915E-03-5.01606E-15-1.14191E-13
 -1      4179 2.01616E+01-1.08109E-01 7.42074E-04-6.02854E-03-4.21979E-14-1.06208E-13
 -1      4180 2.01440E+01-1.03695E-01 6.05661E-04-6.55575E-03-2.43040E-14-6.53890E-14
 -1      4181 2.01290E+01-9.71960E-02 6.46187E-04-5.02496E-03-7.63592E-14-7.66629E-14
 -1      4182 2.01140E+01-9.02323E-02 4.93105E-04-5.56820E-03-7.87089E-14-6.54999E-14
 -1      4183 2.01014E+01-8.18297E-02 5.35334E-04-4.18092E-03-8.22032E-14-7.07583E-14
 -1      4184 2.00889E+01-7.32060E-02 3.85518E-04-4.65840E-03-1.07398E-13-7.76395E-14
 -1      4185 2.00783E+01-6.35474E-02 4.16319E-04-3.54482E-03-8.00419E-14-4.71278E-14
 -1      4186 2.00677E+01-5.37135E-02 2.82583E-04-3.89715E-03-1.63750E-14-7.36468E-14
 -1      4187 2.00586E+01-4.30605E-02 2.91487E-04-3.15565E-03-8.47731E-16-8.83855E-14
 -1      4188 2.00493E+01-3.21253E-02 1.81680E-04-3.33760E-03 3.00788E-14-9.23532E-14
 -1      4189 2.00411E+01-2.04444E-02 1.59730E-04-3.05200E-03 5.60732E-14-1.40772E-13
 -1      4190 2.00325E+01-8.25362E-03 7.83319E-05-3.02651E-03 2.24905E-14-7.92348E-14
 -1      4191 2.00244E+01 4.71397E-03 1.72553E-05-3.28002E-03 3.50960E-14-6.60240E-14
 -1      4192 2.00158E+01 1.85174E-02-3.35278E-05-3.01441E-03 6.42153E-14-5.01886E-14
 -1      4193 2.00070E+01 3.31988E-02-1.41842E-04-3.90084E-03 1.32626E-14-3.85108E-14
 -1      4194 1.99975E+01 4.91240E-02-1.61454E-04-3.36549E-03-4.23882E-14-9.21011E-14
 -1      4195 1.99870E+01 6.60654E-02-3.25151E-04-4.99874E-03-6.36750E-14-7.81124E-16
 -1      4196 1.99756E+01 8.47262E-02-3.14509E-04-4.16853E-03-4.07769E-14 2.39522E-14
 -1      4197 1.99624E+01 1.04543E-01-5.41590E-04-6.69104E-03-1.12994E-13 1.05950E-13
 -1      4198 1.99477E+01 1.26606E-01-5.03394E-04-5.55023E-03-1.12523E-13 8.59935E-15
 -1      4199 1.99305E+01 1.49923E-01-8.01101E-04-9.14148E-03-9.43274E-14 4.01277E-16
 -1      4200 1.99113E+01 1.76049E-01-7.40682E-04-7.69298E-03-8.56108E-14-8.56973E-14
 -1      4201 1.98887E+01 2.03428E-01-1.11437E-03-1.25791E-02-4.36880E-14-6.37381E-14
 -1      4202 1.98633E+01 2.34180E-01-1.04122E-03-1.08594E-02 1.53251E-14-1.02165E-13
 -1      4203 1.98335E+01 2.66019E-01-1.49265E-03-1.73258E-02 1.32957E-13-1.16034E-13
 -1      4204 1.98001E+01 3.01760E-01-1.42281E-03-1.54272E-02 1.17427E-13-4.40392E-14
 -1      4205 1.97611E+01 3.38158E-01-1.94785E-03-2.38369E-02 1.06248E-13-7.75955E-14
 -1      4206 1.97175E+01 3.78896E-01-1.90740E-03-2.19379E-02 1.28565E-13-2.07938E-14
 -1      4207 1.96673E+01 4.19478E-01-2.49332E-03-3.27616E-02 1.94132E-14-7.22746E-14
 -1      4208 1.96109E+01 4.64675E-01-2.52344E-03-3.11664E-02 2.32861E-15-1.14608E-13
 -1      4209 1.95471E+01 5.08374E-01-3.14615E-03-4.50308E-02 4.52536E-14-1.59034E-13
 -1      4210 1.94751E+01 5.56716E-01-3.31016E-03-4.42182E-02 3.24332E-14-2.55123E-13
 -1      4211 1.93950E+01 6.01502E-01-3.93227E-03-6.19883E-02-1.35019E-14-2.18082E-13
 -1      4212 1.93040E+01 6.50635E-01-4.32566E-03-6.26658E-02-3.16316E-14-2.14684E-13
 -1      4213 1.92050E+01 6.93224E-01-4.89654E-03-8.55833E-02 1.11883E-14-2.41375E-13
 -1      4214 1.90910E+01 7.39489E-01-5.66125E-03-8.87436E-02-3.21859E-15-2.33502E-13
 -1      4215 1.89699E+01 7.75047E-01-6.11942E-03-1.18658E-01 1.31416E-14-2.21564E-13
 -1      4216 1.88280E+01 8.13254E-01-7.46383E-03-1.25638E-01 9.84982E-14-1.80033E-13
 -1      4217 1.86812E+01 8.35160E-01-7.73546E-03-1.65380E-01 1.17133E-13-2.97005E-13
 -1      4218 1.85047E+01 8.58485E-01-9.95506E-03-1.77952E-01 1.62745E-14-2.36070E-13
 -1      4219 1.83275E+01 8.58244E-01-9.89998E-03-2.31866E-01-7.67962E-14-2.39085E-13
 -1      4220 1.81068E+01 8.58356E-01-1.33311E-02-2.52505E-01-1.21670E-13-2.37487E-13
 -1      4221 1.78933E+01 8.26140E-01-1.23485E-02-3.26940E-01-1.58758E-13-2.65244E-13
 -1      4222 1.76153E+01 7.94390E-01-1.66904E-02-3.59734E-01-2.05706E-13-2.91132E-13
 -1      4223 2.04279E+01 2.85996E-01 8.61329E-05 2.92142E-03-1.41191E-15-8.52539E-14
 -1      4224 1.73576E+01 7.31946E-01-8.82799E-03-4.57916E-01-2.07801E-13-2.01935E-13
 -1      4225 1.65361E+01 4.52940E-01 9.66664E-04-7.98688E-01 5.45043E-14-1.50201E-13
 -1      4226 1.67905E+01 5.89279E-01-1.18952E-02-6.52760E-01-1.70431E-13-2.61476E-13
 -1      4227 2.03990E+01 1.09893E-01 8.62529E-04-4.00958E-03-2.56716E-15-9.72397E-14
 -1      4228 2.04129E+01 1.83246E-01-1.06269E-04-8.42393E-03-2.06866E-14-8.40324E-14
 -1      4229 2.04100E+01 2.17108E-01 2.35617E-04-1.84858E-02-1.04497E-14-1.16123E-13
 -1      4230 1.70962E+01 6.62152E-01-1.30985E-02-5.27605E-01-2.05206E-13-1.11642E-13
 -1      4231 2.22823E+01-4.40238E+00 6.96032E-02 2.25489E+00 2.10210E-13-3.94084E-13
 -3
    1PSTEP                         3           1           1          
  100CL  101 1.000000000        4231                     0    1           1
 -4  TOSTRAIN    6    1
 -5  EXX         1    4    1    1
 -5  EYY         1    4    2    2
 -5  EZZ         1    4    3    3
 -5  EXY         1    4    1    2
 -5  EYZ         1    4    2    3
 -5  EZX         1    4    3    1
 -1         1 4.03227E-04-1.24264E-04-1.05718E-04-8.40752E-06-1.12311E-19-4.08143E-18
 -1         2 8.65893E-05-2.35001E-04 1.49455E-05-7.26620E-07 5.71972E-18 2.81215E-19
 -1         3 9.57228E-05-2.78642E-05-2.86581E-05 1.40282E-06 1.72051E-18 4.07840E-19
 -1         4 9.56580E-05-2.79171E-05-2.79147E-05-1.79047E-06 1.05579E-18-4.10692E-19
 -1         5 1.43349E-04-2.14784E-05-4.25300E-05 3.85301E-05-1.76659E-19 1.11936E-17
 -1         6 1.45409E-04 2.57587E-10-4.41884E-05-5.35248E-05-5.86570E-19 9.80409E-18
 -1         7 9.06135E-05-5.11519E-07-3.90697E-05-2.92487E-05-7.79270E-20 1.95159E-18
 -1         8 8.51285E-05 8.63751E-08-3.63408E-05-2.02658E-05-1.22661E-19-4.80600E-19
 -1         9 8.28158E-05 7.68247E-08-3.53520E-05-1.56358E-05-1.04595E-19-1.83143E-18
 -1        10 8.17762E-05 3.86684E-08-3.48822E-05-1.20731E-05-7.72587E-20-2.47735E-18
 -1        11 8.12519E-05 1.95093E-08-3.46523E-05-9.00806E-06-3.93639E-20-2.75541E-18
 -1        12 8.09804E-05 9.26708E-09-3.45374E-05-6.28002E-06-2.59884E-20-2.82390E-18
 -1        13 8.08377E-05 4.66542E-09-3.44791E-05-3.68289E-06-1.78994E-20-2.81111E-18
 -1        14 8.07778E-05 2.80808E-09-3.44552E-05-1.18283E-06 1.26317E-20-2.77620E-18
 -1        15 8.07800E-05 2.78507E-09-3.44560E-05 1.28783E-06 3.40585E-20-2.69313E-18
 -1        16 8.08441E-05 4.57036E-09-3.44813E-05 3.79313E-06 6.20485E-20-2.58924E-18
 -1        17 8.09920E-05 8.49326E-09-3.45410E-05 6.40251E-06 4.83173E-20-2.38650E-18
 -1        18 8.12685E-05 1.83041E-08-3.46575E-05 9.15014E-06 7.58128E-20-2.08311E-18
 -1        19 8.17983E-05 3.82830E-08-3.48900E-05 1.22512E-05 1.15375E-19-1.51483E-18
 -1        20 8.28421E-05 8.04741E-08-3.53643E-05 1.58661E-05 1.36478E-19-6.23246E-19
 -1        21 8.50924E-05 1.69832E-07-3.63787E-05 2.04782E-05 1.50137E-19 1.06014E-18
 -1        22 9.16494E-05-9.94786E-08-3.87420E-05 2.79958E-05 3.34578E-20 4.33351E-18
 -1        23 1.12984E-04-3.81297E-05-3.53997E-05-4.40172E-06-3.74336E-19 7.79239E-18
 -1        24 9.28199E-05-2.77016E-05-2.90038E-05 3.91350E-07-1.27002E-19 5.92836E-18
 -1        25 8.91400E-05-2.68583E-05-2.69354E-05 3.76141E-07-5.48255E-21 4.12712E-18
 -1        26 8.80424E-05-2.64965E-05-2.63996E-05 2.04274E-07-9.70233E-20 2.70492E-18
 -1        27 8.80746E-05-2.64765E-05-2.63936E-05 1.40050E-07-7.08187E-20 1.83311E-18
 -1        28 8.86146E-05-2.66147E-05-2.65651E-05 1.01116E-07-7.27940E-21 1.14695E-18
 -1        29 8.93764E-05-2.68295E-05-2.67997E-05 7.54998E-08 1.64684E-20 6.42617E-19
 -1        30 9.02086E-05-2.70714E-05-2.70520E-05 5.72595E-08 5.07103E-20 2.44991E-19
 -1        31 9.10261E-05-2.73122E-05-2.72986E-05 4.35657E-08-8.92634E-20-9.73095E-21
 -1        32 9.17816E-05-2.75362E-05-2.75263E-05 3.29800E-08-8.12196E-20-7.42241E-19
 -1        33 9.24512E-05-2.77354E-05-2.77281E-05 2.46918E-08 1.48980E-20-1.26704E-18
 -1        34 9.30258E-05-2.79069E-05-2.79015E-05 1.81839E-08-4.01452E-20-1.49808E-18
 -1        35 9.35058E-05-2.80504E-05-2.80464E-05 1.30879E-08-7.20950E-20-1.84019E-18
 -1        36 9.38971E-05-2.81676E-05-2.81647E-05 9.11853E-09 1.23688E-19-1.36503E-18
 -1        37 9.42087E-05-2.82611E-05-2.82589E-05 6.04497E-09-3.24360E-19-1.46919E-18
 -1        38 9.44512E-05-2.83340E-05-2.83324E-05 3.67635E-09-1.04459E-19-2.73069E-18
 -1        39 9.46358E-05-2.83896E-05-2.83884E-05 1.85498E-09 1.41404E-19-2.79182E-18
 -1        40 9.47735E-05-2.84312E-05-2.84303E-05 4.52731E-10 1.18420E-20-2.64148E-18
 -1        41 9.48753E-05-2.84620E-05-2.84613E-05-6.30874E-10 5.79149E-20-3.28566E-18
 -1        42 9.49516E-05-2.84853E-05-2.84846E-05-1.46963E-09-2.66766E-19-3.20626E-18
 -1        43 9.50135E-05-2.85042E-05-2.85036E-05-2.11058E-09-2.89442E-19-3.58971E-18
 -1        44 9.50723E-05-2.85223E-05-2.85218E-05-2.57276E-09 3.03654E-19-3.45794E-18
 -1        45 9.51407E-05-2.85434E-05-2.85428E-05-2.84447E-09-1.50443E-19-3.00955E-18
 -1        46 9.52336E-05-2.85719E-05-2.85714E-05-2.87858E-09 3.34063E-19-3.72506E-18
 -1        47 9.53685E-05-2.86131E-05-2.86127E-05-2.58522E-09 4.35423E-20-2.52199E-18
 -1        48 9.55673E-05-2.86736E-05-2.86735E-05-1.82129E-09 7.27583E-20-1.99663E-18
 -1        49 9.58569E-05-2.87615E-05-2.87619E-05-3.75607E-10 2.15075E-19-2.01206E-18
 -1        50 9.62705E-05-2.88867E-05-2.88879E-05 2.05120E-09-3.99587E-19-3.39314E-18
 -1        51 9.68491E-05-2.90615E-05-2.90639E-05 5.87331E-09 5.45342E-20-2.75274E-18
 -1        52 9.76421E-05-2.93007E-05-2.93049E-05 1.16525E-08-8.70479E-20-1.82914E-18
 -1        53 9.87077E-05-2.96215E-05-2.96284E-05 2.01339E-08-5.33259E-20-1.60122E-18
 -1        54 1.00112E-04-3.00434E-05-3.00543E-05 3.22714E-08 1.66023E-19-1.98552E-18
 -1        55 1.01924E-04-3.05871E-05-3.06032E-05 4.92070E-08-1.98776E-19-3.63623E-18
 -1        56 1.04210E-04-3.12711E-05-3.12939E-05 7.21220E-08-1.99004E-19-4.15939E-18
 -1        57 1.07009E-04-3.21068E-05-3.21367E-05 1.01779E-07 8.61244E-20-4.68712E-18
 -1        58 1.10302E-04-3.30874E-05-3.31224E-05 1.37411E-07 5.41836E-19-2.81985E-18
 -1        59 1.13951E-04-3.41710E-05-3.42029E-05 1.74406E-07-3.44356E-20-2.75910E-18
 -1        60 1.17604E-04-3.52523E-05-3.52620E-05 2.00112E-07-1.05807E-19-7.33286E-19
 -1        61 1.20569E-04-3.61265E-05-3.60785E-05 1.87801E-07 6.07273E-19-3.80946E-19
 -1        62 1.21687E-04-3.64530E-05-3.62981E-05 9.17795E-08-3.51573E-19 3.95043E-19
 -1        63 1.19337E-04-3.57533E-05-3.54514E-05-1.45882E-07-7.99834E-19-3.93406E-18
 -1        64 1.11770E-04-3.35075E-05-3.30828E-05-5.58032E-07 9.40504E-20-5.14692E-18
 -1        65 9.80572E-05-2.94272E-05-2.90380E-05-1.07234E-06-7.40651E-19-2.90225E-18
 -1        66 7.95706E-05-2.38999E-05-2.38419E-05-1.43373E-06 7.54991E-19-2.73412E-18
 -1        67 6.11178E-05-1.83463E-05-1.88898E-05-1.26321E-06 4.94386E-19-1.57268E-18
 -1        68 5.00867E-05-1.49848E-05-1.61096E-05-3.28103E-07 1.50560E-19 6.31000E-19
 -1        69 5.27564E-05-1.57386E-05-1.69474E-05 1.13803E-06 3.21667E-19-2.84878E-18
 -1        70 6.91128E-05-2.07279E-05-2.11013E-05 2.24276E-06 1.93130E-19-3.80519E-18
 -1        71 8.96214E-05-2.73863E-05-2.58773E-05 2.01133E-06-4.46883E-19-3.97814E-18
 -1        72 1.02188E-04-3.05909E-05-3.41533E-05-1.92940E-06 7.89064E-20 1.04575E-17
 -1        73 9.25752E-05-2.75183E-05-2.89104E-05-3.34310E-07 5.54079E-20 8.24082E-18
 -1        74 8.91275E-05-2.67084E-05-2.69762E-05-1.26790E-07-2.31387E-20 6.49478E-18
 -1        75 8.80744E-05-2.64487E-05-2.64426E-05-9.51437E-08 3.62863E-20 5.42540E-18
 -1        76 8.81084E-05-2.64559E-05-2.64207E-05-7.63627E-08 5.54343E-20 4.67979E-18
 -1        77 8.86480E-05-2.66088E-05-2.65824E-05-6.28632E-08 3.59036E-20 4.07324E-18
 -1        78 8.94079E-05-2.68308E-05-2.68122E-05-5.19813E-08 2.16935E-20 3.74987E-18
 -1        79 9.02367E-05-2.70761E-05-2.70616E-05-4.31150E-08 2.19787E-20 3.52968E-18
 -1        80 9.10505E-05-2.73183E-05-2.73060E-05-3.55687E-08 6.32656E-21 2.86187E-18
 -1        81 9.18024E-05-2.75427E-05-2.75320E-05-2.90147E-08 2.38035E-19 2.74173E-18
 -1        82 9.24686E-05-2.77418E-05-2.77325E-05-2.33415E-08-1.17394E-20 2.74701E-18
 -1        83 9.30402E-05-2.79128E-05-2.79049E-05-1.84805E-08-4.23352E-20 3.24371E-18
 -1        84 9.35175E-05-2.80556E-05-2.80490E-05-1.43629E-08 1.47719E-19 1.91838E-18
 -1        85 9.39063E-05-2.81721E-05-2.81666E-05-1.09123E-08-4.08724E-20 8.93073E-19
 -1        86 9.42159E-05-2.82649E-05-2.82603E-05-8.04426E-09-1.56014E-19 1.28645E-18
 -1        87 9.44568E-05-2.83371E-05-2.83334E-05-5.66993E-09-3.31828E-20 1.66390E-18
 -1        88 9.46400E-05-2.83921E-05-2.83891E-05-3.69942E-09-3.27463E-20 9.16764E-19
 -1        89 9.47768E-05-2.84331E-05-2.84308E-05-2.04586E-09 3.67251E-19-7.96752E-19
 -1        90 9.48778E-05-2.84635E-05-2.84617E-05-6.28639E-10-4.10802E-19-1.44634E-18
 -1        91 9.49537E-05-2.84864E-05-2.84850E-05 6.23762E-10-8.09381E-20-2.64795E-19
 -1        92 9.50156E-05-2.85051E-05-2.85042E-05 1.77100E-09-8.69505E-21 1.64484E-18
 -1        93 9.50747E-05-2.85231E-05-2.85225E-05 2.85771E-09 7.24237E-21 3.21905E-19
 -1        94 9.51438E-05-2.85441E-05-2.85440E-05 3.90930E-09 3.93350E-20-1.60609E-18
 -1        95 9.52378E-05-2.85725E-05-2.85730E-05 4.92597E-09 1.24499E-19-4.13653E-19
 -1        96 9.53739E-05-2.86137E-05-2.86150E-05 5.87402E-09 3.10916E-19 1.75404E-18
 -1        97 9.55735E-05-2.86740E-05-2.86762E-05 6.67348E-09 2.30938E-19 2.70723E-20
 -1        98 9.58624E-05-2.87610E-05-2.87646E-05 7.18057E-09-5.70008E-19-2.24954E-19
 -1        99 9.62715E-05-2.88840E-05-2.88894E-05 7.16353E-09-1.10588E-19 7.64708E-19
 -1       100 9.68376E-05-2.90540E-05-2.90618E-05 6.27019E-09-6.81431E-20 2.12306E-18
 -1       101 9.76026E-05-2.92835E-05-2.92944E-05 3.98652E-09 5.22645E-20 1.85696E-18
 -1       102 9.86123E-05-2.95860E-05-2.96007E-05-4.11736E-10 2.16823E-20 1.26291E-18
 -1       103 9.99126E-05-2.99751E-05-2.99943E-05-7.90396E-09-2.41806E-19 5.59507E-19
 -1       104 1.01542E-04-3.04619E-05-3.04861E-05-1.97368E-08 2.30561E-19 1.99554E-18
 -1       105 1.03518E-04-3.10516E-05-3.10801E-05-3.73343E-08 1.45416E-19 7.84908E-19
 -1       106 1.05817E-04-3.17366E-05-3.17669E-05-6.19610E-08-1.25885E-19-4.72270E-19
 -1       107 1.08338E-04-3.24869E-05-3.25128E-05-9.38791E-08 1.30582E-19-1.58819E-21
 -1       108 1.10857E-04-3.32361E-05-3.32451E-05-1.30606E-07 2.78291E-19-3.90449E-19
 -1       109 1.12964E-04-3.38644E-05-3.38353E-05-1.63911E-07 4.76248E-19-1.49620E-20
 -1       110 1.14017E-04-3.41829E-05-3.40866E-05-1.75807E-07 1.28391E-19-2.54531E-18
 -1       111 1.13133E-04-3.39328E-05-3.37399E-05-1.35837E-07-2.66915E-19-2.46788E-18
 -1       112 1.09324E-04-3.28205E-05-3.25243E-05-6.09988E-09-5.63318E-19 5.77306E-19
 -1       113 1.01861E-04-3.06211E-05-3.02736E-05 2.36272E-07 1.61874E-19-8.94679E-20
 -1       114 9.09119E-05-2.73632E-05-2.71037E-05 5.56390E-07-2.67073E-19 2.19805E-19
 -1       115 7.82362E-05-2.35443E-05-2.35746E-05 8.23131E-07 3.31657E-19-1.24416E-18
 -1       116 6.73855E-05-2.02097E-05-2.06916E-05 8.32789E-07 5.39451E-19-3.64126E-18
 -1       117 6.27584E-05-1.86999E-05-1.95834E-05 4.07844E-07 3.69601E-19-3.59474E-18
 -1       118 6.73214E-05-1.99930E-05-2.08770E-05-4.20685E-07 6.95907E-20-3.91425E-18
 -1       119 7.96873E-05-2.37262E-05-2.40334E-05-1.32859E-06-5.24227E-19-1.94479E-18
 -1       120 9.22995E-05-2.79797E-05-2.72266E-05-1.29415E-06-4.24393E-19-3.56098E-19
 -1       121 9.64166E-05-3.29461E-05-2.65040E-05-1.18835E-06 8.08122E-20-7.07421E-19
 -1       122 1.01470E-04-4.96843E-05-2.14169E-05-1.68653E-06 3.02708E-18 4.01378E-19
 -1       123 1.08890E-04-7.51169E-05-1.38627E-05-2.58547E-06 2.07862E-18-9.85023E-20
 -1       124 1.18509E-04-1.07244E-04-5.22459E-06-4.08809E-06-2.67853E-18-1.64734E-18
 -1       125 1.27388E-04-1.34458E-04-3.52534E-07-4.44997E-06-4.07465E-18 1.19154E-18
 -1       126 1.28869E-04-1.34955E-04-4.47618E-06 5.60407E-07-1.54615E-18-9.32001E-19
 -1       127 1.13999E-04-8.69893E-05-1.91231E-05 1.14528E-05-3.71127E-18 5.05388E-19
 -1       128 7.88724E-05 1.87178E-05-4.10793E-05 1.83907E-05-8.17217E-18-1.33570E-18
 -1       129 3.24080E-05 1.56427E-04-6.30880E-05 1.63704E-05-1.12588E-17 9.43224E-19
 -1       130-3.64608E-06 2.54806E-04-7.59710E-05 5.38816E-06-1.09549E-17-1.23879E-20
 -1       131 4.96362E-06 2.31041E-04-7.28314E-05-1.01963E-05-9.08824E-18 1.02184E-18
 -1       132 5.58027E-05 8.97385E-05-5.32688E-05-1.56260E-05-3.59481E-18 2.47122E-19
 -1       133 1.01864E-04-4.42872E-05-3.01205E-05-9.65709E-06-5.84495E-18-2.09736E-18
 -1       134 1.28559E-04-1.28595E-04-8.56307E-06-1.41172E-06-1.02415E-17 1.07208E-18
 -1       135 1.27696E-04-1.32395E-04-1.88267E-06 2.38474E-06 2.86721E-19-4.45864E-19
 -1       136 1.16021E-04-9.81404E-05-8.04143E-06 2.18343E-06 9.69217E-19 1.31946E-19
 -1       137 1.05643E-04-6.30595E-05-1.75719E-05 3.70492E-06-1.48485E-18 6.38175E-19
 -1       138 9.76747E-05-3.71289E-05-2.48351E-05 3.20587E-06 3.59391E-18 6.29134E-19
 -1       139 5.47976E-05-1.50503E-04 4.93366E-06-2.83958E-05 1.17551E-17 4.37058E-18
 -1       140 1.65145E-05 6.71330E-06-2.07499E-05 2.59000E-05 4.07084E-18-3.64224E-19
 -1       141 4.58393E-05 9.63690E-05-5.24635E-05 1.32563E-04-4.49182E-18-1.31205E-18
 -1       142 1.54511E-04 7.28332E-05-8.13868E-05 2.12609E-04-4.94583E-18-7.11592E-18
 -1       143 2.80392E-04-9.01382E-06-9.98388E-05 2.14057E-04-4.42681E-18-7.84988E-18
 -1       144 3.78345E-04-9.03602E-05-1.08320E-04 1.40962E-04-2.55971E-18-4.25846E-18
 -1       145 4.01796E-04-1.22735E-04-1.06165E-04 3.01191E-05 5.06526E-19-3.24498E-18
 -1       146 3.41504E-04-9.62749E-05-9.41205E-05-7.28972E-05 2.13659E-18-1.02360E-17
 -1       147 2.24940E-04-3.58251E-05-7.38368E-05-1.20415E-04 5.11333E-18-1.16446E-17
 -1       148 1.11658E-04 1.30001E-05-5.07632E-05-1.05200E-04 6.25026E-18-9.38809E-18
 -1       149 2.78424E-05 2.03291E-05-2.33624E-05-4.36612E-05 3.38178E-18-4.90263E-18
 -1       150 5.18477E-06-2.34163E-05 2.83272E-07 1.48315E-05 1.69025E-18-5.06737E-19
 -1       151 2.28606E-05-9.13876E-05 1.82019E-05 3.57566E-05 4.12082E-19-7.01343E-19
 -1       152 4.37711E-05-1.38858E-04 2.76808E-05 1.74961E-05-1.60608E-18 5.09636E-19
 -1       153 4.38727E-05-1.39014E-04 2.76113E-05-1.97173E-05 5.47840E-18 4.04670E-19
 -1       154 2.23860E-05-9.18655E-05 1.83197E-05-3.83591E-05 2.17772E-18 6.30510E-19
 -1       155 5.09539E-06-2.55436E-05 7.22371E-07-1.69840E-05-3.46055E-18-3.52217E-18
 -1       156 2.26988E-05 1.91927E-05-2.14900E-05 3.74479E-05-2.27810E-18-1.30951E-18
 -1       157 9.12243E-05 1.98075E-05-4.60544E-05 9.75494E-05 2.16756E-18 3.20390E-18
 -1       158 2.12368E-04-2.80592E-05-7.20495E-05 1.25234E-04 6.48615E-19 7.82658E-19
 -1       159 3.33203E-04-9.08123E-05-9.26570E-05 8.52569E-05-6.52268E-19-2.89474E-18
 -1       160 3.90910E-04-1.00274E-04-1.09242E-04-1.25181E-04 4.32278E-19-3.60317E-18
 -1       161 2.93225E-04-1.95478E-05-1.01034E-04-2.07827E-04 2.24432E-18-1.78851E-18
 -1       162 1.58096E-04 6.81890E-05-8.14766E-05-2.11530E-04 3.04890E-18-4.07084E-18
 -1       163 4.90554E-05 9.68514E-05-5.39302E-05-1.36600E-04 2.80368E-19-1.39252E-18
 -1       164 1.40427E-05 1.56853E-05-2.22642E-05-2.94828E-05-2.77488E-18 1.22312E-18
 -1       165 5.47012E-05-1.52555E-04 5.46745E-06 3.23835E-05 2.55550E-18 6.97002E-19
 -1       166 9.48771E-05-1.23507E-05-3.55715E-05-2.23435E-05-1.40201E-18 5.99911E-19
 -1       167 8.92490E-05-8.45265E-06-3.47895E-05-1.73800E-05-1.33793E-18-8.72801E-19
 -1       168 8.65574E-05-6.51012E-06-3.44168E-05-1.35884E-05-1.05337E-18-1.67296E-18
 -1       169 8.51900E-05-5.51336E-06-3.42303E-05-1.03621E-05-7.42204E-19-2.15355E-18
 -1       170 8.44433E-05-4.94266E-06-3.41408E-05-7.54259E-06-5.03103E-19-2.29877E-18
 -1       171 8.40142E-05-4.59692E-06-3.40976E-05-4.90035E-06-2.56740E-19-2.35026E-18
 -1       172 8.37946E-05-4.41218E-06-3.40791E-05-2.39349E-06 5.56415E-20-2.30009E-18
 -1       173 8.37299E-05-4.35632E-06-3.40743E-05 5.10229E-08 2.78505E-19-2.24720E-18
 -1       174 8.38048E-05-4.42080E-06-3.40799E-05 2.49771E-06 5.12439E-19-2.16312E-18
 -1       175 8.40361E-05-4.61630E-06-3.40990E-05 5.01133E-06 7.30774E-19-2.06715E-18
 -1       176 8.44706E-05-4.96975E-06-3.41414E-05 7.61945E-06 9.31079E-19-1.80977E-18
 -1       177 8.52490E-05-5.57246E-06-3.42319E-05 1.05073E-05 1.21225E-18-1.41624E-18
 -1       178 8.66515E-05-6.60972E-06-3.44188E-05 1.37732E-05 1.45962E-18-7.78622E-19
 -1       179 8.93932E-05-8.59885E-06-3.47931E-05 1.76246E-05 1.61142E-18 4.34965E-19
 -1       180 9.57881E-05-1.36163E-05-3.54290E-05 2.18868E-05 1.49882E-18 2.35798E-18
 -1       181 1.05615E-04-2.61047E-05-3.52664E-05 1.86601E-05 9.93239E-19 4.92423E-18
 -1       182 1.03410E-04-2.73055E-05-3.26137E-05-1.21248E-05-1.20570E-18 2.39702E-18
 -1       183 9.71211E-05-2.82930E-05-2.95329E-05-4.72722E-06-1.03541E-18 1.86173E-18
 -1       184 9.35240E-05-2.76419E-05-2.81870E-05-1.76447E-06-9.47224E-19 1.23734E-18
 -1       185 9.19919E-05-2.74116E-05-2.76418E-05-4.16608E-07-6.11477E-19 5.63102E-19
 -1       186 9.14196E-05-2.73375E-05-2.74455E-05 2.48108E-07-4.35098E-19 3.87850E-19
 -1       187 9.13817E-05-2.73776E-05-2.74217E-05 5.74488E-07-2.89664E-19 2.56332E-19
 -1       188 9.16293E-05-2.74815E-05-2.74879E-05 7.13576E-07-2.49463E-19 2.81123E-19
 -1       189 9.20170E-05-2.76151E-05-2.75991E-05 7.44418E-07-3.16535E-19 4.80166E-20
 -1       190 9.24575E-05-2.77567E-05-2.77284E-05 7.12810E-07-3.09606E-19-2.38715E-19
 -1       191 9.28986E-05-2.78934E-05-2.78595E-05 6.47088E-07-3.47788E-19 3.81413E-21
 -1       192 9.33103E-05-2.80182E-05-2.79829E-05 5.65313E-07-4.29526E-19-9.37795E-19
 -1       193 9.36770E-05-2.81274E-05-2.80934E-05 4.79010E-07 8.99321E-21-1.15812E-18
 -1       194 9.39924E-05-2.82200E-05-2.81889E-05 3.95357E-07 1.78935E-19-7.23309E-19
 -1       195 9.42559E-05-2.82965E-05-2.82690E-05 3.18612E-07-3.31304E-19-9.13962E-19
 -1       196 9.44708E-05-2.83581E-05-2.83347E-05 2.51087E-07-6.69347E-19-5.82839E-19
 -1       197 9.46427E-05-2.84067E-05-2.83874E-05 1.93869E-07-3.17218E-19-1.14230E-18
 -1       198 9.47781E-05-2.84444E-05-2.84292E-05 1.47340E-07 1.03007E-19-2.02841E-18
 -1       199 9.48844E-05-2.84735E-05-2.84622E-05 1.11582E-07-3.49124E-19-2.19903E-18
 -1       200 9.49695E-05-2.84961E-05-2.84888E-05 8.66792E-08-2.65767E-19-2.40414E-18
 -1       201 9.50417E-05-2.85148E-05-2.85115E-05 7.29680E-08-8.99496E-20-2.38766E-18
 -1       202 9.51098E-05-2.85321E-05-2.85332E-05 7.12273E-08-6.97094E-21-1.83438E-18
 -1       203 9.51837E-05-2.85506E-05-2.85567E-05 8.28485E-08 2.03820E-19-2.08045E-18
 -1       204 9.52748E-05-2.85736E-05-2.85857E-05 1.09983E-07 4.14005E-19-1.05933E-18
 -1       205 9.53964E-05-2.86049E-05-2.86241E-05 1.55672E-07 8.89587E-19-3.25169E-19
 -1       206 9.55644E-05-2.86489E-05-2.86769E-05 2.23962E-07 1.10293E-20-1.07419E-19
 -1       207 9.57981E-05-2.87110E-05-2.87501E-05 3.19987E-07-2.62150E-19-7.10352E-19
 -1       208 9.61204E-05-2.87979E-05-2.88505E-05 4.49987E-07-8.79863E-19-1.48752E-18
 -1       209 9.65592E-05-2.89175E-05-2.89868E-05 6.21210E-07 9.01550E-20-1.76152E-18
 -1       210 9.71467E-05-2.90795E-05-2.91686E-05 8.41590E-07 6.12550E-19-9.11595E-19
 -1       211 9.79200E-05-2.92950E-05-2.94071E-05 1.11900E-06-3.57410E-19-6.38518E-19
 -1       212 9.89198E-05-2.95766E-05-2.97144E-05 1.45973E-06-1.01121E-19-1.19963E-18
 -1       213 1.00187E-04-2.99384E-05-3.01024E-05 1.86562E-06-1.12294E-18-1.44039E-18
 -1       214 1.01759E-04-3.03945E-05-3.05807E-05 2.32881E-06-2.81995E-19-2.19749E-18
 -1       215 1.03656E-04-3.09581E-05-3.11536E-05 2.82270E-06 4.48035E-19-1.75438E-18
 -1       216 1.05870E-04-3.16378E-05-3.18134E-05 3.28706E-06 8.63457E-19-1.96086E-18
 -1       217 1.08330E-04-3.24326E-05-3.25316E-05 3.60565E-06 5.31991E-19-2.43598E-18
 -1       218 1.10870E-04-3.33222E-05-3.32459E-05 3.57733E-06 4.50350E-19-2.49706E-18
 -1       219 1.13175E-04-3.42485E-05-3.38448E-05 2.89033E-06 3.36595E-19-8.95284E-19
 -1       220 1.14723E-04-3.50836E-05-3.41579E-05 1.13034E-06-3.00098E-19-1.30399E-18
 -1       221 1.14761E-04-3.55775E-05-3.39649E-05-2.11205E-06-1.37105E-18-1.84745E-18
 -1       222 1.12364E-04-3.53023E-05-3.30483E-05-6.94074E-06-5.85459E-19-1.22000E-18
 -1       223 1.06700E-04-3.36676E-05-3.13047E-05-1.26289E-05 1.70162E-18-6.37035E-19
 -1       224 9.76232E-05-3.01833E-05-2.88903E-05-1.71214E-05 9.57531E-19 2.15798E-18
 -1       225 8.65000E-05-2.50917E-05-2.63039E-05-1.73051E-05 1.15120E-18 1.49747E-18
 -1       226 7.65959E-05-1.99710E-05-2.42693E-05-1.07922E-05 4.41794E-19 8.61042E-19
 -1       227 7.19892E-05-1.73975E-05-2.34188E-05 1.46489E-06-1.61619E-18-8.57270E-19
 -1       228 7.50350E-05-1.94449E-05-2.38497E-05 1.39572E-05-8.39430E-19-1.83643E-18
 -1       229 8.47140E-05-2.64460E-05-2.49117E-05 1.86053E-05 2.43568E-19-6.97770E-19
 -1       230 9.95148E-05-2.85555E-05-3.05907E-05 7.21015E-06 1.16107E-18 4.25677E-18
 -1       231 9.44287E-05-2.77907E-05-2.85277E-05 2.74348E-06 8.90701E-19 3.30524E-18
 -1       232 9.21167E-05-2.74093E-05-2.76867E-05 9.26900E-07 6.05025E-19 2.46382E-18
 -1       233 9.11708E-05-2.72440E-05-2.73706E-05 6.46102E-08 4.07035E-19 2.05164E-18
 -1       234 9.09642E-05-2.72394E-05-2.72973E-05-3.65648E-07 3.65422E-19 1.78982E-18
 -1       235 9.11526E-05-2.73271E-05-2.73471E-05-5.66545E-07 1.69993E-19 1.45245E-18
 -1       236 9.15409E-05-2.74615E-05-2.74591E-05-6.39641E-07 3.13400E-19 1.29289E-18
 -1       237 9.20144E-05-2.76139E-05-2.75983E-05-6.38881E-07 2.65195E-19 1.03286E-18
 -1       238 9.25045E-05-2.77665E-05-2.77439E-05-5.96131E-07 7.39100E-20 9.19329E-19
 -1       239 9.29713E-05-2.79089E-05-2.78835E-05-5.31523E-07-2.24238E-19 1.37396E-18
 -1       240 9.33930E-05-2.80357E-05-2.80102E-05-4.57936E-07 1.90802E-19 1.23858E-18
 -1       241 9.37596E-05-2.81449E-05-2.81208E-05-3.83515E-07 6.46622E-19 9.31425E-19
 -1       242 9.40689E-05-2.82361E-05-2.82143E-05-3.13238E-07 2.73058E-19 6.97461E-19
 -1       243 9.43231E-05-2.83104E-05-2.82915E-05-2.49958E-07-2.42406E-19 8.01654E-19
 -1       244 9.45274E-05-2.83696E-05-2.83536E-05-1.95140E-07 1.56704E-19 7.62262E-19
 -1       245 9.46887E-05-2.84159E-05-2.84029E-05-1.49394E-07 4.06470E-19 2.53428E-19
 -1       246 9.48143E-05-2.84516E-05-2.84414E-05-1.12880E-07 9.09101E-19 1.90925E-20
 -1       247 9.49126E-05-2.84790E-05-2.84717E-05-8.56107E-08 2.12785E-19 2.03075E-19
 -1       248 9.49919E-05-2.85007E-05-2.84963E-05-6.76907E-08-7.17461E-19 4.70565E-19
 -1       249 9.50610E-05-2.85193E-05-2.85178E-05-5.94989E-08-5.75034E-19 3.06984E-19
 -1       250 9.51296E-05-2.85375E-05-2.85393E-05-6.18374E-08 1.87357E-19 2.70794E-19
 -1       251 9.52085E-05-2.85584E-05-2.85641E-05-7.60505E-08 6.86262E-19 9.48613E-19
 -1       252 9.53101E-05-2.85857E-05-2.85958E-05-1.04118E-07-3.10825E-19-2.17563E-20
 -1       253 9.54488E-05-2.86234E-05-2.86389E-05-1.48714E-07-4.48505E-19 5.45848E-19
 -1       254 9.56420E-05-2.86765E-05-2.86988E-05-2.13220E-07 5.67596E-19 9.58523E-19
 -1       255 9.59102E-05-2.87512E-05-2.87815E-05-3.01658E-07-6.09437E-19 8.92606E-19
 -1       256 9.62773E-05-2.88544E-05-2.88944E-05-4.18490E-07-3.18218E-19 1.62779E-18
 -1       257 9.67710E-05-2.89945E-05-2.90458E-05-5.68201E-07-6.98444E-19 1.55531E-18
 -1       258 9.74218E-05-2.91809E-05-2.92448E-05-7.54526E-07 3.16107E-19 1.22134E-18
 -1       259 9.82615E-05-2.94236E-05-2.95007E-05-9.79112E-07 8.13205E-19 4.58219E-19
 -1       260 9.93196E-05-2.97327E-05-2.98220E-05-1.23929E-06-5.09175E-20 3.50756E-20
 -1       261 1.00618E-04-3.01169E-05-3.02144E-05-1.52454E-06 2.70414E-19-2.16384E-19
 -1       262 1.02161E-04-3.05813E-05-3.06776E-05-1.81103E-06 9.11679E-19-5.32833E-19
 -1       263 1.03920E-04-3.11232E-05-3.12007E-05-2.05385E-06-3.48849E-19-9.16688E-19
 -1       264 1.05813E-04-3.17268E-05-3.17552E-05-2.17700E-06 1.45380E-19-7.42696E-19
 -1       265 1.07676E-04-3.23545E-05-3.22865E-05-2.06302E-06 6.13973E-19-4.62194E-19
 -1       266 1.09232E-04-3.29352E-05-3.27051E-05-1.54843E-06-1.08488E-19-7.35091E-19
 -1       267 1.10064E-04-3.33503E-05-3.28824E-05-4.38999E-07 9.56135E-19-5.59349E-19
 -1       268 1.09626E-04-3.34205E-05-3.26594E-05 1.43125E-06-1.06656E-18 1.04369E-18
 -1       269 1.07317E-04-3.29069E-05-3.18810E-05 4.06870E-06-4.21257E-19 1.00203E-18
 -1       270 1.02683E-04-3.15548E-05-3.04668E-05 7.11484E-06 1.07275E-19 1.07878E-19
 -1       271 9.57699E-05-2.92212E-05-2.85043E-05 9.65738E-06-4.92204E-19 4.97407E-19
 -1       272 8.75270E-05-2.61016E-05-2.63249E-05 1.02947E-05 2.24421E-18-1.36822E-19
 -1       273 7.99838E-05-2.29294E-05-2.44830E-05 7.72713E-06 5.05831E-19-1.27737E-18
 -1       274 7.57565E-05-2.09044E-05-2.35679E-05 1.76942E-06-4.97969E-19-6.73294E-19
 -1       275 7.68074E-05-2.12122E-05-2.38805E-05-5.68659E-06-7.04169E-19 3.07261E-19
 -1       276 8.28623E-05-2.42451E-05-2.51046E-05-1.06336E-05-7.27527E-19 1.07196E-18
 -1       277 9.11026E-05-2.91541E-05-2.64224E-05-8.94776E-06-4.24282E-19 3.53133E-19
 -1       278 9.49133E-05-3.56960E-05-2.53239E-05-1.42595E-05 1.09340E-18 1.92917E-18
 -1       279 9.78912E-05-4.38227E-05-2.30998E-05-2.08070E-05 1.60016E-18-5.28408E-19
 -1       280 1.01267E-04-5.25043E-05-2.08304E-05-2.47220E-05 3.92600E-19-2.79713E-18
 -1       281 1.07040E-04-5.88479E-05-2.07857E-05-2.09186E-05 6.61612E-19-1.47347E-18
 -1       282 1.16735E-04-6.04432E-05-2.46174E-05-6.12866E-07 8.63281E-19 3.16314E-18
 -1       283 1.29466E-04-5.85594E-05-3.11050E-05 4.07683E-05 5.46455E-19-1.98185E-18
 -1       284 8.51214E-05 1.02779E-05-3.93721E-05 1.16400E-04-4.13056E-18-3.00316E-18
 -1       285 4.35920E-05 5.96591E-05-4.11769E-05 7.79560E-05-6.19689E-18 6.65768E-19
 -1       286 2.85553E-05 7.47534E-05-4.11176E-05-1.93948E-05-3.50396E-18 8.94467E-19
 -1       287 6.33496E-05 4.13016E-05-4.16857E-05-1.07330E-04-3.11766E-18 2.51484E-18
 -1       288 1.03790E-04-1.51338E-05-3.75973E-05-1.08388E-04-3.63790E-18-1.69407E-18
 -1       289 1.21527E-04-6.51285E-05-2.64514E-05-4.81726E-05-3.20560E-18-1.97782E-18
 -1       290 1.17459E-04-8.20692E-05-1.67345E-05 3.26449E-06-1.98065E-18 5.38660E-18
 -1       291 1.09254E-04-7.34213E-05-1.56225E-05 2.05397E-05 1.01310E-18 3.58401E-20
 -1       292 1.02214E-04-5.59191E-05-1.95774E-05 2.00048E-05 1.77819E-18-5.07628E-19
 -1       293 9.41822E-05-3.66006E-05-2.44802E-05 2.40675E-05 2.51172E-18 1.82778E-18
 -1       294 2.95511E-05-2.62376E-05-1.30668E-05 4.77338E-05-1.94267E-18 2.00027E-18
 -1       295 7.27954E-05-3.69282E-05-2.18263E-05 1.11684E-04-3.97258E-19-2.59065E-18
 -1       296 1.19488E-04-3.40444E-05-3.73100E-05 1.20678E-04 6.37392E-19-4.31563E-18
 -1       297 1.54381E-04-7.21422E-06-5.93769E-05 1.12944E-04-8.57197E-19-3.56304E-18
 -1       298 1.93533E-04 2.49513E-06-7.89843E-05 1.08227E-04-2.25695E-18-2.15655E-18
 -1       299 2.39166E-04-1.20228E-05-9.22679E-05 9.56141E-05-3.13889E-18-2.12055E-18
 -1       300 2.66663E-04-3.30599E-05-9.57903E-05 5.97125E-05-6.42263E-19-3.72033E-18
 -1       301 2.57876E-04-4.14451E-05-8.95852E-05 1.75360E-05 2.30584E-18-4.66482E-18
 -1       302 2.21312E-04-4.21726E-05-7.49560E-05-1.06338E-05 2.72252E-18-4.13691E-18
 -1       303 1.79934E-04-4.31996E-05-5.74638E-05-3.68563E-05 2.51802E-18-5.38501E-18
 -1       304 1.34811E-04-5.21116E-05-3.55648E-05-3.77369E-05 1.86983E-18-5.89133E-18
 -1       305 7.74509E-05-4.86053E-05-1.37958E-05-3.74700E-05 2.28593E-18-4.18011E-18
 -1       306 4.12856E-05-5.72754E-05 4.26489E-06-2.51888E-05 2.22198E-18-1.99282E-18
 -1       307 1.98747E-05-6.13825E-05 1.50855E-05-1.57013E-05 1.59454E-18-2.15760E-18
 -1       308 1.45592E-05-7.16315E-05 2.05994E-05-7.08043E-07 1.67540E-19 2.72025E-18
 -1       309 2.04662E-05-6.59190E-05 1.60711E-05 1.15566E-05 4.69574E-19-1.37272E-18
 -1       310 4.16670E-05-5.84471E-05 4.45104E-06 2.41933E-05 1.04947E-18-4.06904E-18
 -1       311 7.39965E-05-4.89070E-05-1.25825E-05 3.45307E-05-8.84302E-19-4.00541E-19
 -1       312 1.18843E-04-4.30920E-05-3.29127E-05 4.30911E-05-1.66357E-18 1.49099E-18
 -1       313 1.74041E-04-4.30435E-05-5.49559E-05 4.21520E-05 1.14974E-18-2.80241E-18
 -1       314 2.27820E-04-4.65410E-05-7.50633E-05 2.46635E-05 8.89914E-19-1.77835E-18
 -1       315 2.52652E-04-4.07944E-05-8.78281E-05-1.28703E-05-2.49875E-19-1.60195E-18
 -1       316 2.71712E-04-3.73709E-05-9.60633E-05-5.03322E-05 1.16086E-18-2.69044E-18
 -1       317 2.42519E-04-1.55098E-05-9.26083E-05-8.57854E-05 4.52951E-19-3.08489E-18
 -1       318 1.98623E-04-2.21583E-07-7.98968E-05-1.06795E-04 1.97382E-18-3.23567E-18
 -1       319 1.56382E-04-4.41214E-06-6.08829E-05-1.14186E-04-2.71474E-19-2.88245E-18
 -1       320 1.17412E-04-2.78299E-05-3.87166E-05-1.16563E-04 3.86247E-19-2.30626E-18
 -1       321 7.53696E-05-3.65780E-05-2.25402E-05-1.12052E-04-5.01444E-19 2.43003E-18
 -1       322 2.89634E-05-3.27797E-05-1.14127E-05-4.32522E-05-5.71535E-19 7.72071E-19
 -1       323 1.26597E-04-4.71254E-05-3.47441E-05 9.83757E-05-1.27046E-18-2.62376E-18
 -1       324 9.16354E-05-1.44456E-05-3.31592E-05-1.29754E-05-1.38766E-18-7.60516E-19
 -1       325 9.57183E-05-1.91137E-05-3.28931E-05-1.46306E-05-1.52245E-18-1.07666E-20
 -1       326 8.79997E-05-1.03723E-05-3.33241E-05-8.14887E-06-7.61234E-19-1.58961E-18
 -1       327 8.71837E-05-9.45056E-06-3.33627E-05-5.71385E-06-4.00985E-19-1.78615E-18
 -1       328 8.67221E-05-8.91983E-06-3.33888E-05-3.36428E-06-1.09415E-19-1.66307E-18
 -1       329 8.65160E-05-8.67946E-06-3.34020E-05-1.07168E-06 2.69080E-19-1.71223E-18
 -1       330 8.65247E-05-8.68892E-06-3.34017E-05 1.20217E-06 4.91417E-19-1.66101E-18
 -1       331 8.67500E-05-8.95077E-06-3.33877E-05 3.49708E-06 7.57031E-19-1.58188E-18
 -1       332 8.72229E-05-9.49536E-06-3.33607E-05 5.81050E-06 1.03200E-18-1.37245E-18
 -1       333 8.80654E-05-1.04494E-05-3.33198E-05 8.24927E-06 1.29676E-18-1.03654E-18
 -1       334 8.94818E-05-1.20328E-05-3.32600E-05 1.07610E-05 1.55325E-18-6.58790E-19
 -1       335 9.18926E-05-1.47359E-05-3.31497E-05 1.31463E-05 1.79195E-18 1.09333E-19
 -1       336 9.58996E-05-1.95897E-05-3.28087E-05 1.42755E-05 1.81632E-18 1.32093E-18
 -1       337 9.87915E-05-2.44510E-05-3.19454E-05 1.18498E-05 1.59107E-18 2.46363E-18
 -1       338 9.63513E-05-2.67887E-05-2.97817E-05 5.70271E-06 1.36978E-18 2.00422E-18
 -1       339 9.64474E-05-2.60309E-05-3.01340E-05-6.33861E-06-1.26646E-18 8.61831E-20
 -1       340 9.49319E-05-2.70328E-05-2.90743E-05-2.82756E-06-1.00493E-18 1.15957E-19
 -1       341 9.39567E-05-2.74291E-05-2.84973E-05-9.13958E-07-5.36637E-19 2.29461E-19
 -1       342 9.34399E-05-2.76428E-05-2.81921E-05 1.46549E-07-3.93427E-19-5.60957E-20
 -1       343 9.32499E-05-2.77967E-05-2.80486E-05 7.11512E-07-3.48923E-19-1.51528E-19
 -1       344 9.32687E-05-2.79271E-05-2.80026E-05 9.79204E-07-2.89205E-19-2.90853E-19
 -1       345 9.34093E-05-2.80427E-05-2.80142E-05 1.06638E-06-2.50173E-19-3.36818E-19
 -1       346 9.36119E-05-2.81447E-05-2.80578E-05 1.04556E-06-3.49318E-19-3.88649E-19
 -1       347 9.38372E-05-2.82328E-05-2.81169E-05 9.63376E-07-8.06050E-19-4.74655E-19
 -1       348 9.40608E-05-2.83069E-05-2.81810E-05 8.50248E-07-1.49392E-19-3.29555E-19
 -1       349 9.42682E-05-2.83679E-05-2.82438E-05 7.25927E-07-4.51232E-20-2.96545E-19
 -1       350 9.44520E-05-2.84166E-05-2.83016E-05 6.02969E-07 8.93371E-21-4.86959E-19
 -1       351 9.46097E-05-2.84547E-05-2.83528E-05 4.89055E-07-3.03428E-19-3.45374E-19
 -1       352 9.47416E-05-2.84836E-05-2.83969E-05 3.88637E-07-4.90497E-19-3.78219E-20
 -1       353 9.48502E-05-2.85048E-05-2.84342E-05 3.04131E-07-5.16554E-19 5.72492E-20
 -1       354 9.49391E-05-2.85200E-05-2.84657E-05 2.36811E-07-4.59907E-19-6.40552E-19
 -1       355 9.50129E-05-2.85304E-05-2.84927E-05 1.87487E-07-9.81040E-20-1.90108E-19
 -1       356 9.50768E-05-2.85374E-05-2.85170E-05 1.57021E-07-5.26257E-19-5.34986E-19
 -1       357 9.51366E-05-2.85423E-05-2.85404E-05 1.46745E-07 3.50806E-19-8.27014E-19
 -1       358 9.51990E-05-2.85464E-05-2.85653E-05 1.58783E-07 6.04061E-19-5.00116E-19
 -1       359 9.52715E-05-2.85511E-05-2.85941E-05 1.96330E-07 7.87138E-19 1.19507E-19
 -1       360 9.53627E-05-2.85582E-05-2.86300E-05 2.63878E-07 6.11045E-19-4.51606E-20
 -1       361 9.54828E-05-2.85696E-05-2.86764E-05 3.67394E-07 2.67039E-19-1.40143E-18
 -1       362 9.56439E-05-2.85878E-05-2.87373E-05 5.14433E-07-4.36230E-19-1.76458E-18
 -1       363 9.58602E-05-2.86159E-05-2.88176E-05 7.14156E-07-2.04263E-19-1.05673E-18
 -1       364 9.61480E-05-2.86579E-05-2.89225E-05 9.77153E-07-4.15928E-19 4.74032E-19
 -1       365 9.65264E-05-2.87188E-05-2.90581E-05 1.31497E-06 2.72926E-19 3.91520E-19
 -1       366 9.70166E-05-2.88051E-05-2.92307E-05 1.73908E-06 2.19085E-19-8.21134E-19
 -1       367 9.76416E-05-2.89255E-05-2.94463E-05 2.25893E-06-2.69484E-19-3.66035E-19
 -1       368 9.84252E-05-2.90920E-05-2.97103E-05 2.87845E-06-8.29819E-20 2.33718E-19
 -1       369 9.93907E-05-2.93216E-05-3.00254E-05 3.58995E-06-1.05323E-18 6.66176E-19
 -1       370 1.00559E-04-2.96399E-05-3.03897E-05 4.36399E-06-1.41344E-19-1.32582E-19
 -1       371 1.01946E-04-3.00859E-05-3.07939E-05 5.13315E-06 2.67862E-19-2.09240E-19
 -1       372 1.03559E-04-3.07185E-05-3.12168E-05 5.76772E-06 7.77262E-19 1.17657E-19
 -1       373 1.05398E-04-3.16231E-05-3.16218E-05 6.04270E-06 1.24003E-19 4.62407E-19
 -1       374 1.07442E-04-3.29071E-05-3.19550E-05 5.60129E-06 7.99714E-19 1.28373E-18
 -1       375 1.09631E-04-3.46638E-05-3.21502E-05 3.93465E-06 3.38602E-19 9.96555E-19
 -1       376 1.11795E-04-3.68595E-05-3.21479E-05 4.28785E-07-9.57246E-20 2.73578E-18
 -1       377 1.13511E-04-3.90952E-05-3.19328E-05-5.41836E-06-1.01981E-18 3.32297E-18
 -1       378 1.13891E-04-4.02850E-05-3.15829E-05-1.34687E-05 4.32768E-19 2.56464E-18
 -1       379 1.11524E-04-3.85750E-05-3.12871E-05-2.20786E-05 2.21728E-18 1.51656E-18
 -1       380 1.05144E-04-3.22594E-05-3.12478E-05-2.74193E-05 1.18387E-18 1.85151E-18
 -1       381 9.53309E-05-2.20397E-05-3.14301E-05-2.44745E-05-1.02346E-18-1.10336E-19
 -1       382 8.57369E-05-1.26097E-05-3.13479E-05-1.09610E-05-1.70352E-18-1.53466E-18
 -1       383 8.13932E-05-1.06539E-05-3.03278E-05 8.69166E-06-1.02459E-18 2.62138E-20
 -1       384 8.46426E-05-1.96747E-05-2.78851E-05 2.41195E-05 2.56466E-19 1.69502E-18
 -1       385 9.43541E-05-2.73145E-05-2.86922E-05 2.47204E-06 1.13641E-18 1.61011E-18
 -1       386 9.31800E-05-2.74622E-05-2.81440E-05 7.39642E-07 6.48447E-19 1.04163E-18
 -1       387 9.26312E-05-2.75442E-05-2.78849E-05-1.85793E-07 4.64862E-19 8.87494E-19
 -1       388 9.24919E-05-2.76382E-05-2.77903E-05-6.61080E-07 3.02252E-19 8.32603E-19
 -1       389 9.25964E-05-2.77479E-05-2.77906E-05-8.79159E-07 2.76530E-19 5.01375E-19
 -1       390 9.28339E-05-2.78651E-05-2.78434E-05-9.44019E-07 2.79212E-19 6.42250E-19
 -1       391 9.31319E-05-2.79801E-05-2.79225E-05-9.18371E-07 1.72556E-19 8.24192E-19
 -1       392 9.34449E-05-2.80865E-05-2.80114E-05-8.42047E-07-3.52685E-19 7.89809E-19
 -1       393 9.37456E-05-2.81810E-05-2.80999E-05-7.40702E-07 3.81265E-19 5.77123E-19
 -1       394 9.40187E-05-2.82619E-05-2.81824E-05-6.30852E-07 4.25278E-19 8.25896E-19
 -1       395 9.42571E-05-2.83292E-05-2.82556E-05-5.22909E-07 5.34010E-19 1.08075E-18
 -1       396 9.44588E-05-2.83838E-05-2.83186E-05-4.23178E-07-1.36259E-20 9.00860E-19
 -1       397 9.46254E-05-2.84270E-05-2.83714E-05-3.35235E-07 1.65573E-19 3.28086E-19
 -1       398 9.47606E-05-2.84605E-05-2.84149E-05-2.60935E-07 7.63501E-19 2.43806E-19
 -1       399 9.48692E-05-2.84860E-05-2.84504E-05-2.01155E-07 7.62199E-19 6.80707E-20
 -1       400 9.49571E-05-2.85051E-05-2.84797E-05-1.56357E-07 5.51756E-19 7.23042E-19
 -1       401 9.50306E-05-2.85198E-05-2.85048E-05-1.27024E-07-5.35609E-19 7.45641E-19
 -1       402 9.50968E-05-2.85319E-05-2.85278E-05-1.13987E-07-7.68330E-19 3.66090E-19
 -1       403 9.51632E-05-2.85433E-05-2.85513E-05-1.18691E-07 7.03515E-20 9.10569E-19
 -1       404 9.52386E-05-2.85560E-05-2.85779E-05-1.43399E-07 7.58506E-19 1.15565E-18
 -1       405 9.53328E-05-2.85727E-05-2.86109E-05-1.91342E-07 3.19256E-19 1.06981E-18
 -1       406 9.54574E-05-2.85962E-05-2.86540E-05-2.66807E-07-1.02467E-18 5.47868E-19
 -1       407 9.56259E-05-2.86301E-05-2.87115E-05-3.75129E-07 9.28333E-20 1.13217E-18
 -1       408 9.58543E-05-2.86786E-05-2.87882E-05-5.22560E-07 1.14982E-19 1.72979E-18
 -1       409 9.61608E-05-2.87471E-05-2.88899E-05-7.15893E-07-4.75004E-19 9.97799E-19
 -1       410 9.65662E-05-2.88419E-05-2.90226E-05-9.61749E-07-6.33777E-19 6.34623E-19
 -1       411 9.70930E-05-2.89709E-05-2.91927E-05-1.26530E-06 5.68996E-19 1.62638E-18
 -1       412 9.77646E-05-2.91431E-05-2.94064E-05-1.62810E-06 1.16769E-18 1.63816E-18
 -1       413 9.86027E-05-2.93694E-05-2.96684E-05-2.04467E-06 1.36517E-19 1.32332E-18
 -1       414 9.96241E-05-2.96624E-05-2.99807E-05-2.49713E-06 3.34644E-19 1.93569E-19
 -1       415 1.00835E-04-3.00363E-05-3.03402E-05-2.94723E-06 3.90813E-19-3.17858E-19
 -1       416 1.02224E-04-3.05064E-05-3.07353E-05-3.32542E-06-1.77446E-19 1.32450E-18
 -1       417 1.03747E-04-3.10872E-05-3.11421E-05-3.51703E-06 9.62577E-19 1.16859E-18
 -1       418 1.05319E-04-3.17868E-05-3.15199E-05-3.34860E-06 4.44645E-19-9.96835E-20
 -1       419 1.06787E-04-3.25938E-05-3.18088E-05-2.58258E-06-3.89717E-19 3.74288E-19
 -1       420 1.07913E-04-3.34492E-05-3.19307E-05-9.38322E-07 5.20747E-19 1.22171E-18
 -1       421 1.08348E-04-3.41982E-05-3.18009E-05 1.82910E-06-1.58504E-18 1.95035E-18
 -1       422 1.07629E-04-3.45257E-05-3.13527E-05 5.75388E-06-2.43754E-20 1.04876E-18
 -1       423 1.05231E-04-3.39252E-05-3.05762E-05 1.03757E-05-2.29089E-19 2.03048E-18
 -1       424 1.00770E-04-3.18205E-05-2.95557E-05 1.44443E-05 2.79893E-19 3.14463E-18
 -1       425 9.44296E-05-2.79826E-05-2.84652E-05 1.59358E-05 2.22326E-18 1.39897E-18
 -1       426 8.74297E-05-2.31356E-05-2.75333E-05 1.28241E-05 1.07378E-18 1.07295E-18
 -1       427 8.20084E-05-1.91444E-05-2.69093E-05 4.53859E-06-1.30943E-18 2.26159E-18
 -1       428 8.05978E-05-1.85183E-05-2.65810E-05-6.48409E-06-1.50156E-18 2.92130E-18
 -1       429 8.44344E-05-2.29248E-05-2.63474E-05-1.47104E-05-5.92248E-19 4.40286E-18
 -1       430 8.94626E-05-2.85793E-05-2.60840E-05-1.66562E-05 2.07192E-19 3.10033E-18
 -1       431 9.51885E-05-1.72249E-05-3.35820E-05-2.21718E-05 1.05359E-18-9.76338E-19
 -1       432 8.97352E-05-2.24315E-05-2.88942E-05-2.41186E-05 9.69674E-19-1.66511E-18
 -1       433 9.01916E-05-2.75823E-05-2.68607E-05-2.17056E-05 4.61441E-19 9.08436E-19
 -1       434 1.10404E-04-1.47515E-05-4.14528E-05-9.77856E-06 5.46283E-19-1.03920E-19
 -1       435 1.39747E-04-1.85451E-05-5.20905E-05 1.74328E-05-5.33101E-19 2.07989E-18
 -1       436 1.42232E-04-4.55416E-05-4.13404E-05-9.57083E-05-5.46336E-20-1.98386E-18
 -1       437 1.09866E-04-2.86781E-05-3.50903E-05 1.61863E-05-1.24088E-18 2.24845E-18
 -1       438 9.60408E-05-2.93723E-05-2.86791E-05 2.98393E-05 3.43194E-19 2.02953E-18
 -1       439 8.93627E-05-1.18955E-05-3.32665E-05-1.06411E-05-1.10759E-18-1.30764E-18
 -1       440 1.65708E-04-3.35920E-06-6.92227E-05 4.08025E-05-2.09069E-18-1.71747E-18
 -1       441 1.71918E-04 8.64383E-06-7.73320E-05 3.65685E-05-2.00239E-18-3.18326E-19
 -1       442 1.87295E-04-2.80076E-07-8.00549E-05 3.61822E-05 7.26966E-19-7.92346E-19
 -1       443 1.84235E-04-1.63727E-05-7.20468E-05 2.97844E-05 1.84230E-18-1.57230E-18
 -1       444 1.82810E-04-4.49882E-05-5.91419E-05 1.09235E-05 1.47349E-18-1.24249E-18
 -1       445 1.65081E-04-6.12900E-05-4.45832E-05-6.60976E-06 4.38578E-19-2.86858E-18
 -1       446 1.28144E-04-7.16368E-05-2.42288E-05-3.32056E-05 1.63477E-18-3.93134E-18
 -1       447 8.32726E-05-6.25168E-05-9.02441E-06-4.40658E-05 2.86869E-18-4.33822E-18
 -1       448 4.30167E-05-4.90663E-05 2.52809E-06-3.84219E-05 1.16838E-18-2.56619E-18
 -1       449 1.45293E-05-3.53968E-05 8.92477E-06-1.22278E-05 1.22788E-18-7.16590E-19
 -1       450 1.57968E-05-3.71705E-05 9.21583E-06 1.23698E-05 3.22825E-19 1.67501E-19
 -1       451 4.27887E-05-4.84174E-05 2.43572E-06 3.69599E-05 7.57142E-19-1.97920E-18
 -1       452 8.68084E-05-6.47089E-05-9.47693E-06 4.29873E-05 1.24789E-18-2.37116E-19
 -1       453 1.21381E-04-7.14198E-05-2.16655E-05 3.47605E-05-8.14740E-19 2.31192E-18
 -1       454 1.62893E-04-6.70237E-05-4.11477E-05 1.33501E-05 3.57501E-19-1.92065E-18
 -1       455 1.85394E-04-4.95101E-05-5.81947E-05-9.13632E-06 1.60282E-18-2.57011E-18
 -1       456 1.94041E-04-2.71085E-05-7.14620E-05-2.48571E-05 3.70153E-19-1.22460E-18
 -1       457 1.82227E-04-4.43902E-07-7.79108E-05-3.40301E-05 4.86197E-19 1.45811E-18
 -1       458 1.81554E-04 4.96847E-06-7.97213E-05-3.54242E-05-7.71435E-19 1.88216E-18
 -1       459 1.69519E-04-3.61837E-06-7.05959E-05-3.88544E-05 4.42575E-19 1.85828E-18
 -1       460 1.63780E-04-2.44493E-05-5.87835E-05-6.55587E-05 5.69689E-19-1.67945E-18
 -1       461 1.59992E-04-2.69673E-05-5.64151E-05 6.23645E-05-1.48067E-18-2.93328E-18
 -1       462 1.49161E-04-4.71247E-05-4.38658E-05 6.32454E-05 4.32357E-19-3.92875E-18
 -1       463 1.52622E-04-7.53212E-05-3.32565E-05-1.04676E-05 1.01485E-19-2.06544E-18
 -1       464 1.41039E-04-4.95074E-05-3.99263E-05-4.24492E-05-1.20168E-18-6.72332E-19
 -1       465 8.95311E-05-1.33955E-05-3.26486E-05-3.92073E-06-1.97766E-19-1.54516E-18
 -1       466 9.02403E-05-1.43593E-05-3.25416E-05-5.87921E-06-4.57489E-19-1.34157E-18
 -1       467 8.90308E-05-1.27140E-05-3.27250E-05 5.48265E-08 3.05650E-19-1.44539E-18
 -1       468 8.91662E-05-1.28965E-05-3.27050E-05 2.04302E-06 5.94002E-19-1.43101E-18
 -1       469 8.95664E-05-1.34383E-05-3.26456E-05 3.99523E-06 8.32550E-19-1.27765E-18
 -1       470 9.02906E-05-1.44253E-05-3.25356E-05 5.94225E-06 1.24569E-18-1.06369E-18
 -1       471 9.14521E-05-1.60167E-05-3.23540E-05 7.77385E-06 1.40312E-18-7.59546E-19
 -1       472 9.31709E-05-1.84415E-05-3.20490E-05 9.21322E-06 1.50710E-18-2.27554E-19
 -1       473 9.54078E-05-2.19827E-05-3.14741E-05 9.50546E-06 1.61781E-18 6.01256E-19
 -1       474 9.63501E-05-2.46095E-05-3.07328E-05 8.01887E-06 1.54630E-18 1.23391E-18
 -1       475 9.54840E-05-2.44317E-05-3.04416E-05-5.82089E-06-1.03859E-18-3.42777E-19
 -1       476 9.45347E-05-2.72975E-05-2.88079E-05 9.70474E-07 7.50921E-19 3.56606E-19
 -1       477 9.51420E-05-2.66202E-05-2.93568E-05 2.89144E-06 1.14872E-18 6.30582E-19
 -1       478 9.45992E-05-2.07556E-05-3.16659E-05-9.42746E-06-1.29504E-18-5.88965E-19
 -1       479 9.52824E-05-2.62306E-05-2.95869E-05-2.88596E-06-6.68819E-19-2.93513E-19
 -1       480 9.49257E-05-2.71628E-05-2.90376E-05-1.02100E-06-6.03455E-19-3.59246E-19
 -1       481 9.46501E-05-2.76944E-05-2.86937E-05 1.02642E-07-5.30421E-19-5.80037E-19
 -1       482 9.44944E-05-2.80213E-05-2.84879E-05 7.38232E-07-3.48566E-19-8.61291E-19
 -1       483 9.44398E-05-2.82336E-05-2.83740E-05 1.05607E-06-3.94471E-19-7.63862E-19
 -1       484 9.44558E-05-2.83755E-05-2.83203E-05 1.17088E-06-4.74206E-19-9.43383E-19
 -1       485 9.45150E-05-2.84709E-05-2.83049E-05 1.16010E-06-4.90169E-19-1.02330E-18
 -1       486 9.45965E-05-2.85339E-05-2.83129E-05 1.07608E-06-2.66402E-19-3.38647E-19
 -1       487 9.46861E-05-2.85739E-05-2.83342E-05 9.54062E-07 1.59004E-19-1.94613E-19
 -1       488 9.47745E-05-2.85975E-05-2.83619E-05 8.17420E-07-1.16313E-21 2.39370E-19
 -1       489 9.48563E-05-2.86093E-05-2.83919E-05 6.81275E-07-2.34118E-19 2.23686E-19
 -1       490 9.49290E-05-2.86127E-05-2.84216E-05 5.55100E-07-3.95134E-19 4.45216E-19
 -1       491 9.49920E-05-2.86102E-05-2.84496E-05 4.44613E-07-5.74897E-19 5.40590E-19
 -1       492 9.50459E-05-2.86034E-05-2.84756E-05 3.53196E-07-8.43078E-19 2.09729E-19
 -1       493 9.50924E-05-2.85934E-05-2.84997E-05 2.82959E-07-3.02048E-19 5.96366E-20
 -1       494 9.51335E-05-2.85808E-05-2.85227E-05 2.35558E-07-7.54160E-19-5.24318E-19
 -1       495 9.51721E-05-2.85658E-05-2.85456E-05 2.12821E-07-2.39262E-19-2.75436E-19
 -1       496 9.52114E-05-2.85482E-05-2.85699E-05 2.17242E-07 3.27504E-19-9.80636E-19
 -1       497 9.52552E-05-2.85277E-05-2.85974E-05 2.52371E-07 1.05098E-18-6.92727E-19
 -1       498 9.53078E-05-2.85040E-05-2.86300E-05 3.23120E-07 5.38936E-19-2.71939E-19
 -1       499 9.53741E-05-2.84765E-05-2.86701E-05 4.36001E-07-6.54325E-20-2.59518E-19
 -1       500 9.54599E-05-2.84447E-05-2.87204E-05 5.99264E-07-2.53525E-19-4.57334E-19
 -1       501 9.55717E-05-2.84086E-05-2.87837E-05 8.22916E-07-7.65296E-20-4.23583E-19
 -1       502 9.57169E-05-2.83683E-05-2.88630E-05 1.11856E-06 4.89050E-19-3.53719E-19
 -1       503 9.59038E-05-2.83250E-05-2.89615E-05 1.49889E-06 3.76253E-21-2.35911E-19
 -1       504 9.61414E-05-2.82811E-05-2.90819E-05 1.97681E-06 2.86669E-20 1.95049E-20
 -1       505 9.64396E-05-2.82421E-05-2.92262E-05 2.56362E-06-6.50518E-19-2.31613E-19
 -1       506 9.68095E-05-2.82179E-05-2.93948E-05 3.26621E-06-3.52547E-20-4.46344E-19
 -1       507 9.72644E-05-2.82271E-05-2.95856E-05 4.08224E-06-8.67879E-20-4.02644E-20
 -1       508 9.78227E-05-2.83028E-05-2.97923E-05 4.99264E-06-3.77195E-19 1.30891E-18
 -1       509 9.85136E-05-2.85026E-05-3.00029E-05 5.95005E-06-3.46630E-19 2.58903E-18
 -1       510 9.93889E-05-2.89233E-05-3.01983E-05 6.86160E-06 4.88035E-19 1.62335E-18
 -1       511 1.00540E-04-2.97191E-05-3.03522E-05 7.56425E-06 8.11407E-19 2.13079E-18
 -1       512 1.02125E-04-3.11171E-05-3.04346E-05 7.79149E-06 1.61451E-18 1.68438E-18
 -1       513 1.04381E-04-3.34058E-05-3.04247E-05 7.13379E-06-9.28760E-20 1.68593E-18
 -1       514 1.07605E-04-3.68469E-05-3.03368E-05 5.00029E-06 9.23930E-19 1.25221E-18
 -1       515 1.11990E-04-4.14031E-05-3.02699E-05 6.23831E-07 1.39204E-19 1.28069E-18
 -1       516 1.17205E-04-4.61729E-05-3.04640E-05-6.74034E-06-5.50691E-19 3.29704E-18
 -1       517 1.21714E-04-4.86692E-05-3.13293E-05-1.71423E-05 4.43385E-20 2.90244E-18
 -1       518 1.22423E-04-4.48047E-05-3.33131E-05-2.84043E-05 2.15591E-18 1.87676E-18
 -1       519 1.15854E-04-3.13995E-05-3.62919E-05-3.45468E-05-2.49994E-19 2.96246E-18
 -1       520 1.03185E-04-1.21491E-05-3.92870E-05-2.83726E-05-2.10743E-18 2.86547E-18
 -1       521 9.20284E-05 3.59847E-07-3.98559E-05-7.96355E-06-1.83585E-18 2.38007E-18
 -1       522 8.83753E-05-4.53486E-06-3.61518E-05 1.60873E-05-4.71228E-19 1.84196E-18
 -1       523 9.56432E-05-2.58764E-05-2.98813E-05 4.95607E-06 1.34122E-18 9.40452E-19
 -1       524 9.41557E-05-2.76900E-05-2.84818E-05-1.30243E-07 5.48462E-19 7.28054E-20
 -1       525 9.39799E-05-2.79359E-05-2.83032E-05-7.40363E-07 4.90285E-19 2.06482E-19
 -1       526 9.39514E-05-2.81080E-05-2.82183E-05-1.03939E-06 2.03142E-19 2.32158E-19
 -1       527 9.40163E-05-2.82350E-05-2.81922E-05-1.14238E-06-8.73296E-20 3.68563E-19
 -1       528 9.41334E-05-2.83307E-05-2.82016E-05-1.12616E-06-2.48461E-20 8.01301E-19
 -1       529 9.42741E-05-2.84029E-05-2.82311E-05-1.04124E-06 1.28200E-19 6.23581E-19
 -1       530 9.44193E-05-2.84568E-05-2.82703E-05-9.21118E-07 2.93608E-19 6.35264E-19
 -1       531 9.45575E-05-2.84960E-05-2.83126E-05-7.87819E-07 4.57983E-20 9.41477E-19
 -1       532 9.46824E-05-2.85237E-05-2.83542E-05-6.55488E-07 4.38820E-19 8.91628E-19
 -1       533 9.47911E-05-2.85423E-05-2.83928E-05-5.32897E-07 4.62354E-19 4.44736E-19
 -1       534 9.48835E-05-2.85537E-05-2.84274E-05-4.25254E-07 2.53619E-19 6.08410E-20
 -1       535 9.49610E-05-2.85596E-05-2.84580E-05-3.35535E-07 6.29061E-19 4.46386E-19
 -1       536 9.50260E-05-2.85612E-05-2.84852E-05-2.65486E-07 1.78356E-19 1.42662E-18
 -1       537 9.50818E-05-2.85594E-05-2.85098E-05-2.16380E-07-3.39888E-19 1.98957E-18
 -1       538 9.51323E-05-2.85550E-05-2.85332E-05-1.89598E-07-3.28281E-19 1.17430E-18
 -1       539 9.51820E-05-2.85486E-05-2.85571E-05-1.87076E-07-8.07891E-20 1.90739E-19
 -1       540 9.52358E-05-2.85407E-05-2.85835E-05-2.11640E-07-1.41806E-19-7.66565E-20
 -1       541 9.52997E-05-2.85320E-05-2.86145E-05-2.67264E-07 5.77353E-19 7.87242E-19
 -1       542 9.53803E-05-2.85231E-05-2.86527E-05-3.59216E-07 4.33026E-21 1.00538E-18
 -1       543 9.54855E-05-2.85153E-05-2.87010E-05-4.94098E-07 2.44277E-20-2.95652E-19
 -1       544 9.56244E-05-2.85100E-05-2.87626E-05-6.79716E-07 7.41635E-20-3.00102E-19
 -1       545 9.58073E-05-2.85098E-05-2.88408E-05-9.24686E-07 1.97072E-19 6.81746E-20
 -1       546 9.60461E-05-2.85183E-05-2.89393E-05-1.23767E-06-3.37403E-20-8.61072E-19
 -1       547 9.63542E-05-2.85414E-05-2.90612E-05-1.62601E-06-5.66521E-19-1.47126E-18
 -1       548 9.67461E-05-2.85875E-05-2.92092E-05-2.09351E-06 1.44733E-19-7.29835E-19
 -1       549 9.72375E-05-2.86695E-05-2.93844E-05-2.63694E-06 4.26177E-19 2.80566E-19
 -1       550 9.78452E-05-2.88069E-05-2.95859E-05-3.24073E-06 6.00097E-19 6.55465E-19
 -1       551 9.85867E-05-2.90287E-05-2.98088E-05-3.86927E-06-2.05247E-19 1.08389E-18
 -1       552 9.94815E-05-2.93774E-05-3.00435E-05-4.45612E-06-3.56944E-19 2.30960E-18
 -1       553 1.00551E-04-2.99126E-05-3.02738E-05-4.88999E-06 9.37936E-19 1.03864E-18
 -1       554 1.01820E-04-3.07117E-05-3.04771E-05-4.99859E-06 8.15805E-19 7.52011E-19
 -1       555 1.03309E-04-3.18607E-05-3.06263E-05-4.53450E-06 5.94112E-19 1.26474E-18
 -1       556 1.05020E-04-3.34191E-05-3.06959E-05-3.17379E-06-1.16626E-18 4.54897E-19
 -1       557 1.06883E-04-3.53399E-05-3.06756E-05-5.51126E-07-1.70541E-19 7.70187E-19
 -1       558 1.08654E-04-3.73220E-05-3.05885E-05 3.62623E-06-1.45674E-18 6.39490E-19
 -1       559 1.09770E-04-3.86200E-05-3.05089E-05 9.32475E-06-1.03971E-18 1.82973E-18
 -1       560 1.09250E-04-3.79620E-05-3.05625E-05 1.57579E-05-1.75230E-19 1.24286E-18
 -1       561 1.05908E-04-3.39239E-05-3.08652E-05 2.08996E-05 1.63983E-18 1.75348E-18
 -1       562 9.94927E-05-2.63537E-05-3.13453E-05 2.15160E-05 1.91216E-18 3.26383E-18
 -1       563 9.11147E-05-1.70683E-05-3.17435E-05 1.51431E-05-2.76417E-19 3.87815E-18
 -1       564 8.48601E-05-1.16823E-05-3.13387E-05 1.65180E-06-1.49631E-18 3.26923E-18
 -1       565 8.35390E-05-1.39875E-05-2.98123E-05-1.33642E-05-1.65232E-18 1.82927E-18
 -1       566 8.74436E-05-9.94226E-07-3.72969E-05-1.19122E-05 3.52564E-19-1.45091E-18
 -1       567 9.86333E-05 8.60053E-06-4.65626E-05-4.90256E-06-1.69777E-19-2.03767E-18
 -1       568 1.43235E-04 6.59353E-06-6.49907E-05 3.38151E-05 6.91179E-19 3.23831E-19
 -1       569 1.23250E-04-3.43188E-05-3.90130E-05 2.72497E-06-9.18978E-19 7.12736E-18
 -1       570 3.82254E-05-3.17184E-05-2.02648E-06-3.01994E-05 1.37219E-19-2.29885E-18
 -1       571 9.95006E-05 4.36621E-07-4.33076E-05 1.36599E-05-4.67800E-19 1.72943E-18
 -1       572 7.59725E-05-5.41612E-05-8.82703E-06-4.43539E-05 6.28869E-19-3.48003E-18
 -1       573 1.35121E-04 7.78604E-06-6.18924E-05-1.00480E-05-1.17526E-18 4.97574E-18
 -1       574 1.49918E-04-3.26005E-06-6.36549E-05-3.65552E-05-1.37071E-18 2.54888E-18
 -1       575 3.90175E-05-3.07709E-05-2.79957E-06 2.72873E-05 3.12290E-19-9.97699E-19
 -1       576 1.34389E-04 1.70692E-05-6.57337E-05 2.30005E-05 3.03344E-19-7.19535E-19
 -1       577 8.91471E-05-1.28731E-05-3.27069E-05-1.93495E-06 8.90418E-20-1.43230E-18
 -1       578 7.92146E-05-5.33184E-05-1.05275E-05 4.15340E-05 1.78422E-18-3.39131E-19
 -1       579 1.61565E-04-5.48150E-05-4.61955E-05 2.29234E-05 1.63647E-18 1.65754E-19
 -1       580 1.53450E-04-2.36203E-05-5.63248E-05 3.71512E-05 1.17526E-18 6.27704E-19
 -1       581 1.33699E-04 5.62874E-06-6.03076E-05 1.23885E-05-1.84664E-18 1.89471E-18
 -1       582 1.12845E-04-6.97459E-05-1.81394E-05-3.76139E-05 2.72586E-19-2.31940E-18
 -1       583 2.54586E-05-2.33403E-05-1.17389E-07 6.85112E-06 5.09001E-19 5.91017E-19
 -1       584 1.67638E-04-6.28391E-05-4.52456E-05-1.67500E-05-1.55648E-19-2.12235E-18
 -1       585 1.20008E-04-7.34234E-05-1.96575E-05 3.32188E-05 7.83876E-19 9.82014E-19
 -1       586 1.51487E-04-7.79140E-05-3.15646E-05 1.05535E-05-2.26422E-19-2.38540E-18
 -1       587 1.65184E-04-3.38327E-05-5.68260E-05-3.49717E-05 1.43678E-19 6.34322E-19
 -1       588 1.25662E-04 1.58025E-05-6.15549E-05-1.76790E-05-5.08537E-19 5.26967E-18
 -1       589 9.13516E-05-1.58931E-05-3.23632E-05-7.69433E-06-8.58870E-19-1.12546E-18
 -1       590 9.27630E-05-1.79253E-05-3.20949E-05-8.88070E-06-1.11753E-18-9.73826E-19
 -1       591 1.35691E-04-7.50249E-05-2.58974E-05-2.11740E-05-2.55936E-19-1.78083E-18
 -1       592 9.15380E-05-1.68381E-05-3.20196E-05 2.44093E-06 6.31445E-19-1.06945E-18
 -1       593 9.12826E-05-1.64406E-05-3.20805E-05 8.40991E-07 4.24882E-19-1.19398E-18
 -1       594 9.29434E-05-1.90572E-05-3.16699E-05 5.28457E-06 1.27001E-18-8.21688E-19
 -1       595 9.40442E-05-2.09822E-05-3.13181E-05 6.16417E-06 1.31919E-18-3.47023E-19
 -1       596 9.50376E-05-2.36730E-05-3.05863E-05-4.71644E-06-7.15376E-19-6.88445E-19
 -1       597 9.49875E-05-2.81151E-05-2.86593E-05-7.49608E-07 2.89280E-19 2.37096E-19
 -1       598 9.50989E-05-2.77112E-05-2.88799E-05-1.37717E-07 4.27378E-19-6.19220E-20
 -1       599 9.41982E-05-2.12074E-05-3.12792E-05-6.73241E-06-9.19665E-19-9.25905E-19
 -1       600 9.52346E-05-2.70370E-05-2.92250E-05 9.17474E-07 9.14354E-19 1.16844E-19
 -1       601 6.66370E-05-4.00083E-05-1.09223E-05-3.64879E-05 1.46325E-19-3.11052E-18
 -1       602 9.54204E-05-2.57079E-05-2.98753E-05-2.42505E-06-5.99695E-19-7.22326E-19
 -1       603 9.54765E-05-2.69446E-05-2.93702E-05-8.56919E-07-6.97488E-19-7.27584E-19
 -1       604 9.54205E-05-2.77051E-05-2.90207E-05 1.45548E-07-3.86853E-19-4.65128E-19
 -1       605 9.53440E-05-2.81778E-05-2.87855E-05 7.33486E-07-2.89397E-19-5.09261E-19
 -1       606 9.52791E-05-2.84699E-05-2.86326E-05 1.03452E-06-4.42591E-19-7.07791E-19
 -1       607 9.52333E-05-2.86451E-05-2.85379E-05 1.14496E-06-2.72343E-19 2.21033E-20
 -1       608 9.52052E-05-2.87435E-05-2.84837E-05 1.13457E-06-1.91495E-19 4.40121E-19
 -1       609 9.51904E-05-2.87910E-05-2.84570E-05 1.05275E-06 4.84895E-20 4.48169E-19
 -1       610 9.51850E-05-2.88053E-05-2.84486E-05 9.33664E-07 2.04510E-20 2.57499E-19
 -1       611 9.51856E-05-2.87984E-05-2.84518E-05 8.00413E-07-5.83804E-20 8.21419E-20
 -1       612 9.51898E-05-2.87785E-05-2.84621E-05 6.68166E-07-1.74008E-19 2.20598E-19
 -1       613 9.51960E-05-2.87511E-05-2.84765E-05 5.46606E-07-6.70868E-19-1.68644E-21
 -1       614 9.52032E-05-2.87193E-05-2.84932E-05 4.41781E-07-7.17387E-19 4.10905E-20
 -1       615 9.52110E-05-2.86850E-05-2.85112E-05 3.57515E-07-6.63995E-19 2.39297E-19
 -1       616 9.52193E-05-2.86486E-05-2.85303E-05 2.96487E-07-7.88455E-19 4.43600E-19
 -1       617 9.52280E-05-2.86098E-05-2.85507E-05 2.61062E-07-4.77562E-19 1.34449E-19
 -1       618 9.52374E-05-2.85673E-05-2.85729E-05 2.53925E-07-2.98636E-19-1.30149E-19
 -1       619 9.52480E-05-2.85194E-05-2.85979E-05 2.78576E-07 8.39044E-19-1.03691E-18
 -1       620 9.52601E-05-2.84639E-05-2.86269E-05 3.39712E-07 8.78629E-19-1.55423E-18
 -1       621 9.52744E-05-2.83979E-05-2.86613E-05 4.43500E-07 6.19721E-19-4.72610E-19
 -1       622 9.52912E-05-2.83185E-05-2.87025E-05 5.97754E-07-2.87881E-19-3.79602E-20
 -1       623 9.53109E-05-2.82227E-05-2.87519E-05 8.11974E-07 6.64381E-20 2.43394E-19
 -1       624 9.53336E-05-2.81074E-05-2.88110E-05 1.09721E-06-2.63165E-20 7.77830E-19
 -1       625 9.53593E-05-2.79703E-05-2.88808E-05 1.46569E-06 3.85083E-19 7.03714E-19
 -1       626 9.53876E-05-2.78103E-05-2.89614E-05 1.93003E-06-1.23094E-19 4.33003E-19
 -1       627 9.54181E-05-2.76292E-05-2.90520E-05 2.50205E-06-8.65203E-19 1.96066E-21
 -1       628 9.54510E-05-2.74339E-05-2.91497E-05 3.19074E-06-2.32617E-19 8.55963E-19
 -1       629 9.54895E-05-2.72406E-05-2.92489E-05 3.99940E-06-1.17266E-19-6.45095E-20
 -1       630 9.55433E-05-2.70816E-05-2.93401E-05 4.92150E-06-3.17653E-19 3.09445E-19
 -1       631 9.56374E-05-2.70157E-05-2.94086E-05 5.93506E-06-2.66993E-19 5.94586E-19
 -1       632 9.58267E-05-2.71456E-05-2.94341E-05 6.99502E-06-2.69501E-19 1.57959E-18
 -1       633 9.62215E-05-2.76409E-05-2.93912E-05 8.02289E-06 1.34145E-19 1.09537E-18
 -1       634 9.70262E-05-2.87674E-05-2.92538E-05 8.89072E-06 9.39074E-19 4.19065E-19
 -1       635 9.85902E-05-3.09093E-05-2.90067E-05 9.39099E-06 7.32843E-20-6.69619E-19
 -1       636 1.01448E-04-3.45494E-05-2.86727E-05 9.18450E-06-8.40186E-19-1.19112E-18
 -1       637 1.06333E-04-4.01565E-05-2.83611E-05 7.68347E-06 6.89864E-19-1.50573E-18
 -1       638 1.13856E-04-4.76557E-05-2.83692E-05 3.82926E-06 9.29275E-19-3.63577E-19
 -1       639 1.23876E-04-5.55554E-05-2.92741E-05-3.85403E-06 4.51645E-19 1.32596E-18
 -1       640 1.34157E-04-5.94559E-05-3.19832E-05-1.65269E-05 1.40537E-18 1.77470E-18
 -1       641 1.37758E-04-5.06928E-05-3.75886E-05-3.23021E-05 1.10480E-18 1.13597E-18
 -1       642 1.14497E-04 2.26621E-06-5.06820E-05-2.85903E-05-2.10377E-18 3.34869E-19
 -1       643 1.05356E-04 1.00018E-05-5.00292E-05-7.62528E-06-1.11004E-18 4.34839E-19
 -1       644 9.49255E-05-2.83705E-05-2.85236E-05-1.05759E-06 2.89074E-20 5.88659E-19
 -1       645 9.49047E-05-2.85296E-05-2.84466E-05-1.16950E-06-2.65191E-19 5.14175E-19
 -1       646 9.49126E-05-2.86255E-05-2.84089E-05-1.15797E-06 2.04148E-19 3.23067E-19
 -1       647 9.49380E-05-2.86791E-05-2.83969E-05-1.07383E-06 2.69032E-19 6.50583E-19
 -1       648 9.49724E-05-2.87041E-05-2.84009E-05-9.51923E-07 9.74719E-20 7.62434E-19
 -1       649 9.50100E-05-2.87103E-05-2.84143E-05-8.15627E-07 3.64450E-19 8.62651E-19
 -1       650 9.50471E-05-2.87042E-05-2.84328E-05-6.80207E-07 6.63048E-19 5.65713E-19
 -1       651 9.50816E-05-2.86903E-05-2.84535E-05-5.55325E-07 3.30861E-19 6.41100E-19
 -1       652 9.51127E-05-2.86715E-05-2.84749E-05-4.46926E-07 8.86313E-20 1.11662E-18
 -1       653 9.51404E-05-2.86496E-05-2.84962E-05-3.58666E-07-1.66242E-19 1.60162E-18
 -1       654 9.51654E-05-2.86252E-05-2.85173E-05-2.92989E-07-2.47103E-20 1.26510E-18
 -1       655 9.51887E-05-2.85986E-05-2.85386E-05-2.51950E-07 2.77465E-19 1.14208E-18
 -1       656 9.52117E-05-2.85691E-05-2.85611E-05-2.37843E-07 4.39623E-19 1.16083E-18
 -1       657 9.52361E-05-2.85359E-05-2.85857E-05-2.53676E-07 5.01113E-19 7.25835E-19
 -1       658 9.52639E-05-2.84979E-05-2.86140E-05-3.03524E-07-1.14231E-19 4.93619E-19
 -1       659 9.52977E-05-2.84536E-05-2.86474E-05-3.92764E-07 7.85731E-19 8.51788E-19
 -1       660 9.53401E-05-2.84018E-05-2.86877E-05-5.28182E-07 2.52801E-19 1.59075E-18
 -1       661 9.53945E-05-2.83415E-05-2.87368E-05-7.17909E-07 2.89652E-19 1.49072E-18
 -1       662 9.54647E-05-2.82726E-05-2.87963E-05-9.71134E-07-4.21712E-19 1.42712E-18
 -1       663 9.55555E-05-2.81960E-05-2.88680E-05-1.29748E-06 9.80783E-19 6.42223E-19
 -1       664 9.56725E-05-2.81152E-05-2.89527E-05-1.70592E-06 4.02801E-19 1.38915E-19
 -1       665 9.58232E-05-2.80373E-05-2.90505E-05-2.20297E-06-4.57961E-19-7.83333E-19
 -1       666 9.60176E-05-2.79757E-05-2.91602E-05-2.79002E-06-1.95293E-19-1.05433E-18
 -1       667 9.62703E-05-2.79530E-05-2.92781E-05-3.45933E-06 1.75866E-19-1.01435E-18
 -1       668 9.66035E-05-2.80065E-05-2.93980E-05-4.18837E-06-6.44276E-19-1.41601E-18
 -1       669 9.70527E-05-2.81945E-05-2.95100E-05-4.93202E-06-1.09612E-18-4.60998E-19
 -1       670 9.76742E-05-2.86043E-05-2.96010E-05-5.61201E-06 7.64095E-19-1.01344E-18
 -1       671 9.85560E-05-2.93603E-05-2.96555E-05-6.10337E-06 1.23887E-18-4.75004E-19
 -1       672 9.98282E-05-3.06239E-05-2.96601E-05-6.21729E-06-1.69892E-19-5.28724E-19
 -1       673 1.01663E-04-3.25740E-05-2.96123E-05-5.68151E-06 1.06869E-19 9.91601E-19
 -1       674 1.04245E-04-3.53381E-05-2.95362E-05-4.12267E-06-9.23006E-19 1.33433E-18
 -1       675 1.07662E-04-3.88319E-05-2.95062E-05-1.07139E-06-1.42754E-18 2.34548E-18
 -1       676 1.11675E-04-4.24626E-05-2.96722E-05 3.94913E-06-9.97017E-19 8.01085E-19
 -1       677 1.15359E-04-4.47540E-05-3.02636E-05 1.11049E-05 6.71028E-19-1.55147E-19
 -1       678 1.16827E-04-4.32058E-05-3.15574E-05 1.95893E-05-4.38771E-19-1.82675E-19
 -1       679 1.13669E-04-3.48911E-05-3.37322E-05 2.70178E-05 1.08744E-18-3.06705E-19
 -1       680 1.03541E-04-2.01857E-05-3.58893E-05 2.72948E-05 2.71821E-19 1.49521E-19
 -1       681 9.35332E-05-6.66903E-06-3.72296E-05 1.70467E-05-9.23187E-19 1.22676E-18
 -1       682 8.64909E-05 2.40840E-06-3.85125E-05 3.44980E-06-1.60658E-19-5.13429E-19
 -1       683 1.22337E-04-1.99683E-06-5.21615E-05 3.48318E-05 3.72800E-19-2.49802E-18
 -1       684 9.99327E-05 1.20840E-05-4.85862E-05 9.24129E-06-2.48710E-19-2.20844E-18
 -1       685 1.53997E-04-6.97907E-05-3.62485E-05-1.40633E-05 4.10851E-19-1.20072E-18
 -1       686 1.00125E-04-5.88739E-05-1.72816E-05-3.64279E-05 2.94767E-19-2.87957E-18
 -1       687 1.39607E-04-3.49963E-05-4.51971E-05 3.61822E-05 1.66630E-18-5.96894E-19
 -1       688 1.51823E-04-4.76043E-05-4.51357E-05-3.42277E-05-6.40939E-19-1.95876E-19
 -1       689 9.54209E-05-2.60292E-05-2.97330E-05 2.58702E-06 1.05922E-18 6.15999E-20
 -1       690 3.95761E-05-2.06734E-05-7.48756E-06-1.17095E-05-4.72836E-19-1.08902E-18
 -1       691 6.71780E-05-3.56343E-05-1.30749E-05 3.04227E-05 2.56016E-19-2.92200E-19
 -1       692 4.26405E-05-2.19616E-05-8.31810E-06 1.41021E-05 4.20869E-20 3.60730E-19
 -1       693 1.35243E-04-1.92922E-05-5.01769E-05-4.05703E-05-2.04225E-18 6.29981E-21
 -1       694 9.20929E-05-1.76897E-05-3.18902E-05 3.97401E-06 9.95560E-19-8.44511E-19
 -1       695 1.37796E-04-7.47074E-05-2.69357E-05 1.24632E-05 1.44648E-18-1.21850E-18
 -1       696 9.20281E-05-1.76134E-05-3.18978E-05-3.89227E-06-3.58325E-19-1.19438E-18
 -1       697 1.50552E-04-6.69168E-05-3.59518E-05 1.07430E-05 9.30006E-19-1.67649E-18
 -1       698 1.08371E-04-6.28141E-05-1.92090E-05 3.12917E-05 1.29313E-18-1.08897E-19
 -1       699 9.28520E-05-1.89330E-05-3.16819E-05-5.21843E-06-6.12306E-19-1.06711E-18
 -1       700 9.12757E-05-1.64311E-05-3.20816E-05-7.81856E-07 1.17800E-19-1.20381E-18
 -1       701 9.52897E-05-2.37274E-05-3.06586E-05 6.13476E-06 1.35077E-18 2.92214E-19
 -1       702 5.72195E-05-2.66150E-05-1.27479E-05-2.33440E-05 3.71239E-21-3.18654E-18
 -1       703 1.39567E-04-5.16088E-05-3.78286E-05 2.67940E-05 3.99403E-19-9.63526E-19
 -1       704 1.19549E-04-6.64314E-05-2.26110E-05-2.55307E-05 1.79042E-19-2.29138E-18
 -1       705 1.11110E-04 1.12602E-05-5.29401E-05 2.35843E-05-7.10396E-19-2.33292E-18
 -1       706 9.15197E-05-1.68115E-05-3.20234E-05-2.37688E-06-9.19077E-20-1.17806E-18
 -1       707 9.34655E-05-1.99290E-05-3.15157E-05-6.08898E-06-8.14474E-19-8.68582E-19
 -1       708 9.52823E-05-2.45714E-05-3.03060E-05 2.94501E-06 1.04721E-18-3.83121E-19
 -1       709 9.56268E-05-2.85890E-05-2.87305E-05-9.99308E-07-1.88530E-19 1.50439E-19
 -1       710 9.56791E-05-2.68990E-05-2.94775E-05 6.76424E-07 5.20061E-19-1.00516E-20
 -1       711 9.49172E-05-2.34327E-05-3.06380E-05-3.50707E-06-7.33153E-19-9.36502E-19
 -1       712 9.56894E-05-2.82692E-05-2.88943E-05-7.31468E-07 2.31260E-20 2.34455E-19
 -1       713 9.55701E-05-2.55093E-05-3.00264E-05-1.79539E-06-4.79619E-19-9.37170E-19
 -1       714 9.58636E-05-2.68820E-05-2.95635E-05-5.72479E-07-2.10963E-19-5.94848E-19
 -1       715 9.59553E-05-2.77715E-05-2.92217E-05 2.28883E-07-3.41668E-19-4.04213E-19
 -1       716 9.59435E-05-2.83343E-05-2.89754E-05 7.05967E-07-5.55427E-19-2.04046E-19
 -1       717 9.58825E-05-2.86774E-05-2.88022E-05 9.49594E-07-5.15582E-20-2.10585E-19
 -1       718 9.58018E-05-2.88729E-05-2.86838E-05 1.03418E-06 2.40331E-19-2.25409E-19
 -1       719 9.57168E-05-2.89699E-05-2.86059E-05 1.01670E-06 1.07783E-19 4.41996E-19
 -1       720 9.56359E-05-2.90024E-05-2.85573E-05 9.38835E-07-1.42517E-19 6.94830E-19
 -1       721 9.55629E-05-2.89939E-05-2.85296E-05 8.30006E-07-5.86795E-20 1.00656E-18
 -1       722 9.54995E-05-2.89605E-05-2.85168E-05 7.10354E-07-1.84845E-19 3.23407E-19
 -1       723 9.54459E-05-2.89130E-05-2.85141E-05 5.93263E-07-6.39694E-19-3.31160E-20
 -1       724 9.54013E-05-2.88582E-05-2.85185E-05 4.87413E-07-5.15964E-19 6.82683E-20
 -1       725 9.53647E-05-2.87996E-05-2.85279E-05 3.98398E-07-4.14369E-19 6.53277E-19
 -1       726 9.53343E-05-2.87389E-05-2.85409E-05 3.29983E-07-8.11929E-19 5.09730E-19
 -1       727 9.53085E-05-2.86757E-05-2.85569E-05 2.85071E-07-8.18155E-19 2.11943E-19
 -1       728 9.52851E-05-2.86084E-05-2.85757E-05 2.66446E-07-1.34079E-19 2.85340E-19
 -1       729 9.52619E-05-2.85342E-05-2.85975E-05 2.77341E-07-2.95902E-19 4.46342E-19
 -1       730 9.52361E-05-2.84495E-05-2.86228E-05 3.21873E-07 6.03158E-19 2.18794E-19
 -1       731 9.52047E-05-2.83499E-05-2.86521E-05 4.05346E-07 1.54392E-18-6.21143E-19
 -1       732 9.51641E-05-2.82303E-05-2.86859E-05 5.34455E-07 6.45676E-19-2.82203E-19
 -1       733 9.51097E-05-2.80852E-05-2.87248E-05 7.17351E-07-3.50580E-20 2.50851E-19
 -1       734 9.50362E-05-2.79089E-05-2.87688E-05 9.63554E-07-6.68883E-20-4.68819E-19
 -1       735 9.49372E-05-2.76962E-05-2.88175E-05 1.28366E-06 3.69284E-19-8.99759E-19
 -1       736 9.48053E-05-2.74430E-05-2.88695E-05 1.68881E-06 2.22060E-19-3.62889E-19
 -1       737 9.46321E-05-2.71474E-05-2.89219E-05 2.18980E-06-6.19660E-19 3.96985E-19
 -1       738 9.44089E-05-2.68125E-05-2.89698E-05 2.79595E-06-6.56154E-19 1.13065E-18
 -1       739 9.41288E-05-2.64495E-05-2.90053E-05 3.51360E-06-9.02213E-19 7.88265E-19
 -1       740 9.37895E-05-2.60837E-05-2.90166E-05 4.34452E-06-9.20636E-19-2.06311E-19
 -1       741 9.34004E-05-2.57637E-05-2.89870E-05 5.28480E-06-1.05103E-19-8.51643E-19
 -1       742 9.29947E-05-2.55750E-05-2.88939E-05 6.32459E-06 1.54360E-19-8.65169E-19
 -1       743 9.26493E-05-2.56608E-05-2.87091E-05 7.45003E-06-5.97191E-19-1.21261E-18
 -1       744 9.25195E-05-2.62506E-05-2.84007E-05 8.64735E-06 2.79670E-19-6.65491E-19
 -1       745 9.28938E-05-2.76993E-05-2.79401E-05 9.90582E-06 5.84172E-20-5.31694E-19
 -1       746 9.42802E-05-3.05283E-05-2.73195E-05 1.11893E-05-8.09401E-19-1.23302E-18
 -1       747 9.74432E-05-3.53759E-05-2.65926E-05 1.23648E-05-2.92633E-19-9.99651E-19
 -1       748 1.03660E-04-4.31242E-05-2.59229E-05 1.30681E-05 3.12912E-18-2.16804E-18
 -1       749 1.14465E-04-5.40693E-05-2.57660E-05 1.21410E-05 1.40082E-18-5.96645E-20
 -1       750 9.55790E-05-2.59195E-05-2.98532E-05 1.67543E-06 7.61073E-19-3.00918E-19
 -1       751 9.55002E-05-2.88722E-05-2.85549E-05-1.07831E-06 7.19442E-20 1.43138E-19
 -1       752 9.54473E-05-2.89110E-05-2.85156E-05-9.97265E-07 1.28285E-19 3.31894E-19
 -1       753 9.54028E-05-2.89122E-05-2.84960E-05-8.82521E-07-4.17722E-20 3.35012E-19
 -1       754 9.53665E-05-2.88903E-05-2.84898E-05-7.55592E-07 3.49956E-19 7.99918E-20
 -1       755 9.53373E-05-2.88548E-05-2.84925E-05-6.30704E-07 5.71703E-19 8.78126E-19
 -1       756 9.53143E-05-2.88120E-05-2.85010E-05-5.17019E-07 2.37404E-19 2.81935E-19
 -1       757 9.52964E-05-2.87652E-05-2.85134E-05-4.20359E-07 1.40881E-19 5.97706E-19
 -1       758 9.52825E-05-2.87163E-05-2.85284E-05-3.44534E-07 1.06241E-19 1.07528E-19
 -1       759 9.52716E-05-2.86652E-05-2.85456E-05-2.92366E-07-2.34958E-19-5.69431E-19
 -1       760 9.52625E-05-2.86109E-05-2.85650E-05-2.66466E-07-1.38398E-19 2.73185E-19
 -1       761 9.52542E-05-2.85516E-05-2.85868E-05-2.69824E-07 2.55336E-19 1.01289E-18
 -1       762 9.52456E-05-2.84846E-05-2.86118E-05-3.06253E-07 2.49990E-19 1.30315E-18
 -1       763 9.52352E-05-2.84068E-05-2.86407E-05-3.80700E-07-9.63906E-20 1.09264E-18
 -1       764 9.52218E-05-2.83148E-05-2.86744E-05-4.99428E-07 1.51181E-19 1.69361E-18
 -1       765 9.52038E-05-2.82054E-05-2.87136E-05-6.70057E-07 6.28178E-19 1.08085E-18
 -1       766 9.51797E-05-2.80756E-05-2.87589E-05-9.01410E-07 3.87210E-19 8.96048E-19
 -1       767 9.51482E-05-2.79238E-05-2.88104E-05-1.20312E-06 1.27998E-19 3.74171E-19
 -1       768 9.51084E-05-2.77506E-05-2.88675E-05-1.58489E-06 1.02016E-18 1.11269E-18
 -1       769 9.50611E-05-2.75608E-05-2.89286E-05-2.05536E-06 4.81569E-19 1.48878E-18
 -1       770 9.50098E-05-2.73655E-05-2.89903E-05-2.62033E-06-7.66480E-21 1.23832E-18
 -1       771 9.49634E-05-2.71860E-05-2.90473E-05-3.28040E-06-1.49958E-19-1.39279E-19
 -1       772 9.49404E-05-2.70595E-05-2.90916E-05-4.02775E-06-2.50850E-19 3.73958E-19
 -1       773 9.49759E-05-2.70465E-05-2.91123E-05-4.84200E-06-5.10680E-19-1.98403E-19
 -1       774 9.51317E-05-2.72407E-05-2.90959E-05-5.68487E-06-1.05880E-19-1.16585E-18
 -1       775 9.55121E-05-2.77808E-05-2.90275E-05-6.49284E-06 4.30199E-19-7.27110E-19
 -1       776 9.62837E-05-2.88615E-05-2.88951E-05-7.16596E-06-1.64283E-20-9.17946E-20
 -1       777 9.76965E-05-3.07346E-05-2.86982E-05-7.54846E-06-1.05780E-18 3.45718E-19
 -1       778 1.00096E-04-3.36838E-05-2.84635E-05-7.39135E-06-1.47329E-18 1.97830E-18
 -1       779 1.03889E-04-3.79269E-05-2.82716E-05-6.28476E-06-1.85699E-18 1.56705E-18
 -1       780 1.09394E-04-4.33724E-05-2.82979E-05-3.55748E-06-5.43592E-19-1.46474E-18
 -1       781 1.16444E-04-4.91020E-05-2.88626E-05 1.76175E-06-6.62250E-19-5.72035E-19
 -1       782 1.23622E-04-5.26915E-05-3.03936E-05 1.04513E-05 4.45086E-19-1.40649E-19
 -1       783 1.27003E-04-4.89184E-05-3.35541E-05 2.15581E-05 1.11146E-19-2.25399E-18
 -1       784 9.57386E-05-2.77646E-05-2.91323E-05-2.06325E-07 1.22471E-19 2.50952E-19
 -1       785 9.31948E-05-1.97745E-05-3.14669E-05 1.23229E-06 4.32144E-19-9.57716E-19
 -1       786 9.40356E-05-4.72723E-05-1.99068E-05 2.66160E-05 2.33930E-18 2.06233E-18
 -1       787 1.22850E-04-6.41954E-05-2.50358E-05 1.48461E-05 8.46020E-19-1.28087E-18
 -1       788 1.38958E-04-6.60011E-05-3.12568E-05-8.03006E-06 1.52384E-18 6.25339E-19
 -1       789 8.72158E-05-4.52833E-05-1.76805E-05-3.17739E-05-1.08059E-18-3.13855E-18
 -1       790 1.38868E-04-6.84125E-05-3.01433E-05-1.61705E-06 1.88064E-19-2.31559E-18
 -1       791 9.55610E-05-2.87750E-05-2.86226E-05-1.09406E-06-8.67336E-20 5.66878E-20
 -1       792 9.30806E-05-1.95710E-05-3.15053E-05 2.01579E-08 1.77431E-19-8.75192E-19
 -1       793 5.19807E-05-1.91809E-05-1.37481E-05-7.71051E-06 5.36497E-19-3.25499E-19
 -1       794 1.30474E-04-6.52912E-05-2.78991E-05 3.82978E-06 1.60535E-18-6.05167E-19
 -1       795 9.48929E-05-2.32617E-05-3.06988E-05 2.77094E-06 7.23024E-19-4.24544E-19
 -1       796 9.35185E-05-2.03779E-05-3.13515E-05 2.35256E-06 6.80750E-19-7.43866E-19
 -1       797 7.52574E-05-3.23131E-05-1.82909E-05 2.25551E-05-6.47765E-19 1.08051E-18
 -1       798 5.82284E-05-2.21308E-05-1.52113E-05 1.33564E-05-1.02721E-18-7.83651E-19
 -1       799 1.03277E-04-5.36122E-05-2.11461E-05-2.66927E-05-4.37916E-19-3.04172E-18
 -1       800 9.39785E-05-2.12839E-05-3.11569E-05-3.26676E-06-5.33735E-19-7.89033E-19
 -1       801 9.34770E-05-2.03126E-05-3.13583E-05-2.31647E-06-2.46049E-19-9.88241E-19
 -1       802 9.58176E-05-2.90965E-05-2.85948E-05-8.48839E-07 1.00957E-19 2.47604E-19
 -1       803 9.49897E-05-2.35147E-05-3.06296E-05-2.38739E-06-4.60690E-19-8.05245E-19
 -1       804 9.57966E-05-2.56071E-05-3.00825E-05-1.17039E-06-7.97952E-20-6.48333E-19
 -1       805 9.61879E-05-2.69898E-05-2.96562E-05-2.81465E-07-7.35223E-20-4.16816E-19
 -1       806 9.63537E-05-2.79212E-05-2.93283E-05 2.99186E-07-8.15647E-20-2.99404E-19
 -1       807 9.63737E-05-2.85154E-05-2.90822E-05 6.43202E-07-4.06631E-19 4.01165E-19
 -1       808 9.63097E-05-2.88730E-05-2.89015E-05 8.13162E-07-1.77533E-19 1.14268E-19
 -1       809 9.62020E-05-2.90676E-05-2.87719E-05 8.63607E-07 2.90087E-19-2.45858E-19
 -1       810 9.60764E-05-2.91527E-05-2.86816E-05 8.37419E-07 2.79143E-19-2.74462E-19
 -1       811 9.59486E-05-2.91663E-05-2.86210E-05 7.66521E-07-2.87925E-20-1.74475E-19
 -1       812 9.58280E-05-2.91354E-05-2.85826E-05 6.73705E-07-1.90142E-19 3.60343E-21
 -1       813 9.57193E-05-2.90781E-05-2.85605E-05 5.74677E-07-4.83300E-19-1.36810E-19
 -1       814 9.56242E-05-2.90065E-05-2.85504E-05 4.79950E-07-5.87460E-19-1.02351E-19
 -1       815 9.55424E-05-2.89277E-05-2.85491E-05 3.96445E-07-2.68187E-19 1.46624E-20
 -1       816 9.54722E-05-2.88453E-05-2.85544E-05 3.28768E-07-3.79259E-19-2.76599E-19
 -1       817 9.54110E-05-2.87600E-05-2.85647E-05 2.80222E-07-8.64728E-19 5.63850E-19
 -1       818 9.53551E-05-2.86705E-05-2.85791E-05 2.53582E-07-2.16021E-19 1.21153E-18
 -1       819 9.53004E-05-2.85736E-05-2.85972E-05 2.51684E-07-3.92036E-19 1.40826E-18
 -1       820 9.52419E-05-2.84649E-05-2.86187E-05 2.77881E-07 1.05999E-19 7.17946E-19
 -1       821 9.51740E-05-2.83389E-05-2.86436E-05 3.36356E-07 4.83522E-19 2.92940E-19
 -1       822 9.50899E-05-2.81891E-05-2.86718E-05 4.32332E-07 9.52589E-19-2.33760E-19
 -1       823 9.49817E-05-2.80081E-05-2.87029E-05 5.72162E-07-2.26172E-19-1.34340E-18
 -1       824 9.48402E-05-2.77885E-05-2.87364E-05 7.63279E-07 2.20601E-19-1.60094E-18
 -1       825 9.46545E-05-2.75225E-05-2.87709E-05 1.01398E-06-3.39211E-19-1.16909E-18
 -1       826 9.44123E-05-2.72034E-05-2.88038E-05 1.33305E-06 3.95770E-19-1.92131E-18
 -1       827 9.40995E-05-2.68265E-05-2.88313E-05 1.72914E-06 6.57432E-19-1.78162E-18
 -1       828 9.37009E-05-2.63909E-05-2.88471E-05 2.21004E-06 3.64879E-19-1.40872E-18
 -1       829 9.32012E-05-2.59025E-05-2.88423E-05 2.78200E-06-3.88665E-19-4.46012E-19
 -1       830 9.25870E-05-2.53781E-05-2.88038E-05 3.44936E-06-1.25611E-18-3.93817E-20
 -1       831 9.18506E-05-2.48516E-05-2.87138E-05 4.21543E-06-1.57949E-18-6.26702E-19
 -1       832 9.09964E-05-2.43838E-05-2.85482E-05 5.08575E-06-7.60616E-20-1.53884E-18
 -1       833 9.00521E-05-2.40747E-05-2.82760E-05 6.07567E-06-4.03545E-19-1.50078E-18
 -1       834 8.90865E-05-2.40828E-05-2.78589E-05 7.22493E-06 9.93312E-19-4.11415E-19
 -1       835 8.82390E-05-2.46506E-05-2.72525E-05 8.62103E-06 1.51589E-19-1.57324E-19
 -1       836 8.77591E-05-2.61396E-05-2.64099E-05 1.04448E-05-1.62740E-19 2.40383E-19
 -1       837 8.81635E-05-2.91863E-05-2.52824E-05 1.30334E-05 5.29817E-19 1.47661E-18
 -1       838 9.02944E-05-3.45165E-05-2.38931E-05 1.66586E-05-2.03918E-19 3.62347E-18
 -1       839 1.37681E-04-6.30177E-05-3.19997E-05 9.49716E-06 6.40635E-19-4.95408E-19
 -1       840 9.57172E-05-2.90752E-05-2.85609E-05-7.47602E-07 2.69036E-19 1.19423E-19
 -1       841 9.59255E-05-2.90748E-05-2.86503E-05-9.24412E-07-8.59591E-20-1.87323E-19
 -1       842 9.56275E-05-2.90282E-05-2.85426E-05-6.38364E-07 1.24116E-19-9.17349E-20
 -1       843 9.55498E-05-2.89669E-05-2.85355E-05-5.32909E-07 1.24695E-19 1.06949E-19
 -1       844 9.54837E-05-2.88985E-05-2.85365E-05-4.38938E-07-1.25559E-20 2.02115E-19
 -1       845 9.54277E-05-2.88265E-05-2.85434E-05-3.61504E-07 4.78849E-19-3.26453E-20
 -1       846 9.53797E-05-2.87520E-05-2.85547E-05-3.04128E-07-6.90139E-21 1.85362E-19
 -1       847 9.53368E-05-2.86742E-05-2.85697E-05-2.69663E-07-5.94834E-19-2.58271E-19
 -1       848 9.52960E-05-2.85907E-05-2.85880E-05-2.60956E-07-3.85249E-19-9.47105E-20
 -1       849 9.52534E-05-2.84981E-05-2.86094E-05-2.81342E-07-9.73512E-20 6.48643E-19
 -1       850 9.52051E-05-2.83919E-05-2.86342E-05-3.35015E-07 1.09890E-19 3.34009E-19
 -1       851 9.51463E-05-2.82670E-05-2.86625E-05-4.27271E-07 1.14799E-19-6.01226E-20
 -1       852 9.50716E-05-2.81183E-05-2.86943E-05-5.64630E-07 3.61524E-19-5.69195E-19
 -1       853 9.49753E-05-2.79403E-05-2.87293E-05-7.54826E-07-2.06998E-19-5.73775E-19
 -1       854 9.48510E-05-2.77290E-05-2.87666E-05-1.00662E-06 6.26562E-19 1.80325E-19
 -1       855 9.46926E-05-2.74818E-05-2.88046E-05-1.32944E-06-4.53800E-19 3.90026E-20
 -1       856 9.44944E-05-2.72001E-05-2.88404E-05-1.73271E-06 1.86639E-19 1.57994E-18
 -1       857 9.42531E-05-2.68910E-05-2.88694E-05-2.22503E-06 8.28139E-19 2.45899E-19
 -1       858 9.39697E-05-2.65712E-05-2.88850E-05-2.81302E-06 2.49772E-19 9.76900E-19
 -1       859 9.36534E-05-2.62718E-05-2.88778E-05-3.50018E-06-8.43507E-19 7.34970E-19
 -1       860 9.33279E-05-2.60451E-05-2.88354E-05-4.28568E-06 4.25780E-19 6.85246E-20
 -1       861 9.30400E-05-2.59738E-05-2.87425E-05-5.16367E-06 6.27003E-19 1.46882E-19
 -1       862 9.28745E-05-2.61833E-05-2.85817E-05-6.12286E-06-1.88117E-19 9.73721E-20
 -1       863 9.29746E-05-2.68564E-05-2.83361E-05-7.14508E-06-3.68157E-19 2.57744E-19
 -1       864 9.35704E-05-2.82479E-05-2.79950E-05-8.19894E-06-8.15943E-19 1.13972E-18
 -1       865 9.50168E-05-3.06944E-05-2.75663E-05-9.22049E-06-1.74976E-18 3.96778E-20
 -1       866 9.78391E-05-3.46076E-05-2.71003E-05-1.00463E-05-1.73785E-18-1.00176E-18
 -1       867 1.02756E-04-4.03963E-05-2.67251E-05-1.02969E-05 5.28717E-19-1.57497E-18
 -1       868 1.10474E-04-4.80721E-05-2.67243E-05-9.03496E-06-1.24898E-18-1.57531E-18
 -1       869 1.21332E-04-5.67300E-05-2.76355E-05-4.48566E-06 1.55617E-20-1.50870E-18
 -1       870 9.17624E-05-3.92440E-05-2.23892E-05 2.03074E-05-2.04123E-19 3.84729E-18
 -1       871 9.61292E-05-2.87899E-05-2.88597E-05-8.85350E-07-1.06896E-19-9.33168E-20
 -1       872 7.52243E-05-3.19319E-05-1.84117E-05-2.31444E-05 2.46407E-19-1.95968E-18
 -1       873 1.23806E-04-6.23042E-05-2.63187E-05-1.17104E-05-4.50383E-20-1.11182E-18
 -1       874 9.31765E-05-1.97504E-05-3.14701E-05-1.18566E-06 5.10242E-20-1.10295E-18
 -1       875 9.61919E-05-2.84398E-05-2.90367E-05-6.86930E-07-1.26743E-19 1.36959E-19
 -1       876 9.60336E-05-2.89847E-05-2.87352E-05-9.48630E-07-6.04915E-20-9.23990E-20
 -1       877 6.61129E-05-2.33884E-05-1.82115E-05-1.47750E-05 1.00574E-18-1.44096E-18
 -1       878 7.04449E-05-2.38069E-05-1.99468E-05 1.34984E-05 1.05962E-18 2.07540E-19
 -1       879 9.54987E-05-2.49200E-05-3.02453E-05 1.71574E-06 5.37704E-19-2.46552E-19
 -1       880 9.46748E-05-2.26533E-05-3.08656E-05-1.81060E-06-1.80053E-19-6.93193E-19
 -1       881 1.09646E-04-5.17881E-05-2.46678E-05 1.54872E-05 1.60481E-18-5.75837E-18
 -1       882 9.59483E-05-2.62831E-05-2.98572E-05 8.68484E-07 2.92419E-19-2.87909E-19
 -1       883 9.61944E-05-2.78778E-05-2.92780E-05-2.91641E-07 4.83678E-20-1.67648E-19
 -1       884 9.46727E-05-2.26005E-05-3.08877E-05 1.20768E-06 4.18228E-19-8.05302E-19
 -1       885 6.18273E-05-1.89529E-05-1.82812E-05 5.38428E-07 1.15158E-18-1.33287E-18
 -1       886 8.73214E-05-3.95806E-05-2.03516E-05-2.46906E-05 2.47416E-19-3.25803E-18
 -1       887 9.45306E-05-2.22657E-05-3.09707E-05 4.20127E-07 3.72345E-19-7.92940E-19
 -1       888 9.45220E-05-2.22512E-05-3.09725E-05-4.10446E-07 2.18431E-19-1.03826E-18
 -1       889 9.64761E-05-2.89794E-05-2.89271E-05-7.22248E-07 2.58074E-20-4.77937E-19
 -1       890 9.60651E-05-2.59110E-05-3.00654E-05-6.25884E-07-9.23540E-20-8.73219E-19
 -1       891 9.64762E-05-2.72408E-05-2.96723E-05-5.45077E-08-7.05154E-20-7.09973E-19
 -1       892 9.66557E-05-2.81444E-05-2.93620E-05 3.17389E-07 2.14912E-19-7.62724E-19
 -1       893 9.66737E-05-2.87181E-05-2.91238E-05 5.31840E-07 4.60322E-20-2.83496E-19
 -1       894 9.65934E-05-2.90552E-05-2.89450E-05 6.30491E-07 3.17683E-20 1.12184E-19
 -1       895 9.64598E-05-2.92279E-05-2.88137E-05 6.49927E-07 3.19879E-19 2.29967E-19
 -1       896 9.63030E-05-2.92900E-05-2.87199E-05 6.19260E-07 4.41262E-20 6.46273E-20
 -1       897 9.61424E-05-2.92805E-05-2.86551E-05 5.60302E-07-1.67638E-19-3.65792E-19
 -1       898 9.59898E-05-2.92272E-05-2.86125E-05 4.88644E-07-2.14699E-19-5.16881E-19
 -1       899 9.58511E-05-2.91487E-05-2.85867E-05 4.15038E-07-2.26225E-19-7.74201E-20
 -1       900 9.57285E-05-2.90567E-05-2.85736E-05 3.46716E-07-4.85800E-19-1.25547E-19
 -1       901 9.56214E-05-2.89580E-05-2.85700E-05 2.88510E-07-6.16754E-19 1.39697E-21
 -1       902 9.55272E-05-2.88552E-05-2.85737E-05 2.43759E-07-2.12983E-19-2.83778E-19
 -1       903 9.54418E-05-2.87479E-05-2.85831E-05 2.15020E-07 8.47959E-20 2.59786E-19
 -1       904 9.53601E-05-2.86336E-05-2.85971E-05 2.04617E-07-1.61491E-20 3.66679E-19
 -1       905 9.52758E-05-2.85076E-05-2.86150E-05 2.15047E-07-5.06408E-19 5.50605E-19
 -1       906 9.51814E-05-2.83638E-05-2.86361E-05 2.49283E-07-2.84863E-20 6.22471E-19
 -1       907 9.50684E-05-2.81949E-05-2.86601E-05 3.10962E-07 2.67996E-19-1.15522E-19
 -1       908 9.49265E-05-2.79926E-05-2.86860E-05 4.04478E-07-3.34835E-19-4.85163E-19
 -1       909 9.47442E-05-2.77479E-05-2.87128E-05 5.34959E-07-9.99451E-20-3.19987E-19
 -1       910 9.45080E-05-2.74516E-05-2.87385E-05 7.08112E-07 6.54434E-19-7.72831E-19
 -1       911 9.42022E-05-2.70951E-05-2.87602E-05 9.29926E-07-3.98121E-20 6.87563E-20
 -1       912 9.38095E-05-2.66715E-05-2.87735E-05 1.20623E-06 8.26847E-19-6.42529E-19
 -1       913 9.33107E-05-2.61767E-05-2.87718E-05 1.54215E-06 5.38527E-19-9.65296E-19
 -1       914 9.26852E-05-2.56123E-05-2.87457E-05 1.94162E-06 6.40926E-19-3.18770E-19
 -1       915 9.19122E-05-2.49878E-05-2.86820E-05 2.40729E-06-1.07568E-18-7.79292E-20
 -1       916 9.09715E-05-2.43250E-05-2.85630E-05 2.94149E-06-1.32715E-18 8.26565E-20
 -1       917 8.98461E-05-2.36630E-05-2.83644E-05 3.54939E-06-9.80291E-19 9.60652E-19
 -1       918 8.85239E-05-2.30641E-05-2.80546E-05 4.24647E-06-2.75579E-19-9.60613E-20
 -1       919 8.70019E-05-2.26216E-05-2.75922E-05 5.07226E-06 4.42750E-19-5.31765E-19
 -1       920 8.52850E-05-2.24666E-05-2.69242E-05 6.11621E-06 3.27558E-19-1.53268E-18
 -1       921 8.33969E-05-2.27990E-05-2.59774E-05 7.57312E-06 7.84273E-19-1.55526E-18
 -1       922 8.14000E-05-2.38614E-05-2.46572E-05 9.72446E-06 2.23060E-18 9.96574E-19
 -1       923 9.60635E-05-2.92334E-05-2.86414E-05-6.55967E-07 3.39583E-19-6.09154E-19
 -1       924 9.62103E-05-2.92331E-05-2.87045E-05-7.21874E-07-6.60246E-20-2.81344E-19
 -1       925 9.56865E-05-2.90365E-05-2.85643E-05-4.07296E-07-2.83927E-19 1.30050E-19
 -1       926 9.55898E-05-2.89462E-05-2.85615E-05-3.37575E-07 6.13609E-19 2.54018E-19
 -1       927 9.55056E-05-2.88521E-05-2.85658E-05-2.82642E-07 3.04695E-19 3.54365E-19
 -1       928 9.54303E-05-2.87543E-05-2.85754E-05-2.45403E-07-3.06945E-19 2.21592E-19
 -1       929 9.53597E-05-2.86508E-05-2.85895E-05-2.28420E-07-3.08895E-19 5.24810E-20
 -1       930 9.52882E-05-2.85379E-05-2.86073E-05-2.34416E-07-4.27317E-19-9.02095E-20
 -1       931 9.52099E-05-2.84103E-05-2.86284E-05-2.66654E-07 1.03702E-19-4.90495E-19
 -1       932 9.51177E-05-2.82619E-05-2.86525E-05-3.29203E-07 2.33924E-19-3.31860E-19
 -1       933 9.50034E-05-2.80858E-05-2.86790E-05-4.27122E-07-2.09256E-19-5.71674E-19
 -1       934 9.48580E-05-2.78751E-05-2.87070E-05-5.66543E-07 4.78773E-19-9.55340E-20
 -1       935 9.46717E-05-2.76230E-05-2.87352E-05-7.54653E-07 1.24566E-19-1.06176E-18
 -1       936 9.44337E-05-2.73243E-05-2.87612E-05-9.99573E-07 3.30333E-19-1.17464E-18
 -1       937 9.41333E-05-2.69766E-05-2.87815E-05-1.31013E-06-2.86842E-19-1.38257E-18
 -1       938 9.37607E-05-2.65824E-05-2.87907E-05-1.69558E-06 2.31325E-19-6.23407E-19
 -1       939 9.33088E-05-2.61521E-05-2.87815E-05-2.16533E-06 2.23251E-20 3.06852E-19
 -1       940 9.27760E-05-2.57076E-05-2.87436E-05-2.72893E-06-3.57723E-19 3.25936E-20
 -1       941 9.21700E-05-2.52883E-05-2.86636E-05-3.39668E-06 2.36043E-19 1.83145E-20
 -1       942 9.15144E-05-2.49575E-05-2.85244E-05-4.18145E-06-3.76864E-19-1.51354E-19
 -1       943 9.08575E-05-2.48115E-05-2.83055E-05-5.10261E-06-1.93510E-19 7.98604E-19
 -1       944 9.02864E-05-2.49919E-05-2.79834E-05-6.19269E-06-1.29139E-19 9.68600E-19
 -1       945 8.99500E-05-2.57026E-05-2.75346E-05-7.50499E-06-6.85435E-19 7.44022E-19
 -1       946 9.00928E-05-2.72291E-05-2.69413E-05-9.11539E-06-2.72089E-19 1.47936E-19
 -1       947 9.10925E-05-2.99512E-05-2.62036E-05-1.11326E-05-1.69420E-19-1.14322E-18
 -1       948 9.37015E-05-3.44804E-05-2.53865E-05-1.35156E-05-5.62259E-20-2.43523E-18
 -1       949 9.89265E-05-4.15104E-05-2.45981E-05-1.61968E-05-4.68715E-20-2.24670E-18
 -1       950 1.09113E-04-5.13485E-05-2.47093E-05-1.64723E-05-5.47863E-19-2.20189E-18
 -1       951 9.59241E-05-2.91895E-05-2.86005E-05-5.73683E-07 4.92256E-19-2.46321E-19
 -1       952 9.45236E-05-2.22957E-05-3.09516E-05-1.11922E-06-4.96598E-20-7.27739E-19
 -1       953 7.06557E-05-2.01422E-05-2.16287E-05 4.62802E-06 2.03567E-18-3.31688E-18
 -1       954 9.65484E-05-2.86334E-05-2.91064E-05-5.95859E-07-4.13906E-20-5.92636E-19
 -1       955 7.78706E-05-2.85008E-05-2.10990E-05-1.72423E-05 1.04389E-18-2.11219E-18
 -1       956 9.63538E-05-2.91613E-05-2.87968E-05-7.52699E-07-4.61521E-20-3.00315E-19
 -1       957 9.51708E-05-2.37317E-05-3.06146E-05 1.65825E-06 5.27435E-19-4.95125E-19
 -1       958 6.92002E-05-2.05491E-05-2.08184E-05-7.01680E-06 3.27705E-18-9.16450E-19
 -1       959 9.57978E-05-2.91199E-05-2.85762E-05-4.87910E-07-1.60253E-19-9.61449E-20
 -1       960 7.81522E-05-2.42723E-05-2.30825E-05 1.13152E-05 1.80351E-18 1.57525E-18
 -1       961 9.65416E-05-2.80731E-05-2.93446E-05-3.25308E-07-9.20776E-20-5.08972E-19
 -1       962 9.57424E-05-2.49314E-05-3.03478E-05 7.83800E-07 3.71340E-19-3.98012E-19
 -1       963 9.56657E-05-2.46073E-05-3.04529E-05 3.74194E-07 2.89217E-19-7.84377E-19
 -1       964 8.59192E-05-3.37362E-05-2.23486E-05-1.87246E-05 4.99099E-19-2.30265E-18
 -1       965 9.63212E-05-2.69247E-05-2.97422E-05 2.52162E-07 9.75484E-20-3.62508E-19
 -1       966 7.77693E-05-2.43690E-05-2.28972E-05-1.14086E-05 2.96700E-18-7.33605E-19
 -1       967 9.66903E-05-2.91504E-05-2.89457E-05-5.16396E-07-1.93655E-19-5.10825E-19
 -1       968 7.53539E-05-2.06337E-05-2.34446E-05 4.96290E-06 2.75051E-18-3.95215E-18
 -1       969 9.67208E-05-2.75910E-05-2.96271E-05 6.55319E-08-9.27498E-20-6.83984E-19
 -1       970 9.68685E-05-2.84135E-05-2.93380E-05 2.59846E-07 2.31427E-19-8.85985E-19
 -1       971 9.68576E-05-2.89248E-05-2.91142E-05 3.66294E-07 3.17631E-19-7.10945E-19
 -1       972 9.67505E-05-2.92133E-05-2.89446E-05 4.08798E-07 2.90251E-19-4.35311E-19
 -1       973 9.65917E-05-2.93473E-05-2.88190E-05 4.08299E-07 2.35389E-19-4.13382E-19
 -1       974 9.64118E-05-2.93782E-05-2.87287E-05 3.81439E-07-8.66864E-20-3.17136E-19
 -1       975 9.62304E-05-2.93435E-05-2.86658E-05 3.40541E-07-2.01450E-19 4.86934E-19
 -1       976 9.60593E-05-2.92693E-05-2.86243E-05 2.94352E-07-7.18573E-19-3.24216E-19
 -1       977 9.59042E-05-2.91731E-05-2.85990E-05 2.48883E-07-3.86494E-20-5.98802E-19
 -1       978 9.57665E-05-2.90652E-05-2.85863E-05 2.08194E-07-5.89243E-19-7.01666E-19
 -1       979 9.56448E-05-2.89511E-05-2.85830E-05 1.75046E-07-6.25472E-19-6.57547E-19
 -1       980 9.55353E-05-2.88321E-05-2.85871E-05 1.51436E-07 1.40221E-19-3.46329E-19
 -1       981 9.54327E-05-2.87066E-05-2.85969E-05 1.39000E-07 2.00266E-19-5.88161E-19
 -1       982 9.53301E-05-2.85704E-05-2.86113E-05 1.39332E-07-4.95433E-19-9.24957E-19
 -1       983 9.52195E-05-2.84177E-05-2.86294E-05 1.54199E-07 1.76137E-19-1.85055E-19
 -1       984 9.50912E-05-2.82408E-05-2.86502E-05 1.85694E-07-5.14505E-19-4.71655E-19
 -1       985 9.49340E-05-2.80310E-05-2.86728E-05 2.36300E-07-1.70344E-19-5.24198E-19
 -1       986 9.47353E-05-2.77787E-05-2.86958E-05 3.08873E-07 5.96234E-19-6.36155E-19
 -1       987 9.44801E-05-2.74738E-05-2.87171E-05 4.06528E-07 2.95618E-19 2.59949E-19
 -1       988 9.41516E-05-2.71066E-05-2.87337E-05 5.32411E-07-2.36134E-19-4.47190E-19
 -1       989 9.37309E-05-2.66686E-05-2.87412E-05 6.89350E-07 3.97283E-20-9.69026E-19
 -1       990 9.31972E-05-2.61538E-05-2.87331E-05 8.79398E-07 4.07707E-19-9.86513E-19
 -1       991 9.25278E-05-2.55608E-05-2.87004E-05 1.10334E-06 1.27919E-18-1.72712E-18
 -1       992 9.16987E-05-2.48943E-05-2.86308E-05 1.36036E-06 2.97735E-19-1.72468E-18
 -1       993 9.06847E-05-2.41688E-05-2.85073E-05 1.64820E-06-8.90875E-19-6.78635E-19
 -1       994 8.94588E-05-2.34098E-05-2.83073E-05 1.96450E-06-5.00819E-19 1.51909E-19
 -1       995 8.79904E-05-2.26570E-05-2.80008E-05 2.31064E-06-1.07064E-18 9.81721E-19
 -1       996 8.62389E-05-2.19636E-05-2.75476E-05 2.70037E-06-3.44102E-19 1.19346E-18
 -1       997 8.41471E-05-2.13991E-05-2.68941E-05 3.17694E-06-6.79584E-19 9.78943E-20
 -1       998 8.16069E-05-2.10324E-05-2.59611E-05 3.81621E-06 2.35905E-20-1.81019E-18
 -1       999 7.88534E-05-2.07797E-05-2.48841E-05 4.29101E-06 2.93512E-18-2.87546E-18
 -1      1000 9.56373E-05-2.89555E-05-2.85779E-05-2.25780E-07 1.61118E-19 1.51661E-19
 -1      1001 9.57534E-05-2.90634E-05-2.85814E-05-2.70110E-07-2.14918E-19-6.33537E-19
 -1      1002 9.54382E-05-2.87253E-05-2.85912E-05-1.73879E-07-1.48669E-19 1.49819E-18
 -1      1003 9.53442E-05-2.85984E-05-2.86053E-05-1.70379E-07-1.14989E-19 5.35494E-19
 -1      1004 9.52448E-05-2.84574E-05-2.86232E-05-1.84749E-07 2.53893E-19 1.20926E-19
 -1      1005 9.51313E-05-2.82955E-05-2.86440E-05-2.19730E-07 4.81715E-19-2.87567E-19
 -1      1006 9.49941E-05-2.81049E-05-2.86668E-05-2.78744E-07 4.01875E-20-8.53950E-19
 -1      1007 9.48220E-05-2.78773E-05-2.86907E-05-3.66026E-07-1.10610E-18-9.61256E-19
 -1      1008 9.46028E-05-2.76042E-05-2.87137E-05-4.86709E-07-8.20893E-20 1.10073E-22
 -1      1009 9.43226E-05-2.72781E-05-2.87335E-05-6.46859E-07 4.27769E-19 5.00897E-19
 -1      1010 9.39671E-05-2.68932E-05-2.87460E-05-8.53501E-07 1.47641E-19-2.67157E-19
 -1      1011 9.35213E-05-2.64475E-05-2.87460E-05-1.11466E-06-6.80232E-19 1.99948E-19
 -1      1012 9.29713E-05-2.59449E-05-2.87258E-05-1.43954E-06-7.15352E-19 2.73604E-20
 -1      1013 9.23059E-05-2.53983E-05-2.86749E-05-1.83903E-06 1.97200E-19 3.69709E-19
 -1      1014 9.15184E-05-2.48335E-05-2.85795E-05-2.32680E-06-3.65167E-19-4.73182E-19
 -1      1015 9.06103E-05-2.42936E-05-2.84217E-05-2.92178E-06 1.33966E-19-5.91336E-19
 -1      1016 8.95948E-05-2.38447E-05-2.81789E-05-3.65265E-06-4.04739E-19-1.53689E-18
 -1      1017 8.85013E-05-2.35812E-05-2.78232E-05-4.56617E-06-6.75898E-19-1.11760E-18
 -1      1018 8.73819E-05-2.36338E-05-2.73210E-05-5.74282E-06-4.99875E-19 4.98043E-19
 -1      1019 8.63369E-05-2.41942E-05-2.66334E-05-7.31673E-06-1.03290E-20 1.91664E-19
 -1      1020 8.55201E-05-2.55198E-05-2.57174E-05-9.47863E-06 9.69047E-19 2.99339E-19
 -1      1021 9.56538E-05-2.45376E-05-3.04781E-05-1.02768E-07 2.10859E-19-7.09103E-19
 -1      1022 9.55338E-05-2.88432E-05-2.85817E-05-1.93011E-07-1.47648E-19 1.28823E-18
 -1      1023 9.64381E-05-2.66443E-05-2.99116E-05 2.01312E-07 2.34161E-19-5.11134E-19
 -1      1024 9.65418E-05-2.93004E-05-2.88177E-05-5.21820E-07-1.64151E-19-1.25669E-18
 -1      1025 9.67861E-05-2.88421E-05-2.91191E-05-4.53002E-07-2.96149E-20-5.21736E-19
 -1      1026 9.63712E-05-2.93442E-05-2.87258E-05-4.91106E-07 8.66111E-20-1.22281E-18
 -1      1027 9.61981E-05-2.93198E-05-2.86621E-05-4.40632E-07 1.34523E-19-6.74000E-19
 -1      1028 7.28534E-05-2.00538E-05-2.26184E-05-3.36710E-06 2.39900E-18-1.93881E-18
 -1      1029 9.63464E-05-2.63676E-05-2.99914E-05-2.51275E-07-7.61653E-20-5.94946E-19
 -1      1030 9.71885E-05-4.45688E-05-2.25969E-05 2.05166E-05 2.55283E-18-3.75151E-18
 -1      1031 9.54401E-05-2.41810E-05-3.05415E-05-7.55468E-07-5.61666E-20-6.23090E-19
 -1      1032 9.67962E-05-2.83181E-05-2.93467E-05-3.00575E-07 8.68167E-21-6.13408E-19
 -1      1033 9.58853E-05-2.91649E-05-2.85944E-05-3.23419E-07-4.51268E-19-4.09470E-19
 -1      1034 8.52891E-05-2.79372E-05-2.45790E-05-1.24749E-05 7.27945E-19 3.68851E-19
 -1      1035 9.60341E-05-2.92541E-05-2.86200E-05-3.82060E-07 1.34199E-19-3.62551E-19
 -1      1036 9.66170E-05-2.93949E-05-2.88095E-05-2.72000E-07 2.02533E-19-9.88111E-19
 -1      1037 9.66059E-05-2.69173E-05-2.98656E-05-4.05553E-08-2.16499E-21-2.54847E-19
 -1      1038 9.55218E-05-2.88054E-05-2.85928E-05-1.00430E-07-1.88682E-19-1.80597E-20
 -1      1039 9.69860E-05-2.86841E-05-2.92719E-05 1.22584E-07 3.26761E-19-5.27438E-19
 -1      1040 9.69321E-05-2.91071E-05-2.90676E-05 1.51461E-07 4.07127E-19-6.62620E-19
 -1      1041 9.67947E-05-2.93308E-05-2.89129E-05 1.59362E-07 2.37711E-19-7.55606E-19
 -1      1042 9.66151E-05-2.94178E-05-2.87987E-05 1.53907E-07 1.62538E-19-4.73862E-19
 -1      1043 9.64212E-05-2.94151E-05-2.87167E-05 1.40677E-07-1.12082E-19-4.50427E-19
 -1      1044 9.62306E-05-2.93566E-05-2.86602E-05 1.23743E-07-5.20677E-19-6.21315E-19
 -1      1045 9.60533E-05-2.92654E-05-2.86233E-05 1.05969E-07-2.41195E-19-7.83240E-20
 -1      1046 9.58934E-05-2.91562E-05-2.86016E-05 8.93218E-08-3.16478E-19-1.27062E-19
 -1      1047 9.57513E-05-2.90377E-05-2.85915E-05 7.51396E-08-6.18828E-19-3.79428E-19
 -1      1048 9.56241E-05-2.89132E-05-2.85903E-05 6.43605E-08-8.98968E-20-5.39102E-19
 -1      1049 9.55071E-05-2.87828E-05-2.85961E-05 5.77015E-08 2.29864E-19-7.65480E-19
 -1      1050 9.53936E-05-2.86433E-05-2.86073E-05 5.57923E-08-1.28356E-19-4.23454E-19
 -1      1051 9.52755E-05-2.84893E-05-2.86226E-05 5.92689E-08 2.04802E-19-1.00566E-19
 -1      1052 9.51431E-05-2.83138E-05-2.86411E-05 6.88276E-08-4.16215E-19-6.69661E-19
 -1      1053 9.49851E-05-2.81080E-05-2.86616E-05 8.52364E-08-4.78389E-19-4.09762E-19
 -1      1054 9.47887E-05-2.78622E-05-2.86827E-05 1.09298E-07-4.28621E-19-7.54229E-19
 -1      1055 9.45388E-05-2.75663E-05-2.87024E-05 1.41752E-07 2.84045E-19-1.38786E-18
 -1      1056 9.42188E-05-2.72101E-05-2.87179E-05 1.83102E-07 3.19730E-19-1.73706E-18
 -1      1057 9.38096E-05-2.67841E-05-2.87251E-05 2.33343E-07-2.13395E-19-1.03522E-18
 -1      1058 9.32905E-05-2.62813E-05-2.87181E-05 2.91589E-07 3.41132E-19-5.94129E-19
 -1      1059 9.26392E-05-2.56984E-05-2.86887E-05 3.55589E-07 5.19012E-19-4.80087E-19
 -1      1060 9.18318E-05-2.50378E-05-2.86258E-05 4.21161E-07-6.04101E-20-1.52985E-18
 -1      1061 9.08433E-05-2.43098E-05-2.85141E-05 4.81636E-07-9.87686E-20-1.80403E-18
 -1      1062 8.96467E-05-2.35345E-05-2.83335E-05 5.27439E-07-2.16473E-19-1.35070E-18
 -1      1063 8.82105E-05-2.27429E-05-2.80573E-05 5.46000E-07 7.96715E-19-4.72406E-19
 -1      1064 8.64921E-05-2.19752E-05-2.76499E-05 5.22032E-07-4.05787E-19 6.50687E-19
 -1      1065 8.44228E-05-2.12747E-05-2.70634E-05 4.37475E-07-5.00126E-19 5.36313E-19
 -1      1066 8.18636E-05-2.06734E-05-2.62264E-05 2.76834E-07-1.56095E-18 1.37938E-18
 -1      1067 9.57627E-05-2.90526E-05-2.85901E-05-1.35615E-07-5.86517E-19-4.51952E-19
 -1      1068 9.52995E-05-2.85240E-05-2.86181E-05-9.68115E-08 3.34943E-19-1.31667E-19
 -1      1069 9.54120E-05-2.86711E-05-2.86032E-05-9.40853E-08 4.66755E-19-1.56674E-19
 -1      1070 9.50295E-05-2.81639E-05-2.86567E-05-1.35486E-07 4.21552E-20 5.87122E-19
 -1      1071 9.48494E-05-2.79338E-05-2.86781E-05-1.75467E-07-4.83723E-19 1.27317E-18
 -1      1072 9.46215E-05-2.76577E-05-2.86988E-05-2.32823E-07-7.40993E-19 4.84806E-19
 -1      1073 9.43307E-05-2.73263E-05-2.87162E-05-3.11134E-07-1.68359E-19 5.99748E-19
 -1      1074 9.39601E-05-2.69313E-05-2.87267E-05-4.14848E-07 8.97445E-19 5.02339E-19
 -1      1075 9.34916E-05-2.64670E-05-2.87249E-05-5.49499E-07 7.03761E-19 2.70515E-19
 -1      1076 9.29066E-05-2.59320E-05-2.87035E-05-7.22053E-07-4.43977E-19-6.18985E-19
 -1      1077 9.21868E-05-2.53313E-05-2.86526E-05-9.41508E-07 7.40419E-20-1.63159E-18
 -1      1078 9.13152E-05-2.46792E-05-2.85586E-05-1.21995E-06 5.24920E-19-1.35737E-18
 -1      1079 9.02771E-05-2.40026E-05-2.84037E-05-1.57443E-06 4.41619E-20-1.73456E-18
 -1      1080 8.90607E-05-2.33432E-05-2.81651E-05-2.03016E-06 2.64341E-19-1.94836E-18
 -1      1081 8.76559E-05-2.27600E-05-2.78130E-05-2.62586E-06-2.76370E-19-3.25556E-18
 -1      1082 8.60506E-05-2.23290E-05-2.73096E-05-3.42214E-06-5.23093E-19-4.47432E-18
 -1      1083 8.42168E-05-2.21352E-05-2.66054E-05-4.51299E-06-9.15256E-19-3.96105E-18
 -1      1084 8.20246E-05-2.22484E-05-2.56291E-05-6.13099E-06-9.86313E-19-2.80292E-18
 -1      1085 9.64076E-05-2.63723E-05-3.00157E-05 7.62209E-08 3.45265E-19-5.84171E-19
 -1      1086 8.01196E-05-2.30172E-05-2.44637E-05-8.31332E-06 8.90288E-19 3.28179E-19
 -1      1087 9.51755E-05-2.83577E-05-2.86362E-05-1.10020E-07 1.61400E-19-5.64933E-19
 -1      1088 9.69014E-05-2.79868E-05-2.95346E-05 6.42216E-08-5.48701E-20-2.33527E-19
 -1      1089 9.64277E-05-2.94059E-05-2.87237E-05-2.51677E-07-1.33492E-19-1.51438E-18
 -1      1090 9.69143E-05-2.90372E-05-2.90902E-05-2.54071E-07-8.06797E-20-7.98875E-19
 -1      1091 9.67889E-05-2.92883E-05-2.89289E-05-2.76347E-07 1.35935E-19-9.05167E-19
 -1      1092 9.56367E-05-2.89317E-05-2.85879E-05-1.14655E-07-2.63542E-19 2.26974E-19
 -1      1093 9.59042E-05-2.91674E-05-2.86015E-05-1.61995E-07-6.09315E-19-1.03340E-18
 -1      1094 7.95447E-05-2.04194E-05-2.53181E-05-2.19787E-07-1.01349E-18 9.43910E-19
 -1      1095 9.69494E-05-2.85763E-05-2.93028E-05-1.88928E-07-1.69382E-19-6.88786E-19
 -1      1096 9.68292E-05-2.76761E-05-2.96379E-05-3.64591E-08 7.78289E-20-7.51868E-19
 -1      1097 7.64185E-05-2.01049E-05-2.41382E-05-1.54928E-06-4.36127E-20-1.72009E-18
 -1      1098 9.62396E-05-2.93568E-05-2.86641E-05-2.23187E-07 1.50857E-19-1.36556E-18
 -1      1099 9.60634E-05-2.92720E-05-2.86250E-05-1.92036E-07-2.13356E-19-9.94736E-19
 -1      1100 1.16860E-04 2.57587E-10-4.18573E-05-4.14632E-05-1.55854E-19 5.77613E-18
 -1      1101 8.86551E-05 7.19348E-11-3.72531E-05-2.41629E-05-9.30677E-20 9.85258E-19
 -1      1102 8.40798E-05 4.14422E-11-3.57683E-05-1.78730E-05-7.05684E-20-1.09757E-18
 -1      1103 8.23360E-05 3.20350E-11-3.50733E-05-1.38322E-05-4.65339E-20-2.11689E-18
 -1      1104 8.15328E-05 2.73321E-11-3.47382E-05-1.05275E-05-3.37490E-20-2.54159E-18
 -1      1105 8.11268E-05 2.45961E-11-3.45722E-05-7.63560E-06-1.55708E-20-2.73908E-18
 -1      1106 8.09164E-05 2.29386E-11-3.44884E-05-4.97627E-06-1.09750E-20-2.76883E-18
 -1      1107 8.08137E-05 2.20426E-11-3.44488E-05-2.43041E-06-2.23670E-21-2.72901E-18
 -1      1108 8.07844E-05 2.17718E-11-3.44377E-05 5.23685E-08 2.21188E-21-2.67957E-18
 -1      1109 8.08181E-05 2.20876E-11-3.44503E-05 2.53774E-06 1.67107E-20-2.58314E-18
 -1      1110 8.09252E-05 2.30392E-11-3.44913E-05 5.09203E-06 2.26945E-20-2.44636E-18
 -1      1111 8.11422E-05 2.47569E-11-3.45764E-05 7.76761E-06 3.61445E-20-2.17754E-18
 -1      1112 8.15530E-05 2.76332E-11-3.47444E-05 1.06871E-05 4.79632E-20-1.73662E-18
 -1      1113 8.23614E-05 3.25131E-11-3.50830E-05 1.40367E-05 5.98746E-20-1.00741E-18
 -1      1114 8.40783E-05 4.19201E-11-3.57877E-05 1.81255E-05 7.37448E-20 2.71739E-19
 -1      1115 8.83515E-05 6.67577E-11-3.73236E-05 2.40065E-05 7.47507E-20 2.72827E-18
 -1      1116 1.06624E-04 1.63943E-10-4.06367E-05 3.61898E-05 1.42302E-19 7.51519E-18
 -1      1117 1.30227E-04-2.57586E-05-4.02759E-05-2.61046E-05-6.87050E-19 8.85192E-18
 -1      1118 9.74672E-05-2.88657E-05-3.15808E-05-6.80114E-07-2.23431E-19 7.31773E-18
 -1      1119 9.01727E-05-2.70306E-05-2.78970E-05 3.87192E-07-8.70326E-20 4.99487E-18
 -1      1120 8.82651E-05-2.65772E-05-2.66484E-05 2.50993E-07-4.97003E-20 3.44149E-18
 -1      1121 8.79101E-05-2.64515E-05-2.63931E-05 1.65999E-07-4.84993E-20 2.30073E-18
 -1      1122 8.82729E-05-2.65292E-05-2.64792E-05 1.18201E-07-9.96777E-20 1.49528E-18
 -1      1123 8.89633E-05-2.67149E-05-2.66832E-05 8.76610E-08 2.47037E-21 9.16159E-19
 -1      1124 8.97824E-05-2.69481E-05-2.69270E-05 6.64987E-08-1.23519E-20 4.05689E-19
 -1      1125 9.06198E-05-2.71920E-05-2.71767E-05 5.08611E-08 1.23180E-20 2.03983E-19
 -1      1126 9.14133E-05-2.74258E-05-2.74139E-05 3.88408E-08-6.22908E-20-3.10186E-19
 -1      1127 9.21293E-05-2.76382E-05-2.76286E-05 2.94188E-08-5.87577E-20-1.22041E-18
 -1      1128 9.27528E-05-2.78238E-05-2.78161E-05 2.19843E-08-4.11061E-20-1.26029E-18
 -1      1129 9.32800E-05-2.79813E-05-2.79752E-05 1.61221E-08-6.40495E-20-1.79255E-18
 -1      1130 9.37147E-05-2.81115E-05-2.81066E-05 1.15207E-08 8.49060E-21-1.70464E-18
 -1      1131 9.40647E-05-2.82165E-05-2.82127E-05 7.93067E-09-6.41126E-20-1.28202E-18
 -1      1132 9.43401E-05-2.82994E-05-2.82964E-05 5.14612E-09-2.48589E-19-2.24913E-18
 -1      1133 9.45519E-05-2.83634E-05-2.83610E-05 2.99565E-09 1.15193E-19-2.73773E-18
 -1      1134 9.47113E-05-2.84116E-05-2.84098E-05 1.33806E-09 5.40506E-20-2.55520E-18
 -1      1135 9.48293E-05-2.84475E-05-2.84461E-05 6.01392E-11-8.01672E-20-3.12172E-18
 -1      1136 9.49166E-05-2.84742E-05-2.84732E-05-9.24356E-10 5.27620E-21-3.20286E-18
 -1      1137 9.49839E-05-2.84950E-05-2.84943E-05-1.67482E-09-1.90220E-19-3.45129E-18
 -1      1138 9.50422E-05-2.85131E-05-2.85127E-05-2.22291E-09-1.09274E-19-3.39473E-18
 -1      1139 9.51035E-05-2.85323E-05-2.85322E-05-2.57036E-09 2.00071E-19-3.04130E-18
 -1      1140 9.51815E-05-2.85566E-05-2.85568E-05-2.68507E-09-1.51906E-19-3.38459E-18
 -1      1141 9.52921E-05-2.85908E-05-2.85916E-05-2.49505E-09 2.32671E-19-3.38726E-18
 -1      1142 9.54549E-05-2.86409E-05-2.86424E-05-1.87944E-09-4.82505E-20-2.40541E-18
 -1      1143 9.56942E-05-2.87142E-05-2.87166E-05-6.55989E-10 3.23209E-19-1.59934E-18
 -1      1144 9.60398E-05-2.88196E-05-2.88234E-05 1.43604E-09-2.07644E-19-2.83355E-18
 -1      1145 9.65286E-05-2.89683E-05-2.89739E-05 4.75825E-09-4.70459E-20-3.35081E-18
 -1      1146 9.72058E-05-2.91736E-05-2.91818E-05 9.80094E-09 5.87079E-20-2.13120E-18
 -1      1147 9.81252E-05-2.94518E-05-2.94633E-05 1.72136E-08-2.05905E-19-1.93182E-18
 -1      1148 9.93494E-05-2.98213E-05-2.98371E-05 2.78290E-08 1.10866E-19-1.38049E-18
 -1      1149 1.00948E-04-3.03024E-05-3.03236E-05 4.26547E-08-1.19002E-19-3.13122E-18
 -1      1150 1.02989E-04-3.09153E-05-3.09425E-05 6.27718E-08 1.74672E-19-4.06937E-18
 -1      1151 1.05530E-04-3.16759E-05-3.17088E-05 8.90108E-08-3.50106E-19-4.50497E-18
 -1      1152 1.08589E-04-3.25880E-05-3.26234E-05 1.21149E-07 4.77238E-19-3.44917E-18
 -1      1153 1.12100E-04-3.36297E-05-3.36589E-05 1.56207E-07 1.62122E-19-2.99768E-18
 -1      1154 1.15834E-04-3.47305E-05-3.47346E-05 1.85278E-07 2.84927E-19-1.75844E-18
 -1      1155 1.19286E-04-3.57375E-05-3.56838E-05 1.88652E-07-1.32035E-20-7.76994E-19
 -1      1156 1.21542E-04-3.63768E-05-3.62205E-05 1.30722E-07 3.96428E-19 5.67552E-19
 -1      1157 1.21185E-04-3.62287E-05-3.59312E-05-3.88625E-08-4.91815E-19-1.25911E-18
 -1      1158 1.16434E-04-3.47711E-05-3.43450E-05-3.63781E-07-3.74753E-19-5.08966E-18
 -1      1159 1.05766E-04-3.15708E-05-3.11388E-05-8.24184E-07-4.82610E-20-3.94950E-18
 -1      1160 8.91984E-05-2.66645E-05-2.64772E-05-1.25855E-06-1.41593E-19-2.04580E-18
 -1      1161 6.97963E-05-2.09867E-05-2.13151E-05-1.35215E-06 4.15400E-19-2.48752E-18
 -1      1162 5.40019E-05-1.64209E-05-1.73459E-05-7.99349E-07 4.38670E-19-3.18273E-19
 -1      1163 4.93214E-05-1.51147E-05-1.63211E-05 4.00247E-07 1.21629E-20-1.19972E-18
 -1      1164 5.95263E-05-1.81168E-05-1.88867E-05 1.71917E-06 2.21565E-19-3.00104E-18
 -1      1165 7.99466E-05-2.41492E-05-2.34712E-05 2.31086E-06 7.10482E-20-4.25549E-18
 -1      1166 9.36514E-05-2.79965E-05-2.71118E-05 2.84941E-07 5.36344E-20-2.26835E-18
 -1      1167 1.31061E-04-3.77400E-05-3.86620E-05 1.21741E-05-1.62445E-19 1.14108E-17
 -1      1168 9.65676E-05-2.81933E-05-3.13327E-05 8.01653E-07 1.11438E-20 9.47237E-18
 -1      1169 9.03863E-05-2.69349E-05-2.78757E-05 1.19368E-07 1.19246E-20 7.45852E-18
 -1      1170 8.83532E-05-2.65053E-05-2.66829E-05 8.61440E-09 8.27511E-21 5.98725E-18
 -1      1171 8.79512E-05-2.64147E-05-2.64200E-05-2.49680E-08 3.40583E-20 5.09903E-18
 -1      1172 8.82937E-05-2.65112E-05-2.64954E-05-3.42441E-08-3.77608E-21 4.38512E-18
 -1      1173 8.89761E-05-2.67079E-05-2.66935E-05-3.56384E-08 5.05639E-20 3.91954E-18
 -1      1174 8.97907E-05-2.69468E-05-2.69345E-05-3.39035E-08-6.09506E-20 3.85563E-18
 -1      1175 9.06252E-05-2.71937E-05-2.71823E-05-3.08888E-08 4.85768E-20 3.13540E-18
 -1      1176 9.14168E-05-2.74289E-05-2.74182E-05-2.72875E-08 9.95044E-20 2.94077E-18
 -1      1177 9.21316E-05-2.76419E-05-2.76319E-05-2.34927E-08 1.79455E-19 2.55091E-18
 -1      1178 9.27542E-05-2.78277E-05-2.78186E-05-1.97705E-08-5.68516E-20 2.99482E-18
 -1      1179 9.32810E-05-2.79851E-05-2.79770E-05-1.62856E-08-1.54776E-20 2.90572E-18
 -1      1180 9.37153E-05-2.81149E-05-2.81080E-05-1.31266E-08 5.22535E-20 1.26868E-18
 -1      1181 9.40652E-05-2.82196E-05-2.82137E-05-1.03278E-08-1.27509E-19 1.01222E-18
 -1      1182 9.43405E-05-2.83021E-05-2.82972E-05-7.88454E-09-1.45561E-20 1.59250E-18
 -1      1183 9.45524E-05-2.83656E-05-2.83616E-05-5.76551E-09-4.64189E-20 1.26097E-18
 -1      1184 9.47120E-05-2.84135E-05-2.84102E-05-3.92186E-09 1.45688E-19 4.17375E-20
 -1      1185 9.48303E-05-2.84491E-05-2.84465E-05-2.29440E-09 2.66214E-20-1.31641E-18
 -1      1186 9.49180E-05-2.84756E-05-2.84736E-05-8.19218E-10-7.66615E-20-8.84196E-19
 -1      1187 9.49860E-05-2.84963E-05-2.84948E-05 5.67839E-10-1.36944E-19 9.66917E-19
 -1      1188 9.50454E-05-2.85145E-05-2.85135E-05 1.92715E-09 6.21914E-20 1.27706E-18
 -1      1189 9.51081E-05-2.85337E-05-2.85333E-05 3.31112E-09 1.82856E-19-5.16980E-19
 -1      1190 9.51877E-05-2.85582E-05-2.85585E-05 4.75896E-09 1.65437E-20-1.20133E-18
 -1      1191 9.53003E-05-2.85928E-05-2.85938E-05 6.28939E-09-1.48051E-19 4.04051E-19
 -1      1192 9.54651E-05-2.86431E-05-2.86451E-05 7.89014E-09 2.84928E-19 1.31926E-18
 -1      1193 9.57052E-05-2.87163E-05-2.87196E-05 9.50241E-09-6.88814E-20-3.08162E-19
 -1      1194 9.60491E-05-2.88207E-05-2.88258E-05 1.09982E-08-2.46690E-19 5.61197E-19
 -1      1195 9.65303E-05-2.89664E-05-2.89739E-05 1.21475E-08-1.21848E-19 1.38951E-18
 -1      1196 9.71881E-05-2.91652E-05-2.91757E-05 1.25723E-08-2.69826E-20 2.03937E-18
 -1      1197 9.80665E-05-2.94300E-05-2.94443E-05 1.16836E-08-6.24699E-20 1.46598E-18
 -1      1198 9.92119E-05-2.97743E-05-2.97932E-05 8.60165E-09 1.52214E-19 5.39381E-19
 -1      1199 1.00667E-04-3.02107E-05-3.02346E-05 2.06931E-09-1.96801E-19 8.03503E-19
 -1      1200 1.02463E-04-3.07473E-05-3.07764E-05-9.60709E-09-1.43429E-19 1.53379E-18
 -1      1201 1.04600E-04-3.13831E-05-3.14159E-05-2.84989E-08 5.72053E-20 3.12793E-19
 -1      1202 1.07021E-04-3.21000E-05-3.21323E-05-5.66841E-08 1.53509E-19-1.01537E-18
 -1      1203 1.09573E-04-3.28507E-05-3.28732E-05-9.52061E-08 4.11330E-19-3.43551E-19
 -1      1204 1.11951E-04-3.35434E-05-3.35395E-05-1.41847E-07 1.08258E-19-3.07248E-19
 -1      1205 1.13637E-04-3.40262E-05-3.39701E-05-1.87304E-07 1.48495E-19-1.04665E-18
 -1      1206 1.13871E-04-3.40778E-05-3.39379E-05-2.10355E-07 1.47387E-19-2.88918E-18
 -1      1207 1.11695E-04-3.34239E-05-3.31763E-05-1.75534E-07-5.81581E-19-8.66726E-19
 -1      1208 1.06187E-04-3.18037E-05-3.14603E-05-4.15740E-08 1.79147E-19 3.14037E-19
 -1      1209 9.69652E-05-2.91078E-05-2.87531E-05 2.10318E-07-1.38980E-19-3.09167E-20
 -1      1210 8.48909E-05-2.55753E-05-2.53794E-05 5.31775E-07 1.98176E-19-6.67885E-19
 -1      1211 7.26059E-05-2.19489E-05-2.21180E-05 7.79717E-07 4.59509E-19-2.78049E-18
 -1      1212 6.42392E-05-1.94091E-05-2.00514E-05 7.51487E-07 1.81199E-19-3.73671E-18
 -1      1213 6.38122E-05-1.91407E-05-2.00968E-05 3.00008E-07 3.94744E-19-3.66194E-18
 -1      1214 7.25344E-05-2.15594E-05-2.23492E-05-5.08526E-07-1.32978E-19-2.98240E-18
 -1      1215 8.63117E-05-2.55041E-05-2.56240E-05-1.22006E-06-1.61849E-19-1.23709E-18
 -1      1216 9.47723E-05-2.84945E-05-2.80222E-05-1.15021E-07 3.03688E-19 2.17105E-19
 -1      1217 9.51666E-05-2.92827E-05-2.76764E-05-2.99094E-07 9.06590E-19-7.69000E-19
 -1      1218 9.85976E-05-3.98179E-05-2.40683E-05-1.22132E-06 1.33005E-18 2.99512E-19
 -1      1219 1.04997E-04-6.14181E-05-1.77797E-05-2.11753E-06 3.13063E-18 6.65649E-19
 -1      1220 1.13826E-04-9.10809E-05-9.58266E-06-3.30589E-06-4.09117E-19-1.03618E-18
 -1      1221 1.23850E-04-1.23709E-04-2.51903E-06-4.20950E-06-2.13622E-18-7.62330E-19
 -1      1222 1.29914E-04-1.42138E-04-1.89426E-06-1.93902E-06-2.76239E-18 6.11770E-19
 -1      1223 1.22551E-04-1.20222E-04-1.12122E-05 5.98737E-06-1.79232E-18-6.19922E-19
 -1      1224 9.61611E-05-4.19082E-05-2.98085E-05 1.51512E-05-6.13421E-18-4.32596E-19
 -1      1225 5.55544E-05 8.58724E-05-5.22488E-05 1.70877E-05-1.09674E-17 2.96462E-20
 -1      1226 1.24750E-05 2.17575E-04-7.01043E-05 1.17608E-05-1.12571E-17-2.94979E-19
 -1      1227-8.75433E-07 2.59238E-04-7.52380E-05-2.78760E-06-1.07455E-17 4.78574E-20
 -1      1228 2.73227E-05 1.68994E-04-6.34624E-05-1.34174E-05-6.67970E-18 5.34266E-19
 -1      1229 7.87165E-05 1.94022E-05-4.15554E-05-1.24534E-05-2.65460E-18 1.74542E-19
 -1      1230 1.16354E-04-9.40562E-05-1.87226E-05-5.86376E-06-1.06455E-17-1.10228E-18
 -1      1231 1.30073E-04-1.36451E-04-4.47354E-06-6.08614E-07-2.84412E-18 4.66239E-19
 -1      1232 1.22733E-04-1.16987E-04-4.68041E-06 1.60984E-06-2.60463E-19-4.97407E-19
 -1      1233 1.10914E-04-7.98791E-05-1.27930E-05 2.41112E-06 4.70103E-20-3.77797E-19
 -1      1234 1.01283E-04-4.77149E-05-2.12065E-05 3.11128E-06 9.56300E-19 1.88653E-18
 -1      1235 9.53743E-05-3.08028E-05-2.66017E-05 1.10498E-06 3.41672E-18-2.84226E-19
 -1      1236 7.89414E-05-2.17903E-04 1.07211E-05-2.07937E-05 1.01237E-17 2.73062E-18
 -1      1237 3.53258E-05-7.77831E-05-7.55621E-06-1.04594E-05 1.09504E-17 2.53940E-18
 -1      1238 2.60693E-05 6.05985E-05-3.67850E-05 7.84925E-05-2.75116E-18-1.65849E-18
 -1      1239 9.91640E-05 9.37548E-05-6.73443E-05 1.81654E-04-4.41643E-18-4.28429E-18
 -1      1240 2.22575E-04 3.48739E-05-9.09758E-05 2.22090E-04-5.34817E-18-7.48269E-18
 -1      1241 3.39058E-04-5.20050E-05-1.04438E-04 1.84481E-04-3.51815E-18-6.71655E-18
 -1      1242 4.01616E-04-1.10983E-04-1.07516E-04 8.77498E-05-7.00920E-19-2.91845E-18
 -1      1243 3.83224E-04-1.14032E-04-1.00442E-04-2.41559E-05 7.96105E-19-6.85504E-18
 -1      1244 2.89174E-04-6.60465E-05-8.41828E-05-1.02230E-04 3.60582E-18-1.15332E-17
 -1      1245 1.69629E-04-8.69020E-06-6.23896E-05-1.18389E-04 6.31802E-18-1.08725E-17
 -1      1246 6.65784E-05 2.10323E-05-3.70674E-05-7.59145E-05 5.32784E-18-6.89485E-18
 -1      1247 1.29591E-05 6.91954E-07-1.13679E-05-1.13403E-05 2.33103E-18-2.85450E-18
 -1      1248 1.34266E-05-6.08621E-05 9.45849E-06 3.08652E-05 1.17229E-18-4.74338E-19
 -1      1249 3.50881E-05-1.22027E-04 2.32483E-05 2.99596E-05-1.78300E-18-9.03149E-20
 -1      1250 4.81788E-05-1.48930E-04 2.79089E-05-1.16004E-06 2.24146E-18 4.98108E-19
 -1      1251 3.53355E-05-1.22585E-04 2.32461E-05-3.25849E-05 5.18215E-18 4.71162E-19
 -1      1252 1.28856E-05-6.16328E-05 9.73551E-06-3.26553E-05-1.38913E-18-1.63731E-18
 -1      1253 1.06468E-05-1.70925E-06-1.02853E-05 7.20412E-06-3.29665E-18-3.40507E-18
 -1      1254 5.38560E-05 2.30377E-05-3.37168E-05 6.77836E-05 7.79270E-20 7.65718E-19
 -1      1255 1.51553E-04-1.08792E-06-5.91292E-05 1.15896E-04 2.20144E-18 4.11997E-18
 -1      1256 2.79370E-04-6.03863E-05-8.25246E-05 1.11339E-04-6.14099E-19-2.07862E-18
 -1      1257 3.77750E-04-1.09929E-04-9.94428E-05 4.14262E-05-1.28325E-19-3.55246E-18
 -1      1258 4.10440E-04-1.18051E-04-1.07782E-04-6.82555E-05-9.11619E-20-4.17630E-18
 -1      1259 3.52513E-04-6.26700E-05-1.05547E-04-1.73138E-04 1.49025E-18-2.35094E-18
 -1      1260 2.30833E-04 2.70177E-05-9.16327E-05-2.18746E-04 2.45555E-18-2.15316E-18
 -1      1261 1.03219E-04 9.04119E-05-6.80266E-05-1.82176E-04 2.42251E-18-3.77946E-18
 -1      1262 2.63399E-05 6.54508E-05-3.83971E-05-8.36785E-05-3.00188E-18 6.60686E-20
 -1      1263 3.36252E-05-7.34708E-05-7.95378E-06 1.05044E-05-5.48877E-19 1.27309E-18
 -1      1264 8.07627E-05-2.21170E-04 1.09928E-05 2.20377E-05 3.30851E-18 1.45054E-20
 -1      1265 1.04451E-04-2.20215E-05-3.78945E-05-1.72732E-05-2.43945E-19 4.77515E-18
 -1      1266 9.03247E-05-6.68280E-06-3.60189E-05-2.04665E-05-7.31731E-19-9.31736E-21
 -1      1267 9.26627E-05-6.74192E-06-3.72241E-05-2.57555E-05-9.20090E-19 1.07838E-18
 -1      1268 8.59031E-05-4.09353E-06-3.51310E-05-1.64276E-05-7.31757E-19-1.55523E-18
 -1      1269 8.71582E-05-4.08884E-06-3.56010E-05-1.88474E-05-8.27604E-19-8.86102E-19
 -1      1270 9.21388E-05-1.04646E-05-3.50951E-05-1.90277E-05-1.27992E-18-7.67624E-21
 -1      1271 8.41004E-05-3.19217E-06-3.46870E-05-1.28142E-05-5.79013E-19-2.29472E-18
 -1      1272 8.47083E-05-3.16102E-06-3.49116E-05-1.46301E-05-6.52639E-19-1.93828E-18
 -1      1273 8.78694E-05-7.39179E-06-3.45748E-05-1.54122E-05-1.14103E-18-1.23783E-18
 -1      1274 8.31837E-05-2.72711E-06-3.44691E-05-9.68073E-06-3.98238E-19-2.66061E-18
 -1      1275 8.35009E-05-2.71066E-06-3.45791E-05-1.12279E-05-4.75119E-19-2.49593E-18
 -1      1276 8.58682E-05-5.98489E-06-3.43047E-05-1.19514E-05-8.62088E-19-1.89465E-18
 -1      1277 8.26886E-05-2.45599E-06-3.43622E-05-6.91129E-06-2.52158E-19-2.77082E-18
 -1      1278 8.28591E-05-2.44752E-06-3.44169E-05-8.28160E-06-3.26988E-19-2.70386E-18
 -1      1279 8.48167E-05-5.21492E-06-3.41718E-05-8.93936E-06-6.14420E-19-2.18312E-18
 -1      1280 8.24117E-05-2.29040E-06-3.43088E-05-4.29251E-06-1.23147E-19-2.78159E-18
 -1      1281 8.25034E-05-2.28645E-06-3.43363E-05-5.59313E-06-1.67908E-19-2.80652E-18
 -1      1282 8.42286E-05-4.75917E-06-3.41078E-05-6.21362E-06-3.49105E-19-2.33363E-18
 -1      1283 8.22782E-05-2.20085E-06-3.42861E-05-1.78897E-06 5.88502E-20-2.75480E-18
 -1      1284 8.23176E-05-2.19927E-06-3.42973E-05-3.03931E-06 2.40875E-21-2.75470E-18
 -1      1285 8.39046E-05-4.49518E-06-3.40783E-05-3.64273E-06-9.74369E-20-2.27524E-18
 -1      1286 8.22521E-05-2.17329E-06-3.42834E-05 6.69326E-07 1.79867E-19-2.67436E-18
 -1      1287 8.22506E-05-2.17333E-06-3.42830E-05-5.65829E-07 1.31363E-19-2.72737E-18
 -1      1288 8.37624E-05-4.37530E-06-3.40672E-05-1.16997E-06 1.64453E-19-2.26710E-18
 -1      1289 8.23263E-05-2.20368E-06-3.42988E-05 3.14654E-06 3.33791E-19-2.56819E-18
 -1      1290 8.22841E-05-2.20531E-06-3.42869E-05 1.89355E-06 2.58787E-19-2.62980E-18
 -1      1291 8.37675E-05-4.37959E-06-3.40676E-05 1.27286E-06 3.47818E-19-2.18263E-18
 -1      1292 8.25206E-05-2.29683E-06-3.43389E-05 5.70965E-06 4.31573E-19-2.42741E-18
 -1      1293 8.24254E-05-2.30023E-06-3.43107E-05 4.40307E-06 4.06918E-19-2.53393E-18
 -1      1294 8.39203E-05-4.50883E-06-3.40794E-05 3.75005E-06 6.16538E-19-2.09544E-18
 -1      1295 8.28818E-05-2.46267E-06-3.44197E-05 8.39032E-06 5.74752E-19-2.12690E-18
 -1      1296 8.27081E-05-2.47141E-06-3.43644E-05 7.01106E-06 5.12111E-19-2.29766E-18
 -1      1297 8.42541E-05-4.78230E-06-3.41089E-05 6.30750E-06 7.83486E-19-1.92827E-18
 -1      1298 8.35428E-05-2.74025E-06-3.45840E-05 1.13894E-05 7.53409E-19-1.63186E-18
 -1      1299 8.32198E-05-2.75732E-06-3.44728E-05 9.82489E-06 6.58992E-19-1.92274E-18
 -1      1300 8.48588E-05-5.25582E-06-3.41727E-05 9.04958E-06 1.00920E-18-1.57548E-18
 -1      1301 8.47710E-05-3.20607E-06-3.49194E-05 1.48378E-05 9.10269E-19-8.47668E-19
 -1      1302 8.41549E-05-3.24080E-06-3.46922E-05 1.29969E-05 8.27247E-19-1.32783E-18
 -1      1303 8.59458E-05-6.06225E-06-3.43062E-05 1.21158E-05 1.27692E-18-1.08754E-18
 -1      1304 8.72568E-05-4.08963E-06-3.56217E-05 1.90886E-05 1.00665E-18 6.00308E-19
 -1      1305 8.59767E-05-4.15486E-06-3.51381E-05 1.66915E-05 9.07119E-19-2.46063E-19
 -1      1306 8.79930E-05-7.51989E-06-3.45759E-05 1.56470E-05 1.45586E-18-1.24064E-19
 -1      1307 9.34751E-05-6.79494E-06-3.71204E-05 2.50918E-05 8.25539E-19 3.14037E-18
 -1      1308 9.01387E-05-6.43800E-06-3.60418E-05 2.11433E-05 8.28345E-19 1.56606E-18
 -1      1309 9.23620E-05-1.06969E-05-3.50804E-05 1.96742E-05 1.51907E-18 1.44149E-18
 -1      1310 1.23636E-04-2.49259E-05-3.90186E-05 2.83651E-05 3.38178E-19 7.80456E-18
 -1      1311 1.00091E-04-1.44260E-05-3.73580E-05 2.40476E-05 3.96200E-19 4.60024E-18
 -1      1312 1.01695E-04-1.93475E-05-3.54066E-05 2.13965E-05 1.30045E-18 3.71255E-18
 -1      1313 1.02616E-04-2.78085E-05-3.47618E-05 7.32677E-06 6.34004E-19 7.60847E-18
 -1      1314 1.05160E-04-3.02348E-05-3.35290E-05-7.95802E-06-7.31836E-19 5.02036E-18
 -1      1315 9.82752E-05-2.78474E-05-3.07662E-05-4.98719E-06-7.26913E-19 4.12579E-18
 -1      1316 9.55179E-05-2.78535E-05-2.92591E-05-2.48786E-06-5.62906E-19 3.77968E-18
 -1      1317 9.32876E-05-2.75633E-05-2.82203E-05-2.04105E-06-5.16955E-19 2.94895E-18
 -1      1318 9.94984E-05-2.80557E-05-3.09868E-05-7.88411E-06-1.22259E-18 2.18781E-18
 -1      1319 9.15995E-05-2.72059E-05-2.75864E-05-8.35983E-07-4.90419E-19 2.68478E-18
 -1      1320 9.08850E-05-2.71113E-05-2.72847E-05-7.25794E-07-5.30031E-19 1.98031E-18
 -1      1321 9.47342E-05-2.77747E-05-2.88211E-05-3.11651E-06-9.72685E-19 1.60807E-18
 -1      1322 9.01365E-05-2.69289E-05-2.70421E-05-1.71575E-07-3.52419E-19 1.61624E-18
 -1      1323 9.00663E-05-2.69564E-05-2.70079E-05-1.13487E-07-3.09074E-19 1.13398E-18
 -1      1324 9.25380E-05-2.75052E-05-2.79012E-05-1.04884E-06-8.15679E-19 9.64612E-19
 -1      1325 8.98087E-05-2.68895E-05-2.69344E-05 1.56899E-07-2.22695E-19 1.00694E-18
 -1      1326 9.00257E-05-2.69803E-05-2.69967E-05 1.85624E-07-2.08742E-19 7.39672E-19
 -1      1327 9.15829E-05-2.73625E-05-2.75354E-05-6.52839E-08-4.86022E-19 3.79762E-19
 -1      1328 9.00316E-05-2.69840E-05-2.70039E-05 3.16870E-07-1.49304E-19 6.50329E-19
 -1      1329 9.03765E-05-2.71045E-05-2.71037E-05 3.28634E-07-1.11825E-19 4.07840E-19
 -1      1330 9.13336E-05-2.73516E-05-2.74287E-05 4.22334E-07-4.10033E-19 3.83716E-19
 -1      1331 9.05206E-05-2.71468E-05-2.71516E-05 3.83268E-07-1.39847E-19 3.86684E-19
 -1      1332 9.09110E-05-2.72759E-05-2.72643E-05 3.84969E-07-1.63692E-19 1.74442E-19
 -1      1333 9.14704E-05-2.74265E-05-2.74521E-05 6.50820E-07-2.12855E-19 2.98081E-19
 -1      1334 9.11211E-05-2.73368E-05-2.73314E-05 3.95493E-07-1.15119E-19 2.03506E-19
 -1      1335 9.15110E-05-2.74623E-05-2.74444E-05 3.91290E-07-2.30188E-19 1.01247E-21
 -1      1336 9.18070E-05-2.75466E-05-2.75421E-05 7.33289E-07-3.09174E-19 2.59009E-19
 -1      1337 9.17442E-05-2.75296E-05-2.75179E-05 3.76500E-07-2.22467E-19-1.77086E-19
 -1      1338 9.21082E-05-2.76447E-05-2.76238E-05 3.69058E-07-2.29919E-19-4.75090E-19
 -1      1339 9.22324E-05-2.76849E-05-2.76632E-05 7.31307E-07-3.20953E-19-2.27704E-19
 -1      1340 9.23389E-05-2.77111E-05-2.76962E-05 3.40561E-07-2.55699E-19-3.83742E-19
 -1      1341 9.26638E-05-2.78126E-05-2.77910E-05 3.31622E-07-1.98931E-19-6.87493E-19
 -1      1342 9.26799E-05-2.78245E-05-2.77939E-05 6.81570E-07-3.46266E-19-1.51908E-19
 -1      1343 9.28776E-05-2.78740E-05-2.78580E-05 2.96798E-07-1.45542E-19-1.04343E-18
 -1      1344 9.31578E-05-2.79608E-05-2.79401E-05 2.87491E-07-1.57887E-19-1.20696E-18
 -1      1345 9.31101E-05-2.79555E-05-2.79214E-05 6.07092E-07-3.76489E-19-5.30688E-19
 -1      1346 9.33473E-05-2.80150E-05-2.79993E-05 2.51036E-07-6.73782E-20-1.30545E-18
 -1      1347 9.35823E-05-2.80873E-05-2.80683E-05 2.42068E-07-1.29179E-19-1.49845E-18
 -1      1348 9.35011E-05-2.80726E-05-2.80385E-05 5.22560E-07-2.02214E-19-1.09841E-18
 -1      1349 9.37446E-05-2.81337E-05-2.81190E-05 2.06896E-07 3.08745E-21-1.19750E-18
 -1      1350 9.39368E-05-2.81923E-05-2.81756E-05 1.98682E-07 3.46034E-20-9.95816E-19
 -1      1351 9.38428E-05-2.81736E-05-2.81416E-05 4.37254E-07 1.04189E-19-1.03651E-18
 -1      1352 9.40720E-05-2.82309E-05-2.82178E-05 1.66510E-07 1.93442E-20-1.20140E-18
 -1      1353 9.42257E-05-2.82774E-05-2.82632E-05 1.59270E-07-2.74411E-19-1.30393E-18
 -1      1354 9.41320E-05-2.82582E-05-2.82294E-05 3.56845E-07-7.63066E-20-8.11058E-19
 -1      1355 9.43356E-05-2.83088E-05-2.82974E-05 1.31020E-07-4.50410E-19-1.13660E-18
 -1      1356 9.44556E-05-2.83449E-05-2.83330E-05 1.24847E-07-3.84105E-19-1.61881E-18
 -1      1357 9.43706E-05-2.83273E-05-2.83023E-05 2.84580E-07-5.26059E-19-8.07330E-19
 -1      1358 9.45432E-05-2.83698E-05-2.83603E-05 1.00940E-07-2.28896E-19-1.90100E-18
 -1      1359 9.46350E-05-2.83971E-05-2.83876E-05 9.58500E-08-1.10959E-19-2.07089E-18
 -1      1360 9.45630E-05-2.83824E-05-2.83615E-05 2.22131E-07-5.37886E-19-7.39712E-19
 -1      1361 9.47038E-05-2.84166E-05-2.84090E-05 7.64236E-08 1.85589E-19-2.50855E-18
 -1      1362 9.47727E-05-2.84369E-05-2.84295E-05 7.23985E-08 8.06394E-20-2.33040E-18
 -1      1363 9.47156E-05-2.84256E-05-2.84086E-05 1.70211E-07-7.49599E-20-1.63978E-18
 -1      1364 9.48264E-05-2.84521E-05-2.84463E-05 5.74685E-08-1.24076E-19-2.45723E-18
 -1      1365 9.48777E-05-2.84670E-05-2.84617E-05 5.44857E-08-2.56651E-19-2.59220E-18
 -1      1366 9.48352E-05-2.84590E-05-2.84459E-05 1.29035E-07-1.08209E-19-2.20620E-18
 -1      1367 9.49205E-05-2.84790E-05-2.84750E-05 4.40750E-08-6.55748E-20-2.86546E-18
 -1      1368 9.49595E-05-2.84901E-05-2.84868E-05 4.21304E-08-2.36244E-19-2.84183E-18
 -1      1369 9.49297E-05-2.84848E-05-2.84756E-05 9.86742E-08-4.52392E-19-2.25228E-18
 -1      1370 9.49955E-05-2.85002E-05-2.84980E-05 3.63682E-08-1.93330E-19-2.84133E-18
 -1      1371 9.50275E-05-2.85090E-05-2.85077E-05 3.54961E-08-2.52675E-19-3.06053E-18
 -1      1372 9.50069E-05-2.85055E-05-2.85002E-05 7.93281E-08-1.09739E-19-2.44647E-18
 -1      1373 9.50613E-05-2.85184E-05-2.85182E-05 3.46993E-08-1.56536E-19-2.70148E-18
 -1      1374 9.50920E-05-2.85267E-05-2.85277E-05 3.49886E-08 1.18102E-19-2.56558E-18
 -1      1375 9.50755E-05-2.85234E-05-2.85223E-05 7.15456E-08-4.45640E-20-2.12454E-18
 -1      1376 9.51287E-05-2.85369E-05-2.85391E-05 3.97307E-08 3.46402E-19-2.87920E-18
 -1      1377 9.51644E-05-2.85466E-05-2.85500E-05 4.13395E-08 1.13942E-19-2.56308E-18
 -1      1378 9.51448E-05-2.85413E-05-2.85448E-05 7.64054E-08 2.15699E-20-2.02200E-18
 -1      1379 9.52096E-05-2.85592E-05-2.85641E-05 5.25124E-08 6.07323E-20-2.36527E-18
 -1      1380 9.52577E-05-2.85724E-05-2.85788E-05 5.56817E-08 2.51337E-19-2.25635E-18
 -1      1381 9.52254E-05-2.85620E-05-2.85709E-05 9.56735E-08 2.98734E-19-1.72242E-18
 -1      1382 9.53183E-05-2.85894E-05-2.85976E-05 7.45506E-08 6.68541E-19-2.16981E-18
 -1      1383 9.53875E-05-2.86088E-05-2.86187E-05 7.96169E-08 5.49685E-19-1.39232E-18
 -1      1384 9.53294E-05-2.85891E-05-2.86045E-05 1.31942E-07 6.19180E-19-6.34831E-19
 -1      1385 9.54717E-05-2.86324E-05-2.86448E-05 1.07869E-07 1.37813E-19-1.51666E-18
 -1      1386 9.55729E-05-2.86611E-05-2.86754E-05 1.15276E-07 1.36311E-20-1.19052E-18
 -1      1387 9.54714E-05-2.86267E-05-2.86499E-05 1.88754E-07 5.16508E-19-4.07169E-19
 -1      1388 9.56903E-05-2.86942E-05-2.87120E-05 1.55054E-07-9.80374E-21-1.23583E-18
 -1      1389 9.58367E-05-2.87364E-05-2.87560E-05 1.65363E-07 1.48421E-20-1.55980E-18
 -1      1390 9.56689E-05-2.86797E-05-2.87127E-05 2.70698E-07-1.76730E-19 1.42057E-19
 -1      1391 9.59993E-05-2.87822E-05-2.88066E-05 2.19279E-07-2.55438E-19-1.82354E-18
 -1      1392 9.62074E-05-2.88427E-05-2.88690E-05 2.33171E-07-6.54572E-19-2.22128E-18
 -1      1393 9.59428E-05-2.87541E-05-2.87992E-05 3.83466E-07-5.39196E-19-1.46268E-18
 -1      1394 9.64293E-05-2.89054E-05-2.89381E-05 3.04265E-07-2.19823E-21-2.53036E-18
 -1      1395 9.67191E-05-2.89905E-05-2.90247E-05 3.22533E-07 2.43274E-19-2.32250E-18
 -1      1396 9.63186E-05-2.88574E-05-2.89172E-05 5.33817E-07-3.87690E-19-1.81818E-18
 -1      1397 9.70170E-05-2.90747E-05-2.91176E-05 4.14143E-07 2.00657E-19-1.81551E-18
 -1      1398 9.74128E-05-2.91917E-05-2.92356E-05 4.37660E-07 2.82762E-19-1.36397E-18
 -1      1399 9.68262E-05-2.89981E-05-2.90759E-05 7.29368E-07 2.47453E-19-1.29921E-18
 -1      1400 9.78059E-05-2.93031E-05-2.93582E-05 5.53114E-07-1.57168E-19-1.37479E-18
 -1      1401 9.83359E-05-2.94609E-05-2.95158E-05 5.82750E-07-3.15636E-20-1.05455E-18
 -1      1402 9.75006E-05-2.91869E-05-2.92857E-05 9.78075E-07 1.47600E-19-1.07256E-18
 -1      1403 9.88451E-05-2.96055E-05-2.96746E-05 7.24732E-07 7.88154E-20-1.18433E-18
 -1      1404 9.95411E-05-2.98141E-05-2.98811E-05 7.61192E-07 2.88934E-20-1.16247E-18
 -1      1405 9.83808E-05-2.94355E-05-2.95582E-05 1.28712E-06-1.43900E-19-9.36913E-19
 -1      1406 1.00188E-04-2.99984E-05-3.00829E-05 9.30539E-07-4.27303E-19-1.79671E-18
 -1      1407 1.01083E-04-3.02689E-05-3.03479E-05 9.74027E-07-6.76966E-19-2.75418E-18
 -1      1408 9.95084E-05-2.97575E-05-2.99055E-05 1.66073E-06-6.90666E-19-9.93433E-19
 -1      1409 1.01887E-04-3.04990E-05-3.05984E-05 1.16753E-06-4.74666E-19-2.72027E-18
 -1      1410 1.03012E-04-3.08417E-05-3.09301E-05 1.21713E-06-2.20832E-19-3.48343E-18
 -1      1411 1.00924E-04-3.01669E-05-3.03384E-05 2.09620E-06-9.52087E-19-1.83000E-18
 -1      1412 1.03984E-04-3.11222E-05-3.12324E-05 1.42368E-06-1.44707E-19-3.04117E-18
 -1      1413 1.05354E-04-3.15449E-05-3.16351E-05 1.47625E-06 4.90022E-20-3.20230E-18
 -1      1414 1.02658E-04-3.06777E-05-3.08641E-05 2.57683E-06 1.52254E-19-2.46096E-18
 -1      1415 1.06491E-04-3.18769E-05-3.19862E-05 1.67058E-06 4.11684E-19-3.19116E-18
 -1      1416 1.08093E-04-3.23792E-05-3.24545E-05 1.71880E-06 6.95949E-19-2.45797E-18
 -1      1417 1.04721E-04-3.13009E-05-3.14810E-05 3.06001E-06 5.66956E-19-1.59500E-18
 -1      1418 1.09357E-04-3.27569E-05-3.28407E-05 1.85192E-06 8.74615E-19-2.79013E-18
 -1      1419 1.11119E-04-3.33222E-05-3.33506E-05 1.88142E-06 3.70244E-19-2.57944E-18
 -1      1420 1.07078E-04-3.20404E-05-3.21714E-05 3.45869E-06 8.86126E-19-2.45212E-18
 -1      1421 1.12422E-04-3.37279E-05-3.37397E-05 1.86833E-06 3.15631E-19-2.43744E-18
 -1      1422 1.14165E-04-3.43091E-05-3.42354E-05 1.85362E-06 3.13161E-19-1.65545E-18
 -1      1423 1.09619E-04-3.28856E-05-3.28903E-05 3.61563E-06 3.94109E-19-2.31713E-18
 -1      1424 1.15341E-04-3.47049E-05-3.45678E-05 1.56242E-06-2.05975E-19-6.14522E-19
 -1      1425 1.16723E-04-3.52036E-05-3.49453E-05 1.46336E-06 3.82257E-19-1.01212E-18
 -1      1426 1.12110E-04-3.37964E-05-3.35511E-05 3.27529E-06 2.01210E-19-1.91478E-18
 -1      1427 1.17494E-04-3.55208E-05-3.51268E-05 7.18910E-07 2.45084E-19-6.95017E-19
 -1      1428 1.17959E-04-3.57641E-05-3.52219E-05 4.82163E-07-5.16406E-19-9.62031E-19
 -1      1429 1.14137E-04-3.46777E-05-3.40131E-05 2.07294E-06 3.09941E-19-1.05203E-18
 -1      1430 1.17928E-04-3.58883E-05-3.51260E-05-8.87374E-07-8.88114E-19-8.52181E-19
 -1      1431 1.16712E-04-3.56169E-05-3.47252E-05-1.31096E-06-1.36290E-18-2.85479E-18
 -1      1432 1.15056E-04-3.53367E-05-3.40804E-05-4.11926E-07-7.32379E-19-1.67901E-18
 -1      1433 1.15400E-04-3.53796E-05-3.42191E-05-3.34532E-06-7.27959E-19-3.25075E-18
 -1      1434 1.11708E-04-3.42854E-05-3.31201E-05-3.95295E-06-1.01392E-19-3.53811E-18
 -1      1435 1.13994E-04-3.54295E-05-3.35321E-05-4.45695E-06-1.35389E-18-1.70215E-18
 -1      1436 1.08702E-04-3.34834E-05-3.21278E-05-6.33716E-06 6.90411E-19-2.81173E-18
 -1      1437 1.02153E-04-3.13504E-05-3.02699E-05-6.99504E-06 3.27511E-19-1.97581E-18
 -1      1438 1.10006E-04-3.44460E-05-3.22040E-05-9.78308E-06 5.41995E-19-8.56986E-19
 -1      1439 9.74134E-05-2.98476E-05-2.88626E-05-8.85548E-06 4.04127E-20-5.42419E-19
 -1      1440 8.87114E-05-2.68191E-05-2.64929E-05-9.24342E-06 9.22578E-19-3.08108E-20
 -1      1441 1.02512E-04-3.18590E-05-3.01179E-05-1.50192E-05 1.48495E-18 8.44280E-19
 -1      1442 8.29863E-05-2.47630E-05-2.49551E-05-9.27741E-06 8.28173E-19-1.32635E-18
 -1      1443 7.43958E-05-2.16009E-05-2.27057E-05-8.98783E-06 6.67938E-19-1.89630E-19
 -1      1444 9.20639E-05-2.75779E-05-2.75983E-05-1.75345E-05 1.04401E-18 1.52715E-18
 -1      1445 6.93832E-05-1.96089E-05-2.14909E-05-6.21519E-06 6.82179E-19-6.56556E-19
 -1      1446 6.42834E-05-1.76136E-05-2.02180E-05-5.06098E-06 5.18040E-19 7.21857E-19
 -1      1447 8.10621E-05-2.25436E-05-2.52623E-05-1.44397E-05 8.28081E-19 1.17081E-18
 -1      1448 6.20491E-05-1.66165E-05-1.97590E-05 9.59950E-08-1.01811E-18-2.65187E-19
 -1      1449 6.32422E-05-1.70043E-05-2.00906E-05 1.75946E-06-8.71782E-19-1.84902E-18
 -1      1450 7.34238E-05-1.87904E-05-2.37991E-05-4.88044E-06-6.00679E-19-9.77595E-20
 -1      1451 6.49255E-05-1.76884E-05-2.05067E-05 6.96998E-06-1.71524E-20-2.31505E-18
 -1      1452 7.23028E-05-2.06809E-05-2.22874E-05 8.24370E-06 5.40778E-20-2.60971E-18
 -1      1453 7.26709E-05-1.85678E-05-2.35935E-05 7.88093E-06-1.46399E-18-1.23876E-18
 -1      1454 7.69437E-05-2.27806E-05-2.31756E-05 9.83184E-06-4.05120E-20-2.23807E-18
 -1      1455 8.63827E-05-2.69884E-05-2.52383E-05 1.00560E-05-2.53902E-19-2.25840E-18
 -1      1456 7.93649E-05-2.29301E-05-2.43430E-05 1.66489E-05 5.52821E-20-1.16372E-18
 -1      1457 9.33987E-05-3.10218E-05-2.57331E-05 3.12014E-06 1.81742E-18-2.08698E-18
 -1      1458 9.23256E-05-3.29918E-05-2.49835E-05 1.17569E-05 1.14381E-18-2.94688E-19
 -1      1459 9.65909E-05-2.83661E-05-2.97759E-05 2.99314E-06 6.23840E-19 6.19353E-18
 -1      1460 1.02550E-04-2.94026E-05-3.21599E-05 4.46291E-06 5.66506E-19 7.14335E-18
 -1      1461 1.02340E-04-2.67203E-05-3.27099E-05 1.27830E-05 1.10601E-18 4.84545E-18
 -1      1462 9.20463E-05-2.74332E-05-2.77654E-05 1.14995E-06 4.75159E-19 4.85744E-18
 -1      1463 9.39933E-05-2.75900E-05-2.86792E-05 1.47296E-06 4.57530E-19 5.59171E-18
 -1      1464 9.65018E-05-2.80335E-05-2.95372E-05 4.86681E-06 9.63076E-19 3.82299E-18
 -1      1465 9.02212E-05-2.70129E-05-2.70686E-05 3.30416E-07 3.33056E-19 3.88529E-18
 -1      1466 9.08339E-05-2.70296E-05-2.73399E-05 4.91389E-07 3.00399E-19 4.39782E-18
 -1      1467 9.30579E-05-2.75806E-05-2.81029E-05 1.84833E-06 7.70588E-19 3.01849E-18
 -1      1468 8.97056E-05-2.68932E-05-2.68954E-05-5.64201E-08 2.75067E-19 3.34573E-18
 -1      1469 8.97419E-05-2.68309E-05-2.69223E-05 3.30502E-08 1.89586E-19 3.68498E-18
 -1      1470 9.15102E-05-2.73144E-05-2.75215E-05 5.15306E-07 4.34898E-19 2.26544E-18
 -1      1471 8.98421E-05-2.69474E-05-2.69382E-05-2.45176E-07 1.92657E-19 2.84807E-18
 -1      1472 8.96110E-05-2.68389E-05-2.68726E-05-1.94472E-07 1.71601E-19 3.10639E-18
 -1      1473 9.09815E-05-2.72331E-05-2.73268E-05-1.36036E-07 4.03916E-19 1.95993E-18
 -1      1474 9.02994E-05-2.70914E-05-2.70776E-05-3.28253E-07 1.29340E-19 2.54028E-18
 -1      1475 8.99496E-05-2.69632E-05-2.69754E-05-3.00521E-07 1.21459E-19 2.72807E-18
 -1      1476 9.10029E-05-2.72781E-05-2.73166E-05-4.55813E-07 2.69479E-19 1.69165E-18
 -1      1477 9.08981E-05-2.72749E-05-2.72582E-05-3.52734E-07 1.87423E-19 2.39696E-18
 -1      1478 9.05078E-05-2.71437E-05-2.71439E-05-3.38940E-07 1.26508E-19 2.49089E-18
 -1      1479 9.13108E-05-2.73912E-05-2.73991E-05-5.95976E-07 2.05815E-19 1.46117E-18
 -1      1480 9.15357E-05-2.74684E-05-2.74502E-05-3.43568E-07 1.31776E-19 1.83210E-18
 -1      1481 9.11483E-05-2.73439E-05-2.73365E-05-3.38531E-07 1.72234E-19 2.10867E-18
 -1      1482 9.17546E-05-2.75359E-05-2.75259E-05-6.34436E-07 3.87248E-19 1.16703E-18
 -1      1483 9.21531E-05-2.76546E-05-2.76362E-05-3.15609E-07 1.29659E-19 1.84581E-18
 -1      1484 9.17928E-05-2.75421E-05-2.75302E-05-3.16018E-07 5.53942E-21 1.87941E-18
 -1      1485 9.22452E-05-2.76892E-05-2.76692E-05-6.14289E-07 1.29638E-19 1.03892E-18
 -1      1486 9.27175E-05-2.78240E-05-2.78065E-05-2.78322E-07-9.40502E-20 2.05666E-18
 -1      1487 9.23968E-05-2.77260E-05-2.77119E-05-2.81955E-07 3.93955E-20 1.99077E-18
 -1      1488 9.27296E-05-2.78372E-05-2.78125E-05-5.61745E-07-5.14754E-21 1.14578E-18
 -1      1489 9.32130E-05-2.79722E-05-2.79563E-05-2.37755E-07 1.11151E-19 2.18708E-18
 -1      1490 9.29370E-05-2.78892E-05-2.78746E-05-2.43118E-07 1.79653E-20 2.09012E-18
 -1      1491 9.31778E-05-2.79722E-05-2.79460E-05-4.93448E-07-9.99255E-20 1.37812E-18
 -1      1492 9.36345E-05-2.80978E-05-2.80838E-05-1.97701E-07 4.80901E-19 1.45621E-18
 -1      1493 9.34035E-05-2.80294E-05-2.80153E-05-2.03799E-07 3.44634E-19 1.96426E-18
 -1      1494 9.35747E-05-2.80904E-05-2.80650E-05-4.20001E-07 3.91157E-19 1.08003E-18
 -1      1495 9.39836E-05-2.82016E-05-2.81896E-05-1.60438E-07 1.18646E-19 7.62706E-19
 -1      1496 9.37949E-05-2.81465E-05-2.81335E-05-1.66624E-07 2.03239E-19 1.12232E-18
 -1      1497 9.39144E-05-2.81907E-05-2.81673E-05-3.48030E-07 4.63794E-19 8.70182E-19
 -1      1498 9.42657E-05-2.82853E-05-2.82752E-05-1.27228E-07-2.53862E-19 1.00538E-18
 -1      1499 9.41152E-05-2.82419E-05-2.82304E-05-1.33096E-07-1.29230E-19 8.08379E-19
 -1      1500 9.41972E-05-2.82736E-05-2.82528E-05-2.81499E-07 2.79463E-21 7.64436E-19
 -1      1501 9.44887E-05-2.83512E-05-2.83430E-05-9.86761E-08-1.20070E-20 1.21771E-18
 -1      1502 9.43713E-05-2.83178E-05-2.83080E-05-1.03982E-07 1.37041E-20 9.14628E-19
 -1      1503 9.44270E-05-2.83404E-05-2.83225E-05-2.22601E-07 8.22180E-20 7.56309E-19
 -1      1504 9.46615E-05-2.84021E-05-2.83957E-05-7.49883E-08 1.98301E-19 6.42435E-19
 -1      1505 9.45719E-05-2.83770E-05-2.83688E-05-7.95926E-08 1.65693E-19 9.61942E-19
 -1      1506 9.46100E-05-2.83931E-05-2.83783E-05-1.72394E-07 1.55829E-19 6.42754E-19
 -1      1507 9.47932E-05-2.84407E-05-2.84359E-05-5.61698E-08 5.10859E-19-3.46357E-19
 -1      1508 9.47261E-05-2.84222E-05-2.84157E-05-5.99915E-08 4.02938E-19 3.11447E-19
 -1      1509 9.47534E-05-2.84340E-05-2.84222E-05-1.31279E-07 7.16971E-19-9.06958E-20
 -1      1510 9.48934E-05-2.84699E-05-2.84666E-05-4.21754E-08-3.36454E-19-7.06488E-19
 -1      1511 9.48435E-05-2.84563E-05-2.84514E-05-4.51549E-08 2.96641E-19-2.89951E-19
 -1      1512 9.48651E-05-2.84655E-05-2.84566E-05-9.93502E-08 7.56371E-19 2.73963E-19
 -1      1513 9.49717E-05-2.84926E-05-2.84907E-05-3.30255E-08-2.07602E-19 1.71059E-19
 -1      1514 9.49336E-05-2.84823E-05-2.84790E-05-3.50946E-08-4.79647E-19-1.86626E-19
 -1      1515 9.49534E-05-2.84901E-05-2.84841E-05-7.66675E-08-4.50326E-19 1.94205E-19
 -1      1516 9.50379E-05-2.85115E-05-2.85111E-05-2.88979E-08-3.74516E-19 1.00428E-18
 -1      1517 9.50064E-05-2.85029E-05-2.85014E-05-2.99547E-08-4.55242E-19 2.16578E-19
 -1      1518 9.50270E-05-2.85102E-05-2.85071E-05-6.34685E-08-6.73648E-19 4.17513E-19
 -1      1519 9.51026E-05-2.85299E-05-2.85311E-05-3.02024E-08 1.56156E-19 3.34724E-19
 -1      1520 9.50719E-05-2.85212E-05-2.85216E-05-3.00881E-08 1.61294E-19 8.56280E-19
 -1      1521 9.50951E-05-2.85285E-05-2.85286E-05-6.03348E-08-1.36639E-19 2.55437E-19
 -1      1522 9.51776E-05-2.85513E-05-2.85543E-05-3.76405E-08 4.93911E-19-2.34766E-19
 -1      1523 9.51414E-05-2.85406E-05-2.85430E-05-3.61192E-08 3.41245E-19 4.84359E-19
 -1      1524 9.51678E-05-2.85481E-05-2.85516E-05-6.83262E-08 4.16933E-19 7.90894E-19
 -1      1525 9.52765E-05-2.85796E-05-2.85848E-05-5.22541E-08 1.30674E-21-3.27235E-19
 -1      1526 9.52275E-05-2.85645E-05-2.85696E-05-4.89935E-08-1.70158E-19-7.86785E-19
 -1      1527 9.52566E-05-2.85721E-05-2.85798E-05-8.90867E-08 2.65678E-19 6.45512E-19
 -1      1528 9.54153E-05-2.86196E-05-2.86274E-05-7.54570E-08-2.65500E-19 9.02691E-19
 -1      1529 9.53448E-05-2.85974E-05-2.86057E-05-7.00113E-08-4.10989E-19-2.43435E-20
 -1      1530 9.53750E-05-2.86044E-05-2.86171E-05-1.24922E-07-4.56946E-19 3.92014E-20
 -1      1531 9.56135E-05-2.86771E-05-2.86880E-05-1.09043E-07 3.74193E-19 4.08051E-19
 -1      1532 9.55109E-05-2.86444E-05-2.86566E-05-1.00840E-07 6.39549E-19 1.32578E-18
 -1      1533 9.55387E-05-2.86498E-05-2.86684E-05-1.78836E-07 2.36100E-19 8.42821E-19
 -1      1534 9.58942E-05-2.87589E-05-2.87736E-05-1.55154E-07-6.60361E-19 2.20827E-19
 -1      1535 9.57467E-05-2.87116E-05-2.87287E-05-1.43490E-07-1.58539E-19 3.17379E-19
 -1      1536 9.57665E-05-2.87135E-05-2.87394E-05-2.54508E-07 3.22849E-21 9.96203E-19
 -1      1537 9.62849E-05-2.88733E-05-2.88925E-05-2.16178E-07-2.05591E-19 1.09285E-18
 -1      1538 9.60772E-05-2.88065E-05-2.88295E-05-2.00228E-07-3.49467E-19 4.93460E-19
 -1      1539 9.60805E-05-2.88023E-05-2.88370E-05-3.56161E-07-4.14424E-19 1.17148E-18
 -1      1540 9.68179E-05-2.90300E-05-2.90544E-05-2.94536E-07-4.16183E-19 1.74582E-18
 -1      1541 9.65318E-05-2.89379E-05-2.89679E-05-2.73389E-07-6.91668E-19 1.08143E-18
 -1      1542 9.65066E-05-2.89237E-05-2.89688E-05-4.88264E-07-8.12643E-19 1.66409E-18
 -1      1543 9.75292E-05-2.92398E-05-2.92699E-05-3.92275E-07 1.83908E-19 1.73328E-18
 -1      1544 9.71444E-05-2.91158E-05-2.91541E-05-3.65025E-07 2.13163E-19 1.76521E-18
 -1      1545 9.70737E-05-2.90866E-05-2.91435E-05-6.54950E-07 2.80232E-20 1.50029E-18
 -1      1546 9.84575E-05-2.95148E-05-2.95507E-05-5.10362E-07 2.97580E-19 8.47576E-19
 -1      1547 9.79519E-05-2.93518E-05-2.93989E-05-4.76278E-07 3.81797E-19 1.33814E-18
 -1      1548 9.78132E-05-2.93007E-05-2.93704E-05-8.58985E-07 5.58567E-19 1.11741E-18
 -1      1549 9.96402E-05-2.98666E-05-2.99076E-05-6.47500E-07-5.43309E-20 6.94243E-19
 -1      1550 9.89920E-05-2.96576E-05-2.97137E-05-6.06334E-07 2.44032E-19 6.90271E-19
 -1      1551 9.87561E-05-2.95761E-05-2.96584E-05-1.10002E-06 5.51367E-19-3.15705E-19
 -1      1552 1.01106E-04-3.03050E-05-3.03487E-05-7.98211E-07 3.99300E-19 1.06749E-18
 -1      1553 1.00298E-04-3.00445E-05-3.01079E-05-7.50740E-07-2.91517E-19 7.77861E-19
 -1      1554 9.99289E-05-2.99221E-05-3.00146E-05-1.37175E-06-2.24935E-19 2.66811E-19
 -1      1555 1.02866E-04-3.08347E-05-3.08761E-05-9.49892E-07 5.76905E-19-2.93285E-20
 -1      1556 1.01891E-04-3.05206E-05-3.05871E-05-8.98793E-07 6.44336E-19 9.12996E-19
 -1      1557 1.01346E-04-3.03457E-05-3.04419E-05-1.65753E-06 6.86251E-19-3.50981E-19
 -1      1558 1.04891E-04-3.14497E-05-3.14793E-05-1.07854E-06-1.85909E-19-1.84878E-19
 -1      1559 1.03764E-04-3.10873E-05-3.11477E-05-1.02975E-06 1.17535E-19-2.14756E-19
 -1      1560 1.02998E-04-3.08481E-05-3.09349E-05-1.92381E-06 1.97586E-19-1.12336E-18
 -1      1561 1.07086E-04-3.21256E-05-3.21274E-05-1.14319E-06-9.09861E-20-1.65780E-19
 -1      1562 1.05862E-04-3.17330E-05-3.17706E-05-1.10780E-06 9.12176E-20-4.95309E-19
 -1      1563 1.04832E-04-3.14202E-05-3.14740E-05-2.11136E-06 2.07575E-19-5.83801E-19
 -1      1564 1.09253E-04-3.28077E-05-3.27569E-05-1.08010E-06 5.74318E-19-3.22137E-19
 -1      1565 1.08047E-04-3.24238E-05-3.24114E-05-1.07661E-06 4.00873E-19-1.98960E-19
 -1      1566 1.06731E-04-3.20354E-05-3.20184E-05-2.12496E-06 2.44520E-19-9.22581E-19
 -1      1567 1.11045E-04-3.33968E-05-3.32597E-05-8.00096E-07 2.95479E-19-2.82883E-19
 -1      1568 1.10062E-04-3.30904E-05-3.29883E-05-8.56032E-07-1.79558E-19-3.47059E-19
 -1      1569 1.08481E-04-3.26399E-05-3.24964E-05-1.82562E-06-8.98285E-20-3.49308E-19
 -1      1570 1.11931E-04-3.37345E-05-3.34743E-05-1.96862E-07 4.71235E-19-1.31049E-18
 -1      1571 1.11487E-04-3.36131E-05-3.33715E-05-3.47454E-07 7.64937E-19 5.15565E-20
 -1      1572 1.09738E-04-3.31395E-05-3.27997E-05-1.03484E-06 8.52433E-19-4.81439E-19
 -1      1573 1.11202E-04-3.35988E-05-3.31937E-05 8.20061E-07-6.35414E-19-8.62478E-19
 -1      1574 1.11722E-04-3.38070E-05-3.33810E-05 5.40776E-07-1.74542E-19-1.01260E-18
 -1      1575 1.10021E-04-3.33868E-05-3.27845E-05 4.30240E-07 1.64880E-19-5.44947E-20
 -1      1576 1.08083E-04-3.27272E-05-3.22068E-05 2.25166E-06-8.97815E-19 7.23234E-19
 -1      1577 1.10026E-04-3.34235E-05-3.28075E-05 1.83313E-06-5.49751E-19-5.62668E-19
 -1      1578 1.08743E-04-3.31747E-05-3.22929E-05 2.66439E-06-9.17310E-19 1.32135E-18
 -1      1579 1.02020E-04-3.08986E-05-3.03902E-05 3.89487E-06 1.04589E-19 1.67713E-19
 -1      1580 1.05700E-04-3.21905E-05-3.14731E-05 3.38694E-06-2.00747E-19 1.90529E-19
 -1      1581 1.05346E-04-3.22581E-05-3.12039E-05 5.50691E-06-1.76289E-19-2.15199E-20
 -1      1582 9.31637E-05-2.80947E-05-2.78415E-05 5.24026E-06-5.27589E-19 3.58348E-19
 -1      1583 9.84486E-05-2.99282E-05-2.93398E-05 4.78831E-06-2.60926E-19 5.39984E-20
 -1      1584 9.95733E-05-3.04369E-05-2.95167E-05 8.33880E-06-8.63246E-20 8.41051E-19
 -1      1585 8.28955E-05-2.47080E-05-2.49975E-05 5.51503E-06 1.23755E-18-5.93347E-19
 -1      1586 8.88945E-05-2.67507E-05-2.66381E-05 5.35220E-06 9.31511E-19 3.04985E-19
 -1      1587 9.18707E-05-2.77246E-05-2.74355E-05 1.00076E-05 6.25217E-19 4.72909E-19
 -1      1588 7.39671E-05-2.16442E-05-2.26268E-05 4.01768E-06 3.57210E-19-2.60918E-18
 -1      1589 7.89786E-05-2.32681E-05-2.39405E-05 4.36635E-06 4.30227E-19-1.41333E-18
 -1      1590 8.37206E-05-2.45712E-05-2.54036E-05 9.13260E-06 1.64475E-18-9.10428E-19
 -1      1591 6.97664E-05-2.01204E-05-2.15831E-05 6.78338E-07-1.54531E-19-2.28166E-18
 -1      1592 7.17619E-05-2.05904E-05-2.20612E-05 1.58776E-06-1.76633E-19-1.88481E-18
 -1      1593 7.75162E-05-2.19229E-05-2.39987E-05 4.92199E-06-1.36849E-19-1.14334E-18
 -1      1594 7.25792E-05-2.10791E-05-2.23394E-05-3.41685E-06-3.13151E-19-1.75775E-18
 -1      1595 7.03002E-05-1.99705E-05-2.17241E-05-2.23570E-06-7.44860E-20-1.47024E-18
 -1      1596 7.57088E-05-2.09917E-05-2.36810E-05-1.83483E-06-5.45780E-19-2.65677E-19
 -1      1597 8.14100E-05-2.43158E-05-2.45051E-05-6.07522E-06-2.48240E-19-4.98691E-19
 -1      1598 7.57275E-05-2.20531E-05-2.30803E-05-5.21733E-06-1.58640E-19-1.09691E-18
 -1      1599 7.93282E-05-2.26034E-05-2.44683E-05-8.19580E-06-7.41299E-19 8.83985E-19
 -1      1600 9.12366E-05-2.82984E-05-2.68019E-05-4.92298E-06-1.78393E-19-1.76553E-19
 -1      1601 8.56586E-05-2.62354E-05-2.53819E-05-5.06611E-06-4.90048E-19-8.55397E-19
 -1      1602 8.68068E-05-2.66777E-05-2.57439E-05-1.00645E-05-4.60798E-19 4.88262E-19
 -1      1603 9.42948E-05-3.01647E-05-2.70256E-05-1.71618E-06-4.12452E-19-9.01243E-19
 -1      1604 9.85686E-05-4.30228E-05-2.35652E-05-8.16180E-06 1.78576E-18 7.24848E-19
 -1      1605 9.58632E-05-3.51439E-05-2.58047E-05-7.08086E-06 9.90076E-19 9.91915E-19
 -1      1606 1.03771E-04-5.94560E-05-1.87616E-05-1.16875E-05 1.51195E-18-7.04877E-19
 -1      1607 9.98184E-05-4.75643E-05-2.21038E-05-1.09297E-05 2.50859E-18 2.81473E-19
 -1      1608 9.64657E-05-3.94598E-05-2.42345E-05-1.75942E-05 1.46267E-18 9.44084E-19
 -1      1609 1.10439E-04-7.91094E-05-1.33717E-05-1.40598E-05-1.34170E-18-2.45288E-18
 -1      1610 1.05157E-04-6.45397E-05-1.70814E-05-1.34699E-05 9.42536E-19-1.40175E-18
 -1      1611 9.97145E-05-4.84211E-05-2.19456E-05-2.29402E-05 7.95682E-19-2.06986E-18
 -1      1612 1.17761E-04-9.43875E-05-1.08174E-05-1.17515E-05-1.74108E-18-5.64971E-19
 -1      1613 1.12176E-04-8.27872E-05-1.26641E-05-1.26845E-05-1.03846E-18-1.63679E-18
 -1      1614 1.04205E-04-5.68417E-05-2.06779E-05-2.35181E-05 1.05080E-18-1.97184E-18
 -1      1615 1.23153E-04-9.42198E-05-1.44225E-05 1.58797E-06-6.53592E-19 1.15768E-18
 -1      1616 1.20038E-04-9.47200E-05-1.22080E-05-3.14266E-06-2.12902E-18 2.66074E-18
 -1      1617 1.11857E-04-6.19450E-05-2.25935E-05-1.19168E-05 7.09271E-19 9.66465E-19
 -1      1618 1.21300E-04-7.00610E-05-2.42814E-05 2.91320E-05-1.91938E-18-9.51853E-19
 -1      1619 1.25506E-04-9.09187E-05-1.76999E-05 2.04371E-05-1.33281E-18-1.36457E-18
 -1      1620 1.22507E-04-6.15864E-05-2.79534E-05 1.84984E-05 8.48621E-19 7.33107E-19
 -1      1621 5.58565E-05 8.18466E-05-5.09201E-05 6.33239E-05-7.96380E-18-1.29596E-19
 -1      1622 8.27912E-05 1.84960E-05-4.13381E-05 6.38658E-05-5.99869E-18-1.85288E-18
 -1      1623 2.13339E-05 1.49994E-04-5.87618E-05 3.87235E-05-8.64355E-18 3.94717E-19
 -1      1624 4.24334E-05 1.05883E-04-5.34328E-05 4.86385E-05-8.70072E-18 3.75236E-19
 -1      1625 6.39564E-05 3.83946E-05-4.06728E-05 1.01678E-04-5.76935E-18-1.18839E-18
 -1      1626 2.25120E-05 1.46166E-04-5.79504E-05-1.79251E-05-5.83606E-18 1.53736E-18
 -1      1627 1.60344E-05 1.57761E-04-5.92031E-05-3.56339E-06-6.97023E-18 9.31736E-19
 -1      1628 3.50519E-05 7.15203E-05-4.09743E-05 3.19998E-05-5.43523E-18 7.62330E-19
 -1      1629 6.42872E-05 6.29896E-05-4.83821E-05-6.09504E-05-3.28649E-18 8.55503E-19
 -1      1630 3.30403E-05 1.28843E-04-5.66618E-05-5.55325E-05-5.46506E-18 1.89481E-18
 -1      1631 4.45533E-05 6.16700E-05-4.13242E-05-6.67291E-05-3.09855E-18 2.04304E-18
 -1      1632 1.01161E-04-2.47426E-05-3.45146E-05-5.49795E-05-4.18265E-18-1.42736E-18
 -1      1633 7.56796E-05 3.63624E-05-4.46015E-05-5.94442E-05-3.30173E-18-3.20814E-19
 -1      1634 8.54485E-05 1.19255E-05-4.01374E-05-1.10601E-04-3.18400E-18 2.27005E-19
 -1      1635 1.22623E-04-9.37613E-05-1.75505E-05-2.18808E-05-6.95838E-18 6.60262E-19
 -1      1636 1.10726E-04-5.42677E-05-2.74965E-05-3.08466E-05-5.56585E-18-2.50044E-18
 -1      1637 1.12083E-04-4.05285E-05-3.21069E-05-7.85039E-05-3.90186E-18-3.14122E-18
 -1      1638 1.20857E-04-1.06287E-04-9.10868E-06 4.19314E-06-2.52204E-19 2.14670E-18
 -1      1639 1.24079E-04-1.04130E-04-1.23012E-05-1.64369E-06-5.27130E-18 3.02814E-18
 -1      1640 1.19571E-04-7.67516E-05-2.11871E-05-2.07333E-05-2.67726E-18 3.15414E-18
 -1      1641 1.11836E-04-8.55664E-05-1.16989E-05 1.14324E-05 1.04482E-18 2.54216E-19
 -1      1642 1.19609E-04-1.01357E-04-8.96279E-06 9.57650E-06 2.57498E-19-7.73235E-19
 -1      1643 1.13250E-04-7.97223E-05-1.59145E-05 1.30360E-05 6.40569E-20 1.38755E-18
 -1      1644 1.04038E-04-6.03505E-05-1.85298E-05 1.10773E-05 4.14199E-19-2.17052E-19
 -1      1645 1.10090E-04-7.66475E-05-1.41490E-05 1.02552E-05 1.33662E-18-1.85417E-19
 -1      1646 1.05901E-04-6.56077E-05-1.76176E-05 2.11616E-05 1.01220E-18 1.27849E-19
 -1      1647 9.60550E-05-3.87967E-05-2.43759E-05 1.24892E-05 2.21923E-18 1.83323E-18
 -1      1648 1.00367E-04-5.00651E-05-2.13745E-05 1.42334E-05 8.41739E-19 2.05143E-18
 -1      1649 9.86343E-05-4.50725E-05-2.22178E-05 2.18290E-05 2.86096E-18 1.08674E-18
 -1      1650 8.95696E-05-3.02185E-05-2.48538E-05 2.12549E-05 9.96667E-19 2.05670E-19
 -1      1651 4.27578E-05-8.49774E-05-3.34709E-06 1.53354E-05 4.13013E-18 2.67578E-18
 -1      1652 5.36375E-05-1.18403E-04 1.09296E-06 1.82241E-05 2.07820E-18 1.20448E-18
 -1      1653 4.79614E-05-1.77527E-05-2.05244E-05 6.85707E-05 2.58853E-18-2.27640E-18
 -1      1654 5.95797E-05-8.11509E-05-9.09470E-06 4.34473E-05 5.19739E-18 9.47671E-19
 -1      1655 8.27704E-05 3.05666E-05-4.45427E-05 1.20228E-04-2.17518E-18-2.30393E-18
 -1      1656 6.71368E-05-9.59634E-06-3.00497E-05 7.70570E-05 1.82959E-18-2.41997E-18
 -1      1657 1.48930E-04 3.61033E-05-7.02392E-05 1.57429E-04-2.63427E-18-4.86875E-18
 -1      1658 1.00149E-04 4.18608E-05-5.66058E-05 1.24667E-04-2.63766E-18-1.62969E-18
 -1      1659 2.30290E-04 1.49399E-07-8.92632E-05 1.58925E-04-3.04339E-18-4.22500E-18
 -1      1660 1.74982E-04 3.14911E-05-8.04912E-05 1.59209E-04-3.31020E-18-4.36053E-18
 -1      1661 3.03143E-04-4.89242E-05-1.00308E-04 1.19891E-04-2.95276E-18-3.46479E-18
 -1      1662 2.59463E-04-1.51189E-05-9.61849E-05 1.51884E-04-3.35711E-18-4.94498E-18
 -1      1663 3.30417E-04-7.81209E-05-1.01061E-04 4.76992E-05 3.98105E-20-3.17383E-18
 -1      1664 3.20117E-04-6.35348E-05-1.02029E-04 9.59829E-05-1.43530E-18-3.52380E-18
 -1      1665 2.97824E-04-7.12016E-05-9.20587E-05-2.44515E-05 2.38122E-18-7.04308E-18
 -1      1666 3.24776E-04-8.04340E-05-9.77578E-05 2.07230E-05 1.63139E-18-3.99037E-18
 -1      1667 2.24164E-04-4.32661E-05-7.47081E-05-6.33854E-05 3.79534E-18-7.79440E-18
 -1      1668 2.74498E-04-6.56710E-05-8.42460E-05-4.16002E-05 2.85479E-18-7.00327E-18
 -1      1669 1.46139E-04-1.76666E-05-5.44025E-05-7.20653E-05 4.34020E-18-7.70800E-18
 -1      1670 1.97361E-04-3.64855E-05-6.53892E-05-7.65594E-05 3.87729E-18-8.09594E-18
 -1      1671 8.26083E-05-1.72548E-05-2.99047E-05-4.44908E-05 2.40388E-18-5.26685E-18
 -1      1672 1.21689E-04-1.89905E-05-4.27688E-05-6.74074E-05 3.57363E-18-7.23874E-18
 -1      1673 3.92670E-05-3.35510E-05-6.99291E-06-1.39663E-05 2.30562E-18-2.42760E-18
 -1      1674 5.33652E-05-1.43029E-05-1.82671E-05-3.81606E-05 3.05186E-18-4.47572E-18
 -1      1675 2.95632E-05-6.96434E-05 1.10549E-05 4.32148E-06 1.86517E-18-1.01517E-18
 -1      1676 2.60394E-05-4.09715E-05 2.51271E-06-5.14972E-06 1.91938E-18-1.10623E-18
 -1      1677 2.98657E-05-9.51200E-05 2.12802E-05 1.60326E-06 1.05879E-20-7.36919E-19
 -1      1678 2.38335E-05-7.58214E-05 1.68173E-05 7.50401E-06 5.37019E-19-1.73282E-18
 -1      1679 2.93977E-05-1.02766E-04 2.41585E-05-7.86447E-06 2.19254E-18 1.54456E-18
 -1      1680 2.93521E-05-1.02493E-04 2.41876E-05 6.19495E-06-3.68248E-19 1.59030E-18
 -1      1681 2.38142E-05-7.83730E-05 1.73498E-05-1.13848E-05 1.47045E-18-6.11240E-19
 -1      1682 3.04782E-05-9.81885E-05 2.17680E-05-5.18924E-06 2.69399E-18-6.92873E-19
 -1      1683 2.65107E-05-4.28658E-05 2.83692E-06 3.68514E-06-1.30020E-18-3.50883E-18
 -1      1684 2.96446E-05-7.08273E-05 1.12063E-05-6.09885E-06 1.50094E-18-1.44949E-18
 -1      1685 4.97485E-05-1.49800E-05-1.67938E-05 3.41092E-05-1.77199E-18-1.97359E-19
 -1      1686 3.76716E-05-3.46522E-05-6.19284E-06 1.13192E-05-1.81689E-18-1.98206E-18
 -1      1687 1.04188E-04-1.07754E-05-3.91974E-05 6.73620E-05 1.32984E-19 2.17857E-18
 -1      1688 7.09408E-05-1.26025E-05-2.75021E-05 4.31914E-05-1.72879E-18 7.28448E-19
 -1      1689 1.88987E-04-3.26954E-05-6.32130E-05 8.17005E-05 1.08336E-18-8.55503E-19
 -1      1690 1.33681E-04-1.44321E-05-5.08062E-05 7.14253E-05 1.65087E-18 5.72594E-19
 -1      1691 2.74256E-04-6.55978E-05-8.36406E-05 5.53826E-05 2.14935E-20-2.11081E-18
 -1      1692 2.20680E-04-4.09728E-05-7.38175E-05 7.39012E-05 7.59789E-19-1.06387E-18
 -1      1693 3.21676E-04-8.01994E-05-9.65778E-05-7.80495E-06-3.62954E-19-2.42760E-18
 -1      1694 2.91662E-04-6.84626E-05-9.04555E-05 3.25069E-05-1.44843E-19-1.85246E-18
 -1      1695 3.28404E-04-7.00028E-05-1.02644E-04-8.35028E-05 8.96161E-19-3.81731E-18
 -1      1696 3.33401E-04-8.10867E-05-1.01003E-04-3.23624E-05 7.92823E-19-3.39999E-18
 -1      1697 2.67607E-04-2.23385E-05-9.69379E-05-1.43098E-04 1.18055E-18-2.73676E-18
 -1      1698 3.10662E-04-5.56850E-05-1.00912E-04-1.07233E-04 2.63851E-19-3.88280E-18
 -1      1699 1.79531E-04 2.80514E-05-8.09874E-05-1.57932E-04 2.29461E-18-3.24583E-18
 -1      1700 2.38619E-04-6.22026E-06-9.03063E-05-1.55313E-04 2.26920E-18-2.31833E-18
 -1      1701 1.01603E-04 4.43960E-05-5.78876E-05-1.27618E-04 6.86097E-19-1.82112E-18
 -1      1702 1.50176E-04 3.58043E-05-7.08858E-05-1.57768E-04 1.47468E-18-3.36950E-18
 -1      1703 6.27515E-05-8.71084E-07-3.11905E-05-7.42165E-05-1.06387E-18-6.55604E-19
 -1      1704 8.15587E-05 3.54486E-05-4.58992E-05-1.19372E-04 2.01594E-19-1.39422E-18
 -1      1705 6.12260E-05-8.41461E-05-8.81535E-06-4.06409E-05 1.06726E-18 2.33919E-18
 -1      1706 4.89156E-05-1.55728E-05-2.11481E-05-7.05277E-05-9.75782E-19 1.75802E-18
 -1      1707 5.43888E-05-1.23924E-04 2.10877E-06-1.62383E-05 1.93547E-18 7.28448E-20
 -1      1708 4.25090E-05-9.00681E-05-2.14447E-06-1.09373E-05 9.31736E-19-7.79270E-20
 -1      1709 1.38534E-04-1.99269E-05-4.83614E-05 1.16820E-04-1.23836E-18-3.64394E-18
 -1      1710 9.44569E-05-3.17613E-05-2.64816E-05-5.25317E-06-3.29152E-19-1.16328E-19
 -1      1711 9.29836E-05-3.19681E-05-2.58843E-05-1.15478E-05 3.30498E-19 1.56209E-18
 -1      1712 1.17182E-04-5.93598E-05-2.75621E-05 5.44292E-05-2.61479E-18-1.57125E-18
 -1      1713 1.27661E-04-5.44305E-05-3.32898E-05 6.84940E-05-9.55241E-19-2.83565E-18
 -1      1714 9.96454E-05-1.26247E-05-3.68090E-05 6.17076E-05-3.99037E-18-2.08635E-18
 -1      1715 4.93593E-05-3.57348E-05-1.72500E-05 8.29055E-05-7.40307E-19 8.50421E-19
 -1      1716 9.77345E-05-3.95090E-05-2.93185E-05 1.18501E-04 1.17738E-18-5.00438E-18
 -1      1717 2.59040E-05-3.53798E-05-1.18006E-05 2.14780E-06-1.05413E-18 1.65849E-18
 -1      1718 1.75901E-04 1.60468E-06-6.95503E-05 1.12632E-04-1.54880E-18-2.67154E-18
 -1      1719 2.20454E-04-2.26602E-06-8.58903E-05 1.04335E-04-2.62845E-18-2.02271E-18
 -1      1720 2.58945E-04-2.15278E-05-9.43548E-05 7.96938E-05-2.41828E-18-2.86297E-18
 -1      1721 2.68697E-04-3.72893E-05-9.29758E-05 3.87860E-05 9.35548E-19-4.29869E-18
 -1      1722 2.43401E-04-4.05884E-05-8.24171E-05 2.78101E-06 2.62580E-18-4.84418E-18
 -1      1723 2.05041E-04-4.26786E-05-6.64785E-05-2.54550E-05 2.44750E-18-5.11269E-18
 -1      1724 1.56836E-04-4.65313E-05-4.63907E-05-3.68559E-05 2.54068E-18-5.51927E-18
 -1      1725 1.06700E-04-4.94660E-05-2.48343E-05-3.99340E-05 2.23956E-18-5.12201E-18
 -1      1726 5.84647E-05-5.41021E-05-4.59473E-06-3.06637E-05 1.79571E-18-3.13910E-18
 -1      1727 3.01670E-05-6.27531E-05 9.95075E-06-1.94847E-05 2.04813E-18-2.22516E-18
 -1      1728 1.62770E-05-6.95834E-05 1.80333E-05-7.94845E-06 1.19559E-18 7.15319E-19
 -1      1729 1.69328E-05-7.25819E-05 1.85740E-05 5.08075E-06 4.19281E-20 9.01243E-19
 -1      1730 3.03401E-05-6.50452E-05 1.04668E-05 1.70240E-05 1.05540E-18-2.52098E-18
 -1      1731 5.70382E-05-5.53752E-05-3.90641E-06 2.83707E-05-2.46487E-19-3.22233E-18
 -1      1732 9.61356E-05-4.60036E-05-2.26993E-05 3.90161E-05-1.59920E-18 1.34636E-18
 -1      1733 1.47437E-04-4.25333E-05-4.39808E-05 4.33314E-05-1.66442E-19-5.04832E-19
 -1      1734 2.03908E-04-4.40143E-05-6.51536E-05 3.47577E-05 1.05434E-18-2.56482E-18
 -1      1735 2.46138E-04-4.38106E-05-8.17487E-05 6.74342E-06 1.28749E-19-1.56108E-18
 -1      1736 2.67188E-04-3.79474E-05-9.21557E-05-3.13029E-05 2.56227E-19-2.28445E-18
 -1      1737 2.63824E-04-2.60790E-05-9.47046E-05-6.98199E-05 4.10811E-19-3.71826E-18
 -1      1738 2.24878E-04-5.58167E-06-8.65656E-05-9.84481E-05 1.72287E-18-2.10657E-18
 -1      1739 1.79238E-04 8.54834E-07-7.06247E-05-1.12338E-04 1.02322E-18-3.41015E-18
 -1      1740 1.37740E-04-1.40709E-05-4.98566E-05-1.15982E-04-3.94717E-19-2.44623E-18
 -1      1741 9.80497E-05-3.90605E-05-3.00326E-05-1.14729E-04 2.59192E-19-5.35113E-19
 -1      1742 5.14649E-05-4.03828E-05-1.67098E-05-7.97087E-05-6.78473E-19 2.15909E-18
 -1      1743 1.06062E-04-2.31742E-05-3.56068E-05-1.68502E-05-8.90496E-19 3.88449E-18
 -1      1744 1.07405E-04-2.35418E-05-3.66929E-05 1.11196E-04-2.01319E-18-3.16981E-18
 -1      1745 8.91310E-05-1.05603E-05-3.37967E-05-1.33352E-05-1.18518E-18-1.04206E-18
 -1      1746 9.04613E-05-1.16292E-05-3.39371E-05-1.51088E-05-1.40088E-18-6.52639E-19
 -1      1747 9.25008E-05-1.38762E-05-3.38562E-05-1.59974E-05-1.39064E-18-2.01885E-19
 -1      1748 9.42172E-05-1.58273E-05-3.41001E-05-1.76582E-05-1.46969E-18 4.63698E-19
 -1      1749 9.34502E-05-1.63679E-05-3.30462E-05-1.37453E-05-1.45533E-18-3.52948E-19
 -1      1750 8.62063E-05-7.67091E-06-3.37295E-05-7.86025E-06-6.61544E-19-1.76628E-18
 -1      1751 8.66092E-05-7.96950E-06-3.37635E-05-9.24911E-06-7.58521E-19-1.68914E-18
 -1      1752 8.55882E-05-7.03351E-06-3.37257E-05-5.31797E-06-3.30219E-19-1.87501E-18
 -1      1753 8.58232E-05-7.21231E-06-3.37412E-05-6.62222E-06-4.69971E-19-1.85646E-18
 -1      1754 8.75878E-05-9.86453E-06-3.33429E-05-6.92598E-06-6.09492E-19-1.67427E-18
 -1      1755 8.52521E-05-6.67439E-06-3.37285E-05-2.88742E-06-4.15762E-20-1.78896E-18
 -1      1756 8.53734E-05-6.76921E-06-3.37346E-05-4.12662E-06-1.64402E-19-1.82814E-18
 -1      1757 8.69513E-05-9.15190E-06-3.33752E-05-4.53536E-06-2.15037E-19-1.73010E-18
 -1      1758 8.51208E-05-6.52601E-06-3.37318E-05-5.17313E-07 2.83958E-19-1.76479E-18
 -1      1759 8.51565E-05-6.55456E-06-3.37333E-05-1.72634E-06 1.40968E-19-1.78818E-18
 -1      1760 8.66181E-05-8.77236E-06-3.33949E-05-2.21618E-06 4.14945E-20-1.68564E-18
 -1      1761 8.51665E-05-6.56362E-06-3.37335E-05 1.84394E-06 5.02414E-19-1.70833E-18
 -1      1762 8.51244E-05-6.53052E-06-3.37318E-05 6.33924E-07 3.95929E-19-1.75233E-18
 -1      1763 8.65196E-05-8.65852E-06-3.34014E-05 6.51894E-08 3.86631E-19-1.71869E-18
 -1      1764 8.53987E-05-6.79439E-06-3.37348E-05 4.24891E-06 7.62512E-19-1.63587E-18
 -1      1765 8.52702E-05-6.69353E-06-3.37285E-05 3.00649E-06 6.64139E-19-1.69360E-18
 -1      1766 8.66361E-05-8.79196E-06-3.33943E-05 2.34768E-06 6.06356E-19-1.61704E-18
 -1      1767 8.58570E-05-7.24803E-06-3.37406E-05 6.70913E-06 9.99555E-19-1.38915E-18
 -1      1768 8.56182E-05-7.06568E-06-3.37255E-05 5.42241E-06 8.76419E-19-1.50072E-18
 -1      1769 8.69854E-05-9.18964E-06-3.33737E-05 4.65019E-06 8.56196E-19-1.47132E-18
 -1      1770 8.66728E-05-8.03885E-06-3.37620E-05 9.37044E-06 1.28180E-18-1.05867E-18
 -1      1771 8.62510E-05-7.72230E-06-3.37279E-05 7.94984E-06 1.11116E-18-1.23978E-18
 -1      1772 8.76398E-05-9.92385E-06-3.33398E-05 7.02429E-06 1.15082E-18-1.21731E-18
 -1      1773 8.80861E-05-9.38614E-06-3.38181E-05 1.22491E-05 1.51056E-18-5.70291E-19
 -1      1774 8.73464E-05-8.82839E-06-3.37458E-05 1.06561E-05 1.38864E-18-8.89980E-19
 -1      1775 8.87634E-05-1.11605E-05-3.32901E-05 9.49884E-06 1.43337E-18-8.41329E-19
 -1      1776 9.06483E-05-1.18473E-05-3.39287E-05 1.53232E-05 1.71605E-18 3.93738E-19
 -1      1777 8.92765E-05-1.07486E-05-3.37888E-05 1.34984E-05 1.59420E-18-1.70412E-19
 -1      1778 9.06590E-05-1.32265E-05-3.32085E-05 1.19546E-05 1.61342E-18-2.59721E-19
 -1      1779 9.58980E-05-1.70867E-05-3.39962E-05 1.76708E-05 1.70937E-18 1.94892E-18
 -1      1780 9.28516E-05-1.43284E-05-3.38287E-05 1.61712E-05 1.66889E-18 1.03650E-18
 -1      1781 9.38897E-05-1.68605E-05-3.30154E-05 1.38535E-05 1.78553E-18 7.31942E-19
 -1      1782 1.01928E-04-2.50995E-05-3.33631E-05 1.44128E-05 1.34170E-18 3.82075E-18
 -1      1783 9.80774E-05-1.95812E-05-3.36293E-05 1.69685E-05 1.54037E-18 2.59250E-18
 -1      1784 9.74230E-05-2.18824E-05-3.24224E-05 1.32786E-05 1.75606E-18 1.87411E-18
 -1      1785 9.87895E-05-2.61484E-05-3.13461E-05 9.42680E-06 1.42617E-18 3.40269E-18
 -1      1786 1.00166E-04-1.95675E-05-3.42208E-05-1.88654E-05-1.22791E-18 1.69936E-18
 -1      1787 9.53340E-05-2.72942E-05-2.91877E-05 4.06437E-06 1.15038E-18 2.65211E-18
 -1      1788 9.77335E-05-2.73902E-05-3.01970E-05 6.40010E-06 1.20877E-18 3.09396E-18
 -1      1789 9.75932E-05-2.56191E-05-3.08270E-05 8.71938E-06 1.43360E-18 2.27512E-18
 -1      1790 1.00075E-04-1.51099E-05-3.64550E-05 1.21545E-04-1.38617E-18-4.84397E-18
 -1      1791 1.27242E-04-4.36090E-05-3.68329E-05 1.07997E-04-5.60736E-19-2.86636E-18
 -1      1792 9.98260E-05-2.25457E-05-3.28388E-05-1.44646E-05-1.33095E-18 1.15525E-18
 -1      1793 9.69700E-05-2.69809E-05-2.98804E-05-5.69987E-06-1.11972E-18 1.00414E-18
 -1      1794 9.51645E-05-2.70379E-05-2.91700E-05-3.89256E-06-1.06416E-18 5.71469E-19
 -1      1795 9.43463E-05-2.72397E-05-2.86629E-05-2.41681E-06-1.01451E-18 6.16481E-19
 -1      1796 9.35758E-05-2.73204E-05-2.83583E-05-1.56352E-06-8.31144E-19 3.57732E-19
 -1      1797 9.55167E-05-2.65492E-05-2.95784E-05-4.46675E-06-1.16967E-18 5.85065E-20
 -1      1798 9.30515E-05-2.73710E-05-2.80899E-05-7.36605E-07-5.95970E-19 3.96100E-19
 -1      1799 9.27514E-05-2.74348E-05-2.79682E-05-2.98279E-07-5.08941E-19 2.57468E-19
 -1      1800 9.43084E-05-2.72246E-05-2.87707E-05-1.82332E-06-7.82222E-19 2.03285E-19
 -1      1801 9.24763E-05-2.74625E-05-2.78324E-05 1.56934E-07-4.59878E-19 2.55271E-19
 -1      1802 9.24462E-05-2.75391E-05-2.78028E-05 3.80846E-07-3.00113E-19 8.28554E-20
 -1      1803 9.36084E-05-2.75309E-05-2.83354E-05-3.57021E-07-5.04640E-19 6.17060E-20
 -1      1804 9.23431E-05-2.75706E-05-2.77447E-05 6.20222E-07-3.85005E-19 1.74619E-19
 -1      1805 9.24589E-05-2.76561E-05-2.77641E-05 7.23819E-07-2.78252E-19 5.26343E-20
 -1      1806 9.32883E-05-2.77162E-05-2.81146E-05 4.44829E-07-3.45479E-19-8.89219E-20
 -1      1807 9.24643E-05-2.76941E-05-2.77521E-05 8.34233E-07-2.22785E-19 4.67357E-20
 -1      1808 9.26525E-05-2.77811E-05-2.77969E-05 8.67341E-07-2.46452E-19 6.91296E-20
 -1      1809 9.32252E-05-2.78596E-05-2.80221E-05 8.54987E-07-3.22459E-19-3.05072E-19
 -1      1810 9.27208E-05-2.78226E-05-2.78116E-05 8.99813E-07-3.40541E-19-9.93663E-20
 -1      1811 9.29372E-05-2.79055E-05-2.78678E-05 8.91507E-07-2.41669E-19-1.70155E-19
 -1      1812 9.33197E-05-2.79833E-05-2.80064E-05 1.02867E-06-3.32614E-19-2.51765E-19
 -1      1813 9.30376E-05-2.79470E-05-2.78966E-05 8.77656E-07-2.64076E-19-1.31907E-19
 -1      1814 9.32555E-05-2.80222E-05-2.79556E-05 8.46022E-07-3.02912E-19-8.08945E-20
 -1      1815 9.35010E-05-2.80927E-05-2.80349E-05 1.05945E-06-2.53140E-19-4.05740E-19
 -1      1816 9.33680E-05-2.80611E-05-2.79907E-05 8.06138E-07-5.75788E-19-1.80117E-19
 -1      1817 9.35720E-05-2.81269E-05-2.80473E-05 7.62769E-07-6.14835E-19-5.50052E-19
 -1      1818 9.37212E-05-2.81880E-05-2.80868E-05 1.00637E-06-6.67415E-19-5.97409E-19
 -1      1819 9.36839E-05-2.81617E-05-2.80837E-05 7.10051E-07-3.97835E-19-5.83396E-19
 -1      1820 9.38660E-05-2.82175E-05-2.81351E-05 6.62407E-07 2.06268E-20-7.18119E-19
 -1      1821 9.39495E-05-2.82694E-05-2.81488E-05 9.07681E-07-4.39900E-19-3.70190E-19
 -1      1822 9.39701E-05-2.82475E-05-2.81697E-05 6.05396E-07 9.25392E-20-7.85712E-19
 -1      1823 9.41270E-05-2.82936E-05-2.82147E-05 5.58189E-07 2.30297E-19-5.75436E-19
 -1      1824 9.41671E-05-2.83371E-05-2.82125E-05 7.88282E-07-1.10472E-19-4.50797E-19
 -1      1825 9.42193E-05-2.83186E-05-2.82460E-05 5.02286E-07 1.52974E-19-7.85572E-19
 -1      1826 9.43506E-05-2.83558E-05-2.82840E-05 4.58375E-07-2.28555E-19-6.47032E-19
 -1      1827 9.43638E-05-2.83920E-05-2.82729E-05 6.64218E-07 1.34516E-20-3.92332E-19
 -1      1828 9.44299E-05-2.83762E-05-2.83114E-05 4.06856E-07-3.97789E-19-5.01275E-19
 -1      1829 9.45372E-05-2.84054E-05-2.83428E-05 3.67866E-07-4.42705E-19-3.42320E-19
 -1      1830 9.45350E-05-2.84355E-05-2.83275E-05 5.45527E-07-1.64322E-19-4.21474E-19
 -1      1831 9.46036E-05-2.84216E-05-2.83660E-05 3.22605E-07-6.32423E-19-2.26591E-19
 -1      1832 9.46894E-05-2.84440E-05-2.83914E-05 2.89366E-07-3.81763E-19-3.32535E-19
 -1      1833 9.46796E-05-2.84690E-05-2.83751E-05 4.38216E-07-4.13896E-19-2.56764E-19
 -1      1834 9.47442E-05-2.84566E-05-2.84109E-05 2.51354E-07-4.41128E-19-5.49489E-19
 -1      1835 9.48119E-05-2.84735E-05-2.84312E-05 2.24238E-07-2.65092E-19-8.09658E-19
 -1      1836 9.47994E-05-2.84941E-05-2.84158E-05 3.45676E-07-5.84765E-19 1.85483E-20
 -1      1837 9.48568E-05-2.84831E-05-2.84474E-05 1.93980E-07-2.70944E-19-1.21087E-18
 -1      1838 9.49101E-05-2.84956E-05-2.84636E-05 1.73143E-07-3.24535E-19-1.44643E-18
 -1      1839 9.48975E-05-2.85124E-05-2.84501E-05 2.69719E-07-5.03849E-19-1.89187E-19
 -1      1840 9.49474E-05-2.85030E-05-2.84774E-05 1.50948E-07-2.60078E-19-1.22354E-18
 -1      1841 9.49902E-05-2.85121E-05-2.84906E-05 1.36525E-07-2.06455E-19-1.24230E-18
 -1      1842 9.49780E-05-2.85251E-05-2.84794E-05 2.11362E-07-2.18748E-19-3.68998E-19
 -1      1843 9.50225E-05-2.85179E-05-2.85028E-05 1.22742E-07-3.25208E-19-1.42297E-18
 -1      1844 9.50588E-05-2.85249E-05-2.85143E-05 1.14994E-07-2.57135E-19-1.37542E-18
 -1      1845 9.50459E-05-2.85338E-05-2.85049E-05 1.71420E-07-3.15388E-19-5.62472E-19
 -1      1846 9.50892E-05-2.85298E-05-2.85259E-05 1.10188E-07 2.11225E-19-1.54233E-18
 -1      1847 9.51236E-05-2.85358E-05-2.85370E-05 1.09624E-07 2.92227E-19-1.44279E-18
 -1      1848 9.51067E-05-2.85398E-05-2.85287E-05 1.50976E-07-1.33782E-19-6.14181E-19
 -1      1849 9.51553E-05-2.85407E-05-2.85492E-05 1.14723E-07 5.77465E-20-1.06243E-18
 -1      1850 9.51926E-05-2.85470E-05-2.85613E-05 1.22201E-07 2.01572E-19-1.12984E-18
 -1      1851 9.51666E-05-2.85442E-05-2.85528E-05 1.51744E-07 4.70921E-19-7.00376E-19
 -1      1852 9.52294E-05-2.85527E-05-2.85755E-05 1.38617E-07 4.82560E-19-6.84866E-19
 -1      1853 9.52753E-05-2.85607E-05-2.85903E-05 1.55432E-07 7.49130E-19-3.41072E-19
 -1      1854 9.52326E-05-2.85487E-05-2.85795E-05 1.76373E-07 6.70895E-19-2.56958E-19
 -1      1855 9.53217E-05-2.85681E-05-2.86080E-05 1.85164E-07 5.50977E-19-2.52062E-19
 -1      1856 9.53829E-05-2.85795E-05-2.86275E-05 2.13120E-07 7.26272E-19-1.04827E-19
 -1      1857 9.53128E-05-2.85545E-05-2.86117E-05 2.28697E-07 7.05542E-19 1.53147E-19
 -1      1858 9.54438E-05-2.85899E-05-2.86506E-05 2.58837E-07 6.63208E-19-6.67401E-19
 -1      1859 9.55283E-05-2.86068E-05-2.86772E-05 3.00312E-07 2.25201E-19-6.92373E-19
 -1      1860 9.54165E-05-2.85638E-05-2.86526E-05 3.13940E-07 5.05264E-19-7.13230E-19
 -1      1861 9.56100E-05-2.86216E-05-2.87078E-05 3.65406E-07-3.11264E-19-7.13321E-19
 -1      1862 9.57273E-05-2.86465E-05-2.87443E-05 4.23390E-07-3.95626E-19-9.78425E-19
 -1      1863 9.55548E-05-2.85786E-05-2.87061E-05 4.38860E-07-5.29493E-20-1.75644E-18
 -1      1864 9.58367E-05-2.86675E-05-2.87848E-05 5.11987E-07-4.23339E-19-9.79225E-19
 -1      1865 9.59984E-05-2.87035E-05-2.88346E-05 5.90079E-07-6.51681E-19-1.10356E-18
 -1      1866 9.57408E-05-2.86017E-05-2.87765E-05 6.11818E-07-4.94915E-19-1.29981E-18
 -1      1867 9.61440E-05-2.87327E-05-2.88880E-05 7.06976E-07-7.38863E-19-4.37236E-19
 -1      1868 9.63638E-05-2.87838E-05-2.89551E-05 8.09310E-07-3.13630E-19-7.45765E-19
 -1      1869 9.59898E-05-2.86368E-05-2.88689E-05 8.42701E-07-1.98396E-19-1.58226E-19
 -1      1870 9.65550E-05-2.88237E-05-2.90246E-05 9.59767E-07 6.11030E-20-4.35553E-19
 -1      1871 9.68490E-05-2.88946E-05-2.91136E-05 1.09079E-06 6.14120E-19-1.39736E-19
 -1      1872 9.63196E-05-2.86883E-05-2.89889E-05 1.14261E-06-4.89054E-20 3.68594E-19
 -1      1873 9.70966E-05-2.89486E-05-2.92027E-05 1.28009E-06 3.82166E-19-6.79231E-19
 -1      1874 9.74832E-05-2.90451E-05-2.93187E-05 1.44409E-06-1.50827E-19-7.42536E-19
 -1      1875 9.67504E-05-2.87619E-05-2.91427E-05 1.52310E-06 1.14914E-19-5.04629E-20
 -1      1876 9.77985E-05-2.91169E-05-2.94310E-05 1.67667E-06-4.92005E-19-4.50964E-19
 -1      1877 9.82978E-05-2.92462E-05-2.95795E-05 1.87688E-06-2.36110E-20-8.34635E-19
 -1      1878 9.73044E-05-2.88654E-05-2.93366E-05 1.99477E-06 4.30754E-20-1.17756E-18
 -1      1879 9.86926E-05-2.93407E-05-2.97180E-05 2.15479E-06-2.32003E-19-6.77979E-19
 -1      1880 9.93251E-05-2.95111E-05-2.99043E-05 2.39165E-06-5.73634E-19-3.96284E-19
 -1      1881 9.80055E-05-2.90090E-05-2.95762E-05 2.56448E-06-2.38596E-19 8.97198E-20
 -1      1882 9.98107E-05-2.96348E-05-3.00712E-05 2.71176E-06-1.20131E-18-2.81848E-19
 -1      1883 1.00594E-04-2.98563E-05-3.02994E-05 2.97993E-06-5.36590E-19-4.60922E-19
 -1      1884 9.88780E-05-2.92074E-05-2.98657E-05 3.23069E-06-4.25619E-19 5.03209E-19
 -1      1885 1.01180E-04-3.00181E-05-3.04944E-05 3.32938E-06-3.71586E-20-9.75474E-19
 -1      1886 1.02126E-04-3.03021E-05-3.07656E-05 3.61261E-06 2.62493E-19-6.26523E-19
 -1      1887 9.99448E-05-2.94818E-05-3.02057E-05 3.97541E-06-7.26256E-19 1.51786E-19
 -1      1888 1.02819E-04-3.05149E-05-3.09849E-05 3.96127E-06 5.69097E-19-1.00611E-18
 -1      1889 1.03921E-04-3.08741E-05-3.12943E-05 4.22421E-06 6.95140E-19-9.22690E-19
 -1      1890 1.01225E-04-2.98644E-05-3.05906E-05 4.75109E-06 1.41804E-19-4.65167E-19
 -1      1891 1.04723E-04-3.11568E-05-3.15279E-05 4.51336E-06 1.02378E-18-6.91556E-19
 -1      1892 1.05949E-04-3.16038E-05-3.18607E-05 4.68949E-06 6.11681E-19-8.39747E-19
 -1      1893 1.02733E-04-3.04042E-05-3.10053E-05 5.46050E-06 4.85780E-19 1.86565E-19
 -1      1894 1.06856E-04-3.19834E-05-3.20901E-05 4.81615E-06-1.14472E-19-1.01586E-18
 -1      1895 1.08123E-04-3.25260E-05-3.24158E-05 4.79265E-06 1.00893E-19-9.32378E-19
 -1      1896 1.04473E-04-3.11731E-05-3.14211E-05 5.92805E-06 5.32570E-19 1.77790E-19
 -1      1897 1.09121E-04-3.30367E-05-3.26120E-05 4.59204E-06 6.81213E-19-3.76251E-19
 -1      1898 1.10275E-04-3.36660E-05-3.28783E-05 4.19708E-06 7.52135E-19 6.54743E-19
 -1      1899 1.06435E-04-3.22671E-05-3.17925E-05 5.86460E-06 4.33236E-19 9.40365E-19
 -1      1900 1.11329E-04-3.43370E-05-3.30027E-05 3.43233E-06 4.33793E-19 3.19239E-19
 -1      1901 1.12112E-04-3.50005E-05-3.31326E-05 2.44098E-06 1.26155E-19 3.27140E-19
 -1      1902 1.08578E-04-3.37868E-05-3.20589E-05 4.83793E-06 3.50331E-19 1.12254E-18
 -1      1903 1.13139E-04-3.58173E-05-3.31447E-05 8.25285E-07-2.29890E-19 1.05412E-18
 -1      1904 1.13176E-04-3.63667E-05-3.30438E-05-9.82540E-07-5.16942E-19 7.42315E-19
 -1      1905 1.10790E-04-3.57623E-05-3.21564E-05 2.28265E-06 4.12459E-19 1.81601E-18
 -1      1906 1.13973E-04-3.71857E-05-3.29180E-05-3.68104E-06-1.18693E-18 1.08598E-18
 -1      1907 1.12796E-04-3.73068E-05-3.25015E-05-6.36185E-06-7.47004E-19 1.70031E-18
 -1      1908 1.12776E-04-3.79781E-05-3.20460E-05-2.37444E-06-7.47546E-19 2.89848E-18
 -1      1909 1.12949E-04-3.77374E-05-3.22526E-05-1.00663E-05-2.98910E-19 1.24897E-18
 -1      1910 1.10124E-04-3.69252E-05-3.14960E-05-1.32360E-05 1.16529E-18 9.48181E-19
 -1      1911 1.13882E-04-3.96905E-05-3.17587E-05-9.34966E-06-1.68831E-19 2.80395E-18
 -1      1912 1.08975E-04-3.62937E-05-3.11971E-05-1.71560E-05 2.56695E-18 9.03566E-19
 -1      1913 1.04410E-04-3.40366E-05-3.01923E-05-1.97134E-05 1.99030E-18 1.86900E-18
 -1      1914 1.12946E-04-3.94235E-05-3.14305E-05-1.78061E-05 1.30290E-18 2.28852E-18
 -1      1915 1.01367E-04-3.17073E-05-2.99464E-05-2.20560E-05 1.03504E-18 2.27747E-18
 -1      1916 9.57374E-05-2.80365E-05-2.89142E-05-2.22855E-05 1.31433E-18 2.51700E-18
 -1      1917 1.08573E-04-3.53858E-05-3.12641E-05-2.50332E-05 1.73147E-18 1.72016E-18
 -1      1918 9.10799E-05-2.42550E-05-2.87579E-05-2.07914E-05 1.53154E-19 1.89799E-18
 -1      1919 8.60404E-05-2.03517E-05-2.79641E-05-1.73332E-05-4.57398E-19 9.97262E-19
 -1      1920 1.00367E-04-2.71292E-05-3.13481E-05-2.64902E-05 7.56506E-20 1.12956E-18
 -1      1921 8.14608E-05-1.67979E-05-2.77730E-05-1.10306E-05-1.09164E-18-3.04482E-19
 -1      1922 7.91037E-05-1.47953E-05-2.74012E-05-4.35817E-06-1.25387E-18-1.20837E-18
 -1      1923 9.04673E-05-1.73485E-05-3.14185E-05-1.82539E-05-1.48593E-18-1.43724E-18
 -1      1924 7.69589E-05-1.39096E-05-2.69537E-05 4.70785E-06-1.32611E-18-1.05590E-18
 -1      1925 7.85462E-05-1.56146E-05-2.69671E-05 1.15109E-05-1.24514E-18-6.57403E-19
 -1      1926 8.33363E-05-1.16507E-05-3.08874E-05-1.23839E-06-1.47146E-18-1.55251E-18
 -1      1927 8.01254E-05-1.88128E-05-2.60521E-05 1.86010E-05-3.78002E-19-1.17393E-19
 -1      1928 8.51840E-05-2.48064E-05-2.61278E-05 2.10629E-05 8.06680E-19 2.23590E-19
 -1      1929 8.29703E-05-1.52348E-05-2.91586E-05 1.69156E-05-7.55183E-20 2.17067E-18
 -1      1930 4.76605E-05 8.15468E-06-2.76675E-05-7.55009E-05-1.89905E-18 2.59192E-18
 -1      1931 2.72305E-05 2.28661E-05-2.61058E-05-3.34899E-05-1.85119E-18 8.97855E-19
 -1      1932 9.32333E-05-2.73785E-05-2.81970E-05 1.59366E-06 9.11057E-19 2.01520E-18
 -1      1933 9.44015E-05-2.74640E-05-2.86328E-05 2.66545E-06 1.00117E-18 2.45125E-18
 -1      1934 9.52361E-05-2.70264E-05-2.92250E-05 4.06247E-06 1.24645E-18 1.86102E-18
 -1      1935 9.21775E-05-2.73525E-05-2.77580E-05 3.46034E-07 5.52232E-19 1.48470E-18
 -1      1936 9.26691E-05-2.73851E-05-2.79294E-05 8.96141E-07 5.80449E-19 1.73156E-18
 -1      1937 9.36521E-05-2.73828E-05-2.84082E-05 1.58649E-06 8.42520E-19 1.37247E-18
 -1      1938 9.18056E-05-2.73928E-05-2.75901E-05-3.10675E-07 4.37663E-19 1.41080E-18
 -1      1939 9.19188E-05-2.73646E-05-2.76369E-05-1.73452E-08 4.46813E-19 1.45572E-18
 -1      1940 9.28108E-05-2.74860E-05-2.80069E-05 2.66640E-07 5.98945E-19 9.01379E-19
 -1      1941 9.18317E-05-2.74845E-05-2.75673E-05-6.35733E-07 1.99609E-19 1.13335E-18
 -1      1942 9.17423E-05-2.74220E-05-2.75506E-05-4.83025E-07 3.47027E-19 1.38685E-18
 -1      1943 9.25004E-05-2.75822E-05-2.78323E-05-4.27403E-07 3.97313E-19 9.36995E-19
 -1      1944 9.20778E-05-2.76070E-05-2.76233E-05-7.72935E-07 2.78229E-19 9.24077E-19
 -1      1945 9.18857E-05-2.75278E-05-2.75743E-05-7.01833E-07 2.08967E-19 9.80315E-19
 -1      1946 9.25052E-05-2.76879E-05-2.77870E-05-7.71603E-07 2.88061E-19 6.57458E-19
 -1      1947 9.24324E-05-2.77418E-05-2.77194E-05-7.99509E-07 3.01048E-19 8.74817E-19
 -1      1948 9.21960E-05-2.76580E-05-2.76558E-05-7.77495E-07 3.49634E-19 9.50426E-19
 -1      1949 9.26910E-05-2.78036E-05-2.78149E-05-9.11840E-07 3.31189E-19 5.32066E-19
 -1      1950 9.28253E-05-2.78755E-05-2.78319E-05-7.61688E-07 7.43736E-20 7.99853E-19
 -1      1951 9.25796E-05-2.77945E-05-2.77641E-05-7.69026E-07 1.54272E-19 9.17993E-19
 -1      1952 9.29685E-05-2.79209E-05-2.78817E-05-9.30774E-07 2.11045E-19 7.40198E-19
 -1      1953 9.32140E-05-2.79997E-05-2.79462E-05-6.88832E-07-2.87407E-19 1.10150E-18
 -1      1954 9.29795E-05-2.79257E-05-2.78806E-05-7.12856E-07-1.28261E-19 8.07643E-19
 -1      1955 9.32805E-05-2.80324E-05-2.79662E-05-8.79461E-07-9.68695E-20 8.17726E-19
 -1      1956 9.35741E-05-2.81100E-05-2.80540E-05-5.99825E-07 3.29599E-19 8.99528E-19
 -1      1957 9.33620E-05-2.80452E-05-2.79940E-05-6.32265E-07 1.15284E-20 1.01979E-18
 -1      1958 9.35917E-05-2.81333E-05-2.80553E-05-7.90493E-07 1.51519E-21 7.92694E-19
 -1      1959 9.38930E-05-2.82048E-05-2.81507E-05-5.06736E-07 5.35056E-19 9.78717E-19
 -1      1960 9.37083E-05-2.81497E-05-2.80981E-05-5.42211E-07 3.48772E-19 9.84647E-19
 -1      1961 9.38813E-05-2.82213E-05-2.81411E-05-6.84873E-07 4.20566E-19 6.28113E-19
 -1      1962 9.41660E-05-2.82838E-05-2.82343E-05-4.17084E-07 4.32879E-19 9.35423E-19
 -1      1963 9.40101E-05-2.82383E-05-2.81895E-05-4.52167E-07 5.36808E-19 1.07056E-18
 -1      1964 9.41387E-05-2.82956E-05-2.82191E-05-5.76017E-07 5.20035E-19 1.03623E-18
 -1      1965 9.43932E-05-2.83480E-05-2.83045E-05-3.35320E-07-7.43714E-20 8.45281E-19
 -1      1966 9.42650E-05-2.83113E-05-2.82675E-05-3.67913E-07 9.26889E-20 9.95986E-19
 -1      1967 9.43597E-05-2.83566E-05-2.82873E-05-4.72252E-07 2.01783E-19 1.07163E-18
 -1      1968 9.45781E-05-2.83990E-05-2.83621E-05-2.63879E-07 2.89875E-19 6.48050E-19
 -1      1969 9.44749E-05-2.83700E-05-2.83321E-05-2.92766E-07 8.44014E-21 5.46662E-19
 -1      1970 9.45442E-05-2.84056E-05-2.83452E-05-3.78497E-07 1.11796E-19 3.65039E-19
 -1      1971 9.47259E-05-2.84386E-05-2.84085E-05-2.03933E-07 4.40364E-19 2.62338E-19
 -1      1972 9.46444E-05-2.84163E-05-2.83847E-05-2.28460E-07 2.96095E-19 4.73706E-19
 -1      1973 9.46951E-05-2.84440E-05-2.83933E-05-2.97451E-07 4.22507E-19 2.46611E-19
 -1      1974 9.48427E-05-2.84690E-05-2.84457E-05-1.55964E-07 7.42265E-19-7.13795E-20
 -1      1975 9.47791E-05-2.84520E-05-2.84269E-05-1.75788E-07 6.21834E-19-7.73931E-23
 -1      1976 9.48168E-05-2.84734E-05-2.84328E-05-2.30468E-07 9.17816E-19 1.65717E-19
 -1      1977 9.49355E-05-2.84921E-05-2.84756E-05-1.20193E-07 4.76641E-19 5.82890E-19
 -1      1978 9.48857E-05-2.84793E-05-2.84607E-05-1.35093E-07 8.36003E-19 5.37108E-19
 -1      1979 9.49147E-05-2.84957E-05-2.84652E-05-1.78206E-07 5.99335E-19 3.90856E-19
 -1      1980 9.50118E-05-2.85102E-05-2.85005E-05-9.69070E-08-8.04090E-19 3.49656E-19
 -1      1981 9.49716E-05-2.85002E-05-2.84882E-05-1.06637E-07-1.56419E-19 4.59872E-19
 -1      1982 9.49948E-05-2.85126E-05-2.84923E-05-1.41128E-07 2.34611E-20 7.69203E-19
 -1      1983 9.50794E-05-2.85253E-05-2.85229E-05-8.67209E-08-6.05875E-19 9.79405E-20
 -1      1984 9.50443E-05-2.85170E-05-2.85119E-05-9.08907E-08-8.60959E-19 3.06641E-19
 -1      1985 9.50639E-05-2.85259E-05-2.85163E-05-1.19881E-07-7.28227E-19 5.96868E-19
 -1      1986 9.51471E-05-2.85399E-05-2.85454E-05-9.07775E-08 6.92805E-20 3.85004E-19
 -1      1987 9.51122E-05-2.85318E-05-2.85344E-05-8.87546E-08-7.88721E-20 3.98652E-19
 -1      1988 9.51293E-05-2.85376E-05-2.85395E-05-1.15595E-07-2.66530E-19 4.64970E-19
 -1      1989 9.52245E-05-2.85566E-05-2.85712E-05-1.10909E-07 6.56104E-19 9.09429E-19
 -1      1990 9.51844E-05-2.85472E-05-2.85584E-05-1.01739E-07 3.21902E-19 6.48437E-19
 -1      1991 9.51991E-05-2.85496E-05-2.85644E-05-1.30110E-07 3.48639E-19 1.15323E-18
 -1      1992 9.53229E-05-2.85785E-05-2.86036E-05-1.49756E-07-2.97514E-20 4.64851E-19
 -1      1993 9.52713E-05-2.85659E-05-2.85872E-05-1.32099E-07 4.83606E-19 9.00469E-19
 -1      1994 9.52825E-05-2.85643E-05-2.85941E-05-1.66163E-07 6.10770E-19 1.04727E-18
 -1      1995 9.54552E-05-2.86089E-05-2.86468E-05-2.10841E-07-5.91642E-19 6.34090E-19
 -1      1996 9.53848E-05-2.85911E-05-2.86246E-05-1.82926E-07-8.25988E-19 2.40017E-19
 -1      1997 9.53903E-05-2.85843E-05-2.86320E-05-2.27500E-07-5.32608E-19 7.15345E-19
 -1      1998 9.56371E-05-2.86523E-05-2.87056E-05-2.98569E-07 1.56932E-19 1.24365E-18
 -1      1999 9.55391E-05-2.86268E-05-2.86750E-05-2.58178E-07 6.25688E-20 9.39696E-19
 -1      2000 9.55349E-05-2.86129E-05-2.86821E-05-3.18922E-07-2.27809E-19 9.62255E-19
 -1      2001 9.58866E-05-2.87139E-05-2.87854E-05-4.18116E-07-2.28115E-19 1.40733E-18
 -1      2002 9.57508E-05-2.86775E-05-2.87434E-05-3.62619E-07 2.45631E-19 1.47171E-18
 -1      2003 9.57311E-05-2.86540E-05-2.87490E-05-4.46216E-07 1.07383E-19 1.43708E-18
 -1      2004 9.62250E-05-2.87998E-05-2.88928E-05-5.75139E-07-3.98092E-19 1.70924E-18
 -1      2005 9.60394E-05-2.87489E-05-2.88358E-05-5.01609E-07-5.97037E-19 1.15368E-18
 -1      2006 9.59958E-05-2.87124E-05-2.88379E-05-6.15909E-07-1.72829E-19 1.35185E-18
 -1      2007 9.66765E-05-2.89175E-05-2.90349E-05-7.75193E-07-6.25047E-19 1.02228E-18
 -1      2008 9.64272E-05-2.88478E-05-2.89590E-05-6.80657E-07-7.31795E-19 1.28700E-18
 -1      2009 9.63487E-05-2.87941E-05-2.89548E-05-8.34730E-07-6.87543E-19 5.83849E-19
 -1      2010 9.72676E-05-2.90756E-05-2.92195E-05-1.02268E-06 2.12932E-19 1.27696E-18
 -1      2011 9.69394E-05-2.89820E-05-2.91203E-05-9.04593E-07 4.86407E-20 1.65287E-18
 -1      2012 9.68115E-05-2.89059E-05-2.91059E-05-1.10863E-06-5.68339E-20 1.27033E-18
 -1      2013 9.80257E-05-2.92839E-05-2.94542E-05-1.31907E-06 1.07834E-18 1.01980E-18
 -1      2014 9.76028E-05-2.91608E-05-2.93274E-05-1.17614E-06 7.42599E-19 1.09231E-18
 -1      2015 9.74074E-05-2.90566E-05-2.92974E-05-1.44108E-06 8.91133E-19 1.58079E-18
 -1      2016 9.89764E-05-2.95529E-05-2.97457E-05-1.65999E-06-9.67810E-20 7.02359E-20
 -1      2017 9.84443E-05-2.93945E-05-2.95874E-05-1.49355E-06 5.21144E-19 4.86388E-19
 -1      2018 9.81592E-05-2.92561E-05-2.95350E-05-1.83032E-06 7.68763E-19 1.48029E-18
 -1      2019 1.00138E-04-2.98935E-05-3.00976E-05-2.03071E-06 4.93142E-19-6.56355E-19
 -1      2020 9.94866E-05-2.96943E-05-2.99056E-05-1.84693E-06-5.69845E-21 8.46959E-20
 -1      2021 9.90871E-05-2.95161E-05-2.98220E-05-2.26499E-06 8.95423E-20 9.73449E-19
 -1      2022 1.01516E-04-3.03153E-05-3.05083E-05-2.39932E-06 6.50680E-19-2.51744E-19
 -1      2023 1.00743E-04-3.00715E-05-3.02833E-05-2.21256E-06 6.28357E-19-6.47575E-19
 -1      2024 1.00203E-04-2.98501E-05-3.01579E-05-2.71756E-06 6.81945E-19-1.91185E-19
 -1      2025 1.03087E-04-3.08248E-05-3.09663E-05-2.70721E-06-6.70428E-19 1.18226E-19
 -1      2026 1.02209E-04-3.05357E-05-3.07144E-05-2.54489E-06 8.74851E-20 3.92228E-19
 -1      2027 1.01507E-04-3.02730E-05-3.05357E-05-3.13494E-06-1.24251E-20 4.60467E-19
 -1      2028 1.04787E-04-3.14211E-05-3.14453E-05-2.85708E-06 7.14847E-19 4.27818E-21
 -1      2029 1.03848E-04-3.10925E-05-3.11814E-05-2.76584E-06 7.47937E-20-5.49728E-20
 -1      2030 1.02972E-04-3.07996E-05-3.09376E-05-3.42605E-06 9.05130E-20 1.24320E-18
 -1      2031 1.06490E-04-3.20887E-05-3.18977E-05-2.70091E-06 6.98917E-19-5.79847E-19
 -1      2032 1.05573E-04-3.17379E-05-3.16492E-05-2.75317E-06 2.78478E-19-4.02638E-19
 -1      2033 1.04536E-04-3.14410E-05-3.13317E-05-3.44806E-06 8.46687E-19 9.77014E-19
 -1      2034 1.07977E-04-3.27847E-05-3.22490E-05-2.03553E-06-5.59753E-19-5.20657E-19
 -1      2035 1.07223E-04-3.24480E-05-3.20594E-05-2.33248E-06 1.34801E-19 5.92327E-20
 -1      2036 1.06082E-04-3.21951E-05-3.16679E-05-2.99630E-06 2.00532E-19-7.50286E-20
 -1      2037 1.08922E-04-3.34171E-05-3.23964E-05-6.22014E-07 5.78517E-19 5.07068E-19
 -1      2038 1.08538E-04-3.31605E-05-3.23268E-05-1.28485E-06 3.53762E-19 2.72910E-19
 -1      2039 1.07415E-04-3.30261E-05-3.18771E-05-1.81091E-06-7.68352E-20 6.43487E-19
 -1      2040 1.08884E-04-3.38142E-05-3.22193E-05 1.74262E-06-1.44113E-18 1.66045E-18
 -1      2041 1.09138E-04-3.37450E-05-3.23425E-05 6.08043E-07-4.65868E-19 6.51438E-19
 -1      2042 1.08242E-04-3.38258E-05-3.18776E-05 3.75438E-07-5.90905E-19 1.84590E-18
 -1      2043 1.07345E-04-3.36947E-05-3.16089E-05 5.06807E-06 5.30454E-20 1.02178E-18
 -1      2044 1.08524E-04-3.39649E-05-3.19917E-05 3.45067E-06-8.52724E-19 1.47491E-18
 -1      2045 1.08147E-04-3.43580E-05-3.15926E-05 3.71355E-06-1.01249E-18 1.53308E-18
 -1      2046 1.03838E-04-3.26783E-05-3.05221E-05 8.92258E-06-8.95274E-20 5.29197E-19
 -1      2047 1.06150E-04-3.34584E-05-3.11918E-05 7.03191E-06 1.71312E-19 9.15431E-19
 -1      2048 1.06623E-04-3.42115E-05-3.09821E-05 8.00938E-06 3.01689E-19 9.83710E-19
 -1      2049 9.82108E-05-3.04187E-05-2.90444E-05 1.21935E-05 3.98172E-20 1.59404E-18
 -1      2050 1.01616E-04-3.18086E-05-2.99488E-05 1.05787E-05 2.63507E-20 1.81644E-18
 -1      2051 1.03190E-04-3.28464E-05-3.00815E-05 1.24269E-05-5.03806E-19 2.90663E-18
 -1      2052 9.10183E-05-2.69242E-05-2.74253E-05 1.31494E-05 1.98075E-18 1.79730E-19
 -1      2053 9.50513E-05-2.87989E-05-2.84055E-05 1.26622E-05 6.85485E-19 8.09525E-19
 -1      2054 9.77274E-05-2.98792E-05-2.90192E-05 1.53231E-05 1.45052E-18 2.52445E-18
 -1      2055 8.38466E-05-2.29564E-05-2.60476E-05 1.01457E-05 6.40397E-19 2.29625E-19
 -1      2056 8.75280E-05-2.48270E-05-2.68561E-05 1.15716E-05 2.04577E-18 8.30622E-20
 -1      2057 9.09268E-05-2.55511E-05-2.79962E-05 1.46158E-05 1.86083E-18 9.27369E-19
 -1      2058 7.90544E-05-2.00598E-05-2.52709E-05 2.88694E-06-7.66168E-19 7.26992E-19
 -1      2059 8.11438E-05-2.11385E-05-2.56672E-05 6.34487E-06-3.27511E-19 7.79925E-19
 -1      2060 8.45711E-05-2.11909E-05-2.72087E-05 8.92691E-06-4.18831E-19 2.26441E-18
 -1      2061 7.88160E-05-2.00675E-05-2.52359E-05-6.38277E-06-1.28926E-18 1.27751E-18
 -1      2062 7.83639E-05-1.95908E-05-2.51190E-05-2.01901E-06-8.32686E-19 1.13243E-18
 -1      2063 8.10625E-05-1.88870E-05-2.67271E-05-8.79415E-07-1.22718E-18 2.25123E-18
 -1      2064 8.36794E-05-2.39337E-05-2.56918E-05-1.26486E-05-8.33547E-19 2.79526E-18
 -1      2065 8.07289E-05-2.17093E-05-2.52263E-05-9.99131E-06-5.70093E-19 2.34734E-18
 -1      2066 8.22854E-05-2.07759E-05-2.64424E-05-1.09195E-05-1.09917E-18 3.67018E-18
 -1      2067 9.03185E-05-2.94033E-05-2.61283E-05-1.26130E-05-3.54119E-19 1.65770E-18
 -1      2068 8.60148E-05-2.58626E-05-2.56902E-05-1.35704E-05-9.87614E-19 2.06065E-18
 -1      2069 8.66818E-05-2.53098E-05-2.62759E-05-1.58946E-05-5.31050E-20 4.07132E-18
 -1      2070 9.21542E-05-3.22723E-05-2.56484E-05-1.55691E-05 6.09202E-19 2.72764E-18
 -1      2071 1.02208E-04-3.75874E-05-2.76054E-05-2.09114E-05 1.54047E-18-1.28230E-18
 -1      2072 9.72900E-05-3.42462E-05-2.69812E-05-2.38784E-05 6.63664E-19-1.52297E-18
 -1      2073 9.59577E-05-3.69760E-05-2.51739E-05-2.41846E-05 8.63497E-19-2.78721E-18
 -1      2074 9.35430E-05-3.29602E-05-2.58203E-05-2.27284E-05 1.17158E-18-1.28198E-18
 -1      2075 9.23312E-05-2.08261E-05-3.10077E-05-2.35935E-05 8.56119E-19-9.98387E-19
 -1      2076 5.26665E-05 1.23861E-05-3.02584E-05 9.38070E-05-3.31783E-18-3.37119E-19
 -1      2077 3.98034E-05 1.56714E-05-2.73794E-05 6.13422E-05-3.61175E-18 1.91599E-18
 -1      2078 9.41020E-05-3.56755E-05-2.50296E-05-2.10956E-05 9.37851E-19 4.14384E-20
 -1      2079 9.23693E-05-3.19289E-05-2.58544E-05-1.78738E-05 5.97079E-19 1.69740E-18
 -1      2080 8.99746E-05-2.84013E-05-2.63989E-05-1.89367E-05 1.00633E-18 2.17534E-18
 -1      2081 9.00677E-05-2.56185E-05-2.78098E-05-2.28710E-05 4.45248E-19-5.64892E-19
 -1      2082 1.15724E-04-3.76430E-05-3.35068E-05-4.61038E-06 1.12576E-18 1.48993E-18
 -1      2083 1.07623E-04-3.60256E-05-3.10000E-05-1.57701E-05 6.74503E-19-4.36328E-19
 -1      2084 1.02888E-04-1.70411E-05-3.73487E-05-1.65173E-05 9.27978E-19-7.03461E-19
 -1      2085 1.36862E-04-3.92135E-05-4.19493E-05 2.85197E-05 1.12211E-18-3.47284E-20
 -1      2086 1.26940E-04-3.95499E-05-3.81873E-05 8.22370E-06 3.04773E-19 2.80156E-18
 -1      2087 1.24166E-04-1.70927E-05-4.65199E-05 2.69280E-06-2.07523E-19 1.23074E-18
 -1      2088 2.63927E-05 2.61209E-05-2.67354E-05 1.47070E-05-3.17447E-18 7.38613E-19
 -1      2089 8.42567E-05-1.55387E-05-3.13195E-05 1.13448E-04-2.54364E-18-2.87695E-18
 -1      2090 9.33941E-05-2.09017E-05-3.22649E-05-1.11549E-04-2.44242E-18-1.00797E-19
 -1      2091 6.57334E-05 7.29806E-06-3.20050E-05-1.11949E-04-2.40811E-18 2.31579E-18
 -1      2092 1.34069E-04-5.60554E-05-3.44458E-05-7.31084E-05-1.19416E-18-2.53432E-18
 -1      2093 1.23050E-04-3.56209E-05-3.80773E-05-1.01896E-04-1.90349E-18-2.06782E-18
 -1      2094 1.08021E-04-5.06313E-05-2.49196E-05 1.93290E-05-4.85985E-20 1.27118E-18
 -1      2095 1.15057E-04-5.42872E-05-2.63841E-05 8.28000E-06-1.37771E-18 3.50820E-18
 -1      2096 9.83092E-05-4.29726E-05-2.37272E-05 2.60583E-05 1.31428E-18 6.88267E-19
 -1      2097 1.04022E-04-5.07075E-05-2.26223E-05 2.48867E-05 5.50148E-19 1.45589E-18
 -1      2098 1.02791E-04-3.02727E-05-3.16298E-05 2.42062E-05-1.54716E-19 1.46547E-18
 -1      2099 1.41178E-04-3.11553E-05-4.58291E-05 1.04397E-04-8.23740E-19-3.41100E-18
 -1      2100 8.72645E-05-8.72825E-06-3.37492E-05-1.05233E-05-9.10640E-19-1.58305E-18
 -1      2101 8.79804E-05-9.26413E-06-3.38217E-05-1.21027E-05-1.10684E-18-1.31539E-18
 -1      2102 9.04755E-05-1.30303E-05-3.32193E-05-1.18122E-05-1.21955E-18-1.01557E-18
 -1      2103 8.86714E-05-1.10563E-05-3.32965E-05-9.38885E-06-8.82130E-19-1.47369E-18
 -1      2104 1.97565E-04-5.17498E-06-8.04417E-05 6.76064E-05-2.94683E-18-2.33315E-18
 -1      2105 1.79956E-04-3.57414E-06-7.41235E-05 7.19891E-05-2.57202E-18-3.10607E-18
 -1      2106 2.14408E-04-9.94525E-06-8.64021E-05 4.99701E-05-1.56235E-18-2.84746E-18
 -1      2107 2.03886E-04-3.64580E-06-8.46016E-05 6.22990E-05-2.18577E-18-1.94521E-18
 -1      2108 2.19978E-04-2.07723E-05-8.48397E-05 2.91339E-05 1.19559E-18-2.50277E-18
 -1      2109 2.24402E-04-1.66204E-05-8.76825E-05 4.50348E-05 3.62530E-19-2.47471E-18
 -1      2110 2.02063E-04-3.01454E-05-7.36539E-05 1.19195E-05 2.21245E-18-2.46656E-18
 -1      2111 2.18754E-04-2.81976E-05-8.04204E-05 2.17864E-05 1.90752E-18-3.16028E-18
 -1      2112 1.81916E-04-4.56913E-05-5.84692E-05-1.17113E-05 2.14596E-18-3.60836E-18
 -1      2113 1.99819E-04-4.27001E-05-6.67561E-05-1.48641E-06 2.10837E-18-2.59023E-18
 -1      2114 1.50610E-04-5.68994E-05-4.03881E-05-2.29937E-05 1.27330E-18-4.64936E-18
 -1      2115 1.72443E-04-5.20743E-05-5.06500E-05-2.24409E-05 1.26144E-18-4.15554E-18
 -1      2116 1.03750E-04-6.11803E-05-1.93817E-05-3.48579E-05 1.83806E-18-3.96030E-18
 -1      2117 1.29727E-04-6.19171E-05-2.94923E-05-3.44839E-05 2.00832E-18-4.82597E-18
 -1      2118 6.16813E-05-5.88981E-05-2.68878E-06-3.44694E-05 2.11292E-18-3.44189E-18
 -1      2119 8.09922E-05-5.60384E-05-1.11779E-05-4.09885E-05 2.56566E-18-4.30790E-18
 -1      2120 3.08642E-05-5.37623E-05 8.58650E-06-2.61075E-05 1.33662E-18-2.61987E-18
 -1      2121 4.35131E-05-5.35365E-05 3.41413E-06-3.31906E-05 1.84145E-18-2.72067E-18
 -1      2122 1.45368E-05-5.19354E-05 1.44919E-05-5.03516E-06 7.44330E-19 1.30020E-18
 -1      2123 1.72765E-05-4.73416E-05 1.20076E-05-1.51036E-05 1.62800E-18-1.14519E-18
 -1      2124 1.81012E-05-5.02915E-05 1.26914E-05 1.36064E-05 2.62157E-19-2.33781E-19
 -1      2125 1.48683E-05-5.27093E-05 1.47329E-05 4.35165E-06 1.55642E-19 1.35483E-18
 -1      2126 1.48135E-05-3.76250E-05 9.10315E-06-3.67329E-07 6.93561E-19 2.30393E-19
 -1      2127 4.32596E-05-5.32610E-05 3.53529E-06 3.20925E-05 7.68259E-19-3.18251E-18
 -1      2128 3.08670E-05-5.52990E-05 8.99466E-06 2.36487E-05 9.28772E-19-1.73388E-18
 -1      2129 8.20005E-05-5.75636E-05-1.08242E-05 3.93445E-05 9.99499E-20-9.77264E-19
 -1      2130 6.37729E-05-6.03200E-05-2.86839E-06 3.39276E-05 1.32561E-18-2.88454E-18
 -1      2131 1.19859E-04-5.74196E-05-2.68632E-05 3.86228E-05-1.48443E-18 1.58183E-18
 -1      2132 9.75776E-05-6.03622E-05-1.73492E-05 3.45188E-05-2.65121E-19 4.69256E-19
 -1      2133 1.04269E-04-6.87623E-05-1.54766E-05 3.84173E-05 4.31987E-19 1.20342E-18
 -1      2134 1.67357E-04-5.46951E-05-4.77000E-05 2.73588E-05 7.37342E-19-2.19636E-18
 -1      2135 1.41378E-04-5.62016E-05-3.73241E-05 2.76295E-05-4.09964E-19-6.76779E-19
 -1      2136 2.04022E-04-4.70910E-05-6.62319E-05 8.14817E-06 1.12010E-18-2.13876E-18
 -1      2137 1.80141E-04-4.79827E-05-5.68282E-05 1.48047E-05 1.08823E-18-2.67832E-18
 -1      2138 2.20491E-04-3.33348E-05-7.93777E-05-1.68747E-05-2.20229E-20-1.47553E-18
 -1      2139 2.10408E-04-3.78857E-05-7.33033E-05-2.84787E-06 7.24848E-19-1.75421E-18
 -1      2140 2.24267E-04-1.88083E-05-8.65918E-05-3.89881E-05 6.60686E-19-1.39760E-20
 -1      2141 2.15252E-04-2.04930E-05-8.29374E-05-2.61443E-05 4.58668E-19-1.73642E-19
 -1      2142 2.10790E-04-6.87258E-06-8.61186E-05-5.73604E-05-3.68036E-19-9.62441E-19
 -1      2143 2.22419E-04-1.46885E-05-8.77182E-05-4.51355E-05-3.00697E-20-3.30025E-19
 -1      2144 1.84057E-04 3.73871E-06-7.88508E-05-3.48482E-05-1.46113E-19 1.34956E-18
 -1      2145 1.85605E-04-5.89368E-06-7.52643E-05-7.00939E-05 1.18161E-18-2.55804E-19
 -1      2146 2.01883E-04-7.43725E-06-8.13723E-05-6.29864E-05 7.70800E-19-3.29496E-19
 -1      2147 1.64005E-04-1.65231E-05-6.02343E-05-9.17079E-05 6.51368E-19-3.13063E-18
 -1      2148 1.78071E-04-1.00502E-05-6.90524E-05-8.68900E-05 1.48379E-18-3.01967E-18
 -1      2149 1.30751E-04-3.63416E-05-4.06207E-05-1.06971E-04-9.91029E-20-2.12139E-18
 -1      2150 1.48542E-04-2.59675E-05-5.05635E-05-1.03969E-04-2.53263E-19-2.02780E-18
 -1      2151 1.14314E-04-2.63195E-05-3.73792E-05-1.19188E-04-1.65426E-18-1.54922E-18
 -1      2152 1.74309E-04-1.07277E-05-6.73230E-05 8.47192E-05-2.60224E-18-2.93412E-18
 -1      2153 1.58598E-04-1.84563E-05-5.84474E-05 8.87083E-05-1.23582E-18-3.18315E-18
 -1      2154 1.54162E-04-3.03295E-05-5.15093E-05 8.74416E-05-4.23516E-19-3.93362E-18
 -1      2155 1.39298E-04-4.79357E-05-3.88066E-05 7.90037E-05-5.68889E-19-3.22169E-18
 -1      2156 1.45445E-04-6.54316E-05-3.42685E-05-2.26461E-05 1.06133E-18-4.07635E-18
 -1      2157 1.57684E-04-6.97641E-05-3.86722E-05-8.23592E-06 4.16105E-19-2.30033E-18
 -1      2158 1.41576E-04-7.27549E-05-2.88789E-05-2.26207E-05 1.10495E-18-2.96536E-18
 -1      2159 9.71993E-05-2.43172E-05-3.13080E-05-9.99954E-06-1.28294E-18 8.94877E-19
 -1      2160 9.63564E-05-2.31109E-05-3.14576E-05-1.03786E-05-1.40454E-18 1.68904E-19
 -1      2161 8.88222E-05-2.80136E-05-2.60811E-05 2.52179E-05 1.21274E-18 9.21539E-19
 -1      2162 1.65912E-04-1.47359E-05-6.30477E-05 5.22282E-05-1.95326E-18-2.70076E-18
 -1      2163 1.88237E-04-7.56643E-06-7.62642E-05 3.31585E-05 1.51365E-18-1.59454E-18
 -1      2164 1.75515E-04-5.32989E-05-5.18125E-05 2.33120E-06 1.01382E-18-2.26835E-18
 -1      2165 1.54430E-04-3.79585E-05-5.01429E-05 6.32041E-05-3.98185E-19-3.36357E-18
 -1      2166 9.51092E-05-3.50449E-05-2.59588E-05 2.69327E-05 1.72890E-18 1.66155E-18
 -1      2167 6.30456E-05-5.68690E-05-3.10501E-06-4.12429E-05 2.19424E-18-3.42985E-18
 -1      2168 1.71527E-04 3.93508E-06-7.35385E-05 3.94432E-05-1.92869E-18-5.68783E-19
 -1      2169 1.30422E-04-5.59691E-05-3.30250E-05-4.53914E-05-1.47468E-18-1.89270E-18
 -1      2170 1.44022E-04-4.76949E-05-4.11268E-05-7.02396E-05-4.07635E-19-2.37000E-18
 -1      2171 1.52758E-04-3.22875E-05-5.06953E-05-7.63646E-05-1.04566E-18-2.85450E-18
 -1      2172 1.26750E-04-6.37020E-05-2.80618E-05-1.83508E-05-2.24325E-18 3.69306E-18
 -1      2173 2.82722E-05-4.37196E-05 6.17482E-06-2.55067E-05 1.02533E-18-1.91726E-18
 -1      2174 1.06477E-04-6.72924E-05-1.66751E-05-3.93340E-05 2.56058E-18-4.13193E-18
 -1      2175 1.87127E-04-3.12217E-05-6.60151E-05 2.02927E-05 1.74849E-18-1.47638E-18
 -1      2176 1.39854E-04-5.35317E-05-3.77191E-05 5.11768E-05 1.05477E-18-2.88923E-18
 -1      2177 1.79496E-04 1.27743E-06-7.57633E-05-3.84563E-05-4.14623E-19 1.45097E-18
 -1      2178 1.92390E-04-1.41721E-05-7.52527E-05-2.97124E-05 2.81638E-19 2.01170E-19
 -1      2179 1.91945E-04-3.78338E-05-6.49322E-05-1.69988E-05 1.18055E-18-1.69491E-18
 -1      2180 1.43289E-04-6.98387E-05-3.13617E-05 2.47469E-05-6.20875E-19 5.63277E-19
 -1      2181 2.83799E-05-4.40964E-05 6.17166E-06 2.49539E-05 7.26754E-19-7.87317E-19
 -1      2182 1.83065E-04 5.06240E-06-7.90396E-05 3.71687E-05-1.08124E-18-7.38136E-19
 -1      2183 6.48370E-05-5.79972E-05-3.33819E-06 4.01780E-05 8.52962E-19-1.98756E-18
 -1      2184 1.76040E-04-5.84302E-05-4.97970E-05 2.31642E-06 8.94573E-19-2.12944E-18
 -1      2185 1.69771E-04-1.34287E-05-6.49414E-05-5.26583E-05 8.00234E-19 6.47980E-19
 -1      2186 8.81270E-05-1.11782E-05-3.30174E-05-3.65884E-06-1.34932E-19-1.55575E-18
 -1      2187 8.83618E-05-1.14487E-05-3.29999E-05-4.79950E-06-3.05973E-19-1.67697E-18
 -1      2188 8.87144E-05-1.19322E-05-3.29520E-05-5.81715E-06-4.06577E-19-1.57707E-18
 -1      2189 8.91207E-05-1.24032E-05-3.29245E-05-6.98818E-06-6.36919E-19-1.43062E-18
 -1      2190 8.98819E-05-1.38176E-05-3.25983E-05-4.90035E-06-3.27305E-19-1.49173E-18
 -1      2191 8.77800E-05-1.07189E-05-3.30602E-05 6.15260E-07 4.19083E-19-1.58031E-18
 -1      2192 8.77756E-05-1.07140E-05-3.30604E-05-4.95117E-07 2.86444E-19-1.61637E-18
 -1      2193 8.79620E-05-1.09440E-05-3.30421E-05 2.75557E-06 6.66391E-19-1.50211E-18
 -1      2194 8.78463E-05-1.08105E-05-3.30512E-05 1.63686E-06 5.32434E-19-1.55452E-18
 -1      2195 8.90968E-05-1.27641E-05-3.27172E-05 1.04905E-06 4.73115E-19-1.44476E-18
 -1      2196 8.83970E-05-1.14919E-05-3.29972E-05 4.88430E-06 9.38319E-19-1.37593E-18
 -1      2197 8.81577E-05-1.12150E-05-3.30152E-05 3.76127E-06 7.95399E-19-1.44685E-18
 -1      2198 8.93644E-05-1.31199E-05-3.26778E-05 3.01769E-06 7.06740E-19-1.33889E-18
 -1      2199 8.91800E-05-1.24772E-05-3.29191E-05 7.06913E-06 1.26777E-18-1.06311E-18
 -1      2200 8.87597E-05-1.19890E-05-3.29479E-05 5.89742E-06 1.11400E-18-1.26933E-18
 -1      2201 8.99248E-05-1.38693E-05-3.25938E-05 4.97188E-06 9.88625E-19-1.20280E-18
 -1      2202 9.04536E-05-1.40890E-05-3.27930E-05 9.21878E-06 1.52156E-18-7.05889E-19
 -1      2203 8.97724E-05-1.32783E-05-3.28379E-05 8.03988E-06 1.33392E-18-9.01296E-19
 -1      2204 9.08660E-05-1.51349E-05-3.24498E-05 6.86321E-06 1.31551E-18-8.89001E-19
 -1      2205 9.24617E-05-1.66920E-05-3.25737E-05 1.10680E-05 1.65277E-18-7.34139E-20
 -1      2206 9.13707E-05-1.53159E-05-3.26564E-05 1.00309E-05 1.52507E-18-4.57153E-19
 -1      2207 9.22952E-05-1.70928E-05-3.22100E-05 8.51928E-06 1.47344E-18-5.10605E-19
 -1      2208 9.55205E-05-2.08643E-05-3.21004E-05 1.16830E-05 1.70375E-18 8.90324E-19
 -1      2209 9.38029E-05-1.84712E-05-3.23229E-05 1.14573E-05 1.69480E-18 3.31283E-19
 -1      2210 9.43097E-05-2.00268E-05-3.17887E-05 9.47419E-06 1.52201E-18 2.46242E-19
 -1      2211 9.75089E-05-2.45875E-05-3.13151E-05 9.84501E-06 1.50282E-18 1.80799E-18
 -1      2212 9.62754E-05-2.22028E-05-3.17339E-05 1.11085E-05 1.64576E-18 1.26923E-18
 -1      2213 9.59206E-05-2.32235E-05-3.11178E-05 8.83014E-06 1.60486E-18 8.94121E-19
 -1      2214 9.63334E-05-2.56811E-05-3.02871E-05 6.84627E-06 1.48424E-18 1.65199E-18
 -1      2215 9.59191E-05-2.50969E-05-3.03057E-05-6.18726E-06-1.12743E-18-1.65049E-19
 -1      2216 9.52587E-05-2.58506E-05-2.97623E-05-4.27244E-06-9.83180E-19-1.04733E-19
 -1      2217 9.36356E-05-2.74742E-05-2.83437E-05 3.62528E-07 6.03451E-19 5.98008E-19
 -1      2218 9.39157E-05-2.73351E-05-2.84913E-05 8.98110E-07 7.13602E-19 7.66098E-19
 -1      2219 9.42344E-05-2.71014E-05-2.87534E-05 1.76610E-06 9.35776E-19 8.41901E-19
 -1      2220 9.48090E-05-2.68868E-05-2.90518E-05 2.76843E-06 1.13496E-18 1.12607E-18
 -1      2221 9.47343E-05-2.69370E-05-2.90716E-05 1.87202E-06 9.86908E-19 5.27351E-19
 -1      2222 9.50752E-05-2.00234E-05-3.22134E-05-1.17669E-05-1.34999E-18-3.32169E-19
 -1      2223 9.54709E-05-2.33567E-05-3.09285E-05-7.96506E-06-1.27346E-18-2.80049E-19
 -1      2224 9.50521E-05-2.25591E-05-3.10544E-05-7.61878E-06-1.17801E-18-4.36325E-19
 -1      2225 9.32421E-05-1.77095E-05-3.23985E-05-1.12989E-05-1.31683E-18-6.36426E-19
 -1      2226 9.51461E-05-2.65386E-05-2.93459E-05-2.93433E-06-7.90143E-19-2.32818E-20
 -1      2227 9.46754E-05-2.69087E-05-2.90430E-05-1.87148E-06-5.53549E-19-1.15276E-20
 -1      2228 9.53408E-05-2.53661E-05-2.99970E-05-4.28293E-06-8.79700E-19-2.97924E-19
 -1      2229 9.44805E-05-2.72390E-05-2.87795E-05-1.02002E-06-5.64843E-19 2.20195E-21
 -1      2230 9.42231E-05-2.74529E-05-2.86134E-05-4.18130E-07-5.58885E-19-1.24867E-19
 -1      2231 9.50370E-05-2.66988E-05-2.93011E-05-1.91257E-06-6.19140E-19-3.20255E-19
 -1      2232 9.40745E-05-2.76335E-05-2.84521E-05 8.97401E-08-4.23383E-19-2.66783E-19
 -1      2233 9.39768E-05-2.77773E-05-2.83687E-05 4.19670E-07-3.30648E-19-3.24292E-19
 -1      2234 9.47333E-05-2.74281E-05-2.88580E-05-4.33647E-07-5.69722E-19-4.78516E-19
 -1      2235 9.38923E-05-2.78870E-05-2.82753E-05 7.02395E-07-2.84242E-19-5.60426E-19
 -1      2236 9.38986E-05-2.79943E-05-2.82426E-05 8.66518E-07-2.98839E-19-6.01735E-19
 -1      2237 9.45324E-05-2.78566E-05-2.85857E-05 4.36961E-07-4.77949E-19-7.56803E-19
 -1      2238 9.38672E-05-2.80666E-05-2.81937E-05 1.00364E-06-4.18649E-19-6.08908E-19
 -1      2239 9.39349E-05-2.81508E-05-2.81915E-05 1.06569E-06-2.57187E-19-5.85580E-19
 -1      2240 9.44399E-05-2.81263E-05-2.84276E-05 9.07774E-07-3.96855E-19-7.11732E-19
 -1      2241 9.39404E-05-2.82007E-05-2.81714E-05 1.11038E-06-2.82058E-19-7.20689E-19
 -1      2242 9.40396E-05-2.82678E-05-2.81866E-05 1.11043E-06-3.93208E-19-7.88020E-19
 -1      2243 9.44301E-05-2.83036E-05-2.83450E-05 1.12017E-06-3.97035E-19-8.19948E-19
 -1      2244 9.40677E-05-2.83029E-05-2.81844E-05 1.09842E-06-5.16245E-19-8.02992E-19
 -1      2245 9.41789E-05-2.83562E-05-2.82088E-05 1.06248E-06-7.08349E-19-7.77994E-19
 -1      2246 9.44746E-05-2.84225E-05-2.83112E-05 1.16953E-06-5.25103E-19-1.03181E-18
 -1      2247 9.42189E-05-2.83808E-05-2.82172E-05 1.01784E-06-4.36937E-19-3.31907E-19
 -1      2248 9.43295E-05-2.84226E-05-2.82452E-05 9.63006E-07-9.17719E-20-1.88326E-19
 -1      2249 9.45498E-05-2.85019E-05-2.83081E-05 1.12033E-06-3.32596E-19-7.28432E-19
 -1      2250 9.43739E-05-2.84395E-05-2.82592E-05 9.01870E-07 1.37980E-20-2.83831E-19
 -1      2251 9.44768E-05-2.84717E-05-2.82875E-05 8.39332E-07 7.42808E-20-7.54618E-20
 -1      2252 9.46385E-05-2.85535E-05-2.83231E-05 1.01611E-06-1.53460E-19-4.11559E-19
 -1      2253 9.45209E-05-2.84827E-05-2.83040E-05 7.72345E-07-2.81484E-20 1.34299E-19
 -1      2254 9.46123E-05-2.85069E-05-2.83306E-05 7.09297E-07 1.24577E-20 8.10956E-20
 -1      2255 9.47296E-05-2.85854E-05-2.83479E-05 8.85991E-07 2.01173E-19 6.96446E-20
 -1      2256 9.46533E-05-2.85136E-05-2.83476E-05 6.43307E-07-1.52803E-19-1.96316E-20
 -1      2257 9.47318E-05-2.85312E-05-2.83715E-05 5.84221E-07-3.30415E-19-1.66032E-20
 -1      2258 9.48159E-05-2.86032E-05-2.83769E-05 7.49094E-07-1.74299E-19 3.19453E-19
 -1      2259 9.47683E-05-2.85347E-05-2.83877E-05 5.23475E-07-4.28321E-19 2.78765E-21
 -1      2260 9.48340E-05-2.85470E-05-2.84086E-05 4.71007E-07-3.78366E-19 1.49494E-19
 -1      2261 9.48938E-05-2.86108E-05-2.84068E-05 6.17624E-07-3.89120E-19 1.70271E-19
 -1      2262 9.48657E-05-2.85481E-05-2.84236E-05 4.18032E-07-6.04896E-19 2.32549E-19
 -1      2263 9.49199E-05-2.85562E-05-2.84414E-05 3.73685E-07-5.61685E-19 2.99718E-19
 -1      2264 9.49619E-05-2.86113E-05-2.84357E-05 4.99109E-07-4.65594E-19 5.25315E-19
 -1      2265 9.49471E-05-2.85555E-05-2.84550E-05 3.29946E-07-6.61688E-19 1.16744E-19
 -1      2266 9.49915E-05-2.85603E-05-2.84703E-05 2.94562E-07-6.08748E-19-2.10036E-19
 -1      2267 9.50202E-05-2.86067E-05-2.84627E-05 3.98047E-07-7.72670E-19 3.66960E-19
 -1      2268 9.50150E-05-2.85582E-05-2.84827E-05 2.60955E-07-3.06440E-19-5.91096E-19
 -1      2269 9.50520E-05-2.85604E-05-2.84960E-05 2.35088E-07-6.31213E-20-1.66128E-19
 -1      2270 9.50701E-05-2.85984E-05-2.84877E-05 3.17145E-07-5.39227E-19 1.05332E-19
 -1      2271 9.50729E-05-2.85572E-05-2.85077E-05 2.12318E-07-4.11328E-19-4.33645E-19
 -1      2272 9.51049E-05-2.85575E-05-2.85198E-05 1.96524E-07-6.54593E-19-4.83421E-19
 -1      2273 9.51134E-05-2.85871E-05-2.85112E-05 2.58256E-07-4.54526E-19-2.11167E-19
 -1      2274 9.51245E-05-2.85533E-05-2.85313E-05 1.85397E-07-4.72865E-19-3.21034E-19
 -1      2275 9.51546E-05-2.85522E-05-2.85431E-05 1.80455E-07-1.05950E-19-4.49548E-19
 -1      2276 9.51527E-05-2.85733E-05-2.85341E-05 2.23098E-07-5.49759E-19-3.84888E-19
 -1      2277 9.51746E-05-2.85472E-05-2.85552E-05 1.82107E-07 1.34812E-19-7.31123E-19
 -1      2278 9.52060E-05-2.85452E-05-2.85678E-05 1.89204E-07 5.97758E-19-7.66940E-19
 -1      2279 9.51910E-05-2.85569E-05-2.85577E-05 2.13815E-07-6.40133E-20-7.10747E-19
 -1      2280 9.52283E-05-2.85393E-05-2.85814E-05 2.05285E-07 9.25765E-19-8.82185E-19
 -1      2281 9.52647E-05-2.85370E-05-2.85960E-05 2.26156E-07 8.94192E-19-7.22463E-19
 -1      2282 9.52317E-05-2.85379E-05-2.85835E-05 2.33412E-07 7.00556E-19-8.24044E-19
 -1      2283 9.52915E-05-2.85302E-05-2.86122E-05 2.58976E-07 6.03108E-19-3.67460E-19
 -1      2284 9.53372E-05-2.85282E-05-2.86303E-05 2.96031E-07 6.74066E-19-3.84544E-19
 -1      2285 9.52789E-05-2.85158E-05-2.86134E-05 2.86111E-07 8.30075E-19-4.28748E-19
 -1      2286 9.53710E-05-2.85205E-05-2.86503E-05 3.48673E-07 4.24928E-19-4.72751E-19
 -1      2287 9.54312E-05-2.85196E-05-2.86735E-05 4.05080E-07 6.88838E-20-8.09381E-19
 -1      2288 9.53372E-05-2.84902E-05-2.86497E-05 3.77615E-07 2.63479E-19-3.34825E-19
 -1      2289 9.54749E-05-2.85110E-05-2.86988E-05 4.81474E-07-2.79199E-19-1.13725E-18
 -1      2290 9.55556E-05-2.85122E-05-2.87291E-05 5.61216E-07-2.63919E-19-1.31308E-18
 -1      2291 9.54120E-05-2.84606E-05-2.86948E-05 5.15300E-07-2.24279E-19-2.43190E-19
 -1      2292 9.56124E-05-2.85028E-05-2.87612E-05 6.66154E-07-1.75663E-19-1.29832E-18
 -1      2293 9.57206E-05-2.85074E-05-2.88008E-05 7.74018E-07 8.92271E-20-1.01890E-18
 -1      2294 9.55093E-05-2.84267E-05-2.87514E-05 7.08298E-07-1.16312E-19-5.46677E-19
 -1      2295 9.57943E-05-2.84976E-05-2.88414E-05 9.13088E-07 2.71843E-19-7.87734E-19
 -1      2296 9.59382E-05-2.85073E-05-2.88927E-05 1.05456E-06 4.46483E-20 3.63383E-19
 -1      2297 9.56364E-05-2.83885E-05-2.88225E-05 9.67425E-07 2.53636E-19-5.19300E-19
 -1      2298 9.60329E-05-2.84977E-05-2.89436E-05 1.23393E-06-1.53491E-19-3.18595E-20
 -1      2299 9.62219E-05-2.85152E-05-2.90095E-05 1.41491E-06 1.03458E-19 7.77873E-21
 -1      2300 9.58009E-05-2.83467E-05-2.89113E-05 1.30486E-06 1.82451E-19-1.93774E-19
 -1      2301 9.63421E-05-2.85070E-05-2.90722E-05 1.64092E-06-4.83284E-20-1.68450E-19
 -1      2302 9.65869E-05-2.85357E-05-2.91555E-05 1.86715E-06 1.82653E-19 2.94295E-21
 -1      2303 9.60117E-05-2.83031E-05-2.90206E-05 1.73346E-06-7.92243E-20-2.44488E-19
 -1      2304 9.67375E-05-2.85311E-05-2.92314E-05 2.14549E-06-6.46801E-20-6.64561E-19
 -1      2305 9.70494E-05-2.85760E-05-2.93347E-05 2.42151E-06-2.83206E-19-4.61757E-19
 -1      2306 9.62784E-05-2.82618E-05-2.91529E-05 2.26541E-06-2.80650E-19 3.88514E-19
 -1      2307 9.72358E-05-2.85790E-05-2.94246E-05 2.75584E-06-1.89393E-19-6.02370E-19
 -1      2308 9.76267E-05-2.86475E-05-2.95500E-05 3.08312E-06 5.22861E-21-9.17826E-20
 -1      2309 9.66116E-05-2.82302E-05-2.93094E-05 2.90997E-06-2.06765E-19-7.00326E-19
 -1      2310 9.78555E-05-2.86655E-05-2.96532E-05 3.47282E-06-9.66027E-20-2.23379E-19
 -1      2311 9.83371E-05-2.87688E-05-2.98015E-05 3.84665E-06-4.93469E-19 3.31580E-19
 -1      2312 9.70238E-05-2.82228E-05-2.94893E-05 3.66967E-06-1.49756E-19-8.99746E-20
 -1      2313 9.86170E-05-2.88149E-05-2.99154E-05 4.28304E-06-6.67956E-19 6.17987E-19
 -1      2314 9.92001E-05-2.89702E-05-3.00851E-05 4.68737E-06-1.83702E-19 8.71816E-19
 -1      2315 9.75308E-05-2.82653E-05-2.96884E-05 4.53419E-06-2.23077E-19 3.98291E-20
 -1      2316 9.95452E-05-2.90674E-05-3.02045E-05 5.14799E-06-2.00441E-19 9.55435E-19
 -1      2317 1.00238E-04-2.93017E-05-3.03901E-05 5.54744E-06-7.23221E-20 8.89895E-19
 -1      2318 9.81563E-05-2.84029E-05-2.98977E-05 5.47095E-06-3.44418E-19 2.51671E-18
 -1      2319 1.00674E-04-2.94891E-05-3.05058E-05 5.98710E-06 2.20188E-19 6.14009E-19
 -1      2320 1.01482E-04-2.98435E-05-3.06964E-05 6.31520E-06 4.79405E-19 3.79454E-19
 -1      2321 9.89399E-05-2.87126E-05-3.01017E-05 6.41073E-06 1.77327E-21 2.12039E-18
 -1      2322 1.02053E-04-3.01845E-05-3.07954E-05 6.65308E-06 3.80322E-19 7.20820E-19
 -1      2323 1.02979E-04-3.07185E-05-3.09730E-05 6.79667E-06 4.93058E-19 9.18710E-19
 -1      2324 9.99512E-05-2.93197E-05-3.02775E-05 7.22684E-06 7.02346E-19 1.95163E-18
 -1      2325 1.03761E-04-3.13073E-05-3.10395E-05 6.89848E-06 9.11342E-19 1.18131E-18
 -1      2326 1.04797E-04-3.20966E-05-3.11790E-05 6.68104E-06 1.03357E-18 1.15090E-18
 -1      2327 1.01311E-04-3.04146E-05-3.03967E-05 7.70621E-06 1.24562E-18 1.62255E-18
 -1      2328 1.05909E-04-3.30542E-05-3.11999E-05 6.33792E-06 5.93366E-19 1.32174E-18
 -1      2329 1.07027E-04-3.41690E-05-3.12726E-05 5.51101E-06 3.37720E-19 1.38799E-18
 -1      2330 1.03211E-04-3.22553E-05-3.04328E-05 7.51274E-06 6.90647E-19 1.32863E-18
 -1      2331 1.08614E-04-3.56057E-05-3.12495E-05 4.42051E-06 6.88317E-19 1.16647E-18
 -1      2332 1.09728E-04-3.70402E-05-3.12346E-05 2.68572E-06 5.31215E-19 1.88273E-18
 -1      2333 1.05916E-04-3.51195E-05-3.03811E-05 6.14842E-06 4.10090E-19 2.01357E-18
 -1      2334 1.11883E-04-3.89411E-05-3.12057E-05 4.62799E-07-2.07060E-20 1.69265E-18
 -1      2335 1.12773E-04-4.04597E-05-3.11109E-05-2.43132E-06-3.63126E-19 2.08003E-18
 -1      2336 1.09680E-04-3.91224E-05-3.02957E-05 2.93377E-06 3.11824E-19 9.72512E-19
 -1      2337 1.15329E-04-4.24506E-05-3.11782E-05-6.13555E-06-7.38510E-19 3.09976E-18
 -1      2338 1.15526E-04-4.33638E-05-3.10647E-05-1.01512E-05 1.18657E-19 3.22585E-18
 -1      2339 1.14465E-04-4.38040E-05-3.03453E-05-2.90100E-06-5.23357E-20 2.35921E-18
 -1      2340 1.17729E-04-4.44211E-05-3.14065E-05-1.52793E-05 3.29890E-19 2.23369E-18
 -1      2341 1.16495E-04-4.34791E-05-3.13961E-05-1.96785E-05 9.39512E-19 1.81245E-18
 -1      2342 1.19393E-04-4.74596E-05-3.08584E-05-1.17979E-05-3.26546E-19 3.12999E-18
 -1      2343 1.16837E-04-4.19499E-05-3.22053E-05-2.50320E-05 1.96198E-18 1.26896E-18
 -1      2344 1.13542E-04-3.78921E-05-3.24162E-05-2.79923E-05 1.64727E-18 1.28684E-18
 -1      2345 1.22179E-04-4.67651E-05-3.22781E-05-2.28016E-05 9.76579E-19 2.84321E-18
 -1      2346 1.10402E-04-3.24983E-05-3.36832E-05-3.06060E-05 2.69694E-19 1.38005E-18
 -1      2347 1.05354E-04-2.56636E-05-3.40575E-05-2.94684E-05-6.86256E-19 1.42984E-18
 -1      2348 1.19519E-04-3.79923E-05-3.48578E-05-3.20405E-05 9.45712E-19 2.15587E-18
 -1      2349 9.93369E-05-1.80397E-05-3.52290E-05-2.59814E-05-1.69121E-18 1.13370E-18
 -1      2350 9.43886E-05-1.15880E-05-3.53948E-05-1.94409E-05-1.83473E-18 6.43950E-19
 -1      2351 1.10239E-04-2.21323E-05-3.77903E-05-3.22207E-05-1.17573E-18 3.44361E-18
 -1      2352 8.88254E-05-6.49350E-06-3.55243E-05-9.33670E-06-1.44300E-18 7.97601E-19
 -1      2353 8.66503E-05-5.13456E-06-3.49844E-05 3.71163E-07-1.27129E-18 1.33695E-18
 -1      2354 9.81923E-05-5.71185E-06-3.97652E-05-1.86492E-05-1.95998E-18 2.37407E-18
 -1      2355 8.46453E-05-7.00857E-06-3.32934E-05 1.23132E-05-2.97017E-19 1.86588E-18
 -1      2356 8.66331E-05-1.28412E-05-3.18361E-05 1.97531E-05-1.74356E-19 1.97033E-18
 -1      2357 9.03608E-05-1.57359E-06-3.81879E-05 4.11947E-06-7.92611E-19 2.54283E-18
 -1      2358 9.50831E-05-2.66603E-05-2.93012E-05 3.67165E-06 1.26379E-18 1.28311E-18
 -1      2359 9.59976E-05-2.62305E-05-2.98575E-05 5.40430E-06 1.37483E-18 1.47495E-18
 -1      2360 9.59177E-05-2.52446E-05-3.03092E-05 6.45326E-06 1.46310E-18 1.11704E-18
 -1      2361 9.53177E-05-2.63036E-05-2.96166E-05 3.86502E-06 1.23124E-18 7.86192E-19
 -1      2362 9.33541E-05-2.76955E-05-2.81321E-05-4.17283E-07 3.97654E-19 5.05915E-19
 -1      2363 9.34311E-05-2.75902E-05-2.81934E-05-1.31365E-07 4.96638E-19 5.10375E-19
 -1      2364 9.42770E-05-2.74921E-05-2.86365E-05 3.95693E-07 6.67065E-19 8.67142E-20
 -1      2365 9.33039E-05-2.78600E-05-2.80426E-05-8.24457E-07 3.30746E-19 3.43791E-19
 -1      2366 9.32579E-05-2.77688E-05-2.80537E-05-6.84735E-07 3.88223E-19 4.24833E-19
 -1      2367 9.40214E-05-2.78107E-05-2.83872E-05-4.51377E-07 5.21955E-19 1.35772E-19
 -1      2368 9.33994E-05-2.79965E-05-2.80267E-05-1.00118E-06 1.48402E-19 4.84944E-19
 -1      2369 9.32854E-05-2.79151E-05-2.80094E-05-9.49986E-07 1.88598E-19 3.48679E-19
 -1      2370 9.39354E-05-2.80203E-05-2.82574E-05-9.00157E-07 3.48553E-19 1.95512E-19
 -1      2371 9.35754E-05-2.81125E-05-2.80536E-05-1.03626E-06 1.27134E-19 6.20024E-19
 -1      2372 9.34298E-05-2.80410E-05-2.80213E-05-1.03824E-06 7.60334E-20 5.49237E-19
 -1      2373 9.39652E-05-2.81703E-05-2.82031E-05-1.09726E-06 4.23038E-20 3.32743E-19
 -1      2374 9.37873E-05-2.82104E-05-2.81033E-05-9.87489E-07-1.84486E-19 6.62725E-19
 -1      2375 9.36332E-05-2.81490E-05-2.80645E-05-1.02009E-06 1.30760E-19 7.74688E-19
 -1      2376 9.40642E-05-2.82819E-05-2.81957E-05-1.13811E-06-1.23672E-20 5.67610E-19
 -1      2377 9.40063E-05-2.82918E-05-2.81628E-05-8.92664E-07 2.44052E-19 5.67794E-19
 -1      2378 9.38576E-05-2.82403E-05-2.81228E-05-9.41211E-07-9.56825E-20 6.97419E-19
 -1      2379 9.41985E-05-2.83662E-05-2.82157E-05-1.08585E-06 3.03198E-20 8.17296E-19
 -1      2380 9.42147E-05-2.83581E-05-2.82241E-05-7.76574E-07 2.83316E-19 6.37042E-19
 -1      2381 9.40793E-05-2.83159E-05-2.81861E-05-8.31523E-07 3.52897E-19 5.77374E-19
 -1      2382 9.43449E-05-2.84294E-05-2.82504E-05-9.82201E-07 3.07396E-19 5.36874E-19
 -1      2383 9.44028E-05-2.84108E-05-2.82823E-05-6.55271E-07 2.67941E-19 9.09418E-19
 -1      2384 9.42844E-05-2.83770E-05-2.82481E-05-7.10518E-07 2.03955E-19 8.00900E-19
 -1      2385 9.44888E-05-2.84761E-05-2.82914E-05-8.54748E-07 9.52742E-20 8.14985E-19
 -1      2386 9.45664E-05-2.84517E-05-2.83350E-05-5.38863E-07 1.62985E-19 1.00400E-18
 -1      2387 9.44659E-05-2.84253E-05-2.83053E-05-5.90633E-07 4.16374E-19 1.09605E-18
 -1      2388 9.46215E-05-2.85097E-05-2.83335E-05-7.21458E-07 2.61253E-19 8.95237E-19
 -1      2389 9.47045E-05-2.84825E-05-2.83810E-05-4.33439E-07 2.59473E-19 4.66801E-19
 -1      2390 9.46214E-05-2.84625E-05-2.83559E-05-4.79514E-07 1.90443E-19 7.03695E-19
 -1      2391 9.47389E-05-2.85329E-05-2.83737E-05-5.93705E-07 4.51017E-19 6.65647E-19
 -1      2392 9.48189E-05-2.85050E-05-2.84204E-05-3.42474E-07 5.78468E-19 2.34241E-19
 -1      2393 9.47514E-05-2.84902E-05-2.83994E-05-3.81630E-07 2.21688E-19 2.68076E-19
 -1      2394 9.48396E-05-2.85479E-05-2.84103E-05-4.78415E-07 3.77299E-19 2.72942E-19
 -1      2395 9.49127E-05-2.85208E-05-2.84537E-05-2.67859E-07 6.72154E-19 4.42553E-19
 -1      2396 9.48583E-05-2.85103E-05-2.84364E-05-2.99446E-07 7.82218E-19 4.43367E-19
 -1      2397 9.49243E-05-2.85566E-05-2.84429E-05-3.79633E-07 4.14962E-19 3.58411E-20
 -1      2398 9.49898E-05-2.85313E-05-2.84822E-05-2.10681E-07 3.99622E-19 8.54448E-19
 -1      2399 9.49458E-05-2.85241E-05-2.84677E-05-2.34306E-07 5.61283E-19 7.75632E-19
 -1      2400 9.49951E-05-2.85603E-05-2.84717E-05-2.99682E-07 4.41145E-19 9.62388E-19
 -1      2401 9.50553E-05-2.85379E-05-2.85072E-05-1.71812E-07-3.13692E-19 1.30517E-18
 -1      2402 9.50183E-05-2.85331E-05-2.84947E-05-1.87101E-07 1.20976E-19 1.18070E-18
 -1      2403 9.50550E-05-2.85602E-05-2.84976E-05-2.40047E-07-1.70343E-19 1.68813E-18
 -1      2404 9.51144E-05-2.85418E-05-2.85306E-05-1.52368E-07-6.93887E-19 9.00702E-19
 -1      2405 9.50811E-05-2.85386E-05-2.85189E-05-1.58770E-07-4.88484E-19 1.01662E-18
 -1      2406 9.51074E-05-2.85571E-05-2.85215E-05-2.02031E-07-3.56720E-19 1.59923E-18
 -1      2407 9.51733E-05-2.85443E-05-2.85544E-05-1.54054E-07 4.28125E-20 4.58149E-19
 -1      2408 9.51399E-05-2.85418E-05-2.85425E-05-1.50702E-07-2.04743E-19 4.10729E-19
 -1      2409 9.51566E-05-2.85517E-05-2.85451E-05-1.87278E-07-1.62115E-19 8.52832E-19
 -1      2410 9.52388E-05-2.85466E-05-2.85810E-05-1.79440E-07 3.02678E-19 6.13179E-19
 -1      2411 9.52009E-05-2.85439E-05-2.85675E-05-1.65032E-07-1.79485E-20 6.70637E-19
 -1      2412 9.52074E-05-2.85446E-05-2.85702E-05-1.98156E-07-1.17186E-19-3.08591E-20
 -1      2413 9.53188E-05-2.85505E-05-2.86131E-05-2.32156E-07 6.04599E-19 1.13476E-18
 -1      2414 9.52716E-05-2.85465E-05-2.85964E-05-2.04875E-07 7.85871E-19 1.05531E-18
 -1      2415 9.52651E-05-2.85363E-05-2.85987E-05-2.38056E-07 2.15082E-19 2.13154E-19
 -1      2416 9.54225E-05-2.85576E-05-2.86538E-05-3.17010E-07-6.16332E-19 7.39789E-19
 -1      2417 9.53602E-05-2.85510E-05-2.86322E-05-2.74478E-07 9.74390E-20 1.16465E-18
 -1      2418 9.53360E-05-2.85275E-05-2.86332E-05-3.11594E-07 3.97955E-19 1.07991E-18
 -1      2419 9.55606E-05-2.85703E-05-2.87067E-05-4.39999E-07-7.96416E-20 5.30431E-19
 -1      2420 9.54765E-05-2.85595E-05-2.86781E-05-3.79282E-07-5.48752E-19 3.54449E-19
 -1      2421 9.54274E-05-2.85191E-05-2.86763E-05-4.24710E-07-2.21860E-19 4.86412E-19
 -1      2422 9.57456E-05-2.85916E-05-2.87758E-05-6.08165E-07 8.77936E-20 8.20462E-19
 -1      2423 9.56317E-05-2.85746E-05-2.87379E-05-5.25859E-07 5.40871E-20 3.27553E-19
 -1      2424 9.55477E-05-2.85126E-05-2.87311E-05-5.84614E-07 1.77847E-19-3.96529E-19
 -1      2425 9.59916E-05-2.86255E-05-2.88656E-05-8.29209E-07-1.45325E-20 1.49686E-19
 -1      2426 9.58391E-05-2.85995E-05-2.88157E-05-7.21649E-07 1.30099E-19 8.62336E-19
 -1      2427 9.57067E-05-2.85098E-05-2.88009E-05-7.99543E-07 4.75732E-20 1.38791E-19
 -1      2428 9.63151E-05-2.86770E-05-2.89809E-05-1.11073E-06-3.41135E-19-5.50205E-19
 -1      2429 9.61136E-05-2.86388E-05-2.89162E-05-9.74392E-07-2.32351E-19-2.42459E-19
 -1      2430 9.59156E-05-2.85140E-05-2.88891E-05-1.07818E-06 4.10742E-19-2.85787E-19
 -1      2431 9.67336E-05-2.87531E-05-2.91264E-05-1.45886E-06 7.43098E-21 2.40577E-20
 -1      2432 9.64721E-05-2.86983E-05-2.90441E-05-1.29110E-06-4.42588E-19-1.56394E-19
 -1      2433 9.61871E-05-2.85299E-05-2.89991E-05-1.42859E-06-4.63521E-19-1.27478E-18
 -1      2434 9.72661E-05-2.88628E-05-2.93064E-05-1.87610E-06 5.23926E-19 9.63201E-19
 -1      2435 9.69329E-05-2.87859E-05-2.92037E-05-1.67627E-06 6.21763E-19 9.22108E-19
 -1      2436 9.65352E-05-2.85645E-05-2.91340E-05-1.85648E-06-2.46093E-19-9.64324E-19
 -1      2437 9.79310E-05-2.90183E-05-2.95239E-05-2.35772E-06 5.73175E-19 1.27793E-18
 -1      2438 9.75154E-05-2.89122E-05-2.93989E-05-2.12913E-06 8.00930E-19 1.48638E-18
 -1      2439 9.69755E-05-2.86287E-05-2.92956E-05-2.36232E-06 2.11015E-19-1.94031E-19
 -1      2440 9.87446E-05-2.92362E-05-2.97792E-05-2.88644E-06 3.00651E-19 5.06495E-19
 -1      2441 9.82381E-05-2.90919E-05-2.96314E-05-2.63918E-06 4.56485E-19 1.03294E-18
 -1      2442 9.75243E-05-2.87386E-05-2.94841E-05-2.93697E-06 6.27571E-19 8.36765E-20
 -1      2443 9.97185E-05-2.95389E-05-3.00684E-05-3.42451E-06 2.00982E-19 3.62608E-19
 -1      2444 9.91178E-05-2.93450E-05-2.98998E-05-3.17964E-06 2.41340E-19 5.39971E-19
 -1      2445 9.81992E-05-2.89184E-05-2.96966E-05-3.55524E-06 1.53215E-19 7.86832E-19
 -1      2446 1.00856E-04-2.99561E-05-3.03808E-05-3.90278E-06-1.83198E-19 1.80598E-18
 -1      2447 1.00166E-04-2.96986E-05-3.01974E-05-3.69812E-06-1.56953E-19 7.51093E-19
 -1      2448 9.90192E-05-2.92038E-05-2.99259E-05-4.16664E-06-2.30973E-19 1.54559E-18
 -1      2449 1.02146E-04-3.05260E-05-3.06966E-05-4.20682E-06 8.23022E-19 9.55839E-19
 -1      2450 1.01387E-04-3.01891E-05-3.05103E-05-4.10396E-06 3.97936E-19 1.34920E-18
 -1      2451 1.00005E-04-2.96458E-05-3.01592E-05-4.68301E-06 2.52398E-20 2.33391E-18
 -1      2452 1.03557E-04-3.12920E-05-3.09849E-05-4.16218E-06 6.52204E-19 4.73226E-19
 -1      2453 1.02771E-04-3.08614E-05-3.08147E-05-4.25327E-06 1.05867E-18 1.04131E-18
 -1      2454 1.01179E-04-3.03129E-05-3.03771E-05-4.96331E-06 1.02991E-18 5.19950E-19
 -1      2455 1.05025E-04-3.22903E-05-3.12029E-05-3.52504E-06-8.12027E-20 6.10623E-19
 -1      2456 1.04283E-04-3.17622E-05-3.10763E-05-3.93506E-06 3.09351E-19 4.82207E-19
 -1      2457 1.02565E-04-3.12869E-05-3.05544E-05-4.79824E-06 6.18350E-19 1.13448E-18
 -1      2458 1.06431E-04-3.35166E-05-3.13011E-05-1.99296E-06-5.28456E-19 4.67015E-19
 -1      2459 1.05850E-04-3.29180E-05-3.12518E-05-2.86833E-06-7.68471E-19 7.97880E-19
 -1      2460 1.04173E-04-3.26405E-05-3.06645E-05-3.90184E-06-1.62945E-19 8.52901E-19
 -1      2461 1.07564E-04-3.48575E-05-3.12343E-05 7.36688E-07-8.62610E-19 1.29261E-18
 -1      2462 1.07319E-04-3.42833E-05-3.12964E-05-7.31149E-07 2.99850E-19 1.25493E-18
 -1      2463 1.05971E-04-3.43808E-05-3.06888E-05-1.92698E-06-5.97360E-19 6.72179E-19
 -1      2464 1.08072E-04-3.59828E-05-3.09831E-05 4.82009E-06-7.34219E-19 1.10407E-18
 -1      2465 1.08399E-04-3.56460E-05-3.11790E-05 2.74082E-06-1.33931E-18 1.18271E-18
 -1      2466 1.07808E-04-3.63338E-05-3.06330E-05 1.46252E-06-1.01000E-18 4.87303E-19
 -1      2467 1.07410E-04-3.62383E-05-3.05805E-05 9.99522E-06-6.76071E-19 2.28079E-18
 -1      2468 1.08585E-04-3.65017E-05-3.09035E-05 7.53852E-06-5.36741E-19 1.65602E-18
 -1      2469 1.09286E-04-3.79764E-05-3.05459E-05 6.41160E-06-1.22430E-18 1.44984E-18
 -1      2470 1.04907E-04-3.46866E-05-3.01276E-05 1.52190E-05 9.41232E-20 1.89471E-18
 -1      2471 1.07141E-04-3.59886E-05-3.05291E-05 1.30259E-05-4.20962E-19 2.21845E-18
 -1      2472 1.09638E-04-3.82957E-05-3.05288E-05 1.25347E-05-7.88250E-19 1.98390E-18
 -1      2473 1.00091E-04-3.05587E-05-2.97541E-05 1.84357E-05 2.15714E-18 1.99300E-18
 -1      2474 1.03306E-04-3.31123E-05-3.01583E-05 1.75628E-05 1.44031E-18 2.51000E-18
 -1      2475 1.07766E-04-3.59370E-05-3.07077E-05 1.84511E-05 7.78548E-19 9.31137E-19
 -1      2476 9.34413E-05-2.42516E-05-2.95247E-05 1.70615E-05 1.54460E-18 2.15628E-18
 -1      2477 9.70049E-05-2.75642E-05-2.98559E-05 1.85909E-05 2.24922E-18 2.51851E-18
 -1      2478 1.02857E-04-3.01185E-05-3.11099E-05 2.14760E-05 1.83197E-18 2.46542E-18
 -1      2479 8.66967E-05-1.78467E-05-2.93572E-05 9.58163E-06-9.19070E-19 3.04884E-18
 -1      2480 8.94916E-05-2.06259E-05-2.96005E-05 1.38611E-05 3.03741E-19 2.53993E-18
 -1      2481 9.54323E-05-2.16957E-05-3.15652E-05 1.87668E-05 6.61050E-19 3.67165E-18
 -1      2482 8.29762E-05-1.52415E-05-2.89373E-05-2.51194E-06-1.50957E-18 3.02139E-18
 -1      2483 8.36811E-05-1.56422E-05-2.91562E-05 3.13208E-06-1.18164E-18 2.96438E-18
 -1      2484 8.79607E-05-1.43006E-05-3.16036E-05 8.61398E-06-4.65967E-19 4.01392E-18
 -1      2485 8.42501E-05-1.92362E-05-2.79677E-05-1.39722E-05-1.05338E-18 2.53967E-18
 -1      2486 8.23650E-05-1.62065E-05-2.82724E-05-9.71846E-06-1.50465E-18 2.69583E-18
 -1      2487 8.42507E-05-1.27919E-05-3.06126E-05-5.84825E-06-1.85738E-18 2.41335E-18
 -1      2488 8.72917E-05-2.45141E-05-2.67683E-05-1.81629E-05 3.88345E-20 2.55327E-18
 -1      2489 9.18948E-05-8.43255E-06-3.57428E-05-1.62516E-05 8.84144E-19-1.47037E-18
 -1      2490 8.80675E-05-1.12302E-05-3.30132E-05-1.84933E-05 6.72729E-19-1.34313E-18
 -1      2491 1.05903E-04-2.43230E-06-4.44413E-05-6.83139E-06 1.28431E-19-1.41656E-18
 -1      2492 9.65293E-05-3.79110E-06-4.01571E-05-1.38535E-05 1.16044E-19-1.29818E-18
 -1      2493 9.30961E-05 2.57715E-06-4.17632E-05-8.57492E-06-4.13987E-20-9.80441E-19
 -1      2494 1.45685E-04-3.25486E-05-4.84781E-05 4.00701E-05-8.90443E-20-1.01940E-18
 -1      2495 1.62285E-04-3.91244E-06-6.85939E-05 3.29450E-05 1.32772E-18-6.92873E-19
 -1      2496 1.64369E-04 2.53997E-06-7.22461E-05 3.34296E-05 1.20702E-18-6.83132E-19
 -1      2497 1.19794E-04-5.61155E-05-2.82354E-05 2.12327E-06-1.41603E-18 6.40082E-18
 -1      2498 1.32710E-04-4.08619E-05-3.94689E-05-2.02412E-05-9.14266E-19 4.48843E-18
 -1      2499 9.03414E-05-2.31461E-05-2.86081E-05 2.66354E-05-3.81727E-20 1.78692E-18
 -1      2500 1.16943E-04-3.21440E-05-3.71422E-05 8.73018E-06-1.61466E-18 3.94061E-18
 -1      2501 2.61916E-05-3.29452E-05 3.39825E-06-2.09316E-05 5.07796E-19-1.84399E-18
 -1      2502 4.01964E-05-4.02205E-05 3.35868E-07-3.50616E-05 6.47980E-19-2.07947E-18
 -1      2503 9.65350E-05-1.37778E-05-3.58552E-05 2.17714E-05-1.91535E-19 1.89153E-18
 -1      2504 1.05668E-04-1.32542E-05-3.96119E-05 1.44416E-05-9.26866E-19 2.31102E-18
 -1      2505 5.96611E-05-5.09931E-05-3.41575E-06-4.09809E-05 9.62441E-19-2.90278E-18
 -1      2506 7.92577E-05-5.84589E-05-8.81321E-06-4.46601E-05 1.54202E-18-4.01875E-18
 -1      2507 1.51174E-04 2.09298E-06-6.62885E-05-2.30490E-05-1.03592E-18 3.20814E-18
 -1      2508 1.56613E-04 7.01644E-06-7.07450E-05-2.38996E-05-7.25907E-19 3.81991E-18
 -1      2509 1.64638E-04-1.97523E-06-7.06668E-05-3.40622E-05-3.37966E-19 1.56066E-18
 -1      2510 1.71631E-04-1.47449E-05-6.76483E-05-3.24956E-05-5.56924E-19 9.86370E-19
 -1      2511 4.02417E-05-3.91628E-05-1.05620E-07 3.26562E-05 6.48615E-19-9.21360E-19
 -1      2512 2.75146E-05-3.32775E-05 3.00498E-06 1.95128E-05 3.70365E-19-9.99922E-19
 -1      2513 1.59886E-04 8.71288E-06-7.28914E-05 3.11863E-05 3.04508E-19-3.88656E-19
 -1      2514 1.53351E-04 1.16218E-05-7.15652E-05 2.83260E-05-6.64497E-19 2.94344E-19
 -1      2515 8.78324E-05-1.07938E-05-3.30523E-05-1.51721E-06 1.90829E-19-1.61842E-18
 -1      2516 8.79382E-05-1.09161E-05-3.30437E-05-2.63538E-06-2.58419E-20-1.55872E-18
 -1      2517 8.93371E-05-1.30880E-05-3.26803E-05-2.92791E-06-3.60707E-20-1.45338E-18
 -1      2518 8.90875E-05-1.27527E-05-3.27182E-05-9.39995E-07 1.79699E-19-1.46334E-18
 -1      2519 8.26960E-05-5.90750E-05-9.87620E-06 4.28287E-05 1.69364E-18-1.83171E-19
 -1      2520 6.17023E-05-5.03264E-05-4.44099E-06 3.90483E-05 1.26271E-18-1.20342E-18
 -1      2521 1.64400E-04-5.84120E-05-4.56743E-05 9.73055E-06 9.12294E-19-1.11597E-18
 -1      2522 1.70597E-04-5.02290E-05-5.22648E-05 1.64911E-05 1.24339E-18-3.66765E-19
 -1      2523 1.68148E-04-3.41039E-05-5.79431E-05 2.56720E-05 9.88911E-19-2.45640E-20
 -1      2524 1.67211E-04-2.03996E-05-6.38480E-05 3.24741E-05 1.08547E-18-3.84341E-19
 -1      2525 1.58811E-04-3.93872E-05-5.13743E-05 3.04087E-05 1.32349E-18 1.47807E-19
 -1      2526 1.51462E-04 7.80832E-06-6.87330E-05 2.59405E-05-1.99137E-18 1.67310E-18
 -1      2527 1.49896E-04-7.10351E-09-6.46989E-05 2.58589E-05-1.15451E-18 1.06769E-18
 -1      2528 9.88345E-05-6.62017E-05-1.38388E-05-4.02801E-05 1.69618E-18-2.89954E-18
 -1      2529 1.19141E-04-7.06671E-05-2.09149E-05-3.53485E-05 8.34963E-19-3.02057E-18
 -1      2530 9.51866E-05-6.26207E-05-1.34383E-05-4.13579E-05 6.56451E-19-2.87361E-18
 -1      2531 2.16181E-05-3.01372E-05 4.24609E-06 1.03833E-05 5.30666E-19 6.54333E-19
 -1      2532 1.93858E-05-2.85205E-05 4.33432E-06-2.86392E-06 7.35728E-19-2.98579E-19
 -1      2533 3.28809E-05-2.79182E-05-1.49603E-06 1.69342E-05 4.40775E-19-3.05144E-19
 -1      2534 1.75142E-04-5.64305E-05-5.14153E-05-1.20407E-05 8.91952E-19-2.54364E-18
 -1      2535 1.65407E-04-6.45914E-05-4.34351E-05-2.74784E-06 2.16840E-19-2.72152E-18
 -1      2536 1.20732E-04-7.26725E-05-2.05915E-05 3.47085E-05-1.80630E-19 1.97173E-18
 -1      2537 1.03530E-04-6.84348E-05-1.48564E-05 3.77141E-05 1.21846E-18 1.03002E-18
 -1      2538 1.56310E-04-7.28713E-05-3.60448E-05 1.25946E-05 4.76456E-20-2.26073E-18
 -1      2539 1.37166E-04-7.43934E-05-2.70143E-05 2.25410E-05-7.17649E-19 2.46063E-19
 -1      2540 1.36467E-04-7.62819E-05-2.55531E-05 2.19727E-05-3.60413E-19-5.42207E-19
 -1      2541 1.77906E-04-3.07493E-05-6.38017E-05-2.87645E-05 2.79733E-19-7.85200E-19
 -1      2542 1.75093E-04-4.13515E-05-5.76614E-05-2.33350E-05 9.76205E-19-1.38236E-18
 -1      2543 1.52746E-04 9.08594E-06-7.01496E-05-2.45705E-05-5.06526E-19 3.80339E-18
 -1      2544 1.51893E-04 8.30033E-06-6.95333E-05-2.74689E-05 6.64921E-20 3.28175E-18
 -1      2545 1.59331E-04-6.55557E-05-4.01213E-05 5.41440E-06 5.03191E-19-7.48354E-19
 -1      2546 9.07925E-05-1.50463E-05-3.24587E-05-6.79798E-06-6.66729E-19-1.24052E-18
 -1      2547 8.97001E-05-1.31806E-05-3.28462E-05-7.95948E-06-7.77916E-19-1.40228E-18
 -1      2548 9.03581E-05-1.39624E-05-3.28017E-05-9.13264E-06-1.00132E-18-1.23114E-18
 -1      2549 9.11374E-05-1.50081E-05-3.26801E-05-9.81443E-06-1.09300E-18-1.14198E-18
 -1      2550 9.21637E-05-1.62808E-05-3.25991E-05-1.08451E-05-1.24836E-18-8.88432E-19
 -1      2551 9.36414E-05-1.92093E-05-3.18949E-05-9.19000E-06-1.24794E-18-7.40787E-19
 -1      2552 9.20637E-05-1.68192E-05-3.22386E-05-8.29956E-06-9.95854E-19-1.03361E-18
 -1      2553 1.43008E-04-1.79783E-05-5.42658E-05-1.77375E-05-4.34104E-20 4.90686E-18
 -1      2554 1.30827E-04-1.24852E-05-5.08733E-05-4.14881E-06-1.68178E-18 5.48242E-18
 -1      2555 5.66980E-05-4.35231E-05-5.10764E-06-3.80060E-05 5.37442E-19-2.88161E-18
 -1      2556 8.66044E-05-2.00433E-05-2.85266E-05-1.80772E-05-4.73061E-19 1.14864E-18
 -1      2557 1.38058E-04-6.35624E-06-5.63057E-05 1.54512E-05-9.49524E-19 2.29991E-18
 -1      2558 1.20437E-04-4.39655E-06-5.06084E-05 1.16796E-06-9.91029E-19 9.07384E-19
 -1      2559 1.50074E-04-8.18078E-06-6.09832E-05 3.61325E-05 9.05902E-19 7.32683E-19
 -1      2560 9.29268E-05-1.62685E-05-3.28963E-05 2.32652E-05-7.34298E-19 1.95831E-18
 -1      2561 9.36789E-05-2.40480E-06-3.96381E-05 1.56288E-05-7.16008E-19 1.19606E-18
 -1      2562 2.96755E-05-2.69629E-05-5.10523E-07-1.17710E-05 2.63533E-19-1.13227E-18
 -1      2563 1.31671E-04 1.26135E-05-6.18833E-05-1.44156E-05-6.34004E-19 4.73650E-18
 -1      2564 1.51205E-04-1.08711E-05-6.04260E-05 3.01512E-05-1.17208E-18 3.75236E-19
 -1      2565 1.51609E-04-2.38535E-05-5.44509E-05 3.92548E-05-1.03931E-18-3.16790E-19
 -1      2566 1.60929E-04-7.11358E-05-3.83841E-05-3.14142E-06-3.39872E-19-2.59023E-18
 -1      2567 1.67982E-04-4.84612E-05-5.12026E-05-2.60530E-05 3.36696E-19-3.86671E-19
 -1      2568 1.59392E-04-1.84506E-05-6.04965E-05-3.61656E-05-1.03804E-18 1.73515E-18
 -1      2569 1.52176E-04-3.94378E-05-4.91546E-05-5.28476E-05-9.68053E-19-1.05752E-18
 -1      2570 1.40878E-04 1.21692E-05-6.56666E-05 2.85480E-05 5.88688E-19-1.19590E-18
 -1      2571 5.91559E-05-4.25707E-05-6.46949E-06 3.53157E-05 8.51162E-19-5.68994E-19
 -1      2572 1.36210E-04 1.20005E-05-6.35376E-05 1.79653E-05-9.62653E-19 5.96841E-19
 -1      2573 1.39778E-04 6.85796E-06-6.31658E-05-2.74370E-05-7.16166E-19 3.65331E-18
 -1      2574 8.69780E-05-1.73360E-05-2.96658E-05-1.81219E-05-3.63059E-19 1.66945E-19
 -1      2575 1.24700E-04-7.20600E-05-2.20741E-05-3.00352E-05-9.38089E-20-2.25427E-18
 -1      2576 1.33107E-04-7.38640E-05-2.50599E-05-2.69686E-05 3.52577E-19-2.91358E-18
 -1      2577 1.42048E-04-7.51633E-05-2.93719E-05-1.58807E-05-2.11758E-20-1.82949E-18
 -1      2578 9.98975E-05-6.41023E-05-1.48530E-05 3.74246E-05 1.86051E-18 2.39922E-19
 -1      2579 1.43607E-04-3.11743E-05-4.87208E-05-2.86425E-05-4.85773E-19 3.45293E-18
 -1      2580 1.14823E-04 7.05870E-06-5.31672E-05 2.35554E-06-1.12846E-18-1.20490E-18
 -1      2581 8.54837E-05-8.48094E-06-3.33233E-05-1.32407E-05-8.11765E-19 2.56287E-19
 -1      2582 9.05510E-05-1.51688E-05-3.23292E-05 3.19262E-06 7.33148E-19-1.15044E-18
 -1      2583 9.03571E-05-1.48937E-05-3.23615E-05 2.26094E-06 6.01310E-19-1.26916E-18
 -1      2584 9.02241E-05-1.46927E-05-3.23903E-05 1.42238E-06 5.30404E-19-1.35274E-18
 -1      2585 9.01591E-05-1.46010E-05-3.24012E-05 4.66132E-07 3.75042E-19-1.30217E-18
 -1      2586 9.14100E-05-1.65883E-05-3.20533E-05 1.64352E-06 5.23236E-19-1.19506E-18
 -1      2587 9.21456E-05-1.75615E-05-3.20071E-05 6.46118E-06 1.35911E-18-8.13373E-19
 -1      2588 9.16139E-05-1.67570E-05-3.21065E-05 5.63342E-06 1.27024E-18-9.10956E-19
 -1      2589 9.35106E-05-1.97506E-05-3.16759E-05 7.61027E-06 1.47014E-18-2.58156E-19
 -1      2590 9.27670E-05-1.85214E-05-3.18410E-05 7.01554E-06 1.33334E-18-5.16381E-19
 -1      2591 9.34967E-05-1.98534E-05-3.15050E-05 5.77284E-06 1.24453E-18-6.16379E-19
 -1      2592 9.56269E-05-2.40132E-05-3.06654E-05 7.19444E-06 1.45226E-18 7.97376E-19
 -1      2593 9.52479E-05-2.39884E-05-3.05190E-05-5.29470E-06-8.87349E-19-5.26145E-19
 -1      2594 9.51690E-05-2.50053E-05-3.00903E-05-3.79543E-06-7.17738E-19-5.29624E-19
 -1      2595 9.44836E-05-2.81308E-05-2.84367E-05-9.00203E-07 2.64386E-19 2.19614E-19
 -1      2596 9.44994E-05-2.80026E-05-2.84873E-05-7.24596E-07 4.12994E-19 3.26050E-19
 -1      2597 9.45604E-05-2.78526E-05-2.85898E-05-4.47776E-07 4.62726E-19 1.12597E-19
 -1      2598 9.46494E-05-2.76668E-05-2.86883E-05-1.04764E-07 4.40271E-19 8.44929E-20
 -1      2599 9.50107E-05-2.79120E-05-2.87651E-05-4.59218E-07 3.98158E-19 1.35031E-20
 -1      2600 9.43402E-05-2.09698E-05-3.14685E-05-8.01051E-06-1.11376E-18-7.45179E-19
 -1      2601 9.48035E-05-2.27898E-05-3.08738E-05-6.30914E-06-1.00796E-18-6.40810E-19
 -1      2602 9.46114E-05-2.24302E-05-3.09326E-05-5.71035E-06-8.25867E-19-8.08059E-19
 -1      2603 9.35115E-05-1.95885E-05-3.16828E-05-7.83017E-06-9.90027E-19-9.12049E-19
 -1      2604 9.47287E-05-2.74140E-05-2.88518E-05 3.78325E-07 7.38583E-19 6.53941E-20
 -1      2605 9.49138E-05-2.71244E-05-2.90246E-05 9.85763E-07 8.56123E-19 2.45940E-19
 -1      2606 9.51318E-05-2.73845E-05-2.90451E-05 3.64066E-07 6.45085E-19-1.31505E-20
 -1      2607 1.14420E-04 1.37629E-05-5.58000E-05 9.51300E-06 2.73168E-20-1.38670E-18
 -1      2608 5.27913E-05-3.57248E-05-6.68483E-06-3.36936E-05 6.14311E-19-2.56947E-18
 -1      2609 7.06204E-05-4.70391E-05-9.77062E-06-4.06846E-05 3.62001E-19-3.08616E-18
 -1      2610 9.53656E-05-2.59034E-05-2.97391E-05-2.69518E-06-6.20909E-19-4.98247E-19
 -1      2611 9.51982E-05-2.64917E-05-2.94576E-05-1.71406E-06-5.63138E-19-5.69672E-19
 -1      2612 9.52058E-05-2.46905E-05-3.02206E-05-3.52975E-06-6.69370E-19-7.06235E-19
 -1      2613 9.52208E-05-2.70064E-05-2.92114E-05-9.73214E-07-6.47411E-19-6.01236E-19
 -1      2614 9.50863E-05-2.73609E-05-2.90315E-05-3.68298E-07-6.37704E-19-7.80431E-19
 -1      2615 9.54174E-05-2.63295E-05-2.96149E-05-1.61236E-06-6.82149E-19-6.61925E-19
 -1      2616 9.50530E-05-2.76670E-05-2.88637E-05 9.83189E-08-5.28992E-19-6.28928E-19
 -1      2617 9.49753E-05-2.78919E-05-2.87530E-05 4.48855E-07-4.16409E-19-6.69279E-19
 -1      2618 9.54173E-05-2.73256E-05-2.91896E-05-3.34523E-07-5.49241E-19-6.69147E-19
 -1      2619 9.49330E-05-2.80776E-05-2.86421E-05 7.17566E-07-2.79951E-19-6.30276E-19
 -1      2620 9.49048E-05-2.82250E-05-2.85781E-05 8.99909E-07-2.81836E-19-5.72046E-19
 -1      2621 9.53562E-05-2.79412E-05-2.88988E-05 4.54224E-07-3.38207E-19-4.60031E-19
 -1      2622 9.48695E-05-2.83374E-05-2.85076E-05 1.03281E-06-4.18872E-19-6.97786E-19
 -1      2623 9.48763E-05-2.84352E-05-2.84747E-05 1.10629E-06-4.61059E-19-7.34922E-19
 -1      2624 9.52915E-05-2.83234E-05-2.87060E-05 8.93877E-07-4.13628E-19-6.10509E-19
 -1      2625 9.48515E-05-2.85013E-05-2.84325E-05 1.14973E-06-3.98667E-19-4.89889E-19
 -1      2626 9.48799E-05-2.85658E-05-2.84198E-05 1.15493E-06-3.77661E-19-4.67127E-19
 -1      2627 9.52416E-05-2.85570E-05-2.85831E-05 1.09613E-06-2.95245E-19-4.10345E-19
 -1      2628 9.48646E-05-2.86019E-05-2.83969E-05 1.14223E-06-2.49431E-19-2.34347E-19
 -1      2629 9.49044E-05-2.86432E-05-2.83969E-05 1.10686E-06-2.64886E-19-9.27928E-20
 -1      2630 9.52090E-05-2.86939E-05-2.85093E-05 1.14368E-06-2.65809E-19 4.69546E-19
 -1      2631 9.48963E-05-2.86597E-05-2.83870E-05 1.06146E-06-2.84424E-19-3.06675E-20
 -1      2632 9.49403E-05-2.86847E-05-2.83944E-05 1.00435E-06 2.66715E-20 2.51754E-20
 -1      2633 9.51908E-05-2.87669E-05-2.84694E-05 1.09584E-06-1.07073E-19 3.32350E-19
 -1      2634 9.49372E-05-2.86885E-05-2.83929E-05 9.42379E-07 1.85399E-19 1.12854E-19
 -1      2635 9.49808E-05-2.87021E-05-2.84043E-05 8.76091E-07 1.07360E-19 1.11162E-19
 -1      2636 9.51832E-05-2.87979E-05-2.84522E-05 9.94213E-07 9.84331E-20 4.42179E-19
 -1      2637 9.49809E-05-2.86980E-05-2.84079E-05 8.08390E-07-6.59023E-20 1.50940E-20
 -1      2638 9.50213E-05-2.87036E-05-2.84210E-05 7.41155E-07-6.50783E-20 1.64684E-19
 -1      2639 9.51824E-05-2.88016E-05-2.84498E-05 8.67263E-07-3.53037E-20-4.19067E-20
 -1      2640 9.50234E-05-2.86946E-05-2.84278E-05 6.74788E-07-1.20220E-19 1.01580E-19
 -1      2641 9.50594E-05-2.86948E-05-2.84412E-05 6.11823E-07-2.24289E-19 1.85679E-19
 -1      2642 9.51860E-05-2.87883E-05-2.84567E-05 7.34008E-07-1.19849E-19 3.41244E-19
 -1      2643 9.50626E-05-2.86830E-05-2.84496E-05 5.51256E-07-6.03928E-19 3.13433E-19
 -1      2644 9.50938E-05-2.86794E-05-2.84626E-05 4.95773E-07-5.40473E-19 2.70942E-19
 -1      2645 9.51919E-05-2.87647E-05-2.84691E-05 6.06786E-07-4.38916E-19-4.45481E-20
 -1      2646 9.50976E-05-2.86662E-05-2.84717E-05 4.43755E-07-6.21424E-19 2.71880E-19
 -1      2647 9.51244E-05-2.86599E-05-2.84841E-05 3.97700E-07-8.73871E-19 2.31187E-19
 -1      2648 9.51991E-05-2.87351E-05-2.84847E-05 4.93396E-07-6.27953E-19 7.27205E-21
 -1      2649 9.51284E-05-2.86458E-05-2.84936E-05 3.55945E-07-7.15458E-19 3.47621E-20
 -1      2650 9.51515E-05-2.86376E-05-2.85053E-05 3.20562E-07-5.05101E-19 2.20726E-19
 -1      2651 9.52068E-05-2.87021E-05-2.85022E-05 3.98720E-07-7.32874E-19 1.03478E-19
 -1      2652 9.51559E-05-2.86228E-05-2.85151E-05 2.90261E-07-5.48962E-19 4.08418E-19
 -1      2653 9.51764E-05-2.86129E-05-2.85264E-05 2.66524E-07-7.20986E-19-5.53855E-20
 -1      2654 9.52148E-05-2.86667E-05-2.85207E-05 3.25973E-07-6.81146E-19 5.15311E-19
 -1      2655 9.51809E-05-2.85973E-05-2.85367E-05 2.48741E-07-7.03885E-19-1.89963E-19
 -1      2656 9.52002E-05-2.85858E-05-2.85481E-05 2.37680E-07-3.12751E-19-1.41633E-20
 -1      2657 9.52232E-05-2.86292E-05-2.85404E-05 2.77645E-07-6.71738E-19 2.96407E-19
 -1      2658 9.52052E-05-2.85687E-05-2.85593E-05 2.33660E-07-2.02468E-19-3.53711E-19
 -1      2659 9.52249E-05-2.85555E-05-2.85715E-05 2.36622E-07 4.88445E-20-6.59894E-19
 -1      2660 9.52320E-05-2.85885E-05-2.85617E-05 2.56237E-07-4.21134E-19-1.76461E-19
 -1      2661 9.52305E-05-2.85363E-05-2.85840E-05 2.48030E-07 7.71565E-19-7.74882E-19
 -1      2662 9.52523E-05-2.85209E-05-2.85978E-05 2.66879E-07 1.02235E-18-6.02884E-19
 -1      2663 9.52417E-05-2.85434E-05-2.85853E-05 2.64824E-07 3.23258E-19-5.05060E-19
 -1      2664 9.52588E-05-2.84987E-05-2.86123E-05 2.95981E-07 9.98793E-19-9.14868E-19
 -1      2665 9.52850E-05-2.84808E-05-2.86286E-05 3.33256E-07 7.56276E-19-7.66553E-19
 -1      2666 9.52527E-05-2.84916E-05-2.86122E-05 3.07490E-07 6.99286E-19-1.54731E-18
 -1      2667 9.52926E-05-2.84544E-05-2.86459E-05 3.83061E-07 5.61119E-19-4.29477E-19
 -1      2668 9.53257E-05-2.84335E-05-2.86658E-05 4.42092E-07 1.60793E-19-1.60919E-19
 -1      2669 9.52654E-05-2.84309E-05-2.86438E-05 3.89659E-07 9.30716E-19-1.20052E-18
 -1      2670 9.53345E-05-2.84016E-05-2.86866E-05 5.16439E-07-3.07024E-19-1.77101E-19
 -1      2671 9.53773E-05-2.83773E-05-2.87115E-05 6.01410E-07-1.91886E-19-9.06273E-20
 -1      2672 9.52805E-05-2.83582E-05-2.86815E-05 5.18315E-07-7.33671E-20-1.01468E-19
 -1      2673 9.53877E-05-2.83385E-05-2.87367E-05 7.04999E-07-6.31759E-22-1.06689E-19
 -1      2674 9.54435E-05-2.83105E-05-2.87677E-05 8.20945E-07-9.00794E-20 5.93524E-20
 -1      2675 9.52983E-05-2.82707E-05-2.87268E-05 7.02118E-07-2.07905E-20-1.09469E-19
 -1      2676 9.54555E-05-2.82637E-05-2.87981E-05 9.59285E-07-3.08268E-19 3.62969E-19
 -1      2677 9.55278E-05-2.82318E-05-2.88367E-05 1.11199E-06 2.12150E-19-5.54669E-21
 -1      2678 9.53192E-05-2.81651E-05-2.87810E-05 9.51354E-07-5.26662E-20 4.84130E-19
 -1      2679 9.55414E-05-2.81758E-05-2.88730E-05 1.29122E-06 5.43059E-19 5.67869E-20
 -1      2680 9.56344E-05-2.81406E-05-2.89205E-05 1.48695E-06 2.04516E-19-1.24711E-19
 -1      2681 9.53433E-05-2.80390E-05-2.88454E-05 1.27768E-06 4.03595E-19 8.88980E-19
 -1      2682 9.56493E-05-2.80750E-05-2.89630E-05 1.71351E-06-9.64472E-21 8.06834E-20
 -1      2683 9.57675E-05-2.80378E-05-2.90206E-05 1.95849E-06-6.25627E-20-5.43003E-20
 -1      2684 9.53704E-05-2.78904E-05-2.89206E-05 1.69357E-06 6.22962E-20 2.88967E-19
 -1      2685 9.57835E-05-2.79631E-05-2.90691E-05 2.23851E-06-3.38684E-19-1.77870E-19
 -1      2686 9.59318E-05-2.79272E-05-2.91374E-05 2.53807E-06-8.78315E-19-2.07074E-19
 -1      2687 9.54002E-05-2.77199E-05-2.90063E-05 2.21130E-06-4.98678E-19 2.26476E-19
 -1      2688 9.59490E-05-2.78461E-05-2.91908E-05 2.87639E-06-6.33526E-19 5.85122E-20
 -1      2689 9.61329E-05-2.78175E-05-2.92696E-05 3.23347E-06-2.12271E-19 1.23007E-19
 -1      2690 9.54329E-05-2.75318E-05-2.91007E-05 2.84138E-06-5.78360E-19 1.68055E-19
 -1      2691 9.61528E-05-2.77368E-05-2.93255E-05 3.63223E-06-2.91948E-19 9.84392E-20
 -1      2692 9.63791E-05-2.77265E-05-2.94133E-05 4.04503E-06-1.33307E-19 1.59546E-19
 -1      2693 9.54701E-05-2.73375E-05-2.91994E-05 3.59010E-06-1.47171E-19 5.79807E-19
 -1      2694 9.64065E-05-2.76600E-05-2.94675E-05 4.50145E-06-1.85864E-19 5.83537E-19
 -1      2695 9.66847E-05-2.76874E-05-2.95607E-05 4.95987E-06-3.92314E-19 8.24574E-19
 -1      2696 9.55180E-05-2.71612E-05-2.92951E-05 4.45607E-06-3.15502E-19-2.49379E-19
 -1      2697 9.67321E-05-2.76611E-05-2.96062E-05 5.46318E-06-1.90469E-19 1.38905E-18
 -1      2698 9.70775E-05-2.77598E-05-2.96983E-05 5.94340E-06-6.05604E-20 1.40146E-18
 -1      2699 9.55935E-05-2.70484E-05-2.93757E-05 5.42530E-06-1.87225E-19 8.32483E-19
 -1      2700 9.71725E-05-2.78193E-05-2.97255E-05 6.47042E-06-4.42900E-19 2.11003E-18
 -1      2701 9.76121E-05-2.80445E-05-2.98065E-05 6.92717E-06 1.51788E-22 1.97645E-18
 -1      2702 9.57348E-05-2.70796E-05-2.94237E-05 6.46464E-06-1.75982E-19 7.55437E-19
 -1      2703 9.78102E-05-2.82663E-05-2.98031E-05 7.43589E-06 6.02798E-19 1.79971E-18
 -1      2704 9.83921E-05-2.87060E-05-2.98597E-05 7.79172E-06 8.87728E-19 1.92436E-18
 -1      2705 9.60214E-05-2.73906E-05-2.94161E-05 7.51281E-06 2.95336E-20 1.57499E-18
 -1      2706 9.87959E-05-2.92104E-05-2.98127E-05 8.21117E-06 9.77068E-19 1.34607E-18
 -1      2707 9.96016E-05-2.99937E-05-2.98305E-05 8.34227E-06 1.28022E-18 1.31217E-18
 -1      2708 9.66049E-05-2.81986E-05-2.93267E-05 8.46739E-06 4.07864E-19 3.51099E-19
 -1      2709 1.00386E-04-3.09543E-05-2.97319E-05 8.55468E-06 9.02684E-19 6.24911E-19
 -1      2710 1.01539E-04-3.22480E-05-2.97021E-05 8.27375E-06-4.47761E-19 3.95640E-19
 -1      2711 9.77536E-05-2.98288E-05-2.91340E-05 9.16235E-06 6.01483E-19-4.88487E-20
 -1      2712 1.02972E-04-3.38794E-05-2.95616E-05 8.08568E-06-7.88129E-19-2.25659E-20
 -1      2713 1.04625E-04-3.58480E-05-2.94948E-05 7.12597E-06 2.76249E-19-1.51331E-19
 -1      2714 9.98972E-05-3.27131E-05-2.88402E-05 9.32650E-06-4.51174E-19-7.32672E-19
 -1      2715 1.07059E-04-3.83412E-05-2.93640E-05 6.20692E-06 7.19899E-19-5.46209E-19
 -1      2716 1.09311E-04-4.10066E-05-2.93164E-05 4.21766E-06 2.59298E-19 4.10778E-21
 -1      2717 1.03657E-04-3.73316E-05-2.85080E-05 8.50685E-06 9.21148E-21-1.49003E-18
 -1      2718 1.13046E-04-4.43041E-05-2.93341E-05 2.01870E-06 7.29676E-19 8.80042E-19
 -1      2719 1.15717E-04-4.72166E-05-2.94393E-05-1.36374E-06 3.84791E-19 1.11634E-18
 -1      2720 1.09731E-04-4.38930E-05-2.83356E-05 5.87960E-06 7.49295E-19-5.38432E-19
 -1      2721 1.20649E-04-5.05980E-05-2.98794E-05-5.55705E-06-4.06290E-19 1.88427E-18
 -1      2722 1.22946E-04-5.23612E-05-3.03707E-05-1.04535E-05 6.27929E-20 2.17211E-18
 -1      2723 1.18423E-04-5.16275E-05-2.87628E-05 2.07689E-07 7.58012E-19 2.36230E-19
 -1      2724 1.27789E-04-5.37745E-05-3.16638E-05-1.69929E-05 5.50653E-19 2.67754E-18
 -1      2725 1.28206E-04-5.18372E-05-3.28135E-05-2.25292E-05 1.69585E-18 2.21747E-18
 -1      2726 1.28511E-04-5.74369E-05-3.05570E-05-9.97848E-06 6.49463E-19 1.82814E-18
 -1      2727 1.30176E-04-4.83395E-05-3.53621E-05-2.99176E-05 2.14088E-18 1.79061E-18
 -1      2728 1.26589E-04-4.01657E-05-3.71147E-05-3.35567E-05 5.19549E-19 2.61377E-18
 -1      2729 1.36137E-04-5.52365E-05-3.46789E-05-2.44258E-05 1.50295E-18 1.28601E-18
 -1      2730 1.08143E-04-5.60061E-06-4.47348E-05-2.79894E-05-1.83129E-18 1.26712E-18
 -1      2731 1.02412E-04 2.07773E-06-4.51925E-05-1.85460E-05-2.16893E-18 1.23863E-18
 -1      2732 9.78055E-05 5.32719E-06-4.48030E-05-7.25766E-06-1.74319E-18 8.74932E-19
 -1      2733 9.55682E-05 3.53174E-06-4.28237E-05 3.97712E-06-7.26648E-19 9.61541E-19
 -1      2734 1.03281E-04 5.69201E-06-4.69428E-05 2.33798E-06-6.19710E-19 7.92611E-19
 -1      2735 1.10416E-04 6.66182E-06-5.06647E-05-1.78192E-05-1.86771E-18 5.84724E-19
 -1      2736 9.44802E-05-2.83151E-05-2.83558E-05-1.10385E-06-1.32101E-19 4.48076E-19
 -1      2737 9.44496E-05-2.82249E-05-2.83757E-05-1.03535E-06 1.61726E-19 4.03723E-19
 -1      2738 9.49333E-05-2.82418E-05-2.85883E-05-9.13558E-07 1.53725E-19 4.05983E-19
 -1      2739 9.45247E-05-2.84377E-05-2.83222E-05-1.15009E-06-1.74900E-19 6.62817E-19
 -1      2740 9.44676E-05-2.83733E-05-2.83230E-05-1.14773E-06-2.11219E-19 4.95442E-19
 -1      2741 9.48993E-05-2.84494E-05-2.84829E-05-1.12009E-06-1.03272E-19 6.25840E-19
 -1      2742 9.45964E-05-2.85185E-05-2.83183E-05-1.10076E-06 1.46503E-19 6.80758E-19
 -1      2743 9.45273E-05-2.84727E-05-2.83081E-05-1.13728E-06 2.96285E-20 6.63924E-19
 -1      2744 9.48982E-05-2.85770E-05-2.84263E-05-1.16773E-06-6.76660E-20 3.80530E-19
 -1      2745 9.46801E-05-2.85699E-05-2.83321E-05-9.97919E-07 2.99764E-19 6.93228E-19
 -1      2746 9.46084E-05-2.85381E-05-2.83161E-05-1.05508E-06 2.59287E-19 5.45950E-19
 -1      2747 9.49187E-05-2.86519E-05-2.84020E-05-1.11813E-06 3.27251E-19 4.12478E-19
 -1      2748 9.47653E-05-2.86007E-05-2.83556E-05-8.69885E-07 3.11554E-20 9.91134E-19
 -1      2749 9.46969E-05-2.85792E-05-2.83371E-05-9.35590E-07 1.92488E-19 8.81959E-19
 -1      2750 9.49514E-05-2.86913E-05-2.83983E-05-1.01390E-06 2.04294E-19 8.39296E-19
 -1      2751 9.48459E-05-2.86167E-05-2.83833E-05-7.35344E-07 4.68369E-19 8.09470E-19
 -1      2752 9.47840E-05-2.86030E-05-2.83646E-05-8.01751E-07 2.70799E-19 9.47571E-19
 -1      2753 9.49893E-05-2.87070E-05-2.84073E-05-8.84010E-07 1.39149E-19 6.26643E-19
 -1      2754 9.49185E-05-2.86223E-05-2.84121E-05-6.06256E-07 5.79532E-19 1.19337E-19
 -1      2755 9.48644E-05-2.86145E-05-2.83943E-05-6.68432E-07 5.88184E-19 6.46407E-19
 -1      2756 9.50278E-05-2.87071E-05-2.84234E-05-7.47643E-07 5.64487E-19 1.00919E-18
 -1      2757 9.49818E-05-2.86207E-05-2.84400E-05-4.90018E-07 2.68705E-19 3.43758E-19
 -1      2758 9.49358E-05-2.86173E-05-2.84237E-05-5.44973E-07 5.13666E-19 4.03202E-19
 -1      2759 9.50642E-05-2.86971E-05-2.84431E-05-6.17175E-07 5.86878E-19 2.87560E-19
 -1      2760 9.50361E-05-2.86141E-05-2.84661E-05-3.91066E-07 4.23003E-19 8.73750E-19
 -1      2761 9.49976E-05-2.86139E-05-2.84515E-05-4.37038E-07 9.84566E-20 6.53586E-19
 -1      2762 9.50974E-05-2.86808E-05-2.84642E-05-5.00341E-07 9.00537E-20 8.58348E-19
 -1      2763 9.50827E-05-2.86037E-05-2.84904E-05-3.12087E-07-1.57112E-19 1.61624E-18
 -1      2764 9.50503E-05-2.86061E-05-2.84773E-05-3.48007E-07 2.42980E-19 1.07205E-18
 -1      2765 9.51269E-05-2.86605E-05-2.84855E-05-4.01889E-07 8.59707E-20 1.40309E-18
 -1      2766 9.51233E-05-2.85906E-05-2.85134E-05-2.54932E-07-1.75430E-19 1.85400E-18
 -1      2767 9.50954E-05-2.85948E-05-2.85013E-05-2.80015E-07-6.72245E-20 1.62269E-18
 -1      2768 9.51531E-05-2.86373E-05-2.85067E-05-3.24831E-07-1.74418E-19 1.44735E-18
 -1      2769 9.51605E-05-2.85749E-05-2.85359E-05-2.21320E-07 1.24335E-19 1.06247E-18
 -1      2770 9.51352E-05-2.85808E-05-2.85243E-05-2.34757E-07-1.19921E-21 1.64573E-18
 -1      2771 9.51770E-05-2.86119E-05-2.85279E-05-2.71386E-07 1.28851E-19 1.19413E-18
 -1      2772 9.51972E-05-2.85568E-05-2.85592E-05-2.13368E-07-6.16760E-20 7.48424E-19
 -1      2773 9.51723E-05-2.85640E-05-2.85472E-05-2.14085E-07 2.02072E-19 1.02676E-18
 -1      2774 9.51997E-05-2.85838E-05-2.85498E-05-2.43703E-07 4.56654E-19 1.05841E-18
 -1      2775 9.52367E-05-2.85360E-05-2.85847E-05-2.33999E-07 9.15589E-20 3.19799E-19
 -1      2776 9.52097E-05-2.85445E-05-2.85715E-05-2.20482E-07 1.22088E-19 5.13044E-19
 -1      2777 9.52229E-05-2.85525E-05-2.85733E-05-2.44419E-07 4.15164E-19 9.95521E-19
 -1      2778 9.52830E-05-2.85122E-05-2.86144E-05-2.87243E-07 1.73050E-19 5.69222E-19
 -1      2779 9.52510E-05-2.85219E-05-2.85988E-05-2.57401E-07 1.18682E-20 2.46881E-19
 -1      2780 9.52484E-05-2.85169E-05-2.85997E-05-2.77061E-07 2.09616E-19 5.19141E-19
 -1      2781 9.53407E-05-2.84851E-05-2.86502E-05-3.78425E-07 5.79398E-19 6.77934E-19
 -1      2782 9.53004E-05-2.84959E-05-2.86311E-05-3.29519E-07 5.82703E-19 6.40832E-19
 -1      2783 9.52786E-05-2.84757E-05-2.86304E-05-3.46348E-07 2.71906E-19 5.35541E-19
 -1      2784 9.54151E-05-2.84547E-05-2.86945E-05-5.14236E-07 1.33038E-19 1.38460E-19
 -1      2785 9.53625E-05-2.84661E-05-2.86705E-05-4.42861E-07 2.20519E-19 1.06126E-18
 -1      2786 9.53159E-05-2.84277E-05-2.86672E-05-4.58362E-07 5.68622E-19 1.47220E-18
 -1      2787 9.55123E-05-2.84213E-05-2.87497E-05-7.02630E-07 1.63086E-19 2.41504E-19
 -1      2788 9.54429E-05-2.84326E-05-2.87194E-05-6.04793E-07 4.28900E-19 2.93640E-19
 -1      2789 9.53635E-05-2.83717E-05-2.87118E-05-6.20566E-07 1.23435E-19 1.36361E-18
 -1      2790 9.56395E-05-2.83861E-05-2.88185E-05-9.52479E-07-1.44587E-19 7.03045E-19
 -1      2791 9.55482E-05-2.83962E-05-2.87802E-05-8.23811E-07 1.20995E-20 5.68221E-19
 -1      2792 9.54250E-05-2.83071E-05-2.87660E-05-8.41638E-07-2.65488E-20 1.43392E-18
 -1      2793 9.58048E-05-2.83515E-05-2.89032E-05-1.27287E-06 6.83306E-19 3.32730E-20
 -1      2794 9.56857E-05-2.83584E-05-2.88555E-05-1.10904E-06 7.15207E-19 3.56030E-19
 -1      2795 9.55047E-05-2.82343E-05-2.88316E-05-1.13102E-06 3.21428E-19 9.46507E-19
 -1      2796 9.60180E-05-2.83223E-05-2.90061E-05-1.67189E-06-4.78834E-21-9.36698E-19
 -1      2797 9.58643E-05-2.83227E-05-2.89475E-05-1.46929E-06 1.52327E-19-2.39388E-19
 -1      2798 9.56079E-05-2.81557E-05-2.89097E-05-1.49807E-06 5.97349E-19 5.07664E-19
 -1      2799 9.62897E-05-2.83065E-05-2.91285E-05-2.15457E-06-1.93002E-19-1.36394E-18
 -1      2800 9.60942E-05-2.82953E-05-2.90579E-05-1.91151E-06-4.46212E-19-1.11713E-18
 -1      2801 9.57412E-05-2.80763E-05-2.90010E-05-1.95063E-06 5.19006E-20-2.65109E-19
 -1      2802 9.66329E-05-2.83176E-05-2.92702E-05-2.71984E-06-9.09237E-20-9.24692E-19
 -1      2803 9.63878E-05-2.82869E-05-2.91874E-05-2.43827E-06 1.26232E-20-1.47231E-18
 -1      2804 9.59133E-05-2.80066E-05-2.91049E-05-2.49278E-06-2.60692E-19-8.24095E-19
 -1      2805 9.70633E-05-2.83772E-05-2.94288E-05-3.35588E-06 3.41823E-19-2.15451E-19
 -1      2806 9.67599E-05-2.83150E-05-2.93347E-05-3.04405E-06 2.87971E-19-5.15814E-19
 -1      2807 9.61367E-05-2.79645E-05-2.92189E-05-3.12157E-06-1.19684E-20-9.02828E-19
 -1      2808 9.76008E-05-2.85191E-05-2.95990E-05-4.03344E-06-3.38138E-19-1.89105E-19
 -1      2809 9.72302E-05-2.84071E-05-2.94962E-05-3.70969E-06 2.48205E-19 3.25260E-19
 -1      2810 9.64295E-05-2.79798E-05-2.93381E-05-3.82213E-06-9.12788E-20-1.30488E-18
 -1      2811 9.82732E-05-2.87946E-05-2.97709E-05-4.69662E-06-6.33087E-19 7.82860E-19
 -1      2812 9.78251E-05-2.86063E-05-2.96646E-05-4.39457E-06-8.91105E-19 7.50592E-19
 -1      2813 9.68201E-05-2.81003E-05-2.94545E-05-4.56103E-06-1.09601E-18-1.24744E-18
 -1      2814 9.91200E-05-2.92787E-05-2.99300E-05-5.25070E-06 8.48324E-19-6.89551E-20
 -1      2815 9.85826E-05-2.89765E-05-2.98282E-05-5.02590E-06 2.59127E-19 6.78792E-19
 -1      2816 9.73534E-05-2.83987E-05-2.95566E-05-5.27710E-06-1.04954E-19-4.68467E-19
 -1      2817 1.00198E-04-3.00733E-05-3.00577E-05-5.54737E-06 7.90714E-19 3.31589E-19
 -1      2818 9.95582E-05-2.96086E-05-2.99712E-05-5.48478E-06 1.15632E-18 2.42482E-20
 -1      2819 9.81003E-05-2.89809E-05-2.96299E-05-5.86938E-06 1.18776E-18-6.98709E-19
 -1      2820 1.01584E-04-3.13032E-05-3.01342E-05-5.36916E-06 4.61389E-19 6.28725E-19
 -1      2821 1.00829E-04-3.06210E-05-3.00753E-05-5.58963E-06 3.86781E-19 6.36003E-19
 -1      2822 9.91676E-05-2.99896E-05-2.96597E-05-6.18179E-06 3.57008E-19-2.99797E-19
 -1      2823 1.03363E-04-3.30870E-05-3.01467E-05-4.41868E-06-3.06131E-19 5.41741E-19
 -1      2824 1.02493E-04-3.21459E-05-3.01253E-05-5.07960E-06 8.80276E-19 1.33209E-18
 -1      2825 1.00704E-04-3.15955E-05-2.96375E-05-5.98477E-06-1.20307E-19 5.54477E-20
 -1      2826 1.05591E-04-3.54598E-05-3.01033E-05-2.32656E-06-2.48824E-19 7.96710E-19
 -1      2827 1.04642E-04-3.42785E-05-3.01201E-05-3.60633E-06-6.91377E-19 1.01240E-18
 -1      2828 1.02888E-04-3.39530E-05-2.95733E-05-4.95635E-06-2.98261E-19 9.20633E-19
 -1      2829 1.08181E-04-3.82137E-05-3.00546E-05 1.29065E-06-1.37194E-18 1.02525E-18
 -1      2830 1.07280E-04-3.69602E-05-3.00907E-05-7.57062E-07-7.95746E-19 1.18907E-18
 -1      2831 1.05863E-04-3.70858E-05-2.95151E-05-2.67487E-06-1.31995E-18 1.85301E-18
 -1      2832 1.10719E-04-4.06476E-05-3.01142E-05 6.66035E-06-1.15253E-18 1.14290E-18
 -1      2833 1.10160E-04-3.97633E-05-3.01222E-05 3.83900E-06-1.50725E-18 6.90823E-19
 -1      2834 1.09572E-04-4.06573E-05-2.95749E-05 1.33837E-06-1.22650E-18 1.50681E-18
 -1      2835 1.12240E-04-4.13393E-05-3.04602E-05 1.34775E-05 2.82485E-19 4.87685E-19
 -1      2836 1.12526E-04-4.16122E-05-3.03650E-05 1.02259E-05-7.21831E-20 6.60584E-19
 -1      2837 1.13464E-04-4.36323E-05-2.99442E-05 7.42619E-06-1.89091E-19 6.00095E-19
 -1      2838 1.11191E-04-3.82886E-05-3.12859E-05 2.02822E-05 1.82190E-19 7.02316E-19
 -1      2839 1.12933E-04-4.06553E-05-3.10154E-05 1.75748E-05-1.73552E-19 2.50113E-19
 -1      2840 1.16151E-04-4.39954E-05-3.08789E-05 1.53249E-05 5.27410E-20-5.25233E-19
 -1      2841 1.06122E-04-2.99737E-05-3.25800E-05 2.39507E-05 1.52300E-18 1.32858E-18
 -1      2842 1.09523E-04-3.47482E-05-3.21852E-05 2.35164E-05 1.43849E-18 8.01227E-19
 -1      2843 1.15457E-04-3.93191E-05-3.25939E-05 2.34180E-05 4.67099E-19-1.48125E-19
 -1      2844 9.76871E-05-1.83765E-05-3.39115E-05 2.08704E-05-2.69251E-19 2.09077E-18
 -1      2845 1.02004E-04-2.43918E-05-3.35452E-05 2.36961E-05 8.78817E-19 1.99393E-18
 -1      2846 1.09177E-04-2.75167E-05-3.49941E-05 2.76112E-05 7.62462E-19 3.60518E-20
 -1      2847 8.87691E-05-8.50592E-06-3.43095E-05 8.97431E-06-1.11515E-18 3.00368E-18
 -1      2848 9.21620E-05-1.22546E-05-3.44826E-05 1.56347E-05-4.94614E-19 2.76509E-18
 -1      2849 9.96088E-05-1.42493E-05-3.64605E-05 2.22416E-05-7.70826E-19 2.97256E-20
 -1      2850 8.54185E-05-6.41226E-06-3.39096E-05-5.34975E-06-8.51083E-19 1.31783E-18
 -1      2851 8.63703E-05-5.68422E-06-3.48271E-05 2.05961E-06-6.33124E-19 1.47739E-18
 -1      2852 9.04213E-05-1.55725E-06-3.80740E-05 1.08803E-05-2.46142E-19 1.27698E-18
 -1      2853 8.86157E-05 6.17004E-07-3.80837E-05-3.36067E-06-9.69853E-20-8.90457E-19
 -1      2854 1.38726E-04-1.25538E-05-5.45978E-05 3.68899E-05 9.84888E-19-1.00903E-19
 -1      2855 1.32555E-04 1.13000E-06-5.84961E-05 3.34629E-05 1.80842E-19-2.58769E-19
 -1      2856 1.00331E-04 1.06754E-05-4.77353E-05 3.14700E-06-1.97147E-19-1.72382E-18
 -1      2857 9.23840E-05 6.68485E-06-4.29382E-05-1.15750E-06 1.67395E-19-1.45515E-18
 -1      2858 9.23867E-05 7.24871E-06-4.33713E-05 6.06003E-06-2.76239E-19-1.83653E-18
 -1      2859 1.15698E-04 1.40999E-05-5.65984E-05 1.57155E-05-2.08370E-19-1.51203E-18
 -1      2860 1.17094E-04 2.36474E-06-5.20817E-05 2.86256E-06-8.30304E-19 3.64965E-18
 -1      2861 1.21637E-04-9.98776E-06-4.83999E-05 3.36501E-06-8.13363E-19 4.29276E-18
 -1      2862 1.59783E-04-6.69423E-05-4.04932E-05-1.44290E-05-3.13032E-19-1.87925E-18
 -1      2863 1.52951E-04-7.30779E-05-3.41481E-05-2.31137E-06 2.89738E-19-2.24432E-18
 -1      2864 8.88993E-05-5.65063E-05-1.33088E-05-3.99025E-05 7.85835E-19-3.14705E-18
 -1      2865 1.05679E-04-6.43520E-05-1.75815E-05-3.71157E-05 5.08432E-19-2.82983E-18
 -1      2866 1.49868E-04-4.39160E-05-4.58121E-05 2.94129E-05 2.04013E-18-3.06838E-19
 -1      2867 1.46072E-04-3.04440E-05-5.04917E-05 3.51645E-05 1.70847E-18 4.11129E-19
 -1      2868 1.57113E-04-4.07641E-05-5.06958E-05-3.37597E-05-4.76456E-20 5.79371E-19
 -1      2869 1.59691E-04-5.43016E-05-4.53930E-05-2.67883E-05-3.17690E-19-7.57671E-19
 -1      2870 9.49790E-05-2.66745E-05-2.92758E-05 1.77243E-06 9.47795E-19 2.53405E-19
 -1      2871 9.52881E-05-2.61977E-05-2.95519E-05 2.80348E-06 1.06372E-18 3.48539E-19
 -1      2872 9.52378E-05-2.64947E-05-2.94742E-05 1.71755E-06 1.04212E-18 1.54018E-19
 -1      2873 3.18590E-05-2.17821E-05-3.75439E-06-2.46386E-06 7.74572E-21-2.92650E-19
 -1      2874 3.84500E-05-2.58244E-05-4.75371E-06-2.05344E-05-1.77453E-19-1.77390E-18
 -1      2875 7.21253E-05-4.42525E-05-1.16997E-05 3.62216E-05 8.35704E-19 6.00335E-20
 -1      2876 5.40776E-05-3.30555E-05-8.21774E-06 2.85185E-05 2.27587E-19-4.65445E-19
 -1      2877 1.19728E-04 9.50353E-06-5.62434E-05-2.34588E-05-1.64367E-18 2.70728E-18
 -1      2878 1.31968E-04-7.26315E-07-5.69536E-05-3.34160E-05-1.52932E-18 1.42852E-18
 -1      2879 4.07675E-05-2.65653E-05-5.66197E-06 2.09275E-05 7.16272E-20-6.03723E-19
 -1      2880 3.49435E-05-2.28084E-05-4.43705E-06 1.00502E-05-2.48551E-20 3.26108E-19
 -1      2881 4.02346E-05-2.10975E-05-7.69287E-06 1.48332E-06-4.07661E-19-2.18111E-20
 -1      2882 5.50886E-05-2.90870E-05-1.06668E-05 2.30347E-05 2.78621E-19-5.87841E-19
 -1      2883 1.41251E-04-1.14537E-05-5.67254E-05-3.76491E-05-1.51217E-18 1.61815E-18
 -1      2884 1.49944E-04-2.59315E-05-5.36468E-05-3.87701E-05-8.16540E-19 1.66273E-18
 -1      2885 1.44308E-04-3.29425E-05-4.78437E-05-3.74994E-05-1.25742E-18 7.72176E-19
 -1      2886 1.26012E-04-8.44507E-06-5.06726E-05-3.44426E-05-1.73398E-18-3.47919E-19
 -1      2887 9.11646E-05-1.60891E-05-3.22084E-05 4.89371E-06 1.17106E-18-9.81931E-19
 -1      2888 9.08169E-05-1.55746E-05-3.22686E-05 3.98887E-06 8.72004E-19-1.06540E-18
 -1      2889 9.17966E-05-1.71714E-05-3.19595E-05 3.21382E-06 7.44277E-19-9.26022E-19
 -1      2890 9.25383E-05-1.82793E-05-3.17865E-05 4.65441E-06 1.15462E-18-8.30546E-19
 -1      2891 1.43840E-04-7.67371E-05-2.90386E-05 1.22961E-05 5.97899E-19-1.08383E-18
 -1      2892 1.29227E-04-7.35648E-05-2.35421E-05 2.22721E-05 7.70906E-19 9.53441E-20
 -1      2893 9.07901E-05-1.55366E-05-3.22731E-05-3.92909E-06-2.69922E-19-1.41362E-18
 -1      2894 9.11264E-05-1.60232E-05-3.22144E-05-4.85292E-06-4.25444E-19-1.27330E-18
 -1      2895 1.52674E-04-7.06088E-05-3.49020E-05 9.02124E-07 4.17164E-20-1.93081E-18
 -1      2896 1.54831E-04-6.10736E-05-4.07940E-05 1.64631E-05 1.16590E-18-8.35492E-19
 -1      2897 1.13594E-04-6.83218E-05-1.93617E-05 3.26146E-05 1.24789E-18 7.04017E-19
 -1      2898 9.41057E-05-5.78728E-05-1.50400E-05 3.59350E-05 1.47405E-18 3.17637E-21
 -1      2899 9.15563E-05-1.66738E-05-3.21138E-05-5.57990E-06-5.14152E-19-1.19343E-18
 -1      2900 9.20761E-05-1.74488E-05-3.20148E-05-6.40102E-06-7.34957E-19-1.07168E-18
 -1      2901 9.24249E-05-1.81822E-05-3.17969E-05-4.57345E-06-4.67348E-19-1.11373E-18
 -1      2902 9.12776E-05-1.63862E-05-3.20842E-05 2.94644E-08 2.73092E-19-1.13984E-18
 -1      2903 9.01551E-05-1.45961E-05-3.24018E-05-3.82276E-07 2.06312E-19-1.32067E-18
 -1      2904 9.02122E-05-1.46768E-05-3.23919E-05-1.33928E-06 8.93468E-20-1.33322E-18
 -1      2905 9.55045E-05-2.46996E-05-3.02840E-05 5.60080E-06 1.32660E-18 6.08411E-19
 -1      2906 9.52328E-05-2.29012E-05-3.10546E-05 7.73634E-06 1.50717E-18 4.87494E-19
 -1      2907 9.43467E-05-2.11550E-05-3.13634E-05 7.78909E-06 1.40670E-18 4.37148E-20
 -1      2908 9.52910E-05-2.52986E-05-2.99968E-05 4.44635E-06 1.18186E-18 4.63747E-19
 -1      2909 1.15210E-04 1.22038E-05-5.55792E-05-1.24976E-05-8.87055E-19 2.90654E-18
 -1      2910 4.93318E-05-2.93412E-05-7.89636E-06-2.61925E-05 2.08476E-19-2.63205E-18
 -1      2911 6.09864E-05-3.30660E-05-1.17812E-05-2.97135E-05 5.15075E-19-2.77170E-18
 -1      2912 4.83987E-05-2.36223E-05-1.02063E-05-1.80914E-05-6.43745E-20-2.28477E-18
 -1      2913 1.18060E-04-1.44388E-05-4.46879E-05-3.45437E-05-2.12955E-18 8.06958E-19
 -1      2914 1.24875E-04-2.68449E-05-4.25957E-05-3.71232E-05-1.45309E-18 7.41869E-19
 -1      2915 1.11532E-04 8.70658E-06-5.23107E-05-1.40890E-06-3.91753E-19 3.23228E-18
 -1      2916 1.50259E-04-5.41051E-05-4.15644E-05 2.45668E-05 1.63041E-18-4.81856E-19
 -1      2917 1.39590E-04-4.33892E-05-4.14307E-05 3.16484E-05 1.10443E-18-1.25139E-18
 -1      2918 1.44922E-04-5.90391E-05-3.68754E-05 1.82819E-05 1.16846E-18-9.23584E-19
 -1      2919 1.16855E-04-6.79983E-05-2.05222E-05-3.10174E-05 1.82536E-19-2.52270E-18
 -1      2920 1.26116E-04-7.06934E-05-2.40868E-05-2.35665E-05 2.11282E-19-2.24024E-18
 -1      2921 1.09939E-04-6.25083E-05-1.99838E-05-3.12632E-05 1.86241E-19-2.26571E-18
 -1      2922 8.73997E-05-4.94492E-05-1.57942E-05 3.20981E-05 8.10399E-19-3.37543E-19
 -1      2923 1.54272E-04-5.91345E-05-4.08562E-05-2.50159E-05-4.77558E-19-6.63650E-19
 -1      2924 1.23826E-04-6.91358E-05-2.30337E-05 2.19767E-05 1.26748E-18-9.97811E-20
 -1      2925 1.47140E-04-7.31299E-05-3.15526E-05-4.27887E-07 1.20554E-18-1.21332E-18
 -1      2926 1.45183E-04-7.17457E-05-3.12268E-05-5.28737E-06 1.88465E-19-1.30560E-18
 -1      2927 1.17944E-04 5.63552E-06-5.28741E-05 2.95574E-05-1.25573E-19-2.37513E-18
 -1      2928 1.25886E-04 9.80862E-06-5.88344E-05 2.96368E-05-6.61956E-19-4.22034E-19
 -1      2929 1.33667E-04-1.97959E-05-4.89100E-05 3.70250E-05 9.44865E-19-1.16065E-18
 -1      2930 9.52824E-05-2.49900E-05-3.01657E-05 4.23212E-06 1.18061E-18 1.79376E-19
 -1      2931 9.47053E-05-2.22103E-05-3.10100E-05 6.24817E-06 1.36165E-18-2.65939E-20
 -1      2932 9.03379E-05-1.48681E-05-3.23644E-05-2.17548E-06 2.12770E-20-1.25963E-18
 -1      2933 9.05233E-05-1.51321E-05-3.23324E-05-3.12583E-06-1.35790E-19-1.34921E-18
 -1      2934 9.17727E-05-1.71536E-05-3.19645E-05-3.13964E-06-2.45981E-19-1.21483E-18
 -1      2935 9.13963E-05-1.65696E-05-3.20558E-05-1.58118E-06 2.54629E-20-1.21790E-18
 -1      2936 1.21774E-04 1.43829E-05-5.91937E-05 2.29266E-05-1.39972E-19-1.81655E-18
 -1      2937 8.41031E-05-5.00831E-05-1.39947E-05-3.70673E-05-6.28922E-20-3.28543E-18
 -1      2938 9.24328E-05-1.79632E-05-3.19370E-05-6.91320E-06-7.98273E-19-9.45593E-19
 -1      2939 9.30721E-05-1.89447E-05-3.17981E-05-7.42295E-06-9.76152E-19-9.01208E-19
 -1      2940 9.38219E-05-2.05020E-05-3.14023E-05-6.42241E-06-8.66544E-19-8.95700E-19
 -1      2941 9.31896E-05-1.93879E-05-3.16010E-05-5.66050E-06-6.93574E-19-9.54480E-19
 -1      2942 9.48677E-05-2.37136E-05-3.05092E-05 4.36878E-06 1.16953E-18-1.80799E-19
 -1      2943 9.46661E-05-2.29412E-05-3.07861E-05 4.46890E-06 1.20678E-18-4.09954E-19
 -1      2944 9.42083E-05-2.19997E-05-3.09768E-05 4.12981E-06 1.15039E-18-6.04971E-19
 -1      2945 9.53957E-05-2.52130E-05-3.00337E-05 2.82875E-06 1.02880E-18-1.77808E-19
 -1      2946 9.52735E-05-2.85710E-05-2.85873E-05-1.08753E-06-2.24481E-19 1.98368E-19
 -1      2947 9.52847E-05-2.84663E-05-2.86308E-05-1.01731E-06 1.28548E-20 2.79693E-19
 -1      2948 9.54123E-05-2.73490E-05-2.91776E-05 2.54313E-07 4.93520E-19 1.40907E-20
 -1      2949 9.54718E-05-2.69409E-05-2.93578E-05 8.22123E-07 6.80322E-19-1.33131E-20
 -1      2950 9.49752E-05-2.34959E-05-3.06136E-05-4.12068E-06-7.21565E-19-7.91361E-19
 -1      2951 9.51646E-05-2.45967E-05-3.02605E-05-2.96595E-06-6.68808E-19-8.75821E-19
 -1      2952 9.53182E-05-2.83376E-05-2.87078E-05-8.98869E-07 4.58051E-21 3.71103E-19
 -1      2953 9.53505E-05-2.81723E-05-2.87815E-05-7.25161E-07 1.08698E-19 2.08152E-19
 -1      2954 9.56417E-05-2.84290E-05-2.88096E-05-8.74435E-07-1.12530E-20 1.85096E-19
 -1      2955 9.55006E-05-2.55654E-05-2.99558E-05-2.13268E-06-5.54278E-19-9.02464E-19
 -1      2956 9.55343E-05-2.62660E-05-2.96995E-05-1.32615E-06-5.43492E-19-8.36832E-19
 -1      2957 9.52331E-05-2.44697E-05-3.03262E-05-2.62127E-06-5.94727E-19-9.76967E-19
 -1      2958 9.56793E-05-2.68768E-05-2.94720E-05-7.36193E-07-4.54101E-19-6.62688E-19
 -1      2959 9.56543E-05-2.73252E-05-2.92921E-05-2.11021E-07-2.78736E-19-4.84852E-19
 -1      2960 9.57028E-05-2.61968E-05-2.97894E-05-1.16295E-06-3.36854E-19-7.61109E-19
 -1      2961 9.56982E-05-2.77113E-05-2.91260E-05 1.69432E-07-3.89123E-19-4.08540E-19
 -1      2962 9.56610E-05-2.79982E-05-2.90030E-05 4.84447E-07-4.08107E-19-4.76012E-19
 -1      2963 9.58923E-05-2.73273E-05-2.93879E-05-1.55686E-07-2.90575E-19-4.33382E-19
 -1      2964 9.56529E-05-2.82371E-05-2.88846E-05 7.05916E-07-4.52144E-19-4.44216E-19
 -1      2965 9.56205E-05-2.84185E-05-2.88031E-05 8.73425E-07-4.83739E-19-5.52692E-19
 -1      2966 9.59330E-05-2.80532E-05-2.90949E-05 4.79246E-07-4.42141E-19-3.38455E-19
 -1      2967 9.55883E-05-2.85609E-05-2.87208E-05 9.81850E-07-2.47329E-19-5.23578E-19
 -1      2968 9.55650E-05-2.86722E-05-2.86691E-05 1.05011E-06-1.25944E-19-2.83007E-19
 -1      2969 9.58987E-05-2.85058E-05-2.88861E-05 8.35973E-07-3.30485E-19-1.80860E-19
 -1      2970 9.55233E-05-2.87509E-05-2.86136E-05 1.08229E-06 2.63191E-20-6.60125E-20
 -1      2971 9.55087E-05-2.88151E-05-2.85828E-05 1.08679E-06-2.30876E-20 1.46473E-19
 -1      2972 9.58304E-05-2.87750E-05-2.87410E-05 9.97270E-07 1.40951E-19-2.33330E-19
 -1      2973 9.54654E-05-2.88519E-05-2.85470E-05 1.07061E-06-9.28206E-20 3.49234E-19
 -1      2974 9.54574E-05-2.88844E-05-2.85306E-05 1.03674E-06 1.39709E-19 5.04432E-19
 -1      2975 9.57500E-05-2.89212E-05-2.86433E-05 1.02875E-06 1.23157E-19 5.14195E-20
 -1      2976 9.54164E-05-2.88942E-05-2.85088E-05 9.92448E-07-2.42659E-20 5.98712E-19
 -1      2977 9.54131E-05-2.89058E-05-2.85022E-05 9.37908E-07-1.96329E-19 5.73386E-19
 -1      2978 9.56692E-05-2.89860E-05-2.85805E-05 9.79602E-07-1.81781E-20 5.64833E-19
 -1      2979 9.53763E-05-2.88987E-05-2.84904E-05 8.79710E-07-1.74697E-19 5.59051E-19
 -1      2980 9.53761E-05-2.88967E-05-2.84901E-05 8.16575E-07-3.51322E-21 5.04899E-19
 -1      2981 9.55939E-05-2.89980E-05-2.85427E-05 8.85233E-07-1.37539E-19 9.27888E-19
 -1      2982 9.53442E-05-2.88796E-05-2.84852E-05 7.54119E-07-8.99054E-20 3.92183E-19
 -1      2983 9.53459E-05-2.88692E-05-2.84889E-05 6.90395E-07-2.49726E-19 3.14816E-19
 -1      2984 9.55271E-05-2.89771E-05-2.85226E-05 7.70306E-07-5.17415E-20 8.23549E-19
 -1      2985 9.53190E-05-2.88466E-05-2.84888E-05 6.30040E-07-4.73228E-19 1.36266E-19
 -1      2986 9.53218E-05-2.88311E-05-2.84949E-05 5.70901E-07-6.15319E-19-2.96308E-20
 -1      2987 9.54697E-05-2.89367E-05-2.85151E-05 6.51486E-07-4.40550E-19-4.01883E-20
 -1      2988 9.52995E-05-2.88058E-05-2.84980E-05 5.16727E-07-6.26671E-19 6.38585E-20
 -1      2989 9.53029E-05-2.87874E-05-2.85056E-05 4.65453E-07-5.21474E-19 3.07291E-20
 -1      2990 9.54213E-05-2.88855E-05-2.85161E-05 5.39728E-07-6.15193E-19-2.61586E-20
 -1      2991 9.52846E-05-2.87610E-05-2.85109E-05 4.20056E-07-5.58502E-19 3.25092E-19
 -1      2992 9.52883E-05-2.87408E-05-2.85194E-05 3.78759E-07-6.63787E-19 4.83029E-19
 -1      2993 9.53813E-05-2.88288E-05-2.85230E-05 4.42108E-07-3.54102E-19 1.99151E-19
 -1      2994 9.52732E-05-2.87137E-05-2.85263E-05 3.43866E-07-7.80478E-19 4.65249E-19
 -1      2995 9.52771E-05-2.86920E-05-2.85355E-05 3.14038E-07-8.55253E-19 5.45422E-19
 -1      2996 9.53482E-05-2.87692E-05-2.85342E-05 3.63261E-07-6.37370E-19 5.69051E-19
 -1      2997 9.52643E-05-2.86641E-05-2.85438E-05 2.90982E-07-9.12271E-19 2.98928E-19
 -1      2998 9.52686E-05-2.86408E-05-2.85537E-05 2.73921E-07-5.95809E-19 2.20542E-19
 -1      2999 9.53203E-05-2.87073E-05-2.85488E-05 3.06483E-07-8.88317E-19 2.48680E-19
 -1      3000 9.52570E-05-2.86112E-05-2.85633E-05 2.64007E-07-2.34811E-19 1.70500E-19
 -1      3001 9.52616E-05-2.85856E-05-2.85743E-05 2.61138E-07-1.16096E-19 2.59218E-19
 -1      3002 9.52959E-05-2.86420E-05-2.85662E-05 2.74592E-07-4.50606E-19 1.67802E-19
 -1      3003 9.52501E-05-2.85532E-05-2.85853E-05 2.65921E-07-4.07926E-19 5.35941E-19
 -1      3004 9.52553E-05-2.85243E-05-2.85978E-05 2.79054E-07 7.54031E-20-2.33261E-19
 -1      3005 9.52727E-05-2.85713E-05-2.85865E-05 2.70576E-07-1.83808E-19 4.39130E-19
 -1      3006 9.52426E-05-2.84873E-05-2.86105E-05 3.00552E-07 4.76849E-19-3.98050E-19
 -1      3007 9.52486E-05-2.84537E-05-2.86249E-05 3.32065E-07 6.90407E-19-7.08380E-19
 -1      3008 9.52483E-05-2.84919E-05-2.86100E-05 2.98094E-07-7.85229E-21 3.65092E-19
 -1      3009 9.52331E-05-2.84101E-05-2.86397E-05 3.72920E-07 1.25285E-18-8.96736E-19
 -1      3010 9.52400E-05-2.83704E-05-2.86567E-05 4.25897E-07 1.19475E-18-6.00164E-19
 -1      3011 9.52199E-05-2.83997E-05-2.86372E-05 3.61846E-07 1.10048E-18-2.22985E-19
 -1      3012 9.52199E-05-2.83179E-05-2.86739E-05 4.89475E-07 4.27541E-19-2.70905E-19
 -1      3013 9.52281E-05-2.82702E-05-2.86941E-05 5.67786E-07-1.34490E-20 1.03585E-19
 -1      3014 9.51840E-05-2.82901E-05-2.86688E-05 4.67826E-07 1.23969E-18-6.10686E-19
 -1      3015 9.52011E-05-2.82063E-05-2.87140E-05 6.58219E-07-4.53972E-20 2.09533E-19
 -1      3016 9.52106E-05-2.81490E-05-2.87382E-05 7.66530E-07-2.54182E-20 5.33269E-19
 -1      3017 9.51368E-05-2.81578E-05-2.87051E-05 6.23456E-07 2.82843E-19-1.35210E-19
 -1      3018 9.51742E-05-2.80711E-05-2.87609E-05 8.88686E-07-2.13487E-19 4.38282E-20
 -1      3019 9.51851E-05-2.80024E-05-2.87896E-05 1.03237E-06-1.46306E-20 9.06290E-20
 -1      3020 9.50734E-05-2.79971E-05-2.87466E-05 8.37581E-07-1.65369E-19 1.71328E-19
 -1      3021 9.51359E-05-2.79079E-05-2.88151E-05 1.19173E-06 3.24503E-19 1.44742E-19
 -1      3022 9.51482E-05-2.78267E-05-2.88485E-05 1.37666E-06 3.95479E-19 4.97983E-19
 -1      3023 9.49880E-05-2.78027E-05-2.87930E-05 1.12028E-06 2.32765E-19-1.10201E-18
 -1      3024 9.50825E-05-2.77134E-05-2.88762E-05 1.57906E-06 1.03380E-19 5.80584E-19
 -1      3025 9.50958E-05-2.76192E-05-2.89144E-05 1.81122E-06 2.26315E-20 4.00467E-19
 -1      3026 9.48738E-05-2.75698E-05-2.88435E-05 1.48244E-06 2.98881E-19-4.75075E-19
 -1      3027 9.50094E-05-2.74863E-05-2.89431E-05 2.06242E-06-5.70748E-19 7.85305E-19
 -1      3028 9.50236E-05-2.73802E-05-2.89853E-05 2.34724E-06-8.84300E-19 6.44151E-19
 -1      3029 9.47229E-05-2.72954E-05-2.88958E-05 1.93509E-06-1.37682E-19-2.17914E-19
 -1      3030 9.49122E-05-2.72287E-05-2.90128E-05 2.65240E-06-9.95269E-19 5.68299E-19
 -1      3031 9.49274E-05-2.71147E-05-2.90573E-05 2.99381E-06-3.15976E-19 9.89335E-19
 -1      3032 9.45271E-05-2.69802E-05-2.89463E-05 2.48833E-06-8.85940E-19 7.27742E-19
 -1      3033 9.47875E-05-2.69495E-05-2.90799E-05 3.35664E-06-5.46170E-19 1.07466E-18
 -1      3034 9.48052E-05-2.68368E-05-2.91236E-05 3.75566E-06-4.45698E-19 4.65155E-19
 -1      3035 9.42784E-05-2.66313E-05-2.89884E-05 3.15008E-06-4.58493E-19 7.88444E-19
 -1      3036 9.46357E-05-2.66694E-05-2.91358E-05 4.17759E-06-3.08368E-19-3.82573E-19
 -1      3037 9.46611E-05-2.65754E-05-2.91734E-05 4.63048E-06-4.51312E-19-4.06438E-19
 -1      3038 9.39723E-05-2.62668E-05-2.90124E-05 3.92445E-06-1.11346E-18 2.69907E-19
 -1      3039 9.44670E-05-2.64284E-05-2.91674E-05 5.10977E-06-7.58912E-20-3.36811E-19
 -1      3040 9.45129E-05-2.63845E-05-2.91912E-05 5.60556E-06-3.27302E-19-2.53020E-19
 -1      3041 9.36117E-05-2.59237E-05-2.90040E-05 4.81042E-06-4.12575E-19-4.02451E-19
 -1      3042 9.43110E-05-2.62987E-05-2.91559E-05 6.13665E-06-3.69344E-19-3.31904E-19
 -1      3043 9.44058E-05-2.63588E-05-2.91555E-05 6.65418E-06-5.17776E-20 4.11352E-20
 -1      3044 9.32168E-05-2.56687E-05-2.89438E-05 5.80107E-06-1.02925E-19-9.87882E-19
 -1      3045 9.42357E-05-2.64031E-05-2.90774E-05 7.22756E-06-4.45361E-19 2.78638E-19
 -1      3046 9.44358E-05-2.66552E-05-2.90394E-05 7.73168E-06-3.87976E-19-2.13199E-19
 -1      3047 9.28401E-05-2.56160E-05-2.88061E-05 6.88441E-06-7.68402E-20-7.99795E-19
 -1      3048 9.43768E-05-2.69411E-05-2.89031E-05 8.33394E-06-4.86401E-20-9.56765E-20
 -1      3049 9.47869E-05-2.75230E-05-2.88144E-05 8.77007E-06 6.06775E-19-9.26999E-20
 -1      3050 9.25933E-05-2.59515E-05-2.85607E-05 8.04625E-06-1.97416E-19-1.29247E-18
 -1      3051 9.49857E-05-2.82215E-05-2.86064E-05 9.38162E-06 6.79544E-19-4.67187E-20
 -1      3052 9.57847E-05-2.93361E-05-2.84590E-05 9.66504E-06 1.49269E-19-9.48126E-19
 -1      3053 9.26889E-05-2.69657E-05-2.81769E-05 9.27399E-06 2.30462E-19-3.06604E-19
 -1      3054 9.64972E-05-3.06928E-05-2.81764E-05 1.02400E-05-7.29914E-19-1.09573E-18
 -1      3055 9.79594E-05-3.26025E-05-2.79817E-05 1.02317E-05-1.17205E-18-1.34390E-18
 -1      3056 9.35119E-05-2.90987E-05-2.76348E-05 1.05470E-05-3.85581E-19-6.41278E-19
 -1      3057 9.95754E-05-3.49155E-05-2.76523E-05 1.06644E-05-7.16883E-19-1.08148E-18
 -1      3058 1.02082E-04-3.79017E-05-2.74643E-05 1.01241E-05 2.21162E-19-1.65255E-18
 -1      3059 9.56841E-05-3.29227E-05-2.69554E-05 1.17772E-05-3.83860E-19-1.19968E-18
 -1      3060 1.05218E-04-4.15398E-05-2.71795E-05 1.01492E-05 1.66696E-18-1.18630E-18
 -1      3061 1.09116E-04-4.56781E-05-2.71491E-05 8.57111E-06 2.02793E-18-8.22625E-19
 -1      3062 1.00148E-04-3.91436E-05-2.62468E-05 1.27457E-05 9.49173E-19-1.76550E-18
 -1      3063 1.14433E-04-5.05828E-05-2.71701E-05 7.38183E-06 1.01387E-18 9.20101E-19
 -1      3064 1.19603E-04-5.52529E-05-2.75931E-05 4.08317E-06 8.96373E-19 1.40218E-18
 -1      3065 1.08423E-04-4.84238E-05-2.58145E-05 1.26734E-05 3.38076E-18-1.16145E-18
 -1      3066 9.54223E-05-2.64998E-05-2.95424E-05 1.29234E-06 8.35828E-19-1.26654E-19
 -1      3067 9.54776E-05-2.59346E-05-2.98040E-05 2.12858E-06 9.36610E-19-2.14743E-19
 -1      3068 9.53790E-05-2.51812E-05-3.00809E-05 2.33010E-06 9.04100E-19-3.27763E-19
 -1      3069 9.56126E-05-2.64005E-05-2.96624E-05 1.17854E-06 6.23697E-19-1.71805E-19
 -1      3070 9.52228E-05-2.87799E-05-2.84748E-05-1.07787E-06 2.12005E-19 3.20376E-19
 -1      3071 9.52108E-05-2.87438E-05-2.84843E-05-1.11309E-06 3.00410E-19 1.59576E-19
 -1      3072 9.52123E-05-2.88097E-05-2.84573E-05-9.75948E-07 1.40252E-19 5.34406E-19
 -1      3073 9.51957E-05-2.87924E-05-2.84581E-05-1.03237E-06 1.67260E-19 5.47175E-19
 -1      3074 9.54667E-05-2.88914E-05-2.85342E-05-1.03978E-06 4.79955E-20 8.94561E-20
 -1      3075 9.52079E-05-2.88119E-05-2.84544E-05-8.50097E-07 2.47356E-20 5.11484E-19
 -1      3076 9.51897E-05-2.88072E-05-2.84498E-05-9.15369E-07 5.21571E-20 3.74796E-19
 -1      3077 9.54200E-05-2.89114E-05-2.85051E-05-9.40789E-07 1.21849E-19 3.27335E-19
 -1      3078 9.52077E-05-2.87970E-05-2.84607E-05-7.18692E-07 5.67616E-19 7.51571E-19
 -1      3079 9.51896E-05-2.88004E-05-2.84531E-05-7.84657E-07 4.11520E-19 5.73923E-19
 -1      3080 9.53811E-05-2.89011E-05-2.84924E-05-8.19221E-07 3.85682E-20 1.26896E-19
 -1      3081 9.52100E-05-2.87717E-05-2.84726E-05-5.93661E-07 3.59065E-19 7.54746E-19
 -1      3082 9.51930E-05-2.87803E-05-2.84634E-05-6.55095E-07 6.55953E-19 8.02365E-19
 -1      3083 9.53494E-05-2.88725E-05-2.84909E-05-6.92836E-07 5.60016E-19 4.08309E-19
 -1      3084 9.52138E-05-2.87405E-05-2.84876E-05-4.82546E-07 2.00442E-19 3.42053E-19
 -1      3085 9.51985E-05-2.87524E-05-2.84778E-05-5.36178E-07 2.86754E-19 5.94298E-19
 -1      3086 9.53241E-05-2.88333E-05-2.84966E-05-5.73247E-07 3.18468E-19 8.25668E-19
 -1      3087 9.52186E-05-2.87059E-05-2.85045E-05-3.90077E-07-2.97424E-20 1.01601E-18
 -1      3088 9.52049E-05-2.87199E-05-2.84945E-05-4.33857E-07 7.03765E-20 8.12035E-19
 -1      3089 9.53042E-05-2.87885E-05-2.85071E-05-4.67881E-07 1.86210E-19 8.73325E-20
 -1      3090 9.52241E-05-2.86690E-05-2.85227E-05-3.19376E-07-1.03966E-20 3.73518E-19
 -1      3091 9.52117E-05-2.86846E-05-2.85125E-05-3.51913E-07 7.89789E-20 9.59774E-19
 -1      3092 9.52886E-05-2.87407E-05-2.85208E-05-3.81506E-07 2.11894E-19 6.30810E-19
 -1      3093 9.52303E-05-2.86300E-05-2.85421E-05-2.72879E-07-8.88411E-20 3.77806E-19
 -1      3094 9.52188E-05-2.86471E-05-2.85316E-05-2.93017E-07-1.28602E-19 2.87381E-19
 -1      3095 9.52763E-05-2.86907E-05-2.85369E-05-3.17401E-07-1.06692E-19-4.22059E-19
 -1      3096 9.52374E-05-2.85879E-05-2.85630E-05-2.53034E-07 1.63373E-19 9.04928E-19
 -1      3097 9.52260E-05-2.86068E-05-2.85519E-05-2.59528E-07 1.00882E-20 7.70507E-19
 -1      3098 9.52663E-05-2.86380E-05-2.85552E-05-2.78254E-07-2.74332E-19-3.31528E-19
 -1      3099 9.52456E-05-2.85413E-05-2.85863E-05-2.62840E-07 3.80283E-19 8.55733E-19
 -1      3100 9.52335E-05-2.85627E-05-2.85741E-05-2.54109E-07 4.30385E-19 1.15257E-18
 -1      3101 9.52576E-05-2.85812E-05-2.85758E-05-2.66843E-07 1.39388E-19 7.76437E-19
 -1      3102 9.52553E-05-2.84884E-05-2.86130E-05-3.06237E-07-4.73147E-20 8.36683E-19
 -1      3103 9.52415E-05-2.85129E-05-2.85989E-05-2.80187E-07 5.24325E-19 1.14049E-18
 -1      3104 9.52490E-05-2.85181E-05-2.85992E-05-2.86554E-07 2.72453E-19 1.10318E-18
 -1      3105 9.52672E-05-2.84269E-05-2.86441E-05-3.88381E-07 4.10355E-19 1.22118E-18
 -1      3106 9.52505E-05-2.84554E-05-2.86275E-05-3.42284E-07-8.96304E-20 8.47959E-19
 -1      3107 9.52394E-05-2.84457E-05-2.86261E-05-3.41757E-07 3.21125E-21 8.02641E-19
 -1      3108 9.52819E-05-2.83544E-05-2.86811E-05-5.15786E-07 1.12520E-19 1.95739E-18
 -1      3109 9.52608E-05-2.83878E-05-2.86611E-05-4.46233E-07 3.63203E-19 1.63202E-18
 -1      3110 9.52274E-05-2.83608E-05-2.86573E-05-4.38053E-07 6.26781E-20 1.55606E-18
 -1      3111 9.53003E-05-2.82689E-05-2.87251E-05-6.96309E-07 4.41123E-19 1.51212E-18
 -1      3112 9.52733E-05-2.83078E-05-2.87010E-05-5.99244E-07 4.78794E-19 1.64359E-18
 -1      3113 9.52117E-05-2.82601E-05-2.86937E-05-5.82384E-07 3.81769E-19 1.52540E-18
 -1      3114 9.53234E-05-2.81688E-05-2.87774E-05-9.38928E-07-3.40999E-19 1.22530E-18
 -1      3115 9.52886E-05-2.82134E-05-2.87484E-05-8.09803E-07 4.69857E-19 1.54791E-18
 -1      3116 9.51906E-05-2.81405E-05-2.87360E-05-7.82983E-07 5.86663E-19 9.30687E-19
 -1      3117 9.53531E-05-2.80540E-05-2.88387E-05-1.25323E-06 5.72191E-19 7.06813E-19
 -1      3118 9.53081E-05-2.81037E-05-2.88041E-05-1.08733E-06-1.09023E-19 1.01737E-18
 -1      3119 9.51630E-05-2.79997E-05-2.87844E-05-1.04910E-06 2.66364E-19 2.29948E-19
 -1      3120 9.53918E-05-2.79265E-05-2.89092E-05-1.64850E-06 5.89285E-19 6.64759E-19
 -1      3121 9.53337E-05-2.79794E-05-2.88688E-05-1.44148E-06 9.57423E-19 7.60264E-19
 -1      3122 9.51276E-05-2.78373E-05-2.88387E-05-1.39045E-06 4.70763E-19 7.52724E-19
 -1      3123 9.54434E-05-2.77924E-05-2.89882E-05-2.13226E-06-1.52022E-20 1.55918E-19
 -1      3124 9.53686E-05-2.78444E-05-2.89421E-05-1.88104E-06 5.21644E-19 6.20959E-19
 -1      3125 9.50846E-05-2.76558E-05-2.88979E-05-1.81626E-06 8.02222E-19 1.09335E-18
 -1      3126 9.55148E-05-2.76642E-05-2.90732E-05-2.70805E-06-1.49259E-19 5.63531E-20
 -1      3127 9.54182E-05-2.77077E-05-2.90223E-05-2.41215E-06-3.91471E-19 3.92344E-19
 -1      3128 9.50359E-05-2.74632E-05-2.89595E-05-2.33383E-06-2.57009E-20 1.45042E-18
 -1      3129 9.56180E-05-2.75643E-05-2.91598E-05-3.37226E-06-1.22014E-19-6.61474E-19
 -1      3130 9.54921E-05-2.75864E-05-2.91061E-05-3.03569E-06-3.43566E-20-4.66021E-19
 -1      3131 9.49877E-05-2.72757E-05-2.90191E-05-2.94649E-06 1.07590E-20 3.93487E-19
 -1      3132 9.57735E-05-2.75304E-05-2.92408E-05-4.10977E-06-4.54839E-19-6.88383E-19
 -1      3133 9.56069E-05-2.75101E-05-2.91879E-05-3.74369E-06 1.08180E-19-3.57974E-19
 -1      3134 9.49534E-05-2.71226E-05-2.90702E-05-3.65079E-06-2.01345E-19-1.32856E-19
 -1      3135 9.60170E-05-2.76224E-05-2.93060E-05-4.88801E-06-1.07683E-18-8.43923E-19
 -1      3136 9.57916E-05-2.75271E-05-2.92589E-05-4.51433E-06-1.05678E-18-1.13090E-18
 -1      3137 9.49590E-05-2.70526E-05-2.91032E-05-4.43281E-06-3.69048E-19-1.94232E-20
 -1      3138 9.64087E-05-2.79318E-05-2.93419E-05-5.64918E-06 3.68888E-19-9.47942E-19
 -1      3139 9.60956E-05-2.77128E-05-2.93075E-05-5.30524E-06-3.77764E-19-9.44933E-19
 -1      3140 9.50518E-05-2.71425E-05-2.91059E-05-5.26349E-06-3.91174E-19-8.56119E-19
 -1      3141 9.70462E-05-2.85914E-05-2.93338E-05-6.29989E-06 1.13601E-18-4.09689E-19
 -1      3142 9.66001E-05-2.81795E-05-2.93195E-05-6.04445E-06 7.28035E-19-9.85714E-19
 -1      3143 9.53127E-05-2.75087E-05-2.90640E-05-6.09226E-06 1.79082E-19-7.60771E-19
 -1      3144 9.80794E-05-2.97809E-05-2.92693E-05-6.69706E-06-3.56501E-19-5.34997E-19
 -1      3145 9.74338E-05-2.90856E-05-2.92815E-05-6.61776E-06 6.32006E-19-4.59928E-19
 -1      3146 9.58738E-05-2.83175E-05-2.89638E-05-6.83796E-06 2.97316E-19-1.23865E-19
 -1      3147 9.97215E-05-3.17180E-05-2.91474E-05-6.62834E-06-7.47717E-19 8.53484E-19
 -1      3148 9.87884E-05-3.06359E-05-2.91863E-05-6.85046E-06-5.40802E-19-1.90921E-19
 -1      3149 9.69389E-05-2.97923E-05-2.87984E-05-7.37368E-06-4.66239E-19 1.53086E-19
 -1      3150 1.02237E-04-3.46112E-05-2.89947E-05-5.78329E-06-1.10844E-18 1.64335E-18
 -1      3151 1.00923E-04-3.30588E-05-2.90462E-05-6.47915E-06-5.19920E-19 1.54654E-18
 -1      3152 9.88004E-05-3.22012E-05-2.85800E-05-7.49938E-06-1.38575E-18 7.70785E-19
 -1      3153 1.05869E-04-3.85269E-05-2.88899E-05-3.72060E-06-1.82248E-18 1.83508E-18
 -1      3154 1.04131E-04-3.65236E-05-2.89133E-05-5.11081E-06-1.93881E-18 1.81872E-18
 -1      3155 1.01833E-04-3.57973E-05-2.83607E-05-6.88947E-06-1.77569E-18 2.42964E-18
 -1      3156 1.10639E-04-4.31088E-05-2.89982E-05 1.42875E-07-5.99650E-19-3.54146E-19
 -1      3157 1.08605E-04-4.09436E-05-2.89117E-05-2.18237E-06-9.81109E-19 7.10174E-19
 -1      3158 1.06408E-04-4.06482E-05-2.82666E-05-5.01042E-06-1.06198E-18-3.71768E-19
 -1      3159 1.15966E-04-4.70953E-05-2.95964E-05 6.39771E-06-1.31879E-19-1.08624E-19
 -1      3160 1.14114E-04-4.55802E-05-2.92726E-05 2.99789E-06-7.28151E-19 7.55811E-20
 -1      3161 1.12634E-04-4.62541E-05-2.85442E-05-1.05143E-06-6.68205E-19-1.25010E-18
 -1      3162 1.20297E-04-4.79439E-05-3.10592E-05 1.51230E-05 5.97621E-20-2.82803E-19
 -1      3163 1.19497E-04-4.85537E-05-3.03368E-05 1.08564E-05 5.22735E-19-3.82679E-20
 -1      3164 1.19783E-04-5.08878E-05-2.95920E-05 5.91238E-06-1.37252E-19-1.92237E-21
 -1      3165 1.20875E-04-4.21013E-05-3.37518E-05 2.44535E-05 3.69707E-19-9.53461E-19
 -1      3166 1.22148E-04-4.63159E-05-3.25140E-05 2.04728E-05 1.22515E-19-1.28436E-18
 -1      3167 1.25475E-04-5.08221E-05-3.19068E-05 1.62086E-05 7.43088E-19-1.84793E-18
 -1      3168 1.21615E-04-3.40410E-05-3.76116E-05 2.91165E-05 6.30881E-19-9.39922E-19
 -1      3169 1.25639E-04-4.21681E-05-3.59353E-05 2.74782E-05 4.05014E-19-1.29791E-18
 -1      3170 1.05548E-04-3.76259E-06-4.41618E-05 2.54376E-05-3.66024E-19-1.97345E-18
 -1      3171 1.11210E-04-1.20558E-05-4.30689E-05 3.02794E-05 1.42196E-19-1.37610E-18
 -1      3172 1.02681E-04 2.61505E-06-4.55789E-05 1.94045E-05-4.59515E-20-2.72663E-18
 -1      3173 9.53683E-05-2.79520E-05-2.88960E-05-4.82354E-07 1.77191E-19 2.05945E-19
 -1      3174 9.54324E-05-2.76999E-05-2.90126E-05-1.43083E-07 2.98850E-19 9.61277E-20
 -1      3175 9.57021E-05-2.73675E-05-2.92987E-05 2.09179E-07 3.90900E-19 1.57195E-19
 -1      3176 9.56831E-05-2.80030E-05-2.90106E-05-4.86838E-07 2.46784E-20 2.40556E-19
 -1      3177 1.06289E-04 1.09595E-05-5.07199E-05 1.59931E-05-3.32990E-19-2.56185E-18
 -1      3178 9.23617E-05-1.83366E-05-3.17405E-05 1.81466E-06 5.58222E-19-1.06690E-18
 -1      3179 9.22434E-05-1.81353E-05-3.17724E-05 1.05760E-06 3.94666E-19-1.14330E-18
 -1      3180 1.00428E-04-5.49184E-05-1.94372E-05 2.93173E-05 1.74510E-18-1.75336E-19
 -1      3181 8.10853E-05-4.17925E-05-1.65785E-05 2.88247E-05 9.39360E-19 8.59315E-19
 -1      3182 1.29413E-04-6.92515E-05-2.58614E-05 1.38967E-05 1.38686E-18-1.20431E-18
 -1      3183 1.16274E-04-6.35423E-05-2.23377E-05 2.24355E-05 1.49618E-18-6.15925E-19
 -1      3184 1.37505E-04-3.65129E-05-4.35821E-05-3.72674E-05-9.97911E-19 5.10020E-19
 -1      3185 1.45877E-04-6.82183E-05-3.34709E-05-1.08097E-05 1.34568E-18-5.05732E-19
 -1      3186 1.38868E-04-7.02903E-05-2.93136E-05 1.62819E-06 1.71343E-18-8.83773E-19
 -1      3187 7.79463E-05-4.27858E-05-1.44428E-05-3.40395E-05-6.43851E-19-3.19607E-18
 -1      3188 9.28354E-05-5.19762E-05-1.74105E-05-3.40371E-05-6.04887E-19-3.29628E-18
 -1      3189 1.38373E-04-7.14472E-05-2.82851E-05-1.06325E-05-6.07746E-20-2.17518E-18
 -1      3190 1.43933E-04-6.79164E-05-3.28921E-05 4.42351E-06 6.60050E-19-2.15451E-18
 -1      3191 1.30691E-04-6.84740E-05-2.64620E-05-1.40518E-05 1.63054E-19-2.08877E-18
 -1      3192 9.52423E-05-2.87076E-05-2.85145E-05-1.12840E-06 4.72014E-20 1.14433E-19
 -1      3193 9.52391E-05-2.86438E-05-2.85376E-05-1.12413E-06-2.02675E-19 2.25268E-19
 -1      3194 9.55810E-05-2.86817E-05-2.86745E-05-1.05254E-06-2.37401E-19 1.00057E-19
 -1      3195 9.21820E-05-1.80333E-05-3.17910E-05 4.08792E-07 3.27904E-19-9.67307E-19
 -1      3196 9.21783E-05-1.80282E-05-3.17916E-05-3.59246E-07 1.19904E-19-9.56840E-19
 -1      3197 9.31359E-05-1.96186E-05-3.14899E-05 6.27172E-07 3.05582E-19-9.59703E-19
 -1      3198 9.55210E-05-2.88234E-05-2.85873E-05-1.08977E-06 6.63281E-20 1.15371E-19
 -1      3199 9.42611E-05-2.18387E-05-3.10569E-05-5.42763E-06-7.56506E-19-8.17819E-19
 -1      3200 4.68086E-05-1.99987E-05-1.07561E-05-9.95586E-06-1.78909E-19-8.89385E-19
 -1      3201 5.44412E-05-2.29420E-05-1.31888E-05-1.48190E-05 2.52634E-19-2.16327E-18
 -1      3202 1.09064E-04-5.62849E-05-2.23469E-05 2.14866E-05 2.02496E-18-3.33149E-19
 -1      3203 7.19862E-05-3.60391E-05-1.50090E-05-2.85628E-05-2.11917E-19-2.46365E-18
 -1      3204 1.27492E-04-6.01666E-05-2.86246E-05-3.09523E-07 7.51571E-19 9.52475E-19
 -1      3205 1.33010E-04-6.28617E-05-3.01079E-05-6.28810E-06 1.32164E-18 6.96883E-19
 -1      3206 1.43312E-04-6.46878E-05-3.38696E-05-1.54250E-05 1.26007E-18 4.55518E-19
 -1      3207 1.46008E-04-5.91184E-05-3.72599E-05-2.36509E-05 3.71503E-19 2.90691E-19
 -1      3208 1.20198E-04-2.62248E-05-4.04959E-05 3.28750E-05 8.78267E-19-8.44201E-19
 -1      3209 9.39397E-05-2.13016E-05-3.11654E-05 3.96748E-06 1.03144E-18-6.48289E-19
 -1      3210 9.35756E-05-2.06048E-05-3.12883E-05 3.41194E-06 8.93275E-19-5.97687E-19
 -1      3211 9.51065E-05-2.38333E-05-3.05111E-05 2.87886E-06 8.85426E-19-4.78909E-19
 -1      3212 1.33884E-04-6.96128E-05-2.74623E-05 7.68917E-06 2.06139E-18-2.10238E-18
 -1      3213 1.26425E-04-6.45591E-05-2.64635E-05 9.60842E-06 1.41140E-18-1.00699E-18
 -1      3214 9.25482E-05-1.86484E-05-3.16837E-05 2.41859E-06 6.41850E-19-8.86490E-19
 -1      3215 9.33553E-05-2.00195E-05-3.14127E-05 1.79212E-06 5.94569E-19-8.53773E-19
 -1      3216 9.28079E-05-1.90993E-05-3.16163E-05 3.15961E-06 8.02287E-19-7.64548E-19
 -1      3217 8.44166E-05-3.94338E-05-1.90588E-05 2.42002E-05 5.75691E-19 1.81440E-18
 -1      3218 7.20078E-05-3.40399E-05-1.58720E-05 2.60079E-05-1.06038E-19 3.78783E-19
 -1      3219 6.66213E-05-2.73878E-05-1.67086E-05 1.85534E-05-8.19848E-19-2.07761E-19
 -1      3220 6.15147E-05-2.84191E-05-1.40628E-05 2.12174E-05-2.44005E-19-9.29566E-19
 -1      3221 5.14946E-05-2.19871E-05-1.19208E-05 1.36098E-05-1.99403E-19 1.37696E-19
 -1      3222 1.02093E-04-5.60263E-05-1.93080E-05-3.08055E-05-3.72165E-19-2.46672E-18
 -1      3223 1.10284E-04-5.98309E-05-2.17683E-05-2.62398E-05 1.50084E-20-2.39845E-18
 -1      3224 9.49848E-05-4.93785E-05-1.94307E-05-2.92677E-05-1.14127E-18-3.13386E-18
 -1      3225 9.30354E-05-1.94982E-05-3.15254E-05-3.60558E-06-4.08787E-19-9.40767E-19
 -1      3226 9.34050E-05-2.01585E-05-3.14141E-05-4.22175E-06-5.69650E-19-9.28853E-19
 -1      3227 4.60758E-05-2.00784E-05-1.09456E-05 2.20974E-06 2.26065E-19 1.53842E-19
 -1      3228 9.25159E-05-1.85982E-05-3.16897E-05-2.37074E-06-1.33255E-19-1.07487E-18
 -1      3229 9.27461E-05-1.89988E-05-3.16240E-05-3.08147E-06-2.90568E-19-1.10106E-18
 -1      3230 9.37268E-05-2.07481E-05-3.12621E-05-2.79680E-06-4.13939E-19-9.37880E-19
 -1      3231 9.41994E-05-2.17376E-05-3.10648E-05-4.76002E-06-7.80095E-19-8.73633E-19
 -1      3232 1.44685E-04-5.01682E-05-4.11922E-05-3.30401E-05-6.62142E-20 2.27799E-19
 -1      3233 1.21626E-04-5.94639E-05-2.67106E-05 8.04591E-06 5.73137E-19 6.45691E-19
 -1      3234 9.56131E-05-2.90060E-05-2.85448E-05-8.67609E-07 8.08821E-20 3.78793E-19
 -1      3235 9.56357E-05-2.90016E-05-2.85567E-05-9.19692E-07 1.62938E-19 3.28725E-19
 -1      3236 9.49329E-05-2.34433E-05-3.06386E-05-2.94619E-06-5.95328E-19-9.09772E-19
 -1      3237 9.52770E-05-2.45426E-05-3.03293E-05-2.08381E-06-4.70591E-19-8.67934E-19
 -1      3238 9.56853E-05-2.55207E-05-3.00587E-05-1.49717E-06-2.87811E-19-7.58444E-19
 -1      3239 9.58241E-05-2.62594E-05-2.98247E-05-8.72997E-07-1.46566E-19-6.81763E-19
 -1      3240 9.54048E-05-2.45957E-05-3.03506E-05-1.75112E-06-2.51232E-19-7.49246E-19
 -1      3241 9.60307E-05-2.69093E-05-2.96138E-05-4.39124E-07-1.46619E-19-4.79315E-19
 -1      3242 9.60781E-05-2.74043E-05-2.94393E-05-2.64051E-08-1.45258E-19-3.91450E-19
 -1      3243 9.59752E-05-2.62812E-05-2.98655E-05-7.06386E-07-1.21409E-19-4.86008E-19
 -1      3244 9.61603E-05-2.78259E-05-2.92786E-05 2.52146E-07-2.12140E-19-2.95790E-19
 -1      3245 9.61556E-05-2.81457E-05-2.91517E-05 5.03894E-07-3.53441E-19-1.00398E-19
 -1      3246 9.62623E-05-2.74564E-05-2.94885E-05 2.03731E-08-1.08676E-19-3.54452E-19
 -1      3247 9.61647E-05-2.84099E-05-2.90320E-05 6.64561E-07-4.90492E-19 1.78740E-19
 -1      3248 9.61346E-05-2.86092E-05-2.89418E-05 7.98495E-07-2.15432E-19 1.58396E-19
 -1      3249 9.63534E-05-2.82186E-05-2.92021E-05 4.79985E-07-2.19874E-19 7.35296E-20
 -1      3250 9.61017E-05-2.87650E-05-2.88546E-05 8.73376E-07-1.15733E-19 7.96812E-20
 -1      3251 9.60613E-05-2.88816E-05-2.87922E-05 9.26098E-07 4.67843E-21-1.57587E-19
 -1      3252 9.63313E-05-2.86943E-05-2.89894E-05 7.34330E-07-2.78261E-19 4.28898E-19
 -1      3253 9.60067E-05-2.89638E-05-2.87301E-05 9.42723E-07 2.45736E-19-2.34810E-19
 -1      3254 9.59641E-05-2.90242E-05-2.86884E-05 9.42623E-07 2.40471E-19-8.28434E-20
 -1      3255 9.62462E-05-2.89703E-05-2.88347E-05 8.42437E-07 3.62029E-20-1.33412E-19
 -1      3256 9.59007E-05-2.90575E-05-2.86455E-05 9.22429E-07 1.40166E-19 9.76541E-20
 -1      3257 9.58599E-05-2.90806E-05-2.86189E-05 8.90472E-07 1.14595E-19 1.43999E-19
 -1      3258 9.61308E-05-2.91101E-05-2.87253E-05 8.52987E-07 3.00131E-19-3.19944E-19
 -1      3259 9.57956E-05-2.90824E-05-2.85905E-05 8.49282E-07-8.91305E-20 3.33839E-19
 -1      3260 9.57588E-05-2.90816E-05-2.85749E-05 8.00402E-07-9.16453E-20 4.46439E-19
 -1      3261 9.60054E-05-2.91595E-05-2.86502E-05 8.03304E-07 1.02092E-19-1.64981E-19
 -1      3262 9.56982E-05-2.90640E-05-2.85572E-05 7.49422E-07-2.32285E-19 4.25145E-19
 -1      3263 9.56661E-05-2.90483E-05-2.85493E-05 6.93930E-07-2.47004E-19 4.26368E-19
 -1      3264 9.58824E-05-2.91508E-05-2.86010E-05 7.20653E-07-1.24825E-19-2.53624E-19
 -1      3265 9.56115E-05-2.90196E-05-2.85394E-05 6.40817E-07-3.64275E-19 3.81038E-20
 -1      3266 9.55844E-05-2.89951E-05-2.85370E-05 5.85634E-07-5.18071E-19-1.00374E-20
 -1      3267 9.57688E-05-2.91066E-05-2.85709E-05 6.24194E-07-3.49144E-19 1.21256E-19
 -1      3268 9.55367E-05-2.89606E-05-2.85329E-05 5.35462E-07-6.85055E-19-6.49214E-20
 -1      3269 9.55142E-05-2.89314E-05-2.85343E-05 4.85131E-07-6.59666E-19 1.74172E-19
 -1      3270 9.56679E-05-2.90422E-05-2.85550E-05 5.26963E-07-4.33278E-19-3.55577E-19
 -1      3271 9.54732E-05-2.88942E-05-2.85343E-05 4.41200E-07-3.85622E-19 4.71035E-20
 -1      3272 9.54546E-05-2.88624E-05-2.85384E-05 3.98688E-07-1.43700E-19 2.51195E-19
 -1      3273 9.55802E-05-2.89671E-05-2.85495E-05 4.37615E-07-4.91206E-19-5.73284E-20
 -1      3274 9.54195E-05-2.88240E-05-2.85414E-05 3.63169E-07-3.73660E-19 4.31761E-20
 -1      3275 9.54041E-05-2.87906E-05-2.85476E-05 3.30498E-07-5.68064E-19 1.55559E-19
 -1      3276 9.55049E-05-2.88865E-05-2.85515E-05 3.61865E-07-2.91836E-19-3.06063E-19
 -1      3277 9.53734E-05-2.87512E-05-2.85530E-05 3.04936E-07-8.83971E-19 3.42236E-19
 -1      3278 9.53603E-05-2.87162E-05-2.85608E-05 2.83663E-07-8.44373E-19 3.41162E-19
 -1      3279 9.54398E-05-2.88026E-05-2.85593E-05 3.03633E-07-6.47957E-19 1.37181E-19
 -1      3280 9.53324E-05-2.86750E-05-2.85682E-05 2.69368E-07-4.51838E-19 7.45524E-19
 -1      3281 9.53205E-05-2.86375E-05-2.85774E-05 2.60956E-07-1.36344E-19 6.33961E-19
 -1      3282 9.53817E-05-2.87152E-05-2.85717E-05 2.65927E-07-5.84884E-19 1.01936E-18
 -1      3283 9.52932E-05-2.85931E-05-2.85866E-05 2.59302E-07-2.42281E-19 7.21326E-19
 -1      3284 9.52814E-05-2.85517E-05-2.85974E-05 2.65407E-07-7.90189E-20 7.11875E-19
 -1      3285 9.53269E-05-2.86220E-05-2.85880E-05 2.51531E-07-2.33172E-19 1.21117E-18
 -1      3286 9.52522E-05-2.85020E-05-2.86083E-05 2.78057E-07 1.18361E-19 3.33031E-19
 -1      3287 9.52391E-05-2.84546E-05-2.86208E-05 3.00736E-07 4.79300E-19 4.01954E-19
 -1      3288 9.52708E-05-2.85193E-05-2.86078E-05 2.63525E-07-2.23885E-19 8.44195E-19
 -1      3289 9.52052E-05-2.83970E-05-2.86333E-05 3.29807E-07 5.81613E-19 1.05933E-19
 -1      3290 9.51892E-05-2.83414E-05-2.86478E-05 3.71669E-07 9.77436E-19-2.55169E-19
 -1      3291 9.52081E-05-2.84020E-05-2.86310E-05 3.05665E-07 1.90416E-19 5.86425E-19
 -1      3292 9.51472E-05-2.82727E-05-2.86621E-05 4.19843E-07 1.37285E-18-2.94495E-19
 -1      3293 9.51265E-05-2.82061E-05-2.86788E-05 4.84141E-07 1.04716E-18-2.28602E-19
 -1      3294 9.51327E-05-2.82641E-05-2.86576E-05 3.82648E-07 1.00919E-18 1.53796E-19
 -1      3295 9.50725E-05-2.81230E-05-2.86947E-05 5.54717E-07 2.30017E-19-7.03759E-19
 -1      3296 9.50448E-05-2.80424E-05-2.87137E-05 6.45371E-07-9.89110E-20-8.98847E-19
 -1      3297 9.50374E-05-2.80987E-05-2.86873E-05 5.00261E-07 2.27214E-19-6.09666E-19
 -1      3298 9.49741E-05-2.79412E-05-2.87310E-05 7.42251E-07-6.12895E-20-8.60016E-19
 -1      3299 9.49368E-05-2.78438E-05-2.87523E-05 8.63790E-07-3.31734E-20-8.24469E-19
 -1      3300 9.49136E-05-2.78984E-05-2.87196E-05 6.65403E-07 6.03862E-20-1.70281E-18
 -1      3301 9.48439E-05-2.77207E-05-2.87703E-05 9.91391E-07-1.45269E-19-1.00482E-18
 -1      3302 9.47937E-05-2.76037E-05-2.87936E-05 1.14879E-06 4.08105E-20-1.23228E-18
 -1      3303 9.47515E-05-2.76556E-05-2.87537E-05 8.85954E-07-1.25691E-19-1.36820E-18
 -1      3304 9.46725E-05-2.74555E-05-2.88113E-05 1.31186E-06 3.90685E-19-1.81997E-18
 -1      3305 9.46056E-05-2.73168E-05-2.88357E-05 1.51026E-06 3.40477E-19-1.51068E-18
 -1      3306 9.45395E-05-2.73631E-05-2.87876E-05 1.17047E-06 5.99666E-20-1.44191E-18
 -1      3307 9.44491E-05-2.71410E-05-2.88513E-05 1.71360E-06 3.08041E-19-1.79216E-18
 -1      3308 9.43613E-05-2.69799E-05-2.88751E-05 1.95785E-06 2.66292E-19-1.11799E-18
 -1      3309 9.42646E-05-2.70152E-05-2.88180E-05 1.52771E-06 3.90433E-19-2.13666E-18
 -1      3310 9.41617E-05-2.67759E-05-2.88857E-05 2.20594E-06-1.76691E-19-7.33139E-19
 -1      3311 9.40487E-05-2.65942E-05-2.89063E-05 2.50004E-06-1.58416E-19 1.91557E-19
 -1      3312 9.39121E-05-2.66090E-05-2.88400E-05 1.96592E-06 5.92814E-19-1.50423E-18
 -1      3313 9.37984E-05-2.63644E-05-2.89075E-05 2.79669E-06-4.35068E-19 1.80055E-19
 -1      3314 9.36566E-05-2.61682E-05-2.89208E-05 3.14305E-06-6.33629E-19 6.21164E-20
 -1      3315 9.34671E-05-2.61471E-05-2.88460E-05 2.49215E-06 1.05443E-19-1.09572E-18
 -1      3316 9.33491E-05-2.59207E-05-2.89064E-05 3.49117E-06-1.09052E-18 1.94474E-19
 -1      3317 9.31775E-05-2.57232E-05-2.89061E-05 3.88999E-06-1.26899E-18-1.72718E-20
 -1      3318 9.29152E-05-2.56407E-05-2.88250E-05 3.11171E-06-9.40320E-19-3.42412E-19
 -1      3319 9.28090E-05-2.54745E-05-2.88674E-05 4.29187E-06-1.26057E-18 4.28728E-21
 -1      3320 9.26124E-05-2.53001E-05-2.88448E-05 4.74073E-06-7.53084E-19-5.58002E-19
 -1      3321 9.22457E-05-2.51152E-05-2.87616E-05 3.82836E-06-1.49549E-18-9.29561E-20
 -1      3322 9.21855E-05-2.50806E-05-2.87703E-05 5.19935E-06-2.01303E-19-9.71583E-19
 -1      3323 9.19806E-05-2.49717E-05-2.87137E-05 5.69365E-06 8.47395E-20-1.27582E-18
 -1      3324 9.14566E-05-2.46178E-05-2.86350E-05 4.64631E-06-8.04145E-19-1.19483E-18
 -1      3325 9.15101E-05-2.48326E-05-2.85882E-05 6.21587E-06 6.68370E-20-1.13516E-18
 -1      3326 9.13359E-05-2.48592E-05-2.84832E-05 6.75056E-06-4.39406E-19-1.53017E-18
 -1      3327 9.05629E-05-2.42289E-05-2.84176E-05 5.57556E-06-1.90100E-19-1.70139E-18
 -1      3328 9.08578E-05-2.48827E-05-2.82881E-05 7.35327E-06 2.73493E-19-9.93847E-19
 -1      3329 9.07927E-05-2.51556E-05-2.81180E-05 7.92642E-06 7.83719E-19-5.97585E-19
 -1      3330 8.96108E-05-2.40773E-05-2.80747E-05 6.64280E-06 1.55343E-19-1.02143E-18
 -1      3331 9.03802E-05-2.54687E-05-2.78322E-05 8.64627E-06 1.16588E-19 8.20667E-20
 -1      3332 9.05704E-05-2.61589E-05-2.75818E-05 9.26267E-06-8.73255E-20-1.63123E-19
 -1      3333 8.87009E-05-2.43637E-05-2.75648E-05 7.91041E-06 6.62031E-19-4.62961E-20
 -1      3334 9.03596E-05-2.69545E-05-2.71839E-05 1.01743E-05-1.28014E-19-9.84146E-20
 -1      3335 9.10632E-05-2.83208E-05-2.68467E-05 1.08389E-05-1.23077E-19-6.46739E-20
 -1      3336 8.80214E-05-2.53863E-05-2.68421E-05 9.50727E-06-4.01652E-20-1.96449E-19
 -1      3337 9.13443E-05-2.99229E-05-2.63238E-05 1.20353E-05 1.19281E-19 2.48096E-20
 -1      3338 9.29597E-05-3.22845E-05-2.59257E-05 1.26811E-05 2.80947E-19 4.50318E-19
 -1      3339 8.79597E-05-2.76294E-05-2.58621E-05 1.16973E-05 2.20716E-19 6.79909E-19
 -1      3340 9.41407E-05-3.50614E-05-2.52989E-05 1.42549E-05-1.99815E-19 1.23905E-18
 -1      3341 9.72906E-05-3.88761E-05-2.49136E-05 1.47624E-05 1.25736E-18-8.34162E-20
 -1      3342 8.92309E-05-3.17257E-05-2.46047E-05 1.47313E-05 1.55536E-19 2.56783E-18
 -1      3343 1.43712E-04-6.50158E-05-3.38430E-05 9.93512E-06 9.20487E-19-9.73029E-19
 -1      3344 1.39539E-04-5.79174E-05-3.48873E-05 1.82168E-05 2.97682E-19 1.15144E-19
 -1      3345 9.55439E-05-2.89832E-05-2.85249E-05-7.53271E-07 2.29976E-19 4.70205E-20
 -1      3346 9.55625E-05-2.89930E-05-2.85296E-05-8.12768E-07 1.04483E-19 3.18985E-19
 -1      3347 9.57617E-05-2.90857E-05-2.85770E-05-7.98870E-07 1.96623E-19 1.74276E-19
 -1      3348 9.56901E-05-2.89964E-05-2.85823E-05-9.63026E-07-1.60750E-20 8.49606E-20
 -1      3349 9.57170E-05-2.89693E-05-2.86045E-05-9.96585E-07-1.22114E-19 1.43273E-20
 -1      3350 9.58644E-05-2.90855E-05-2.86214E-05-8.88170E-07-3.17413E-20 4.78059E-22
 -1      3351 9.54840E-05-2.89411E-05-2.85172E-05-6.35979E-07 2.84272E-19 3.79269E-19
 -1      3352 9.54989E-05-2.89595E-05-2.85171E-05-6.95469E-07 1.93932E-19 1.32352E-19
 -1      3353 9.56678E-05-2.90516E-05-2.85511E-05-6.93030E-07 2.65804E-19 7.14969E-20
 -1      3354 9.54332E-05-2.88885E-05-2.85180E-05-5.26217E-07 6.15591E-20 3.62902E-19
 -1      3355 9.54450E-05-2.89117E-05-2.85147E-05-5.80865E-07 3.16870E-19 4.86085E-19
 -1      3356 9.55851E-05-2.89975E-05-2.85386E-05-5.85288E-07 6.03804E-20-1.92099E-19
 -1      3357 9.53909E-05-2.88306E-05-2.85248E-05-4.30752E-07 6.17944E-20 3.91006E-19
 -1      3358 9.54001E-05-2.88565E-05-2.85192E-05-4.77441E-07 1.07235E-19 2.52297E-19
 -1      3359 9.55140E-05-2.89327E-05-2.85357E-05-4.85318E-07 1.93828E-19 1.39977E-19
 -1      3360 9.53558E-05-2.87699E-05-2.85358E-05-3.54018E-07 3.07184E-19 2.23209E-19
 -1      3361 9.53629E-05-2.87974E-05-2.85287E-05-3.90679E-07 3.85278E-19 4.95892E-19
 -1      3362 9.54536E-05-2.88625E-05-2.85397E-05-3.99444E-07 1.04053E-19 1.35809E-19
 -1      3363 9.53261E-05-2.87068E-05-2.85501E-05-2.99187E-07-1.85629E-19-8.11660E-20
 -1      3364 9.53318E-05-2.87359E-05-2.85418E-05-3.24284E-07-2.76868E-20 5.70721E-20
 -1      3365 9.54021E-05-2.87892E-05-2.85489E-05-3.31912E-07 2.94731E-19-5.16402E-20
 -1      3366 9.53001E-05-2.86406E-05-2.85673E-05-2.68986E-07-3.15051E-19-2.47312E-19
 -1      3367 9.53047E-05-2.86716E-05-2.85578E-05-2.81123E-07-3.39566E-19-5.24376E-19
 -1      3368 9.53570E-05-2.87131E-05-2.85621E-05-2.85877E-07-2.75647E-19 2.16662E-19
 -1      3369 9.52754E-05-2.85689E-05-2.85874E-05-2.66328E-07-2.26119E-19 6.78288E-19
 -1      3370 9.52797E-05-2.86030E-05-2.85766E-05-2.63951E-07-2.21239E-19 2.74860E-19
 -1      3371 9.53155E-05-2.86324E-05-2.85787E-05-2.64165E-07-4.73413E-19-1.45558E-19
 -1      3372 9.52497E-05-2.84887E-05-2.86107E-05-2.94780E-07 2.25518E-20 1.20255E-18
 -1      3373 9.52543E-05-2.85273E-05-2.85983E-05-2.75954E-07-1.81120E-21 8.51693E-19
 -1      3374 9.52741E-05-2.85444E-05-2.85986E-05-2.69849E-07-3.90320E-19 1.97996E-19
 -1      3375 9.52203E-05-2.83963E-05-2.86375E-05-3.58900E-07-3.44419E-20 3.15319E-19
 -1      3376 9.52257E-05-2.84410E-05-2.86232E-05-3.21157E-07 1.61436E-19 8.09508E-19
 -1      3377 9.52290E-05-2.84450E-05-2.86217E-05-3.06682E-07 1.28866E-19 6.93423E-19
 -1      3378 9.51841E-05-2.82874E-05-2.86684E-05-4.64452E-07 2.03958E-19 5.17806E-19
 -1      3379 9.51910E-05-2.83402E-05-2.86518E-05-4.04700E-07-4.34972E-20 5.94605E-19
 -1      3380 9.51758E-05-2.83295E-05-2.86482E-05-3.79399E-07 1.40061E-19 2.57783E-19
 -1      3381 9.51376E-05-2.81576E-05-2.87038E-05-6.18484E-07 5.10316E-19 8.08932E-20
 -1      3382 9.51469E-05-2.82203E-05-2.86846E-05-5.32993E-07 3.83491E-19 3.67263E-19
 -1      3383 9.51096E-05-2.81927E-05-2.86783E-05-4.93907E-07 1.97467E-19-4.25130E-19
 -1      3384 9.50771E-05-2.80031E-05-2.87438E-05-8.29247E-07 1.43165E-19 4.86549E-19
 -1      3385 9.50895E-05-2.80772E-05-2.87218E-05-7.13731E-07 2.38586E-19 3.42517E-19
 -1      3386 9.50247E-05-2.80294E-05-2.87117E-05-6.57338E-07 9.85460E-20-6.05262E-19
 -1      3387 9.49988E-05-2.78208E-05-2.87880E-05-1.10591E-06 2.77667E-19 3.35450E-19
 -1      3388 9.50151E-05-2.79073E-05-2.87632E-05-9.55719E-07 5.66634E-19 5.66840E-19
 -1      3389 9.49153E-05-2.78347E-05-2.87479E-05-8.77952E-07 2.58791E-19-3.07366E-19
 -1      3390 9.48993E-05-2.76100E-05-2.88352E-05-1.45799E-06 2.25706E-19 5.29349E-19
 -1      3391 9.49198E-05-2.77085E-05-2.88082E-05-1.26849E-06-2.46707E-19 2.89321E-19
 -1      3392 9.47750E-05-2.76055E-05-2.87857E-05-1.16486E-06 1.49944E-19 2.57740E-19
 -1      3393 9.47760E-05-2.73737E-05-2.88832E-05-1.89450E-06 2.68133E-19 1.89914E-18
 -1      3394 9.48003E-05-2.74816E-05-2.88549E-05-1.66160E-06 6.13966E-19 1.52937E-18
 -1      3395 9.45981E-05-2.73411E-05-2.88227E-05-1.52753E-06-2.15986E-19 4.94230E-19
 -1      3396 9.46290E-05-2.71213E-05-2.89280E-05-2.42262E-06 4.23511E-19 1.19898E-18
 -1      3397 9.46554E-05-2.72325E-05-2.89002E-05-2.14364E-06 5.24635E-19 1.61896E-18
 -1      3398 9.43799E-05-2.70456E-05-2.88554E-05-1.97500E-06 4.80119E-19 9.42160E-19
 -1      3399 9.44636E-05-2.68718E-05-2.89636E-05-3.04599E-06 4.37969E-20 8.47116E-19
 -1      3400 9.44875E-05-2.69749E-05-2.89392E-05-2.72074E-06 3.41679E-19 1.37540E-18
 -1      3401 9.41193E-05-2.67312E-05-2.88780E-05-2.51496E-06 4.54285E-19 4.28274E-19
 -1      3402 9.42938E-05-2.66598E-05-2.89812E-05-3.76257E-06-7.97727E-19 7.23423E-19
 -1      3403 9.43057E-05-2.67350E-05-2.89645E-05-3.39478E-06-6.07929E-19 5.23324E-19
 -1      3404 9.38211E-05-2.64215E-05-2.88827E-05-3.15250E-06-1.98968E-19 7.33722E-19
 -1      3405 9.41493E-05-2.65417E-05-2.89693E-05-4.56204E-06 1.49007E-19 3.80184E-19
 -1      3406 9.41316E-05-2.65573E-05-2.89660E-05-4.16114E-06-2.25129E-19 6.37388E-19
 -1      3407 9.35011E-05-2.61581E-05-2.88584E-05-3.88901E-06-3.71859E-19 9.89508E-20
 -1      3408 9.40857E-05-2.66062E-05-2.89134E-05-5.42293E-06 1.91697E-19-5.82282E-19
 -1      3409 9.40067E-05-2.65133E-05-2.89305E-05-5.00616E-06 6.47561E-19 5.24989E-19
 -1      3410 9.31935E-05-2.60086E-05-2.87915E-05-4.72116E-06 8.06680E-19 3.36652E-19
 -1      3411 9.41988E-05-2.69859E-05-2.87975E-05-6.30883E-06-8.77194E-21-4.95922E-19
 -1      3412 9.40055E-05-2.67122E-05-2.88426E-05-5.90409E-06-1.88246E-19-6.14952E-19
 -1      3413 9.29623E-05-2.60769E-05-2.86654E-05-5.64036E-06 2.82599E-20-4.03593E-20
 -1      3414 9.46458E-05-2.78707E-05-2.86074E-05-7.16228E-06-4.82850E-20-4.63462E-20
 -1      3415 9.42535E-05-2.73144E-05-2.86866E-05-6.81249E-06 2.10658E-20-6.16553E-19
 -1      3416 9.29184E-05-2.65167E-05-2.84626E-05-6.63195E-06-2.40389E-19 3.61693E-19
 -1      3417 9.56704E-05-2.95166E-05-2.83376E-05-7.89190E-06-9.70903E-19 4.54677E-19
 -1      3418 9.49519E-05-2.85434E-05-2.84515E-05-7.66303E-06-2.49197E-19 3.44974E-19
 -1      3419 9.32434E-05-2.75466E-05-2.81691E-05-7.67148E-06-5.23777E-19 8.14873E-19
 -1      3420 9.76269E-05-3.22397E-05-2.80063E-05-8.34490E-06-2.24476E-18 5.34915E-19
 -1      3421 9.64062E-05-3.06900E-05-2.81414E-05-8.34155E-06-1.61724E-18 2.72651E-19
 -1      3422 9.42220E-05-2.94615E-05-2.77828E-05-8.71207E-06-1.28935E-18 8.20591E-19
 -1      3423 1.00985E-04-3.63631E-05-2.76795E-05-8.23659E-06-1.56762E-18 8.03096E-19
 -1      3424 9.90550E-05-3.40945E-05-2.77952E-05-8.63709E-06-1.84695E-18 9.00442E-19
 -1      3425 9.62834E-05-3.26374E-05-2.73309E-05-9.64601E-06-1.94595E-18-7.86890E-19
 -1      3426 1.06262E-04-4.20643E-05-2.75109E-05-7.03455E-06-2.31774E-19-1.36795E-18
 -1      3427 1.03457E-04-3.90534E-05-2.75190E-05-8.14132E-06-4.13471E-19-3.75358E-19
 -1      3428 1.00031E-04-3.74801E-05-2.69010E-05-1.02088E-05-2.72527E-19-1.13242E-18
 -1      3429 1.13729E-04-4.89084E-05-2.78126E-05-3.76032E-06-8.29626E-19-1.03651E-18
 -1      3430 1.10142E-04-4.55449E-05-2.75469E-05-6.02666E-06-9.02914E-19-1.41628E-18
 -1      3431 1.06231E-04-4.42395E-05-2.66975E-05-9.74211E-06-5.18204E-19-1.50706E-18
 -1      3432 1.22661E-04-5.50328E-05-2.90617E-05 2.82344E-06-3.33480E-19-5.21918E-19
 -1      3433 1.19116E-04-5.25793E-05-2.83297E-05-9.56911E-07-4.82233E-19-9.96600E-19
 -1      3434 1.15377E-04-5.23617E-05-2.71462E-05-6.93964E-06-6.18794E-19-1.51605E-18
 -1      3435 1.32035E-04-5.54092E-05-3.29498E-05 1.61494E-05 5.02595E-19-1.14932E-18
 -1      3436 1.30386E-04-5.75937E-05-3.11436E-05 1.02160E-05 8.40900E-19-2.60754E-19
 -1      3437 1.32463E-04-4.99747E-05-3.55188E-05 2.37721E-05-3.12077E-19-1.55794E-18
 -1      3438 9.72905E-05 6.43499E-06-4.54549E-05 1.23879E-05-3.78888E-19-2.86493E-18
 -1      3439 1.35010E-04-6.60280E-05-2.96011E-05-2.07423E-06 1.68542E-18-1.16646E-19
 -1      3440 9.27589E-05-4.29269E-05-2.12167E-05 2.29009E-05 7.43470E-19 4.35441E-18
 -1      3441 8.36714E-05-3.59192E-05-2.03548E-05 2.12759E-05-6.32886E-19 3.33104E-18
 -1      3442 9.58513E-05-2.87921E-05-2.87405E-05-9.92251E-07-1.01904E-19 8.80714E-20
 -1      3443 9.58843E-05-2.86781E-05-2.87981E-05-9.33474E-07-2.35143E-19 2.04859E-19
 -1      3444 6.65768E-05-2.93049E-05-1.56488E-05-2.34738E-05-1.86321E-19-2.83687E-18
 -1      3445 8.04528E-05-3.84574E-05-1.79222E-05-2.75057E-05-1.61426E-19-2.21446E-18
 -1      3446 1.22519E-04-6.39549E-05-2.46364E-05-1.80122E-05 8.56562E-20-1.88139E-18
 -1      3447 1.30575E-04-6.58859E-05-2.80808E-05-7.15356E-06-6.17540E-20-1.32817E-18
 -1      3448 9.22337E-05-1.81202E-05-3.17746E-05-1.00677E-06 1.02145E-19-1.14148E-18
 -1      3449 9.23458E-05-1.83106E-05-3.17441E-05-1.76075E-06-3.64947E-20-1.12942E-18
 -1      3450 9.33256E-05-1.99802E-05-3.14184E-05-1.75397E-06-7.39646E-20-9.77009E-19
 -1      3451 9.39339E-05-2.12607E-05-3.11554E-05-4.39451E-06-6.81269E-19-9.73812E-19
 -1      3452 9.59162E-05-2.85283E-05-2.88830E-05-8.44954E-07-1.84358E-19 3.14699E-19
 -1      3453 9.59469E-05-2.83366E-05-2.89690E-05-6.97823E-07 3.56600E-20 2.00583E-19
 -1      3454 9.61483E-05-2.86146E-05-2.89456E-05-7.92441E-07-2.10255E-19 9.16916E-20
 -1      3455 5.43474E-05-2.03584E-05-1.43033E-05 3.30096E-06-1.70889E-19 1.77877E-20
 -1      3456 1.38177E-04-6.51423E-05-3.10655E-05 3.98326E-06 2.96174E-19-1.77715E-18
 -1      3457 9.57717E-05-2.89345E-05-2.86444E-05-1.01589E-06-5.55115E-20 7.77031E-20
 -1      3458 9.58025E-05-2.88726E-05-2.86814E-05-1.01474E-06-2.00987E-20 1.01694E-19
 -1      3459 9.59708E-05-2.90297E-05-2.86913E-05-9.39351E-07-5.53679E-21-2.57871E-19
 -1      3460 5.90326E-05-2.15652E-05-1.60646E-05-1.14662E-05 1.12036E-18-9.07940E-19
 -1      3461 6.20434E-05-2.50267E-05-1.56264E-05-1.88956E-05 1.75534E-19-2.54004E-18
 -1      3462 7.09001E-05-2.77263E-05-1.82831E-05-1.87921E-05 1.44168E-19-1.71720E-18
 -1      3463 1.29001E-04-6.02002E-05-2.95593E-05 1.92677E-06 4.42350E-19-1.27546E-18
 -1      3464 7.22138E-05-2.78670E-05-1.90895E-05 1.80219E-05 9.44309E-21 3.93288E-19
 -1      3465 6.53927E-05-2.31121E-05-1.77368E-05 1.29059E-05-3.54614E-19-7.49809E-19
 -1      3466 9.44484E-05-2.23046E-05-3.09077E-05-3.42545E-06-6.13851E-19-8.85786E-19
 -1      3467 9.44825E-05-2.23801E-05-3.08933E-05-2.85232E-06-4.76958E-19-7.76904E-19
 -1      3468 9.31278E-05-1.96091E-05-3.14914E-05-5.84335E-07 9.04229E-20-9.87458E-19
 -1      3469 9.42238E-05-2.17598E-05-3.10376E-05 2.60919E-06 6.63859E-19-4.98105E-19
 -1      3470 9.55284E-05-2.54066E-05-3.00535E-05 1.68384E-06 6.44352E-19-2.25941E-19
 -1      3471 9.53595E-05-2.47161E-05-3.02824E-05 2.30266E-06 8.03070E-19-3.42007E-19
 -1      3472 9.51739E-05-2.40536E-05-3.04715E-05 2.26119E-06 5.95375E-19-3.70820E-19
 -1      3473 9.40665E-05-2.14802E-05-3.11118E-05-2.07701E-06-2.37610E-19-8.05249E-19
 -1      3474 9.42890E-05-2.19559E-05-3.10122E-05-2.50260E-06-4.41580E-19-8.06243E-19
 -1      3475 9.48290E-05-2.30371E-05-3.07532E-05-2.12428E-06-3.67222E-19-8.15379E-19
 -1      3476 1.15825E-04-5.78421E-05-2.47475E-05 1.51319E-05 8.82767E-19-3.08700E-18
 -1      3477 1.02547E-04-4.99674E-05-2.23804E-05 2.10984E-05 2.46329E-18-1.63217E-18
 -1      3478 1.37096E-04-6.27146E-05-3.16273E-05-1.20043E-05 1.55613E-18 1.23950E-18
 -1      3479 9.09805E-05-3.68908E-05-2.31570E-05 1.83646E-05-3.84513E-19 4.34776E-18
 -1      3480 9.79405E-05-4.13774E-05-2.42013E-05 1.66552E-05 1.70849E-18-8.95863E-19
 -1      3481 9.60710E-05-2.88873E-05-2.87955E-05-9.21615E-07-8.42419E-20-6.30156E-20
 -1      3482 1.02959E-04-4.67912E-05-2.39824E-05 1.68998E-05 1.75203E-18-2.19773E-18
 -1      3483 9.58131E-05-2.65561E-05-2.96714E-05 7.82995E-07 3.57058E-19-1.50180E-19
 -1      3484 9.57510E-05-2.60812E-05-2.98586E-05 1.25934E-06 4.52797E-19-2.19793E-19
 -1      3485 9.57086E-05-2.56197E-05-3.00480E-05 1.29134E-06 4.20114E-19-2.55664E-19
 -1      3486 1.18397E-04-5.87489E-05-2.53962E-05 1.30176E-05 1.80444E-19 8.72775E-20
 -1      3487 8.03542E-05-3.12348E-05-2.09945E-05 1.75996E-05 5.10139E-19 2.98255E-18
 -1      3488 9.58704E-05-2.70859E-05-2.94862E-05 3.17526E-07 1.73193E-19-1.47826E-20
 -1      3489 9.59498E-05-2.80937E-05-2.90876E-05-5.09865E-07 8.06529E-20 1.52142E-19
 -1      3490 9.59792E-05-2.77957E-05-2.92088E-05-2.41772E-07 5.04746E-20 1.35075E-19
 -1      3491 9.61759E-05-2.81507E-05-2.91559E-05-4.93844E-07 5.90726E-20-8.03590E-20
 -1      3492 9.40735E-05-2.15134E-05-3.11160E-05 1.74833E-06 5.89820E-19-8.12255E-19
 -1      3493 9.39455E-05-2.12149E-05-3.11759E-05 1.24389E-06 4.12724E-19-8.21071E-19
 -1      3494 5.93899E-05-2.05576E-05-1.67310E-05 6.77660E-06 4.20075E-20-1.30342E-18
 -1      3495 5.73842E-05-1.90542E-05-1.60858E-05-3.53451E-06 1.01635E-18-1.99317E-19
 -1      3496 6.60847E-05-2.13401E-05-1.90730E-05 7.17282E-06 8.81708E-19-1.55702E-18
 -1      3497 1.31034E-04-6.35087E-05-2.90556E-05-1.70477E-06-7.20772E-20-1.17352E-18
 -1      3498 8.11174E-05-3.56674E-05-1.93405E-05-2.40911E-05 5.96245E-19-2.25361E-18
 -1      3499 8.75031E-05-4.21973E-05-1.90300E-05-2.76153E-05-3.82422E-19-3.49446E-18
 -1      3500 9.42536E-05-4.62843E-05-2.06291E-05-2.58730E-05-3.21595E-19-3.67652E-18
 -1      3501 1.14357E-04-5.84118E-05-2.37987E-05-1.96498E-05 1.69168E-19-2.39236E-18
 -1      3502 6.37472E-05-2.09261E-05-1.81383E-05-7.09196E-06 1.37975E-18-8.85652E-19
 -1      3503 9.46002E-05-2.23808E-05-3.09334E-05 8.13480E-07 3.95719E-19-7.61873E-19
 -1      3504 9.38572E-05-2.10461E-05-3.12168E-05 8.04380E-07 4.00664E-19-7.75264E-19
 -1      3505 9.38077E-05-2.09437E-05-3.12364E-05 2.45003E-07 2.60387E-19-8.96594E-19
 -1      3506 1.22803E-04-5.91025E-05-2.69736E-05-7.79985E-06 3.13243E-19-1.38634E-18
 -1      3507 9.38058E-05-2.09413E-05-3.12370E-05-2.17377E-07 2.03719E-19-9.67347E-19
 -1      3508 9.38454E-05-2.10259E-05-3.12186E-05-7.75353E-07 1.45839E-19-1.11236E-18
 -1      3509 9.45294E-05-2.22119E-05-3.09753E-05 4.04036E-09 2.76156E-19-9.12559E-19
 -1      3510 9.52702E-05-2.41907E-05-3.04727E-05-1.53137E-06-1.11272E-19-6.89211E-19
 -1      3511 9.62598E-05-2.89892E-05-2.88309E-05-8.37835E-07-7.54999E-21-1.64076E-19
 -1      3512 9.63075E-05-2.88762E-05-2.88958E-05-7.96893E-07 2.60174E-20-2.44557E-19
 -1      3513 9.59329E-05-2.57342E-05-3.00764E-05-8.97040E-07-9.47658E-20-6.64826E-19
 -1      3514 9.61216E-05-2.64673E-05-2.98632E-05-4.56091E-07-1.03288E-19-6.54956E-19
 -1      3515 9.63324E-05-2.70963E-05-2.96672E-05-1.75429E-07-1.16962E-19-6.42361E-19
 -1      3516 9.64178E-05-2.75971E-05-2.95008E-05 1.20819E-07-6.76178E-20-6.07136E-19
 -1      3517 9.62640E-05-2.65654E-05-2.98666E-05-3.32469E-07-8.60221E-20-8.66523E-19
 -1      3518 9.65079E-05-2.80183E-05-2.93479E-05 3.00542E-07 1.10202E-19-6.68449E-19
 -1      3519 9.65191E-05-2.83425E-05-2.92223E-05 4.80917E-07-1.06425E-19-2.89099E-19
 -1      3520 9.65614E-05-2.76930E-05-2.95139E-05 1.38836E-07 1.40800E-20-6.18936E-19
 -1      3521 9.65279E-05-2.86061E-05-2.91055E-05 5.80362E-07-2.00202E-19 3.72402E-20
 -1      3522 9.64965E-05-2.88046E-05-2.90127E-05 6.74305E-07-7.76290E-20 2.12172E-20
 -1      3523 9.66577E-05-2.84316E-05-2.92401E-05 4.30431E-07 1.90267E-19-5.16889E-19
 -1      3524 9.64560E-05-2.89569E-05-2.89253E-05 7.15622E-07-5.48829E-20 1.38287E-19
 -1      3525 9.64023E-05-2.90675E-05-2.88583E-05 7.49461E-07 1.35607E-19 1.00719E-20
 -1      3526 9.66254E-05-2.88869E-05-2.90321E-05 5.85244E-07 1.37289E-20-2.12619E-20
 -1      3527 9.63351E-05-2.91432E-05-2.87945E-05 7.51609E-07 2.06858E-19 2.06412E-20
 -1      3528 9.62723E-05-2.91941E-05-2.87475E-05 7.46313E-07 2.70140E-19-5.79240E-20
 -1      3529 9.65183E-05-2.91417E-05-2.88775E-05 6.42878E-07 1.23315E-19 1.03538E-19
 -1      3530 9.61935E-05-2.92187E-05-2.87021E-05 7.24170E-07 1.68033E-19-1.39814E-19
 -1      3531 9.61295E-05-2.92303E-05-2.86703E-05 6.95516E-07 7.21595E-20-1.49026E-19
 -1      3532 9.63736E-05-2.92590E-05-2.87653E-05 6.36186E-07 1.72201E-19 4.49184E-20
 -1      3533 9.60489E-05-2.92222E-05-2.86392E-05 6.60117E-07-6.18329E-20-3.69006E-19
 -1      3534 9.59884E-05-2.92089E-05-2.86187E-05 6.19468E-07-8.93357E-20-4.13681E-19
 -1      3535 9.62157E-05-2.92852E-05-2.86864E-05 5.90594E-07-1.35986E-19-2.68250E-20
 -1      3536 9.59118E-05-2.91810E-05-2.85984E-05 5.78624E-07-1.35222E-19-4.50709E-19
 -1      3537 9.58571E-05-2.91528E-05-2.85864E-05 5.33886E-07-4.27892E-19-3.71048E-19
 -1      3538 9.60600E-05-2.92539E-05-2.86330E-05 5.24744E-07-1.24087E-19-6.42436E-19
 -1      3539 9.57876E-05-2.91138E-05-2.85743E-05 4.92928E-07-3.67808E-19-1.05022E-19
 -1      3540 9.57398E-05-2.90771E-05-2.85685E-05 4.49452E-07-3.07586E-19 3.24608E-20
 -1      3541 9.59153E-05-2.91879E-05-2.85990E-05 4.51745E-07-2.82227E-19-2.30761E-19
 -1      3542 9.56783E-05-2.90324E-05-2.85625E-05 4.11917E-07-5.31150E-19 1.06035E-19
 -1      3543 9.56371E-05-2.89914E-05-2.85613E-05 3.73271E-07-4.93755E-19-9.42883E-22
 -1      3544 9.57855E-05-2.91027E-05-2.85797E-05 3.80537E-07-3.51604E-19-6.19600E-20
 -1      3545 9.55835E-05-2.89440E-05-2.85600E-05 3.41488E-07-4.84824E-19 1.01367E-19
 -1      3546 9.55481E-05-2.89005E-05-2.85622E-05 3.10077E-07-4.47753E-19 5.11414E-20
 -1      3547 9.56715E-05-2.90073E-05-2.85715E-05 3.17109E-07-5.78635E-19-2.72610E-19
 -1      3548 9.55009E-05-2.88516E-05-2.85643E-05 2.85638E-07-3.08841E-19 8.73847E-20
 -1      3549 9.54700E-05-2.88063E-05-2.85692E-05 2.63199E-07-4.05733E-19 3.11969E-19
 -1      3550 9.55717E-05-2.89065E-05-2.85716E-05 2.65513E-07-4.67982E-19 6.63908E-20
 -1      3551 9.54273E-05-2.87555E-05-2.85741E-05 2.47323E-07-4.17828E-19 5.98305E-19
 -1      3552 9.53991E-05-2.87077E-05-2.85811E-05 2.35299E-07-2.89699E-19 8.57008E-19
 -1      3553 9.54826E-05-2.88015E-05-2.85782E-05 2.28669E-07 1.12198E-19-2.15581E-19
 -1      3554 9.53582E-05-2.86537E-05-2.85883E-05 2.29114E-07-1.11362E-20 7.86601E-19
 -1      3555 9.53305E-05-2.86018E-05-2.85972E-05 2.28951E-07-8.65647E-20 1.20144E-18
 -1      3556 9.53998E-05-2.86907E-05-2.85899E-05 2.09000E-07-1.00574E-19 1.01488E-19
 -1      3557 9.52883E-05-2.85425E-05-2.86062E-05 2.33708E-07-4.97389E-19 1.08556E-18
 -1      3558 9.52588E-05-2.84842E-05-2.86168E-05 2.47062E-07-1.58352E-19 7.52252E-19
 -1      3559 9.53175E-05-2.85706E-05-2.86059E-05 2.08901E-07-3.01516E-19 4.90913E-19
 -1      3560 9.52116E-05-2.84165E-05-2.86276E-05 2.64293E-07-6.59897E-20 8.41228E-19
 -1      3561 9.51773E-05-2.83490E-05-2.86398E-05 2.93192E-07 1.80457E-20 5.48608E-19
 -1      3562 9.52290E-05-2.84357E-05-2.86254E-05 2.31096E-07-2.49717E-19 4.92726E-19
 -1      3563 9.51206E-05-2.82694E-05-2.86520E-05 3.24810E-07 5.22604E-19 3.38771E-19
 -1      3564 9.50782E-05-2.81892E-05-2.86658E-05 3.71743E-07 5.89608E-19-1.84185E-19
 -1      3565 9.51262E-05-2.82794E-05-2.86480E-05 2.78885E-07 2.29796E-19 6.09751E-19
 -1      3566 9.50071E-05-2.80937E-05-2.86790E-05 4.20100E-07 1.43504E-19-5.39769E-19
 -1      3567 9.49526E-05-2.79971E-05-2.86943E-05 4.88053E-07-1.70939E-19-5.81814E-19
 -1      3568 9.49999E-05-2.80938E-05-2.86730E-05 3.56282E-07-1.51818E-19-5.44929E-19
 -1      3569 9.48612E-05-2.78813E-05-2.87081E-05 5.55937E-07-1.36447E-20-1.05017E-18
 -1      3570 9.47899E-05-2.77644E-05-2.87243E-05 6.48357E-07 3.51390E-19-9.88276E-19
 -1      3571 9.48393E-05-2.78703E-05-2.86994E-05 4.68051E-07-1.75836E-19-3.94861E-19
 -1      3572 9.46715E-05-2.76238E-05-2.87377E-05 7.38931E-07 4.86722E-19-1.22147E-18
 -1      3573 9.45779E-05-2.74827E-05-2.87542E-05 8.59604E-07 7.60431E-20-8.46826E-19
 -1      3574 9.46319E-05-2.75999E-05-2.87258E-05 6.19620E-07 3.57578E-19-5.04097E-19
 -1      3575 9.44247E-05-2.73131E-05-2.87659E-05 9.76268E-07-2.72783E-19-2.07679E-19
 -1      3576 9.43026E-05-2.71444E-05-2.87812E-05 1.12911E-06 7.38641E-20-2.30384E-19
 -1      3577 9.43632E-05-2.72736E-05-2.87497E-05 8.16854E-07 2.33294E-19-3.95044E-19
 -1      3578 9.41058E-05-2.69421E-05-2.87891E-05 1.27529E-06 4.84832E-19-7.73973E-19
 -1      3579 9.39482E-05-2.67436E-05-2.88012E-05 1.46404E-06 7.25694E-19-1.09433E-18
 -1      3580 9.40169E-05-2.68836E-05-2.87674E-05 1.06568E-06 3.26080E-19-2.93412E-19
 -1      3581 9.36981E-05-2.65066E-05-2.88021E-05 1.64295E-06 6.32368E-19-9.79885E-19
 -1      3582 9.34974E-05-2.62780E-05-2.88077E-05 1.87078E-06 5.41072E-19-1.26408E-18
 -1      3583 9.35749E-05-2.64244E-05-2.87736E-05 1.37161E-06 7.12027E-19-1.04266E-18
 -1      3584 9.31838E-05-2.60068E-05-2.87971E-05 2.08517E-06 4.85382E-19-1.00079E-18
 -1      3585 9.29322E-05-2.57513E-05-2.87915E-05 2.35435E-06 3.59989E-19-3.87472E-19
 -1      3586 9.30175E-05-2.58949E-05-2.87602E-05 1.73919E-06 6.32996E-19-7.40636E-19
 -1      3587 9.25447E-05-2.54504E-05-2.87630E-05 2.60644E-06-7.19091E-19 1.56159E-20
 -1      3588 9.22354E-05-2.51765E-05-2.87396E-05 2.91820E-06-1.05548E-18 7.06983E-20
 -1      3589 9.23241E-05-2.53005E-05-2.87160E-05 2.17171E-06-2.97230E-19-2.26557E-19
 -1      3590 9.17640E-05-2.48570E-05-2.86843E-05 3.21017E-06-1.22941E-18-1.85189E-20
 -1      3591 9.13931E-05-2.45815E-05-2.86339E-05 3.56518E-06-1.54028E-18-4.21277E-19
 -1      3592 9.14744E-05-2.46570E-05-2.86255E-05 2.67159E-06-9.79735E-19-1.78214E-19
 -1      3593 9.08294E-05-2.42634E-05-2.85401E-05 3.90070E-06-1.55692E-18-9.84649E-20
 -1      3594 9.03989E-05-2.40152E-05-2.84503E-05 4.30084E-06-6.25704E-19-2.61141E-19
 -1      3595 9.04501E-05-2.39948E-05-2.84679E-05 3.24239E-06-1.36188E-18 9.20058E-19
 -1      3596 8.97374E-05-2.37319E-05-2.83026E-05 4.68861E-06-7.09419E-20-6.87831E-19
 -1      3597 8.92610E-05-2.35581E-05-2.81575E-05 5.14102E-06-1.95207E-19-5.46303E-19
 -1      3598 8.92367E-05-2.33644E-05-2.82154E-05 3.89399E-06-6.11368E-19 9.45017E-20
 -1      3599 8.85008E-05-2.33609E-05-2.79354E-05 5.60147E-06 1.62289E-19-7.77088E-19
 -1      3600 8.80123E-05-2.33338E-05-2.77154E-05 6.12617E-06 6.85355E-19-3.15408E-19
 -1      3601 8.78271E-05-2.28439E-05-2.78313E-05 4.65322E-06 2.12593E-19-1.91697E-19
 -1      3602 8.71592E-05-2.32984E-05-2.73933E-05 6.70415E-06 4.34390E-19-9.48777E-19
 -1      3603 8.67261E-05-2.35270E-05-2.70751E-05 7.34662E-06 3.48485E-19-1.06587E-18
 -1      3604 8.62233E-05-2.25458E-05-2.72687E-05 5.58265E-06 3.84096E-19-8.48558E-19
 -1      3605 8.58019E-05-2.37683E-05-2.66199E-05 8.12827E-06 7.08195E-19-1.07680E-18
 -1      3606 8.55408E-05-2.44103E-05-2.61785E-05 8.97758E-06 4.17278E-19-4.86304E-19
 -1      3607 8.44467E-05-2.26331E-05-2.64664E-05 6.82243E-06 6.04981E-19-1.84758E-18
 -1      3608 8.45508E-05-2.50649E-05-2.55467E-05 1.01014E-05 7.92824E-19 3.86202E-19
 -1      3609 8.46169E-05-2.64190E-05-2.49441E-05 1.14139E-05 1.29911E-18 8.44332E-19
 -1      3610 8.25613E-05-2.33242E-05-2.53429E-05 8.58056E-06 1.45685E-18-1.67749E-19
 -1      3611 9.58934E-05-2.91554E-05-2.86009E-05-7.04108E-07 1.79202E-19-3.08824E-19
 -1      3612 9.59439E-05-2.91634E-05-2.86193E-05-7.49080E-07 1.74518E-19-2.62528E-19
 -1      3613 9.60176E-05-2.91673E-05-2.86493E-05-7.87851E-07-7.70895E-20-8.11510E-20
 -1      3614 9.60718E-05-2.91508E-05-2.86790E-05-8.18801E-07-1.13388E-19-4.12252E-19
 -1      3615 9.61298E-05-2.92332E-05-2.86719E-05-6.89949E-07 1.90360E-19-3.74322E-19
 -1      3616 9.55867E-05-2.89666E-05-2.85503E-05-4.24715E-07-1.39497E-19 1.97496E-19
 -1      3617 9.56200E-05-2.90026E-05-2.85504E-05-4.68806E-07-5.14174E-20 1.60633E-19
 -1      3618 9.55100E-05-2.88852E-05-2.85524E-05-3.50916E-07 5.06711E-19-4.57674E-20
 -1      3619 9.55382E-05-2.89235E-05-2.85494E-05-3.87380E-07 2.04820E-19 1.13947E-19
 -1      3620 9.56349E-05-2.89913E-05-2.85625E-05-3.71884E-07 1.41954E-19 2.25289E-19
 -1      3621 9.54435E-05-2.88006E-05-2.85602E-05-2.94570E-07 1.89450E-19 1.26415E-19
 -1      3622 9.54678E-05-2.88407E-05-2.85549E-05-3.21540E-07 4.84292E-19-1.87988E-20
 -1      3623 9.55452E-05-2.88991E-05-2.85634E-05-3.09422E-07 5.26779E-19 3.23189E-19
 -1      3624 9.53842E-05-2.87126E-05-2.85726E-05-2.58554E-07-5.79988E-19 1.24159E-21
 -1      3625 9.54058E-05-2.87548E-05-2.85653E-05-2.74525E-07-1.21727E-19 6.26385E-20
 -1      3626 9.54661E-05-2.88032E-05-2.85704E-05-2.63226E-07-5.45765E-20 2.68928E-19
 -1      3627 9.53282E-05-2.86189E-05-2.85887E-05-2.45566E-07-2.80500E-19-1.36450E-19
 -1      3628 9.53488E-05-2.86643E-05-2.85798E-05-2.49069E-07-5.29822E-19-1.58563E-21
 -1      3629 9.53937E-05-2.87026E-05-2.85823E-05-2.36008E-07-3.34277E-19 2.03766E-19
 -1      3630 9.52709E-05-2.85158E-05-2.86084E-05-2.58627E-07-3.84806E-19 5.49366E-20
 -1      3631 9.52924E-05-2.85663E-05-2.85978E-05-2.47984E-07-3.31277E-19-2.28139E-19
 -1      3632 9.53233E-05-2.85943E-05-2.85983E-05-2.30393E-07-3.25985E-19 1.41852E-19
 -1      3633 9.52073E-05-2.83985E-05-2.86313E-05-3.01448E-07 1.12359E-19 1.62429E-19
 -1      3634 9.52318E-05-2.84565E-05-2.86191E-05-2.74594E-07 1.08374E-19 3.03361E-20
 -1      3635 9.52491E-05-2.84741E-05-2.86177E-05-2.49359E-07-1.81628E-19-4.66966E-19
 -1      3636 9.51314E-05-2.82615E-05-2.86575E-05-3.78693E-07 1.42887E-19 5.37363E-20
 -1      3637 9.51612E-05-2.83296E-05-2.86435E-05-3.33056E-07 1.62205E-19 1.37702E-20
 -1      3638 9.51646E-05-2.83361E-05-2.86404E-05-2.96563E-07 2.42861E-19-3.61927E-19
 -1      3639 9.50365E-05-2.80986E-05-2.86865E-05-4.96129E-07 3.32658E-20-4.67218E-19
 -1      3640 9.50743E-05-2.81796E-05-2.86709E-05-4.28571E-07 1.26482E-19-2.69826E-19
 -1      3641 9.50622E-05-2.81739E-05-2.86657E-05-3.76564E-07 7.86690E-20-1.76189E-19
 -1      3642 9.49152E-05-2.79036E-05-2.87179E-05-6.60661E-07 2.02719E-19-6.04226E-19
 -1      3643 9.49638E-05-2.80003E-05-2.87009E-05-5.67491E-07 3.55520E-19-8.73995E-20
 -1      3644 9.49334E-05-2.79805E-05-2.86930E-05-4.94957E-07-1.16792E-19-3.60495E-19
 -1      3645 9.47592E-05-2.76712E-05-2.87505E-05-8.80233E-07 4.04466E-19-8.96132E-19
 -1      3646 9.48219E-05-2.77859E-05-2.87325E-05-7.57298E-07 2.44775E-20-1.07134E-18
 -1      3647 9.47689E-05-2.77491E-05-2.87212E-05-6.58403E-07 4.48960E-19-5.39937E-19
 -1      3648 9.45601E-05-2.73976E-05-2.87822E-05-1.16358E-06-1.16934E-19-5.85267E-19
 -1      3649 9.46401E-05-2.75314E-05-2.87643E-05-1.00645E-06 4.89993E-19-6.52447E-19
 -1      3650 9.45584E-05-2.74738E-05-2.87484E-05-8.74565E-07 1.62184E-19-1.33060E-18
 -1      3651 9.43098E-05-2.70823E-05-2.88099E-05-1.51982E-06-1.17837E-19-2.01238E-19
 -1      3652 9.44098E-05-2.72346E-05-2.87936E-05-1.32409E-06-4.62287E-19-3.37056E-19
 -1      3653 9.42913E-05-2.71506E-05-2.87717E-05-1.15193E-06-3.28806E-20-1.00833E-18
 -1      3654 9.40018E-05-2.67301E-05-2.88285E-05-1.95786E-06 6.97318E-19-2.80513E-19
 -1      3655 9.41234E-05-2.68972E-05-2.88162E-05-1.71953E-06 3.81965E-19 5.14128E-19
 -1      3656 9.39572E-05-2.67797E-05-2.87868E-05-1.49955E-06-1.17744E-19-1.46857E-18
 -1      3657 9.36329E-05-2.63545E-05-2.88311E-05-2.48575E-06-6.06448E-20 3.58228E-19
 -1      3658 9.37757E-05-2.65280E-05-2.88263E-05-2.20175E-06 3.72086E-19-1.03135E-20
 -1      3659 9.35477E-05-2.63674E-05-2.87872E-05-1.92677E-06 1.13673E-19 5.19525E-20
 -1      3660 9.32073E-05-2.59823E-05-2.88077E-05-3.11013E-06-3.39979E-19 2.92441E-19
 -1      3661 9.33664E-05-2.61463E-05-2.88154E-05-2.77875E-06 1.34422E-19 4.10289E-19
 -1      3662 9.30583E-05-2.59299E-05-2.87641E-05-2.44307E-06 4.66953E-20 2.71706E-19
 -1      3663 9.27409E-05-2.56590E-05-2.87456E-05-3.83596E-06 3.78512E-19-4.77842E-19
 -1      3664 9.29045E-05-2.57873E-05-2.87721E-05-3.45725E-06-2.45184E-19 1.86286E-19
 -1      3665 9.24917E-05-2.54979E-05-2.87059E-05-3.05832E-06-3.09875E-19-2.30102E-19
 -1      3666 9.22695E-05-2.54577E-05-2.86284E-05-4.66721E-06-1.56203E-19-2.81671E-19
 -1      3667 9.24139E-05-2.55089E-05-2.86816E-05-4.24300E-06 2.41148E-19-4.69527E-19
 -1      3668 9.18630E-05-2.51226E-05-2.85971E-05-3.78400E-06 8.14305E-20-8.33509E-20
 -1      3669 9.18607E-05-2.54892E-05-2.84372E-05-5.60873E-06-1.48177E-19 5.18579E-19
 -1      3670 9.19432E-05-2.54011E-05-2.85262E-05-5.14220E-06-1.06302E-20 5.33940E-19
 -1      3671 9.12073E-05-2.48837E-05-2.84189E-05-4.63598E-06-4.38856E-19 6.46840E-19
 -1      3672 9.16315E-05-2.59156E-05-2.81518E-05-6.66914E-06-2.47584E-19 7.52670E-19
 -1      3673 9.15796E-05-2.55976E-05-2.82856E-05-6.16449E-06-1.71937E-19 6.35068E-19
 -1      3674 9.05902E-05-2.48999E-05-2.81494E-05-5.63981E-06-2.53473E-20 1.14586E-18
 -1      3675 9.17745E-05-2.69672E-05-2.77552E-05-7.86146E-06-9.76735E-19 1.07193E-18
 -1      3676 9.14717E-05-2.62919E-05-2.79397E-05-7.32556E-06-6.46620E-19 7.29136E-19
 -1      3677 9.01263E-05-2.53438E-05-2.77647E-05-6.83806E-06-3.68426E-19 5.54308E-19
 -1      3678 9.25953E-05-2.89577E-05-2.72426E-05-9.19405E-06-7.59858E-19 2.16085E-19
 -1      3679 9.18608E-05-2.77534E-05-2.74751E-05-8.64460E-06-5.81629E-19 8.05783E-19
 -1      3680 9.00066E-05-2.64597E-05-2.72439E-05-8.29549E-06-4.76086E-19 5.59392E-19
 -1      3681 9.45587E-05-3.23043E-05-2.66391E-05-1.06524E-05-1.15346E-18-1.38873E-18
 -1      3682 9.31255E-05-3.03396E-05-2.68968E-05-1.01342E-05-6.16940E-19-4.46681E-19
 -1      3683 9.05340E-05-2.85789E-05-2.65774E-05-1.00963E-05-1.78490E-19-2.79073E-19
 -1      3684 9.83646E-05-3.74791E-05-2.60336E-05-1.20677E-05 3.04067E-19-1.98986E-18
 -1      3685 9.58714E-05-3.45088E-05-2.62556E-05-1.17050E-05-9.31745E-19-1.97652E-18
 -1      3686 9.22279E-05-3.22105E-05-2.57855E-05-1.23201E-05-2.20382E-19-1.76818E-18
 -1      3687 1.04842E-04-4.49719E-05-2.56264E-05-1.28631E-05-8.61856E-19-2.13247E-18
 -1      3688 1.00992E-04-4.08502E-05-2.56818E-05-1.30597E-05 1.98547E-19-2.06407E-18
 -1      3689 9.58844E-05-3.79631E-05-2.49759E-05-1.48183E-05 2.17388E-19-2.22492E-18
 -1      3690 1.15332E-04-5.43844E-05-2.61642E-05-1.06383E-05-4.03135E-20-1.62364E-18
 -1      3691 1.10049E-04-4.94288E-05-2.57500E-05-1.23553E-05-1.19974E-18-2.16940E-18
 -1      3692 1.03444E-04-4.64558E-05-2.46100E-05-1.64867E-05-8.51715E-19-2.43301E-18
 -1      3693 1.15464E-04-5.65872E-05-2.54362E-05-1.43663E-05 2.00575E-20-1.13610E-18
 -1      3694 9.60716E-05-2.71245E-05-2.95515E-05 2.42835E-07 1.23891E-19-2.20188E-19
 -1      3695 9.57783E-05-2.91090E-05-2.85713E-05-6.08115E-07 3.66743E-19-3.08325E-19
 -1      3696 9.58234E-05-2.91319E-05-2.85817E-05-6.58152E-07 3.98204E-19-8.33106E-20
 -1      3697 9.59878E-05-2.92114E-05-2.86201E-05-6.15201E-07 3.56198E-19-4.78506E-19
 -1      3698 9.38641E-05-2.10569E-05-3.12091E-05-1.16695E-06 2.31522E-20-9.32417E-19
 -1      3699 9.39955E-05-2.13296E-05-3.11532E-05-1.69212E-06-1.52213E-19-8.41064E-19
 -1      3700 9.45712E-05-2.24229E-05-3.09127E-05-1.45259E-06-7.51185E-20-6.42830E-19
 -1      3701 9.45171E-05-2.22388E-05-3.09647E-05-7.72421E-07 7.93204E-20-9.34403E-19
 -1      3702 7.01831E-05-2.19545E-05-2.08050E-05 8.68838E-06 1.54142E-18-1.27367E-18
 -1      3703 6.67733E-05-1.96123E-05-2.00260E-05 2.62166E-06 1.36530E-18-2.38978E-18
 -1      3704 1.06966E-04-5.23286E-05-2.30400E-05-2.13851E-05-9.86661E-20-3.02808E-18
 -1      3705 9.63444E-05-2.87225E-05-2.89829E-05-7.42481E-07-6.34535E-20-2.76760E-19
 -1      3706 9.63759E-05-2.85241E-05-2.90744E-05-6.32591E-07-1.55930E-19-1.82167E-19
 -1      3707 9.65036E-05-2.88069E-05-2.90144E-05-6.63955E-07 2.05295E-20-4.88007E-19
 -1      3708 7.17875E-05-2.60800E-05-1.96293E-05-1.61313E-05 8.02048E-19-1.79425E-18
 -1      3709 7.67605E-05-3.04237E-05-1.97898E-05-2.00943E-05 5.93952E-19-1.89553E-18
 -1      3710 9.61440E-05-2.91225E-05-2.87232E-05-8.41099E-07-5.73812E-20-2.78466E-19
 -1      3711 9.61982E-05-2.90676E-05-2.87679E-05-8.45111E-07-5.57989E-20-2.41190E-19
 -1      3712 9.62740E-05-2.91972E-05-2.87492E-05-7.39254E-07-8.28875E-20-4.01830E-19
 -1      3713 9.49902E-05-2.34797E-05-3.06614E-05 2.20005E-06 6.13298E-19-3.83513E-19
 -1      3714 9.43506E-05-2.20471E-05-3.09806E-05 2.02911E-06 5.59543E-19-5.88378E-19
 -1      3715 9.49143E-05-2.31193E-05-3.07537E-05 1.44860E-06 4.28645E-19-6.85132E-19
 -1      3716 9.53403E-05-2.43079E-05-3.04322E-05 1.70281E-06 5.79836E-19-3.07927E-19
 -1      3717 6.53117E-05-1.99000E-05-1.95679E-05-3.42488E-06 2.00144E-18-8.81775E-19
 -1      3718 6.77470E-05-2.19309E-05-1.95145E-05-1.07383E-05 2.14220E-18-1.16063E-18
 -1      3719 9.56758E-05-2.90430E-05-2.85557E-05-5.12250E-07-4.05447E-20-9.53450E-20
 -1      3720 9.57149E-05-2.90744E-05-2.85601E-05-5.61312E-07 9.19273E-20-1.72130E-19
 -1      3721 9.58559E-05-2.91546E-05-2.85877E-05-5.30732E-07 2.21248E-19-8.78954E-20
 -1      3722 9.57380E-05-2.90781E-05-2.85698E-05-4.47246E-07-3.33322E-19-2.98403E-19
 -1      3723 9.54173E-05-2.43550E-05-3.04532E-05-1.20316E-06-1.27477E-19-7.75114E-19
 -1      3724 7.49698E-05-2.41242E-05-2.16084E-05 1.21745E-05 1.65186E-18 1.29266E-18
 -1      3725 7.43563E-05-2.22925E-05-2.23489E-05 8.25742E-06 2.00825E-18-7.42387E-19
 -1      3726 9.64062E-05-2.90704E-05-2.88601E-05-7.40746E-07 5.12041E-20-3.48068E-19
 -1      3727 8.01404E-05-2.40880E-05-2.38979E-05 1.03740E-05 1.85870E-18 1.33963E-18
 -1      3728 8.29576E-05-2.68011E-05-2.41611E-05 1.23151E-05 1.34052E-18 1.44147E-18
 -1      3729 8.36428E-05-2.91145E-05-2.34053E-05 1.42645E-05 9.95922E-19 2.37399E-18
 -1      3730 9.63637E-05-2.82601E-05-2.91920E-05-5.05737E-07-7.33107E-20-3.09344E-19
 -1      3731 9.63709E-05-2.79395E-05-2.93166E-05-2.87278E-07 4.52902E-20-3.90741E-19
 -1      3732 9.65246E-05-2.83379E-05-2.92239E-05-4.69773E-07-1.55041E-19-5.78462E-19
 -1      3733 9.54406E-05-2.43562E-05-3.04811E-05 1.19914E-06 4.52191E-19-6.30786E-19
 -1      3734 9.52198E-05-2.37828E-05-3.06135E-05 1.01056E-06 4.22127E-19-6.53303E-19
 -1      3735 9.57046E-05-2.47235E-05-3.04024E-05 5.80794E-07 3.22549E-19-5.40793E-19
 -1      3736 9.51562E-05-2.36231E-05-3.06691E-05 7.54886E-07 3.40970E-19-8.17162E-19
 -1      3737 9.51006E-05-2.34599E-05-3.07092E-05 4.10997E-07 3.20875E-19-8.44731E-19
 -1      3738 6.97849E-05-2.02161E-05-2.11725E-05-1.00912E-06 2.15189E-18-2.46776E-18
 -1      3739 8.03528E-05-2.94479E-05-2.18680E-05 1.58904E-05 7.62197E-19 2.70733E-18
 -1      3740 8.21800E-05-3.12680E-05-2.17264E-05-1.80251E-05 7.97078E-19-2.36278E-18
 -1      3741 8.07721E-05-3.28294E-05-2.04558E-05-2.07525E-05 7.18722E-19-2.42341E-18
 -1      3742 8.62271E-05-3.66527E-05-2.13746E-05-2.15713E-05 6.13424E-19-2.37675E-18
 -1      3743 7.31449E-05-2.42184E-05-2.08588E-05-1.23230E-05 2.31051E-18-1.44923E-18
 -1      3744 9.87521E-05-4.58613E-05-2.25430E-05-2.11487E-05-2.26555E-19-3.15319E-18
 -1      3745 9.62495E-05-2.74240E-05-2.95072E-05-3.97713E-08 4.35519E-20-3.72816E-19
 -1      3746 9.61225E-05-2.65908E-05-2.98011E-05 5.49564E-07 1.92608E-19-3.76004E-19
 -1      3747 9.60573E-05-2.59453E-05-3.00456E-05 5.52888E-07 1.90437E-19-3.07250E-19
 -1      3748 9.58411E-05-2.55443E-05-3.01194E-05 8.62677E-07 4.13016E-19-3.80210E-19
 -1      3749 7.33301E-05-2.25611E-05-2.18538E-05-9.40208E-06 3.57427E-18-4.86488E-19
 -1      3750 7.77674E-05-2.62975E-05-2.20094E-05-1.41672E-05 1.84687E-18-1.67500E-18
 -1      3751 9.65260E-05-2.91602E-05-2.88713E-05-6.36933E-07-5.23423E-20-4.29420E-19
 -1      3752 9.65869E-05-2.90589E-05-2.89383E-05-6.13977E-07-9.49832E-20-5.06001E-19
 -1      3753 7.82108E-05-2.23108E-05-2.40344E-05 7.53021E-06 2.62943E-18-1.02733E-18
 -1      3754 7.64900E-05-2.24410E-05-2.32471E-05 8.08492E-06 1.84579E-18-6.36281E-19
 -1      3755 7.34425E-05-2.03828E-05-2.25683E-05 4.75539E-06 2.60276E-18-3.61104E-18
 -1      3756 9.65983E-05-2.74035E-05-2.96521E-05 1.31731E-09-9.12099E-20-6.21709E-19
 -1      3757 9.66897E-05-2.78775E-05-2.94953E-05 1.90294E-07-1.63404E-20-6.74879E-19
 -1      3758 9.67638E-05-2.82695E-05-2.93522E-05 2.83764E-07 2.40686E-19-8.28090E-19
 -1      3759 9.67740E-05-2.85731E-05-2.92314E-05 3.96647E-07 1.52787E-19-6.85283E-19
 -1      3760 9.67913E-05-2.80026E-05-2.94796E-05 1.66683E-07 4.65022E-20-7.41420E-19
 -1      3761 9.67685E-05-2.88145E-05-2.91209E-05 4.43922E-07 1.47247E-19-5.63151E-19
 -1      3762 9.67292E-05-2.89951E-05-2.90299E-05 5.00307E-07 1.89043E-19-2.75068E-19
 -1      3763 9.68568E-05-2.86696E-05-2.92236E-05 3.16038E-07 2.51448E-19-8.64240E-19
 -1      3764 9.66755E-05-2.91295E-05-2.89464E-05 5.14787E-07 1.86807E-19-2.70215E-19
 -1      3765 9.66090E-05-2.92240E-05-2.88794E-05 5.31903E-07 4.19544E-19-4.93968E-20
 -1      3766 9.67964E-05-2.90694E-05-2.90273E-05 3.89579E-07 2.98983E-19-5.63667E-19
 -1      3767 9.65294E-05-2.92846E-05-2.88177E-05 5.24767E-07 2.96017E-19-6.93949E-20
 -1      3768 9.64511E-05-2.93206E-05-2.87696E-05 5.16564E-07 1.45784E-19-1.37522E-19
 -1      3769 9.66630E-05-2.92805E-05-2.88801E-05 4.09821E-07 2.22184E-19-4.49749E-19
 -1      3770 9.63609E-05-2.93324E-05-2.87254E-05 4.96605E-07-4.15064E-20 2.80295E-20
 -1      3771 9.62806E-05-2.93304E-05-2.86920E-05 4.73638E-07-1.99741E-19-6.01467E-20
 -1      3772 9.64939E-05-2.93629E-05-2.87725E-05 3.95575E-07 1.47538E-19-4.39873E-19
 -1      3773 9.61897E-05-2.93113E-05-2.86613E-05 4.47291E-07-1.54143E-19 7.25685E-20
 -1      3774 9.61132E-05-2.92857E-05-2.86392E-05 4.17181E-07-1.02806E-19 1.14772E-19
 -1      3775 9.63139E-05-2.93609E-05-2.86962E-05 3.61293E-07-1.81530E-19 6.19485E-20
 -1      3776 9.60274E-05-2.92482E-05-2.86191E-05 3.88949E-07-3.57492E-19-2.85307E-19
 -1      3777 9.59578E-05-2.92088E-05-2.86056E-05 3.57017E-07-4.00768E-19-2.73067E-19
 -1      3778 9.61386E-05-2.93064E-05-2.86442E-05 3.17471E-07-4.20500E-19 1.95269E-19
 -1      3779 9.58801E-05-2.91612E-05-2.85934E-05 3.29943E-07-2.18088E-19-5.22198E-19
 -1      3780 9.58185E-05-2.91144E-05-2.85864E-05 2.99816E-07-2.68895E-19-5.27382E-19
 -1      3781 9.59764E-05-2.92212E-05-2.86110E-05 2.71454E-07-3.84574E-19-5.99582E-19
 -1      3782 9.57495E-05-2.90616E-05-2.85803E-05 2.75916E-07-4.70082E-19-5.29010E-19
 -1      3783 9.56957E-05-2.90108E-05-2.85782E-05 2.50052E-07-6.18797E-19-6.75673E-19
 -1      3784 9.58309E-05-2.91191E-05-2.85922E-05 2.28249E-07-3.18050E-19-6.62797E-19
 -1      3785 9.56346E-05-2.89554E-05-2.85768E-05 2.30672E-07-6.47227E-19-5.09342E-19
 -1      3786 9.55873E-05-2.89022E-05-2.85784E-05 2.10791E-07-4.84747E-19-6.92834E-19
 -1      3787 9.57021E-05-2.90081E-05-2.85843E-05 1.91242E-07-6.25289E-19-7.97016E-19
 -1      3788 9.55324E-05-2.88446E-05-2.85806E-05 1.96892E-07-8.87623E-20-7.15908E-19
 -1      3789 9.54894E-05-2.87889E-05-2.85851E-05 1.84311E-07 2.48702E-19-3.77592E-19
 -1      3790 9.55874E-05-2.88916E-05-2.85847E-05 1.62793E-07-2.71386E-19-4.68974E-19
 -1      3791 9.54380E-05-2.87284E-05-2.85902E-05 1.76694E-07 3.62994E-19-4.39661E-19
 -1      3792 9.53969E-05-2.86688E-05-2.85970E-05 1.72587E-07 3.86057E-20-3.63150E-19
 -1      3793 9.54823E-05-2.87693E-05-2.85918E-05 1.44704E-07 2.70158E-19-5.79580E-19
 -1      3794 9.53454E-05-2.86033E-05-2.86043E-05 1.72057E-07-4.50573E-19-3.00965E-19
 -1      3795 9.53030E-05-2.85376E-05-2.86132E-05 1.77649E-07-5.31775E-19-2.99833E-19
 -1      3796 9.53806E-05-2.86385E-05-2.86039E-05 1.38578E-07-3.36909E-19-8.18503E-19
 -1      3797 9.52475E-05-2.84641E-05-2.86223E-05 1.85142E-07-3.08408E-19 9.69432E-20
 -1      3798 9.52000E-05-2.83891E-05-2.86328E-05 2.01848E-07 5.88526E-20 1.19092E-19
 -1      3799 9.52750E-05-2.84941E-05-2.86202E-05 1.46090E-07-3.46889E-20-6.35993E-19
 -1      3800 9.51356E-05-2.83040E-05-2.86433E-05 2.18509E-07-7.27524E-20 6.16121E-20
 -1      3801 9.50787E-05-2.82160E-05-2.86551E-05 2.48020E-07-1.53224E-19-4.63958E-19
 -1      3802 9.51566E-05-2.83293E-05-2.86397E-05 1.69165E-07-1.40166E-19-1.33972E-19
 -1      3803 9.49999E-05-2.81149E-05-2.86665E-05 2.75252E-07-2.67102E-20-7.70227E-19
 -1      3804 9.49285E-05-2.80096E-05-2.86793E-05 3.19568E-07-2.45691E-19-7.54032E-19
 -1      3805 9.50152E-05-2.81360E-05-2.86615E-05 2.10090E-07-4.13477E-19-5.70685E-19
 -1      3806 9.48288E-05-2.78878E-05-2.86910E-05 3.59030E-07 5.60101E-20-5.90166E-19
 -1      3807 9.47371E-05-2.77608E-05-2.87040E-05 4.20442E-07 1.19090E-19-3.72883E-19
 -1      3808 9.48389E-05-2.79050E-05-2.86843E-05 2.71536E-07 1.20879E-19-5.22831E-19
 -1      3809 9.46090E-05-2.76133E-05-2.87150E-05 4.74004E-07 3.80949E-20 3.93746E-19
 -1      3810 9.44902E-05-2.74598E-05-2.87274E-05 5.55000E-07 6.92661E-19 9.62923E-20
 -1      3811 9.46139E-05-2.76264E-05-2.87066E-05 3.56497E-07 5.20838E-19-3.44926E-19
 -1      3812 9.43254E-05-2.72819E-05-2.87362E-05 6.24641E-07 3.18390E-19-7.96324E-19
 -1      3813 9.41717E-05-2.70977E-05-2.87463E-05 7.27749E-07 8.80185E-20-2.74360E-19
 -1      3814 9.43245E-05-2.72904E-05-2.87257E-05 4.68116E-07-2.17933E-20-2.53475E-20
 -1      3815 9.39607E-05-2.68849E-05-2.87508E-05 8.15394E-07 2.05382E-19-6.66281E-19
 -1      3816 9.37633E-05-2.66666E-05-2.87564E-05 9.42947E-07 6.04472E-19-7.24591E-19
 -1      3817 9.39531E-05-2.68879E-05-2.87380E-05 6.09397E-07 9.40574E-21-6.01956E-19
 -1      3818 9.34955E-05-2.64159E-05-2.87534E-05 1.05025E-06 6.43679E-19-8.23334E-19
 -1      3819 9.32448E-05-2.61617E-05-2.87511E-05 1.20411E-06 5.20357E-19-8.37390E-19
 -1      3820 9.34799E-05-2.64116E-05-2.87381E-05 7.82804E-07 1.33439E-19-1.18926E-18
 -1      3821 9.29090E-05-2.58721E-05-2.87362E-05 1.33224E-06 8.82148E-19-1.20983E-18
 -1      3822 9.25947E-05-2.55830E-05-2.87212E-05 1.51350E-06 1.03260E-18-8.55367E-19
 -1      3823 9.28833E-05-2.58577E-05-2.87182E-05 9.89781E-07 8.05037E-19-1.19033E-18
 -1      3824 9.21788E-05-2.52567E-05-2.86882E-05 1.66299E-06 2.33795E-19-8.95621E-19
 -1      3825 9.17903E-05-2.49376E-05-2.86538E-05 1.87196E-06-6.35400E-19-6.69689E-19
 -1      3826 9.21401E-05-2.52281E-05-2.86677E-05 1.23033E-06 7.88370E-19-1.97713E-18
 -1      3827 9.12816E-05-2.45817E-05-2.85945E-05 2.04283E-06-1.25716E-18-3.98503E-19
 -1      3828 9.08087E-05-2.42434E-05-2.85316E-05 2.27941E-06-1.30237E-18-3.63057E-19
 -1      3829 9.12263E-05-2.45323E-05-2.85720E-05 1.50288E-06-4.26366E-19-1.07140E-18
 -1      3830 9.01939E-05-2.38712E-05-2.84348E-05 2.47194E-06-9.13063E-19 2.99723E-19
 -1      3831 8.96277E-05-2.35324E-05-2.83312E-05 2.73717E-06-5.64552E-19 7.85622E-19
 -1      3832 9.01161E-05-2.37903E-05-2.84114E-05 1.80504E-06-5.81167E-19-3.96966E-19
 -1      3833 8.88913E-05-2.31651E-05-2.81820E-05 2.95402E-06-8.10805E-19 6.48760E-19
 -1      3834 8.82253E-05-2.28545E-05-2.80215E-05 3.25354E-06-7.40584E-19 2.13721E-19
 -1      3835 8.87817E-05-2.30350E-05-2.81597E-05 2.13611E-06-7.75211E-19 4.34134E-19
 -1      3836 8.73475E-05-2.25223E-05-2.78001E-05 3.50431E-06-4.63228E-19 5.18606E-19
 -1      3837 8.65791E-05-2.22819E-05-2.75618E-05 3.85512E-06-1.39947E-19 3.07711E-21
 -1      3838 8.71890E-05-2.23127E-05-2.77819E-05 2.50308E-06-5.98056E-19 1.31197E-18
 -1      3839 8.55313E-05-2.20255E-05-2.72417E-05 4.16412E-06-1.21755E-20-5.69767E-19
 -1      3840 8.46601E-05-2.19130E-05-2.68983E-05 4.60760E-06 1.81271E-19-8.69100E-19
 -1      3841 8.52908E-05-2.16843E-05-2.72313E-05 2.93301E-06-4.28067E-19 8.45217E-19
 -1      3842 8.33888E-05-2.17702E-05-2.64435E-05 5.01480E-06 1.58129E-19-1.73068E-18
 -1      3843 8.23895E-05-2.18656E-05-2.59535E-05 5.66091E-06 3.25109E-19-1.79900E-18
 -1      3844 8.30237E-05-2.12284E-05-2.64449E-05 3.48575E-06-4.37848E-19-7.03481E-19
 -1      3845 8.10073E-05-2.18181E-05-2.54237E-05 6.00864E-06 1.69759E-18-1.80384E-18
 -1      3846 7.99060E-05-2.22262E-05-2.47470E-05 6.96862E-06 2.90214E-18-8.66805E-19
 -1      3847 7.74288E-05-2.06991E-05-2.41936E-05 4.55927E-06 3.04059E-18-3.85249E-18
 -1      3848 8.04593E-05-2.09251E-05-2.54418E-05 4.02277E-06 1.36943E-18-1.93089E-18
 -1      3849 9.55727E-05-2.89028E-05-2.85718E-05-2.55624E-07 1.72076E-19 5.03370E-19
 -1      3850 9.56151E-05-2.89518E-05-2.85700E-05-2.80626E-07 3.67399E-19 4.00161E-19
 -1      3851 9.56733E-05-2.90040E-05-2.85714E-05-3.05538E-07 2.60097E-19-1.74949E-19
 -1      3852 9.57219E-05-2.90507E-05-2.85732E-05-3.37224E-07-1.80613E-19-3.83577E-20
 -1      3853 9.56918E-05-2.90095E-05-2.85792E-05-2.47476E-07-2.53962E-20-4.83731E-19
 -1      3854 9.53994E-05-2.86866E-05-2.85904E-05-2.02033E-07-2.85794E-19 6.56271E-19
 -1      3855 9.54350E-05-2.87411E-05-2.85835E-05-2.09338E-07-1.37233E-19 7.63834E-19
 -1      3856 9.53164E-05-2.85665E-05-2.86063E-05-2.03019E-07-3.84512E-19 2.70841E-19
 -1      3857 9.53524E-05-2.86261E-05-2.85976E-05-1.99460E-07-2.68717E-19 1.40211E-19
 -1      3858 9.53902E-05-2.86619E-05-2.85981E-05-1.71420E-07-1.58117E-19 9.73233E-19
 -1      3859 9.52271E-05-2.84320E-05-2.86258E-05-2.26045E-07 3.44133E-19-2.62271E-19
 -1      3860 9.52665E-05-2.84993E-05-2.86154E-05-2.10034E-07 1.30097E-19-1.87814E-19
 -1      3861 9.52944E-05-2.85280E-05-2.86141E-05-1.76760E-07 2.46468E-20 1.99323E-19
 -1      3862 9.51237E-05-2.82765E-05-2.86482E-05-2.74494E-07 2.34992E-19-8.17300E-19
 -1      3863 9.51702E-05-2.83548E-05-2.86363E-05-2.44088E-07 2.29919E-19-6.48755E-19
 -1      3864 9.51889E-05-2.83765E-05-2.86335E-05-2.01314E-07 4.54205E-19 1.76299E-19
 -1      3865 9.49974E-05-2.80928E-05-2.86728E-05-3.52581E-07-1.83108E-19-8.47520E-19
 -1      3866 9.50549E-05-2.81857E-05-2.86598E-05-3.05396E-07 1.55760E-19-8.09812E-19
 -1      3867 9.50647E-05-2.82002E-05-2.86554E-05-2.48156E-07 2.09053E-19-5.56304E-19
 -1      3868 9.48380E-05-2.78731E-05-2.86986E-05-4.65460E-07-4.67613E-19-5.34413E-19
 -1      3869 9.49112E-05-2.79842E-05-2.86849E-05-3.98635E-07-7.62239E-19-8.92378E-19
 -1      3870 9.49114E-05-2.79912E-05-2.86788E-05-3.21111E-07-5.56302E-19-1.04590E-18
 -1      3871 9.46343E-05-2.76101E-05-2.87241E-05-6.19261E-07 1.29333E-19-2.88419E-19
 -1      3872 9.47281E-05-2.77428E-05-2.87105E-05-5.29466E-07 2.93708E-19-1.48362E-19
 -1      3873 9.47174E-05-2.77409E-05-2.87023E-05-4.24858E-07-6.80894E-19-5.05908E-19
 -1      3874 9.43741E-05-2.72971E-05-2.87468E-05-8.21046E-07 5.40098E-19-3.82346E-19
 -1      3875 9.44939E-05-2.74542E-05-2.87345E-05-7.04543E-07 3.71085E-19-5.19009E-20
 -1      3876 9.44698E-05-2.74413E-05-2.87239E-05-5.64996E-07 3.27367E-19 5.00137E-19
 -1      3877 9.40449E-05-2.69302E-05-2.87629E-05-1.07871E-06-1.53935E-19-7.99417E-19
 -1      3878 9.41960E-05-2.71130E-05-2.87538E-05-9.31462E-07 1.64490E-19-7.73750E-19
 -1      3879 9.41544E-05-2.70858E-05-2.87402E-05-7.48066E-07 1.70163E-19-1.79707E-19
 -1      3880 9.36342E-05-2.65096E-05-2.87672E-05-1.40089E-06-4.06206E-19-3.41741E-19
 -1      3881 9.38216E-05-2.67170E-05-2.87640E-05-1.21867E-06-4.35708E-19-9.25995E-19
 -1      3882 9.37568E-05-2.66705E-05-2.87468E-05-9.81590E-07-2.31743E-19-2.82918E-19
 -1      3883 9.31317E-05-2.60424E-05-2.87519E-05-1.79689E-06-2.59267E-19 3.43083E-19
 -1      3884 9.33588E-05-2.62693E-05-2.87585E-05-1.57538E-06-2.61744E-19-2.67716E-19
 -1      3885 9.32625E-05-2.61964E-05-2.87371E-05-1.27417E-06-8.19845E-19 1.77138E-19
 -1      3886 9.25307E-05-2.55461E-05-2.87068E-05-2.27699E-06-2.55904E-19 4.01928E-19
 -1      3887 9.27985E-05-2.57817E-05-2.87285E-05-2.01174E-06 6.49568E-20 3.75517E-20
 -1      3888 9.26589E-05-2.56717E-05-2.87020E-05-1.63581E-06-2.41251E-19 9.63787E-20
 -1      3889 9.18322E-05-2.50530E-05-2.86183E-05-2.85330E-06-1.63045E-19 4.27278E-20
 -1      3890 9.21366E-05-2.52782E-05-2.86619E-05-2.53931E-06-6.02926E-19-3.11247E-19
 -1      3891 9.19371E-05-2.51160E-05-2.86296E-05-2.07872E-06 2.15934E-19 9.72913E-20
 -1      3892 9.10487E-05-2.46161E-05-2.84688E-05-3.54196E-06-1.86712E-19-1.28030E-19
 -1      3893 9.13780E-05-2.48004E-05-2.85431E-05-3.17263E-06 1.81289E-19 2.02074E-19
 -1      3894 9.10945E-05-2.45636E-05-2.85038E-05-2.61906E-06-2.97609E-19-3.66972E-19
 -1      3895 9.02115E-05-2.43160E-05-2.82366E-05-4.36741E-06-3.68743E-19-1.02736E-18
 -1      3896 9.05415E-05-2.44132E-05-2.83523E-05-3.93236E-06-2.16045E-19-7.11540E-19
 -1      3897 9.01381E-05-2.40690E-05-2.83046E-05-3.28036E-06 2.91779E-20-8.93058E-19
 -1      3898 8.93796E-05-2.42698E-05-2.78961E-05-5.36998E-06-3.67074E-19 1.06963E-19
 -1      3899 8.96667E-05-2.42131E-05-2.80653E-05-4.85137E-06-4.44645E-19-8.11741E-19
 -1      3900 8.90890E-05-2.37126E-05-2.80067E-05-4.09986E-06-7.64427E-19-1.88330E-18
 -1      3901 8.86551E-05-2.46445E-05-2.74185E-05-6.61824E-06-4.70814E-19 5.15871E-19
 -1      3902 8.88249E-05-2.43376E-05-2.76538E-05-5.98565E-06-3.88105E-19 4.10912E-19
 -1      3903 8.79874E-05-2.36066E-05-2.75794E-05-5.14002E-06-5.62738E-19-1.05646E-19
 -1      3904 8.82120E-05-2.56770E-05-2.67752E-05-8.21969E-06-3.30950E-19 3.76954E-20
 -1      3905 8.81409E-05-2.49833E-05-2.70872E-05-7.42745E-06-2.32859E-19 4.10794E-20
 -1      3906 8.69045E-05-2.39100E-05-2.69861E-05-6.50866E-06-1.34675E-19-7.14825E-20
 -1      3907 8.83264E-05-2.76881E-05-2.59456E-05-1.03156E-05 3.43611E-19-7.72813E-19
 -1      3908 8.78274E-05-2.64290E-05-2.63364E-05-9.30977E-06 2.78753E-19-3.00044E-19
 -1      3909 8.59702E-05-2.48522E-05-2.61865E-05-8.36557E-06 3.68196E-19 5.96787E-19
 -1      3910 9.28413E-05-3.77485E-05-2.34638E-05-1.76642E-05 5.11370E-19-1.81327E-18
 -1      3911 9.00774E-05-3.41421E-05-2.39221E-05-1.60134E-05 1.37117E-19-2.15210E-18
 -1      3912 9.37931E-05-4.06060E-05-2.26160E-05-2.02566E-05 3.21972E-20-2.45727E-18
 -1      3913 9.50813E-05-2.34180E-05-3.07232E-05 1.31364E-07 3.17045E-19-7.80638E-19
 -1      3914 9.50819E-05-2.33991E-05-3.07236E-05-2.32661E-07 1.94254E-19-8.80325E-19
 -1      3915 9.56510E-05-2.45098E-05-3.04700E-05 1.40054E-07 2.81141E-19-7.72429E-19
 -1      3916 9.55849E-05-2.50248E-05-3.02374E-05 1.30590E-06 5.17027E-19-4.28093E-19
 -1      3917 9.54830E-05-2.87975E-05-2.85786E-05-2.20351E-07-1.25394E-19 8.68886E-19
 -1      3918 9.55208E-05-2.88488E-05-2.85740E-05-2.37161E-07 8.66764E-20 8.56554E-19
 -1      3919 9.55829E-05-2.88993E-05-2.85795E-05-2.08840E-07 3.47776E-20 6.16713E-19
 -1      3920 9.63899E-05-2.67367E-05-2.98333E-05 2.52607E-07 2.11156E-19-4.23238E-19
 -1      3921 9.60717E-05-2.58162E-05-3.01245E-05 4.61296E-07 3.01301E-19-3.84971E-19
 -1      3922 9.64238E-05-2.75223E-05-2.95379E-05-7.03895E-08 9.76756E-20-3.71129E-19
 -1      3923 9.63798E-05-2.92693E-05-2.87611E-05-6.24503E-07-7.98581E-20-8.08623E-19
 -1      3924 9.64516E-05-2.92270E-05-2.88088E-05-6.32625E-07-9.07498E-20-7.24443E-19
 -1      3925 9.66076E-05-2.92254E-05-2.88800E-05-5.21060E-07-9.10132E-20-8.36587E-19
 -1      3926 9.66348E-05-2.89173E-05-2.90233E-05-5.89267E-07-4.40113E-20-7.00995E-19
 -1      3927 9.66703E-05-2.87288E-05-2.91149E-05-5.18665E-07 4.63995E-20-6.63398E-19
 -1      3928 9.67300E-05-2.89962E-05-2.90302E-05-4.87641E-07-1.39414E-19-4.59458E-19
 -1      3929 9.62208E-05-2.92901E-05-2.86836E-05-5.76199E-07 3.20558E-19-6.85001E-19
 -1      3930 9.62943E-05-2.92864E-05-2.87164E-05-6.02604E-07 5.76510E-20-5.74173E-19
 -1      3931 9.64485E-05-2.93223E-05-2.87704E-05-5.07578E-07-1.25271E-19-1.49185E-18
 -1      3932 9.60641E-05-2.92551E-05-2.86313E-05-5.09665E-07 2.53552E-19-4.02521E-19
 -1      3933 9.61340E-05-2.92756E-05-2.86527E-05-5.45125E-07 2.59769E-19-4.93663E-19
 -1      3934 9.62774E-05-2.93319E-05-2.86929E-05-4.66385E-07 1.66739E-19-9.35263E-19
 -1      3935 7.13959E-05-2.01292E-05-2.20908E-05 4.98415E-07 2.15013E-18-3.01050E-18
 -1      3936 7.13408E-05-2.03137E-05-2.17490E-05-5.09167E-06 2.68719E-18-1.64042E-18
 -1      3937 7.51758E-05-2.20553E-05-2.27173E-05-7.37500E-06 3.00872E-18-1.01371E-18
 -1      3938 7.39183E-05-2.02989E-05-2.29976E-05 9.80467E-07 2.67930E-18-2.77332E-18
 -1      3939 9.61995E-05-2.61154E-05-3.00320E-05-4.42783E-07-3.28267E-21-8.11734E-19
 -1      3940 9.64051E-05-2.68120E-05-2.98333E-05-1.53533E-07 3.75705E-20-7.40167E-19
 -1      3941 9.65285E-05-2.69698E-05-2.98062E-05-8.61502E-08-6.42149E-20-5.61558E-19
 -1      3942 1.03459E-04-4.82244E-05-2.36417E-05 1.80413E-05 2.23322E-18-6.05490E-18
 -1      3943 9.56762E-05-4.58893E-05-2.13660E-05 2.31862E-05 2.27841E-18 1.26041E-18
 -1      3944 9.50563E-05-2.34153E-05-3.07018E-05-1.25388E-06-6.95150E-20-6.58557E-19
 -1      3945 9.57474E-05-2.50609E-05-3.03024E-05-6.95265E-07-9.97501E-20-7.62070E-19
 -1      3946 9.54842E-05-2.87842E-05-2.85862E-05-1.82815E-07-7.34892E-20 1.48674E-18
 -1      3947 9.49822E-05-2.32385E-05-3.07453E-05-9.42813E-07-5.81909E-20-5.96586E-19
 -1      3948 9.66725E-05-2.84833E-05-2.92282E-05-4.51799E-07-1.57651E-20-7.09129E-19
 -1      3949 9.66738E-05-2.81814E-05-2.93477E-05-3.10106E-07-1.03351E-19-5.71896E-19
 -1      3950 9.67805E-05-2.85745E-05-2.92315E-05-3.81335E-07-2.23115E-20-5.10897E-19
 -1      3951 9.58149E-05-2.91141E-05-2.85874E-05-2.96414E-07-4.37790E-19-4.75179E-19
 -1      3952 9.57880E-05-2.91002E-05-2.85793E-05-3.67342E-07-4.24144E-19-1.46280E-19
 -1      3953 9.58439E-05-2.91427E-05-2.85859E-05-4.03695E-07-3.31992E-19-6.69497E-20
 -1      3954 9.59005E-05-2.52778E-05-3.02618E-05-4.85010E-07-8.84233E-20-5.95355E-19
 -1      3955 9.43776E-05-4.17790E-05-2.24891E-05 2.03166E-05 1.11325E-18 9.01197E-19
 -1      3956 8.95583E-05-3.11991E-05-2.49498E-05-1.30995E-05 3.13474E-19-1.81803E-18
 -1      3957 8.82094E-05-2.90059E-05-2.53836E-05-1.18434E-05 4.76023E-19-9.57318E-19
 -1      3958 8.54060E-05-2.67367E-05-2.51390E-05-1.09600E-05 1.06480E-18 5.25620E-19
 -1      3959 9.60517E-05-2.56489E-05-3.01806E-05 3.10321E-07 2.51083E-19-5.83897E-19
 -1      3960 9.65184E-05-2.74029E-05-2.96252E-05-4.43487E-08 7.47988E-20-4.73721E-19
 -1      3961 9.49799E-05-2.32277E-05-3.07595E-05-6.06509E-07 9.80637E-20-8.23763E-19
 -1      3962 8.16749E-05-2.63160E-05-2.37574E-05-1.20887E-05 1.46398E-18-5.24441E-20
 -1      3963 8.19010E-05-2.82671E-05-2.29552E-05-1.45286E-05 8.52535E-19-6.95728E-19
 -1      3964 9.55352E-05-2.43130E-05-3.05169E-05-4.34959E-07 8.49791E-20-7.35888E-19
 -1      3965 9.59819E-05-2.92216E-05-2.86110E-05-4.75339E-07 2.88770E-19-1.11068E-19
 -1      3966 9.61097E-05-2.92869E-05-2.86402E-05-4.11450E-07 9.33802E-20-4.87108E-19
 -1      3967 9.59185E-05-2.91868E-05-2.85981E-05-4.37251E-07 1.85706E-20-6.56607E-20
 -1      3968 9.64936E-05-2.93685E-05-2.87669E-05-3.85557E-07 6.66847E-20-1.22808E-18
 -1      3969 9.65799E-05-2.93436E-05-2.88137E-05-3.91020E-07-1.41267E-20-1.13280E-18
 -1      3970 9.64676E-05-2.66345E-05-2.99298E-05-1.53023E-07-1.13071E-19-4.43946E-19
 -1      3971 9.66576E-05-2.72560E-05-2.97477E-05 1.65657E-08-2.84558E-20-4.86750E-19
 -1      3972 9.54800E-05-2.87639E-05-2.85919E-05-1.37782E-07-2.32235E-19 9.60613E-19
 -1      3973 9.55279E-05-2.88245E-05-2.85872E-05-1.45266E-07-2.67971E-19 7.87131E-19
 -1      3974 9.69239E-05-2.85439E-05-2.93050E-05 1.84337E-07 3.54419E-19-5.96770E-19
 -1      3975 9.69224E-05-2.88071E-05-2.91922E-05 2.48440E-07 4.40139E-19-6.11977E-19
 -1      3976 9.68930E-05-2.90116E-05-2.90909E-05 2.52469E-07 4.24047E-19-6.15612E-19
 -1      3977 9.68419E-05-2.91611E-05-2.90053E-05 2.84960E-07 3.23388E-19-4.22001E-19
 -1      3978 9.69472E-05-2.88997E-05-2.91663E-05 1.33664E-07 4.40558E-19-6.00190E-19
 -1      3979 9.67718E-05-2.92684E-05-2.89288E-05 2.78437E-07 2.46348E-19-5.79568E-19
 -1      3980 9.66938E-05-2.93387E-05-2.88653E-05 2.88918E-07 2.78622E-19-5.14341E-19
 -1      3981 9.68497E-05-2.92220E-05-2.89873E-05 1.52747E-07 2.35900E-19-7.58412E-19
 -1      3982 9.66032E-05-2.93796E-05-2.88089E-05 2.76293E-07 1.52567E-19-3.00250E-19
 -1      3983 9.65140E-05-2.93969E-05-2.87631E-05 2.72599E-07-4.70306E-21-4.24652E-19
 -1      3984 9.66908E-05-2.93764E-05-2.88534E-05 1.54556E-07 2.68225E-19-5.02025E-19
 -1      3985 9.64167E-05-2.93944E-05-2.87227E-05 2.57056E-07 1.12764E-20-3.47687E-19
 -1      3986 9.63264E-05-2.93779E-05-2.86908E-05 2.45124E-07-9.16904E-20-1.60902E-19
 -1      3987 9.65047E-05-2.94178E-05-2.87558E-05 1.45679E-07 3.37020E-20-4.45103E-19
 -1      3988 9.62310E-05-2.93483E-05-2.86630E-05 2.28875E-07-5.20390E-19-5.95250E-21
 -1      3989 9.61455E-05-2.93113E-05-2.86418E-05 2.13019E-07-8.08161E-19-3.67937E-19
 -1      3990 9.63137E-05-2.93868E-05-2.86869E-05 1.30957E-07-3.02716E-19-6.12008E-19
 -1      3991 9.60569E-05-2.92661E-05-2.86238E-05 1.97535E-07-6.01501E-19-1.03265E-19
 -1      3992 9.59792E-05-2.92176E-05-2.86109E-05 1.80800E-07-9.58978E-20-9.12316E-20
 -1      3993 9.61313E-05-2.93115E-05-2.86405E-05 1.13874E-07-3.78679E-19-5.28927E-19
 -1      3994 9.58994E-05-2.91638E-05-2.86003E-05 1.67021E-07-8.99929E-20-2.29926E-19
 -1      3995 9.58303E-05-2.91092E-05-2.85937E-05 1.51524E-07-4.32819E-19-1.72527E-19
 -1      3996 9.59644E-05-2.92111E-05-2.86115E-05 9.68578E-08-2.52379E-19-2.49181E-19
 -1      3997 9.57594E-05-2.90510E-05-2.85889E-05 1.40039E-07-5.32707E-19-3.51518E-19
 -1      3998 9.56983E-05-2.89930E-05-2.85871E-05 1.27262E-07-5.22504E-19-2.92638E-19
 -1      3999 9.58151E-05-2.90971E-05-2.85958E-05 8.15723E-08-5.31260E-19-2.18057E-19
 -1      4000 9.56349E-05-2.89320E-05-2.85867E-05 1.18452E-07-4.27778E-19-2.64128E-19
 -1      4001 9.55799E-05-2.88715E-05-2.85886E-05 1.09481E-07 5.22579E-20-8.19780E-20
 -1      4002 9.56821E-05-2.89755E-05-2.85904E-05 6.91671E-08-3.77939E-19-4.54351E-19
 -1      4003 9.55215E-05-2.88077E-05-2.85916E-05 1.03637E-07 1.65388E-19 6.69391E-20
 -1      4004 9.54700E-05-2.87437E-05-2.85964E-05 9.93459E-08 1.04493E-20-2.06104E-19
 -1      4005 9.55617E-05-2.88480E-05-2.85928E-05 6.04808E-08 1.33748E-19-4.78791E-19
 -1      4006 9.54133E-05-2.86755E-05-2.86021E-05 9.67470E-08-1.13226E-19-9.04059E-20
 -1      4007 9.53620E-05-2.86061E-05-2.86092E-05 9.79418E-08-4.09257E-19-5.29428E-19
 -1      4008 9.54482E-05-2.87131E-05-2.86014E-05 5.61983E-08 9.31629E-20-7.82973E-19
 -1      4009 9.53028E-05-2.85309E-05-2.86170E-05 9.89234E-08-2.19184E-19-3.50729E-19
 -1      4010 9.52475E-05-2.84529E-05-2.86260E-05 1.06437E-07 2.75275E-19-2.98521E-19
 -1      4011 9.53342E-05-2.85663E-05-2.86147E-05 5.69653E-08-2.55395E-20-2.74184E-19
 -1      4012 9.51811E-05-2.83673E-05-2.86353E-05 1.11428E-07 2.71175E-20-4.43880E-19
 -1      4013 9.51171E-05-2.82770E-05-2.86456E-05 1.26183E-07-4.11431E-19-4.54112E-19
 -1      4014 9.52109E-05-2.84016E-05-2.86317E-05 6.34633E-08-2.96389E-21-5.48518E-19
 -1      4015 9.50378E-05-2.81765E-05-2.86560E-05 1.35724E-07-5.26895E-19-5.15574E-19
 -1      4016 9.49594E-05-2.80695E-05-2.86672E-05 1.58754E-07-3.62704E-19-3.71512E-19
 -1      4017 9.50681E-05-2.82110E-05-2.86514E-05 7.64446E-08-4.60992E-19-5.41641E-19
 -1      4018 9.48608E-05-2.79495E-05-2.86779E-05 1.73496E-07-3.47997E-19-5.74361E-19
 -1      4019 9.47617E-05-2.78210E-05-2.86893E-05 2.05920E-07 8.54923E-20-5.78708E-19
 -1      4020 9.48938E-05-2.79853E-05-2.86723E-05 9.67213E-08-4.47368E-19-7.66014E-19
 -1      4021 9.46363E-05-2.76763E-05-2.86994E-05 2.26590E-07 8.82335E-19-9.81502E-19
 -1      4022 9.45091E-05-2.75212E-05-2.87098E-05 2.69542E-07 5.83359E-19-8.24889E-19
 -1      4023 9.46742E-05-2.77145E-05-2.86929E-05 1.25101E-07-1.09354E-19-8.42381E-19
 -1      4024 9.43485E-05-2.73467E-05-2.87179E-05 2.96873E-07 2.31203E-19-6.21170E-19
 -1      4025 9.41846E-05-2.71602E-05-2.87259E-05 3.51368E-07-3.03735E-20-8.13478E-19
 -1      4026 9.43937E-05-2.73885E-05-2.87108E-05 1.62255E-07 1.94528E-19-1.62277E-18
 -1      4027 9.39795E-05-2.69513E-05-2.87300E-05 3.85988E-07-4.64328E-19-5.98951E-19
 -1      4028 9.37694E-05-2.67292E-05-2.87332E-05 4.52727E-07-2.18461E-19-9.48569E-19
 -1      4029 9.40346E-05-2.69973E-05-2.87225E-05 2.08497E-07 4.93412E-20-1.51494E-18
 -1      4030 9.35095E-05-2.64823E-05-2.87305E-05 4.94993E-07-9.59153E-20-1.16998E-18
 -1      4031 9.32428E-05-2.62219E-05-2.87257E-05 5.74109E-07 2.35488E-19-1.01891E-18
 -1      4032 9.35774E-05-2.65329E-05-2.87231E-05 2.63469E-07 5.03497E-20-8.42343E-19
 -1      4033 9.29169E-05-2.59351E-05-2.87121E-05 6.23896E-07 4.46150E-19-1.06273E-18
 -1      4034 9.25820E-05-2.56357E-05-2.86948E-05 7.14670E-07 9.51049E-19-1.08044E-18
 -1      4035 9.30009E-05-2.59900E-05-2.87056E-05 3.25708E-07 4.44097E-19-5.16294E-19
 -1      4036 9.21786E-05-2.53102E-05-2.86647E-05 7.71139E-07 5.11754E-19-1.90025E-18
 -1      4037 9.17632E-05-2.49746E-05-2.86286E-05 8.71768E-07 2.49369E-19-1.66730E-18
 -1      4038 9.22822E-05-2.53681E-05-2.86604E-05 3.92134E-07 3.12643E-19-7.64554E-19
 -1      4039 9.12701E-05-2.46153E-05-2.85745E-05 9.33155E-07 1.75939E-19-1.81969E-18
 -1      4040 9.07612E-05-2.42508E-05-2.85111E-05 1.04073E-06-3.02858E-19-1.45553E-18
 -1      4041 9.13977E-05-2.46734E-05-2.85744E-05 4.57479E-07-2.48791E-19-1.49084E-18
 -1      4042 9.01653E-05-2.38678E-05-2.84231E-05 1.10429E-06-3.60259E-19-1.08770E-18
 -1      4043 8.95489E-05-2.34873E-05-2.83210E-05 1.21527E-06-5.06610E-19-5.60850E-19
 -1      4044 9.03223E-05-2.39214E-05-2.84299E-05 5.13810E-07-7.17960E-20-2.04139E-18
 -1      4045 8.88350E-05-2.30968E-05-2.81858E-05 1.27752E-06 8.20811E-21 2.10208E-20
 -1      4046 8.80949E-05-2.27194E-05-2.80299E-05 1.38924E-06-2.62244E-19 4.25960E-19
 -1      4047 8.90283E-05-2.31373E-05-2.82037E-05 5.50291E-07 2.79250E-19-1.06208E-18
 -1      4048 8.72424E-05-2.23428E-05-2.78298E-05 1.44685E-06-8.95543E-19 9.82523E-19
 -1      4049 8.63566E-05-2.19935E-05-2.76001E-05 1.56101E-06-4.32668E-19 7.37639E-19
 -1      4050 8.74814E-05-2.23571E-05-2.78648E-05 5.53333E-07 2.78747E-19 2.14387E-19
 -1      4051 8.53317E-05-2.16550E-05-2.73113E-05 1.61323E-06-3.26419E-19 8.09524E-19
 -1      4052 8.42685E-05-2.13637E-05-2.69805E-05 1.74294E-06-7.62694E-19 3.78212E-19
 -1      4053 8.56306E-05-2.16230E-05-2.73720E-05 5.06911E-07-4.89868E-19 3.52343E-19
 -1      4054 8.30072E-05-2.10844E-05-2.65692E-05 1.80350E-06-1.39922E-18 5.77595E-19
 -1      4055 8.16909E-05-2.08913E-05-2.60953E-05 1.98857E-06-8.43832E-19 3.31670E-19
 -1      4056 8.33801E-05-2.09736E-05-2.66681E-05 3.93421E-07-9.50763E-19 4.09873E-19
 -1      4057 9.57001E-05-2.90023E-05-2.85837E-05-1.81889E-07-1.38837E-19-1.94589E-19
 -1      4058 9.57582E-05-2.90574E-05-2.85857E-05-2.00157E-07-4.01621E-19-6.10864E-19
 -1      4059 9.52719E-05-2.84896E-05-2.86206E-05-1.40904E-07-5.32357E-20 1.61516E-19
 -1      4060 9.53219E-05-2.85624E-05-2.86117E-05-1.33357E-07 2.13755E-19 5.16071E-19
 -1      4061 9.53780E-05-2.86335E-05-2.86042E-05-1.32614E-07 3.54595E-19 2.74084E-19
 -1      4062 9.54251E-05-2.86988E-05-2.85972E-05-1.33128E-07 2.09788E-19 9.83898E-19
 -1      4063 9.54642E-05-2.87384E-05-2.85977E-05-9.72207E-08 1.27172E-19 6.80831E-20
 -1      4064 9.53548E-05-2.85978E-05-2.86104E-05-9.53038E-08 4.76073E-19-1.13290E-19
 -1      4065 9.50111E-05-2.81337E-05-2.86617E-05-2.06556E-07 1.47537E-19 1.47169E-19
 -1      4066 9.50804E-05-2.82320E-05-2.86504E-05-1.78798E-07 3.77690E-19 3.47291E-19
 -1      4067 9.48348E-05-2.79050E-05-2.86844E-05-2.69684E-07-5.78889E-19 2.88996E-20
 -1      4068 9.49217E-05-2.80224E-05-2.86726E-05-2.29192E-07 1.02094E-19 4.69221E-19
 -1      4069 9.49452E-05-2.80493E-05-2.86675E-05-1.54978E-07-1.62153E-19 1.22447E-18
 -1      4070 9.46110E-05-2.76307E-05-2.87063E-05-3.58027E-07-6.22986E-19 6.98272E-20
 -1      4071 9.47217E-05-2.77714E-05-2.86950E-05-3.02595E-07-8.96997E-19-5.44457E-20
 -1      4072 9.47443E-05-2.77963E-05-2.86887E-05-2.03437E-07-5.96925E-19 8.15003E-19
 -1      4073 9.43253E-05-2.73022E-05-2.87248E-05-4.76352E-07 1.02856E-19 7.45016E-19
 -1      4074 9.44666E-05-2.74704E-05-2.87154E-05-4.03412E-07-1.95391E-19 2.86352E-19
 -1      4075 9.44889E-05-2.74925E-05-2.87080E-05-2.70963E-07-5.01314E-19 2.82719E-19
 -1      4076 9.39620E-05-2.69127E-05-2.87363E-05-6.30326E-07 4.46475E-19 3.51588E-19
 -1      4077 9.41412E-05-2.71112E-05-2.87306E-05-5.36951E-07 4.05077E-19 4.86890E-19
 -1      4078 9.41630E-05-2.71293E-05-2.87223E-05-3.61528E-07 4.39207E-19 5.17808E-19
 -1      4079 9.35048E-05-2.64582E-05-2.87355E-05-8.26652E-07-1.99580E-19 4.36439E-19
 -1      4080 9.37291E-05-2.66883E-05-2.87363E-05-7.09538E-07 5.11926E-19 3.88329E-19
 -1      4081 9.37493E-05-2.66996E-05-2.87271E-05-4.80065E-07 8.92264E-19 3.54614E-19
 -1      4082 9.29374E-05-2.59399E-05-2.87147E-05-1.07332E-06-6.75797E-19-3.83378E-19
 -1      4083 9.32138E-05-2.62000E-05-2.87259E-05-9.28707E-07-4.79120E-19 3.07756E-19
 -1      4084 9.32299E-05-2.61996E-05-2.87162E-05-6.32743E-07-5.20815E-20-1.01496E-19
 -1      4085 9.22451E-05-2.53669E-05-2.86637E-05-1.38017E-06 1.87318E-19-7.35310E-19
 -1      4086 9.25791E-05-2.56509E-05-2.86907E-05-1.20359E-06-3.44413E-19-6.60302E-19
 -1      4087 9.25864E-05-2.56313E-05-2.86809E-05-8.27431E-07-2.42390E-19-1.23193E-18
 -1      4088 9.14163E-05-2.47592E-05-2.85690E-05-1.75994E-06 4.64850E-19-9.30477E-19
 -1      4089 9.18109E-05-2.50549E-05-2.86188E-05-1.54568E-06 8.19191E-19-4.13255E-19
 -1      4090 9.18015E-05-2.50042E-05-2.86096E-05-1.07451E-06 3.51536E-19-1.71896E-18
 -1      4091 9.04446E-05-2.41516E-05-2.84127E-05-2.23044E-06 1.23048E-19-1.43060E-18
 -1      4092 9.08989E-05-2.44387E-05-2.84944E-05-1.97035E-06-3.47332E-19-9.19646E-19
 -1      4093 9.08601E-05-2.43388E-05-2.84867E-05-1.38830E-06 2.52868E-19-1.28165E-18
 -1      4094 8.93311E-05-2.35977E-05-2.81721E-05-2.81834E-06-7.50954E-20-1.41711E-18
 -1      4095 8.98381E-05-2.38453E-05-2.82972E-05-2.49969E-06 3.43372E-19-1.70832E-18
 -1      4096 8.97496E-05-2.36695E-05-2.82918E-05-1.78956E-06 1.70080E-19-2.40714E-18
 -1      4097 8.80859E-05-2.31737E-05-2.78184E-05-3.56599E-06-8.19379E-19-2.03957E-18
 -1      4098 8.86306E-05-2.33385E-05-2.80012E-05-3.16749E-06-7.43278E-19-1.90900E-18
 -1      4099 8.84607E-05-2.30464E-05-2.79990E-05-2.30971E-06-2.58209E-20-2.07939E-18
 -1      4100 8.67287E-05-2.29817E-05-2.73157E-05-4.54325E-06-4.21092E-19-2.37892E-18
 -1      4101 8.72852E-05-2.30049E-05-2.75737E-05-4.02787E-06-3.48866E-19-2.58912E-18
 -1      4102 8.69849E-05-2.25372E-05-2.75746E-05-2.99765E-06-4.50041E-19-4.16787E-18
 -1      4103 8.52961E-05-2.31549E-05-2.66195E-05-5.86962E-06-2.18154E-19-1.60350E-18
 -1      4104 8.58132E-05-2.29545E-05-2.69735E-05-5.17248E-06-3.94725E-19-1.58598E-18
 -1      4105 8.53063E-05-2.22246E-05-2.69752E-05-3.93025E-06-7.25488E-19-4.48562E-18
 -1      4106 8.38516E-05-2.39085E-05-2.56706E-05-7.77191E-06 1.35748E-19-5.03755E-19
 -1      4107 8.42422E-05-2.33491E-05-2.61471E-05-6.78165E-06-2.29056E-19-7.98181E-19
 -1      4108 8.33593E-05-2.21950E-05-2.61423E-05-5.24151E-06-9.49806E-19-3.83637E-18
 -1      4109 8.53207E-05-3.06504E-05-2.34900E-05-1.54062E-05 2.38775E-19-1.38355E-18
 -1      4110 9.64116E-05-2.64525E-05-2.99704E-05 1.38808E-07 2.82614E-19-5.83559E-19
 -1      4111 9.60476E-05-2.55311E-05-3.02308E-05 2.07290E-07 3.53949E-19-6.98732E-19
 -1      4112 8.26164E-05-2.54151E-05-2.44796E-05-1.04121E-05 7.76578E-19 1.10310E-18
 -1      4113 8.27550E-05-2.43360E-05-2.50970E-05-8.92254E-06 8.43103E-19 6.83952E-19
 -1      4114 8.13512E-05-2.27056E-05-2.50735E-05-7.18694E-06-1.95233E-19-1.22258E-18
 -1      4115 7.91035E-05-2.36455E-05-2.37026E-05-9.79505E-06 1.94422E-18-3.80751E-20
 -1      4116 9.60424E-05-2.54977E-05-3.02428E-05 1.11254E-08 2.80753E-19-6.52425E-19
 -1      4117 9.51530E-05-2.83256E-05-2.86401E-05-1.64698E-07 5.94011E-19-1.02022E-19
 -1      4118 9.52102E-05-2.84092E-05-2.86297E-05-1.47815E-07 1.21935E-19 3.91787E-20
 -1      4119 9.52385E-05-2.84412E-05-2.86270E-05-1.03174E-07 9.46295E-20-5.48733E-19
 -1      4120 9.51056E-05-2.82612E-05-2.86464E-05-1.22401E-07 1.54983E-19-1.62913E-19
 -1      4121 9.68058E-05-2.77815E-05-2.95815E-05 6.03408E-08-1.49701E-20-4.73877E-19
 -1      4122 9.68852E-05-2.82040E-05-2.94361E-05 1.64894E-07 8.18894E-20-4.88477E-19
 -1      4123 9.67461E-05-2.74467E-05-2.96973E-05 1.51813E-08 1.48766E-20-1.58311E-19
 -1      4124 9.66341E-05-2.75297E-05-2.96177E-05-6.25126E-08 1.11529E-19-5.42930E-19
 -1      4125 9.63127E-05-2.93612E-05-2.86922E-05-3.49381E-07 7.64506E-20-1.19798E-18
 -1      4126 9.63999E-05-2.93719E-05-2.87248E-05-3.65973E-07-7.92920E-21-1.31129E-18
 -1      4127 9.65076E-05-2.94010E-05-2.87646E-05-2.65372E-07-1.69747E-20-1.28248E-18
 -1      4128 9.68005E-05-2.90956E-05-2.90169E-05-3.91125E-07-2.44808E-19-6.13524E-19
 -1      4129 9.68507E-05-2.89333E-05-2.91048E-05-3.47784E-07-1.02255E-19-6.60550E-19
 -1      4130 9.60130E-05-2.54690E-05-3.02373E-05-2.06540E-07 6.30330E-21-5.99358E-19
 -1      4131 9.66643E-05-2.92944E-05-2.88724E-05-4.03969E-07 6.37748E-20-9.87133E-19
 -1      4132 9.67402E-05-2.92143E-05-2.89374E-05-3.90330E-07 4.44403E-22-7.65317E-19
 -1      4133 9.66874E-05-2.93425E-05-2.88668E-05-2.79137E-07 2.12380E-19-8.27373E-19
 -1      4134 9.55853E-05-2.88858E-05-2.85846E-05-1.54722E-07-3.07419E-19 6.74264E-19
 -1      4135 9.56371E-05-2.89434E-05-2.85828E-05-1.68152E-07 4.45338E-20 2.04330E-19
 -1      4136 9.55748E-05-2.88687E-05-2.85899E-05-1.07647E-07-2.28169E-19 3.89451E-20
 -1      4137 9.61553E-05-2.57725E-05-3.01631E-05-8.01089E-08 1.03847E-19-4.76079E-19
 -1      4138 9.65063E-05-2.66278E-05-2.99431E-05 1.54077E-08 1.96212E-19-4.12070E-19
 -1      4139 9.58255E-05-2.91101E-05-2.85951E-05-1.49406E-07-6.17960E-19-8.28457E-19
 -1      4140 9.58290E-05-2.91135E-05-2.85911E-05-2.17612E-07-4.30431E-19-8.73270E-19
 -1      4141 9.58950E-05-2.91651E-05-2.85980E-05-2.39325E-07-4.27010E-19-9.80267E-19
 -1      4142 8.08798E-05-2.05196E-05-2.57851E-05 4.43512E-08-1.54239E-18 1.83823E-18
 -1      4143 8.04309E-05-2.06860E-05-2.56325E-05 1.90991E-06-4.25923E-19-8.28059E-19
 -1      4144 7.90296E-05-2.05880E-05-2.50938E-05 2.02497E-06 1.01545E-18-1.30775E-18
 -1      4145 9.56935E-05-2.89923E-05-2.85884E-05-1.25442E-07-3.26170E-19 6.81877E-20
 -1      4146 9.69360E-05-2.83387E-05-2.94000E-05 8.86105E-08 8.58450E-20-3.82961E-19
 -1      4147 9.68649E-05-2.87140E-05-2.92100E-05-3.29693E-07-1.19826E-19-6.15644E-19
 -1      4148 9.68711E-05-2.84388E-05-2.93265E-05-2.37115E-07-7.43155E-20-6.93593E-19
 -1      4149 9.69193E-05-2.88084E-05-2.91933E-05-2.31373E-07-1.11774E-19-7.00749E-19
 -1      4150 7.63523E-05-2.15856E-05-2.35459E-05-6.07609E-06 1.84305E-18-6.78880E-19
 -1      4151 9.66358E-05-2.71660E-05-2.97743E-05 5.76113E-08 1.65500E-19-6.75860E-19
 -1      4152 9.66137E-05-2.70167E-05-2.98251E-05 2.96531E-08 2.26609E-19-6.12821E-19
 -1      4153 9.67245E-05-2.72972E-05-2.97565E-05-2.58272E-08 8.87952E-20-4.69168E-19
 -1      4154 9.68122E-05-2.79994E-05-2.94926E-05-1.72051E-07 4.44823E-20-7.03235E-19
 -1      4155 1.06158E-04-4.96065E-05-2.41470E-05 1.67310E-05 2.32538E-18-4.78089E-18
 -1      4156 9.59543E-05-2.92094E-05-2.86065E-05-3.52569E-07-9.73200E-20-4.16551E-19
 -1      4157 7.75187E-05-2.04658E-05-2.44953E-05 1.54373E-06 1.59473E-18-2.47635E-18
 -1      4158 7.56702E-05-2.03657E-05-2.37753E-05 1.64379E-06 1.68697E-18-3.48065E-18
 -1      4159 7.49382E-05-2.00837E-05-2.34097E-05-2.43894E-06 1.43300E-18-2.03087E-18
 -1      4160 7.82155E-05-2.03251E-05-2.47497E-05-9.27287E-07-5.51776E-19-8.12209E-20
 -1      4161 9.62192E-05-2.93360E-05-2.86631E-05-3.27126E-07 1.08473E-19-1.03509E-18
 -1      4162 9.63203E-05-2.93817E-05-2.86923E-05-2.39869E-07-2.58723E-20-1.57591E-18
 -1      4163 9.61369E-05-2.93035E-05-2.86415E-05-3.05186E-07 1.31075E-19-1.00314E-18
 -1      4164 9.68363E-05-2.91641E-05-2.90066E-05-2.71961E-07-4.24002E-21-7.94529E-19
 -1      4165 9.69712E-05-2.88692E-05-2.91857E-05-5.83787E-08 1.12654E-19-7.07652E-19
 -1      4166 9.69397E-05-2.90673E-05-2.90847E-05-4.35190E-08 2.06216E-19-8.76932E-19
 -1      4167 9.59745E-05-2.92164E-05-2.86093E-05-2.59737E-07-3.05418E-19-8.61174E-19
 -1      4168 9.60491E-05-2.92614E-05-2.86225E-05-2.82964E-07-7.01413E-20-8.73870E-19
 -1      4169 9.61399E-05-2.93146E-05-2.86433E-05-2.09230E-07 3.63088E-20-1.18277E-18
 -1      4170 9.59740E-05-2.92199E-05-2.86123E-05-1.78039E-07-3.75629E-19-1.12200E-18
 -1      4171 9.68822E-05-2.92055E-05-2.90022E-05-5.95610E-08 1.66090E-19-9.57714E-19
 -1      4172 9.68099E-05-2.93084E-05-2.89257E-05-5.21530E-08 1.17584E-19-9.31031E-19
 -1      4173 9.67265E-05-2.93696E-05-2.88645E-05-5.64136E-08 2.54543E-19-8.89375E-19
 -1      4174 9.66339E-05-2.94075E-05-2.88081E-05-5.39311E-08 2.74464E-19-9.41535E-19
 -1      4175 9.65401E-05-2.94176E-05-2.87638E-05-5.07806E-08 5.97597E-20-1.04912E-18
 -1      4176 9.64411E-05-2.94130E-05-2.87234E-05-5.14395E-08-1.90138E-19-8.50559E-19
 -1      4177 9.63467E-05-2.93907E-05-2.86926E-05-4.40920E-08-1.29294E-19-7.98085E-19
 -1      4178 9.62499E-05-2.93597E-05-2.86647E-05-4.65471E-08-3.10518E-20-7.06894E-19
 -1      4179 9.61609E-05-2.93181E-05-2.86443E-05-3.73195E-08-2.61225E-19-6.57479E-19
 -1      4180 9.60711E-05-2.92718E-05-2.86261E-05-4.05832E-08-1.50454E-19-4.04789E-19
 -1      4181 9.59902E-05-2.92195E-05-2.86138E-05-3.11069E-08-4.72700E-19-4.74580E-19
 -1      4182 9.59094E-05-2.91647E-05-2.86031E-05-3.44698E-08-4.87245E-19-4.05476E-19
 -1      4183 9.58373E-05-2.91068E-05-2.85969E-05-2.58819E-08-5.08877E-19-4.38027E-19
 -1      4184 9.57654E-05-2.90476E-05-2.85920E-05-2.88377E-08-6.64843E-19-4.80625E-19
 -1      4185 9.57011E-05-2.89865E-05-2.85905E-05-2.19441E-08-4.95497E-19-2.91744E-19
 -1      4186 9.56367E-05-2.89243E-05-2.85900E-05-2.41252E-08-1.01369E-19-4.55908E-19
 -1      4187 9.55780E-05-2.88605E-05-2.85922E-05-1.95350E-08-5.24789E-21-5.47149E-19
 -1      4188 9.55186E-05-2.87951E-05-2.85951E-05-2.06614E-08 1.86202E-19-5.71710E-19
 -1      4189 9.54626E-05-2.87277E-05-2.86001E-05-1.88934E-08 3.47120E-19-8.71443E-19
 -1      4190 9.54048E-05-2.86573E-05-2.86058E-05-1.87356E-08 1.39227E-19-4.90501E-19
 -1      4191 9.53476E-05-2.85839E-05-2.86130E-05-2.03049E-08 2.17261E-19-4.08720E-19
 -1      4192 9.52871E-05-2.85058E-05-2.86207E-05-1.86606E-08 3.97523E-19-3.10692E-19
 -1      4193 9.52243E-05-2.84232E-05-2.86296E-05-2.41481E-08 8.21017E-20-2.38400E-19
 -1      4194 9.51563E-05-2.83337E-05-2.86388E-05-2.08340E-08-2.62403E-19-5.70150E-19
 -1      4195 9.50825E-05-2.82379E-05-2.86489E-05-3.09446E-08-3.94178E-19-4.83549E-21
 -1      4196 9.50011E-05-2.81326E-05-2.86590E-05-2.58052E-08-2.52429E-19 1.48275E-19
 -1      4197 9.49103E-05-2.80191E-05-2.86696E-05-4.14207E-08-6.99488E-19 6.55881E-19
 -1      4198 9.48090E-05-2.78931E-05-2.86800E-05-3.43585E-08-6.96570E-19 5.32340E-20
 -1      4199 9.46942E-05-2.77571E-05-2.86902E-05-5.65901E-08-5.83931E-19 2.48415E-21
 -1      4200 9.45655E-05-2.76054E-05-2.86998E-05-4.76232E-08-5.29971E-19-5.30507E-19
 -1      4201 9.44189E-05-2.74421E-05-2.87083E-05-7.78705E-08-2.70450E-19-3.94569E-19
 -1      4202 9.42542E-05-2.72595E-05-2.87157E-05-6.72251E-08 9.48696E-20-6.32449E-19
 -1      4203 9.40672E-05-2.70646E-05-2.87207E-05-1.07255E-07 8.23068E-19-7.18307E-19
 -1      4204 9.38571E-05-2.68468E-05-2.87237E-05-9.55017E-08 7.26930E-19-2.72623E-19
 -1      4205 9.36203E-05-2.66171E-05-2.87226E-05-1.47562E-07 6.57729E-19-4.80353E-19
 -1      4206 9.33543E-05-2.63609E-05-2.87182E-05-1.35806E-07 7.95877E-19-1.28724E-19
 -1      4207 9.30582E-05-2.60951E-05-2.87073E-05-2.02810E-07 1.20177E-19-4.47414E-19
 -1      4208 9.27251E-05-2.57992E-05-2.86914E-05-1.92935E-07 1.44152E-20-7.09480E-19
 -1      4209 9.23597E-05-2.54991E-05-2.86657E-05-2.78762E-07 2.80141E-19-9.84496E-19
 -1      4210 9.19478E-05-2.51657E-05-2.86326E-05-2.73732E-07 2.00777E-19-1.57933E-18
 -1      4211 9.15037E-05-2.48373E-05-2.85852E-05-3.83737E-07-8.35829E-20-1.35003E-18
 -1      4212 9.10005E-05-2.44727E-05-2.85272E-05-3.87931E-07-1.95815E-19-1.32900E-18
 -1      4213 9.04691E-05-2.41277E-05-2.84494E-05-5.29801E-07 6.92598E-20-1.49423E-18
 -1      4214 8.98612E-05-2.37434E-05-2.83562E-05-5.49365E-07-1.99249E-20-1.44549E-18
 -1      4215 8.92346E-05-2.34005E-05-2.82363E-05-7.34552E-07 8.13522E-20-1.37158E-18
 -1      4216 8.85061E-05-2.30139E-05-2.80945E-05-7.77762E-07 6.09750E-19-1.11449E-18
 -1      4217 8.77760E-05-2.26994E-05-2.79173E-05-1.02378E-06 7.25112E-19-1.83860E-18
 -1      4218 8.69054E-05-2.23330E-05-2.77091E-05-1.10160E-06 1.00747E-19-1.46139E-18
 -1      4219 8.60617E-05-2.20811E-05-2.74553E-05-1.43536E-06-4.75405E-19-1.48005E-18
 -1      4220 8.50159E-05-2.17605E-05-2.71566E-05-1.56312E-06-7.53196E-19-1.47016E-18
 -1      4221 8.40437E-05-2.16102E-05-2.68009E-05-2.02391E-06-9.82787E-19-1.64199E-18
 -1      4222 8.27712E-05-2.13580E-05-2.63790E-05-2.22693E-06-1.27342E-18-1.80225E-18
 -1      4223 9.68672E-05-2.78210E-05-2.95909E-05 1.80850E-08-8.74043E-21-5.27762E-19
 -1      4224 8.16221E-05-2.12985E-05-2.58842E-05-2.83472E-06-1.28638E-18-1.25008E-18
 -1      4225 7.80951E-05-2.14676E-05-2.42655E-05-4.94426E-06 3.37407E-19-9.29815E-19
 -1      4226 7.91298E-05-2.11633E-05-2.48849E-05-4.04089E-06-1.05505E-18-1.61866E-18
 -1      4227 9.69799E-05-2.86194E-05-2.92943E-05-2.48212E-08-1.58921E-20-6.01960E-19
 -1      4228 9.69428E-05-2.82886E-05-2.94236E-05-5.21482E-08-1.28060E-19-5.20201E-19
 -1      4229 9.68800E-05-2.81236E-05-2.94662E-05-1.14436E-07-6.46887E-20-7.18854E-19
 -1      4230 8.04832E-05-2.12513E-05-2.54314E-05-3.26612E-06-1.27032E-18-6.91118E-19
 -1      4231 1.12296E-04-5.28951E-05-2.52113E-05 1.39588E-05 1.30131E-18-2.43956E-18
 -3
    1PSTEP                         4           1           1          
  100CL  101 1.000000000        4231                     0    1           1
 -4  ERROR       1    1
 -5  STR(%)      1    1    0    0
 -1         1 1.30052E+01
 -1         2 3.17154E+01
 -1         3 7.22417E-01
 -1         4 1.37842E+00
 -1         5 1.40386E+01
 -1         6 1.31425E+01
 -1         7 1.31425E+01
 -1         8 3.66372E+00
 -1         9 1.82709E+00
 -1        10 1.29039E+00
 -1        11 1.04389E+00
 -1        12 9.00002E-01
 -1        13 8.08770E-01
 -1        14 7.53603E-01
 -1        15 7.55585E-01
 -1        16 8.13022E-01
 -1        17 9.00805E-01
 -1        18 1.05307E+00
 -1        19 1.30667E+00
 -1        20 1.83173E+00
 -1        21 3.50862E+00
 -1        22 8.64107E+00
 -1        23 1.31425E+01
 -1        24 4.31753E+00
 -1        25 3.34030E+00
 -1        26 2.11043E+00
 -1        27 1.36148E+00
 -1        28 1.01365E+00
 -1        29 7.74592E-01
 -1        30 5.94573E-01
 -1        31 4.53996E-01
 -1        32 3.45956E-01
 -1        33 2.66528E-01
 -1        34 2.02411E-01
 -1        35 1.51508E-01
 -1        36 1.11801E-01
 -1        37 8.14503E-02
 -1        38 6.33387E-02
 -1        39 4.87785E-02
 -1        40 3.67639E-02
 -1        41 2.72545E-02
 -1        42 2.37113E-02
 -1        43 2.49324E-02
 -1        44 3.25764E-02
 -1        45 4.26832E-02
 -1        46 5.51227E-02
 -1        47 6.96857E-02
 -1        48 8.59742E-02
 -1        49 1.13023E-01
 -1        50 1.54902E-01
 -1        51 2.07756E-01
 -1        52 2.72644E-01
 -1        53 3.49745E-01
 -1        54 4.37529E-01
 -1        55 5.31482E-01
 -1        56 6.74746E-01
 -1        57 8.80126E-01
 -1        58 1.10877E+00
 -1        59 1.41381E+00
 -1        60 1.70056E+00
 -1        61 1.87148E+00
 -1        62 2.10294E+00
 -1        63 2.30931E+00
 -1        64 2.97017E+00
 -1        65 4.30942E+00
 -1        66 8.49128E+00
 -1        67 1.16991E+01
 -1        68 1.16991E+01
 -1        69 1.13242E+01
 -1        70 9.86749E+00
 -1        71 5.51895E+00
 -1        72 1.40386E+01
 -1        73 3.39571E+00
 -1        74 2.41338E+00
 -1        75 1.66447E+00
 -1        76 1.14411E+00
 -1        77 9.06479E-01
 -1        78 7.31580E-01
 -1        79 5.87797E-01
 -1        80 4.67967E-01
 -1        81 3.68066E-01
 -1        82 2.93273E-01
 -1        83 2.30774E-01
 -1        84 1.78796E-01
 -1        85 1.36476E-01
 -1        86 1.02749E-01
 -1        87 7.65082E-02
 -1        88 5.67083E-02
 -1        89 4.24236E-02
 -1        90 3.28802E-02
 -1        91 2.74688E-02
 -1        92 2.87493E-02
 -1        93 3.67270E-02
 -1        94 4.83738E-02
 -1        95 6.38148E-02
 -1        96 8.31446E-02
 -1        97 1.06304E-01
 -1        98 1.32904E-01
 -1        99 1.61985E-01
 -1       100 1.98059E-01
 -1       101 2.54763E-01
 -1       102 3.18703E-01
 -1       103 3.86250E-01
 -1       104 4.50538E-01
 -1       105 5.00141E-01
 -1       106 5.17677E-01
 -1       107 6.73581E-01
 -1       108 8.80237E-01
 -1       109 1.07007E+00
 -1       110 1.32064E+00
 -1       111 1.76818E+00
 -1       112 2.03444E+00
 -1       113 2.50964E+00
 -1       114 3.20570E+00
 -1       115 4.51571E+00
 -1       116 5.83734E+00
 -1       117 6.36117E+00
 -1       118 6.36117E+00
 -1       119 5.67096E+00
 -1       120 3.20649E+00
 -1       121 1.74023E+00
 -1       122 9.40702E-01
 -1       123 6.47405E-01
 -1       124 2.06028E+00
 -1       125 5.37085E+00
 -1       126 1.04753E+01
 -1       127 1.57024E+01
 -1       128 1.57024E+01
 -1       129 1.95294E+01
 -1       130 2.16220E+01
 -1       131 2.16220E+01
 -1       132 1.58530E+01
 -1       133 1.41004E+01
 -1       134 1.67013E+01
 -1       135 1.67013E+01
 -1       136 1.57750E+00
 -1       137 1.41840E+00
 -1       138 3.20554E+00
 -1       139 3.17154E+01
 -1       140 2.94990E+01
 -1       141 2.63026E+01
 -1       142 1.28524E+01
 -1       143 1.28524E+01
 -1       144 1.20898E+01
 -1       145 1.25484E+01
 -1       146 1.29705E+01
 -1       147 1.29705E+01
 -1       148 1.64984E+01
 -1       149 4.35854E+01
 -1       150 4.35854E+01
 -1       151 2.39087E+01
 -1       152 2.39087E+01
 -1       153 2.28064E+01
 -1       154 2.28064E+01
 -1       155 4.49968E+01
 -1       156 4.49968E+01
 -1       157 1.74872E+01
 -1       158 1.21576E+01
 -1       159 1.30052E+01
 -1       160 1.25405E+01
 -1       161 1.28586E+01
 -1       162 1.28586E+01
 -1       163 2.50117E+01
 -1       164 3.15997E+01
 -1       165 3.15997E+01
 -1       166 6.07775E+00
 -1       167 2.30101E+00
 -1       168 1.50617E+00
 -1       169 1.15846E+00
 -1       170 9.72130E-01
 -1       171 8.64335E-01
 -1       172 7.95850E-01
 -1       173 7.55585E-01
 -1       174 7.99261E-01
 -1       175 8.67071E-01
 -1       176 9.81105E-01
 -1       177 1.17188E+00
 -1       178 1.52755E+00
 -1       179 2.25940E+00
 -1       180 3.93323E+00
 -1       181 1.40386E+01
 -1       182 4.31753E+00
 -1       183 3.34030E+00
 -1       184 2.11043E+00
 -1       185 1.44628E+00
 -1       186 1.02439E+00
 -1       187 7.74592E-01
 -1       188 5.94573E-01
 -1       189 4.66687E-01
 -1       190 3.66196E-01
 -1       191 2.87730E-01
 -1       192 2.30449E-01
 -1       193 1.81668E-01
 -1       194 1.41206E-01
 -1       195 1.08430E-01
 -1       196 8.24993E-02
 -1       197 6.25119E-02
 -1       198 4.75861E-02
 -1       199 3.69065E-02
 -1       200 2.97423E-02
 -1       201 2.54463E-02
 -1       202 2.69417E-02
 -1       203 3.25764E-02
 -1       204 4.26832E-02
 -1       205 5.51227E-02
 -1       206 6.96857E-02
 -1       207 9.13296E-02
 -1       208 1.23137E-01
 -1       209 1.63046E-01
 -1       210 2.11771E-01
 -1       211 2.73329E-01
 -1       212 3.76843E-01
 -1       213 5.04294E-01
 -1       214 6.54233E-01
 -1       215 8.19568E-01
 -1       216 9.83762E-01
 -1       217 1.16109E+00
 -1       218 1.41381E+00
 -1       219 1.70056E+00
 -1       220 1.87148E+00
 -1       221 2.10294E+00
 -1       222 2.30931E+00
 -1       223 2.97017E+00
 -1       224 5.20478E+00
 -1       225 8.49128E+00
 -1       226 1.16991E+01
 -1       227 1.13242E+01
 -1       228 9.86749E+00
 -1       229 5.51895E+00
 -1       230 3.39571E+00
 -1       231 2.41338E+00
 -1       232 1.66447E+00
 -1       233 1.14411E+00
 -1       234 9.06479E-01
 -1       235 7.31580E-01
 -1       236 5.87797E-01
 -1       237 4.67967E-01
 -1       238 3.68066E-01
 -1       239 2.93273E-01
 -1       240 2.30774E-01
 -1       241 1.81641E-01
 -1       242 1.41462E-01
 -1       243 1.08718E-01
 -1       244 8.26834E-02
 -1       245 6.25652E-02
 -1       246 4.75967E-02
 -1       247 3.70873E-02
 -1       248 3.04503E-02
 -1       249 2.87330E-02
 -1       250 3.43022E-02
 -1       251 4.29022E-02
 -1       252 5.44668E-02
 -1       253 6.88772E-02
 -1       254 8.58571E-02
 -1       255 1.06304E-01
 -1       256 1.35961E-01
 -1       257 1.76289E-01
 -1       258 2.23096E-01
 -1       259 2.74793E-01
 -1       260 3.28082E-01
 -1       261 3.86250E-01
 -1       262 4.50538E-01
 -1       263 5.00141E-01
 -1       264 5.93897E-01
 -1       265 7.36405E-01
 -1       266 8.80237E-01
 -1       267 1.07007E+00
 -1       268 1.32064E+00
 -1       269 1.76818E+00
 -1       270 2.03444E+00
 -1       271 2.50964E+00
 -1       272 3.20570E+00
 -1       273 4.51571E+00
 -1       274 5.83734E+00
 -1       275 6.36117E+00
 -1       276 5.67096E+00
 -1       277 3.20649E+00
 -1       278 9.40702E-01
 -1       279 9.70454E-01
 -1       280 2.37679E+00
 -1       281 5.00822E+00
 -1       282 7.87204E+00
 -1       283 1.04753E+01
 -1       284 1.55105E+01
 -1       285 2.77607E+01
 -1       286 3.49377E+01
 -1       287 3.13076E+01
 -1       288 1.46974E+01
 -1       289 1.16286E+01
 -1       290 1.67013E+01
 -1       291 4.78390E+00
 -1       292 2.15866E+00
 -1       293 2.49525E+00
 -1       294 3.49377E+01
 -1       295 2.94990E+01
 -1       296 2.83810E+01
 -1       297 1.21325E+01
 -1       298 1.33667E+01
 -1       299 1.33667E+01
 -1       300 1.33158E+01
 -1       301 1.25484E+01
 -1       302 1.29705E+01
 -1       303 1.11813E+01
 -1       304 1.79945E+01
 -1       305 4.35854E+01
 -1       306 3.76283E+01
 -1       307 2.54591E+01
 -1       308 2.54591E+01
 -1       309 2.50743E+01
 -1       310 2.66202E+01
 -1       311 4.49968E+01
 -1       312 1.85894E+01
 -1       313 1.14388E+01
 -1       314 1.21576E+01
 -1       315 1.30052E+01
 -1       316 1.26194E+01
 -1       317 1.26902E+01
 -1       318 1.28586E+01
 -1       319 1.16517E+01
 -1       320 2.71407E+01
 -1       321 3.15997E+01
 -1       322 3.49377E+01
 -1       323 1.57024E+01
 -1       324 1.07085E+00
 -1       325 2.47945E+00
 -1       326 7.89063E-01
 -1       327 6.95162E-01
 -1       328 6.31900E-01
 -1       329 5.87518E-01
 -1       330 5.90788E-01
 -1       331 6.34487E-01
 -1       332 7.01336E-01
 -1       333 7.96722E-01
 -1       334 9.30803E-01
 -1       335 1.14539E+00
 -1       336 1.33185E+00
 -1       337 2.19670E+00
 -1       338 1.91517E+00
 -1       339 1.72877E+00
 -1       340 1.26649E+00
 -1       341 9.05783E-01
 -1       342 6.54511E-01
 -1       343 5.37566E-01
 -1       344 4.40121E-01
 -1       345 3.54125E-01
 -1       346 2.88196E-01
 -1       347 2.32416E-01
 -1       348 1.84350E-01
 -1       349 1.48792E-01
 -1       350 1.19029E-01
 -1       351 9.40434E-02
 -1       352 7.36508E-02
 -1       353 5.74465E-02
 -1       354 4.49150E-02
 -1       355 3.54942E-02
 -1       356 2.86076E-02
 -1       357 2.36742E-02
 -1       358 2.57835E-02
 -1       359 2.97911E-02
 -1       360 3.66292E-02
 -1       361 4.90284E-02
 -1       362 6.66397E-02
 -1       363 9.13296E-02
 -1       364 1.32767E-01
 -1       365 1.88249E-01
 -1       366 2.59857E-01
 -1       367 3.49893E-01
 -1       368 4.59616E-01
 -1       369 5.88030E-01
 -1       370 7.29983E-01
 -1       371 8.73415E-01
 -1       372 1.00154E+00
 -1       373 1.14746E+00
 -1       374 1.30807E+00
 -1       375 1.35890E+00
 -1       376 1.21845E+00
 -1       377 1.16126E+00
 -1       378 1.63810E+00
 -1       379 3.40378E+00
 -1       380 4.91288E+00
 -1       381 6.33671E+00
 -1       382 6.40497E+00
 -1       383 5.38631E+00
 -1       384 4.22526E+00
 -1       385 1.12652E+00
 -1       386 8.85018E-01
 -1       387 7.01596E-01
 -1       388 5.43362E-01
 -1       389 4.36452E-01
 -1       390 3.69565E-01
 -1       391 3.05325E-01
 -1       392 2.49327E-01
 -1       393 2.03442E-01
 -1       394 1.63127E-01
 -1       395 1.28880E-01
 -1       396 1.00864E-01
 -1       397 7.81117E-02
 -1       398 6.01315E-02
 -1       399 4.64327E-02
 -1       400 3.65282E-02
 -1       401 2.99766E-02
 -1       402 2.64031E-02
 -1       403 2.76205E-02
 -1       404 3.22229E-02
 -1       405 3.87375E-02
 -1       406 4.85157E-02
 -1       407 6.52970E-02
 -1       408 8.67418E-02
 -1       409 1.13266E-01
 -1       410 1.57390E-01
 -1       411 2.18313E-01
 -1       412 2.93374E-01
 -1       413 3.82067E-01
 -1       414 4.81291E-01
 -1       415 5.83816E-01
 -1       416 6.76380E-01
 -1       417 7.72027E-01
 -1       418 8.30039E-01
 -1       419 8.30039E-01
 -1       420 8.02559E-01
 -1       421 7.50220E-01
 -1       422 9.06574E-01
 -1       423 1.39759E+00
 -1       424 2.43534E+00
 -1       425 3.33424E+00
 -1       426 3.45377E+00
 -1       427 3.45377E+00
 -1       428 2.83689E+00
 -1       429 3.13037E+00
 -1       430 1.86021E+00
 -1       431 5.57950E+00
 -1       432 3.14264E+00
 -1       433 1.98093E+00
 -1       434 8.87985E+00
 -1       435 8.87985E+00
 -1       436 1.16286E+01
 -1       437 9.24432E+00
 -1       438 4.84397E+00
 -1       439 9.13154E-01
 -1       440 1.33667E+01
 -1       441 1.33158E+01
 -1       442 1.19065E+01
 -1       443 1.06183E+01
 -1       444 7.40313E+00
 -1       445 8.56774E+00
 -1       446 1.47997E+01
 -1       447 2.56050E+01
 -1       448 2.11719E+01
 -1       449 2.87971E+01
 -1       450 2.87971E+01
 -1       451 2.15817E+01
 -1       452 2.66202E+01
 -1       453 1.55828E+01
 -1       454 9.73278E+00
 -1       455 7.87876E+00
 -1       456 9.57598E+00
 -1       457 1.24663E+01
 -1       458 1.26194E+01
 -1       459 1.26902E+01
 -1       460 1.22181E+01
 -1       461 9.76302E+00
 -1       462 8.78553E+00
 -1       463 7.77580E+00
 -1       464 1.09301E+01
 -1       465 4.86691E-01
 -1       466 5.11267E-01
 -1       467 4.31547E-01
 -1       468 4.57724E-01
 -1       469 4.87239E-01
 -1       470 5.12015E-01
 -1       471 5.12015E-01
 -1       472 5.05695E-01
 -1       473 6.73967E-01
 -1       474 1.31730E+00
 -1       475 8.03048E-01
 -1       476 7.01596E-01
 -1       477 8.85018E-01
 -1       478 8.77164E-01
 -1       479 7.01115E-01
 -1       480 5.87504E-01
 -1       481 4.74946E-01
 -1       482 3.75980E-01
 -1       483 3.21289E-01
 -1       484 2.70818E-01
 -1       485 2.22981E-01
 -1       486 1.84199E-01
 -1       487 1.50121E-01
 -1       488 1.20397E-01
 -1       489 9.53106E-02
 -1       490 7.68045E-02
 -1       491 6.13101E-02
 -1       492 4.85998E-02
 -1       493 3.83598E-02
 -1       494 3.01702E-02
 -1       495 2.36742E-02
 -1       496 2.16754E-02
 -1       497 2.13920E-02
 -1       498 2.75852E-02
 -1       499 3.66292E-02
 -1       500 5.62753E-02
 -1       501 8.33898E-02
 -1       502 1.19336E-01
 -1       503 1.66226E-01
 -1       504 2.26283E-01
 -1       505 3.01643E-01
 -1       506 3.93978E-01
 -1       507 5.03867E-01
 -1       508 6.29797E-01
 -1       509 7.66680E-01
 -1       510 9.06014E-01
 -1       511 1.04659E+00
 -1       512 1.14886E+00
 -1       513 1.28227E+00
 -1       514 1.46294E+00
 -1       515 1.59799E+00
 -1       516 2.19386E+00
 -1       517 2.83868E+00
 -1       518 3.67058E+00
 -1       519 5.00355E+00
 -1       520 7.88258E+00
 -1       521 8.38043E+00
 -1       522 7.41791E+00
 -1       523 9.38050E-01
 -1       524 5.43362E-01
 -1       525 4.36452E-01
 -1       526 3.69565E-01
 -1       527 3.05325E-01
 -1       528 2.49327E-01
 -1       529 2.04250E-01
 -1       530 1.64542E-01
 -1       531 1.30535E-01
 -1       532 1.05460E-01
 -1       533 8.43105E-02
 -1       534 6.67689E-02
 -1       535 5.25917E-02
 -1       536 4.13873E-02
 -1       537 3.26796E-02
 -1       538 2.59419E-02
 -1       539 2.27374E-02
 -1       540 2.32621E-02
 -1       541 2.67783E-02
 -1       542 3.58609E-02
 -1       543 4.85157E-02
 -1       544 7.26965E-02
 -1       545 1.05134E-01
 -1       546 1.47113E-01
 -1       547 2.00072E-01
 -1       548 2.64941E-01
 -1       549 3.41611E-01
 -1       550 4.28150E-01
 -1       551 5.19711E-01
 -1       552 6.07191E-01
 -1       553 6.99197E-01
 -1       554 7.72027E-01
 -1       555 8.30039E-01
 -1       556 8.02559E-01
 -1       557 7.29960E-01
 -1       558 8.85560E-01
 -1       559 1.13306E+00
 -1       560 1.94817E+00
 -1       561 2.89448E+00
 -1       562 3.39679E+00
 -1       563 4.62579E+00
 -1       564 4.25712E+00
 -1       565 4.24921E+00
 -1       566 7.05922E+00
 -1       567 1.18229E+01
 -1       568 9.18394E+00
 -1       569 1.22181E+01
 -1       570 2.15215E+01
 -1       571 1.06693E+01
 -1       572 1.81928E+01
 -1       573 1.13128E+01
 -1       574 8.73431E+00
 -1       575 2.00306E+01
 -1       576 1.18229E+01
 -1       577 4.57494E-01
 -1       578 1.82549E+01
 -1       579 5.41041E+00
 -1       580 6.38364E+00
 -1       581 1.18229E+01
 -1       582 1.13785E+01
 -1       583 2.87971E+01
 -1       584 5.53676E+00
 -1       585 1.14136E+01
 -1       586 8.92154E+00
 -1       587 5.78179E+00
 -1       588 1.21741E+01
 -1       589 5.11267E-01
 -1       590 4.63226E-01
 -1       591 7.76996E+00
 -1       592 3.57503E-01
 -1       593 3.42302E-01
 -1       594 3.64035E-01
 -1       595 3.38968E-01
 -1       596 4.03174E-01
 -1       597 3.25955E-01
 -1       598 3.94795E-01
 -1       599 3.70330E-01
 -1       600 4.61364E-01
 -1       601 1.53271E+01
 -1       602 3.96214E-01
 -1       603 3.82888E-01
 -1       604 3.41812E-01
 -1       605 2.91983E-01
 -1       606 2.42101E-01
 -1       607 2.10933E-01
 -1       608 1.78296E-01
 -1       609 1.47210E-01
 -1       610 1.19251E-01
 -1       611 9.57059E-02
 -1       612 7.69399E-02
 -1       613 6.13101E-02
 -1       614 4.85998E-02
 -1       615 3.83598E-02
 -1       616 3.01702E-02
 -1       617 2.35370E-02
 -1       618 1.90903E-02
 -1       619 1.56531E-02
 -1       620 1.93004E-02
 -1       621 2.93380E-02
 -1       622 4.60163E-02
 -1       623 6.78945E-02
 -1       624 9.64630E-02
 -1       625 1.33402E-01
 -1       626 1.80563E-01
 -1       627 2.39918E-01
 -1       628 3.13479E-01
 -1       629 4.03178E-01
 -1       630 5.11576E-01
 -1       631 6.46366E-01
 -1       632 8.02019E-01
 -1       633 9.74295E-01
 -1       634 1.15148E+00
 -1       635 1.32678E+00
 -1       636 1.60205E+00
 -1       637 2.10169E+00
 -1       638 2.58344E+00
 -1       639 3.39061E+00
 -1       640 3.70378E+00
 -1       641 5.00355E+00
 -1       642 8.73431E+00
 -1       643 8.38043E+00
 -1       644 2.71478E-01
 -1       645 2.31347E-01
 -1       646 1.93736E-01
 -1       647 1.59582E-01
 -1       648 1.31396E-01
 -1       649 1.06392E-01
 -1       650 8.49977E-02
 -1       651 6.72221E-02
 -1       652 5.35642E-02
 -1       653 4.25828E-02
 -1       654 3.34888E-02
 -1       655 2.59419E-02
 -1       656 2.12200E-02
 -1       657 1.82693E-02
 -1       658 2.06700E-02
 -1       659 2.64103E-02
 -1       660 4.20302E-02
 -1       661 6.28548E-02
 -1       662 9.00062E-02
 -1       663 1.24901E-01
 -1       664 1.68928E-01
 -1       665 2.23276E-01
 -1       666 2.88657E-01
 -1       667 3.64886E-01
 -1       668 4.50294E-01
 -1       669 5.42501E-01
 -1       670 6.42096E-01
 -1       671 7.30393E-01
 -1       672 8.05184E-01
 -1       673 9.06859E-01
 -1       674 1.02014E+00
 -1       675 1.08987E+00
 -1       676 1.53472E+00
 -1       677 1.97094E+00
 -1       678 2.49402E+00
 -1       679 4.43758E+00
 -1       680 8.00077E+00
 -1       681 7.99180E+00
 -1       682 1.12588E+01
 -1       683 1.12588E+01
 -1       684 9.37602E+00
 -1       685 5.10267E+00
 -1       686 9.70642E+00
 -1       687 8.00077E+00
 -1       688 3.54029E+00
 -1       689 5.15400E-01
 -1       690 1.64888E+01
 -1       691 1.44325E+01
 -1       692 1.49424E+01
 -1       693 7.88258E+00
 -1       694 3.78728E-01
 -1       695 7.05235E+00
 -1       696 3.60699E-01
 -1       697 6.31244E+00
 -1       698 1.00962E+01
 -1       699 3.60699E-01
 -1       700 3.42290E-01
 -1       701 5.78307E-01
 -1       702 1.06750E+01
 -1       703 6.37299E+00
 -1       704 6.15984E+00
 -1       705 1.12588E+01
 -1       706 3.57633E-01
 -1       707 2.67253E-01
 -1       708 2.97675E-01
 -1       709 2.15595E-01
 -1       710 3.06275E-01
 -1       711 2.55105E-01
 -1       712 2.52561E-01
 -1       713 2.32081E-01
 -1       714 2.54138E-01
 -1       715 2.47302E-01
 -1       716 2.25381E-01
 -1       717 1.96910E-01
 -1       718 1.70388E-01
 -1       719 1.49121E-01
 -1       720 1.26823E-01
 -1       721 1.05427E-01
 -1       722 8.60018E-02
 -1       723 6.90329E-02
 -1       724 5.46134E-02
 -1       725 4.25815E-02
 -1       726 3.26108E-02
 -1       727 2.42663E-02
 -1       728 1.71329E-02
 -1       729 1.16189E-02
 -1       730 1.07139E-02
 -1       731 1.97455E-02
 -1       732 3.25958E-02
 -1       733 5.05435E-02
 -1       734 7.41410E-02
 -1       735 1.05818E-01
 -1       736 1.48349E-01
 -1       737 2.03134E-01
 -1       738 2.72581E-01
 -1       739 3.59059E-01
 -1       740 4.64537E-01
 -1       741 5.89907E-01
 -1       742 7.33758E-01
 -1       743 8.90038E-01
 -1       744 1.09172E+00
 -1       745 1.36337E+00
 -1       746 1.81540E+00
 -1       747 2.42951E+00
 -1       748 4.11362E+00
 -1       749 4.62722E+00
 -1       750 2.86084E-01
 -1       751 1.61414E-01
 -1       752 1.35580E-01
 -1       753 1.11506E-01
 -1       754 9.01173E-02
 -1       755 7.17550E-02
 -1       756 5.63879E-02
 -1       757 4.37510E-02
 -1       758 3.34888E-02
 -1       759 2.59019E-02
 -1       760 2.00441E-02
 -1       761 1.49773E-02
 -1       762 1.31946E-02
 -1       763 1.87811E-02
 -1       764 3.15575E-02
 -1       765 4.79335E-02
 -1       766 6.90136E-02
 -1       767 9.60189E-02
 -1       768 1.30270E-01
 -1       769 1.73147E-01
 -1       770 2.26033E-01
 -1       771 2.92483E-01
 -1       772 3.74033E-01
 -1       773 4.69953E-01
 -1       774 5.77791E-01
 -1       775 6.94622E-01
 -1       776 8.11159E-01
 -1       777 9.44541E-01
 -1       778 1.15504E+00
 -1       779 1.45370E+00
 -1       780 1.76177E+00
 -1       781 2.30676E+00
 -1       782 3.82590E+00
 -1       783 3.65120E+00
 -1       784 2.86846E-01
 -1       785 2.93950E-01
 -1       786 9.50903E+00
 -1       787 6.02081E+00
 -1       788 4.12196E+00
 -1       789 1.04376E+01
 -1       790 5.95827E+00
 -1       791 1.87172E-01
 -1       792 2.81976E-01
 -1       793 8.72812E+00
 -1       794 3.39061E+00
 -1       795 3.78728E-01
 -1       796 3.78728E-01
 -1       797 7.05735E+00
 -1       798 8.72812E+00
 -1       799 5.58757E+00
 -1       800 2.81876E-01
 -1       801 2.88448E-01
 -1       802 1.14958E-01
 -1       803 1.43416E-01
 -1       804 1.42535E-01
 -1       805 1.73612E-01
 -1       806 1.81528E-01
 -1       807 1.74189E-01
 -1       808 1.58410E-01
 -1       809 1.38728E-01
 -1       810 1.22235E-01
 -1       811 1.05837E-01
 -1       812 8.93164E-02
 -1       813 7.37949E-02
 -1       814 5.98658E-02
 -1       815 4.77517E-02
 -1       816 3.74205E-02
 -1       817 2.86677E-02
 -1       818 2.11706E-02
 -1       819 1.45210E-02
 -1       820 1.53616E-02
 -1       821 1.88788E-02
 -1       822 3.11864E-02
 -1       823 4.72502E-02
 -1       824 6.95633E-02
 -1       825 9.90048E-02
 -1       826 1.37244E-01
 -1       827 1.86346E-01
 -1       828 2.48681E-01
 -1       829 3.26962E-01
 -1       830 4.24332E-01
 -1       831 5.44499E-01
 -1       832 6.91950E-01
 -1       833 8.72305E-01
 -1       834 1.09172E+00
 -1       835 1.36111E+00
 -1       836 1.74165E+00
 -1       837 3.24746E+00
 -1       838 5.51264E+00
 -1       839 4.19720E+00
 -1       840 9.64153E-02
 -1       841 1.33773E-01
 -1       842 7.92503E-02
 -1       843 6.40198E-02
 -1       844 5.08981E-02
 -1       845 3.98020E-02
 -1       846 3.04759E-02
 -1       847 2.25478E-02
 -1       848 1.55609E-02
 -1       849 1.25695E-02
 -1       850 1.45448E-02
 -1       851 2.58399E-02
 -1       852 4.06001E-02
 -1       853 5.99199E-02
 -1       854 8.62220E-02
 -1       855 1.20012E-01
 -1       856 1.62688E-01
 -1       857 2.15530E-01
 -1       858 2.79484E-01
 -1       859 3.54808E-01
 -1       860 4.40521E-01
 -1       861 5.33481E-01
 -1       862 6.36700E-01
 -1       863 7.77895E-01
 -1       864 9.77509E-01
 -1       865 1.26525E+00
 -1       866 1.60161E+00
 -1       867 2.08467E+00
 -1       868 2.83736E+00
 -1       869 3.82590E+00
 -1       870 5.89976E+00
 -1       871 1.74503E-01
 -1       872 7.63813E+00
 -1       873 5.40442E+00
 -1       874 2.88448E-01
 -1       875 1.95068E-01
 -1       876 1.50966E-01
 -1       877 6.16796E+00
 -1       878 5.89976E+00
 -1       879 1.23507E-01
 -1       880 1.72475E-01
 -1       881 5.46579E+00
 -1       882 2.45427E-01
 -1       883 2.09166E-01
 -1       884 2.36528E-01
 -1       885 6.14623E+00
 -1       886 5.58757E+00
 -1       887 2.16096E-01
 -1       888 2.13347E-01
 -1       889 1.39721E-01
 -1       890 1.39800E-01
 -1       891 1.22638E-01
 -1       892 1.35318E-01
 -1       893 1.34604E-01
 -1       894 1.25755E-01
 -1       895 1.12497E-01
 -1       896 9.74123E-02
 -1       897 8.48772E-02
 -1       898 7.20800E-02
 -1       899 5.98626E-02
 -1       900 4.87702E-02
 -1       901 3.90377E-02
 -1       902 3.06838E-02
 -1       903 2.35792E-02
 -1       904 1.80605E-02
 -1       905 1.86442E-02
 -1       906 2.11537E-02
 -1       907 2.66739E-02
 -1       908 4.02994E-02
 -1       909 5.89163E-02
 -1       910 8.32777E-02
 -1       911 1.14838E-01
 -1       912 1.55301E-01
 -1       913 2.06680E-01
 -1       914 2.71440E-01
 -1       915 3.52768E-01
 -1       916 4.55136E-01
 -1       917 5.85392E-01
 -1       918 7.54714E-01
 -1       919 9.83227E-01
 -1       920 1.30030E+00
 -1       921 1.74165E+00
 -1       922 2.41167E+00
 -1       923 9.41122E-02
 -1       924 1.08200E-01
 -1       925 5.37472E-02
 -1       926 4.29585E-02
 -1       927 3.37118E-02
 -1       928 2.58440E-02
 -1       929 1.90812E-02
 -1       930 1.68048E-02
 -1       931 1.86499E-02
 -1       932 2.35163E-02
 -1       933 3.62350E-02
 -1       934 5.40688E-02
 -1       935 7.73304E-02
 -1       936 1.07345E-01
 -1       937 1.45569E-01
 -1       938 1.93570E-01
 -1       939 2.52981E-01
 -1       940 3.25457E-01
 -1       941 4.12623E-01
 -1       942 5.15990E-01
 -1       943 6.36700E-01
 -1       944 7.74448E-01
 -1       945 9.51544E-01
 -1       946 1.22989E+00
 -1       947 1.75221E+00
 -1       948 2.35280E+00
 -1       949 3.66839E+00
 -1       950 5.58757E+00
 -1       951 7.97248E-02
 -1       952 2.02798E-01
 -1       953 4.09708E+00
 -1       954 1.51256E-01
 -1       955 3.96852E+00
 -1       956 1.23830E-01
 -1       957 2.36528E-01
 -1       958 4.09708E+00
 -1       959 6.60799E-02
 -1       960 4.37379E+00
 -1       961 1.55630E-01
 -1       962 1.47604E-01
 -1       963 1.60621E-01
 -1       964 3.27904E+00
 -1       965 1.53356E-01
 -1       966 2.95045E+00
 -1       967 1.09767E-01
 -1       968 2.36764E+00
 -1       969 8.92902E-02
 -1       970 1.01286E-01
 -1       971 1.02695E-01
 -1       972 9.72997E-02
 -1       973 8.79812E-02
 -1       974 7.68272E-02
 -1       975 6.52588E-02
 -1       976 5.44636E-02
 -1       977 4.52115E-02
 -1       978 3.68582E-02
 -1       979 2.95941E-02
 -1       980 2.34522E-02
 -1       981 2.05770E-02
 -1       982 2.04420E-02
 -1       983 2.23167E-02
 -1       984 2.64378E-02
 -1       985 3.37446E-02
 -1       986 4.55002E-02
 -1       987 6.30161E-02
 -1       988 8.66145E-02
 -1       989 1.16829E-01
 -1       990 1.55093E-01
 -1       991 2.03153E-01
 -1       992 2.63289E-01
 -1       993 3.38806E-01
 -1       994 4.35086E-01
 -1       995 5.61867E-01
 -1       996 7.37423E-01
 -1       997 9.86174E-01
 -1       998 1.21424E+00
 -1       999 1.63018E+00
 -1      1000 3.38328E-02
 -1      1001 4.22041E-02
 -1      1002 2.06702E-02
 -1      1003 1.94245E-02
 -1      1004 2.05090E-02
 -1      1005 2.36799E-02
 -1      1006 2.94742E-02
 -1      1007 4.36866E-02
 -1      1008 6.23897E-02
 -1      1009 8.67477E-02
 -1      1010 1.18118E-01
 -1      1011 1.58091E-01
 -1      1012 2.08558E-01
 -1      1013 2.71845E-01
 -1      1014 3.50981E-01
 -1      1015 4.50187E-01
 -1      1016 5.75795E-01
 -1      1017 7.38014E-01
 -1      1018 9.51544E-01
 -1      1019 1.22989E+00
 -1      1020 1.57746E+00
 -1      1021 1.60621E-01
 -1      1022 2.66881E-02
 -1      1023 1.37579E-01
 -1      1024 9.87816E-02
 -1      1025 1.16487E-01
 -1      1026 8.59429E-02
 -1      1027 7.34179E-02
 -1      1028 2.95045E+00
 -1      1029 1.03185E-01
 -1      1030 4.62722E+00
 -1      1031 1.56949E-01
 -1      1032 1.16370E-01
 -1      1033 5.17762E-02
 -1      1034 2.42699E+00
 -1      1035 6.23389E-02
 -1      1036 8.34139E-02
 -1      1037 1.01473E-01
 -1      1038 2.63293E-02
 -1      1039 8.07411E-02
 -1      1040 8.58683E-02
 -1      1041 8.34139E-02
 -1      1042 7.66726E-02
 -1      1043 6.77585E-02
 -1      1044 5.81115E-02
 -1      1045 4.86805E-02
 -1      1046 4.00511E-02
 -1      1047 3.25502E-02
 -1      1048 2.63293E-02
 -1      1049 2.25302E-02
 -1      1050 2.05770E-02
 -1      1051 2.23167E-02
 -1      1052 2.64378E-02
 -1      1053 3.35487E-02
 -1      1054 4.47126E-02
 -1      1055 5.98937E-02
 -1      1056 7.98529E-02
 -1      1057 1.05469E-01
 -1      1058 1.37758E-01
 -1      1059 1.77928E-01
 -1      1060 2.27502E-01
 -1      1061 2.88614E-01
 -1      1062 3.64609E-01
 -1      1063 4.61280E-01
 -1      1064 5.89445E-01
 -1      1065 7.73523E-01
 -1      1066 1.08003E+00
 -1      1067 4.00511E-02
 -1      1068 2.05090E-02
 -1      1069 2.14283E-02
 -1      1070 2.93519E-02
 -1      1071 3.90210E-02
 -1      1072 5.23884E-02
 -1      1073 7.01416E-02
 -1      1074 9.30505E-02
 -1      1075 1.21955E-01
 -1      1076 1.57757E-01
 -1      1077 2.01547E-01
 -1      1078 2.64246E-01
 -1      1079 3.45432E-01
 -1      1080 4.52372E-01
 -1      1081 5.96916E-01
 -1      1082 7.99986E-01
 -1      1083 1.12496E+00
 -1      1084 2.02509E+00
 -1      1085 1.03508E-01
 -1      1086 2.52072E+00
 -1      1087 2.36799E-02
 -1      1088 6.50660E-02
 -1      1089 7.66726E-02
 -1      1090 8.80860E-02
 -1      1091 8.58683E-02
 -1      1092 3.25502E-02
 -1      1093 4.86805E-02
 -1      1094 1.60282E+00
 -1      1095 8.57385E-02
 -1      1096 8.57357E-02
 -1      1097 2.20761E+00
 -1      1098 6.77585E-02
 -1      1099 5.81115E-02
 -1      1100 1.31425E+01
 -1      1101 8.40311E+00
 -1      1102 2.74540E+00
 -1      1103 1.55874E+00
 -1      1104 1.16714E+00
 -1      1105 9.71947E-01
 -1      1106 8.54386E-01
 -1      1107 7.81187E-01
 -1      1108 7.54594E-01
 -1      1109 7.84303E-01
 -1      1110 8.56913E-01
 -1      1111 9.76936E-01
 -1      1112 1.17987E+00
 -1      1113 1.56920E+00
 -1      1114 2.67018E+00
 -1      1115 6.07485E+00
 -1      1116 1.13398E+01
 -1      1117 1.31425E+01
 -1      1118 8.73002E+00
 -1      1119 3.82892E+00
 -1      1120 2.72536E+00
 -1      1121 1.73595E+00
 -1      1122 1.18756E+00
 -1      1123 8.94120E-01
 -1      1124 6.84582E-01
 -1      1125 5.24284E-01
 -1      1126 3.99976E-01
 -1      1127 3.06242E-01
 -1      1128 2.34469E-01
 -1      1129 1.76959E-01
 -1      1130 1.31655E-01
 -1      1131 9.66259E-02
 -1      1132 7.23945E-02
 -1      1133 5.60586E-02
 -1      1134 4.27712E-02
 -1      1135 3.20092E-02
 -1      1136 2.54829E-02
 -1      1137 2.43218E-02
 -1      1138 2.87544E-02
 -1      1139 3.76298E-02
 -1      1140 4.89029E-02
 -1      1141 6.24042E-02
 -1      1142 7.78299E-02
 -1      1143 9.94986E-02
 -1      1144 1.33963E-01
 -1      1145 1.81329E-01
 -1      1146 2.40200E-01
 -1      1147 3.11194E-01
 -1      1148 3.93637E-01
 -1      1149 4.84505E-01
 -1      1150 6.03114E-01
 -1      1151 7.77436E-01
 -1      1152 9.94449E-01
 -1      1153 1.26129E+00
 -1      1154 1.55719E+00
 -1      1155 1.78602E+00
 -1      1156 1.98721E+00
 -1      1157 2.20612E+00
 -1      1158 2.63974E+00
 -1      1159 3.63979E+00
 -1      1160 6.40035E+00
 -1      1161 1.00952E+01
 -1      1162 1.16991E+01
 -1      1163 1.15116E+01
 -1      1164 1.05958E+01
 -1      1165 7.69322E+00
 -1      1166 3.44868E+00
 -1      1167 1.40386E+01
 -1      1168 8.71717E+00
 -1      1169 2.90455E+00
 -1      1170 2.03892E+00
 -1      1171 1.40429E+00
 -1      1172 1.02529E+00
 -1      1173 8.19029E-01
 -1      1174 6.59689E-01
 -1      1175 5.27882E-01
 -1      1176 4.18016E-01
 -1      1177 3.30669E-01
 -1      1178 2.62023E-01
 -1      1179 2.04785E-01
 -1      1180 1.57636E-01
 -1      1181 1.19613E-01
 -1      1182 8.96287E-02
 -1      1183 6.66083E-02
 -1      1184 4.95659E-02
 -1      1185 3.76519E-02
 -1      1186 3.01745E-02
 -1      1187 2.81091E-02
 -1      1188 3.27382E-02
 -1      1189 4.25504E-02
 -1      1190 5.60943E-02
 -1      1191 7.34797E-02
 -1      1192 9.47241E-02
 -1      1193 1.19604E-01
 -1      1194 1.47445E-01
 -1      1195 1.80022E-01
 -1      1196 2.26411E-01
 -1      1197 2.86733E-01
 -1      1198 3.52476E-01
 -1      1199 4.18394E-01
 -1      1200 4.75339E-01
 -1      1201 5.08909E-01
 -1      1202 5.95629E-01
 -1      1203 7.76909E-01
 -1      1204 9.75154E-01
 -1      1205 1.19536E+00
 -1      1206 1.54441E+00
 -1      1207 1.90131E+00
 -1      1208 2.27204E+00
 -1      1209 2.85767E+00
 -1      1210 3.86070E+00
 -1      1211 5.17653E+00
 -1      1212 6.09926E+00
 -1      1213 6.36117E+00
 -1      1214 6.01607E+00
 -1      1215 4.43872E+00
 -1      1216 1.96445E+00
 -1      1217 1.23132E+00
 -1      1218 1.34047E+00
 -1      1219 7.94053E-01
 -1      1220 1.35384E+00
 -1      1221 3.71557E+00
 -1      1222 7.92310E+00
 -1      1223 1.30889E+01
 -1      1224 1.57024E+01
 -1      1225 1.76159E+01
 -1      1226 2.05757E+01
 -1      1227 2.16220E+01
 -1      1228 1.87375E+01
 -1      1229 1.49767E+01
 -1      1230 1.54008E+01
 -1      1231 1.67013E+01
 -1      1232 9.13938E+00
 -1      1233 1.49795E+00
 -1      1234 2.31197E+00
 -1      1235 2.29198E+00
 -1      1236 3.17154E+01
 -1      1237 3.06072E+01
 -1      1238 2.79008E+01
 -1      1239 1.95775E+01
 -1      1240 1.28524E+01
 -1      1241 1.24711E+01
 -1      1242 1.23191E+01
 -1      1243 1.27595E+01
 -1      1244 1.29705E+01
 -1      1245 1.47344E+01
 -1      1246 3.00419E+01
 -1      1247 4.35854E+01
 -1      1248 3.37470E+01
 -1      1249 2.39087E+01
 -1      1250 2.33575E+01
 -1      1251 2.28064E+01
 -1      1252 3.39016E+01
 -1      1253 4.49968E+01
 -1      1254 3.12420E+01
 -1      1255 1.48224E+01
 -1      1256 1.25814E+01
 -1      1257 1.30052E+01
 -1      1258 1.27728E+01
 -1      1259 1.26995E+01
 -1      1260 1.28586E+01
 -1      1261 1.89352E+01
 -1      1262 2.83057E+01
 -1      1263 3.15997E+01
 -1      1264 3.16576E+01
 -1      1265 1.31425E+01
 -1      1266 4.87073E+00
 -1      1267 9.61013E+00
 -1      1268 2.06405E+00
 -1      1269 2.98237E+00
 -1      1270 4.18938E+00
 -1      1271 1.39828E+00
 -1      1272 1.66663E+00
 -1      1273 1.90359E+00
 -1      1274 1.10117E+00
 -1      1275 1.22442E+00
 -1      1276 1.33231E+00
 -1      1277 9.36066E-01
 -1      1278 1.00801E+00
 -1      1279 1.06529E+00
 -1      1280 8.36552E-01
 -1      1281 8.82168E-01
 -1      1282 9.18232E-01
 -1      1283 7.74727E-01
 -1      1284 8.02310E-01
 -1      1285 8.30092E-01
 -1      1286 7.55585E-01
 -1      1287 7.54594E-01
 -1      1288 7.75717E-01
 -1      1289 8.06142E-01
 -1      1290 7.77423E-01
 -1      1291 7.77423E-01
 -1      1292 8.83938E-01
 -1      1293 8.40046E-01
 -1      1294 8.33166E-01
 -1      1295 1.01709E+00
 -1      1296 9.40955E-01
 -1      1297 9.24088E-01
 -1      1298 1.23928E+00
 -1      1299 1.11247E+00
 -1      1300 1.07649E+00
 -1      1301 1.67964E+00
 -1      1302 1.41711E+00
 -1      1303 1.34971E+00
 -1      1304 2.88401E+00
 -1      1305 2.04556E+00
 -1      1306 1.89347E+00
 -1      1307 6.28715E+00
 -1      1308 3.72093E+00
 -1      1309 3.09631E+00
 -1      1310 1.40386E+01
 -1      1311 1.13398E+01
 -1      1312 8.98593E+00
 -1      1313 1.40386E+01
 -1      1314 8.73002E+00
 -1      1315 4.31753E+00
 -1      1316 3.82892E+00
 -1      1317 3.34030E+00
 -1      1318 3.82892E+00
 -1      1319 2.72536E+00
 -1      1320 2.11043E+00
 -1      1321 2.72536E+00
 -1      1322 1.77835E+00
 -1      1323 1.40388E+00
 -1      1324 1.77835E+00
 -1      1325 1.19294E+00
 -1      1326 1.01902E+00
 -1      1327 1.23534E+00
 -1      1328 8.94120E-01
 -1      1329 7.74592E-01
 -1      1330 8.99492E-01
 -1      1331 6.84582E-01
 -1      1332 5.94573E-01
 -1      1333 6.84582E-01
 -1      1334 5.30630E-01
 -1      1335 4.60341E-01
 -1      1336 5.30630E-01
 -1      1337 4.10096E-01
 -1      1338 3.56076E-01
 -1      1339 4.16441E-01
 -1      1340 3.16843E-01
 -1      1341 2.77129E-01
 -1      1342 3.26963E-01
 -1      1343 2.48488E-01
 -1      1344 2.16430E-01
 -1      1345 2.59089E-01
 -1      1346 1.92039E-01
 -1      1347 1.66588E-01
 -1      1348 2.06058E-01
 -1      1349 1.46357E-01
 -1      1350 1.26504E-01
 -1      1351 1.61437E-01
 -1      1352 1.10116E-01
 -1      1353 9.49400E-02
 -1      1354 1.24818E-01
 -1      1355 8.19748E-02
 -1      1356 7.29190E-02
 -1      1357 9.54644E-02
 -1      1358 6.29253E-02
 -1      1359 5.56452E-02
 -1      1360 7.25056E-02
 -1      1361 4.81823E-02
 -1      1362 4.21750E-02
 -1      1363 5.50490E-02
 -1      1364 3.68352E-02
 -1      1365 3.20805E-02
 -1      1366 4.22463E-02
 -1      1367 2.84984E-02
 -1      1368 2.67268E-02
 -1      1369 3.33244E-02
 -1      1370 2.45788E-02
 -1      1371 2.51893E-02
 -1      1372 2.75943E-02
 -1      1373 2.59370E-02
 -1      1374 2.97590E-02
 -1      1375 2.61940E-02
 -1      1376 3.25764E-02
 -1      1377 3.76298E-02
 -1      1378 2.97590E-02
 -1      1379 4.26832E-02
 -1      1380 4.89029E-02
 -1      1381 3.76298E-02
 -1      1382 5.51227E-02
 -1      1383 6.24042E-02
 -1      1384 4.89029E-02
 -1      1385 6.96857E-02
 -1      1386 7.78299E-02
 -1      1387 6.24042E-02
 -1      1388 8.86519E-02
 -1      1389 1.02176E-01
 -1      1390 8.05076E-02
 -1      1391 1.18080E-01
 -1      1392 1.39019E-01
 -1      1393 1.07233E-01
 -1      1394 1.58974E-01
 -1      1395 1.85401E-01
 -1      1396 1.43091E-01
 -1      1397 2.09763E-01
 -1      1398 2.42207E-01
 -1      1399 1.87408E-01
 -1      1400 2.72986E-01
 -1      1401 3.11537E-01
 -1      1402 2.42550E-01
 -1      1403 3.63294E-01
 -1      1404 4.07186E-01
 -1      1405 3.25086E-01
 -1      1406 4.70911E-01
 -1      1407 5.17888E-01
 -1      1408 4.40568E-01
 -1      1409 5.92857E-01
 -1      1410 6.64489E-01
 -1      1411 5.79263E-01
 -1      1412 7.47157E-01
 -1      1413 8.49847E-01
 -1      1414 7.36901E-01
 -1      1415 9.31944E-01
 -1      1416 1.04627E+00
 -1      1417 9.01665E-01
 -1      1418 1.13493E+00
 -1      1419 1.28745E+00
 -1      1420 1.07243E+00
 -1      1421 1.41381E+00
 -1      1422 1.55719E+00
 -1      1423 1.28745E+00
 -1      1424 1.70056E+00
 -1      1425 1.78602E+00
 -1      1426 1.55719E+00
 -1      1427 1.87148E+00
 -1      1428 1.98721E+00
 -1      1429 1.78602E+00
 -1      1430 2.10294E+00
 -1      1431 2.20612E+00
 -1      1432 1.98721E+00
 -1      1433 2.30931E+00
 -1      1434 2.63974E+00
 -1      1435 2.20612E+00
 -1      1436 2.97017E+00
 -1      1437 3.63979E+00
 -1      1438 2.63974E+00
 -1      1439 4.75710E+00
 -1      1440 6.84803E+00
 -1      1441 4.08748E+00
 -1      1442 8.49128E+00
 -1      1443 1.00952E+01
 -1      1444 6.84803E+00
 -1      1445 1.16991E+01
 -1      1446 1.16991E+01
 -1      1447 1.00952E+01
 -1      1448 1.15116E+01
 -1      1449 1.13242E+01
 -1      1450 1.15116E+01
 -1      1451 1.05958E+01
 -1      1452 9.86749E+00
 -1      1453 1.05958E+01
 -1      1454 7.69322E+00
 -1      1455 5.51895E+00
 -1      1456 7.69322E+00
 -1      1457 4.36224E+00
 -1      1458 4.36224E+00
 -1      1459 3.39571E+00
 -1      1460 8.71717E+00
 -1      1461 8.71717E+00
 -1      1462 2.41338E+00
 -1      1463 2.90455E+00
 -1      1464 2.90455E+00
 -1      1465 1.66447E+00
 -1      1466 2.03892E+00
 -1      1467 2.03892E+00
 -1      1468 1.14411E+00
 -1      1469 1.40429E+00
 -1      1470 1.40429E+00
 -1      1471 9.06479E-01
 -1      1472 1.02529E+00
 -1      1473 1.02529E+00
 -1      1474 7.31580E-01
 -1      1475 8.19029E-01
 -1      1476 8.19029E-01
 -1      1477 5.87797E-01
 -1      1478 6.59689E-01
 -1      1479 6.59689E-01
 -1      1480 4.67967E-01
 -1      1481 5.27882E-01
 -1      1482 5.27882E-01
 -1      1483 3.68066E-01
 -1      1484 4.18016E-01
 -1      1485 4.18016E-01
 -1      1486 2.93273E-01
 -1      1487 3.30669E-01
 -1      1488 3.30669E-01
 -1      1489 2.30774E-01
 -1      1490 2.62023E-01
 -1      1491 2.62023E-01
 -1      1492 1.80218E-01
 -1      1493 2.06207E-01
 -1      1494 2.06207E-01
 -1      1495 1.38969E-01
 -1      1496 1.60129E-01
 -1      1497 1.61551E-01
 -1      1498 1.05734E-01
 -1      1499 1.22597E-01
 -1      1500 1.25090E-01
 -1      1501 7.95958E-02
 -1      1502 9.27163E-02
 -1      1503 9.57009E-02
 -1      1504 5.96367E-02
 -1      1505 6.95367E-02
 -1      1506 7.26243E-02
 -1      1507 4.50101E-02
 -1      1508 5.21525E-02
 -1      1509 5.50809E-02
 -1      1510 3.49838E-02
 -1      1511 3.97554E-02
 -1      1512 4.23420E-02
 -1      1513 2.89596E-02
 -1      1514 3.16653E-02
 -1      1515 3.37688E-02
 -1      1516 2.87412E-02
 -1      1517 2.81009E-02
 -1      1518 2.95917E-02
 -1      1519 3.55146E-02
 -1      1520 3.15258E-02
 -1      1521 3.15176E-02
 -1      1522 4.56380E-02
 -1      1523 3.98146E-02
 -1      1524 3.86022E-02
 -1      1525 5.91408E-02
 -1      1526 5.14203E-02
 -1      1527 4.86845E-02
 -1      1528 7.60109E-02
 -1      1529 6.63460E-02
 -1      1530 6.16720E-02
 -1      1531 9.60804E-02
 -1      1532 8.45009E-02
 -1      1533 7.73672E-02
 -1      1534 1.19604E-01
 -1      1535 1.06304E-01
 -1      1536 9.60804E-02
 -1      1537 1.48973E-01
 -1      1538 1.34433E-01
 -1      1539 1.21132E-01
 -1      1540 1.87174E-01
 -1      1541 1.69137E-01
 -1      1542 1.56125E-01
 -1      1543 2.38930E-01
 -1      1544 2.10578E-01
 -1      1545 1.99693E-01
 -1      1546 2.96748E-01
 -1      1547 2.64778E-01
 -1      1548 2.48944E-01
 -1      1549 3.57166E-01
 -1      1550 3.23392E-01
 -1      1551 3.01437E-01
 -1      1552 4.18394E-01
 -1      1553 3.86250E-01
 -1      1554 3.57166E-01
 -1      1555 4.75339E-01
 -1      1556 4.50538E-01
 -1      1557 4.18394E-01
 -1      1558 5.08909E-01
 -1      1559 5.00141E-01
 -1      1560 4.75339E-01
 -1      1561 6.33739E-01
 -1      1562 5.55787E-01
 -1      1563 5.47019E-01
 -1      1564 8.08321E-01
 -1      1565 7.04993E-01
 -1      1566 6.65151E-01
 -1      1567 9.75154E-01
 -1      1568 8.80237E-01
 -1      1569 8.08321E-01
 -1      1570 1.19536E+00
 -1      1571 1.07007E+00
 -1      1572 9.75154E-01
 -1      1573 1.54441E+00
 -1      1574 1.32064E+00
 -1      1575 1.19536E+00
 -1      1576 1.90131E+00
 -1      1577 1.76818E+00
 -1      1578 1.54441E+00
 -1      1579 2.27204E+00
 -1      1580 2.03444E+00
 -1      1581 1.90131E+00
 -1      1582 2.85767E+00
 -1      1583 2.50964E+00
 -1      1584 2.27204E+00
 -1      1585 3.86070E+00
 -1      1586 3.20570E+00
 -1      1587 2.85767E+00
 -1      1588 5.17653E+00
 -1      1589 4.51571E+00
 -1      1590 3.86070E+00
 -1      1591 6.09926E+00
 -1      1592 5.83734E+00
 -1      1593 5.17653E+00
 -1      1594 6.36117E+00
 -1      1595 6.36117E+00
 -1      1596 6.09926E+00
 -1      1597 5.67096E+00
 -1      1598 6.01607E+00
 -1      1599 6.01607E+00
 -1      1600 3.20649E+00
 -1      1601 4.43872E+00
 -1      1602 4.43872E+00
 -1      1603 2.47336E+00
 -1      1604 9.40702E-01
 -1      1605 1.34047E+00
 -1      1606 8.08929E-01
 -1      1607 9.55578E-01
 -1      1608 9.55578E-01
 -1      1609 2.21854E+00
 -1      1610 1.51210E+00
 -1      1611 1.67362E+00
 -1      1612 5.18954E+00
 -1      1613 3.53425E+00
 -1      1614 3.69251E+00
 -1      1615 9.17369E+00
 -1      1616 6.62145E+00
 -1      1617 6.44013E+00
 -1      1618 1.30889E+01
 -1      1619 1.04753E+01
 -1      1620 9.17369E+00
 -1      1621 1.75200E+01
 -1      1622 1.56064E+01
 -1      1623 2.46914E+01
 -1      1624 2.36451E+01
 -1      1625 2.16356E+01
 -1      1626 2.82799E+01
 -1      1627 2.82799E+01
 -1      1628 3.13492E+01
 -1      1629 2.35803E+01
 -1      1630 2.64648E+01
 -1      1631 3.31227E+01
 -1      1632 1.43989E+01
 -1      1633 1.52752E+01
 -1      1634 2.30025E+01
 -1      1635 1.41650E+01
 -1      1636 1.28645E+01
 -1      1637 1.31630E+01
 -1      1638 1.67013E+01
 -1      1639 1.67013E+01
 -1      1640 1.41650E+01
 -1      1641 3.18070E+00
 -1      1642 1.07426E+01
 -1      1643 1.07426E+01
 -1      1644 1.78853E+00
 -1      1645 1.86808E+00
 -1      1646 3.47128E+00
 -1      1647 2.85039E+00
 -1      1648 1.95683E+00
 -1      1649 2.32696E+00
 -1      1650 4.00710E+00
 -1      1651 3.33266E+01
 -1      1652 3.33266E+01
 -1      1653 2.94990E+01
 -1      1654 3.06072E+01
 -1      1655 2.73418E+01
 -1      1656 2.89400E+01
 -1      1657 1.24925E+01
 -1      1658 1.92176E+01
 -1      1659 1.31096E+01
 -1      1660 1.31096E+01
 -1      1661 1.27283E+01
 -1      1662 1.31096E+01
 -1      1663 1.29321E+01
 -1      1664 1.27028E+01
 -1      1665 1.27595E+01
 -1      1666 1.25484E+01
 -1      1667 1.29705E+01
 -1      1668 1.29705E+01
 -1      1669 1.38398E+01
 -1      1670 1.20759E+01
 -1      1671 3.07899E+01
 -1      1672 1.72464E+01
 -1      1673 4.35854E+01
 -1      1674 4.35854E+01
 -1      1675 3.07685E+01
 -1      1676 4.06068E+01
 -1      1677 2.46839E+01
 -1      1678 2.46839E+01
 -1      1679 2.41327E+01
 -1      1680 2.46839E+01
 -1      1681 2.39403E+01
 -1      1682 2.39403E+01
 -1      1683 3.58085E+01
 -1      1684 2.47133E+01
 -1      1685 4.49968E+01
 -1      1686 4.49968E+01
 -1      1687 1.80383E+01
 -1      1688 3.17931E+01
 -1      1689 1.17982E+01
 -1      1690 1.44630E+01
 -1      1691 1.25814E+01
 -1      1692 1.21576E+01
 -1      1693 1.30052E+01
 -1      1694 1.30052E+01
 -1      1695 1.25799E+01
 -1      1696 1.28123E+01
 -1      1697 1.27744E+01
 -1      1698 1.26153E+01
 -1      1699 1.28586E+01
 -1      1700 1.28586E+01
 -1      1701 1.83317E+01
 -1      1702 1.22551E+01
 -1      1703 2.93702E+01
 -1      1704 2.60762E+01
 -1      1705 3.15997E+01
 -1      1706 3.15997E+01
 -1      1707 3.33266E+01
 -1      1708 3.32687E+01
 -1      1709 2.02568E+01
 -1      1710 2.47336E+00
 -1      1711 2.07359E+00
 -1      1712 1.57024E+01
 -1      1713 1.30889E+01
 -1      1714 1.57024E+01
 -1      1715 3.22184E+01
 -1      1716 2.89400E+01
 -1      1717 3.49377E+01
 -1      1718 1.27496E+01
 -1      1719 1.33667E+01
 -1      1720 1.33413E+01
 -1      1721 1.29321E+01
 -1      1722 1.27595E+01
 -1      1723 1.20759E+01
 -1      1724 1.45879E+01
 -1      1725 3.07899E+01
 -1      1726 4.06068E+01
 -1      1727 3.15437E+01
 -1      1728 2.54591E+01
 -1      1729 2.52667E+01
 -1      1730 2.58472E+01
 -1      1731 3.58085E+01
 -1      1732 3.17931E+01
 -1      1733 1.50141E+01
 -1      1734 1.17982E+01
 -1      1735 1.25814E+01
 -1      1736 1.28123E+01
 -1      1737 1.26548E+01
 -1      1738 1.27744E+01
 -1      1739 1.22551E+01
 -1      1740 1.93962E+01
 -1      1741 2.93702E+01
 -1      1742 3.32687E+01
 -1      1743 9.61013E+00
 -1      1744 1.56064E+01
 -1      1745 1.28851E+00
 -1      1746 1.68593E+00
 -1      1747 2.39023E+00
 -1      1748 4.27860E+00
 -1      1749 1.77515E+00
 -1      1750 8.80597E-01
 -1      1751 9.73760E-01
 -1      1752 7.79748E-01
 -1      1753 8.33646E-01
 -1      1754 7.42112E-01
 -1      1755 7.13875E-01
 -1      1756 7.48117E-01
 -1      1757 6.63531E-01
 -1      1758 6.71551E-01
 -1      1759 6.91684E-01
 -1      1760 6.09709E-01
 -1      1761 6.95025E-01
 -1      1762 6.73187E-01
 -1      1763 5.89153E-01
 -1      1764 7.50779E-01
 -1      1765 7.16874E-01
 -1      1766 6.12638E-01
 -1      1767 8.41221E-01
 -1      1768 7.84204E-01
 -1      1769 6.67912E-01
 -1      1770 9.84301E-01
 -1      1771 8.88914E-01
 -1      1772 7.49029E-01
 -1      1773 1.22918E+00
 -1      1774 1.05134E+00
 -1      1775 8.63762E-01
 -1      1776 1.70239E+00
 -1      1777 1.33647E+00
 -1      1778 1.03809E+00
 -1      1779 2.63254E+00
 -1      1780 1.79562E+00
 -1      1781 1.23862E+00
 -1      1782 8.11766E+00
 -1      1783 3.06497E+00
 -1      1784 1.76427E+00
 -1      1785 2.79621E+00
 -1      1786 5.19764E+00
 -1      1787 2.16427E+00
 -1      1788 2.65544E+00
 -1      1789 2.05593E+00
 -1      1790 2.19458E+01
 -1      1791 2.20417E+01
 -1      1792 3.39849E+00
 -1      1793 2.53454E+00
 -1      1794 1.91960E+00
 -1      1795 1.68846E+00
 -1      1796 1.35639E+00
 -1      1797 1.49763E+00
 -1      1798 1.17603E+00
 -1      1799 9.65087E-01
 -1      1800 1.08614E+00
 -1      1801 8.39451E-01
 -1      1802 7.14551E-01
 -1      1803 7.80147E-01
 -1      1804 6.56079E-01
 -1      1805 5.66069E-01
 -1      1806 5.96039E-01
 -1      1807 5.17347E-01
 -1      1808 4.53404E-01
 -1      1809 4.88844E-01
 -1      1810 4.10406E-01
 -1      1811 3.60160E-01
 -1      1812 3.97123E-01
 -1      1813 3.27196E-01
 -1      1814 2.87963E-01
 -1      1815 3.21160E-01
 -1      1816 2.60073E-01
 -1      1817 2.31432E-01
 -1      1818 2.60306E-01
 -1      1819 2.07399E-01
 -1      1820 1.83009E-01
 -1      1821 2.08383E-01
 -1      1822 1.65230E-01
 -1      1823 1.44999E-01
 -1      1824 1.66571E-01
 -1      1825 1.30117E-01
 -1      1826 1.13729E-01
 -1      1827 1.33911E-01
 -1      1828 1.01236E-01
 -1      1829 8.82713E-02
 -1      1830 1.06536E-01
 -1      1831 7.80750E-02
 -1      1832 6.80813E-02
 -1      1833 8.38471E-02
 -1      1834 5.99792E-02
 -1      1835 5.25163E-02
 -1      1836 6.55486E-02
 -1      1837 4.62505E-02
 -1      1838 4.09108E-02
 -1      1839 5.11807E-02
 -1      1840 3.62003E-02
 -1      1841 3.26183E-02
 -1      1842 4.02046E-02
 -1      1843 2.91750E-02
 -1      1844 2.70269E-02
 -1      1845 3.20509E-02
 -1      1846 2.45602E-02
 -1      1847 2.53079E-02
 -1      1848 2.61409E-02
 -1      1849 2.63626E-02
 -1      1850 2.91799E-02
 -1      1851 2.47289E-02
 -1      1852 3.11837E-02
 -1      1853 3.62371E-02
 -1      1854 2.77873E-02
 -1      1855 3.96562E-02
 -1      1856 4.58759E-02
 -1      1857 3.32101E-02
 -1      1858 5.20756E-02
 -1      1859 5.93571E-02
 -1      1860 4.28288E-02
 -1      1861 6.81627E-02
 -1      1862 7.89847E-02
 -1      1863 5.78341E-02
 -1      1864 9.13296E-02
 -1      1865 1.07233E-01
 -1      1866 7.89847E-02
 -1      1867 1.27952E-01
 -1      1868 1.47906E-01
 -1      1869 1.12048E-01
 -1      1870 1.75647E-01
 -1      1871 2.00010E-01
 -1      1872 1.60508E-01
 -1      1873 2.35814E-01
 -1      1874 2.66593E-01
 -1      1875 2.24053E-01
 -1      1876 3.11611E-01
 -1      1877 3.63368E-01
 -1      1878 3.04875E-01
 -1      1879 4.18229E-01
 -1      1880 4.81955E-01
 -1      1881 4.04755E-01
 -1      1882 5.46162E-01
 -1      1883 6.21131E-01
 -1      1884 5.23823E-01
 -1      1885 6.92108E-01
 -1      1886 7.74776E-01
 -1      1887 6.59007E-01
 -1      1888 8.46492E-01
 -1      1889 9.28589E-01
 -1      1890 8.01699E-01
 -1      1891 9.92651E-01
 -1      1892 1.08132E+00
 -1      1893 9.37477E-01
 -1      1894 1.15428E+00
 -1      1895 1.28064E+00
 -1      1896 1.07450E+00
 -1      1897 1.36094E+00
 -1      1898 1.50432E+00
 -1      1899 1.22777E+00
 -1      1900 1.52973E+00
 -1      1901 1.61519E+00
 -1      1902 1.33349E+00
 -1      1903 1.54496E+00
 -1      1904 1.66069E+00
 -1      1905 1.28867E+00
 -1      1906 1.63210E+00
 -1      1907 1.73528E+00
 -1      1908 1.18986E+00
 -1      1909 1.97371E+00
 -1      1910 2.30414E+00
 -1      1911 1.39968E+00
 -1      1912 3.18697E+00
 -1      1913 4.30428E+00
 -1      1914 2.52094E+00
 -1      1915 5.05883E+00
 -1      1916 6.70208E+00
 -1      1917 4.15833E+00
 -1      1918 7.41399E+00
 -1      1919 9.01791E+00
 -1      1920 5.62480E+00
 -1      1921 9.05204E+00
 -1      1922 8.86456E+00
 -1      1923 6.37084E+00
 -1      1924 8.35523E+00
 -1      1925 7.62690E+00
 -1      1926 5.89564E+00
 -1      1927 7.04637E+00
 -1      1928 4.87210E+00
 -1      1929 4.80578E+00
 -1      1930 3.31227E+01
 -1      1931 3.49377E+01
 -1      1932 1.39550E+00
 -1      1933 1.76995E+00
 -1      1934 1.52084E+00
 -1      1935 1.01456E+00
 -1      1936 1.27474E+00
 -1      1937 1.00577E+00
 -1      1938 8.04038E-01
 -1      1939 9.22853E-01
 -1      1940 7.93307E-01
 -1      1941 6.37471E-01
 -1      1942 7.24921E-01
 -1      1943 6.22479E-01
 -1      1944 5.12124E-01
 -1      1945 5.84016E-01
 -1      1946 4.89907E-01
 -1      1947 4.18766E-01
 -1      1948 4.78681E-01
 -1      1949 4.03008E-01
 -1      1950 3.36695E-01
 -1      1951 3.86646E-01
 -1      1952 3.37445E-01
 -1      1953 2.71300E-01
 -1      1954 3.08697E-01
 -1      1955 2.77326E-01
 -1      1956 2.17108E-01
 -1      1957 2.48358E-01
 -1      1958 2.26385E-01
 -1      1959 1.72384E-01
 -1      1960 1.96950E-01
 -1      1961 1.83285E-01
 -1      1962 1.35171E-01
 -1      1963 1.55260E-01
 -1      1964 1.46003E-01
 -1      1965 1.04791E-01
 -1      1966 1.21163E-01
 -1      1967 1.14872E-01
 -1      1968 8.03975E-02
 -1      1969 9.34150E-02
 -1      1970 8.94881E-02
 -1      1971 6.13484E-02
 -1      1972 7.14074E-02
 -1      1973 6.91216E-02
 -1      1974 4.70147E-02
 -1      1975 5.44990E-02
 -1      1976 5.32821E-02
 -1      1977 3.68077E-02
 -1      1978 4.20624E-02
 -1      1979 4.14805E-02
 -1      1980 3.02134E-02
 -1      1981 3.35319E-02
 -1      1982 3.32524E-02
 -1      1983 2.75680E-02
 -1      1984 2.84267E-02
 -1      1985 2.81898E-02
 -1      1986 3.09614E-02
 -1      1987 2.81767E-02
 -1      1988 2.70118E-02
 -1      1989 3.75626E-02
 -1      1990 3.32626E-02
 -1      1991 2.99217E-02
 -1      1992 4.66022E-02
 -1      1993 4.08198E-02
 -1      1994 3.54802E-02
 -1      1995 5.86965E-02
 -1      1996 5.14913E-02
 -1      1997 4.36266E-02
 -1      1998 7.55771E-02
 -1      1999 6.70871E-02
 -1      2000 5.69064E-02
 -1      2001 9.65227E-02
 -1      2002 8.62994E-02
 -1      2003 7.60194E-02
 -1      2004 1.24614E-01
 -1      2005 1.09785E-01
 -1      2006 1.00004E-01
 -1      2007 1.66840E-01
 -1      2008 1.46676E-01
 -1      2009 1.35328E-01
 -1      2010 2.20705E-01
 -1      2011 1.97301E-01
 -1      2012 1.87852E-01
 -1      2013 2.84083E-01
 -1      2014 2.58235E-01
 -1      2015 2.55844E-01
 -1      2016 3.55074E-01
 -1      2017 3.28430E-01
 -1      2018 3.37720E-01
 -1      2019 4.33771E-01
 -1      2020 4.04687E-01
 -1      2021 4.31679E-01
 -1      2022 5.17177E-01
 -1      2023 4.85033E-01
 -1      2024 5.32554E-01
 -1      2025 5.88261E-01
 -1      2026 5.63459E-01
 -1      2027 6.30098E-01
 -1      2028 6.82962E-01
 -1      2029 6.36084E-01
 -1      2030 7.24204E-01
 -1      2031 7.83222E-01
 -1      2032 7.11968E-01
 -1      2033 8.01033E-01
 -1      2034 8.55138E-01
 -1      2035 7.83222E-01
 -1      2036 8.30039E-01
 -1      2037 9.36315E-01
 -1      2038 8.41398E-01
 -1      2039 8.16299E-01
 -1      2040 1.03543E+00
 -1      2041 9.10146E-01
 -1      2042 7.76390E-01
 -1      2043 1.33738E+00
 -1      2044 1.11361E+00
 -1      2045 8.28397E-01
 -1      2046 1.71602E+00
 -1      2047 1.58289E+00
 -1      2048 1.15208E+00
 -1      2049 2.47249E+00
 -1      2050 2.23489E+00
 -1      2051 1.91646E+00
 -1      2052 3.26997E+00
 -1      2053 2.92194E+00
 -1      2054 2.88479E+00
 -1      2055 3.98474E+00
 -1      2056 3.32973E+00
 -1      2057 3.39400E+00
 -1      2058 4.64556E+00
 -1      2059 3.98474E+00
 -1      2060 3.45377E+00
 -1      2061 4.59903E+00
 -1      2062 4.33712E+00
 -1      2063 3.14533E+00
 -1      2064 4.40067E+00
 -1      2065 4.74577E+00
 -1      2066 2.98363E+00
 -1      2067 2.53335E+00
 -1      2068 3.76558E+00
 -1      2069 2.49529E+00
 -1      2070 1.40045E+00
 -1      2071 5.29386E+00
 -1      2072 3.97815E+00
 -1      2073 2.75972E+00
 -1      2074 2.05655E+00
 -1      2075 4.36107E+00
 -1      2076 2.86299E+01
 -1      2077 3.13492E+01
 -1      2078 1.47569E+00
 -1      2079 1.46081E+00
 -1      2080 1.92057E+00
 -1      2081 2.56178E+00
 -1      2082 8.37594E+00
 -1      2083 6.94404E+00
 -1      2084 7.22968E+00
 -1      2085 9.67760E+00
 -1      2086 8.37594E+00
 -1      2087 8.87985E+00
 -1      2088 3.49377E+01
 -1      2089 2.25048E+01
 -1      2090 2.31486E+01
 -1      2091 3.14537E+01
 -1      2092 1.16286E+01
 -1      2093 1.31630E+01
 -1      2094 7.01411E+00
 -1      2095 1.29728E+01
 -1      2096 3.50132E+00
 -1      2097 4.81394E+00
 -1      2098 7.04414E+00
 -1      2099 1.39174E+01
 -1      2100 1.03581E+00
 -1      2101 1.20966E+00
 -1      2102 9.92000E-01
 -1      2103 8.51109E-01
 -1      2104 1.33667E+01
 -1      2105 1.33667E+01
 -1      2106 1.33158E+01
 -1      2107 1.33413E+01
 -1      2108 1.22275E+01
 -1      2109 1.26112E+01
 -1      2110 1.17944E+01
 -1      2111 1.15834E+01
 -1      2112 9.29220E+00
 -1      2113 1.01868E+01
 -1      2114 1.32811E+01
 -1      2115 9.87451E+00
 -1      2116 2.91925E+01
 -1      2117 1.63971E+01
 -1      2118 3.16167E+01
 -1      2119 3.45952E+01
 -1      2120 2.33155E+01
 -1      2121 2.94001E+01
 -1      2122 2.71281E+01
 -1      2123 2.71281E+01
 -1      2124 2.69357E+01
 -1      2125 2.71281E+01
 -1      2126 2.87971E+01
 -1      2127 2.41009E+01
 -1      2128 2.33280E+01
 -1      2129 3.58085E+01
 -1      2130 2.66202E+01
 -1      2131 1.70861E+01
 -1      2132 3.02898E+01
 -1      2133 2.11015E+01
 -1      2134 1.05858E+01
 -1      2135 1.41611E+01
 -1      2136 1.00182E+01
 -1      2137 9.65877E+00
 -1      2138 1.12906E+01
 -1      2139 1.08668E+01
 -1      2140 1.25429E+01
 -1      2141 1.27358E+01
 -1      2142 1.26548E+01
 -1      2143 1.26194E+01
 -1      2144 1.25429E+01
 -1      2145 1.27744E+01
 -1      2146 1.26902E+01
 -1      2147 1.19349E+01
 -1      2148 1.25384E+01
 -1      2149 1.93847E+01
 -1      2150 1.16402E+01
 -1      2151 2.09191E+01
 -1      2152 1.15649E+01
 -1      2153 1.09478E+01
 -1      2154 1.04590E+01
 -1      2155 1.22440E+01
 -1      2156 1.28852E+01
 -1      2157 8.17177E+00
 -1      2158 1.12878E+01
 -1      2159 2.90987E+00
 -1      2160 2.10411E+00
 -1      2161 3.36025E+00
 -1      2162 1.15649E+01
 -1      2163 1.12624E+01
 -1      2164 7.98544E+00
 -1      2165 9.27428E+00
 -1      2166 3.66961E+00
 -1      2167 2.33885E+01
 -1      2168 1.33413E+01
 -1      2169 1.12794E+01
 -1      2170 1.12794E+01
 -1      2171 1.12909E+01
 -1      2172 1.38157E+01
 -1      2173 2.49845E+01
 -1      2174 2.02024E+01
 -1      2175 9.01073E+00
 -1      2176 9.63044E+00
 -1      2177 1.26548E+01
 -1      2178 1.10212E+01
 -1      2179 8.72737E+00
 -1      2180 1.26578E+01
 -1      2181 2.51894E+01
 -1      2182 1.26112E+01
 -1      2183 2.41009E+01
 -1      2184 8.80577E+00
 -1      2185 1.24541E+01
 -1      2186 5.59296E-01
 -1      2187 5.90926E-01
 -1      2188 6.03214E-01
 -1      2189 6.50165E-01
 -1      2190 4.98979E-01
 -1      2191 5.11168E-01
 -1      2192 5.09532E-01
 -1      2193 5.46106E-01
 -1      2194 5.24256E-01
 -1      2195 4.44636E-01
 -1      2196 5.94288E-01
 -1      2197 5.60863E-01
 -1      2198 4.72482E-01
 -1      2199 6.54369E-01
 -1      2200 6.06676E-01
 -1      2201 4.99627E-01
 -1      2202 7.21409E-01
 -1      2203 6.54369E-01
 -1      2204 5.12015E-01
 -1      2205 8.25541E-01
 -1      2206 7.18249E-01
 -1      2207 5.08855E-01
 -1      2208 1.00291E+00
 -1      2209 9.09677E-01
 -1      2210 5.89831E-01
 -1      2211 1.75700E+00
 -1      2212 1.32457E+00
 -1      2213 9.95635E-01
 -1      2214 1.61624E+00
 -1      2215 1.26591E+00
 -1      2216 1.03477E+00
 -1      2217 7.01596E-01
 -1      2218 7.93307E-01
 -1      2219 8.85018E-01
 -1      2220 1.00577E+00
 -1      2221 7.93307E-01
 -1      2222 1.67831E+00
 -1      2223 1.30297E+00
 -1      2224 8.40106E-01
 -1      2225 9.74005E-01
 -1      2226 9.83804E-01
 -1      2227 8.03449E-01
 -1      2228 7.52082E-01
 -1      2229 7.46644E-01
 -1      2230 6.21008E-01
 -1      2231 6.44310E-01
 -1      2232 5.64728E-01
 -1      2233 5.06256E-01
 -1      2234 5.31225E-01
 -1      2235 4.56773E-01
 -1      2236 4.08050E-01
 -1      2237 4.25463E-01
 -1      2238 3.80705E-01
 -1      2239 3.37707E-01
 -1      2240 3.48634E-01
 -1      2241 3.12472E-01
 -1      2242 2.79507E-01
 -1      2243 2.96054E-01
 -1      2244 2.55589E-01
 -1      2245 2.27698E-01
 -1      2246 2.46900E-01
 -1      2247 2.08307E-01
 -1      2248 1.84274E-01
 -1      2249 2.03590E-01
 -1      2250 1.67236E-01
 -1      2251 1.49457E-01
 -1      2252 1.67160E-01
 -1      2253 1.34594E-01
 -1      2254 1.19713E-01
 -1      2255 1.35259E-01
 -1      2256 1.07170E-01
 -1      2257 9.46770E-02
 -1      2258 1.07854E-01
 -1      2259 8.54239E-02
 -1      2260 7.52276E-02
 -1      2261 8.60576E-02
 -1      2262 6.74804E-02
 -1      2263 5.93783E-02
 -1      2264 6.90573E-02
 -1      2265 5.30231E-02
 -1      2266 4.67574E-02
 -1      2267 5.49549E-02
 -1      2268 4.16374E-02
 -1      2269 3.69270E-02
 -1      2270 4.34798E-02
 -1      2271 3.28322E-02
 -1      2272 2.93889E-02
 -1      2273 3.42650E-02
 -1      2274 2.61409E-02
 -1      2275 2.36742E-02
 -1      2276 2.69222E-02
 -1      2277 2.26748E-02
 -1      2278 2.37295E-02
 -1      2279 2.26748E-02
 -1      2280 2.35877E-02
 -1      2281 2.55915E-02
 -1      2282 2.15337E-02
 -1      2283 2.86881E-02
 -1      2284 3.21072E-02
 -1      2285 2.44886E-02
 -1      2286 3.66292E-02
 -1      2287 4.28288E-02
 -1      2288 3.21072E-02
 -1      2289 5.26519E-02
 -1      2290 6.14575E-02
 -1      2291 4.64522E-02
 -1      2292 7.50147E-02
 -1      2293 8.73597E-02
 -1      2294 6.98325E-02
 -1      2295 1.05333E-01
 -1      2296 1.26051E-01
 -1      2297 1.01363E-01
 -1      2298 1.49496E-01
 -1      2299 1.77237E-01
 -1      2300 1.42781E-01
 -1      2301 2.07266E-01
 -1      2302 2.43070E-01
 -1      2303 1.96255E-01
 -1      2304 2.80750E-01
 -1      2305 3.25768E-01
 -1      2306 2.63963E-01
 -1      2307 3.71936E-01
 -1      2308 4.26797E-01
 -1      2309 3.47810E-01
 -1      2310 4.81742E-01
 -1      2311 5.45949E-01
 -1      2312 4.48923E-01
 -1      2313 6.08914E-01
 -1      2314 6.79890E-01
 -1      2315 5.66832E-01
 -1      2316 7.48331E-01
 -1      2317 8.20047E-01
 -1      2318 6.98238E-01
 -1      2319 8.89715E-01
 -1      2320 9.53777E-01
 -1      2321 8.36347E-01
 -1      2322 1.02407E+00
 -1      2323 1.09703E+00
 -1      2324 9.76303E-01
 -1      2325 1.14816E+00
 -1      2326 1.22847E+00
 -1      2327 1.09773E+00
 -1      2328 1.29517E+00
 -1      2329 1.32059E+00
 -1      2330 1.21557E+00
 -1      2331 1.41092E+00
 -1      2332 1.34070E+00
 -1      2333 1.37261E+00
 -1      2334 1.40822E+00
 -1      2335 1.37963E+00
 -1      2336 1.53047E+00
 -1      2337 1.67756E+00
 -1      2338 1.91598E+00
 -1      2339 1.89592E+00
 -1      2340 2.23839E+00
 -1      2341 3.12123E+00
 -1      2342 2.51627E+00
 -1      2343 3.53718E+00
 -1      2344 4.29173E+00
 -1      2345 3.25463E+00
 -1      2346 4.95821E+00
 -1      2347 5.67013E+00
 -1      2348 4.33706E+00
 -1      2349 7.10965E+00
 -1      2350 7.14377E+00
 -1      2351 6.44306E+00
 -1      2352 7.39270E+00
 -1      2353 6.88337E+00
 -1      2354 8.13151E+00
 -1      2355 6.40211E+00
 -1      2356 5.82158E+00
 -1      2357 7.89917E+00
 -1      2358 1.03228E+00
 -1      2359 1.42661E+00
 -1      2360 1.12768E+00
 -1      2361 9.11534E-01
 -1      2362 5.43362E-01
 -1      2363 6.22479E-01
 -1      2364 6.22479E-01
 -1      2365 4.36452E-01
 -1      2366 4.89907E-01
 -1      2367 4.89907E-01
 -1      2368 3.69565E-01
 -1      2369 4.03008E-01
 -1      2370 4.03008E-01
 -1      2371 3.05325E-01
 -1      2372 3.37445E-01
 -1      2373 3.37445E-01
 -1      2374 2.49327E-01
 -1      2375 2.77326E-01
 -1      2376 2.77326E-01
 -1      2377 2.03846E-01
 -1      2378 2.26789E-01
 -1      2379 2.26789E-01
 -1      2380 1.63834E-01
 -1      2381 1.83992E-01
 -1      2382 1.84396E-01
 -1      2383 1.29707E-01
 -1      2384 1.46831E-01
 -1      2385 1.47538E-01
 -1      2386 1.03162E-01
 -1      2387 1.17170E-01
 -1      2388 1.17998E-01
 -1      2389 8.12111E-02
 -1      2390 9.25875E-02
 -1      2391 9.48853E-02
 -1      2392 6.34502E-02
 -1      2393 7.24403E-02
 -1      2394 7.55397E-02
 -1      2395 4.95122E-02
 -1      2396 5.63616E-02
 -1      2397 5.96803E-02
 -1      2398 3.89578E-02
 -1      2399 4.39100E-02
 -1      2400 4.69895E-02
 -1      2401 3.13281E-02
 -1      2402 3.46039E-02
 -1      2403 3.70334E-02
 -1      2404 2.61725E-02
 -1      2405 2.79592E-02
 -1      2406 2.93107E-02
 -1      2407 2.51790E-02
 -1      2408 2.45703E-02
 -1      2409 2.43397E-02
 -1      2410 2.77425E-02
 -1      2411 2.54413E-02
 -1      2412 2.29998E-02
 -1      2413 3.27579E-02
 -1      2414 2.95006E-02
 -1      2415 2.50202E-02
 -1      2416 4.21883E-02
 -1      2417 3.72992E-02
 -1      2418 3.13196E-02
 -1      2419 5.69064E-02
 -1      2420 4.85157E-02
 -1      2421 4.21883E-02
 -1      2422 7.97191E-02
 -1      2423 6.89968E-02
 -1      2424 6.06061E-02
 -1      2425 1.09200E-01
 -1      2426 9.59380E-02
 -1      2427 8.89153E-02
 -1      2428 1.52251E-01
 -1      2429 1.30190E-01
 -1      2430 1.26124E-01
 -1      2431 2.09193E-01
 -1      2432 1.78731E-01
 -1      2433 1.73592E-01
 -1      2434 2.79157E-01
 -1      2435 2.41627E-01
 -1      2436 2.32506E-01
 -1      2437 3.61839E-01
 -1      2438 3.17493E-01
 -1      2439 3.03276E-01
 -1      2440 4.54721E-01
 -1      2441 4.05108E-01
 -1      2442 3.84881E-01
 -1      2443 5.51763E-01
 -1      2444 5.00501E-01
 -1      2445 4.73930E-01
 -1      2446 6.41785E-01
 -1      2447 5.95503E-01
 -1      2448 5.63451E-01
 -1      2449 7.35612E-01
 -1      2450 6.87788E-01
 -1      2451 6.53194E-01
 -1      2452 8.01033E-01
 -1      2453 7.72027E-01
 -1      2454 7.35612E-01
 -1      2455 8.30039E-01
 -1      2456 8.30039E-01
 -1      2457 8.01033E-01
 -1      2458 8.02559E-01
 -1      2459 8.16299E-01
 -1      2460 8.16299E-01
 -1      2461 7.40090E-01
 -1      2462 7.66259E-01
 -1      2463 7.66259E-01
 -1      2464 8.96067E-01
 -1      2465 8.17890E-01
 -1      2466 8.07760E-01
 -1      2467 1.26532E+00
 -1      2468 1.01982E+00
 -1      2469 1.00931E+00
 -1      2470 2.19175E+00
 -1      2471 1.67288E+00
 -1      2472 1.54061E+00
 -1      2473 3.11436E+00
 -1      2474 2.66491E+00
 -1      2475 2.42133E+00
 -1      2476 3.42528E+00
 -1      2477 3.36551E+00
 -1      2478 3.14564E+00
 -1      2479 4.03978E+00
 -1      2480 4.03978E+00
 -1      2481 4.01129E+00
 -1      2482 3.54701E+00
 -1      2483 3.85545E+00
 -1      2484 4.44145E+00
 -1      2485 3.68979E+00
 -1      2486 3.54305E+00
 -1      2487 4.25317E+00
 -1      2488 2.55565E+00
 -1      2489 6.31936E+00
 -1      2490 5.10093E+00
 -1      2491 1.03514E+01
 -1      2492 8.70120E+00
 -1      2493 9.44106E+00
 -1      2494 8.83269E+00
 -1      2495 9.90113E+00
 -1      2496 1.05452E+01
 -1      2497 1.44597E+01
 -1      2498 1.15741E+01
 -1      2499 4.53461E+00
 -1      2500 1.07312E+01
 -1      2501 2.51593E+01
 -1      2502 2.13467E+01
 -1      2503 7.75664E+00
 -1      2504 9.95681E+00
 -1      2505 1.96824E+01
 -1      2506 2.18989E+01
 -1      2507 1.20015E+01
 -1      2508 1.19661E+01
 -1      2509 1.06003E+01
 -1      2510 9.15514E+00
 -1      2511 2.08062E+01
 -1      2512 2.44139E+01
 -1      2513 1.18647E+01
 -1      2514 1.25693E+01
 -1      2515 5.22506E-01
 -1      2516 5.44697E-01
 -1      2517 4.72092E-01
 -1      2518 4.44520E-01
 -1      2519 2.24375E+01
 -1      2520 1.99183E+01
 -1      2521 6.98908E+00
 -1      2522 6.40677E+00
 -1      2523 6.89339E+00
 -1      2524 8.50099E+00
 -1      2525 5.89703E+00
 -1      2526 1.25693E+01
 -1      2527 1.25948E+01
 -1      2528 1.84917E+01
 -1      2529 1.30891E+01
 -1      2530 1.47856E+01
 -1      2531 2.87971E+01
 -1      2532 2.87971E+01
 -1      2533 2.44139E+01
 -1      2534 6.70776E+00
 -1      2535 7.63477E+00
 -1      2536 1.34982E+01
 -1      2537 1.90169E+01
 -1      2538 9.32716E+00
 -1      2539 1.22522E+01
 -1      2540 1.01676E+01
 -1      2541 7.67888E+00
 -1      2542 6.83027E+00
 -1      2543 1.23967E+01
 -1      2544 1.23202E+01
 -1      2545 6.59311E+00
 -1      2546 5.11267E-01
 -1      2547 6.50165E-01
 -1      2548 7.12211E-01
 -1      2549 6.88190E-01
 -1      2550 7.67036E-01
 -1      2551 6.70195E-01
 -1      2552 4.87246E-01
 -1      2553 1.24541E+01
 -1      2554 1.17654E+01
 -1      2555 1.98572E+01
 -1      2556 3.11507E+00
 -1      2557 1.03514E+01
 -1      2558 1.03514E+01
 -1      2559 7.78379E+00
 -1      2560 6.13094E+00
 -1      2561 9.04361E+00
 -1      2562 2.51593E+01
 -1      2563 1.17434E+01
 -1      2564 1.11233E+01
 -1      2565 9.32143E+00
 -1      2566 7.22915E+00
 -1      2567 5.65927E+00
 -1      2568 7.25805E+00
 -1      2569 1.15741E+01
 -1      2570 1.05034E+01
 -1      2571 1.91428E+01
 -1      2572 1.18229E+01
 -1      2573 1.04542E+01
 -1      2574 3.69593E+00
 -1      2575 9.57421E+00
 -1      2576 1.12848E+01
 -1      2577 7.77288E+00
 -1      2578 1.48343E+01
 -1      2579 1.22181E+01
 -1      2580 1.18229E+01
 -1      2581 5.65422E+00
 -1      2582 4.22371E-01
 -1      2583 4.07614E-01
 -1      2584 4.00013E-01
 -1      2585 3.86925E-01
 -1      2586 3.49903E-01
 -1      2587 4.38025E-01
 -1      2588 4.38025E-01
 -1      2589 4.22331E-01
 -1      2590 4.25491E-01
 -1      2591 3.51501E-01
 -1      2592 8.06008E-01
 -1      2593 6.03111E-01
 -1      2594 5.52145E-01
 -1      2595 3.47760E-01
 -1      2596 3.81204E-01
 -1      2597 4.15623E-01
 -1      2598 4.69079E-01
 -1      2599 3.60375E-01
 -1      2600 6.23747E-01
 -1      2601 5.86689E-01
 -1      2602 3.86752E-01
 -1      2603 4.16778E-01
 -1      2604 5.02363E-01
 -1      2605 5.81480E-01
 -1      2606 4.28079E-01
 -1      2607 1.18229E+01
 -1      2608 1.84243E+01
 -1      2609 1.67600E+01
 -1      2610 5.48665E-01
 -1      2611 4.91859E-01
 -1      2612 3.99694E-01
 -1      2613 4.85196E-01
 -1      2614 4.28917E-01
 -1      2615 3.89551E-01
 -1      2616 4.08379E-01
 -1      2617 3.58896E-01
 -1      2618 3.62350E-01
 -1      2619 3.33981E-01
 -1      2620 3.06636E-01
 -1      2621 3.16897E-01
 -1      2622 2.81695E-01
 -1      2623 2.56460E-01
 -1      2624 2.67042E-01
 -1      2625 2.40876E-01
 -1      2626 2.16957E-01
 -1      2627 2.26517E-01
 -1      2628 2.00639E-01
 -1      2629 1.81248E-01
 -1      2630 1.94615E-01
 -1      2631 1.65705E-01
 -1      2632 1.48666E-01
 -1      2633 1.62753E-01
 -1      2634 1.34686E-01
 -1      2635 1.19824E-01
 -1      2636 1.33230E-01
 -1      2637 1.08051E-01
 -1      2638 9.55082E-02
 -1      2639 1.07478E-01
 -1      2640 8.61253E-02
 -1      2641 7.68722E-02
 -1      2642 8.63229E-02
 -1      2643 6.90573E-02
 -1      2644 6.13101E-02
 -1      2645 6.91250E-02
 -1      2646 5.49549E-02
 -1      2647 4.85998E-02
 -1      2648 5.49549E-02
 -1      2649 4.34798E-02
 -1      2650 3.83598E-02
 -1      2651 4.34798E-02
 -1      2652 3.42650E-02
 -1      2653 3.01702E-02
 -1      2654 3.42650E-02
 -1      2655 2.68536E-02
 -1      2656 2.36056E-02
 -1      2657 2.68536E-02
 -1      2658 2.13822E-02
 -1      2659 2.03828E-02
 -1      2660 2.13136E-02
 -1      2661 1.86643E-02
 -1      2662 1.85225E-02
 -1      2663 1.73717E-02
 -1      2664 2.03462E-02
 -1      2665 2.34428E-02
 -1      2666 1.74767E-02
 -1      2667 2.84616E-02
 -1      2668 3.29836E-02
 -1      2669 2.43192E-02
 -1      2670 4.13228E-02
 -1      2671 5.11458E-02
 -1      2672 3.76772E-02
 -1      2673 6.20849E-02
 -1      2674 7.56422E-02
 -1      2675 5.69554E-02
 -1      2676 8.99264E-02
 -1      2677 1.07900E-01
 -1      2678 8.21788E-02
 -1      2679 1.26369E-01
 -1      2680 1.49814E-01
 -1      2681 1.14933E-01
 -1      2682 1.73394E-01
 -1      2683 2.03423E-01
 -1      2684 1.56983E-01
 -1      2685 2.33100E-01
 -1      2686 2.70780E-01
 -1      2687 2.10240E-01
 -1      2688 3.07561E-01
 -1      2689 3.53728E-01
 -1      2690 2.76698E-01
 -1      2691 3.98578E-01
 -1      2692 4.53522E-01
 -1      2693 3.58328E-01
 -1      2694 5.07721E-01
 -1      2695 5.70686E-01
 -1      2696 4.57377E-01
 -1      2697 6.38082E-01
 -1      2698 7.06523E-01
 -1      2699 5.78971E-01
 -1      2700 7.84349E-01
 -1      2701 8.54016E-01
 -1      2702 7.24193E-01
 -1      2703 9.40155E-01
 -1      2704 1.01044E+00
 -1      2705 8.88157E-01
 -1      2706 1.09903E+00
 -1      2707 1.15017E+00
 -1      2708 1.06289E+00
 -1      2709 1.23782E+00
 -1      2710 1.30453E+00
 -1      2711 1.23913E+00
 -1      2712 1.44216E+00
 -1      2713 1.53250E+00
 -1      2714 1.46441E+00
 -1      2715 1.78232E+00
 -1      2716 1.84984E+00
 -1      2717 1.85187E+00
 -1      2718 2.09072E+00
 -1      2719 2.38865E+00
 -1      2720 2.34256E+00
 -1      2721 2.79223E+00
 -1      2722 3.11464E+00
 -1      2723 2.98702E+00
 -1      2724 3.27123E+00
 -1      2725 3.68718E+00
 -1      2726 3.54719E+00
 -1      2727 4.33706E+00
 -1      2728 5.00355E+00
 -1      2729 4.35366E+00
 -1      2730 8.30844E+00
 -1      2731 8.55737E+00
 -1      2732 8.38043E+00
 -1      2733 7.89917E+00
 -1      2734 9.52487E+00
 -1      2735 8.55737E+00
 -1      2736 2.88401E-01
 -1      2737 3.20522E-01
 -1      2738 2.98717E-01
 -1      2739 2.40337E-01
 -1      2740 2.68336E-01
 -1      2741 2.51412E-01
 -1      2742 1.98993E-01
 -1      2743 2.21532E-01
 -1      2744 2.12541E-01
 -1      2745 1.62062E-01
 -1      2746 1.81916E-01
 -1      2747 1.76659E-01
 -1      2748 1.30966E-01
 -1      2749 1.47969E-01
 -1      2750 1.45489E-01
 -1      2751 1.05926E-01
 -1      2752 1.18463E-01
 -1      2753 1.18894E-01
 -1      2754 8.46541E-02
 -1      2755 9.52289E-02
 -1      2756 9.56948E-02
 -1      2757 6.69955E-02
 -1      2758 7.57663E-02
 -1      2759 7.61099E-02
 -1      2760 5.30780E-02
 -1      2761 6.01665E-02
 -1      2762 6.03932E-02
 -1      2763 4.19851E-02
 -1      2764 4.75873E-02
 -1      2765 4.80735E-02
 -1      2766 3.30842E-02
 -1      2767 3.74381E-02
 -1      2768 3.80358E-02
 -1      2769 2.59419E-02
 -1      2770 2.93107E-02
 -1      2771 2.97154E-02
 -1      2772 2.19787E-02
 -1      2773 2.35810E-02
 -1      2774 2.35810E-02
 -1      2775 2.07657E-02
 -1      2776 2.05034E-02
 -1      2777 1.97446E-02
 -1      2778 2.37241E-02
 -1      2779 2.19660E-02
 -1      2780 1.94696E-02
 -1      2781 3.11356E-02
 -1      2782 2.65943E-02
 -1      2783 2.35401E-02
 -1      2784 4.52730E-02
 -1      2785 3.89456E-02
 -1      2786 3.42203E-02
 -1      2787 6.77756E-02
 -1      2788 5.56852E-02
 -1      2789 5.24425E-02
 -1      2790 9.75702E-02
 -1      2791 8.13513E-02
 -1      2792 7.64305E-02
 -1      2793 1.36007E-01
 -1      2794 1.15017E-01
 -1      2795 1.07453E-01
 -1      2796 1.84500E-01
 -1      2797 1.58020E-01
 -1      2798 1.46914E-01
 -1      2799 2.44108E-01
 -1      2800 2.11674E-01
 -1      2801 1.96102E-01
 -1      2802 3.15134E-01
 -1      2803 2.76799E-01
 -1      2804 2.55967E-01
 -1      2805 3.96518E-01
 -1      2806 3.53249E-01
 -1      2807 3.26772E-01
 -1      2808 4.85002E-01
 -1      2809 4.39222E-01
 -1      2810 4.07590E-01
 -1      2811 5.74846E-01
 -1      2812 5.31106E-01
 -1      2813 4.96397E-01
 -1      2814 6.70646E-01
 -1      2815 6.24643E-01
 -1      2816 5.92298E-01
 -1      2817 7.51210E-01
 -1      2818 7.14795E-01
 -1      2819 6.86244E-01
 -1      2820 8.17611E-01
 -1      2821 7.88606E-01
 -1      2822 7.67788E-01
 -1      2823 8.54709E-01
 -1      2824 8.68449E-01
 -1      2825 8.56022E-01
 -1      2826 8.75048E-01
 -1      2827 9.11348E-01
 -1      2828 9.63498E-01
 -1      2829 9.87713E-01
 -1      2830 9.09913E-01
 -1      2831 1.05500E+00
 -1      2832 1.33389E+00
 -1      2833 1.21014E+00
 -1      2834 1.31229E+00
 -1      2835 1.95956E+00
 -1      2836 1.55200E+00
 -1      2837 1.75283E+00
 -1      2838 2.69425E+00
 -1      2839 2.22109E+00
 -1      2840 2.23248E+00
 -1      2841 3.91718E+00
 -1      2842 3.66603E+00
 -1      2843 3.46580E+00
 -1      2844 6.31328E+00
 -1      2845 5.69878E+00
 -1      2846 6.21917E+00
 -1      2847 6.12446E+00
 -1      2848 6.30879E+00
 -1      2849 7.99629E+00
 -1      2850 7.75401E+00
 -1      2851 7.75796E+00
 -1      2852 9.62530E+00
 -1      2853 9.15901E+00
 -1      2854 8.82122E+00
 -1      2855 1.02214E+01
 -1      2856 1.05995E+01
 -1      2857 8.21762E+00
 -1      2858 1.03174E+01
 -1      2859 1.05995E+01
 -1      2860 1.09910E+01
 -1      2861 1.02785E+01
 -1      2862 5.31971E+00
 -1      2863 7.01210E+00
 -1      2864 1.39496E+01
 -1      2865 1.05424E+01
 -1      2866 6.70559E+00
 -1      2867 7.19221E+00
 -1      2868 4.66104E+00
 -1      2869 4.53853E+00
 -1      2870 6.08498E-01
 -1      2871 7.00209E-01
 -1      2872 4.88382E-01
 -1      2873 2.26429E+01
 -1      2874 1.90052E+01
 -1      2875 1.63437E+01
 -1      2876 1.72316E+01
 -1      2877 1.04542E+01
 -1      2878 8.73431E+00
 -1      2879 1.74865E+01
 -1      2880 2.18698E+01
 -1      2881 1.57156E+01
 -1      2882 1.46875E+01
 -1      2883 8.30844E+00
 -1      2884 6.83218E+00
 -1      2885 5.71144E+00
 -1      2886 8.30844E+00
 -1      2887 4.45372E-01
 -1      2888 4.32984E-01
 -1      2889 3.68116E-01
 -1      2890 3.71381E-01
 -1      2891 7.98695E+00
 -1      2892 9.23300E+00
 -1      2893 4.23695E-01
 -1      2894 4.35983E-01
 -1      2895 7.04412E+00
 -1      2896 5.86143E+00
 -1      2897 1.07549E+01
 -1      2898 1.41755E+01
 -1      2899 4.35983E-01
 -1      2900 4.35983E-01
 -1      2901 3.60699E-01
 -1      2902 3.42296E-01
 -1      2903 3.86919E-01
 -1      2904 3.99892E-01
 -1      2905 7.58179E-01
 -1      2906 6.26137E-01
 -1      2907 5.42001E-01
 -1      2908 7.31663E-01
 -1      2909 1.02773E+01
 -1      2910 1.60983E+01
 -1      2911 1.30011E+01
 -1      2912 1.35819E+01
 -1      2913 7.88258E+00
 -1      2914 6.44306E+00
 -1      2915 1.14217E+01
 -1      2916 5.89170E+00
 -1      2917 7.18688E+00
 -1      2918 6.34272E+00
 -1      2919 8.76915E+00
 -1      2920 6.96490E+00
 -1      2921 7.93313E+00
 -1      2922 1.22643E+01
 -1      2923 4.32148E+00
 -1      2924 8.57425E+00
 -1      2925 6.07751E+00
 -1      2926 7.04120E+00
 -1      2927 1.12588E+01
 -1      2928 1.02214E+01
 -1      2929 9.62979E+00
 -1      2930 5.46854E-01
 -1      2931 4.58638E-01
 -1      2932 4.07563E-01
 -1      2933 4.22162E-01
 -1      2934 3.59166E-01
 -1      2935 3.49962E-01
 -1      2936 1.15408E+01
 -1      2937 1.25168E+01
 -1      2938 3.89260E-01
 -1      2939 3.65240E-01
 -1      2940 3.18792E-01
 -1      2941 3.13976E-01
 -1      2942 4.27184E-01
 -1      2943 3.18321E-01
 -1      2944 3.30855E-01
 -1      2945 4.06537E-01
 -1      2946 2.23471E-01
 -1      2947 2.43536E-01
 -1      2948 3.50535E-01
 -1      2949 3.83820E-01
 -1      2950 3.29140E-01
 -1      2951 3.25660E-01
 -1      2952 2.62019E-01
 -1      2953 2.89258E-01
 -1      2954 2.34078E-01
 -1      2955 3.14148E-01
 -1      2956 3.07484E-01
 -1      2957 2.43593E-01
 -1      2958 3.18513E-01
 -1      2959 2.97975E-01
 -1      2960 2.43110E-01
 -1      2961 2.94557E-01
 -1      2962 2.69642E-01
 -1      2963 2.50720E-01
 -1      2964 2.58682E-01
 -1      2965 2.33741E-01
 -1      2966 2.36342E-01
 -1      2967 2.19506E-01
 -1      2968 2.03922E-01
 -1      2969 2.11146E-01
 -1      2970 1.90660E-01
 -1      2971 1.74342E-01
 -1      2972 1.83649E-01
 -1      2973 1.63709E-01
 -1      2974 1.48165E-01
 -1      2975 1.59754E-01
 -1      2976 1.37017E-01
 -1      2977 1.23037E-01
 -1      2978 1.37972E-01
 -1      2979 1.12339E-01
 -1      2980 1.00566E-01
 -1      2981 1.16125E-01
 -1      2982 9.08538E-02
 -1      2983 8.14709E-02
 -1      2984 9.57142E-02
 -1      2985 7.29864E-02
 -1      2986 6.51715E-02
 -1      2987 7.75174E-02
 -1      2988 5.79618E-02
 -1      2989 5.16066E-02
 -1      2990 6.18232E-02
 -1      2991 4.55907E-02
 -1      2992 4.04707E-02
 -1      2993 4.85975E-02
 -1      2994 3.54853E-02
 -1      2995 3.13905E-02
 -1      2996 3.75962E-02
 -1      2997 2.72183E-02
 -1      2998 2.39017E-02
 -1      2999 2.84385E-02
 -1      3000 2.03350E-02
 -1      3001 1.81116E-02
 -1      3002 2.06996E-02
 -1      3003 1.53546E-02
 -1      3004 1.36360E-02
 -1      3005 1.43759E-02
 -1      3006 1.31835E-02
 -1      3007 1.50072E-02
 -1      3008 1.11664E-02
 -1      3009 1.95230E-02
 -1      3010 2.45418E-02
 -1      3011 1.52297E-02
 -1      3012 3.09669E-02
 -1      3013 3.93061E-02
 -1      3014 2.61707E-02
 -1      3015 4.82799E-02
 -1      3016 5.92190E-02
 -1      3017 4.15697E-02
 -1      3018 7.10178E-02
 -1      3019 8.53020E-02
 -1      3020 6.23422E-02
 -1      3021 1.01141E-01
 -1      3022 1.19610E-01
 -1      3023 8.99795E-02
 -1      3024 1.40875E-01
 -1      3025 1.64456E-01
 -1      3026 1.27083E-01
 -1      3027 1.91848E-01
 -1      3028 2.21526E-01
 -1      3029 1.75741E-01
 -1      3030 2.56250E-01
 -1      3031 2.93030E-01
 -1      3032 2.37857E-01
 -1      3033 3.36269E-01
 -1      3034 3.81119E-01
 -1      3035 3.15820E-01
 -1      3036 4.33857E-01
 -1      3037 4.88056E-01
 -1      3038 4.11798E-01
 -1      3039 5.50741E-01
 -1      3040 6.18136E-01
 -1      3041 5.27222E-01
 -1      3042 6.90062E-01
 -1      3043 7.67889E-01
 -1      3044 6.61832E-01
 -1      3045 8.46029E-01
 -1      3046 9.32167E-01
 -1      3047 8.11898E-01
 -1      3048 1.03301E+00
 -1      3049 1.12160E+00
 -1      3050 9.90877E-01
 -1      3051 1.25742E+00
 -1      3052 1.34507E+00
 -1      3053 1.22754E+00
 -1      3054 1.57109E+00
 -1      3055 1.70873E+00
 -1      3056 1.58938E+00
 -1      3057 2.01578E+00
 -1      3058 2.26560E+00
 -1      3059 2.12246E+00
 -1      3060 3.10766E+00
 -1      3061 3.34853E+00
 -1      3062 3.27157E+00
 -1      3063 3.60533E+00
 -1      3064 4.00891E+00
 -1      3065 4.37042E+00
 -1      3066 3.73724E-01
 -1      3067 4.00742E-01
 -1      3068 2.91879E-01
 -1      3069 2.96180E-01
 -1      3070 1.60498E-01
 -1      3071 1.77575E-01
 -1      3072 1.33488E-01
 -1      3073 1.47581E-01
 -1      3074 1.48497E-01
 -1      3075 1.08949E-01
 -1      3076 1.21451E-01
 -1      3077 1.23543E-01
 -1      3078 8.75575E-02
 -1      3079 9.82546E-02
 -1      3080 1.00812E-01
 -1      3081 6.94886E-02
 -1      3082 7.83763E-02
 -1      3083 8.09361E-02
 -1      3084 5.49761E-02
 -1      3085 6.18050E-02
 -1      3086 6.40714E-02
 -1      3087 4.31669E-02
 -1      3088 4.86576E-02
 -1      3089 5.00695E-02
 -1      3090 3.34888E-02
 -1      3091 3.80358E-02
 -1      3092 3.86199E-02
 -1      3093 2.59219E-02
 -1      3094 2.96954E-02
 -1      3095 2.96954E-02
 -1      3096 2.06321E-02
 -1      3097 2.29930E-02
 -1      3098 2.29730E-02
 -1      3099 1.66233E-02
 -1      3100 1.80986E-02
 -1      3101 1.75107E-02
 -1      3102 1.69323E-02
 -1      3103 1.57319E-02
 -1      3104 1.40859E-02
 -1      3105 2.25957E-02
 -1      3106 1.97255E-02
 -1      3107 1.59878E-02
 -1      3108 3.67938E-02
 -1      3109 2.89839E-02
 -1      3110 2.51693E-02
 -1      3111 5.53941E-02
 -1      3112 4.49819E-02
 -1      3113 3.97455E-02
 -1      3114 7.95099E-02
 -1      3115 6.59342E-02
 -1      3116 5.84735E-02
 -1      3117 1.10460E-01
 -1      3118 9.30126E-02
 -1      3119 8.25162E-02
 -1      3120 1.49599E-01
 -1      3121 1.27585E-01
 -1      3122 1.13144E-01
 -1      3123 1.98212E-01
 -1      3124 1.71037E-01
 -1      3125 1.51709E-01
 -1      3126 2.57345E-01
 -1      3127 2.24654E-01
 -1      3128 1.99590E-01
 -1      3129 3.28685E-01
 -1      3130 2.90570E-01
 -1      3131 2.59258E-01
 -1      3132 4.12163E-01
 -1      3133 3.69459E-01
 -1      3134 3.33258E-01
 -1      3135 5.06227E-01
 -1      3136 4.60123E-01
 -1      3137 4.21993E-01
 -1      3138 6.09943E-01
 -1      3139 5.60146E-01
 -1      3140 5.23872E-01
 -1      3141 7.12507E-01
 -1      3142 6.68359E-01
 -1      3143 6.36206E-01
 -1      3144 8.08172E-01
 -1      3145 7.70776E-01
 -1      3146 7.52890E-01
 -1      3147 9.25700E-01
 -1      3148 8.74862E-01
 -1      3149 8.77850E-01
 -1      3150 1.08759E+00
 -1      3151 1.03095E+00
 -1      3152 1.04979E+00
 -1      3153 1.27179E+00
 -1      3154 1.23692E+00
 -1      3155 1.30437E+00
 -1      3156 1.64824E+00
 -1      3157 1.42582E+00
 -1      3158 1.60774E+00
 -1      3159 2.13885E+00
 -1      3160 1.92074E+00
 -1      3161 2.03426E+00
 -1      3162 3.15996E+00
 -1      3163 2.89842E+00
 -1      3164 3.06633E+00
 -1      3165 4.04439E+00
 -1      3166 3.07261E+00
 -1      3167 3.73855E+00
 -1      3168 7.18688E+00
 -1      3169 5.40528E+00
 -1      3170 9.62530E+00
 -1      3171 9.62979E+00
 -1      3172 1.12588E+01
 -1      3173 3.06401E-01
 -1      3174 3.40820E-01
 -1      3175 2.96561E-01
 -1      3176 2.69703E-01
 -1      3177 1.03174E+01
 -1      3178 3.25727E-01
 -1      3179 3.18126E-01
 -1      3180 9.80259E+00
 -1      3181 1.19708E+01
 -1      3182 6.53658E+00
 -1      3183 8.05848E+00
 -1      3184 6.44306E+00
 -1      3185 4.61231E+00
 -1      3186 5.58716E+00
 -1      3187 1.28824E+01
 -1      3188 1.00720E+01
 -1      3189 6.86411E+00
 -1      3190 6.13536E+00
 -1      3191 6.05905E+00
 -1      3192 1.90454E-01
 -1      3193 2.09259E-01
 -1      3194 2.01384E-01
 -1      3195 3.12139E-01
 -1      3196 3.12133E-01
 -1      3197 2.87963E-01
 -1      3198 1.74293E-01
 -1      3199 3.35214E-01
 -1      3200 1.26085E+01
 -1      3201 9.70158E+00
 -1      3202 7.76492E+00
 -1      3203 1.05563E+01
 -1      3204 3.39061E+00
 -1      3205 3.54719E+00
 -1      3206 4.40322E+00
 -1      3207 5.05311E+00
 -1      3208 8.00077E+00
 -1      3209 3.71381E-01
 -1      3210 3.78728E-01
 -1      3211 3.38202E-01
 -1      3212 5.22148E+00
 -1      3213 4.70571E+00
 -1      3214 3.68116E-01
 -1      3215 3.36339E-01
 -1      3216 3.78728E-01
 -1      3217 8.28319E+00
 -1      3218 1.07449E+01
 -1      3219 7.89273E+00
 -1      3220 1.15803E+01
 -1      3221 1.18353E+01
 -1      3222 7.64699E+00
 -1      3223 5.87370E+00
 -1      3224 8.01258E+00
 -1      3225 3.21288E-01
 -1      3226 3.21288E-01
 -1      3227 1.18353E+01
 -1      3228 3.23041E-01
 -1      3229 3.24574E-01
 -1      3230 2.85162E-01
 -1      3231 2.61179E-01
 -1      3232 4.27192E+00
 -1      3233 4.00891E+00
 -1      3234 1.13232E-01
 -1      3235 1.25269E-01
 -1      3236 1.99260E-01
 -1      3237 1.87748E-01
 -1      3238 1.87308E-01
 -1      3239 1.98337E-01
 -1      3240 1.42975E-01
 -1      3241 2.13875E-01
 -1      3242 2.10457E-01
 -1      3243 1.58073E-01
 -1      3244 2.14415E-01
 -1      3245 2.03455E-01
 -1      3246 1.77570E-01
 -1      3247 1.99785E-01
 -1      3248 1.85550E-01
 -1      3249 1.77859E-01
 -1      3250 1.77660E-01
 -1      3251 1.64399E-01
 -1      3252 1.66300E-01
 -1      3253 1.54558E-01
 -1      3254 1.43924E-01
 -1      3255 1.48569E-01
 -1      3256 1.35678E-01
 -1      3257 1.24529E-01
 -1      3258 1.30481E-01
 -1      3259 1.16330E-01
 -1      3260 1.05632E-01
 -1      3261 1.14036E-01
 -1      3262 9.73715E-02
 -1      3263 8.76591E-02
 -1      3264 9.75766E-02
 -1      3265 7.98984E-02
 -1      3266 7.14139E-02
 -1      3267 8.15557E-02
 -1      3268 6.44493E-02
 -1      3269 5.72396E-02
 -1      3270 6.68303E-02
 -1      3271 5.11826E-02
 -1      3272 4.51666E-02
 -1      3273 5.38087E-02
 -1      3274 4.00010E-02
 -1      3275 3.50156E-02
 -1      3276 4.25861E-02
 -1      3277 3.06392E-02
 -1      3278 2.64670E-02
 -1      3279 3.30441E-02
 -1      3280 2.27184E-02
 -1      3281 1.91518E-02
 -1      3282 2.49191E-02
 -1      3283 1.58270E-02
 -1      3284 1.30699E-02
 -1      3285 1.78458E-02
 -1      3286 1.34902E-02
 -1      3287 1.30377E-02
 -1      3288 1.49413E-02
 -1      3289 1.47963E-02
 -1      3290 1.93121E-02
 -1      3291 1.71202E-02
 -1      3292 2.54660E-02
 -1      3293 3.18911E-02
 -1      3294 2.50326E-02
 -1      3295 3.99230E-02
 -1      3296 4.88968E-02
 -1      3297 3.92183E-02
 -1      3298 6.00534E-02
 -1      3299 7.18521E-02
 -1      3300 5.84067E-02
 -1      3301 8.65729E-02
 -1      3302 1.02411E-01
 -1      3303 8.42841E-02
 -1      3304 1.21531E-01
 -1      3305 1.42796E-01
 -1      3306 1.18124E-01
 -1      3307 1.67347E-01
 -1      3308 1.94740E-01
 -1      3309 1.61795E-01
 -1      3310 2.25907E-01
 -1      3311 2.60631E-01
 -1      3312 2.17513E-01
 -1      3313 2.99772E-01
 -1      3314 3.43011E-01
 -1      3315 2.87822E-01
 -1      3316 3.91696E-01
 -1      3317 4.44435E-01
 -1      3318 3.75647E-01
 -1      3319 5.04518E-01
 -1      3320 5.67203E-01
 -1      3321 4.84416E-01
 -1      3322 6.40928E-01
 -1      3323 7.12854E-01
 -1      3324 6.18224E-01
 -1      3325 8.03032E-01
 -1      3326 8.81172E-01
 -1      3327 7.82127E-01
 -1      3328 9.90877E-01
 -1      3329 1.09172E+00
 -1      3330 9.82010E-01
 -1      3331 1.22641E+00
 -1      3332 1.36224E+00
 -1      3333 1.22641E+00
 -1      3334 1.55251E+00
 -1      3335 1.77853E+00
 -1      3336 1.55138E+00
 -1      3337 2.53143E+00
 -1      3338 2.83849E+00
 -1      3339 2.49456E+00
 -1      3340 3.97108E+00
 -1      3341 4.81313E+00
 -1      3342 4.38005E+00
 -1      3343 5.25482E+00
 -1      3344 5.28509E+00
 -1      3345 9.32663E-02
 -1      3346 1.03961E-01
 -1      3347 1.05687E-01
 -1      3348 1.34676E-01
 -1      3349 1.47594E-01
 -1      3350 1.24366E-01
 -1      3351 7.55027E-02
 -1      3352 8.46838E-02
 -1      3353 8.78328E-02
 -1      3354 6.02038E-02
 -1      3355 6.78874E-02
 -1      3356 7.16351E-02
 -1      3357 4.73246E-02
 -1      3358 5.36430E-02
 -1      3359 5.74590E-02
 -1      3360 3.66454E-02
 -1      3361 4.17765E-02
 -1      3362 4.53501E-02
 -1      3363 2.81889E-02
 -1      3364 3.19823E-02
 -1      3365 3.51390E-02
 -1      3366 2.12959E-02
 -1      3367 2.42249E-02
 -1      3368 2.65118E-02
 -1      3369 1.52691E-02
 -1      3370 1.78025E-02
 -1      3371 1.90543E-02
 -1      3372 1.28821E-02
 -1      3373 1.37734E-02
 -1      3374 1.40652E-02
 -1      3375 1.66629E-02
 -1      3376 1.38697E-02
 -1      3377 1.35572E-02
 -1      3378 2.86987E-02
 -1      3379 2.23105E-02
 -1      3380 2.01923E-02
 -1      3381 4.42668E-02
 -1      3382 3.60788E-02
 -1      3383 3.32200E-02
 -1      3384 6.44668E-02
 -1      3385 5.39267E-02
 -1      3386 5.02600E-02
 -1      3387 9.11204E-02
 -1      3388 7.76178E-02
 -1      3389 7.30710E-02
 -1      3390 1.25141E-01
 -1      3391 1.08015E-01
 -1      3392 1.03117E-01
 -1      3393 1.67918E-01
 -1      3394 1.46479E-01
 -1      3395 1.41350E-01
 -1      3396 2.20781E-01
 -1      3397 1.94339E-01
 -1      3398 1.89109E-01
 -1      3399 2.85983E-01
 -1      3400 2.52758E-01
 -1      3401 2.47507E-01
 -1      3402 3.64420E-01
 -1      3403 3.23645E-01
 -1      3404 3.17146E-01
 -1      3405 4.55237E-01
 -1      3406 4.07277E-01
 -1      3407 3.97665E-01
 -1      3408 5.55636E-01
 -1      3409 5.01717E-01
 -1      3410 4.87001E-01
 -1      3411 6.65661E-01
 -1      3412 6.07245E-01
 -1      3413 5.85090E-01
 -1      3414 7.94527E-01
 -1      3415 7.36258E-01
 -1      3416 7.07298E-01
 -1      3417 9.61025E-01
 -1      3418 8.94334E-01
 -1      3419 8.77702E-01
 -1      3420 1.21014E+00
 -1      3421 1.10490E+00
 -1      3422 1.12138E+00
 -1      3423 1.52766E+00
 -1      3424 1.37832E+00
 -1      3425 1.43343E+00
 -1      3426 1.92322E+00
 -1      3427 1.76918E+00
 -1      3428 1.84314E+00
 -1      3429 2.57206E+00
 -1      3430 2.29956E+00
 -1      3431 2.46101E+00
 -1      3432 3.82590E+00
 -1      3433 3.06633E+00
 -1      3434 3.33163E+00
 -1      3435 3.92420E+00
 -1      3436 4.01155E+00
 -1      3437 5.01210E+00
 -1      3438 1.12588E+01
 -1      3439 3.75628E+00
 -1      3440 7.70439E+00
 -1      3441 6.47855E+00
 -1      3442 1.80837E-01
 -1      3443 1.95049E-01
 -1      3444 9.15658E+00
 -1      3445 9.03786E+00
 -1      3446 5.78213E+00
 -1      3447 5.68134E+00
 -1      3448 3.15369E-01
 -1      3449 3.23041E-01
 -1      3450 2.88448E-01
 -1      3451 3.07902E-01
 -1      3452 2.05331E-01
 -1      3453 2.23814E-01
 -1      3454 1.84785E-01
 -1      3455 8.72812E+00
 -1      3456 5.07773E+00
 -1      3457 1.56190E-01
 -1      3458 1.69069E-01
 -1      3459 1.42370E-01
 -1      3460 7.44804E+00
 -1      3461 8.42150E+00
 -1      3462 6.90304E+00
 -1      3463 4.01155E+00
 -1      3464 6.47855E+00
 -1      3465 7.31394E+00
 -1      3466 2.68491E-01
 -1      3467 2.12646E-01
 -1      3468 2.85212E-01
 -1      3469 3.78728E-01
 -1      3470 2.04795E-01
 -1      3471 2.10591E-01
 -1      3472 2.51118E-01
 -1      3473 2.30462E-01
 -1      3474 2.27176E-01
 -1      3475 1.57945E-01
 -1      3476 5.74330E+00
 -1      3477 7.48741E+00
 -1      3478 3.91287E+00
 -1      3479 5.70620E+00
 -1      3480 5.00669E+00
 -1      3481 1.62734E-01
 -1      3482 5.26349E+00
 -1      3483 2.75851E-01
 -1      3484 2.65756E-01
 -1      3485 1.84467E-01
 -1      3486 5.32401E+00
 -1      3487 5.89976E+00
 -1      3488 2.66137E-01
 -1      3489 2.30863E-01
 -1      3490 2.48006E-01
 -1      3491 2.02117E-01
 -1      3492 3.07628E-01
 -1      3493 2.65239E-01
 -1      3494 7.43717E+00
 -1      3495 7.43717E+00
 -1      3496 6.02299E+00
 -1      3497 4.80081E+00
 -1      3498 6.61285E+00
 -1      3499 8.01258E+00
 -1      3500 5.58757E+00
 -1      3501 5.49599E+00
 -1      3502 6.15709E+00
 -1      3503 2.26312E-01
 -1      3504 2.55023E-01
 -1      3505 2.49036E-01
 -1      3506 4.61516E+00
 -1      3507 2.47662E-01
 -1      3508 2.50898E-01
 -1      3509 2.14722E-01
 -1      3510 1.57505E-01
 -1      3511 1.45344E-01
 -1      3512 1.57112E-01
 -1      3513 1.41167E-01
 -1      3514 1.56706E-01
 -1      3515 1.48125E-01
 -1      3516 1.52083E-01
 -1      3517 1.31219E-01
 -1      3518 1.58423E-01
 -1      3519 1.54754E-01
 -1      3520 1.28978E-01
 -1      3521 1.54397E-01
 -1      3522 1.46507E-01
 -1      3523 1.34961E-01
 -1      3524 1.42083E-01
 -1      3525 1.32242E-01
 -1      3526 1.30180E-01
 -1      3527 1.25612E-01
 -1      3528 1.17366E-01
 -1      3529 1.19126E-01
 -1      3530 1.09824E-01
 -1      3531 1.01624E-01
 -1      3532 1.04955E-01
 -1      3533 9.53569E-02
 -1      3534 8.70968E-02
 -1      3535 9.11448E-02
 -1      3536 8.06982E-02
 -1      3537 7.29374E-02
 -1      3538 7.84786E-02
 -1      3539 6.68287E-02
 -1      3540 5.98642E-02
 -1      3541 6.59713E-02
 -1      3542 5.43180E-02
 -1      3543 4.82609E-02
 -1      3544 5.43164E-02
 -1      3545 4.33947E-02
 -1      3546 3.82291E-02
 -1      3547 4.39039E-02
 -1      3548 3.40521E-02
 -1      3549 2.96757E-02
 -1      3550 3.48607E-02
 -1      3551 2.61234E-02
 -1      3552 2.23749E-02
 -1      3553 2.71315E-02
 -1      3554 1.96156E-02
 -1      3555 1.62908E-02
 -1      3556 2.08199E-02
 -1      3557 1.65826E-02
 -1      3558 1.70029E-02
 -1      3559 1.83523E-02
 -1      3560 1.82576E-02
 -1      3561 2.00162E-02
 -1      3562 1.98989E-02
 -1      3563 2.27763E-02
 -1      3564 2.89301E-02
 -1      3565 2.39138E-02
 -1      3566 3.57429E-02
 -1      3567 4.37748E-02
 -1      3568 3.34866E-02
 -1      3569 5.30833E-02
 -1      3570 6.42398E-02
 -1      3571 4.96078E-02
 -1      3572 7.64205E-02
 -1      3573 9.11413E-02
 -1      3574 7.10970E-02
 -1      3575 1.06922E-01
 -1      3576 1.26041E-01
 -1      3577 9.90580E-02
 -1      3578 1.46272E-01
 -1      3579 1.70823E-01
 -1      3580 1.35070E-01
 -1      3581 1.96513E-01
 -1      3582 2.27681E-01
 -1      3583 1.80991E-01
 -1      3584 2.60061E-01
 -1      3585 2.99201E-01
 -1      3586 2.39060E-01
 -1      3587 3.39865E-01
 -1      3588 3.88550E-01
 -1      3589 3.12104E-01
 -1      3590 4.39734E-01
 -1      3591 4.99817E-01
 -1      3592 4.03952E-01
 -1      3593 5.64945E-01
 -1      3594 6.38671E-01
 -1      3595 5.20264E-01
 -1      3596 7.23332E-01
 -1      3597 8.13509E-01
 -1      3598 6.70053E-01
 -1      3599 9.27766E-01
 -1      3600 1.03747E+00
 -1      3601 8.68970E-01
 -1      3602 1.19601E+00
 -1      3603 1.33070E+00
 -1      3604 1.14176E+00
 -1      3605 1.55138E+00
 -1      3606 1.74165E+00
 -1      3607 1.52097E+00
 -1      3608 2.07666E+00
 -1      3609 2.82957E+00
 -1      3610 2.07666E+00
 -1      3611 9.52638E-02
 -1      3612 1.04535E-01
 -1      3613 1.11579E-01
 -1      3614 1.20987E-01
 -1      3615 1.01156E-01
 -1      3616 5.23226E-02
 -1      3617 5.88835E-02
 -1      3618 4.13803E-02
 -1      3619 4.69283E-02
 -1      3620 4.83528E-02
 -1      3621 3.20938E-02
 -1      3622 3.67569E-02
 -1      3623 3.83352E-02
 -1      3624 2.41959E-02
 -1      3625 2.81599E-02
 -1      3626 2.97779E-02
 -1      3627 1.73210E-02
 -1      3628 2.08145E-02
 -1      3629 2.24626E-02
 -1      3630 1.46871E-02
 -1      3631 1.61828E-02
 -1      3632 1.79430E-02
 -1      3633 1.65974E-02
 -1      3634 1.56097E-02
 -1      3635 1.77273E-02
 -1      3636 2.46781E-02
 -1      3637 1.90305E-02
 -1      3638 2.10831E-02
 -1      3639 3.84175E-02
 -1      3640 3.10374E-02
 -1      3641 2.98756E-02
 -1      3642 5.69944E-02
 -1      3643 4.73344E-02
 -1      3644 4.51519E-02
 -1      3645 8.17762E-02
 -1      3646 6.86252E-02
 -1      3647 6.56996E-02
 -1      3648 1.13678E-01
 -1      3649 9.67833E-02
 -1      3650 9.23375E-02
 -1      3651 1.54129E-01
 -1      3652 1.32791E-01
 -1      3653 1.26457E-01
 -1      3654 2.04550E-01
 -1      3655 1.78129E-01
 -1      3656 1.69570E-01
 -1      3657 2.66232E-01
 -1      3658 2.34256E-01
 -1      3659 2.23275E-01
 -1      3660 3.40133E-01
 -1      3661 3.02471E-01
 -1      3662 2.89219E-01
 -1      3663 4.26572E-01
 -1      3664 3.83715E-01
 -1      3665 3.69040E-01
 -1      3666 5.24735E-01
 -1      3667 4.78256E-01
 -1      3668 4.64306E-01
 -1      3669 6.36700E-01
 -1      3670 5.85090E-01
 -1      3671 5.76345E-01
 -1      3672 7.76172E-01
 -1      3673 7.05574E-01
 -1      3674 7.05574E-01
 -1      3675 9.64527E-01
 -1      3676 8.64720E-01
 -1      3677 8.62996E-01
 -1      3678 1.24757E+00
 -1      3679 1.10370E+00
 -1      3680 1.09072E+00
 -1      3681 1.67691E+00
 -1      3682 1.50873E+00
 -1      3683 1.49105E+00
 -1      3684 2.21873E+00
 -1      3685 1.97720E+00
 -1      3686 2.05251E+00
 -1      3687 3.25288E+00
 -1      3688 2.87653E+00
 -1      3689 3.01060E+00
 -1      3690 4.70674E+00
 -1      3691 4.21247E+00
 -1      3692 4.62798E+00
 -1      3693 5.49599E+00
 -1      3694 2.27297E-01
 -1      3695 7.94876E-02
 -1      3696 8.80700E-02
 -1      3697 8.69185E-02
 -1      3698 2.45623E-01
 -1      3699 2.45623E-01
 -1      3700 1.87637E-01
 -1      3701 2.08073E-01
 -1      3702 4.99842E+00
 -1      3703 5.12165E+00
 -1      3704 5.58757E+00
 -1      3705 1.62879E-01
 -1      3706 1.73162E-01
 -1      3707 1.45489E-01
 -1      3708 5.06824E+00
 -1      3709 5.80332E+00
 -1      3710 1.28802E-01
 -1      3711 1.37398E-01
 -1      3712 1.16015E-01
 -1      3713 3.07628E-01
 -1      3714 3.07628E-01
 -1      3715 2.36528E-01
 -1      3716 1.80017E-01
 -1      3717 5.12165E+00
 -1      3718 5.13252E+00
 -1      3719 6.50499E-02
 -1      3720 7.26651E-02
 -1      3721 7.29024E-02
 -1      3722 5.99135E-02
 -1      3723 1.56137E-01
 -1      3724 5.13677E+00
 -1      3725 4.23544E+00
 -1      3726 1.31775E-01
 -1      3727 3.39273E+00
 -1      3728 3.81063E+00
 -1      3729 4.94322E+00
 -1      3730 1.75349E-01
 -1      3731 1.82398E-01
 -1      3732 1.53443E-01
 -1      3733 1.92066E-01
 -1      3734 1.92066E-01
 -1      3735 1.54112E-01
 -1      3736 1.98574E-01
 -1      3737 1.88358E-01
 -1      3738 4.09708E+00
 -1      3739 5.70620E+00
 -1      3740 3.62378E+00
 -1      3741 5.45858E+00
 -1      3742 4.43330E+00
 -1      3743 4.03280E+00
 -1      3744 5.58757E+00
 -1      3745 1.81261E-01
 -1      3746 1.99392E-01
 -1      3747 1.50480E-01
 -1      3748 1.96516E-01
 -1      3749 3.52376E+00
 -1      3750 3.45948E+00
 -1      3751 1.16798E-01
 -1      3752 1.24744E-01
 -1      3753 2.38966E+00
 -1      3754 3.37072E+00
 -1      3755 3.23236E+00
 -1      3756 1.05964E-01
 -1      3757 1.12304E-01
 -1      3758 1.18302E-01
 -1      3759 1.17945E-01
 -1      3760 9.52880E-02
 -1      3761 1.18650E-01
 -1      3762 1.14225E-01
 -1      3763 1.01990E-01
 -1      3764 1.11528E-01
 -1      3765 1.04898E-01
 -1      3766 9.99973E-02
 -1      3767 1.00239E-01
 -1      3768 9.26968E-02
 -1      3769 9.26404E-02
 -1      3770 8.71198E-02
 -1      3771 8.08522E-02
 -1      3772 8.24042E-02
 -1      3773 7.50680E-02
 -1      3774 6.86694E-02
 -1      3775 7.10430E-02
 -1      3776 6.32718E-02
 -1      3777 5.71631E-02
 -1      3778 5.98612E-02
 -1      3779 5.25370E-02
 -1      3780 4.69908E-02
 -1      3781 4.98376E-02
 -1      3782 4.28142E-02
 -1      3783 3.79480E-02
 -1      3784 4.10349E-02
 -1      3785 3.43159E-02
 -1      3786 3.01389E-02
 -1      3787 3.32262E-02
 -1      3788 2.70680E-02
 -1      3789 2.35157E-02
 -1      3790 2.65232E-02
 -1      3791 2.20781E-02
 -1      3792 1.93187E-02
 -1      3793 2.20146E-02
 -1      3794 1.92513E-02
 -1      3795 1.95431E-02
 -1      3796 2.05095E-02
 -1      3797 2.04804E-02
 -1      3798 2.17352E-02
 -1      3799 2.13794E-02
 -1      3800 2.37957E-02
 -1      3801 2.65558E-02
 -1      3802 2.43773E-02
 -1      3803 3.02092E-02
 -1      3804 3.70220E-02
 -1      3805 3.00912E-02
 -1      3806 4.28998E-02
 -1      3807 5.22082E-02
 -1      3808 3.96224E-02
 -1      3809 6.09662E-02
 -1      3810 7.31469E-02
 -1      3811 5.42581E-02
 -1      3812 8.49461E-02
 -1      3813 1.00726E-01
 -1      3814 7.48153E-02
 -1      3815 1.15834E-01
 -1      3816 1.36065E-01
 -1      3817 1.01722E-01
 -1      3818 1.55197E-01
 -1      3819 1.80887E-01
 -1      3820 1.35961E-01
 -1      3821 2.04917E-01
 -1      3822 2.37297E-01
 -1      3823 1.79123E-01
 -1      3824 2.67365E-01
 -1      3825 3.08029E-01
 -1      3826 2.33221E-01
 -1      3827 3.45787E-01
 -1      3828 3.96971E-01
 -1      3829 3.01048E-01
 -1      3830 4.45111E-01
 -1      3831 5.10239E-01
 -1      3832 3.86946E-01
 -1      3833 5.73629E-01
 -1      3834 6.58290E-01
 -1      3835 4.98476E-01
 -1      3836 7.46068E-01
 -1      3837 8.60325E-01
 -1      3838 6.49645E-01
 -1      3839 9.84701E-01
 -1      3840 1.14324E+00
 -1      3841 8.61799E-01
 -1      3842 1.25727E+00
 -1      3843 1.47795E+00
 -1      3844 1.10021E+00
 -1      3845 1.68592E+00
 -1      3846 2.02093E+00
 -1      3847 1.99891E+00
 -1      3848 1.42221E+00
 -1      3849 3.37723E-02
 -1      3850 3.83957E-02
 -1      3851 4.25813E-02
 -1      3852 4.79757E-02
 -1      3853 3.80185E-02
 -1      3854 1.98757E-02
 -1      3855 2.32571E-02
 -1      3856 1.81146E-02
 -1      3857 1.92528E-02
 -1      3858 2.00473E-02
 -1      3859 1.95795E-02
 -1      3860 1.86569E-02
 -1      3861 1.99668E-02
 -1      3862 2.35981E-02
 -1      3863 2.11649E-02
 -1      3864 2.20945E-02
 -1      3865 3.28546E-02
 -1      3866 2.64952E-02
 -1      3867 2.65770E-02
 -1      3868 4.88777E-02
 -1      3869 3.99608E-02
 -1      3870 3.65804E-02
 -1      3871 6.98600E-02
 -1      3872 5.82293E-02
 -1      3873 5.30381E-02
 -1      3874 9.70461E-02
 -1      3875 8.20391E-02
 -1      3876 7.45687E-02
 -1      3877 1.31844E-01
 -1      3878 1.12731E-01
 -1      3879 1.02433E-01
 -1      3880 1.75831E-01
 -1      3881 1.51830E-01
 -1      3882 1.38105E-01
 -1      3883 2.30769E-01
 -1      3884 2.01064E-01
 -1      3885 1.83324E-01
 -1      3886 2.98651E-01
 -1      3887 2.62413E-01
 -1      3888 2.40201E-01
 -1      3889 3.81802E-01
 -1      3890 3.38219E-01
 -1      3891 3.11413E-01
 -1      3892 4.83088E-01
 -1      3893 4.31405E-01
 -1      3894 4.00584E-01
 -1      3895 6.06248E-01
 -1      3896 5.45892E-01
 -1      3897 5.12991E-01
 -1      3898 7.56231E-01
 -1      3899 6.87357E-01
 -1      3900 6.56905E-01
 -1      3901 9.51544E-01
 -1      3902 8.62996E-01
 -1      3903 8.44779E-01
 -1      3904 1.22989E+00
 -1      3905 1.09072E+00
 -1      3906 1.09072E+00
 -1      3907 1.66483E+00
 -1      3908 1.40367E+00
 -1      3909 1.40367E+00
 -1      3910 3.47372E+00
 -1      3911 2.81592E+00
 -1      3912 4.62798E+00
 -1      3913 1.88358E-01
 -1      3914 1.86984E-01
 -1      3915 1.60621E-01
 -1      3916 2.40978E-01
 -1      3917 2.62660E-02
 -1      3918 3.01999E-02
 -1      3919 3.02604E-02
 -1      3920 1.45468E-01
 -1      3921 1.42592E-01
 -1      3922 1.54493E-01
 -1      3923 1.03491E-01
 -1      3924 1.11306E-01
 -1      3925 1.04274E-01
 -1      3926 1.28104E-01
 -1      3927 1.33871E-01
 -1      3928 1.13127E-01
 -1      3929 9.00276E-02
 -1      3930 9.70717E-02
 -1      3931 9.23623E-02
 -1      3932 7.65713E-02
 -1      3933 8.37651E-02
 -1      3934 7.96804E-02
 -1      3935 3.52376E+00
 -1      3936 3.52376E+00
 -1      3937 2.95045E+00
 -1      3938 2.65905E+00
 -1      3939 1.21492E-01
 -1      3940 1.12911E-01
 -1      3941 9.62374E-02
 -1      3942 5.04650E+00
 -1      3943 7.06812E+00
 -1      3944 1.64712E-01
 -1      3945 1.48375E-01
 -1      3946 2.36791E-02
 -1      3947 1.79874E-01
 -1      3948 1.33813E-01
 -1      3949 1.36000E-01
 -1      3950 1.16428E-01
 -1      3951 4.69902E-02
 -1      3952 5.27617E-02
 -1      3953 5.89281E-02
 -1      3954 1.30067E-01
 -1      3955 5.26349E+00
 -1      3956 2.38990E+00
 -1      3957 2.08960E+00
 -1      3958 2.00222E+00
 -1      3959 1.49100E-01
 -1      3960 1.46605E-01
 -1      3961 1.85148E-01
 -1      3962 2.68872E+00
 -1      3963 3.19775E+00
 -1      3964 1.58785E-01
 -1      3965 7.10318E-02
 -1      3966 6.78784E-02
 -1      3967 6.42094E-02
 -1      3968 8.46784E-02
 -1      3969 9.10977E-02
 -1      3970 1.02329E-01
 -1      3971 9.53817E-02
 -1      3972 2.34998E-02
 -1      3973 2.65087E-02
 -1      3974 9.10135E-02
 -1      3975 9.17180E-02
 -1      3976 9.42816E-02
 -1      3977 9.15840E-02
 -1      3978 8.33047E-02
 -1      3979 9.03568E-02
 -1      3980 8.56975E-02
 -1      3981 8.46411E-02
 -1      3982 8.23269E-02
 -1      3983 7.67499E-02
 -1      3984 8.00432E-02
 -1      3985 7.22928E-02
 -1      3986 6.65086E-02
 -1      3987 7.22155E-02
 -1      3988 6.16851E-02
 -1      3989 5.62876E-02
 -1      3990 6.29350E-02
 -1      3991 5.15721E-02
 -1      3992 4.69460E-02
 -1      3993 5.33960E-02
 -1      3994 4.26313E-02
 -1      3995 3.84547E-02
 -1      3996 4.43658E-02
 -1      3997 3.47042E-02
 -1      3998 3.10721E-02
 -1      3999 3.63007E-02
 -1      4000 2.79617E-02
 -1      4001 2.48908E-02
 -1      4002 2.94398E-02
 -1      4003 2.29912E-02
 -1      4004 2.15536E-02
 -1      4005 2.44298E-02
 -1      4006 2.05770E-02
 -1      4007 2.05095E-02
 -1      4008 2.15536E-02
 -1      4009 2.13794E-02
 -1      4010 2.23167E-02
 -1      4011 2.14469E-02
 -1      4012 2.43773E-02
 -1      4013 2.64378E-02
 -1      4014 2.43773E-02
 -1      4015 2.99932E-02
 -1      4016 3.36466E-02
 -1      4017 2.99932E-02
 -1      4018 3.92286E-02
 -1      4019 4.51064E-02
 -1      4020 3.91306E-02
 -1      4021 5.26970E-02
 -1      4022 6.14549E-02
 -1      4023 5.23032E-02
 -1      4024 7.14345E-02
 -1      4025 8.32337E-02
 -1      4026 6.98733E-02
 -1      4027 9.60418E-02
 -1      4028 1.11149E-01
 -1      4029 9.26610E-02
 -1      4030 1.27294E-01
 -1      4031 1.46426E-01
 -1      4032 1.21614E-01
 -1      4033 1.66510E-01
 -1      4034 1.90541E-01
 -1      4035 1.57843E-01
 -1      4036 2.15328E-01
 -1      4037 2.45396E-01
 -1      4038 2.02715E-01
 -1      4039 2.75952E-01
 -1      4040 3.13710E-01
 -1      4041 2.58058E-01
 -1      4042 3.51708E-01
 -1      4043 3.99848E-01
 -1      4044 3.26612E-01
 -1      4045 4.48183E-01
 -1      4046 5.11573E-01
 -1      4047 4.12945E-01
 -1      4048 5.75656E-01
 -1      4049 6.63434E-01
 -1      4050 5.25362E-01
 -1      4051 7.55473E-01
 -1      4052 8.79849E-01
 -1      4053 6.81484E-01
 -1      4054 1.03310E+00
 -1      4055 1.14713E+00
 -1      4056 9.26777E-01
 -1      4057 3.69420E-02
 -1      4058 4.11276E-02
 -1      4059 2.05090E-02
 -1      4060 1.99668E-02
 -1      4061 2.04264E-02
 -1      4062 2.10493E-02
 -1      4063 2.38788E-02
 -1      4064 2.09687E-02
 -1      4065 2.94130E-02
 -1      4066 2.65159E-02
 -1      4067 4.13538E-02
 -1      4068 3.42476E-02
 -1      4069 3.41864E-02
 -1      4070 5.73890E-02
 -1      4071 4.80375E-02
 -1      4072 4.57047E-02
 -1      4073 7.84447E-02
 -1      4074 6.62657E-02
 -1      4075 6.12650E-02
 -1      4076 1.05584E-01
 -1      4077 8.98991E-02
 -1      4078 8.15961E-02
 -1      4079 1.40023E-01
 -1      4080 1.20037E-01
 -1      4081 1.07503E-01
 -1      4082 1.83157E-01
 -1      4083 1.57924E-01
 -1      4084 1.39856E-01
 -1      4085 2.36696E-01
 -1      4086 2.05052E-01
 -1      4087 1.79652E-01
 -1      4088 3.07614E-01
 -1      4089 2.68045E-01
 -1      4090 2.32896E-01
 -1      4091 3.97810E-01
 -1      4092 3.48207E-01
 -1      4093 3.04839E-01
 -1      4094 5.14083E-01
 -1      4095 4.51280E-01
 -1      4096 3.98902E-01
 -1      4097 6.67465E-01
 -1      4098 5.86355E-01
 -1      4099 5.24644E-01
 -1      4100 8.75765E-01
 -1      4101 7.69000E-01
 -1      4102 6.98451E-01
 -1      4103 1.17743E+00
 -1      4104 1.03825E+00
 -1      4105 9.62474E-01
 -1      4106 1.80127E+00
 -1      4107 1.62749E+00
 -1      4108 1.57503E+00
 -1      4109 2.85302E+00
 -1      4110 1.20544E-01
 -1      4111 1.32064E-01
 -1      4112 2.47385E+00
 -1      4113 2.04909E+00
 -1      4114 2.27290E+00
 -1      4115 2.73558E+00
 -1      4116 1.32064E-01
 -1      4117 2.36799E-02
 -1      4118 2.20945E-02
 -1      4119 2.20945E-02
 -1      4120 2.65159E-02
 -1      4121 7.71781E-02
 -1      4122 8.31760E-02
 -1      4123 8.32696E-02
 -1      4124 1.26975E-01
 -1      4125 7.50452E-02
 -1      4126 8.13077E-02
 -1      4127 8.00432E-02
 -1      4128 9.89264E-02
 -1      4129 1.02286E-01
 -1      4130 1.31903E-01
 -1      4131 9.23249E-02
 -1      4132 9.78176E-02
 -1      4133 8.46411E-02
 -1      4134 2.96191E-02
 -1      4135 3.31915E-02
 -1      4136 2.94398E-02
 -1      4137 1.31047E-01
 -1      4138 1.02491E-01
 -1      4139 4.43658E-02
 -1      4140 4.54423E-02
 -1      4141 5.02284E-02
 -1      4142 1.34142E+00
 -1      4143 1.40853E+00
 -1      4144 1.61650E+00
 -1      4145 3.63007E-02
 -1      4146 7.29036E-02
 -1      4147 1.01113E-01
 -1      4148 1.01054E-01
 -1      4149 8.69123E-02
 -1      4150 2.73558E+00
 -1      4151 1.11658E-01
 -1      4152 9.46219E-02
 -1      4153 9.36044E-02
 -1      4154 1.01053E-01
 -1      4155 4.62722E+00
 -1      4156 5.70576E-02
 -1      4157 1.91889E+00
 -1      4158 2.28763E+00
 -1      4159 2.57903E+00
 -1      4160 1.90521E+00
 -1      4161 7.05882E-02
 -1      4162 7.22155E-02
 -1      4163 6.50487E-02
 -1      4164 8.69771E-02
 -1      4165 8.44136E-02
 -1      4166 8.69771E-02
 -1      4167 5.49439E-02
 -1      4168 6.02252E-02
 -1      4169 6.29350E-02
 -1      4170 5.33960E-02
 -1      4171 8.58683E-02
 -1      4172 8.46411E-02
 -1      4173 8.34139E-02
 -1      4174 8.00432E-02
 -1      4175 7.66726E-02
 -1      4176 7.22155E-02
 -1      4177 6.77585E-02
 -1      4178 6.29350E-02
 -1      4179 5.81115E-02
 -1      4180 5.33960E-02
 -1      4181 4.86805E-02
 -1      4182 4.43658E-02
 -1      4183 4.00511E-02
 -1      4184 3.63007E-02
 -1      4185 3.25502E-02
 -1      4186 2.94398E-02
 -1      4187 2.63293E-02
 -1      4188 2.44298E-02
 -1      4189 2.19793E-02
 -1      4190 2.10026E-02
 -1      4191 2.05430E-02
 -1      4192 2.14129E-02
 -1      4193 2.29983E-02
 -1      4194 2.50588E-02
 -1      4195 2.78948E-02
 -1      4196 3.14503E-02
 -1      4197 3.62848E-02
 -1      4198 4.18668E-02
 -1      4199 4.85505E-02
 -1      4200 5.61411E-02
 -1      4201 6.50177E-02
 -1      4202 7.49973E-02
 -1      4203 8.64517E-02
 -1      4204 9.92598E-02
 -1      4205 1.13712E-01
 -1      4206 1.29857E-01
 -1      4207 1.47758E-01
 -1      4208 1.67842E-01
 -1      4209 1.89737E-01
 -1      4210 2.14524E-01
 -1      4211 2.45874E-01
 -1      4212 2.76430E-01
 -1      4213 3.17023E-01
 -1      4214 3.55021E-01
 -1      4215 4.08491E-01
 -1      4216 4.56826E-01
 -1      4217 5.29098E-01
 -1      4218 5.93180E-01
 -1      4219 6.94716E-01
 -1      4220 7.86755E-01
 -1      4221 9.49242E-01
 -1      4222 1.10250E+00
 -1      4223 7.54009E-02
 -1      4224 1.55256E+00
 -1      4225 2.36416E+00
 -1      4226 2.11635E+00
 -1      4227 8.32398E-02
 -1      4228 7.54023E-02
 -1      4229 8.57371E-02
 -1      4230 1.81395E+00
 -1      4231 5.04650E+00
 -3
 9999
