    1C
    1UUSER                                                              
    1UDATE              27.october.2022                                 
    1UTIME              00:56:47                                        
    1UHOST                                                              
    1UPGM               CalculiX                                        
    1UVERSION           Version 2.17                             
    1UCOMPILETIME       Thu Jul 23 21:43:50 CEST 2020                    
    1UDIR                                                               
    1UDBN                                                               
    1UMAT    1SOLIDMATERIAL                                             
    2C                          4312                                     1
 -1         1 1.11768E+02 4.31056E+01 0.00000E+00
 -1         2 1.14658E+02 3.74396E+01 0.00000E+00
 -1         3 1.50000E+02 0.00000E+00 0.00000E+00
 -1         4 1.50000E+02 5.00000E+01 0.00000E+00
 -1         5 0.00000E+00 0.00000E+00 0.00000E+00
 -1         6 0.00000E+00 5.00000E+01 0.00000E+00
 -1         7 0.00000E+00 4.70500E+01 0.00000E+00
 -1         8 0.00000E+00 4.41000E+01 0.00000E+00
 -1         9 0.00000E+00 4.11500E+01 0.00000E+00
 -1        10 0.00000E+00 3.82000E+01 0.00000E+00
 -1        11 0.00000E+00 3.52500E+01 0.00000E+00
 -1        12 0.00000E+00 3.23500E+01 0.00000E+00
 -1        13 0.00000E+00 2.94000E+01 0.00000E+00
 -1        14 0.00000E+00 2.64500E+01 0.00000E+00
 -1        15 0.00000E+00 2.35000E+01 0.00000E+00
 -1        16 0.00000E+00 2.05500E+01 0.00000E+00
 -1        17 0.00000E+00 1.76000E+01 0.00000E+00
 -1        18 0.00000E+00 1.47000E+01 0.00000E+00
 -1        19 0.00000E+00 1.17500E+01 0.00000E+00
 -1        20 0.00000E+00 8.80000E+00 0.00000E+00
 -1        21 0.00000E+00 5.85000E+00 0.00000E+00
 -1        22 0.00000E+00 2.90000E+00 0.00000E+00
 -1        23 3.15000E+00 5.00000E+01 0.00000E+00
 -1        24 6.15000E+00 5.00000E+01 0.00000E+00
 -1        25 9.15000E+00 5.00000E+01 0.00000E+00
 -1        26 1.21500E+01 5.00000E+01 0.00000E+00
 -1        27 1.51500E+01 5.00000E+01 0.00000E+00
 -1        28 1.81500E+01 5.00000E+01 0.00000E+00
 -1        29 2.11500E+01 5.00000E+01 0.00000E+00
 -1        30 2.41500E+01 5.00000E+01 0.00000E+00
 -1        31 2.71500E+01 5.00000E+01 0.00000E+00
 -1        32 3.01500E+01 5.00000E+01 0.00000E+00
 -1        33 3.31500E+01 5.00000E+01 0.00000E+00
 -1        34 3.61500E+01 5.00000E+01 0.00000E+00
 -1        35 3.91500E+01 5.00000E+01 0.00000E+00
 -1        36 4.21500E+01 5.00000E+01 0.00000E+00
 -1        37 4.51500E+01 5.00000E+01 0.00000E+00
 -1        38 4.81500E+01 5.00000E+01 0.00000E+00
 -1        39 5.11500E+01 5.00000E+01 0.00000E+00
 -1        40 5.41500E+01 5.00000E+01 0.00000E+00
 -1        41 5.71500E+01 5.00000E+01 0.00000E+00
 -1        42 6.01500E+01 5.00000E+01 0.00000E+00
 -1        43 6.31500E+01 5.00000E+01 0.00000E+00
 -1        44 6.61500E+01 5.00000E+01 0.00000E+00
 -1        45 6.91500E+01 5.00000E+01 0.00000E+00
 -1        46 7.21500E+01 5.00000E+01 0.00000E+00
 -1        47 7.53000E+01 5.00000E+01 0.00000E+00
 -1        48 7.83000E+01 5.00000E+01 0.00000E+00
 -1        49 8.13000E+01 5.00000E+01 0.00000E+00
 -1        50 8.43000E+01 5.00000E+01 0.00000E+00
 -1        51 8.73000E+01 5.00000E+01 0.00000E+00
 -1        52 9.03000E+01 5.00000E+01 0.00000E+00
 -1        53 9.33000E+01 5.00000E+01 0.00000E+00
 -1        54 9.63000E+01 5.00000E+01 0.00000E+00
 -1        55 9.93000E+01 5.00000E+01 0.00000E+00
 -1        56 1.02000E+02 5.00000E+01 0.00000E+00
 -1        57 1.04550E+02 5.00000E+01 0.00000E+00
 -1        58 1.07250E+02 5.00000E+01 0.00000E+00
 -1        59 1.09650E+02 5.00000E+01 0.00000E+00
 -1        60 1.12050E+02 5.00000E+01 0.00000E+00
 -1        61 1.14300E+02 5.00000E+01 0.00000E+00
 -1        62 1.17000E+02 5.00000E+01 0.00000E+00
 -1        63 1.20000E+02 5.00000E+01 0.00000E+00
 -1        64 1.23000E+02 5.00000E+01 0.00000E+00
 -1        65 1.26000E+02 5.00000E+01 0.00000E+00
 -1        66 1.29000E+02 5.00000E+01 0.00000E+00
 -1        67 1.32000E+02 5.00000E+01 0.00000E+00
 -1        68 1.35000E+02 5.00000E+01 0.00000E+00
 -1        69 1.38000E+02 5.00000E+01 0.00000E+00
 -1        70 1.41000E+02 5.00000E+01 0.00000E+00
 -1        71 1.44000E+02 5.00000E+01 0.00000E+00
 -1        72 1.47000E+02 5.00000E+01 0.00000E+00
 -1        73 3.15000E+00 0.00000E+00 0.00000E+00
 -1        74 6.15000E+00 0.00000E+00 0.00000E+00
 -1        75 9.15000E+00 0.00000E+00 0.00000E+00
 -1        76 1.21500E+01 0.00000E+00 0.00000E+00
 -1        77 1.51500E+01 0.00000E+00 0.00000E+00
 -1        78 1.81500E+01 0.00000E+00 0.00000E+00
 -1        79 2.11500E+01 0.00000E+00 0.00000E+00
 -1        80 2.41500E+01 0.00000E+00 0.00000E+00
 -1        81 2.71500E+01 0.00000E+00 0.00000E+00
 -1        82 3.01500E+01 0.00000E+00 0.00000E+00
 -1        83 3.31500E+01 0.00000E+00 0.00000E+00
 -1        84 3.61500E+01 0.00000E+00 0.00000E+00
 -1        85 3.91500E+01 0.00000E+00 0.00000E+00
 -1        86 4.21500E+01 0.00000E+00 0.00000E+00
 -1        87 4.51500E+01 0.00000E+00 0.00000E+00
 -1        88 4.81500E+01 0.00000E+00 0.00000E+00
 -1        89 5.11500E+01 0.00000E+00 0.00000E+00
 -1        90 5.41500E+01 0.00000E+00 0.00000E+00
 -1        91 5.71500E+01 0.00000E+00 0.00000E+00
 -1        92 6.01500E+01 0.00000E+00 0.00000E+00
 -1        93 6.31500E+01 0.00000E+00 0.00000E+00
 -1        94 6.61500E+01 0.00000E+00 0.00000E+00
 -1        95 6.91500E+01 0.00000E+00 0.00000E+00
 -1        96 7.21500E+01 0.00000E+00 0.00000E+00
 -1        97 7.51500E+01 0.00000E+00 0.00000E+00
 -1        98 7.81500E+01 0.00000E+00 0.00000E+00
 -1        99 8.11500E+01 0.00000E+00 0.00000E+00
 -1       100 8.41500E+01 0.00000E+00 0.00000E+00
 -1       101 8.71500E+01 0.00000E+00 0.00000E+00
 -1       102 9.01500E+01 0.00000E+00 0.00000E+00
 -1       103 9.31500E+01 0.00000E+00 0.00000E+00
 -1       104 9.61500E+01 0.00000E+00 0.00000E+00
 -1       105 9.91500E+01 0.00000E+00 0.00000E+00
 -1       106 1.02150E+02 0.00000E+00 0.00000E+00
 -1       107 1.05150E+02 0.00000E+00 0.00000E+00
 -1       108 1.08150E+02 0.00000E+00 0.00000E+00
 -1       109 1.11150E+02 0.00000E+00 0.00000E+00
 -1       110 1.14150E+02 0.00000E+00 0.00000E+00
 -1       111 1.17150E+02 0.00000E+00 0.00000E+00
 -1       112 1.20150E+02 0.00000E+00 0.00000E+00
 -1       113 1.23150E+02 0.00000E+00 0.00000E+00
 -1       114 1.26150E+02 0.00000E+00 0.00000E+00
 -1       115 1.29150E+02 0.00000E+00 0.00000E+00
 -1       116 1.32150E+02 0.00000E+00 0.00000E+00
 -1       117 1.35150E+02 0.00000E+00 0.00000E+00
 -1       118 1.38150E+02 0.00000E+00 0.00000E+00
 -1       119 1.41150E+02 0.00000E+00 0.00000E+00
 -1       120 1.44150E+02 0.00000E+00 0.00000E+00
 -1       121 1.47150E+02 0.00000E+00 0.00000E+00
 -1       122 1.50000E+02 2.95000E+00 0.00000E+00
 -1       123 1.50000E+02 5.90000E+00 0.00000E+00
 -1       124 1.50000E+02 8.85000E+00 0.00000E+00
 -1       125 1.50000E+02 1.18000E+01 0.00000E+00
 -1       126 1.50000E+02 1.47500E+01 0.00000E+00
 -1       127 1.50000E+02 1.76500E+01 0.00000E+00
 -1       128 1.50000E+02 2.06000E+01 0.00000E+00
 -1       129 1.50000E+02 2.35500E+01 0.00000E+00
 -1       130 1.50000E+02 2.65000E+01 0.00000E+00
 -1       131 1.50000E+02 2.94500E+01 0.00000E+00
 -1       132 1.50000E+02 3.24000E+01 0.00000E+00
 -1       133 1.50000E+02 3.53000E+01 0.00000E+00
 -1       134 1.50000E+02 3.82500E+01 0.00000E+00
 -1       135 1.50000E+02 4.12000E+01 0.00000E+00
 -1       136 1.50000E+02 4.41500E+01 0.00000E+00
 -1       137 1.50000E+02 4.71000E+01 0.00000E+00
 -1       138 1.14492E+02 3.59238E+01 0.00000E+00
 -1       139 1.13986E+02 3.44467E+01 0.00000E+00
 -1       140 1.13161E+02 3.31135E+01 0.00000E+00
 -1       141 1.12091E+02 3.20228E+01 0.00000E+00
 -1       142 1.10737E+02 3.11535E+01 0.00000E+00
 -1       143 1.09310E+02 3.06374E+01 0.00000E+00
 -1       144 1.07778E+02 3.04407E+01 0.00000E+00
 -1       145 1.06064E+02 3.06235E+01 0.00000E+00
 -1       146 1.04519E+02 3.11830E+01 0.00000E+00
 -1       147 1.03206E+02 3.20379E+01 0.00000E+00
 -1       148 1.02098E+02 3.31867E+01 0.00000E+00
 -1       149 1.01349E+02 3.44061E+01 0.00000E+00
 -1       150 1.00848E+02 3.58191E+01 0.00000E+00
 -1       151 1.00659E+02 3.73020E+01 0.00000E+00
 -1       152 1.00789E+02 3.87882E+01 0.00000E+00
 -1       153 1.01256E+02 4.02719E+01 0.00000E+00
 -1       154 1.02041E+02 4.16177E+01 0.00000E+00
 -1       155 1.03071E+02 4.27278E+01 0.00000E+00
 -1       156 1.04386E+02 4.36278E+01 0.00000E+00
 -1       157 1.05951E+02 4.42283E+01 0.00000E+00
 -1       158 1.07569E+02 4.44391E+01 0.00000E+00
 -1       159 1.08982E+02 4.43132E+01 0.00000E+00
 -1       160 1.10373E+02 4.38914E+01 0.00000E+00
 -1       161 1.12765E+02 4.22269E+01 0.00000E+00
 -1       162 1.13600E+02 4.11391E+01 0.00000E+00
 -1       163 1.14170E+02 4.00068E+01 0.00000E+00
 -1       164 1.14526E+02 3.87931E+01 0.00000E+00
 -1       165 2.59800E+00 4.55750E+01 0.00000E+00
 -1       166 2.59800E+00 4.26250E+01 0.00000E+00
 -1       167 2.59800E+00 3.96750E+01 0.00000E+00
 -1       168 2.59800E+00 3.67250E+01 0.00000E+00
 -1       169 2.59800E+00 3.38250E+01 0.00000E+00
 -1       170 2.59800E+00 3.08750E+01 0.00000E+00
 -1       171 2.59800E+00 2.79250E+01 0.00000E+00
 -1       172 2.59800E+00 2.49750E+01 0.00000E+00
 -1       173 2.59800E+00 2.20250E+01 0.00000E+00
 -1       174 2.59800E+00 1.90750E+01 0.00000E+00
 -1       175 2.59800E+00 1.61750E+01 0.00000E+00
 -1       176 2.59800E+00 1.32250E+01 0.00000E+00
 -1       177 2.59800E+00 1.02750E+01 0.00000E+00
 -1       178 2.59800E+00 7.32500E+00 0.00000E+00
 -1       179 2.59800E+00 4.37500E+00 0.00000E+00
 -1       180 2.87400E+00 2.18750E+00 0.00000E+00
 -1       181 4.65000E+00 4.74020E+01 0.00000E+00
 -1       182 7.65000E+00 4.74020E+01 0.00000E+00
 -1       183 1.06500E+01 4.74020E+01 0.00000E+00
 -1       184 1.36500E+01 4.74020E+01 0.00000E+00
 -1       185 1.66500E+01 4.74020E+01 0.00000E+00
 -1       186 1.96500E+01 4.74020E+01 0.00000E+00
 -1       187 2.26500E+01 4.74020E+01 0.00000E+00
 -1       188 2.56500E+01 4.74020E+01 0.00000E+00
 -1       189 2.86500E+01 4.74020E+01 0.00000E+00
 -1       190 3.16500E+01 4.74020E+01 0.00000E+00
 -1       191 3.46500E+01 4.74020E+01 0.00000E+00
 -1       192 3.76500E+01 4.74020E+01 0.00000E+00
 -1       193 4.06500E+01 4.74020E+01 0.00000E+00
 -1       194 4.36500E+01 4.74020E+01 0.00000E+00
 -1       195 4.66500E+01 4.74020E+01 0.00000E+00
 -1       196 4.96500E+01 4.74020E+01 0.00000E+00
 -1       197 5.26500E+01 4.74020E+01 0.00000E+00
 -1       198 5.56500E+01 4.74020E+01 0.00000E+00
 -1       199 5.86500E+01 4.74020E+01 0.00000E+00
 -1       200 6.16500E+01 4.74020E+01 0.00000E+00
 -1       201 6.46500E+01 4.74020E+01 0.00000E+00
 -1       202 6.76500E+01 4.74020E+01 0.00000E+00
 -1       203 7.06500E+01 4.74020E+01 0.00000E+00
 -1       204 7.38000E+01 4.74020E+01 0.00000E+00
 -1       205 7.68000E+01 4.74020E+01 0.00000E+00
 -1       206 7.98000E+01 4.74020E+01 0.00000E+00
 -1       207 8.28000E+01 4.74020E+01 0.00000E+00
 -1       208 8.58000E+01 4.74020E+01 0.00000E+00
 -1       209 8.88000E+01 4.74020E+01 0.00000E+00
 -1       210 9.18000E+01 4.74020E+01 0.00000E+00
 -1       211 9.48000E+01 4.74020E+01 0.00000E+00
 -1       212 9.78000E+01 4.74020E+01 0.00000E+00
 -1       213 1.00500E+02 4.74020E+01 0.00000E+00
 -1       214 1.03050E+02 4.74020E+01 0.00000E+00
 -1       215 1.05750E+02 4.74020E+01 0.00000E+00
 -1       216 1.10850E+02 4.79498E+01 0.00000E+00
 -1       217 1.13100E+02 4.79498E+01 0.00000E+00
 -1       218 1.15800E+02 4.79498E+01 0.00000E+00
 -1       219 1.18800E+02 4.79498E+01 0.00000E+00
 -1       220 1.21800E+02 4.79498E+01 0.00000E+00
 -1       221 1.24800E+02 4.79498E+01 0.00000E+00
 -1       222 1.27800E+02 4.79498E+01 0.00000E+00
 -1       223 1.30800E+02 4.79498E+01 0.00000E+00
 -1       224 1.33800E+02 4.79498E+01 0.00000E+00
 -1       225 1.36800E+02 4.79498E+01 0.00000E+00
 -1       226 1.39800E+02 4.79498E+01 0.00000E+00
 -1       227 1.42800E+02 4.79498E+01 0.00000E+00
 -1       228 1.45800E+02 4.79498E+01 0.00000E+00
 -1       229 1.47900E+02 4.75249E+01 0.00000E+00
 -1       230 5.87400E+00 2.18750E+00 0.00000E+00
 -1       231 8.87400E+00 2.18750E+00 0.00000E+00
 -1       232 1.18740E+01 2.18750E+00 0.00000E+00
 -1       233 1.48740E+01 2.18750E+00 0.00000E+00
 -1       234 1.78740E+01 2.18750E+00 0.00000E+00
 -1       235 2.08740E+01 2.18750E+00 0.00000E+00
 -1       236 2.38740E+01 2.18750E+00 0.00000E+00
 -1       237 2.68740E+01 2.18750E+00 0.00000E+00
 -1       238 2.98740E+01 2.18750E+00 0.00000E+00
 -1       239 3.28740E+01 2.18750E+00 0.00000E+00
 -1       240 3.58740E+01 2.18750E+00 0.00000E+00
 -1       241 3.88740E+01 2.18750E+00 0.00000E+00
 -1       242 4.18740E+01 2.18750E+00 0.00000E+00
 -1       243 4.48740E+01 2.18750E+00 0.00000E+00
 -1       244 4.78740E+01 2.18750E+00 0.00000E+00
 -1       245 5.08740E+01 2.18750E+00 0.00000E+00
 -1       246 5.38740E+01 2.18750E+00 0.00000E+00
 -1       247 5.68740E+01 2.18750E+00 0.00000E+00
 -1       248 5.98740E+01 2.18750E+00 0.00000E+00
 -1       249 6.28740E+01 2.18750E+00 0.00000E+00
 -1       250 6.58740E+01 2.18750E+00 0.00000E+00
 -1       251 6.88740E+01 2.18750E+00 0.00000E+00
 -1       252 7.18740E+01 2.18750E+00 0.00000E+00
 -1       253 7.48740E+01 2.18750E+00 0.00000E+00
 -1       254 7.78740E+01 2.18750E+00 0.00000E+00
 -1       255 8.08740E+01 2.18750E+00 0.00000E+00
 -1       256 8.38740E+01 2.18750E+00 0.00000E+00
 -1       257 8.68740E+01 2.18750E+00 0.00000E+00
 -1       258 8.98740E+01 2.18750E+00 0.00000E+00
 -1       259 9.28740E+01 2.18750E+00 0.00000E+00
 -1       260 9.58740E+01 2.18750E+00 0.00000E+00
 -1       261 9.88740E+01 2.18750E+00 0.00000E+00
 -1       262 1.01874E+02 2.18750E+00 0.00000E+00
 -1       263 1.04874E+02 2.18750E+00 0.00000E+00
 -1       264 1.07874E+02 2.18750E+00 0.00000E+00
 -1       265 1.10874E+02 2.18750E+00 0.00000E+00
 -1       266 1.13874E+02 2.18750E+00 0.00000E+00
 -1       267 1.16874E+02 2.18750E+00 0.00000E+00
 -1       268 1.19874E+02 2.18750E+00 0.00000E+00
 -1       269 1.22874E+02 2.18750E+00 0.00000E+00
 -1       270 1.25874E+02 2.18750E+00 0.00000E+00
 -1       271 1.28874E+02 2.18750E+00 0.00000E+00
 -1       272 1.31874E+02 2.18750E+00 0.00000E+00
 -1       273 1.34874E+02 2.18750E+00 0.00000E+00
 -1       274 1.37874E+02 2.18750E+00 0.00000E+00
 -1       275 1.40874E+02 2.18750E+00 0.00000E+00
 -1       276 1.43874E+02 2.18750E+00 0.00000E+00
 -1       277 1.46874E+02 2.18750E+00 0.00000E+00
 -1       278 1.47402E+02 4.42500E+00 0.00000E+00
 -1       279 1.47402E+02 7.37500E+00 0.00000E+00
 -1       280 1.47402E+02 1.03250E+01 0.00000E+00
 -1       281 1.47402E+02 1.32750E+01 0.00000E+00
 -1       282 1.47402E+02 1.61750E+01 0.00000E+00
 -1       283 1.47402E+02 1.91250E+01 0.00000E+00
 -1       284 1.47402E+02 2.20750E+01 0.00000E+00
 -1       285 1.47402E+02 2.50250E+01 0.00000E+00
 -1       286 1.47402E+02 2.79750E+01 0.00000E+00
 -1       287 1.47402E+02 3.09250E+01 0.00000E+00
 -1       288 1.47402E+02 3.38250E+01 0.00000E+00
 -1       289 1.47402E+02 3.67750E+01 0.00000E+00
 -1       290 1.47402E+02 3.97250E+01 0.00000E+00
 -1       291 1.47402E+02 4.26750E+01 0.00000E+00
 -1       292 1.47651E+02 4.50999E+01 0.00000E+00
 -1       293 1.15780E+02 3.65496E+01 0.00000E+00
 -1       294 1.15544E+02 3.47380E+01 0.00000E+00
 -1       295 1.14889E+02 3.29660E+01 0.00000E+00
 -1       296 1.13552E+02 3.16607E+01 0.00000E+00
 -1       297 1.12069E+02 3.05679E+01 0.00000E+00
 -1       298 1.10436E+02 2.97552E+01 0.00000E+00
 -1       299 1.08709E+02 2.92534E+01 0.00000E+00
 -1       300 1.06766E+02 2.90766E+01 0.00000E+00
 -1       301 1.04878E+02 2.97633E+01 0.00000E+00
 -1       302 1.03109E+02 3.04540E+01 0.00000E+00
 -1       303 1.01719E+02 3.17126E+01 0.00000E+00
 -1       304 1.00619E+02 3.31182E+01 0.00000E+00
 -1       305 9.98770E+01 3.46792E+01 0.00000E+00
 -1       306 9.94677E+01 3.63968E+01 0.00000E+00
 -1       307 9.94328E+01 3.81578E+01 0.00000E+00
 -1       308 9.98663E+01 3.98944E+01 0.00000E+00
 -1       309 1.00602E+02 4.15557E+01 0.00000E+00
 -1       310 1.01668E+02 4.29973E+01 0.00000E+00
 -1       311 1.03044E+02 4.41781E+01 0.00000E+00
 -1       312 1.04614E+02 4.53728E+01 0.00000E+00
 -1       313 1.06560E+02 4.58682E+01 0.00000E+00
 -1       314 1.08383E+02 4.55837E+01 0.00000E+00
 -1       315 1.10030E+02 4.52625E+01 0.00000E+00
 -1       316 1.11707E+02 4.46278E+01 0.00000E+00
 -1       317 1.13068E+02 4.35756E+01 0.00000E+00
 -1       318 1.14277E+02 4.25236E+01 0.00000E+00
 -1       319 1.14847E+02 4.13913E+01 0.00000E+00
 -1       320 1.15511E+02 3.97409E+01 0.00000E+00
 -1       321 1.15882E+02 3.82423E+01 0.00000E+00
 -1       322 1.08450E+02 4.79498E+01 0.00000E+00
 -1       323 5.19600E+00 4.11500E+01 0.00000E+00
 -1       324 5.19600E+00 4.41000E+01 0.00000E+00
 -1       325 5.19600E+00 3.52750E+01 0.00000E+00
 -1       326 5.19600E+00 3.23250E+01 0.00000E+00
 -1       327 5.19600E+00 2.93750E+01 0.00000E+00
 -1       328 5.19600E+00 2.64250E+01 0.00000E+00
 -1       329 5.19600E+00 2.34750E+01 0.00000E+00
 -1       330 5.19600E+00 2.05250E+01 0.00000E+00
 -1       331 5.19600E+00 1.76250E+01 0.00000E+00
 -1       332 5.19600E+00 1.46750E+01 0.00000E+00
 -1       333 5.19600E+00 1.17250E+01 0.00000E+00
 -1       334 5.19600E+00 8.77500E+00 0.00000E+00
 -1       335 5.19600E+00 5.82500E+00 0.00000E+00
 -1       336 5.53500E+00 4.00625E+00 0.00000E+00
 -1       337 8.53500E+00 4.00625E+00 0.00000E+00
 -1       338 1.16615E+02 4.11442E+01 0.00000E+00
 -1       339 9.15000E+00 4.48040E+01 0.00000E+00
 -1       340 1.21500E+01 4.48040E+01 0.00000E+00
 -1       341 1.51500E+01 4.48040E+01 0.00000E+00
 -1       342 1.81500E+01 4.48040E+01 0.00000E+00
 -1       343 2.11500E+01 4.48040E+01 0.00000E+00
 -1       344 2.41500E+01 4.48040E+01 0.00000E+00
 -1       345 2.71500E+01 4.48040E+01 0.00000E+00
 -1       346 3.01500E+01 4.48040E+01 0.00000E+00
 -1       347 3.31500E+01 4.48040E+01 0.00000E+00
 -1       348 3.61500E+01 4.48040E+01 0.00000E+00
 -1       349 3.91500E+01 4.48040E+01 0.00000E+00
 -1       350 4.21500E+01 4.48040E+01 0.00000E+00
 -1       351 4.51500E+01 4.48040E+01 0.00000E+00
 -1       352 4.81500E+01 4.48040E+01 0.00000E+00
 -1       353 5.11500E+01 4.48040E+01 0.00000E+00
 -1       354 5.41500E+01 4.48040E+01 0.00000E+00
 -1       355 5.71500E+01 4.48040E+01 0.00000E+00
 -1       356 6.01500E+01 4.48040E+01 0.00000E+00
 -1       357 6.31500E+01 4.48040E+01 0.00000E+00
 -1       358 6.61500E+01 4.48040E+01 0.00000E+00
 -1       359 6.91500E+01 4.48040E+01 0.00000E+00
 -1       360 7.23000E+01 4.48040E+01 0.00000E+00
 -1       361 7.53000E+01 4.48040E+01 0.00000E+00
 -1       362 7.83000E+01 4.48040E+01 0.00000E+00
 -1       363 8.13000E+01 4.48040E+01 0.00000E+00
 -1       364 8.43000E+01 4.48040E+01 0.00000E+00
 -1       365 8.73000E+01 4.48040E+01 0.00000E+00
 -1       366 9.03000E+01 4.48040E+01 0.00000E+00
 -1       367 9.33000E+01 4.48040E+01 0.00000E+00
 -1       368 9.63000E+01 4.48040E+01 0.00000E+00
 -1       369 9.90000E+01 4.48040E+01 0.00000E+00
 -1       370 1.17208E+02 3.73130E+01 0.00000E+00
 -1       371 1.14450E+02 4.60671E+01 0.00000E+00
 -1       372 1.17300E+02 4.53968E+01 0.00000E+00
 -1       373 1.20300E+02 4.53968E+01 0.00000E+00
 -1       374 1.23300E+02 4.53968E+01 0.00000E+00
 -1       375 1.26300E+02 4.53968E+01 0.00000E+00
 -1       376 1.29300E+02 4.53968E+01 0.00000E+00
 -1       377 1.32300E+02 4.53968E+01 0.00000E+00
 -1       378 1.35300E+02 4.53968E+01 0.00000E+00
 -1       379 1.38300E+02 4.53968E+01 0.00000E+00
 -1       380 1.41300E+02 4.53968E+01 0.00000E+00
 -1       381 1.44300E+02 4.53968E+01 0.00000E+00
 -1       382 1.33740E+01 4.78550E+00 0.00000E+00
 -1       383 1.63740E+01 4.78550E+00 0.00000E+00
 -1       384 1.93740E+01 4.78550E+00 0.00000E+00
 -1       385 2.23740E+01 4.78550E+00 0.00000E+00
 -1       386 2.53740E+01 4.78550E+00 0.00000E+00
 -1       387 2.83740E+01 4.78550E+00 0.00000E+00
 -1       388 3.13740E+01 4.78550E+00 0.00000E+00
 -1       389 3.43740E+01 4.78550E+00 0.00000E+00
 -1       390 3.73740E+01 4.78550E+00 0.00000E+00
 -1       391 4.03740E+01 4.78550E+00 0.00000E+00
 -1       392 4.33740E+01 4.78550E+00 0.00000E+00
 -1       393 4.63740E+01 4.78550E+00 0.00000E+00
 -1       394 4.93740E+01 4.78550E+00 0.00000E+00
 -1       395 5.23740E+01 4.78550E+00 0.00000E+00
 -1       396 5.53740E+01 4.78550E+00 0.00000E+00
 -1       397 5.83740E+01 4.78550E+00 0.00000E+00
 -1       398 6.13740E+01 4.78550E+00 0.00000E+00
 -1       399 6.43740E+01 4.78550E+00 0.00000E+00
 -1       400 6.73740E+01 4.78550E+00 0.00000E+00
 -1       401 7.03740E+01 4.78550E+00 0.00000E+00
 -1       402 7.33740E+01 4.78550E+00 0.00000E+00
 -1       403 7.63740E+01 4.78550E+00 0.00000E+00
 -1       404 7.93740E+01 4.78550E+00 0.00000E+00
 -1       405 8.23740E+01 4.78550E+00 0.00000E+00
 -1       406 8.53740E+01 4.78550E+00 0.00000E+00
 -1       407 8.83740E+01 4.78550E+00 0.00000E+00
 -1       408 9.13740E+01 4.78550E+00 0.00000E+00
 -1       409 9.43740E+01 4.78550E+00 0.00000E+00
 -1       410 9.73740E+01 4.78550E+00 0.00000E+00
 -1       411 1.00374E+02 4.78550E+00 0.00000E+00
 -1       412 1.03374E+02 4.78550E+00 0.00000E+00
 -1       413 1.06374E+02 4.78550E+00 0.00000E+00
 -1       414 1.09374E+02 4.78550E+00 0.00000E+00
 -1       415 1.12374E+02 4.78550E+00 0.00000E+00
 -1       416 1.15374E+02 4.78550E+00 0.00000E+00
 -1       417 1.18374E+02 4.78550E+00 0.00000E+00
 -1       418 1.21374E+02 4.78550E+00 0.00000E+00
 -1       419 1.24374E+02 4.78550E+00 0.00000E+00
 -1       420 1.27374E+02 4.78550E+00 0.00000E+00
 -1       421 1.30374E+02 4.78550E+00 0.00000E+00
 -1       422 1.33374E+02 4.78550E+00 0.00000E+00
 -1       423 1.36374E+02 4.78550E+00 0.00000E+00
 -1       424 1.39374E+02 4.78550E+00 0.00000E+00
 -1       425 1.42374E+02 4.78550E+00 0.00000E+00
 -1       426 1.44888E+02 4.60525E+00 0.00000E+00
 -1       427 1.44804E+02 1.18000E+01 0.00000E+00
 -1       428 1.44804E+02 8.85000E+00 0.00000E+00
 -1       429 1.44804E+02 1.47000E+01 0.00000E+00
 -1       430 1.44804E+02 1.76500E+01 0.00000E+00
 -1       431 1.44804E+02 2.06000E+01 0.00000E+00
 -1       432 1.44804E+02 2.35500E+01 0.00000E+00
 -1       433 1.44804E+02 2.65000E+01 0.00000E+00
 -1       434 1.44804E+02 2.94500E+01 0.00000E+00
 -1       435 1.44804E+02 3.23500E+01 0.00000E+00
 -1       436 1.44804E+02 3.53000E+01 0.00000E+00
 -1       437 1.44804E+02 3.82500E+01 0.00000E+00
 -1       438 1.44804E+02 4.12000E+01 0.00000E+00
 -1       439 1.09545E+01 4.39587E+00 0.00000E+00
 -1       440 1.16668E+02 3.33156E+01 0.00000E+00
 -1       441 1.13729E+02 2.98686E+01 0.00000E+00
 -1       442 1.16045E+02 4.22765E+01 0.00000E+00
 -1       443 5.19600E+00 3.82125E+01 0.00000E+00
 -1       444 1.11975E+02 4.62347E+01 0.00000E+00
 -1       445 1.11830E+02 2.90010E+01 0.00000E+00
 -1       446 1.09934E+02 2.82596E+01 0.00000E+00
 -1       447 1.07885E+02 2.75404E+01 0.00000E+00
 -1       448 1.05264E+02 2.78870E+01 0.00000E+00
 -1       449 1.03495E+02 2.85777E+01 0.00000E+00
 -1       450 1.01375E+02 2.99360E+01 0.00000E+00
 -1       451 1.00082E+02 3.15651E+01 0.00000E+00
 -1       452 9.89260E+01 3.32703E+01 0.00000E+00
 -1       453 9.80855E+01 3.51599E+01 0.00000E+00
 -1       454 9.81543E+01 3.72516E+01 0.00000E+00
 -1       455 9.79855E+01 3.94415E+01 0.00000E+00
 -1       456 9.88188E+01 4.13514E+01 0.00000E+00
 -1       457 1.00092E+02 4.30471E+01 0.00000E+00
 -1       458 1.01457E+02 4.46350E+01 0.00000E+00
 -1       459 1.02993E+02 4.58737E+01 0.00000E+00
 -1       460 1.14579E+02 4.40904E+01 0.00000E+00
 -1       461 1.16985E+02 3.96456E+01 0.00000E+00
 -1       462 1.15360E+02 3.11457E+01 0.00000E+00
 -1       463 1.17197E+02 3.54441E+01 0.00000E+00
 -1       464 1.10299E+02 4.67136E+01 0.00000E+00
 -1       465 1.44552E+02 4.32984E+01 0.00000E+00
 -1       466 1.13232E+02 4.51936E+01 0.00000E+00
 -1       467 7.79400E+00 3.08500E+01 0.00000E+00
 -1       468 7.79400E+00 3.38000E+01 0.00000E+00
 -1       469 7.79400E+00 2.49500E+01 0.00000E+00
 -1       470 7.79400E+00 2.20000E+01 0.00000E+00
 -1       471 7.79400E+00 1.91000E+01 0.00000E+00
 -1       472 7.79400E+00 1.61500E+01 0.00000E+00
 -1       473 7.79400E+00 1.32000E+01 0.00000E+00
 -1       474 7.79400E+00 1.02500E+01 0.00000E+00
 -1       475 7.79400E+00 7.30000E+00 0.00000E+00
 -1       476 8.16450E+00 5.65312E+00 0.00000E+00
 -1       477 1.06500E+01 4.22060E+01 0.00000E+00
 -1       478 1.18721E+02 3.86348E+01 0.00000E+00
 -1       479 7.92300E+00 4.16780E+01 0.00000E+00
 -1       480 1.36500E+01 4.22060E+01 0.00000E+00
 -1       481 1.66500E+01 4.22060E+01 0.00000E+00
 -1       482 1.96500E+01 4.22060E+01 0.00000E+00
 -1       483 2.26500E+01 4.22060E+01 0.00000E+00
 -1       484 2.56500E+01 4.22060E+01 0.00000E+00
 -1       485 2.86500E+01 4.22060E+01 0.00000E+00
 -1       486 3.16500E+01 4.22060E+01 0.00000E+00
 -1       487 3.46500E+01 4.22060E+01 0.00000E+00
 -1       488 3.76500E+01 4.22060E+01 0.00000E+00
 -1       489 4.06500E+01 4.22060E+01 0.00000E+00
 -1       490 4.36500E+01 4.22060E+01 0.00000E+00
 -1       491 4.66500E+01 4.22060E+01 0.00000E+00
 -1       492 4.96500E+01 4.22060E+01 0.00000E+00
 -1       493 5.26500E+01 4.22060E+01 0.00000E+00
 -1       494 5.56500E+01 4.22060E+01 0.00000E+00
 -1       495 5.86500E+01 4.22060E+01 0.00000E+00
 -1       496 6.16500E+01 4.22060E+01 0.00000E+00
 -1       497 6.46500E+01 4.22060E+01 0.00000E+00
 -1       498 6.76500E+01 4.22060E+01 0.00000E+00
 -1       499 7.08000E+01 4.22060E+01 0.00000E+00
 -1       500 7.38000E+01 4.22060E+01 0.00000E+00
 -1       501 7.68000E+01 4.22060E+01 0.00000E+00
 -1       502 7.98000E+01 4.22060E+01 0.00000E+00
 -1       503 8.28000E+01 4.22060E+01 0.00000E+00
 -1       504 8.58000E+01 4.22060E+01 0.00000E+00
 -1       505 8.88000E+01 4.22060E+01 0.00000E+00
 -1       506 9.18000E+01 4.22060E+01 0.00000E+00
 -1       507 9.48000E+01 4.22060E+01 0.00000E+00
 -1       508 1.21800E+02 4.31790E+01 0.00000E+00
 -1       509 1.24800E+02 4.31790E+01 0.00000E+00
 -1       510 1.27800E+02 4.31790E+01 0.00000E+00
 -1       511 1.30800E+02 4.31790E+01 0.00000E+00
 -1       512 1.33800E+02 4.31790E+01 0.00000E+00
 -1       513 1.36800E+02 4.31790E+01 0.00000E+00
 -1       514 1.39800E+02 4.31790E+01 0.00000E+00
 -1       515 1.42176E+02 4.32387E+01 0.00000E+00
 -1       516 2.08740E+01 7.38350E+00 0.00000E+00
 -1       517 1.78740E+01 7.38350E+00 0.00000E+00
 -1       518 1.48740E+01 7.38350E+00 0.00000E+00
 -1       519 2.38740E+01 7.38350E+00 0.00000E+00
 -1       520 2.68740E+01 7.38350E+00 0.00000E+00
 -1       521 2.98740E+01 7.38350E+00 0.00000E+00
 -1       522 3.28740E+01 7.38350E+00 0.00000E+00
 -1       523 3.58740E+01 7.38350E+00 0.00000E+00
 -1       524 3.88740E+01 7.38350E+00 0.00000E+00
 -1       525 4.18740E+01 7.38350E+00 0.00000E+00
 -1       526 4.48740E+01 7.38350E+00 0.00000E+00
 -1       527 4.78740E+01 7.38350E+00 0.00000E+00
 -1       528 5.08740E+01 7.38350E+00 0.00000E+00
 -1       529 5.38740E+01 7.38350E+00 0.00000E+00
 -1       530 5.68740E+01 7.38350E+00 0.00000E+00
 -1       531 5.98740E+01 7.38350E+00 0.00000E+00
 -1       532 6.28740E+01 7.38350E+00 0.00000E+00
 -1       533 6.58740E+01 7.38350E+00 0.00000E+00
 -1       534 6.88740E+01 7.38350E+00 0.00000E+00
 -1       535 7.18740E+01 7.38350E+00 0.00000E+00
 -1       536 7.48740E+01 7.38350E+00 0.00000E+00
 -1       537 7.78740E+01 7.38350E+00 0.00000E+00
 -1       538 8.08740E+01 7.38350E+00 0.00000E+00
 -1       539 8.38740E+01 7.38350E+00 0.00000E+00
 -1       540 8.68740E+01 7.38350E+00 0.00000E+00
 -1       541 8.98740E+01 7.38350E+00 0.00000E+00
 -1       542 9.28740E+01 7.38350E+00 0.00000E+00
 -1       543 9.58740E+01 7.38350E+00 0.00000E+00
 -1       544 9.88740E+01 7.38350E+00 0.00000E+00
 -1       545 1.01874E+02 7.38350E+00 0.00000E+00
 -1       546 1.04874E+02 7.38350E+00 0.00000E+00
 -1       547 1.07874E+02 7.38350E+00 0.00000E+00
 -1       548 1.10874E+02 7.38350E+00 0.00000E+00
 -1       549 1.13874E+02 7.38350E+00 0.00000E+00
 -1       550 1.16874E+02 7.38350E+00 0.00000E+00
 -1       551 1.19874E+02 7.38350E+00 0.00000E+00
 -1       552 1.22874E+02 7.38350E+00 0.00000E+00
 -1       553 1.25874E+02 7.38350E+00 0.00000E+00
 -1       554 1.28874E+02 7.38350E+00 0.00000E+00
 -1       555 1.31874E+02 7.38350E+00 0.00000E+00
 -1       556 1.34874E+02 7.38350E+00 0.00000E+00
 -1       557 1.37874E+02 7.38350E+00 0.00000E+00
 -1       558 1.40874E+02 7.38350E+00 0.00000E+00
 -1       559 1.42206E+02 1.61750E+01 0.00000E+00
 -1       560 1.42206E+02 1.32750E+01 0.00000E+00
 -1       561 1.42206E+02 1.03250E+01 0.00000E+00
 -1       562 1.11507E+02 2.70330E+01 0.00000E+00
 -1       563 1.42206E+02 1.91250E+01 0.00000E+00
 -1       564 1.42206E+02 2.20750E+01 0.00000E+00
 -1       565 1.42206E+02 2.50250E+01 0.00000E+00
 -1       566 1.42206E+02 2.79750E+01 0.00000E+00
 -1       567 1.42206E+02 3.08750E+01 0.00000E+00
 -1       568 1.42206E+02 3.38250E+01 0.00000E+00
 -1       569 1.42206E+02 3.67750E+01 0.00000E+00
 -1       570 1.42206E+02 3.97250E+01 0.00000E+00
 -1       571 1.13406E+02 2.79006E+01 0.00000E+00
 -1       572 1.18582E+02 3.63700E+01 0.00000E+00
 -1       573 1.06350E+02 2.60134E+01 0.00000E+00
 -1       574 1.17862E+02 4.24812E+01 0.00000E+00
 -1       575 1.18800E+02 4.35141E+01 0.00000E+00
 -1       576 1.18435E+02 3.40071E+01 0.00000E+00
 -1       577 7.79400E+00 2.79000E+01 0.00000E+00
 -1       578 1.15808E+02 2.88929E+01 0.00000E+00
 -1       579 9.94511E+01 2.97362E+01 0.00000E+00
 -1       580 1.09458E+02 2.63138E+01 0.00000E+00
 -1       581 1.03756E+02 2.66347E+01 0.00000E+00
 -1       582 9.75594E+01 4.30777E+01 0.00000E+00
 -1       583 1.01600E+02 2.79539E+01 0.00000E+00
 -1       584 9.82230E+01 3.15493E+01 0.00000E+00
 -1       585 9.70152E+01 3.35521E+01 0.00000E+00
 -1       586 9.64057E+01 3.62622E+01 0.00000E+00
 -1       587 9.62369E+01 3.84521E+01 0.00000E+00
 -1       588 9.67260E+01 4.11678E+01 0.00000E+00
 -1       589 1.18232E+02 4.09826E+01 0.00000E+00
 -1       590 1.16515E+02 4.41562E+01 0.00000E+00
 -1       591 1.17770E+02 3.11719E+01 0.00000E+00
 -1       592 7.79400E+00 3.67375E+01 0.00000E+00
 -1       593 1.05840E+01 6.04275E+00 0.00000E+00
 -1       594 7.85850E+00 3.92077E+01 0.00000E+00
 -1       595 1.07922E+02 2.47868E+01 0.00000E+00
 -1       596 1.27290E+01 6.71313E+00 0.00000E+00
 -1       597 9.96758E+01 2.77541E+01 0.00000E+00
 -1       598 1.03920E+01 2.05500E+01 0.00000E+00
 -1       599 1.03920E+01 2.35000E+01 0.00000E+00
 -1       600 1.03920E+01 1.46750E+01 0.00000E+00
 -1       601 1.03920E+01 1.17250E+01 0.00000E+00
 -1       602 1.02135E+01 7.68962E+00 0.00000E+00
 -1       603 1.21500E+01 3.96080E+01 0.00000E+00
 -1       604 1.00042E+01 3.94079E+01 0.00000E+00
 -1       605 1.39608E+02 1.47250E+01 0.00000E+00
 -1       606 1.51500E+01 3.96080E+01 0.00000E+00
 -1       607 1.81500E+01 3.96080E+01 0.00000E+00
 -1       608 2.11500E+01 3.96080E+01 0.00000E+00
 -1       609 2.41500E+01 3.96080E+01 0.00000E+00
 -1       610 2.71500E+01 3.96080E+01 0.00000E+00
 -1       611 3.01500E+01 3.96080E+01 0.00000E+00
 -1       612 3.31500E+01 3.96080E+01 0.00000E+00
 -1       613 3.61500E+01 3.96080E+01 0.00000E+00
 -1       614 3.91500E+01 3.96080E+01 0.00000E+00
 -1       615 4.21500E+01 3.96080E+01 0.00000E+00
 -1       616 4.51500E+01 3.96080E+01 0.00000E+00
 -1       617 4.81500E+01 3.96080E+01 0.00000E+00
 -1       618 5.11500E+01 3.96080E+01 0.00000E+00
 -1       619 5.41500E+01 3.96080E+01 0.00000E+00
 -1       620 5.71500E+01 3.96080E+01 0.00000E+00
 -1       621 6.01500E+01 3.96080E+01 0.00000E+00
 -1       622 6.31500E+01 3.96080E+01 0.00000E+00
 -1       623 6.61500E+01 3.96080E+01 0.00000E+00
 -1       624 6.93000E+01 3.96080E+01 0.00000E+00
 -1       625 7.23000E+01 3.96080E+01 0.00000E+00
 -1       626 7.53000E+01 3.96080E+01 0.00000E+00
 -1       627 7.83000E+01 3.96080E+01 0.00000E+00
 -1       628 8.13000E+01 3.96080E+01 0.00000E+00
 -1       629 8.43000E+01 3.96080E+01 0.00000E+00
 -1       630 8.73000E+01 3.96080E+01 0.00000E+00
 -1       631 9.03000E+01 3.96080E+01 0.00000E+00
 -1       632 9.33000E+01 3.96080E+01 0.00000E+00
 -1       633 1.23300E+02 4.09612E+01 0.00000E+00
 -1       634 2.53740E+01 9.98150E+00 0.00000E+00
 -1       635 1.26300E+02 4.07936E+01 0.00000E+00
 -1       636 1.29300E+02 4.07936E+01 0.00000E+00
 -1       637 1.32300E+02 4.07936E+01 0.00000E+00
 -1       638 1.35300E+02 4.07936E+01 0.00000E+00
 -1       639 1.38300E+02 4.07936E+01 0.00000E+00
 -1       640 1.40253E+02 4.02593E+01 0.00000E+00
 -1       641 1.93740E+01 9.98150E+00 0.00000E+00
 -1       642 2.23740E+01 9.98150E+00 0.00000E+00
 -1       643 1.63740E+01 9.98150E+00 0.00000E+00
 -1       644 2.83740E+01 9.98150E+00 0.00000E+00
 -1       645 3.13740E+01 9.98150E+00 0.00000E+00
 -1       646 3.43740E+01 9.98150E+00 0.00000E+00
 -1       647 3.73740E+01 9.98150E+00 0.00000E+00
 -1       648 4.03740E+01 9.98150E+00 0.00000E+00
 -1       649 4.33740E+01 9.98150E+00 0.00000E+00
 -1       650 4.63740E+01 9.98150E+00 0.00000E+00
 -1       651 4.93740E+01 9.98150E+00 0.00000E+00
 -1       652 5.23740E+01 9.98150E+00 0.00000E+00
 -1       653 5.53740E+01 9.98150E+00 0.00000E+00
 -1       654 5.83740E+01 9.98150E+00 0.00000E+00
 -1       655 6.13740E+01 9.98150E+00 0.00000E+00
 -1       656 6.43740E+01 9.98150E+00 0.00000E+00
 -1       657 6.73740E+01 9.98150E+00 0.00000E+00
 -1       658 7.03740E+01 9.98150E+00 0.00000E+00
 -1       659 7.33740E+01 9.98150E+00 0.00000E+00
 -1       660 7.63740E+01 9.98150E+00 0.00000E+00
 -1       661 7.93740E+01 9.98150E+00 0.00000E+00
 -1       662 8.23740E+01 9.98150E+00 0.00000E+00
 -1       663 8.53740E+01 9.98150E+00 0.00000E+00
 -1       664 8.83740E+01 9.98150E+00 0.00000E+00
 -1       665 9.13740E+01 9.98150E+00 0.00000E+00
 -1       666 9.43740E+01 9.98150E+00 0.00000E+00
 -1       667 9.73740E+01 9.98150E+00 0.00000E+00
 -1       668 1.00374E+02 9.98150E+00 0.00000E+00
 -1       669 1.03374E+02 9.98150E+00 0.00000E+00
 -1       670 1.06374E+02 9.98150E+00 0.00000E+00
 -1       671 1.09374E+02 9.98150E+00 0.00000E+00
 -1       672 1.12374E+02 9.98150E+00 0.00000E+00
 -1       673 1.15374E+02 9.98150E+00 0.00000E+00
 -1       674 1.18374E+02 9.98150E+00 0.00000E+00
 -1       675 1.21374E+02 9.98150E+00 0.00000E+00
 -1       676 1.24374E+02 9.98150E+00 0.00000E+00
 -1       677 1.27374E+02 9.98150E+00 0.00000E+00
 -1       678 1.30374E+02 9.98150E+00 0.00000E+00
 -1       679 1.33374E+02 9.98150E+00 0.00000E+00
 -1       680 1.36374E+02 9.98150E+00 0.00000E+00
 -1       681 1.39290E+02 1.01532E+01 0.00000E+00
 -1       682 1.39608E+02 2.06000E+01 0.00000E+00
 -1       683 1.20137E+02 3.50866E+01 0.00000E+00
 -1       684 1.01608E+02 2.55455E+01 0.00000E+00
 -1       685 1.39449E+02 1.24391E+01 0.00000E+00
 -1       686 1.39608E+02 2.35500E+01 0.00000E+00
 -1       687 1.39608E+02 1.76625E+01 0.00000E+00
 -1       688 1.39608E+02 2.65000E+01 0.00000E+00
 -1       689 1.39608E+02 2.94000E+01 0.00000E+00
 -1       690 1.39608E+02 3.23500E+01 0.00000E+00
 -1       691 1.39608E+02 3.53000E+01 0.00000E+00
 -1       692 1.39930E+02 3.77797E+01 0.00000E+00
 -1       693 1.20280E+02 3.74031E+01 0.00000E+00
 -1       694 1.13169E+02 2.59068E+01 0.00000E+00
 -1       695 1.04692E+02 2.48190E+01 0.00000E+00
 -1       696 1.19772E+02 3.21980E+01 0.00000E+00
 -1       697 1.03920E+01 1.76125E+01 0.00000E+00
 -1       698 1.20091E+02 4.14755E+01 0.00000E+00
 -1       699 1.03920E+01 3.23250E+01 0.00000E+00
 -1       700 9.74170E+01 2.96810E+01 0.00000E+00
 -1       701 9.62092E+01 3.16838E+01 0.00000E+00
 -1       702 9.47783E+01 3.72381E+01 0.00000E+00
 -1       703 9.50372E+01 3.45308E+01 0.00000E+00
 -1       704 1.18343E+02 2.86950E+01 0.00000E+00
 -1       705 1.15572E+02 2.68991E+01 0.00000E+00
 -1       706 1.11106E+02 2.48970E+01 0.00000E+00
 -1       707 1.03920E+01 3.52625E+01 0.00000E+00
 -1       708 1.03920E+01 2.64500E+01 0.00000E+00
 -1       709 1.33741E+01 9.98153E+00 0.00000E+00
 -1       710 1.09570E+02 2.33700E+01 0.00000E+00
 -1       711 1.20771E+02 3.96278E+01 0.00000E+00
 -1       712 1.02544E+02 2.37299E+01 0.00000E+00
 -1       713 1.06265E+02 2.35924E+01 0.00000E+00
 -1       714 1.18106E+02 2.67012E+01 0.00000E+00
 -1       715 9.42311E+01 3.26624E+01 0.00000E+00
 -1       716 1.20345E+02 2.97211E+01 0.00000E+00
 -1       717 1.03920E+01 2.93875E+01 0.00000E+00
 -1       718 9.76417E+01 2.76989E+01 0.00000E+00
 -1       719 1.29900E+01 1.32000E+01 0.00000E+00
 -1       720 1.37010E+02 3.08750E+01 0.00000E+00
 -1       721 1.01981E+01 3.73352E+01 0.00000E+00
 -1       722 1.36500E+01 3.70100E+01 0.00000E+00
 -1       723 1.66500E+01 3.70100E+01 0.00000E+00
 -1       724 1.96500E+01 3.70100E+01 0.00000E+00
 -1       725 2.26500E+01 3.70100E+01 0.00000E+00
 -1       726 2.56500E+01 3.70100E+01 0.00000E+00
 -1       727 2.86500E+01 3.70100E+01 0.00000E+00
 -1       728 3.16500E+01 3.70100E+01 0.00000E+00
 -1       729 3.46500E+01 3.70100E+01 0.00000E+00
 -1       730 3.76500E+01 3.70100E+01 0.00000E+00
 -1       731 4.06500E+01 3.70100E+01 0.00000E+00
 -1       732 4.36500E+01 3.70100E+01 0.00000E+00
 -1       733 4.66500E+01 3.70100E+01 0.00000E+00
 -1       734 4.96500E+01 3.70100E+01 0.00000E+00
 -1       735 5.26500E+01 3.70100E+01 0.00000E+00
 -1       736 5.56500E+01 3.70100E+01 0.00000E+00
 -1       737 5.86500E+01 3.70100E+01 0.00000E+00
 -1       738 6.16500E+01 3.70100E+01 0.00000E+00
 -1       739 6.46500E+01 3.70100E+01 0.00000E+00
 -1       740 6.78000E+01 3.70100E+01 0.00000E+00
 -1       741 7.08000E+01 3.70100E+01 0.00000E+00
 -1       742 7.38000E+01 3.70100E+01 0.00000E+00
 -1       743 7.68000E+01 3.70100E+01 0.00000E+00
 -1       744 7.98000E+01 3.70100E+01 0.00000E+00
 -1       745 8.28000E+01 3.70100E+01 0.00000E+00
 -1       746 8.58000E+01 3.70100E+01 0.00000E+00
 -1       747 8.88000E+01 3.70100E+01 0.00000E+00
 -1       748 9.18000E+01 3.70100E+01 0.00000E+00
 -1       749 1.48741E+01 1.25795E+01 0.00000E+00
 -1       750 2.68740E+01 1.25795E+01 0.00000E+00
 -1       751 1.22527E+02 3.80734E+01 0.00000E+00
 -1       752 9.89725E+01 2.51896E+01 0.00000E+00
 -1       753 1.30800E+02 3.81956E+01 0.00000E+00
 -1       754 1.33800E+02 3.81956E+01 0.00000E+00
 -1       755 1.36800E+02 3.81956E+01 0.00000E+00
 -1       756 3.28740E+01 1.25795E+01 0.00000E+00
 -1       757 3.58740E+01 1.25795E+01 0.00000E+00
 -1       758 3.88740E+01 1.25795E+01 0.00000E+00
 -1       759 4.18740E+01 1.25795E+01 0.00000E+00
 -1       760 4.48740E+01 1.25795E+01 0.00000E+00
 -1       761 4.78740E+01 1.25795E+01 0.00000E+00
 -1       762 5.08740E+01 1.25795E+01 0.00000E+00
 -1       763 5.38740E+01 1.25795E+01 0.00000E+00
 -1       764 5.68740E+01 1.25795E+01 0.00000E+00
 -1       765 5.98740E+01 1.25795E+01 0.00000E+00
 -1       766 6.28740E+01 1.25795E+01 0.00000E+00
 -1       767 6.58740E+01 1.25795E+01 0.00000E+00
 -1       768 6.88740E+01 1.25795E+01 0.00000E+00
 -1       769 7.18740E+01 1.25795E+01 0.00000E+00
 -1       770 7.48740E+01 1.25795E+01 0.00000E+00
 -1       771 7.78740E+01 1.25795E+01 0.00000E+00
 -1       772 8.08740E+01 1.25795E+01 0.00000E+00
 -1       773 8.38740E+01 1.25795E+01 0.00000E+00
 -1       774 8.68740E+01 1.25795E+01 0.00000E+00
 -1       775 8.98740E+01 1.25795E+01 0.00000E+00
 -1       776 9.28740E+01 1.25795E+01 0.00000E+00
 -1       777 9.58740E+01 1.25795E+01 0.00000E+00
 -1       778 9.88740E+01 1.25795E+01 0.00000E+00
 -1       779 1.01874E+02 1.25795E+01 0.00000E+00
 -1       780 1.04874E+02 1.25795E+01 0.00000E+00
 -1       781 1.07874E+02 1.25795E+01 0.00000E+00
 -1       782 1.10874E+02 1.25795E+01 0.00000E+00
 -1       783 1.13874E+02 1.25795E+01 0.00000E+00
 -1       784 1.16874E+02 1.25795E+01 0.00000E+00
 -1       785 1.19874E+02 1.25795E+01 0.00000E+00
 -1       786 1.22874E+02 1.25795E+01 0.00000E+00
 -1       787 1.25874E+02 1.25795E+01 0.00000E+00
 -1       788 1.28874E+02 1.25795E+01 0.00000E+00
 -1       789 1.31874E+02 1.25795E+01 0.00000E+00
 -1       790 1.34874E+02 1.25795E+01 0.00000E+00
 -1       791 1.37161E+02 1.25093E+01 0.00000E+00
 -1       792 1.37010E+02 2.79750E+01 0.00000E+00
 -1       793 1.37010E+02 3.38250E+01 0.00000E+00
 -1       794 1.12965E+02 2.37109E+01 0.00000E+00
 -1       795 1.15368E+02 2.47032E+01 0.00000E+00
 -1       796 1.37010E+02 2.50250E+01 0.00000E+00
 -1       797 1.24667E+02 3.84957E+01 0.00000E+00
 -1       798 1.27800E+02 3.81956E+01 0.00000E+00
 -1       799 2.98740E+01 1.25795E+01 0.00000E+00
 -1       800 9.52009E+01 2.97101E+01 0.00000E+00
 -1       801 1.37010E+02 2.20750E+01 0.00000E+00
 -1       802 1.78741E+01 1.25795E+01 0.00000E+00
 -1       803 1.29900E+01 2.20250E+01 0.00000E+00
 -1       804 1.21988E+02 3.33856E+01 0.00000E+00
 -1       805 9.30156E+01 3.48362E+01 0.00000E+00
 -1       806 1.22258E+02 3.57295E+01 0.00000E+00
 -1       807 1.29900E+01 2.49750E+01 0.00000E+00
 -1       808 1.07913E+02 2.21756E+01 0.00000E+00
 -1       809 2.38740E+01 1.25795E+01 0.00000E+00
 -1       810 1.11430E+02 2.21839E+01 0.00000E+00
 -1       811 9.99090E+01 2.33740E+01 0.00000E+00
 -1       812 2.08740E+01 1.25795E+01 0.00000E+00
 -1       813 1.37010E+02 1.61938E+01 0.00000E+00
 -1       814 1.04117E+02 2.25033E+01 0.00000E+00
 -1       815 1.29900E+01 1.61375E+01 0.00000E+00
 -1       816 1.37010E+02 1.91313E+01 0.00000E+00
 -1       817 1.36905E+02 3.60103E+01 0.00000E+00
 -1       818 9.54256E+01 2.77280E+01 0.00000E+00
 -1       819 1.17902E+02 2.45052E+01 0.00000E+00
 -1       820 1.29900E+01 3.37938E+01 0.00000E+00
 -1       821 1.20109E+02 2.77273E+01 0.00000E+00
 -1       822 1.29900E+01 1.90812E+01 0.00000E+00
 -1       823 1.29900E+01 3.08563E+01 0.00000E+00
 -1       824 1.22562E+02 3.09086E+01 0.00000E+00
 -1       825 1.63741E+01 1.51775E+01 0.00000E+00
 -1       826 1.34412E+02 2.06031E+01 0.00000E+00
 -1       827 1.46820E+01 1.56575E+01 0.00000E+00
 -1       828 1.51500E+01 3.44120E+01 0.00000E+00
 -1       829 1.81500E+01 3.44120E+01 0.00000E+00
 -1       830 2.11500E+01 3.44120E+01 0.00000E+00
 -1       831 2.41500E+01 3.44120E+01 0.00000E+00
 -1       832 2.71500E+01 3.44120E+01 0.00000E+00
 -1       833 3.01500E+01 3.44120E+01 0.00000E+00
 -1       834 3.31500E+01 3.44120E+01 0.00000E+00
 -1       835 3.61500E+01 3.44120E+01 0.00000E+00
 -1       836 3.91500E+01 3.44120E+01 0.00000E+00
 -1       837 4.21500E+01 3.44120E+01 0.00000E+00
 -1       838 4.51500E+01 3.44120E+01 0.00000E+00
 -1       839 4.81500E+01 3.44120E+01 0.00000E+00
 -1       840 5.11500E+01 3.44120E+01 0.00000E+00
 -1       841 5.41500E+01 3.44120E+01 0.00000E+00
 -1       842 5.71500E+01 3.44120E+01 0.00000E+00
 -1       843 6.01500E+01 3.44120E+01 0.00000E+00
 -1       844 6.31500E+01 3.44120E+01 0.00000E+00
 -1       845 6.63000E+01 3.44120E+01 0.00000E+00
 -1       846 6.93000E+01 3.44120E+01 0.00000E+00
 -1       847 7.23000E+01 3.44120E+01 0.00000E+00
 -1       848 7.53000E+01 3.44120E+01 0.00000E+00
 -1       849 7.83000E+01 3.44120E+01 0.00000E+00
 -1       850 8.13000E+01 3.44120E+01 0.00000E+00
 -1       851 8.43000E+01 3.44120E+01 0.00000E+00
 -1       852 8.73000E+01 3.44120E+01 0.00000E+00
 -1       853 9.01578E+01 3.46241E+01 0.00000E+00
 -1       854 1.33905E+02 3.60103E+01 0.00000E+00
 -1       855 4.03740E+01 1.51775E+01 0.00000E+00
 -1       856 3.73740E+01 1.51775E+01 0.00000E+00
 -1       857 3.43740E+01 1.51775E+01 0.00000E+00
 -1       858 4.33740E+01 1.51775E+01 0.00000E+00
 -1       859 4.63740E+01 1.51775E+01 0.00000E+00
 -1       860 4.93740E+01 1.51775E+01 0.00000E+00
 -1       861 5.23740E+01 1.51775E+01 0.00000E+00
 -1       862 5.53740E+01 1.51775E+01 0.00000E+00
 -1       863 5.83740E+01 1.51775E+01 0.00000E+00
 -1       864 6.13740E+01 1.51775E+01 0.00000E+00
 -1       865 6.43740E+01 1.51775E+01 0.00000E+00
 -1       866 6.73740E+01 1.51775E+01 0.00000E+00
 -1       867 7.03740E+01 1.51775E+01 0.00000E+00
 -1       868 7.33740E+01 1.51775E+01 0.00000E+00
 -1       869 7.63740E+01 1.51775E+01 0.00000E+00
 -1       870 7.93740E+01 1.51775E+01 0.00000E+00
 -1       871 8.23740E+01 1.51775E+01 0.00000E+00
 -1       872 8.53740E+01 1.51775E+01 0.00000E+00
 -1       873 8.83740E+01 1.51775E+01 0.00000E+00
 -1       874 9.13740E+01 1.51775E+01 0.00000E+00
 -1       875 9.43740E+01 1.51775E+01 0.00000E+00
 -1       876 9.73740E+01 1.51775E+01 0.00000E+00
 -1       877 1.00374E+02 1.51775E+01 0.00000E+00
 -1       878 1.03374E+02 1.51775E+01 0.00000E+00
 -1       879 1.06374E+02 1.51775E+01 0.00000E+00
 -1       880 1.09374E+02 1.51775E+01 0.00000E+00
 -1       881 1.12374E+02 1.51775E+01 0.00000E+00
 -1       882 1.15374E+02 1.51775E+01 0.00000E+00
 -1       883 1.18374E+02 1.51775E+01 0.00000E+00
 -1       884 1.21374E+02 1.51775E+01 0.00000E+00
 -1       885 1.24374E+02 1.51775E+01 0.00000E+00
 -1       886 1.27374E+02 1.51775E+01 0.00000E+00
 -1       887 1.30374E+02 1.51775E+01 0.00000E+00
 -1       888 1.33374E+02 1.51775E+01 0.00000E+00
 -1       889 1.34412E+02 2.94250E+01 0.00000E+00
 -1       890 1.24397E+02 3.61518E+01 0.00000E+00
 -1       891 9.27682E+01 3.05464E+01 0.00000E+00
 -1       892 1.27530E+02 3.58517E+01 0.00000E+00
 -1       893 1.15013E+02 2.21572E+01 0.00000E+00
 -1       894 1.34412E+02 1.76656E+01 0.00000E+00
 -1       895 1.34412E+02 3.23750E+01 0.00000E+00
 -1       896 1.34412E+02 2.64750E+01 0.00000E+00
 -1       897 1.30905E+02 3.60103E+01 0.00000E+00
 -1       898 1.29900E+01 2.79188E+01 0.00000E+00
 -1       899 1.29218E+02 3.59310E+01 0.00000E+00
 -1       900 1.34412E+02 2.35391E+01 0.00000E+00
 -1       901 9.67563E+01 2.52187E+01 0.00000E+00
 -1       902 1.05765E+02 2.10865E+01 0.00000E+00
 -1       903 2.53740E+01 1.51775E+01 0.00000E+00
 -1       904 1.09772E+02 2.09896E+01 0.00000E+00
 -1       905 9.76929E+01 2.34031E+01 0.00000E+00
 -1       906 1.93740E+01 1.51775E+01 0.00000E+00
 -1       907 1.13478E+02 2.06302E+01 0.00000E+00
 -1       908 1.17548E+02 2.19592E+01 0.00000E+00
 -1       909 1.34158E+02 3.41926E+01 0.00000E+00
 -1       910 9.29929E+01 2.85644E+01 0.00000E+00
 -1       911 3.13740E+01 1.51775E+01 0.00000E+00
 -1       912 1.19905E+02 2.55314E+01 0.00000E+00
 -1       913 1.51500E+01 3.14745E+01 0.00000E+00
 -1       914 1.01546E+02 2.11880E+01 0.00000E+00
 -1       915 1.22325E+02 2.89148E+01 0.00000E+00
 -1       916 1.24128E+02 3.38079E+01 0.00000E+00
 -1       917 1.55880E+01 2.35000E+01 0.00000E+00
 -1       918 1.55880E+01 2.05562E+01 0.00000E+00
 -1       919 9.14630E+01 3.25853E+01 0.00000E+00
 -1       920 2.83740E+01 1.51775E+01 0.00000E+00
 -1       921 1.31814E+02 3.09000E+01 0.00000E+00
 -1       922 1.25444E+02 3.12245E+01 0.00000E+00
 -1       923 1.96500E+01 3.18140E+01 0.00000E+00
 -1       924 2.26500E+01 3.18140E+01 0.00000E+00
 -1       925 2.56500E+01 3.18140E+01 0.00000E+00
 -1       926 2.86500E+01 3.18140E+01 0.00000E+00
 -1       927 3.16500E+01 3.18140E+01 0.00000E+00
 -1       928 3.46500E+01 3.18140E+01 0.00000E+00
 -1       929 3.76500E+01 3.18140E+01 0.00000E+00
 -1       930 4.06500E+01 3.18140E+01 0.00000E+00
 -1       931 4.36500E+01 3.18140E+01 0.00000E+00
 -1       932 4.66500E+01 3.18140E+01 0.00000E+00
 -1       933 4.96500E+01 3.18140E+01 0.00000E+00
 -1       934 5.26500E+01 3.18140E+01 0.00000E+00
 -1       935 5.56500E+01 3.18140E+01 0.00000E+00
 -1       936 5.86500E+01 3.18140E+01 0.00000E+00
 -1       937 6.16500E+01 3.18140E+01 0.00000E+00
 -1       938 6.48000E+01 3.18140E+01 0.00000E+00
 -1       939 6.78000E+01 3.18140E+01 0.00000E+00
 -1       940 7.08000E+01 3.18140E+01 0.00000E+00
 -1       941 7.38000E+01 3.18140E+01 0.00000E+00
 -1       942 7.68000E+01 3.18140E+01 0.00000E+00
 -1       943 7.98000E+01 3.18140E+01 0.00000E+00
 -1       944 8.28000E+01 3.18140E+01 0.00000E+00
 -1       945 8.58000E+01 3.18140E+01 0.00000E+00
 -1       946 3.88740E+01 1.77755E+01 0.00000E+00
 -1       947 2.23740E+01 1.51775E+01 0.00000E+00
 -1       948 4.48740E+01 1.77755E+01 0.00000E+00
 -1       949 4.18740E+01 1.77755E+01 0.00000E+00
 -1       950 3.58740E+01 1.77755E+01 0.00000E+00
 -1       951 4.78740E+01 1.77755E+01 0.00000E+00
 -1       952 5.08740E+01 1.77755E+01 0.00000E+00
 -1       953 5.38740E+01 1.77755E+01 0.00000E+00
 -1       954 5.68740E+01 1.77755E+01 0.00000E+00
 -1       955 5.98740E+01 1.77755E+01 0.00000E+00
 -1       956 6.28740E+01 1.77755E+01 0.00000E+00
 -1       957 6.58740E+01 1.77755E+01 0.00000E+00
 -1       958 6.88740E+01 1.77755E+01 0.00000E+00
 -1       959 7.18740E+01 1.77755E+01 0.00000E+00
 -1       960 7.48740E+01 1.77755E+01 0.00000E+00
 -1       961 7.78740E+01 1.77755E+01 0.00000E+00
 -1       962 8.08740E+01 1.77755E+01 0.00000E+00
 -1       963 8.38740E+01 1.77755E+01 0.00000E+00
 -1       964 8.68740E+01 1.77755E+01 0.00000E+00
 -1       965 8.98740E+01 1.77755E+01 0.00000E+00
 -1       966 9.28740E+01 1.77755E+01 0.00000E+00
 -1       967 9.58740E+01 1.77755E+01 0.00000E+00
 -1       968 9.88740E+01 1.77755E+01 0.00000E+00
 -1       969 1.01874E+02 1.77755E+01 0.00000E+00
 -1       970 1.04874E+02 1.77755E+01 0.00000E+00
 -1       971 1.07874E+02 1.77755E+01 0.00000E+00
 -1       972 1.10874E+02 1.77755E+01 0.00000E+00
 -1       973 1.13874E+02 1.77755E+01 0.00000E+00
 -1       974 1.16874E+02 1.77755E+01 0.00000E+00
 -1       975 1.19874E+02 1.77755E+01 0.00000E+00
 -1       976 1.22874E+02 1.77755E+01 0.00000E+00
 -1       977 1.25874E+02 1.77755E+01 0.00000E+00
 -1       978 1.28874E+02 1.77755E+01 0.00000E+00
 -1       979 1.31643E+02 1.77206E+01 0.00000E+00
 -1       980 2.68740E+01 1.77755E+01 0.00000E+00
 -1       981 1.55880E+01 2.64438E+01 0.00000E+00
 -1       982 9.88180E+01 2.08512E+01 0.00000E+00
 -1       983 1.31814E+02 2.79500E+01 0.00000E+00
 -1       984 1.51350E+01 1.81069E+01 0.00000E+00
 -1       985 1.53690E+01 2.89591E+01 0.00000E+00
 -1       986 1.27261E+02 3.35078E+01 0.00000E+00
 -1       987 9.39836E+01 2.53558E+01 0.00000E+00
 -1       988 1.31158E+02 3.41926E+01 0.00000E+00
 -1       989 1.31154E+02 2.09616E+01 0.00000E+00
 -1       990 1.25207E+02 2.92307E+01 0.00000E+00
 -1       991 8.86578E+01 3.20261E+01 0.00000E+00
 -1       992 9.49201E+01 2.35401E+01 0.00000E+00
 -1       993 2.98740E+01 1.77755E+01 0.00000E+00
 -1       994 1.81860E+01 2.49719E+01 0.00000E+00
 -1       995 1.28948E+02 3.35871E+01 0.00000E+00
 -1       996 1.16012E+02 2.04322E+01 0.00000E+00
 -1       997 3.28740E+01 1.77755E+01 0.00000E+00
 -1       998 1.22121E+02 2.67189E+01 0.00000E+00
 -1       999 1.19550E+02 2.29853E+01 0.00000E+00
 -1      1000 1.31814E+02 2.50141E+01 0.00000E+00
 -1      1001 1.31486E+02 3.25463E+01 0.00000E+00
 -1      1002 9.05103E+01 2.92867E+01 0.00000E+00
 -1      1003 1.03994E+02 1.95729E+01 0.00000E+00
 -1      1004 1.81860E+01 2.20281E+01 0.00000E+00
 -1      1005 2.38740E+01 1.77755E+01 0.00000E+00
 -1      1006 1.68270E+01 1.76269E+01 0.00000E+00
 -1      1007 1.99014E+01 1.82748E+01 0.00000E+00
 -1      1008 1.11898E+02 1.97874E+01 0.00000E+00
 -1      1009 4.63740E+01 2.03735E+01 0.00000E+00
 -1      1010 2.41500E+01 2.92160E+01 0.00000E+00
 -1      1011 2.71500E+01 2.92160E+01 0.00000E+00
 -1      1012 3.01500E+01 2.92160E+01 0.00000E+00
 -1      1013 3.31500E+01 2.92160E+01 0.00000E+00
 -1      1014 3.61500E+01 2.92160E+01 0.00000E+00
 -1      1015 3.91500E+01 2.92160E+01 0.00000E+00
 -1      1016 4.21500E+01 2.92160E+01 0.00000E+00
 -1      1017 4.51500E+01 2.92160E+01 0.00000E+00
 -1      1018 4.81500E+01 2.92160E+01 0.00000E+00
 -1      1019 5.11500E+01 2.92160E+01 0.00000E+00
 -1      1020 5.41500E+01 2.92160E+01 0.00000E+00
 -1      1021 5.71500E+01 2.92160E+01 0.00000E+00
 -1      1022 6.01500E+01 2.92160E+01 0.00000E+00
 -1      1023 6.33000E+01 2.92160E+01 0.00000E+00
 -1      1024 6.63000E+01 2.92160E+01 0.00000E+00
 -1      1025 6.93000E+01 2.92160E+01 0.00000E+00
 -1      1026 7.23000E+01 2.92160E+01 0.00000E+00
 -1      1027 7.53000E+01 2.92160E+01 0.00000E+00
 -1      1028 7.83000E+01 2.92160E+01 0.00000E+00
 -1      1029 8.13000E+01 2.92160E+01 0.00000E+00
 -1      1030 8.43000E+01 2.92160E+01 0.00000E+00
 -1      1031 3.73740E+01 2.03735E+01 0.00000E+00
 -1      1032 4.93740E+01 2.03735E+01 0.00000E+00
 -1      1033 1.29216E+02 2.94250E+01 0.00000E+00
 -1      1034 5.23740E+01 2.03735E+01 0.00000E+00
 -1      1035 5.53740E+01 2.03735E+01 0.00000E+00
 -1      1036 5.83740E+01 2.03735E+01 0.00000E+00
 -1      1037 6.13740E+01 2.03735E+01 0.00000E+00
 -1      1038 6.43740E+01 2.03735E+01 0.00000E+00
 -1      1039 6.73740E+01 2.03735E+01 0.00000E+00
 -1      1040 7.03740E+01 2.03735E+01 0.00000E+00
 -1      1041 7.33740E+01 2.03735E+01 0.00000E+00
 -1      1042 7.63740E+01 2.03735E+01 0.00000E+00
 -1      1043 7.93740E+01 2.03735E+01 0.00000E+00
 -1      1044 8.23740E+01 2.03735E+01 0.00000E+00
 -1      1045 8.53740E+01 2.03735E+01 0.00000E+00
 -1      1046 8.83740E+01 2.03735E+01 0.00000E+00
 -1      1047 9.13740E+01 2.03735E+01 0.00000E+00
 -1      1048 9.43740E+01 2.03735E+01 0.00000E+00
 -1      1049 1.21374E+02 2.03735E+01 0.00000E+00
 -1      1050 1.24374E+02 2.03735E+01 0.00000E+00
 -1      1051 1.27374E+02 2.03735E+01 0.00000E+00
 -1      1052 2.11500E+01 2.92160E+01 0.00000E+00
 -1      1053 9.10489E+01 2.62069E+01 0.00000E+00
 -1      1054 1.79670E+01 2.74872E+01 0.00000E+00
 -1      1055 1.25003E+02 2.70348E+01 0.00000E+00
 -1      1056 8.71578E+01 2.94281E+01 0.00000E+00
 -1      1057 1.18711E+02 1.98673E+01 0.00000E+00
 -1      1058 1.29216E+02 2.64891E+01 0.00000E+00
 -1      1059 4.33740E+01 2.03735E+01 0.00000E+00
 -1      1060 3.43740E+01 2.03735E+01 0.00000E+00
 -1      1061 4.03740E+01 2.03735E+01 0.00000E+00
 -1      1062 9.21429E+01 2.32570E+01 0.00000E+00
 -1      1063 1.28295E+02 2.34313E+01 0.00000E+00
 -1      1064 2.83740E+01 2.03735E+01 0.00000E+00
 -1      1065 1.21766E+02 2.41729E+01 0.00000E+00
 -1      1066 2.53740E+01 2.03735E+01 0.00000E+00
 -1      1067 2.07840E+01 2.35000E+01 0.00000E+00
 -1      1068 2.05650E+01 2.60154E+01 0.00000E+00
 -1      1069 8.76964E+01 2.63483E+01 0.00000E+00
 -1      1070 8.48386E+01 2.61362E+01 0.00000E+00
 -1      1071 2.86500E+01 2.66180E+01 0.00000E+00
 -1      1072 3.16500E+01 2.66180E+01 0.00000E+00
 -1      1073 3.46500E+01 2.66180E+01 0.00000E+00
 -1      1074 3.76500E+01 2.66180E+01 0.00000E+00
 -1      1075 4.06500E+01 2.66180E+01 0.00000E+00
 -1      1076 4.36500E+01 2.66180E+01 0.00000E+00
 -1      1077 4.66500E+01 2.66180E+01 0.00000E+00
 -1      1078 4.96500E+01 2.66180E+01 0.00000E+00
 -1      1079 5.26500E+01 2.66180E+01 0.00000E+00
 -1      1080 5.56500E+01 2.66180E+01 0.00000E+00
 -1      1081 5.86500E+01 2.66180E+01 0.00000E+00
 -1      1082 6.18000E+01 2.66180E+01 0.00000E+00
 -1      1083 6.48000E+01 2.66180E+01 0.00000E+00
 -1      1084 6.78000E+01 2.66180E+01 0.00000E+00
 -1      1085 7.08000E+01 2.66180E+01 0.00000E+00
 -1      1086 7.38000E+01 2.66180E+01 0.00000E+00
 -1      1087 7.68000E+01 2.66180E+01 0.00000E+00
 -1      1088 7.98000E+01 2.66180E+01 0.00000E+00
 -1      1089 8.23193E+01 2.63771E+01 0.00000E+00
 -1      1090 5.38740E+01 2.29715E+01 0.00000E+00
 -1      1091 3.13740E+01 2.03735E+01 0.00000E+00
 -1      1092 5.68740E+01 2.29715E+01 0.00000E+00
 -1      1093 5.08740E+01 2.29715E+01 0.00000E+00
 -1      1094 5.98740E+01 2.29715E+01 0.00000E+00
 -1      1095 6.28740E+01 2.29715E+01 0.00000E+00
 -1      1096 6.58740E+01 2.29715E+01 0.00000E+00
 -1      1097 6.88740E+01 2.29715E+01 0.00000E+00
 -1      1098 7.18740E+01 2.29715E+01 0.00000E+00
 -1      1099 7.48740E+01 2.29715E+01 0.00000E+00
 -1      1100 7.78740E+01 2.29715E+01 0.00000E+00
 -1      1101 8.08740E+01 2.29715E+01 0.00000E+00
 -1      1102 8.38740E+01 2.29715E+01 0.00000E+00
 -1      1103 8.68740E+01 2.29715E+01 0.00000E+00
 -1      1104 1.22874E+02 2.29715E+01 0.00000E+00
 -1      1105 2.35650E+01 2.60154E+01 0.00000E+00
 -1      1106 1.25585E+02 2.32014E+01 0.00000E+00
 -1      1107 2.61075E+01 2.63167E+01 0.00000E+00
 -1      1108 2.23290E+01 2.06378E+01 0.00000E+00
 -1      1109 1.27109E+02 2.67619E+01 0.00000E+00
 -1      1110 4.78740E+01 2.29715E+01 0.00000E+00
 -1      1111 8.95352E+01 2.33609E+01 0.00000E+00
 -1      1112 4.48740E+01 2.29715E+01 0.00000E+00
 -1      1113 3.58740E+01 2.29715E+01 0.00000E+00
 -1      1114 2.68740E+01 2.29715E+01 0.00000E+00
 -1      1115 2.98740E+01 2.29715E+01 0.00000E+00
 -1      1116 2.38427E+01 2.33029E+01 0.00000E+00
 -1      1117 3.88740E+01 2.29715E+01 0.00000E+00
 -1      1118 4.18740E+01 2.29715E+01 0.00000E+00
 -1      1119 3.28740E+01 2.29715E+01 0.00000E+00
 -1      1120 0.00000E+00 4.85250E+01 0.00000E+00
 -1      1121 0.00000E+00 4.55750E+01 0.00000E+00
 -1      1122 0.00000E+00 4.26250E+01 0.00000E+00
 -1      1123 0.00000E+00 3.96750E+01 0.00000E+00
 -1      1124 0.00000E+00 3.67250E+01 0.00000E+00
 -1      1125 0.00000E+00 3.38000E+01 0.00000E+00
 -1      1126 0.00000E+00 3.08750E+01 0.00000E+00
 -1      1127 0.00000E+00 2.79250E+01 0.00000E+00
 -1      1128 0.00000E+00 2.49750E+01 0.00000E+00
 -1      1129 0.00000E+00 2.20250E+01 0.00000E+00
 -1      1130 0.00000E+00 1.90750E+01 0.00000E+00
 -1      1131 0.00000E+00 1.61500E+01 0.00000E+00
 -1      1132 0.00000E+00 1.32250E+01 0.00000E+00
 -1      1133 0.00000E+00 1.02750E+01 0.00000E+00
 -1      1134 0.00000E+00 7.32500E+00 0.00000E+00
 -1      1135 0.00000E+00 4.37500E+00 0.00000E+00
 -1      1136 0.00000E+00 1.45000E+00 0.00000E+00
 -1      1137 1.57500E+00 5.00000E+01 0.00000E+00
 -1      1138 4.65000E+00 5.00000E+01 0.00000E+00
 -1      1139 7.65000E+00 5.00000E+01 0.00000E+00
 -1      1140 1.06500E+01 5.00000E+01 0.00000E+00
 -1      1141 1.36500E+01 5.00000E+01 0.00000E+00
 -1      1142 1.66500E+01 5.00000E+01 0.00000E+00
 -1      1143 1.96500E+01 5.00000E+01 0.00000E+00
 -1      1144 2.26500E+01 5.00000E+01 0.00000E+00
 -1      1145 2.56500E+01 5.00000E+01 0.00000E+00
 -1      1146 2.86500E+01 5.00000E+01 0.00000E+00
 -1      1147 3.16500E+01 5.00000E+01 0.00000E+00
 -1      1148 3.46500E+01 5.00000E+01 0.00000E+00
 -1      1149 3.76500E+01 5.00000E+01 0.00000E+00
 -1      1150 4.06500E+01 5.00000E+01 0.00000E+00
 -1      1151 4.36500E+01 5.00000E+01 0.00000E+00
 -1      1152 4.66500E+01 5.00000E+01 0.00000E+00
 -1      1153 4.96500E+01 5.00000E+01 0.00000E+00
 -1      1154 5.26500E+01 5.00000E+01 0.00000E+00
 -1      1155 5.56500E+01 5.00000E+01 0.00000E+00
 -1      1156 5.86500E+01 5.00000E+01 0.00000E+00
 -1      1157 6.16500E+01 5.00000E+01 0.00000E+00
 -1      1158 6.46500E+01 5.00000E+01 0.00000E+00
 -1      1159 6.76500E+01 5.00000E+01 0.00000E+00
 -1      1160 7.06500E+01 5.00000E+01 0.00000E+00
 -1      1161 7.37250E+01 5.00000E+01 0.00000E+00
 -1      1162 7.68000E+01 5.00000E+01 0.00000E+00
 -1      1163 7.98000E+01 5.00000E+01 0.00000E+00
 -1      1164 8.28000E+01 5.00000E+01 0.00000E+00
 -1      1165 8.58000E+01 5.00000E+01 0.00000E+00
 -1      1166 8.88000E+01 5.00000E+01 0.00000E+00
 -1      1167 9.18000E+01 5.00000E+01 0.00000E+00
 -1      1168 9.48000E+01 5.00000E+01 0.00000E+00
 -1      1169 9.78000E+01 5.00000E+01 0.00000E+00
 -1      1170 1.00650E+02 5.00000E+01 0.00000E+00
 -1      1171 1.03275E+02 5.00000E+01 0.00000E+00
 -1      1172 1.05900E+02 5.00000E+01 0.00000E+00
 -1      1173 1.08450E+02 5.00000E+01 0.00000E+00
 -1      1174 1.10850E+02 5.00000E+01 0.00000E+00
 -1      1175 1.13175E+02 5.00000E+01 0.00000E+00
 -1      1176 1.15650E+02 5.00000E+01 0.00000E+00
 -1      1177 1.18500E+02 5.00000E+01 0.00000E+00
 -1      1178 1.21500E+02 5.00000E+01 0.00000E+00
 -1      1179 1.24500E+02 5.00000E+01 0.00000E+00
 -1      1180 1.27500E+02 5.00000E+01 0.00000E+00
 -1      1181 1.30500E+02 5.00000E+01 0.00000E+00
 -1      1182 1.33500E+02 5.00000E+01 0.00000E+00
 -1      1183 1.36500E+02 5.00000E+01 0.00000E+00
 -1      1184 1.39500E+02 5.00000E+01 0.00000E+00
 -1      1185 1.42500E+02 5.00000E+01 0.00000E+00
 -1      1186 1.45500E+02 5.00000E+01 0.00000E+00
 -1      1187 1.48500E+02 5.00000E+01 0.00000E+00
 -1      1188 1.57500E+00 0.00000E+00 0.00000E+00
 -1      1189 4.65000E+00 0.00000E+00 0.00000E+00
 -1      1190 7.65000E+00 0.00000E+00 0.00000E+00
 -1      1191 1.06500E+01 0.00000E+00 0.00000E+00
 -1      1192 1.36500E+01 0.00000E+00 0.00000E+00
 -1      1193 1.66500E+01 0.00000E+00 0.00000E+00
 -1      1194 1.96500E+01 0.00000E+00 0.00000E+00
 -1      1195 2.26500E+01 0.00000E+00 0.00000E+00
 -1      1196 2.56500E+01 0.00000E+00 0.00000E+00
 -1      1197 2.86500E+01 0.00000E+00 0.00000E+00
 -1      1198 3.16500E+01 0.00000E+00 0.00000E+00
 -1      1199 3.46500E+01 0.00000E+00 0.00000E+00
 -1      1200 3.76500E+01 0.00000E+00 0.00000E+00
 -1      1201 4.06500E+01 0.00000E+00 0.00000E+00
 -1      1202 4.36500E+01 0.00000E+00 0.00000E+00
 -1      1203 4.66500E+01 0.00000E+00 0.00000E+00
 -1      1204 4.96500E+01 0.00000E+00 0.00000E+00
 -1      1205 5.26500E+01 0.00000E+00 0.00000E+00
 -1      1206 5.56500E+01 0.00000E+00 0.00000E+00
 -1      1207 5.86500E+01 0.00000E+00 0.00000E+00
 -1      1208 6.16500E+01 0.00000E+00 0.00000E+00
 -1      1209 6.46500E+01 0.00000E+00 0.00000E+00
 -1      1210 6.76500E+01 0.00000E+00 0.00000E+00
 -1      1211 7.06500E+01 0.00000E+00 0.00000E+00
 -1      1212 7.36500E+01 0.00000E+00 0.00000E+00
 -1      1213 7.66500E+01 0.00000E+00 0.00000E+00
 -1      1214 7.96500E+01 0.00000E+00 0.00000E+00
 -1      1215 8.26500E+01 0.00000E+00 0.00000E+00
 -1      1216 8.56500E+01 0.00000E+00 0.00000E+00
 -1      1217 8.86500E+01 0.00000E+00 0.00000E+00
 -1      1218 9.16500E+01 0.00000E+00 0.00000E+00
 -1      1219 9.46500E+01 0.00000E+00 0.00000E+00
 -1      1220 9.76500E+01 0.00000E+00 0.00000E+00
 -1      1221 1.00650E+02 0.00000E+00 0.00000E+00
 -1      1222 1.03650E+02 0.00000E+00 0.00000E+00
 -1      1223 1.06650E+02 0.00000E+00 0.00000E+00
 -1      1224 1.09650E+02 0.00000E+00 0.00000E+00
 -1      1225 1.12650E+02 0.00000E+00 0.00000E+00
 -1      1226 1.15650E+02 0.00000E+00 0.00000E+00
 -1      1227 1.18650E+02 0.00000E+00 0.00000E+00
 -1      1228 1.21650E+02 0.00000E+00 0.00000E+00
 -1      1229 1.24650E+02 0.00000E+00 0.00000E+00
 -1      1230 1.27650E+02 0.00000E+00 0.00000E+00
 -1      1231 1.30650E+02 0.00000E+00 0.00000E+00
 -1      1232 1.33650E+02 0.00000E+00 0.00000E+00
 -1      1233 1.36650E+02 0.00000E+00 0.00000E+00
 -1      1234 1.39650E+02 0.00000E+00 0.00000E+00
 -1      1235 1.42650E+02 0.00000E+00 0.00000E+00
 -1      1236 1.45650E+02 0.00000E+00 0.00000E+00
 -1      1237 1.48575E+02 0.00000E+00 0.00000E+00
 -1      1238 1.50000E+02 1.47500E+00 0.00000E+00
 -1      1239 1.50000E+02 4.42500E+00 0.00000E+00
 -1      1240 1.50000E+02 7.37500E+00 0.00000E+00
 -1      1241 1.50000E+02 1.03250E+01 0.00000E+00
 -1      1242 1.50000E+02 1.32750E+01 0.00000E+00
 -1      1243 1.50000E+02 1.62000E+01 0.00000E+00
 -1      1244 1.50000E+02 1.91250E+01 0.00000E+00
 -1      1245 1.50000E+02 2.20750E+01 0.00000E+00
 -1      1246 1.50000E+02 2.50250E+01 0.00000E+00
 -1      1247 1.50000E+02 2.79750E+01 0.00000E+00
 -1      1248 1.50000E+02 3.09250E+01 0.00000E+00
 -1      1249 1.50000E+02 3.38500E+01 0.00000E+00
 -1      1250 1.50000E+02 3.67750E+01 0.00000E+00
 -1      1251 1.50000E+02 3.97250E+01 0.00000E+00
 -1      1252 1.50000E+02 4.26750E+01 0.00000E+00
 -1      1253 1.50000E+02 4.56250E+01 0.00000E+00
 -1      1254 1.50000E+02 4.85500E+01 0.00000E+00
 -1      1255 1.14616E+02 3.66772E+01 0.00000E+00
 -1      1256 1.14280E+02 3.51711E+01 0.00000E+00
 -1      1257 1.13611E+02 3.37569E+01 0.00000E+00
 -1      1258 1.12656E+02 3.25389E+01 0.00000E+00
 -1      1259 1.11440E+02 3.15491E+01 0.00000E+00
 -1      1260 1.10038E+02 3.08566E+01 0.00000E+00
 -1      1261 1.08549E+02 3.04966E+01 0.00000E+00
 -1      1262 1.06915E+02 3.04791E+01 0.00000E+00
 -1      1263 1.05275E+02 3.08578E+01 0.00000E+00
 -1      1264 1.03838E+02 3.15736E+01 0.00000E+00
 -1      1265 1.02619E+02 3.25806E+01 0.00000E+00
 -1      1266 1.01692E+02 3.37772E+01 0.00000E+00
 -1      1267 1.01061E+02 3.50991E+01 0.00000E+00
 -1      1268 1.00714E+02 3.65555E+01 0.00000E+00
 -1      1269 1.00684E+02 3.80486E+01 0.00000E+00
 -1      1270 1.00981E+02 3.95431E+01 0.00000E+00
 -1      1271 1.01611E+02 4.09667E+01 0.00000E+00
 -1      1272 1.02526E+02 4.22007E+01 0.00000E+00
 -1      1273 1.03703E+02 4.32153E+01 0.00000E+00
 -1      1274 1.05150E+02 4.39750E+01 0.00000E+00
 -1      1275 1.06754E+02 4.43810E+01 0.00000E+00
 -1      1276 1.08279E+02 4.44120E+01 0.00000E+00
 -1      1277 1.09689E+02 4.41385E+01 0.00000E+00
 -1      1278 1.11093E+02 4.35385E+01 0.00000E+00
 -1      1279 1.12287E+02 4.26899E+01 0.00000E+00
 -1      1280 1.13209E+02 4.17035E+01 0.00000E+00
 -1      1281 1.13911E+02 4.05859E+01 0.00000E+00
 -1      1282 1.14375E+02 3.94080E+01 0.00000E+00
 -1      1283 1.14625E+02 3.81196E+01 0.00000E+00
 -1      1284 1.57500E+00 4.85250E+01 0.00000E+00
 -1      1285 1.29900E+00 4.48375E+01 0.00000E+00
 -1      1286 1.29900E+00 4.63125E+01 0.00000E+00
 -1      1287 1.29900E+00 4.18875E+01 0.00000E+00
 -1      1288 1.29900E+00 4.33625E+01 0.00000E+00
 -1      1289 2.59800E+00 4.41000E+01 0.00000E+00
 -1      1290 1.29900E+00 3.89375E+01 0.00000E+00
 -1      1291 1.29900E+00 4.04125E+01 0.00000E+00
 -1      1292 2.59800E+00 4.11500E+01 0.00000E+00
 -1      1293 1.29900E+00 3.59875E+01 0.00000E+00
 -1      1294 1.29900E+00 3.74625E+01 0.00000E+00
 -1      1295 2.59800E+00 3.82000E+01 0.00000E+00
 -1      1296 1.29900E+00 3.30875E+01 0.00000E+00
 -1      1297 1.29900E+00 3.45375E+01 0.00000E+00
 -1      1298 2.59800E+00 3.52750E+01 0.00000E+00
 -1      1299 1.29900E+00 3.01375E+01 0.00000E+00
 -1      1300 1.29900E+00 3.16125E+01 0.00000E+00
 -1      1301 2.59800E+00 3.23500E+01 0.00000E+00
 -1      1302 1.29900E+00 2.71875E+01 0.00000E+00
 -1      1303 1.29900E+00 2.86625E+01 0.00000E+00
 -1      1304 2.59800E+00 2.94000E+01 0.00000E+00
 -1      1305 1.29900E+00 2.42375E+01 0.00000E+00
 -1      1306 1.29900E+00 2.57125E+01 0.00000E+00
 -1      1307 2.59800E+00 2.64500E+01 0.00000E+00
 -1      1308 1.29900E+00 2.12875E+01 0.00000E+00
 -1      1309 1.29900E+00 2.27625E+01 0.00000E+00
 -1      1310 2.59800E+00 2.35000E+01 0.00000E+00
 -1      1311 1.29900E+00 1.83375E+01 0.00000E+00
 -1      1312 1.29900E+00 1.98125E+01 0.00000E+00
 -1      1313 2.59800E+00 2.05500E+01 0.00000E+00
 -1      1314 1.29900E+00 1.54375E+01 0.00000E+00
 -1      1315 1.29900E+00 1.68875E+01 0.00000E+00
 -1      1316 2.59800E+00 1.76250E+01 0.00000E+00
 -1      1317 1.29900E+00 1.24875E+01 0.00000E+00
 -1      1318 1.29900E+00 1.39625E+01 0.00000E+00
 -1      1319 2.59800E+00 1.47000E+01 0.00000E+00
 -1      1320 1.29900E+00 9.53750E+00 0.00000E+00
 -1      1321 1.29900E+00 1.10125E+01 0.00000E+00
 -1      1322 2.59800E+00 1.17500E+01 0.00000E+00
 -1      1323 1.29900E+00 6.58750E+00 0.00000E+00
 -1      1324 1.29900E+00 8.06250E+00 0.00000E+00
 -1      1325 2.59800E+00 8.80000E+00 0.00000E+00
 -1      1326 1.29900E+00 3.63750E+00 0.00000E+00
 -1      1327 1.29900E+00 5.11250E+00 0.00000E+00
 -1      1328 2.59800E+00 5.85000E+00 0.00000E+00
 -1      1329 1.43700E+00 1.09375E+00 0.00000E+00
 -1      1330 1.43700E+00 2.54375E+00 0.00000E+00
 -1      1331 2.73600E+00 3.28125E+00 0.00000E+00
 -1      1332 3.01200E+00 1.09375E+00 0.00000E+00
 -1      1333 3.90000E+00 4.87010E+01 0.00000E+00
 -1      1334 5.40000E+00 4.87010E+01 0.00000E+00
 -1      1335 6.90000E+00 4.87010E+01 0.00000E+00
 -1      1336 8.40000E+00 4.87010E+01 0.00000E+00
 -1      1337 6.15000E+00 4.74020E+01 0.00000E+00
 -1      1338 9.90000E+00 4.87010E+01 0.00000E+00
 -1      1339 1.14000E+01 4.87010E+01 0.00000E+00
 -1      1340 9.15000E+00 4.74020E+01 0.00000E+00
 -1      1341 1.29000E+01 4.87010E+01 0.00000E+00
 -1      1342 1.44000E+01 4.87010E+01 0.00000E+00
 -1      1343 1.21500E+01 4.74020E+01 0.00000E+00
 -1      1344 1.59000E+01 4.87010E+01 0.00000E+00
 -1      1345 1.74000E+01 4.87010E+01 0.00000E+00
 -1      1346 1.51500E+01 4.74020E+01 0.00000E+00
 -1      1347 1.89000E+01 4.87010E+01 0.00000E+00
 -1      1348 2.04000E+01 4.87010E+01 0.00000E+00
 -1      1349 1.81500E+01 4.74020E+01 0.00000E+00
 -1      1350 2.19000E+01 4.87010E+01 0.00000E+00
 -1      1351 2.34000E+01 4.87010E+01 0.00000E+00
 -1      1352 2.11500E+01 4.74020E+01 0.00000E+00
 -1      1353 2.49000E+01 4.87010E+01 0.00000E+00
 -1      1354 2.64000E+01 4.87010E+01 0.00000E+00
 -1      1355 2.41500E+01 4.74020E+01 0.00000E+00
 -1      1356 2.79000E+01 4.87010E+01 0.00000E+00
 -1      1357 2.94000E+01 4.87010E+01 0.00000E+00
 -1      1358 2.71500E+01 4.74020E+01 0.00000E+00
 -1      1359 3.09000E+01 4.87010E+01 0.00000E+00
 -1      1360 3.24000E+01 4.87010E+01 0.00000E+00
 -1      1361 3.01500E+01 4.74020E+01 0.00000E+00
 -1      1362 3.39000E+01 4.87010E+01 0.00000E+00
 -1      1363 3.54000E+01 4.87010E+01 0.00000E+00
 -1      1364 3.31500E+01 4.74020E+01 0.00000E+00
 -1      1365 3.69000E+01 4.87010E+01 0.00000E+00
 -1      1366 3.84000E+01 4.87010E+01 0.00000E+00
 -1      1367 3.61500E+01 4.74020E+01 0.00000E+00
 -1      1368 3.99000E+01 4.87010E+01 0.00000E+00
 -1      1369 4.14000E+01 4.87010E+01 0.00000E+00
 -1      1370 3.91500E+01 4.74020E+01 0.00000E+00
 -1      1371 4.29000E+01 4.87010E+01 0.00000E+00
 -1      1372 4.44000E+01 4.87010E+01 0.00000E+00
 -1      1373 4.21500E+01 4.74020E+01 0.00000E+00
 -1      1374 4.59000E+01 4.87010E+01 0.00000E+00
 -1      1375 4.74000E+01 4.87010E+01 0.00000E+00
 -1      1376 4.51500E+01 4.74020E+01 0.00000E+00
 -1      1377 4.89000E+01 4.87010E+01 0.00000E+00
 -1      1378 5.04000E+01 4.87010E+01 0.00000E+00
 -1      1379 4.81500E+01 4.74020E+01 0.00000E+00
 -1      1380 5.19000E+01 4.87010E+01 0.00000E+00
 -1      1381 5.34000E+01 4.87010E+01 0.00000E+00
 -1      1382 5.11500E+01 4.74020E+01 0.00000E+00
 -1      1383 5.49000E+01 4.87010E+01 0.00000E+00
 -1      1384 5.64000E+01 4.87010E+01 0.00000E+00
 -1      1385 5.41500E+01 4.74020E+01 0.00000E+00
 -1      1386 5.79000E+01 4.87010E+01 0.00000E+00
 -1      1387 5.94000E+01 4.87010E+01 0.00000E+00
 -1      1388 5.71500E+01 4.74020E+01 0.00000E+00
 -1      1389 6.09000E+01 4.87010E+01 0.00000E+00
 -1      1390 6.24000E+01 4.87010E+01 0.00000E+00
 -1      1391 6.01500E+01 4.74020E+01 0.00000E+00
 -1      1392 6.39000E+01 4.87010E+01 0.00000E+00
 -1      1393 6.54000E+01 4.87010E+01 0.00000E+00
 -1      1394 6.31500E+01 4.74020E+01 0.00000E+00
 -1      1395 6.69000E+01 4.87010E+01 0.00000E+00
 -1      1396 6.84000E+01 4.87010E+01 0.00000E+00
 -1      1397 6.61500E+01 4.74020E+01 0.00000E+00
 -1      1398 6.99000E+01 4.87010E+01 0.00000E+00
 -1      1399 7.14000E+01 4.87010E+01 0.00000E+00
 -1      1400 6.91500E+01 4.74020E+01 0.00000E+00
 -1      1401 7.29750E+01 4.87010E+01 0.00000E+00
 -1      1402 7.45500E+01 4.87010E+01 0.00000E+00
 -1      1403 7.22250E+01 4.74020E+01 0.00000E+00
 -1      1404 7.60500E+01 4.87010E+01 0.00000E+00
 -1      1405 7.75500E+01 4.87010E+01 0.00000E+00
 -1      1406 7.53000E+01 4.74020E+01 0.00000E+00
 -1      1407 7.90500E+01 4.87010E+01 0.00000E+00
 -1      1408 8.05500E+01 4.87010E+01 0.00000E+00
 -1      1409 7.83000E+01 4.74020E+01 0.00000E+00
 -1      1410 8.20500E+01 4.87010E+01 0.00000E+00
 -1      1411 8.35500E+01 4.87010E+01 0.00000E+00
 -1      1412 8.13000E+01 4.74020E+01 0.00000E+00
 -1      1413 8.50500E+01 4.87010E+01 0.00000E+00
 -1      1414 8.65500E+01 4.87010E+01 0.00000E+00
 -1      1415 8.43000E+01 4.74020E+01 0.00000E+00
 -1      1416 8.80500E+01 4.87010E+01 0.00000E+00
 -1      1417 8.95500E+01 4.87010E+01 0.00000E+00
 -1      1418 8.73000E+01 4.74020E+01 0.00000E+00
 -1      1419 9.10500E+01 4.87010E+01 0.00000E+00
 -1      1420 9.25500E+01 4.87010E+01 0.00000E+00
 -1      1421 9.03000E+01 4.74020E+01 0.00000E+00
 -1      1422 9.40500E+01 4.87010E+01 0.00000E+00
 -1      1423 9.55500E+01 4.87010E+01 0.00000E+00
 -1      1424 9.33000E+01 4.74020E+01 0.00000E+00
 -1      1425 9.70500E+01 4.87010E+01 0.00000E+00
 -1      1426 9.85500E+01 4.87010E+01 0.00000E+00
 -1      1427 9.63000E+01 4.74020E+01 0.00000E+00
 -1      1428 9.99000E+01 4.87010E+01 0.00000E+00
 -1      1429 1.01250E+02 4.87010E+01 0.00000E+00
 -1      1430 9.91500E+01 4.74020E+01 0.00000E+00
 -1      1431 1.02525E+02 4.87010E+01 0.00000E+00
 -1      1432 1.03800E+02 4.87010E+01 0.00000E+00
 -1      1433 1.01775E+02 4.74020E+01 0.00000E+00
 -1      1434 1.05150E+02 4.87010E+01 0.00000E+00
 -1      1435 1.06500E+02 4.87010E+01 0.00000E+00
 -1      1436 1.04400E+02 4.74020E+01 0.00000E+00
 -1      1437 1.10250E+02 4.89749E+01 0.00000E+00
 -1      1438 1.11450E+02 4.89749E+01 0.00000E+00
 -1      1439 1.12575E+02 4.89749E+01 0.00000E+00
 -1      1440 1.13700E+02 4.89749E+01 0.00000E+00
 -1      1441 1.11975E+02 4.79498E+01 0.00000E+00
 -1      1442 1.15050E+02 4.89749E+01 0.00000E+00
 -1      1443 1.16400E+02 4.89749E+01 0.00000E+00
 -1      1444 1.14450E+02 4.79498E+01 0.00000E+00
 -1      1445 1.17900E+02 4.89749E+01 0.00000E+00
 -1      1446 1.19400E+02 4.89749E+01 0.00000E+00
 -1      1447 1.17300E+02 4.79498E+01 0.00000E+00
 -1      1448 1.20900E+02 4.89749E+01 0.00000E+00
 -1      1449 1.22400E+02 4.89749E+01 0.00000E+00
 -1      1450 1.20300E+02 4.79498E+01 0.00000E+00
 -1      1451 1.23900E+02 4.89749E+01 0.00000E+00
 -1      1452 1.25400E+02 4.89749E+01 0.00000E+00
 -1      1453 1.23300E+02 4.79498E+01 0.00000E+00
 -1      1454 1.26900E+02 4.89749E+01 0.00000E+00
 -1      1455 1.28400E+02 4.89749E+01 0.00000E+00
 -1      1456 1.26300E+02 4.79498E+01 0.00000E+00
 -1      1457 1.29900E+02 4.89749E+01 0.00000E+00
 -1      1458 1.31400E+02 4.89749E+01 0.00000E+00
 -1      1459 1.29300E+02 4.79498E+01 0.00000E+00
 -1      1460 1.32900E+02 4.89749E+01 0.00000E+00
 -1      1461 1.34400E+02 4.89749E+01 0.00000E+00
 -1      1462 1.32300E+02 4.79498E+01 0.00000E+00
 -1      1463 1.35900E+02 4.89749E+01 0.00000E+00
 -1      1464 1.37400E+02 4.89749E+01 0.00000E+00
 -1      1465 1.35300E+02 4.79498E+01 0.00000E+00
 -1      1466 1.38900E+02 4.89749E+01 0.00000E+00
 -1      1467 1.40400E+02 4.89749E+01 0.00000E+00
 -1      1468 1.38300E+02 4.79498E+01 0.00000E+00
 -1      1469 1.41900E+02 4.89749E+01 0.00000E+00
 -1      1470 1.43400E+02 4.89749E+01 0.00000E+00
 -1      1471 1.41300E+02 4.79498E+01 0.00000E+00
 -1      1472 1.44900E+02 4.89749E+01 0.00000E+00
 -1      1473 1.46400E+02 4.89749E+01 0.00000E+00
 -1      1474 1.44300E+02 4.79498E+01 0.00000E+00
 -1      1475 1.47450E+02 4.87624E+01 0.00000E+00
 -1      1476 1.48950E+02 4.87624E+01 0.00000E+00
 -1      1477 1.48950E+02 4.73124E+01 0.00000E+00
 -1      1478 1.46850E+02 4.77373E+01 0.00000E+00
 -1      1479 6.01200E+00 1.09375E+00 0.00000E+00
 -1      1480 4.51200E+00 1.09375E+00 0.00000E+00
 -1      1481 4.37400E+00 2.18750E+00 0.00000E+00
 -1      1482 9.01200E+00 1.09375E+00 0.00000E+00
 -1      1483 7.51200E+00 1.09375E+00 0.00000E+00
 -1      1484 7.37400E+00 2.18750E+00 0.00000E+00
 -1      1485 1.20120E+01 1.09375E+00 0.00000E+00
 -1      1486 1.05120E+01 1.09375E+00 0.00000E+00
 -1      1487 1.03740E+01 2.18750E+00 0.00000E+00
 -1      1488 1.50120E+01 1.09375E+00 0.00000E+00
 -1      1489 1.35120E+01 1.09375E+00 0.00000E+00
 -1      1490 1.33740E+01 2.18750E+00 0.00000E+00
 -1      1491 1.80120E+01 1.09375E+00 0.00000E+00
 -1      1492 1.65120E+01 1.09375E+00 0.00000E+00
 -1      1493 1.63740E+01 2.18750E+00 0.00000E+00
 -1      1494 2.10120E+01 1.09375E+00 0.00000E+00
 -1      1495 1.95120E+01 1.09375E+00 0.00000E+00
 -1      1496 1.93740E+01 2.18750E+00 0.00000E+00
 -1      1497 2.40120E+01 1.09375E+00 0.00000E+00
 -1      1498 2.25120E+01 1.09375E+00 0.00000E+00
 -1      1499 2.23740E+01 2.18750E+00 0.00000E+00
 -1      1500 2.70120E+01 1.09375E+00 0.00000E+00
 -1      1501 2.55120E+01 1.09375E+00 0.00000E+00
 -1      1502 2.53740E+01 2.18750E+00 0.00000E+00
 -1      1503 3.00120E+01 1.09375E+00 0.00000E+00
 -1      1504 2.85120E+01 1.09375E+00 0.00000E+00
 -1      1505 2.83740E+01 2.18750E+00 0.00000E+00
 -1      1506 3.30120E+01 1.09375E+00 0.00000E+00
 -1      1507 3.15120E+01 1.09375E+00 0.00000E+00
 -1      1508 3.13740E+01 2.18750E+00 0.00000E+00
 -1      1509 3.60120E+01 1.09375E+00 0.00000E+00
 -1      1510 3.45120E+01 1.09375E+00 0.00000E+00
 -1      1511 3.43740E+01 2.18750E+00 0.00000E+00
 -1      1512 3.90120E+01 1.09375E+00 0.00000E+00
 -1      1513 3.75120E+01 1.09375E+00 0.00000E+00
 -1      1514 3.73740E+01 2.18750E+00 0.00000E+00
 -1      1515 4.20120E+01 1.09375E+00 0.00000E+00
 -1      1516 4.05120E+01 1.09375E+00 0.00000E+00
 -1      1517 4.03740E+01 2.18750E+00 0.00000E+00
 -1      1518 4.50120E+01 1.09375E+00 0.00000E+00
 -1      1519 4.35120E+01 1.09375E+00 0.00000E+00
 -1      1520 4.33740E+01 2.18750E+00 0.00000E+00
 -1      1521 4.80120E+01 1.09375E+00 0.00000E+00
 -1      1522 4.65120E+01 1.09375E+00 0.00000E+00
 -1      1523 4.63740E+01 2.18750E+00 0.00000E+00
 -1      1524 5.10120E+01 1.09375E+00 0.00000E+00
 -1      1525 4.95120E+01 1.09375E+00 0.00000E+00
 -1      1526 4.93740E+01 2.18750E+00 0.00000E+00
 -1      1527 5.40120E+01 1.09375E+00 0.00000E+00
 -1      1528 5.25120E+01 1.09375E+00 0.00000E+00
 -1      1529 5.23740E+01 2.18750E+00 0.00000E+00
 -1      1530 5.70120E+01 1.09375E+00 0.00000E+00
 -1      1531 5.55120E+01 1.09375E+00 0.00000E+00
 -1      1532 5.53740E+01 2.18750E+00 0.00000E+00
 -1      1533 6.00120E+01 1.09375E+00 0.00000E+00
 -1      1534 5.85120E+01 1.09375E+00 0.00000E+00
 -1      1535 5.83740E+01 2.18750E+00 0.00000E+00
 -1      1536 6.30120E+01 1.09375E+00 0.00000E+00
 -1      1537 6.15120E+01 1.09375E+00 0.00000E+00
 -1      1538 6.13740E+01 2.18750E+00 0.00000E+00
 -1      1539 6.60120E+01 1.09375E+00 0.00000E+00
 -1      1540 6.45120E+01 1.09375E+00 0.00000E+00
 -1      1541 6.43740E+01 2.18750E+00 0.00000E+00
 -1      1542 6.90120E+01 1.09375E+00 0.00000E+00
 -1      1543 6.75120E+01 1.09375E+00 0.00000E+00
 -1      1544 6.73740E+01 2.18750E+00 0.00000E+00
 -1      1545 7.20120E+01 1.09375E+00 0.00000E+00
 -1      1546 7.05120E+01 1.09375E+00 0.00000E+00
 -1      1547 7.03740E+01 2.18750E+00 0.00000E+00
 -1      1548 7.50120E+01 1.09375E+00 0.00000E+00
 -1      1549 7.35120E+01 1.09375E+00 0.00000E+00
 -1      1550 7.33740E+01 2.18750E+00 0.00000E+00
 -1      1551 7.80120E+01 1.09375E+00 0.00000E+00
 -1      1552 7.65120E+01 1.09375E+00 0.00000E+00
 -1      1553 7.63740E+01 2.18750E+00 0.00000E+00
 -1      1554 8.10120E+01 1.09375E+00 0.00000E+00
 -1      1555 7.95120E+01 1.09375E+00 0.00000E+00
 -1      1556 7.93740E+01 2.18750E+00 0.00000E+00
 -1      1557 8.40120E+01 1.09375E+00 0.00000E+00
 -1      1558 8.25120E+01 1.09375E+00 0.00000E+00
 -1      1559 8.23740E+01 2.18750E+00 0.00000E+00
 -1      1560 8.70120E+01 1.09375E+00 0.00000E+00
 -1      1561 8.55120E+01 1.09375E+00 0.00000E+00
 -1      1562 8.53740E+01 2.18750E+00 0.00000E+00
 -1      1563 9.00120E+01 1.09375E+00 0.00000E+00
 -1      1564 8.85120E+01 1.09375E+00 0.00000E+00
 -1      1565 8.83740E+01 2.18750E+00 0.00000E+00
 -1      1566 9.30120E+01 1.09375E+00 0.00000E+00
 -1      1567 9.15120E+01 1.09375E+00 0.00000E+00
 -1      1568 9.13740E+01 2.18750E+00 0.00000E+00
 -1      1569 9.60120E+01 1.09375E+00 0.00000E+00
 -1      1570 9.45120E+01 1.09375E+00 0.00000E+00
 -1      1571 9.43740E+01 2.18750E+00 0.00000E+00
 -1      1572 9.90120E+01 1.09375E+00 0.00000E+00
 -1      1573 9.75120E+01 1.09375E+00 0.00000E+00
 -1      1574 9.73740E+01 2.18750E+00 0.00000E+00
 -1      1575 1.02012E+02 1.09375E+00 0.00000E+00
 -1      1576 1.00512E+02 1.09375E+00 0.00000E+00
 -1      1577 1.00374E+02 2.18750E+00 0.00000E+00
 -1      1578 1.05012E+02 1.09375E+00 0.00000E+00
 -1      1579 1.03512E+02 1.09375E+00 0.00000E+00
 -1      1580 1.03374E+02 2.18750E+00 0.00000E+00
 -1      1581 1.08012E+02 1.09375E+00 0.00000E+00
 -1      1582 1.06512E+02 1.09375E+00 0.00000E+00
 -1      1583 1.06374E+02 2.18750E+00 0.00000E+00
 -1      1584 1.11012E+02 1.09375E+00 0.00000E+00
 -1      1585 1.09512E+02 1.09375E+00 0.00000E+00
 -1      1586 1.09374E+02 2.18750E+00 0.00000E+00
 -1      1587 1.14012E+02 1.09375E+00 0.00000E+00
 -1      1588 1.12512E+02 1.09375E+00 0.00000E+00
 -1      1589 1.12374E+02 2.18750E+00 0.00000E+00
 -1      1590 1.17012E+02 1.09375E+00 0.00000E+00
 -1      1591 1.15512E+02 1.09375E+00 0.00000E+00
 -1      1592 1.15374E+02 2.18750E+00 0.00000E+00
 -1      1593 1.20012E+02 1.09375E+00 0.00000E+00
 -1      1594 1.18512E+02 1.09375E+00 0.00000E+00
 -1      1595 1.18374E+02 2.18750E+00 0.00000E+00
 -1      1596 1.23012E+02 1.09375E+00 0.00000E+00
 -1      1597 1.21512E+02 1.09375E+00 0.00000E+00
 -1      1598 1.21374E+02 2.18750E+00 0.00000E+00
 -1      1599 1.26012E+02 1.09375E+00 0.00000E+00
 -1      1600 1.24512E+02 1.09375E+00 0.00000E+00
 -1      1601 1.24374E+02 2.18750E+00 0.00000E+00
 -1      1602 1.29012E+02 1.09375E+00 0.00000E+00
 -1      1603 1.27512E+02 1.09375E+00 0.00000E+00
 -1      1604 1.27374E+02 2.18750E+00 0.00000E+00
 -1      1605 1.32012E+02 1.09375E+00 0.00000E+00
 -1      1606 1.30512E+02 1.09375E+00 0.00000E+00
 -1      1607 1.30374E+02 2.18750E+00 0.00000E+00
 -1      1608 1.35012E+02 1.09375E+00 0.00000E+00
 -1      1609 1.33512E+02 1.09375E+00 0.00000E+00
 -1      1610 1.33374E+02 2.18750E+00 0.00000E+00
 -1      1611 1.38012E+02 1.09375E+00 0.00000E+00
 -1      1612 1.36512E+02 1.09375E+00 0.00000E+00
 -1      1613 1.36374E+02 2.18750E+00 0.00000E+00
 -1      1614 1.41012E+02 1.09375E+00 0.00000E+00
 -1      1615 1.39512E+02 1.09375E+00 0.00000E+00
 -1      1616 1.39374E+02 2.18750E+00 0.00000E+00
 -1      1617 1.44012E+02 1.09375E+00 0.00000E+00
 -1      1618 1.42512E+02 1.09375E+00 0.00000E+00
 -1      1619 1.42374E+02 2.18750E+00 0.00000E+00
 -1      1620 1.47012E+02 1.09375E+00 0.00000E+00
 -1      1621 1.45512E+02 1.09375E+00 0.00000E+00
 -1      1622 1.45374E+02 2.18750E+00 0.00000E+00
 -1      1623 1.48575E+02 1.47500E+00 0.00000E+00
 -1      1624 1.48701E+02 5.16250E+00 0.00000E+00
 -1      1625 1.48701E+02 3.68750E+00 0.00000E+00
 -1      1626 1.48701E+02 8.11250E+00 0.00000E+00
 -1      1627 1.48701E+02 6.63750E+00 0.00000E+00
 -1      1628 1.47402E+02 5.90000E+00 0.00000E+00
 -1      1629 1.48701E+02 1.10625E+01 0.00000E+00
 -1      1630 1.48701E+02 9.58750E+00 0.00000E+00
 -1      1631 1.47402E+02 8.85000E+00 0.00000E+00
 -1      1632 1.48701E+02 1.40125E+01 0.00000E+00
 -1      1633 1.48701E+02 1.25375E+01 0.00000E+00
 -1      1634 1.47402E+02 1.18000E+01 0.00000E+00
 -1      1635 1.48701E+02 1.69125E+01 0.00000E+00
 -1      1636 1.48701E+02 1.54625E+01 0.00000E+00
 -1      1637 1.47402E+02 1.47250E+01 0.00000E+00
 -1      1638 1.48701E+02 1.98625E+01 0.00000E+00
 -1      1639 1.48701E+02 1.83875E+01 0.00000E+00
 -1      1640 1.47402E+02 1.76500E+01 0.00000E+00
 -1      1641 1.48701E+02 2.28125E+01 0.00000E+00
 -1      1642 1.48701E+02 2.13375E+01 0.00000E+00
 -1      1643 1.47402E+02 2.06000E+01 0.00000E+00
 -1      1644 1.48701E+02 2.57625E+01 0.00000E+00
 -1      1645 1.48701E+02 2.42875E+01 0.00000E+00
 -1      1646 1.47402E+02 2.35500E+01 0.00000E+00
 -1      1647 1.48701E+02 2.87125E+01 0.00000E+00
 -1      1648 1.48701E+02 2.72375E+01 0.00000E+00
 -1      1649 1.47402E+02 2.65000E+01 0.00000E+00
 -1      1650 1.48701E+02 3.16625E+01 0.00000E+00
 -1      1651 1.48701E+02 3.01875E+01 0.00000E+00
 -1      1652 1.47402E+02 2.94500E+01 0.00000E+00
 -1      1653 1.48701E+02 3.45625E+01 0.00000E+00
 -1      1654 1.48701E+02 3.31125E+01 0.00000E+00
 -1      1655 1.47402E+02 3.23750E+01 0.00000E+00
 -1      1656 1.48701E+02 3.75125E+01 0.00000E+00
 -1      1657 1.48701E+02 3.60375E+01 0.00000E+00
 -1      1658 1.47402E+02 3.53000E+01 0.00000E+00
 -1      1659 1.48701E+02 4.04625E+01 0.00000E+00
 -1      1660 1.48701E+02 3.89875E+01 0.00000E+00
 -1      1661 1.47402E+02 3.82500E+01 0.00000E+00
 -1      1662 1.48701E+02 4.34125E+01 0.00000E+00
 -1      1663 1.48701E+02 4.19375E+01 0.00000E+00
 -1      1664 1.47402E+02 4.12000E+01 0.00000E+00
 -1      1665 1.48826E+02 4.61000E+01 0.00000E+00
 -1      1666 1.48826E+02 4.46250E+01 0.00000E+00
 -1      1667 1.47527E+02 4.38875E+01 0.00000E+00
 -1      1668 1.47775E+02 4.63124E+01 0.00000E+00
 -1      1669 1.15136E+02 3.62367E+01 0.00000E+00
 -1      1670 1.15219E+02 3.69946E+01 0.00000E+00
 -1      1671 1.14765E+02 3.45924E+01 0.00000E+00
 -1      1672 1.15018E+02 3.53309E+01 0.00000E+00
 -1      1673 1.14025E+02 3.30397E+01 0.00000E+00
 -1      1674 1.14438E+02 3.37063E+01 0.00000E+00
 -1      1675 1.12822E+02 3.18417E+01 0.00000E+00
 -1      1676 1.13356E+02 3.23871E+01 0.00000E+00
 -1      1677 1.11403E+02 3.08607E+01 0.00000E+00
 -1      1678 1.12080E+02 3.12953E+01 0.00000E+00
 -1      1679 1.09873E+02 3.01963E+01 0.00000E+00
 -1      1680 1.10587E+02 3.04544E+01 0.00000E+00
 -1      1681 1.08243E+02 2.98470E+01 0.00000E+00
 -1      1682 1.09009E+02 2.99454E+01 0.00000E+00
 -1      1683 1.06415E+02 2.98501E+01 0.00000E+00
 -1      1684 1.07272E+02 2.97586E+01 0.00000E+00
 -1      1685 1.04698E+02 3.04731E+01 0.00000E+00
 -1      1686 1.05471E+02 3.01934E+01 0.00000E+00
 -1      1687 1.03157E+02 3.12459E+01 0.00000E+00
 -1      1688 1.03814E+02 3.08185E+01 0.00000E+00
 -1      1689 1.01908E+02 3.24496E+01 0.00000E+00
 -1      1690 1.02462E+02 3.18752E+01 0.00000E+00
 -1      1691 1.00984E+02 3.37622E+01 0.00000E+00
 -1      1692 1.01358E+02 3.31525E+01 0.00000E+00
 -1      1693 1.00362E+02 3.52491E+01 0.00000E+00
 -1      1694 1.00613E+02 3.45426E+01 0.00000E+00
 -1      1695 1.00063E+02 3.68494E+01 0.00000E+00
 -1      1696 1.00158E+02 3.61079E+01 0.00000E+00
 -1      1697 1.00111E+02 3.84730E+01 0.00000E+00
 -1      1698 1.00046E+02 3.77299E+01 0.00000E+00
 -1      1699 1.00561E+02 4.00831E+01 0.00000E+00
 -1      1700 1.00328E+02 3.93413E+01 0.00000E+00
 -1      1701 1.01322E+02 4.15867E+01 0.00000E+00
 -1      1702 1.00929E+02 4.09138E+01 0.00000E+00
 -1      1703 1.02369E+02 4.28626E+01 0.00000E+00
 -1      1704 1.01854E+02 4.23075E+01 0.00000E+00
 -1      1705 1.03715E+02 4.39029E+01 0.00000E+00
 -1      1706 1.03057E+02 4.34530E+01 0.00000E+00
 -1      1707 1.05282E+02 4.48005E+01 0.00000E+00
 -1      1708 1.04500E+02 4.45003E+01 0.00000E+00
 -1      1709 1.07064E+02 4.51536E+01 0.00000E+00
 -1      1710 1.06255E+02 4.50482E+01 0.00000E+00
 -1      1711 1.08683E+02 4.49485E+01 0.00000E+00
 -1      1712 1.07976E+02 4.50114E+01 0.00000E+00
 -1      1713 1.10202E+02 4.45769E+01 0.00000E+00
 -1      1714 1.09506E+02 4.47878E+01 0.00000E+00
 -1      1715 1.11738E+02 4.38667E+01 0.00000E+00
 -1      1716 1.11040E+02 4.42596E+01 0.00000E+00
 -1      1717 1.12917E+02 4.29013E+01 0.00000E+00
 -1      1718 1.12418E+02 4.33406E+01 0.00000E+00
 -1      1719 1.13939E+02 4.18313E+01 0.00000E+00
 -1      1720 1.13521E+02 4.23753E+01 0.00000E+00
 -1      1721 1.14508E+02 4.06991E+01 0.00000E+00
 -1      1722 1.14224E+02 4.12652E+01 0.00000E+00
 -1      1723 1.14562E+02 4.19574E+01 0.00000E+00
 -1      1724 1.15019E+02 3.92670E+01 0.00000E+00
 -1      1725 1.14841E+02 3.98738E+01 0.00000E+00
 -1      1726 1.15270E+02 3.78409E+01 0.00000E+00
 -1      1727 1.15204E+02 3.85177E+01 0.00000E+00
 -1      1728 1.07850E+02 4.89749E+01 0.00000E+00
 -1      1729 1.09050E+02 4.89749E+01 0.00000E+00
 -1      1730 1.15831E+02 3.73959E+01 0.00000E+00
 -1      1731 1.14221E+02 3.23133E+01 0.00000E+00
 -1      1732 1.07100E+02 4.76759E+01 0.00000E+00
 -1      1733 1.48437E+02 2.56875E+00 0.00000E+00
 -1      1734 1.47138E+02 3.30625E+00 0.00000E+00
 -1      1735 1.15662E+02 3.56438E+01 0.00000E+00
 -1      1736 1.15217E+02 3.38520E+01 0.00000E+00
 -1      1737 1.12811E+02 3.11143E+01 0.00000E+00
 -1      1738 1.11253E+02 3.01616E+01 0.00000E+00
 -1      1739 1.09572E+02 2.95043E+01 0.00000E+00
 -1      1740 1.07737E+02 2.91650E+01 0.00000E+00
 -1      1741 1.05822E+02 2.94199E+01 0.00000E+00
 -1      1742 1.03994E+02 3.01087E+01 0.00000E+00
 -1      1743 1.02414E+02 3.10833E+01 0.00000E+00
 -1      1744 1.01169E+02 3.24154E+01 0.00000E+00
 -1      1745 1.00248E+02 3.38987E+01 0.00000E+00
 -1      1746 9.96724E+01 3.55380E+01 0.00000E+00
 -1      1747 9.94502E+01 3.72773E+01 0.00000E+00
 -1      1748 9.96495E+01 3.90261E+01 0.00000E+00
 -1      1749 1.00234E+02 4.07250E+01 0.00000E+00
 -1      1750 1.01135E+02 4.22765E+01 0.00000E+00
 -1      1751 1.02356E+02 4.35877E+01 0.00000E+00
 -1      1752 1.03829E+02 4.47755E+01 0.00000E+00
 -1      1753 1.05587E+02 4.56205E+01 0.00000E+00
 -1      1754 1.07472E+02 4.57260E+01 0.00000E+00
 -1      1755 1.09206E+02 4.54231E+01 0.00000E+00
 -1      1756 1.10868E+02 4.49452E+01 0.00000E+00
 -1      1757 1.12388E+02 4.41017E+01 0.00000E+00
 -1      1758 1.13673E+02 4.30496E+01 0.00000E+00
 -1      1759 1.15697E+02 3.89916E+01 0.00000E+00
 -1      1760 1.09650E+02 4.79498E+01 0.00000E+00
 -1      1761 2.87400E+00 4.77875E+01 0.00000E+00
 -1      1762 1.15179E+02 4.05661E+01 0.00000E+00
 -1      1763 3.89700E+00 4.04125E+01 0.00000E+00
 -1      1764 3.89700E+00 4.18875E+01 0.00000E+00
 -1      1765 3.89700E+00 4.33625E+01 0.00000E+00
 -1      1766 3.89700E+00 4.48375E+01 0.00000E+00
 -1      1767 5.19600E+00 4.26250E+01 0.00000E+00
 -1      1768 3.89700E+00 3.45500E+01 0.00000E+00
 -1      1769 3.89700E+00 3.60000E+01 0.00000E+00
 -1      1770 3.89700E+00 3.16000E+01 0.00000E+00
 -1      1771 3.89700E+00 3.30750E+01 0.00000E+00
 -1      1772 5.19600E+00 3.38000E+01 0.00000E+00
 -1      1773 3.89700E+00 2.86500E+01 0.00000E+00
 -1      1774 3.89700E+00 3.01250E+01 0.00000E+00
 -1      1775 5.19600E+00 3.08500E+01 0.00000E+00
 -1      1776 3.89700E+00 2.57000E+01 0.00000E+00
 -1      1777 3.89700E+00 2.71750E+01 0.00000E+00
 -1      1778 5.19600E+00 2.79000E+01 0.00000E+00
 -1      1779 3.89700E+00 2.27500E+01 0.00000E+00
 -1      1780 3.89700E+00 2.42250E+01 0.00000E+00
 -1      1781 5.19600E+00 2.49500E+01 0.00000E+00
 -1      1782 3.89700E+00 1.98000E+01 0.00000E+00
 -1      1783 3.89700E+00 2.12750E+01 0.00000E+00
 -1      1784 5.19600E+00 2.20000E+01 0.00000E+00
 -1      1785 3.89700E+00 1.69000E+01 0.00000E+00
 -1      1786 3.89700E+00 1.83500E+01 0.00000E+00
 -1      1787 5.19600E+00 1.90750E+01 0.00000E+00
 -1      1788 3.89700E+00 1.39500E+01 0.00000E+00
 -1      1789 3.89700E+00 1.54250E+01 0.00000E+00
 -1      1790 5.19600E+00 1.61500E+01 0.00000E+00
 -1      1791 3.89700E+00 1.10000E+01 0.00000E+00
 -1      1792 3.89700E+00 1.24750E+01 0.00000E+00
 -1      1793 5.19600E+00 1.32000E+01 0.00000E+00
 -1      1794 3.89700E+00 8.05000E+00 0.00000E+00
 -1      1795 3.89700E+00 9.52500E+00 0.00000E+00
 -1      1796 5.19600E+00 1.02500E+01 0.00000E+00
 -1      1797 3.89700E+00 5.10000E+00 0.00000E+00
 -1      1798 3.89700E+00 6.57500E+00 0.00000E+00
 -1      1799 5.19600E+00 7.30000E+00 0.00000E+00
 -1      1800 4.20450E+00 3.09687E+00 0.00000E+00
 -1      1801 4.06650E+00 4.19063E+00 0.00000E+00
 -1      1802 5.36550E+00 4.91563E+00 0.00000E+00
 -1      1803 5.70450E+00 3.09687E+00 0.00000E+00
 -1      1804 3.62400E+00 4.64885E+01 0.00000E+00
 -1      1805 8.70450E+00 3.09687E+00 0.00000E+00
 -1      1806 7.20450E+00 3.09687E+00 0.00000E+00
 -1      1807 7.03500E+00 4.00625E+00 0.00000E+00
 -1      1808 1.16063E+02 4.04425E+01 0.00000E+00
 -1      1809 1.15731E+02 4.12678E+01 0.00000E+00
 -1      1810 4.92300E+00 4.57510E+01 0.00000E+00
 -1      1811 8.40000E+00 4.61030E+01 0.00000E+00
 -1      1812 9.90000E+00 4.61030E+01 0.00000E+00
 -1      1813 1.14000E+01 4.61030E+01 0.00000E+00
 -1      1814 1.29000E+01 4.61030E+01 0.00000E+00
 -1      1815 1.06500E+01 4.48040E+01 0.00000E+00
 -1      1816 1.44000E+01 4.61030E+01 0.00000E+00
 -1      1817 1.59000E+01 4.61030E+01 0.00000E+00
 -1      1818 1.36500E+01 4.48040E+01 0.00000E+00
 -1      1819 1.74000E+01 4.61030E+01 0.00000E+00
 -1      1820 1.89000E+01 4.61030E+01 0.00000E+00
 -1      1821 1.66500E+01 4.48040E+01 0.00000E+00
 -1      1822 2.04000E+01 4.61030E+01 0.00000E+00
 -1      1823 2.19000E+01 4.61030E+01 0.00000E+00
 -1      1824 1.96500E+01 4.48040E+01 0.00000E+00
 -1      1825 2.34000E+01 4.61030E+01 0.00000E+00
 -1      1826 2.49000E+01 4.61030E+01 0.00000E+00
 -1      1827 2.26500E+01 4.48040E+01 0.00000E+00
 -1      1828 2.64000E+01 4.61030E+01 0.00000E+00
 -1      1829 2.79000E+01 4.61030E+01 0.00000E+00
 -1      1830 2.56500E+01 4.48040E+01 0.00000E+00
 -1      1831 2.94000E+01 4.61030E+01 0.00000E+00
 -1      1832 3.09000E+01 4.61030E+01 0.00000E+00
 -1      1833 2.86500E+01 4.48040E+01 0.00000E+00
 -1      1834 3.24000E+01 4.61030E+01 0.00000E+00
 -1      1835 3.39000E+01 4.61030E+01 0.00000E+00
 -1      1836 3.16500E+01 4.48040E+01 0.00000E+00
 -1      1837 3.54000E+01 4.61030E+01 0.00000E+00
 -1      1838 3.69000E+01 4.61030E+01 0.00000E+00
 -1      1839 3.46500E+01 4.48040E+01 0.00000E+00
 -1      1840 3.84000E+01 4.61030E+01 0.00000E+00
 -1      1841 3.99000E+01 4.61030E+01 0.00000E+00
 -1      1842 3.76500E+01 4.48040E+01 0.00000E+00
 -1      1843 4.14000E+01 4.61030E+01 0.00000E+00
 -1      1844 4.29000E+01 4.61030E+01 0.00000E+00
 -1      1845 4.06500E+01 4.48040E+01 0.00000E+00
 -1      1846 4.44000E+01 4.61030E+01 0.00000E+00
 -1      1847 4.59000E+01 4.61030E+01 0.00000E+00
 -1      1848 4.36500E+01 4.48040E+01 0.00000E+00
 -1      1849 4.74000E+01 4.61030E+01 0.00000E+00
 -1      1850 4.89000E+01 4.61030E+01 0.00000E+00
 -1      1851 4.66500E+01 4.48040E+01 0.00000E+00
 -1      1852 5.04000E+01 4.61030E+01 0.00000E+00
 -1      1853 5.19000E+01 4.61030E+01 0.00000E+00
 -1      1854 4.96500E+01 4.48040E+01 0.00000E+00
 -1      1855 5.34000E+01 4.61030E+01 0.00000E+00
 -1      1856 5.49000E+01 4.61030E+01 0.00000E+00
 -1      1857 5.26500E+01 4.48040E+01 0.00000E+00
 -1      1858 5.64000E+01 4.61030E+01 0.00000E+00
 -1      1859 5.79000E+01 4.61030E+01 0.00000E+00
 -1      1860 5.56500E+01 4.48040E+01 0.00000E+00
 -1      1861 5.94000E+01 4.61030E+01 0.00000E+00
 -1      1862 6.09000E+01 4.61030E+01 0.00000E+00
 -1      1863 5.86500E+01 4.48040E+01 0.00000E+00
 -1      1864 6.24000E+01 4.61030E+01 0.00000E+00
 -1      1865 6.39000E+01 4.61030E+01 0.00000E+00
 -1      1866 6.16500E+01 4.48040E+01 0.00000E+00
 -1      1867 6.54000E+01 4.61030E+01 0.00000E+00
 -1      1868 6.69000E+01 4.61030E+01 0.00000E+00
 -1      1869 6.46500E+01 4.48040E+01 0.00000E+00
 -1      1870 6.84000E+01 4.61030E+01 0.00000E+00
 -1      1871 6.99000E+01 4.61030E+01 0.00000E+00
 -1      1872 6.76500E+01 4.48040E+01 0.00000E+00
 -1      1873 7.14750E+01 4.61030E+01 0.00000E+00
 -1      1874 7.30500E+01 4.61030E+01 0.00000E+00
 -1      1875 7.07250E+01 4.48040E+01 0.00000E+00
 -1      1876 7.45500E+01 4.61030E+01 0.00000E+00
 -1      1877 7.60500E+01 4.61030E+01 0.00000E+00
 -1      1878 7.38000E+01 4.48040E+01 0.00000E+00
 -1      1879 7.75500E+01 4.61030E+01 0.00000E+00
 -1      1880 7.90500E+01 4.61030E+01 0.00000E+00
 -1      1881 7.68000E+01 4.48040E+01 0.00000E+00
 -1      1882 8.05500E+01 4.61030E+01 0.00000E+00
 -1      1883 8.20500E+01 4.61030E+01 0.00000E+00
 -1      1884 7.98000E+01 4.48040E+01 0.00000E+00
 -1      1885 8.35500E+01 4.61030E+01 0.00000E+00
 -1      1886 8.50500E+01 4.61030E+01 0.00000E+00
 -1      1887 8.28000E+01 4.48040E+01 0.00000E+00
 -1      1888 8.65500E+01 4.61030E+01 0.00000E+00
 -1      1889 8.80500E+01 4.61030E+01 0.00000E+00
 -1      1890 8.58000E+01 4.48040E+01 0.00000E+00
 -1      1891 8.95500E+01 4.61030E+01 0.00000E+00
 -1      1892 9.10500E+01 4.61030E+01 0.00000E+00
 -1      1893 8.88000E+01 4.48040E+01 0.00000E+00
 -1      1894 9.25500E+01 4.61030E+01 0.00000E+00
 -1      1895 9.40500E+01 4.61030E+01 0.00000E+00
 -1      1896 9.18000E+01 4.48040E+01 0.00000E+00
 -1      1897 9.55500E+01 4.61030E+01 0.00000E+00
 -1      1898 9.70500E+01 4.61030E+01 0.00000E+00
 -1      1899 9.48000E+01 4.48040E+01 0.00000E+00
 -1      1900 9.84000E+01 4.61030E+01 0.00000E+00
 -1      1901 9.97500E+01 4.61030E+01 0.00000E+00
 -1      1902 9.76500E+01 4.48040E+01 0.00000E+00
 -1      1903 1.16494E+02 3.69313E+01 0.00000E+00
 -1      1904 1.16545E+02 3.77777E+01 0.00000E+00
 -1      1905 1.13775E+02 4.70084E+01 0.00000E+00
 -1      1906 1.15125E+02 4.70084E+01 0.00000E+00
 -1      1907 1.16550E+02 4.66733E+01 0.00000E+00
 -1      1908 1.18050E+02 4.66733E+01 0.00000E+00
 -1      1909 1.19550E+02 4.66733E+01 0.00000E+00
 -1      1910 1.21050E+02 4.66733E+01 0.00000E+00
 -1      1911 1.18800E+02 4.53968E+01 0.00000E+00
 -1      1912 1.22550E+02 4.66733E+01 0.00000E+00
 -1      1913 1.24050E+02 4.66733E+01 0.00000E+00
 -1      1914 1.21800E+02 4.53968E+01 0.00000E+00
 -1      1915 1.25550E+02 4.66733E+01 0.00000E+00
 -1      1916 1.27050E+02 4.66733E+01 0.00000E+00
 -1      1917 1.24800E+02 4.53968E+01 0.00000E+00
 -1      1918 1.28550E+02 4.66733E+01 0.00000E+00
 -1      1919 1.30050E+02 4.66733E+01 0.00000E+00
 -1      1920 1.27800E+02 4.53968E+01 0.00000E+00
 -1      1921 1.31550E+02 4.66733E+01 0.00000E+00
 -1      1922 1.33050E+02 4.66733E+01 0.00000E+00
 -1      1923 1.30800E+02 4.53968E+01 0.00000E+00
 -1      1924 1.34550E+02 4.66733E+01 0.00000E+00
 -1      1925 1.36050E+02 4.66733E+01 0.00000E+00
 -1      1926 1.33800E+02 4.53968E+01 0.00000E+00
 -1      1927 1.37550E+02 4.66733E+01 0.00000E+00
 -1      1928 1.39050E+02 4.66733E+01 0.00000E+00
 -1      1929 1.36800E+02 4.53968E+01 0.00000E+00
 -1      1930 1.40550E+02 4.66733E+01 0.00000E+00
 -1      1931 1.42050E+02 4.66733E+01 0.00000E+00
 -1      1932 1.39800E+02 4.53968E+01 0.00000E+00
 -1      1933 1.43550E+02 4.66733E+01 0.00000E+00
 -1      1934 1.45050E+02 4.66733E+01 0.00000E+00
 -1      1935 1.42800E+02 4.53968E+01 0.00000E+00
 -1      1936 1.46725E+02 4.65248E+01 0.00000E+00
 -1      1937 1.41240E+01 3.48650E+00 0.00000E+00
 -1      1938 1.26240E+01 3.48650E+00 0.00000E+00
 -1      1939 1.71240E+01 3.48650E+00 0.00000E+00
 -1      1940 1.56240E+01 3.48650E+00 0.00000E+00
 -1      1941 1.48740E+01 4.78550E+00 0.00000E+00
 -1      1942 2.01240E+01 3.48650E+00 0.00000E+00
 -1      1943 1.86240E+01 3.48650E+00 0.00000E+00
 -1      1944 1.78740E+01 4.78550E+00 0.00000E+00
 -1      1945 2.31240E+01 3.48650E+00 0.00000E+00
 -1      1946 2.16240E+01 3.48650E+00 0.00000E+00
 -1      1947 2.08740E+01 4.78550E+00 0.00000E+00
 -1      1948 2.61240E+01 3.48650E+00 0.00000E+00
 -1      1949 2.46240E+01 3.48650E+00 0.00000E+00
 -1      1950 2.38740E+01 4.78550E+00 0.00000E+00
 -1      1951 2.91240E+01 3.48650E+00 0.00000E+00
 -1      1952 2.76240E+01 3.48650E+00 0.00000E+00
 -1      1953 2.68740E+01 4.78550E+00 0.00000E+00
 -1      1954 3.21240E+01 3.48650E+00 0.00000E+00
 -1      1955 3.06240E+01 3.48650E+00 0.00000E+00
 -1      1956 2.98740E+01 4.78550E+00 0.00000E+00
 -1      1957 3.51240E+01 3.48650E+00 0.00000E+00
 -1      1958 3.36240E+01 3.48650E+00 0.00000E+00
 -1      1959 3.28740E+01 4.78550E+00 0.00000E+00
 -1      1960 3.81240E+01 3.48650E+00 0.00000E+00
 -1      1961 3.66240E+01 3.48650E+00 0.00000E+00
 -1      1962 3.58740E+01 4.78550E+00 0.00000E+00
 -1      1963 4.11240E+01 3.48650E+00 0.00000E+00
 -1      1964 3.96240E+01 3.48650E+00 0.00000E+00
 -1      1965 3.88740E+01 4.78550E+00 0.00000E+00
 -1      1966 4.41240E+01 3.48650E+00 0.00000E+00
 -1      1967 4.26240E+01 3.48650E+00 0.00000E+00
 -1      1968 4.18740E+01 4.78550E+00 0.00000E+00
 -1      1969 4.71240E+01 3.48650E+00 0.00000E+00
 -1      1970 4.56240E+01 3.48650E+00 0.00000E+00
 -1      1971 4.48740E+01 4.78550E+00 0.00000E+00
 -1      1972 5.01240E+01 3.48650E+00 0.00000E+00
 -1      1973 4.86240E+01 3.48650E+00 0.00000E+00
 -1      1974 4.78740E+01 4.78550E+00 0.00000E+00
 -1      1975 5.31240E+01 3.48650E+00 0.00000E+00
 -1      1976 5.16240E+01 3.48650E+00 0.00000E+00
 -1      1977 5.08740E+01 4.78550E+00 0.00000E+00
 -1      1978 5.61240E+01 3.48650E+00 0.00000E+00
 -1      1979 5.46240E+01 3.48650E+00 0.00000E+00
 -1      1980 5.38740E+01 4.78550E+00 0.00000E+00
 -1      1981 5.91240E+01 3.48650E+00 0.00000E+00
 -1      1982 5.76240E+01 3.48650E+00 0.00000E+00
 -1      1983 5.68740E+01 4.78550E+00 0.00000E+00
 -1      1984 6.21240E+01 3.48650E+00 0.00000E+00
 -1      1985 6.06240E+01 3.48650E+00 0.00000E+00
 -1      1986 5.98740E+01 4.78550E+00 0.00000E+00
 -1      1987 6.51240E+01 3.48650E+00 0.00000E+00
 -1      1988 6.36240E+01 3.48650E+00 0.00000E+00
 -1      1989 6.28740E+01 4.78550E+00 0.00000E+00
 -1      1990 6.81240E+01 3.48650E+00 0.00000E+00
 -1      1991 6.66240E+01 3.48650E+00 0.00000E+00
 -1      1992 6.58740E+01 4.78550E+00 0.00000E+00
 -1      1993 7.11240E+01 3.48650E+00 0.00000E+00
 -1      1994 6.96240E+01 3.48650E+00 0.00000E+00
 -1      1995 6.88740E+01 4.78550E+00 0.00000E+00
 -1      1996 7.41240E+01 3.48650E+00 0.00000E+00
 -1      1997 7.26240E+01 3.48650E+00 0.00000E+00
 -1      1998 7.18740E+01 4.78550E+00 0.00000E+00
 -1      1999 7.71240E+01 3.48650E+00 0.00000E+00
 -1      2000 7.56240E+01 3.48650E+00 0.00000E+00
 -1      2001 7.48740E+01 4.78550E+00 0.00000E+00
 -1      2002 8.01240E+01 3.48650E+00 0.00000E+00
 -1      2003 7.86240E+01 3.48650E+00 0.00000E+00
 -1      2004 7.78740E+01 4.78550E+00 0.00000E+00
 -1      2005 8.31240E+01 3.48650E+00 0.00000E+00
 -1      2006 8.16240E+01 3.48650E+00 0.00000E+00
 -1      2007 8.08740E+01 4.78550E+00 0.00000E+00
 -1      2008 8.61240E+01 3.48650E+00 0.00000E+00
 -1      2009 8.46240E+01 3.48650E+00 0.00000E+00
 -1      2010 8.38740E+01 4.78550E+00 0.00000E+00
 -1      2011 8.91240E+01 3.48650E+00 0.00000E+00
 -1      2012 8.76240E+01 3.48650E+00 0.00000E+00
 -1      2013 8.68740E+01 4.78550E+00 0.00000E+00
 -1      2014 9.21240E+01 3.48650E+00 0.00000E+00
 -1      2015 9.06240E+01 3.48650E+00 0.00000E+00
 -1      2016 8.98740E+01 4.78550E+00 0.00000E+00
 -1      2017 9.51240E+01 3.48650E+00 0.00000E+00
 -1      2018 9.36240E+01 3.48650E+00 0.00000E+00
 -1      2019 9.28740E+01 4.78550E+00 0.00000E+00
 -1      2020 9.81240E+01 3.48650E+00 0.00000E+00
 -1      2021 9.66240E+01 3.48650E+00 0.00000E+00
 -1      2022 9.58740E+01 4.78550E+00 0.00000E+00
 -1      2023 1.01124E+02 3.48650E+00 0.00000E+00
 -1      2024 9.96240E+01 3.48650E+00 0.00000E+00
 -1      2025 9.88740E+01 4.78550E+00 0.00000E+00
 -1      2026 1.04124E+02 3.48650E+00 0.00000E+00
 -1      2027 1.02624E+02 3.48650E+00 0.00000E+00
 -1      2028 1.01874E+02 4.78550E+00 0.00000E+00
 -1      2029 1.07124E+02 3.48650E+00 0.00000E+00
 -1      2030 1.05624E+02 3.48650E+00 0.00000E+00
 -1      2031 1.04874E+02 4.78550E+00 0.00000E+00
 -1      2032 1.10124E+02 3.48650E+00 0.00000E+00
 -1      2033 1.08624E+02 3.48650E+00 0.00000E+00
 -1      2034 1.07874E+02 4.78550E+00 0.00000E+00
 -1      2035 1.13124E+02 3.48650E+00 0.00000E+00
 -1      2036 1.11624E+02 3.48650E+00 0.00000E+00
 -1      2037 1.10874E+02 4.78550E+00 0.00000E+00
 -1      2038 1.16124E+02 3.48650E+00 0.00000E+00
 -1      2039 1.14624E+02 3.48650E+00 0.00000E+00
 -1      2040 1.13874E+02 4.78550E+00 0.00000E+00
 -1      2041 1.19124E+02 3.48650E+00 0.00000E+00
 -1      2042 1.17624E+02 3.48650E+00 0.00000E+00
 -1      2043 1.16874E+02 4.78550E+00 0.00000E+00
 -1      2044 1.22124E+02 3.48650E+00 0.00000E+00
 -1      2045 1.20624E+02 3.48650E+00 0.00000E+00
 -1      2046 1.19874E+02 4.78550E+00 0.00000E+00
 -1      2047 1.25124E+02 3.48650E+00 0.00000E+00
 -1      2048 1.23624E+02 3.48650E+00 0.00000E+00
 -1      2049 1.22874E+02 4.78550E+00 0.00000E+00
 -1      2050 1.28124E+02 3.48650E+00 0.00000E+00
 -1      2051 1.26624E+02 3.48650E+00 0.00000E+00
 -1      2052 1.25874E+02 4.78550E+00 0.00000E+00
 -1      2053 1.31124E+02 3.48650E+00 0.00000E+00
 -1      2054 1.29624E+02 3.48650E+00 0.00000E+00
 -1      2055 1.28874E+02 4.78550E+00 0.00000E+00
 -1      2056 1.34124E+02 3.48650E+00 0.00000E+00
 -1      2057 1.32624E+02 3.48650E+00 0.00000E+00
 -1      2058 1.31874E+02 4.78550E+00 0.00000E+00
 -1      2059 1.37124E+02 3.48650E+00 0.00000E+00
 -1      2060 1.35624E+02 3.48650E+00 0.00000E+00
 -1      2061 1.34874E+02 4.78550E+00 0.00000E+00
 -1      2062 1.40124E+02 3.48650E+00 0.00000E+00
 -1      2063 1.38624E+02 3.48650E+00 0.00000E+00
 -1      2064 1.37874E+02 4.78550E+00 0.00000E+00
 -1      2065 1.43124E+02 3.48650E+00 0.00000E+00
 -1      2066 1.41624E+02 3.48650E+00 0.00000E+00
 -1      2067 1.40874E+02 4.78550E+00 0.00000E+00
 -1      2068 1.45881E+02 3.39637E+00 0.00000E+00
 -1      2069 1.44381E+02 3.39637E+00 0.00000E+00
 -1      2070 1.43631E+02 4.69537E+00 0.00000E+00
 -1      2071 1.46145E+02 4.51512E+00 0.00000E+00
 -1      2072 1.46103E+02 1.25375E+01 0.00000E+00
 -1      2073 1.46103E+02 1.10625E+01 0.00000E+00
 -1      2074 1.46103E+02 9.58750E+00 0.00000E+00
 -1      2075 1.46103E+02 8.11250E+00 0.00000E+00
 -1      2076 1.44804E+02 1.03250E+01 0.00000E+00
 -1      2077 1.46145E+02 5.99013E+00 0.00000E+00
 -1      2078 1.46103E+02 1.54375E+01 0.00000E+00
 -1      2079 1.46103E+02 1.39875E+01 0.00000E+00
 -1      2080 1.44804E+02 1.32500E+01 0.00000E+00
 -1      2081 1.46103E+02 1.83875E+01 0.00000E+00
 -1      2082 1.46103E+02 1.69125E+01 0.00000E+00
 -1      2083 1.44804E+02 1.61750E+01 0.00000E+00
 -1      2084 1.46103E+02 2.13375E+01 0.00000E+00
 -1      2085 1.46103E+02 1.98625E+01 0.00000E+00
 -1      2086 1.44804E+02 1.91250E+01 0.00000E+00
 -1      2087 1.46103E+02 2.42875E+01 0.00000E+00
 -1      2088 1.46103E+02 2.28125E+01 0.00000E+00
 -1      2089 1.44804E+02 2.20750E+01 0.00000E+00
 -1      2090 1.46103E+02 2.72375E+01 0.00000E+00
 -1      2091 1.46103E+02 2.57625E+01 0.00000E+00
 -1      2092 1.44804E+02 2.50250E+01 0.00000E+00
 -1      2093 1.46103E+02 3.01875E+01 0.00000E+00
 -1      2094 1.46103E+02 2.87125E+01 0.00000E+00
 -1      2095 1.44804E+02 2.79750E+01 0.00000E+00
 -1      2096 1.46103E+02 3.30875E+01 0.00000E+00
 -1      2097 1.46103E+02 3.16375E+01 0.00000E+00
 -1      2098 1.44804E+02 3.09000E+01 0.00000E+00
 -1      2099 1.46103E+02 3.60375E+01 0.00000E+00
 -1      2100 1.46103E+02 3.45625E+01 0.00000E+00
 -1      2101 1.44804E+02 3.38250E+01 0.00000E+00
 -1      2102 1.46103E+02 3.89875E+01 0.00000E+00
 -1      2103 1.46103E+02 3.75125E+01 0.00000E+00
 -1      2104 1.44804E+02 3.67750E+01 0.00000E+00
 -1      2105 1.46103E+02 4.19375E+01 0.00000E+00
 -1      2106 1.46103E+02 4.04625E+01 0.00000E+00
 -1      2107 1.44804E+02 3.97250E+01 0.00000E+00
 -1      2108 1.14143E+01 3.29169E+00 0.00000E+00
 -1      2109 9.91425E+00 3.29169E+00 0.00000E+00
 -1      2110 9.74475E+00 4.20106E+00 0.00000E+00
 -1      2111 1.21643E+01 4.59069E+00 0.00000E+00
 -1      2112 1.15779E+02 3.31408E+01 0.00000E+00
 -1      2113 1.16106E+02 3.40268E+01 0.00000E+00
 -1      2114 1.12899E+02 3.02183E+01 0.00000E+00
 -1      2115 1.13640E+02 3.07646E+01 0.00000E+00
 -1      2116 1.06155E+02 4.66351E+01 0.00000E+00
 -1      2117 1.07505E+02 4.69090E+01 0.00000E+00
 -1      2118 1.15446E+02 4.18339E+01 0.00000E+00
 -1      2119 1.15161E+02 4.24000E+01 0.00000E+00
 -1      2120 1.16330E+02 4.17103E+01 0.00000E+00
 -1      2121 3.89700E+00 3.74688E+01 0.00000E+00
 -1      2122 3.89700E+00 3.89437E+01 0.00000E+00
 -1      2123 5.19600E+00 3.96813E+01 0.00000E+00
 -1      2124 5.19600E+00 3.67438E+01 0.00000E+00
 -1      2125 1.11412E+02 4.70922E+01 0.00000E+00
 -1      2126 1.12537E+02 4.70922E+01 0.00000E+00
 -1      2127 1.11133E+02 2.93781E+01 0.00000E+00
 -1      2128 1.11950E+02 2.97844E+01 0.00000E+00
 -1      2129 1.09322E+02 2.87565E+01 0.00000E+00
 -1      2130 1.10185E+02 2.90074E+01 0.00000E+00
 -1      2131 1.07325E+02 2.83085E+01 0.00000E+00
 -1      2132 1.08297E+02 2.83969E+01 0.00000E+00
 -1      2133 1.05071E+02 2.88251E+01 0.00000E+00
 -1      2134 1.06015E+02 2.84818E+01 0.00000E+00
 -1      2135 1.03302E+02 2.95159E+01 0.00000E+00
 -1      2136 1.04187E+02 2.91705E+01 0.00000E+00
 -1      2137 1.04379E+02 2.82323E+01 0.00000E+00
 -1      2138 1.01547E+02 3.08243E+01 0.00000E+00
 -1      2139 1.02242E+02 3.01950E+01 0.00000E+00
 -1      2140 1.00350E+02 3.23416E+01 0.00000E+00
 -1      2141 1.00900E+02 3.16388E+01 0.00000E+00
 -1      2142 9.94015E+01 3.39748E+01 0.00000E+00
 -1      2143 9.97724E+01 3.31943E+01 0.00000E+00
 -1      2144 9.87766E+01 3.57784E+01 0.00000E+00
 -1      2145 9.89812E+01 3.49195E+01 0.00000E+00
 -1      2146 9.87935E+01 3.77047E+01 0.00000E+00
 -1      2147 9.88110E+01 3.68242E+01 0.00000E+00
 -1      2148 9.89259E+01 3.96679E+01 0.00000E+00
 -1      2149 9.87091E+01 3.87997E+01 0.00000E+00
 -1      2150 9.97102E+01 4.14535E+01 0.00000E+00
 -1      2151 9.93426E+01 4.06229E+01 0.00000E+00
 -1      2152 1.00880E+02 4.30222E+01 0.00000E+00
 -1      2153 1.00347E+02 4.23014E+01 0.00000E+00
 -1      2154 1.02250E+02 4.44065E+01 0.00000E+00
 -1      2155 1.01562E+02 4.38162E+01 0.00000E+00
 -1      2156 1.03803E+02 4.56233E+01 0.00000E+00
 -1      2157 1.03018E+02 4.50259E+01 0.00000E+00
 -1      2158 1.05182E+02 4.63874E+01 0.00000E+00
 -1      2159 1.08417E+02 4.67667E+01 0.00000E+00
 -1      2160 1.11841E+02 4.54312E+01 0.00000E+00
 -1      2161 1.11002E+02 4.57486E+01 0.00000E+00
 -1      2162 1.14428E+02 4.33070E+01 0.00000E+00
 -1      2163 1.13824E+02 4.38330E+01 0.00000E+00
 -1      2164 1.16433E+02 3.89439E+01 0.00000E+00
 -1      2165 1.16248E+02 3.96932E+01 0.00000E+00
 -1      2166 1.16800E+02 4.03949E+01 0.00000E+00
 -1      2167 1.14456E+02 3.14032E+01 0.00000E+00
 -1      2168 1.15125E+02 3.20558E+01 0.00000E+00
 -1      2169 1.16370E+02 3.50911E+01 0.00000E+00
 -1      2170 1.16488E+02 3.59969E+01 0.00000E+00
 -1      2171 1.00228E+02 4.47195E+01 0.00000E+00
 -1      2172 1.00978E+02 4.60185E+01 0.00000E+00
 -1      2173 1.13213E+02 4.61509E+01 0.00000E+00
 -1      2174 1.16014E+02 3.22307E+01 0.00000E+00
 -1      2175 6.42300E+00 4.57510E+01 0.00000E+00
 -1      2176 7.17300E+00 4.44520E+01 0.00000E+00
 -1      2177 1.17097E+02 3.84793E+01 0.00000E+00
 -1      2178 1.17202E+02 3.63786E+01 0.00000E+00
 -1      2179 1.02253E+02 4.60185E+01 0.00000E+00
 -1      2180 1.03832E+02 4.63874E+01 0.00000E+00
 -1      2181 1.15875E+02 4.57319E+01 0.00000E+00
 -1      2182 1.45975E+02 4.52484E+01 0.00000E+00
 -1      2183 1.44846E+02 6.72762E+00 0.00000E+00
 -1      2184 1.09341E+02 4.61487E+01 0.00000E+00
 -1      2185 1.09374E+02 4.73317E+01 0.00000E+00
 -1      2186 1.46102E+02 4.41992E+01 0.00000E+00
 -1      2187 1.45977E+02 4.29867E+01 0.00000E+00
 -1      2188 1.44678E+02 4.22492E+01 0.00000E+00
 -1      2189 1.44426E+02 4.43476E+01 0.00000E+00
 -1      2190 1.16933E+02 3.43799E+01 0.00000E+00
 -1      2191 1.12779E+02 2.94348E+01 0.00000E+00
 -1      2192 1.14544E+02 3.05072E+01 0.00000E+00
 -1      2193 1.15312E+02 4.31835E+01 0.00000E+00
 -1      2194 1.00775E+02 4.38410E+01 0.00000E+00
 -1      2195 9.94556E+01 4.21993E+01 0.00000E+00
 -1      2196 9.84022E+01 4.03965E+01 0.00000E+00
 -1      2197 9.80699E+01 3.83465E+01 0.00000E+00
 -1      2198 9.81199E+01 3.62057E+01 0.00000E+00
 -1      2199 9.85057E+01 3.42151E+01 0.00000E+00
 -1      2200 9.95040E+01 3.24177E+01 0.00000E+00
 -1      2201 1.02435E+02 2.92568E+01 0.00000E+00
 -1      2202 1.06575E+02 2.77137E+01 0.00000E+00
 -1      2203 1.08910E+02 2.79000E+01 0.00000E+00
 -1      2204 1.10574E+02 4.73317E+01 0.00000E+00
 -1      2205 1.10882E+02 2.86303E+01 0.00000E+00
 -1      2206 1.00729E+02 3.07505E+01 0.00000E+00
 -1      2207 1.10164E+02 4.59881E+01 0.00000E+00
 -1      2208 1.13150E+02 4.43846E+01 0.00000E+00
 -1      2209 1.12469E+02 4.49107E+01 0.00000E+00
 -1      2210 1.13905E+02 4.46420E+01 0.00000E+00
 -1      2211 6.49500E+00 3.01125E+01 0.00000E+00
 -1      2212 6.49500E+00 3.15875E+01 0.00000E+00
 -1      2213 6.49500E+00 3.30625E+01 0.00000E+00
 -1      2214 6.49500E+00 3.45375E+01 0.00000E+00
 -1      2215 7.79400E+00 3.23250E+01 0.00000E+00
 -1      2216 6.49500E+00 2.42125E+01 0.00000E+00
 -1      2217 6.49500E+00 2.56875E+01 0.00000E+00
 -1      2218 6.49500E+00 2.12625E+01 0.00000E+00
 -1      2219 6.49500E+00 2.27375E+01 0.00000E+00
 -1      2220 7.79400E+00 2.34750E+01 0.00000E+00
 -1      2221 6.49500E+00 1.83625E+01 0.00000E+00
 -1      2222 6.49500E+00 1.98125E+01 0.00000E+00
 -1      2223 7.79400E+00 2.05500E+01 0.00000E+00
 -1      2224 6.49500E+00 1.54125E+01 0.00000E+00
 -1      2225 6.49500E+00 1.68875E+01 0.00000E+00
 -1      2226 7.79400E+00 1.76250E+01 0.00000E+00
 -1      2227 6.49500E+00 1.24625E+01 0.00000E+00
 -1      2228 6.49500E+00 1.39375E+01 0.00000E+00
 -1      2229 7.79400E+00 1.46750E+01 0.00000E+00
 -1      2230 6.49500E+00 9.51250E+00 0.00000E+00
 -1      2231 6.49500E+00 1.09875E+01 0.00000E+00
 -1      2232 7.79400E+00 1.17250E+01 0.00000E+00
 -1      2233 6.49500E+00 6.56250E+00 0.00000E+00
 -1      2234 6.49500E+00 8.03750E+00 0.00000E+00
 -1      2235 7.79400E+00 8.77500E+00 0.00000E+00
 -1      2236 6.84975E+00 4.82969E+00 0.00000E+00
 -1      2237 6.68025E+00 5.73906E+00 0.00000E+00
 -1      2238 7.97925E+00 6.47656E+00 0.00000E+00
 -1      2239 8.34975E+00 4.82969E+00 0.00000E+00
 -1      2240 9.90000E+00 4.35050E+01 0.00000E+00
 -1      2241 1.14000E+01 4.35050E+01 0.00000E+00
 -1      2242 1.17964E+02 3.79739E+01 0.00000E+00
 -1      2243 1.17853E+02 3.91402E+01 0.00000E+00
 -1      2244 6.55950E+00 4.28890E+01 0.00000E+00
 -1      2245 8.53650E+00 4.32410E+01 0.00000E+00
 -1      2246 9.28650E+00 4.19420E+01 0.00000E+00
 -1      2247 6.55950E+00 4.14140E+01 0.00000E+00
 -1      2248 1.29000E+01 4.35050E+01 0.00000E+00
 -1      2249 1.44000E+01 4.35050E+01 0.00000E+00
 -1      2250 1.21500E+01 4.22060E+01 0.00000E+00
 -1      2251 1.59000E+01 4.35050E+01 0.00000E+00
 -1      2252 1.74000E+01 4.35050E+01 0.00000E+00
 -1      2253 1.51500E+01 4.22060E+01 0.00000E+00
 -1      2254 1.89000E+01 4.35050E+01 0.00000E+00
 -1      2255 2.04000E+01 4.35050E+01 0.00000E+00
 -1      2256 1.81500E+01 4.22060E+01 0.00000E+00
 -1      2257 2.19000E+01 4.35050E+01 0.00000E+00
 -1      2258 2.34000E+01 4.35050E+01 0.00000E+00
 -1      2259 2.11500E+01 4.22060E+01 0.00000E+00
 -1      2260 2.49000E+01 4.35050E+01 0.00000E+00
 -1      2261 2.64000E+01 4.35050E+01 0.00000E+00
 -1      2262 2.41500E+01 4.22060E+01 0.00000E+00
 -1      2263 2.79000E+01 4.35050E+01 0.00000E+00
 -1      2264 2.94000E+01 4.35050E+01 0.00000E+00
 -1      2265 2.71500E+01 4.22060E+01 0.00000E+00
 -1      2266 3.09000E+01 4.35050E+01 0.00000E+00
 -1      2267 3.24000E+01 4.35050E+01 0.00000E+00
 -1      2268 3.01500E+01 4.22060E+01 0.00000E+00
 -1      2269 3.39000E+01 4.35050E+01 0.00000E+00
 -1      2270 3.54000E+01 4.35050E+01 0.00000E+00
 -1      2271 3.31500E+01 4.22060E+01 0.00000E+00
 -1      2272 3.69000E+01 4.35050E+01 0.00000E+00
 -1      2273 3.84000E+01 4.35050E+01 0.00000E+00
 -1      2274 3.61500E+01 4.22060E+01 0.00000E+00
 -1      2275 3.99000E+01 4.35050E+01 0.00000E+00
 -1      2276 4.14000E+01 4.35050E+01 0.00000E+00
 -1      2277 3.91500E+01 4.22060E+01 0.00000E+00
 -1      2278 4.29000E+01 4.35050E+01 0.00000E+00
 -1      2279 4.44000E+01 4.35050E+01 0.00000E+00
 -1      2280 4.21500E+01 4.22060E+01 0.00000E+00
 -1      2281 4.59000E+01 4.35050E+01 0.00000E+00
 -1      2282 4.74000E+01 4.35050E+01 0.00000E+00
 -1      2283 4.51500E+01 4.22060E+01 0.00000E+00
 -1      2284 4.89000E+01 4.35050E+01 0.00000E+00
 -1      2285 5.04000E+01 4.35050E+01 0.00000E+00
 -1      2286 4.81500E+01 4.22060E+01 0.00000E+00
 -1      2287 5.19000E+01 4.35050E+01 0.00000E+00
 -1      2288 5.34000E+01 4.35050E+01 0.00000E+00
 -1      2289 5.11500E+01 4.22060E+01 0.00000E+00
 -1      2290 5.49000E+01 4.35050E+01 0.00000E+00
 -1      2291 5.64000E+01 4.35050E+01 0.00000E+00
 -1      2292 5.41500E+01 4.22060E+01 0.00000E+00
 -1      2293 5.79000E+01 4.35050E+01 0.00000E+00
 -1      2294 5.94000E+01 4.35050E+01 0.00000E+00
 -1      2295 5.71500E+01 4.22060E+01 0.00000E+00
 -1      2296 6.09000E+01 4.35050E+01 0.00000E+00
 -1      2297 6.24000E+01 4.35050E+01 0.00000E+00
 -1      2298 6.01500E+01 4.22060E+01 0.00000E+00
 -1      2299 6.39000E+01 4.35050E+01 0.00000E+00
 -1      2300 6.54000E+01 4.35050E+01 0.00000E+00
 -1      2301 6.31500E+01 4.22060E+01 0.00000E+00
 -1      2302 6.69000E+01 4.35050E+01 0.00000E+00
 -1      2303 6.84000E+01 4.35050E+01 0.00000E+00
 -1      2304 6.61500E+01 4.22060E+01 0.00000E+00
 -1      2305 6.99750E+01 4.35050E+01 0.00000E+00
 -1      2306 7.15500E+01 4.35050E+01 0.00000E+00
 -1      2307 6.92250E+01 4.22060E+01 0.00000E+00
 -1      2308 7.30500E+01 4.35050E+01 0.00000E+00
 -1      2309 7.45500E+01 4.35050E+01 0.00000E+00
 -1      2310 7.23000E+01 4.22060E+01 0.00000E+00
 -1      2311 7.60500E+01 4.35050E+01 0.00000E+00
 -1      2312 7.75500E+01 4.35050E+01 0.00000E+00
 -1      2313 7.53000E+01 4.22060E+01 0.00000E+00
 -1      2314 7.90500E+01 4.35050E+01 0.00000E+00
 -1      2315 8.05500E+01 4.35050E+01 0.00000E+00
 -1      2316 7.83000E+01 4.22060E+01 0.00000E+00
 -1      2317 8.20500E+01 4.35050E+01 0.00000E+00
 -1      2318 8.35500E+01 4.35050E+01 0.00000E+00
 -1      2319 8.13000E+01 4.22060E+01 0.00000E+00
 -1      2320 8.50500E+01 4.35050E+01 0.00000E+00
 -1      2321 8.65500E+01 4.35050E+01 0.00000E+00
 -1      2322 8.43000E+01 4.22060E+01 0.00000E+00
 -1      2323 8.80500E+01 4.35050E+01 0.00000E+00
 -1      2324 8.95500E+01 4.35050E+01 0.00000E+00
 -1      2325 8.73000E+01 4.22060E+01 0.00000E+00
 -1      2326 9.10500E+01 4.35050E+01 0.00000E+00
 -1      2327 9.25500E+01 4.35050E+01 0.00000E+00
 -1      2328 9.03000E+01 4.22060E+01 0.00000E+00
 -1      2329 9.40500E+01 4.35050E+01 0.00000E+00
 -1      2330 9.55500E+01 4.35050E+01 0.00000E+00
 -1      2331 9.33000E+01 4.22060E+01 0.00000E+00
 -1      2332 1.43589E+02 6.81775E+00 0.00000E+00
 -1      2333 1.21050E+02 4.42879E+01 0.00000E+00
 -1      2334 1.22550E+02 4.42879E+01 0.00000E+00
 -1      2335 1.24050E+02 4.42879E+01 0.00000E+00
 -1      2336 1.25550E+02 4.42879E+01 0.00000E+00
 -1      2337 1.23300E+02 4.31790E+01 0.00000E+00
 -1      2338 1.27050E+02 4.42879E+01 0.00000E+00
 -1      2339 1.28550E+02 4.42879E+01 0.00000E+00
 -1      2340 1.26300E+02 4.31790E+01 0.00000E+00
 -1      2341 1.30050E+02 4.42879E+01 0.00000E+00
 -1      2342 1.31550E+02 4.42879E+01 0.00000E+00
 -1      2343 1.29300E+02 4.31790E+01 0.00000E+00
 -1      2344 1.33050E+02 4.42879E+01 0.00000E+00
 -1      2345 1.34550E+02 4.42879E+01 0.00000E+00
 -1      2346 1.32300E+02 4.31790E+01 0.00000E+00
 -1      2347 1.36050E+02 4.42879E+01 0.00000E+00
 -1      2348 1.37550E+02 4.42879E+01 0.00000E+00
 -1      2349 1.35300E+02 4.31790E+01 0.00000E+00
 -1      2350 1.39050E+02 4.42879E+01 0.00000E+00
 -1      2351 1.40550E+02 4.42879E+01 0.00000E+00
 -1      2352 1.38300E+02 4.31790E+01 0.00000E+00
 -1      2353 1.41738E+02 4.43177E+01 0.00000E+00
 -1      2354 1.43238E+02 4.43177E+01 0.00000E+00
 -1      2355 1.43364E+02 4.32685E+01 0.00000E+00
 -1      2356 1.40988E+02 4.32088E+01 0.00000E+00
 -1      2357 2.16240E+01 6.08450E+00 0.00000E+00
 -1      2358 2.01240E+01 6.08450E+00 0.00000E+00
 -1      2359 1.86240E+01 6.08450E+00 0.00000E+00
 -1      2360 1.71240E+01 6.08450E+00 0.00000E+00
 -1      2361 1.93740E+01 7.38350E+00 0.00000E+00
 -1      2362 1.56240E+01 6.08450E+00 0.00000E+00
 -1      2363 1.41240E+01 6.08450E+00 0.00000E+00
 -1      2364 1.63740E+01 7.38350E+00 0.00000E+00
 -1      2365 2.46240E+01 6.08450E+00 0.00000E+00
 -1      2366 2.31240E+01 6.08450E+00 0.00000E+00
 -1      2367 2.23740E+01 7.38350E+00 0.00000E+00
 -1      2368 2.76240E+01 6.08450E+00 0.00000E+00
 -1      2369 2.61240E+01 6.08450E+00 0.00000E+00
 -1      2370 2.53740E+01 7.38350E+00 0.00000E+00
 -1      2371 3.06240E+01 6.08450E+00 0.00000E+00
 -1      2372 2.91240E+01 6.08450E+00 0.00000E+00
 -1      2373 2.83740E+01 7.38350E+00 0.00000E+00
 -1      2374 3.36240E+01 6.08450E+00 0.00000E+00
 -1      2375 3.21240E+01 6.08450E+00 0.00000E+00
 -1      2376 3.13740E+01 7.38350E+00 0.00000E+00
 -1      2377 3.66240E+01 6.08450E+00 0.00000E+00
 -1      2378 3.51240E+01 6.08450E+00 0.00000E+00
 -1      2379 3.43740E+01 7.38350E+00 0.00000E+00
 -1      2380 3.96240E+01 6.08450E+00 0.00000E+00
 -1      2381 3.81240E+01 6.08450E+00 0.00000E+00
 -1      2382 3.73740E+01 7.38350E+00 0.00000E+00
 -1      2383 4.26240E+01 6.08450E+00 0.00000E+00
 -1      2384 4.11240E+01 6.08450E+00 0.00000E+00
 -1      2385 4.03740E+01 7.38350E+00 0.00000E+00
 -1      2386 4.56240E+01 6.08450E+00 0.00000E+00
 -1      2387 4.41240E+01 6.08450E+00 0.00000E+00
 -1      2388 4.33740E+01 7.38350E+00 0.00000E+00
 -1      2389 4.86240E+01 6.08450E+00 0.00000E+00
 -1      2390 4.71240E+01 6.08450E+00 0.00000E+00
 -1      2391 4.63740E+01 7.38350E+00 0.00000E+00
 -1      2392 5.16240E+01 6.08450E+00 0.00000E+00
 -1      2393 5.01240E+01 6.08450E+00 0.00000E+00
 -1      2394 4.93740E+01 7.38350E+00 0.00000E+00
 -1      2395 5.46240E+01 6.08450E+00 0.00000E+00
 -1      2396 5.31240E+01 6.08450E+00 0.00000E+00
 -1      2397 5.23740E+01 7.38350E+00 0.00000E+00
 -1      2398 5.76240E+01 6.08450E+00 0.00000E+00
 -1      2399 5.61240E+01 6.08450E+00 0.00000E+00
 -1      2400 5.53740E+01 7.38350E+00 0.00000E+00
 -1      2401 6.06240E+01 6.08450E+00 0.00000E+00
 -1      2402 5.91240E+01 6.08450E+00 0.00000E+00
 -1      2403 5.83740E+01 7.38350E+00 0.00000E+00
 -1      2404 6.36240E+01 6.08450E+00 0.00000E+00
 -1      2405 6.21240E+01 6.08450E+00 0.00000E+00
 -1      2406 6.13740E+01 7.38350E+00 0.00000E+00
 -1      2407 6.66240E+01 6.08450E+00 0.00000E+00
 -1      2408 6.51240E+01 6.08450E+00 0.00000E+00
 -1      2409 6.43740E+01 7.38350E+00 0.00000E+00
 -1      2410 6.96240E+01 6.08450E+00 0.00000E+00
 -1      2411 6.81240E+01 6.08450E+00 0.00000E+00
 -1      2412 6.73740E+01 7.38350E+00 0.00000E+00
 -1      2413 7.26240E+01 6.08450E+00 0.00000E+00
 -1      2414 7.11240E+01 6.08450E+00 0.00000E+00
 -1      2415 7.03740E+01 7.38350E+00 0.00000E+00
 -1      2416 7.56240E+01 6.08450E+00 0.00000E+00
 -1      2417 7.41240E+01 6.08450E+00 0.00000E+00
 -1      2418 7.33740E+01 7.38350E+00 0.00000E+00
 -1      2419 7.86240E+01 6.08450E+00 0.00000E+00
 -1      2420 7.71240E+01 6.08450E+00 0.00000E+00
 -1      2421 7.63740E+01 7.38350E+00 0.00000E+00
 -1      2422 8.16240E+01 6.08450E+00 0.00000E+00
 -1      2423 8.01240E+01 6.08450E+00 0.00000E+00
 -1      2424 7.93740E+01 7.38350E+00 0.00000E+00
 -1      2425 8.46240E+01 6.08450E+00 0.00000E+00
 -1      2426 8.31240E+01 6.08450E+00 0.00000E+00
 -1      2427 8.23740E+01 7.38350E+00 0.00000E+00
 -1      2428 8.76240E+01 6.08450E+00 0.00000E+00
 -1      2429 8.61240E+01 6.08450E+00 0.00000E+00
 -1      2430 8.53740E+01 7.38350E+00 0.00000E+00
 -1      2431 9.06240E+01 6.08450E+00 0.00000E+00
 -1      2432 8.91240E+01 6.08450E+00 0.00000E+00
 -1      2433 8.83740E+01 7.38350E+00 0.00000E+00
 -1      2434 9.36240E+01 6.08450E+00 0.00000E+00
 -1      2435 9.21240E+01 6.08450E+00 0.00000E+00
 -1      2436 9.13740E+01 7.38350E+00 0.00000E+00
 -1      2437 9.66240E+01 6.08450E+00 0.00000E+00
 -1      2438 9.51240E+01 6.08450E+00 0.00000E+00
 -1      2439 9.43740E+01 7.38350E+00 0.00000E+00
 -1      2440 9.96240E+01 6.08450E+00 0.00000E+00
 -1      2441 9.81240E+01 6.08450E+00 0.00000E+00
 -1      2442 9.73740E+01 7.38350E+00 0.00000E+00
 -1      2443 1.02624E+02 6.08450E+00 0.00000E+00
 -1      2444 1.01124E+02 6.08450E+00 0.00000E+00
 -1      2445 1.00374E+02 7.38350E+00 0.00000E+00
 -1      2446 1.05624E+02 6.08450E+00 0.00000E+00
 -1      2447 1.04124E+02 6.08450E+00 0.00000E+00
 -1      2448 1.03374E+02 7.38350E+00 0.00000E+00
 -1      2449 1.08624E+02 6.08450E+00 0.00000E+00
 -1      2450 1.07124E+02 6.08450E+00 0.00000E+00
 -1      2451 1.06374E+02 7.38350E+00 0.00000E+00
 -1      2452 1.11624E+02 6.08450E+00 0.00000E+00
 -1      2453 1.10124E+02 6.08450E+00 0.00000E+00
 -1      2454 1.09374E+02 7.38350E+00 0.00000E+00
 -1      2455 1.14624E+02 6.08450E+00 0.00000E+00
 -1      2456 1.13124E+02 6.08450E+00 0.00000E+00
 -1      2457 1.12374E+02 7.38350E+00 0.00000E+00
 -1      2458 1.17624E+02 6.08450E+00 0.00000E+00
 -1      2459 1.16124E+02 6.08450E+00 0.00000E+00
 -1      2460 1.15374E+02 7.38350E+00 0.00000E+00
 -1      2461 1.20624E+02 6.08450E+00 0.00000E+00
 -1      2462 1.19124E+02 6.08450E+00 0.00000E+00
 -1      2463 1.18374E+02 7.38350E+00 0.00000E+00
 -1      2464 1.23624E+02 6.08450E+00 0.00000E+00
 -1      2465 1.22124E+02 6.08450E+00 0.00000E+00
 -1      2466 1.21374E+02 7.38350E+00 0.00000E+00
 -1      2467 1.26624E+02 6.08450E+00 0.00000E+00
 -1      2468 1.25124E+02 6.08450E+00 0.00000E+00
 -1      2469 1.24374E+02 7.38350E+00 0.00000E+00
 -1      2470 1.29624E+02 6.08450E+00 0.00000E+00
 -1      2471 1.28124E+02 6.08450E+00 0.00000E+00
 -1      2472 1.27374E+02 7.38350E+00 0.00000E+00
 -1      2473 1.32624E+02 6.08450E+00 0.00000E+00
 -1      2474 1.31124E+02 6.08450E+00 0.00000E+00
 -1      2475 1.30374E+02 7.38350E+00 0.00000E+00
 -1      2476 1.35624E+02 6.08450E+00 0.00000E+00
 -1      2477 1.34124E+02 6.08450E+00 0.00000E+00
 -1      2478 1.33374E+02 7.38350E+00 0.00000E+00
 -1      2479 1.38624E+02 6.08450E+00 0.00000E+00
 -1      2480 1.37124E+02 6.08450E+00 0.00000E+00
 -1      2481 1.36374E+02 7.38350E+00 0.00000E+00
 -1      2482 1.41624E+02 6.08450E+00 0.00000E+00
 -1      2483 1.40124E+02 6.08450E+00 0.00000E+00
 -1      2484 1.39374E+02 7.38350E+00 0.00000E+00
 -1      2485 1.43505E+02 1.69125E+01 0.00000E+00
 -1      2486 1.43505E+02 1.54375E+01 0.00000E+00
 -1      2487 1.43505E+02 1.39875E+01 0.00000E+00
 -1      2488 1.43505E+02 1.25375E+01 0.00000E+00
 -1      2489 1.42206E+02 1.47250E+01 0.00000E+00
 -1      2490 1.43505E+02 1.10625E+01 0.00000E+00
 -1      2491 1.43505E+02 9.58750E+00 0.00000E+00
 -1      2492 1.42206E+02 1.18000E+01 0.00000E+00
 -1      2493 1.12603E+02 4.57141E+01 0.00000E+00
 -1      2494 1.10720E+02 2.76463E+01 0.00000E+00
 -1      2495 1.11668E+02 2.80170E+01 0.00000E+00
 -1      2496 1.43505E+02 1.98625E+01 0.00000E+00
 -1      2497 1.43505E+02 1.83875E+01 0.00000E+00
 -1      2498 1.42206E+02 1.76500E+01 0.00000E+00
 -1      2499 1.43505E+02 2.28125E+01 0.00000E+00
 -1      2500 1.43505E+02 2.13375E+01 0.00000E+00
 -1      2501 1.42206E+02 2.06000E+01 0.00000E+00
 -1      2502 1.43505E+02 2.57625E+01 0.00000E+00
 -1      2503 1.43505E+02 2.42875E+01 0.00000E+00
 -1      2504 1.42206E+02 2.35500E+01 0.00000E+00
 -1      2505 1.43505E+02 2.87125E+01 0.00000E+00
 -1      2506 1.43505E+02 2.72375E+01 0.00000E+00
 -1      2507 1.42206E+02 2.65000E+01 0.00000E+00
 -1      2508 1.43505E+02 3.16125E+01 0.00000E+00
 -1      2509 1.43505E+02 3.01625E+01 0.00000E+00
 -1      2510 1.42206E+02 2.94250E+01 0.00000E+00
 -1      2511 1.43505E+02 3.45625E+01 0.00000E+00
 -1      2512 1.43505E+02 3.30875E+01 0.00000E+00
 -1      2513 1.42206E+02 3.23500E+01 0.00000E+00
 -1      2514 1.43505E+02 3.75125E+01 0.00000E+00
 -1      2515 1.43505E+02 3.60375E+01 0.00000E+00
 -1      2516 1.42206E+02 3.53000E+01 0.00000E+00
 -1      2517 1.43505E+02 4.04625E+01 0.00000E+00
 -1      2518 1.43505E+02 3.89875E+01 0.00000E+00
 -1      2519 1.42206E+02 3.82500E+01 0.00000E+00
 -1      2520 1.11137E+02 4.64741E+01 0.00000E+00
 -1      2521 9.95462E+01 4.39256E+01 0.00000E+00
 -1      2522 1.12618E+02 2.84508E+01 0.00000E+00
 -1      2523 1.13567E+02 2.88846E+01 0.00000E+00
 -1      2524 1.12456E+02 2.74668E+01 0.00000E+00
 -1      2525 1.17890E+02 3.59071E+01 0.00000E+00
 -1      2526 1.17895E+02 3.68415E+01 0.00000E+00
 -1      2527 1.02225E+02 4.52543E+01 0.00000E+00
 -1      2528 1.05807E+02 2.69502E+01 0.00000E+00
 -1      2529 1.07117E+02 2.67769E+01 0.00000E+00
 -1      2530 1.17238E+02 4.18127E+01 0.00000E+00
 -1      2531 1.16953E+02 4.23789E+01 0.00000E+00
 -1      2532 1.18050E+02 4.44555E+01 0.00000E+00
 -1      2533 1.19550E+02 4.44555E+01 0.00000E+00
 -1      2534 1.17551E+02 3.36614E+01 0.00000E+00
 -1      2535 1.17816E+02 3.47256E+01 0.00000E+00
 -1      2536 6.49500E+00 2.71625E+01 0.00000E+00
 -1      2537 6.49500E+00 2.86375E+01 0.00000E+00
 -1      2538 7.79400E+00 2.93750E+01 0.00000E+00
 -1      2539 7.79400E+00 2.64250E+01 0.00000E+00
 -1      2540 1.42839E+02 8.11675E+00 0.00000E+00
 -1      2541 1.14769E+02 2.93808E+01 0.00000E+00
 -1      2542 1.15584E+02 3.00193E+01 0.00000E+00
 -1      2543 9.97665E+01 3.06506E+01 0.00000E+00
 -1      2544 1.00413E+02 2.98361E+01 0.00000E+00
 -1      2545 1.08671E+02 2.69271E+01 0.00000E+00
 -1      2546 1.09696E+02 2.72867E+01 0.00000E+00
 -1      2547 1.10482E+02 2.66734E+01 0.00000E+00
 -1      2548 1.03625E+02 2.76062E+01 0.00000E+00
 -1      2549 1.04510E+02 2.72608E+01 0.00000E+00
 -1      2550 9.82797E+01 4.39408E+01 0.00000E+00
 -1      2551 9.88259E+01 4.30624E+01 0.00000E+00
 -1      2552 9.81891E+01 4.22145E+01 0.00000E+00
 -1      2553 9.69297E+01 4.39408E+01 0.00000E+00
 -1      2554 1.01488E+02 2.89449E+01 0.00000E+00
 -1      2555 1.02547E+02 2.82658E+01 0.00000E+00
 -1      2556 9.85745E+01 3.24098E+01 0.00000E+00
 -1      2557 9.91525E+01 3.15572E+01 0.00000E+00
 -1      2558 9.75503E+01 3.43560E+01 0.00000E+00
 -1      2559 9.79706E+01 3.34112E+01 0.00000E+00
 -1      2560 9.72800E+01 3.67569E+01 0.00000E+00
 -1      2561 9.72456E+01 3.57110E+01 0.00000E+00
 -1      2562 9.71112E+01 3.89468E+01 0.00000E+00
 -1      2563 9.71956E+01 3.78518E+01 0.00000E+00
 -1      2564 9.63213E+01 3.73571E+01 0.00000E+00
 -1      2565 9.77724E+01 4.12596E+01 0.00000E+00
 -1      2566 9.73558E+01 4.03047E+01 0.00000E+00
 -1      2567 9.71427E+01 4.21228E+01 0.00000E+00
 -1      2568 1.17609E+02 4.03141E+01 0.00000E+00
 -1      2569 1.17423E+02 4.10634E+01 0.00000E+00
 -1      2570 1.18047E+02 4.17319E+01 0.00000E+00
 -1      2571 1.16280E+02 4.32163E+01 0.00000E+00
 -1      2572 1.15547E+02 4.41233E+01 0.00000E+00
 -1      2573 1.16565E+02 3.11588E+01 0.00000E+00
 -1      2574 1.17219E+02 3.22437E+01 0.00000E+00
 -1      2575 1.03022E+02 4.66379E+01 0.00000E+00
 -1      2576 1.13841E+02 4.56303E+01 0.00000E+00
 -1      2577 7.79400E+00 3.52687E+01 0.00000E+00
 -1      2578 6.49500E+00 3.60062E+01 0.00000E+00
 -1      2579 6.49500E+00 3.74750E+01 0.00000E+00
 -1      2580 9.55950E+00 5.02450E+00 0.00000E+00
 -1      2581 9.37425E+00 5.84794E+00 0.00000E+00
 -1      2582 1.07692E+01 5.21931E+00 0.00000E+00
 -1      2583 1.18651E+02 3.75024E+01 0.00000E+00
 -1      2584 1.18476E+02 3.98087E+01 0.00000E+00
 -1      2585 6.52725E+00 3.87101E+01 0.00000E+00
 -1      2586 6.52725E+00 4.01789E+01 0.00000E+00
 -1      2587 7.89075E+00 4.04429E+01 0.00000E+00
 -1      2588 7.82625E+00 3.79726E+01 0.00000E+00
 -1      2589 1.02678E+02 2.72943E+01 0.00000E+00
 -1      2590 9.61797E+01 4.26418E+01 0.00000E+00
 -1      2591 1.20300E+02 4.33466E+01 0.00000E+00
 -1      2592 1.41540E+02 8.85425E+00 0.00000E+00
 -1      2593 1.16789E+02 3.00324E+01 0.00000E+00
 -1      2594 1.05053E+02 2.63240E+01 0.00000E+00
 -1      2595 1.43490E+02 4.22193E+01 0.00000E+00
 -1      2596 1.07904E+02 2.61636E+01 0.00000E+00
 -1      2597 1.08690E+02 2.55503E+01 0.00000E+00
 -1      2598 1.07136E+02 2.54001E+01 0.00000E+00
 -1      2599 1.42191E+02 4.14818E+01 0.00000E+00
 -1      2600 1.16908E+02 4.47765E+01 0.00000E+00
 -1      2601 1.17658E+02 4.38352E+01 0.00000E+00
 -1      2602 1.30515E+01 5.74931E+00 0.00000E+00
 -1      2603 1.18418E+01 5.55450E+00 0.00000E+00
 -1      2604 1.16565E+01 6.37794E+00 0.00000E+00
 -1      2605 1.38015E+01 7.04831E+00 0.00000E+00
 -1      2606 1.18508E+02 3.51885E+01 0.00000E+00
 -1      2607 1.14514E+02 4.50788E+01 0.00000E+00
 -1      2608 1.15483E+02 4.51116E+01 0.00000E+00
 -1      2609 9.64815E+01 3.98100E+01 0.00000E+00
 -1      2610 1.18102E+02 3.25895E+01 0.00000E+00
 -1      2611 1.14607E+02 2.83968E+01 0.00000E+00
 -1      2612 9.95634E+01 2.87451E+01 0.00000E+00
 -1      2613 1.00526E+02 2.88450E+01 0.00000E+00
 -1      2614 1.00638E+02 2.78540E+01 0.00000E+00
 -1      2615 9.67105E+01 3.49071E+01 0.00000E+00
 -1      2616 9.76191E+01 3.25507E+01 0.00000E+00
 -1      2617 9.88371E+01 3.06427E+01 0.00000E+00
 -1      2618 9.09300E+00 1.98250E+01 0.00000E+00
 -1      2619 9.09300E+00 2.12750E+01 0.00000E+00
 -1      2620 9.09300E+00 2.27500E+01 0.00000E+00
 -1      2621 9.09300E+00 2.42250E+01 0.00000E+00
 -1      2622 1.03920E+01 2.20250E+01 0.00000E+00
 -1      2623 9.09300E+00 1.39375E+01 0.00000E+00
 -1      2624 9.09300E+00 1.54125E+01 0.00000E+00
 -1      2625 9.09300E+00 1.09875E+01 0.00000E+00
 -1      2626 9.09300E+00 1.24625E+01 0.00000E+00
 -1      2627 1.03920E+01 1.32000E+01 0.00000E+00
 -1      2628 9.18900E+00 6.67137E+00 0.00000E+00
 -1      2629 9.00375E+00 7.49481E+00 0.00000E+00
 -1      2630 1.03988E+01 6.86619E+00 0.00000E+00
 -1      2631 1.14000E+01 4.09070E+01 0.00000E+00
 -1      2632 1.29000E+01 4.09070E+01 0.00000E+00
 -1      2633 8.96362E+00 4.05429E+01 0.00000E+00
 -1      2634 1.03271E+01 4.08069E+01 0.00000E+00
 -1      2635 1.10771E+01 3.95079E+01 0.00000E+00
 -1      2636 8.93137E+00 3.93078E+01 0.00000E+00
 -1      2637 1.40907E+02 1.54500E+01 0.00000E+00
 -1      2638 1.40907E+02 1.40000E+01 0.00000E+00
 -1      2639 1.44000E+01 4.09070E+01 0.00000E+00
 -1      2640 1.59000E+01 4.09070E+01 0.00000E+00
 -1      2641 1.36500E+01 3.96080E+01 0.00000E+00
 -1      2642 1.74000E+01 4.09070E+01 0.00000E+00
 -1      2643 1.89000E+01 4.09070E+01 0.00000E+00
 -1      2644 1.66500E+01 3.96080E+01 0.00000E+00
 -1      2645 2.04000E+01 4.09070E+01 0.00000E+00
 -1      2646 2.19000E+01 4.09070E+01 0.00000E+00
 -1      2647 1.96500E+01 3.96080E+01 0.00000E+00
 -1      2648 2.34000E+01 4.09070E+01 0.00000E+00
 -1      2649 2.49000E+01 4.09070E+01 0.00000E+00
 -1      2650 2.26500E+01 3.96080E+01 0.00000E+00
 -1      2651 2.64000E+01 4.09070E+01 0.00000E+00
 -1      2652 2.79000E+01 4.09070E+01 0.00000E+00
 -1      2653 2.56500E+01 3.96080E+01 0.00000E+00
 -1      2654 2.94000E+01 4.09070E+01 0.00000E+00
 -1      2655 3.09000E+01 4.09070E+01 0.00000E+00
 -1      2656 2.86500E+01 3.96080E+01 0.00000E+00
 -1      2657 3.24000E+01 4.09070E+01 0.00000E+00
 -1      2658 3.39000E+01 4.09070E+01 0.00000E+00
 -1      2659 3.16500E+01 3.96080E+01 0.00000E+00
 -1      2660 3.54000E+01 4.09070E+01 0.00000E+00
 -1      2661 3.69000E+01 4.09070E+01 0.00000E+00
 -1      2662 3.46500E+01 3.96080E+01 0.00000E+00
 -1      2663 3.84000E+01 4.09070E+01 0.00000E+00
 -1      2664 3.99000E+01 4.09070E+01 0.00000E+00
 -1      2665 3.76500E+01 3.96080E+01 0.00000E+00
 -1      2666 4.14000E+01 4.09070E+01 0.00000E+00
 -1      2667 4.29000E+01 4.09070E+01 0.00000E+00
 -1      2668 4.06500E+01 3.96080E+01 0.00000E+00
 -1      2669 4.44000E+01 4.09070E+01 0.00000E+00
 -1      2670 4.59000E+01 4.09070E+01 0.00000E+00
 -1      2671 4.36500E+01 3.96080E+01 0.00000E+00
 -1      2672 4.74000E+01 4.09070E+01 0.00000E+00
 -1      2673 4.89000E+01 4.09070E+01 0.00000E+00
 -1      2674 4.66500E+01 3.96080E+01 0.00000E+00
 -1      2675 5.04000E+01 4.09070E+01 0.00000E+00
 -1      2676 5.19000E+01 4.09070E+01 0.00000E+00
 -1      2677 4.96500E+01 3.96080E+01 0.00000E+00
 -1      2678 5.34000E+01 4.09070E+01 0.00000E+00
 -1      2679 5.49000E+01 4.09070E+01 0.00000E+00
 -1      2680 5.26500E+01 3.96080E+01 0.00000E+00
 -1      2681 5.64000E+01 4.09070E+01 0.00000E+00
 -1      2682 5.79000E+01 4.09070E+01 0.00000E+00
 -1      2683 5.56500E+01 3.96080E+01 0.00000E+00
 -1      2684 5.94000E+01 4.09070E+01 0.00000E+00
 -1      2685 6.09000E+01 4.09070E+01 0.00000E+00
 -1      2686 5.86500E+01 3.96080E+01 0.00000E+00
 -1      2687 6.24000E+01 4.09070E+01 0.00000E+00
 -1      2688 6.39000E+01 4.09070E+01 0.00000E+00
 -1      2689 6.16500E+01 3.96080E+01 0.00000E+00
 -1      2690 6.54000E+01 4.09070E+01 0.00000E+00
 -1      2691 6.69000E+01 4.09070E+01 0.00000E+00
 -1      2692 6.46500E+01 3.96080E+01 0.00000E+00
 -1      2693 6.84750E+01 4.09070E+01 0.00000E+00
 -1      2694 7.00500E+01 4.09070E+01 0.00000E+00
 -1      2695 6.77250E+01 3.96080E+01 0.00000E+00
 -1      2696 7.15500E+01 4.09070E+01 0.00000E+00
 -1      2697 7.30500E+01 4.09070E+01 0.00000E+00
 -1      2698 7.08000E+01 3.96080E+01 0.00000E+00
 -1      2699 7.45500E+01 4.09070E+01 0.00000E+00
 -1      2700 7.60500E+01 4.09070E+01 0.00000E+00
 -1      2701 7.38000E+01 3.96080E+01 0.00000E+00
 -1      2702 7.75500E+01 4.09070E+01 0.00000E+00
 -1      2703 7.90500E+01 4.09070E+01 0.00000E+00
 -1      2704 7.68000E+01 3.96080E+01 0.00000E+00
 -1      2705 8.05500E+01 4.09070E+01 0.00000E+00
 -1      2706 8.20500E+01 4.09070E+01 0.00000E+00
 -1      2707 7.98000E+01 3.96080E+01 0.00000E+00
 -1      2708 8.35500E+01 4.09070E+01 0.00000E+00
 -1      2709 8.50500E+01 4.09070E+01 0.00000E+00
 -1      2710 8.28000E+01 3.96080E+01 0.00000E+00
 -1      2711 8.65500E+01 4.09070E+01 0.00000E+00
 -1      2712 8.80500E+01 4.09070E+01 0.00000E+00
 -1      2713 8.58000E+01 3.96080E+01 0.00000E+00
 -1      2714 8.95500E+01 4.09070E+01 0.00000E+00
 -1      2715 9.10500E+01 4.09070E+01 0.00000E+00
 -1      2716 8.88000E+01 3.96080E+01 0.00000E+00
 -1      2717 9.25500E+01 4.09070E+01 0.00000E+00
 -1      2718 9.40500E+01 4.09070E+01 0.00000E+00
 -1      2719 9.18000E+01 3.96080E+01 0.00000E+00
 -1      2720 1.22550E+02 4.20701E+01 0.00000E+00
 -1      2721 1.24050E+02 4.20701E+01 0.00000E+00
 -1      2722 2.61240E+01 8.68250E+00 0.00000E+00
 -1      2723 2.46240E+01 8.68250E+00 0.00000E+00
 -1      2724 1.25550E+02 4.19863E+01 0.00000E+00
 -1      2725 1.27050E+02 4.19863E+01 0.00000E+00
 -1      2726 1.28550E+02 4.19863E+01 0.00000E+00
 -1      2727 1.30050E+02 4.19863E+01 0.00000E+00
 -1      2728 1.27800E+02 4.07936E+01 0.00000E+00
 -1      2729 1.31550E+02 4.19863E+01 0.00000E+00
 -1      2730 1.33050E+02 4.19863E+01 0.00000E+00
 -1      2731 1.30800E+02 4.07936E+01 0.00000E+00
 -1      2732 1.34550E+02 4.19863E+01 0.00000E+00
 -1      2733 1.36050E+02 4.19863E+01 0.00000E+00
 -1      2734 1.33800E+02 4.07936E+01 0.00000E+00
 -1      2735 1.37550E+02 4.19863E+01 0.00000E+00
 -1      2736 1.39050E+02 4.19863E+01 0.00000E+00
 -1      2737 1.36800E+02 4.07936E+01 0.00000E+00
 -1      2738 1.40027E+02 4.17191E+01 0.00000E+00
 -1      2739 1.41214E+02 4.17490E+01 0.00000E+00
 -1      2740 1.41230E+02 3.99922E+01 0.00000E+00
 -1      2741 1.39277E+02 4.05265E+01 0.00000E+00
 -1      2742 2.01240E+01 8.68250E+00 0.00000E+00
 -1      2743 1.86240E+01 8.68250E+00 0.00000E+00
 -1      2744 2.31240E+01 8.68250E+00 0.00000E+00
 -1      2745 2.16240E+01 8.68250E+00 0.00000E+00
 -1      2746 2.08740E+01 9.98150E+00 0.00000E+00
 -1      2747 2.38740E+01 9.98150E+00 0.00000E+00
 -1      2748 1.71240E+01 8.68250E+00 0.00000E+00
 -1      2749 1.56240E+01 8.68250E+00 0.00000E+00
 -1      2750 1.78740E+01 9.98150E+00 0.00000E+00
 -1      2751 2.91240E+01 8.68250E+00 0.00000E+00
 -1      2752 2.76240E+01 8.68250E+00 0.00000E+00
 -1      2753 2.68740E+01 9.98150E+00 0.00000E+00
 -1      2754 3.21240E+01 8.68250E+00 0.00000E+00
 -1      2755 3.06240E+01 8.68250E+00 0.00000E+00
 -1      2756 2.98740E+01 9.98150E+00 0.00000E+00
 -1      2757 3.51240E+01 8.68250E+00 0.00000E+00
 -1      2758 3.36240E+01 8.68250E+00 0.00000E+00
 -1      2759 3.28740E+01 9.98150E+00 0.00000E+00
 -1      2760 3.81240E+01 8.68250E+00 0.00000E+00
 -1      2761 3.66240E+01 8.68250E+00 0.00000E+00
 -1      2762 3.58740E+01 9.98150E+00 0.00000E+00
 -1      2763 4.11240E+01 8.68250E+00 0.00000E+00
 -1      2764 3.96240E+01 8.68250E+00 0.00000E+00
 -1      2765 3.88740E+01 9.98150E+00 0.00000E+00
 -1      2766 4.41240E+01 8.68250E+00 0.00000E+00
 -1      2767 4.26240E+01 8.68250E+00 0.00000E+00
 -1      2768 4.18740E+01 9.98150E+00 0.00000E+00
 -1      2769 4.71240E+01 8.68250E+00 0.00000E+00
 -1      2770 4.56240E+01 8.68250E+00 0.00000E+00
 -1      2771 4.48740E+01 9.98150E+00 0.00000E+00
 -1      2772 5.01240E+01 8.68250E+00 0.00000E+00
 -1      2773 4.86240E+01 8.68250E+00 0.00000E+00
 -1      2774 4.78740E+01 9.98150E+00 0.00000E+00
 -1      2775 5.31240E+01 8.68250E+00 0.00000E+00
 -1      2776 5.16240E+01 8.68250E+00 0.00000E+00
 -1      2777 5.08740E+01 9.98150E+00 0.00000E+00
 -1      2778 5.61240E+01 8.68250E+00 0.00000E+00
 -1      2779 5.46240E+01 8.68250E+00 0.00000E+00
 -1      2780 5.38740E+01 9.98150E+00 0.00000E+00
 -1      2781 5.91240E+01 8.68250E+00 0.00000E+00
 -1      2782 5.76240E+01 8.68250E+00 0.00000E+00
 -1      2783 5.68740E+01 9.98150E+00 0.00000E+00
 -1      2784 6.21240E+01 8.68250E+00 0.00000E+00
 -1      2785 6.06240E+01 8.68250E+00 0.00000E+00
 -1      2786 5.98740E+01 9.98150E+00 0.00000E+00
 -1      2787 6.51240E+01 8.68250E+00 0.00000E+00
 -1      2788 6.36240E+01 8.68250E+00 0.00000E+00
 -1      2789 6.28740E+01 9.98150E+00 0.00000E+00
 -1      2790 6.81240E+01 8.68250E+00 0.00000E+00
 -1      2791 6.66240E+01 8.68250E+00 0.00000E+00
 -1      2792 6.58740E+01 9.98150E+00 0.00000E+00
 -1      2793 7.11240E+01 8.68250E+00 0.00000E+00
 -1      2794 6.96240E+01 8.68250E+00 0.00000E+00
 -1      2795 6.88740E+01 9.98150E+00 0.00000E+00
 -1      2796 7.41240E+01 8.68250E+00 0.00000E+00
 -1      2797 7.26240E+01 8.68250E+00 0.00000E+00
 -1      2798 7.18740E+01 9.98150E+00 0.00000E+00
 -1      2799 7.71240E+01 8.68250E+00 0.00000E+00
 -1      2800 7.56240E+01 8.68250E+00 0.00000E+00
 -1      2801 7.48740E+01 9.98150E+00 0.00000E+00
 -1      2802 8.01240E+01 8.68250E+00 0.00000E+00
 -1      2803 7.86240E+01 8.68250E+00 0.00000E+00
 -1      2804 7.78740E+01 9.98150E+00 0.00000E+00
 -1      2805 8.31240E+01 8.68250E+00 0.00000E+00
 -1      2806 8.16240E+01 8.68250E+00 0.00000E+00
 -1      2807 8.08740E+01 9.98150E+00 0.00000E+00
 -1      2808 8.61240E+01 8.68250E+00 0.00000E+00
 -1      2809 8.46240E+01 8.68250E+00 0.00000E+00
 -1      2810 8.38740E+01 9.98150E+00 0.00000E+00
 -1      2811 8.91240E+01 8.68250E+00 0.00000E+00
 -1      2812 8.76240E+01 8.68250E+00 0.00000E+00
 -1      2813 8.68740E+01 9.98150E+00 0.00000E+00
 -1      2814 9.21240E+01 8.68250E+00 0.00000E+00
 -1      2815 9.06240E+01 8.68250E+00 0.00000E+00
 -1      2816 8.98740E+01 9.98150E+00 0.00000E+00
 -1      2817 9.51240E+01 8.68250E+00 0.00000E+00
 -1      2818 9.36240E+01 8.68250E+00 0.00000E+00
 -1      2819 9.28740E+01 9.98150E+00 0.00000E+00
 -1      2820 9.81240E+01 8.68250E+00 0.00000E+00
 -1      2821 9.66240E+01 8.68250E+00 0.00000E+00
 -1      2822 9.58740E+01 9.98150E+00 0.00000E+00
 -1      2823 1.01124E+02 8.68250E+00 0.00000E+00
 -1      2824 9.96240E+01 8.68250E+00 0.00000E+00
 -1      2825 9.88740E+01 9.98150E+00 0.00000E+00
 -1      2826 1.04124E+02 8.68250E+00 0.00000E+00
 -1      2827 1.02624E+02 8.68250E+00 0.00000E+00
 -1      2828 1.01874E+02 9.98150E+00 0.00000E+00
 -1      2829 1.07124E+02 8.68250E+00 0.00000E+00
 -1      2830 1.05624E+02 8.68250E+00 0.00000E+00
 -1      2831 1.04874E+02 9.98150E+00 0.00000E+00
 -1      2832 1.10124E+02 8.68250E+00 0.00000E+00
 -1      2833 1.08624E+02 8.68250E+00 0.00000E+00
 -1      2834 1.07874E+02 9.98150E+00 0.00000E+00
 -1      2835 1.13124E+02 8.68250E+00 0.00000E+00
 -1      2836 1.11624E+02 8.68250E+00 0.00000E+00
 -1      2837 1.10874E+02 9.98150E+00 0.00000E+00
 -1      2838 1.16124E+02 8.68250E+00 0.00000E+00
 -1      2839 1.14624E+02 8.68250E+00 0.00000E+00
 -1      2840 1.13874E+02 9.98150E+00 0.00000E+00
 -1      2841 1.19124E+02 8.68250E+00 0.00000E+00
 -1      2842 1.17624E+02 8.68250E+00 0.00000E+00
 -1      2843 1.16874E+02 9.98150E+00 0.00000E+00
 -1      2844 1.22124E+02 8.68250E+00 0.00000E+00
 -1      2845 1.20624E+02 8.68250E+00 0.00000E+00
 -1      2846 1.19874E+02 9.98150E+00 0.00000E+00
 -1      2847 1.25124E+02 8.68250E+00 0.00000E+00
 -1      2848 1.23624E+02 8.68250E+00 0.00000E+00
 -1      2849 1.22874E+02 9.98150E+00 0.00000E+00
 -1      2850 1.28124E+02 8.68250E+00 0.00000E+00
 -1      2851 1.26624E+02 8.68250E+00 0.00000E+00
 -1      2852 1.25874E+02 9.98150E+00 0.00000E+00
 -1      2853 1.31124E+02 8.68250E+00 0.00000E+00
 -1      2854 1.29624E+02 8.68250E+00 0.00000E+00
 -1      2855 1.28874E+02 9.98150E+00 0.00000E+00
 -1      2856 1.34124E+02 8.68250E+00 0.00000E+00
 -1      2857 1.32624E+02 8.68250E+00 0.00000E+00
 -1      2858 1.31874E+02 9.98150E+00 0.00000E+00
 -1      2859 1.37124E+02 8.68250E+00 0.00000E+00
 -1      2860 1.35624E+02 8.68250E+00 0.00000E+00
 -1      2861 1.34874E+02 9.98150E+00 0.00000E+00
 -1      2862 1.40082E+02 8.76838E+00 0.00000E+00
 -1      2863 1.38582E+02 8.76838E+00 0.00000E+00
 -1      2864 1.37832E+02 1.00674E+01 0.00000E+00
 -1      2865 1.40748E+02 1.02391E+01 0.00000E+00
 -1      2866 1.40907E+02 2.13375E+01 0.00000E+00
 -1      2867 1.40907E+02 1.98625E+01 0.00000E+00
 -1      2868 1.19286E+02 3.45469E+01 0.00000E+00
 -1      2869 1.19360E+02 3.57283E+01 0.00000E+00
 -1      2870 1.01604E+02 2.67497E+01 0.00000E+00
 -1      2871 1.02682E+02 2.60901E+01 0.00000E+00
 -1      2872 1.40827E+02 1.28571E+01 0.00000E+00
 -1      2873 1.40827E+02 1.13821E+01 0.00000E+00
 -1      2874 1.39370E+02 1.12962E+01 0.00000E+00
 -1      2875 1.39529E+02 1.35821E+01 0.00000E+00
 -1      2876 1.40907E+02 2.42875E+01 0.00000E+00
 -1      2877 1.40907E+02 2.28125E+01 0.00000E+00
 -1      2878 1.39608E+02 2.20750E+01 0.00000E+00
 -1      2879 1.40907E+02 1.83937E+01 0.00000E+00
 -1      2880 1.40907E+02 1.69188E+01 0.00000E+00
 -1      2881 1.39608E+02 1.61938E+01 0.00000E+00
 -1      2882 1.39608E+02 1.91313E+01 0.00000E+00
 -1      2883 1.40907E+02 2.72375E+01 0.00000E+00
 -1      2884 1.40907E+02 2.57625E+01 0.00000E+00
 -1      2885 1.39608E+02 2.50250E+01 0.00000E+00
 -1      2886 1.40907E+02 3.01375E+01 0.00000E+00
 -1      2887 1.40907E+02 2.86875E+01 0.00000E+00
 -1      2888 1.39608E+02 2.79500E+01 0.00000E+00
 -1      2889 1.40907E+02 3.30875E+01 0.00000E+00
 -1      2890 1.40907E+02 3.16125E+01 0.00000E+00
 -1      2891 1.39608E+02 3.08750E+01 0.00000E+00
 -1      2892 1.40907E+02 3.60375E+01 0.00000E+00
 -1      2893 1.40907E+02 3.45625E+01 0.00000E+00
 -1      2894 1.39608E+02 3.38250E+01 0.00000E+00
 -1      2895 1.41068E+02 3.87523E+01 0.00000E+00
 -1      2896 1.41068E+02 3.72773E+01 0.00000E+00
 -1      2897 1.39769E+02 3.65398E+01 0.00000E+00
 -1      2898 1.40092E+02 3.90195E+01 0.00000E+00
 -1      2899 1.19431E+02 3.68865E+01 0.00000E+00
 -1      2900 1.19500E+02 3.80190E+01 0.00000E+00
 -1      2901 1.12338E+02 2.64699E+01 0.00000E+00
 -1      2902 1.13287E+02 2.69037E+01 0.00000E+00
 -1      2903 1.04224E+02 2.57268E+01 0.00000E+00
 -1      2904 1.05521E+02 2.54162E+01 0.00000E+00
 -1      2905 1.17189E+02 4.33187E+01 0.00000E+00
 -1      2906 1.18771E+02 3.16850E+01 0.00000E+00
 -1      2907 1.19103E+02 3.31026E+01 0.00000E+00
 -1      2908 9.09300E+00 1.68813E+01 0.00000E+00
 -1      2909 9.09300E+00 1.83563E+01 0.00000E+00
 -1      2910 1.03920E+01 1.90812E+01 0.00000E+00
 -1      2911 1.03920E+01 1.61437E+01 0.00000E+00
 -1      2912 1.19445E+02 4.24948E+01 0.00000E+00
 -1      2913 1.20945E+02 4.23273E+01 0.00000E+00
 -1      2914 9.57630E+01 4.16869E+01 0.00000E+00
 -1      2915 9.09300E+00 3.15875E+01 0.00000E+00
 -1      2916 9.09300E+00 3.30625E+01 0.00000E+00
 -1      2917 9.78200E+01 3.06151E+01 0.00000E+00
 -1      2918 9.84341E+01 2.97086E+01 0.00000E+00
 -1      2919 9.66122E+01 3.26179E+01 0.00000E+00
 -1      2920 9.72161E+01 3.16165E+01 0.00000E+00
 -1      2921 9.68131E+01 3.06824E+01 0.00000E+00
 -1      2922 9.55076E+01 3.78451E+01 0.00000E+00
 -1      2923 9.55920E+01 3.67501E+01 0.00000E+00
 -1      2924 9.57214E+01 3.53965E+01 0.00000E+00
 -1      2925 9.60262E+01 3.40415E+01 0.00000E+00
 -1      2926 1.17076E+02 2.87940E+01 0.00000E+00
 -1      2927 1.18056E+02 2.99334E+01 0.00000E+00
 -1      2928 1.14489E+02 2.73999E+01 0.00000E+00
 -1      2929 1.15690E+02 2.78960E+01 0.00000E+00
 -1      2930 1.14370E+02 2.64030E+01 0.00000E+00
 -1      2931 1.10282E+02 2.56054E+01 0.00000E+00
 -1      2932 1.11306E+02 2.59650E+01 0.00000E+00
 -1      2933 1.18331E+02 4.29977E+01 0.00000E+00
 -1      2934 9.50130E+01 4.03879E+01 0.00000E+00
 -1      2935 1.18976E+02 4.19784E+01 0.00000E+00
 -1      2936 9.09300E+00 3.45313E+01 0.00000E+00
 -1      2937 9.09300E+00 3.60000E+01 0.00000E+00
 -1      2938 1.03920E+01 3.37938E+01 0.00000E+00
 -1      2939 1.03920E+01 2.49750E+01 0.00000E+00
 -1      2940 9.09300E+00 2.57000E+01 0.00000E+00
 -1      2941 9.09300E+00 2.71750E+01 0.00000E+00
 -1      2942 9.00375E+00 8.96981E+00 0.00000E+00
 -1      2943 1.19162E+02 4.12291E+01 0.00000E+00
 -1      2944 1.21695E+02 4.12183E+01 0.00000E+00
 -1      2945 1.48740E+01 9.98151E+00 0.00000E+00
 -1      2946 1.41240E+01 8.68251E+00 0.00000E+00
 -1      2947 1.08746E+02 2.40784E+01 0.00000E+00
 -1      2948 1.09514E+02 2.48419E+01 0.00000E+00
 -1      2949 1.10338E+02 2.41335E+01 0.00000E+00
 -1      2950 1.20525E+02 3.85155E+01 0.00000E+00
 -1      2951 1.19746E+02 3.91313E+01 0.00000E+00
 -1      2952 1.00642E+02 2.66498E+01 0.00000E+00
 -1      2953 1.19954E+02 3.36423E+01 0.00000E+00
 -1      2954 1.20208E+02 3.62449E+01 0.00000E+00
 -1      2955 1.02076E+02 2.46377E+01 0.00000E+00
 -1      2956 1.03150E+02 2.51823E+01 0.00000E+00
 -1      2957 1.03618E+02 2.42745E+01 0.00000E+00
 -1      2958 1.06307E+02 2.48029E+01 0.00000E+00
 -1      2959 1.07094E+02 2.41896E+01 0.00000E+00
 -1      2960 1.05479E+02 2.42057E+01 0.00000E+00
 -1      2961 1.12137E+02 2.54019E+01 0.00000E+00
 -1      2962 1.30515E+01 8.34733E+00 0.00000E+00
 -1      2963 9.47684E+01 3.90300E+01 0.00000E+00
 -1      2964 1.16957E+02 2.77971E+01 0.00000E+00
 -1      2965 1.18225E+02 2.76981E+01 0.00000E+00
 -1      2966 1.16839E+02 2.68001E+01 0.00000E+00
 -1      2967 9.56232E+01 3.31073E+01 0.00000E+00
 -1      2968 9.52201E+01 3.21731E+01 0.00000E+00
 -1      2969 9.46341E+01 3.35966E+01 0.00000E+00
 -1      2970 1.19058E+02 3.04465E+01 0.00000E+00
 -1      2971 1.20059E+02 3.09596E+01 0.00000E+00
 -1      2972 1.19344E+02 2.92080E+01 0.00000E+00
 -1      2973 1.03027E+01 9.70731E+00 0.00000E+00
 -1      2974 9.49078E+01 3.58845E+01 0.00000E+00
 -1      2975 1.24800E+02 4.08774E+01 0.00000E+00
 -1      2976 9.09300E+00 2.86437E+01 0.00000E+00
 -1      2977 9.09300E+00 3.01187E+01 0.00000E+00
 -1      2978 1.03920E+01 3.08563E+01 0.00000E+00
 -1      2979 1.03920E+01 2.79188E+01 0.00000E+00
 -1      2980 9.85464E+01 2.87175E+01 0.00000E+00
 -1      2981 9.86588E+01 2.77265E+01 0.00000E+00
 -1      2982 9.75294E+01 2.86899E+01 0.00000E+00
 -1      2983 9.40392E+01 3.84231E+01 0.00000E+00
 -1      2984 1.19502E+02 4.03052E+01 0.00000E+00
 -1      2985 1.20431E+02 4.05517E+01 0.00000E+00
 -1      2986 1.16910E+01 1.24625E+01 0.00000E+00
 -1      2987 1.16910E+01 1.39375E+01 0.00000E+00
 -1      2988 1.14712E+01 7.20138E+00 0.00000E+00
 -1      2989 1.38309E+02 3.16125E+01 0.00000E+00
 -1      2990 1.38309E+02 3.01375E+01 0.00000E+00
 -1      2991 8.99606E+00 3.70363E+01 0.00000E+00
 -1      2992 9.02831E+00 3.82715E+01 0.00000E+00
 -1      2993 1.01012E+01 3.83715E+01 0.00000E+00
 -1      2994 1.02951E+01 3.62988E+01 0.00000E+00
 -1      2995 1.29000E+01 3.83090E+01 0.00000E+00
 -1      2996 1.44000E+01 3.83090E+01 0.00000E+00
 -1      2997 1.59000E+01 3.83090E+01 0.00000E+00
 -1      2998 1.74000E+01 3.83090E+01 0.00000E+00
 -1      2999 1.51500E+01 3.70100E+01 0.00000E+00
 -1      3000 1.89000E+01 3.83090E+01 0.00000E+00
 -1      3001 2.04000E+01 3.83090E+01 0.00000E+00
 -1      3002 1.81500E+01 3.70100E+01 0.00000E+00
 -1      3003 2.19000E+01 3.83090E+01 0.00000E+00
 -1      3004 2.34000E+01 3.83090E+01 0.00000E+00
 -1      3005 2.11500E+01 3.70100E+01 0.00000E+00
 -1      3006 2.49000E+01 3.83090E+01 0.00000E+00
 -1      3007 2.64000E+01 3.83090E+01 0.00000E+00
 -1      3008 2.41500E+01 3.70100E+01 0.00000E+00
 -1      3009 2.79000E+01 3.83090E+01 0.00000E+00
 -1      3010 2.94000E+01 3.83090E+01 0.00000E+00
 -1      3011 2.71500E+01 3.70100E+01 0.00000E+00
 -1      3012 3.09000E+01 3.83090E+01 0.00000E+00
 -1      3013 3.24000E+01 3.83090E+01 0.00000E+00
 -1      3014 3.01500E+01 3.70100E+01 0.00000E+00
 -1      3015 3.39000E+01 3.83090E+01 0.00000E+00
 -1      3016 3.54000E+01 3.83090E+01 0.00000E+00
 -1      3017 3.31500E+01 3.70100E+01 0.00000E+00
 -1      3018 3.69000E+01 3.83090E+01 0.00000E+00
 -1      3019 3.84000E+01 3.83090E+01 0.00000E+00
 -1      3020 3.61500E+01 3.70100E+01 0.00000E+00
 -1      3021 3.99000E+01 3.83090E+01 0.00000E+00
 -1      3022 4.14000E+01 3.83090E+01 0.00000E+00
 -1      3023 3.91500E+01 3.70100E+01 0.00000E+00
 -1      3024 4.29000E+01 3.83090E+01 0.00000E+00
 -1      3025 4.44000E+01 3.83090E+01 0.00000E+00
 -1      3026 4.21500E+01 3.70100E+01 0.00000E+00
 -1      3027 4.59000E+01 3.83090E+01 0.00000E+00
 -1      3028 4.74000E+01 3.83090E+01 0.00000E+00
 -1      3029 4.51500E+01 3.70100E+01 0.00000E+00
 -1      3030 4.89000E+01 3.83090E+01 0.00000E+00
 -1      3031 5.04000E+01 3.83090E+01 0.00000E+00
 -1      3032 4.81500E+01 3.70100E+01 0.00000E+00
 -1      3033 5.19000E+01 3.83090E+01 0.00000E+00
 -1      3034 5.34000E+01 3.83090E+01 0.00000E+00
 -1      3035 5.11500E+01 3.70100E+01 0.00000E+00
 -1      3036 5.49000E+01 3.83090E+01 0.00000E+00
 -1      3037 5.64000E+01 3.83090E+01 0.00000E+00
 -1      3038 5.41500E+01 3.70100E+01 0.00000E+00
 -1      3039 5.79000E+01 3.83090E+01 0.00000E+00
 -1      3040 5.94000E+01 3.83090E+01 0.00000E+00
 -1      3041 5.71500E+01 3.70100E+01 0.00000E+00
 -1      3042 6.09000E+01 3.83090E+01 0.00000E+00
 -1      3043 6.24000E+01 3.83090E+01 0.00000E+00
 -1      3044 6.01500E+01 3.70100E+01 0.00000E+00
 -1      3045 6.39000E+01 3.83090E+01 0.00000E+00
 -1      3046 6.54000E+01 3.83090E+01 0.00000E+00
 -1      3047 6.31500E+01 3.70100E+01 0.00000E+00
 -1      3048 6.69750E+01 3.83090E+01 0.00000E+00
 -1      3049 6.85500E+01 3.83090E+01 0.00000E+00
 -1      3050 6.62250E+01 3.70100E+01 0.00000E+00
 -1      3051 7.00500E+01 3.83090E+01 0.00000E+00
 -1      3052 7.15500E+01 3.83090E+01 0.00000E+00
 -1      3053 6.93000E+01 3.70100E+01 0.00000E+00
 -1      3054 7.30500E+01 3.83090E+01 0.00000E+00
 -1      3055 7.45500E+01 3.83090E+01 0.00000E+00
 -1      3056 7.23000E+01 3.70100E+01 0.00000E+00
 -1      3057 7.60500E+01 3.83090E+01 0.00000E+00
 -1      3058 7.75500E+01 3.83090E+01 0.00000E+00
 -1      3059 7.53000E+01 3.70100E+01 0.00000E+00
 -1      3060 7.90500E+01 3.83090E+01 0.00000E+00
 -1      3061 8.05500E+01 3.83090E+01 0.00000E+00
 -1      3062 7.83000E+01 3.70100E+01 0.00000E+00
 -1      3063 8.20500E+01 3.83090E+01 0.00000E+00
 -1      3064 8.35500E+01 3.83090E+01 0.00000E+00
 -1      3065 8.13000E+01 3.70100E+01 0.00000E+00
 -1      3066 8.50500E+01 3.83090E+01 0.00000E+00
 -1      3067 8.65500E+01 3.83090E+01 0.00000E+00
 -1      3068 8.43000E+01 3.70100E+01 0.00000E+00
 -1      3069 8.80500E+01 3.83090E+01 0.00000E+00
 -1      3070 8.95500E+01 3.83090E+01 0.00000E+00
 -1      3071 8.73000E+01 3.70100E+01 0.00000E+00
 -1      3072 9.10500E+01 3.83090E+01 0.00000E+00
 -1      3073 9.25500E+01 3.83090E+01 0.00000E+00
 -1      3074 9.03000E+01 3.70100E+01 0.00000E+00
 -1      3075 1.56240E+01 1.12805E+01 0.00000E+00
 -1      3076 1.41241E+01 1.12805E+01 0.00000E+00
 -1      3077 2.76240E+01 1.12805E+01 0.00000E+00
 -1      3078 2.61240E+01 1.12805E+01 0.00000E+00
 -1      3079 1.21404E+02 3.77382E+01 0.00000E+00
 -1      3080 1.21649E+02 3.88506E+01 0.00000E+00
 -1      3081 9.93241E+01 2.64718E+01 0.00000E+00
 -1      3082 1.00290E+02 2.53676E+01 0.00000E+00
 -1      3083 1.30050E+02 3.94946E+01 0.00000E+00
 -1      3084 1.31550E+02 3.94946E+01 0.00000E+00
 -1      3085 1.33050E+02 3.94946E+01 0.00000E+00
 -1      3086 1.34550E+02 3.94946E+01 0.00000E+00
 -1      3087 1.32300E+02 3.81956E+01 0.00000E+00
 -1      3088 1.36050E+02 3.94946E+01 0.00000E+00
 -1      3089 1.37550E+02 3.94946E+01 0.00000E+00
 -1      3090 1.35300E+02 3.81956E+01 0.00000E+00
 -1      3091 1.39115E+02 3.92866E+01 0.00000E+00
 -1      3092 3.36240E+01 1.12805E+01 0.00000E+00
 -1      3093 3.21240E+01 1.12805E+01 0.00000E+00
 -1      3094 3.66240E+01 1.12805E+01 0.00000E+00
 -1      3095 3.51240E+01 1.12805E+01 0.00000E+00
 -1      3096 3.43740E+01 1.25795E+01 0.00000E+00
 -1      3097 3.96240E+01 1.12805E+01 0.00000E+00
 -1      3098 3.81240E+01 1.12805E+01 0.00000E+00
 -1      3099 3.73740E+01 1.25795E+01 0.00000E+00
 -1      3100 4.26240E+01 1.12805E+01 0.00000E+00
 -1      3101 4.11240E+01 1.12805E+01 0.00000E+00
 -1      3102 4.03740E+01 1.25795E+01 0.00000E+00
 -1      3103 4.56240E+01 1.12805E+01 0.00000E+00
 -1      3104 4.41240E+01 1.12805E+01 0.00000E+00
 -1      3105 4.33740E+01 1.25795E+01 0.00000E+00
 -1      3106 4.86240E+01 1.12805E+01 0.00000E+00
 -1      3107 4.71240E+01 1.12805E+01 0.00000E+00
 -1      3108 4.63740E+01 1.25795E+01 0.00000E+00
 -1      3109 5.16240E+01 1.12805E+01 0.00000E+00
 -1      3110 5.01240E+01 1.12805E+01 0.00000E+00
 -1      3111 4.93740E+01 1.25795E+01 0.00000E+00
 -1      3112 5.46240E+01 1.12805E+01 0.00000E+00
 -1      3113 5.31240E+01 1.12805E+01 0.00000E+00
 -1      3114 5.23740E+01 1.25795E+01 0.00000E+00
 -1      3115 5.76240E+01 1.12805E+01 0.00000E+00
 -1      3116 5.61240E+01 1.12805E+01 0.00000E+00
 -1      3117 5.53740E+01 1.25795E+01 0.00000E+00
 -1      3118 6.06240E+01 1.12805E+01 0.00000E+00
 -1      3119 5.91240E+01 1.12805E+01 0.00000E+00
 -1      3120 5.83740E+01 1.25795E+01 0.00000E+00
 -1      3121 6.36240E+01 1.12805E+01 0.00000E+00
 -1      3122 6.21240E+01 1.12805E+01 0.00000E+00
 -1      3123 6.13740E+01 1.25795E+01 0.00000E+00
 -1      3124 6.66240E+01 1.12805E+01 0.00000E+00
 -1      3125 6.51240E+01 1.12805E+01 0.00000E+00
 -1      3126 6.43740E+01 1.25795E+01 0.00000E+00
 -1      3127 6.96240E+01 1.12805E+01 0.00000E+00
 -1      3128 6.81240E+01 1.12805E+01 0.00000E+00
 -1      3129 6.73740E+01 1.25795E+01 0.00000E+00
 -1      3130 7.26240E+01 1.12805E+01 0.00000E+00
 -1      3131 7.11240E+01 1.12805E+01 0.00000E+00
 -1      3132 7.03740E+01 1.25795E+01 0.00000E+00
 -1      3133 7.56240E+01 1.12805E+01 0.00000E+00
 -1      3134 7.41240E+01 1.12805E+01 0.00000E+00
 -1      3135 7.33740E+01 1.25795E+01 0.00000E+00
 -1      3136 7.86240E+01 1.12805E+01 0.00000E+00
 -1      3137 7.71240E+01 1.12805E+01 0.00000E+00
 -1      3138 7.63740E+01 1.25795E+01 0.00000E+00
 -1      3139 8.16240E+01 1.12805E+01 0.00000E+00
 -1      3140 8.01240E+01 1.12805E+01 0.00000E+00
 -1      3141 7.93740E+01 1.25795E+01 0.00000E+00
 -1      3142 8.46240E+01 1.12805E+01 0.00000E+00
 -1      3143 8.31240E+01 1.12805E+01 0.00000E+00
 -1      3144 8.23740E+01 1.25795E+01 0.00000E+00
 -1      3145 8.76240E+01 1.12805E+01 0.00000E+00
 -1      3146 8.61240E+01 1.12805E+01 0.00000E+00
 -1      3147 8.53740E+01 1.25795E+01 0.00000E+00
 -1      3148 9.06240E+01 1.12805E+01 0.00000E+00
 -1      3149 8.91240E+01 1.12805E+01 0.00000E+00
 -1      3150 8.83740E+01 1.25795E+01 0.00000E+00
 -1      3151 9.36240E+01 1.12805E+01 0.00000E+00
 -1      3152 9.21240E+01 1.12805E+01 0.00000E+00
 -1      3153 9.13740E+01 1.25795E+01 0.00000E+00
 -1      3154 9.66240E+01 1.12805E+01 0.00000E+00
 -1      3155 9.51240E+01 1.12805E+01 0.00000E+00
 -1      3156 9.43740E+01 1.25795E+01 0.00000E+00
 -1      3157 9.96240E+01 1.12805E+01 0.00000E+00
 -1      3158 9.81240E+01 1.12805E+01 0.00000E+00
 -1      3159 9.73740E+01 1.25795E+01 0.00000E+00
 -1      3160 1.02624E+02 1.12805E+01 0.00000E+00
 -1      3161 1.01124E+02 1.12805E+01 0.00000E+00
 -1      3162 1.00374E+02 1.25795E+01 0.00000E+00
 -1      3163 1.05624E+02 1.12805E+01 0.00000E+00
 -1      3164 1.04124E+02 1.12805E+01 0.00000E+00
 -1      3165 1.03374E+02 1.25795E+01 0.00000E+00
 -1      3166 1.08624E+02 1.12805E+01 0.00000E+00
 -1      3167 1.07124E+02 1.12805E+01 0.00000E+00
 -1      3168 1.06374E+02 1.25795E+01 0.00000E+00
 -1      3169 1.11624E+02 1.12805E+01 0.00000E+00
 -1      3170 1.10124E+02 1.12805E+01 0.00000E+00
 -1      3171 1.09374E+02 1.25795E+01 0.00000E+00
 -1      3172 1.14624E+02 1.12805E+01 0.00000E+00
 -1      3173 1.13124E+02 1.12805E+01 0.00000E+00
 -1      3174 1.12374E+02 1.25795E+01 0.00000E+00
 -1      3175 1.17624E+02 1.12805E+01 0.00000E+00
 -1      3176 1.16124E+02 1.12805E+01 0.00000E+00
 -1      3177 1.15374E+02 1.25795E+01 0.00000E+00
 -1      3178 1.20624E+02 1.12805E+01 0.00000E+00
 -1      3179 1.19124E+02 1.12805E+01 0.00000E+00
 -1      3180 1.18374E+02 1.25795E+01 0.00000E+00
 -1      3181 1.23624E+02 1.12805E+01 0.00000E+00
 -1      3182 1.22124E+02 1.12805E+01 0.00000E+00
 -1      3183 1.21374E+02 1.25795E+01 0.00000E+00
 -1      3184 1.26624E+02 1.12805E+01 0.00000E+00
 -1      3185 1.25124E+02 1.12805E+01 0.00000E+00
 -1      3186 1.24374E+02 1.25795E+01 0.00000E+00
 -1      3187 1.29624E+02 1.12805E+01 0.00000E+00
 -1      3188 1.28124E+02 1.12805E+01 0.00000E+00
 -1      3189 1.27374E+02 1.25795E+01 0.00000E+00
 -1      3190 1.32624E+02 1.12805E+01 0.00000E+00
 -1      3191 1.31124E+02 1.12805E+01 0.00000E+00
 -1      3192 1.30374E+02 1.25795E+01 0.00000E+00
 -1      3193 1.35624E+02 1.12805E+01 0.00000E+00
 -1      3194 1.34124E+02 1.12805E+01 0.00000E+00
 -1      3195 1.33374E+02 1.25795E+01 0.00000E+00
 -1      3196 1.38226E+02 1.13313E+01 0.00000E+00
 -1      3197 1.36768E+02 1.12454E+01 0.00000E+00
 -1      3198 1.36018E+02 1.25444E+01 0.00000E+00
 -1      3199 1.38305E+02 1.24742E+01 0.00000E+00
 -1      3200 1.38309E+02 2.86875E+01 0.00000E+00
 -1      3201 1.38309E+02 2.72375E+01 0.00000E+00
 -1      3202 1.37010E+02 2.94250E+01 0.00000E+00
 -1      3203 1.38309E+02 3.45625E+01 0.00000E+00
 -1      3204 1.38309E+02 3.30875E+01 0.00000E+00
 -1      3205 1.37010E+02 3.23500E+01 0.00000E+00
 -1      3206 1.17938E+01 8.83558E+00 0.00000E+00
 -1      3207 1.12035E+02 2.43039E+01 0.00000E+00
 -1      3208 1.13067E+02 2.48089E+01 0.00000E+00
 -1      3209 1.14268E+02 2.53050E+01 0.00000E+00
 -1      3210 1.15470E+02 2.58012E+01 0.00000E+00
 -1      3211 1.14166E+02 2.42071E+01 0.00000E+00
 -1      3212 1.38309E+02 2.57625E+01 0.00000E+00
 -1      3213 1.38309E+02 2.42875E+01 0.00000E+00
 -1      3214 1.37010E+02 2.65000E+01 0.00000E+00
 -1      3215 1.23983E+02 3.97284E+01 0.00000E+00
 -1      3216 1.25483E+02 3.96447E+01 0.00000E+00
 -1      3217 1.27050E+02 3.94946E+01 0.00000E+00
 -1      3218 1.28550E+02 3.94946E+01 0.00000E+00
 -1      3219 1.29300E+02 3.81956E+01 0.00000E+00
 -1      3220 1.22036E+02 4.02945E+01 0.00000E+00
 -1      3221 9.32892E+01 3.71241E+01 0.00000E+00
 -1      3222 3.06240E+01 1.12805E+01 0.00000E+00
 -1      3223 2.91240E+01 1.12805E+01 0.00000E+00
 -1      3224 2.83740E+01 1.25795E+01 0.00000E+00
 -1      3225 3.13740E+01 1.25795E+01 0.00000E+00
 -1      3226 9.57050E+01 3.06969E+01 0.00000E+00
 -1      3227 9.63090E+01 2.96955E+01 0.00000E+00
 -1      3228 1.38309E+02 2.28125E+01 0.00000E+00
 -1      3229 1.38309E+02 2.13375E+01 0.00000E+00
 -1      3230 1.37010E+02 2.35500E+01 0.00000E+00
 -1      3231 1.18830E+01 1.08533E+01 0.00000E+00
 -1      3232 1.86240E+01 1.12805E+01 0.00000E+00
 -1      3233 1.71240E+01 1.12805E+01 0.00000E+00
 -1      3234 1.63741E+01 1.25795E+01 0.00000E+00
 -1      3235 1.16910E+01 2.12875E+01 0.00000E+00
 -1      3236 1.16910E+01 2.27625E+01 0.00000E+00
 -1      3237 1.20880E+02 3.27918E+01 0.00000E+00
 -1      3238 1.21063E+02 3.42361E+01 0.00000E+00
 -1      3239 9.38969E+01 3.60372E+01 0.00000E+00
 -1      3240 9.40264E+01 3.46835E+01 0.00000E+00
 -1      3241 9.36233E+01 3.37493E+01 0.00000E+00
 -1      3242 9.24078E+01 3.59231E+01 0.00000E+00
 -1      3243 1.21197E+02 3.54080E+01 0.00000E+00
 -1      3244 1.21269E+02 3.65663E+01 0.00000E+00
 -1      3245 1.22393E+02 3.69014E+01 0.00000E+00
 -1      3246 1.22123E+02 3.45575E+01 0.00000E+00
 -1      3247 1.22914E+02 3.95173E+01 0.00000E+00
 -1      3248 1.16910E+01 2.42375E+01 0.00000E+00
 -1      3249 1.16910E+01 2.57125E+01 0.00000E+00
 -1      3250 1.29900E+01 2.35000E+01 0.00000E+00
 -1      3251 1.31820E+01 1.15908E+01 0.00000E+00
 -1      3252 1.11741E+01 3.84716E+01 0.00000E+00
 -1      3253 1.39320E+01 1.28898E+01 0.00000E+00
 -1      3254 1.07918E+02 2.34812E+01 0.00000E+00
 -1      3255 1.08742E+02 2.27728E+01 0.00000E+00
 -1      3256 1.07089E+02 2.28840E+01 0.00000E+00
 -1      3257 2.53740E+01 1.25795E+01 0.00000E+00
 -1      3258 2.46240E+01 1.12805E+01 0.00000E+00
 -1      3259 2.31240E+01 1.12805E+01 0.00000E+00
 -1      3260 1.10500E+02 2.27769E+01 0.00000E+00
 -1      3261 1.11268E+02 2.35404E+01 0.00000E+00
 -1      3262 1.12197E+02 2.29474E+01 0.00000E+00
 -1      3263 9.94407E+01 2.42818E+01 0.00000E+00
 -1      3264 1.00758E+02 2.44598E+01 0.00000E+00
 -1      3265 1.01227E+02 2.35519E+01 0.00000E+00
 -1      3266 1.38365E+02 3.79876E+01 0.00000E+00
 -1      3267 2.16240E+01 1.12805E+01 0.00000E+00
 -1      3268 2.01240E+01 1.12805E+01 0.00000E+00
 -1      3269 1.93741E+01 1.25795E+01 0.00000E+00
 -1      3270 2.23740E+01 1.25795E+01 0.00000E+00
 -1      3271 1.26233E+02 3.83457E+01 0.00000E+00
 -1      3272 1.38309E+02 1.69281E+01 0.00000E+00
 -1      3273 1.38309E+02 1.54594E+01 0.00000E+00
 -1      3274 1.04405E+02 2.36612E+01 0.00000E+00
 -1      3275 1.05191E+02 2.30479E+01 0.00000E+00
 -1      3276 1.03331E+02 2.31166E+01 0.00000E+00
 -1      3277 1.16910E+01 1.54063E+01 0.00000E+00
 -1      3278 1.16910E+01 1.68750E+01 0.00000E+00
 -1      3279 1.29900E+01 1.46687E+01 0.00000E+00
 -1      3280 1.38309E+02 1.98656E+01 0.00000E+00
 -1      3281 1.38309E+02 1.83969E+01 0.00000E+00
 -1      3282 1.37010E+02 1.76625E+01 0.00000E+00
 -1      3283 1.38418E+02 3.68950E+01 0.00000E+00
 -1      3284 1.38257E+02 3.56552E+01 0.00000E+00
 -1      3285 1.36958E+02 3.49177E+01 0.00000E+00
 -1      3286 1.36852E+02 3.71030E+01 0.00000E+00
 -1      3287 9.53133E+01 2.87190E+01 0.00000E+00
 -1      3288 9.64213E+01 2.87045E+01 0.00000E+00
 -1      3289 9.65337E+01 2.77134E+01 0.00000E+00
 -1      3290 1.16737E+02 2.57022E+01 0.00000E+00
 -1      3291 1.18004E+02 2.56032E+01 0.00000E+00
 -1      3292 1.16635E+02 2.46042E+01 0.00000E+00
 -1      3293 1.16910E+01 3.30594E+01 0.00000E+00
 -1      3294 1.16910E+01 3.45281E+01 0.00000E+00
 -1      3295 1.19107E+02 2.72142E+01 0.00000E+00
 -1      3296 1.19226E+02 2.82111E+01 0.00000E+00
 -1      3297 1.20227E+02 2.87242E+01 0.00000E+00
 -1      3298 1.38385E+02 1.36172E+01 0.00000E+00
 -1      3299 1.23597E+02 3.82845E+01 0.00000E+00
 -1      3300 9.83071E+01 2.64442E+01 0.00000E+00
 -1      3301 1.16910E+01 1.83469E+01 0.00000E+00
 -1      3302 1.16910E+01 1.98156E+01 0.00000E+00
 -1      3303 1.29900E+01 2.05531E+01 0.00000E+00
 -1      3304 1.29900E+01 1.76094E+01 0.00000E+00
 -1      3305 1.16910E+01 3.01219E+01 0.00000E+00
 -1      3306 1.16910E+01 3.15906E+01 0.00000E+00
 -1      3307 1.29900E+01 3.23250E+01 0.00000E+00
 -1      3308 1.19241E+01 3.71726E+01 0.00000E+00
 -1      3309 1.37010E+02 2.06031E+01 0.00000E+00
 -1      3310 9.47160E+01 3.11863E+01 0.00000E+00
 -1      3311 1.21453E+02 3.03149E+01 0.00000E+00
 -1      3312 1.21167E+02 3.15533E+01 0.00000E+00
 -1      3313 1.22275E+02 3.21471E+01 0.00000E+00
 -1      3314 1.37086E+02 1.43515E+01 0.00000E+00
 -1      3315 1.71241E+01 1.38785E+01 0.00000E+00
 -1      3316 1.56241E+01 1.38785E+01 0.00000E+00
 -1      3317 1.35711E+02 2.13391E+01 0.00000E+00
 -1      3318 1.35711E+02 1.98672E+01 0.00000E+00
 -1      3319 1.47780E+01 1.41185E+01 0.00000E+00
 -1      3320 1.38360E+01 1.44288E+01 0.00000E+00
 -1      3321 1.38360E+01 1.58975E+01 0.00000E+00
 -1      3322 1.55280E+01 1.54175E+01 0.00000E+00
 -1      3323 1.44000E+01 3.57110E+01 0.00000E+00
 -1      3324 1.59000E+01 3.57110E+01 0.00000E+00
 -1      3325 1.74000E+01 3.57110E+01 0.00000E+00
 -1      3326 1.89000E+01 3.57110E+01 0.00000E+00
 -1      3327 1.66500E+01 3.44120E+01 0.00000E+00
 -1      3328 2.04000E+01 3.57110E+01 0.00000E+00
 -1      3329 2.19000E+01 3.57110E+01 0.00000E+00
 -1      3330 1.96500E+01 3.44120E+01 0.00000E+00
 -1      3331 2.34000E+01 3.57110E+01 0.00000E+00
 -1      3332 2.49000E+01 3.57110E+01 0.00000E+00
 -1      3333 2.26500E+01 3.44120E+01 0.00000E+00
 -1      3334 2.64000E+01 3.57110E+01 0.00000E+00
 -1      3335 2.79000E+01 3.57110E+01 0.00000E+00
 -1      3336 2.56500E+01 3.44120E+01 0.00000E+00
 -1      3337 2.94000E+01 3.57110E+01 0.00000E+00
 -1      3338 3.09000E+01 3.57110E+01 0.00000E+00
 -1      3339 2.86500E+01 3.44120E+01 0.00000E+00
 -1      3340 3.24000E+01 3.57110E+01 0.00000E+00
 -1      3341 3.39000E+01 3.57110E+01 0.00000E+00
 -1      3342 3.16500E+01 3.44120E+01 0.00000E+00
 -1      3343 3.54000E+01 3.57110E+01 0.00000E+00
 -1      3344 3.69000E+01 3.57110E+01 0.00000E+00
 -1      3345 3.46500E+01 3.44120E+01 0.00000E+00
 -1      3346 3.84000E+01 3.57110E+01 0.00000E+00
 -1      3347 3.99000E+01 3.57110E+01 0.00000E+00
 -1      3348 3.76500E+01 3.44120E+01 0.00000E+00
 -1      3349 4.14000E+01 3.57110E+01 0.00000E+00
 -1      3350 4.29000E+01 3.57110E+01 0.00000E+00
 -1      3351 4.06500E+01 3.44120E+01 0.00000E+00
 -1      3352 4.44000E+01 3.57110E+01 0.00000E+00
 -1      3353 4.59000E+01 3.57110E+01 0.00000E+00
 -1      3354 4.36500E+01 3.44120E+01 0.00000E+00
 -1      3355 4.74000E+01 3.57110E+01 0.00000E+00
 -1      3356 4.89000E+01 3.57110E+01 0.00000E+00
 -1      3357 4.66500E+01 3.44120E+01 0.00000E+00
 -1      3358 5.04000E+01 3.57110E+01 0.00000E+00
 -1      3359 5.19000E+01 3.57110E+01 0.00000E+00
 -1      3360 4.96500E+01 3.44120E+01 0.00000E+00
 -1      3361 5.34000E+01 3.57110E+01 0.00000E+00
 -1      3362 5.49000E+01 3.57110E+01 0.00000E+00
 -1      3363 5.26500E+01 3.44120E+01 0.00000E+00
 -1      3364 5.64000E+01 3.57110E+01 0.00000E+00
 -1      3365 5.79000E+01 3.57110E+01 0.00000E+00
 -1      3366 5.56500E+01 3.44120E+01 0.00000E+00
 -1      3367 5.94000E+01 3.57110E+01 0.00000E+00
 -1      3368 6.09000E+01 3.57110E+01 0.00000E+00
 -1      3369 5.86500E+01 3.44120E+01 0.00000E+00
 -1      3370 6.24000E+01 3.57110E+01 0.00000E+00
 -1      3371 6.39000E+01 3.57110E+01 0.00000E+00
 -1      3372 6.16500E+01 3.44120E+01 0.00000E+00
 -1      3373 6.54750E+01 3.57110E+01 0.00000E+00
 -1      3374 6.70500E+01 3.57110E+01 0.00000E+00
 -1      3375 6.47250E+01 3.44120E+01 0.00000E+00
 -1      3376 6.85500E+01 3.57110E+01 0.00000E+00
 -1      3377 7.00500E+01 3.57110E+01 0.00000E+00
 -1      3378 6.78000E+01 3.44120E+01 0.00000E+00
 -1      3379 7.15500E+01 3.57110E+01 0.00000E+00
 -1      3380 7.30500E+01 3.57110E+01 0.00000E+00
 -1      3381 7.08000E+01 3.44120E+01 0.00000E+00
 -1      3382 7.45500E+01 3.57110E+01 0.00000E+00
 -1      3383 7.60500E+01 3.57110E+01 0.00000E+00
 -1      3384 7.38000E+01 3.44120E+01 0.00000E+00
 -1      3385 7.75500E+01 3.57110E+01 0.00000E+00
 -1      3386 7.90500E+01 3.57110E+01 0.00000E+00
 -1      3387 7.68000E+01 3.44120E+01 0.00000E+00
 -1      3388 8.05500E+01 3.57110E+01 0.00000E+00
 -1      3389 8.20500E+01 3.57110E+01 0.00000E+00
 -1      3390 7.98000E+01 3.44120E+01 0.00000E+00
 -1      3391 8.35500E+01 3.57110E+01 0.00000E+00
 -1      3392 8.50500E+01 3.57110E+01 0.00000E+00
 -1      3393 8.28000E+01 3.44120E+01 0.00000E+00
 -1      3394 8.65500E+01 3.57110E+01 0.00000E+00
 -1      3395 8.80500E+01 3.57110E+01 0.00000E+00
 -1      3396 8.58000E+01 3.44120E+01 0.00000E+00
 -1      3397 8.94789E+01 3.58171E+01 0.00000E+00
 -1      3398 9.09789E+01 3.58171E+01 0.00000E+00
 -1      3399 9.15867E+01 3.47302E+01 0.00000E+00
 -1      3400 8.87289E+01 3.45181E+01 0.00000E+00
 -1      3401 1.33852E+02 3.71030E+01 0.00000E+00
 -1      3402 1.35352E+02 3.71030E+01 0.00000E+00
 -1      3403 1.35405E+02 3.60103E+01 0.00000E+00
 -1      3404 4.11240E+01 1.38785E+01 0.00000E+00
 -1      3405 3.96240E+01 1.38785E+01 0.00000E+00
 -1      3406 3.81240E+01 1.38785E+01 0.00000E+00
 -1      3407 3.66240E+01 1.38785E+01 0.00000E+00
 -1      3408 3.88740E+01 1.51775E+01 0.00000E+00
 -1      3409 3.51240E+01 1.38785E+01 0.00000E+00
 -1      3410 3.36240E+01 1.38785E+01 0.00000E+00
 -1      3411 3.58740E+01 1.51775E+01 0.00000E+00
 -1      3412 4.41240E+01 1.38785E+01 0.00000E+00
 -1      3413 4.26240E+01 1.38785E+01 0.00000E+00
 -1      3414 4.18740E+01 1.51775E+01 0.00000E+00
 -1      3415 4.71240E+01 1.38785E+01 0.00000E+00
 -1      3416 4.56240E+01 1.38785E+01 0.00000E+00
 -1      3417 4.48740E+01 1.51775E+01 0.00000E+00
 -1      3418 5.01240E+01 1.38785E+01 0.00000E+00
 -1      3419 4.86240E+01 1.38785E+01 0.00000E+00
 -1      3420 4.78740E+01 1.51775E+01 0.00000E+00
 -1      3421 5.31240E+01 1.38785E+01 0.00000E+00
 -1      3422 5.16240E+01 1.38785E+01 0.00000E+00
 -1      3423 5.08740E+01 1.51775E+01 0.00000E+00
 -1      3424 5.61240E+01 1.38785E+01 0.00000E+00
 -1      3425 5.46240E+01 1.38785E+01 0.00000E+00
 -1      3426 5.38740E+01 1.51775E+01 0.00000E+00
 -1      3427 5.91240E+01 1.38785E+01 0.00000E+00
 -1      3428 5.76240E+01 1.38785E+01 0.00000E+00
 -1      3429 5.68740E+01 1.51775E+01 0.00000E+00
 -1      3430 6.21240E+01 1.38785E+01 0.00000E+00
 -1      3431 6.06240E+01 1.38785E+01 0.00000E+00
 -1      3432 5.98740E+01 1.51775E+01 0.00000E+00
 -1      3433 6.51240E+01 1.38785E+01 0.00000E+00
 -1      3434 6.36240E+01 1.38785E+01 0.00000E+00
 -1      3435 6.28740E+01 1.51775E+01 0.00000E+00
 -1      3436 6.81240E+01 1.38785E+01 0.00000E+00
 -1      3437 6.66240E+01 1.38785E+01 0.00000E+00
 -1      3438 6.58740E+01 1.51775E+01 0.00000E+00
 -1      3439 7.11240E+01 1.38785E+01 0.00000E+00
 -1      3440 6.96240E+01 1.38785E+01 0.00000E+00
 -1      3441 6.88740E+01 1.51775E+01 0.00000E+00
 -1      3442 7.41240E+01 1.38785E+01 0.00000E+00
 -1      3443 7.26240E+01 1.38785E+01 0.00000E+00
 -1      3444 7.18740E+01 1.51775E+01 0.00000E+00
 -1      3445 7.71240E+01 1.38785E+01 0.00000E+00
 -1      3446 7.56240E+01 1.38785E+01 0.00000E+00
 -1      3447 7.48740E+01 1.51775E+01 0.00000E+00
 -1      3448 8.01240E+01 1.38785E+01 0.00000E+00
 -1      3449 7.86240E+01 1.38785E+01 0.00000E+00
 -1      3450 7.78740E+01 1.51775E+01 0.00000E+00
 -1      3451 8.31240E+01 1.38785E+01 0.00000E+00
 -1      3452 8.16240E+01 1.38785E+01 0.00000E+00
 -1      3453 8.08740E+01 1.51775E+01 0.00000E+00
 -1      3454 8.61240E+01 1.38785E+01 0.00000E+00
 -1      3455 8.46240E+01 1.38785E+01 0.00000E+00
 -1      3456 8.38740E+01 1.51775E+01 0.00000E+00
 -1      3457 8.91240E+01 1.38785E+01 0.00000E+00
 -1      3458 8.76240E+01 1.38785E+01 0.00000E+00
 -1      3459 8.68740E+01 1.51775E+01 0.00000E+00
 -1      3460 9.21240E+01 1.38785E+01 0.00000E+00
 -1      3461 9.06240E+01 1.38785E+01 0.00000E+00
 -1      3462 8.98740E+01 1.51775E+01 0.00000E+00
 -1      3463 9.51240E+01 1.38785E+01 0.00000E+00
 -1      3464 9.36240E+01 1.38785E+01 0.00000E+00
 -1      3465 9.28740E+01 1.51775E+01 0.00000E+00
 -1      3466 9.81240E+01 1.38785E+01 0.00000E+00
 -1      3467 9.66240E+01 1.38785E+01 0.00000E+00
 -1      3468 9.58740E+01 1.51775E+01 0.00000E+00
 -1      3469 1.01124E+02 1.38785E+01 0.00000E+00
 -1      3470 9.96240E+01 1.38785E+01 0.00000E+00
 -1      3471 9.88740E+01 1.51775E+01 0.00000E+00
 -1      3472 1.04124E+02 1.38785E+01 0.00000E+00
 -1      3473 1.02624E+02 1.38785E+01 0.00000E+00
 -1      3474 1.01874E+02 1.51775E+01 0.00000E+00
 -1      3475 1.07124E+02 1.38785E+01 0.00000E+00
 -1      3476 1.05624E+02 1.38785E+01 0.00000E+00
 -1      3477 1.04874E+02 1.51775E+01 0.00000E+00
 -1      3478 1.10124E+02 1.38785E+01 0.00000E+00
 -1      3479 1.08624E+02 1.38785E+01 0.00000E+00
 -1      3480 1.07874E+02 1.51775E+01 0.00000E+00
 -1      3481 1.13124E+02 1.38785E+01 0.00000E+00
 -1      3482 1.11624E+02 1.38785E+01 0.00000E+00
 -1      3483 1.10874E+02 1.51775E+01 0.00000E+00
 -1      3484 1.16124E+02 1.38785E+01 0.00000E+00
 -1      3485 1.14624E+02 1.38785E+01 0.00000E+00
 -1      3486 1.13874E+02 1.51775E+01 0.00000E+00
 -1      3487 1.19124E+02 1.38785E+01 0.00000E+00
 -1      3488 1.17624E+02 1.38785E+01 0.00000E+00
 -1      3489 1.16874E+02 1.51775E+01 0.00000E+00
 -1      3490 1.22124E+02 1.38785E+01 0.00000E+00
 -1      3491 1.20624E+02 1.38785E+01 0.00000E+00
 -1      3492 1.19874E+02 1.51775E+01 0.00000E+00
 -1      3493 1.25124E+02 1.38785E+01 0.00000E+00
 -1      3494 1.23624E+02 1.38785E+01 0.00000E+00
 -1      3495 1.22874E+02 1.51775E+01 0.00000E+00
 -1      3496 1.28124E+02 1.38785E+01 0.00000E+00
 -1      3497 1.26624E+02 1.38785E+01 0.00000E+00
 -1      3498 1.25874E+02 1.51775E+01 0.00000E+00
 -1      3499 1.31124E+02 1.38785E+01 0.00000E+00
 -1      3500 1.29624E+02 1.38785E+01 0.00000E+00
 -1      3501 1.28874E+02 1.51775E+01 0.00000E+00
 -1      3502 1.34124E+02 1.38785E+01 0.00000E+00
 -1      3503 1.32624E+02 1.38785E+01 0.00000E+00
 -1      3504 1.31874E+02 1.51775E+01 0.00000E+00
 -1      3505 1.35942E+02 1.43866E+01 0.00000E+00
 -1      3506 1.35711E+02 3.01500E+01 0.00000E+00
 -1      3507 1.35711E+02 2.87000E+01 0.00000E+00
 -1      3508 1.23462E+02 3.71126E+01 0.00000E+00
 -1      3509 1.24532E+02 3.73238E+01 0.00000E+00
 -1      3510 1.23328E+02 3.59406E+01 0.00000E+00
 -1      3511 9.34996E+01 3.16044E+01 0.00000E+00
 -1      3512 9.39845E+01 3.01283E+01 0.00000E+00
 -1      3513 1.26099E+02 3.71737E+01 0.00000E+00
 -1      3514 1.27665E+02 3.70237E+01 0.00000E+00
 -1      3515 1.25964E+02 3.60018E+01 0.00000E+00
 -1      3516 1.13989E+02 2.29340E+01 0.00000E+00
 -1      3517 1.15190E+02 2.34302E+01 0.00000E+00
 -1      3518 1.35711E+02 1.83984E+01 0.00000E+00
 -1      3519 1.35711E+02 1.69297E+01 0.00000E+00
 -1      3520 1.34412E+02 1.91344E+01 0.00000E+00
 -1      3521 1.35711E+02 3.31000E+01 0.00000E+00
 -1      3522 1.35711E+02 3.16250E+01 0.00000E+00
 -1      3523 1.34412E+02 3.09000E+01 0.00000E+00
 -1      3524 1.20210E+01 3.61362E+01 0.00000E+00
 -1      3525 1.35711E+02 2.72250E+01 0.00000E+00
 -1      3526 1.35711E+02 2.57500E+01 0.00000E+00
 -1      3527 1.34412E+02 2.79500E+01 0.00000E+00
 -1      3528 1.30852E+02 3.71030E+01 0.00000E+00
 -1      3529 1.32352E+02 3.71030E+01 0.00000E+00
 -1      3530 1.32405E+02 3.60103E+01 0.00000E+00
 -1      3531 1.16910E+01 2.71844E+01 0.00000E+00
 -1      3532 1.16910E+01 2.86531E+01 0.00000E+00
 -1      3533 1.29900E+01 2.93875E+01 0.00000E+00
 -1      3534 1.28509E+02 3.70633E+01 0.00000E+00
 -1      3535 1.30009E+02 3.70633E+01 0.00000E+00
 -1      3536 1.30061E+02 3.59707E+01 0.00000E+00
 -1      3537 1.28374E+02 3.58914E+01 0.00000E+00
 -1      3538 1.35711E+02 2.42820E+01 0.00000E+00
 -1      3539 1.35711E+02 2.28070E+01 0.00000E+00
 -1      3540 1.34412E+02 2.20711E+01 0.00000E+00
 -1      3541 1.34412E+02 2.50070E+01 0.00000E+00
 -1      3542 9.71990E+01 2.64588E+01 0.00000E+00
 -1      3543 9.78644E+01 2.52042E+01 0.00000E+00
 -1      3544 9.60910E+01 2.64734E+01 0.00000E+00
 -1      3545 1.06015E+02 2.23395E+01 0.00000E+00
 -1      3546 1.06839E+02 2.16311E+01 0.00000E+00
 -1      3547 1.04941E+02 2.17949E+01 0.00000E+00
 -1      3548 2.61240E+01 1.38785E+01 0.00000E+00
 -1      3549 2.46240E+01 1.38785E+01 0.00000E+00
 -1      3550 1.08843E+02 2.15826E+01 0.00000E+00
 -1      3551 1.09671E+02 2.21798E+01 0.00000E+00
 -1      3552 1.10601E+02 2.15867E+01 0.00000E+00
 -1      3553 9.83327E+01 2.42964E+01 0.00000E+00
 -1      3554 9.88009E+01 2.33885E+01 0.00000E+00
 -1      3555 9.72246E+01 2.43109E+01 0.00000E+00
 -1      3556 1.29900E+01 2.64469E+01 0.00000E+00
 -1      3557 2.01240E+01 1.38785E+01 0.00000E+00
 -1      3558 1.86241E+01 1.38785E+01 0.00000E+00
 -1      3559 1.78741E+01 1.51775E+01 0.00000E+00
 -1      3560 1.12454E+02 2.14070E+01 0.00000E+00
 -1      3561 1.13221E+02 2.21705E+01 0.00000E+00
 -1      3562 1.14245E+02 2.13937E+01 0.00000E+00
 -1      3563 1.35192E+02 1.56856E+01 0.00000E+00
 -1      3564 1.33200E+01 3.54019E+01 0.00000E+00
 -1      3565 1.16280E+02 2.20582E+01 0.00000E+00
 -1      3566 1.16458E+02 2.33312E+01 0.00000E+00
 -1      3567 1.17725E+02 2.32322E+01 0.00000E+00
 -1      3568 1.35532E+02 3.51015E+01 0.00000E+00
 -1      3569 1.35584E+02 3.40088E+01 0.00000E+00
 -1      3570 1.34285E+02 3.32838E+01 0.00000E+00
 -1      3571 1.34032E+02 3.51015E+01 0.00000E+00
 -1      3572 9.40969E+01 2.91372E+01 0.00000E+00
 -1      3573 9.42092E+01 2.81462E+01 0.00000E+00
 -1      3574 9.28805E+01 2.95554E+01 0.00000E+00
 -1      3575 1.40700E+01 3.41029E+01 0.00000E+00
 -1      3576 3.28740E+01 1.51775E+01 0.00000E+00
 -1      3577 3.21240E+01 1.38785E+01 0.00000E+00
 -1      3578 3.06240E+01 1.38785E+01 0.00000E+00
 -1      3579 1.33893E+02 1.64216E+01 0.00000E+00
 -1      3580 1.19005E+02 2.61163E+01 0.00000E+00
 -1      3581 1.20007E+02 2.66293E+01 0.00000E+00
 -1      3582 1.18903E+02 2.50183E+01 0.00000E+00
 -1      3583 1.40700E+01 3.11654E+01 0.00000E+00
 -1      3584 1.40700E+01 3.26341E+01 0.00000E+00
 -1      3585 1.51500E+01 3.29432E+01 0.00000E+00
 -1      3586 1.00727E+02 2.22810E+01 0.00000E+00
 -1      3587 1.02045E+02 2.24590E+01 0.00000E+00
 -1      3588 1.21217E+02 2.83211E+01 0.00000E+00
 -1      3589 1.21335E+02 2.93180E+01 0.00000E+00
 -1      3590 1.22443E+02 2.99117E+01 0.00000E+00
 -1      3591 1.23058E+02 3.35967E+01 0.00000E+00
 -1      3592 1.23193E+02 3.47687E+01 0.00000E+00
 -1      3593 1.24263E+02 3.49799E+01 0.00000E+00
 -1      3594 1.42890E+01 2.27625E+01 0.00000E+00
 -1      3595 1.42890E+01 2.42375E+01 0.00000E+00
 -1      3596 1.42890E+01 1.98188E+01 0.00000E+00
 -1      3597 1.42890E+01 2.12906E+01 0.00000E+00
 -1      3598 1.55880E+01 2.20281E+01 0.00000E+00
 -1      3599 1.02831E+02 2.18457E+01 0.00000E+00
 -1      3600 9.22393E+01 3.37107E+01 0.00000E+00
 -1      3601 9.28470E+01 3.26239E+01 0.00000E+00
 -1      3602 9.21156E+01 3.15659E+01 0.00000E+00
 -1      3603 9.08104E+01 3.36047E+01 0.00000E+00
 -1      3604 1.23345E+02 3.23583E+01 0.00000E+00
 -1      3605 2.91240E+01 1.38785E+01 0.00000E+00
 -1      3606 2.76240E+01 1.38785E+01 0.00000E+00
 -1      3607 2.98740E+01 1.51775E+01 0.00000E+00
 -1      3608 2.68740E+01 1.51775E+01 0.00000E+00
 -1      3609 1.33113E+02 3.16375E+01 0.00000E+00
 -1      3610 1.33113E+02 3.01625E+01 0.00000E+00
 -1      3611 1.66500E+01 3.29432E+01 0.00000E+00
 -1      3612 1.24003E+02 3.10666E+01 0.00000E+00
 -1      3613 1.24786E+02 3.25162E+01 0.00000E+00
 -1      3614 1.89000E+01 3.31130E+01 0.00000E+00
 -1      3615 2.04000E+01 3.31130E+01 0.00000E+00
 -1      3616 2.19000E+01 3.31130E+01 0.00000E+00
 -1      3617 2.34000E+01 3.31130E+01 0.00000E+00
 -1      3618 2.11500E+01 3.18140E+01 0.00000E+00
 -1      3619 2.49000E+01 3.31130E+01 0.00000E+00
 -1      3620 2.64000E+01 3.31130E+01 0.00000E+00
 -1      3621 2.41500E+01 3.18140E+01 0.00000E+00
 -1      3622 2.79000E+01 3.31130E+01 0.00000E+00
 -1      3623 2.94000E+01 3.31130E+01 0.00000E+00
 -1      3624 2.71500E+01 3.18140E+01 0.00000E+00
 -1      3625 3.09000E+01 3.31130E+01 0.00000E+00
 -1      3626 3.24000E+01 3.31130E+01 0.00000E+00
 -1      3627 3.01500E+01 3.18140E+01 0.00000E+00
 -1      3628 3.39000E+01 3.31130E+01 0.00000E+00
 -1      3629 3.54000E+01 3.31130E+01 0.00000E+00
 -1      3630 3.31500E+01 3.18140E+01 0.00000E+00
 -1      3631 3.69000E+01 3.31130E+01 0.00000E+00
 -1      3632 3.84000E+01 3.31130E+01 0.00000E+00
 -1      3633 3.61500E+01 3.18140E+01 0.00000E+00
 -1      3634 3.99000E+01 3.31130E+01 0.00000E+00
 -1      3635 4.14000E+01 3.31130E+01 0.00000E+00
 -1      3636 3.91500E+01 3.18140E+01 0.00000E+00
 -1      3637 4.29000E+01 3.31130E+01 0.00000E+00
 -1      3638 4.44000E+01 3.31130E+01 0.00000E+00
 -1      3639 4.21500E+01 3.18140E+01 0.00000E+00
 -1      3640 4.59000E+01 3.31130E+01 0.00000E+00
 -1      3641 4.74000E+01 3.31130E+01 0.00000E+00
 -1      3642 4.51500E+01 3.18140E+01 0.00000E+00
 -1      3643 4.89000E+01 3.31130E+01 0.00000E+00
 -1      3644 5.04000E+01 3.31130E+01 0.00000E+00
 -1      3645 4.81500E+01 3.18140E+01 0.00000E+00
 -1      3646 5.19000E+01 3.31130E+01 0.00000E+00
 -1      3647 5.34000E+01 3.31130E+01 0.00000E+00
 -1      3648 5.11500E+01 3.18140E+01 0.00000E+00
 -1      3649 5.49000E+01 3.31130E+01 0.00000E+00
 -1      3650 5.64000E+01 3.31130E+01 0.00000E+00
 -1      3651 5.41500E+01 3.18140E+01 0.00000E+00
 -1      3652 5.79000E+01 3.31130E+01 0.00000E+00
 -1      3653 5.94000E+01 3.31130E+01 0.00000E+00
 -1      3654 5.71500E+01 3.18140E+01 0.00000E+00
 -1      3655 6.09000E+01 3.31130E+01 0.00000E+00
 -1      3656 6.24000E+01 3.31130E+01 0.00000E+00
 -1      3657 6.01500E+01 3.18140E+01 0.00000E+00
 -1      3658 6.39750E+01 3.31130E+01 0.00000E+00
 -1      3659 6.55500E+01 3.31130E+01 0.00000E+00
 -1      3660 6.32250E+01 3.18140E+01 0.00000E+00
 -1      3661 6.70500E+01 3.31130E+01 0.00000E+00
 -1      3662 6.85500E+01 3.31130E+01 0.00000E+00
 -1      3663 6.63000E+01 3.18140E+01 0.00000E+00
 -1      3664 7.00500E+01 3.31130E+01 0.00000E+00
 -1      3665 7.15500E+01 3.31130E+01 0.00000E+00
 -1      3666 6.93000E+01 3.18140E+01 0.00000E+00
 -1      3667 7.30500E+01 3.31130E+01 0.00000E+00
 -1      3668 7.45500E+01 3.31130E+01 0.00000E+00
 -1      3669 7.23000E+01 3.18140E+01 0.00000E+00
 -1      3670 7.60500E+01 3.31130E+01 0.00000E+00
 -1      3671 7.75500E+01 3.31130E+01 0.00000E+00
 -1      3672 7.53000E+01 3.18140E+01 0.00000E+00
 -1      3673 7.90500E+01 3.31130E+01 0.00000E+00
 -1      3674 8.05500E+01 3.31130E+01 0.00000E+00
 -1      3675 7.83000E+01 3.18140E+01 0.00000E+00
 -1      3676 8.20500E+01 3.31130E+01 0.00000E+00
 -1      3677 8.35500E+01 3.31130E+01 0.00000E+00
 -1      3678 8.13000E+01 3.18140E+01 0.00000E+00
 -1      3679 8.50500E+01 3.31130E+01 0.00000E+00
 -1      3680 8.65500E+01 3.31130E+01 0.00000E+00
 -1      3681 8.43000E+01 3.18140E+01 0.00000E+00
 -1      3682 3.96240E+01 1.64765E+01 0.00000E+00
 -1      3683 3.81240E+01 1.64765E+01 0.00000E+00
 -1      3684 2.31240E+01 1.38785E+01 0.00000E+00
 -1      3685 2.16240E+01 1.38785E+01 0.00000E+00
 -1      3686 2.38740E+01 1.51775E+01 0.00000E+00
 -1      3687 4.56240E+01 1.64765E+01 0.00000E+00
 -1      3688 4.41240E+01 1.64765E+01 0.00000E+00
 -1      3689 4.26240E+01 1.64765E+01 0.00000E+00
 -1      3690 4.11240E+01 1.64765E+01 0.00000E+00
 -1      3691 4.03740E+01 1.77755E+01 0.00000E+00
 -1      3692 4.33740E+01 1.77755E+01 0.00000E+00
 -1      3693 3.66240E+01 1.64765E+01 0.00000E+00
 -1      3694 3.51240E+01 1.64765E+01 0.00000E+00
 -1      3695 3.73740E+01 1.77755E+01 0.00000E+00
 -1      3696 4.86240E+01 1.64765E+01 0.00000E+00
 -1      3697 4.71240E+01 1.64765E+01 0.00000E+00
 -1      3698 4.63740E+01 1.77755E+01 0.00000E+00
 -1      3699 5.16240E+01 1.64765E+01 0.00000E+00
 -1      3700 5.01240E+01 1.64765E+01 0.00000E+00
 -1      3701 4.93740E+01 1.77755E+01 0.00000E+00
 -1      3702 5.46240E+01 1.64765E+01 0.00000E+00
 -1      3703 5.31240E+01 1.64765E+01 0.00000E+00
 -1      3704 5.23740E+01 1.77755E+01 0.00000E+00
 -1      3705 5.76240E+01 1.64765E+01 0.00000E+00
 -1      3706 5.61240E+01 1.64765E+01 0.00000E+00
 -1      3707 5.53740E+01 1.77755E+01 0.00000E+00
 -1      3708 6.06240E+01 1.64765E+01 0.00000E+00
 -1      3709 5.91240E+01 1.64765E+01 0.00000E+00
 -1      3710 5.83740E+01 1.77755E+01 0.00000E+00
 -1      3711 6.36240E+01 1.64765E+01 0.00000E+00
 -1      3712 6.21240E+01 1.64765E+01 0.00000E+00
 -1      3713 6.13740E+01 1.77755E+01 0.00000E+00
 -1      3714 6.66240E+01 1.64765E+01 0.00000E+00
 -1      3715 6.51240E+01 1.64765E+01 0.00000E+00
 -1      3716 6.43740E+01 1.77755E+01 0.00000E+00
 -1      3717 6.96240E+01 1.64765E+01 0.00000E+00
 -1      3718 6.81240E+01 1.64765E+01 0.00000E+00
 -1      3719 6.73740E+01 1.77755E+01 0.00000E+00
 -1      3720 7.26240E+01 1.64765E+01 0.00000E+00
 -1      3721 7.11240E+01 1.64765E+01 0.00000E+00
 -1      3722 7.03740E+01 1.77755E+01 0.00000E+00
 -1      3723 7.56240E+01 1.64765E+01 0.00000E+00
 -1      3724 7.41240E+01 1.64765E+01 0.00000E+00
 -1      3725 7.33740E+01 1.77755E+01 0.00000E+00
 -1      3726 7.86240E+01 1.64765E+01 0.00000E+00
 -1      3727 7.71240E+01 1.64765E+01 0.00000E+00
 -1      3728 7.63740E+01 1.77755E+01 0.00000E+00
 -1      3729 8.16240E+01 1.64765E+01 0.00000E+00
 -1      3730 8.01240E+01 1.64765E+01 0.00000E+00
 -1      3731 7.93740E+01 1.77755E+01 0.00000E+00
 -1      3732 8.46240E+01 1.64765E+01 0.00000E+00
 -1      3733 8.31240E+01 1.64765E+01 0.00000E+00
 -1      3734 8.23740E+01 1.77755E+01 0.00000E+00
 -1      3735 8.76240E+01 1.64765E+01 0.00000E+00
 -1      3736 8.61240E+01 1.64765E+01 0.00000E+00
 -1      3737 8.53740E+01 1.77755E+01 0.00000E+00
 -1      3738 9.06240E+01 1.64765E+01 0.00000E+00
 -1      3739 8.91240E+01 1.64765E+01 0.00000E+00
 -1      3740 8.83740E+01 1.77755E+01 0.00000E+00
 -1      3741 9.36240E+01 1.64765E+01 0.00000E+00
 -1      3742 9.21240E+01 1.64765E+01 0.00000E+00
 -1      3743 9.13740E+01 1.77755E+01 0.00000E+00
 -1      3744 9.66240E+01 1.64765E+01 0.00000E+00
 -1      3745 9.51240E+01 1.64765E+01 0.00000E+00
 -1      3746 9.43740E+01 1.77755E+01 0.00000E+00
 -1      3747 9.96240E+01 1.64765E+01 0.00000E+00
 -1      3748 9.81240E+01 1.64765E+01 0.00000E+00
 -1      3749 9.73740E+01 1.77755E+01 0.00000E+00
 -1      3750 1.02624E+02 1.64765E+01 0.00000E+00
 -1      3751 1.01124E+02 1.64765E+01 0.00000E+00
 -1      3752 1.00374E+02 1.77755E+01 0.00000E+00
 -1      3753 1.05624E+02 1.64765E+01 0.00000E+00
 -1      3754 1.04124E+02 1.64765E+01 0.00000E+00
 -1      3755 1.03374E+02 1.77755E+01 0.00000E+00
 -1      3756 1.08624E+02 1.64765E+01 0.00000E+00
 -1      3757 1.07124E+02 1.64765E+01 0.00000E+00
 -1      3758 1.06374E+02 1.77755E+01 0.00000E+00
 -1      3759 1.11624E+02 1.64765E+01 0.00000E+00
 -1      3760 1.10124E+02 1.64765E+01 0.00000E+00
 -1      3761 1.09374E+02 1.77755E+01 0.00000E+00
 -1      3762 1.14624E+02 1.64765E+01 0.00000E+00
 -1      3763 1.13124E+02 1.64765E+01 0.00000E+00
 -1      3764 1.12374E+02 1.77755E+01 0.00000E+00
 -1      3765 1.17624E+02 1.64765E+01 0.00000E+00
 -1      3766 1.16124E+02 1.64765E+01 0.00000E+00
 -1      3767 1.15374E+02 1.77755E+01 0.00000E+00
 -1      3768 1.20624E+02 1.64765E+01 0.00000E+00
 -1      3769 1.19124E+02 1.64765E+01 0.00000E+00
 -1      3770 1.18374E+02 1.77755E+01 0.00000E+00
 -1      3771 1.23624E+02 1.64765E+01 0.00000E+00
 -1      3772 1.22124E+02 1.64765E+01 0.00000E+00
 -1      3773 1.21374E+02 1.77755E+01 0.00000E+00
 -1      3774 1.26624E+02 1.64765E+01 0.00000E+00
 -1      3775 1.25124E+02 1.64765E+01 0.00000E+00
 -1      3776 1.24374E+02 1.77755E+01 0.00000E+00
 -1      3777 1.29624E+02 1.64765E+01 0.00000E+00
 -1      3778 1.28124E+02 1.64765E+01 0.00000E+00
 -1      3779 1.27374E+02 1.77755E+01 0.00000E+00
 -1      3780 1.32508E+02 1.64490E+01 0.00000E+00
 -1      3781 1.31008E+02 1.64490E+01 0.00000E+00
 -1      3782 1.30258E+02 1.77480E+01 0.00000E+00
 -1      3783 1.33027E+02 1.76931E+01 0.00000E+00
 -1      3784 2.76240E+01 1.64765E+01 0.00000E+00
 -1      3785 2.61240E+01 1.64765E+01 0.00000E+00
 -1      3786 1.55880E+01 2.49719E+01 0.00000E+00
 -1      3787 1.42890E+01 2.57094E+01 0.00000E+00
 -1      3788 1.42890E+01 2.71812E+01 0.00000E+00
 -1      3789 9.93635E+01 2.21126E+01 0.00000E+00
 -1      3790 1.00182E+02 2.10196E+01 0.00000E+00
 -1      3791 1.33113E+02 2.86875E+01 0.00000E+00
 -1      3792 1.33113E+02 2.72125E+01 0.00000E+00
 -1      3793 1.31814E+02 2.94250E+01 0.00000E+00
 -1      3794 1.40625E+01 1.71222E+01 0.00000E+00
 -1      3795 1.40625E+01 1.85941E+01 0.00000E+00
 -1      3796 1.53615E+01 1.93316E+01 0.00000E+00
 -1      3797 1.49085E+01 1.68822E+01 0.00000E+00
 -1      3798 1.33027E+02 1.91618E+01 0.00000E+00
 -1      3799 1.41795E+01 2.84389E+01 0.00000E+00
 -1      3800 1.41795E+01 2.99077E+01 0.00000E+00
 -1      3801 1.52595E+01 3.02168E+01 0.00000E+00
 -1      3802 1.54785E+01 2.77014E+01 0.00000E+00
 -1      3803 1.25829E+02 3.48298E+01 0.00000E+00
 -1      3804 1.27396E+02 3.46798E+01 0.00000E+00
 -1      3805 1.25694E+02 3.36579E+01 0.00000E+00
 -1      3806 9.47046E+01 2.65419E+01 0.00000E+00
 -1      3807 9.53700E+01 2.52872E+01 0.00000E+00
 -1      3808 1.31032E+02 3.51015E+01 0.00000E+00
 -1      3809 1.32532E+02 3.51015E+01 0.00000E+00
 -1      3810 1.32658E+02 3.41926E+01 0.00000E+00
 -1      3811 1.74000E+01 3.16443E+01 0.00000E+00
 -1      3812 1.32783E+02 2.07824E+01 0.00000E+00
 -1      3813 1.31398E+02 1.93411E+01 0.00000E+00
 -1      3814 1.23884E+02 3.00697E+01 0.00000E+00
 -1      3815 1.25325E+02 3.02276E+01 0.00000E+00
 -1      3816 1.23766E+02 2.90728E+01 0.00000E+00
 -1      3817 8.72289E+01 3.19201E+01 0.00000E+00
 -1      3818 8.79789E+01 3.32191E+01 0.00000E+00
 -1      3819 8.94078E+01 3.33251E+01 0.00000E+00
 -1      3820 2.08740E+01 1.51775E+01 0.00000E+00
 -1      3821 9.58382E+01 2.43794E+01 0.00000E+00
 -1      3822 9.63065E+01 2.34716E+01 0.00000E+00
 -1      3823 9.44519E+01 2.44480E+01 0.00000E+00
 -1      3824 9.82555E+01 2.21272E+01 0.00000E+00
 -1      3825 2.91240E+01 1.64765E+01 0.00000E+00
 -1      3826 2.83740E+01 1.77755E+01 0.00000E+00
 -1      3827 3.06240E+01 1.64765E+01 0.00000E+00
 -1      3828 1.68870E+01 2.42359E+01 0.00000E+00
 -1      3829 1.68870E+01 2.57078E+01 0.00000E+00
 -1      3830 1.28105E+02 3.35475E+01 0.00000E+00
 -1      3831 1.28239E+02 3.47194E+01 0.00000E+00
 -1      3832 1.29083E+02 3.47591E+01 0.00000E+00
 -1      3833 1.15513E+02 2.12947E+01 0.00000E+00
 -1      3834 1.16780E+02 2.11957E+01 0.00000E+00
 -1      3835 1.14745E+02 2.05312E+01 0.00000E+00
 -1      3836 3.43740E+01 1.77755E+01 0.00000E+00
 -1      3837 3.36240E+01 1.64765E+01 0.00000E+00
 -1      3838 3.21240E+01 1.64765E+01 0.00000E+00
 -1      3839 1.06819E+02 1.94310E+01 0.00000E+00
 -1      3840 1.07893E+02 1.99756E+01 0.00000E+00
 -1      3841 9.34882E+01 2.69601E+01 0.00000E+00
 -1      3842 1.32783E+02 2.22503E+01 0.00000E+00
 -1      3843 1.21115E+02 2.72231E+01 0.00000E+00
 -1      3844 1.22223E+02 2.78169E+01 0.00000E+00
 -1      3845 1.21013E+02 2.61251E+01 0.00000E+00
 -1      3846 1.18726E+02 2.37453E+01 0.00000E+00
 -1      3847 1.19727E+02 2.42584E+01 0.00000E+00
 -1      3848 1.18549E+02 2.24723E+01 0.00000E+00
 -1      3849 1.26352E+02 3.23661E+01 0.00000E+00
 -1      3850 1.31814E+02 2.64820E+01 0.00000E+00
 -1      3851 1.33113E+02 2.57445E+01 0.00000E+00
 -1      3852 1.33113E+02 2.42766E+01 0.00000E+00
 -1      3853 1.32822E+02 3.33695E+01 0.00000E+00
 -1      3854 1.32949E+02 3.24607E+01 0.00000E+00
 -1      3855 1.31650E+02 3.17232E+01 0.00000E+00
 -1      3856 1.31322E+02 3.33695E+01 0.00000E+00
 -1      3857 9.16392E+01 2.99166E+01 0.00000E+00
 -1      3858 9.17516E+01 2.89255E+01 0.00000E+00
 -1      3859 1.02770E+02 2.03804E+01 0.00000E+00
 -1      3860 1.04055E+02 2.10381E+01 0.00000E+00
 -1      3861 1.68870E+01 2.12922E+01 0.00000E+00
 -1      3862 1.68870E+01 2.27641E+01 0.00000E+00
 -1      3863 1.81860E+01 2.35000E+01 0.00000E+00
 -1      3864 1.30188E+02 3.50618E+01 0.00000E+00
 -1      3865 2.53740E+01 1.77755E+01 0.00000E+00
 -1      3866 2.46240E+01 1.64765E+01 0.00000E+00
 -1      3867 2.31240E+01 1.64765E+01 0.00000E+00
 -1      3868 1.66006E+01 1.64022E+01 0.00000E+00
 -1      3869 1.57545E+01 1.66422E+01 0.00000E+00
 -1      3870 1.59810E+01 1.78669E+01 0.00000E+00
 -1      3871 1.04880E+02 2.03297E+01 0.00000E+00
 -1      3872 1.00346E+02 1.93134E+01 0.00000E+00
 -1      3873 1.01710E+02 1.94818E+01 0.00000E+00
 -1      3874 9.09866E+01 3.09360E+01 0.00000E+00
 -1      3875 1.81005E+01 1.64022E+01 0.00000E+00
 -1      3876 1.96377E+01 1.67261E+01 0.00000E+00
 -1      3877 1.83642E+01 1.79508E+01 0.00000E+00
 -1      3878 1.10835E+02 2.03885E+01 0.00000E+00
 -1      3879 1.11664E+02 2.09856E+01 0.00000E+00
 -1      3880 4.71240E+01 1.90745E+01 0.00000E+00
 -1      3881 4.56240E+01 1.90745E+01 0.00000E+00
 -1      3882 2.34000E+01 3.05150E+01 0.00000E+00
 -1      3883 2.49000E+01 3.05150E+01 0.00000E+00
 -1      3884 2.64000E+01 3.05150E+01 0.00000E+00
 -1      3885 2.79000E+01 3.05150E+01 0.00000E+00
 -1      3886 2.56500E+01 2.92160E+01 0.00000E+00
 -1      3887 2.94000E+01 3.05150E+01 0.00000E+00
 -1      3888 3.09000E+01 3.05150E+01 0.00000E+00
 -1      3889 2.86500E+01 2.92160E+01 0.00000E+00
 -1      3890 3.24000E+01 3.05150E+01 0.00000E+00
 -1      3891 3.39000E+01 3.05150E+01 0.00000E+00
 -1      3892 3.16500E+01 2.92160E+01 0.00000E+00
 -1      3893 3.54000E+01 3.05150E+01 0.00000E+00
 -1      3894 3.69000E+01 3.05150E+01 0.00000E+00
 -1      3895 3.46500E+01 2.92160E+01 0.00000E+00
 -1      3896 3.84000E+01 3.05150E+01 0.00000E+00
 -1      3897 3.99000E+01 3.05150E+01 0.00000E+00
 -1      3898 3.76500E+01 2.92160E+01 0.00000E+00
 -1      3899 4.14000E+01 3.05150E+01 0.00000E+00
 -1      3900 4.29000E+01 3.05150E+01 0.00000E+00
 -1      3901 4.06500E+01 2.92160E+01 0.00000E+00
 -1      3902 4.44000E+01 3.05150E+01 0.00000E+00
 -1      3903 4.59000E+01 3.05150E+01 0.00000E+00
 -1      3904 4.36500E+01 2.92160E+01 0.00000E+00
 -1      3905 4.74000E+01 3.05150E+01 0.00000E+00
 -1      3906 4.89000E+01 3.05150E+01 0.00000E+00
 -1      3907 4.66500E+01 2.92160E+01 0.00000E+00
 -1      3908 5.04000E+01 3.05150E+01 0.00000E+00
 -1      3909 5.19000E+01 3.05150E+01 0.00000E+00
 -1      3910 4.96500E+01 2.92160E+01 0.00000E+00
 -1      3911 5.34000E+01 3.05150E+01 0.00000E+00
 -1      3912 5.49000E+01 3.05150E+01 0.00000E+00
 -1      3913 5.26500E+01 2.92160E+01 0.00000E+00
 -1      3914 5.64000E+01 3.05150E+01 0.00000E+00
 -1      3915 5.79000E+01 3.05150E+01 0.00000E+00
 -1      3916 5.56500E+01 2.92160E+01 0.00000E+00
 -1      3917 5.94000E+01 3.05150E+01 0.00000E+00
 -1      3918 6.09000E+01 3.05150E+01 0.00000E+00
 -1      3919 5.86500E+01 2.92160E+01 0.00000E+00
 -1      3920 6.24750E+01 3.05150E+01 0.00000E+00
 -1      3921 6.40500E+01 3.05150E+01 0.00000E+00
 -1      3922 6.17250E+01 2.92160E+01 0.00000E+00
 -1      3923 6.55500E+01 3.05150E+01 0.00000E+00
 -1      3924 6.70500E+01 3.05150E+01 0.00000E+00
 -1      3925 6.48000E+01 2.92160E+01 0.00000E+00
 -1      3926 6.85500E+01 3.05150E+01 0.00000E+00
 -1      3927 7.00500E+01 3.05150E+01 0.00000E+00
 -1      3928 6.78000E+01 2.92160E+01 0.00000E+00
 -1      3929 7.15500E+01 3.05150E+01 0.00000E+00
 -1      3930 7.30500E+01 3.05150E+01 0.00000E+00
 -1      3931 7.08000E+01 2.92160E+01 0.00000E+00
 -1      3932 7.45500E+01 3.05150E+01 0.00000E+00
 -1      3933 7.60500E+01 3.05150E+01 0.00000E+00
 -1      3934 7.38000E+01 2.92160E+01 0.00000E+00
 -1      3935 7.75500E+01 3.05150E+01 0.00000E+00
 -1      3936 7.90500E+01 3.05150E+01 0.00000E+00
 -1      3937 7.68000E+01 2.92160E+01 0.00000E+00
 -1      3938 8.05500E+01 3.05150E+01 0.00000E+00
 -1      3939 8.20500E+01 3.05150E+01 0.00000E+00
 -1      3940 7.98000E+01 2.92160E+01 0.00000E+00
 -1      3941 8.35500E+01 3.05150E+01 0.00000E+00
 -1      3942 8.50500E+01 3.05150E+01 0.00000E+00
 -1      3943 8.28000E+01 2.92160E+01 0.00000E+00
 -1      3944 3.81240E+01 1.90745E+01 0.00000E+00
 -1      3945 3.66240E+01 1.90745E+01 0.00000E+00
 -1      3946 2.11377E+01 1.67261E+01 0.00000E+00
 -1      3947 5.01240E+01 1.90745E+01 0.00000E+00
 -1      3948 4.86240E+01 1.90745E+01 0.00000E+00
 -1      3949 4.78740E+01 2.03735E+01 0.00000E+00
 -1      3950 1.12688E+02 2.02088E+01 0.00000E+00
 -1      3951 1.30515E+02 3.01625E+01 0.00000E+00
 -1      3952 1.30515E+02 2.86875E+01 0.00000E+00
 -1      3953 5.31240E+01 1.90745E+01 0.00000E+00
 -1      3954 5.16240E+01 1.90745E+01 0.00000E+00
 -1      3955 5.08740E+01 2.03735E+01 0.00000E+00
 -1      3956 5.61240E+01 1.90745E+01 0.00000E+00
 -1      3957 5.46240E+01 1.90745E+01 0.00000E+00
 -1      3958 5.38740E+01 2.03735E+01 0.00000E+00
 -1      3959 5.91240E+01 1.90745E+01 0.00000E+00
 -1      3960 5.76240E+01 1.90745E+01 0.00000E+00
 -1      3961 5.68740E+01 2.03735E+01 0.00000E+00
 -1      3962 6.21240E+01 1.90745E+01 0.00000E+00
 -1      3963 6.06240E+01 1.90745E+01 0.00000E+00
 -1      3964 5.98740E+01 2.03735E+01 0.00000E+00
 -1      3965 6.51240E+01 1.90745E+01 0.00000E+00
 -1      3966 6.36240E+01 1.90745E+01 0.00000E+00
 -1      3967 6.28740E+01 2.03735E+01 0.00000E+00
 -1      3968 6.81240E+01 1.90745E+01 0.00000E+00
 -1      3969 6.66240E+01 1.90745E+01 0.00000E+00
 -1      3970 6.58740E+01 2.03735E+01 0.00000E+00
 -1      3971 7.11240E+01 1.90745E+01 0.00000E+00
 -1      3972 6.96240E+01 1.90745E+01 0.00000E+00
 -1      3973 6.88740E+01 2.03735E+01 0.00000E+00
 -1      3974 7.41240E+01 1.90745E+01 0.00000E+00
 -1      3975 7.26240E+01 1.90745E+01 0.00000E+00
 -1      3976 7.18740E+01 2.03735E+01 0.00000E+00
 -1      3977 7.71240E+01 1.90745E+01 0.00000E+00
 -1      3978 7.56240E+01 1.90745E+01 0.00000E+00
 -1      3979 7.48740E+01 2.03735E+01 0.00000E+00
 -1      3980 8.01240E+01 1.90745E+01 0.00000E+00
 -1      3981 7.86240E+01 1.90745E+01 0.00000E+00
 -1      3982 7.78740E+01 2.03735E+01 0.00000E+00
 -1      3983 8.31240E+01 1.90745E+01 0.00000E+00
 -1      3984 8.16240E+01 1.90745E+01 0.00000E+00
 -1      3985 8.08740E+01 2.03735E+01 0.00000E+00
 -1      3986 8.61240E+01 1.90745E+01 0.00000E+00
 -1      3987 8.46240E+01 1.90745E+01 0.00000E+00
 -1      3988 8.38740E+01 2.03735E+01 0.00000E+00
 -1      3989 8.91240E+01 1.90745E+01 0.00000E+00
 -1      3990 8.76240E+01 1.90745E+01 0.00000E+00
 -1      3991 8.68740E+01 2.03735E+01 0.00000E+00
 -1      3992 9.21240E+01 1.90745E+01 0.00000E+00
 -1      3993 9.06240E+01 1.90745E+01 0.00000E+00
 -1      3994 8.98740E+01 2.03735E+01 0.00000E+00
 -1      3995 9.51240E+01 1.90745E+01 0.00000E+00
 -1      3996 9.36240E+01 1.90745E+01 0.00000E+00
 -1      3997 9.28740E+01 2.03735E+01 0.00000E+00
 -1      3998 9.88460E+01 1.93134E+01 0.00000E+00
 -1      3999 1.04434E+02 1.86742E+01 0.00000E+00
 -1      4000 1.02934E+02 1.86742E+01 0.00000E+00
 -1      4001 1.12886E+02 1.87814E+01 0.00000E+00
 -1      4002 1.11386E+02 1.87814E+01 0.00000E+00
 -1      4003 1.16443E+02 1.91038E+01 0.00000E+00
 -1      4004 1.14943E+02 1.91038E+01 0.00000E+00
 -1      4005 1.22124E+02 1.90745E+01 0.00000E+00
 -1      4006 1.20624E+02 1.90745E+01 0.00000E+00
 -1      4007 1.25124E+02 1.90745E+01 0.00000E+00
 -1      4008 1.23624E+02 1.90745E+01 0.00000E+00
 -1      4009 1.22874E+02 2.03735E+01 0.00000E+00
 -1      4010 1.28124E+02 1.90745E+01 0.00000E+00
 -1      4011 1.26624E+02 1.90745E+01 0.00000E+00
 -1      4012 1.25874E+02 2.03735E+01 0.00000E+00
 -1      4013 1.30014E+02 1.93686E+01 0.00000E+00
 -1      4014 1.30053E+02 3.38899E+01 0.00000E+00
 -1      4015 2.04000E+01 3.05150E+01 0.00000E+00
 -1      4016 2.19000E+01 3.05150E+01 0.00000E+00
 -1      4017 2.26500E+01 2.92160E+01 0.00000E+00
 -1      4018 9.20209E+01 2.73856E+01 0.00000E+00
 -1      4019 9.25163E+01 2.57813E+01 0.00000E+00
 -1      4020 1.09393E+02 1.99756E+01 0.00000E+00
 -1      4021 1.27330E+02 3.03247E+01 0.00000E+00
 -1      4022 1.28238E+02 3.14664E+01 0.00000E+00
 -1      4023 1.29264E+02 2.06676E+01 0.00000E+00
 -1      4024 1.31484E+02 2.29878E+01 0.00000E+00
 -1      4025 1.13676E+02 1.92028E+01 0.00000E+00
 -1      4026 9.60334E+01 2.18883E+01 0.00000E+00
 -1      4027 9.65960E+01 2.06124E+01 0.00000E+00
 -1      4028 9.07796E+01 2.77468E+01 0.00000E+00
 -1      4029 9.00604E+01 3.23057E+01 0.00000E+00
 -1      4030 8.95840E+01 3.06564E+01 0.00000E+00
 -1      4031 1.80765E+01 2.62296E+01 0.00000E+00
 -1      4032 1.67775E+01 2.69655E+01 0.00000E+00
 -1      4033 1.66680E+01 2.82232E+01 0.00000E+00
 -1      4034 9.73460E+01 1.93134E+01 0.00000E+00
 -1      4035 1.23562E+02 2.68768E+01 0.00000E+00
 -1      4036 1.23664E+02 2.79748E+01 0.00000E+00
 -1      4037 1.25105E+02 2.81327E+01 0.00000E+00
 -1      4038 8.64789E+01 3.06211E+01 0.00000E+00
 -1      4039 8.79078E+01 3.07271E+01 0.00000E+00
 -1      4040 8.57289E+01 2.93221E+01 0.00000E+00
 -1      4041 1.17792E+02 1.88214E+01 0.00000E+00
 -1      4042 1.17362E+02 2.01498E+01 0.00000E+00
 -1      4043 1.18129E+02 2.09133E+01 0.00000E+00
 -1      4044 1.19292E+02 1.88214E+01 0.00000E+00
 -1      4045 1.29216E+02 2.79570E+01 0.00000E+00
 -1      4046 1.30515E+02 2.72195E+01 0.00000E+00
 -1      4047 1.30515E+02 2.57516E+01 0.00000E+00
 -1      4048 4.48740E+01 2.03735E+01 0.00000E+00
 -1      4049 4.41240E+01 1.90745E+01 0.00000E+00
 -1      4050 4.26240E+01 1.90745E+01 0.00000E+00
 -1      4051 1.19130E+02 2.14263E+01 0.00000E+00
 -1      4052 3.58740E+01 2.03735E+01 0.00000E+00
 -1      4053 3.51240E+01 1.90745E+01 0.00000E+00
 -1      4054 3.36240E+01 1.90745E+01 0.00000E+00
 -1      4055 3.96240E+01 1.90745E+01 0.00000E+00
 -1      4056 3.88740E+01 2.03735E+01 0.00000E+00
 -1      4057 4.11240E+01 1.90745E+01 0.00000E+00
 -1      4058 2.18877E+01 1.80251E+01 0.00000E+00
 -1      4059 9.30633E+01 2.43064E+01 0.00000E+00
 -1      4060 9.35315E+01 2.33986E+01 0.00000E+00
 -1      4061 3.13740E+01 1.77755E+01 0.00000E+00
 -1      4062 9.46471E+01 2.19568E+01 0.00000E+00
 -1      4063 1.29537E+02 3.22039E+01 0.00000E+00
 -1      4064 1.05319E+02 1.94310E+01 0.00000E+00
 -1      4065 1.10323E+02 1.93825E+01 0.00000E+00
 -1      4066 1.20042E+02 2.01204E+01 0.00000E+00
 -1      4067 1.30055E+02 2.42227E+01 0.00000E+00
 -1      4068 1.29724E+02 2.21965E+01 0.00000E+00
 -1      4069 1.27835E+02 2.19024E+01 0.00000E+00
 -1      4070 1.28755E+02 2.49602E+01 0.00000E+00
 -1      4071 1.88085E+01 2.96506E+01 0.00000E+00
 -1      4072 1.95585E+01 2.83516E+01 0.00000E+00
 -1      4073 2.91240E+01 1.90745E+01 0.00000E+00
 -1      4074 2.76240E+01 1.90745E+01 0.00000E+00
 -1      4075 1.65585E+01 2.94809E+01 0.00000E+00
 -1      4076 1.20835E+02 2.48521E+01 0.00000E+00
 -1      4077 1.21944E+02 2.54459E+01 0.00000E+00
 -1      4078 1.20658E+02 2.35791E+01 0.00000E+00
 -1      4079 1.77447E+01 1.94155E+01 0.00000E+00
 -1      4080 1.90437E+01 2.01515E+01 0.00000E+00
 -1      4081 1.30217E+02 3.30667E+01 0.00000E+00
 -1      4082 8.88340E+01 2.93574E+01 0.00000E+00
 -1      4083 9.15959E+01 2.47319E+01 0.00000E+00
 -1      4084 2.68740E+01 2.03735E+01 0.00000E+00
 -1      4085 2.61240E+01 1.90745E+01 0.00000E+00
 -1      4086 2.46240E+01 1.90745E+01 0.00000E+00
 -1      4087 1.94850E+01 2.27641E+01 0.00000E+00
 -1      4088 1.94850E+01 2.42359E+01 0.00000E+00
 -1      4089 2.06745E+01 2.47577E+01 0.00000E+00
 -1      4090 1.93755E+01 2.54936E+01 0.00000E+00
 -1      4091 1.92660E+01 2.67513E+01 0.00000E+00
 -1      4092 8.91033E+01 2.78175E+01 0.00000E+00
 -1      4093 8.93727E+01 2.62776E+01 0.00000E+00
 -1      4094 8.74271E+01 2.78882E+01 0.00000E+00
 -1      4095 8.45693E+01 2.76761E+01 0.00000E+00
 -1      4096 8.59982E+01 2.77821E+01 0.00000E+00
 -1      4097 8.62675E+01 2.62422E+01 0.00000E+00
 -1      4098 1.27211E+02 2.93278E+01 0.00000E+00
 -1      4099 2.79000E+01 2.79170E+01 0.00000E+00
 -1      4100 2.94000E+01 2.79170E+01 0.00000E+00
 -1      4101 3.09000E+01 2.79170E+01 0.00000E+00
 -1      4102 3.24000E+01 2.79170E+01 0.00000E+00
 -1      4103 3.01500E+01 2.66180E+01 0.00000E+00
 -1      4104 3.39000E+01 2.79170E+01 0.00000E+00
 -1      4105 3.54000E+01 2.79170E+01 0.00000E+00
 -1      4106 3.31500E+01 2.66180E+01 0.00000E+00
 -1      4107 3.69000E+01 2.79170E+01 0.00000E+00
 -1      4108 3.84000E+01 2.79170E+01 0.00000E+00
 -1      4109 3.61500E+01 2.66180E+01 0.00000E+00
 -1      4110 3.99000E+01 2.79170E+01 0.00000E+00
 -1      4111 4.14000E+01 2.79170E+01 0.00000E+00
 -1      4112 3.91500E+01 2.66180E+01 0.00000E+00
 -1      4113 4.29000E+01 2.79170E+01 0.00000E+00
 -1      4114 4.44000E+01 2.79170E+01 0.00000E+00
 -1      4115 4.21500E+01 2.66180E+01 0.00000E+00
 -1      4116 4.59000E+01 2.79170E+01 0.00000E+00
 -1      4117 4.74000E+01 2.79170E+01 0.00000E+00
 -1      4118 4.51500E+01 2.66180E+01 0.00000E+00
 -1      4119 4.89000E+01 2.79170E+01 0.00000E+00
 -1      4120 5.04000E+01 2.79170E+01 0.00000E+00
 -1      4121 4.81500E+01 2.66180E+01 0.00000E+00
 -1      4122 5.19000E+01 2.79170E+01 0.00000E+00
 -1      4123 5.34000E+01 2.79170E+01 0.00000E+00
 -1      4124 5.11500E+01 2.66180E+01 0.00000E+00
 -1      4125 5.49000E+01 2.79170E+01 0.00000E+00
 -1      4126 5.64000E+01 2.79170E+01 0.00000E+00
 -1      4127 5.41500E+01 2.66180E+01 0.00000E+00
 -1      4128 5.79000E+01 2.79170E+01 0.00000E+00
 -1      4129 5.94000E+01 2.79170E+01 0.00000E+00
 -1      4130 5.71500E+01 2.66180E+01 0.00000E+00
 -1      4131 6.09750E+01 2.79170E+01 0.00000E+00
 -1      4132 6.25500E+01 2.79170E+01 0.00000E+00
 -1      4133 6.02250E+01 2.66180E+01 0.00000E+00
 -1      4134 6.40500E+01 2.79170E+01 0.00000E+00
 -1      4135 6.55500E+01 2.79170E+01 0.00000E+00
 -1      4136 6.33000E+01 2.66180E+01 0.00000E+00
 -1      4137 6.70500E+01 2.79170E+01 0.00000E+00
 -1      4138 6.85500E+01 2.79170E+01 0.00000E+00
 -1      4139 6.63000E+01 2.66180E+01 0.00000E+00
 -1      4140 7.00500E+01 2.79170E+01 0.00000E+00
 -1      4141 7.15500E+01 2.79170E+01 0.00000E+00
 -1      4142 6.93000E+01 2.66180E+01 0.00000E+00
 -1      4143 7.30500E+01 2.79170E+01 0.00000E+00
 -1      4144 7.45500E+01 2.79170E+01 0.00000E+00
 -1      4145 7.23000E+01 2.66180E+01 0.00000E+00
 -1      4146 7.60500E+01 2.79170E+01 0.00000E+00
 -1      4147 7.75500E+01 2.79170E+01 0.00000E+00
 -1      4148 7.53000E+01 2.66180E+01 0.00000E+00
 -1      4149 7.90500E+01 2.79170E+01 0.00000E+00
 -1      4150 8.05500E+01 2.79170E+01 0.00000E+00
 -1      4151 7.83000E+01 2.66180E+01 0.00000E+00
 -1      4152 8.18097E+01 2.77965E+01 0.00000E+00
 -1      4153 8.33097E+01 2.77965E+01 0.00000E+00
 -1      4154 8.35790E+01 2.62566E+01 0.00000E+00
 -1      4155 8.10597E+01 2.64975E+01 0.00000E+00
 -1      4156 5.46240E+01 2.16725E+01 0.00000E+00
 -1      4157 5.31240E+01 2.16725E+01 0.00000E+00
 -1      4158 3.21240E+01 1.90745E+01 0.00000E+00
 -1      4159 3.06240E+01 1.90745E+01 0.00000E+00
 -1      4160 2.98740E+01 2.03735E+01 0.00000E+00
 -1      4161 3.28740E+01 2.03735E+01 0.00000E+00
 -1      4162 5.76240E+01 2.16725E+01 0.00000E+00
 -1      4163 5.61240E+01 2.16725E+01 0.00000E+00
 -1      4164 5.53740E+01 2.29715E+01 0.00000E+00
 -1      4165 5.16240E+01 2.16725E+01 0.00000E+00
 -1      4166 5.01240E+01 2.16725E+01 0.00000E+00
 -1      4167 5.23740E+01 2.29715E+01 0.00000E+00
 -1      4168 6.06240E+01 2.16725E+01 0.00000E+00
 -1      4169 5.91240E+01 2.16725E+01 0.00000E+00
 -1      4170 5.83740E+01 2.29715E+01 0.00000E+00
 -1      4171 6.36240E+01 2.16725E+01 0.00000E+00
 -1      4172 6.21240E+01 2.16725E+01 0.00000E+00
 -1      4173 6.13740E+01 2.29715E+01 0.00000E+00
 -1      4174 6.66240E+01 2.16725E+01 0.00000E+00
 -1      4175 6.51240E+01 2.16725E+01 0.00000E+00
 -1      4176 6.43740E+01 2.29715E+01 0.00000E+00
 -1      4177 6.96240E+01 2.16725E+01 0.00000E+00
 -1      4178 6.81240E+01 2.16725E+01 0.00000E+00
 -1      4179 6.73740E+01 2.29715E+01 0.00000E+00
 -1      4180 7.26240E+01 2.16725E+01 0.00000E+00
 -1      4181 7.11240E+01 2.16725E+01 0.00000E+00
 -1      4182 7.03740E+01 2.29715E+01 0.00000E+00
 -1      4183 7.56240E+01 2.16725E+01 0.00000E+00
 -1      4184 7.41240E+01 2.16725E+01 0.00000E+00
 -1      4185 7.33740E+01 2.29715E+01 0.00000E+00
 -1      4186 7.86240E+01 2.16725E+01 0.00000E+00
 -1      4187 7.71240E+01 2.16725E+01 0.00000E+00
 -1      4188 7.63740E+01 2.29715E+01 0.00000E+00
 -1      4189 8.16240E+01 2.16725E+01 0.00000E+00
 -1      4190 8.01240E+01 2.16725E+01 0.00000E+00
 -1      4191 7.93740E+01 2.29715E+01 0.00000E+00
 -1      4192 8.46240E+01 2.16725E+01 0.00000E+00
 -1      4193 8.31240E+01 2.16725E+01 0.00000E+00
 -1      4194 8.23740E+01 2.29715E+01 0.00000E+00
 -1      4195 8.76240E+01 2.16725E+01 0.00000E+00
 -1      4196 8.61240E+01 2.16725E+01 0.00000E+00
 -1      4197 8.53740E+01 2.29715E+01 0.00000E+00
 -1      4198 9.32585E+01 2.18152E+01 0.00000E+00
 -1      4199 9.17585E+01 2.18152E+01 0.00000E+00
 -1      4200 2.08575E+01 2.76157E+01 0.00000E+00
 -1      4201 1.23624E+02 2.16725E+01 0.00000E+00
 -1      4202 1.22124E+02 2.16725E+01 0.00000E+00
 -1      4203 2.23575E+01 2.76157E+01 0.00000E+00
 -1      4204 2.38575E+01 2.76157E+01 0.00000E+00
 -1      4205 2.20650E+01 2.60154E+01 0.00000E+00
 -1      4206 1.26479E+02 2.17874E+01 0.00000E+00
 -1      4207 1.24979E+02 2.17874E+01 0.00000E+00
 -1      4208 1.24229E+02 2.30864E+01 0.00000E+00
 -1      4209 1.26940E+02 2.33163E+01 0.00000E+00
 -1      4210 2.51287E+01 2.77663E+01 0.00000E+00
 -1      4211 2.66287E+01 2.77663E+01 0.00000E+00
 -1      4212 2.73787E+01 2.64673E+01 0.00000E+00
 -1      4213 2.48363E+01 2.61660E+01 0.00000E+00
 -1      4214 2.11152E+01 1.94563E+01 0.00000E+00
 -1      4215 2.02575E+01 2.13329E+01 0.00000E+00
 -1      4216 2.15565E+01 2.20689E+01 0.00000E+00
 -1      4217 2.31015E+01 1.92066E+01 0.00000E+00
 -1      4218 1.62075E+01 1.90916E+01 0.00000E+00
 -1      4219 1.26158E+02 2.79963E+01 0.00000E+00
 -1      4220 1.28163E+02 2.80935E+01 0.00000E+00
 -1      4221 1.28163E+02 2.66255E+01 0.00000E+00
 -1      4222 1.26056E+02 2.68983E+01 0.00000E+00
 -1      4223 4.86240E+01 2.16725E+01 0.00000E+00
 -1      4224 4.71240E+01 2.16725E+01 0.00000E+00
 -1      4225 4.93740E+01 2.29715E+01 0.00000E+00
 -1      4226 1.20462E+02 2.16794E+01 0.00000E+00
 -1      4227 9.02921E+01 2.47839E+01 0.00000E+00
 -1      4228 9.08391E+01 2.33089E+01 0.00000E+00
 -1      4229 9.04546E+01 2.18672E+01 0.00000E+00
 -1      4230 8.86158E+01 2.48546E+01 0.00000E+00
 -1      4231 2.38515E+01 2.05056E+01 0.00000E+00
 -1      4232 4.56240E+01 2.16725E+01 0.00000E+00
 -1      4233 4.41240E+01 2.16725E+01 0.00000E+00
 -1      4234 4.63740E+01 2.29715E+01 0.00000E+00
 -1      4235 3.66240E+01 2.16725E+01 0.00000E+00
 -1      4236 3.51240E+01 2.16725E+01 0.00000E+00
 -1      4237 4.18740E+01 2.03735E+01 0.00000E+00
 -1      4238 2.76240E+01 2.16725E+01 0.00000E+00
 -1      4239 2.61240E+01 2.16725E+01 0.00000E+00
 -1      4240 3.06240E+01 2.16725E+01 0.00000E+00
 -1      4241 2.91240E+01 2.16725E+01 0.00000E+00
 -1      4242 2.83740E+01 2.29715E+01 0.00000E+00
 -1      4243 8.89546E+01 2.18672E+01 0.00000E+00
 -1      4244 8.82046E+01 2.31662E+01 0.00000E+00
 -1      4245 1.23853E+02 2.49602E+01 0.00000E+00
 -1      4246 1.25294E+02 2.51181E+01 0.00000E+00
 -1      4247 2.30859E+01 2.19703E+01 0.00000E+00
 -1      4248 2.23134E+01 2.34015E+01 0.00000E+00
 -1      4249 3.96240E+01 2.16725E+01 0.00000E+00
 -1      4250 3.81240E+01 2.16725E+01 0.00000E+00
 -1      4251 3.73740E+01 2.29715E+01 0.00000E+00
 -1      4252 2.21745E+01 2.47577E+01 0.00000E+00
 -1      4253 1.29374E+02 3.30271E+01 0.00000E+00
 -1      4254 1.21212E+02 2.29784E+01 0.00000E+00
 -1      4255 2.37039E+01 2.46592E+01 0.00000E+00
 -1      4256 2.92620E+01 2.47948E+01 0.00000E+00
 -1      4257 3.07620E+01 2.47948E+01 0.00000E+00
 -1      4258 4.26240E+01 2.16725E+01 0.00000E+00
 -1      4259 4.11240E+01 2.16725E+01 0.00000E+00
 -1      4260 4.33740E+01 2.29715E+01 0.00000E+00
 -1      4261 8.72852E+01 2.46599E+01 0.00000E+00
 -1      4262 5.92620E+01 2.47948E+01 0.00000E+00
 -1      4263 5.77620E+01 2.47948E+01 0.00000E+00
 -1      4264 3.52620E+01 2.47948E+01 0.00000E+00
 -1      4265 3.67620E+01 2.47948E+01 0.00000E+00
 -1      4266 3.82620E+01 2.47948E+01 0.00000E+00
 -1      4267 3.97620E+01 2.47948E+01 0.00000E+00
 -1      4268 4.12620E+01 2.47948E+01 0.00000E+00
 -1      4269 4.27620E+01 2.47948E+01 0.00000E+00
 -1      4270 4.42620E+01 2.47948E+01 0.00000E+00
 -1      4271 4.57620E+01 2.47948E+01 0.00000E+00
 -1      4272 4.72620E+01 2.47948E+01 0.00000E+00
 -1      4273 4.87620E+01 2.47948E+01 0.00000E+00
 -1      4274 5.02620E+01 2.47948E+01 0.00000E+00
 -1      4275 5.17620E+01 2.47948E+01 0.00000E+00
 -1      4276 5.32620E+01 2.47948E+01 0.00000E+00
 -1      4277 5.47620E+01 2.47948E+01 0.00000E+00
 -1      4278 5.62620E+01 2.47948E+01 0.00000E+00
 -1      4279 6.08370E+01 2.47948E+01 0.00000E+00
 -1      4280 6.23370E+01 2.47948E+01 0.00000E+00
 -1      4281 6.38370E+01 2.47948E+01 0.00000E+00
 -1      4282 6.53370E+01 2.47948E+01 0.00000E+00
 -1      4283 6.68370E+01 2.47948E+01 0.00000E+00
 -1      4284 6.83370E+01 2.47948E+01 0.00000E+00
 -1      4285 6.98370E+01 2.47948E+01 0.00000E+00
 -1      4286 7.13370E+01 2.47948E+01 0.00000E+00
 -1      4287 7.28370E+01 2.47948E+01 0.00000E+00
 -1      4288 7.43370E+01 2.47948E+01 0.00000E+00
 -1      4289 7.58370E+01 2.47948E+01 0.00000E+00
 -1      4290 7.73370E+01 2.47948E+01 0.00000E+00
 -1      4291 7.88370E+01 2.47948E+01 0.00000E+00
 -1      4292 3.36240E+01 2.16725E+01 0.00000E+00
 -1      4293 3.21240E+01 2.16725E+01 0.00000E+00
 -1      4294 3.13740E+01 2.29715E+01 0.00000E+00
 -1      4295 3.43740E+01 2.29715E+01 0.00000E+00
 -1      4296 1.26347E+02 2.49817E+01 0.00000E+00
 -1      4297 8.03370E+01 2.47948E+01 0.00000E+00
 -1      4298 8.30966E+01 2.46743E+01 0.00000E+00
 -1      4299 8.15966E+01 2.46743E+01 0.00000E+00
 -1      4300 8.58563E+01 2.45538E+01 0.00000E+00
 -1      4301 8.43563E+01 2.45538E+01 0.00000E+00
 -1      4302 2.46084E+01 2.18382E+01 0.00000E+00
 -1      4303 1.27702E+02 2.50966E+01 0.00000E+00
 -1      4304 1.22320E+02 2.35722E+01 0.00000E+00
 -1      4305 2.53584E+01 2.31372E+01 0.00000E+00
 -1      4306 2.49751E+01 2.48098E+01 0.00000E+00
 -1      4307 3.37620E+01 2.47948E+01 0.00000E+00
 -1      4308 2.64908E+01 2.46441E+01 0.00000E+00
 -1      4309 4.03740E+01 2.29715E+01 0.00000E+00
 -1      4310 3.22620E+01 2.47948E+01 0.00000E+00
 -1      4311 2.77620E+01 2.47948E+01 0.00000E+00
 -1      4312 1.23675E+02 2.36871E+01 0.00000E+00
 -3
    3C                          2074                                     1
 -1       165    8    0    1
 -2         6         7        23      1120      1284      1137
 -1       166    8    0    1
 -2         7         8       165      1121      1285      1286
 -1       167    8    0    1
 -2         8         9       166      1122      1287      1288
 -1       168    8    0    1
 -2         8       166       165      1288      1289      1285
 -1       169    8    0    1
 -2         9        10       167      1123      1290      1291
 -1       170    8    0    1
 -2         9       167       166      1291      1292      1287
 -1       171    8    0    1
 -2        10        11       168      1124      1293      1294
 -1       172    8    0    1
 -2        10       168       167      1294      1295      1290
 -1       173    8    0    1
 -2        11        12       169      1125      1296      1297
 -1       174    8    0    1
 -2        11       169       168      1297      1298      1293
 -1       175    8    0    1
 -2        12        13       170      1126      1299      1300
 -1       176    8    0    1
 -2        12       170       169      1300      1301      1296
 -1       177    8    0    1
 -2        13        14       171      1127      1302      1303
 -1       178    8    0    1
 -2        13       171       170      1303      1304      1299
 -1       179    8    0    1
 -2        14        15       172      1128      1305      1306
 -1       180    8    0    1
 -2        14       172       171      1306      1307      1302
 -1       181    8    0    1
 -2        15        16       173      1129      1308      1309
 -1       182    8    0    1
 -2        15       173       172      1309      1310      1305
 -1       183    8    0    1
 -2        16        17       174      1130      1311      1312
 -1       184    8    0    1
 -2        16       174       173      1312      1313      1308
 -1       185    8    0    1
 -2        17        18       175      1131      1314      1315
 -1       186    8    0    1
 -2        17       175       174      1315      1316      1311
 -1       187    8    0    1
 -2        18        19       176      1132      1317      1318
 -1       188    8    0    1
 -2        18       176       175      1318      1319      1314
 -1       189    8    0    1
 -2        19        20       177      1133      1320      1321
 -1       190    8    0    1
 -2        19       177       176      1321      1322      1317
 -1       191    8    0    1
 -2        20        21       178      1134      1323      1324
 -1       192    8    0    1
 -2        20       178       177      1324      1325      1320
 -1       193    8    0    1
 -2        21        22       179      1135      1326      1327
 -1       194    8    0    1
 -2        21       179       178      1327      1328      1323
 -1       195    8    0    1
 -2        22         5       180      1136      1329      1330
 -1       196    8    0    1
 -2       179        22       180      1326      1330      1331
 -1       197    8    0    1
 -2         5        73       180      1188      1332      1329
 -1       198    8    0    1
 -2        24        23       181      1138      1333      1334
 -1       199    8    0    1
 -2        25        24       182      1139      1335      1336
 -1       200    8    0    1
 -2        24       181       182      1334      1337      1335
 -1       201    8    0    1
 -2        26        25       183      1140      1338      1339
 -1       202    8    0    1
 -2        25       182       183      1336      1340      1338
 -1       203    8    0    1
 -2        27        26       184      1141      1341      1342
 -1       204    8    0    1
 -2        26       183       184      1339      1343      1341
 -1       205    8    0    1
 -2        28        27       185      1142      1344      1345
 -1       206    8    0    1
 -2        27       184       185      1342      1346      1344
 -1       207    8    0    1
 -2        29        28       186      1143      1347      1348
 -1       208    8    0    1
 -2        28       185       186      1345      1349      1347
 -1       209    8    0    1
 -2        30        29       187      1144      1350      1351
 -1       210    8    0    1
 -2        29       186       187      1348      1352      1350
 -1       211    8    0    1
 -2        31        30       188      1145      1353      1354
 -1       212    8    0    1
 -2        30       187       188      1351      1355      1353
 -1       213    8    0    1
 -2        32        31       189      1146      1356      1357
 -1       214    8    0    1
 -2        31       188       189      1354      1358      1356
 -1       215    8    0    1
 -2        33        32       190      1147      1359      1360
 -1       216    8    0    1
 -2        32       189       190      1357      1361      1359
 -1       217    8    0    1
 -2        34        33       191      1148      1362      1363
 -1       218    8    0    1
 -2        33       190       191      1360      1364      1362
 -1       219    8    0    1
 -2        35        34       192      1149      1365      1366
 -1       220    8    0    1
 -2        34       191       192      1363      1367      1365
 -1       221    8    0    1
 -2        36        35       193      1150      1368      1369
 -1       222    8    0    1
 -2        35       192       193      1366      1370      1368
 -1       223    8    0    1
 -2        37        36       194      1151      1371      1372
 -1       224    8    0    1
 -2        36       193       194      1369      1373      1371
 -1       225    8    0    1
 -2        38        37       195      1152      1374      1375
 -1       226    8    0    1
 -2        37       194       195      1372      1376      1374
 -1       227    8    0    1
 -2        39        38       196      1153      1377      1378
 -1       228    8    0    1
 -2        38       195       196      1375      1379      1377
 -1       229    8    0    1
 -2        40        39       197      1154      1380      1381
 -1       230    8    0    1
 -2        39       196       197      1378      1382      1380
 -1       231    8    0    1
 -2        41        40       198      1155      1383      1384
 -1       232    8    0    1
 -2        40       197       198      1381      1385      1383
 -1       233    8    0    1
 -2        42        41       199      1156      1386      1387
 -1       234    8    0    1
 -2        41       198       199      1384      1388      1386
 -1       235    8    0    1
 -2        43        42       200      1157      1389      1390
 -1       236    8    0    1
 -2        42       199       200      1387      1391      1389
 -1       237    8    0    1
 -2        44        43       201      1158      1392      1393
 -1       238    8    0    1
 -2        43       200       201      1390      1394      1392
 -1       239    8    0    1
 -2        45        44       202      1159      1395      1396
 -1       240    8    0    1
 -2        44       201       202      1393      1397      1395
 -1       241    8    0    1
 -2        46        45       203      1160      1398      1399
 -1       242    8    0    1
 -2        45       202       203      1396      1400      1398
 -1       243    8    0    1
 -2        47        46       204      1161      1401      1402
 -1       244    8    0    1
 -2        46       203       204      1399      1403      1401
 -1       245    8    0    1
 -2        48        47       205      1162      1404      1405
 -1       246    8    0    1
 -2        47       204       205      1402      1406      1404
 -1       247    8    0    1
 -2        49        48       206      1163      1407      1408
 -1       248    8    0    1
 -2        48       205       206      1405      1409      1407
 -1       249    8    0    1
 -2        50        49       207      1164      1410      1411
 -1       250    8    0    1
 -2        49       206       207      1408      1412      1410
 -1       251    8    0    1
 -2        51        50       208      1165      1413      1414
 -1       252    8    0    1
 -2        50       207       208      1411      1415      1413
 -1       253    8    0    1
 -2        52        51       209      1166      1416      1417
 -1       254    8    0    1
 -2        51       208       209      1414      1418      1416
 -1       255    8    0    1
 -2        53        52       210      1167      1419      1420
 -1       256    8    0    1
 -2        52       209       210      1417      1421      1419
 -1       257    8    0    1
 -2        54        53       211      1168      1422      1423
 -1       258    8    0    1
 -2        53       210       211      1420      1424      1422
 -1       259    8    0    1
 -2        55        54       212      1169      1425      1426
 -1       260    8    0    1
 -2        54       211       212      1423      1427      1425
 -1       261    8    0    1
 -2        56        55       213      1170      1428      1429
 -1       262    8    0    1
 -2        55       212       213      1426      1430      1428
 -1       263    8    0    1
 -2        57        56       214      1171      1431      1432
 -1       264    8    0    1
 -2        56       213       214      1429      1433      1431
 -1       265    8    0    1
 -2        58        57       215      1172      1434      1435
 -1       266    8    0    1
 -2        57       214       215      1432      1436      1434
 -1       267    8    0    1
 -2        60        59       216      1174      1437      1438
 -1       268    8    0    1
 -2        61        60       217      1175      1439      1440
 -1       269    8    0    1
 -2        60       216       217      1438      1441      1439
 -1       270    8    0    1
 -2        62        61       218      1176      1442      1443
 -1       271    8    0    1
 -2        61       217       218      1440      1444      1442
 -1       272    8    0    1
 -2        63        62       219      1177      1445      1446
 -1       273    8    0    1
 -2        62       218       219      1443      1447      1445
 -1       274    8    0    1
 -2        64        63       220      1178      1448      1449
 -1       275    8    0    1
 -2        63       219       220      1446      1450      1448
 -1       276    8    0    1
 -2        65        64       221      1179      1451      1452
 -1       277    8    0    1
 -2        64       220       221      1449      1453      1451
 -1       278    8    0    1
 -2        66        65       222      1180      1454      1455
 -1       279    8    0    1
 -2        65       221       222      1452      1456      1454
 -1       280    8    0    1
 -2        67        66       223      1181      1457      1458
 -1       281    8    0    1
 -2        66       222       223      1455      1459      1457
 -1       282    8    0    1
 -2        68        67       224      1182      1460      1461
 -1       283    8    0    1
 -2        67       223       224      1458      1462      1460
 -1       284    8    0    1
 -2        69        68       225      1183      1463      1464
 -1       285    8    0    1
 -2        68       224       225      1461      1465      1463
 -1       286    8    0    1
 -2        70        69       226      1184      1466      1467
 -1       287    8    0    1
 -2        69       225       226      1464      1468      1466
 -1       288    8    0    1
 -2        71        70       227      1185      1469      1470
 -1       289    8    0    1
 -2        70       226       227      1467      1471      1469
 -1       290    8    0    1
 -2        72        71       228      1186      1472      1473
 -1       291    8    0    1
 -2        71       227       228      1470      1474      1472
 -1       292    8    0    1
 -2         4        72       229      1187      1475      1476
 -1       293    8    0    1
 -2       137         4       229      1254      1476      1477
 -1       294    8    0    1
 -2        72       228       229      1473      1478      1475
 -1       295    8    0    1
 -2        73        74       230      1189      1479      1480
 -1       296    8    0    1
 -2        73       230       180      1480      1481      1332
 -1       297    8    0    1
 -2        74        75       231      1190      1482      1483
 -1       298    8    0    1
 -2        74       231       230      1483      1484      1479
 -1       299    8    0    1
 -2        75        76       232      1191      1485      1486
 -1       300    8    0    1
 -2        75       232       231      1486      1487      1482
 -1       301    8    0    1
 -2        76        77       233      1192      1488      1489
 -1       302    8    0    1
 -2        76       233       232      1489      1490      1485
 -1       303    8    0    1
 -2        77        78       234      1193      1491      1492
 -1       304    8    0    1
 -2        77       234       233      1492      1493      1488
 -1       305    8    0    1
 -2        78        79       235      1194      1494      1495
 -1       306    8    0    1
 -2        78       235       234      1495      1496      1491
 -1       307    8    0    1
 -2        79        80       236      1195      1497      1498
 -1       308    8    0    1
 -2        79       236       235      1498      1499      1494
 -1       309    8    0    1
 -2        80        81       237      1196      1500      1501
 -1       310    8    0    1
 -2        80       237       236      1501      1502      1497
 -1       311    8    0    1
 -2        81        82       238      1197      1503      1504
 -1       312    8    0    1
 -2        81       238       237      1504      1505      1500
 -1       313    8    0    1
 -2        82        83       239      1198      1506      1507
 -1       314    8    0    1
 -2        82       239       238      1507      1508      1503
 -1       315    8    0    1
 -2        83        84       240      1199      1509      1510
 -1       316    8    0    1
 -2        83       240       239      1510      1511      1506
 -1       317    8    0    1
 -2        84        85       241      1200      1512      1513
 -1       318    8    0    1
 -2        84       241       240      1513      1514      1509
 -1       319    8    0    1
 -2        85        86       242      1201      1515      1516
 -1       320    8    0    1
 -2        85       242       241      1516      1517      1512
 -1       321    8    0    1
 -2        86        87       243      1202      1518      1519
 -1       322    8    0    1
 -2        86       243       242      1519      1520      1515
 -1       323    8    0    1
 -2        87        88       244      1203      1521      1522
 -1       324    8    0    1
 -2        87       244       243      1522      1523      1518
 -1       325    8    0    1
 -2        88        89       245      1204      1524      1525
 -1       326    8    0    1
 -2        88       245       244      1525      1526      1521
 -1       327    8    0    1
 -2        89        90       246      1205      1527      1528
 -1       328    8    0    1
 -2        89       246       245      1528      1529      1524
 -1       329    8    0    1
 -2        90        91       247      1206      1530      1531
 -1       330    8    0    1
 -2        90       247       246      1531      1532      1527
 -1       331    8    0    1
 -2        91        92       248      1207      1533      1534
 -1       332    8    0    1
 -2        91       248       247      1534      1535      1530
 -1       333    8    0    1
 -2        92        93       249      1208      1536      1537
 -1       334    8    0    1
 -2        92       249       248      1537      1538      1533
 -1       335    8    0    1
 -2        93        94       250      1209      1539      1540
 -1       336    8    0    1
 -2        93       250       249      1540      1541      1536
 -1       337    8    0    1
 -2        94        95       251      1210      1542      1543
 -1       338    8    0    1
 -2        94       251       250      1543      1544      1539
 -1       339    8    0    1
 -2        95        96       252      1211      1545      1546
 -1       340    8    0    1
 -2        95       252       251      1546      1547      1542
 -1       341    8    0    1
 -2        96        97       253      1212      1548      1549
 -1       342    8    0    1
 -2        96       253       252      1549      1550      1545
 -1       343    8    0    1
 -2        97        98       254      1213      1551      1552
 -1       344    8    0    1
 -2        97       254       253      1552      1553      1548
 -1       345    8    0    1
 -2        98        99       255      1214      1554      1555
 -1       346    8    0    1
 -2        98       255       254      1555      1556      1551
 -1       347    8    0    1
 -2        99       100       256      1215      1557      1558
 -1       348    8    0    1
 -2        99       256       255      1558      1559      1554
 -1       349    8    0    1
 -2       100       101       257      1216      1560      1561
 -1       350    8    0    1
 -2       100       257       256      1561      1562      1557
 -1       351    8    0    1
 -2       101       102       258      1217      1563      1564
 -1       352    8    0    1
 -2       101       258       257      1564      1565      1560
 -1       353    8    0    1
 -2       102       103       259      1218      1566      1567
 -1       354    8    0    1
 -2       102       259       258      1567      1568      1563
 -1       355    8    0    1
 -2       103       104       260      1219      1569      1570
 -1       356    8    0    1
 -2       103       260       259      1570      1571      1566
 -1       357    8    0    1
 -2       104       105       261      1220      1572      1573
 -1       358    8    0    1
 -2       104       261       260      1573      1574      1569
 -1       359    8    0    1
 -2       105       106       262      1221      1575      1576
 -1       360    8    0    1
 -2       105       262       261      1576      1577      1572
 -1       361    8    0    1
 -2       106       107       263      1222      1578      1579
 -1       362    8    0    1
 -2       106       263       262      1579      1580      1575
 -1       363    8    0    1
 -2       107       108       264      1223      1581      1582
 -1       364    8    0    1
 -2       107       264       263      1582      1583      1578
 -1       365    8    0    1
 -2       108       109       265      1224      1584      1585
 -1       366    8    0    1
 -2       108       265       264      1585      1586      1581
 -1       367    8    0    1
 -2       109       110       266      1225      1587      1588
 -1       368    8    0    1
 -2       109       266       265      1588      1589      1584
 -1       369    8    0    1
 -2       110       111       267      1226      1590      1591
 -1       370    8    0    1
 -2       110       267       266      1591      1592      1587
 -1       371    8    0    1
 -2       111       112       268      1227      1593      1594
 -1       372    8    0    1
 -2       111       268       267      1594      1595      1590
 -1       373    8    0    1
 -2       112       113       269      1228      1596      1597
 -1       374    8    0    1
 -2       112       269       268      1597      1598      1593
 -1       375    8    0    1
 -2       113       114       270      1229      1599      1600
 -1       376    8    0    1
 -2       113       270       269      1600      1601      1596
 -1       377    8    0    1
 -2       114       115       271      1230      1602      1603
 -1       378    8    0    1
 -2       114       271       270      1603      1604      1599
 -1       379    8    0    1
 -2       115       116       272      1231      1605      1606
 -1       380    8    0    1
 -2       115       272       271      1606      1607      1602
 -1       381    8    0    1
 -2       116       117       273      1232      1608      1609
 -1       382    8    0    1
 -2       116       273       272      1609      1610      1605
 -1       383    8    0    1
 -2       117       118       274      1233      1611      1612
 -1       384    8    0    1
 -2       117       274       273      1612      1613      1608
 -1       385    8    0    1
 -2       118       119       275      1234      1614      1615
 -1       386    8    0    1
 -2       118       275       274      1615      1616      1611
 -1       387    8    0    1
 -2       119       120       276      1235      1617      1618
 -1       388    8    0    1
 -2       119       276       275      1618      1619      1614
 -1       389    8    0    1
 -2       120       121       277      1236      1620      1621
 -1       390    8    0    1
 -2       120       277       276      1621      1622      1617
 -1       391    8    0    1
 -2       121         3       122      1237      1238      1623
 -1       392    8    0    1
 -2       122       123       278      1239      1624      1625
 -1       393    8    0    1
 -2       123       124       279      1240      1626      1627
 -1       394    8    0    1
 -2       123       279       278      1627      1628      1624
 -1       395    8    0    1
 -2       124       125       280      1241      1629      1630
 -1       396    8    0    1
 -2       124       280       279      1630      1631      1626
 -1       397    8    0    1
 -2       125       126       281      1242      1632      1633
 -1       398    8    0    1
 -2       125       281       280      1633      1634      1629
 -1       399    8    0    1
 -2       126       127       282      1243      1635      1636
 -1       400    8    0    1
 -2       126       282       281      1636      1637      1632
 -1       401    8    0    1
 -2       127       128       283      1244      1638      1639
 -1       402    8    0    1
 -2       127       283       282      1639      1640      1635
 -1       403    8    0    1
 -2       128       129       284      1245      1641      1642
 -1       404    8    0    1
 -2       128       284       283      1642      1643      1638
 -1       405    8    0    1
 -2       129       130       285      1246      1644      1645
 -1       406    8    0    1
 -2       129       285       284      1645      1646      1641
 -1       407    8    0    1
 -2       130       131       286      1247      1647      1648
 -1       408    8    0    1
 -2       130       286       285      1648      1649      1644
 -1       409    8    0    1
 -2       131       132       287      1248      1650      1651
 -1       410    8    0    1
 -2       131       287       286      1651      1652      1647
 -1       411    8    0    1
 -2       132       133       288      1249      1653      1654
 -1       412    8    0    1
 -2       132       288       287      1654      1655      1650
 -1       413    8    0    1
 -2       133       134       289      1250      1656      1657
 -1       414    8    0    1
 -2       133       289       288      1657      1658      1653
 -1       415    8    0    1
 -2       134       135       290      1251      1659      1660
 -1       416    8    0    1
 -2       134       290       289      1660      1661      1656
 -1       417    8    0    1
 -2       135       136       291      1252      1662      1663
 -1       418    8    0    1
 -2       135       291       290      1663      1664      1659
 -1       419    8    0    1
 -2       136       137       292      1253      1665      1666
 -1       420    8    0    1
 -2       291       136       292      1662      1666      1667
 -1       421    8    0    1
 -2       137       229       292      1477      1668      1665
 -1       422    8    0    1
 -2         2       138       293      1255      1669      1670
 -1       423    8    0    1
 -2       138       139       294      1256      1671      1672
 -1       424    8    0    1
 -2       139       140       295      1257      1673      1674
 -1       425    8    0    1
 -2       140       141       296      1258      1675      1676
 -1       426    8    0    1
 -2       141       142       297      1259      1677      1678
 -1       427    8    0    1
 -2       142       143       298      1260      1679      1680
 -1       428    8    0    1
 -2       143       144       299      1261      1681      1682
 -1       429    8    0    1
 -2       144       145       300      1262      1683      1684
 -1       430    8    0    1
 -2       145       146       301      1263      1685      1686
 -1       431    8    0    1
 -2       146       147       302      1264      1687      1688
 -1       432    8    0    1
 -2       147       148       303      1265      1689      1690
 -1       433    8    0    1
 -2       148       149       304      1266      1691      1692
 -1       434    8    0    1
 -2       149       150       305      1267      1693      1694
 -1       435    8    0    1
 -2       150       151       306      1268      1695      1696
 -1       436    8    0    1
 -2       151       152       307      1269      1697      1698
 -1       437    8    0    1
 -2       152       153       308      1270      1699      1700
 -1       438    8    0    1
 -2       153       154       309      1271      1701      1702
 -1       439    8    0    1
 -2       154       155       310      1272      1703      1704
 -1       440    8    0    1
 -2       155       156       311      1273      1705      1706
 -1       441    8    0    1
 -2       156       157       312      1274      1707      1708
 -1       442    8    0    1
 -2       157       158       313      1275      1709      1710
 -1       443    8    0    1
 -2       158       159       314      1276      1711      1712
 -1       444    8    0    1
 -2       159       160       315      1277      1713      1714
 -1       445    8    0    1
 -2       160         1       316      1278      1715      1716
 -1       446    8    0    1
 -2         1       161       317      1279      1717      1718
 -1       447    8    0    1
 -2       161       162       318      1280      1719      1720
 -1       448    8    0    1
 -2       162       163       319      1281      1721      1722
 -1       449    8    0    1
 -2       162       319       318      1722      1723      1719
 -1       450    8    0    1
 -2       163       164       320      1282      1724      1725
 -1       451    8    0    1
 -2       164         2       321      1283      1726      1727
 -1       452    8    0    1
 -2        59        58       322      1173      1728      1729
 -1       453    8    0    1
 -2         2       293       321      1670      1730      1726
 -1       454    8    0    1
 -2       295       140       296      1673      1676      1731
 -1       455    8    0    1
 -2        58       215       322      1435      1732      1728
 -1       456    8    0    1
 -2       121       122       277      1623      1733      1620
 -1       457    8    0    1
 -2       122       278       277      1625      1734      1733
 -1       458    8    0    1
 -2       293       138       294      1669      1672      1735
 -1       459    8    0    1
 -2       294       139       295      1671      1674      1736
 -1       460    8    0    1
 -2       141       297       296      1678      1737      1675
 -1       461    8    0    1
 -2       142       298       297      1680      1738      1677
 -1       462    8    0    1
 -2       143       299       298      1682      1739      1679
 -1       463    8    0    1
 -2       144       300       299      1684      1740      1681
 -1       464    8    0    1
 -2       145       301       300      1686      1741      1683
 -1       465    8    0    1
 -2       146       302       301      1688      1742      1685
 -1       466    8    0    1
 -2       147       303       302      1690      1743      1687
 -1       467    8    0    1
 -2       148       304       303      1692      1744      1689
 -1       468    8    0    1
 -2       149       305       304      1694      1745      1691
 -1       469    8    0    1
 -2       150       306       305      1696      1746      1693
 -1       470    8    0    1
 -2       151       307       306      1698      1747      1695
 -1       471    8    0    1
 -2       152       308       307      1700      1748      1697
 -1       472    8    0    1
 -2       153       309       308      1702      1749      1699
 -1       473    8    0    1
 -2       154       310       309      1704      1750      1701
 -1       474    8    0    1
 -2       155       311       310      1706      1751      1703
 -1       475    8    0    1
 -2       156       312       311      1708      1752      1705
 -1       476    8    0    1
 -2       157       313       312      1710      1753      1707
 -1       477    8    0    1
 -2       158       314       313      1712      1754      1709
 -1       478    8    0    1
 -2       159       315       314      1714      1755      1711
 -1       479    8    0    1
 -2       160       316       315      1716      1756      1713
 -1       480    8    0    1
 -2         1       317       316      1718      1757      1715
 -1       481    8    0    1
 -2       161       318       317      1720      1758      1717
 -1       482    8    0    1
 -2       320       164       321      1724      1727      1759
 -1       483    8    0    1
 -2        59       322       216      1729      1760      1437
 -1       484    8    0    1
 -2        23         7       165      1284      1286      1761
 -1       485    8    0    1
 -2       163       320       319      1725      1762      1721
 -1       486    8    0    1
 -2       166       167       323      1292      1763      1764
 -1       487    8    0    1
 -2       165       166       324      1289      1765      1766
 -1       488    8    0    1
 -2       166       323       324      1764      1767      1765
 -1       489    8    0    1
 -2       168       169       325      1298      1768      1769
 -1       490    8    0    1
 -2       169       170       326      1301      1770      1771
 -1       491    8    0    1
 -2       169       326       325      1771      1772      1768
 -1       492    8    0    1
 -2       170       171       327      1304      1773      1774
 -1       493    8    0    1
 -2       170       327       326      1774      1775      1770
 -1       494    8    0    1
 -2       171       172       328      1307      1776      1777
 -1       495    8    0    1
 -2       171       328       327      1777      1778      1773
 -1       496    8    0    1
 -2       172       173       329      1310      1779      1780
 -1       497    8    0    1
 -2       172       329       328      1780      1781      1776
 -1       498    8    0    1
 -2       173       174       330      1313      1782      1783
 -1       499    8    0    1
 -2       173       330       329      1783      1784      1779
 -1       500    8    0    1
 -2       174       175       331      1316      1785      1786
 -1       501    8    0    1
 -2       174       331       330      1786      1787      1782
 -1       502    8    0    1
 -2       175       176       332      1319      1788      1789
 -1       503    8    0    1
 -2       175       332       331      1789      1790      1785
 -1       504    8    0    1
 -2       176       177       333      1322      1791      1792
 -1       505    8    0    1
 -2       176       333       332      1792      1793      1788
 -1       506    8    0    1
 -2       177       178       334      1325      1794      1795
 -1       507    8    0    1
 -2       177       334       333      1795      1796      1791
 -1       508    8    0    1
 -2       178       179       335      1328      1797      1798
 -1       509    8    0    1
 -2       178       335       334      1798      1799      1794
 -1       510    8    0    1
 -2       179       180       336      1331      1800      1801
 -1       511    8    0    1
 -2       335       179       336      1797      1801      1802
 -1       512    8    0    1
 -2       180       230       336      1481      1803      1800
 -1       513    8    0    1
 -2       181        23       165      1333      1761      1804
 -1       514    8    0    1
 -2       230       231       337      1484      1805      1806
 -1       515    8    0    1
 -2       230       337       336      1806      1807      1803
 -1       516    8    0    1
 -2       319       320       338      1762      1808      1809
 -1       517    8    0    1
 -2       181       165       324      1804      1766      1810
 -1       518    8    0    1
 -2       183       182       339      1340      1811      1812
 -1       519    8    0    1
 -2       184       183       340      1343      1813      1814
 -1       520    8    0    1
 -2       183       339       340      1812      1815      1813
 -1       521    8    0    1
 -2       185       184       341      1346      1816      1817
 -1       522    8    0    1
 -2       184       340       341      1814      1818      1816
 -1       523    8    0    1
 -2       186       185       342      1349      1819      1820
 -1       524    8    0    1
 -2       185       341       342      1817      1821      1819
 -1       525    8    0    1
 -2       187       186       343      1352      1822      1823
 -1       526    8    0    1
 -2       186       342       343      1820      1824      1822
 -1       527    8    0    1
 -2       188       187       344      1355      1825      1826
 -1       528    8    0    1
 -2       187       343       344      1823      1827      1825
 -1       529    8    0    1
 -2       189       188       345      1358      1828      1829
 -1       530    8    0    1
 -2       188       344       345      1826      1830      1828
 -1       531    8    0    1
 -2       190       189       346      1361      1831      1832
 -1       532    8    0    1
 -2       189       345       346      1829      1833      1831
 -1       533    8    0    1
 -2       191       190       347      1364      1834      1835
 -1       534    8    0    1
 -2       190       346       347      1832      1836      1834
 -1       535    8    0    1
 -2       192       191       348      1367      1837      1838
 -1       536    8    0    1
 -2       191       347       348      1835      1839      1837
 -1       537    8    0    1
 -2       193       192       349      1370      1840      1841
 -1       538    8    0    1
 -2       192       348       349      1838      1842      1840
 -1       539    8    0    1
 -2       194       193       350      1373      1843      1844
 -1       540    8    0    1
 -2       193       349       350      1841      1845      1843
 -1       541    8    0    1
 -2       195       194       351      1376      1846      1847
 -1       542    8    0    1
 -2       194       350       351      1844      1848      1846
 -1       543    8    0    1
 -2       196       195       352      1379      1849      1850
 -1       544    8    0    1
 -2       195       351       352      1847      1851      1849
 -1       545    8    0    1
 -2       197       196       353      1382      1852      1853
 -1       546    8    0    1
 -2       196       352       353      1850      1854      1852
 -1       547    8    0    1
 -2       198       197       354      1385      1855      1856
 -1       548    8    0    1
 -2       197       353       354      1853      1857      1855
 -1       549    8    0    1
 -2       199       198       355      1388      1858      1859
 -1       550    8    0    1
 -2       198       354       355      1856      1860      1858
 -1       551    8    0    1
 -2       200       199       356      1391      1861      1862
 -1       552    8    0    1
 -2       199       355       356      1859      1863      1861
 -1       553    8    0    1
 -2       201       200       357      1394      1864      1865
 -1       554    8    0    1
 -2       200       356       357      1862      1866      1864
 -1       555    8    0    1
 -2       202       201       358      1397      1867      1868
 -1       556    8    0    1
 -2       201       357       358      1865      1869      1867
 -1       557    8    0    1
 -2       203       202       359      1400      1870      1871
 -1       558    8    0    1
 -2       202       358       359      1868      1872      1870
 -1       559    8    0    1
 -2       204       203       360      1403      1873      1874
 -1       560    8    0    1
 -2       203       359       360      1871      1875      1873
 -1       561    8    0    1
 -2       205       204       361      1406      1876      1877
 -1       562    8    0    1
 -2       204       360       361      1874      1878      1876
 -1       563    8    0    1
 -2       206       205       362      1409      1879      1880
 -1       564    8    0    1
 -2       205       361       362      1877      1881      1879
 -1       565    8    0    1
 -2       207       206       363      1412      1882      1883
 -1       566    8    0    1
 -2       206       362       363      1880      1884      1882
 -1       567    8    0    1
 -2       208       207       364      1415      1885      1886
 -1       568    8    0    1
 -2       207       363       364      1883      1887      1885
 -1       569    8    0    1
 -2       209       208       365      1418      1888      1889
 -1       570    8    0    1
 -2       208       364       365      1886      1890      1888
 -1       571    8    0    1
 -2       210       209       366      1421      1891      1892
 -1       572    8    0    1
 -2       209       365       366      1889      1893      1891
 -1       573    8    0    1
 -2       211       210       367      1424      1894      1895
 -1       574    8    0    1
 -2       210       366       367      1892      1896      1894
 -1       575    8    0    1
 -2       212       211       368      1427      1897      1898
 -1       576    8    0    1
 -2       211       367       368      1895      1899      1897
 -1       577    8    0    1
 -2       213       212       369      1430      1900      1901
 -1       578    8    0    1
 -2       212       368       369      1898      1902      1900
 -1       579    8    0    1
 -2       321       293       370      1730      1903      1904
 -1       580    8    0    1
 -2       218       217       371      1444      1905      1906
 -1       581    8    0    1
 -2       219       218       372      1447      1907      1908
 -1       582    8    0    1
 -2       220       219       373      1450      1909      1910
 -1       583    8    0    1
 -2       219       372       373      1908      1911      1909
 -1       584    8    0    1
 -2       221       220       374      1453      1912      1913
 -1       585    8    0    1
 -2       220       373       374      1910      1914      1912
 -1       586    8    0    1
 -2       222       221       375      1456      1915      1916
 -1       587    8    0    1
 -2       221       374       375      1913      1917      1915
 -1       588    8    0    1
 -2       223       222       376      1459      1918      1919
 -1       589    8    0    1
 -2       222       375       376      1916      1920      1918
 -1       590    8    0    1
 -2       224       223       377      1462      1921      1922
 -1       591    8    0    1
 -2       223       376       377      1919      1923      1921
 -1       592    8    0    1
 -2       225       224       378      1465      1924      1925
 -1       593    8    0    1
 -2       224       377       378      1922      1926      1924
 -1       594    8    0    1
 -2       226       225       379      1468      1927      1928
 -1       595    8    0    1
 -2       225       378       379      1925      1929      1927
 -1       596    8    0    1
 -2       227       226       380      1471      1930      1931
 -1       597    8    0    1
 -2       226       379       380      1928      1932      1930
 -1       598    8    0    1
 -2       228       227       381      1474      1933      1934
 -1       599    8    0    1
 -2       227       380       381      1931      1935      1933
 -1       600    8    0    1
 -2       229       228       292      1478      1936      1668
 -1       601    8    0    1
 -2       232       233       382      1490      1937      1938
 -1       602    8    0    1
 -2       233       234       383      1493      1939      1940
 -1       603    8    0    1
 -2       233       383       382      1940      1941      1937
 -1       604    8    0    1
 -2       234       235       384      1496      1942      1943
 -1       605    8    0    1
 -2       234       384       383      1943      1944      1939
 -1       606    8    0    1
 -2       235       236       385      1499      1945      1946
 -1       607    8    0    1
 -2       235       385       384      1946      1947      1942
 -1       608    8    0    1
 -2       236       237       386      1502      1948      1949
 -1       609    8    0    1
 -2       236       386       385      1949      1950      1945
 -1       610    8    0    1
 -2       237       238       387      1505      1951      1952
 -1       611    8    0    1
 -2       237       387       386      1952      1953      1948
 -1       612    8    0    1
 -2       238       239       388      1508      1954      1955
 -1       613    8    0    1
 -2       238       388       387      1955      1956      1951
 -1       614    8    0    1
 -2       239       240       389      1511      1957      1958
 -1       615    8    0    1
 -2       239       389       388      1958      1959      1954
 -1       616    8    0    1
 -2       240       241       390      1514      1960      1961
 -1       617    8    0    1
 -2       240       390       389      1961      1962      1957
 -1       618    8    0    1
 -2       241       242       391      1517      1963      1964
 -1       619    8    0    1
 -2       241       391       390      1964      1965      1960
 -1       620    8    0    1
 -2       242       243       392      1520      1966      1967
 -1       621    8    0    1
 -2       242       392       391      1967      1968      1963
 -1       622    8    0    1
 -2       243       244       393      1523      1969      1970
 -1       623    8    0    1
 -2       243       393       392      1970      1971      1966
 -1       624    8    0    1
 -2       244       245       394      1526      1972      1973
 -1       625    8    0    1
 -2       244       394       393      1973      1974      1969
 -1       626    8    0    1
 -2       245       246       395      1529      1975      1976
 -1       627    8    0    1
 -2       245       395       394      1976      1977      1972
 -1       628    8    0    1
 -2       246       247       396      1532      1978      1979
 -1       629    8    0    1
 -2       246       396       395      1979      1980      1975
 -1       630    8    0    1
 -2       247       248       397      1535      1981      1982
 -1       631    8    0    1
 -2       247       397       396      1982      1983      1978
 -1       632    8    0    1
 -2       248       249       398      1538      1984      1985
 -1       633    8    0    1
 -2       248       398       397      1985      1986      1981
 -1       634    8    0    1
 -2       249       250       399      1541      1987      1988
 -1       635    8    0    1
 -2       249       399       398      1988      1989      1984
 -1       636    8    0    1
 -2       250       251       400      1544      1990      1991
 -1       637    8    0    1
 -2       250       400       399      1991      1992      1987
 -1       638    8    0    1
 -2       251       252       401      1547      1993      1994
 -1       639    8    0    1
 -2       251       401       400      1994      1995      1990
 -1       640    8    0    1
 -2       252       253       402      1550      1996      1997
 -1       641    8    0    1
 -2       252       402       401      1997      1998      1993
 -1       642    8    0    1
 -2       253       254       403      1553      1999      2000
 -1       643    8    0    1
 -2       253       403       402      2000      2001      1996
 -1       644    8    0    1
 -2       254       255       404      1556      2002      2003
 -1       645    8    0    1
 -2       254       404       403      2003      2004      1999
 -1       646    8    0    1
 -2       255       256       405      1559      2005      2006
 -1       647    8    0    1
 -2       255       405       404      2006      2007      2002
 -1       648    8    0    1
 -2       256       257       406      1562      2008      2009
 -1       649    8    0    1
 -2       256       406       405      2009      2010      2005
 -1       650    8    0    1
 -2       257       258       407      1565      2011      2012
 -1       651    8    0    1
 -2       257       407       406      2012      2013      2008
 -1       652    8    0    1
 -2       258       259       408      1568      2014      2015
 -1       653    8    0    1
 -2       258       408       407      2015      2016      2011
 -1       654    8    0    1
 -2       259       260       409      1571      2017      2018
 -1       655    8    0    1
 -2       259       409       408      2018      2019      2014
 -1       656    8    0    1
 -2       260       261       410      1574      2020      2021
 -1       657    8    0    1
 -2       260       410       409      2021      2022      2017
 -1       658    8    0    1
 -2       261       262       411      1577      2023      2024
 -1       659    8    0    1
 -2       261       411       410      2024      2025      2020
 -1       660    8    0    1
 -2       262       263       412      1580      2026      2027
 -1       661    8    0    1
 -2       262       412       411      2027      2028      2023
 -1       662    8    0    1
 -2       263       264       413      1583      2029      2030
 -1       663    8    0    1
 -2       263       413       412      2030      2031      2026
 -1       664    8    0    1
 -2       264       265       414      1586      2032      2033
 -1       665    8    0    1
 -2       264       414       413      2033      2034      2029
 -1       666    8    0    1
 -2       265       266       415      1589      2035      2036
 -1       667    8    0    1
 -2       265       415       414      2036      2037      2032
 -1       668    8    0    1
 -2       266       267       416      1592      2038      2039
 -1       669    8    0    1
 -2       266       416       415      2039      2040      2035
 -1       670    8    0    1
 -2       267       268       417      1595      2041      2042
 -1       671    8    0    1
 -2       267       417       416      2042      2043      2038
 -1       672    8    0    1
 -2       268       269       418      1598      2044      2045
 -1       673    8    0    1
 -2       268       418       417      2045      2046      2041
 -1       674    8    0    1
 -2       269       270       419      1601      2047      2048
 -1       675    8    0    1
 -2       269       419       418      2048      2049      2044
 -1       676    8    0    1
 -2       270       271       420      1604      2050      2051
 -1       677    8    0    1
 -2       270       420       419      2051      2052      2047
 -1       678    8    0    1
 -2       271       272       421      1607      2053      2054
 -1       679    8    0    1
 -2       271       421       420      2054      2055      2050
 -1       680    8    0    1
 -2       272       273       422      1610      2056      2057
 -1       681    8    0    1
 -2       272       422       421      2057      2058      2053
 -1       682    8    0    1
 -2       273       274       423      1613      2059      2060
 -1       683    8    0    1
 -2       273       423       422      2060      2061      2056
 -1       684    8    0    1
 -2       274       275       424      1616      2062      2063
 -1       685    8    0    1
 -2       274       424       423      2063      2064      2059
 -1       686    8    0    1
 -2       275       276       425      1619      2065      2066
 -1       687    8    0    1
 -2       275       425       424      2066      2067      2062
 -1       688    8    0    1
 -2       276       277       426      1622      2068      2069
 -1       689    8    0    1
 -2       425       276       426      2065      2069      2070
 -1       690    8    0    1
 -2       277       278       426      1734      2071      2068
 -1       691    8    0    1
 -2       280       281       427      1634      2072      2073
 -1       692    8    0    1
 -2       279       280       428      1631      2074      2075
 -1       693    8    0    1
 -2       280       427       428      2073      2076      2074
 -1       694    8    0    1
 -2       278       279       426      1628      2077      2071
 -1       695    8    0    1
 -2       281       282       429      1637      2078      2079
 -1       696    8    0    1
 -2       281       429       427      2079      2080      2072
 -1       697    8    0    1
 -2       282       283       430      1640      2081      2082
 -1       698    8    0    1
 -2       282       430       429      2082      2083      2078
 -1       699    8    0    1
 -2       283       284       431      1643      2084      2085
 -1       700    8    0    1
 -2       283       431       430      2085      2086      2081
 -1       701    8    0    1
 -2       284       285       432      1646      2087      2088
 -1       702    8    0    1
 -2       284       432       431      2088      2089      2084
 -1       703    8    0    1
 -2       285       286       433      1649      2090      2091
 -1       704    8    0    1
 -2       285       433       432      2091      2092      2087
 -1       705    8    0    1
 -2       286       287       434      1652      2093      2094
 -1       706    8    0    1
 -2       286       434       433      2094      2095      2090
 -1       707    8    0    1
 -2       287       288       435      1655      2096      2097
 -1       708    8    0    1
 -2       287       435       434      2097      2098      2093
 -1       709    8    0    1
 -2       288       289       436      1658      2099      2100
 -1       710    8    0    1
 -2       288       436       435      2100      2101      2096
 -1       711    8    0    1
 -2       289       290       437      1661      2102      2103
 -1       712    8    0    1
 -2       289       437       436      2103      2104      2099
 -1       713    8    0    1
 -2       290       291       438      1664      2105      2106
 -1       714    8    0    1
 -2       290       438       437      2106      2107      2102
 -1       715    8    0    1
 -2       231       232       439      1487      2108      2109
 -1       716    8    0    1
 -2       337       231       439      1805      2109      2110
 -1       717    8    0    1
 -2       232       382       439      1938      2111      2108
 -1       718    8    0    1
 -2       294       295       440      1736      2112      2113
 -1       719    8    0    1
 -2       296       297       441      1737      2114      2115
 -1       720    8    0    1
 -2       322       215       313      1732      2116      2117
 -1       721    8    0    1
 -2       318       319       442      1723      2118      2119
 -1       722    8    0    1
 -2       319       338       442      1809      2120      2118
 -1       723    8    0    1
 -2       167       168       443      1295      2121      2122
 -1       724    8    0    1
 -2       323       167       443      1763      2122      2123
 -1       725    8    0    1
 -2       168       325       443      1769      2124      2121
 -1       726    8    0    1
 -2       217       216       444      1441      2125      2126
 -1       727    8    0    1
 -2       297       298       445      1738      2127      2128
 -1       728    8    0    1
 -2       298       299       446      1739      2129      2130
 -1       729    8    0    1
 -2       299       300       447      1740      2131      2132
 -1       730    8    0    1
 -2       300       301       448      1741      2133      2134
 -1       731    8    0    1
 -2       301       302       449      1742      2135      2136
 -1       732    8    0    1
 -2       301       449       448      2136      2137      2133
 -1       733    8    0    1
 -2       302       303       450      1743      2138      2139
 -1       734    8    0    1
 -2       303       304       451      1744      2140      2141
 -1       735    8    0    1
 -2       304       305       452      1745      2142      2143
 -1       736    8    0    1
 -2       305       306       453      1746      2144      2145
 -1       737    8    0    1
 -2       306       307       454      1747      2146      2147
 -1       738    8    0    1
 -2       307       308       455      1748      2148      2149
 -1       739    8    0    1
 -2       308       309       456      1749      2150      2151
 -1       740    8    0    1
 -2       309       310       457      1750      2152      2153
 -1       741    8    0    1
 -2       310       311       458      1751      2154      2155
 -1       742    8    0    1
 -2       311       312       459      1752      2156      2157
 -1       743    8    0    1
 -2       312       313       215      1753      2116      2158
 -1       744    8    0    1
 -2       313       314       322      1754      2159      2117
 -1       745    8    0    1
 -2       315       316       444      1756      2160      2161
 -1       746    8    0    1
 -2       317       318       460      1758      2162      2163
 -1       747    8    0    1
 -2       320       321       461      1759      2164      2165
 -1       748    8    0    1
 -2       320       461       338      2165      2166      1808
 -1       749    8    0    1
 -2       295       296       462      1731      2167      2168
 -1       750    8    0    1
 -2       293       294       463      1735      2169      2170
 -1       751    8    0    1
 -2       213       369       458      1901      2171      2172
 -1       752    8    0    1
 -2       371       217       444      1905      2126      2173
 -1       753    8    0    1
 -2       440       295       462      2112      2168      2174
 -1       754    8    0    1
 -2       182       181       324      1337      1810      2175
 -1       755    8    0    1
 -2       339       182       324      1811      2175      2176
 -1       756    8    0    1
 -2       321       370       461      1904      2177      2164
 -1       757    8    0    1
 -2       370       293       463      1903      2170      2178
 -1       758    8    0    1
 -2       214       213       458      1433      2172      2179
 -1       759    8    0    1
 -2       215       214       312      1436      2180      2158
 -1       760    8    0    1
 -2       218       371       372      1906      2181      1907
 -1       761    8    0    1
 -2       292       228       381      1936      1934      2182
 -1       762    8    0    1
 -2       426       279       428      2077      2075      2183
 -1       763    8    0    1
 -2       322       314       464      2159      2184      2185
 -1       764    8    0    1
 -2       291       292       465      1667      2186      2187
 -1       765    8    0    1
 -2       438       291       465      2105      2187      2188
 -1       766    8    0    1
 -2       292       381       465      2182      2189      2186
 -1       767    8    0    1
 -2       294       440       463      2113      2190      2169
 -1       768    8    0    1
 -2       441       297       445      2114      2128      2191
 -1       769    8    0    1
 -2       296       441       462      2115      2192      2167
 -1       770    8    0    1
 -2       318       442       460      2119      2193      2162
 -1       771    8    0    1
 -2       457       310       458      2152      2155      2194
 -1       772    8    0    1
 -2       456       309       457      2150      2153      2195
 -1       773    8    0    1
 -2       455       308       456      2148      2151      2196
 -1       774    8    0    1
 -2       454       307       455      2146      2149      2197
 -1       775    8    0    1
 -2       453       306       454      2144      2147      2198
 -1       776    8    0    1
 -2       452       305       453      2142      2145      2199
 -1       777    8    0    1
 -2       451       304       452      2140      2143      2200
 -1       778    8    0    1
 -2       449       302       450      2135      2139      2201
 -1       779    8    0    1
 -2       447       300       448      2131      2134      2202
 -1       780    8    0    1
 -2       446       299       447      2129      2132      2203
 -1       781    8    0    1
 -2       216       322       464      1760      2185      2204
 -1       782    8    0    1
 -2       445       298       446      2127      2130      2205
 -1       783    8    0    1
 -2       450       303       451      2138      2141      2206
 -1       784    8    0    1
 -2       314       315       464      1755      2207      2184
 -1       785    8    0    1
 -2       316       317       466      1757      2208      2209
 -1       786    8    0    1
 -2       466       317       460      2208      2163      2210
 -1       787    8    0    1
 -2       326       327       467      1775      2211      2212
 -1       788    8    0    1
 -2       325       326       468      1772      2213      2214
 -1       789    8    0    1
 -2       326       467       468      2212      2215      2213
 -1       790    8    0    1
 -2       328       329       469      1781      2216      2217
 -1       791    8    0    1
 -2       329       330       470      1784      2218      2219
 -1       792    8    0    1
 -2       329       470       469      2219      2220      2216
 -1       793    8    0    1
 -2       330       331       471      1787      2221      2222
 -1       794    8    0    1
 -2       330       471       470      2222      2223      2218
 -1       795    8    0    1
 -2       331       332       472      1790      2224      2225
 -1       796    8    0    1
 -2       331       472       471      2225      2226      2221
 -1       797    8    0    1
 -2       332       333       473      1793      2227      2228
 -1       798    8    0    1
 -2       332       473       472      2228      2229      2224
 -1       799    8    0    1
 -2       333       334       474      1796      2230      2231
 -1       800    8    0    1
 -2       333       474       473      2231      2232      2227
 -1       801    8    0    1
 -2       334       335       475      1799      2233      2234
 -1       802    8    0    1
 -2       334       475       474      2234      2235      2230
 -1       803    8    0    1
 -2       335       336       476      1802      2236      2237
 -1       804    8    0    1
 -2       475       335       476      2233      2237      2238
 -1       805    8    0    1
 -2       336       337       476      1807      2239      2236
 -1       806    8    0    1
 -2       340       339       477      1815      2240      2241
 -1       807    8    0    1
 -2       461       370       478      2177      2242      2243
 -1       808    8    0    1
 -2       339       324       479      2176      2244      2245
 -1       809    8    0    1
 -2       477       339       479      2240      2245      2246
 -1       810    8    0    1
 -2       324       323       479      1767      2247      2244
 -1       811    8    0    1
 -2       341       340       480      1818      2248      2249
 -1       812    8    0    1
 -2       340       477       480      2241      2250      2248
 -1       813    8    0    1
 -2       342       341       481      1821      2251      2252
 -1       814    8    0    1
 -2       341       480       481      2249      2253      2251
 -1       815    8    0    1
 -2       343       342       482      1824      2254      2255
 -1       816    8    0    1
 -2       342       481       482      2252      2256      2254
 -1       817    8    0    1
 -2       344       343       483      1827      2257      2258
 -1       818    8    0    1
 -2       343       482       483      2255      2259      2257
 -1       819    8    0    1
 -2       345       344       484      1830      2260      2261
 -1       820    8    0    1
 -2       344       483       484      2258      2262      2260
 -1       821    8    0    1
 -2       346       345       485      1833      2263      2264
 -1       822    8    0    1
 -2       345       484       485      2261      2265      2263
 -1       823    8    0    1
 -2       347       346       486      1836      2266      2267
 -1       824    8    0    1
 -2       346       485       486      2264      2268      2266
 -1       825    8    0    1
 -2       348       347       487      1839      2269      2270
 -1       826    8    0    1
 -2       347       486       487      2267      2271      2269
 -1       827    8    0    1
 -2       349       348       488      1842      2272      2273
 -1       828    8    0    1
 -2       348       487       488      2270      2274      2272
 -1       829    8    0    1
 -2       350       349       489      1845      2275      2276
 -1       830    8    0    1
 -2       349       488       489      2273      2277      2275
 -1       831    8    0    1
 -2       351       350       490      1848      2278      2279
 -1       832    8    0    1
 -2       350       489       490      2276      2280      2278
 -1       833    8    0    1
 -2       352       351       491      1851      2281      2282
 -1       834    8    0    1
 -2       351       490       491      2279      2283      2281
 -1       835    8    0    1
 -2       353       352       492      1854      2284      2285
 -1       836    8    0    1
 -2       352       491       492      2282      2286      2284
 -1       837    8    0    1
 -2       354       353       493      1857      2287      2288
 -1       838    8    0    1
 -2       353       492       493      2285      2289      2287
 -1       839    8    0    1
 -2       355       354       494      1860      2290      2291
 -1       840    8    0    1
 -2       354       493       494      2288      2292      2290
 -1       841    8    0    1
 -2       356       355       495      1863      2293      2294
 -1       842    8    0    1
 -2       355       494       495      2291      2295      2293
 -1       843    8    0    1
 -2       357       356       496      1866      2296      2297
 -1       844    8    0    1
 -2       356       495       496      2294      2298      2296
 -1       845    8    0    1
 -2       358       357       497      1869      2299      2300
 -1       846    8    0    1
 -2       357       496       497      2297      2301      2299
 -1       847    8    0    1
 -2       359       358       498      1872      2302      2303
 -1       848    8    0    1
 -2       358       497       498      2300      2304      2302
 -1       849    8    0    1
 -2       360       359       499      1875      2305      2306
 -1       850    8    0    1
 -2       359       498       499      2303      2307      2305
 -1       851    8    0    1
 -2       361       360       500      1878      2308      2309
 -1       852    8    0    1
 -2       360       499       500      2306      2310      2308
 -1       853    8    0    1
 -2       362       361       501      1881      2311      2312
 -1       854    8    0    1
 -2       361       500       501      2309      2313      2311
 -1       855    8    0    1
 -2       363       362       502      1884      2314      2315
 -1       856    8    0    1
 -2       362       501       502      2312      2316      2314
 -1       857    8    0    1
 -2       364       363       503      1887      2317      2318
 -1       858    8    0    1
 -2       363       502       503      2315      2319      2317
 -1       859    8    0    1
 -2       365       364       504      1890      2320      2321
 -1       860    8    0    1
 -2       364       503       504      2318      2322      2320
 -1       861    8    0    1
 -2       366       365       505      1893      2323      2324
 -1       862    8    0    1
 -2       365       504       505      2321      2325      2323
 -1       863    8    0    1
 -2       367       366       506      1896      2326      2327
 -1       864    8    0    1
 -2       366       505       506      2324      2328      2326
 -1       865    8    0    1
 -2       368       367       507      1899      2329      2330
 -1       866    8    0    1
 -2       367       506       507      2327      2331      2329
 -1       867    8    0    1
 -2       426       428       425      2183      2332      2070
 -1       868    8    0    1
 -2       374       373       508      1914      2333      2334
 -1       869    8    0    1
 -2       375       374       509      1917      2335      2336
 -1       870    8    0    1
 -2       374       508       509      2334      2337      2335
 -1       871    8    0    1
 -2       376       375       510      1920      2338      2339
 -1       872    8    0    1
 -2       375       509       510      2336      2340      2338
 -1       873    8    0    1
 -2       377       376       511      1923      2341      2342
 -1       874    8    0    1
 -2       376       510       511      2339      2343      2341
 -1       875    8    0    1
 -2       378       377       512      1926      2344      2345
 -1       876    8    0    1
 -2       377       511       512      2342      2346      2344
 -1       877    8    0    1
 -2       379       378       513      1929      2347      2348
 -1       878    8    0    1
 -2       378       512       513      2345      2349      2347
 -1       879    8    0    1
 -2       380       379       514      1932      2350      2351
 -1       880    8    0    1
 -2       379       513       514      2348      2352      2350
 -1       881    8    0    1
 -2       381       380       515      1935      2353      2354
 -1       882    8    0    1
 -2       465       381       515      2189      2354      2355
 -1       883    8    0    1
 -2       380       514       515      2351      2356      2353
 -1       884    8    0    1
 -2       384       385       516      1947      2357      2358
 -1       885    8    0    1
 -2       383       384       517      1944      2359      2360
 -1       886    8    0    1
 -2       384       516       517      2358      2361      2359
 -1       887    8    0    1
 -2       382       383       518      1941      2362      2363
 -1       888    8    0    1
 -2       383       517       518      2360      2364      2362
 -1       889    8    0    1
 -2       385       386       519      1950      2365      2366
 -1       890    8    0    1
 -2       385       519       516      2366      2367      2357
 -1       891    8    0    1
 -2       386       387       520      1953      2368      2369
 -1       892    8    0    1
 -2       386       520       519      2369      2370      2365
 -1       893    8    0    1
 -2       387       388       521      1956      2371      2372
 -1       894    8    0    1
 -2       387       521       520      2372      2373      2368
 -1       895    8    0    1
 -2       388       389       522      1959      2374      2375
 -1       896    8    0    1
 -2       388       522       521      2375      2376      2371
 -1       897    8    0    1
 -2       389       390       523      1962      2377      2378
 -1       898    8    0    1
 -2       389       523       522      2378      2379      2374
 -1       899    8    0    1
 -2       390       391       524      1965      2380      2381
 -1       900    8    0    1
 -2       390       524       523      2381      2382      2377
 -1       901    8    0    1
 -2       391       392       525      1968      2383      2384
 -1       902    8    0    1
 -2       391       525       524      2384      2385      2380
 -1       903    8    0    1
 -2       392       393       526      1971      2386      2387
 -1       904    8    0    1
 -2       392       526       525      2387      2388      2383
 -1       905    8    0    1
 -2       393       394       527      1974      2389      2390
 -1       906    8    0    1
 -2       393       527       526      2390      2391      2386
 -1       907    8    0    1
 -2       394       395       528      1977      2392      2393
 -1       908    8    0    1
 -2       394       528       527      2393      2394      2389
 -1       909    8    0    1
 -2       395       396       529      1980      2395      2396
 -1       910    8    0    1
 -2       395       529       528      2396      2397      2392
 -1       911    8    0    1
 -2       396       397       530      1983      2398      2399
 -1       912    8    0    1
 -2       396       530       529      2399      2400      2395
 -1       913    8    0    1
 -2       397       398       531      1986      2401      2402
 -1       914    8    0    1
 -2       397       531       530      2402      2403      2398
 -1       915    8    0    1
 -2       398       399       532      1989      2404      2405
 -1       916    8    0    1
 -2       398       532       531      2405      2406      2401
 -1       917    8    0    1
 -2       399       400       533      1992      2407      2408
 -1       918    8    0    1
 -2       399       533       532      2408      2409      2404
 -1       919    8    0    1
 -2       400       401       534      1995      2410      2411
 -1       920    8    0    1
 -2       400       534       533      2411      2412      2407
 -1       921    8    0    1
 -2       401       402       535      1998      2413      2414
 -1       922    8    0    1
 -2       401       535       534      2414      2415      2410
 -1       923    8    0    1
 -2       402       403       536      2001      2416      2417
 -1       924    8    0    1
 -2       402       536       535      2417      2418      2413
 -1       925    8    0    1
 -2       403       404       537      2004      2419      2420
 -1       926    8    0    1
 -2       403       537       536      2420      2421      2416
 -1       927    8    0    1
 -2       404       405       538      2007      2422      2423
 -1       928    8    0    1
 -2       404       538       537      2423      2424      2419
 -1       929    8    0    1
 -2       405       406       539      2010      2425      2426
 -1       930    8    0    1
 -2       405       539       538      2426      2427      2422
 -1       931    8    0    1
 -2       406       407       540      2013      2428      2429
 -1       932    8    0    1
 -2       406       540       539      2429      2430      2425
 -1       933    8    0    1
 -2       407       408       541      2016      2431      2432
 -1       934    8    0    1
 -2       407       541       540      2432      2433      2428
 -1       935    8    0    1
 -2       408       409       542      2019      2434      2435
 -1       936    8    0    1
 -2       408       542       541      2435      2436      2431
 -1       937    8    0    1
 -2       409       410       543      2022      2437      2438
 -1       938    8    0    1
 -2       409       543       542      2438      2439      2434
 -1       939    8    0    1
 -2       410       411       544      2025      2440      2441
 -1       940    8    0    1
 -2       410       544       543      2441      2442      2437
 -1       941    8    0    1
 -2       411       412       545      2028      2443      2444
 -1       942    8    0    1
 -2       411       545       544      2444      2445      2440
 -1       943    8    0    1
 -2       412       413       546      2031      2446      2447
 -1       944    8    0    1
 -2       412       546       545      2447      2448      2443
 -1       945    8    0    1
 -2       413       414       547      2034      2449      2450
 -1       946    8    0    1
 -2       413       547       546      2450      2451      2446
 -1       947    8    0    1
 -2       414       415       548      2037      2452      2453
 -1       948    8    0    1
 -2       414       548       547      2453      2454      2449
 -1       949    8    0    1
 -2       415       416       549      2040      2455      2456
 -1       950    8    0    1
 -2       415       549       548      2456      2457      2452
 -1       951    8    0    1
 -2       416       417       550      2043      2458      2459
 -1       952    8    0    1
 -2       416       550       549      2459      2460      2455
 -1       953    8    0    1
 -2       417       418       551      2046      2461      2462
 -1       954    8    0    1
 -2       417       551       550      2462      2463      2458
 -1       955    8    0    1
 -2       418       419       552      2049      2464      2465
 -1       956    8    0    1
 -2       418       552       551      2465      2466      2461
 -1       957    8    0    1
 -2       419       420       553      2052      2467      2468
 -1       958    8    0    1
 -2       419       553       552      2468      2469      2464
 -1       959    8    0    1
 -2       420       421       554      2055      2470      2471
 -1       960    8    0    1
 -2       420       554       553      2471      2472      2467
 -1       961    8    0    1
 -2       421       422       555      2058      2473      2474
 -1       962    8    0    1
 -2       421       555       554      2474      2475      2470
 -1       963    8    0    1
 -2       422       423       556      2061      2476      2477
 -1       964    8    0    1
 -2       422       556       555      2477      2478      2473
 -1       965    8    0    1
 -2       423       424       557      2064      2479      2480
 -1       966    8    0    1
 -2       423       557       556      2480      2481      2476
 -1       967    8    0    1
 -2       424       425       558      2067      2482      2483
 -1       968    8    0    1
 -2       424       558       557      2483      2484      2479
 -1       969    8    0    1
 -2       429       430       559      2083      2485      2486
 -1       970    8    0    1
 -2       427       429       560      2080      2487      2488
 -1       971    8    0    1
 -2       429       559       560      2486      2489      2487
 -1       972    8    0    1
 -2       428       427       561      2076      2490      2491
 -1       973    8    0    1
 -2       427       560       561      2488      2492      2490
 -1       974    8    0    1
 -2       316       466       444      2209      2493      2160
 -1       975    8    0    1
 -2       445       446       562      2205      2494      2495
 -1       976    8    0    1
 -2       430       431       563      2086      2496      2497
 -1       977    8    0    1
 -2       430       563       559      2497      2498      2485
 -1       978    8    0    1
 -2       431       432       564      2089      2499      2500
 -1       979    8    0    1
 -2       431       564       563      2500      2501      2496
 -1       980    8    0    1
 -2       432       433       565      2092      2502      2503
 -1       981    8    0    1
 -2       432       565       564      2503      2504      2499
 -1       982    8    0    1
 -2       433       434       566      2095      2505      2506
 -1       983    8    0    1
 -2       433       566       565      2506      2507      2502
 -1       984    8    0    1
 -2       434       435       567      2098      2508      2509
 -1       985    8    0    1
 -2       434       567       566      2509      2510      2505
 -1       986    8    0    1
 -2       435       436       568      2101      2511      2512
 -1       987    8    0    1
 -2       435       568       567      2512      2513      2508
 -1       988    8    0    1
 -2       436       437       569      2104      2514      2515
 -1       989    8    0    1
 -2       436       569       568      2515      2516      2511
 -1       990    8    0    1
 -2       437       438       570      2107      2517      2518
 -1       991    8    0    1
 -2       437       570       569      2518      2519      2514
 -1       992    8    0    1
 -2       315       444       464      2161      2520      2207
 -1       993    8    0    1
 -2       458       369       457      2171      2521      2194
 -1       994    8    0    1
 -2       441       445       571      2191      2522      2523
 -1       995    8    0    1
 -2       445       562       571      2495      2524      2522
 -1       996    8    0    1
 -2       370       463       572      2178      2525      2526
 -1       997    8    0    1
 -2       458       311       459      2154      2157      2527
 -1       998    8    0    1
 -2       447       448       573      2202      2528      2529
 -1       999    8    0    1
 -2       442       338       574      2120      2530      2531
 -1      1000    8    0    1
 -2       373       372       575      1911      2532      2533
 -1      1001    8    0    1
 -2       463       440       576      2190      2534      2535
 -1      1002    8    0    1
 -2       327       328       577      1778      2536      2537
 -1      1003    8    0    1
 -2       467       327       577      2211      2537      2538
 -1      1004    8    0    1
 -2       328       469       577      2217      2539      2536
 -1      1005    8    0    1
 -2       425       428       558      2332      2540      2482
 -1      1006    8    0    1
 -2       462       441       578      2192      2541      2542
 -1      1007    8    0    1
 -2       450       451       579      2206      2543      2544
 -1      1008    8    0    1
 -2       216       464       444      2204      2520      2125
 -1      1009    8    0    1
 -2       446       447       580      2203      2545      2546
 -1      1010    8    0    1
 -2       446       580       562      2546      2547      2494
 -1      1011    8    0    1
 -2       448       449       581      2137      2548      2549
 -1      1012    8    0    1
 -2       457       369       582      2521      2550      2551
 -1      1013    8    0    1
 -2       456       457       582      2195      2551      2552
 -1      1014    8    0    1
 -2       369       368       582      1902      2553      2550
 -1      1015    8    0    1
 -2       449       450       583      2201      2554      2555
 -1      1016    8    0    1
 -2       451       452       584      2200      2556      2557
 -1      1017    8    0    1
 -2       452       453       585      2199      2558      2559
 -1      1018    8    0    1
 -2       453       454       586      2198      2560      2561
 -1      1019    8    0    1
 -2       454       455       587      2197      2562      2563
 -1      1020    8    0    1
 -2       454       587       586      2563      2564      2560
 -1      1021    8    0    1
 -2       455       456       588      2196      2565      2566
 -1      1022    8    0    1
 -2       456       582       588      2552      2567      2565
 -1      1023    8    0    1
 -2       338       461       589      2166      2568      2569
 -1      1024    8    0    1
 -2       338       589       574      2569      2570      2530
 -1      1025    8    0    1
 -2       460       442       590      2193      2571      2572
 -1      1026    8    0    1
 -2       440       462       591      2174      2573      2574
 -1      1027    8    0    1
 -2       312       214       459      2180      2575      2156
 -1      1028    8    0    1
 -2       371       444       466      2173      2493      2576
 -1      1029    8    0    1
 -2       325       468       592      2214      2577      2578
 -1      1030    8    0    1
 -2       325       592       443      2578      2579      2124
 -1      1031    8    0    1
 -2       476       337       593      2239      2580      2581
 -1      1032    8    0    1
 -2       337       439       593      2110      2582      2580
 -1      1033    8    0    1
 -2       478       370       572      2242      2526      2583
 -1      1034    8    0    1
 -2       461       478       589      2243      2584      2568
 -1      1035    8    0    1
 -2       323       443       594      2123      2585      2586
 -1      1036    8    0    1
 -2       479       323       594      2247      2586      2587
 -1      1037    8    0    1
 -2       443       592       594      2579      2588      2585
 -1      1038    8    0    1
 -2       449       583       581      2555      2589      2548
 -1      1039    8    0    1
 -2       368       507       582      2330      2590      2553
 -1      1040    8    0    1
 -2       508       373       575      2333      2533      2591
 -1      1041    8    0    1
 -2       428       561       558      2491      2592      2540
 -1      1042    8    0    1
 -2       462       578       591      2542      2593      2573
 -1      1043    8    0    1
 -2       448       581       573      2549      2594      2528
 -1      1044    8    0    1
 -2       438       465       515      2188      2355      2595
 -1      1045    8    0    1
 -2       580       447       595      2545      2596      2597
 -1      1046    8    0    1
 -2       447       573       595      2529      2598      2596
 -1      1047    8    0    1
 -2       570       438       515      2517      2595      2599
 -1      1048    8    0    1
 -2       575       372       590      2532      2600      2601
 -1      1049    8    0    1
 -2       439       382       596      2111      2602      2603
 -1      1050    8    0    1
 -2       593       439       596      2582      2603      2604
 -1      1051    8    0    1
 -2       382       518       596      2363      2605      2602
 -1      1052    8    0    1
 -2       572       463       576      2525      2535      2606
 -1      1053    8    0    1
 -2       371       466       460      2576      2210      2607
 -1      1054    8    0    1
 -2       371       460       590      2607      2572      2608
 -1      1055    8    0    1
 -2       587       455       588      2562      2566      2609
 -1      1056    8    0    1
 -2       576       440       591      2534      2574      2610
 -1      1057    8    0    1
 -2       578       441       571      2541      2523      2611
 -1      1058    8    0    1
 -2       450       579       597      2544      2612      2613
 -1      1059    8    0    1
 -2       450       597       583      2613      2614      2554
 -1      1060    8    0    1
 -2       585       453       586      2558      2561      2615
 -1      1061    8    0    1
 -2       584       452       585      2556      2559      2616
 -1      1062    8    0    1
 -2       451       584       579      2557      2617      2543
 -1      1063    8    0    1
 -2       372       371       590      2181      2608      2600
 -1      1064    8    0    1
 -2       470       471       598      2223      2618      2619
 -1      1065    8    0    1
 -2       469       470       599      2220      2620      2621
 -1      1066    8    0    1
 -2       470       598       599      2619      2622      2620
 -1      1067    8    0    1
 -2       472       473       600      2229      2623      2624
 -1      1068    8    0    1
 -2       473       474       601      2232      2625      2626
 -1      1069    8    0    1
 -2       473       601       600      2626      2627      2623
 -1      1070    8    0    1
 -2       475       476       602      2238      2628      2629
 -1      1071    8    0    1
 -2       476       593       602      2581      2630      2628
 -1      1072    8    0    1
 -2       480       477       603      2250      2631      2632
 -1      1073    8    0    1
 -2       477       479       604      2246      2633      2634
 -1      1074    8    0    1
 -2       603       477       604      2631      2634      2635
 -1      1075    8    0    1
 -2       479       594       604      2587      2636      2633
 -1      1076    8    0    1
 -2       560       559       605      2489      2637      2638
 -1      1077    8    0    1
 -2       481       480       606      2253      2639      2640
 -1      1078    8    0    1
 -2       480       603       606      2632      2641      2639
 -1      1079    8    0    1
 -2       482       481       607      2256      2642      2643
 -1      1080    8    0    1
 -2       481       606       607      2640      2644      2642
 -1      1081    8    0    1
 -2       483       482       608      2259      2645      2646
 -1      1082    8    0    1
 -2       482       607       608      2643      2647      2645
 -1      1083    8    0    1
 -2       484       483       609      2262      2648      2649
 -1      1084    8    0    1
 -2       483       608       609      2646      2650      2648
 -1      1085    8    0    1
 -2       485       484       610      2265      2651      2652
 -1      1086    8    0    1
 -2       484       609       610      2649      2653      2651
 -1      1087    8    0    1
 -2       486       485       611      2268      2654      2655
 -1      1088    8    0    1
 -2       485       610       611      2652      2656      2654
 -1      1089    8    0    1
 -2       487       486       612      2271      2657      2658
 -1      1090    8    0    1
 -2       486       611       612      2655      2659      2657
 -1      1091    8    0    1
 -2       488       487       613      2274      2660      2661
 -1      1092    8    0    1
 -2       487       612       613      2658      2662      2660
 -1      1093    8    0    1
 -2       489       488       614      2277      2663      2664
 -1      1094    8    0    1
 -2       488       613       614      2661      2665      2663
 -1      1095    8    0    1
 -2       490       489       615      2280      2666      2667
 -1      1096    8    0    1
 -2       489       614       615      2664      2668      2666
 -1      1097    8    0    1
 -2       491       490       616      2283      2669      2670
 -1      1098    8    0    1
 -2       490       615       616      2667      2671      2669
 -1      1099    8    0    1
 -2       492       491       617      2286      2672      2673
 -1      1100    8    0    1
 -2       491       616       617      2670      2674      2672
 -1      1101    8    0    1
 -2       493       492       618      2289      2675      2676
 -1      1102    8    0    1
 -2       492       617       618      2673      2677      2675
 -1      1103    8    0    1
 -2       494       493       619      2292      2678      2679
 -1      1104    8    0    1
 -2       493       618       619      2676      2680      2678
 -1      1105    8    0    1
 -2       495       494       620      2295      2681      2682
 -1      1106    8    0    1
 -2       494       619       620      2679      2683      2681
 -1      1107    8    0    1
 -2       496       495       621      2298      2684      2685
 -1      1108    8    0    1
 -2       495       620       621      2682      2686      2684
 -1      1109    8    0    1
 -2       497       496       622      2301      2687      2688
 -1      1110    8    0    1
 -2       496       621       622      2685      2689      2687
 -1      1111    8    0    1
 -2       498       497       623      2304      2690      2691
 -1      1112    8    0    1
 -2       497       622       623      2688      2692      2690
 -1      1113    8    0    1
 -2       499       498       624      2307      2693      2694
 -1      1114    8    0    1
 -2       498       623       624      2691      2695      2693
 -1      1115    8    0    1
 -2       500       499       625      2310      2696      2697
 -1      1116    8    0    1
 -2       499       624       625      2694      2698      2696
 -1      1117    8    0    1
 -2       501       500       626      2313      2699      2700
 -1      1118    8    0    1
 -2       500       625       626      2697      2701      2699
 -1      1119    8    0    1
 -2       502       501       627      2316      2702      2703
 -1      1120    8    0    1
 -2       501       626       627      2700      2704      2702
 -1      1121    8    0    1
 -2       503       502       628      2319      2705      2706
 -1      1122    8    0    1
 -2       502       627       628      2703      2707      2705
 -1      1123    8    0    1
 -2       504       503       629      2322      2708      2709
 -1      1124    8    0    1
 -2       503       628       629      2706      2710      2708
 -1      1125    8    0    1
 -2       505       504       630      2325      2711      2712
 -1      1126    8    0    1
 -2       504       629       630      2709      2713      2711
 -1      1127    8    0    1
 -2       506       505       631      2328      2714      2715
 -1      1128    8    0    1
 -2       505       630       631      2712      2716      2714
 -1      1129    8    0    1
 -2       507       506       632      2331      2717      2718
 -1      1130    8    0    1
 -2       506       631       632      2715      2719      2717
 -1      1131    8    0    1
 -2       509       508       633      2337      2720      2721
 -1      1132    8    0    1
 -2       519       520       634      2370      2722      2723
 -1      1133    8    0    1
 -2       510       509       635      2340      2724      2725
 -1      1134    8    0    1
 -2       511       510       636      2343      2726      2727
 -1      1135    8    0    1
 -2       510       635       636      2725      2728      2726
 -1      1136    8    0    1
 -2       512       511       637      2346      2729      2730
 -1      1137    8    0    1
 -2       511       636       637      2727      2731      2729
 -1      1138    8    0    1
 -2       513       512       638      2349      2732      2733
 -1      1139    8    0    1
 -2       512       637       638      2730      2734      2732
 -1      1140    8    0    1
 -2       514       513       639      2352      2735      2736
 -1      1141    8    0    1
 -2       513       638       639      2733      2737      2735
 -1      1142    8    0    1
 -2       515       514       640      2356      2738      2739
 -1      1143    8    0    1
 -2       570       515       640      2599      2739      2740
 -1      1144    8    0    1
 -2       514       639       640      2736      2741      2738
 -1      1145    8    0    1
 -2       517       516       641      2361      2742      2743
 -1      1146    8    0    1
 -2       516       519       642      2367      2744      2745
 -1      1147    8    0    1
 -2       641       516       642      2742      2745      2746
 -1      1148    8    0    1
 -2       519       634       642      2723      2747      2744
 -1      1149    8    0    1
 -2       518       517       643      2364      2748      2749
 -1      1150    8    0    1
 -2       517       641       643      2743      2750      2748
 -1      1151    8    0    1
 -2       520       521       644      2373      2751      2752
 -1      1152    8    0    1
 -2       520       644       634      2752      2753      2722
 -1      1153    8    0    1
 -2       521       522       645      2376      2754      2755
 -1      1154    8    0    1
 -2       521       645       644      2755      2756      2751
 -1      1155    8    0    1
 -2       522       523       646      2379      2757      2758
 -1      1156    8    0    1
 -2       522       646       645      2758      2759      2754
 -1      1157    8    0    1
 -2       523       524       647      2382      2760      2761
 -1      1158    8    0    1
 -2       523       647       646      2761      2762      2757
 -1      1159    8    0    1
 -2       524       525       648      2385      2763      2764
 -1      1160    8    0    1
 -2       524       648       647      2764      2765      2760
 -1      1161    8    0    1
 -2       525       526       649      2388      2766      2767
 -1      1162    8    0    1
 -2       525       649       648      2767      2768      2763
 -1      1163    8    0    1
 -2       526       527       650      2391      2769      2770
 -1      1164    8    0    1
 -2       526       650       649      2770      2771      2766
 -1      1165    8    0    1
 -2       527       528       651      2394      2772      2773
 -1      1166    8    0    1
 -2       527       651       650      2773      2774      2769
 -1      1167    8    0    1
 -2       528       529       652      2397      2775      2776
 -1      1168    8    0    1
 -2       528       652       651      2776      2777      2772
 -1      1169    8    0    1
 -2       529       530       653      2400      2778      2779
 -1      1170    8    0    1
 -2       529       653       652      2779      2780      2775
 -1      1171    8    0    1
 -2       530       531       654      2403      2781      2782
 -1      1172    8    0    1
 -2       530       654       653      2782      2783      2778
 -1      1173    8    0    1
 -2       531       532       655      2406      2784      2785
 -1      1174    8    0    1
 -2       531       655       654      2785      2786      2781
 -1      1175    8    0    1
 -2       532       533       656      2409      2787      2788
 -1      1176    8    0    1
 -2       532       656       655      2788      2789      2784
 -1      1177    8    0    1
 -2       533       534       657      2412      2790      2791
 -1      1178    8    0    1
 -2       533       657       656      2791      2792      2787
 -1      1179    8    0    1
 -2       534       535       658      2415      2793      2794
 -1      1180    8    0    1
 -2       534       658       657      2794      2795      2790
 -1      1181    8    0    1
 -2       535       536       659      2418      2796      2797
 -1      1182    8    0    1
 -2       535       659       658      2797      2798      2793
 -1      1183    8    0    1
 -2       536       537       660      2421      2799      2800
 -1      1184    8    0    1
 -2       536       660       659      2800      2801      2796
 -1      1185    8    0    1
 -2       537       538       661      2424      2802      2803
 -1      1186    8    0    1
 -2       537       661       660      2803      2804      2799
 -1      1187    8    0    1
 -2       538       539       662      2427      2805      2806
 -1      1188    8    0    1
 -2       538       662       661      2806      2807      2802
 -1      1189    8    0    1
 -2       539       540       663      2430      2808      2809
 -1      1190    8    0    1
 -2       539       663       662      2809      2810      2805
 -1      1191    8    0    1
 -2       540       541       664      2433      2811      2812
 -1      1192    8    0    1
 -2       540       664       663      2812      2813      2808
 -1      1193    8    0    1
 -2       541       542       665      2436      2814      2815
 -1      1194    8    0    1
 -2       541       665       664      2815      2816      2811
 -1      1195    8    0    1
 -2       542       543       666      2439      2817      2818
 -1      1196    8    0    1
 -2       542       666       665      2818      2819      2814
 -1      1197    8    0    1
 -2       543       544       667      2442      2820      2821
 -1      1198    8    0    1
 -2       543       667       666      2821      2822      2817
 -1      1199    8    0    1
 -2       544       545       668      2445      2823      2824
 -1      1200    8    0    1
 -2       544       668       667      2824      2825      2820
 -1      1201    8    0    1
 -2       545       546       669      2448      2826      2827
 -1      1202    8    0    1
 -2       545       669       668      2827      2828      2823
 -1      1203    8    0    1
 -2       546       547       670      2451      2829      2830
 -1      1204    8    0    1
 -2       546       670       669      2830      2831      2826
 -1      1205    8    0    1
 -2       547       548       671      2454      2832      2833
 -1      1206    8    0    1
 -2       547       671       670      2833      2834      2829
 -1      1207    8    0    1
 -2       548       549       672      2457      2835      2836
 -1      1208    8    0    1
 -2       548       672       671      2836      2837      2832
 -1      1209    8    0    1
 -2       549       550       673      2460      2838      2839
 -1      1210    8    0    1
 -2       549       673       672      2839      2840      2835
 -1      1211    8    0    1
 -2       550       551       674      2463      2841      2842
 -1      1212    8    0    1
 -2       550       674       673      2842      2843      2838
 -1      1213    8    0    1
 -2       551       552       675      2466      2844      2845
 -1      1214    8    0    1
 -2       551       675       674      2845      2846      2841
 -1      1215    8    0    1
 -2       552       553       676      2469      2847      2848
 -1      1216    8    0    1
 -2       552       676       675      2848      2849      2844
 -1      1217    8    0    1
 -2       553       554       677      2472      2850      2851
 -1      1218    8    0    1
 -2       553       677       676      2851      2852      2847
 -1      1219    8    0    1
 -2       554       555       678      2475      2853      2854
 -1      1220    8    0    1
 -2       554       678       677      2854      2855      2850
 -1      1221    8    0    1
 -2       555       556       679      2478      2856      2857
 -1      1222    8    0    1
 -2       555       679       678      2857      2858      2853
 -1      1223    8    0    1
 -2       556       557       680      2481      2859      2860
 -1      1224    8    0    1
 -2       556       680       679      2860      2861      2856
 -1      1225    8    0    1
 -2       557       558       681      2484      2862      2863
 -1      1226    8    0    1
 -2       680       557       681      2859      2863      2864
 -1      1227    8    0    1
 -2       558       561       681      2592      2865      2862
 -1      1228    8    0    1
 -2       563       564       682      2501      2866      2867
 -1      1229    8    0    1
 -2       572       576       683      2606      2868      2869
 -1      1230    8    0    1
 -2       581       583       684      2589      2870      2871
 -1      1231    8    0    1
 -2       561       560       685      2492      2872      2873
 -1      1232    8    0    1
 -2       681       561       685      2865      2873      2874
 -1      1233    8    0    1
 -2       560       605       685      2638      2875      2872
 -1      1234    8    0    1
 -2       564       565       686      2504      2876      2877
 -1      1235    8    0    1
 -2       564       686       682      2877      2878      2866
 -1      1236    8    0    1
 -2       559       563       687      2498      2879      2880
 -1      1237    8    0    1
 -2       605       559       687      2637      2880      2881
 -1      1238    8    0    1
 -2       563       682       687      2867      2882      2879
 -1      1239    8    0    1
 -2       565       566       688      2507      2883      2884
 -1      1240    8    0    1
 -2       565       688       686      2884      2885      2876
 -1      1241    8    0    1
 -2       566       567       689      2510      2886      2887
 -1      1242    8    0    1
 -2       566       689       688      2887      2888      2883
 -1      1243    8    0    1
 -2       567       568       690      2513      2889      2890
 -1      1244    8    0    1
 -2       567       690       689      2890      2891      2886
 -1      1245    8    0    1
 -2       568       569       691      2516      2892      2893
 -1      1246    8    0    1
 -2       568       691       690      2893      2894      2889
 -1      1247    8    0    1
 -2       569       570       692      2519      2895      2896
 -1      1248    8    0    1
 -2       691       569       692      2892      2896      2897
 -1      1249    8    0    1
 -2       570       640       692      2740      2898      2895
 -1      1250    8    0    1
 -2       478       572       693      2583      2899      2900
 -1      1251    8    0    1
 -2       571       562       694      2524      2901      2902
 -1      1252    8    0    1
 -2       573       581       695      2594      2903      2904
 -1      1253    8    0    1
 -2       442       574       590      2531      2905      2571
 -1      1254    8    0    1
 -2       576       591       696      2610      2906      2907
 -1      1255    8    0    1
 -2       471       472       697      2226      2908      2909
 -1      1256    8    0    1
 -2       598       471       697      2618      2909      2910
 -1      1257    8    0    1
 -2       472       600       697      2624      2911      2908
 -1      1258    8    0    1
 -2       508       575       698      2591      2912      2913
 -1      1259    8    0    1
 -2       582       507       588      2590      2914      2567
 -1      1260    8    0    1
 -2       468       467       699      2215      2915      2916
 -1      1261    8    0    1
 -2       579       584       700      2617      2917      2918
 -1      1262    8    0    1
 -2       584       585       701      2616      2919      2920
 -1      1263    8    0    1
 -2       584       701       700      2920      2921      2917
 -1      1264    8    0    1
 -2       586       587       702      2564      2922      2923
 -1      1265    8    0    1
 -2       585       586       703      2615      2924      2925
 -1      1266    8    0    1
 -2       591       578       704      2593      2926      2927
 -1      1267    8    0    1
 -2       578       571       705      2611      2928      2929
 -1      1268    8    0    1
 -2       571       694       705      2902      2930      2928
 -1      1269    8    0    1
 -2       562       580       706      2547      2931      2932
 -1      1270    8    0    1
 -2       459       214       458      2575      2179      2527
 -1      1271    8    0    1
 -2       590       574       575      2905      2933      2601
 -1      1272    8    0    1
 -2       588       507       632      2914      2718      2934
 -1      1273    8    0    1
 -2       575       574       698      2933      2935      2912
 -1      1274    8    0    1
 -2       592       468       707      2577      2936      2937
 -1      1275    8    0    1
 -2       468       699       707      2916      2938      2936
 -1      1276    8    0    1
 -2       469       599       708      2621      2939      2940
 -1      1277    8    0    1
 -2       469       708       577      2940      2941      2539
 -1      1278    8    0    1
 -2       475       602       474      2629      2942      2235
 -1      1279    8    0    1
 -2       698       574       589      2935      2570      2943
 -1      1280    8    0    1
 -2       633       508       698      2720      2913      2944
 -1      1281    8    0    1
 -2       518       643       709      2749      2945      2946
 -1      1282    8    0    1
 -2       580       595       710      2597      2947      2948
 -1      1283    8    0    1
 -2       580       710       706      2948      2949      2931
 -1      1284    8    0    1
 -2       478       693       711      2900      2950      2951
 -1      1285    8    0    1
 -2       684       583       597      2870      2614      2952
 -1      1286    8    0    1
 -2       683       576       696      2868      2907      2953
 -1      1287    8    0    1
 -2       572       683       693      2869      2954      2899
 -1      1288    8    0    1
 -2       581       684       712      2871      2955      2956
 -1      1289    8    0    1
 -2       581       712       695      2956      2957      2903
 -1      1290    8    0    1
 -2       595       573       713      2598      2958      2959
 -1      1291    8    0    1
 -2       573       695       713      2904      2960      2958
 -1      1292    8    0    1
 -2       694       562       706      2901      2932      2961
 -1      1293    8    0    1
 -2       596       518       709      2605      2946      2962
 -1      1294    8    0    1
 -2       587       588       632      2609      2934      2963
 -1      1295    8    0    1
 -2       704       578       714      2926      2964      2965
 -1      1296    8    0    1
 -2       578       705       714      2929      2966      2964
 -1      1297    8    0    1
 -2       701       585       715      2919      2967      2968
 -1      1298    8    0    1
 -2       585       703       715      2925      2969      2967
 -1      1299    8    0    1
 -2       696       591       716      2906      2970      2971
 -1      1300    8    0    1
 -2       591       704       716      2927      2972      2970
 -1      1301    8    0    1
 -2       474       602       601      2942      2973      2625
 -1      1302    8    0    1
 -2       703       586       702      2924      2923      2974
 -1      1303    8    0    1
 -2       509       633       635      2721      2975      2724
 -1      1304    8    0    1
 -2       467       577       717      2538      2976      2977
 -1      1305    8    0    1
 -2       699       467       717      2915      2977      2978
 -1      1306    8    0    1
 -2       577       708       717      2941      2979      2976
 -1      1307    8    0    1
 -2       597       579       718      2612      2980      2981
 -1      1308    8    0    1
 -2       579       700       718      2918      2982      2980
 -1      1309    8    0    1
 -2       702       587       632      2922      2963      2983
 -1      1310    8    0    1
 -2       589       478       711      2584      2951      2984
 -1      1311    8    0    1
 -2       698       589       711      2943      2984      2985
 -1      1312    8    0    1
 -2       600       601       719      2627      2986      2987
 -1      1313    8    0    1
 -2       602       593       596      2630      2604      2988
 -1      1314    8    0    1
 -2       689       690       720      2891      2989      2990
 -1      1315    8    0    1
 -2       594       592       721      2588      2991      2992
 -1      1316    8    0    1
 -2       604       594       721      2636      2992      2993
 -1      1317    8    0    1
 -2       592       707       721      2937      2994      2991
 -1      1318    8    0    1
 -2       606       603       722      2641      2995      2996
 -1      1319    8    0    1
 -2       607       606       723      2644      2997      2998
 -1      1320    8    0    1
 -2       606       722       723      2996      2999      2997
 -1      1321    8    0    1
 -2       608       607       724      2647      3000      3001
 -1      1322    8    0    1
 -2       607       723       724      2998      3002      3000
 -1      1323    8    0    1
 -2       609       608       725      2650      3003      3004
 -1      1324    8    0    1
 -2       608       724       725      3001      3005      3003
 -1      1325    8    0    1
 -2       610       609       726      2653      3006      3007
 -1      1326    8    0    1
 -2       609       725       726      3004      3008      3006
 -1      1327    8    0    1
 -2       611       610       727      2656      3009      3010
 -1      1328    8    0    1
 -2       610       726       727      3007      3011      3009
 -1      1329    8    0    1
 -2       612       611       728      2659      3012      3013
 -1      1330    8    0    1
 -2       611       727       728      3010      3014      3012
 -1      1331    8    0    1
 -2       613       612       729      2662      3015      3016
 -1      1332    8    0    1
 -2       612       728       729      3013      3017      3015
 -1      1333    8    0    1
 -2       614       613       730      2665      3018      3019
 -1      1334    8    0    1
 -2       613       729       730      3016      3020      3018
 -1      1335    8    0    1
 -2       615       614       731      2668      3021      3022
 -1      1336    8    0    1
 -2       614       730       731      3019      3023      3021
 -1      1337    8    0    1
 -2       616       615       732      2671      3024      3025
 -1      1338    8    0    1
 -2       615       731       732      3022      3026      3024
 -1      1339    8    0    1
 -2       617       616       733      2674      3027      3028
 -1      1340    8    0    1
 -2       616       732       733      3025      3029      3027
 -1      1341    8    0    1
 -2       618       617       734      2677      3030      3031
 -1      1342    8    0    1
 -2       617       733       734      3028      3032      3030
 -1      1343    8    0    1
 -2       619       618       735      2680      3033      3034
 -1      1344    8    0    1
 -2       618       734       735      3031      3035      3033
 -1      1345    8    0    1
 -2       620       619       736      2683      3036      3037
 -1      1346    8    0    1
 -2       619       735       736      3034      3038      3036
 -1      1347    8    0    1
 -2       621       620       737      2686      3039      3040
 -1      1348    8    0    1
 -2       620       736       737      3037      3041      3039
 -1      1349    8    0    1
 -2       622       621       738      2689      3042      3043
 -1      1350    8    0    1
 -2       621       737       738      3040      3044      3042
 -1      1351    8    0    1
 -2       623       622       739      2692      3045      3046
 -1      1352    8    0    1
 -2       622       738       739      3043      3047      3045
 -1      1353    8    0    1
 -2       624       623       740      2695      3048      3049
 -1      1354    8    0    1
 -2       623       739       740      3046      3050      3048
 -1      1355    8    0    1
 -2       625       624       741      2698      3051      3052
 -1      1356    8    0    1
 -2       624       740       741      3049      3053      3051
 -1      1357    8    0    1
 -2       626       625       742      2701      3054      3055
 -1      1358    8    0    1
 -2       625       741       742      3052      3056      3054
 -1      1359    8    0    1
 -2       627       626       743      2704      3057      3058
 -1      1360    8    0    1
 -2       626       742       743      3055      3059      3057
 -1      1361    8    0    1
 -2       628       627       744      2707      3060      3061
 -1      1362    8    0    1
 -2       627       743       744      3058      3062      3060
 -1      1363    8    0    1
 -2       629       628       745      2710      3063      3064
 -1      1364    8    0    1
 -2       628       744       745      3061      3065      3063
 -1      1365    8    0    1
 -2       630       629       746      2713      3066      3067
 -1      1366    8    0    1
 -2       629       745       746      3064      3068      3066
 -1      1367    8    0    1
 -2       631       630       747      2716      3069      3070
 -1      1368    8    0    1
 -2       630       746       747      3067      3071      3069
 -1      1369    8    0    1
 -2       632       631       748      2719      3072      3073
 -1      1370    8    0    1
 -2       631       747       748      3070      3074      3072
 -1      1371    8    0    1
 -2       709       643       749      2945      3075      3076
 -1      1372    8    0    1
 -2       634       644       750      2753      3077      3078
 -1      1373    8    0    1
 -2       711       693       751      2950      3079      3080
 -1      1374    8    0    1
 -2       684       597       752      2952      3081      3082
 -1      1375    8    0    1
 -2       637       636       753      2731      3083      3084
 -1      1376    8    0    1
 -2       638       637       754      2734      3085      3086
 -1      1377    8    0    1
 -2       637       753       754      3084      3087      3085
 -1      1378    8    0    1
 -2       639       638       755      2737      3088      3089
 -1      1379    8    0    1
 -2       638       754       755      3086      3090      3088
 -1      1380    8    0    1
 -2       640       639       692      2741      3091      2898
 -1      1381    8    0    1
 -2       645       646       756      2759      3092      3093
 -1      1382    8    0    1
 -2       646       647       757      2762      3094      3095
 -1      1383    8    0    1
 -2       646       757       756      3095      3096      3092
 -1      1384    8    0    1
 -2       647       648       758      2765      3097      3098
 -1      1385    8    0    1
 -2       647       758       757      3098      3099      3094
 -1      1386    8    0    1
 -2       648       649       759      2768      3100      3101
 -1      1387    8    0    1
 -2       648       759       758      3101      3102      3097
 -1      1388    8    0    1
 -2       649       650       760      2771      3103      3104
 -1      1389    8    0    1
 -2       649       760       759      3104      3105      3100
 -1      1390    8    0    1
 -2       650       651       761      2774      3106      3107
 -1      1391    8    0    1
 -2       650       761       760      3107      3108      3103
 -1      1392    8    0    1
 -2       651       652       762      2777      3109      3110
 -1      1393    8    0    1
 -2       651       762       761      3110      3111      3106
 -1      1394    8    0    1
 -2       652       653       763      2780      3112      3113
 -1      1395    8    0    1
 -2       652       763       762      3113      3114      3109
 -1      1396    8    0    1
 -2       653       654       764      2783      3115      3116
 -1      1397    8    0    1
 -2       653       764       763      3116      3117      3112
 -1      1398    8    0    1
 -2       654       655       765      2786      3118      3119
 -1      1399    8    0    1
 -2       654       765       764      3119      3120      3115
 -1      1400    8    0    1
 -2       655       656       766      2789      3121      3122
 -1      1401    8    0    1
 -2       655       766       765      3122      3123      3118
 -1      1402    8    0    1
 -2       656       657       767      2792      3124      3125
 -1      1403    8    0    1
 -2       656       767       766      3125      3126      3121
 -1      1404    8    0    1
 -2       657       658       768      2795      3127      3128
 -1      1405    8    0    1
 -2       657       768       767      3128      3129      3124
 -1      1406    8    0    1
 -2       658       659       769      2798      3130      3131
 -1      1407    8    0    1
 -2       658       769       768      3131      3132      3127
 -1      1408    8    0    1
 -2       659       660       770      2801      3133      3134
 -1      1409    8    0    1
 -2       659       770       769      3134      3135      3130
 -1      1410    8    0    1
 -2       660       661       771      2804      3136      3137
 -1      1411    8    0    1
 -2       660       771       770      3137      3138      3133
 -1      1412    8    0    1
 -2       661       662       772      2807      3139      3140
 -1      1413    8    0    1
 -2       661       772       771      3140      3141      3136
 -1      1414    8    0    1
 -2       662       663       773      2810      3142      3143
 -1      1415    8    0    1
 -2       662       773       772      3143      3144      3139
 -1      1416    8    0    1
 -2       663       664       774      2813      3145      3146
 -1      1417    8    0    1
 -2       663       774       773      3146      3147      3142
 -1      1418    8    0    1
 -2       664       665       775      2816      3148      3149
 -1      1419    8    0    1
 -2       664       775       774      3149      3150      3145
 -1      1420    8    0    1
 -2       665       666       776      2819      3151      3152
 -1      1421    8    0    1
 -2       665       776       775      3152      3153      3148
 -1      1422    8    0    1
 -2       666       667       777      2822      3154      3155
 -1      1423    8    0    1
 -2       666       777       776      3155      3156      3151
 -1      1424    8    0    1
 -2       667       668       778      2825      3157      3158
 -1      1425    8    0    1
 -2       667       778       777      3158      3159      3154
 -1      1426    8    0    1
 -2       668       669       779      2828      3160      3161
 -1      1427    8    0    1
 -2       668       779       778      3161      3162      3157
 -1      1428    8    0    1
 -2       669       670       780      2831      3163      3164
 -1      1429    8    0    1
 -2       669       780       779      3164      3165      3160
 -1      1430    8    0    1
 -2       670       671       781      2834      3166      3167
 -1      1431    8    0    1
 -2       670       781       780      3167      3168      3163
 -1      1432    8    0    1
 -2       671       672       782      2837      3169      3170
 -1      1433    8    0    1
 -2       671       782       781      3170      3171      3166
 -1      1434    8    0    1
 -2       672       673       783      2840      3172      3173
 -1      1435    8    0    1
 -2       672       783       782      3173      3174      3169
 -1      1436    8    0    1
 -2       673       674       784      2843      3175      3176
 -1      1437    8    0    1
 -2       673       784       783      3176      3177      3172
 -1      1438    8    0    1
 -2       674       675       785      2846      3178      3179
 -1      1439    8    0    1
 -2       674       785       784      3179      3180      3175
 -1      1440    8    0    1
 -2       675       676       786      2849      3181      3182
 -1      1441    8    0    1
 -2       675       786       785      3182      3183      3178
 -1      1442    8    0    1
 -2       676       677       787      2852      3184      3185
 -1      1443    8    0    1
 -2       676       787       786      3185      3186      3181
 -1      1444    8    0    1
 -2       677       678       788      2855      3187      3188
 -1      1445    8    0    1
 -2       677       788       787      3188      3189      3184
 -1      1446    8    0    1
 -2       678       679       789      2858      3190      3191
 -1      1447    8    0    1
 -2       678       789       788      3191      3192      3187
 -1      1448    8    0    1
 -2       679       680       790      2861      3193      3194
 -1      1449    8    0    1
 -2       679       790       789      3194      3195      3190
 -1      1450    8    0    1
 -2       680       681       791      2864      3196      3197
 -1      1451    8    0    1
 -2       790       680       791      3193      3197      3198
 -1      1452    8    0    1
 -2       681       685       791      2874      3199      3196
 -1      1453    8    0    1
 -2       688       689       792      2888      3200      3201
 -1      1454    8    0    1
 -2       689       720       792      2990      3202      3200
 -1      1455    8    0    1
 -2       690       691       793      2894      3203      3204
 -1      1456    8    0    1
 -2       690       793       720      3204      3205      2989
 -1      1457    8    0    1
 -2       596       709       602      2962      3206      2988
 -1      1458    8    0    1
 -2       694       706       794      2961      3207      3208
 -1      1459    8    0    1
 -2       705       694       795      2930      3209      3210
 -1      1460    8    0    1
 -2       694       794       795      3208      3211      3209
 -1      1461    8    0    1
 -2       686       688       796      2885      3212      3213
 -1      1462    8    0    1
 -2       688       792       796      3201      3214      3212
 -1      1463    8    0    1
 -2       635       633       797      2975      3215      3216
 -1      1464    8    0    1
 -2       636       635       798      2728      3217      3218
 -1      1465    8    0    1
 -2       636       798       753      3218      3219      3083
 -1      1466    8    0    1
 -2       633       698       711      2944      2985      3220
 -1      1467    8    0    1
 -2       702       632       748      2983      3073      3221
 -1      1468    8    0    1
 -2       644       645       799      2756      3222      3223
 -1      1469    8    0    1
 -2       750       644       799      3077      3223      3224
 -1      1470    8    0    1
 -2       645       756       799      3093      3225      3222
 -1      1471    8    0    1
 -2       700       701       800      2921      3226      3227
 -1      1472    8    0    1
 -2       682       686       801      2878      3228      3229
 -1      1473    8    0    1
 -2       686       796       801      3213      3230      3228
 -1      1474    8    0    1
 -2       601       602       709      2973      3206      3231
 -1      1475    8    0    1
 -2       643       641       802      2750      3232      3233
 -1      1476    8    0    1
 -2       643       802       749      3233      3234      3075
 -1      1477    8    0    1
 -2       599       598       803      2622      3235      3236
 -1      1478    8    0    1
 -2       683       696       804      2953      3237      3238
 -1      1479    8    0    1
 -2       703       702       805      2974      3239      3240
 -1      1480    8    0    1
 -2       715       703       805      2969      3240      3241
 -1      1481    8    0    1
 -2       702       748       805      3221      3242      3239
 -1      1482    8    0    1
 -2       693       683       806      2954      3243      3244
 -1      1483    8    0    1
 -2       751       693       806      3079      3244      3245
 -1      1484    8    0    1
 -2       683       804       806      3238      3246      3243
 -1      1485    8    0    1
 -2       633       711       751      3220      3080      3247
 -1      1486    8    0    1
 -2       708       599       807      2939      3248      3249
 -1      1487    8    0    1
 -2       599       803       807      3236      3250      3248
 -1      1488    8    0    1
 -2       601       709       719      3231      3251      2986
 -1      1489    8    0    1
 -2       603       604       721      2635      2993      3252
 -1      1490    8    0    1
 -2       709       749       719      3076      3253      3251
 -1      1491    8    0    1
 -2       710       595       808      2947      3254      3255
 -1      1492    8    0    1
 -2       595       713       808      2959      3256      3254
 -1      1493    8    0    1
 -2       634       750       809      3078      3257      3258
 -1      1494    8    0    1
 -2       634       809       642      3258      3259      2747
 -1      1495    8    0    1
 -2       706       710       810      2949      3260      3261
 -1      1496    8    0    1
 -2       706       810       794      3261      3262      3207
 -1      1497    8    0    1
 -2       684       752       811      3082      3263      3264
 -1      1498    8    0    1
 -2       684       811       712      3264      3265      2955
 -1      1499    8    0    1
 -2       639       755       692      3089      3266      3091
 -1      1500    8    0    1
 -2       641       642       812      2746      3267      3268
 -1      1501    8    0    1
 -2       802       641       812      3232      3268      3269
 -1      1502    8    0    1
 -2       642       809       812      3259      3270      3267
 -1      1503    8    0    1
 -2       798       635       797      3217      3216      3271
 -1      1504    8    0    1
 -2       605       687       813      2881      3272      3273
 -1      1505    8    0    1
 -2       713       695       814      2960      3274      3275
 -1      1506    8    0    1
 -2       695       712       814      2957      3276      3274
 -1      1507    8    0    1
 -2       697       600       815      2911      3277      3278
 -1      1508    8    0    1
 -2       600       719       815      2987      3279      3277
 -1      1509    8    0    1
 -2       687       682       816      2882      3280      3281
 -1      1510    8    0    1
 -2       687       816       813      3281      3282      3272
 -1      1511    8    0    1
 -2       691       692       817      2897      3283      3284
 -1      1512    8    0    1
 -2       793       691       817      3203      3284      3285
 -1      1513    8    0    1
 -2       692       755       817      3266      3286      3283
 -1      1514    8    0    1
 -2       700       800       818      3227      3287      3288
 -1      1515    8    0    1
 -2       700       818       718      3288      3289      2982
 -1      1516    8    0    1
 -2       714       705       819      2966      3290      3291
 -1      1517    8    0    1
 -2       705       795       819      3210      3292      3290
 -1      1518    8    0    1
 -2       707       699       820      2938      3293      3294
 -1      1519    8    0    1
 -2       704       714       821      2965      3295      3296
 -1      1520    8    0    1
 -2       704       821       716      3296      3297      2972
 -1      1521    8    0    1
 -2       685       605       791      2875      3298      3199
 -1      1522    8    0    1
 -2       797       633       751      3215      3247      3299
 -1      1523    8    0    1
 -2       752       597       718      3081      2981      3300
 -1      1524    8    0    1
 -2       598       697       822      2910      3301      3302
 -1      1525    8    0    1
 -2       803       598       822      3235      3302      3303
 -1      1526    8    0    1
 -2       697       815       822      3278      3304      3301
 -1      1527    8    0    1
 -2       699       717       823      2978      3305      3306
 -1      1528    8    0    1
 -2       699       823       820      3306      3307      3293
 -1      1529    8    0    1
 -2       722       603       721      2995      3252      3308
 -1      1530    8    0    1
 -2       682       801       816      3229      3309      3280
 -1      1531    8    0    1
 -2       800       701       715      3226      2968      3310
 -1      1532    8    0    1
 -2       696       716       824      2971      3311      3312
 -1      1533    8    0    1
 -2       696       824       804      3312      3313      3237
 -1      1534    8    0    1
 -2       791       605       813      3298      3273      3314
 -1      1535    8    0    1
 -2       749       802       825      3234      3315      3316
 -1      1536    8    0    1
 -2       816       801       826      3309      3317      3318
 -1      1537    8    0    1
 -2       719       749       827      3253      3319      3320
 -1      1538    8    0    1
 -2       815       719       827      3279      3320      3321
 -1      1539    8    0    1
 -2       749       825       827      3316      3322      3319
 -1      1540    8    0    1
 -2       723       722       828      2999      3323      3324
 -1      1541    8    0    1
 -2       724       723       829      3002      3325      3326
 -1      1542    8    0    1
 -2       723       828       829      3324      3327      3325
 -1      1543    8    0    1
 -2       725       724       830      3005      3328      3329
 -1      1544    8    0    1
 -2       724       829       830      3326      3330      3328
 -1      1545    8    0    1
 -2       726       725       831      3008      3331      3332
 -1      1546    8    0    1
 -2       725       830       831      3329      3333      3331
 -1      1547    8    0    1
 -2       727       726       832      3011      3334      3335
 -1      1548    8    0    1
 -2       726       831       832      3332      3336      3334
 -1      1549    8    0    1
 -2       728       727       833      3014      3337      3338
 -1      1550    8    0    1
 -2       727       832       833      3335      3339      3337
 -1      1551    8    0    1
 -2       729       728       834      3017      3340      3341
 -1      1552    8    0    1
 -2       728       833       834      3338      3342      3340
 -1      1553    8    0    1
 -2       730       729       835      3020      3343      3344
 -1      1554    8    0    1
 -2       729       834       835      3341      3345      3343
 -1      1555    8    0    1
 -2       731       730       836      3023      3346      3347
 -1      1556    8    0    1
 -2       730       835       836      3344      3348      3346
 -1      1557    8    0    1
 -2       732       731       837      3026      3349      3350
 -1      1558    8    0    1
 -2       731       836       837      3347      3351      3349
 -1      1559    8    0    1
 -2       733       732       838      3029      3352      3353
 -1      1560    8    0    1
 -2       732       837       838      3350      3354      3352
 -1      1561    8    0    1
 -2       734       733       839      3032      3355      3356
 -1      1562    8    0    1
 -2       733       838       839      3353      3357      3355
 -1      1563    8    0    1
 -2       735       734       840      3035      3358      3359
 -1      1564    8    0    1
 -2       734       839       840      3356      3360      3358
 -1      1565    8    0    1
 -2       736       735       841      3038      3361      3362
 -1      1566    8    0    1
 -2       735       840       841      3359      3363      3361
 -1      1567    8    0    1
 -2       737       736       842      3041      3364      3365
 -1      1568    8    0    1
 -2       736       841       842      3362      3366      3364
 -1      1569    8    0    1
 -2       738       737       843      3044      3367      3368
 -1      1570    8    0    1
 -2       737       842       843      3365      3369      3367
 -1      1571    8    0    1
 -2       739       738       844      3047      3370      3371
 -1      1572    8    0    1
 -2       738       843       844      3368      3372      3370
 -1      1573    8    0    1
 -2       740       739       845      3050      3373      3374
 -1      1574    8    0    1
 -2       739       844       845      3371      3375      3373
 -1      1575    8    0    1
 -2       741       740       846      3053      3376      3377
 -1      1576    8    0    1
 -2       740       845       846      3374      3378      3376
 -1      1577    8    0    1
 -2       742       741       847      3056      3379      3380
 -1      1578    8    0    1
 -2       741       846       847      3377      3381      3379
 -1      1579    8    0    1
 -2       743       742       848      3059      3382      3383
 -1      1580    8    0    1
 -2       742       847       848      3380      3384      3382
 -1      1581    8    0    1
 -2       744       743       849      3062      3385      3386
 -1      1582    8    0    1
 -2       743       848       849      3383      3387      3385
 -1      1583    8    0    1
 -2       745       744       850      3065      3388      3389
 -1      1584    8    0    1
 -2       744       849       850      3386      3390      3388
 -1      1585    8    0    1
 -2       746       745       851      3068      3391      3392
 -1      1586    8    0    1
 -2       745       850       851      3389      3393      3391
 -1      1587    8    0    1
 -2       747       746       852      3071      3394      3395
 -1      1588    8    0    1
 -2       746       851       852      3392      3396      3394
 -1      1589    8    0    1
 -2       748       747       853      3074      3397      3398
 -1      1590    8    0    1
 -2       805       748       853      3242      3398      3399
 -1      1591    8    0    1
 -2       747       852       853      3395      3400      3397
 -1      1592    8    0    1
 -2       755       754       854      3090      3401      3402
 -1      1593    8    0    1
 -2       755       854       817      3402      3403      3286
 -1      1594    8    0    1
 -2       758       759       855      3102      3404      3405
 -1      1595    8    0    1
 -2       757       758       856      3099      3406      3407
 -1      1596    8    0    1
 -2       758       855       856      3405      3408      3406
 -1      1597    8    0    1
 -2       756       757       857      3096      3409      3410
 -1      1598    8    0    1
 -2       757       856       857      3407      3411      3409
 -1      1599    8    0    1
 -2       759       760       858      3105      3412      3413
 -1      1600    8    0    1
 -2       759       858       855      3413      3414      3404
 -1      1601    8    0    1
 -2       760       761       859      3108      3415      3416
 -1      1602    8    0    1
 -2       760       859       858      3416      3417      3412
 -1      1603    8    0    1
 -2       761       762       860      3111      3418      3419
 -1      1604    8    0    1
 -2       761       860       859      3419      3420      3415
 -1      1605    8    0    1
 -2       762       763       861      3114      3421      3422
 -1      1606    8    0    1
 -2       762       861       860      3422      3423      3418
 -1      1607    8    0    1
 -2       763       764       862      3117      3424      3425
 -1      1608    8    0    1
 -2       763       862       861      3425      3426      3421
 -1      1609    8    0    1
 -2       764       765       863      3120      3427      3428
 -1      1610    8    0    1
 -2       764       863       862      3428      3429      3424
 -1      1611    8    0    1
 -2       765       766       864      3123      3430      3431
 -1      1612    8    0    1
 -2       765       864       863      3431      3432      3427
 -1      1613    8    0    1
 -2       766       767       865      3126      3433      3434
 -1      1614    8    0    1
 -2       766       865       864      3434      3435      3430
 -1      1615    8    0    1
 -2       767       768       866      3129      3436      3437
 -1      1616    8    0    1
 -2       767       866       865      3437      3438      3433
 -1      1617    8    0    1
 -2       768       769       867      3132      3439      3440
 -1      1618    8    0    1
 -2       768       867       866      3440      3441      3436
 -1      1619    8    0    1
 -2       769       770       868      3135      3442      3443
 -1      1620    8    0    1
 -2       769       868       867      3443      3444      3439
 -1      1621    8    0    1
 -2       770       771       869      3138      3445      3446
 -1      1622    8    0    1
 -2       770       869       868      3446      3447      3442
 -1      1623    8    0    1
 -2       771       772       870      3141      3448      3449
 -1      1624    8    0    1
 -2       771       870       869      3449      3450      3445
 -1      1625    8    0    1
 -2       772       773       871      3144      3451      3452
 -1      1626    8    0    1
 -2       772       871       870      3452      3453      3448
 -1      1627    8    0    1
 -2       773       774       872      3147      3454      3455
 -1      1628    8    0    1
 -2       773       872       871      3455      3456      3451
 -1      1629    8    0    1
 -2       774       775       873      3150      3457      3458
 -1      1630    8    0    1
 -2       774       873       872      3458      3459      3454
 -1      1631    8    0    1
 -2       775       776       874      3153      3460      3461
 -1      1632    8    0    1
 -2       775       874       873      3461      3462      3457
 -1      1633    8    0    1
 -2       776       777       875      3156      3463      3464
 -1      1634    8    0    1
 -2       776       875       874      3464      3465      3460
 -1      1635    8    0    1
 -2       777       778       876      3159      3466      3467
 -1      1636    8    0    1
 -2       777       876       875      3467      3468      3463
 -1      1637    8    0    1
 -2       778       779       877      3162      3469      3470
 -1      1638    8    0    1
 -2       778       877       876      3470      3471      3466
 -1      1639    8    0    1
 -2       779       780       878      3165      3472      3473
 -1      1640    8    0    1
 -2       779       878       877      3473      3474      3469
 -1      1641    8    0    1
 -2       780       781       879      3168      3475      3476
 -1      1642    8    0    1
 -2       780       879       878      3476      3477      3472
 -1      1643    8    0    1
 -2       781       782       880      3171      3478      3479
 -1      1644    8    0    1
 -2       781       880       879      3479      3480      3475
 -1      1645    8    0    1
 -2       782       783       881      3174      3481      3482
 -1      1646    8    0    1
 -2       782       881       880      3482      3483      3478
 -1      1647    8    0    1
 -2       783       784       882      3177      3484      3485
 -1      1648    8    0    1
 -2       783       882       881      3485      3486      3481
 -1      1649    8    0    1
 -2       784       785       883      3180      3487      3488
 -1      1650    8    0    1
 -2       784       883       882      3488      3489      3484
 -1      1651    8    0    1
 -2       785       786       884      3183      3490      3491
 -1      1652    8    0    1
 -2       785       884       883      3491      3492      3487
 -1      1653    8    0    1
 -2       786       787       885      3186      3493      3494
 -1      1654    8    0    1
 -2       786       885       884      3494      3495      3490
 -1      1655    8    0    1
 -2       787       788       886      3189      3496      3497
 -1      1656    8    0    1
 -2       787       886       885      3497      3498      3493
 -1      1657    8    0    1
 -2       788       789       887      3192      3499      3500
 -1      1658    8    0    1
 -2       788       887       886      3500      3501      3496
 -1      1659    8    0    1
 -2       789       790       888      3195      3502      3503
 -1      1660    8    0    1
 -2       789       888       887      3503      3504      3499
 -1      1661    8    0    1
 -2       790       791       813      3198      3314      3505
 -1      1662    8    0    1
 -2       792       720       889      3202      3506      3507
 -1      1663    8    0    1
 -2       797       751       890      3299      3508      3509
 -1      1664    8    0    1
 -2       751       806       890      3245      3510      3508
 -1      1665    8    0    1
 -2       800       715       891      3310      3511      3512
 -1      1666    8    0    1
 -2       798       797       892      3271      3513      3514
 -1      1667    8    0    1
 -2       797       890       892      3509      3515      3513
 -1      1668    8    0    1
 -2       795       794       893      3211      3516      3517
 -1      1669    8    0    1
 -2       813       816       894      3282      3518      3519
 -1      1670    8    0    1
 -2       816       826       894      3318      3520      3518
 -1      1671    8    0    1
 -2       720       793       895      3205      3521      3522
 -1      1672    8    0    1
 -2       720       895       889      3522      3523      3506
 -1      1673    8    0    1
 -2       722       721       707      3308      2994      3524
 -1      1674    8    0    1
 -2       796       792       896      3214      3525      3526
 -1      1675    8    0    1
 -2       792       889       896      3507      3527      3525
 -1      1676    8    0    1
 -2       754       753       897      3087      3528      3529
 -1      1677    8    0    1
 -2       754       897       854      3529      3530      3401
 -1      1678    8    0    1
 -2       717       708       898      2979      3531      3532
 -1      1679    8    0    1
 -2       717       898       823      3532      3533      3305
 -1      1680    8    0    1
 -2       753       798       899      3219      3534      3535
 -1      1681    8    0    1
 -2       897       753       899      3528      3535      3536
 -1      1682    8    0    1
 -2       798       892       899      3514      3537      3534
 -1      1683    8    0    1
 -2       801       796       900      3230      3538      3539
 -1      1684    8    0    1
 -2       826       801       900      3317      3539      3540
 -1      1685    8    0    1
 -2       796       896       900      3526      3541      3538
 -1      1686    8    0    1
 -2       752       718       901      3300      3542      3543
 -1      1687    8    0    1
 -2       718       818       901      3289      3544      3542
 -1      1688    8    0    1
 -2       808       713       902      3256      3545      3546
 -1      1689    8    0    1
 -2       713       814       902      3275      3547      3545
 -1      1690    8    0    1
 -2       809       750       903      3257      3548      3549
 -1      1691    8    0    1
 -2       710       808       904      3255      3550      3551
 -1      1692    8    0    1
 -2       710       904       810      3551      3552      3260
 -1      1693    8    0    1
 -2       811       752       905      3263      3553      3554
 -1      1694    8    0    1
 -2       752       901       905      3543      3555      3553
 -1      1695    8    0    1
 -2       708       807       898      3249      3556      3531
 -1      1696    8    0    1
 -2       802       812       906      3269      3557      3558
 -1      1697    8    0    1
 -2       802       906       825      3558      3559      3315
 -1      1698    8    0    1
 -2       794       810       907      3262      3560      3561
 -1      1699    8    0    1
 -2       794       907       893      3561      3562      3516
 -1      1700    8    0    1
 -2       790       813       888      3505      3563      3502
 -1      1701    8    0    1
 -2       722       707       820      3524      3294      3564
 -1      1702    8    0    1
 -2       795       893       908      3517      3565      3566
 -1      1703    8    0    1
 -2       795       908       819      3566      3567      3292
 -1      1704    8    0    1
 -2       793       817       909      3285      3568      3569
 -1      1705    8    0    1
 -2       895       793       909      3521      3569      3570
 -1      1706    8    0    1
 -2       817       854       909      3403      3571      3568
 -1      1707    8    0    1
 -2       818       800       910      3287      3572      3573
 -1      1708    8    0    1
 -2       800       891       910      3512      3574      3572
 -1      1709    8    0    1
 -2       828       722       820      3323      3564      3575
 -1      1710    8    0    1
 -2       756       857       911      3410      3576      3577
 -1      1711    8    0    1
 -2       756       911       799      3577      3578      3225
 -1      1712    8    0    1
 -2       888       813       894      3563      3519      3579
 -1      1713    8    0    1
 -2       821       714       912      3295      3580      3581
 -1      1714    8    0    1
 -2       714       819       912      3291      3582      3580
 -1      1715    8    0    1
 -2       820       823       913      3307      3583      3584
 -1      1716    8    0    1
 -2       820       913       828      3584      3585      3575
 -1      1717    8    0    1
 -2       712       811       914      3265      3586      3587
 -1      1718    8    0    1
 -2       716       821       915      3297      3588      3589
 -1      1719    8    0    1
 -2       716       915       824      3589      3590      3311
 -1      1720    8    0    1
 -2       806       804       916      3246      3591      3592
 -1      1721    8    0    1
 -2       806       916       890      3592      3593      3510
 -1      1722    8    0    1
 -2       807       803       917      3250      3594      3595
 -1      1723    8    0    1
 -2       803       822       918      3303      3596      3597
 -1      1724    8    0    1
 -2       803       918       917      3597      3598      3594
 -1      1725    8    0    1
 -2       814       712       914      3276      3587      3599
 -1      1726    8    0    1
 -2       715       805       919      3241      3600      3601
 -1      1727    8    0    1
 -2       891       715       919      3511      3601      3602
 -1      1728    8    0    1
 -2       805       853       919      3399      3603      3600
 -1      1729    8    0    1
 -2       804       824       916      3313      3604      3591
 -1      1730    8    0    1
 -2       750       799       920      3224      3605      3606
 -1      1731    8    0    1
 -2       799       911       920      3578      3607      3605
 -1      1732    8    0    1
 -2       903       750       920      3548      3606      3608
 -1      1733    8    0    1
 -2       889       895       921      3523      3609      3610
 -1      1734    8    0    1
 -2       829       828       913      3327      3585      3611
 -1      1735    8    0    1
 -2       916       824       922      3604      3612      3613
 -1      1736    8    0    1
 -2       830       829       923      3330      3614      3615
 -1      1737    8    0    1
 -2       831       830       924      3333      3616      3617
 -1      1738    8    0    1
 -2       830       923       924      3615      3618      3616
 -1      1739    8    0    1
 -2       832       831       925      3336      3619      3620
 -1      1740    8    0    1
 -2       831       924       925      3617      3621      3619
 -1      1741    8    0    1
 -2       833       832       926      3339      3622      3623
 -1      1742    8    0    1
 -2       832       925       926      3620      3624      3622
 -1      1743    8    0    1
 -2       834       833       927      3342      3625      3626
 -1      1744    8    0    1
 -2       833       926       927      3623      3627      3625
 -1      1745    8    0    1
 -2       835       834       928      3345      3628      3629
 -1      1746    8    0    1
 -2       834       927       928      3626      3630      3628
 -1      1747    8    0    1
 -2       836       835       929      3348      3631      3632
 -1      1748    8    0    1
 -2       835       928       929      3629      3633      3631
 -1      1749    8    0    1
 -2       837       836       930      3351      3634      3635
 -1      1750    8    0    1
 -2       836       929       930      3632      3636      3634
 -1      1751    8    0    1
 -2       838       837       931      3354      3637      3638
 -1      1752    8    0    1
 -2       837       930       931      3635      3639      3637
 -1      1753    8    0    1
 -2       839       838       932      3357      3640      3641
 -1      1754    8    0    1
 -2       838       931       932      3638      3642      3640
 -1      1755    8    0    1
 -2       840       839       933      3360      3643      3644
 -1      1756    8    0    1
 -2       839       932       933      3641      3645      3643
 -1      1757    8    0    1
 -2       841       840       934      3363      3646      3647
 -1      1758    8    0    1
 -2       840       933       934      3644      3648      3646
 -1      1759    8    0    1
 -2       842       841       935      3366      3649      3650
 -1      1760    8    0    1
 -2       841       934       935      3647      3651      3649
 -1      1761    8    0    1
 -2       843       842       936      3369      3652      3653
 -1      1762    8    0    1
 -2       842       935       936      3650      3654      3652
 -1      1763    8    0    1
 -2       844       843       937      3372      3655      3656
 -1      1764    8    0    1
 -2       843       936       937      3653      3657      3655
 -1      1765    8    0    1
 -2       845       844       938      3375      3658      3659
 -1      1766    8    0    1
 -2       844       937       938      3656      3660      3658
 -1      1767    8    0    1
 -2       846       845       939      3378      3661      3662
 -1      1768    8    0    1
 -2       845       938       939      3659      3663      3661
 -1      1769    8    0    1
 -2       847       846       940      3381      3664      3665
 -1      1770    8    0    1
 -2       846       939       940      3662      3666      3664
 -1      1771    8    0    1
 -2       848       847       941      3384      3667      3668
 -1      1772    8    0    1
 -2       847       940       941      3665      3669      3667
 -1      1773    8    0    1
 -2       849       848       942      3387      3670      3671
 -1      1774    8    0    1
 -2       848       941       942      3668      3672      3670
 -1      1775    8    0    1
 -2       850       849       943      3390      3673      3674
 -1      1776    8    0    1
 -2       849       942       943      3671      3675      3673
 -1      1777    8    0    1
 -2       851       850       944      3393      3676      3677
 -1      1778    8    0    1
 -2       850       943       944      3674      3678      3676
 -1      1779    8    0    1
 -2       852       851       945      3396      3679      3680
 -1      1780    8    0    1
 -2       851       944       945      3677      3681      3679
 -1      1781    8    0    1
 -2       856       855       946      3408      3682      3683
 -1      1782    8    0    1
 -2       812       809       947      3270      3684      3685
 -1      1783    8    0    1
 -2       809       903       947      3549      3686      3684
 -1      1784    8    0    1
 -2       858       859       948      3417      3687      3688
 -1      1785    8    0    1
 -2       855       858       949      3414      3689      3690
 -1      1786    8    0    1
 -2       946       855       949      3682      3690      3691
 -1      1787    8    0    1
 -2       858       948       949      3688      3692      3689
 -1      1788    8    0    1
 -2       857       856       950      3411      3693      3694
 -1      1789    8    0    1
 -2       856       946       950      3683      3695      3693
 -1      1790    8    0    1
 -2       859       860       951      3420      3696      3697
 -1      1791    8    0    1
 -2       859       951       948      3697      3698      3687
 -1      1792    8    0    1
 -2       860       861       952      3423      3699      3700
 -1      1793    8    0    1
 -2       860       952       951      3700      3701      3696
 -1      1794    8    0    1
 -2       861       862       953      3426      3702      3703
 -1      1795    8    0    1
 -2       861       953       952      3703      3704      3699
 -1      1796    8    0    1
 -2       862       863       954      3429      3705      3706
 -1      1797    8    0    1
 -2       862       954       953      3706      3707      3702
 -1      1798    8    0    1
 -2       863       864       955      3432      3708      3709
 -1      1799    8    0    1
 -2       863       955       954      3709      3710      3705
 -1      1800    8    0    1
 -2       864       865       956      3435      3711      3712
 -1      1801    8    0    1
 -2       864       956       955      3712      3713      3708
 -1      1802    8    0    1
 -2       865       866       957      3438      3714      3715
 -1      1803    8    0    1
 -2       865       957       956      3715      3716      3711
 -1      1804    8    0    1
 -2       866       867       958      3441      3717      3718
 -1      1805    8    0    1
 -2       866       958       957      3718      3719      3714
 -1      1806    8    0    1
 -2       867       868       959      3444      3720      3721
 -1      1807    8    0    1
 -2       867       959       958      3721      3722      3717
 -1      1808    8    0    1
 -2       868       869       960      3447      3723      3724
 -1      1809    8    0    1
 -2       868       960       959      3724      3725      3720
 -1      1810    8    0    1
 -2       869       870       961      3450      3726      3727
 -1      1811    8    0    1
 -2       869       961       960      3727      3728      3723
 -1      1812    8    0    1
 -2       870       871       962      3453      3729      3730
 -1      1813    8    0    1
 -2       870       962       961      3730      3731      3726
 -1      1814    8    0    1
 -2       871       872       963      3456      3732      3733
 -1      1815    8    0    1
 -2       871       963       962      3733      3734      3729
 -1      1816    8    0    1
 -2       872       873       964      3459      3735      3736
 -1      1817    8    0    1
 -2       872       964       963      3736      3737      3732
 -1      1818    8    0    1
 -2       873       874       965      3462      3738      3739
 -1      1819    8    0    1
 -2       873       965       964      3739      3740      3735
 -1      1820    8    0    1
 -2       874       875       966      3465      3741      3742
 -1      1821    8    0    1
 -2       874       966       965      3742      3743      3738
 -1      1822    8    0    1
 -2       875       876       967      3468      3744      3745
 -1      1823    8    0    1
 -2       875       967       966      3745      3746      3741
 -1      1824    8    0    1
 -2       876       877       968      3471      3747      3748
 -1      1825    8    0    1
 -2       876       968       967      3748      3749      3744
 -1      1826    8    0    1
 -2       877       878       969      3474      3750      3751
 -1      1827    8    0    1
 -2       877       969       968      3751      3752      3747
 -1      1828    8    0    1
 -2       878       879       970      3477      3753      3754
 -1      1829    8    0    1
 -2       878       970       969      3754      3755      3750
 -1      1830    8    0    1
 -2       879       880       971      3480      3756      3757
 -1      1831    8    0    1
 -2       879       971       970      3757      3758      3753
 -1      1832    8    0    1
 -2       880       881       972      3483      3759      3760
 -1      1833    8    0    1
 -2       880       972       971      3760      3761      3756
 -1      1834    8    0    1
 -2       881       882       973      3486      3762      3763
 -1      1835    8    0    1
 -2       881       973       972      3763      3764      3759
 -1      1836    8    0    1
 -2       882       883       974      3489      3765      3766
 -1      1837    8    0    1
 -2       882       974       973      3766      3767      3762
 -1      1838    8    0    1
 -2       883       884       975      3492      3768      3769
 -1      1839    8    0    1
 -2       883       975       974      3769      3770      3765
 -1      1840    8    0    1
 -2       884       885       976      3495      3771      3772
 -1      1841    8    0    1
 -2       884       976       975      3772      3773      3768
 -1      1842    8    0    1
 -2       885       886       977      3498      3774      3775
 -1      1843    8    0    1
 -2       885       977       976      3775      3776      3771
 -1      1844    8    0    1
 -2       886       887       978      3501      3777      3778
 -1      1845    8    0    1
 -2       886       978       977      3778      3779      3774
 -1      1846    8    0    1
 -2       887       888       979      3504      3780      3781
 -1      1847    8    0    1
 -2       978       887       979      3777      3781      3782
 -1      1848    8    0    1
 -2       888       894       979      3579      3783      3780
 -1      1849    8    0    1
 -2       903       920       980      3608      3784      3785
 -1      1850    8    0    1
 -2       807       917       981      3595      3786      3787
 -1      1851    8    0    1
 -2       807       981       898      3787      3788      3556
 -1      1852    8    0    1
 -2       914       811       982      3586      3789      3790
 -1      1853    8    0    1
 -2       896       889       983      3527      3791      3792
 -1      1854    8    0    1
 -2       889       921       983      3610      3793      3791
 -1      1855    8    0    1
 -2       822       815       984      3304      3794      3795
 -1      1856    8    0    1
 -2       918       822       984      3596      3795      3796
 -1      1857    8    0    1
 -2       815       827       984      3321      3797      3794
 -1      1858    8    0    1
 -2       894       826       979      3520      3798      3783
 -1      1859    8    0    1
 -2       823       898       985      3533      3799      3800
 -1      1860    8    0    1
 -2       913       823       985      3583      3800      3801
 -1      1861    8    0    1
 -2       898       981       985      3788      3802      3799
 -1      1862    8    0    1
 -2       892       890       986      3515      3803      3804
 -1      1863    8    0    1
 -2       890       916       986      3593      3805      3803
 -1      1864    8    0    1
 -2       901       818       987      3544      3806      3807
 -1      1865    8    0    1
 -2       854       897       988      3530      3808      3809
 -1      1866    8    0    1
 -2       854       988       909      3809      3810      3571
 -1      1867    8    0    1
 -2       829       913       923      3611      3811      3614
 -1      1868    8    0    1
 -2       979       826       989      3798      3812      3813
 -1      1869    8    0    1
 -2       922       824       990      3612      3814      3815
 -1      1870    8    0    1
 -2       824       915       990      3590      3816      3814
 -1      1871    8    0    1
 -2       852       945       991      3680      3817      3818
 -1      1872    8    0    1
 -2       852       991       853      3818      3819      3400
 -1      1873    8    0    1
 -2       812       947       906      3685      3820      3557
 -1      1874    8    0    1
 -2       905       901       992      3555      3821      3822
 -1      1875    8    0    1
 -2       901       987       992      3807      3823      3821
 -1      1876    8    0    1
 -2       811       905       982      3554      3824      3789
 -1      1877    8    0    1
 -2       980       920       993      3784      3825      3826
 -1      1878    8    0    1
 -2       920       911       993      3607      3827      3825
 -1      1879    8    0    1
 -2       981       917       994      3786      3828      3829
 -1      1880    8    0    1
 -2       892       986       995      3804      3830      3831
 -1      1881    8    0    1
 -2       892       995       899      3831      3832      3537
 -1      1882    8    0    1
 -2       908       893       996      3565      3833      3834
 -1      1883    8    0    1
 -2       893       907       996      3562      3835      3833
 -1      1884    8    0    1
 -2       857       950       997      3694      3836      3837
 -1      1885    8    0    1
 -2       857       997       911      3837      3838      3576
 -1      1886    8    0    1
 -2       808       902       971      3546      3839      3840
 -1      1887    8    0    1
 -2       818       910       987      3573      3841      3806
 -1      1888    8    0    1
 -2       826       900       989      3540      3842      3812
 -1      1889    8    0    1
 -2       915       821       998      3588      3843      3844
 -1      1890    8    0    1
 -2       821       912       998      3581      3845      3843
 -1      1891    8    0    1
 -2       912       819       999      3582      3846      3847
 -1      1892    8    0    1
 -2       819       908       999      3567      3848      3846
 -1      1893    8    0    1
 -2       986       916       922      3805      3613      3849
 -1      1894    8    0    1
 -2       896       983      1000      3792      3850      3851
 -1      1895    8    0    1
 -2       896      1000       900      3851      3852      3541
 -1      1896    8    0    1
 -2       895       909      1001      3570      3853      3854
 -1      1897    8    0    1
 -2       921       895      1001      3609      3854      3855
 -1      1898    8    0    1
 -2       909       988      1001      3810      3856      3853
 -1      1899    8    0    1
 -2       910       891      1002      3574      3857      3858
 -1      1900    8    0    1
 -2       814       914      1003      3599      3859      3860
 -1      1901    8    0    1
 -2       917       918      1004      3598      3861      3862
 -1      1902    8    0    1
 -2       917      1004       994      3862      3863      3828
 -1      1903    8    0    1
 -2       988       897       899      3808      3536      3864
 -1      1904    8    0    1
 -2       903       980      1005      3785      3865      3866
 -1      1905    8    0    1
 -2       903      1005       947      3866      3867      3686
 -1      1906    8    0    1
 -2       827       825      1006      3322      3868      3869
 -1      1907    8    0    1
 -2       827      1006       984      3869      3870      3797
 -1      1908    8    0    1
 -2       902       814      1003      3547      3860      3871
 -1      1909    8    0    1
 -2       914       982       969      3790      3872      3873
 -1      1910    8    0    1
 -2       891       919      1002      3602      3874      3857
 -1      1911    8    0    1
 -2      1006       825       906      3868      3559      3875
 -1      1912    8    0    1
 -2      1006       906      1007      3875      3876      3877
 -1      1913    8    0    1
 -2       810       904      1008      3552      3878      3879
 -1      1914    8    0    1
 -2       948       951      1009      3698      3880      3881
 -1      1915    8    0    1
 -2       925       924      1010      3621      3882      3883
 -1      1916    8    0    1
 -2       926       925      1011      3624      3884      3885
 -1      1917    8    0    1
 -2       925      1010      1011      3883      3886      3884
 -1      1918    8    0    1
 -2       927       926      1012      3627      3887      3888
 -1      1919    8    0    1
 -2       926      1011      1012      3885      3889      3887
 -1      1920    8    0    1
 -2       928       927      1013      3630      3890      3891
 -1      1921    8    0    1
 -2       927      1012      1013      3888      3892      3890
 -1      1922    8    0    1
 -2       929       928      1014      3633      3893      3894
 -1      1923    8    0    1
 -2       928      1013      1014      3891      3895      3893
 -1      1924    8    0    1
 -2       930       929      1015      3636      3896      3897
 -1      1925    8    0    1
 -2       929      1014      1015      3894      3898      3896
 -1      1926    8    0    1
 -2       931       930      1016      3639      3899      3900
 -1      1927    8    0    1
 -2       930      1015      1016      3897      3901      3899
 -1      1928    8    0    1
 -2       932       931      1017      3642      3902      3903
 -1      1929    8    0    1
 -2       931      1016      1017      3900      3904      3902
 -1      1930    8    0    1
 -2       933       932      1018      3645      3905      3906
 -1      1931    8    0    1
 -2       932      1017      1018      3903      3907      3905
 -1      1932    8    0    1
 -2       934       933      1019      3648      3908      3909
 -1      1933    8    0    1
 -2       933      1018      1019      3906      3910      3908
 -1      1934    8    0    1
 -2       935       934      1020      3651      3911      3912
 -1      1935    8    0    1
 -2       934      1019      1020      3909      3913      3911
 -1      1936    8    0    1
 -2       936       935      1021      3654      3914      3915
 -1      1937    8    0    1
 -2       935      1020      1021      3912      3916      3914
 -1      1938    8    0    1
 -2       937       936      1022      3657      3917      3918
 -1      1939    8    0    1
 -2       936      1021      1022      3915      3919      3917
 -1      1940    8    0    1
 -2       938       937      1023      3660      3920      3921
 -1      1941    8    0    1
 -2       937      1022      1023      3918      3922      3920
 -1      1942    8    0    1
 -2       939       938      1024      3663      3923      3924
 -1      1943    8    0    1
 -2       938      1023      1024      3921      3925      3923
 -1      1944    8    0    1
 -2       940       939      1025      3666      3926      3927
 -1      1945    8    0    1
 -2       939      1024      1025      3924      3928      3926
 -1      1946    8    0    1
 -2       941       940      1026      3669      3929      3930
 -1      1947    8    0    1
 -2       940      1025      1026      3927      3931      3929
 -1      1948    8    0    1
 -2       942       941      1027      3672      3932      3933
 -1      1949    8    0    1
 -2       941      1026      1027      3930      3934      3932
 -1      1950    8    0    1
 -2       943       942      1028      3675      3935      3936
 -1      1951    8    0    1
 -2       942      1027      1028      3933      3937      3935
 -1      1952    8    0    1
 -2       944       943      1029      3678      3938      3939
 -1      1953    8    0    1
 -2       943      1028      1029      3936      3940      3938
 -1      1954    8    0    1
 -2       945       944      1030      3681      3941      3942
 -1      1955    8    0    1
 -2       944      1029      1030      3939      3943      3941
 -1      1956    8    0    1
 -2       950       946      1031      3695      3944      3945
 -1      1957    8    0    1
 -2       906       947      1007      3820      3946      3876
 -1      1958    8    0    1
 -2       951       952      1032      3701      3947      3948
 -1      1959    8    0    1
 -2       951      1032      1009      3948      3949      3880
 -1      1960    8    0    1
 -2       907       810      1008      3560      3879      3950
 -1      1961    8    0    1
 -2       983       921      1033      3793      3951      3952
 -1      1962    8    0    1
 -2       952       953      1034      3704      3953      3954
 -1      1963    8    0    1
 -2       952      1034      1032      3954      3955      3947
 -1      1964    8    0    1
 -2       953       954      1035      3707      3956      3957
 -1      1965    8    0    1
 -2       953      1035      1034      3957      3958      3953
 -1      1966    8    0    1
 -2       954       955      1036      3710      3959      3960
 -1      1967    8    0    1
 -2       954      1036      1035      3960      3961      3956
 -1      1968    8    0    1
 -2       955       956      1037      3713      3962      3963
 -1      1969    8    0    1
 -2       955      1037      1036      3963      3964      3959
 -1      1970    8    0    1
 -2       956       957      1038      3716      3965      3966
 -1      1971    8    0    1
 -2       956      1038      1037      3966      3967      3962
 -1      1972    8    0    1
 -2       957       958      1039      3719      3968      3969
 -1      1973    8    0    1
 -2       957      1039      1038      3969      3970      3965
 -1      1974    8    0    1
 -2       958       959      1040      3722      3971      3972
 -1      1975    8    0    1
 -2       958      1040      1039      3972      3973      3968
 -1      1976    8    0    1
 -2       959       960      1041      3725      3974      3975
 -1      1977    8    0    1
 -2       959      1041      1040      3975      3976      3971
 -1      1978    8    0    1
 -2       960       961      1042      3728      3977      3978
 -1      1979    8    0    1
 -2       960      1042      1041      3978      3979      3974
 -1      1980    8    0    1
 -2       961       962      1043      3731      3980      3981
 -1      1981    8    0    1
 -2       961      1043      1042      3981      3982      3977
 -1      1982    8    0    1
 -2       962       963      1044      3734      3983      3984
 -1      1983    8    0    1
 -2       962      1044      1043      3984      3985      3980
 -1      1984    8    0    1
 -2       963       964      1045      3737      3986      3987
 -1      1985    8    0    1
 -2       963      1045      1044      3987      3988      3983
 -1      1986    8    0    1
 -2       964       965      1046      3740      3989      3990
 -1      1987    8    0    1
 -2       964      1046      1045      3990      3991      3986
 -1      1988    8    0    1
 -2       965       966      1047      3743      3992      3993
 -1      1989    8    0    1
 -2       965      1047      1046      3993      3994      3989
 -1      1990    8    0    1
 -2       966       967      1048      3746      3995      3996
 -1      1991    8    0    1
 -2       966      1048      1047      3996      3997      3992
 -1      1992    8    0    1
 -2       968       969       982      3752      3872      3998
 -1      1993    8    0    1
 -2       969       970      1003      3755      3999      4000
 -1      1994    8    0    1
 -2       972       973      1008      3764      4001      4002
 -1      1995    8    0    1
 -2       973       974       996      3767      4003      4004
 -1      1996    8    0    1
 -2       975       976      1049      3773      4005      4006
 -1      1997    8    0    1
 -2       976       977      1050      3776      4007      4008
 -1      1998    8    0    1
 -2       976      1050      1049      4008      4009      4005
 -1      1999    8    0    1
 -2       977       978      1051      3779      4010      4011
 -1      2000    8    0    1
 -2       977      1051      1050      4011      4012      4007
 -1      2001    8    0    1
 -2       978       979       989      3782      3813      4013
 -1      2002    8    0    1
 -2       988       899       995      3864      3832      4014
 -1      2003    8    0    1
 -2       924       923      1052      3618      4015      4016
 -1      2004    8    0    1
 -2       924      1052      1010      4016      4017      3882
 -1      2005    8    0    1
 -2       987       910      1053      3841      4018      4019
 -1      2006    8    0    1
 -2       808       971       972      3840      3761      4020
 -1      2007    8    0    1
 -2      1003       914       969      3859      3873      4000
 -1      2008    8    0    1
 -2       986       922      1033      3849      4021      4022
 -1      2009    8    0    1
 -2       978       989      1051      4013      4023      4010
 -1      2010    8    0    1
 -2       989       900      1000      3842      3852      4024
 -1      2011    8    0    1
 -2       907      1008       973      3950      4001      4025
 -1      2012    8    0    1
 -2       982       905      1048      3824      4026      4027
 -1      2013    8    0    1
 -2       910      1002      1053      3858      4028      4018
 -1      2014    8    0    1
 -2       919       853       991      3603      3819      4029
 -1      2015    8    0    1
 -2      1002       919       991      3874      4029      4030
 -1      2016    8    0    1
 -2       981       994      1054      3829      4031      4032
 -1      2017    8    0    1
 -2       981      1054       985      4032      4033      3802
 -1      2018    8    0    1
 -2       968       982       967      3998      4034      3749
 -1      2019    8    0    1
 -2       967       982      1048      4034      4027      3995
 -1      2020    8    0    1
 -2       907       973       996      4025      4004      3835
 -1      2021    8    0    1
 -2       915       998      1055      3844      4035      4036
 -1      2022    8    0    1
 -2       915      1055       990      4036      4037      3816
 -1      2023    8    0    1
 -2       991       945      1056      3817      4038      4039
 -1      2024    8    0    1
 -2       945      1030      1056      3942      4040      4038
 -1      2025    8    0    1
 -2       996       974      1057      4003      4041      4042
 -1      2026    8    0    1
 -2       908       996      1057      3834      4042      4043
 -1      2027    8    0    1
 -2       974       975      1057      3770      4044      4041
 -1      2028    8    0    1
 -2       983      1033      1058      3952      4045      4046
 -1      2029    8    0    1
 -2       983      1058      1000      4046      4047      3850
 -1      2030    8    0    1
 -2       948      1009      1059      3881      4048      4049
 -1      2031    8    0    1
 -2       948      1059       949      4049      4050      3692
 -1      2032    8    0    1
 -2       908      1057       999      4043      4051      3848
 -1      2033    8    0    1
 -2       950      1031      1060      3945      4052      4053
 -1      2034    8    0    1
 -2       950      1060       997      4053      4054      3836
 -1      2035    8    0    1
 -2      1031       946      1061      3944      4055      4056
 -1      2036    8    0    1
 -2       946       949      1061      3691      4057      4055
 -1      2037    8    0    1
 -2      1007       947      1005      3946      3867      4058
 -1      2038    8    0    1
 -2       992       987      1062      3823      4059      4060
 -1      2039    8    0    1
 -2       993       911       997      3827      3838      4061
 -1      2040    8    0    1
 -2       905       992      1048      3822      4062      4026
 -1      2041    8    0    1
 -2      1033       921       986      3951      4063      4022
 -1      2042    8    0    1
 -2      1003       970       902      3999      4064      3871
 -1      2043    8    0    1
 -2       972      1008       904      4002      3878      4065
 -1      2044    8    0    1
 -2       970       971       902      3758      3839      4064
 -1      2045    8    0    1
 -2       975      1049      1057      4006      4066      4044
 -1      2046    8    0    1
 -2       989      1000      1063      4024      4067      4068
 -1      2047    8    0    1
 -2      1051       989      1063      4023      4068      4069
 -1      2048    8    0    1
 -2      1000      1058      1063      4047      4070      4067
 -1      2049    8    0    1
 -2      1052       923      1054      4015      4071      4072
 -1      2050    8    0    1
 -2       980       993      1064      3826      4073      4074
 -1      2051    8    0    1
 -2       923       913      1054      3811      4075      4071
 -1      2052    8    0    1
 -2       998       912      1065      3845      4076      4077
 -1      2053    8    0    1
 -2       912       999      1065      3847      4078      4076
 -1      2054    8    0    1
 -2      1004       918      1007      3861      4079      4080
 -1      2055    8    0    1
 -2      1001       988       995      3856      4014      4081
 -1      2056    8    0    1
 -2      1002       991      1056      4030      4039      4082
 -1      2057    8    0    1
 -2      1062       987      1053      4059      4019      4083
 -1      2058    8    0    1
 -2       980      1064      1066      4074      4084      4085
 -1      2059    8    0    1
 -2       980      1066      1005      4085      4086      3865
 -1      2060    8    0    1
 -2       994      1004      1067      3863      4087      4088
 -1      2061    8    0    1
 -2       994      1067      1068      4088      4089      4090
 -1      2062    8    0    1
 -2       994      1068      1054      4090      4091      4031
 -1      2063    8    0    1
 -2      1053      1002      1069      4028      4092      4093
 -1      2064    8    0    1
 -2      1002      1056      1069      4082      4094      4092
 -1      2065    8    0    1
 -2      1056      1030      1070      4040      4095      4096
 -1      2066    8    0    1
 -2      1056      1070      1069      4096      4097      4094
 -1      2067    8    0    1
 -2       922       990      1033      3815      4098      4021
 -1      2068    8    0    1
 -2      1012      1011      1071      3889      4099      4100
 -1      2069    8    0    1
 -2      1013      1012      1072      3892      4101      4102
 -1      2070    8    0    1
 -2      1012      1071      1072      4100      4103      4101
 -1      2071    8    0    1
 -2      1014      1013      1073      3895      4104      4105
 -1      2072    8    0    1
 -2      1013      1072      1073      4102      4106      4104
 -1      2073    8    0    1
 -2      1015      1014      1074      3898      4107      4108
 -1      2074    8    0    1
 -2      1014      1073      1074      4105      4109      4107
 -1      2075    8    0    1
 -2      1016      1015      1075      3901      4110      4111
 -1      2076    8    0    1
 -2      1015      1074      1075      4108      4112      4110
 -1      2077    8    0    1
 -2      1017      1016      1076      3904      4113      4114
 -1      2078    8    0    1
 -2      1016      1075      1076      4111      4115      4113
 -1      2079    8    0    1
 -2      1018      1017      1077      3907      4116      4117
 -1      2080    8    0    1
 -2      1017      1076      1077      4114      4118      4116
 -1      2081    8    0    1
 -2      1019      1018      1078      3910      4119      4120
 -1      2082    8    0    1
 -2      1018      1077      1078      4117      4121      4119
 -1      2083    8    0    1
 -2      1020      1019      1079      3913      4122      4123
 -1      2084    8    0    1
 -2      1019      1078      1079      4120      4124      4122
 -1      2085    8    0    1
 -2      1021      1020      1080      3916      4125      4126
 -1      2086    8    0    1
 -2      1020      1079      1080      4123      4127      4125
 -1      2087    8    0    1
 -2      1022      1021      1081      3919      4128      4129
 -1      2088    8    0    1
 -2      1021      1080      1081      4126      4130      4128
 -1      2089    8    0    1
 -2      1023      1022      1082      3922      4131      4132
 -1      2090    8    0    1
 -2      1022      1081      1082      4129      4133      4131
 -1      2091    8    0    1
 -2      1024      1023      1083      3925      4134      4135
 -1      2092    8    0    1
 -2      1023      1082      1083      4132      4136      4134
 -1      2093    8    0    1
 -2      1025      1024      1084      3928      4137      4138
 -1      2094    8    0    1
 -2      1024      1083      1084      4135      4139      4137
 -1      2095    8    0    1
 -2      1026      1025      1085      3931      4140      4141
 -1      2096    8    0    1
 -2      1025      1084      1085      4138      4142      4140
 -1      2097    8    0    1
 -2      1027      1026      1086      3934      4143      4144
 -1      2098    8    0    1
 -2      1026      1085      1086      4141      4145      4143
 -1      2099    8    0    1
 -2      1028      1027      1087      3937      4146      4147
 -1      2100    8    0    1
 -2      1027      1086      1087      4144      4148      4146
 -1      2101    8    0    1
 -2      1029      1028      1088      3940      4149      4150
 -1      2102    8    0    1
 -2      1028      1087      1088      4147      4151      4149
 -1      2103    8    0    1
 -2      1030      1029      1089      3943      4152      4153
 -1      2104    8    0    1
 -2      1070      1030      1089      4095      4153      4154
 -1      2105    8    0    1
 -2      1029      1088      1089      4150      4155      4152
 -1      2106    8    0    1
 -2      1034      1035      1090      3958      4156      4157
 -1      2107    8    0    1
 -2       993       997      1091      4061      4158      4159
 -1      2108    8    0    1
 -2      1064       993      1091      4073      4159      4160
 -1      2109    8    0    1
 -2       997      1060      1091      4054      4161      4158
 -1      2110    8    0    1
 -2      1035      1036      1092      3961      4162      4163
 -1      2111    8    0    1
 -2      1035      1092      1090      4163      4164      4156
 -1      2112    8    0    1
 -2      1032      1034      1093      3955      4165      4166
 -1      2113    8    0    1
 -2      1034      1090      1093      4157      4167      4165
 -1      2114    8    0    1
 -2      1036      1037      1094      3964      4168      4169
 -1      2115    8    0    1
 -2      1036      1094      1092      4169      4170      4162
 -1      2116    8    0    1
 -2      1037      1038      1095      3967      4171      4172
 -1      2117    8    0    1
 -2      1037      1095      1094      4172      4173      4168
 -1      2118    8    0    1
 -2      1038      1039      1096      3970      4174      4175
 -1      2119    8    0    1
 -2      1038      1096      1095      4175      4176      4171
 -1      2120    8    0    1
 -2      1039      1040      1097      3973      4177      4178
 -1      2121    8    0    1
 -2      1039      1097      1096      4178      4179      4174
 -1      2122    8    0    1
 -2      1040      1041      1098      3976      4180      4181
 -1      2123    8    0    1
 -2      1040      1098      1097      4181      4182      4177
 -1      2124    8    0    1
 -2      1041      1042      1099      3979      4183      4184
 -1      2125    8    0    1
 -2      1041      1099      1098      4184      4185      4180
 -1      2126    8    0    1
 -2      1042      1043      1100      3982      4186      4187
 -1      2127    8    0    1
 -2      1042      1100      1099      4187      4188      4183
 -1      2128    8    0    1
 -2      1043      1044      1101      3985      4189      4190
 -1      2129    8    0    1
 -2      1043      1101      1100      4190      4191      4186
 -1      2130    8    0    1
 -2      1044      1045      1102      3988      4192      4193
 -1      2131    8    0    1
 -2      1044      1102      1101      4193      4194      4189
 -1      2132    8    0    1
 -2      1045      1046      1103      3991      4195      4196
 -1      2133    8    0    1
 -2      1045      1103      1102      4196      4197      4192
 -1      2134    8    0    1
 -2      1047      1048      1062      3997      4198      4199
 -1      2135    8    0    1
 -2      1052      1054      1068      4072      4091      4200
 -1      2136    8    0    1
 -2      1049      1050      1104      4009      4201      4202
 -1      2137    8    0    1
 -2      1010      1052      1105      4017      4203      4204
 -1      2138    8    0    1
 -2      1052      1068      1105      4200      4205      4203
 -1      2139    8    0    1
 -2      1050      1051      1106      4012      4206      4207
 -1      2140    8    0    1
 -2      1104      1050      1106      4201      4207      4208
 -1      2141    8    0    1
 -2      1051      1063      1106      4069      4209      4206
 -1      2142    8    0    1
 -2      1011      1010      1107      3886      4210      4211
 -1      2143    8    0    1
 -2      1071      1011      1107      4099      4211      4212
 -1      2144    8    0    1
 -2      1010      1105      1107      4204      4213      4210
 -1      2145    8    0    1
 -2      1004      1007      1108      4080      4214      4215
 -1      2146    8    0    1
 -2      1067      1004      1108      4087      4215      4216
 -1      2147    8    0    1
 -2      1007      1005      1108      4058      4217      4214
 -1      2148    8    0    1
 -2       918       984      1006      3796      3870      4218
 -1      2149    8    0    1
 -2      1048       992      1062      4062      4060      4198
 -1      2150    8    0    1
 -2      1006      1007       918      3877      4079      4218
 -1      2151    8    0    1
 -2      1033       990      1109      4098      4219      4220
 -1      2152    8    0    1
 -2      1058      1033      1109      4045      4220      4221
 -1      2153    8    0    1
 -2       990      1055      1109      4037      4222      4219
 -1      2154    8    0    1
 -2      1009      1032      1110      3949      4223      4224
 -1      2155    8    0    1
 -2      1032      1093      1110      4166      4225      4223
 -1      2156    8    0    1
 -2       999      1057      1049      4051      4066      4226
 -1      2157    8    0    1
 -2      1062      1053      1111      4083      4227      4228
 -1      2158    8    0    1
 -2      1047      1062      1111      4199      4228      4229
 -1      2159    8    0    1
 -2      1053      1069      1111      4093      4230      4227
 -1      2160    8    0    1
 -2      1108      1005      1066      4217      4086      4231
 -1      2161    8    0    1
 -2      1059      1009      1112      4048      4232      4233
 -1      2162    8    0    1
 -2      1009      1110      1112      4224      4234      4232
 -1      2163    8    0    1
 -2      1060      1031      1113      4052      4235      4236
 -1      2164    8    0    1
 -2      1061       949      1059      4057      4050      4237
 -1      2165    8    0    1
 -2      1066      1064      1114      4084      4238      4239
 -1      2166    8    0    1
 -2      1064      1091      1115      4160      4240      4241
 -1      2167    8    0    1
 -2      1064      1115      1114      4241      4242      4238
 -1      2168    8    0    1
 -2      1103      1046      1111      4195      4243      4244
 -1      2169    8    0    1
 -2      1046      1047      1111      3994      4229      4243
 -1      2170    8    0    1
 -2      1055       998      1106      4035      4245      4246
 -1      2171    8    0    1
 -2      1067      1108      1116      4216      4247      4248
 -1      2172    8    0    1
 -2      1031      1061      1117      4056      4249      4250
 -1      2173    8    0    1
 -2      1031      1117      1113      4250      4251      4235
 -1      2174    8    0    1
 -2      1068      1067      1105      4089      4252      4205
 -1      2175    8    0    1
 -2       986       921      1001      4063      3855      4253
 -1      2176    8    0    1
 -2       999      1049      1104      4226      4202      4254
 -1      2177    8    0    1
 -2      1105      1067      1116      4252      4248      4255
 -1      2178    8    0    1
 -2      1072      1071      1115      4103      4256      4257
 -1      2179    8    0    1
 -2      1061      1059      1118      4237      4258      4259
 -1      2180    8    0    1
 -2      1059      1112      1118      4233      4260      4258
 -1      2181    8    0    1
 -2      1103      1111      1069      4244      4230      4261
 -1      2182    8    0    1
 -2      1092      1094      1081      4170      4262      4263
 -1      2183    8    0    1
 -2      1074      1073      1113      4109      4264      4265
 -1      2184    8    0    1
 -2      1075      1074      1117      4112      4266      4267
 -1      2185    8    0    1
 -2      1076      1075      1118      4115      4268      4269
 -1      2186    8    0    1
 -2      1077      1076      1112      4118      4270      4271
 -1      2187    8    0    1
 -2      1078      1077      1110      4121      4272      4273
 -1      2188    8    0    1
 -2      1079      1078      1093      4124      4274      4275
 -1      2189    8    0    1
 -2      1080      1079      1090      4127      4276      4277
 -1      2190    8    0    1
 -2      1081      1080      1092      4130      4278      4263
 -1      2191    8    0    1
 -2      1082      1081      1094      4133      4262      4279
 -1      2192    8    0    1
 -2      1083      1082      1095      4136      4280      4281
 -1      2193    8    0    1
 -2      1084      1083      1096      4139      4282      4283
 -1      2194    8    0    1
 -2      1085      1084      1097      4142      4284      4285
 -1      2195    8    0    1
 -2      1086      1085      1098      4145      4286      4287
 -1      2196    8    0    1
 -2      1087      1086      1099      4148      4288      4289
 -1      2197    8    0    1
 -2      1088      1087      1100      4151      4290      4291
 -1      2198    8    0    1
 -2      1091      1060      1119      4161      4292      4293
 -1      2199    8    0    1
 -2      1115      1091      1119      4240      4293      4294
 -1      2200    8    0    1
 -2      1060      1113      1119      4236      4295      4292
 -1      2201    8    0    1
 -2      1055      1106      1109      4246      4296      4222
 -1      2202    8    0    1
 -2      1093      1090      1079      4167      4276      4275
 -1      2203    8    0    1
 -2      1095      1096      1083      4176      4282      4281
 -1      2204    8    0    1
 -2      1096      1097      1084      4179      4284      4283
 -1      2205    8    0    1
 -2      1097      1098      1085      4182      4286      4285
 -1      2206    8    0    1
 -2      1098      1099      1086      4185      4288      4287
 -1      2207    8    0    1
 -2      1099      1100      1087      4188      4290      4289
 -1      2208    8    0    1
 -2      1100      1101      1088      4191      4297      4291
 -1      2209    8    0    1
 -2      1101      1102      1089      4194      4298      4299
 -1      2210    8    0    1
 -2      1102      1103      1070      4197      4300      4301
 -1      2211    8    0    1
 -2      1116      1108      1066      4247      4231      4302
 -1      2212    8    0    1
 -2      1063      1058      1109      4070      4221      4303
 -1      2213    8    0    1
 -2      1094      1095      1082      4173      4280      4279
 -1      2214    8    0    1
 -2       913       985      1054      3801      4033      4075
 -1      2215    8    0    1
 -2      1106      1063      1109      4209      4303      4296
 -1      2216    8    0    1
 -2      1065       999      1104      4078      4254      4304
 -1      2217    8    0    1
 -2       808       972       904      4020      4065      3550
 -1      2218    8    0    1
 -2      1090      1092      1080      4164      4278      4277
 -1      2219    8    0    1
 -2      1066      1114      1116      4239      4305      4302
 -1      2220    8    0    1
 -2      1105      1116      1107      4255      4306      4213
 -1      2221    8    0    1
 -2      1070      1103      1069      4300      4261      4097
 -1      2222    8    0    1
 -2      1110      1093      1078      4225      4274      4273
 -1      2223    8    0    1
 -2      1110      1077      1112      4272      4271      4234
 -1      2224    8    0    1
 -2      1113      1073      1119      4264      4307      4295
 -1      2225    8    0    1
 -2      1074      1113      1117      4265      4251      4266
 -1      2226    8    0    1
 -2      1116      1114      1107      4305      4308      4306
 -1      2227    8    0    1
 -2      1088      1101      1089      4297      4299      4155
 -1      2228    8    0    1
 -2      1102      1070      1089      4301      4154      4298
 -1      2229    8    0    1
 -2      1061      1118      1117      4259      4309      4249
 -1      2230    8    0    1
 -2      1119      1073      1072      4307      4106      4310
 -1      2231    8    0    1
 -2      1071      1107      1114      4212      4308      4311
 -1      2232    8    0    1
 -2      1115      1071      1114      4256      4311      4242
 -1      2233    8    0    1
 -2      1075      1117      1118      4267      4309      4268
 -1      2234    8    0    1
 -2      1076      1118      1112      4269      4260      4270
 -1      2235    8    0    1
 -2      1119      1072      1115      4310      4257      4294
 -1      2236    8    0    1
 -2       998      1065      1106      4077      4312      4245
 -1      2237    8    0    1
 -2      1106      1065      1104      4312      4304      4208
 -1      2238    8    0    1
 -2       986      1001       995      4253      4081      3830
 -3
    1PSTEP                         1           1           1          
  100CL  101 1.000000000        4312                     0    1           1
 -4  DISP        4    1
 -5  D1          1    2    1    0
 -5  D2          1    2    2    0
 -5  D3          1    2    3    0
 -5  ALL         1    2    0    0    1ALL
 -1         1 1.30555E-02-2.10701E-03-5.50024E-14
 -1         2 1.37326E-02-1.17724E-03-5.71480E-14
 -1         3 1.36189E-02-2.21517E-03-8.54513E-14
 -1         4 1.70306E-02-3.56320E-03-9.18294E-14
 -1         5 0.00000E+00 0.00000E+00 0.00000E+00
 -1         6 0.00000E+00 0.00000E+00 0.00000E+00
 -1         7 0.00000E+00 0.00000E+00 0.00000E+00
 -1         8 0.00000E+00 0.00000E+00 0.00000E+00
 -1         9 0.00000E+00 0.00000E+00 0.00000E+00
 -1        10 0.00000E+00 0.00000E+00 0.00000E+00
 -1        11 0.00000E+00 0.00000E+00 0.00000E+00
 -1        12 0.00000E+00 0.00000E+00 0.00000E+00
 -1        13 0.00000E+00 0.00000E+00 0.00000E+00
 -1        14 0.00000E+00 0.00000E+00 0.00000E+00
 -1        15 0.00000E+00 0.00000E+00 0.00000E+00
 -1        16 0.00000E+00 0.00000E+00 0.00000E+00
 -1        17 0.00000E+00 0.00000E+00 0.00000E+00
 -1        18 0.00000E+00 0.00000E+00 0.00000E+00
 -1        19 0.00000E+00 0.00000E+00 0.00000E+00
 -1        20 0.00000E+00 0.00000E+00 0.00000E+00
 -1        21 0.00000E+00 0.00000E+00 0.00000E+00
 -1        22 0.00000E+00 0.00000E+00 0.00000E+00
 -1        23 4.11398E-04-2.60730E-04 1.15908E-17
 -1        24 7.03407E-04-4.00969E-04-8.48016E-17
 -1        25 9.73505E-04-4.98339E-04-2.84569E-16
 -1        26 1.23803E-03-5.67077E-04-5.84849E-16
 -1        27 1.50161E-03-6.16331E-04-9.81704E-16
 -1        28 1.76633E-03-6.51487E-04-1.47216E-15
 -1        29 2.03315E-03-6.76254E-04-2.05632E-15
 -1        30 2.30243E-03-6.93331E-04-2.73293E-15
 -1        31 2.57423E-03-7.04741E-04-3.50038E-15
 -1        32 2.84842E-03-7.12013E-04-4.35914E-15
 -1        33 3.12476E-03-7.16304E-04-5.30753E-15
 -1        34 3.40298E-03-7.18479E-04-6.33463E-15
 -1        35 3.68281E-03-7.19175E-04-7.44285E-15
 -1        36 3.96397E-03-7.18850E-04-8.62646E-15
 -1        37 4.24625E-03-7.17819E-04-9.88398E-15
 -1        38 4.52944E-03-7.16288E-04-1.12163E-14
 -1        39 4.81341E-03-7.14373E-04-1.26189E-14
 -1        40 5.09807E-03-7.12125E-04-1.40950E-14
 -1        41 5.38339E-03-7.09533E-04-1.56401E-14
 -1        42 5.66943E-03-7.06544E-04-1.72562E-14
 -1        43 5.95637E-03-7.03062E-04-1.89477E-14
 -1        44 6.24453E-03-6.98966E-04-2.07151E-14
 -1        45 6.53450E-03-6.94124E-04-2.25556E-14
 -1        46 6.82723E-03-6.88445E-04-2.44761E-14
 -1        47 7.13931E-03-6.81611E-04-2.65754E-14
 -1        48 7.44371E-03-6.74711E-04-2.86424E-14
 -1        49 7.75937E-03-6.68713E-04-3.07790E-14
 -1        50 8.09302E-03-6.66779E-04-3.29727E-14
 -1        51 8.45498E-03-6.76021E-04-3.52150E-14
 -1        52 8.86007E-03-7.11418E-04-3.74981E-14
 -1        53 9.32616E-03-8.02169E-04-3.98207E-14
 -1        54 9.86504E-03-9.97967E-04-4.21853E-14
 -1        55 1.04573E-02-1.36124E-03-4.46052E-14
 -1        56 1.09669E-02-1.84561E-03-4.68371E-14
 -1        57 1.13379E-02-2.34244E-03-4.90058E-14
 -1        58 1.15885E-02-2.67826E-03-5.13985E-14
 -1        59 1.17790E-02-2.65960E-03-5.36199E-14
 -1        60 1.20645E-02-2.40422E-03-5.58945E-14
 -1        61 1.24430E-02-2.11529E-03-5.80501E-14
 -1        62 1.29712E-02-1.86662E-03-6.06339E-14
 -1        63 1.35504E-02-1.77022E-03-6.34875E-14
 -1        64 1.40640E-02-1.82090E-03-6.63159E-14
 -1        65 1.45066E-02-1.95784E-03-6.91336E-14
 -1        66 1.48937E-02-2.13832E-03-7.19458E-14
 -1        67 1.52424E-02-2.33835E-03-7.47648E-14
 -1        68 1.55657E-02-2.54574E-03-7.75935E-14
 -1        69 1.58727E-02-2.75455E-03-8.04192E-14
 -1        70 1.61692E-02-2.96178E-03-8.32512E-14
 -1        71 1.64590E-02-3.16584E-03-8.61069E-14
 -1        72 1.67452E-02-3.36599E-03-8.89725E-14
 -1        73 4.13845E-04 2.61434E-04 6.39612E-17
 -1        74 7.03232E-04 4.03678E-04 5.89366E-17
 -1        75 9.74034E-04 5.00113E-04-1.66527E-17
 -1        76 1.23885E-03 5.68782E-04-1.68871E-16
 -1        77 1.50257E-03 6.18089E-04-4.03486E-16
 -1        78 1.76736E-03 6.53333E-04-7.22665E-16
 -1        79 2.03421E-03 6.78209E-04-1.12619E-15
 -1        80 2.30353E-03 6.95405E-04-1.61410E-15
 -1        81 2.57535E-03 7.06941E-04-2.18878E-15
 -1        82 2.84957E-03 7.14344E-04-2.85255E-15
 -1        83 3.12594E-03 7.18772E-04-3.60718E-15
 -1        84 3.40420E-03 7.21093E-04-4.44656E-15
 -1        85 3.68408E-03 7.21951E-04-5.36928E-15
 -1        86 3.96533E-03 7.21818E-04-6.37459E-15
 -1        87 4.24771E-03 7.21030E-04-7.45865E-15
 -1        88 4.53106E-03 7.19828E-04-8.62532E-15
 -1        89 4.81521E-03 7.18383E-04-9.87274E-15
 -1        90 5.10006E-03 7.16827E-04-1.11946E-14
 -1        91 5.38556E-03 7.15271E-04-1.25923E-14
 -1        92 5.67166E-03 7.13832E-04-1.40689E-14
 -1        93 5.95833E-03 7.12648E-04-1.56257E-14
 -1        94 6.24553E-03 7.11900E-04-1.72638E-14
 -1        95 6.53317E-03 7.11810E-04-1.89798E-14
 -1        96 6.82105E-03 7.12645E-04-2.07733E-14
 -1        97 7.10879E-03 7.14674E-04-2.26401E-14
 -1        98 7.39579E-03 7.18108E-04-2.45753E-14
 -1        99 7.68108E-03 7.22969E-04-2.65750E-14
 -1       100 7.96332E-03 7.28906E-04-2.86293E-14
 -1       101 8.24078E-03 7.34952E-04-3.07425E-14
 -1       102 8.51148E-03 7.39255E-04-3.29197E-14
 -1       103 8.77341E-03 7.38857E-04-3.51583E-14
 -1       104 9.02503E-03 7.29643E-04-3.74602E-14
 -1       105 9.26571E-03 7.06579E-04-3.98146E-14
 -1       106 9.49626E-03 6.64311E-04-4.22129E-14
 -1       107 9.71910E-03 5.98071E-04-4.46660E-14
 -1       108 9.93806E-03 5.04673E-04-4.71718E-14
 -1       109 1.01577E-02 3.83255E-04-4.97255E-14
 -1       110 1.03825E-02 2.35485E-04-5.23293E-14
 -1       111 1.06157E-02 6.51517E-05-5.49817E-14
 -1       112 1.08594E-02-1.22707E-04-5.76774E-14
 -1       113 1.11136E-02-3.22809E-04-6.03996E-14
 -1       114 1.13775E-02-5.30450E-04-6.31499E-14
 -1       115 1.16491E-02-7.41990E-04-6.59249E-14
 -1       116 1.19266E-02-9.54977E-04-6.87311E-14
 -1       117 1.22079E-02-1.16802E-03-7.15401E-14
 -1       118 1.24915E-02-1.38053E-03-7.43501E-14
 -1       119 1.27764E-02-1.59240E-03-7.71615E-14
 -1       120 1.30618E-02-1.80379E-03-7.99742E-14
 -1       121 1.33475E-02-2.01484E-03-8.27862E-14
 -1       122 1.38262E-02-2.29944E-03-8.58277E-14
 -1       123 1.40334E-02-2.38381E-03-8.62173E-14
 -1       124 1.42405E-02-2.46839E-03-8.66055E-14
 -1       125 1.44482E-02-2.55307E-03-8.70139E-14
 -1       126 1.46566E-02-2.63737E-03-8.74060E-14
 -1       127 1.48623E-02-2.71913E-03-8.77806E-14
 -1       128 1.50722E-02-2.80029E-03-8.81609E-14
 -1       129 1.52816E-02-2.87866E-03-8.85371E-14
 -1       130 1.54892E-02-2.95388E-03-8.89168E-14
 -1       131 1.56934E-02-3.02628E-03-8.93015E-14
 -1       132 1.58931E-02-3.09697E-03-8.96763E-14
 -1       133 1.60844E-02-3.16649E-03-9.00554E-14
 -1       134 1.62746E-02-3.23923E-03-9.04439E-14
 -1       135 1.64624E-02-3.31565E-03-9.08120E-14
 -1       136 1.66503E-02-3.39626E-03-9.11645E-14
 -1       137 1.68408E-02-3.48006E-03-9.14888E-14
 -1       138 1.35763E-02-9.76375E-04-5.68482E-14
 -1       139 1.33117E-02-7.77984E-04-5.62616E-14
 -1       140 1.29538E-02-5.89411E-04-5.54111E-14
 -1       141 1.25318E-02-4.20814E-04-5.43707E-14
 -1       142 1.20283E-02-2.69015E-04-5.30993E-14
 -1       143 1.15191E-02-1.57117E-04-5.17995E-14
 -1       144 1.09888E-02-8.01234E-05-5.04467E-14
 -1       145 1.04125E-02-4.32603E-05-4.89856E-14
 -1       146 9.89840E-03-5.75863E-05-4.77162E-14
 -1       147 9.46912E-03-1.15417E-04-4.66804E-14
 -1       148 9.10847E-03-2.14849E-04-4.58466E-14
 -1       149 8.86576E-03-3.35692E-04-4.53179E-14
 -1       150 8.70321E-03-4.91074E-04-4.50058E-14
 -1       151 8.64223E-03-6.73159E-04-4.49480E-14
 -1       152 8.68709E-03-8.80816E-04-4.51554E-14
 -1       153 8.84889E-03-1.12718E-03-4.56365E-14
 -1       154 9.13027E-03-1.40465E-03-4.63756E-14
 -1       155 9.51741E-03-1.69970E-03-4.73134E-14
 -1       156 1.00411E-02-2.01396E-03-4.84939E-14
 -1       157 1.06934E-02-2.29341E-03-4.98853E-14
 -1       158 1.13829E-02-2.44118E-03-5.13264E-14
 -1       159 1.19836E-02-2.43483E-03-5.25785E-14
 -1       160 1.25436E-02-2.31586E-03-5.37989E-14
 -1       161 1.33793E-02-1.91187E-03-5.58430E-14
 -1       162 1.36128E-02-1.71169E-03-5.65131E-14
 -1       163 1.37388E-02-1.53208E-03-5.69363E-14
 -1       164 1.37786E-02-1.35862E-03-5.71559E-14
 -1       165 2.40419E-04-1.25503E-04-2.67086E-17
 -1       166 2.25278E-04-9.46000E-05-3.80250E-17
 -1       167 2.19530E-04-7.27647E-05-4.30801E-17
 -1       168 2.16712E-04-5.50882E-05-4.54348E-17
 -1       169 2.15214E-04-3.99519E-05-4.60142E-17
 -1       170 2.14375E-04-2.59043E-05-4.54281E-17
 -1       171 2.13955E-04-1.26382E-05-4.41169E-17
 -1       172 2.13832E-04 2.73165E-07-4.25922E-17
 -1       173 2.13974E-04 1.31969E-05-4.04204E-17
 -1       174 2.14417E-04 2.65029E-05-3.77201E-17
 -1       175 2.15263E-04 4.03794E-05-3.40575E-17
 -1       176 2.16816E-04 5.58962E-05-2.87991E-17
 -1       177 2.19682E-04 7.37973E-05-2.11013E-17
 -1       178 2.25450E-04 9.60047E-05-9.44950E-18
 -1       179 2.39348E-04 1.27579E-04 8.81931E-18
 -1       180 2.97727E-04 1.85491E-04 2.94022E-17
 -1       181 4.68656E-04-2.63535E-04-7.15269E-17
 -1       182 7.66822E-04-3.82118E-04-2.34804E-16
 -1       183 1.05070E-03-4.64989E-04-4.93725E-16
 -1       184 1.32812E-03-5.23756E-04-8.47013E-16
 -1       185 1.60276E-03-5.65440E-04-1.29300E-15
 -1       186 1.87669E-03-5.94730E-04-1.83080E-15
 -1       187 2.15105E-03-6.14931E-04-2.45961E-15
 -1       188 2.42644E-03-6.28468E-04-3.17791E-15
 -1       189 2.70310E-03-6.37156E-04-3.98495E-15
 -1       190 2.98113E-03-6.42358E-04-4.88058E-15
 -1       191 3.26045E-03-6.45090E-04-5.86019E-15
 -1       192 3.54098E-03-6.46104E-04-6.91921E-15
 -1       193 3.82257E-03-6.45941E-04-8.05740E-15
 -1       194 4.10508E-03-6.44977E-04-9.27024E-15
 -1       195 4.38839E-03-6.43463E-04-1.05569E-14
 -1       196 4.67240E-03-6.41546E-04-1.19169E-14
 -1       197 4.95704E-03-6.39296E-04-1.33471E-14
 -1       198 5.24230E-03-6.36717E-04-1.48495E-14
 -1       199 5.52821E-03-6.33757E-04-1.64221E-14
 -1       200 5.81489E-03-6.30315E-04-1.80677E-14
 -1       201 6.10255E-03-6.26246E-04-1.97913E-14
 -1       202 6.39157E-03-6.21367E-04-2.15890E-14
 -1       203 6.68252E-03-6.15477E-04-2.34627E-14
 -1       204 6.99110E-03-6.08015E-04-2.55122E-14
 -1       205 7.28938E-03-5.99697E-04-2.75408E-14
 -1       206 7.59408E-03-5.90657E-04-2.96336E-14
 -1       207 7.90827E-03-5.82495E-04-3.17910E-14
 -1       208 8.23633E-03-5.79347E-04-3.40009E-14
 -1       209 8.58415E-03-5.90748E-04-3.62555E-14
 -1       210 8.95908E-03-6.36891E-04-3.85504E-14
 -1       211 9.36926E-03-7.56497E-04-4.08863E-14
 -1       212 9.82172E-03-1.01166E-03-4.32708E-14
 -1       213 1.02660E-02-1.41131E-03-4.54653E-14
 -1       214 1.07113E-02-1.92402E-03-4.75919E-14
 -1       215 1.11892E-02-2.43963E-03-4.99152E-14
 -1       216 1.20595E-02-2.46647E-03-5.45916E-14
 -1       217 1.24412E-02-2.15847E-03-5.67128E-14
 -1       218 1.29063E-02-1.84085E-03-5.92799E-14
 -1       219 1.34027E-02-1.67803E-03-6.21266E-14
 -1       220 1.38573E-02-1.69114E-03-6.49544E-14
 -1       221 1.42674E-02-1.81196E-03-6.77686E-14
 -1       222 1.46396E-02-1.98767E-03-7.05780E-14
 -1       223 1.49831E-02-2.18794E-03-7.33935E-14
 -1       224 1.53061E-02-2.39741E-03-7.62145E-14
 -1       225 1.56149E-02-2.60882E-03-7.90388E-14
 -1       226 1.59141E-02-2.81870E-03-8.18688E-14
 -1       227 1.62069E-02-3.02532E-03-8.47176E-14
 -1       228 1.64955E-02-3.22772E-03-8.75757E-14
 -1       229 1.66684E-02-3.35473E-03-8.95285E-14
 -1       230 6.04611E-04 3.31026E-04 5.79371E-18
 -1       231 8.93738E-04 4.32651E-04-8.49439E-17
 -1       232 1.17264E-03 5.04372E-04-2.50068E-16
 -1       233 1.44703E-03 5.55450E-04-4.95470E-16
 -1       234 1.71989E-03 5.91682E-04-8.22696E-16
 -1       235 1.99283E-03 6.17062E-04-1.23312E-15
 -1       236 2.26672E-03 6.34463E-04-1.72807E-15
 -1       237 2.54196E-03 6.46020E-04-2.30909E-15
 -1       238 2.81867E-03 6.53336E-04-2.97626E-15
 -1       239 3.09686E-03 6.57618E-04-3.73209E-15
 -1       240 3.37642E-03 6.59769E-04-4.57324E-15
 -1       241 3.65721E-03 6.60452E-04-5.49716E-15
 -1       242 3.93907E-03 6.60149E-04-6.50274E-15
 -1       243 4.22186E-03 6.59204E-04-7.58886E-15
 -1       244 4.50544E-03 6.57857E-04-8.75496E-15
 -1       245 4.78972E-03 6.56277E-04-1.00000E-14
 -1       246 5.07460E-03 6.54591E-04-1.13216E-14
 -1       247 5.36004E-03 6.52906E-04-1.27199E-14
 -1       248 5.64598E-03 6.51333E-04-1.41949E-14
 -1       249 5.93239E-03 6.50009E-04-1.57506E-14
 -1       250 6.21923E-03 6.49112E-04-1.73882E-14
 -1       251 6.50639E-03 6.48878E-04-1.91028E-14
 -1       252 6.79370E-03 6.49592E-04-2.08917E-14
 -1       253 7.08087E-03 6.51567E-04-2.27520E-14
 -1       254 7.36743E-03 6.55076E-04-2.46842E-14
 -1       255 7.65266E-03 6.60233E-04-2.66799E-14
 -1       256 7.93560E-03 6.66811E-04-2.87321E-14
 -1       257 8.21501E-03 6.73977E-04-3.08410E-14
 -1       258 8.48951E-03 6.80008E-04-3.30154E-14
 -1       259 8.75771E-03 6.82027E-04-3.52511E-14
 -1       260 9.01853E-03 6.75902E-04-3.75482E-14
 -1       261 9.27152E-03 6.56439E-04-3.99003E-14
 -1       262 9.51721E-03 6.17975E-04-4.23011E-14
 -1       263 9.75725E-03 5.55327E-04-4.47521E-14
 -1       264 9.99427E-03 4.64887E-04-4.72534E-14
 -1       265 1.02315E-02 3.45483E-04-4.97992E-14
 -1       266 1.04720E-02 1.98674E-04-5.23952E-14
 -1       267 1.07183E-02 2.83495E-05-5.50396E-14
 -1       268 1.09719E-02-1.60201E-04-5.77259E-14
 -1       269 1.12331E-02-3.61380E-04-6.04441E-14
 -1       270 1.15014E-02-5.70203E-04-6.31911E-14
 -1       271 1.17755E-02-7.82824E-04-6.59645E-14
 -1       272 1.20540E-02-9.96677E-04-6.87567E-14
 -1       273 1.23357E-02-1.21034E-03-7.15615E-14
 -1       274 1.26193E-02-1.42324E-03-7.43683E-14
 -1       275 1.29041E-02-1.63533E-03-7.71786E-14
 -1       276 1.31894E-02-1.84682E-03-7.99942E-14
 -1       277 1.34749E-02-2.05793E-03-8.28055E-14
 -1       278 1.36824E-02-2.15903E-03-8.35866E-14
 -1       279 1.38894E-02-2.24350E-03-8.39697E-14
 -1       280 1.40967E-02-2.32804E-03-8.43570E-14
 -1       281 1.43048E-02-2.41240E-03-8.47469E-14
 -1       282 1.45104E-02-2.49470E-03-8.51211E-14
 -1       283 1.47205E-02-2.57718E-03-8.54980E-14
 -1       284 1.49309E-02-2.65782E-03-8.58732E-14
 -1       285 1.51404E-02-2.73622E-03-8.62500E-14
 -1       286 1.53472E-02-2.81233E-03-8.66265E-14
 -1       287 1.55498E-02-2.88664E-03-8.70024E-14
 -1       288 1.57436E-02-2.95887E-03-8.73725E-14
 -1       289 1.59355E-02-3.03281E-03-8.77456E-14
 -1       290 1.61233E-02-3.10854E-03-8.81092E-14
 -1       291 1.63097E-02-3.18697E-03-8.84719E-14
 -1       292 1.64878E-02-3.27004E-03-8.90023E-14
 -1       293 1.36825E-02-1.18588E-03-5.81092E-14
 -1       294 1.34065E-02-1.06948E-03-5.77208E-14
 -1       295 1.29958E-02-9.09854E-04-5.69594E-14
 -1       296 1.25526E-02-6.63703E-04-5.56342E-14
 -1       297 1.20754E-02-4.17071E-04-5.42112E-14
 -1       298 1.15986E-02-2.00527E-04-5.26950E-14
 -1       299 1.11505E-02-4.46145E-05-5.11397E-14
 -1       300 1.07038E-02 3.29075E-05-4.94491E-14
 -1       301 1.02505E-02-9.40050E-06-4.79084E-14
 -1       302 9.83059E-03-1.18088E-04-4.64880E-14
 -1       303 9.41406E-03-2.61383E-04-4.54398E-14
 -1       304 9.06126E-03-3.99784E-04-4.46471E-14
 -1       305 8.79473E-03-5.15528E-04-4.41589E-14
 -1       306 8.63740E-03-6.16232E-04-4.39466E-14
 -1       307 8.62414E-03-7.17529E-04-4.40350E-14
 -1       308 8.76987E-03-8.57837E-04-4.44967E-14
 -1       309 9.07589E-03-1.06067E-03-4.52016E-14
 -1       310 9.50874E-03-1.34612E-03-4.61688E-14
 -1       311 1.00324E-02-1.71930E-03-4.73938E-14
 -1       312 1.06592E-02-2.13513E-03-4.88052E-14
 -1       313 1.12005E-02-2.48032E-03-5.05289E-14
 -1       314 1.16603E-02-2.55178E-03-5.21375E-14
 -1       315 1.21181E-02-2.42634E-03-5.36098E-14
 -1       316 1.26010E-02-2.15655E-03-5.51014E-14
 -1       317 1.30523E-02-1.88042E-03-5.62675E-14
 -1       318 1.33898E-02-1.65116E-03-5.72965E-14
 -1       319 1.36064E-02-1.52805E-03-5.77158E-14
 -1       320 1.37805E-02-1.38604E-03-5.81726E-14
 -1       321 1.38017E-02-1.29147E-03-5.83693E-14
 -1       322 1.16714E-02-2.64659E-03-5.23688E-14
 -1       323 4.55309E-04-1.64710E-04-1.47123E-16
 -1       324 4.74286E-04-2.12951E-04-1.30592E-16
 -1       325 4.40438E-04-9.39855E-05-1.58893E-16
 -1       326 4.37466E-04-6.48879E-05-1.58680E-16
 -1       327 4.35839E-04-3.78905E-05-1.56318E-16
 -1       328 4.35125E-04-1.20118E-05-1.52086E-16
 -1       329 4.35156E-04 1.35316E-05-1.46455E-16
 -1       330 4.35937E-04 3.94678E-05-1.39215E-16
 -1       331 4.37609E-04 6.61168E-05-1.29637E-16
 -1       332 4.40672E-04 9.53884E-05-1.17263E-16
 -1       333 4.46066E-04 1.28299E-04-1.00299E-16
 -1       334 4.56003E-04 1.67284E-04-7.67649E-17
 -1       335 4.75904E-04 2.16951E-04-4.35646E-17
 -1       336 5.32020E-04 2.69934E-04-2.37271E-17
 -1       337 8.24533E-04 3.73436E-04-1.24348E-16
 -1       338 1.37150E-02-1.41051E-03-5.93513E-14
 -1       339 8.63329E-04-3.57364E-04-3.98014E-16
 -1       340 1.14971E-03-4.26104E-04-7.11308E-16
 -1       341 1.43251E-03-4.75265E-04-1.11488E-15
 -1       342 1.71326E-03-5.09991E-04-1.60799E-15
 -1       343 1.99308E-03-5.34081E-04-2.19031E-15
 -1       344 2.27272E-03-5.50359E-04-2.86144E-15
 -1       345 2.55266E-03-5.60943E-04-3.61925E-15
 -1       346 2.83315E-03-5.67425E-04-4.46422E-15
 -1       347 3.11433E-03-5.70995E-04-5.39503E-15
 -1       348 3.39620E-03-5.72537E-04-6.40699E-15
 -1       349 3.67876E-03-5.72689E-04-7.49758E-15
 -1       350 3.96196E-03-5.71905E-04-8.66526E-15
 -1       351 4.24573E-03-5.70490E-04-9.90802E-15
 -1       352 4.53002E-03-5.68634E-04-1.12241E-14
 -1       353 4.81479E-03-5.66438E-04-1.26107E-14
 -1       354 5.10003E-03-5.63929E-04-1.40685E-14
 -1       355 5.38573E-03-5.61078E-04-1.55973E-14
 -1       356 5.67195E-03-5.57799E-04-1.71979E-14
 -1       357 5.95877E-03-5.53964E-04-1.88761E-14
 -1       358 6.24633E-03-5.49403E-04-2.06318E-14
 -1       359 6.53484E-03-5.43916E-04-2.24607E-14
 -1       360 6.83908E-03-5.36949E-04-2.44625E-14
 -1       361 7.13044E-03-5.29065E-04-2.64466E-14
 -1       362 7.42375E-03-5.20154E-04-2.84990E-14
 -1       363 7.71936E-03-5.11123E-04-3.06168E-14
 -1       364 8.01750E-03-5.04456E-04-3.27928E-14
 -1       365 8.31828E-03-5.05877E-04-3.50182E-14
 -1       366 8.62212E-03-5.27386E-04-3.72887E-14
 -1       367 8.93193E-03-5.92324E-04-3.95964E-14
 -1       368 9.25899E-03-7.42993E-04-4.19471E-14
 -1       369 9.58931E-03-1.00853E-03-4.41035E-14
 -1       370 1.37701E-02-1.29549E-03-5.95117E-14
 -1       371 1.28610E-02-1.85986E-03-5.78139E-14
 -1       372 1.33579E-02-1.59245E-03-6.04382E-14
 -1       373 1.37325E-02-1.55865E-03-6.32604E-14
 -1       374 1.40717E-02-1.65213E-03-6.60741E-14
 -1       375 1.43937E-02-1.81377E-03-6.88762E-14
 -1       376 1.47060E-02-2.00810E-03-7.16821E-14
 -1       377 1.50113E-02-2.21614E-03-7.44953E-14
 -1       378 1.53111E-02-2.42837E-03-7.73160E-14
 -1       379 1.56063E-02-2.64020E-03-8.01406E-14
 -1       380 1.58979E-02-2.84936E-03-8.29808E-14
 -1       381 1.61867E-02-3.05460E-03-8.58315E-14
 -1       382 1.27176E-03 4.61123E-04-4.72241E-16
 -1       383 1.55271E-03 5.03998E-04-7.78579E-16
 -1       384 1.83211E-03 5.34151E-04-1.16600E-15
 -1       385 2.11103E-03 5.54929E-04-1.63611E-15
 -1       386 2.39010E-03 5.68838E-04-2.19051E-15
 -1       387 2.66971E-03 5.77757E-04-2.82964E-15
 -1       388 2.95003E-03 5.83101E-04-3.55422E-15
 -1       389 3.23114E-03 5.85927E-04-4.36442E-15
 -1       390 3.51303E-03 5.87016E-04-5.25858E-15
 -1       391 3.79565E-03 5.86934E-04-6.23370E-15
 -1       392 4.07893E-03 5.86087E-04-7.29043E-15
 -1       393 4.36280E-03 5.84757E-04-8.42636E-15
 -1       394 4.64720E-03 5.83139E-04-9.64065E-15
 -1       395 4.93206E-03 5.81371E-04-1.09321E-14
 -1       396 5.21735E-03 5.79559E-04-1.22989E-14
 -1       397 5.50304E-03 5.77803E-04-1.37433E-14
 -1       398 5.78911E-03 5.76220E-04-1.52673E-14
 -1       399 6.07554E-03 5.74961E-04-1.68691E-14
 -1       400 6.36230E-03 5.74236E-04-1.85524E-14
 -1       401 6.64933E-03 5.74314E-04-2.03086E-14
 -1       402 6.93652E-03 5.75519E-04-2.21373E-14
 -1       403 7.22368E-03 5.78191E-04-2.40359E-14
 -1       404 7.51046E-03 5.82603E-04-2.60036E-14
 -1       405 7.79639E-03 5.88809E-04-2.80326E-14
 -1       406 8.08075E-03 5.96420E-04-3.01181E-14
 -1       407 8.36267E-03 6.04309E-04-3.22642E-14
 -1       408 8.64107E-03 6.10283E-04-3.44732E-14
 -1       409 8.91490E-03 6.10831E-04-3.67408E-14
 -1       410 9.18334E-03 6.01094E-04-3.90681E-14
 -1       411 9.44613E-03 5.75221E-04-4.14491E-14
 -1       412 9.70388E-03 5.27200E-04-4.38779E-14
 -1       413 9.95814E-03 4.52054E-04-4.63560E-14
 -1       414 1.02112E-02 3.47039E-04-4.88812E-14
 -1       415 1.04658E-02 2.12380E-04-5.14535E-14
 -1       416 1.07240E-02 5.12019E-05-5.40705E-14
 -1       417 1.09873E-02-1.31308E-04-5.67340E-14
 -1       418 1.12561E-02-3.29132E-04-5.94330E-14
 -1       419 1.15300E-02-5.36585E-04-6.21634E-14
 -1       420 1.18082E-02-7.49086E-04-6.49202E-14
 -1       421 1.20895E-02-9.63443E-04-6.76992E-14
 -1       422 1.23730E-02-1.17779E-03-7.04913E-14
 -1       423 1.26578E-02-1.39128E-03-7.32955E-14
 -1       424 1.29432E-02-1.60377E-03-7.61010E-14
 -1       425 1.32288E-02-1.81547E-03-7.89140E-14
 -1       426 1.34556E-02-1.98735E-03-8.12536E-14
 -1       427 1.39527E-02-2.18824E-03-8.20940E-14
 -1       428 1.37453E-02-2.10328E-03-8.17139E-14
 -1       429 1.41578E-02-2.27165E-03-8.24645E-14
 -1       430 1.43677E-02-2.35588E-03-8.28401E-14
 -1       431 1.45787E-02-2.43885E-03-8.32126E-14
 -1       432 1.47898E-02-2.51996E-03-8.35859E-14
 -1       433 1.49992E-02-2.59880E-03-8.39601E-14
 -1       434 1.52050E-02-2.67536E-03-8.43383E-14
 -1       435 1.54022E-02-2.74888E-03-8.47041E-14
 -1       436 1.55966E-02-2.82293E-03-8.50681E-14
 -1       437 1.57853E-02-2.89761E-03-8.54304E-14
 -1       438 1.59706E-02-2.97432E-03-8.57940E-14
 -1       439 1.04901E-03 4.24678E-04-2.70786E-16
 -1       440 1.31926E-02-1.12745E-03-5.86162E-14
 -1       441 1.21684E-02-6.17012E-04-5.56171E-14
 -1       442 1.35626E-02-1.48199E-03-5.89341E-14
 -1       443 4.45684E-04-1.26455E-04-1.55488E-16
 -1       444 1.24015E-02-2.21522E-03-5.55004E-14
 -1       445 1.17179E-02-3.35035E-04-5.38433E-14
 -1       446 1.12923E-02-1.09719E-04-5.21070E-14
 -1       447 1.08872E-02 3.59055E-05-5.02641E-14
 -1       448 1.04460E-02 5.27220E-05-4.80694E-14
 -1       449 1.01171E-02-3.18524E-05-4.66551E-14
 -1       450 9.65160E-03-2.14410E-04-4.50272E-14
 -1       451 9.26511E-03-3.70871E-04-4.41053E-14
 -1       452 8.92598E-03-4.97124E-04-4.33042E-14
 -1       453 8.68622E-03-5.76471E-04-4.27684E-14
 -1       454 8.59658E-03-6.35493E-04-4.29631E-14
 -1       455 8.68431E-03-6.83417E-04-4.29699E-14
 -1       456 8.94897E-03-8.10284E-04-4.37544E-14
 -1       457 9.36884E-03-1.05520E-03-4.48858E-14
 -1       458 9.90549E-03-1.39998E-03-4.61008E-14
 -1       459 1.04359E-02-1.81416E-03-4.74579E-14
 -1       460 1.31483E-02-1.70822E-03-5.77404E-14
 -1       461 1.38142E-02-1.35513E-03-5.95433E-14
 -1       462 1.26361E-02-8.86816E-04-5.72121E-14
 -1       463 1.35729E-02-1.24376E-03-5.93142E-14
 -1       464 1.20346E-02-2.47199E-03-5.39786E-14
 -1       465 1.60781E-02-3.01365E-03-8.58129E-14
 -1       466 1.27695E-02-1.95698E-03-5.65815E-14
 -1       467 6.65809E-04-7.51105E-05-3.35588E-16
 -1       468 6.69779E-04-1.15860E-04-3.38044E-16
 -1       469 6.63131E-04 1.10563E-06-3.19453E-16
 -1       470 6.63853E-04 3.87559E-05-3.06822E-16
 -1       471 6.65998E-04 7.67988E-05-2.90895E-16
 -1       472 6.70100E-04 1.17701E-04-2.70342E-16
 -1       473 6.77116E-04 1.62315E-04-2.44020E-16
 -1       474 6.88973E-04 2.12686E-04-2.08909E-16
 -1       475 7.09810E-04 2.71730E-04-1.62735E-16
 -1       476 7.63549E-04 3.20469E-04-1.47509E-16
 -1       477 9.76349E-04-3.28584E-04-5.75677E-16
 -1       478 1.38531E-02-1.36716E-03-6.10564E-14
 -1       479 7.12719E-04-2.51835E-04-3.26365E-16
 -1       480 1.26227E-03-3.83446E-04-9.39007E-16
 -1       481 1.54731E-03-4.23182E-04-1.38948E-15
 -1       482 1.83146E-03-4.51229E-04-1.92750E-15
 -1       483 2.11502E-03-4.70486E-04-2.55169E-15
 -1       484 2.39832E-03-4.83246E-04-3.26205E-15
 -1       485 2.68161E-03-4.91277E-04-4.05811E-15
 -1       486 2.96504E-03-4.95926E-04-4.93905E-15
 -1       487 3.24871E-03-4.98200E-04-5.90457E-15
 -1       488 3.53267E-03-4.98841E-04-6.94863E-15
 -1       489 3.81692E-03-4.98379E-04-8.07050E-15
 -1       490 4.10148E-03-4.97181E-04-9.26767E-15
 -1       491 4.38631E-03-4.95485E-04-1.05374E-14
 -1       492 4.67141E-03-4.93433E-04-1.18818E-14
 -1       493 4.95676E-03-4.91086E-04-1.32970E-14
 -1       494 5.24235E-03-4.88445E-04-1.47824E-14
 -1       495 5.52818E-03-4.85464E-04-1.63391E-14
 -1       496 5.81422E-03-4.82055E-04-1.79712E-14
 -1       497 6.10046E-03-4.78105E-04-1.96819E-14
 -1       498 6.38682E-03-4.73488E-04-2.14693E-14
 -1       499 6.68743E-03-4.67812E-04-2.34252E-14
 -1       500 6.97331E-03-4.61611E-04-2.53641E-14
 -1       501 7.25810E-03-4.54879E-04-2.73753E-14
 -1       502 7.54059E-03-4.48384E-04-2.94515E-14
 -1       503 7.81869E-03-4.43927E-04-3.15907E-14
 -1       504 8.08915E-03-4.45202E-04-3.37839E-14
 -1       505 8.34740E-03-4.59107E-04-3.60258E-14
 -1       506 8.58842E-03-4.97636E-04-3.83085E-14
 -1       507 8.81076E-03-5.82182E-04-4.06314E-14
 -1       508 1.39615E-02-1.53261E-03-6.44220E-14
 -1       509 1.42202E-02-1.67467E-03-6.72183E-14
 -1       510 1.44881E-02-1.85563E-03-7.00151E-14
 -1       511 1.47645E-02-2.05579E-03-7.28206E-14
 -1       512 1.50465E-02-2.26415E-03-7.56348E-14
 -1       513 1.53315E-02-2.47475E-03-7.84564E-14
 -1       514 1.56176E-02-2.68443E-03-8.12888E-14
 -1       515 1.58479E-02-2.85018E-03-8.35450E-14
 -1       516 1.95107E-03 4.73354E-04-1.52927E-15
 -1       517 1.66773E-03 4.48938E-04-1.08277E-15
 -1       518 1.38356E-03 4.14028E-04-7.17301E-16
 -1       519 2.23396E-03 4.89942E-04-2.05821E-15
 -1       520 2.51674E-03 5.00784E-04-2.67018E-15
 -1       521 2.79963E-03 5.07474E-04-3.36646E-15
 -1       522 3.08278E-03 5.11219E-04-4.14607E-15
 -1       523 3.36626E-03 5.12916E-04-5.01056E-15
 -1       524 3.65008E-03 5.13224E-04-5.95622E-15
 -1       525 3.93425E-03 5.12614E-04-6.98326E-15
 -1       526 4.21874E-03 5.11418E-04-8.09013E-15
 -1       527 4.50354E-03 5.09862E-04-9.27404E-15
 -1       528 4.78862E-03 5.08101E-04-1.05355E-14
 -1       529 5.07396E-03 5.06245E-04-1.18732E-14
 -1       530 5.35957E-03 5.04384E-04-1.32864E-14
 -1       531 5.64545E-03 5.02611E-04-1.47783E-14
 -1       532 5.93162E-03 5.01042E-04-1.63482E-14
 -1       533 6.21812E-03 4.99840E-04-1.79975E-14
 -1       534 6.50500E-03 4.99228E-04-1.97234E-14
 -1       535 6.79230E-03 4.99497E-04-2.15208E-14
 -1       536 7.08007E-03 5.00991E-04-2.33896E-14
 -1       537 7.36831E-03 5.04067E-04-2.53253E-14
 -1       538 7.65696E-03 5.08992E-04-2.73284E-14
 -1       539 7.94577E-03 5.15779E-04-2.93935E-14
 -1       540 8.23430E-03 5.23924E-04-3.15150E-14
 -1       541 8.52178E-03 5.32056E-04-3.36961E-14
 -1       542 8.80716E-03 5.37552E-04-3.59372E-14
 -1       543 9.08922E-03 5.36248E-04-3.82362E-14
 -1       544 9.36691E-03 5.22438E-04-4.05932E-14
 -1       545 9.63980E-03 4.89431E-04-4.29997E-14
 -1       546 9.90854E-03 4.30726E-04-4.54555E-14
 -1       547 1.01749E-02 3.41601E-04-4.79597E-14
 -1       548 1.04415E-02 2.20492E-04-5.05130E-14
 -1       549 1.07106E-02 6.94864E-05-5.31091E-14
 -1       550 1.09841E-02-1.06348E-04-5.57503E-14
 -1       551 1.12622E-02-3.00413E-04-5.84279E-14
 -1       552 1.15445E-02-5.06150E-04-6.11423E-14
 -1       553 1.18298E-02-7.18134E-04-6.38800E-14
 -1       554 1.21169E-02-9.32538E-04-6.66460E-14
 -1       555 1.24048E-02-1.14708E-03-6.94270E-14
 -1       556 1.26927E-02-1.36070E-03-7.22230E-14
 -1       557 1.29803E-02-1.57316E-03-7.50253E-14
 -1       558 1.32673E-02-1.78471E-03-7.78330E-14
 -1       559 1.40136E-02-2.13474E-03-8.01898E-14
 -1       560 1.38079E-02-2.04995E-03-7.98266E-14
 -1       561 1.36004E-02-1.96379E-03-7.94519E-14
 -1       562 1.14250E-02-2.36427E-04-5.33602E-14
 -1       563 1.42246E-02-2.22036E-03-8.05591E-14
 -1       564 1.44369E-02-2.30447E-03-8.09317E-14
 -1       565 1.46490E-02-2.38621E-03-8.13041E-14
 -1       566 1.48588E-02-2.46501E-03-8.16779E-14
 -1       567 1.50603E-02-2.53955E-03-8.20424E-14
 -1       568 1.52586E-02-2.61315E-03-8.24086E-14
 -1       569 1.54495E-02-2.68597E-03-8.27754E-14
 -1       570 1.56342E-02-2.75997E-03-8.31385E-14
 -1       571 1.18098E-02-4.82385E-04-5.51306E-14
 -1       572 1.37171E-02-1.33471E-03-6.06904E-14
 -1       573 1.06125E-02 8.38492E-05-4.88082E-14
 -1       574 1.36790E-02-1.44069E-03-6.06605E-14
 -1       575 1.36813E-02-1.47653E-03-6.16487E-14
 -1       576 1.34173E-02-1.27605E-03-6.03079E-14
 -1       577 6.63741E-04-3.65092E-05-3.29272E-16
 -1       578 1.22980E-02-8.07012E-04-5.73863E-14
 -1       579 9.41001E-03-2.96425E-04-4.34583E-14
 -1       580 1.10670E-02-4.11655E-05-5.14976E-14
 -1       581 1.02390E-02 3.77453E-05-4.66952E-14
 -1       582 9.13760E-03-7.67184E-04-4.28523E-14
 -1       583 9.86360E-03-1.03747E-04-4.50426E-14
 -1       584 9.07284E-03-4.29855E-04-4.26204E-14
 -1       585 8.77055E-03-5.19747E-04-4.18128E-14
 -1       586 8.57915E-03-5.70817E-04-4.15212E-14
 -1       587 8.58642E-03-5.88273E-04-4.15306E-14
 -1       588 8.81705E-03-6.49326E-04-4.20812E-14
 -1       589 1.38016E-02-1.39620E-03-6.08487E-14
 -1       590 1.33834E-02-1.55818E-03-5.95703E-14
 -1       591 1.29049E-02-1.11527E-03-5.93990E-14
 -1       592 6.76587E-04-1.60036E-04-3.35801E-16
 -1       593 9.90499E-04 3.72861E-04-2.96228E-16
 -1       594 6.91830E-04-2.02863E-04-3.34307E-16
 -1       595 1.07882E-02 5.27934E-05-5.00222E-14
 -1       596 1.18687E-03 3.98305E-04-4.83602E-16
 -1       597 9.59608E-03-1.74371E-04-4.34716E-14
 -1       598 8.99738E-04 7.40964E-05-5.18767E-16
 -1       599 8.97645E-04 2.51746E-05-5.41749E-16
 -1       600 9.11827E-04 1.78193E-04-4.54565E-16
 -1       601 9.24214E-04 2.36693E-04-4.08910E-16
 -1       602 9.36697E-04 3.23492E-04-3.13236E-16
 -1       603 1.09776E-03-2.94575E-04-7.67995E-16
 -1       604 8.93511E-04-2.51765E-04-5.29189E-16
 -1       605 1.36598E-02-1.91321E-03-7.75643E-14
 -1       606 1.38332E-03-3.36991E-04-1.17685E-15
 -1       607 1.66953E-03-3.67897E-04-1.67120E-15
 -1       608 1.95575E-03-3.89665E-04-2.25028E-15
 -1       609 2.24180E-03-4.04448E-04-2.91389E-15
 -1       610 2.52766E-03-4.14038E-04-3.66250E-15
 -1       611 2.81339E-03-4.19851E-04-4.49580E-15
 -1       612 3.09902E-03-4.22978E-04-5.41176E-15
 -1       613 3.38461E-03-4.24237E-04-6.40897E-15
 -1       614 3.67019E-03-4.24224E-04-7.48474E-15
 -1       615 3.95578E-03-4.23363E-04-8.63716E-15
 -1       616 4.24139E-03-4.21937E-04-9.86204E-15
 -1       617 4.52702E-03-4.20129E-04-1.11611E-14
 -1       618 4.81268E-03-4.18038E-04-1.25330E-14
 -1       619 5.09835E-03-4.15704E-04-1.39768E-14
 -1       620 5.38399E-03-4.13124E-04-1.54918E-14
 -1       621 5.66954E-03-4.10264E-04-1.70794E-14
 -1       622 5.95487E-03-4.07082E-04-1.87442E-14
 -1       623 6.23976E-03-4.03549E-04-2.04872E-14
 -1       624 6.53802E-03-3.99492E-04-2.23967E-14
 -1       625 6.82053E-03-3.95452E-04-2.42922E-14
 -1       626 7.10045E-03-3.91655E-04-2.62598E-14
 -1       627 7.37597E-03-3.88970E-04-2.82958E-14
 -1       628 7.64429E-03-3.89056E-04-3.03956E-14
 -1       629 7.90112E-03-3.94828E-04-3.25524E-14
 -1       630 8.14020E-03-4.10982E-04-3.47658E-14
 -1       631 8.35289E-03-4.44377E-04-3.70227E-14
 -1       632 8.52771E-03-5.04408E-04-3.93185E-14
 -1       633 1.40876E-02-1.56400E-03-6.55736E-14
 -1       634 2.36123E-03 4.22628E-04-2.49909E-15
 -1       635 1.42965E-02-1.72414E-03-6.83373E-14
 -1       636 1.45339E-02-1.90939E-03-7.11338E-14
 -1       637 1.47901E-02-2.10770E-03-7.39377E-14
 -1       638 1.50586E-02-2.31238E-03-7.67529E-14
 -1       639 1.53345E-02-2.51918E-03-7.95792E-14
 -1       640 1.54843E-02-2.64020E-03-8.13584E-14
 -1       641 1.78981E-03 3.90839E-04-1.40858E-15
 -1       642 2.07563E-03 4.09879E-04-1.91298E-15
 -1       643 1.50379E-03 3.63442E-04-9.85262E-16
 -1       644 2.64666E-03 4.30751E-04-3.16766E-15
 -1       645 2.93199E-03 4.35544E-04-3.91937E-15
 -1       646 3.21730E-03 4.37993E-04-4.75404E-15
 -1       647 3.50261E-03 4.38833E-04-5.67078E-15
 -1       648 3.78795E-03 4.38595E-04-6.66840E-15
 -1       649 4.07334E-03 4.37658E-04-7.74503E-15
 -1       650 4.35880E-03 4.36280E-04-8.89892E-15
 -1       651 4.64432E-03 4.34635E-04-1.01313E-14
 -1       652 4.92992E-03 4.32840E-04-1.14401E-14
 -1       653 5.21562E-03 4.30976E-04-1.28255E-14
 -1       654 5.50144E-03 4.29113E-04-1.42862E-14
 -1       655 5.78745E-03 4.27327E-04-1.58234E-14
 -1       656 6.07372E-03 4.25723E-04-1.74404E-14
 -1       657 6.36038E-03 4.24456E-04-1.91345E-14
 -1       658 6.64761E-03 4.23740E-04-2.09027E-14
 -1       659 6.93564E-03 4.23867E-04-2.27390E-14
 -1       660 7.22475E-03 4.25190E-04-2.46464E-14
 -1       661 7.51522E-03 4.28092E-04-2.66222E-14
 -1       662 7.80729E-03 4.32890E-04-2.86624E-14
 -1       663 8.10099E-03 4.39656E-04-3.07629E-14
 -1       664 8.39602E-03 4.47912E-04-3.29204E-14
 -1       665 8.69154E-03 4.56191E-04-3.51348E-14
 -1       666 8.98612E-03 4.61493E-04-3.74066E-14
 -1       667 9.27797E-03 4.58842E-04-3.97345E-14
 -1       668 9.56545E-03 4.41287E-04-4.21183E-14
 -1       669 9.84796E-03 4.00760E-04-4.45520E-14
 -1       670 1.01265E-02 3.29936E-04-4.70361E-14
 -1       671 1.04037E-02 2.24547E-04-4.95675E-14
 -1       672 1.06827E-02 8.49557E-05-5.21455E-14
 -1       673 1.09659E-02-8.39877E-05-5.47690E-14
 -1       674 1.12541E-02-2.74724E-04-5.74304E-14
 -1       675 1.15463E-02-4.79284E-04-6.01246E-14
 -1       676 1.18410E-02-6.91029E-04-6.28468E-14
 -1       677 1.21363E-02-9.05372E-04-6.55939E-14
 -1       678 1.24309E-02-1.11969E-03-6.83625E-14
 -1       679 1.27239E-02-1.33283E-03-7.11514E-14
 -1       680 1.30151E-02-1.54462E-03-7.39486E-14
 -1       681 1.33084E-02-1.75455E-03-7.66945E-14
 -1       682 1.40811E-02-2.08863E-03-7.82939E-14
 -1       683 1.36412E-02-1.38225E-03-6.19905E-14
 -1       684 9.95241E-03 2.03960E-07-4.48281E-14
 -1       685 1.34834E-02-1.83369E-03-7.71303E-14
 -1       686 1.42957E-02-2.17411E-03-7.86641E-14
 -1       687 1.38692E-02-2.00134E-03-7.79290E-14
 -1       688 1.45098E-02-2.25611E-03-7.90326E-14
 -1       689 1.47171E-02-2.33252E-03-7.93971E-14
 -1       690 1.49213E-02-2.40608E-03-7.97642E-14
 -1       691 1.51165E-02-2.47671E-03-8.01299E-14
 -1       692 1.53027E-02-2.55740E-03-8.07442E-14
 -1       693 1.38437E-02-1.41190E-03-6.23722E-14
 -1       694 1.15649E-02-3.74827E-04-5.47108E-14
 -1       695 1.03719E-02 9.43837E-05-4.72986E-14
 -1       696 1.32462E-02-1.28880E-03-6.13384E-14
 -1       697 9.04198E-04 1.24591E-04-4.90290E-16
 -1       698 1.38825E-02-1.44276E-03-6.26392E-14
 -1       699 9.03823E-04-1.22178E-04-5.79791E-16
 -1       700 9.16134E-03-3.39381E-04-4.18361E-14
 -1       701 8.86866E-03-4.41590E-04-4.10431E-14
 -1       702 8.51834E-03-5.33121E-04-4.03172E-14
 -1       703 8.59158E-03-5.08916E-04-4.03355E-14
 -1       704 1.25992E-02-1.02523E-03-5.96518E-14
 -1       705 1.20048E-02-6.71004E-04-5.69613E-14
 -1       706 1.12075E-02-1.50708E-04-5.27883E-14
 -1       707 9.11224E-04-1.75564E-04-5.81126E-16
 -1       708 8.97583E-04-2.31506E-05-5.59431E-16
 -1       709 1.21789E-03 3.25312E-04-6.41424E-16
 -1       710 1.09346E-02-1.90822E-05-5.12946E-14
 -1       711 1.39357E-02-1.44369E-03-6.30724E-14
 -1       712 1.00851E-02 8.39920E-05-4.54166E-14
 -1       713 1.05453E-02 1.04106E-04-4.84948E-14
 -1       714 1.23245E-02-8.95293E-04-5.92175E-14
 -1       715 8.63959E-03-4.46693E-04-3.95777E-14
 -1       716 1.29623E-02-1.21807E-03-6.15858E-14
 -1       717 8.99531E-04-7.18084E-05-5.72157E-16
 -1       718 9.32428E-03-2.24352E-04-4.18461E-14
 -1       719 1.16158E-03 2.43597E-04-6.78206E-16
 -1       720 1.45831E-02-2.20332E-03-7.71314E-14
 -1       721 9.00985E-04-2.12797E-04-5.57012E-16
 -1       722 1.22456E-03-2.54971E-04-9.72916E-16
 -1       723 1.51022E-03-2.86453E-04-1.42427E-15
 -1       724 1.79730E-03-3.09415E-04-1.95889E-15
 -1       725 2.08496E-03-3.25479E-04-2.57653E-15
 -1       726 2.37274E-03-3.36236E-04-3.27828E-15
 -1       727 2.66043E-03-3.43035E-04-4.06331E-15
 -1       728 2.94792E-03-3.46964E-04-4.93240E-15
 -1       729 3.23516E-03-3.48863E-04-5.88199E-15
 -1       730 3.52216E-03-3.49364E-04-6.91025E-15
 -1       731 3.80892E-03-3.48922E-04-8.01676E-15
 -1       732 4.09547E-03-3.47857E-04-9.19775E-15
 -1       733 4.38182E-03-3.46383E-04-1.04516E-14
 -1       734 4.66797E-03-3.44631E-04-1.17802E-14
 -1       735 4.95391E-03-3.42678E-04-1.31786E-14
 -1       736 5.23961E-03-3.40561E-04-1.46528E-14
 -1       737 5.52499E-03-3.38298E-04-1.61972E-14
 -1       738 5.80989E-03-3.35913E-04-1.78174E-14
 -1       739 6.09407E-03-3.33461E-04-1.95144E-14
 -1       740 6.39119E-03-3.30968E-04-2.13786E-14
 -1       741 6.67226E-03-3.28967E-04-2.32302E-14
 -1       742 6.95036E-03-3.27892E-04-2.51535E-14
 -1       743 7.22382E-03-3.28722E-04-2.71479E-14
 -1       744 7.49011E-03-3.33101E-04-2.92073E-14
 -1       745 7.74555E-03-3.43624E-04-3.13285E-14
 -1       746 7.98491E-03-3.64092E-04-3.35083E-14
 -1       747 8.20087E-03-3.99474E-04-3.57373E-14
 -1       748 8.38352E-03-4.54868E-04-3.80078E-14
 -1       749 1.34366E-03 2.80684E-04-8.76259E-16
 -1       750 2.49236E-03 3.53297E-04-2.95954E-15
 -1       751 1.39697E-02-1.50813E-03-6.45281E-14
 -1       752 9.60091E-03-6.09807E-05-4.26715E-14
 -1       753 1.45300E-02-1.96353E-03-7.22202E-14
 -1       754 1.47803E-02-2.15665E-03-7.50262E-14
 -1       755 1.50440E-02-2.35621E-03-7.78415E-14
 -1       756 3.06681E-03 3.62262E-04-4.48947E-15
 -1       757 3.35370E-03 3.63694E-04-5.37688E-15
 -1       758 3.64037E-03 3.63918E-04-6.34500E-15
 -1       759 3.92685E-03 3.63341E-04-7.39257E-15
 -1       760 4.21314E-03 3.62249E-04-8.51700E-15
 -1       761 4.49929E-03 3.60832E-04-9.72058E-15
 -1       762 4.78531E-03 3.59213E-04-1.10008E-14
 -1       763 5.07125E-03 3.57467E-04-1.23573E-14
 -1       764 5.35714E-03 3.55643E-04-1.37884E-14
 -1       765 5.64306E-03 3.53779E-04-1.52957E-14
 -1       766 5.92912E-03 3.51921E-04-1.68806E-14
 -1       767 6.21548E-03 3.50141E-04-1.85430E-14
 -1       768 6.50238E-03 3.48555E-04-2.02805E-14
 -1       769 6.79017E-03 3.47345E-04-2.20866E-14
 -1       770 7.07930E-03 3.46780E-04-2.39644E-14
 -1       771 7.37036E-03 3.47228E-04-2.59131E-14
 -1       772 7.66400E-03 3.49148E-04-2.79285E-14
 -1       773 7.96080E-03 3.53025E-04-3.00046E-14
 -1       774 8.26109E-03 3.59191E-04-3.21404E-14
 -1       775 8.56463E-03 3.67456E-04-3.43321E-14
 -1       776 8.87027E-03 3.76470E-04-3.65772E-14
 -1       777 9.17584E-03 3.82838E-04-3.88799E-14
 -1       778 9.47852E-03 3.80335E-04-4.12356E-14
 -1       779 9.77591E-03 3.59839E-04-4.36472E-14
 -1       780 1.00674E-02 3.10932E-04-4.61085E-14
 -1       781 1.03552E-02 2.25143E-04-4.86190E-14
 -1       782 1.06433E-02 9.95090E-05-5.11801E-14
 -1       783 1.09357E-02-6.20130E-05-5.37831E-14
 -1       784 1.12341E-02-2.50438E-04-5.64317E-14
 -1       785 1.15375E-02-4.55379E-04-5.91119E-14
 -1       786 1.18434E-02-6.68121E-04-6.18179E-14
 -1       787 1.21489E-02-8.82939E-04-6.45472E-14
 -1       788 1.24520E-02-1.09689E-03-6.73040E-14
 -1       789 1.27518E-02-1.30898E-03-7.00807E-14
 -1       790 1.30478E-02-1.51926E-03-7.28749E-14
 -1       791 1.32665E-02-1.67663E-03-7.49999E-14
 -1       792 1.43740E-02-2.12944E-03-7.67704E-14
 -1       793 1.47860E-02-2.27268E-03-7.74977E-14
 -1       794 1.13747E-02-2.84374E-04-5.42961E-14
 -1       795 1.17634E-02-5.44521E-04-5.65381E-14
 -1       796 1.41563E-02-2.04796E-03-7.64030E-14
 -1       797 1.41049E-02-1.61291E-03-6.65548E-14
 -1       798 1.42999E-02-1.78169E-03-6.94240E-14
 -1       799 2.77969E-03 3.59053E-04-3.68337E-15
 -1       800 8.91166E-03-3.45561E-04-4.01006E-14
 -1       801 1.39378E-02-1.96117E-03-7.60395E-14
 -1       802 1.63009E-03 3.09318E-04-1.27613E-15
 -1       803 1.13822E-03 5.90426E-05-8.13616E-16
 -1       804 1.35592E-02-1.43149E-03-6.35020E-14
 -1       805 8.46989E-03-4.63567E-04-3.87966E-14
 -1       806 1.38052E-02-1.48056E-03-6.40149E-14
 -1       807 1.13685E-03 1.19820E-06-8.42994E-16
 -1       808 1.06938E-02 7.19046E-05-4.97442E-14
 -1       809 2.20487E-03 3.43989E-04-2.31702E-15
 -1       810 1.11007E-02-1.24936E-04-5.27860E-14
 -1       811 9.74730E-03 4.05361E-05-4.32448E-14
 -1       812 1.91735E-03 3.29844E-04-1.75609E-15
 -1       813 1.35110E-02-1.77994E-03-7.53149E-14
 -1       814 1.02629E-02 1.29140E-04-4.65890E-14
 -1       815 1.14981E-03 1.79086E-04-7.32866E-16
 -1       816 1.37222E-02-1.87116E-03-7.56780E-14
 -1       817 1.49187E-02-2.31473E-03-7.76693E-14
 -1       818 9.04801E-03-2.47601E-04-4.01086E-14
 -1       819 1.20787E-02-7.63548E-04-5.87874E-14
 -1       820 1.14923E-03-1.76092E-04-8.87111E-16
 -1       821 1.26897E-02-1.10449E-03-6.11444E-14
 -1       822 1.14236E-03 1.17916E-04-7.77356E-16
 -1       823 1.14200E-03-1.15170E-04-8.79739E-16
 -1       824 1.33216E-02-1.38976E-03-6.37426E-14
 -1       825 1.47398E-03 2.31210E-04-1.13467E-15
 -1       826 1.35745E-02-1.74554E-03-7.34255E-14
 -1       827 1.31119E-03 2.05547E-04-9.22751E-16
 -1       828 1.35540E-03-2.09597E-04-1.18963E-15
 -1       829 1.64160E-03-2.31687E-04-1.68008E-15
 -1       830 1.92950E-03-2.47692E-04-2.25251E-15
 -1       831 2.21828E-03-2.58765E-04-2.90694E-15
 -1       832 2.50732E-03-2.66037E-04-3.64486E-15
 -1       833 2.79630E-03-2.70479E-04-4.46549E-15
 -1       834 3.08502E-03-2.72879E-04-5.36774E-15
 -1       835 3.37337E-03-2.73846E-04-6.34855E-15
 -1       836 3.66133E-03-2.73835E-04-7.40675E-15
 -1       837 3.94888E-03-2.73175E-04-8.54277E-15
 -1       838 4.23604E-03-2.72091E-04-9.75194E-15
 -1       839 4.52282E-03-2.70738E-04-1.10369E-14
 -1       840 4.80921E-03-2.69215E-04-1.23929E-14
 -1       841 5.09518E-03-2.67590E-04-1.38214E-14
 -1       842 5.38067E-03-2.65919E-04-1.53235E-14
 -1       843 5.66555E-03-2.64274E-04-1.68995E-14
 -1       844 5.94960E-03-2.62770E-04-1.85529E-14
 -1       845 6.24655E-03-2.61571E-04-2.03708E-14
 -1       846 6.52753E-03-2.61166E-04-2.21787E-14
 -1       847 6.80586E-03-2.62108E-04-2.40597E-14
 -1       848 7.08028E-03-2.65390E-04-2.60107E-14
 -1       849 7.34903E-03-2.72554E-04-2.80288E-14
 -1       850 7.60968E-03-2.85864E-04-3.01123E-14
 -1       851 7.85910E-03-3.08417E-04-3.22529E-14
 -1       852 8.09342E-03-3.43961E-04-3.44519E-14
 -1       853 8.29549E-03-3.96132E-04-3.66045E-14
 -1       854 1.46575E-02-2.12062E-03-7.48527E-14
 -1       855 3.77959E-03 2.88408E-04-7.03235E-15
 -1       856 3.49197E-03 2.88578E-04-6.01435E-15
 -1       857 3.20398E-03 2.87895E-04-5.07521E-15
 -1       858 4.06682E-03 2.87676E-04-8.12861E-15
 -1       859 4.35371E-03 2.86581E-04-9.30335E-15
 -1       860 4.64029E-03 2.85245E-04-1.05557E-14
 -1       861 4.92659E-03 2.83739E-04-1.18828E-14
 -1       862 5.21267E-03 2.82097E-04-1.32866E-14
 -1       863 5.49859E-03 2.80324E-04-1.47644E-14
 -1       864 5.78447E-03 2.78415E-04-1.63167E-14
 -1       865 6.07047E-03 2.76362E-04-1.79476E-14
 -1       866 6.35683E-03 2.74172E-04-1.96557E-14
 -1       867 6.64392E-03 2.71890E-04-2.14330E-14
 -1       868 6.93229E-03 2.69633E-04-2.32812E-14
 -1       869 7.22266E-03 2.67629E-04-2.52024E-14
 -1       870 7.51598E-03 2.66280E-04-2.71902E-14
 -1       871 7.81333E-03 2.66212E-04-2.92430E-14
 -1       872 8.11578E-03 2.68273E-04-3.13541E-14
 -1       873 8.42402E-03 2.73379E-04-3.35237E-14
 -1       874 8.73788E-03 2.82036E-04-3.57459E-14
 -1       875 9.05569E-03 2.93314E-04-3.80235E-14
 -1       876 9.37409E-03 3.03259E-04-4.03533E-14
 -1       877 9.68868E-03 3.03394E-04-4.27410E-14
 -1       878 9.99612E-03 2.80658E-04-4.51782E-14
 -1       879 1.02965E-02 2.20784E-04-4.76662E-14
 -1       880 1.05943E-02 1.14417E-04-5.02079E-14
 -1       881 1.08957E-02-3.76952E-05-5.27966E-14
 -1       882 1.12045E-02-2.24937E-04-5.54286E-14
 -1       883 1.15201E-02-4.32908E-04-5.80976E-14
 -1       884 1.18390E-02-6.49122E-04-6.07882E-14
 -1       885 1.21568E-02-8.65836E-04-6.35029E-14
 -1       886 1.24702E-02-1.07973E-03-6.62454E-14
 -1       887 1.27779E-02-1.29030E-03-6.90118E-14
 -1       888 1.30798E-02-1.49827E-03-7.17990E-14
 -1       889 1.42422E-02-2.00564E-03-7.45107E-14
 -1       890 1.39565E-02-1.58152E-03-6.60325E-14
 -1       891 8.62681E-03-3.51944E-04-3.82893E-14
 -1       892 1.41428E-02-1.73842E-03-6.88944E-14
 -1       893 1.15332E-02-4.12184E-04-5.59373E-14
 -1       894 1.33599E-02-1.65033E-03-7.30697E-14
 -1       895 1.44573E-02-2.07632E-03-7.48793E-14
 -1       896 1.40188E-02-1.92576E-03-7.41481E-14
 -1       897 1.44095E-02-1.93452E-03-7.20552E-14
 -1       898 1.13807E-03-5.65035E-05-8.64777E-16
 -1       899 1.42727E-02-1.83396E-03-7.04736E-14
 -1       900 1.37948E-02-1.83825E-03-7.37861E-14
 -1       901 9.31097E-03-1.04669E-04-4.09226E-14
 -1       902 1.04177E-02 1.39449E-04-4.78122E-14
 -1       903 2.33808E-03 2.75832E-04-2.74140E-15
 -1       904 1.08576E-02-1.17801E-06-5.12139E-14
 -1       905 9.46520E-03-2.27443E-06-4.14836E-14
 -1       906 1.76104E-03 2.51536E-04-1.58957E-15
 -1       907 1.12624E-02-2.41376E-04-5.44053E-14
 -1       908 1.18319E-02-6.17461E-04-5.81751E-14
 -1       909 1.45607E-02-2.09986E-03-7.48673E-14
 -1       910 8.73900E-03-2.77810E-04-3.82993E-14
 -1       911 2.91561E-03 2.85948E-04-4.21666E-15
 -1       912 1.24280E-02-9.77025E-04-6.07085E-14
 -1       913 1.34650E-03-1.41972E-04-1.18127E-15
 -1       914 9.93569E-03 1.40517E-04-4.43441E-14
 -1       915 1.30705E-02-1.30109E-03-6.32950E-14
 -1       916 1.37480E-02-1.53819E-03-6.55123E-14
 -1       917 1.38098E-03 3.41016E-05-1.17567E-15
 -1       918 1.38412E-03 9.99242E-05-1.13263E-15
 -1       919 8.43564E-03-3.86450E-04-3.74493E-14
 -1       920 2.62694E-03 2.82173E-04-3.43838E-15
 -1       921 1.41218E-02-1.88635E-03-7.22656E-14
 -1       922 1.36034E-02-1.54568E-03-6.64140E-14
 -1       923 1.77670E-03-1.72637E-04-1.94281E-15
 -1       924 2.06549E-03-1.82765E-04-2.55026E-15
 -1       925 2.35516E-03-1.89652E-04-3.24081E-15
 -1       926 2.64511E-03-1.94050E-04-4.01279E-15
 -1       927 2.93495E-03-1.96610E-04-4.86606E-15
 -1       928 3.22445E-03-1.97854E-04-5.79954E-15
 -1       929 3.51349E-03-1.98186E-04-6.81055E-15
 -1       930 3.80201E-03-1.97902E-04-7.89912E-15
 -1       931 4.09000E-03-1.97219E-04-9.06355E-15
 -1       932 4.37745E-03-1.96289E-04-1.03038E-14
 -1       933 4.66438E-03-1.95217E-04-1.16159E-14
 -1       934 4.95078E-03-1.94086E-04-1.30011E-14
 -1       935 5.23659E-03-1.92974E-04-1.44603E-14
 -1       936 5.52173E-03-1.91977E-04-1.59923E-14
 -1       937 5.80604E-03-1.91238E-04-1.76021E-14
 -1       938 6.10340E-03-1.90996E-04-1.93723E-14
 -1       939 6.38507E-03-1.91664E-04-2.11364E-14
 -1       940 6.66469E-03-1.93815E-04-2.29751E-14
 -1       941 6.94149E-03-1.98356E-04-2.48847E-14
 -1       942 7.21449E-03-2.06612E-04-2.68611E-14
 -1       943 7.48249E-03-2.20412E-04-2.89034E-14
 -1       944 7.74426E-03-2.42078E-04-3.10076E-14
 -1       945 7.99889E-03-2.74188E-04-3.31672E-14
 -1       946 3.63200E-03 2.12894E-04-6.66623E-15
 -1       947 2.04932E-03 2.65995E-04-2.12538E-15
 -1       948 4.20785E-03 2.11814E-04-8.87978E-15
 -1       949 3.92018E-03 2.12537E-04-7.73405E-15
 -1       950 3.34331E-03 2.12699E-04-5.67676E-15
 -1       951 4.49504E-03 2.10841E-04-1.01034E-14
 -1       952 4.78180E-03 2.09682E-04-1.14035E-14
 -1       953 5.06816E-03 2.08356E-04-1.27774E-14
 -1       954 5.35419E-03 2.06847E-04-1.42270E-14
 -1       955 5.63997E-03 2.05110E-04-1.57513E-14
 -1       956 5.92563E-03 2.03075E-04-1.73502E-14
 -1       957 6.21137E-03 2.00653E-04-1.90267E-14
 -1       958 6.49751E-03 1.97752E-04-2.07754E-14
 -1       959 6.78454E-03 1.94306E-04-2.25953E-14
 -1       960 7.07320E-03 1.90320E-04-2.44880E-14
 -1       961 7.36451E-03 1.85961E-04-2.64488E-14
 -1       962 7.65985E-03 1.81689E-04-2.84759E-14
 -1       963 7.96088E-03 1.78416E-04-3.05625E-14
 -1       964 8.26935E-03 1.77636E-04-3.27101E-14
 -1       965 8.58657E-03 1.81340E-04-3.49104E-14
 -1       966 8.91261E-03 1.91382E-04-3.71643E-14
 -1       967 9.24494E-03 2.07660E-04-3.94731E-14
 -1       968 9.57876E-03 2.25630E-04-4.18325E-14
 -1       969 9.90672E-03 2.31732E-04-4.42471E-14
 -1       970 1.02250E-02 2.06044E-04-4.67085E-14
 -1       971 1.05357E-02 1.28533E-04-4.92278E-14
 -1       972 1.08468E-02-8.40600E-06-5.18052E-14
 -1       973 1.11670E-02-1.94564E-04-5.44230E-14
 -1       974 1.14965E-02-4.09356E-04-5.70792E-14
 -1       975 1.18309E-02-6.33196E-04-5.97588E-14
 -1       976 1.21632E-02-8.54419E-04-6.24637E-14
 -1       977 1.24886E-02-1.06910E-03-6.51916E-14
 -1       978 1.28051E-02-1.27768E-03-6.79456E-14
 -1       979 1.30857E-02-1.46481E-03-7.05000E-14
 -1       980 2.47477E-03 2.05567E-04-3.18599E-15
 -1       981 1.38089E-03-3.12421E-05-1.20980E-15
 -1       982 9.60815E-03 1.19656E-04-4.21165E-14
 -1       983 1.38899E-02-1.80969E-03-7.18994E-14
 -1       984 1.34643E-03 1.52997E-04-1.02872E-15
 -1       985 1.36253E-03-8.66154E-05-1.19931E-15
 -1       986 1.39502E-02-1.68823E-03-6.83616E-14
 -1       987 8.96763E-03-1.32861E-04-3.87761E-14
 -1       988 1.43090E-02-1.91767E-03-7.20661E-14
 -1       989 1.32748E-02-1.54411E-03-7.04387E-14
 -1       990 1.33863E-02-1.47342E-03-6.59588E-14
 -1       991 8.23054E-03-3.21027E-04-3.52910E-14
 -1       992 9.12055E-03-4.16690E-05-3.93270E-14
 -1       993 2.76457E-03 2.09472E-04-3.93662E-15
 -1       994 1.62746E-03 1.56571E-06-1.60439E-15
 -1       995 1.40876E-02-1.78038E-03-6.99347E-14
 -1       996 1.15479E-02-4.33601E-04-5.66265E-14
 -1       997 3.05414E-03 2.11683E-04-4.76659E-15
 -1       998 1.28101E-02-1.19119E-03-6.28551E-14
 -1       999 1.21553E-02-8.25279E-04-6.00929E-14
 -1      1000 1.36559E-02-1.72142E-03-7.15424E-14
 -1      1001 1.42176E-02-1.90426E-03-7.21689E-14
 -1      1002 8.46635E-03-2.74820E-04-3.64691E-14
 -1      1003 1.01809E-02 1.83192E-04-4.61790E-14
 -1      1004 1.62923E-03 7.32590E-05-1.55584E-15
 -1      1005 2.18504E-03 1.99333E-04-2.51623E-15
 -1      1006 1.50849E-03 1.74644E-04-1.25548E-15
 -1      1007 1.80094E-03 1.73208E-04-1.76567E-15
 -1      1008 1.10425E-02-1.09448E-04-5.29267E-14
 -1      1009 4.34982E-03 1.35956E-04-9.64551E-15
 -1      1010 2.20483E-03-1.14815E-04-2.85271E-15
 -1      1011 2.49518E-03-1.18353E-04-3.57581E-15
 -1      1012 2.78572E-03-1.20524E-04-4.37978E-15
 -1      1013 3.07605E-03-1.21696E-04-5.26339E-15
 -1      1014 3.36595E-03-1.22160E-04-6.22762E-15
 -1      1015 3.65529E-03-1.22141E-04-7.26792E-15
 -1      1016 3.94402E-03-1.21806E-04-8.38604E-15
 -1      1017 4.23213E-03-1.21277E-04-9.58125E-15
 -1      1018 4.51962E-03-1.20647E-04-1.08501E-14
 -1      1019 4.80650E-03-1.19993E-04-1.21917E-14
 -1      1020 5.09274E-03-1.19394E-04-1.36066E-14
 -1      1021 5.37829E-03-1.18949E-04-1.50954E-14
 -1      1022 5.66308E-03-1.18802E-04-1.66582E-14
 -1      1023 5.96112E-03-1.19212E-04-1.83825E-14
 -1      1024 6.24380E-03-1.20497E-04-2.01022E-14
 -1      1025 6.52506E-03-1.23180E-04-2.18985E-14
 -1      1026 6.80453E-03-1.28013E-04-2.37660E-14
 -1      1027 7.08186E-03-1.36040E-04-2.57007E-14
 -1      1028 7.35675E-03-1.48622E-04-2.77029E-14
 -1      1029 7.62923E-03-1.67364E-04-2.97668E-14
 -1      1030 7.90004E-03-1.93776E-04-3.18891E-14
 -1      1031 3.48458E-03 1.36933E-04-6.29520E-15
 -1      1032 4.63706E-03 1.35212E-04-1.09170E-14
 -1      1033 1.37721E-02-1.70022E-03-6.96693E-14
 -1      1034 4.92378E-03 1.34305E-04-1.22631E-14
 -1      1035 5.21000E-03 1.33207E-04-1.36827E-14
 -1      1036 5.49579E-03 1.31848E-04-1.51784E-14
 -1      1037 5.78121E-03 1.30119E-04-1.67476E-14
 -1      1038 6.06641E-03 1.27867E-04-1.83927E-14
 -1      1039 6.35158E-03 1.24892E-04-2.01147E-14
 -1      1040 6.63709E-03 1.20961E-04-2.19054E-14
 -1      1041 6.92349E-03 1.15839E-04-2.37703E-14
 -1      1042 7.21170E-03 1.09368E-04-2.57050E-14
 -1      1043 7.50303E-03 1.01604E-04-2.77045E-14
 -1      1044 7.79936E-03 9.30695E-05-2.97669E-14
 -1      1045 8.10315E-03 8.50955E-05-3.18891E-14
 -1      1046 8.41714E-03 8.01918E-05-3.40690E-14
 -1      1047 8.74392E-03 8.22222E-05-3.63040E-14
 -1      1048 9.08401E-03 9.53697E-05-3.85883E-14
 -1      1049 1.21728E-02-8.49013E-04-6.14220E-14
 -1      1050 1.25119E-02-1.06590E-03-6.41387E-14
 -1      1051 1.28375E-02-1.27226E-03-6.68812E-14
 -1      1052 1.91526E-03-1.09470E-04-2.21040E-15
 -1      1053 8.61480E-03-1.63358E-04-3.66128E-14
 -1      1054 1.60767E-03-5.92728E-05-1.60006E-15
 -1      1055 1.31512E-02-1.38218E-03-6.55121E-14
 -1      1056 8.15439E-03-2.32711E-04-3.39810E-14
 -1      1057 1.18295E-02-6.25099E-04-5.89704E-14
 -1      1058 1.35230E-02-1.61158E-03-6.93144E-14
 -1      1059 4.06200E-03 1.36530E-04-8.45089E-15
 -1      1060 3.19500E-03 1.36522E-04-5.33387E-15
 -1      1061 3.77359E-03 1.36886E-04-7.33458E-15
 -1      1062 8.80035E-03-3.93360E-05-3.71703E-14
 -1      1063 1.31753E-02-1.44809E-03-6.80969E-14
 -1      1064 2.61452E-03 1.33413E-04-3.65082E-15
 -1      1065 1.25231E-02-1.04765E-03-6.22316E-14
 -1      1066 2.32412E-03 1.30059E-04-2.92819E-15
 -1      1067 1.87711E-03 3.98864E-05-2.04747E-15
 -1      1068 1.85575E-03-2.52640E-05-2.05039E-15
 -1      1069 8.26684E-03-1.41099E-04-3.41245E-14
 -1      1070 7.99060E-03-1.09217E-04-3.20298E-14
 -1      1071 2.63800E-03-4.51761E-05-3.90876E-15
 -1      1072 2.92878E-03-4.57730E-05-4.74353E-15
 -1      1073 3.21924E-03-4.60393E-05-5.65813E-15
 -1      1074 3.50918E-03-4.60775E-05-6.65163E-15
 -1      1075 3.79849E-03-4.59665E-05-7.72225E-15
 -1      1076 4.08715E-03-4.57688E-05-8.86997E-15
 -1      1077 4.37514E-03-4.55367E-05-1.00948E-14
 -1      1078 4.66247E-03-4.53217E-05-1.13918E-14
 -1      1079 4.94914E-03-4.51847E-05-1.27635E-14
 -1      1080 5.23516E-03-4.52089E-05-1.42083E-14
 -1      1081 5.52048E-03-4.55183E-05-1.57262E-14
 -1      1082 5.81926E-03-4.63547E-05-1.74023E-14
 -1      1083 6.10297E-03-4.79312E-05-1.90766E-14
 -1      1084 6.38577E-03-5.06849E-05-2.08283E-14
 -1      1085 6.66760E-03-5.51892E-05-2.26524E-14
 -1      1086 6.94849E-03-6.22029E-05-2.45458E-14
 -1      1087 7.22869E-03-7.26542E-05-2.65071E-14
 -1      1088 7.50888E-03-8.75265E-05-2.85330E-14
 -1      1089 7.74750E-03-9.69936E-05-3.02627E-14
 -1      1090 5.06615E-03 5.92659E-05-1.31335E-14
 -1      1091 2.90492E-03 1.35444E-04-4.45257E-15
 -1      1092 5.35206E-03 5.84381E-05-1.45991E-14
 -1      1093 4.77966E-03 5.98570E-05-1.17418E-14
 -1      1094 5.63741E-03 5.72510E-05-1.61380E-14
 -1      1095 5.92227E-03 5.55218E-05-1.77530E-14
 -1      1096 6.20669E-03 5.29941E-05-1.94460E-14
 -1      1097 6.49085E-03 4.93272E-05-2.12095E-14
 -1      1098 6.77506E-03 4.40987E-05-2.30460E-14
 -1      1099 7.05988E-03 3.68404E-05-2.49537E-14
 -1      1100 7.34628E-03 2.71388E-05-2.69289E-14
 -1      1101 7.63585E-03 1.48285E-05-2.89662E-14
 -1      1102 7.93097E-03 4.60397E-07-3.10647E-14
 -1      1103 8.23507E-03-1.41769E-05-3.32221E-14
 -1      1104 1.25477E-02-1.07118E-03-6.30902E-14
 -1      1105 2.14514E-03-2.66213E-05-2.66735E-15
 -1      1106 1.28691E-02-1.26461E-03-6.55854E-14
 -1      1107 2.39140E-03-3.58594E-05-3.25876E-15
 -1      1108 2.02938E-03 1.17756E-04-2.28406E-15
 -1      1109 1.33392E-02-1.49628E-03-6.74081E-14
 -1      1110 4.49258E-03 6.02877E-05-1.04255E-14
 -1      1111 8.51043E-03-3.97729E-05-3.52197E-14
 -1      1112 4.20486E-03 6.05973E-05-9.18293E-15
 -1      1113 3.33784E-03 6.07526E-05-5.91803E-15
 -1      1114 2.46617E-03 5.84432E-05-3.35986E-15
 -1      1115 2.75697E-03 5.96691E-05-4.13295E-15
 -1      1116 2.17240E-03 4.74371E-05-2.66864E-15
 -1      1117 3.62749E-03 6.08620E-05-6.92919E-15
 -1      1118 3.91651E-03 6.07949E-05-8.01780E-15
 -1      1119 3.04761E-03 6.03911E-05-4.98519E-15
 -1      1120 0.00000E+00 0.00000E+00 0.00000E+00
 -1      1121 0.00000E+00 0.00000E+00 0.00000E+00
 -1      1122 0.00000E+00 0.00000E+00 0.00000E+00
 -1      1123 0.00000E+00 0.00000E+00 0.00000E+00
 -1      1124 0.00000E+00 0.00000E+00 0.00000E+00
 -1      1125 0.00000E+00 0.00000E+00 0.00000E+00
 -1      1126 0.00000E+00 0.00000E+00 0.00000E+00
 -1      1127 0.00000E+00 0.00000E+00 0.00000E+00
 -1      1128 0.00000E+00 0.00000E+00 0.00000E+00
 -1      1129 0.00000E+00 0.00000E+00 0.00000E+00
 -1      1130 0.00000E+00 0.00000E+00 0.00000E+00
 -1      1131 0.00000E+00 0.00000E+00 0.00000E+00
 -1      1132 0.00000E+00 0.00000E+00 0.00000E+00
 -1      1133 0.00000E+00 0.00000E+00 0.00000E+00
 -1      1134 0.00000E+00 0.00000E+00 0.00000E+00
 -1      1135 0.00000E+00 0.00000E+00 0.00000E+00
 -1      1136 0.00000E+00 0.00000E+00 0.00000E+00
 -1      1137 2.11670E-04-1.48327E-04 3.98444E-18
 -1      1138 5.51655E-04-3.37495E-04-5.12286E-17
 -1      1139 8.33498E-04-4.58973E-04-1.96756E-16
 -1      1140 1.10310E-03-5.40640E-04-4.47233E-16
 -1      1141 1.36856E-03-5.97876E-04-7.96550E-16
 -1      1142 1.63342E-03-6.38577E-04-1.24075E-15
 -1      1143 1.89954E-03-6.67393E-04-1.77813E-15
 -1      1144 2.16777E-03-6.87445E-04-2.40777E-15
 -1      1145 2.43841E-03-7.01021E-04-3.12864E-15
 -1      1146 2.71145E-03-7.09848E-04-3.94175E-15
 -1      1147 2.98673E-03-7.15236E-04-4.84560E-15
 -1      1148 3.26401E-03-7.18170E-04-5.83345E-15
 -1      1149 3.54303E-03-7.19384E-04-6.90036E-15
 -1      1150 3.82352E-03-7.19408E-04-8.04600E-15
 -1      1151 4.10523E-03-7.18617E-04-9.26590E-15
 -1      1152 4.38796E-03-7.17261E-04-1.05607E-14
 -1      1153 4.67153E-03-7.15492E-04-1.19292E-14
 -1      1154 4.95585E-03-7.13388E-04-1.33675E-14
 -1      1155 5.24085E-03-7.10962E-04-1.48777E-14
 -1      1156 5.52656E-03-7.08176E-04-1.64590E-14
 -1      1157 5.81309E-03-7.04947E-04-1.81143E-14
 -1      1158 6.10072E-03-7.01154E-04-1.98437E-14
 -1      1159 6.38990E-03-6.96645E-04-2.16477E-14
 -1      1160 6.68143E-03-6.91258E-04-2.35287E-14
 -1      1161 6.98404E-03-6.84691E-04-2.55364E-14
 -1      1162 7.29272E-03-6.77130E-04-2.76184E-14
 -1      1163 7.60323E-03-6.69269E-04-2.97193E-14
 -1      1164 7.92839E-03-6.62521E-04-3.18844E-14
 -1      1165 8.27646E-03-6.60959E-04-3.41000E-14
 -1      1166 8.65949E-03-6.74189E-04-3.63618E-14
 -1      1167 9.09337E-03-7.23365E-04-3.86674E-14
 -1      1168 9.59402E-03-8.50361E-04-4.10114E-14
 -1      1169 1.01626E-02-1.12225E-03-4.34042E-14
 -1      1170 1.07246E-02-1.57100E-03-4.57340E-14
 -1      1171 1.11747E-02-2.11523E-03-4.79389E-14
 -1      1172 1.14802E-02-2.59421E-03-5.02168E-14
 -1      1173 1.16747E-02-2.75759E-03-5.25240E-14
 -1      1174 1.18985E-02-2.58019E-03-5.47706E-14
 -1      1175 1.22359E-02-2.25523E-03-5.69855E-14
 -1      1176 1.26979E-02-1.94745E-03-5.93475E-14
 -1      1177 1.32611E-02-1.76138E-03-6.20598E-14
 -1      1178 1.38087E-02-1.75094E-03-6.49036E-14
 -1      1179 1.42848E-02-1.86126E-03-6.77273E-14
 -1      1180 1.46983E-02-2.03245E-03-7.05432E-14
 -1      1181 1.50658E-02-2.23044E-03-7.33577E-14
 -1      1182 1.54021E-02-2.43852E-03-7.61766E-14
 -1      1183 1.57178E-02-2.64900E-03-7.90070E-14
 -1      1184 1.60199E-02-2.85830E-03-8.18375E-14
 -1      1185 1.63134E-02-3.06461E-03-8.46779E-14
 -1      1186 1.66015E-02-3.26694E-03-8.75398E-14
 -1      1187 1.68873E-02-3.46532E-03-9.04039E-14
 -1      1188 2.28430E-04 1.60702E-04 3.20924E-17
 -1      1189 5.53832E-04 3.42133E-04 5.36951E-17
 -1      1190 8.34430E-04 4.61164E-04 1.22515E-17
 -1      1191 1.10400E-03 5.42337E-04-1.03230E-16
 -1      1192 1.36946E-03 5.99553E-04-2.97126E-16
 -1      1193 1.63437E-03 6.40342E-04-5.74044E-16
 -1      1194 1.90055E-03 6.69263E-04-9.36358E-16
 -1      1195 2.16883E-03 6.89432E-04-1.38234E-15
 -1      1196 2.43950E-03 7.03133E-04-1.91374E-15
 -1      1197 2.71257E-03 7.12090E-04-2.53308E-15
 -1      1198 2.98788E-03 7.17613E-04-3.24266E-15
 -1      1199 3.26520E-03 7.20689E-04-4.03892E-15
 -1      1200 3.54427E-03 7.22055E-04-4.91936E-15
 -1      1201 3.82483E-03 7.22252E-04-5.88452E-15
 -1      1202 4.10663E-03 7.21670E-04-6.92796E-15
 -1      1203 4.38949E-03 7.20586E-04-8.05328E-15
 -1      1204 4.67322E-03 7.19195E-04-9.26121E-15
 -1      1205 4.95772E-03 7.17639E-04-1.05461E-14
 -1      1206 5.24289E-03 7.16032E-04-1.19049E-14
 -1      1207 5.52868E-03 7.14482E-04-1.33418E-14
 -1      1208 5.81505E-03 7.13110E-04-1.48594E-14
 -1      1209 6.10196E-03 7.12074E-04-1.64564E-14
 -1      1210 6.38935E-03 7.11578E-04-1.81304E-14
 -1      1211 6.67706E-03 7.11878E-04-1.98861E-14
 -1      1212 6.96481E-03 7.13265E-04-2.17204E-14
 -1      1213 7.25210E-03 7.16017E-04-2.36178E-14
 -1      1214 7.53814E-03 7.20308E-04-2.55828E-14
 -1      1215 7.82180E-03 7.26048E-04-2.76108E-14
 -1      1216 8.10154E-03 7.32660E-04-2.96946E-14
 -1      1217 8.37554E-03 7.38804E-04-3.18409E-14
 -1      1218 8.64181E-03 7.42100E-04-3.40503E-14
 -1      1219 8.89860E-03 7.38960E-04-3.63198E-14
 -1      1220 9.14483E-03 7.24653E-04-3.86465E-14
 -1      1221 9.38057E-03 6.93727E-04-4.10201E-14
 -1      1222 9.60743E-03 6.40813E-04-4.34432E-14
 -1      1223 9.82851E-03 5.61660E-04-4.59217E-14
 -1      1224 1.00480E-02 4.54096E-04-4.84532E-14
 -1      1225 1.02704E-02 3.18561E-04-5.10361E-14
 -1      1226 1.04995E-02 1.57988E-04-5.36637E-14
 -1      1227 1.07381E-02-2.29072E-05-5.63342E-14
 -1      1228 1.09871E-02-2.18663E-04-5.90425E-14
 -1      1229 1.12461E-02-4.24060E-04-6.17779E-14
 -1      1230 1.15138E-02-6.34810E-04-6.45389E-14
 -1      1231 1.17883E-02-8.47853E-04-6.73317E-14
 -1      1232 1.20676E-02-1.06132E-03-7.01375E-14
 -1      1233 1.23499E-02-1.27431E-03-7.29431E-14
 -1      1234 1.26341E-02-1.48656E-03-7.57535E-14
 -1      1235 1.29192E-02-1.69819E-03-7.85680E-14
 -1      1236 1.32047E-02-1.90938E-03-8.13801E-14
 -1      1237 1.34832E-02-2.11504E-03-8.41203E-14
 -1      1238 1.37226E-02-2.25732E-03-8.56400E-14
 -1      1239 1.39298E-02-2.34161E-03-8.60225E-14
 -1      1240 1.41369E-02-2.42604E-03-8.64102E-14
 -1      1241 1.43442E-02-2.51063E-03-8.68082E-14
 -1      1242 1.45522E-02-2.59508E-03-8.72160E-14
 -1      1243 1.47594E-02-2.67807E-03-8.75914E-14
 -1      1244 1.49674E-02-2.75951E-03-8.79720E-14
 -1      1245 1.51774E-02-2.83928E-03-8.83477E-14
 -1      1246 1.53864E-02-2.91611E-03-8.87271E-14
 -1      1247 1.55927E-02-2.98998E-03-8.91128E-14
 -1      1248 1.57949E-02-3.06159E-03-8.94877E-14
 -1      1249 1.59903E-02-3.13176E-03-8.98607E-14
 -1      1250 1.61806E-02-3.20293E-03-9.02495E-14
 -1      1251 1.63689E-02-3.27754E-03-9.06285E-14
 -1      1252 1.65559E-02-3.35611E-03-9.09951E-14
 -1      1253 1.67446E-02-3.43846E-03-9.13367E-14
 -1      1254 1.69349E-02-3.52216E-03-9.16595E-14
 -1      1255 1.37129E-02-1.09463E-03-5.70367E-14
 -1      1256 1.34787E-02-9.16873E-04-5.65898E-14
 -1      1257 1.31350E-02-7.27555E-04-5.58729E-14
 -1      1258 1.27168E-02-5.34135E-04-5.49296E-14
 -1      1259 1.22402E-02-3.45581E-04-5.37739E-14
 -1      1260 1.17376E-02-1.84367E-04-5.24766E-14
 -1      1261 1.12378E-02-7.13366E-05-5.11431E-14
 -1      1262 1.07111E-02-1.35282E-05-4.97290E-14
 -1      1263 1.01878E-02-2.06199E-05-4.83490E-14
 -1      1264 9.72135E-03-8.70236E-05-4.71838E-14
 -1      1265 9.31080E-03-1.92288E-04-4.62395E-14
 -1      1266 8.98418E-03-3.16870E-04-4.55569E-14
 -1      1267 8.75092E-03-4.50637E-04-4.51316E-14
 -1      1268 8.61594E-03-5.99014E-04-4.49436E-14
 -1      1269 8.59990E-03-7.63981E-04-4.50181E-14
 -1      1270 8.71228E-03-9.60918E-04-4.53640E-14
 -1      1271 8.95989E-03-1.20609E-03-4.59796E-14
 -1      1272 9.32642E-03-1.49975E-03-4.68293E-14
 -1      1273 9.80461E-03-1.83975E-03-4.79056E-14
 -1      1274 1.03980E-02-2.18986E-03-4.92107E-14
 -1      1275 1.10548E-02-2.44671E-03-5.06444E-14
 -1      1276 1.16747E-02-2.52103E-03-5.19931E-14
 -1      1277 1.22356E-02-2.42901E-03-5.32201E-14
 -1      1278 1.27710E-02-2.21574E-03-5.44292E-14
 -1      1279 1.31999E-02-1.97184E-03-5.54458E-14
 -1      1280 1.35058E-02-1.75530E-03-5.62033E-14
 -1      1281 1.37101E-02-1.56740E-03-5.67432E-14
 -1      1282 1.38123E-02-1.40727E-03-5.70696E-14
 -1      1283 1.38187E-02-1.25607E-03-5.71852E-14
 -1      1284 1.66706E-04-1.10335E-04-9.78492E-18
 -1      1285 1.12546E-04-5.69650E-05-2.38796E-17
 -1      1286 1.17628E-04-6.75743E-05-1.98409E-17
 -1      1287 1.08419E-04-4.34819E-05-3.02899E-17
 -1      1288 1.10282E-04-4.95942E-05-2.85281E-17
 -1      1289 2.26333E-04-1.07603E-04-6.73290E-17
 -1      1290 1.06849E-04-3.36105E-05-3.29462E-17
 -1      1291 1.07693E-04-3.83357E-05-3.22008E-17
 -1      1292 2.19104E-04-8.24517E-05-7.78593E-17
 -1      1293 1.06067E-04-2.53405E-05-3.43286E-17
 -1      1294 1.06501E-04-2.93724E-05-3.40439E-17
 -1      1295 2.15884E-04-6.32649E-05-8.28737E-17
 -1      1296 1.05657E-04-1.80845E-05-3.46403E-17
 -1      1297 1.05887E-04-2.16516E-05-3.46945E-17
 -1      1298 2.14211E-04-4.71710E-05-8.50421E-17
 -1      1299 1.05435E-04-1.12347E-05-3.44641E-17
 -1      1300 1.05559E-04-1.46189E-05-3.47216E-17
 -1      1301 2.13288E-04-3.27412E-05-8.54080E-17
 -1      1302 1.05335E-04-4.68701E-06-3.35018E-17
 -1      1303 1.05388E-04-7.93915E-06-3.38542E-17
 -1      1304 2.12789E-04-1.91825E-05-8.42019E-17
 -1      1305 1.05323E-04 1.74252E-06-3.24176E-17
 -1      1306 1.05321E-04-1.46966E-06-3.27565E-17
 -1      1307 2.12573E-04-6.15749E-06-8.19386E-17
 -1      1308 1.05396E-04 8.22178E-06-3.08184E-17
 -1      1309 1.05339E-04 4.96313E-06-3.12657E-17
 -1      1310 2.12581E-04 6.70636E-06-7.87944E-17
 -1      1311 1.05575E-04 1.49270E-05-2.89482E-17
 -1      1312 1.05447E-04 1.15279E-05-2.95039E-17
 -1      1313 2.12814E-04 1.97574E-05-7.48235E-17
 -1      1314 1.05910E-04 2.19442E-05-2.62377E-17
 -1      1315 1.05674E-04 1.83537E-05-2.70508E-17
 -1      1316 2.13328E-04 3.32560E-05-6.97142E-17
 -1      1317 1.06535E-04 2.98089E-05-2.25107E-17
 -1      1318 1.06095E-04 2.57329E-05-2.37711E-17
 -1      1319 2.14271E-04 4.77808E-05-6.28024E-17
 -1      1320 1.07735E-04 3.89062E-05-1.72930E-17
 -1      1321 1.06882E-04 3.41112E-05-1.93124E-17
 -1      1322 2.15985E-04 6.41881E-05-5.34918E-17
 -1      1323 1.10272E-04 5.03431E-05-9.60874E-18
 -1      1324 1.08437E-04 4.41602E-05-1.28885E-17
 -1      1325 2.19230E-04 8.36951E-05-4.05085E-17
 -1      1326 1.16935E-04 6.76091E-05 1.77538E-18
 -1      1327 1.12184E-04 5.77637E-05-3.65918E-18
 -1      1328 2.26318E-04 1.09432E-04-2.23752E-17
 -1      1329 1.57584E-04 1.09851E-04 1.85941E-17
 -1      1330 1.35666E-04 8.60805E-05 8.78204E-18
 -1      1331 2.56044E-04 1.52073E-04-9.35124E-19
 -1      1332 3.35097E-04 2.20719E-04 2.78369E-17
 -1      1333 4.21559E-04-2.61720E-04-5.59177E-17
 -1      1334 5.74666E-04-3.36772E-04-1.06089E-16
 -1      1335 7.21864E-04-3.97366E-04-1.83854E-16
 -1      1336 8.65044E-04-4.46653E-04-2.86893E-16
 -1      1337 6.12109E-04-3.30860E-04-1.67997E-16
 -1      1338 1.00508E-03-4.87717E-04-4.13826E-16
 -1      1339 1.14294E-03-5.21698E-04-5.65289E-16
 -1      1340 9.05364E-04-4.31540E-04-3.78603E-16
 -1      1341 1.27945E-03-5.50464E-04-7.40551E-16
 -1      1342 1.41512E-03-5.74494E-04-9.40057E-16
 -1      1343 1.18782E-03-5.00944E-04-6.84579E-16
 -1      1344 1.55038E-03-5.94853E-04-1.16258E-15
 -1      1345 1.68550E-03-6.11876E-04-1.40826E-15
 -1      1346 1.46479E-03-5.49703E-04-1.08427E-15
 -1      1347 1.82071E-03-6.26189E-04-1.67684E-15
 -1      1348 1.95613E-03-6.38087E-04-1.96844E-15
 -1      1349 1.73952E-03-5.83996E-04-1.57594E-15
 -1      1350 2.09187E-03-6.47971E-04-2.28315E-15
 -1      1351 2.22799E-03-6.56092E-04-2.62038E-15
 -1      1352 2.01388E-03-6.07806E-04-2.15905E-15
 -1      1353 2.36454E-03-6.62724E-04-2.97990E-15
 -1      1354 2.50152E-03-6.68072E-04-3.36192E-15
 -1      1355 2.28886E-03-6.23947E-04-2.83213E-15
 -1      1356 2.63895E-03-6.72334E-04-3.76749E-15
 -1      1357 2.77683E-03-6.75671E-04-4.19533E-15
 -1      1358 2.56493E-03-6.34493E-04-3.59477E-15
 -1      1359 2.91514E-03-6.78225E-04-4.64406E-15
 -1      1360 3.05387E-03-6.80125E-04-5.11506E-15
 -1      1361 2.84229E-03-6.40999E-04-4.44550E-15
 -1      1362 3.19300E-03-6.81469E-04-5.60649E-15
 -1      1363 3.33251E-03-6.82358E-04-6.11799E-15
 -1      1364 3.12097E-03-6.44630E-04-5.38247E-15
 -1      1365 3.47237E-03-6.82859E-04-6.64993E-15
 -1      1366 3.61256E-03-6.83049E-04-7.20122E-15
 -1      1367 3.40088E-03-6.46251E-04-6.40129E-15
 -1      1368 3.75305E-03-6.82972E-04-7.77227E-15
 -1      1369 3.89382E-03-6.82685E-04-8.36145E-15
 -1      1370 3.68192E-03-6.46489E-04-7.50031E-15
 -1      1371 4.03485E-03-6.82216E-04-8.96947E-15
 -1      1372 4.17612E-03-6.81604E-04-9.59638E-15
 -1      1373 3.96396E-03-6.45791E-04-8.67560E-15
 -1      1374 4.31762E-03-6.80864E-04-1.02416E-14
 -1      1375 4.45931E-03-6.80025E-04-1.09058E-14
 -1      1376 4.24685E-03-6.44460E-04-9.92496E-15
 -1      1377 4.60120E-03-6.79088E-04-1.15872E-14
 -1      1378 4.74326E-03-6.78073E-04-1.22868E-14
 -1      1379 4.53050E-03-6.42684E-04-1.12479E-14
 -1      1380 4.88550E-03-6.76974E-04-1.30044E-14
 -1      1381 5.02790E-03-6.75803E-04-1.37389E-14
 -1      1382 4.81483E-03-6.40566E-04-1.26427E-14
 -1      1383 5.17047E-03-6.74543E-04-1.44921E-14
 -1      1384 5.31322E-03-6.73204E-04-1.52634E-14
 -1      1385 5.09979E-03-6.38135E-04-1.41094E-14
 -1      1386 5.45614E-03-6.71760E-04-1.60515E-14
 -1      1387 5.59926E-03-6.70217E-04-1.68581E-14
 -1      1388 5.38539E-03-6.35362E-04-1.56464E-14
 -1      1389 5.74261E-03-6.68539E-04-1.76839E-14
 -1      1390 5.88620E-03-6.66734E-04-1.85299E-14
 -1      1391 5.67172E-03-6.32163E-04-1.72565E-14
 -1      1392 6.03009E-03-6.64750E-04-1.93919E-14
 -1      1393 6.17433E-03-6.62602E-04-2.02724E-14
 -1      1394 5.95895E-03-6.28403E-04-1.89413E-14
 -1      1395 6.31899E-03-6.60219E-04-2.11737E-14
 -1      1396 6.46416E-03-6.57632E-04-2.20938E-14
 -1      1397 6.24738E-03-6.23902E-04-2.07022E-14
 -1      1398 6.60996E-03-6.54745E-04-2.30324E-14
 -1      1399 6.75652E-03-6.51618E-04-2.39904E-14
 -1      1400 6.53752E-03-6.18431E-04-2.25390E-14
 -1      1401 6.91144E-03-6.47938E-04-2.50167E-14
 -1      1402 7.06767E-03-6.43993E-04-2.60623E-14
 -1      1403 6.83749E-03-6.11553E-04-2.44994E-14
 -1      1404 7.21798E-03-6.39816E-04-2.70766E-14
 -1      1405 7.37014E-03-6.35472E-04-2.81090E-14
 -1      1406 7.14133E-03-6.03170E-04-2.65379E-14
 -1      1407 7.52457E-03-6.30801E-04-2.91571E-14
 -1      1408 7.68185E-03-6.26237E-04-3.02216E-14
 -1      1409 7.44333E-03-5.93517E-04-2.85968E-14
 -1      1410 7.84259E-03-6.21719E-04-3.13012E-14
 -1      1411 8.00764E-03-6.18040E-04-3.23949E-14
 -1      1412 7.75345E-03-5.83003E-04-3.07208E-14
 -1      1413 8.17786E-03-6.15504E-04-3.35003E-14
 -1      1414 8.35442E-03-6.15560E-04-3.46179E-14
 -1      1415 8.07532E-03-5.73728E-04-3.29030E-14
 -1      1416 8.53843E-03-6.19496E-04-3.57465E-14
 -1      1417 8.73137E-03-6.29992E-04-3.68860E-14
 -1      1418 8.41373E-03-5.71320E-04-3.51334E-14
 -1      1419 8.93443E-03-6.50461E-04-3.80363E-14
 -1      1420 9.14908E-03-6.85983E-04-3.91969E-14
 -1      1421 8.77466E-03-5.89113E-04-3.74080E-14
 -1      1422 9.37625E-03-7.43463E-04-4.03684E-14
 -1      1423 9.61626E-03-8.31746E-04-4.15491E-14
 -1      1424 9.16531E-03-6.55878E-04-3.97253E-14
 -1      1425 9.86901E-03-9.60806E-04-4.27436E-14
 -1      1426 1.01312E-02-1.14166E-03-4.39533E-14
 -1      1427 9.59449E-03-8.25975E-04-4.20866E-14
 -1      1428 1.03735E-02-1.35281E-03-4.50545E-14
 -1      1429 1.06130E-02-1.61108E-03-4.61711E-14
 -1      1430 1.00461E-02-1.15483E-03-4.43784E-14
 -1      1431 1.08360E-02-1.88579E-03-4.72403E-14
 -1      1432 1.10428E-02-2.16671E-03-4.83250E-14
 -1      1433 1.05001E-02-1.64325E-03-4.65418E-14
 -1      1434 1.12431E-02-2.44094E-03-4.94947E-14
 -1      1435 1.14260E-02-2.63730E-03-5.06848E-14
 -1      1436 1.09670E-02-2.23208E-03-4.87707E-14
 -1      1437 1.19003E-02-2.61564E-03-5.41272E-14
 -1      1438 1.20719E-02-2.45980E-03-5.52562E-14
 -1      1439 1.22491E-02-2.28907E-03-5.63199E-14
 -1      1440 1.24395E-02-2.12241E-03-5.73895E-14
 -1      1441 1.22366E-02-2.32850E-03-5.56638E-14
 -1      1442 1.26798E-02-1.94821E-03-5.86718E-14
 -1      1443 1.29249E-02-1.81541E-03-5.99515E-14
 -1      1444 1.26661E-02-1.96225E-03-5.80004E-14
 -1      1445 1.31949E-02-1.72370E-03-6.13776E-14
 -1      1446 1.34562E-02-1.68388E-03-6.28017E-14
 -1      1447 1.31542E-02-1.69810E-03-6.07014E-14
 -1      1448 1.37046E-02-1.68853E-03-6.42190E-14
 -1      1449 1.39396E-02-1.72631E-03-6.56329E-14
 -1      1450 1.36299E-02-1.63342E-03-6.35383E-14
 -1      1451 1.41608E-02-1.78799E-03-6.70448E-14
 -1      1452 1.43692E-02-1.86645E-03-6.84519E-14
 -1      1453 1.40598E-02-1.71792E-03-6.63622E-14
 -1      1454 1.45663E-02-1.95592E-03-6.98591E-14
 -1      1455 1.47533E-02-2.05272E-03-7.12659E-14
 -1      1456 1.44498E-02-1.88035E-03-6.91767E-14
 -1      1457 1.49320E-02-2.15398E-03-7.26729E-14
 -1      1458 1.51034E-02-2.25790E-03-7.40792E-14
 -1      1459 1.48078E-02-2.07748E-03-7.19875E-14
 -1      1460 1.52690E-02-2.36330E-03-7.54904E-14
 -1      1461 1.54297E-02-2.46923E-03-7.69046E-14
 -1      1462 1.51417E-02-2.28767E-03-7.48044E-14
 -1      1463 1.55864E-02-2.57528E-03-7.83180E-14
 -1      1464 1.57398E-02-2.68094E-03-7.97332E-14
 -1      1465 1.54584E-02-2.50108E-03-7.76305E-14
 -1      1466 1.58906E-02-2.78608E-03-8.11486E-14
 -1      1467 1.60392E-02-2.89039E-03-8.25654E-14
 -1      1468 1.57631E-02-2.71337E-03-8.04582E-14
 -1      1469 1.61860E-02-2.99381E-03-8.39867E-14
 -1      1470 1.63315E-02-3.09616E-03-8.54119E-14
 -1      1471 1.60596E-02-2.92254E-03-8.32948E-14
 -1      1472 1.64759E-02-3.19741E-03-8.68418E-14
 -1      1473 1.66196E-02-3.29752E-03-8.82738E-14
 -1      1474 1.63506E-02-3.12750E-03-8.61465E-14
 -1      1475 1.67059E-02-3.36092E-03-8.92532E-14
 -1      1476 1.68489E-02-3.45949E-03-9.06851E-14
 -1      1477 1.67540E-02-3.41813E-03-9.05148E-14
 -1      1478 1.65814E-02-3.29200E-03-8.85558E-14
 -1      1479 6.43109E-04 3.71996E-04 1.31460E-17
 -1      1480 4.92972E-04 3.03670E-04 2.90295E-17
 -1      1481 4.44900E-04 2.65869E-04 7.77915E-18
 -1      1482 9.28722E-04 4.71967E-04-7.26687E-17
 -1      1483 7.87855E-04 4.26475E-04-2.06812E-17
 -1      1484 7.44792E-04 3.90693E-04-4.94667E-17
 -1      1485 1.20363E-03 5.41340E-04-2.33225E-16
 -1      1486 1.06695E-03 5.09671E-04-1.42925E-16
 -1      1487 1.03085E-03 4.76103E-04-1.78555E-16
 -1      1488 1.47422E-03 5.90518E-04-4.73241E-16
 -1      1489 1.33915E-03 5.68057E-04-3.43109E-16
 -1      1490 1.30879E-03 5.35886E-04-3.84146E-16
 -1      1491 1.74381E-03 6.25401E-04-7.96780E-16
 -1      1492 1.60897E-03 6.09500E-04-6.24378E-16
 -1      1493 1.58307E-03 5.78170E-04-6.70755E-16
 -1      1494 2.01407E-03 6.49852E-04-1.20475E-15
 -1      1495 1.87877E-03 6.38756E-04-9.90121E-16
 -1      1496 1.85629E-03 6.07892E-04-1.03987E-15
 -1      1497 2.28582E-03 6.66620E-04-1.69626E-15
 -1      1498 2.14972E-03 6.59066E-04-1.44006E-15
 -1      1499 2.12986E-03 6.28436E-04-1.49307E-15
 -1      1500 2.55939E-03 6.77750E-04-2.27471E-15
 -1      1501 2.42237E-03 6.72791E-04-1.97437E-15
 -1      1502 2.40449E-03 6.42254E-04-2.03123E-15
 -1      1503 2.83483E-03 6.84785E-04-2.94056E-15
 -1      1504 2.69688E-03 6.81704E-04-2.59646E-15
 -1      1505 2.68050E-03 6.51176E-04-2.65536E-15
 -1      1506 3.11205E-03 6.88888E-04-3.69469E-15
 -1      1507 2.97322E-03 6.87147E-04-3.30667E-15
 -1      1508 2.95796E-03 6.56577E-04-3.36680E-15
 -1      1509 3.39088E-03 6.90932E-04-4.53384E-15
 -1      1510 3.25128E-03 6.90126E-04-4.10360E-15
 -1      1511 3.23682E-03 6.59490E-04-4.16456E-15
 -1      1512 3.67114E-03 6.91557E-04-5.45739E-15
 -1      1513 3.53085E-03 6.91391E-04-4.98513E-15
 -1      1514 3.51698E-03 6.60677E-04-5.04681E-15
 -1      1515 3.95263E-03 6.91230E-04-6.46248E-15
 -1      1516 3.81174E-03 6.91490E-04-5.94975E-15
 -1      1517 3.79829E-03 6.60695E-04-6.01181E-15
 -1      1518 4.23515E-03 6.90282E-04-7.54697E-15
 -1      1519 4.09377E-03 6.90818E-04-6.99477E-15
 -1      1520 4.08059E-03 6.59944E-04-7.05719E-15
 -1      1521 4.51856E-03 6.88945E-04-8.71327E-15
 -1      1522 4.37676E-03 6.89651E-04-8.11992E-15
 -1      1523 4.36377E-03 6.58704E-04-8.18331E-15
 -1      1524 4.80274E-03 6.87385E-04-9.95985E-15
 -1      1525 4.66056E-03 6.88185E-04-9.32690E-15
 -1      1526 4.64768E-03 6.57170E-04-9.38933E-15
 -1      1527 5.08758E-03 6.85723E-04-1.12809E-14
 -1      1528 4.94508E-03 6.86559E-04-1.06108E-14
 -1      1529 4.93225E-03 6.55481E-04-1.06728E-14
 -1      1530 5.37302E-03 6.84063E-04-1.26787E-14
 -1      1531 5.23023E-03 6.84885E-04-1.19703E-14
 -1      1532 5.21740E-03 6.53744E-04-1.20324E-14
 -1      1533 5.65902E-03 6.82516E-04-1.41558E-14
 -1      1534 5.51596E-03 6.83267E-04-1.34077E-14
 -1      1535 5.50308E-03 6.52063E-04-1.34699E-14
 -1      1536 5.94553E-03 6.81218E-04-1.57132E-14
 -1      1537 5.80222E-03 6.81826E-04-1.49238E-14
 -1      1538 5.78925E-03 6.50557E-04-1.49858E-14
 -1      1539 6.23250E-03 6.80349E-04-1.73480E-14
 -1      1540 6.08896E-03 6.80718E-04-1.65206E-14
 -1      1541 6.07585E-03 6.49380E-04-1.65809E-14
 -1      1542 6.51981E-03 6.80145E-04-1.90608E-14
 -1      1543 6.37612E-03 6.80151E-04-1.81951E-14
 -1      1544 6.36282E-03 6.48742E-04-1.82558E-14
 -1      1545 6.80725E-03 6.80892E-04-2.08535E-14
 -1      1546 6.66353E-03 6.80388E-04-1.99475E-14
 -1      1547 6.65001E-03 6.48913E-04-2.00065E-14
 -1      1548 7.09449E-03 6.82906E-04-2.27197E-14
 -1      1549 6.95092E-03 6.81736E-04-2.17778E-14
 -1      1550 6.93718E-03 6.50213E-04-2.18329E-14
 -1      1551 7.38094E-03 6.86461E-04-2.46468E-14
 -1      1552 7.23785E-03 6.84500E-04-2.36757E-14
 -1      1553 7.22395E-03 6.52969E-04-2.37286E-14
 -1      1554 7.66577E-03 6.91670E-04-2.66437E-14
 -1      1555 7.52361E-03 6.88893E-04-2.56375E-14
 -1      1556 7.50972E-03 6.57430E-04-2.56907E-14
 -1      1557 7.94784E-03 6.98295E-04-2.86978E-14
 -1      1558 7.80723E-03 6.94880E-04-2.76637E-14
 -1      1559 7.79366E-03 6.63607E-04-2.77143E-14
 -1      1560 8.22572E-03 7.05483E-04-3.08108E-14
 -1      1561 8.08740E-03 7.01948E-04-2.97467E-14
 -1      1562 8.07469E-03 6.71052E-04-2.97963E-14
 -1      1563 8.49781E-03 7.11473E-04-3.29864E-14
 -1      1564 8.36259E-03 7.08825E-04-3.18915E-14
 -1      1565 8.35151E-03 6.78558E-04-3.19392E-14
 -1      1566 8.76253E-03 7.13333E-04-3.52262E-14
 -1      1567 8.63119E-03 7.13188E-04-3.40986E-14
 -1      1568 8.62277E-03 6.83860E-04-3.41454E-14
 -1      1569 9.01870E-03 7.06867E-04-3.75210E-14
 -1      1570 8.89175E-03 7.11466E-04-3.63661E-14
 -1      1571 8.88726E-03 6.83415E-04-3.64107E-14
 -1      1572 9.26590E-03 6.86821E-04-3.98727E-14
 -1      1573 9.14343E-03 6.98886E-04-3.86903E-14
 -1      1574 9.14423E-03 6.72421E-04-3.87332E-14
 -1      1575 9.50482E-03 6.47500E-04-4.22705E-14
 -1      1576 9.38632E-03 6.69878E-04-4.10657E-14
 -1      1577 9.39373E-03 6.45207E-04-4.11082E-14
 -1      1578 9.73740E-03 5.83743E-04-4.47225E-14
 -1      1579 9.62174E-03 6.18883E-04-4.34897E-14
 -1      1580 9.63682E-03 5.96046E-04-4.35330E-14
 -1      1581 9.96671E-03 4.92015E-04-4.72222E-14
 -1      1582 9.85225E-03 5.41431E-04-4.59665E-14
 -1      1583 9.87562E-03 5.20261E-04-4.60086E-14
 -1      1584 1.01964E-02 3.71261E-04-4.97766E-14
 -1      1585 1.00813E-02 4.35153E-04-4.84930E-14
 -1      1586 1.01130E-02 4.15295E-04-4.85323E-14
 -1      1587 1.04300E-02 2.23167E-04-5.23805E-14
 -1      1588 1.03125E-02 3.00374E-04-5.10720E-14
 -1      1589 1.03521E-02 2.81354E-04-5.11068E-14
 -1      1590 1.06703E-02 5.17304E-05-5.50238E-14
 -1      1591 1.05492E-02 1.40022E-04-5.36961E-14
 -1      1592 1.05958E-02 1.21350E-04-5.37270E-14
 -1      1593 1.09191E-02-1.37691E-04-5.77101E-14
 -1      1594 1.07936E-02-4.10935E-05-5.63631E-14
 -1      1595 1.08459E-02-5.98367E-05-5.63903E-14
 -1      1596 1.11765E-02-3.39481E-04-6.04327E-14
 -1      1597 1.10467E-02-2.37360E-04-5.90686E-14
 -1      1598 1.11034E-02-2.56462E-04-5.90936E-14
 -1      1599 1.14421E-02-5.48674E-04-6.31762E-14
 -1      1600 1.13084E-02-4.43398E-04-6.18007E-14
 -1      1601 1.13680E-02-4.63003E-04-6.18233E-14
 -1      1602 1.17143E-02-7.61472E-04-6.59509E-14
 -1      1603 1.15775E-02-6.54785E-04-6.45593E-14
 -1      1604 1.16391E-02-6.74918E-04-6.45802E-14
 -1      1605 1.19917E-02-9.75372E-04-6.87465E-14
 -1      1606 1.18525E-02-8.68374E-04-6.73470E-14
 -1      1607 1.19153E-02-8.88975E-04-6.73631E-14
 -1      1608 1.22727E-02-1.18900E-03-7.15529E-14
 -1      1609 1.21319E-02-1.08226E-03-7.01502E-14
 -1      1610 1.21953E-02-1.10322E-03-7.01610E-14
 -1      1611 1.25560E-02-1.40185E-03-7.43584E-14
 -1      1612 1.24141E-02-1.29553E-03-7.29549E-14
 -1      1613 1.24778E-02-1.31675E-03-7.29660E-14
 -1      1614 1.28405E-02-1.61388E-03-7.71705E-14
 -1      1615 1.26981E-02-1.50795E-03-7.57632E-14
 -1      1616 1.27619E-02-1.52934E-03-7.57740E-14
 -1      1617 1.31257E-02-1.82534E-03-7.99829E-14
 -1      1618 1.29831E-02-1.71967E-03-7.85757E-14
 -1      1619 1.30468E-02-1.74114E-03-7.85849E-14
 -1      1620 1.34113E-02-2.03642E-03-8.27951E-14
 -1      1621 1.32685E-02-1.93091E-03-8.13906E-14
 -1      1622 1.33322E-02-1.95244E-03-8.13992E-14
 -1      1623 1.35869E-02-2.15719E-03-8.43066E-14
 -1      1624 1.38579E-02-2.27145E-03-8.49009E-14
 -1      1625 1.37543E-02-2.22927E-03-8.47093E-14
 -1      1626 1.40649E-02-2.35589E-03-8.52870E-14
 -1      1627 1.39614E-02-2.31366E-03-8.50929E-14
 -1      1628 1.37859E-02-2.20124E-03-8.37787E-14
 -1      1629 1.42724E-02-2.44033E-03-8.56831E-14
 -1      1630 1.41686E-02-2.39813E-03-8.54826E-14
 -1      1631 1.39930E-02-2.28570E-03-8.41614E-14
 -1      1632 1.44806E-02-2.52443E-03-8.60771E-14
 -1      1633 1.43764E-02-2.48246E-03-8.58826E-14
 -1      1634 1.42006E-02-2.37010E-03-8.45513E-14
 -1      1635 1.46865E-02-2.60623E-03-8.64484E-14
 -1      1636 1.45834E-02-2.56548E-03-8.62633E-14
 -1      1637 1.44074E-02-2.45338E-03-8.49337E-14
 -1      1638 1.48967E-02-2.68788E-03-8.68290E-14
 -1      1639 1.47915E-02-2.64729E-03-8.66397E-14
 -1      1640 1.46154E-02-2.53572E-03-8.53088E-14
 -1      1641 1.51069E-02-2.76736E-03-8.72049E-14
 -1      1642 1.50018E-02-2.72792E-03-8.70141E-14
 -1      1643 1.48260E-02-2.61726E-03-8.56844E-14
 -1      1644 1.53158E-02-2.84436E-03-8.75821E-14
 -1      1645 1.52116E-02-2.80618E-03-8.73957E-14
 -1      1646 1.50364E-02-2.69679E-03-8.60592E-14
 -1      1647 1.55216E-02-2.91900E-03-8.79661E-14
 -1      1648 1.54191E-02-2.88194E-03-8.77730E-14
 -1      1649 1.52450E-02-2.77410E-03-8.64393E-14
 -1      1650 1.57227E-02-2.99203E-03-8.83390E-14
 -1      1651 1.56228E-02-2.95565E-03-8.81537E-14
 -1      1652 1.54501E-02-2.84940E-03-8.68160E-14
 -1      1653 1.59151E-02-3.06343E-03-8.87072E-14
 -1      1654 1.58195E-02-3.02769E-03-8.85228E-14
 -1      1655 1.56483E-02-2.92276E-03-8.71863E-14
 -1      1656 1.61056E-02-3.13716E-03-8.90940E-14
 -1      1657 1.60109E-02-3.10007E-03-8.89019E-14
 -1      1658 1.58409E-02-2.99594E-03-8.75598E-14
 -1      1659 1.62928E-02-3.21332E-03-8.94620E-14
 -1      1660 1.61995E-02-3.17488E-03-8.92808E-14
 -1      1661 1.60301E-02-3.07082E-03-8.79346E-14
 -1      1662 1.64794E-02-3.29265E-03-8.98274E-14
 -1      1663 1.63860E-02-3.25258E-03-8.96443E-14
 -1      1664 1.62164E-02-3.14793E-03-8.83013E-14
 -1      1665 1.66635E-02-3.37561E-03-9.02562E-14
 -1      1666 1.65686E-02-3.33427E-03-9.00898E-14
 -1      1667 1.63981E-02-3.22883E-03-8.87476E-14
 -1      1668 1.65772E-02-3.31278E-03-8.92734E-14
 -1      1669 1.36737E-02-1.12767E-03-5.74787E-14
 -1      1670 1.37641E-02-1.18386E-03-5.76290E-14
 -1      1671 1.33691E-02-9.92413E-04-5.69898E-14
 -1      1672 1.35260E-02-1.06354E-03-5.72857E-14
 -1      1673 1.29443E-02-8.15235E-04-5.61890E-14
 -1      1674 1.31463E-02-9.07320E-04-5.66172E-14
 -1      1675 1.24915E-02-5.74302E-04-5.50147E-14
 -1      1676 1.27089E-02-6.78932E-04-5.55348E-14
 -1      1677 1.20016E-02-3.33987E-04-5.36752E-14
 -1      1678 1.22344E-02-4.43004E-04-5.43121E-14
 -1      1679 1.15299E-02-1.36593E-04-5.22625E-14
 -1      1680 1.17414E-02-2.20774E-04-5.29158E-14
 -1      1681 1.10794E-02-4.35561E-06-5.08151E-14
 -1      1682 1.12822E-02-5.51320E-05-5.14858E-14
 -1      1683 1.06140E-02 4.16908E-05-4.92418E-14
 -1      1684 1.08285E-02 3.56037E-05-4.99691E-14
 -1      1685 1.01476E-02-2.01107E-05-4.78265E-14
 -1      1686 1.03576E-02 1.70054E-05-4.84632E-14
 -1      1687 9.72324E-03-1.43840E-04-4.65957E-14
 -1      1688 9.91838E-03-8.12325E-05-4.71107E-14
 -1      1689 9.30346E-03-2.91199E-04-4.56504E-14
 -1      1690 9.49089E-03-2.20599E-04-4.60664E-14
 -1      1691 8.96834E-03-4.26845E-04-4.49874E-14
 -1      1692 9.11041E-03-3.68226E-04-4.52509E-14
 -1      1693 8.71670E-03-5.44647E-04-4.45859E-14
 -1      1694 8.82140E-03-4.92106E-04-4.47397E-14
 -1      1695 8.58446E-03-6.51009E-04-4.44488E-14
 -1      1696 8.62854E-03-6.03304E-04-4.44778E-14
 -1      1697 8.59969E-03-7.63627E-04-4.45947E-14
 -1      1698 8.57377E-03-7.09815E-04-4.44918E-14
 -1      1699 8.77451E-03-9.23428E-04-4.50694E-14
 -1      1700 8.67298E-03-8.43829E-04-4.48294E-14
 -1      1701 9.10485E-03-1.15149E-03-4.57937E-14
 -1      1702 8.93406E-03-1.03567E-03-4.54253E-14
 -1      1703 9.55134E-03-1.46030E-03-4.67516E-14
 -1      1704 9.33379E-03-1.30703E-03-4.62828E-14
 -1      1705 1.00907E-02-1.85563E-03-4.79666E-14
 -1      1706 9.83089E-03-1.66251E-03-4.73718E-14
 -1      1707 1.07139E-02-2.26980E-03-4.93800E-14
 -1      1708 1.04441E-02-2.07815E-03-4.86818E-14
 -1      1709 1.12742E-02-2.55346E-03-5.09690E-14
 -1      1710 1.10268E-02-2.45365E-03-5.02462E-14
 -1      1711 1.17638E-02-2.56968E-03-5.23898E-14
 -1      1712 1.15434E-02-2.58695E-03-5.17685E-14
 -1      1713 1.22493E-02-2.39916E-03-5.37206E-14
 -1      1714 1.20235E-02-2.49808E-03-5.31136E-14
 -1      1715 1.27555E-02-2.10134E-03-5.50572E-14
 -1      1716 1.25176E-02-2.24899E-03-5.44558E-14
 -1      1717 1.31780E-02-1.83483E-03-5.60580E-14
 -1      1718 1.30028E-02-1.94922E-03-5.56359E-14
 -1      1719 1.35010E-02-1.60943E-03-5.69019E-14
 -1      1720 1.33565E-02-1.70313E-03-5.65689E-14
 -1      1721 1.37079E-02-1.47682E-03-5.73186E-14
 -1      1722 1.36172E-02-1.54174E-03-5.71084E-14
 -1      1723 1.35099E-02-1.52656E-03-5.75010E-14
 -1      1724 1.38342E-02-1.34549E-03-5.76616E-14
 -1      1725 1.37980E-02-1.39548E-03-5.75503E-14
 -1      1726 1.38258E-02-1.24515E-03-5.77596E-14
 -1      1727 1.38453E-02-1.28981E-03-5.77645E-14
 -1      1728 1.16034E-02-2.73732E-03-5.19153E-14
 -1      1729 1.17467E-02-2.71907E-03-5.30138E-14
 -1      1730 1.38036E-02-1.24442E-03-5.82388E-14
 -1      1731 1.27586E-02-8.30383E-04-5.63014E-14
 -1      1732 1.14488E-02-2.65761E-03-5.11581E-14
 -1      1733 1.36506E-02-2.17874E-03-8.43185E-14
 -1      1734 1.35787E-02-2.10849E-03-8.31961E-14
 -1      1735 1.35923E-02-1.15854E-03-5.79120E-14
 -1      1736 1.32178E-02-1.03688E-03-5.73394E-14
 -1      1737 1.22759E-02-5.59069E-04-5.49371E-14
 -1      1738 1.17932E-02-2.95906E-04-5.34697E-14
 -1      1739 1.13435E-02-8.31949E-05-5.19321E-14
 -1      1740 1.09217E-02 4.55368E-05-5.03110E-14
 -1      1741 1.05117E-02 5.24651E-05-4.86942E-14
 -1      1742 1.00812E-02-5.01538E-05-4.72073E-14
 -1      1743 9.66159E-03-2.10256E-04-4.59720E-14
 -1      1744 9.25307E-03-3.73287E-04-4.50497E-14
 -1      1745 8.91307E-03-5.05521E-04-4.44083E-14
 -1      1746 8.67145E-03-6.00352E-04-4.40563E-14
 -1      1747 8.56863E-03-6.72806E-04-4.39930E-14
 -1      1748 8.63513E-03-7.58189E-04-4.42682E-14
 -1      1749 8.87850E-03-9.03872E-04-4.48543E-14
 -1      1750 9.27962E-03-1.13912E-03-4.56923E-14
 -1      1751 9.78995E-03-1.48681E-03-4.67935E-14
 -1      1752 1.03914E-02-1.92900E-03-4.81211E-14
 -1      1753 1.09621E-02-2.37377E-03-4.96955E-14
 -1      1754 1.14222E-02-2.61089E-03-5.13643E-14
 -1      1755 1.18609E-02-2.56270E-03-5.28955E-14
 -1      1756 1.23196E-02-2.31532E-03-5.43649E-14
 -1      1757 1.27937E-02-1.98949E-03-5.56869E-14
 -1      1758 1.32111E-02-1.70648E-03-5.67810E-14
 -1      1759 1.38485E-02-1.31080E-03-5.82694E-14
 -1      1760 1.18542E-02-2.63671E-03-5.34951E-14
 -1      1761 2.85256E-04-1.76214E-04-4.69731E-17
 -1      1762 1.37404E-02-1.40379E-03-5.79379E-14
 -1      1763 3.32157E-04-1.16759E-04-1.22095E-16
 -1      1764 3.36261E-04-1.32962E-04-1.17080E-16
 -1      1765 3.42217E-04-1.51967E-04-1.10277E-16
 -1      1766 3.51784E-04-1.73979E-04-9.97602E-17
 -1      1767 4.58318E-04-1.88023E-04-1.70545E-16
 -1      1768 3.24553E-04-6.53539E-05-1.30389E-16
 -1      1769 3.25703E-04-7.66451E-05-1.29684E-16
 -1      1770 3.23062E-04-4.38667E-05-1.30145E-16
 -1      1771 3.23716E-04-5.43520E-05-1.30524E-16
 -1      1772 4.36494E-04-7.92544E-05-1.92432E-16
 -1      1773 3.22277E-04-2.37579E-05-1.27773E-16
 -1      1774 3.22609E-04-3.36663E-05-1.29237E-16
 -1      1775 4.34496E-04-5.12908E-05-1.91213E-16
 -1      1776 3.21983E-04-4.33395E-06-1.24250E-16
 -1      1777 3.22080E-04-1.39809E-05-1.26255E-16
 -1      1778 4.33475E-04-2.49095E-05-1.87445E-16
 -1      1779 3.22105E-04 1.49732E-05-1.19059E-16
 -1      1780 3.21991E-04 5.31612E-06-1.21864E-16
 -1      1781 4.33177E-04 7.57913E-07-1.81780E-16
 -1      1782 3.22673E-04 3.47120E-05-1.12865E-16
 -1      1783 3.22320E-04 2.47710E-05-1.16254E-16
 -1      1784 4.33534E-04 2.64540E-05-1.74136E-16
 -1      1785 3.23803E-04 5.51412E-05-1.04490E-16
 -1      1786 3.23139E-04 4.47825E-05-1.09017E-16
 -1      1787 4.34612E-04 5.26969E-05-1.64365E-16
 -1      1788 3.25860E-04 7.77864E-05-9.35666E-17
 -1      1789 3.24663E-04 6.62086E-05-9.96246E-17
 -1      1790 4.36670E-04 8.05670E-05-1.51856E-16
 -1      1791 3.29556E-04 1.03616E-04-7.85098E-17
 -1      1792 3.27399E-04 9.02731E-05-8.68310E-17
 -1      1793 4.40317E-04 1.11534E-04-1.35403E-16
 -1      1794 3.36643E-04 1.35100E-04-5.78422E-17
 -1      1795 3.32470E-04 1.18572E-04-6.93076E-17
 -1      1796 4.46828E-04 1.47304E-04-1.13082E-16
 -1      1797 3.52275E-04 1.77545E-04-2.89346E-17
 -1      1798 3.42803E-04 1.54705E-04-4.48182E-17
 -1      1799 4.59305E-04 1.91397E-04-8.27788E-17
 -1      1800 4.07695E-04 2.33651E-04-6.00377E-18
 -1      1801 3.78085E-04 2.02635E-04-2.00306E-17
 -1      1802 4.95866E-04 2.43975E-04-5.40204E-17
 -1      1803 5.58554E-04 3.02472E-04-2.83383E-17
 -1      1804 3.40042E-04-1.90883E-04-7.63414E-17
 -1      1805 8.53650E-04 4.07062E-04-1.26282E-16
 -1      1806 7.07206E-04 3.59311E-04-6.84267E-17
 -1      1807 6.73458E-04 3.28750E-04-8.49337E-17
 -1      1808 1.37812E-02-1.35591E-03-5.87572E-14
 -1      1809 1.36801E-02-1.39847E-03-5.85286E-14
 -1      1810 4.58985E-04-2.36684E-04-1.31053E-16
 -1      1811 8.07281E-04-3.74057E-04-3.41835E-16
 -1      1812 9.52559E-04-4.15228E-04-4.73281E-16
 -1      1813 1.09541E-03-4.49902E-04-6.27807E-16
 -1      1814 1.23709E-03-4.78785E-04-8.05616E-16
 -1      1815 1.00399E-03-3.97835E-04-5.70683E-16
 -1      1816 1.37752E-03-5.03257E-04-1.00586E-15
 -1      1817 1.51722E-03-5.23617E-04-1.22950E-15
 -1      1818 1.28970E-03-4.55772E-04-9.28307E-16
 -1      1819 1.65641E-03-5.40785E-04-1.47586E-15
 -1      1820 1.79527E-03-5.54998E-04-1.74448E-15
 -1      1821 1.57214E-03-4.96694E-04-1.37599E-15
 -1      1822 1.93401E-03-5.66865E-04-2.03556E-15
 -1      1823 2.07270E-03-5.76589E-04-2.34924E-15
 -1      1824 1.85279E-03-5.25214E-04-1.91355E-15
 -1      1825 2.21147E-03-5.84588E-04-2.68543E-15
 -1      1826 2.35034E-03-5.91034E-04-3.04310E-15
 -1      1827 2.13274E-03-5.44671E-04-2.53980E-15
 -1      1828 2.48942E-03-5.96222E-04-3.42321E-15
 -1      1829 2.62867E-03-6.00293E-04-3.82585E-15
 -1      1830 2.41265E-03-5.57518E-04-3.25423E-15
 -1      1831 2.76818E-03-6.03459E-04-4.25005E-15
 -1      1832 2.90789E-03-6.05832E-04-4.69488E-15
 -1      1833 2.69294E-03-5.65588E-04-4.05562E-15
 -1      1834 3.04787E-03-6.07566E-04-5.16133E-15
 -1      1835 3.18807E-03-6.08747E-04-5.64840E-15
 -1      1836 2.97382E-03-5.70252E-04-4.94288E-15
 -1      1837 3.32853E-03-6.09483E-04-6.15606E-15
 -1      1838 3.46919E-03-6.09841E-04-6.68385E-15
 -1      1839 3.25536E-03-5.72530E-04-5.91359E-15
 -1      1840 3.61009E-03-6.09895E-04-7.23106E-15
 -1      1841 3.75119E-03-6.09696E-04-7.79804E-15
 -1      1842 3.53759E-03-5.73167E-04-6.96474E-15
 -1      1843 3.89249E-03-6.09292E-04-8.38340E-15
 -1      1844 4.03396E-03-6.08718E-04-8.98783E-15
 -1      1845 3.82047E-03-5.72695E-04-8.09364E-15
 -1      1846 4.17563E-03-6.08005E-04-9.61030E-15
 -1      1847 4.31745E-03-6.07178E-04-1.02518E-14
 -1      1848 4.10395E-03-5.71484E-04-9.29825E-15
 -1      1849 4.45943E-03-6.06249E-04-1.09117E-14
 -1      1850 4.60155E-03-6.05237E-04-1.15887E-14
 -1      1851 4.38798E-03-5.69771E-04-1.05769E-14
 -1      1852 4.74383E-03-6.04141E-04-1.22840E-14
 -1      1853 4.88624E-03-6.02974E-04-1.29976E-14
 -1      1854 4.67251E-03-5.67694E-04-1.19279E-14
 -1      1855 5.02879E-03-6.01724E-04-1.37282E-14
 -1      1856 5.17148E-03-6.00399E-04-1.44768E-14
 -1      1857 4.95752E-03-5.65310E-04-1.33497E-14
 -1      1858 5.31432E-03-5.98977E-04-1.52441E-14
 -1      1859 5.45732E-03-5.97462E-04-1.60280E-14
 -1      1860 5.24300E-03-5.62612E-04-1.48430E-14
 -1      1861 5.60048E-03-5.95823E-04-1.68320E-14
 -1      1862 5.74383E-03-5.94062E-04-1.76544E-14
 -1      1863 5.52899E-03-5.59533E-04-1.64098E-14
 -1      1864 5.88738E-03-5.92134E-04-1.84946E-14
 -1      1865 6.03118E-03-5.90043E-04-1.93540E-14
 -1      1866 5.81555E-03-5.55958E-04-1.80499E-14
 -1      1867 6.17524E-03-5.87730E-04-2.02324E-14
 -1      1868 6.31964E-03-5.85203E-04-2.11307E-14
 -1      1869 6.10282E-03-5.51720E-04-1.97661E-14
 -1      1870 6.46438E-03-5.82385E-04-2.20470E-14
 -1      1871 6.60961E-03-5.79293E-04-2.29825E-14
 -1      1872 6.39096E-03-5.46609E-04-2.15577E-14
 -1      1873 6.76260E-03-5.75654E-04-2.39850E-14
 -1      1874 6.91637E-03-5.71650E-04-2.50077E-14
 -1      1875 6.68748E-03-5.40204E-04-2.34724E-14
 -1      1876 7.06346E-03-5.67399E-04-2.60006E-14
 -1      1877 7.21160E-03-5.62793E-04-2.70109E-14
 -1      1878 6.98553E-03-5.32373E-04-2.54658E-14
 -1      1879 7.36057E-03-5.57772E-04-2.80389E-14
 -1      1880 7.51105E-03-5.52467E-04-2.90832E-14
 -1      1881 7.27816E-03-5.23233E-04-2.74833E-14
 -1      1882 7.66260E-03-5.46962E-04-3.01422E-14
 -1      1883 7.81628E-03-5.41496E-04-3.12172E-14
 -1      1884 7.57296E-03-5.12872E-04-2.95665E-14
 -1      1885 7.97128E-03-5.36524E-04-3.23066E-14
 -1      1886 8.12920E-03-5.32516E-04-3.34077E-14
 -1      1887 7.87012E-03-5.02494E-04-3.17112E-14
 -1      1888 8.28873E-03-5.30752E-04-3.45220E-14
 -1      1889 8.45208E-03-5.32245E-04-3.56468E-14
 -1      1890 8.16953E-03-4.95421E-04-3.39105E-14
 -1      1891 8.61758E-03-5.39833E-04-3.67822E-14
 -1      1892 8.78796E-03-5.55903E-04-3.79281E-14
 -1      1893 8.47089E-03-4.99396E-04-3.61579E-14
 -1      1894 8.96216E-03-5.85551E-04-3.90847E-14
 -1      1895 9.14295E-03-6.34861E-04-4.02529E-14
 -1      1896 8.77522E-03-5.30627E-04-3.84465E-14
 -1      1897 9.33262E-03-7.10905E-04-4.14308E-14
 -1      1898 9.53207E-03-8.26671E-04-4.26207E-14
 -1      1899 9.09011E-03-6.21178E-04-4.07766E-14
 -1      1900 9.72847E-03-9.68005E-04-4.37048E-14
 -1      1901 9.93536E-03-1.16296E-03-4.48002E-14
 -1      1902 9.42061E-03-8.14632E-04-4.30330E-14
 -1      1903 1.37716E-02-1.26322E-03-5.88106E-14
 -1      1904 1.38337E-02-1.28272E-03-5.89431E-14
 -1      1905 1.26312E-02-1.98801E-03-5.72721E-14
 -1      1906 1.28640E-02-1.81538E-03-5.85458E-14
 -1      1907 1.31328E-02-1.66891E-03-5.98581E-14
 -1      1908 1.33591E-02-1.59289E-03-6.12744E-14
 -1      1909 1.35743E-02-1.57220E-03-6.26911E-14
 -1      1910 1.37750E-02-1.58969E-03-6.41028E-14
 -1      1911 1.35499E-02-1.51693E-03-6.18453E-14
 -1      1912 1.39671E-02-1.63793E-03-6.55124E-14
 -1      1913 1.41515E-02-1.70745E-03-6.69209E-14
 -1      1914 1.39048E-02-1.56579E-03-6.46667E-14
 -1      1915 1.43289E-02-1.79136E-03-6.83253E-14
 -1      1916 1.45019E-02-1.88533E-03-6.97291E-14
 -1      1917 1.42324E-02-1.70885E-03-6.74757E-14
 -1      1918 1.46693E-02-1.98520E-03-7.11328E-14
 -1      1919 1.48335E-02-2.08909E-03-7.25379E-14
 -1      1920 1.45481E-02-1.89725E-03-7.02796E-14
 -1      1921 1.49935E-02-2.19498E-03-7.39469E-14
 -1      1922 1.51510E-02-2.30197E-03-7.53573E-14
 -1      1923 1.48567E-02-2.10481E-03-7.30893E-14
 -1      1924 1.53053E-02-2.40923E-03-7.67681E-14
 -1      1925 1.54578E-02-2.51628E-03-7.81801E-14
 -1      1926 1.51595E-02-2.31870E-03-7.59086E-14
 -1      1927 1.56080E-02-2.62284E-03-7.95939E-14
 -1      1928 1.57568E-02-2.72861E-03-8.10106E-14
 -1      1929 1.54574E-02-2.53290E-03-7.87300E-14
 -1      1930 1.59040E-02-2.83352E-03-8.24321E-14
 -1      1931 1.60503E-02-2.93735E-03-8.38533E-14
 -1      1932 1.57512E-02-2.74465E-03-8.15655E-14
 -1      1933 1.61954E-02-3.04009E-03-8.52790E-14
 -1      1934 1.63398E-02-3.14157E-03-8.67071E-14
 -1      1935 1.60417E-02-2.95259E-03-8.44107E-14
 -1      1936 1.64907E-02-3.24937E-03-8.82900E-14
 -1      1937 1.35849E-03 5.12048E-04-5.08098E-16
 -1      1938 1.21844E-03 4.86994E-04-3.80081E-16
 -1      1939 1.63640E-03 5.50917E-04-8.25213E-16
 -1      1940 1.49770E-03 5.33261E-04-6.56633E-16
 -1      1941 1.41122E-03 4.87287E-04-6.37552E-16
 -1      1942 1.91306E-03 5.78051E-04-1.22444E-15
 -1      1943 1.77481E-03 5.65772E-04-1.01435E-15
 -1      1944 1.69190E-03 5.22802E-04-9.84740E-16
 -1      1945 2.18968E-03 5.96604E-04-1.70750E-15
 -1      1946 2.05134E-03 5.88264E-04-1.45534E-15
 -1      1947 1.97134E-03 5.47431E-04-1.41372E-15
 -1      1948 2.46689E-03 6.08897E-04-2.27482E-15
 -1      1949 2.32820E-03 6.03428E-04-1.98039E-15
 -1      1950 2.25049E-03 5.64096E-04-1.92618E-15
 -1      1951 2.74503E-03 6.16661E-04-2.92828E-15
 -1      1952 2.60584E-03 6.13264E-04-2.59080E-15
 -1      1953 2.52993E-03 5.74971E-04-2.52279E-15
 -1      1954 3.02421E-03 6.21194E-04-3.66757E-15
 -1      1955 2.88450E-03 6.19269E-04-3.28734E-15
 -1      1956 2.80994E-03 5.81678E-04-3.20478E-15
 -1      1957 3.30446E-03 6.23463E-04-4.49251E-15
 -1      1958 3.16422E-03 6.22565E-04-4.06981E-15
 -1      1959 3.09069E-03 5.85433E-04-3.97218E-15
 -1      1960 3.58571E-03 6.24179E-04-5.40106E-15
 -1      1961 3.44497E-03 6.23980E-04-4.93599E-15
 -1      1962 3.37220E-03 5.87136E-04-4.82356E-15
 -1      1963 3.86786E-03 6.23857E-04-6.39164E-15
 -1      1964 3.72668E-03 6.24123E-04-5.88649E-15
 -1      1965 3.65446E-03 5.87448E-04-5.75836E-15
 -1      1966 4.15082E-03 6.22862E-04-7.46233E-15
 -1      1967 4.00925E-03 6.23426E-04-6.91686E-15
 -1      1968 3.93740E-03 5.86840E-04-6.77434E-15
 -1      1969 4.43448E-03 6.21447E-04-8.61231E-15
 -1      1970 4.29257E-03 6.22194E-04-8.02718E-15
 -1      1971 4.22097E-03 5.85644E-04-7.86945E-15
 -1      1972 4.71876E-03 6.19788E-04-9.84273E-15
 -1      1973 4.57655E-03 6.20639E-04-9.21795E-15
 -1      1974 4.50509E-03 5.84089E-04-9.04482E-15
 -1      1975 5.00359E-03 6.18010E-04-1.11484E-14
 -1      1976 4.86111E-03 6.18907E-04-1.04863E-14
 -1      1977 4.78971E-03 5.82333E-04-1.02977E-14
 -1      1978 5.28891E-03 6.16216E-04-1.25317E-14
 -1      1979 5.14619E-03 6.17109E-04-1.18307E-14
 -1      1980 5.07478E-03 5.80491E-04-1.16273E-14
 -1      1981 5.57469E-03 6.14507E-04-1.39927E-14
 -1      1982 5.43175E-03 6.15344E-04-1.32521E-14
 -1      1983 5.36026E-03 5.78657E-04-1.30340E-14
 -1      1984 5.86089E-03 6.13008E-04-1.55324E-14
 -1      1985 5.71774E-03 6.13724E-04-1.47529E-14
 -1      1986 5.64612E-03 5.76936E-04-1.45180E-14
 -1      1987 6.14747E-03 6.11888E-04-1.71518E-14
 -1      1988 6.00414E-03 6.12391E-04-1.63327E-14
 -1      1989 5.93236E-03 5.75458E-04-1.60817E-14
 -1      1990 6.43436E-03 6.11374E-04-1.88475E-14
 -1      1991 6.29088E-03 6.11543E-04-1.79898E-14
 -1      1992 6.21892E-03 5.74404E-04-1.77234E-14
 -1      1993 6.72142E-03 6.11758E-04-2.06194E-14
 -1      1994 6.57788E-03 6.11439E-04-1.97237E-14
 -1      1995 6.50578E-03 5.74018E-04-1.94413E-14
 -1      1996 7.00846E-03 6.13383E-04-2.24648E-14
 -1      1997 6.86497E-03 6.12401E-04-2.15319E-14
 -1      1998 6.79284E-03 5.74612E-04-2.12329E-14
 -1      1999 7.29512E-03 6.16587E-04-2.43774E-14
 -1      2000 7.15187E-03 6.14777E-04-2.34138E-14
 -1      2001 7.07994E-03 5.76544E-04-2.30967E-14
 -1      2002 7.58089E-03 6.21611E-04-2.63588E-14
 -1      2003 7.43818E-03 6.18874E-04-2.53605E-14
 -1      2004 7.36683E-03 5.80161E-04-2.50289E-14
 -1      2005 7.86507E-03 6.28416E-04-2.83981E-14
 -1      2006 7.72326E-03 6.24817E-04-2.73708E-14
 -1      2007 7.65310E-03 5.85685E-04-2.70272E-14
 -1      2008 8.14672E-03 6.36437E-04-3.04974E-14
 -1      2009 8.00631E-03 6.32341E-04-2.94409E-14
 -1      2010 7.93817E-03 5.93022E-04-2.90845E-14
 -1      2011 8.42476E-03 6.44274E-04-3.26599E-14
 -1      2012 8.28630E-03 6.40503E-04-3.15715E-14
 -1      2013 8.22126E-03 6.01489E-04-3.12030E-14
 -1      2014 8.69803E-03 6.49371E-04-3.48819E-14
 -1      2015 8.56210E-03 6.47362E-04-3.37623E-14
 -1      2016 8.50141E-03 6.09486E-04-3.33815E-14
 -1      2017 8.96554E-03 6.47828E-04-3.71613E-14
 -1      2018 8.83258E-03 6.49704E-04-3.60144E-14
 -1      2019 8.77758E-03 6.14168E-04-3.56179E-14
 -1      2020 9.22670E-03 6.34475E-04-3.94986E-14
 -1      2021 9.09693E-03 6.42961E-04-3.83226E-14
 -1      2022 9.04881E-03 6.11273E-04-3.79131E-14
 -1      2023 9.48164E-03 6.03368E-04-4.18895E-14
 -1      2024 9.35488E-03 6.21488E-04-4.06882E-14
 -1      2025 9.31454E-03 5.95259E-04-4.02661E-14
 -1      2026 9.73145E-03 5.48728E-04-4.43276E-14
 -1      2027 9.60703E-03 5.79287E-04-4.31018E-14
 -1      2028 9.57490E-03 5.59914E-04-4.26710E-14
 -1      2029 9.97809E-03 4.66139E-04-4.68163E-14
 -1      2030 9.85493E-03 5.11106E-04-4.55669E-14
 -1      2031 9.83097E-03 4.99433E-04-4.51224E-14
 -1      2032 1.02242E-02 3.53617E-04-4.93534E-14
 -1      2033 1.01010E-02 4.13633E-04-4.80787E-14
 -1      2034 1.00847E-02 4.09710E-04-4.76256E-14
 -1      2035 1.04724E-02 2.12125E-04-5.19388E-14
 -1      2036 1.03478E-02 2.86337E-04-5.06386E-14
 -1      2037 1.03385E-02 2.89403E-04-5.01745E-14
 -1      2038 1.07251E-02 4.53144E-05-5.45680E-14
 -1      2039 1.05980E-02 1.31601E-04-5.32502E-14
 -1      2040 1.05950E-02 1.40300E-04-5.27709E-14
 -1      2041 1.09835E-02-1.41401E-04-5.72409E-14
 -1      2042 1.08535E-02-4.58988E-05-5.59003E-14
 -1      2043 1.08558E-02-3.31794E-05-5.54113E-14
 -1      2044 1.12482E-02-3.42057E-04-5.99483E-14
 -1      2045 1.11151E-02-2.40323E-04-5.85894E-14
 -1      2046 1.11220E-02-2.25118E-04-5.80906E-14
 -1      2047 1.15187E-02-5.51200E-04-6.26842E-14
 -1      2048 1.13828E-02-4.45849E-04-6.13141E-14
 -1      2049 1.13934E-02-4.29395E-04-6.08042E-14
 -1      2050 1.17942E-02-7.64556E-04-6.54472E-14
 -1      2051 1.16560E-02-6.57556E-04-6.40615E-14
 -1      2052 1.16695E-02-6.40706E-04-6.35453E-14
 -1      2053 1.20735E-02-9.79234E-04-6.82288E-14
 -1      2054 1.19335E-02-8.71858E-04-6.68358E-14
 -1      2055 1.19493E-02-8.55104E-04-6.63109E-14
 -1      2056 1.23555E-02-1.19361E-03-7.10287E-14
 -1      2057 1.22143E-02-1.08653E-03-6.96274E-14
 -1      2058 1.22317E-02-1.07008E-03-6.90950E-14
 -1      2059 1.26393E-02-1.40703E-03-7.38312E-14
 -1      2060 1.24973E-02-1.30046E-03-7.24297E-14
 -1      2061 1.25157E-02-1.28434E-03-7.18939E-14
 -1      2062 1.29240E-02-1.61944E-03-7.66404E-14
 -1      2063 1.27816E-02-1.51336E-03-7.52360E-14
 -1      2064 1.28007E-02-1.49749E-03-7.46984E-14
 -1      2065 1.32093E-02-1.83111E-03-7.94547E-14
 -1      2066 1.30666E-02-1.72535E-03-7.80484E-14
 -1      2067 1.30861E-02-1.70963E-03-7.75079E-14
 -1      2068 1.34654E-02-2.02265E-03-8.20293E-14
 -1      2069 1.33226E-02-1.91708E-03-8.06216E-14
 -1      2070 1.33423E-02-1.90142E-03-8.00850E-14
 -1      2071 1.35690E-02-2.07321E-03-8.24208E-14
 -1      2072 1.41288E-02-2.30011E-03-8.34210E-14
 -1      2073 1.40248E-02-2.25787E-03-8.32281E-14
 -1      2074 1.39210E-02-2.21557E-03-8.30356E-14
 -1      2075 1.38174E-02-2.17328E-03-8.28453E-14
 -1      2076 1.38489E-02-2.14562E-03-8.19070E-14
 -1      2077 1.36725E-02-2.11542E-03-8.26095E-14
 -1      2078 1.43342E-02-2.38282E-03-8.37926E-14
 -1      2079 1.42313E-02-2.34156E-03-8.36068E-14
 -1      2080 1.40551E-02-2.22979E-03-8.22836E-14
 -1      2081 1.45444E-02-2.46604E-03-8.41702E-14
 -1      2082 1.44392E-02-2.42459E-03-8.39812E-14
 -1      2083 1.42627E-02-2.31362E-03-8.26553E-14
 -1      2084 1.47554E-02-2.54776E-03-8.45423E-14
 -1      2085 1.46499E-02-2.50713E-03-8.43571E-14
 -1      2086 1.44734E-02-2.39725E-03-8.30291E-14
 -1      2087 1.49659E-02-2.62752E-03-8.49196E-14
 -1      2088 1.48608E-02-2.58791E-03-8.47300E-14
 -1      2089 1.46847E-02-2.47933E-03-8.34030E-14
 -1      2090 1.51742E-02-2.70513E-03-8.52965E-14
 -1      2091 1.50705E-02-2.66658E-03-8.51073E-14
 -1      2092 1.48954E-02-2.55936E-03-8.37768E-14
 -1      2093 1.53785E-02-2.78079E-03-8.56706E-14
 -1      2094 1.52770E-02-2.74314E-03-8.54838E-14
 -1      2095 1.51035E-02-2.63710E-03-8.41518E-14
 -1      2096 1.55738E-02-2.85396E-03-8.60370E-14
 -1      2097 1.54769E-02-2.81743E-03-8.58550E-14
 -1      2098 1.53052E-02-2.71214E-03-8.45237E-14
 -1      2099 1.57666E-02-2.92825E-03-8.64120E-14
 -1      2100 1.56710E-02-2.89101E-03-8.62249E-14
 -1      2101 1.55009E-02-2.78589E-03-8.48930E-14
 -1      2102 1.59544E-02-3.00368E-03-8.67774E-14
 -1      2103 1.58610E-02-2.96572E-03-8.65936E-14
 -1      2104 1.56921E-02-2.86018E-03-8.52605E-14
 -1      2105 1.61397E-02-3.08138E-03-8.71439E-14
 -1      2106 1.60471E-02-3.04219E-03-8.69602E-14
 -1      2107 1.58783E-02-2.93579E-03-8.56248E-14
 -1      2108 1.10808E-03 4.68582E-04-2.84196E-16
 -1      2109 9.65696E-04 4.34213E-04-1.92256E-16
 -1      2110 9.33455E-04 4.04764E-04-2.11907E-16
 -1      2111 1.15828E-03 4.47867E-04-3.86261E-16
 -1      2112 1.30913E-02-1.07620E-03-5.77866E-14
 -1      2113 1.33064E-02-1.14591E-03-5.81682E-14
 -1      2114 1.20718E-02-5.34423E-04-5.49292E-14
 -1      2115 1.23031E-02-6.73945E-04-5.56386E-14
 -1      2116 1.12061E-02-2.52186E-03-5.02581E-14
 -1      2117 1.14871E-02-2.65908E-03-5.14733E-14
 -1      2118 1.35896E-02-1.44048E-03-5.83189E-14
 -1      2119 1.34775E-02-1.49130E-03-5.81127E-14
 -1      2120 1.36612E-02-1.39281E-03-5.91387E-14
 -1      2121 3.27206E-04-8.89468E-05-1.28153E-16
 -1      2122 3.29316E-04-1.02122E-04-1.25645E-16
 -1      2123 4.46346E-04-1.45087E-04-1.83881E-16
 -1      2124 4.40036E-04-1.09915E-04-1.90494E-16
 -1      2125 1.21929E-02-2.36369E-03-5.50615E-14
 -1      2126 1.23971E-02-2.18290E-03-5.61158E-14
 -1      2127 1.16179E-02-2.50606E-04-5.32839E-14
 -1      2128 1.18313E-02-3.79230E-04-5.40469E-14
 -1      2129 1.12066E-02-3.64190E-05-5.16406E-14
 -1      2130 1.13915E-02-1.28009E-04-5.24170E-14
 -1      2131 1.08184E-02 8.00928E-05-4.98774E-14
 -1      2132 1.09916E-02 4.18234E-05-5.07189E-14
 -1      2133 1.04079E-02 4.96527E-05-4.80041E-14
 -1      2134 1.05853E-02 8.37472E-05-4.87740E-14
 -1      2135 1.00421E-02-7.71851E-05-4.65833E-14
 -1      2136 1.02264E-02-2.59307E-06-4.72913E-14
 -1      2137 1.03186E-02 3.51733E-05-4.73711E-14
 -1      2138 9.58942E-03-2.73186E-04-4.52437E-14
 -1      2139 9.78727E-03-1.84488E-04-4.57643E-14
 -1      2140 9.18917E-03-4.35852E-04-4.43855E-14
 -1      2141 9.37233E-03-3.62157E-04-4.47795E-14
 -1      2142 8.85404E-03-5.54120E-04-4.37382E-14
 -1      2143 8.99931E-03-5.07070E-04-4.39813E-14
 -1      2144 8.62834E-03-6.22227E-04-4.33626E-14
 -1      2145 8.71766E-03-5.98142E-04-4.34675E-14
 -1      2146 8.56243E-03-6.67184E-04-4.35018E-14
 -1      2147 8.57191E-03-6.49757E-04-4.34591E-14
 -1      2148 8.68838E-03-7.21672E-04-4.37390E-14
 -1      2149 8.60664E-03-6.89674E-04-4.35083E-14
 -1      2150 8.99675E-03-8.62630E-04-4.44845E-14
 -1      2151 8.82790E-03-7.89359E-04-4.41342E-14
 -1      2152 9.45413E-03-1.13012E-03-4.55370E-14
 -1      2153 9.22229E-03-9.95564E-04-4.50553E-14
 -1      2154 1.00097E-02-1.51788E-03-4.67645E-14
 -1      2155 9.74500E-03-1.31804E-03-4.61514E-14
 -1      2156 1.05816E-02-1.98357E-03-4.81543E-14
 -1      2157 1.02978E-02-1.74459E-03-4.74468E-14
 -1      2158 1.09892E-02-2.33766E-03-4.93893E-14
 -1      2159 1.16490E-02-2.67194E-03-5.22844E-14
 -1      2160 1.24391E-02-2.17930E-03-5.53090E-14
 -1      2161 1.22297E-02-2.34874E-03-5.45635E-14
 -1      2162 1.32471E-02-1.61866E-03-5.75169E-14
 -1      2163 1.30662E-02-1.73468E-03-5.70032E-14
 -1      2164 1.38576E-02-1.31033E-03-5.89564E-14
 -1      2165 1.38347E-02-1.32781E-03-5.88563E-14
 -1      2166 1.38057E-02-1.34301E-03-5.94446E-14
 -1      2167 1.25563E-02-8.22675E-04-5.64291E-14
 -1      2168 1.27874E-02-9.47402E-04-5.70919E-14
 -1      2169 1.35171E-02-1.20602E-03-5.85129E-14
 -1      2170 1.36637E-02-1.23805E-03-5.87108E-14
 -1      2171 9.76017E-03-1.14074E-03-4.51142E-14
 -1      2172 1.01299E-02-1.37171E-03-4.58051E-14
 -1      2173 1.26118E-02-2.01040E-03-5.66594E-14
 -1      2174 1.29163E-02-1.05296E-03-5.79130E-14
 -1      2175 6.07919E-04-2.98086E-04-2.09454E-16
 -1      2176 6.63644E-04-2.92368E-04-2.74317E-16
 -1      2177 1.38588E-02-1.31114E-03-5.95280E-14
 -1      2178 1.37207E-02-1.28584E-03-5.94111E-14
 -1      2179 1.03539E-02-1.64550E-03-4.68670E-14
 -1      2180 1.07229E-02-2.04414E-03-4.82258E-14
 -1      2181 1.31119E-02-1.65957E-03-5.91254E-14
 -1      2182 1.63369E-02-3.16351E-03-8.74210E-14
 -1      2183 1.36005E-02-2.04518E-03-8.14840E-14
 -1      2184 1.18495E-02-2.59085E-03-5.30765E-14
 -1      2185 1.18160E-02-2.63521E-03-5.31948E-14
 -1      2186 1.62822E-02-3.14278E-03-8.74146E-14
 -1      2187 1.61937E-02-3.10130E-03-8.71479E-14
 -1      2188 1.60241E-02-2.99401E-03-8.58156E-14
 -1      2189 1.61316E-02-3.03419E-03-8.58303E-14
 -1      2190 1.34142E-02-1.22412E-03-5.89609E-14
 -1      2191 1.19030E-02-4.79588E-04-5.47430E-14
 -1      2192 1.23741E-02-7.82148E-04-5.64212E-14
 -1      2193 1.33690E-02-1.52817E-03-5.83348E-14
 -1      2194 9.64263E-03-1.16880E-03-4.55070E-14
 -1      2195 9.13138E-03-8.68065E-04-4.43305E-14
 -1      2196 8.76695E-03-7.02695E-04-4.33719E-14
 -1      2197 8.57875E-03-6.51272E-04-4.29750E-14
 -1      2198 8.59087E-03-6.23633E-04-4.28725E-14
 -1      2199 8.77743E-03-5.78350E-04-4.30438E-14
 -1      2200 9.09636E-03-4.79637E-04-4.37132E-14
 -1      2201 9.92645E-03-1.24137E-04-4.58461E-14
 -1      2202 1.06819E-02 9.58221E-05-4.91764E-14
 -1      2203 1.10657E-02 8.62664E-06-5.11997E-14
 -1      2204 1.20281E-02-2.50405E-03-5.43020E-14
 -1      2205 1.14660E-02-1.96876E-04-5.29900E-14
 -1      2206 9.48827E-03-3.23683E-04-4.45754E-14
 -1      2207 1.20289E-02-2.48879E-03-5.38122E-14
 -1      2208 1.28594E-02-1.87649E-03-5.64291E-14
 -1      2209 1.26420E-02-2.03356E-03-5.58440E-14
 -1      2210 1.29381E-02-1.78652E-03-5.71628E-14
 -1      2211 5.47761E-04-5.52779E-05-2.70386E-16
 -1      2212 5.48801E-04-7.19889E-05-2.72216E-16
 -1      2213 5.50223E-04-8.93077E-05-2.73124E-16
 -1      2214 5.52091E-04-1.07282E-04-2.73083E-16
 -1      2215 6.65263E-04-9.54592E-05-3.69374E-16
 -1      2216 5.46375E-04 8.85404E-06-2.56061E-16
 -1      2217 5.46355E-04-6.97721E-06-2.60696E-16
 -1      2218 5.47133E-04 4.08527E-05-2.45070E-16
 -1      2219 5.46631E-04 2.47843E-05-2.50979E-16
 -1      2220 6.61304E-04 1.99242E-05-3.44370E-16
 -1      2221 5.48966E-04 7.34634E-05-2.30949E-16
 -1      2222 5.47899E-04 5.69762E-05-2.38592E-16
 -1      2223 6.62635E-04 5.77658E-05-3.29096E-16
 -1      2224 5.52368E-04 1.08928E-04-2.12870E-16
 -1      2225 5.50439E-04 9.08563E-05-2.22478E-16
 -1      2226 6.65507E-04 9.72214E-05-3.09553E-16
 -1      2227 5.58252E-04 1.48263E-04-1.89031E-16
 -1      2228 5.54935E-04 1.28036E-04-2.01892E-16
 -1      2229 6.70613E-04 1.39980E-04-2.84698E-16
 -1      2230 5.68622E-04 1.93843E-04-1.57711E-16
 -1      2231 5.62722E-04 1.70147E-04-1.74557E-16
 -1      2232 6.79258E-04 1.87525E-04-2.52294E-16
 -1      2233 5.88060E-04 2.49458E-04-1.15346E-16
 -1      2234 5.76919E-04 2.20199E-04-1.38195E-16
 -1      2235 6.94262E-04 2.42448E-04-2.10064E-16
 -1      2236 6.42193E-04 3.01257E-04-9.60332E-17
 -1      2237 6.14466E-04 2.73758E-04-1.07783E-16
 -1      2238 7.31569E-04 2.97752E-04-1.77050E-16
 -1      2239 7.88646E-04 3.49641E-04-1.57494E-16
 -1      2240 9.15229E-04-3.46309E-04-5.13153E-16
 -1      2241 1.05933E-03-3.79613E-04-6.71053E-16
 -1      2242 1.38530E-02-1.33188E-03-6.02846E-14
 -1      2243 1.38734E-02-1.33332E-03-6.03015E-14
 -1      2244 5.88553E-04-2.37949E-04-2.48187E-16
 -1      2245 7.81349E-04-3.04788E-04-3.92400E-16
 -1      2246 8.40797E-04-2.93548E-04-4.71330E-16
 -1      2247 5.78982E-04-2.10119E-04-2.58447E-16
 -1      2248 1.20260E-03-4.07979E-04-8.51126E-16
 -1      2249 1.34541E-03-4.31839E-04-1.05325E-15
 -1      2250 1.11702E-03-3.60418E-04-7.74215E-16
 -1      2251 1.48760E-03-4.52045E-04-1.27750E-15
 -1      2252 1.62939E-03-4.68868E-04-1.52433E-15
 -1      2253 1.40335E-03-4.07155E-04-1.18033E-15
 -1      2254 1.77082E-03-4.82983E-04-1.79307E-15
 -1      2255 1.91201E-03-4.94605E-04-2.08358E-15
 -1      2256 1.68850E-03-4.40361E-04-1.67366E-15
 -1      2257 2.05305E-03-5.04228E-04-2.39571E-15
 -1      2258 2.19399E-03-5.12029E-04-2.73029E-15
 -1      2259 1.97270E-03-4.63372E-04-2.25400E-15
 -1      2260 2.33490E-03-5.18367E-04-3.08653E-15
 -1      2261 2.47581E-03-5.23386E-04-3.46442E-15
 -1      2262 2.25636E-03-4.78830E-04-2.92072E-15
 -1      2263 2.61678E-03-5.27349E-04-3.86402E-15
 -1      2264 2.75779E-03-5.30371E-04-4.28498E-15
 -1      2265 2.53980E-03-4.88770E-04-3.67450E-15
 -1      2266 2.89892E-03-5.32642E-04-4.72715E-15
 -1      2267 3.04012E-03-5.34253E-04-5.18997E-15
 -1      2268 2.82325E-03-4.94744E-04-4.51341E-15
 -1      2269 3.18146E-03-5.35342E-04-5.67271E-15
 -1      2270 3.32289E-03-5.35977E-04-6.17665E-15
 -1      2271 3.10686E-03-4.97916E-04-5.43511E-15
 -1      2272 3.46445E-03-5.36254E-04-6.70045E-15
 -1      2273 3.60612E-03-5.36226E-04-7.24385E-15
 -1      2274 3.39072E-03-4.99149E-04-6.43862E-15
 -1      2275 3.74791E-03-5.35958E-04-7.80605E-15
 -1      2276 3.88981E-03-5.35488E-04-8.38788E-15
 -1      2277 3.67485E-03-4.99068E-04-7.52133E-15
 -1      2278 4.03182E-03-5.34857E-04-8.98787E-15
 -1      2279 4.17393E-03-5.34092E-04-9.60637E-15
 -1      2280 3.95927E-03-4.98111E-04-8.68015E-15
 -1      2281 4.31615E-03-5.33216E-04-1.02451E-14
 -1      2282 4.45846E-03-5.32248E-04-1.09005E-14
 -1      2283 4.24397E-03-4.96572E-04-9.91394E-15
 -1      2284 4.60088E-03-5.31195E-04-1.15731E-14
 -1      2285 4.74338E-03-5.30070E-04-1.22648E-14
 -1      2286 4.52895E-03-4.94634E-04-1.12208E-14
 -1      2287 4.88597E-03-5.28869E-04-1.29744E-14
 -1      2288 5.02866E-03-5.27597E-04-1.37009E-14
 -1      2289 4.81418E-03-4.92389E-04-1.26001E-14
 -1      2290 5.17144E-03-5.26244E-04-1.44450E-14
 -1      2291 5.31431E-03-5.24809E-04-1.52084E-14
 -1      2292 5.09967E-03-4.89862E-04-1.40505E-14
 -1      2293 5.45728E-03-5.23271E-04-1.59898E-14
 -1      2294 5.60035E-03-5.21630E-04-1.67897E-14
 -1      2295 5.38540E-03-4.87024E-04-1.55725E-14
 -1      2296 5.74352E-03-5.19854E-04-1.76081E-14
 -1      2297 5.88682E-03-5.17940E-04-1.84451E-14
 -1      2298 5.67138E-03-4.83798E-04-1.71681E-14
 -1      2299 6.03021E-03-5.15848E-04-1.93017E-14
 -1      2300 6.17376E-03-5.13574E-04-2.01772E-14
 -1      2301 5.95758E-03-4.80069E-04-1.88396E-14
 -1      2302 6.31741E-03-5.11073E-04-2.10718E-14
 -1      2303 6.46124E-03-5.08341E-04-2.19845E-14
 -1      2304 6.24396E-03-4.75697E-04-2.05879E-14
 -1      2305 6.61235E-03-5.05171E-04-2.29634E-14
 -1      2306 6.76370E-03-5.01687E-04-2.39634E-14
 -1      2307 6.53756E-03-4.70389E-04-2.24573E-14
 -1      2308 6.90787E-03-4.98051E-04-2.49350E-14
 -1      2309 7.05226E-03-4.94099E-04-2.59236E-14
 -1      2310 6.83095E-03-4.64124E-04-2.44056E-14
 -1      2311 7.19657E-03-4.89866E-04-2.69304E-14
 -1      2312 7.34107E-03-4.85346E-04-2.79544E-14
 -1      2313 7.11646E-03-4.57101E-04-2.63802E-14
 -1      2314 7.48522E-03-4.80730E-04-2.89933E-14
 -1      2315 7.62945E-03-4.76008E-04-3.00476E-14
 -1      2316 7.40025E-03-4.49513E-04-2.84223E-14
 -1      2317 7.77286E-03-4.71700E-04-3.11192E-14
 -1      2318 7.91609E-03-4.67805E-04-3.22039E-14
 -1      2319 7.68057E-03-4.42371E-04-3.05283E-14
 -1      2320 8.05771E-03-4.65480E-04-3.33016E-14
 -1      2321 8.19871E-03-4.64791E-04-3.44120E-14
 -1      2322 7.95448E-03-4.38009E-04-3.26938E-14
 -1      2323 8.33705E-03-4.67985E-04-3.55331E-14
 -1      2324 8.47438E-03-4.75438E-04-3.66656E-14
 -1      2325 8.21755E-03-4.41147E-04-3.49099E-14
 -1      2326 8.60822E-03-4.90937E-04-3.78091E-14
 -1      2327 8.74168E-03-5.15928E-04-3.89622E-14
 -1      2328 8.46423E-03-4.60401E-04-3.71716E-14
 -1      2329 8.87276E-03-5.55876E-04-4.01241E-14
 -1      2330 9.00754E-03-6.16441E-04-4.12976E-14
 -1      2331 8.69041E-03-5.09868E-04-3.94731E-14
 -1      2332 1.34870E-02-1.95935E-03-8.03148E-14
 -1      2333 1.38636E-02-1.50766E-03-6.38390E-14
 -1      2334 1.40113E-02-1.56511E-03-6.52437E-14
 -1      2335 1.41558E-02-1.63944E-03-6.66481E-14
 -1      2336 1.43010E-02-1.72606E-03-6.80488E-14
 -1      2337 1.40959E-02-1.57687E-03-6.58209E-14
 -1      2338 1.44454E-02-1.82023E-03-6.94498E-14
 -1      2339 1.45913E-02-1.92037E-03-7.08501E-14
 -1      2340 1.43553E-02-1.74923E-03-6.86178E-14
 -1      2341 1.47367E-02-2.02351E-03-7.22535E-14
 -1      2342 1.48830E-02-2.12906E-03-7.36610E-14
 -1      2343 1.46257E-02-1.94649E-03-7.14206E-14
 -1      2344 1.50289E-02-2.23544E-03-7.50688E-14
 -1      2345 1.51751E-02-2.34238E-03-7.64768E-14
 -1      2346 1.49044E-02-2.15492E-03-7.42292E-14
 -1      2347 1.53206E-02-2.44912E-03-7.78887E-14
 -1      2348 1.54662E-02-2.55552E-03-7.93038E-14
 -1      2349 1.51879E-02-2.36696E-03-7.70480E-14
 -1      2350 1.56112E-02-2.66124E-03-8.07179E-14
 -1      2351 1.57559E-02-2.76614E-03-8.21381E-14
 -1      2352 1.54737E-02-2.57866E-03-7.98748E-14
 -1      2353 1.58720E-02-2.84937E-03-8.32705E-14
 -1      2354 1.60160E-02-2.95247E-03-8.46937E-14
 -1      2355 1.59626E-02-2.93230E-03-8.46858E-14
 -1      2356 1.57321E-02-2.76712E-03-8.24199E-14
 -1      2357 2.03107E-03 5.16001E-04-1.60779E-15
 -1      2358 1.89035E-03 5.05990E-04-1.36815E-15
 -1      2359 1.74945E-03 4.93780E-04-1.14966E-15
 -1      2360 1.60830E-03 4.79169E-04-9.50994E-16
 -1      2361 1.80873E-03 4.64085E-04-1.31923E-15
 -1      2362 1.46679E-03 4.61561E-04-7.72711E-16
 -1      2363 1.32477E-03 4.40709E-04-6.14553E-16
 -1      2364 1.52453E-03 4.35117E-04-9.13400E-16
 -1      2365 2.31232E-03 5.30894E-04-2.14953E-15
 -1      2366 2.17172E-03 5.24248E-04-1.86831E-15
 -1      2367 2.09212E-03 4.83962E-04-1.80670E-15
 -1      2368 2.59365E-03 5.40462E-04-2.77521E-15
 -1      2369 2.45297E-03 5.36254E-04-2.45165E-15
 -1      2370 2.37514E-03 4.97153E-04-2.37748E-15
 -1      2371 2.87531E-03 5.46216E-04-3.48513E-15
 -1      2372 2.73444E-03 5.43748E-04-3.11956E-15
 -1      2373 2.65809E-03 5.05493E-04-3.03154E-15
 -1      2374 3.15744E-03 5.49285E-04-4.27960E-15
 -1      2375 3.01632E-03 5.48035E-04-3.87165E-15
 -1      2376 2.94119E-03 5.10370E-04-3.76911E-15
 -1      2377 3.44010E-03 5.50504E-04-5.15813E-15
 -1      2378 3.29871E-03 5.50087E-04-4.70878E-15
 -1      2379 3.22454E-03 5.12823E-04-4.59104E-15
 -1      2380 3.72327E-03 5.50478E-04-6.11899E-15
 -1      2381 3.58163E-03 5.50618E-04-5.62823E-15
 -1      2382 3.50822E-03 5.13619E-04-5.49636E-15
 -1      2383 4.00695E-03 5.49639E-04-7.16002E-15
 -1      2384 3.86506E-03 5.50140E-04-6.62944E-15
 -1      2385 3.79223E-03 5.13311E-04-6.48244E-15
 -1      2386 4.29108E-03 5.48289E-04-8.28012E-15
 -1      2387 4.14896E-03 5.49014E-04-7.71052E-15
 -1      2388 4.07656E-03 5.12288E-04-7.54873E-15
 -1      2389 4.57563E-03 5.46633E-04-9.47988E-15
 -1      2390 4.43331E-03 5.47489E-04-8.86987E-15
 -1      2391 4.36121E-03 5.10823E-04-8.69362E-15
 -1      2392 4.86056E-03 5.44810E-04-1.07554E-14
 -1      2393 4.71806E-03 5.45735E-04-1.01080E-14
 -1      2394 4.64614E-03 5.09096E-04-9.91622E-15
 -1      2395 5.14585E-03 5.42926E-04-1.21085E-14
 -1      2396 5.00316E-03 5.43870E-04-1.14222E-14
 -1      2397 4.93135E-03 5.07233E-04-1.12157E-14
 -1      2398 5.43146E-03 5.41072E-04-1.35379E-14
 -1      2399 5.28862E-03 5.41990E-04-1.28138E-14
 -1      2400 5.21682E-03 5.05326E-04-1.25920E-14
 -1      2401 5.71741E-03 5.39349E-04-1.50457E-14
 -1      2402 5.57440E-03 5.40188E-04-1.42817E-14
 -1      2403 5.50255E-03 5.03463E-04-1.40448E-14
 -1      2404 6.00367E-03 5.37895E-04-1.66327E-14
 -1      2405 5.86050E-03 5.38580E-04-1.58290E-14
 -1      2406 5.78856E-03 5.01744E-04-1.55752E-14
 -1      2407 6.29026E-03 5.36899E-04-1.82964E-14
 -1      2408 6.14693E-03 5.37328E-04-1.74562E-14
 -1      2409 6.07487E-03 5.00308E-04-1.71860E-14
 -1      2410 6.57716E-03 5.36617E-04-2.00366E-14
 -1      2411 6.43368E-03 5.36653E-04-1.91571E-14
 -1      2412 6.36152E-03 4.99348E-04-1.88727E-14
 -1      2413 6.86435E-03 5.37376E-04-2.18478E-14
 -1      2414 6.72073E-03 5.36848E-04-2.09327E-14
 -1      2415 6.64855E-03 4.99131E-04-2.06327E-14
 -1      2416 7.15175E-03 5.39546E-04-2.37303E-14
 -1      2417 7.00805E-03 5.38265E-04-2.27803E-14
 -1      2418 6.93603E-03 4.99991E-04-2.24642E-14
 -1      2419 7.43921E-03 5.43478E-04-2.56828E-14
 -1      2420 7.29551E-03 5.41277E-04-2.46992E-14
 -1      2421 7.22398E-03 5.02307E-04-2.43674E-14
 -1      2422 7.72646E-03 5.49379E-04-2.76964E-14
 -1      2423 7.58292E-03 5.46181E-04-2.66817E-14
 -1      2424 7.51238E-03 5.06435E-04-2.63374E-14
 -1      2425 8.01304E-03 5.57108E-04-2.97733E-14
 -1      2426 7.86991E-03 5.53044E-04-2.87271E-14
 -1      2427 7.80110E-03 5.12578E-04-2.83700E-14
 -1      2428 8.29831E-03 5.65881E-04-3.19091E-14
 -1      2429 8.15593E-03 5.61443E-04-3.08327E-14
 -1      2430 8.08980E-03 5.20563E-04-3.04641E-14
 -1      2431 8.58136E-03 5.73917E-04-3.41034E-14
 -1      2432 8.44021E-03 5.70143E-04-3.29994E-14
 -1      2433 8.37792E-03 5.29530E-04-3.26160E-14
 -1      2434 8.86114E-03 5.78094E-04-3.63559E-14
 -1      2435 8.72176E-03 5.76730E-04-3.52224E-14
 -1      2436 8.66454E-03 5.37538E-04-3.48268E-14
 -1      2437 9.13663E-03 5.73778E-04-3.86668E-14
 -1      2438 8.99949E-03 5.77333E-04-3.75052E-14
 -1      2439 8.94849E-03 5.41188E-04-3.70962E-14
 -1      2440 9.40717E-03 5.55017E-04-4.10349E-14
 -1      2441 9.27251E-03 5.66601E-04-3.98440E-14
 -1      2442 9.22856E-03 5.35438E-04-3.94228E-14
 -1      2443 9.67283E-03 5.15275E-04-4.34520E-14
 -1      2444 9.54051E-03 5.38162E-04-4.22384E-14
 -1      2445 9.50392E-03 5.13849E-04-4.18034E-14
 -1      2446 9.93472E-03 4.48678E-04-4.59182E-14
 -1      2447 9.80405E-03 4.85630E-04-4.46780E-14
 -1      2448 9.77461E-03 4.69485E-04-4.42339E-14
 -1      2449 1.01949E-02 3.51460E-04-4.84337E-14
 -1      2450 1.00648E-02 4.04015E-04-4.71700E-14
 -1      2451 1.00419E-02 3.96390E-04-4.67137E-14
 -1      2452 1.04558E-02 2.23013E-04-5.09949E-14
 -1      2453 1.03250E-02 2.91044E-04-4.97084E-14
 -1      2454 1.03080E-02 2.91210E-04-4.92421E-14
 -1      2455 1.07198E-02 6.60678E-05-5.36049E-14
 -1      2456 1.05872E-02 1.47823E-04-5.22941E-14
 -1      2457 1.05756E-02 1.54225E-04-5.18171E-14
 -1      2458 1.09882E-02-1.14102E-04-5.62528E-14
 -1      2459 1.08534E-02-2.14978E-05-5.49230E-14
 -1      2460 1.08468E-02-1.07463E-05-5.44368E-14
 -1      2461 1.12617E-02-3.11064E-04-5.89397E-14
 -1      2462 1.11243E-02-2.10881E-04-5.75926E-14
 -1      2463 1.11227E-02-1.97516E-04-5.70950E-14
 -1      2464 1.15395E-02-5.18599E-04-6.16592E-14
 -1      2465 1.14001E-02-4.13849E-04-6.02945E-14
 -1      2466 1.14031E-02-3.99175E-04-5.97894E-14
 -1      2467 1.18209E-02-7.31642E-04-6.44060E-14
 -1      2468 1.16799E-02-6.24680E-04-6.30309E-14
 -1      2469 1.16871E-02-6.09510E-04-6.25142E-14
 -1      2470 1.21048E-02-9.46657E-04-6.71729E-14
 -1      2471 1.19627E-02-8.39058E-04-6.57874E-14
 -1      2472 1.19735E-02-8.23804E-04-6.52647E-14
 -1      2473 1.23900E-02-1.16157E-03-6.99623E-14
 -1      2474 1.22473E-02-1.05420E-03-6.85670E-14
 -1      2475 1.22611E-02-1.03901E-03-6.80380E-14
 -1      2476 1.26760E-02-1.37544E-03-7.27601E-14
 -1      2477 1.25330E-02-1.26866E-03-7.13594E-14
 -1      2478 1.25491E-02-1.25353E-03-7.08266E-14
 -1      2479 1.29622E-02-1.58813E-03-7.55641E-14
 -1      2480 1.28191E-02-1.48193E-03-7.41605E-14
 -1      2481 1.28368E-02-1.46678E-03-7.36246E-14
 -1      2482 1.32483E-02-1.79989E-03-7.83758E-14
 -1      2483 1.31053E-02-1.69410E-03-7.69692E-14
 -1      2484 1.31240E-02-1.67886E-03-7.64295E-14
 -1      2485 1.41909E-02-2.24513E-03-8.15165E-14
 -1      2486 1.40859E-02-2.20263E-03-8.13299E-14
 -1      2487 1.39830E-02-2.16068E-03-8.11483E-14
 -1      2488 1.38805E-02-2.11869E-03-8.09658E-14
 -1      2489 1.39106E-02-2.09219E-03-8.00146E-14
 -1      2490 1.37766E-02-2.07595E-03-8.07782E-14
 -1      2491 1.36730E-02-2.03329E-03-8.05885E-14
 -1      2492 1.37040E-02-2.00666E-03-7.96471E-14
 -1      2493 1.25493E-02-2.07122E-03-5.60480E-14
 -1      2494 1.13331E-02-1.50024E-04-5.27496E-14
 -1      2495 1.15187E-02-2.72973E-04-5.36193E-14
 -1      2496 1.44022E-02-2.32937E-03-8.18905E-14
 -1      2497 1.42964E-02-2.28743E-03-8.17049E-14
 -1      2498 1.41190E-02-2.17749E-03-8.03816E-14
 -1      2499 1.46141E-02-2.41193E-03-8.22635E-14
 -1      2500 1.45082E-02-2.37091E-03-8.20767E-14
 -1      2501 1.43310E-02-2.26248E-03-8.07543E-14
 -1      2502 1.48251E-02-2.49219E-03-8.26362E-14
 -1      2503 1.47198E-02-2.45237E-03-8.24492E-14
 -1      2504 1.45436E-02-2.34553E-03-8.11259E-14
 -1      2505 1.50330E-02-2.56985E-03-8.30106E-14
 -1      2506 1.49295E-02-2.53132E-03-8.28224E-14
 -1      2507 1.47550E-02-2.42587E-03-8.14971E-14
 -1      2508 1.52322E-02-2.64390E-03-8.33734E-14
 -1      2509 1.51333E-02-2.60709E-03-8.31922E-14
 -1      2510 1.49611E-02-2.50249E-03-8.18645E-14
 -1      2511 1.54282E-02-2.71777E-03-8.37468E-14
 -1      2512 1.53311E-02-2.68090E-03-8.35603E-14
 -1      2513 1.51612E-02-2.57641E-03-8.22317E-14
 -1      2514 1.56175E-02-2.79163E-03-8.41104E-14
 -1      2515 1.55236E-02-2.75456E-03-8.39283E-14
 -1      2516 1.53556E-02-2.64934E-03-8.26005E-14
 -1      2517 1.58019E-02-2.86716E-03-8.44747E-14
 -1      2518 1.57101E-02-2.82907E-03-8.42899E-14
 -1      2519 1.55427E-02-2.72247E-03-8.29649E-14
 -1      2520 1.21864E-02-2.37109E-03-5.47520E-14
 -1      2521 9.49883E-03-9.77389E-04-4.45102E-14
 -1      2522 1.17240E-02-4.09625E-04-5.45006E-14
 -1      2523 1.19369E-02-5.59283E-04-5.53869E-14
 -1      2524 1.15823E-02-3.48061E-04-5.42568E-14
 -1      2525 1.36786E-02-1.31348E-03-5.99989E-14
 -1      2526 1.37786E-02-1.32097E-03-6.01017E-14
 -1      2527 1.02019E-02-1.57908E-03-4.67967E-14
 -1      2528 1.05619E-02 1.01443E-04-4.84535E-14
 -1      2529 1.07449E-02 9.78256E-05-4.95506E-14
 -1      2530 1.37094E-02-1.37963E-03-6.00016E-14
 -1      2531 1.36302E-02-1.40401E-03-5.97939E-14
 -1      2532 1.35344E-02-1.48214E-03-6.10414E-14
 -1      2533 1.37012E-02-1.47937E-03-6.24529E-14
 -1      2534 1.33198E-02-1.24276E-03-5.94576E-14
 -1      2535 1.35135E-02-1.28764E-03-5.98089E-14
 -1      2536 5.46569E-04-2.28909E-05-2.64627E-16
 -1      2537 5.47028E-04-3.89256E-05-2.67893E-16
 -1      2538 6.62485E-04-5.57942E-05-3.64753E-16
 -1      2539 6.61252E-04-1.76975E-05-3.56201E-16
 -1      2540 1.35063E-02-1.94403E-03-7.97726E-14
 -1      2541 1.21981E-02-7.38689E-04-5.65089E-14
 -1      2542 1.24275E-02-8.76167E-04-5.73052E-14
 -1      2543 9.37336E-03-3.68137E-04-4.37911E-14
 -1      2544 9.55983E-03-2.83602E-04-4.42466E-14
 -1      2545 1.09754E-02 3.44041E-05-5.09003E-14
 -1      2546 1.11454E-02-4.48100E-05-5.18220E-14
 -1      2547 1.12194E-02-1.08209E-04-5.24450E-14
 -1      2548 1.02251E-02 1.69634E-05-4.66878E-14
 -1      2549 1.03671E-02 6.72766E-05-4.73934E-14
 -1      2550 9.34978E-03-8.31067E-04-4.34908E-14
 -1      2551 9.24861E-03-8.39394E-04-4.38778E-14
 -1      2552 9.03601E-03-7.40394E-04-4.33160E-14
 -1      2553 9.20115E-03-7.13061E-04-4.24130E-14
 -1      2554 9.80804E-03-1.70072E-04-4.50461E-14
 -1      2555 1.00245E-02-6.79819E-05-4.58551E-14
 -1      2556 9.00903E-03-5.03468E-04-4.29698E-14
 -1      2557 9.18298E-03-4.44257E-04-4.33679E-14
 -1      2558 8.71202E-03-5.78016E-04-4.22992E-14
 -1      2559 8.83871E-03-5.51825E-04-4.25663E-14
 -1      2560 8.55529E-03-6.09564E-04-4.22484E-14
 -1      2561 8.59908E-03-6.00619E-04-4.21514E-14
 -1      2562 8.59756E-03-6.12487E-04-4.22581E-14
 -1      2563 8.55287E-03-6.14159E-04-4.22531E-14
 -1      2564 8.53508E-03-5.81769E-04-4.15372E-14
 -1      2565 8.86073E-03-6.78826E-04-4.29253E-14
 -1      2566 8.72011E-03-6.38494E-04-4.25365E-14
 -1      2567 8.94845E-03-6.64258E-04-4.24795E-14
 -1      2568 1.38373E-02-1.34497E-03-6.01939E-14
 -1      2569 1.37819E-02-1.35704E-03-6.00967E-14
 -1      2570 1.37659E-02-1.37846E-03-6.07517E-14
 -1      2571 1.34701E-02-1.46741E-03-5.92478E-14
 -1      2572 1.32572E-02-1.57067E-03-5.86522E-14
 -1      2573 1.27593E-02-1.04458E-03-5.83082E-14
 -1      2574 1.30367E-02-1.15956E-03-5.90112E-14
 -1      2575 1.06075E-02-1.86688E-03-4.75480E-14
 -1      2576 1.27854E-02-1.87408E-03-5.72001E-14
 -1      2577 6.70197E-04-1.37931E-04-3.69496E-16
 -1      2578 5.54572E-04-1.26184E-04-2.71918E-16
 -1      2579 5.57787E-04-1.46156E-04-2.69356E-16
 -1      2580 9.02672E-04 3.77884E-04-2.25446E-16
 -1      2581 8.73532E-04 3.51498E-04-2.36627E-16
 -1      2582 1.01631E-03 4.01721E-04-3.06341E-16
 -1      2583 1.38364E-02-1.35229E-03-6.08725E-14
 -1      2584 1.38778E-02-1.35513E-03-6.09524E-14
 -1      2585 5.64285E-04-1.64918E-04-2.68408E-16
 -1      2586 5.69726E-04-1.87984E-04-2.62797E-16
 -1      2587 6.97839E-04-2.27709E-04-3.61676E-16
 -1      2588 6.80697E-04-1.81631E-04-3.66989E-16
 -1      2589 1.00891E-02-1.98593E-05-4.58778E-14
 -1      2590 8.95053E-03-6.22387E-04-4.17471E-14
 -1      2591 1.38347E-02-1.45923E-03-6.30355E-14
 -1      2592 1.34337E-02-1.87414E-03-7.86472E-14
 -1      2593 1.25906E-02-9.92972E-04-5.83949E-14
 -1      2594 1.04494E-02 9.68807E-05-4.77603E-14
 -1      2595 1.59094E-02-2.91255E-03-8.46777E-14
 -1      2596 1.08347E-02 7.61797E-05-5.01621E-14
 -1      2597 1.09124E-02 3.82446E-05-5.07769E-14
 -1      2598 1.07100E-02 1.00377E-04-4.94296E-14
 -1      2599 1.57408E-02-2.80420E-03-8.33492E-14
 -1      2600 1.33621E-02-1.52978E-03-5.99982E-14
 -1      2601 1.35452E-02-1.45829E-03-6.06090E-14
 -1      2602 1.22699E-03 4.32436E-04-5.01552E-16
 -1      2603 1.11421E-03 4.15370E-04-3.94595E-16
 -1      2604 1.08611E-03 3.89642E-04-4.06305E-16
 -1      2605 1.28332E-03 4.09666E-04-6.17453E-16
 -1      2606 1.36055E-02-1.32853E-03-6.04970E-14
 -1      2607 1.29752E-02-1.74070E-03-5.77782E-14
 -1      2608 1.31234E-02-1.64903E-03-5.86945E-14
 -1      2609 8.64767E-03-5.93257E-04-4.18172E-14
 -1      2610 1.31752E-02-1.23175E-03-5.98538E-14
 -1      2611 1.20267E-02-6.57477E-04-5.62627E-14
 -1      2612 9.53670E-03-2.51812E-04-4.34731E-14
 -1      2613 9.67148E-03-2.16493E-04-4.42562E-14
 -1      2614 9.75645E-03-1.50038E-04-4.42624E-14
 -1      2615 8.63152E-03-5.72845E-04-4.16782E-14
 -1      2616 8.90850E-03-5.13033E-04-4.22248E-14
 -1      2617 9.25535E-03-3.95873E-04-4.30450E-14
 -1      2618 7.80167E-04 7.73093E-05-4.25360E-16
 -1      2619 7.78902E-04 5.54549E-05-4.36175E-16
 -1      2620 7.78053E-04 3.35504E-05-4.45824E-16
 -1      2621 7.77630E-04 1.18936E-05-4.54416E-16
 -1      2622 8.96458E-04 4.96661E-05-5.60004E-16
 -1      2623 7.91535E-04 1.73078E-04-3.66474E-16
 -1      2624 7.87519E-04 1.47673E-04-3.83984E-16
 -1      2625 8.03389E-04 2.28278E-04-3.24420E-16
 -1      2626 7.96792E-04 1.99880E-04-3.46945E-16
 -1      2627 9.14841E-04 2.07756E-04-4.58333E-16
 -1      2628 8.45813E-04 3.26066E-04-2.45734E-16
 -1      2629 8.19634E-04 3.01485E-04-2.53459E-16
 -1      2630 9.59995E-04 3.50342E-04-3.27741E-16
 -1      2631 1.03371E-03-3.14166E-04-6.98687E-16
 -1      2632 1.17696E-03-3.40266E-04-8.80548E-16
 -1      2633 7.99440E-04-2.55153E-04-4.52397E-16
 -1      2634 9.30748E-04-2.90722E-04-5.82813E-16
 -1      2635 9.92844E-04-2.75398E-04-6.72476E-16
 -1      2636 7.89268E-04-2.29196E-04-4.56612E-16
 -1      2637 1.38369E-02-2.02400E-03-7.88799E-14
 -1      2638 1.37341E-02-1.98109E-03-7.87000E-14
 -1      2639 1.32016E-03-3.62676E-04-1.08420E-15
 -1      2640 1.46339E-03-3.81644E-04-1.30940E-15
 -1      2641 1.23842E-03-3.18999E-04-9.89917E-16
 -1      2642 1.60644E-03-3.97710E-04-1.55602E-15
 -1      2643 1.74938E-03-4.11104E-04-1.82447E-15
 -1      2644 1.52499E-03-3.55310E-04-1.44054E-15
 -1      2645 1.89215E-03-4.22294E-04-2.11432E-15
 -1      2646 2.03481E-03-4.31467E-04-2.42513E-15
 -1      2647 1.81168E-03-3.81181E-04-1.97642E-15
 -1      2648 2.17737E-03-4.39000E-04-2.75790E-15
 -1      2649 2.31984E-03-4.45043E-04-3.11209E-15
 -1      2650 2.09814E-03-3.98997E-04-2.59746E-15
 -1      2651 2.46226E-03-4.49887E-04-3.48731E-15
 -1      2652 2.60464E-03-4.53653E-04-3.88438E-15
 -1      2653 2.38432E-03-4.10774E-04-3.30328E-15
 -1      2654 2.74700E-03-4.56558E-04-4.30226E-15
 -1      2655 2.88935E-03-4.58698E-04-4.74108E-15
 -1      2656 2.67027E-03-4.18129E-04-4.09402E-15
 -1      2657 3.03171E-03-4.60233E-04-5.20036E-15
 -1      2658 3.17407E-03-4.61235E-04-5.67943E-15
 -1      2659 2.95606E-03-4.22315E-04-4.96807E-15
 -1      2660 3.31647E-03-4.61822E-04-6.17972E-15
 -1      2661 3.45888E-03-4.62047E-04-6.70004E-15
 -1      2662 3.24175E-03-4.24283E-04-5.92404E-15
 -1      2663 3.60133E-03-4.61992E-04-7.23915E-15
 -1      2664 3.74380E-03-4.61695E-04-7.79780E-15
 -1      2665 3.52739E-03-4.24729E-04-6.95964E-15
 -1      2666 3.88632E-03-4.61213E-04-8.37531E-15
 -1      2667 4.02887E-03-4.60572E-04-8.97097E-15
 -1      2668 3.81301E-03-4.24158E-04-8.07255E-15
 -1      2669 4.17146E-03-4.59808E-04-9.58589E-15
 -1      2670 4.31408E-03-4.58937E-04-1.02198E-14
 -1      2671 4.09863E-03-4.22914E-04-9.26123E-15
 -1      2672 4.45674E-03-4.57980E-04-1.08713E-14
 -1      2673 4.59943E-03-4.56946E-04-1.15404E-14
 -1      2674 4.38427E-03-4.21223E-04-1.05233E-14
 -1      2675 4.74216E-03-4.55843E-04-1.22282E-14
 -1      2676 4.88492E-03-4.54676E-04-1.29341E-14
 -1      2677 4.66993E-03-4.19218E-04-1.18590E-14
 -1      2678 5.02772E-03-4.53442E-04-1.36572E-14
 -1      2679 5.17055E-03-4.52141E-04-1.43984E-14
 -1      2680 4.95562E-03-4.16963E-04-1.32660E-14
 -1      2681 5.31340E-03-4.50765E-04-1.51577E-14
 -1      2682 5.45627E-03-4.49311E-04-1.59356E-14
 -1      2683 5.24130E-03-4.14469E-04-1.47456E-14
 -1      2684 5.59916E-03-4.47762E-04-1.67315E-14
 -1      2685 5.74206E-03-4.46115E-04-1.75466E-14
 -1      2686 5.52692E-03-4.11708E-04-1.62979E-14
 -1      2687 5.88495E-03-4.44351E-04-1.83810E-14
 -1      2688 6.02783E-03-4.42463E-04-1.92338E-14
 -1      2689 5.81241E-03-4.08633E-04-1.79246E-14
 -1      2690 6.17065E-03-4.40436E-04-2.01066E-14
 -1      2691 6.31341E-03-4.38259E-04-2.09979E-14
 -1      2692 6.09758E-03-4.05189E-04-1.96281E-14
 -1      2693 6.46314E-03-4.35808E-04-2.19543E-14
 -1      2694 6.61273E-03-4.33171E-04-2.29308E-14
 -1      2695 6.38925E-03-4.01249E-04-2.14534E-14
 -1      2696 6.75486E-03-4.30523E-04-2.38796E-14
 -1      2697 6.89669E-03-4.27713E-04-2.48470E-14
 -1      2698 6.67972E-03-3.96945E-04-2.33565E-14
 -1      2699 7.03791E-03-4.24856E-04-2.58326E-14
 -1      2700 7.17856E-03-4.21905E-04-2.68351E-14
 -1      2701 6.96103E-03-3.92618E-04-2.52871E-14
 -1      2702 7.31812E-03-4.19127E-04-2.78546E-14
 -1      2703 7.45662E-03-4.16439E-04-2.88894E-14
 -1      2704 7.23881E-03-3.88713E-04-2.72877E-14
 -1      2705 7.59327E-03-4.14400E-04-2.99397E-14
 -1      2706 7.72806E-03-4.12850E-04-3.10056E-14
 -1      2707 7.51065E-03-3.86363E-04-2.93542E-14
 -1      2708 7.85981E-03-4.12863E-04-3.20869E-14
 -1      2709 7.98848E-03-4.14122E-04-3.31812E-14
 -1      2710 7.77280E-03-3.87694E-04-3.14807E-14
 -1      2711 8.11235E-03-4.18549E-04-3.42872E-14
 -1      2712 8.23146E-03-4.25516E-04-3.54043E-14
 -1      2713 8.01956E-03-3.96337E-04-3.36648E-14
 -1      2714 8.34342E-03-4.38230E-04-3.65340E-14
 -1      2715 8.44875E-03-4.55442E-04-3.76742E-14
 -1      2716 8.24281E-03-4.17935E-04-3.58984E-14
 -1      2717 8.54438E-03-4.82215E-04-3.88230E-14
 -1      2718 8.63225E-03-5.15372E-04-3.99815E-14
 -1      2719 8.43176E-03-4.60159E-04-3.81733E-14
 -1      2720 1.40474E-02-1.52326E-03-6.49943E-14
 -1      2721 1.41583E-02-1.60074E-03-6.63936E-14
 -1      2722 2.43893E-03 4.62852E-04-2.60989E-15
 -1      2723 2.29673E-03 4.57723E-04-2.30007E-15
 -1      2724 1.42722E-02-1.68455E-03-6.77822E-14
 -1      2725 1.43932E-02-1.77712E-03-6.91792E-14
 -1      2726 1.45183E-02-1.87359E-03-7.05776E-14
 -1      2727 1.46482E-02-1.97416E-03-7.19791E-14
 -1      2728 1.44169E-02-1.80720E-03-6.97374E-14
 -1      2729 1.47809E-02-2.07649E-03-7.33830E-14
 -1      2730 1.49167E-02-2.18064E-03-7.47888E-14
 -1      2731 1.46621E-02-2.00267E-03-7.25364E-14
 -1      2732 1.50541E-02-2.28528E-03-7.61952E-14
 -1      2733 1.51934E-02-2.39045E-03-7.76071E-14
 -1      2734 1.49238E-02-2.20668E-03-7.53467E-14
 -1      2735 1.53336E-02-2.49541E-03-7.90200E-14
 -1      2736 1.54748E-02-2.60016E-03-8.04345E-14
 -1      2737 1.51959E-02-2.41409E-03-7.81642E-14
 -1      2738 1.55509E-02-2.66114E-03-8.13265E-14
 -1      2739 1.56649E-02-2.74405E-03-8.24559E-14
 -1      2740 1.55593E-02-2.69982E-03-8.22536E-14
 -1      2741 1.54094E-02-2.57900E-03-8.04709E-14
 -1      2742 1.86965E-03 4.33662E-04-1.49425E-15
 -1      2743 1.72705E-03 4.21979E-04-1.26686E-15
 -1      2744 2.15446E-03 4.51276E-04-2.01101E-15
 -1      2745 2.01211E-03 4.43370E-04-1.74223E-15
 -1      2746 1.93195E-03 4.02624E-04-1.67485E-15
 -1      2747 2.21793E-03 4.18059E-04-2.21977E-15
 -1      2748 1.58429E-03 4.07876E-04-1.05933E-15
 -1      2749 1.44131E-03 3.91139E-04-8.72010E-16
 -1      2750 1.64563E-03 3.79902E-04-1.21095E-15
 -1      2751 2.72326E-03 4.70050E-04-3.29217E-15
 -1      2752 2.58111E-03 4.66924E-04-2.94109E-15
 -1      2753 2.50363E-03 4.28097E-04-2.84728E-15
 -1      2754 3.00760E-03 4.74132E-04-4.05748E-15
 -1      2755 2.86543E-03 4.72423E-04-3.66412E-15
 -1      2756 2.78915E-03 4.34226E-04-3.55728E-15
 -1      2757 3.29203E-03 4.76045E-04-4.90669E-15
 -1      2758 3.14980E-03 4.75317E-04-4.47181E-15
 -1      2759 3.07455E-03 4.37581E-04-4.35020E-15
 -1      2760 3.57660E-03 4.76484E-04-5.83804E-15
 -1      2761 3.43430E-03 4.76418E-04-5.36217E-15
 -1      2762 3.35992E-03 4.39015E-04-5.22587E-15
 -1      2763 3.86135E-03 4.75950E-04-6.84878E-15
 -1      2764 3.71896E-03 4.76317E-04-6.33284E-15
 -1      2765 3.64529E-03 4.39153E-04-6.18242E-15
 -1      2766 4.14628E-03 4.74793E-04-7.93969E-15
 -1      2767 4.00380E-03 4.75434E-04-7.38447E-15
 -1      2768 3.93068E-03 4.38440E-04-7.21828E-15
 -1      2769 4.43138E-03 4.73251E-04-9.10911E-15
 -1      2770 4.28881E-03 4.74060E-04-8.51511E-15
 -1      2771 4.21612E-03 4.37187E-04-8.33384E-15
 -1      2772 4.71665E-03 4.71487E-04-1.03551E-14
 -1      2773 4.57399E-03 4.72390E-04-9.72208E-15
 -1      2774 4.50161E-03 4.35603E-04-9.52728E-15
 -1      2775 5.00210E-03 4.69608E-04-1.16787E-14
 -1      2776 4.85935E-03 4.70557E-04-1.10076E-14
 -1      2777 4.78717E-03 4.33828E-04-1.07969E-14
 -1      2778 5.28772E-03 4.67697E-04-1.30780E-14
 -1      2779 5.14489E-03 4.68652E-04-1.23685E-14
 -1      2780 5.07281E-03 4.31953E-04-1.21443E-14
 -1      2781 5.57355E-03 4.65833E-04-1.45548E-14
 -1      2782 5.43061E-03 4.66755E-04-1.38075E-14
 -1      2783 5.35856E-03 4.30048E-04-1.35679E-14
 -1      2784 5.85961E-03 4.64113E-04-1.61089E-14
 -1      2785 5.71655E-03 4.64949E-04-1.53219E-14
 -1      2786 5.64446E-03 4.28184E-04-1.50677E-14
 -1      2787 6.14597E-03 4.62672E-04-1.77412E-14
 -1      2788 6.00275E-03 4.63348E-04-1.69147E-14
 -1      2789 5.93057E-03 4.26449E-04-1.66442E-14
 -1      2790 6.43272E-03 4.61706E-04-1.94501E-14
 -1      2791 6.28930E-03 4.62116E-04-1.85869E-14
 -1      2792 6.21700E-03 4.24970E-04-1.82987E-14
 -1      2793 6.71999E-03 4.61480E-04-2.12301E-14
 -1      2794 6.57629E-03 4.61482E-04-2.03313E-14
 -1      2795 6.50390E-03 4.23938E-04-2.00292E-14
 -1      2796 7.00790E-03 4.62334E-04-2.30832E-14
 -1      2797 6.86386E-03 4.61748E-04-2.21487E-14
 -1      2798 6.79148E-03 4.23612E-04-2.18309E-14
 -1      2799 7.29664E-03 4.64654E-04-2.50064E-14
 -1      2800 7.15217E-03 4.63284E-04-2.40357E-14
 -1      2801 7.07999E-03 4.24332E-04-2.37043E-14
 -1      2802 7.58631E-03 4.68808E-04-2.69925E-14
 -1      2803 7.44137E-03 4.66479E-04-2.59915E-14
 -1      2804 7.36974E-03 4.26495E-04-2.56445E-14
 -1      2805 7.87693E-03 4.75013E-04-2.90444E-14
 -1      2806 7.73154E-03 4.71646E-04-2.80109E-14
 -1      2807 7.66102E-03 4.30496E-04-2.76513E-14
 -1      2808 8.16831E-03 4.83101E-04-3.11567E-14
 -1      2809 8.02259E-03 4.78848E-04-3.00932E-14
 -1      2810 7.95399E-03 4.36594E-04-2.97212E-14
 -1      2811 8.45989E-03 4.92180E-04-3.33254E-14
 -1      2812 8.31416E-03 4.87605E-04-3.22334E-14
 -1      2813 8.24856E-03 4.44672E-04-3.18506E-14
 -1      2814 8.75068E-03 5.00185E-04-3.55514E-14
 -1      2815 8.60550E-03 4.96500E-04-3.44317E-14
 -1      2816 8.54415E-03 4.53857E-04-3.40356E-14
 -1      2817 9.03929E-03 5.03443E-04-3.78361E-14
 -1      2818 8.89538E-03 5.02713E-04-3.66870E-14
 -1      2819 8.83962E-03 4.61990E-04-3.62784E-14
 -1      2820 9.32422E-03 4.96439E-04-4.01781E-14
 -1      2821 9.18230E-03 5.01651E-04-3.90008E-14
 -1      2822 9.13325E-03 4.65089E-04-3.85781E-14
 -1      2823 9.60441E-03 4.72120E-04-4.25723E-14
 -1      2824 9.46490E-03 4.86941E-04-4.13684E-14
 -1      2825 9.42315E-03 4.57042E-04-4.09341E-14
 -1      2826 9.87989E-03 4.23003E-04-4.50175E-14
 -1      2827 9.74261E-03 4.51118E-04-4.37899E-14
 -1      2828 9.70802E-03 4.29993E-04-4.33425E-14
 -1      2829 1.01522E-02 3.42990E-04-4.75097E-14
 -1      2830 1.00162E-02 3.87139E-04-4.62565E-14
 -1      2831 9.98800E-03 3.75767E-04-4.58007E-14
 -1      2832 1.04239E-02 2.29237E-04-5.00522E-14
 -1      2833 1.02878E-02 2.90341E-04-4.87762E-14
 -1      2834 1.02650E-02 2.88145E-04-4.83071E-14
 -1      2835 1.06979E-02 8.31294E-05-5.26412E-14
 -1      2836 1.05604E-02 1.59961E-04-5.13411E-14
 -1      2837 1.05423E-02 1.65017E-04-5.08646E-14
 -1      2838 1.09763E-02-9.01989E-05-5.52706E-14
 -1      2839 1.08364E-02-5.78500E-07-5.39511E-14
 -1      2840 1.08229E-02 9.19842E-06-5.34636E-14
 -1      2841 1.12594E-02-2.83548E-04-5.79386E-14
 -1      2842 1.11172E-02-1.84864E-04-5.65996E-14
 -1      2843 1.11085E-02-1.72656E-04-5.61051E-14
 -1      2844 1.15467E-02-4.89577E-04-6.06396E-14
 -1      2845 1.14026E-02-3.85406E-04-5.92864E-14
 -1      2846 1.13990E-02-3.72316E-04-5.87823E-14
 -1      2847 1.18366E-02-7.02212E-04-6.33684E-14
 -1      2848 1.16914E-02-5.95376E-04-6.20000E-14
 -1      2849 1.16930E-02-5.82159E-04-6.14889E-14
 -1      2850 1.21276E-02-9.17226E-04-6.61225E-14
 -1      2851 1.19821E-02-8.09606E-04-6.47436E-14
 -1      2852 1.19884E-02-7.96448E-04-6.42218E-14
 -1      2853 1.24186E-02-1.13216E-03-6.88997E-14
 -1      2854 1.22732E-02-1.02479E-03-6.75081E-14
 -1      2855 1.22836E-02-1.01160E-03-6.69809E-14
 -1      2856 1.27089E-02-1.34592E-03-7.16889E-14
 -1      2857 1.25639E-02-1.23921E-03-7.02924E-14
 -1      2858 1.25776E-02-1.22581E-03-6.97584E-14
 -1      2859 1.29981E-02-1.55831E-03-7.44874E-14
 -1      2860 1.28537E-02-1.45227E-03-7.30890E-14
 -1      2861 1.28698E-02-1.43851E-03-7.25522E-14
 -1      2862 1.32881E-02-1.76920E-03-7.72663E-14
 -1      2863 1.31442E-02-1.66365E-03-7.58612E-14
 -1      2864 1.31620E-02-1.64946E-03-7.53235E-14
 -1      2865 1.34546E-02-1.85904E-03-7.80778E-14
 -1      2866 1.42598E-02-2.19659E-03-7.96167E-14
 -1      2867 1.41531E-02-2.15388E-03-7.94313E-14
 -1      2868 1.35531E-02-1.35301E-03-6.11425E-14
 -1      2869 1.37016E-02-1.37076E-03-6.13383E-14
 -1      2870 9.94877E-03-4.91021E-05-4.49489E-14
 -1      2871 1.01183E-02 2.70987E-05-4.57710E-14
 -1      2872 1.36459E-02-1.94175E-03-7.84825E-14
 -1      2873 1.35422E-02-1.89822E-03-7.82977E-14
 -1      2874 1.33958E-02-1.79387E-03-7.69162E-14
 -1      2875 1.35715E-02-1.87325E-03-7.73528E-14
 -1      2876 1.44734E-02-2.28012E-03-7.99871E-14
 -1      2877 1.43666E-02-2.23871E-03-7.98031E-14
 -1      2878 1.41887E-02-2.13174E-03-7.84839E-14
 -1      2879 1.40473E-02-2.11090E-03-7.92493E-14
 -1      2880 1.39416E-02-2.06746E-03-7.90628E-14
 -1      2881 1.37642E-02-1.95717E-03-7.77524E-14
 -1      2882 1.39750E-02-2.04511E-03-7.81162E-14
 -1      2883 1.46855E-02-2.36036E-03-8.03590E-14
 -1      2884 1.45798E-02-2.32069E-03-8.01736E-14
 -1      2885 1.44036E-02-2.21566E-03-7.88540E-14
 -1      2886 1.48898E-02-2.43563E-03-8.07197E-14
 -1      2887 1.47884E-02-2.39842E-03-8.05406E-14
 -1      2888 1.46149E-02-2.29488E-03-7.92203E-14
 -1      2889 1.50908E-02-2.50897E-03-8.10918E-14
 -1      2890 1.49913E-02-2.47261E-03-8.09042E-14
 -1      2891 1.48211E-02-2.36968E-03-7.95841E-14
 -1      2892 1.52833E-02-2.58053E-03-8.14578E-14
 -1      2893 1.51881E-02-2.54480E-03-8.12743E-14
 -1      2894 1.50210E-02-2.44134E-03-7.99512E-14
 -1      2895 1.54683E-02-2.65777E-03-8.19455E-14
 -1      2896 1.53765E-02-2.62145E-03-8.17643E-14
 -1      2897 1.52110E-02-2.51639E-03-8.04389E-14
 -1      2898 1.53942E-02-2.59783E-03-8.10537E-14
 -1      2899 1.38107E-02-1.38042E-03-6.15274E-14
 -1      2900 1.38805E-02-1.38103E-03-6.17134E-14
 -1      2901 1.14696E-02-2.96661E-04-5.40499E-14
 -1      2902 1.16482E-02-4.23915E-04-5.49343E-14
 -1      2903 1.03347E-02 8.78577E-05-4.70130E-14
 -1      2904 1.05018E-02 1.13750E-04-4.80677E-14
 -1      2905 1.35498E-02-1.44387E-03-6.01124E-14
 -1      2906 1.30841E-02-1.23365E-03-6.03689E-14
 -1      2907 1.33355E-02-1.30760E-03-6.08233E-14
 -1      2908 7.84368E-04 1.23423E-04-3.99379E-16
 -1      2909 7.81976E-04 9.99933E-05-4.13122E-16
 -1      2910 8.99579E-04 9.94196E-05-5.33319E-16
 -1      2911 9.05329E-04 1.51547E-04-4.99966E-16
 -1      2912 1.38105E-02-1.41844E-03-6.21440E-14
 -1      2913 1.39283E-02-1.45914E-03-6.35262E-14
 -1      2914 8.80222E-03-5.82968E-04-4.13645E-14
 -1      2915 7.81706E-04-9.79363E-05-4.81047E-16
 -1      2916 7.84021E-04-1.21284E-04-4.82795E-16
 -1      2917 9.13555E-03-4.12648E-04-4.22359E-14
 -1      2918 9.29989E-03-3.46561E-04-4.26516E-14
 -1      2919 8.81749E-03-5.07804E-04-4.14380E-14
 -1      2920 8.97121E-03-4.69194E-04-4.18360E-14
 -1      2921 9.01604E-03-4.18725E-04-4.14480E-14
 -1      2922 8.52191E-03-5.54095E-04-4.09305E-14
 -1      2923 8.52019E-03-5.58993E-04-4.09260E-14
 -1      2924 8.56328E-03-5.53506E-04-4.09375E-14
 -1      2925 8.65948E-03-5.40886E-04-4.10820E-14
 -1      2926 1.24354E-02-9.41551E-04-5.85216E-14
 -1      2927 1.27316E-02-1.09321E-03-5.95307E-14
 -1      2928 1.18804E-02-5.86386E-04-5.60538E-14
 -1      2929 1.21194E-02-7.49368E-04-5.71795E-14
 -1      2930 1.17587E-02-5.21357E-04-5.58425E-14
 -1      2931 1.11245E-02-7.33319E-05-5.21595E-14
 -1      2932 1.12840E-02-1.74836E-04-5.30891E-14
 -1      2933 1.36876E-02-1.41791E-03-6.11531E-14
 -1      2934 8.63946E-03-5.39958E-04-4.07023E-14
 -1      2935 1.38073E-02-1.39613E-03-6.16478E-14
 -1      2936 7.87073E-04-1.45426E-04-4.82877E-16
 -1      2937 7.90946E-04-1.70596E-04-4.81426E-16
 -1      2938 9.04853E-04-1.49018E-04-6.11680E-16
 -1      2939 8.95432E-04 1.01146E-06-5.81065E-16
 -1      2940 7.77601E-04-9.71637E-06-4.61857E-16
 -1      2941 7.77965E-04-3.13569E-05-4.68362E-16
 -1      2942 8.07546E-04 2.68272E-04-2.83261E-16
 -1      2943 1.38588E-02-1.38643E-03-6.17413E-14
 -1      2944 1.40005E-02-1.47447E-03-6.41042E-14
 -1      2945 1.35907E-03 3.47572E-04-8.27422E-16
 -1      2946 1.29820E-03 3.71224E-04-7.04474E-16
 -1      2947 1.08597E-02 4.18951E-05-5.06701E-14
 -1      2948 1.09849E-02-8.04480E-06-5.14140E-14
 -1      2949 1.10532E-02-6.07881E-05-5.20518E-14
 -1      2950 1.39260E-02-1.41973E-03-6.27154E-14
 -1      2951 1.39175E-02-1.39052E-03-6.20613E-14
 -1      2952 9.80985E-03-8.45812E-05-4.41586E-14
 -1      2953 1.34690E-02-1.36047E-03-6.16603E-14
 -1      2954 1.37792E-02-1.40621E-03-6.21752E-14
 -1      2955 1.00441E-02 5.35984E-05-4.51361E-14
 -1      2956 1.01887E-02 7.09779E-05-4.60697E-14
 -1      2957 1.02419E-02 1.03867E-04-4.63703E-14
 -1      2958 1.05893E-02 1.16779E-04-4.86695E-14
 -1      2959 1.06660E-02 1.05152E-04-4.92731E-14
 -1      2960 1.04734E-02 1.23926E-04-4.79131E-14
 -1      2961 1.13603E-02-2.44035E-04-5.37597E-14
 -1      2962 1.19883E-03 3.63572E-04-5.86648E-16
 -1      2963 8.54070E-03-5.31099E-04-4.04298E-14
 -1      2964 1.22850E-02-8.69178E-04-5.83072E-14
 -1      2965 1.24439E-02-9.73266E-04-5.94385E-14
 -1      2966 1.21505E-02-7.96516E-04-5.80924E-14
 -1      2967 8.70235E-03-5.07419E-04-4.06989E-14
 -1      2968 8.74273E-03-4.67607E-04-4.03151E-14
 -1      2969 8.60364E-03-4.94414E-04-3.99657E-14
 -1      2970 1.29225E-02-1.19141E-03-6.04941E-14
 -1      2971 1.31006E-02-1.27376E-03-6.14610E-14
 -1      2972 1.27787E-02-1.14297E-03-6.06183E-14
 -1      2973 9.25353E-04 2.80259E-04-3.87331E-16
 -1      2974 8.51642E-03-5.33124E-04-4.03359E-14
 -1      2975 1.41981E-02-1.62873E-03-6.69547E-14
 -1      2976 7.78746E-04-5.31346E-05-4.73607E-16
 -1      2977 7.79966E-04-7.53167E-05-4.77903E-16
 -1      2978 8.99295E-04-9.70667E-05-6.07262E-16
 -1      2979 8.96330E-04-4.75115E-05-5.96691E-16
 -1      2980 9.39687E-03-2.81892E-04-4.26591E-14
 -1      2981 9.47692E-03-2.14951E-04-4.26635E-14
 -1      2982 9.26179E-03-2.98973E-04-4.18508E-14
 -1      2983 8.49271E-03-5.11742E-04-3.98253E-14
 -1      2984 1.39026E-02-1.38478E-03-6.19586E-14
 -1      2985 1.39399E-02-1.41927E-03-6.28519E-14
 -1      2986 1.04029E-03 2.43242E-04-5.59841E-16
 -1      2987 1.03364E-03 2.11495E-04-5.87028E-16
 -1      2988 1.05913E-03 3.64425E-04-4.15846E-16
 -1      2989 1.47536E-02-2.30405E-03-7.84502E-14
 -1      2990 1.46505E-02-2.26773E-03-7.82665E-14
 -1      2991 7.85424E-04-1.87467E-04-4.70340E-16
 -1      2992 7.93281E-04-2.11006E-04-4.69663E-16
 -1      2993 8.94179E-04-2.33202E-04-5.73475E-16
 -1      2994 9.03406E-04-1.94879E-04-5.99510E-16
 -1      2995 1.15848E-03-2.76874E-04-8.97733E-16
 -1      2996 1.30137E-03-2.96648E-04-1.10173E-15
 -1      2997 1.44458E-03-3.13658E-04-1.32712E-15
 -1      2998 1.58808E-03-3.28116E-04-1.57348E-15
 -1      2999 1.36543E-03-2.73054E-04-1.21612E-15
 -1      3000 1.73167E-03-3.40353E-04-1.84081E-15
 -1      3001 1.87534E-03-3.50545E-04-2.12932E-15
 -1      3002 1.65236E-03-3.00041E-04-1.70823E-15
 -1      3003 2.01900E-03-3.59018E-04-2.43920E-15
 -1      3004 2.16264E-03-3.65924E-04-2.77014E-15
 -1      3005 1.94014E-03-3.19229E-04-2.28384E-15
 -1      3006 2.30624E-03-3.71542E-04-3.12207E-15
 -1      3007 2.44978E-03-3.75998E-04-3.49476E-15
 -1      3008 2.22817E-03-3.32310E-04-2.94349E-15
 -1      3009 2.59327E-03-3.79512E-04-3.88875E-15
 -1      3010 2.73671E-03-3.82185E-04-4.30392E-15
 -1      3011 2.51613E-03-3.40787E-04-3.68668E-15
 -1      3012 2.88009E-03-3.84186E-04-4.73872E-15
 -1      3013 3.02341E-03-3.85592E-04-5.19460E-15
 -1      3014 2.80388E-03-3.45894E-04-4.51284E-15
 -1      3015 3.16669E-03-3.86531E-04-5.67099E-15
 -1      3016 3.30992E-03-3.87059E-04-6.16716E-15
 -1      3017 3.09136E-03-3.48595E-04-5.42079E-15
 -1      3018 3.45312E-03-3.87269E-04-6.68329E-15
 -1      3019 3.59627E-03-3.87203E-04-7.21833E-15
 -1      3020 3.37856E-03-3.49625E-04-6.40952E-15
 -1      3021 3.73939E-03-3.86926E-04-7.77266E-15
 -1      3022 3.88247E-03-3.86465E-04-8.34653E-15
 -1      3023 3.66551E-03-3.49521E-04-7.47597E-15
 -1      3024 4.02554E-03-3.85867E-04-8.93808E-15
 -1      3025 4.16857E-03-3.85148E-04-9.54895E-15
 -1      3026 3.95221E-03-3.48665E-04-8.61877E-15
 -1      3027 4.31158E-03-3.84337E-04-1.01792E-14
 -1      3028 4.45456E-03-3.83446E-04-1.08271E-14
 -1      3029 4.23868E-03-3.47317E-04-9.83619E-15
 -1      3030 4.59753E-03-3.82489E-04-1.14916E-14
 -1      3031 4.74046E-03-3.81473E-04-1.21752E-14
 -1      3032 4.52496E-03-3.45644E-04-1.11279E-14
 -1      3033 4.88338E-03-3.80403E-04-1.28779E-14
 -1      3034 5.02626E-03-3.79282E-04-1.35972E-14
 -1      3035 4.81103E-03-3.43744E-04-1.24910E-14
 -1      3036 5.16911E-03-3.78111E-04-1.43351E-14
 -1      3037 5.31192E-03-3.76888E-04-1.50916E-14
 -1      3038 5.09687E-03-3.41667E-04-1.39276E-14
 -1      3039 5.45467E-03-3.75611E-04-1.58664E-14
 -1      3040 5.59736E-03-3.74276E-04-1.66593E-14
 -1      3041 5.38244E-03-3.39432E-04-1.54369E-14
 -1      3042 5.73995E-03-3.72885E-04-1.74710E-14
 -1      3043 5.88244E-03-3.71431E-04-1.83020E-14
 -1      3044 5.66761E-03-3.37053E-04-1.70193E-14
 -1      3045 6.02476E-03-3.69924E-04-1.91518E-14
 -1      3046 6.16690E-03-3.68357E-04-2.00206E-14
 -1      3047 5.95220E-03-3.34555E-04-1.86781E-14
 -1      3048 6.31584E-03-3.66678E-04-2.09544E-14
 -1      3049 6.46444E-03-3.64955E-04-2.19080E-14
 -1      3050 6.24292E-03-3.31955E-04-2.04576E-14
 -1      3051 6.60547E-03-3.63349E-04-2.28347E-14
 -1      3052 6.74597E-03-3.61761E-04-2.37798E-14
 -1      3053 6.53206E-03-3.29514E-04-2.23156E-14
 -1      3054 6.88568E-03-3.60342E-04-2.47444E-14
 -1      3055 7.02451E-03-3.59067E-04-2.57257E-14
 -1      3056 6.81169E-03-3.27682E-04-2.42034E-14
 -1      3057 7.16207E-03-3.58225E-04-2.67241E-14
 -1      3058 7.29817E-03-3.57763E-04-2.77389E-14
 -1      3059 7.08748E-03-3.27117E-04-2.61621E-14
 -1      3060 7.43226E-03-3.58211E-04-2.87702E-14
 -1      3061 7.56403E-03-3.59453E-04-2.98160E-14
 -1      3062 7.35724E-03-3.29083E-04-2.81875E-14
 -1      3063 7.69268E-03-3.62416E-04-3.08777E-14
 -1      3064 7.81766E-03-3.66833E-04-3.19546E-14
 -1      3065 7.61772E-03-3.35671E-04-3.02771E-14
 -1      3066 7.93792E-03-3.74265E-04-3.30446E-14
 -1      3067 8.05256E-03-3.84077E-04-3.41473E-14
 -1      3068 7.86420E-03-3.50123E-04-3.24247E-14
 -1      3069 8.16023E-03-3.98799E-04-3.52617E-14
 -1      3070 8.25953E-03-4.16953E-04-3.63876E-14
 -1      3071 8.08993E-03-3.77048E-04-3.46270E-14
 -1      3072 8.34883E-03-4.42589E-04-3.75248E-14
 -1      3073 8.42626E-03-4.72180E-04-3.86711E-14
 -1      3074 8.28564E-03-4.22146E-04-3.68756E-14
 -1      3075 1.42153E-03 3.22981E-04-9.56605E-16
 -1      3076 1.27827E-03 3.05067E-04-7.80355E-16
 -1      3077 2.56923E-03 3.92869E-04-3.08926E-15
 -1      3078 2.42590E-03 3.89093E-04-2.75093E-15
 -1      3079 1.39248E-02-1.45529E-03-6.34468E-14
 -1      3080 1.39780E-02-1.46383E-03-6.37974E-14
 -1      3081 9.62914E-03-1.22677E-04-4.30822E-14
 -1      3082 9.79378E-03-3.27898E-05-4.37562E-14
 -1      3083 1.45397E-02-1.93223E-03-7.16800E-14
 -1      3084 1.46625E-02-2.03016E-03-7.30818E-14
 -1      3085 1.47894E-02-2.12956E-03-7.44858E-14
 -1      3086 1.49202E-02-2.23084E-03-7.58910E-14
 -1      3087 1.46555E-02-2.05648E-03-7.36261E-14
 -1      3088 1.50536E-02-2.33277E-03-7.73001E-14
 -1      3089 1.51894E-02-2.43542E-03-7.87113E-14
 -1      3090 1.49119E-02-2.25419E-03-7.64349E-14
 -1      3091 1.53203E-02-2.53758E-03-8.01621E-14
 -1      3092 3.14207E-03 4.00714E-04-4.64654E-15
 -1      3093 2.99893E-03 3.99623E-04-4.22607E-15
 -1      3094 3.42823E-03 4.01736E-04-5.54830E-15
 -1      3095 3.28517E-03 4.01402E-04-5.08716E-15
 -1      3096 3.21012E-03 3.63599E-04-4.94654E-15
 -1      3097 3.71428E-03 4.01630E-04-6.52978E-15
 -1      3098 3.57127E-03 4.01800E-04-6.02915E-15
 -1      3099 3.49697E-03 3.64266E-04-5.87372E-15
 -1      3100 4.00023E-03 4.00787E-04-7.59070E-15
 -1      3101 3.85727E-03 4.01284E-04-7.05044E-15
 -1      3102 3.78359E-03 3.63965E-04-6.88077E-15
 -1      3103 4.28610E-03 3.99481E-04-8.73134E-15
 -1      3104 4.14318E-03 4.00181E-04-8.15159E-15
 -1      3105 4.07001E-03 3.63035E-04-7.96710E-15
 -1      3106 4.57193E-03 3.97889E-04-9.94816E-15
 -1      3107 4.42902E-03 3.98713E-04-9.33022E-15
 -1      3108 4.35625E-03 3.61709E-04-9.13111E-15
 -1      3109 4.85772E-03 3.96128E-04-1.12426E-14
 -1      3110 4.71483E-03 3.97025E-04-1.05857E-14
 -1      3111 4.64234E-03 3.60136E-04-1.03731E-14
 -1      3112 5.14352E-03 3.94274E-04-1.26133E-14
 -1      3113 5.00062E-03 3.95210E-04-1.19184E-14
 -1      3114 4.92832E-03 3.58410E-04-1.16909E-14
 -1      3115 5.42936E-03 3.92384E-04-1.40601E-14
 -1      3116 5.28643E-03 3.93332E-04-1.33269E-14
 -1      3117 5.21423E-03 3.56590E-04-1.30848E-14
 -1      3118 5.71530E-03 3.90514E-04-1.55827E-14
 -1      3119 5.57232E-03 3.91443E-04-1.48118E-14
 -1      3120 5.50012E-03 3.54715E-04-1.45545E-14
 -1      3121 6.00145E-03 3.88738E-04-1.71826E-14
 -1      3122 5.85835E-03 3.89609E-04-1.63728E-14
 -1      3123 5.78608E-03 3.52824E-04-1.61000E-14
 -1      3124 6.28796E-03 3.87173E-04-1.88605E-14
 -1      3125 6.14465E-03 3.87920E-04-1.80120E-14
 -1      3126 6.07226E-03 3.50974E-04-1.77241E-14
 -1      3127 6.57504E-03 3.85991E-04-2.06101E-14
 -1      3128 6.43141E-03 3.86519E-04-1.97267E-14
 -1      3129 6.35884E-03 3.49258E-04-1.94229E-14
 -1      3130 6.86299E-03 3.85442E-04-2.24335E-14
 -1      3131 6.71889E-03 3.85616E-04-2.15135E-14
 -1      3132 6.64612E-03 3.47827E-04-2.11955E-14
 -1      3133 7.15222E-03 3.85862E-04-2.43265E-14
 -1      3134 7.00743E-03 3.85501E-04-2.33708E-14
 -1      3135 6.93452E-03 3.46912E-04-2.30377E-14
 -1      3136 7.44318E-03 3.87663E-04-2.62865E-14
 -1      3137 7.29747E-03 3.86553E-04-2.52985E-14
 -1      3138 7.22457E-03 3.46845E-04-2.49511E-14
 -1      3139 7.73634E-03 3.91286E-04-2.83114E-14
 -1      3140 7.58948E-03 3.89209E-04-2.72908E-14
 -1      3141 7.51691E-03 3.48063E-04-2.69302E-14
 -1      3142 8.03203E-03 3.97075E-04-3.04002E-14
 -1      3143 7.88389E-03 3.93883E-04-2.93489E-14
 -1      3144 7.81221E-03 3.51084E-04-2.89752E-14
 -1      3145 8.33025E-03 4.05027E-04-3.25461E-14
 -1      3146 8.18088E-03 4.00791E-04-3.14659E-14
 -1      3147 8.11097E-03 3.56391E-04-3.10805E-14
 -1      3148 8.63040E-03 4.14356E-04-3.47482E-14
 -1      3149 8.48019E-03 4.09608E-04-3.36405E-14
 -1      3150 8.41329E-03 3.64175E-04-3.32436E-14
 -1      3151 8.93108E-03 4.22860E-04-3.70069E-14
 -1      3152 8.78084E-03 4.18935E-04-3.58709E-14
 -1      3153 8.71848E-03 3.73822E-04-3.54624E-14
 -1      3154 9.23013E-03 4.26202E-04-3.93212E-14
 -1      3155 9.08099E-03 4.25573E-04-3.81571E-14
 -1      3156 9.02481E-03 3.83098E-04-3.77361E-14
 -1      3157 9.52518E-03 4.17532E-04-4.16912E-14
 -1      3158 9.37828E-03 4.23952E-04-4.05005E-14
 -1      3159 9.32955E-03 3.87231E-04-4.00656E-14
 -1      3160 9.81465E-03 3.87904E-04-4.41131E-14
 -1      3161 9.67059E-03 4.05995E-04-4.28946E-14
 -1      3162 9.62975E-03 3.78314E-04-4.24494E-14
 -1      3163 1.00989E-02 3.28227E-04-4.65859E-14
 -1      3164 9.95720E-03 3.62367E-04-4.53450E-14
 -1      3165 9.92363E-03 3.45985E-04-4.48855E-14
 -1      3166 1.03805E-02 2.32136E-04-4.91060E-14
 -1      3167 1.02397E-02 2.84941E-04-4.78380E-14
 -1      3168 1.02120E-02 2.80025E-04-4.73714E-14
 -1      3169 1.06634E-02 9.85989E-05-5.16756E-14
 -1      3170 1.05215E-02 1.69847E-04-5.03851E-14
 -1      3171 1.04984E-02 1.74190E-04-4.99045E-14
 -1      3172 1.09509E-02-6.77080E-05-5.42886E-14
 -1      3173 1.08064E-02 1.90098E-05-5.29777E-14
 -1      3174 1.07874E-02 2.90421E-05-5.24889E-14
 -1      3175 1.12440E-02-2.58328E-04-5.69401E-14
 -1      3176 1.10967E-02-1.60635E-04-5.56094E-14
 -1      3177 1.10823E-02-1.48364E-04-5.51138E-14
 -1      3178 1.15419E-02-4.63988E-04-5.96247E-14
 -1      3179 1.13925E-02-3.59855E-04-5.82777E-14
 -1      3180 1.13835E-02-3.47586E-04-5.77753E-14
 -1      3181 1.18423E-02-6.76996E-04-6.23369E-14
 -1      3182 1.16920E-02-5.69973E-04-6.09794E-14
 -1      3183 1.16888E-02-5.58526E-04-6.04676E-14
 -1      3184 1.21428E-02-8.92207E-04-6.50760E-14
 -1      3185 1.19927E-02-7.84546E-04-6.37033E-14
 -1      3186 1.19952E-02-7.73775E-04-6.31862E-14
 -1      3187 1.24417E-02-1.10685E-03-6.78376E-14
 -1      3188 1.22926E-02-9.99686E-04-6.64526E-14
 -1      3189 1.23001E-02-9.89057E-04-6.59273E-14
 -1      3190 1.27380E-02-1.31986E-03-7.06182E-14
 -1      3191 1.25902E-02-1.21357E-03-6.92261E-14
 -1      3192 1.26020E-02-1.20256E-03-6.86931E-14
 -1      3193 1.30317E-02-1.53119E-03-7.34138E-14
 -1      3194 1.28852E-02-1.42569E-03-7.20153E-14
 -1      3195 1.29001E-02-1.41395E-03-7.14781E-14
 -1      3196 1.32878E-02-1.71499E-03-7.58489E-14
 -1      3197 1.31405E-02-1.61033E-03-7.44761E-14
 -1      3198 1.31574E-02-1.59778E-03-7.39379E-14
 -1      3199 1.33752E-02-1.75499E-03-7.60676E-14
 -1      3200 1.45470E-02-2.23081E-03-7.80882E-14
 -1      3201 1.44422E-02-2.19251E-03-7.79063E-14
 -1      3202 1.44805E-02-2.16732E-03-7.69563E-14
 -1      3203 1.49521E-02-2.37351E-03-7.88164E-14
 -1      3204 1.48542E-02-2.33914E-03-7.86346E-14
 -1      3205 1.46872E-02-2.23845E-03-7.73189E-14
 -1      3206 1.07420E-03 3.29452E-04-4.86590E-16
 -1      3207 1.12764E-02-2.05068E-04-5.35537E-14
 -1      3208 1.14435E-02-3.19155E-04-5.45159E-14
 -1      3209 1.16452E-02-4.59629E-04-5.56342E-14
 -1      3210 1.18564E-02-6.07681E-04-5.67573E-14
 -1      3211 1.15489E-02-4.05504E-04-5.54226E-14
 -1      3212 1.43344E-02-2.15222E-03-7.77228E-14
 -1      3213 1.42262E-02-2.11066E-03-7.75393E-14
 -1      3214 1.42662E-02-2.08974E-03-7.65928E-14
 -1      3215 1.41195E-02-1.57678E-03-6.60632E-14
 -1      3216 1.42106E-02-1.65799E-03-6.74484E-14
 -1      3217 1.43120E-02-1.74620E-03-6.88862E-14
 -1      3218 1.44227E-02-1.83781E-03-7.02811E-14
 -1      3219 1.44167E-02-1.86718E-03-7.08251E-14
 -1      3220 1.40217E-02-1.48499E-03-6.43158E-14
 -1      3221 8.43864E-03-4.90484E-04-3.91651E-14
 -1      3222 2.85574E-03 3.98011E-04-3.82673E-15
 -1      3223 2.71252E-03 3.95812E-04-3.44780E-15
 -1      3224 2.63566E-03 3.57244E-04-3.33570E-15
 -1      3225 2.92302E-03 3.61479E-04-4.10028E-15
 -1      3226 8.89753E-03-4.13680E-04-4.05803E-14
 -1      3227 9.04014E-03-3.65444E-04-4.09729E-14
 -1      3228 1.41177E-02-2.06799E-03-7.73535E-14
 -1      3229 1.40096E-02-2.02443E-03-7.71685E-14
 -1      3230 1.40473E-02-2.00538E-03-7.62262E-14
 -1      3231 1.06771E-03 2.82629E-04-5.43578E-16
 -1      3232 1.70848E-03 3.51150E-04-1.36815E-15
 -1      3233 1.56493E-03 3.38271E-04-1.15211E-15
 -1      3234 1.48520E-03 2.97358E-04-1.09102E-15
 -1      3235 1.01652E-03 6.81859E-05-6.86137E-16
 -1      3236 1.01535E-03 4.12124E-05-7.00381E-16
 -1      3237 1.34190E-02-1.38093E-03-6.24180E-14
 -1      3238 1.36098E-02-1.41991E-03-6.27442E-14
 -1      3239 8.47099E-03-5.03176E-04-3.95612E-14
 -1      3240 8.51595E-03-4.97292E-04-3.95714E-14
 -1      3241 8.53289E-03-4.70570E-04-3.91934E-14
 -1      3242 8.40299E-03-4.63332E-04-3.84095E-14
 -1      3243 1.37416E-02-1.44045E-03-6.29982E-14
 -1      3244 1.38453E-02-1.44771E-03-6.31924E-14
 -1      3245 1.39152E-02-1.49534E-03-6.42694E-14
 -1      3246 1.37040E-02-1.46758E-03-6.37572E-14
 -1      3247 1.40543E-02-1.52370E-03-6.50455E-14
 -1      3248 1.01475E-03 1.44451E-05-7.13053E-16
 -1      3249 1.01472E-03-1.22230E-05-7.24098E-16
 -1      3250 1.13543E-03 3.01562E-05-8.57346E-16
 -1      3251 1.18655E-03 2.84869E-04-6.87154E-16
 -1      3252 9.95851E-04-2.53963E-04-6.88523E-16
 -1      3253 1.25052E-03 2.63544E-04-7.99220E-16
 -1      3254 1.07394E-02 8.21619E-05-4.99024E-14
 -1      3255 1.08073E-02 4.91950E-05-5.05324E-14
 -1      3256 1.06249E-02 1.10995E-04-4.91361E-14
 -1      3257 2.34805E-03 3.50007E-04-2.65226E-15
 -1      3258 2.28250E-03 3.84278E-04-2.43344E-15
 -1      3259 2.13905E-03 3.78308E-04-2.13668E-15
 -1      3260 1.10105E-02-5.44646E-05-5.20476E-14
 -1      3261 1.11374E-02-1.23597E-04-5.27984E-14
 -1      3262 1.12209E-02-1.88282E-04-5.35482E-14
 -1      3263 9.69397E-03-7.16604E-06-4.29716E-14
 -1      3264 9.86914E-03 2.15927E-05-4.40492E-14
 -1      3265 9.93012E-03 6.91368E-05-4.43396E-14
 -1      3266 1.51732E-02-2.45580E-03-7.92944E-14
 -1      3267 1.99556E-03 3.70923E-04-1.86029E-15
 -1      3268 1.85201E-03 3.61977E-04-1.60404E-15
 -1      3269 1.77254E-03 3.21633E-04-1.53055E-15
 -1      3270 2.06029E-03 3.38616E-04-2.05093E-15
 -1      3271 1.42070E-02-1.68973E-03-6.79896E-14
 -1      3272 1.36904E-02-1.89090E-03-7.66260E-14
 -1      3273 1.35857E-02-1.84604E-03-7.64443E-14
 -1      3274 1.03311E-02 1.26253E-04-4.69607E-14
 -1      3275 1.04103E-02 1.36990E-04-4.75538E-14
 -1      3276 1.01901E-02 1.23281E-04-4.60159E-14
 -1      3277 1.02830E-03 1.81124E-04-6.11056E-16
 -1      3278 1.02412E-03 1.51796E-04-6.33106E-16
 -1      3279 1.15304E-03 2.11755E-04-7.32731E-16
 -1      3280 1.39023E-02-1.98024E-03-7.69875E-14
 -1      3281 1.37959E-02-1.93572E-03-7.68070E-14
 -1      3282 1.36161E-02-1.82560E-03-7.55005E-14
 -1      3283 1.51107E-02-2.43423E-03-7.92098E-14
 -1      3284 1.50180E-02-2.39506E-03-7.89048E-14
 -1      3285 1.48545E-02-2.29330E-03-7.75896E-14
 -1      3286 1.49833E-02-2.33443E-03-7.77613E-14
 -1      3287 8.98814E-03-3.11083E-04-4.01138E-14
 -1      3288 9.12147E-03-3.10614E-04-4.09791E-14
 -1      3289 9.19380E-03-2.51582E-04-4.09827E-14
 -1      3290 1.20214E-02-7.25532E-04-5.78796E-14
 -1      3291 1.21833E-02-8.33989E-04-5.90064E-14
 -1      3292 1.19086E-02-6.58174E-04-5.76667E-14
 -1      3293 1.02364E-03-1.49066E-04-7.55486E-16
 -1      3294 1.02770E-03-1.78305E-04-7.56217E-16
 -1      3295 1.24998E-02-1.01379E-03-6.01820E-14
 -1      3296 1.26344E-02-1.08002E-03-6.04008E-14
 -1      3297 1.28189E-02-1.17553E-03-6.13648E-14
 -1      3298 1.34630E-02-1.79512E-03-7.62848E-14
 -1      3299 1.40486E-02-1.55279E-03-6.55411E-14
 -1      3300 9.48752E-03-1.48637E-04-4.22701E-14
 -1      3301 1.02081E-03 1.23263E-04-6.52771E-16
 -1      3302 1.01833E-03 9.54967E-05-6.70457E-16
 -1      3303 1.13809E-03 8.85972E-05-8.24048E-16
 -1      3304 1.14371E-03 1.48730E-04-7.83065E-16
 -1      3305 1.01806E-03-9.29619E-05-7.47761E-16
 -1      3306 1.02044E-03-1.20668E-04-7.52653E-16
 -1      3307 1.14325E-03-1.45854E-04-9.13603E-16
 -1      3308 1.05995E-03-2.36982E-04-7.80355E-16
 -1      3309 1.38297E-02-1.91660E-03-7.58605E-14
 -1      3310 8.76670E-03-4.19800E-04-3.98483E-14
 -1      3311 1.31498E-02-1.32140E-03-6.26620E-14
 -1      3312 1.32821E-02-1.35537E-03-6.25412E-14
 -1      3313 1.34475E-02-1.42479E-03-6.36223E-14
 -1      3314 1.33880E-02-1.72787E-03-7.51612E-14
 -1      3315 1.55008E-03 2.70733E-04-1.23129E-15
 -1      3316 1.40671E-03 2.57617E-04-1.02785E-15
 -1      3317 1.37570E-02-1.85410E-03-7.47362E-14
 -1      3318 1.36484E-02-1.80793E-03-7.45581E-14
 -1      3319 1.32496E-03 2.43552E-04-9.27088E-16
 -1      3320 1.23407E-03 2.26478E-04-8.22069E-16
 -1      3321 1.22845E-03 1.93174E-04-8.51139E-16
 -1      3322 1.39080E-03 2.19352E-04-1.05187E-15
 -1      3323 1.28773E-03-2.33987E-04-1.10842E-15
 -1      3324 1.43060E-03-2.48299E-04-1.33311E-15
 -1      3325 1.57399E-03-2.60611E-04-1.57837E-15
 -1      3326 1.71780E-03-2.71069E-04-1.84455E-15
 -1      3327 1.49668E-03-2.22271E-04-1.45213E-15
 -1      3328 1.86183E-03-2.79890E-04-2.13162E-15
 -1      3329 2.00605E-03-2.87206E-04-2.43950E-15
 -1      3330 1.78421E-03-2.41189E-04-1.98299E-15
 -1      3331 2.15035E-03-2.93246E-04-2.76793E-15
 -1      3332 2.29469E-03-2.98132E-04-3.11739E-15
 -1      3333 2.07292E-03-2.54498E-04-2.59595E-15
 -1      3334 2.43903E-03-3.02061E-04-3.48739E-15
 -1      3335 2.58334E-03-3.05129E-04-3.87873E-15
 -1      3336 2.36211E-03-2.63437E-04-3.29183E-15
 -1      3337 2.72759E-03-3.07501E-04-4.29015E-15
 -1      3338 2.87177E-03-3.09251E-04-4.72177E-15
 -1      3339 2.65134E-03-2.69081E-04-4.07033E-15
 -1      3340 3.01588E-03-3.10509E-04-5.17402E-15
 -1      3341 3.15990E-03-3.11328E-04-5.64642E-15
 -1      3342 2.94034E-03-2.72318E-04-4.93056E-15
 -1      3343 3.30384E-03-3.11809E-04-6.13901E-15
 -1      3344 3.44768E-03-3.11989E-04-6.65082E-15
 -1      3345 3.22900E-03-2.73849E-04-5.87142E-15
 -1      3346 3.59144E-03-3.11942E-04-7.18178E-15
 -1      3347 3.73511E-03-3.11694E-04-7.73201E-15
 -1      3348 3.51724E-03-2.74205E-04-6.89067E-15
 -1      3349 3.87870E-03-3.11298E-04-8.30170E-15
 -1      3350 4.02221E-03-3.10770E-04-8.88943E-15
 -1      3351 3.80506E-03-2.73772E-04-7.98697E-15
 -1      3352 4.16564E-03-3.10146E-04-9.49654E-15
 -1      3353 4.30899E-03-3.09437E-04-1.01227E-14
 -1      3354 4.09247E-03-2.72825E-04-9.16018E-15
 -1      3355 4.45226E-03-3.08666E-04-1.07660E-14
 -1      3356 4.59546E-03-3.07838E-04-1.14271E-14
 -1      3357 4.37947E-03-2.71548E-04-1.04064E-14
 -1      3358 4.73859E-03-3.06968E-04-1.21069E-14
 -1      3359 4.88163E-03-3.06058E-04-1.28056E-14
 -1      3360 4.66608E-03-2.70062E-04-1.17263E-14
 -1      3361 5.02459E-03-3.05118E-04-1.35222E-14
 -1      3362 5.16746E-03-3.04147E-04-1.42566E-14
 -1      3363 4.95228E-03-2.68445E-04-1.31187E-14
 -1      3364 5.31023E-03-3.03156E-04-1.50096E-14
 -1      3365 5.45288E-03-3.02142E-04-1.57811E-14
 -1      3366 5.23804E-03-2.66753E-04-1.45850E-14
 -1      3367 5.59538E-03-3.01119E-04-1.65710E-14
 -1      3368 5.73773E-03-3.00086E-04-1.73798E-14
 -1      3369 5.52326E-03-2.65043E-04-1.61242E-14
 -1      3370 5.87987E-03-2.99066E-04-1.82073E-14
 -1      3371 6.02177E-03-2.98062E-04-1.90540E-14
 -1      3372 5.80775E-03-2.63400E-04-1.77392E-14
 -1      3373 6.17042E-03-2.97072E-04-1.99642E-14
 -1      3374 6.31868E-03-2.96154E-04-2.08954E-14
 -1      3375 6.09829E-03-2.61939E-04-1.94736E-14
 -1      3376 6.45937E-03-2.95438E-04-2.18003E-14
 -1      3377 6.59949E-03-2.94883E-04-2.27238E-14
 -1      3378 6.38727E-03-2.60994E-04-2.12869E-14
 -1      3379 6.73887E-03-2.94646E-04-2.36652E-14
 -1      3380 6.87736E-03-2.94735E-04-2.46256E-14
 -1      3381 6.66694E-03-2.61054E-04-2.31306E-14
 -1      3382 7.01472E-03-2.95420E-04-2.56020E-14
 -1      3383 7.15072E-03-2.96707E-04-2.65968E-14
 -1      3384 6.94330E-03-2.62877E-04-2.50455E-14
 -1      3385 7.28504E-03-2.99042E-04-2.76081E-14
 -1      3386 7.41730E-03-3.02413E-04-2.86348E-14
 -1      3387 7.21476E-03-2.67726E-04-2.70300E-14
 -1      3388 7.54710E-03-3.07542E-04-2.96758E-14
 -1      3389 7.67382E-03-3.14348E-04-3.07338E-14
 -1      3390 7.47915E-03-2.77532E-04-2.90793E-14
 -1      3391 7.79704E-03-3.23957E-04-3.18067E-14
 -1      3392 7.91574E-03-3.36112E-04-3.28933E-14
 -1      3393 7.73352E-03-2.95097E-04-3.11891E-14
 -1      3394 8.02961E-03-3.52497E-04-3.39915E-14
 -1      3395 8.13697E-03-3.72386E-04-3.51021E-14
 -1      3396 7.97409E-03-3.24195E-04-3.33573E-14
 -1      3397 8.23300E-03-3.97892E-04-3.61797E-14
 -1      3398 8.32460E-03-4.27484E-04-3.73143E-14
 -1      3399 8.37534E-03-4.32578E-04-3.77021E-14
 -1      3400 8.19024E-03-3.69387E-04-3.55312E-14
 -1      3401 1.47221E-02-2.13711E-03-7.49445E-14
 -1      3402 1.48513E-02-2.23520E-03-7.63499E-14
 -1      3403 1.47883E-02-2.21597E-03-7.62664E-14
 -1      3404 3.85323E-03 3.26168E-04-7.23536E-15
 -1      3405 3.70972E-03 3.26476E-04-6.70953E-15
 -1      3406 3.56613E-03 3.26612E-04-6.20351E-15
 -1      3407 3.42247E-03 3.26554E-04-5.71754E-15
 -1      3408 3.63570E-03 2.88826E-04-6.53684E-15
 -1      3409 3.27872E-03 3.26236E-04-5.25051E-15
 -1      3410 3.13489E-03 3.25624E-04-4.80407E-15
 -1      3411 3.34782E-03 2.88685E-04-5.55850E-15
 -1      3412 4.14002E-03 3.25194E-04-8.34658E-15
 -1      3413 3.99666E-03 3.25737E-04-7.78091E-15
 -1      3414 3.92318E-03 2.88286E-04-7.59393E-15
 -1      3415 4.42655E-03 3.23883E-04-9.53476E-15
 -1      3416 4.28332E-03 3.24574E-04-8.93126E-15
 -1      3417 4.21027E-03 2.87304E-04-8.72894E-15
 -1      3418 4.71285E-03 3.22356E-04-1.08010E-14
 -1      3419 4.56973E-03 3.23143E-04-1.01585E-14
 -1      3420 4.49702E-03 2.86037E-04-9.94255E-15
 -1      3421 4.99896E-03 3.20686E-04-1.21418E-14
 -1      3422 4.85593E-03 3.21538E-04-1.14619E-14
 -1      3423 4.78347E-03 2.84578E-04-1.12319E-14
 -1      3424 5.28494E-03 3.18908E-04-1.35599E-14
 -1      3425 5.14197E-03 3.19810E-04-1.28410E-14
 -1      3426 5.06966E-03 2.82975E-04-1.25963E-14
 -1      3427 5.57085E-03 3.17045E-04-1.50522E-14
 -1      3428 5.42789E-03 3.17987E-04-1.42962E-14
 -1      3429 5.35565E-03 2.81245E-04-1.40374E-14
 -1      3430 5.85680E-03 3.15114E-04-1.66207E-14
 -1      3431 5.71381E-03 3.16087E-04-1.58273E-14
 -1      3432 5.64153E-03 2.79385E-04-1.55527E-14
 -1      3433 6.14297E-03 3.13144E-04-1.82681E-14
 -1      3434 5.99984E-03 3.14130E-04-1.74346E-14
 -1      3435 5.92744E-03 2.77385E-04-1.71446E-14
 -1      3436 6.42961E-03 3.11201E-04-1.99873E-14
 -1      3437 6.28621E-03 3.12162E-04-1.91186E-14
 -1      3438 6.21357E-03 2.75243E-04-1.88137E-14
 -1      3439 6.71709E-03 3.09402E-04-2.17809E-14
 -1      3440 6.57322E-03 3.10269E-04-2.08748E-14
 -1      3441 6.50024E-03 2.72982E-04-2.05550E-14
 -1      3442 7.00594E-03 3.07953E-04-2.36450E-14
 -1      3443 6.86131E-03 3.08610E-04-2.27041E-14
 -1      3444 6.78789E-03 2.70680E-04-2.23688E-14
 -1      3445 7.29686E-03 3.07179E-04-2.55775E-14
 -1      3446 7.15110E-03 3.07444E-04-2.46029E-14
 -1      3447 7.07719E-03 2.68508E-04-2.42542E-14
 -1      3448 7.59068E-03 3.07555E-04-2.75764E-14
 -1      3449 7.44337E-03 3.07170E-04-2.65692E-14
 -1      3450 7.36899E-03 2.66786E-04-2.62064E-14
 -1      3451 7.88828E-03 3.09706E-04-2.96404E-14
 -1      3452 7.73898E-03 3.08342E-04-2.86002E-14
 -1      3453 7.66435E-03 2.66041E-04-2.82262E-14
 -1      3454 8.19039E-03 3.14321E-04-3.17631E-14
 -1      3455 8.03878E-03 3.11639E-04-3.06953E-14
 -1      3456 7.96442E-03 2.67057E-04-3.03070E-14
 -1      3457 8.49722E-03 3.21877E-04-3.39417E-14
 -1      3458 8.34329E-03 3.17702E-04-3.28453E-14
 -1      3459 8.27015E-03 2.70813E-04-3.24473E-14
 -1      3460 8.80799E-03 3.32039E-04-3.61773E-14
 -1      3461 8.65228E-03 3.26705E-04-3.50531E-14
 -1      3462 8.58188E-03 2.78203E-04-3.46421E-14
 -1      3463 9.12054E-03 3.42618E-04-3.84660E-14
 -1      3464 8.96430E-03 3.37564E-04-3.73139E-14
 -1      3465 8.89873E-03 2.89313E-04-3.68925E-14
 -1      3466 9.43143E-03 3.48261E-04-4.08090E-14
 -1      3467 9.27647E-03 3.46604E-04-3.96304E-14
 -1      3468 9.21796E-03 3.01950E-04-3.91963E-14
 -1      3469 9.73702E-03 3.39725E-04-4.32078E-14
 -1      3470 9.58508E-03 3.46626E-04-4.20027E-14
 -1      3471 9.53529E-03 3.10043E-04-4.15541E-14
 -1      3472 1.00352E-02 3.04727E-04-4.56570E-14
 -1      3473 9.88694E-03 3.26467E-04-4.44249E-14
 -1      3474 9.84620E-03 3.02338E-04-4.39672E-14
 -1      3475 1.03276E-02 2.31580E-04-4.81573E-14
 -1      3476 1.01817E-02 2.73544E-04-4.69032E-14
 -1      3477 1.01486E-02 2.64014E-04-4.64287E-14
 -1      3478 1.06189E-02 1.14362E-04-5.07063E-14
 -1      3479 1.04728E-02 1.78440E-04-4.94248E-14
 -1      3480 1.04452E-02 1.81861E-04-4.89446E-14
 -1      3481 1.09147E-02-4.38633E-05-5.33036E-14
 -1      3482 1.07658E-02 3.97835E-05-5.19987E-14
 -1      3483 1.07424E-02 5.12114E-05-5.15089E-14
 -1      3484 1.12178E-02-2.33097E-04-5.59402E-14
 -1      3485 1.10653E-02-1.35533E-04-5.46182E-14
 -1      3486 1.10462E-02-1.21529E-04-5.41191E-14
 -1      3487 1.15273E-02-4.40687E-04-5.86107E-14
 -1      3488 1.13720E-02-3.35445E-04-5.72719E-14
 -1      3489 1.13585E-02-3.22690E-04-5.67673E-14
 -1      3490 1.18400E-02-6.56008E-04-6.13087E-14
 -1      3491 1.16836E-02-5.47935E-04-5.99553E-14
 -1      3492 1.16767E-02-5.37680E-04-5.94455E-14
 -1      3493 1.21519E-02-8.72422E-04-6.40326E-14
 -1      3494 1.19963E-02-7.64351E-04-6.26687E-14
 -1      3495 1.19962E-02-7.56012E-04-6.21501E-14
 -1      3496 1.24605E-02-1.08684E-03-6.67797E-14
 -1      3497 1.23068E-02-9.79950E-04-6.54039E-14
 -1      3498 1.23127E-02-9.72311E-04-6.48792E-14
 -1      3499 1.27645E-02-1.29854E-03-6.95508E-14
 -1      3500 1.26132E-02-1.19300E-03-6.81625E-14
 -1      3501 1.26240E-02-1.18495E-03-6.76331E-14
 -1      3502 1.30637E-02-1.50794E-03-7.23375E-14
 -1      3503 1.29147E-02-1.40346E-03-7.09421E-14
 -1      3504 1.29291E-02-1.39430E-03-7.04074E-14
 -1      3505 1.32784E-02-1.65000E-03-7.40973E-14
 -1      3506 1.44147E-02-2.10428E-03-7.58267E-14
 -1      3507 1.43083E-02-2.06748E-03-7.56475E-14
 -1      3508 1.39805E-02-1.54256E-03-6.52823E-14
 -1      3509 1.40497E-02-1.59496E-03-6.62968E-14
 -1      3510 1.38932E-02-1.53197E-03-6.50236E-14
 -1      3511 8.63363E-03-4.12954E-04-3.89402E-14
 -1      3512 8.76308E-03-3.66576E-04-3.91984E-14
 -1      3513 1.41365E-02-1.67303E-03-6.77273E-14
 -1      3514 1.42325E-02-1.75771E-03-6.91629E-14
 -1      3515 1.40541E-02-1.65698E-03-6.74647E-14
 -1      3516 1.14418E-02-3.43438E-04-5.51239E-14
 -1      3517 1.16271E-02-4.72110E-04-5.62449E-14
 -1      3518 1.35413E-02-1.76132E-03-7.43752E-14
 -1      3519 1.34356E-02-1.71464E-03-7.41957E-14
 -1      3520 1.34662E-02-1.69820E-03-7.32535E-14
 -1      3521 1.46234E-02-2.17333E-03-7.61921E-14
 -1      3522 1.45207E-02-2.13966E-03-7.60086E-14
 -1      3523 1.43528E-02-2.04236E-03-7.47024E-14
 -1      3524 1.06453E-03-2.15878E-04-7.94327E-16
 -1      3525 1.41983E-02-2.02808E-03-7.54636E-14
 -1      3526 1.40876E-02-1.98674E-03-7.52825E-14
 -1      3527 1.41321E-02-1.96744E-03-7.43369E-14
 -1      3528 1.44755E-02-1.94700E-03-7.21403E-14
 -1      3529 1.45967E-02-2.04104E-03-7.35402E-14
 -1      3530 1.45343E-02-2.02504E-03-7.34566E-14
 -1      3531 1.01524E-03-3.89213E-05-7.33612E-16
 -1      3532 1.01633E-03-6.57542E-05-7.41472E-16
 -1      3533 1.13784E-03-8.59539E-05-9.02395E-16
 -1      3534 1.42951E-02-1.80601E-03-6.99525E-14
 -1      3535 1.44073E-02-1.89511E-03-7.13505E-14
 -1      3536 1.43444E-02-1.88221E-03-7.12657E-14
 -1      3537 1.42125E-02-1.78437E-03-6.96871E-14
 -1      3538 1.39770E-02-1.94390E-03-7.51020E-14
 -1      3539 1.38663E-02-1.89945E-03-7.49166E-14
 -1      3540 1.36842E-02-1.79280E-03-7.36148E-14
 -1      3541 1.39072E-02-1.88350E-03-7.39751E-14
 -1      3542 9.33852E-03-1.71963E-04-4.13953E-14
 -1      3543 9.46745E-03-8.95732E-05-4.18050E-14
 -1      3544 9.19357E-03-1.85770E-04-4.05264E-14
 -1      3545 1.04864E-02 1.37419E-04-4.81738E-14
 -1      3546 1.05557E-02 1.26520E-04-4.87938E-14
 -1      3547 1.03501E-02 1.53110E-04-4.72174E-14
 -1      3548 2.41456E-03 3.15225E-04-2.87602E-15
 -1      3549 2.27033E-03 3.10978E-04-2.55121E-15
 -1      3550 1.07743E-02 5.40206E-05-5.04910E-14
 -1      3551 1.08895E-02 5.30986E-06-5.12660E-14
 -1      3552 1.09700E-02-4.49114E-05-5.20062E-14
 -1      3553 9.54792E-03-3.35697E-05-4.20898E-14
 -1      3554 9.61777E-03 1.94517E-05-4.23753E-14
 -1      3555 9.40255E-03-5.52512E-05-4.12160E-14
 -1      3556 1.13535E-03-2.76881E-05-8.83543E-16
 -1      3557 1.83777E-03 2.91324E-04-1.69924E-15
 -1      3558 1.69379E-03 2.81919E-04-1.45543E-15
 -1      3559 1.61593E-03 2.43029E-04-1.37808E-15
 -1      3560 1.11740E-02-1.73195E-04-5.36032E-14
 -1      3561 1.13030E-02-2.54133E-04-5.43639E-14
 -1      3562 1.13842E-02-3.16972E-04-5.51779E-14
 -1      3563 1.32959E-02-1.63952E-03-7.35581E-14
 -1      3564 1.18405E-03-2.15401E-04-9.59790E-16
 -1      3565 1.16727E-02-5.12635E-04-5.70606E-14
 -1      3566 1.17833E-02-5.82361E-04-5.73649E-14
 -1      3567 1.19389E-02-6.88665E-04-5.84862E-14
 -1      3568 1.47412E-02-2.20521E-03-7.62728E-14
 -1      3569 1.46738E-02-2.18519E-03-7.61860E-14
 -1      3570 1.45116E-02-2.08821E-03-7.48798E-14
 -1      3571 1.46120E-02-2.10970E-03-7.48668E-14
 -1      3572 8.82989E-03-3.24319E-04-3.92056E-14
 -1      3573 8.89308E-03-2.77030E-04-3.92088E-14
 -1      3574 8.68278E-03-3.26840E-04-3.83026E-14
 -1      3575 1.25018E-03-1.93737E-04-1.06170E-15
 -1      3576 3.05954E-03 2.87515E-04-4.65916E-15
 -1      3577 2.99097E-03 3.24627E-04-4.37767E-15
 -1      3578 2.84697E-03 3.23196E-04-3.97195E-15
 -1      3579 1.32190E-02-1.57449E-03-7.24367E-14
 -1      3580 1.23656E-02-9.45010E-04-5.99652E-14
 -1      3581 1.25471E-02-1.04918E-03-6.09275E-14
 -1      3582 1.22437E-02-8.76782E-04-5.97480E-14
 -1      3583 1.24214E-03-1.29000E-04-1.05384E-15
 -1      3584 1.24567E-03-1.61026E-04-1.05889E-15
 -1      3585 1.34879E-03-1.76141E-04-1.21509E-15
 -1      3586 9.85992E-03 1.01723E-04-4.38095E-14
 -1      3587 1.00241E-02 1.20034E-04-4.48959E-14
 -1      3588 1.28814E-02-1.21750E-03-6.22195E-14
 -1      3589 1.30141E-02-1.27212E-03-6.24402E-14
 -1      3590 1.31980E-02-1.35745E-03-6.35186E-14
 -1      3591 1.36643E-02-1.49311E-03-6.45091E-14
 -1      3592 1.37873E-02-1.51510E-03-6.47664E-14
 -1      3593 1.38695E-02-1.56487E-03-6.57769E-14
 -1      3594 1.25741E-03 4.78346E-05-1.01414E-15
 -1      3595 1.25667E-03 1.67812E-05-1.03132E-15
 -1      3596 1.26108E-03 1.10574E-04-9.73708E-16
 -1      3597 1.25887E-03 7.90381E-05-9.94986E-16
 -1      3598 1.38057E-03 6.71326E-05-1.18258E-15
 -1      3599 1.01076E-02 1.46272E-04-4.54774E-14
 -1      3600 8.44422E-03-4.33712E-04-3.81287E-14
 -1      3601 8.53058E-03-4.27392E-04-3.85163E-14
 -1      3602 8.52067E-03-3.82083E-04-3.78758E-14
 -1      3603 8.35123E-03-3.98112E-04-3.70352E-14
 -1      3604 1.35538E-02-1.47864E-03-6.46283E-14
 -1      3605 2.70290E-03 3.21211E-04-3.58708E-15
 -1      3606 2.55876E-03 3.18606E-04-3.22141E-15
 -1      3607 2.77088E-03 2.84832E-04-3.84187E-15
 -1      3608 2.48193E-03 2.79986E-04-3.10486E-15
 -1      3609 1.42925E-02-1.98092E-03-7.35779E-14
 -1      3610 1.41822E-02-1.94619E-03-7.33941E-14
 -1      3611 1.49153E-03-1.86310E-04-1.44824E-15
 -1      3612 1.34688E-02-1.47591E-03-6.50807E-14
 -1      3613 1.36808E-02-1.54934E-03-6.59718E-14
 -1      3614 1.70742E-03-2.03406E-04-1.83782E-15
 -1      3615 1.85159E-03-2.10398E-04-2.12280E-15
 -1      3616 1.99605E-03-2.16264E-04-2.42788E-15
 -1      3617 2.14074E-03-2.21100E-04-2.75368E-15
 -1      3618 1.91984E-03-1.78697E-04-2.26358E-15
 -1      3619 2.28553E-03-2.25060E-04-3.10024E-15
 -1      3620 2.43040E-03-2.28222E-04-3.46731E-15
 -1      3621 2.20940E-03-1.87046E-04-2.91233E-15
 -1      3622 2.57527E-03-2.30729E-04-3.85480E-15
 -1      3623 2.72010E-03-2.32643E-04-4.26251E-15
 -1      3624 2.49947E-03-1.92533E-04-3.64281E-15
 -1      3625 2.86488E-03-2.34084E-04-4.69061E-15
 -1      3626 3.00957E-03-2.35099E-04-5.13892E-15
 -1      3627 2.78957E-03-1.95870E-04-4.45435E-15
 -1      3628 3.15416E-03-2.35782E-04-5.60709E-15
 -1      3629 3.29864E-03-2.36167E-04-6.09538E-15
 -1      3630 3.07940E-03-1.97650E-04-5.34649E-15
 -1      3631 3.44301E-03-2.36327E-04-6.60320E-15
 -1      3632 3.58724E-03-2.36285E-04-7.12969E-15
 -1      3633 3.36878E-03-1.98336E-04-6.31812E-15
 -1      3634 3.73136E-03-2.36094E-04-7.67621E-15
 -1      3635 3.87535E-03-2.35770E-04-8.24148E-15
 -1      3636 3.65764E-03-1.98279E-04-7.36806E-15
 -1      3637 4.01923E-03-2.35351E-04-8.82513E-15
 -1      3638 4.16298E-03-2.34846E-04-9.42880E-15
 -1      3639 3.94596E-03-1.97730E-04-8.49422E-15
 -1      3640 4.30661E-03-2.34283E-04-1.00499E-14
 -1      3641 4.45013E-03-2.33667E-04-1.06896E-14
 -1      3642 4.23373E-03-1.96871E-04-9.69548E-15
 -1      3643 4.59353E-03-2.33017E-04-1.13478E-14
 -1      3644 4.73681E-03-2.32335E-04-1.20240E-14
 -1      3645 4.52096E-03-1.95827E-04-1.09719E-14
 -1      3646 4.87996E-03-2.31638E-04-1.27187E-14
 -1      3647 5.02299E-03-2.30927E-04-1.34319E-14
 -1      3648 4.80765E-03-1.94687E-04-1.23207E-14
 -1      3649 5.16589E-03-2.30216E-04-1.41624E-14
 -1      3650 5.30864E-03-2.29507E-04-1.49118E-14
 -1      3651 5.09377E-03-1.93526E-04-1.37430E-14
 -1      3652 5.45122E-03-2.28821E-04-1.56806E-14
 -1      3653 5.59362E-03-2.28160E-04-1.64676E-14
 -1      3654 5.37927E-03-1.92427E-04-1.52388E-14
 -1      3655 5.73581E-03-2.27555E-04-1.72730E-14
 -1      3656 5.87775E-03-2.27014E-04-1.80980E-14
 -1      3657 5.66402E-03-1.91501E-04-1.68091E-14
 -1      3658 6.02647E-03-2.26570E-04-1.89849E-14
 -1      3659 6.17481E-03-2.26270E-04-1.98919E-14
 -1      3660 5.95489E-03-1.90922E-04-1.84984E-14
 -1      3661 6.31566E-03-2.26209E-04-2.07755E-14
 -1      3662 6.45600E-03-2.26391E-04-2.16779E-14
 -1      3663 6.24439E-03-1.91032E-04-2.02659E-14
 -1      3664 6.59575E-03-2.26957E-04-2.25977E-14
 -1      3665 6.73477E-03-2.27944E-04-2.35356E-14
 -1      3666 6.52503E-03-1.92297E-04-2.20671E-14
 -1      3667 6.87293E-03-2.29576E-04-2.44920E-14
 -1      3668 7.01005E-03-2.31904E-04-2.54648E-14
 -1      3669 6.80320E-03-1.95458E-04-2.39400E-14
 -1      3670 7.14598E-03-2.35274E-04-2.64550E-14
 -1      3671 7.28043E-03-2.39748E-04-2.74618E-14
 -1      3672 7.07798E-03-2.01645E-04-2.58824E-14
 -1      3673 7.41326E-03-2.45837E-04-2.84844E-14
 -1      3674 7.54402E-03-2.53606E-04-2.95215E-14
 -1      3675 7.34823E-03-2.12483E-04-2.78907E-14
 -1      3676 7.67269E-03-2.63772E-04-3.05749E-14
 -1      3677 7.79857E-03-2.76365E-04-3.16430E-14
 -1      3678 7.61263E-03-2.30175E-04-2.99626E-14
 -1      3679 7.92191E-03-2.92327E-04-3.27258E-14
 -1      3680 8.04163E-03-3.11561E-04-3.38196E-14
 -1      3681 7.86996E-03-2.57467E-04-3.20938E-14
 -1      3682 3.70567E-03 2.50919E-04-6.87302E-15
 -1      3683 3.56161E-03 2.51026E-04-6.36191E-15
 -1      3684 2.12610E-03 3.05675E-04-2.24682E-15
 -1      3685 1.98189E-03 2.99199E-04-1.96270E-15
 -1      3686 2.19287E-03 2.72136E-04-2.44811E-15
 -1      3687 4.28075E-03 2.49376E-04-9.11563E-15
 -1      3688 4.13715E-03 2.49892E-04-8.52539E-15
 -1      3689 3.99344E-03 2.50329E-04-7.95493E-15
 -1      3690 3.84961E-03 2.50683E-04-7.40418E-15
 -1      3691 3.77601E-03 2.12938E-04-7.21379E-15
 -1      3692 4.06398E-03 2.12339E-04-8.32013E-15
 -1      3693 3.41743E-03 2.50954E-04-5.87022E-15
 -1      3694 3.27314E-03 2.50684E-04-5.39765E-15
 -1      3695 3.48751E-03 2.13095E-04-6.18536E-15
 -1      3696 4.56766E-03 2.48182E-04-1.03523E-14
 -1      3697 4.42426E-03 2.48807E-04-9.72403E-15
 -1      3698 4.35145E-03 2.11448E-04-9.50455E-15
 -1      3699 4.85419E-03 2.46813E-04-1.16655E-14
 -1      3700 4.71097E-03 2.47519E-04-1.09998E-14
 -1      3701 4.63844E-03 2.10351E-04-1.07655E-14
 -1      3702 5.14041E-03 2.45291E-04-1.30537E-14
 -1      3703 4.99734E-03 2.46072E-04-1.23500E-14
 -1      3704 4.92501E-03 2.09087E-04-1.21022E-14
 -1      3705 5.42637E-03 2.43611E-04-1.45172E-14
 -1      3706 5.28342E-03 2.44474E-04-1.37765E-14
 -1      3707 5.21120E-03 2.07655E-04-1.35138E-14
 -1      3708 5.71219E-03 2.41743E-04-1.60558E-14
 -1      3709 5.56929E-03 2.42704E-04-1.52769E-14
 -1      3710 5.49709E-03 2.06024E-04-1.50004E-14
 -1      3711 5.99800E-03 2.39644E-04-1.76713E-14
 -1      3712 5.85508E-03 2.40725E-04-1.68538E-14
 -1      3713 5.78279E-03 2.04132E-04-1.65617E-14
 -1      3714 6.28404E-03 2.37270E-04-1.93611E-14
 -1      3715 6.14097E-03 2.38492E-04-1.85072E-14
 -1      3716 6.06844E-03 2.01898E-04-1.81992E-14
 -1      3717 6.57067E-03 2.34596E-04-2.11242E-14
 -1      3718 6.42725E-03 2.35967E-04-2.02338E-14
 -1      3719 6.35433E-03 1.99227E-04-1.99116E-14
 -1      3720 6.85843E-03 2.31646E-04-2.29601E-14
 -1      3721 6.71436E-03 2.33144E-04-2.20325E-14
 -1      3722 6.64084E-03 1.96033E-04-2.16962E-14
 -1      3723 7.14809E-03 2.28548E-04-2.48650E-14
 -1      3724 7.00296E-03 2.30089E-04-2.39038E-14
 -1      3725 6.92859E-03 1.92274E-04-2.35530E-14
 -1      3726 7.44069E-03 2.25612E-04-2.68377E-14
 -1      3727 7.29395E-03 2.27011E-04-2.58429E-14
 -1      3728 7.21849E-03 1.88022E-04-2.54782E-14
 -1      3729 7.73754E-03 2.23433E-04-2.88755E-14
 -1      3730 7.58851E-03 2.24347E-04-2.78493E-14
 -1      3731 7.51177E-03 1.83577E-04-2.74714E-14
 -1      3732 8.04007E-03 2.22993E-04-3.09758E-14
 -1      3733 7.88803E-03 2.22880E-04-2.99175E-14
 -1      3734 7.81001E-03 1.79622E-04-2.95276E-14
 -1      3735 8.34957E-03 2.25652E-04-3.31303E-14
 -1      3736 8.19394E-03 2.23795E-04-3.20462E-14
 -1      3737 8.11500E-03 1.77401E-04-3.16439E-14
 -1      3738 8.66660E-03 2.32870E-04-3.53440E-14
 -1      3739 8.50724E-03 2.28580E-04-3.42304E-14
 -1      3740 8.42844E-03 1.78787E-04-3.38176E-14
 -1      3741 8.99014E-03 2.45312E-04-3.76087E-14
 -1      3742 8.82780E-03 2.38461E-04-3.64703E-14
 -1      3743 8.75115E-03 1.86012E-04-3.60462E-14
 -1      3744 9.31685E-03 2.60969E-04-3.99274E-14
 -1      3745 9.15350E-03 2.53137E-04-3.87615E-14
 -1      3746 9.08198E-03 2.00648E-04-3.83261E-14
 -1      3747 9.64126E-03 2.72537E-04-4.23015E-14
 -1      3748 9.47981E-03 2.68081E-04-4.11077E-14
 -1      3749 9.41678E-03 2.20408E-04-4.06610E-14
 -1      3750 9.95787E-03 2.66538E-04-4.47253E-14
 -1      3751 9.80081E-03 2.73187E-04-4.35079E-14
 -1      3752 9.74861E-03 2.37083E-04-4.30469E-14
 -1      3753 1.02647E-02 2.24413E-04-4.72034E-14
 -1      3754 1.01122E-02 2.51313E-04-4.59576E-14
 -1      3755 1.00709E-02 2.32887E-04-4.54870E-14
 -1      3756 1.05658E-02 1.31289E-04-4.97346E-14
 -1      3757 1.04151E-02 1.84734E-04-4.84628E-14
 -1      3758 1.03824E-02 1.85130E-04-4.79777E-14
 -1      3759 1.08692E-02-1.55563E-05-5.23129E-14
 -1      3760 1.07161E-02 6.38547E-05-5.10168E-14
 -1      3761 1.06889E-02 7.77065E-05-5.05257E-14
 -1      3762 1.11825E-02-2.04456E-04-5.49376E-14
 -1      3763 1.10245E-02-1.06030E-04-5.36198E-14
 -1      3764 1.10013E-02-8.83355E-05-5.31193E-14
 -1      3765 1.15049E-02-4.17551E-04-5.75940E-14
 -1      3766 1.13428E-02-3.09339E-04-5.62616E-14
 -1      3767 1.13258E-02-2.94165E-04-5.57543E-14
 -1      3768 1.18319E-02-6.38693E-04-6.02780E-14
 -1      3769 1.16683E-02-5.27981E-04-5.89338E-14
 -1      3770 1.16590E-02-5.17932E-04-5.84210E-14
 -1      3771 1.21576E-02-8.58382E-04-6.29915E-14
 -1      3772 1.19954E-02-7.49064E-04-6.16314E-14
 -1      3773 1.19941E-02-7.43062E-04-6.11139E-14
 -1      3774 1.24777E-02-1.07317E-03-6.57267E-14
 -1      3775 1.23186E-02-9.66415E-04-6.43550E-14
 -1      3776 1.23245E-02-9.62139E-04-6.38318E-14
 -1      3777 1.27903E-02-1.28308E-03-6.84858E-14
 -1      3778 1.26350E-02-1.17860E-03-6.71034E-14
 -1      3779 1.26465E-02-1.17404E-03-6.65731E-14
 -1      3780 1.30821E-02-1.48079E-03-7.11512E-14
 -1      3781 1.29302E-02-1.37774E-03-6.97609E-14
 -1      3782 1.29455E-02-1.37172E-03-6.92267E-14
 -1      3783 1.32231E-02-1.55778E-03-7.17861E-14
 -1      3784 2.55014E-03 2.44287E-04-3.33823E-15
 -1      3785 2.40535E-03 2.41506E-04-2.98622E-15
 -1      3786 1.37897E-03 1.43136E-06-1.22153E-15
 -1      3787 1.25663E-03-1.41419E-05-1.04632E-15
 -1      3788 1.25728E-03-4.51179E-05-1.05946E-15
 -1      3789 9.69065E-03 8.33493E-05-4.26967E-14
 -1      3790 9.78100E-03 1.36286E-04-4.32407E-14
 -1      3791 1.40689E-02-1.90854E-03-7.32133E-14
 -1      3792 1.39542E-02-1.86797E-03-7.30312E-14
 -1      3793 1.40085E-02-1.85075E-03-7.20911E-14
 -1      3794 1.24598E-03 1.67929E-04-9.01270E-16
 -1      3795 1.24223E-03 1.35708E-04-9.26383E-16
 -1      3796 1.36336E-03 1.27032E-04-1.10803E-15
 -1      3797 1.32677E-03 1.79990E-04-1.00256E-15
 -1      3798 1.33298E-02-1.60690E-03-7.19670E-14
 -1      3799 1.24812E-03-7.13648E-05-1.05397E-15
 -1      3800 1.25010E-03-1.02595E-04-1.06298E-15
 -1      3801 1.35256E-03-1.14679E-04-1.21935E-15
 -1      3802 1.36982E-03-5.91863E-05-1.23335E-15
 -1      3803 1.39593E-02-1.63719E-03-6.72047E-14
 -1      3804 1.40569E-02-1.71530E-03-6.86361E-14
 -1      3805 1.38531E-02-1.61484E-03-6.69423E-14
 -1      3806 9.01999E-03-1.97588E-04-3.94525E-14
 -1      3807 9.14390E-03-1.28350E-04-3.98557E-14
 -1      3808 1.43639E-02-1.92561E-03-7.20616E-14
 -1      3809 1.44860E-02-2.01654E-03-7.34635E-14
 -1      3810 1.44357E-02-2.00704E-03-7.34693E-14
 -1      3811 1.55939E-03-1.58832E-04-1.56683E-15
 -1      3812 1.34254E-02-1.64508E-03-7.19382E-14
 -1      3813 1.31781E-02-1.50457E-03-7.04745E-14
 -1      3814 1.33519E-02-1.43864E-03-6.48553E-14
 -1      3815 1.34987E-02-1.51680E-03-6.61956E-14
 -1      3816 1.32326E-02-1.39649E-03-6.46305E-14
 -1      3817 8.11205E-03-2.98451E-04-3.42363E-14
 -1      3818 8.15155E-03-3.35865E-04-3.48831E-14
 -1      3819 8.25637E-03-3.63545E-04-3.59585E-14
 -1      3820 1.90401E-03 2.60217E-04-1.87295E-15
 -1      3821 9.22527E-03-7.76837E-05-4.01345E-14
 -1      3822 9.29975E-03-2.64749E-05-4.04130E-14
 -1      3823 9.05250E-03-9.19789E-05-3.90643E-14
 -1      3824 9.55275E-03 6.34312E-05-4.18161E-14
 -1      3825 2.69490E-03 2.46467E-04-3.70981E-15
 -1      3826 2.61911E-03 2.08177E-04-3.57598E-15
 -1      3827 2.83960E-03 2.48107E-04-4.10124E-15
 -1      3828 1.50231E-03 1.87193E-05-1.40903E-15
 -1      3829 1.50226E-03-1.57058E-05-1.42849E-15
 -1      3830 1.40233E-02-1.73525E-03-6.91556E-14
 -1      3831 1.41219E-02-1.76076E-03-6.94213E-14
 -1      3832 1.41881E-02-1.80792E-03-7.02096E-14
 -1      3833 1.15305E-02-4.18819E-04-5.62890E-14
 -1      3834 1.16783E-02-5.20599E-04-5.74064E-14
 -1      3835 1.13966E-02-3.30207E-04-5.55212E-14
 -1      3836 3.19848E-03 2.12586E-04-5.23540E-15
 -1      3837 3.12873E-03 2.50150E-04-4.94521E-15
 -1      3838 2.98421E-03 2.49320E-04-4.51314E-15
 -1      3839 1.04830E-02 1.50449E-04-4.85383E-14
 -1      3840 1.06137E-02 1.10599E-04-4.95078E-14
 -1      3841 8.86121E-03-2.16284E-04-3.85508E-14
 -1      3842 1.35366E-02-1.69377E-03-7.21159E-14
 -1      3843 1.27446E-02-1.15713E-03-6.20015E-14
 -1      3844 1.29361E-02-1.25549E-03-6.30759E-14
 -1      3845 1.26157E-02-1.09411E-03-6.17810E-14
 -1      3846 1.21072E-02-7.97360E-04-5.94440E-14
 -1      3847 1.22781E-02-9.03694E-04-6.04031E-14
 -1      3848 1.19841E-02-7.21749E-04-5.91376E-14
 -1      3849 1.37877E-02-1.62273E-03-6.73957E-14
 -1      3850 1.37735E-02-1.76808E-03-7.17314E-14
 -1      3851 1.38394E-02-1.82502E-03-7.28502E-14
 -1      3852 1.37252E-02-1.77997E-03-7.26716E-14
 -1      3853 1.43924E-02-2.00063E-03-7.35205E-14
 -1      3854 1.43385E-02-1.98919E-03-7.35255E-14
 -1      3855 1.41725E-02-1.89641E-03-7.22217E-14
 -1      3856 1.42669E-02-1.91142E-03-7.21198E-14
 -1      3857 8.54760E-03-3.21210E-04-3.73852E-14
 -1      3858 8.59869E-03-2.86176E-04-3.73911E-14
 -1      3859 1.00705E-02 1.78493E-04-4.52735E-14
 -1      3860 1.02313E-02 1.67856E-04-4.63995E-14
 -1      3861 1.50480E-03 8.78723E-05-1.36296E-15
 -1      3862 1.50316E-03 5.32044E-05-1.38739E-15
 -1      3863 1.62654E-03 3.74825E-05-1.60882E-15
 -1      3864 1.42945E-02-1.87541E-03-7.12730E-14
 -1      3865 2.32911E-03 2.03272E-04-2.86640E-15
 -1      3866 2.26057E-03 2.37988E-04-2.65471E-15
 -1      3867 2.11584E-03 2.33659E-04-2.34318E-15
 -1      3868 1.48937E-03 2.03687E-04-1.22172E-15
 -1      3869 1.40790E-03 1.91911E-04-1.10934E-15
 -1      3870 1.42572E-03 1.64475E-04-1.16649E-15
 -1      3871 1.03028E-02 1.74748E-04-4.70095E-14
 -1      3872 9.77488E-03 1.91385E-04-4.31915E-14
 -1      3873 9.93247E-03 1.95914E-04-4.43137E-14
 -1      3874 8.44934E-03-3.41022E-04-3.69708E-14
 -1      3875 1.63285E-03 2.13216E-04-1.44581E-15
 -1      3876 1.77922E-03 2.13080E-04-1.70495E-15
 -1      3877 1.65306E-03 1.75383E-04-1.52620E-15
 -1      3878 1.09461E-02-4.10661E-05-5.20774E-14
 -1      3879 1.10634E-02-1.06543E-04-5.28641E-14
 -1      3880 4.42236E-03 1.73532E-04-9.89698E-15
 -1      3881 4.27865E-03 1.73959E-04-9.28371E-15
 -1      3882 2.13383E-03-1.49553E-04-2.72785E-15
 -1      3883 2.27890E-03-1.52352E-04-3.07106E-15
 -1      3884 2.42408E-03-1.54609E-04-3.43467E-15
 -1      3885 2.56931E-03-1.56382E-04-3.81802E-15
 -1      3886 2.34916E-03-1.17051E-04-3.23019E-15
 -1      3887 2.71453E-03-1.57758E-04-4.22209E-15
 -1      3888 2.85971E-03-1.58774E-04-4.64563E-15
 -1      3889 2.63984E-03-1.19819E-04-3.99302E-15
 -1      3890 3.00481E-03-1.59509E-04-5.08968E-15
 -1      3891 3.14980E-03-1.59985E-04-5.55318E-15
 -1      3892 2.93046E-03-1.21410E-04-4.83625E-15
 -1      3893 3.29467E-03-1.60268E-04-6.03668E-15
 -1      3894 3.43940E-03-1.60372E-04-6.54031E-15
 -1      3895 3.22072E-03-1.22158E-04-5.75953E-15
 -1      3896 3.58399E-03-1.60347E-04-7.06335E-15
 -1      3897 3.72843E-03-1.60202E-04-7.60522E-15
 -1      3898 3.51044E-03-1.22323E-04-6.76174E-15
 -1      3899 3.87273E-03-1.59975E-04-8.16570E-15
 -1      3900 4.01687E-03-1.59671E-04-8.74558E-15
 -1      3901 3.79956E-03-1.22099E-04-7.84052E-15
 -1      3902 4.16086E-03-1.59318E-04-9.34435E-15
 -1      3903 4.30471E-03-1.58917E-04-9.96223E-15
 -1      3904 4.08804E-03-1.21628E-04-8.99618E-15
 -1      3905 4.44840E-03-1.58493E-04-1.05981E-14
 -1      3906 4.59195E-03-1.58044E-04-1.12526E-14
 -1      3907 4.37589E-03-1.21016E-04-1.02276E-14
 -1      3908 4.73536E-03-1.57590E-04-1.19249E-14
 -1      3909 4.87861E-03-1.57131E-04-1.26162E-14
 -1      3910 4.66310E-03-1.20343E-04-1.15325E-14
 -1      3911 5.02170E-03-1.56686E-04-1.33262E-14
 -1      3912 5.16464E-03-1.56256E-04-1.40533E-14
 -1      3913 4.94968E-03-1.19686E-04-1.29111E-14
 -1      3914 5.30740E-03-1.55866E-04-1.47990E-14
 -1      3915 5.44998E-03-1.55520E-04-1.55644E-14
 -1      3916 5.23560E-03-1.19129E-04-1.43630E-14
 -1      3917 5.59236E-03-1.55249E-04-1.63485E-14
 -1      3918 5.73450E-03-1.55066E-04-1.71508E-14
 -1      3919 5.52079E-03-1.18788E-04-1.58889E-14
 -1      3920 5.88349E-03-1.55019E-04-1.80137E-14
 -1      3921 6.03215E-03-1.55146E-04-1.88976E-14
 -1      3922 5.81222E-03-1.18851E-04-1.75320E-14
 -1      3923 6.17340E-03-1.55506E-04-1.97591E-14
 -1      3924 6.31426E-03-1.56134E-04-2.06400E-14
 -1      3925 6.10256E-03-1.19627E-04-1.92538E-14
 -1      3926 6.45468E-03-1.57144E-04-2.15390E-14
 -1      3927 6.59459E-03-1.58588E-04-2.24559E-14
 -1      3928 6.38451E-03-1.21513E-04-2.10123E-14
 -1      3929 6.73393E-03-1.60635E-04-2.33894E-14
 -1      3930 6.87258E-03-1.63360E-04-2.43420E-14
 -1      3931 6.66482E-03-1.25155E-04-2.28423E-14
 -1      3932 7.01051E-03-1.67005E-04-2.53109E-14
 -1      3933 7.14755E-03-1.71672E-04-2.62968E-14
 -1      3934 6.94311E-03-1.31471E-04-2.47413E-14
 -1      3935 7.28372E-03-1.77692E-04-2.72995E-14
 -1      3936 7.41877E-03-1.85190E-04-2.83177E-14
 -1      3937 7.21902E-03-1.41708E-04-2.67087E-14
 -1      3938 7.55288E-03-1.94572E-04-2.93519E-14
 -1      3939 7.68567E-03-2.05987E-04-3.04002E-14
 -1      3940 7.49237E-03-1.57455E-04-2.87422E-14
 -1      3941 7.81765E-03-2.19864E-04-3.14630E-14
 -1      3942 7.94828E-03-2.36345E-04-3.25400E-14
 -1      3943 7.76348E-03-1.80469E-04-3.08348E-14
 -1      3944 3.55803E-03 1.75122E-04-6.50471E-15
 -1      3945 3.41347E-03 1.75061E-04-6.00760E-15
 -1      3946 1.92353E-03 2.19679E-04-1.96971E-15
 -1      3947 4.70938E-03 1.72555E-04-1.11830E-14
 -1      3948 4.56593E-03 1.73067E-04-1.05304E-14
 -1      3949 4.49345E-03 1.35661E-04-1.02942E-14
 -1      3950 1.11437E-02-1.63750E-04-5.36730E-14
 -1      3951 1.39514E-02-1.79470E-03-7.09727E-14
 -1      3952 1.38309E-02-1.75574E-03-7.07930E-14
 -1      3953 4.99593E-03 1.71412E-04-1.25422E-14
 -1      3954 4.85271E-03 1.72007E-04-1.18531E-14
 -1      3955 4.78045E-03 1.34823E-04-1.16026E-14
 -1      3956 5.28205E-03 1.70080E-04-1.39765E-14
 -1      3957 5.13904E-03 1.70775E-04-1.32502E-14
 -1      3958 5.06692E-03 1.33815E-04-1.29850E-14
 -1      3959 5.56781E-03 1.68496E-04-1.54850E-14
 -1      3960 5.42497E-03 1.69326E-04-1.47213E-14
 -1      3961 5.35293E-03 1.32587E-04-1.44414E-14
 -1      3962 5.85333E-03 1.66568E-04-1.70702E-14
 -1      3963 5.71059E-03 1.67583E-04-1.62685E-14
 -1      3964 5.63852E-03 1.31051E-04-1.59729E-14
 -1      3965 6.13877E-03 1.64166E-04-1.87304E-14
 -1      3966 5.99604E-03 1.65435E-04-1.78911E-14
 -1      3967 5.92380E-03 1.29071E-04-1.75807E-14
 -1      3968 6.42440E-03 1.61138E-04-2.04642E-14
 -1      3969 6.28153E-03 1.62739E-04-1.95884E-14
 -1      3970 6.20893E-03 1.26467E-04-1.92649E-14
 -1      3971 6.71066E-03 1.57322E-04-2.22725E-14
 -1      3972 6.56741E-03 1.59333E-04-2.13595E-14
 -1      3973 6.49420E-03 1.23017E-04-2.10209E-14
 -1      3974 6.99825E-03 1.52598E-04-2.41498E-14
 -1      3975 6.85423E-03 1.55068E-04-2.32020E-14
 -1      3976 6.78006E-03 1.18471E-04-2.28503E-14
 -1      3977 7.28816E-03 1.46967E-04-2.60948E-14
 -1      3978 7.14283E-03 1.49869E-04-2.51133E-14
 -1      3979 7.06725E-03 1.12609E-04-2.47477E-14
 -1      3980 7.58184E-03 1.40708E-04-2.81063E-14
 -1      3981 7.43442E-03 1.43852E-04-2.70929E-14
 -1      3982 7.35690E-03 1.05346E-04-2.67132E-14
 -1      3983 7.88119E-03 1.34600E-04-3.01821E-14
 -1      3984 7.73068E-03 1.37514E-04-2.91377E-14
 -1      3985 7.65066E-03 9.69239E-05-2.87452E-14
 -1      3986 8.18843E-03 1.30192E-04-3.23146E-14
 -1      3987 8.03370E-03 1.31985E-04-3.12404E-14
 -1      3988 7.95076E-03 8.82297E-05-3.08371E-14
 -1      3989 8.50577E-03 1.29982E-04-3.45053E-14
 -1      3990 8.34578E-03 1.29283E-04-3.34025E-14
 -1      3991 8.26000E-03 8.11994E-05-3.29874E-14
 -1      3992 8.83449E-03 1.37220E-04-3.67484E-14
 -1      3993 8.66885E-03 1.32427E-04-3.56202E-14
 -1      3994 8.58123E-03 7.91458E-05-3.51927E-14
 -1      3995 9.17351E-03 1.54664E-04-3.90429E-14
 -1      3996 9.00313E-03 1.44528E-04-3.78900E-14
 -1      3997 8.91634E-03 8.66695E-05-3.74521E-14
 -1      3998 9.60367E-03 1.78411E-04-4.19923E-14
 -1      3999 1.02083E-02 2.06066E-04-4.64586E-14
 -1      4000 1.00477E-02 2.16541E-04-4.52233E-14
 -1      4001 1.11004E-02-1.44221E-04-5.36823E-14
 -1      4002 1.09381E-02-4.75053E-05-5.23738E-14
 -1      4003 1.15149E-02-4.17105E-04-5.68600E-14
 -1      4004 1.13443E-02-3.02304E-04-5.55314E-14
 -1      4005 1.21635E-02-8.50523E-04-6.19503E-14
 -1      4006 1.19933E-02-7.38499E-04-6.05958E-14
 -1      4007 1.24969E-02-1.06681E-03-6.46738E-14
 -1      4008 1.23317E-02-9.59872E-04-6.33096E-14
 -1      4009 1.23403E-02-9.59423E-04-6.27864E-14
 -1      4010 1.28191E-02-1.27450E-03-6.74201E-14
 -1      4011 1.26595E-02-1.17147E-03-6.60430E-14
 -1      4012 1.26742E-02-1.17091E-03-6.55148E-14
 -1      4013 1.30381E-02-1.41294E-03-6.91989E-14
 -1      4014 1.42016E-02-1.84821E-03-7.10045E-14
 -1      4015 1.84442E-03-1.41993E-04-2.10315E-15
 -1      4016 1.98898E-03-1.46123E-04-2.40536E-15
 -1      4017 2.05890E-03-1.12696E-04-2.54794E-15
 -1      4018 8.68373E-03-2.26634E-04-3.74657E-14
 -1      4019 8.79056E-03-1.57474E-04-3.77025E-14
 -1      4020 1.07739E-02 4.58535E-05-5.07897E-14
 -1      4021 1.36854E-02-1.62421E-03-6.80478E-14
 -1      4022 1.38635E-02-1.70008E-03-6.90265E-14
 -1      4023 1.30574E-02-1.41014E-03-6.86626E-14
 -1      4024 1.34638E-02-1.63555E-03-7.09986E-14
 -1      4025 1.12066E-02-2.10532E-04-5.44264E-14
 -1      4026 9.28128E-03 4.39500E-05-4.00423E-14
 -1      4027 9.35015E-03 1.05693E-04-4.03524E-14
 -1      4028 8.54190E-03-2.28038E-04-3.65572E-14
 -1      4029 8.32971E-03-3.57583E-04-3.63745E-14
 -1      4030 8.33786E-03-3.07236E-04-3.58923E-14
 -1      4031 1.61587E-03-2.90156E-05-1.63064E-15
 -1      4032 1.49244E-03-4.49838E-05-1.42583E-15
 -1      4033 1.48318E-03-7.41416E-05-1.42117E-15
 -1      4034 9.43107E-03 1.64587E-04-4.08048E-14
 -1      4035 1.29822E-02-1.29497E-03-6.41853E-14
 -1      4036 1.31063E-02-1.34778E-03-6.44067E-14
 -1      4037 1.32688E-02-1.43484E-03-6.57433E-14
 -1      4038 8.07080E-03-2.57327E-04-3.35893E-14
 -1      4039 8.19137E-03-2.81131E-04-3.46491E-14
 -1      4040 8.02571E-03-2.14249E-04-3.29423E-14
 -1      4041 1.16534E-02-5.11715E-04-5.80268E-14
 -1      4042 1.16824E-02-5.27221E-04-5.78010E-14
 -1      4043 1.18222E-02-6.19599E-04-5.85779E-14
 -1      4044 1.18247E-02-6.27068E-04-5.93677E-14
 -1      4045 1.36487E-02-1.65989E-03-6.95012E-14
 -1      4046 1.37096E-02-1.71306E-03-7.06155E-14
 -1      4047 1.35889E-02-1.66725E-03-7.04362E-14
 -1      4048 4.20589E-03 1.36341E-04-9.06165E-15
 -1      4049 4.13481E-03 1.74331E-04-8.68996E-15
 -1      4050 3.99083E-03 1.74652E-04-8.11428E-15
 -1      4051 1.19783E-02-7.22192E-04-5.95343E-14
 -1      4052 3.33956E-03 1.36955E-04-5.82822E-15
 -1      4053 3.26877E-03 1.74837E-04-5.52999E-15
 -1      4054 3.12395E-03 1.74437E-04-5.07192E-15
 -1      4055 3.70244E-03 1.75065E-04-7.02178E-15
 -1      4056 3.62895E-03 1.37082E-04-6.82805E-15
 -1      4057 3.84671E-03 1.74896E-04-7.55770E-15
 -1      4058 1.99174E-03 1.87387E-04-2.15035E-15
 -1      4059 8.89087E-03-8.94416E-05-3.79827E-14
 -1      4060 8.96349E-03-4.52431E-05-3.82554E-14
 -1      4061 2.90897E-03 2.11092E-04-4.36565E-15
 -1      4062 9.11355E-03 2.73777E-05-3.89727E-14
 -1      4063 1.40320E-02-1.78711E-03-7.03194E-14
 -1      4064 1.03241E-02 1.82687E-04-4.72804E-14
 -1      4065 1.08497E-02 5.31937E-06-5.15218E-14
 -1      4066 1.19957E-02-7.37008E-04-6.01979E-14
 -1      4067 1.34183E-02-1.58798E-03-6.98235E-14
 -1      4068 1.32233E-02-1.49593E-03-6.92725E-14
 -1      4069 1.30032E-02-1.36246E-03-6.74946E-14
 -1      4070 1.33483E-02-1.53375E-03-6.87133E-14
 -1      4071 1.68979E-03-1.14965E-04-1.79713E-15
 -1      4072 1.75972E-03-8.40197E-05-1.92031E-15
 -1      4073 2.68882E-03 1.71667E-04-3.81883E-15
 -1      4074 2.54364E-03 1.70064E-04-3.44108E-15
 -1      4075 1.47452E-03-1.03237E-04-1.41434E-15
 -1      4076 1.24688E-02-1.01746E-03-6.14717E-14
 -1      4077 1.26584E-02-1.12493E-03-6.25456E-14
 -1      4078 1.23329E-02-9.40986E-04-6.11637E-14
 -1      4079 1.59006E-03 1.36172E-04-1.46031E-15
 -1      4080 1.71291E-03 1.22510E-04-1.68955E-15
 -1      4081 1.41541E-02-1.84218E-03-7.10549E-14
 -1      4082 8.30692E-03-2.57778E-04-3.52303E-14
 -1      4083 8.71327E-03-1.07156E-04-3.69059E-14
 -1      4084 2.46858E-03 1.32213E-04-3.30478E-15
 -1      4085 2.39847E-03 1.67998E-04-3.08323E-15
 -1      4086 2.25335E-03 1.65423E-04-2.74508E-15
 -1      4087 1.75157E-03 5.74496E-05-1.82040E-15
 -1      4088 1.75067E-03 2.02229E-05-1.84703E-15
 -1      4089 1.86493E-03 7.24522E-06-2.07730E-15
 -1      4090 1.74007E-03-1.15107E-05-1.84770E-15
 -1      4091 1.73008E-03-4.30981E-05-1.84633E-15
 -1      4092 8.37250E-03-2.11141E-04-3.53042E-14
 -1      4093 8.43842E-03-1.57354E-04-3.53736E-14
 -1      4094 8.20923E-03-1.92699E-04-3.40696E-14
 -1      4095 7.94365E-03-1.55160E-04-3.19754E-14
 -1      4096 8.07583E-03-1.73258E-04-3.30163E-14
 -1      4097 8.12763E-03-1.27160E-04-3.30835E-14
 -1      4098 1.35834E-02-1.58980E-03-6.78182E-14
 -1      4099 2.56560E-03-8.21444E-05-3.76824E-15
 -1      4100 2.71104E-03-8.28725E-05-4.16742E-15
 -1      4101 2.85646E-03-8.34229E-05-4.58683E-15
 -1      4102 3.00179E-03-8.38015E-05-5.02605E-15
 -1      4103 2.78285E-03-4.55991E-05-4.34152E-15
 -1      4104 3.14703E-03-8.40572E-05-5.48572E-15
 -1      4105 3.29213E-03-8.41905E-05-5.96472E-15
 -1      4106 3.07364E-03-4.60023E-05-5.21547E-15
 -1      4107 3.43709E-03-8.42422E-05-6.46342E-15
 -1      4108 3.58189E-03-8.42096E-05-6.98206E-15
 -1      4109 3.36397E-03-4.61304E-05-6.16937E-15
 -1      4110 3.72654E-03-8.41259E-05-7.51878E-15
 -1      4111 3.87102E-03-8.39868E-05-8.07499E-15
 -1      4112 3.65369E-03-4.60736E-05-7.20023E-15
 -1      4113 4.01533E-03-8.38192E-05-8.65082E-15
 -1      4114 4.15947E-03-8.36182E-05-9.24572E-15
 -1      4115 3.94275E-03-4.59015E-05-8.30867E-15
 -1      4116 4.30345E-03-8.34063E-05-9.85925E-15
 -1      4117 4.44727E-03-8.31789E-05-1.04915E-14
 -1      4118 4.23112E-03-4.56702E-05-9.49392E-15
 -1      4119 4.59092E-03-8.29563E-05-1.11427E-14
 -1      4120 4.73441E-03-8.27353E-05-1.18117E-14
 -1      4121 4.51882E-03-4.54302E-05-1.07546E-14
 -1      4122 4.87773E-03-8.25362E-05-1.24986E-14
 -1      4123 5.02089E-03-8.23584E-05-1.32044E-14
 -1      4124 4.80585E-03-4.52354E-05-1.20890E-14
 -1      4125 5.16387E-03-8.22256E-05-1.39287E-14
 -1      4126 5.30668E-03-8.21409E-05-1.46713E-14
 -1      4127 5.09221E-03-4.51557E-05-1.34964E-14
 -1      4128 5.44930E-03-8.21356E-05-1.54329E-14
 -1      4129 5.59173E-03-8.22184E-05-1.62132E-14
 -1      4130 5.37789E-03-4.52918E-05-1.49793E-14
 -1      4131 5.74105E-03-8.24479E-05-1.70523E-14
 -1      4132 5.89012E-03-8.28447E-05-1.79119E-14
 -1      4133 5.66995E-03-4.58145E-05-1.65753E-14
 -1      4134 6.03185E-03-8.34444E-05-1.87508E-14
 -1      4135 6.17329E-03-8.42906E-05-1.96094E-14
 -1      4136 5.96117E-03-4.69740E-05-1.82510E-14
 -1      4137 6.31445E-03-8.54759E-05-2.04867E-14
 -1      4138 6.45528E-03-8.70450E-05-2.13822E-14
 -1      4139 6.24439E-03-4.90736E-05-1.99634E-14
 -1      4140 6.59579E-03-8.91270E-05-2.22953E-14
 -1      4141 6.73590E-03-9.17862E-05-2.32253E-14
 -1      4142 6.52665E-03-5.26305E-05-2.17495E-14
 -1      4143 6.87566E-03-9.51948E-05-2.41743E-14
 -1      4144 7.01499E-03-9.94408E-05-2.51387E-14
 -1      4145 6.80791E-03-5.83277E-05-2.36076E-14
 -1      4146 7.15399E-03-1.04736E-04-2.61212E-14
 -1      4147 7.29257E-03-1.11195E-04-2.71196E-14
 -1      4148 7.08830E-03-6.70470E-05-2.55342E-14
 -1      4149 7.43097E-03-1.19045E-04-2.81344E-14
 -1      4150 7.56909E-03-1.28433E-04-2.91643E-14
 -1      4151 7.36825E-03-7.98292E-05-2.75281E-14
 -1      4152 7.68627E-03-1.34307E-04-3.00298E-14
 -1      4153 7.82490E-03-1.46864E-04-3.10855E-14
 -1      4154 7.86786E-03-1.04220E-04-3.11537E-14
 -1      4155 7.62727E-03-9.26423E-05-2.94056E-14
 -1      4156 5.13800E-03 9.63064E-05-1.34297E-14
 -1      4157 4.99489E-03 9.67641E-05-1.27178E-14
 -1      4158 2.97900E-03 1.73799E-04-4.63406E-15
 -1      4159 2.83395E-03 1.72901E-04-4.21642E-15
 -1      4160 2.75920E-03 1.34810E-04-4.06604E-15
 -1      4161 3.04960E-03 1.36280E-04-4.90694E-15
 -1      4162 5.42384E-03 9.51932E-05-1.49091E-14
 -1      4163 5.28098E-03 9.57894E-05-1.41607E-14
 -1      4164 5.20915E-03 5.89106E-05-1.38776E-14
 -1      4165 4.85164E-03 9.71659E-05-1.20249E-14
 -1      4166 4.70825E-03 9.75277E-05-1.13502E-14
 -1      4167 4.92295E-03 5.96094E-05-1.24498E-14
 -1      4168 5.70921E-03 9.37054E-05-1.64638E-14
 -1      4169 5.56658E-03 9.45067E-05-1.56771E-14
 -1      4170 5.49478E-03 5.79206E-05-1.53801E-14
 -1      4171 5.99418E-03 9.16676E-05-1.80951E-14
 -1      4172 5.85173E-03 9.27689E-05-1.72695E-14
 -1      4173 5.77987E-03 5.64859E-05-1.69571E-14
 -1      4174 6.27892E-03 8.88409E-05-1.97997E-14
 -1      4175 6.13657E-03 9.03693E-05-1.89375E-14
 -1      4176 6.06447E-03 5.43864E-05-1.86095E-14
 -1      4177 6.56369E-03 8.49223E-05-2.15797E-14
 -1      4178 6.42128E-03 8.70359E-05-2.06811E-14
 -1      4179 6.34871E-03 5.13176E-05-2.03384E-14
 -1      4180 6.84894E-03 7.95622E-05-2.34284E-14
 -1      4181 6.70621E-03 8.24374E-05-2.24947E-14
 -1      4182 6.63282E-03 4.68857E-05-2.21384E-14
 -1      4183 7.13545E-03 7.24215E-05-2.53480E-14
 -1      4184 6.99197E-03 7.62177E-05-2.43804E-14
 -1      4185 6.91722E-03 4.06219E-05-2.40100E-14
 -1      4186 7.42442E-03 6.33012E-05-2.73335E-14
 -1      4187 7.27951E-03 6.80838E-05-2.63331E-14
 -1      4188 7.20268E-03 3.20423E-05-2.59512E-14
 -1      4189 7.71771E-03 5.23828E-05-2.93837E-14
 -1      4190 7.57037E-03 5.79819E-05-2.83498E-14
 -1      4191 7.49048E-03 2.08004E-05-2.79553E-14
 -1      4192 8.01794E-03 4.06458E-05-3.14931E-14
 -1      4193 7.86675E-03 4.64353E-05-3.04318E-14
 -1      4194 7.78267E-03 6.99957E-06-3.00231E-14
 -1      4195 8.32857E-03 3.04547E-05-3.36609E-14
 -1      4196 8.17172E-03 3.50040E-05-3.25696E-14
 -1      4197 8.08228E-03-8.33539E-06-3.21506E-14
 -1      4198 8.95115E-03 2.58457E-05-3.78909E-14
 -1      4199 8.77918E-03 2.09563E-05-3.67504E-14
 -1      4200 1.88381E-03-6.72444E-05-2.15851E-15
 -1      4201 1.25242E-02-1.06911E-03-6.36229E-14
 -1      4202 1.23521E-02-9.61418E-04-6.22637E-14
 -1      4203 2.02853E-03-6.91375E-05-2.46268E-15
 -1      4204 2.17357E-03-7.06881E-05-2.78736E-15
 -1      4205 1.99916E-03-2.60737E-05-2.37532E-15
 -1      4206 1.28493E-02-1.26867E-03-6.62392E-14
 -1      4207 1.26854E-02-1.16749E-03-6.48708E-14
 -1      4208 1.27073E-02-1.17200E-03-6.43435E-14
 -1      4209 1.30226E-02-1.35926E-03-6.68461E-14
 -1      4210 2.29681E-03-7.59822E-05-3.08088E-15
 -1      4211 2.44219E-03-7.70842E-05-3.44265E-15
 -1      4212 2.51396E-03-4.05981E-05-3.60204E-15
 -1      4213 2.26732E-03-3.12927E-05-2.98158E-15
 -1      4214 1.91362E-03 1.46763E-04-2.04373E-15
 -1      4215 1.82750E-03 9.54350E-05-1.93016E-15
 -1      4216 1.95167E-03 7.84619E-05-2.19287E-15
 -1      4217 2.10588E-03 1.58570E-04-2.42677E-15
 -1      4218 1.44421E-03 1.36972E-04-1.22219E-15
 -1      4219 1.33596E-02-1.48909E-03-6.66920E-14
 -1      4220 1.35608E-02-1.60445E-03-6.85451E-14
 -1      4221 1.34318E-02-1.55642E-03-6.83693E-14
 -1      4222 1.32456E-02-1.44354E-03-6.64661E-14
 -1      4223 4.56472E-03 9.78464E-05-1.06940E-14
 -1      4224 4.42104E-03 9.81346E-05-1.00561E-14
 -1      4225 4.63614E-03 6.01161E-05-1.10966E-14
 -1      4226 1.21565E-02-8.37410E-04-6.07634E-14
 -1      4227 8.56873E-03-1.04254E-04-3.59285E-14
 -1      4228 8.65634E-03-4.34150E-05-3.62015E-14
 -1      4229 8.63246E-03 1.80101E-05-3.57748E-14
 -1      4230 8.38921E-03-9.66148E-05-3.46856E-14
 -1      4231 2.17573E-03 1.24399E-04-2.62214E-15
 -1      4232 4.27720E-03 9.83833E-05-9.43748E-15
 -1      4233 4.13321E-03 9.86024E-05-8.83903E-15
 -1      4234 4.34872E-03 6.04881E-05-9.81759E-15
 -1      4235 3.41081E-03 9.89584E-05-6.13074E-15
 -1      4236 3.26586E-03 9.88179E-05-5.64777E-15
 -1      4237 3.91773E-03 1.36838E-04-7.90675E-15
 -1      4238 2.53941E-03 9.59425E-05-3.53100E-15
 -1      4239 2.39402E-03 9.47344E-05-3.16742E-15
 -1      4240 2.83022E-03 9.76273E-05-4.31759E-15
 -1      4241 2.68483E-03 9.69003E-05-3.91450E-15
 -1      4242 2.61091E-03 5.92374E-05-3.76177E-15
 -1      4243 8.46869E-03 1.95328E-05-3.46590E-14
 -1      4244 8.37295E-03-2.92681E-05-3.42288E-14
 -1      4245 1.28300E-02-1.22969E-03-6.42226E-14
 -1      4246 1.30024E-02-1.32766E-03-6.55567E-14
 -1      4247 2.09951E-03 8.32166E-05-2.49979E-15
 -1      4248 2.02352E-03 4.37894E-05-2.37431E-15
 -1      4249 3.70025E-03 9.89927E-05-7.15517E-15
 -1      4250 3.55561E-03 9.90171E-05-6.63308E-15
 -1      4251 3.48247E-03 6.08932E-05-6.43698E-15
 -1      4252 2.00959E-03 7.46838E-06-2.37424E-15
 -1      4253 1.40830E-02-1.79448E-03-7.02670E-14
 -1      4254 1.23487E-02-9.53788E-04-6.15947E-14
 -1      4255 2.15746E-03 1.03533E-05-2.69557E-15
 -1      4256 2.69634E-03 7.07480E-06-4.04878E-15
 -1      4257 2.84185E-03 7.16196E-06-4.46048E-15
 -1      4258 3.98905E-03 9.87769E-05-8.25837E-15
 -1      4259 3.84474E-03 9.89143E-05-7.69659E-15
 -1      4260 4.06064E-03 6.07493E-05-8.61330E-15
 -1      4261 8.25502E-03-8.02704E-05-3.36891E-14
 -1      4262 5.57876E-03 5.90282E-06-1.59575E-14
 -1      4263 5.43618E-03 6.34338E-06-1.51843E-14
 -1      4264 3.27782E-03 7.32718E-06-5.81517E-15
 -1      4265 3.42287E-03 7.37523E-06-6.30626E-15
 -1      4266 3.56778E-03 7.40265E-06-6.81669E-15
 -1      4267 3.71251E-03 7.43624E-06-7.34650E-15
 -1      4268 3.85707E-03 7.45091E-06-7.89577E-15
 -1      4269 4.00147E-03 7.46905E-06-8.46416E-15
 -1      4270 4.14569E-03 7.46778E-06-9.05275E-15
 -1      4271 4.28973E-03 7.46493E-06-9.65929E-15
 -1      4272 4.43361E-03 7.43896E-06-1.02846E-14
 -1      4273 4.57733E-03 7.40306E-06-1.09292E-14
 -1      4274 4.72087E-03 7.33562E-06-1.15917E-14
 -1      4275 4.86426E-03 7.24498E-06-1.22731E-14
 -1      4276 5.00748E-03 7.10750E-06-1.29722E-14
 -1      4277 5.15054E-03 6.92609E-06-1.36912E-14
 -1      4278 5.29344E-03 6.67260E-06-1.44284E-14
 -1      4279 5.72828E-03 5.30640E-06-1.67898E-14
 -1      4280 5.87052E-03 4.56323E-06-1.76030E-14
 -1      4281 6.01259E-03 3.62479E-06-1.84351E-14
 -1      4282 6.15450E-03 2.42989E-06-1.92843E-14
 -1      4283 6.29624E-03 9.40361E-07-2.01540E-14
 -1      4284 6.43786E-03-9.20663E-07-2.10441E-14
 -1      4285 6.57933E-03-3.21086E-06-2.19487E-14
 -1      4286 6.72073E-03-6.01930E-06-2.28713E-14
 -1      4287 6.86205E-03-9.42831E-06-2.38130E-14
 -1      4288 7.00344E-03-1.35251E-05-2.47716E-14
 -1      4289 7.14489E-03-1.84216E-05-2.57472E-14
 -1      4290 7.28665E-03-2.41677E-05-2.67388E-14
 -1      4291 7.42875E-03-3.09110E-05-2.77465E-14
 -1      4292 3.12076E-03 9.85585E-05-5.18455E-15
 -1      4293 2.97554E-03 9.81769E-05-4.74095E-15
 -1      4294 2.90183E-03 6.01738E-05-4.57399E-15
 -1      4295 3.19242E-03 6.06835E-05-5.46595E-15
 -1      4296 1.31021E-02-1.38710E-03-6.65045E-14
 -1      4297 7.57160E-03-3.85666E-05-2.87690E-14
 -1      4298 7.83834E-03-5.15077E-05-3.06798E-14
 -1      4299 7.69318E-03-4.22063E-05-2.96282E-14
 -1      4300 8.11204E-03-6.63481E-05-3.26402E-14
 -1      4301 7.96285E-03-5.61041E-05-3.15637E-14
 -1      4302 2.24699E-03 8.86058E-05-2.82471E-15
 -1      4303 1.32528E-02-1.47478E-03-6.77600E-14
 -1      4304 1.25303E-02-1.06236E-03-6.26659E-14
 -1      4305 2.31838E-03 5.30710E-05-3.03002E-15
 -1      4306 2.28056E-03 6.35313E-06-2.98353E-15
 -1      4307 3.13261E-03 7.28606E-06-5.34388E-15
 -1      4308 2.42752E-03 1.11435E-05-3.33761E-15
 -1      4309 3.77189E-03 6.08950E-05-7.48614E-15
 -1      4310 2.98728E-03 7.22112E-06-4.89218E-15
 -1      4311 2.55081E-03 6.98939E-06-3.65753E-15
 -1      4312 1.26959E-02-1.16099E-03-6.39090E-14
 -3
    1PSTEP                         2           1           1          
  100CL  101 1.000000000        4312                     0    1           1
 -4  STRESS      6    1
 -5  SXX         1    4    1    1
 -5  SYY         1    4    2    2
 -5  SZZ         1    4    3    3
 -5  SXY         1    4    1    2
 -5  SYZ         1    4    2    3
 -5  SZX         1    4    3    1
 -1         1 2.09009E+01 8.98566E+00-1.74187E-01-1.38744E+01-4.61409E-13 9.22373E-13
 -1         2-7.25496E-01-2.77786E+01-3.50541E+00 1.87513E-01 3.42365E-13-1.33341E-13
 -1         3 2.00007E+01 1.01867E-03-1.23203E-03 9.64026E-04-3.08816E-13-3.01651E-13
 -1         4 1.99855E+01-1.69314E-02 2.38006E-02 1.74554E-02 4.59872E-13-4.13148E-13
 -1         5 3.27676E+01 6.14257E+00 2.74209E+00 6.22397E+00-3.51108E-14 2.31858E-12
 -1         6 3.57513E+01 1.22630E+01 5.12512E+00-8.64623E+00-1.33615E-13 1.62120E-12
 -1         7 2.08193E+01 6.09984E+00-1.28549E-01-4.72497E+00-1.99563E-14 1.24449E-13
 -1         8 1.96721E+01 5.93501E+00 5.08075E-02-3.27404E+00-1.84019E-14-2.90988E-13
 -1         9 1.91373E+01 5.77203E+00 4.90250E-02-2.52618E+00-1.80082E-14-4.82182E-13
 -1        10 1.88961E+01 5.69233E+00 5.12639E-02-1.95066E+00-5.12004E-15-5.57150E-13
 -1        11 1.87737E+01 5.65134E+00 5.04107E-02-1.45549E+00-3.14158E-15-5.86589E-13
 -1        12 1.87099E+01 5.62955E+00 4.87774E-02-1.01472E+00 2.33429E-15-5.85032E-13
 -1        13 1.86763E+01 5.61807E+00 4.74079E-02-5.95077E-01 3.49937E-15-5.60871E-13
 -1        14 1.86621E+01 5.61322E+00 4.66790E-02-1.91102E-01 8.74631E-15-5.27991E-13
 -1        15 1.86626E+01 5.61338E+00 4.67198E-02 2.08120E-01 1.13636E-14-5.01249E-13
 -1        16 1.86778E+01 5.61856E+00 4.75453E-02 6.12925E-01 1.38268E-14-4.58906E-13
 -1        17 1.87127E+01 5.63031E+00 4.90698E-02 1.03455E+00 1.46768E-14-4.05295E-13
 -1        18 1.87777E+01 5.65238E+00 5.08077E-02 1.47850E+00 1.76690E-14-3.19662E-13
 -1        19 1.89013E+01 5.69393E+00 5.16652E-02 1.97946E+00 2.76472E-14-1.93142E-13
 -1        20 1.91437E+01 5.77475E+00 4.91508E-02 2.56333E+00 2.78024E-14 2.02030E-14
 -1        21 1.96674E+01 5.94964E+00 4.58352E-02 3.30829E+00 3.10169E-14 3.88987E-13
 -1        22 2.12018E+01 6.38153E+00 1.39509E-01 4.52248E+00 6.10623E-16 1.04685E-12
 -1        23 2.30300E+01-1.37925E+00-9.38298E-01-7.11108E-01-8.91613E-14 1.15991E-12
 -1        24 1.93677E+01-9.94712E-02-3.09826E-01 6.32020E-02-2.48872E-14 7.94519E-13
 -1        25 1.86798E+01-5.63229E-02-6.87769E-02 6.07501E-02-1.84234E-14 4.18483E-13
 -1        26 1.84780E+01-2.20928E-02-6.44258E-03 3.29848E-02 1.03877E-15 1.61361E-13
 -1        27 1.84899E+01-1.18050E-02 1.59562E-03 2.26059E-02-4.88758E-15 5.93275E-16
 -1        28 1.86046E+01-6.24510E-03 1.77915E-03 1.63110E-02-2.46629E-15-5.79120E-14
 -1        29 1.87652E+01-3.09095E-03 1.72012E-03 1.21668E-02 4.07535E-15-9.93615E-14
 -1        30 1.89402E+01-1.23797E-03 1.90263E-03 9.21337E-03 6.52693E-15-2.03546E-13
 -1        31 1.91121E+01-1.45615E-04 2.06243E-03 6.99336E-03-2.29541E-15-3.16772E-13
 -1        32 1.92710E+01 4.75702E-04 2.09186E-03 5.27423E-03-3.86360E-14-5.42702E-13
 -1        33 1.94122E+01 7.94538E-04 1.99773E-03 3.92494E-03 5.32259E-14-6.22032E-13
 -1        34 1.95340E+01 9.15179E-04 1.81729E-03 2.86177E-03-2.50419E-14-6.04682E-13
 -1        35 1.96367E+01 9.04370E-04 1.58488E-03 2.02472E-03 2.84127E-14-6.56294E-13
 -1        36 1.97221E+01 8.04462E-04 1.32423E-03 1.36700E-03 2.61322E-15-6.13595E-13
 -1        37 1.97927E+01 6.40029E-04 1.04795E-03 8.50199E-04-3.79987E-14-7.06448E-13
 -1        38 1.98516E+01 4.20936E-04 7.57763E-04 4.42090E-04 2.40217E-14-7.76048E-13
 -1        39 1.99023E+01 1.42934E-04 4.43438E-04 1.15866E-04-2.31611E-14-7.34327E-13
 -1        40 1.99490E+01-2.14073E-04 7.95334E-05-1.49303E-04-5.64403E-14-7.68564E-13
 -1        41 1.99969E+01-6.90530E-04-3.81626E-04-3.65805E-04 3.71227E-14-8.08470E-13
 -1        42 2.00526E+01-1.35545E-03-1.02324E-03-5.31448E-04-1.01012E-14-7.55276E-13
 -1        43 2.01256E+01-2.31955E-03-1.98830E-03-6.15821E-04-2.64208E-14-6.90475E-13
 -1        44 2.02296E+01-3.75546E-03-3.52435E-03-5.32601E-04 1.03443E-14-5.55374E-13
 -1        45 2.03861E+01-5.84996E-03-6.04268E-03-4.87983E-05-1.52967E-14-5.63692E-13
 -1        46 2.06288E+01-9.79335E-03-1.04788E-02 4.58063E-04 3.75273E-14-4.04887E-13
 -1        47 2.10361E+01-1.41520E-02-1.81426E-02 4.58652E-03-9.96397E-14-4.12225E-13
 -1        48 2.16609E+01-2.16630E-02-3.12788E-02 1.12177E-02 7.78863E-14-5.21751E-13
 -1        49 2.26565E+01-3.13992E-02-5.31011E-02 2.55891E-02 2.50494E-14-6.73652E-13
 -1        50 2.42332E+01-4.25565E-02-8.59357E-02 5.45915E-02-1.75172E-14-6.37521E-13
 -1        51 2.66792E+01-4.99743E-02-1.22243E-01 1.09510E-01 2.89057E-14-5.97238E-13
 -1        52 3.02982E+01-3.99665E-02-1.21075E-01 2.00833E-01-2.36048E-14-5.32324E-13
 -1        53 3.51171E+01 1.16556E-02 2.45707E-02 3.07814E-01 3.20920E-14-4.31238E-13
 -1        54 4.00806E+01 1.18175E-01 4.29303E-01 2.90762E-01 4.92488E-15-1.82222E-13
 -1        55 4.17529E+01 1.50983E-01 8.08852E-01-2.88288E-01 1.04205E-14-2.17784E-13
 -1        56 3.61396E+01 6.86729E-02 2.98137E-01-1.34722E+00-8.20646E-14-2.53575E-13
 -1        57 2.44353E+01-1.34487E-01-1.48313E+00-1.77746E+00 2.76515E-15-6.30829E-13
 -1        58 1.51841E+01-1.14583E-01-3.12626E+00-1.98740E-01-1.69906E-13-1.73615E-12
 -1        59 1.90805E+01-1.49651E-01-2.39876E+00 1.02649E+00-8.91578E-14-2.66878E-12
 -1        60 3.04428E+01-3.67416E-02-5.16971E-01 1.16761E+00 1.38403E-13-2.60830E-12
 -1        61 3.92183E+01 1.47732E-01 6.89657E-01 6.10748E-01 7.18592E-14-1.42381E-12
 -1        62 4.19807E+01 1.13947E-01 7.83188E-01 1.00650E-02-1.29577E-13-9.00904E-13
 -1        63 3.85300E+01 4.64635E-02 2.73698E-01-2.25963E-01 1.33761E-13-7.50566E-13
 -1        64 3.32913E+01-8.86589E-03-5.18235E-02-1.93818E-01 3.32828E-15-3.39215E-13
 -1        65 2.87872E+01-3.18349E-02-1.34791E-01-1.19185E-01 6.53156E-14-3.98799E-13
 -1        66 2.55493E+01-3.30103E-02-1.14369E-01-6.45281E-02-2.48818E-14-5.39083E-14
 -1        67 2.33862E+01-2.64525E-02-7.57686E-02-3.32357E-02 1.68351E-14-1.70395E-13
 -1        68 2.19795E+01-1.91709E-02-4.59362E-02-1.71593E-02-6.27255E-14-4.65942E-13
 -1        69 2.10693E+01-1.35617E-02-2.79938E-02-9.44133E-03 1.07645E-14-4.06211E-13
 -1        70 2.04834E+01-9.96720E-03-1.95843E-02-5.69166E-03-5.57626E-14 1.68721E-13
 -1        71 2.01287E+01-8.63175E-03-1.71894E-02-2.87588E-03 6.32310E-14-5.47601E-13
 -1        72 1.99817E+01-1.91723E-03-5.91192E-03 8.10213E-03-8.97350E-14-8.64481E-13
 -1        73 2.10427E+01-4.05118E-01-9.80565E-01-3.11676E-01 2.63400E-14 2.21935E-12
 -1        74 1.93323E+01-6.65863E-02-2.90785E-01-5.38718E-02 3.77259E-15 1.86729E-12
 -1        75 1.86890E+01-2.12368E-02-6.37055E-02-2.10283E-02 5.39727E-15 1.62232E-12
 -1        76 1.84875E+01-1.04819E-02-9.08069E-03-1.60673E-02 2.73241E-15 1.49586E-12
 -1        77 1.84991E+01-5.38392E-03 5.87232E-04-1.27176E-02 8.97595E-15 1.30097E-12
 -1        78 1.86130E+01-2.62253E-03 1.68991E-03-1.02002E-02 1.59166E-14 1.11338E-12
 -1        79 1.87727E+01-1.07092E-03 1.89969E-03-8.33800E-03 1.13665E-14 1.02285E-12
 -1        80 1.89469E+01-1.77109E-04 2.10142E-03-6.84916E-03 2.94187E-15 9.96279E-13
 -1        81 1.91181E+01 3.27185E-04 2.22673E-03-5.59466E-03 1.70407E-15 8.27443E-13
 -1        82 1.92767E+01 5.87994E-04 2.21672E-03-4.51782E-03 2.09130E-14 7.56736E-13
 -1        83 1.94178E+01 6.93136E-04 2.08474E-03-3.59375E-03 3.43889E-15 6.96296E-13
 -1        84 1.95399E+01 6.98853E-04 1.86779E-03-2.80833E-03 1.41126E-14 6.54132E-13
 -1        85 1.96436E+01 6.42814E-04 1.60063E-03-2.15093E-03 6.98582E-15 4.81294E-13
 -1        86 1.97304E+01 5.51250E-04 1.30948E-03-1.61262E-03-2.88083E-14 4.86810E-13
 -1        87 1.98029E+01 4.43461E-04 1.01312E-03-1.18650E-03 5.17719E-14 4.24555E-13
 -1        88 1.98640E+01 3.35160E-04 7.25969E-04-8.68782E-04-3.22897E-14 2.98071E-13
 -1        89 1.99165E+01 2.41321E-04 4.61898E-04-6.60125E-04 4.18306E-16 4.01255E-13
 -1        90 1.99633E+01 1.78807E-04 2.38774E-04-5.66519E-04 5.78669E-16 4.80046E-13
 -1        91 2.00064E+01 1.68758E-04 8.37512E-05-5.99155E-04-3.27968E-14 4.24386E-13
 -1        92 2.00475E+01 2.38387E-04 3.91371E-05-7.72203E-04 3.41666E-14 4.38058E-13
 -1        93 2.00864E+01 4.21402E-04 1.67973E-04-1.09705E-03 2.97860E-14 3.95820E-13
 -1        94 2.01210E+01 7.55676E-04 5.57145E-04-1.57102E-03-2.27982E-14 3.52281E-13
 -1        95 2.01459E+01 1.27615E-03 1.31386E-03-2.15873E-03 8.02460E-14 1.36259E-13
 -1        96 2.01517E+01 2.00063E-03 2.54878E-03-2.76513E-03 3.05977E-15-2.21823E-13
 -1        97 2.01235E+01 2.90670E-03 4.33688E-03-3.20334E-03-2.68187E-14 3.78674E-13
 -1        98 2.00405E+01 3.90100E-03 6.64852E-03-3.16755E-03 4.55592E-14 2.65586E-13
 -1        99 1.98770E+01 4.78839E-03 9.25227E-03-2.23334E-03-4.40422E-14 2.44227E-14
 -1       100 1.96049E+01 5.25895E-03 1.16144E-02 7.96133E-05-3.05263E-14-1.39216E-13
 -1       101 1.92000E+01 4.92106E-03 1.28569E-02 4.14521E-03 6.02258E-15-2.47745E-14
 -1       102 1.86516E+01 3.40920E-03 1.18726E-02 9.96241E-03 1.40314E-14-1.06083E-13
 -1       103 1.79738E+01 5.67508E-04 7.68213E-03 1.68509E-02-5.10820E-14 4.25875E-14
 -1       104 1.72151E+01-3.34874E-03 9.58707E-06 2.32945E-02-4.19184E-14 3.81282E-13
 -1       105 1.64606E+01-7.57940E-03-1.01537E-02 2.71733E-02-4.53682E-14 5.34465E-13
 -1       106 1.58212E+01-1.10091E-02-2.04254E-02 2.65026E-02 8.52161E-14 6.98253E-13
 -1       107 1.54078E+01-1.25747E-02-2.76958E-02 2.04426E-02-8.38641E-14 2.83276E-13
 -1       108 1.52995E+01-1.17460E-02-2.94503E-02 9.98688E-03 3.60313E-14 8.62319E-14
 -1       109 1.55166E+01-8.78290E-03-2.50239E-02-2.24143E-03-2.90627E-14-2.90563E-13
 -1       110 1.60139E+01-4.60312E-03-1.59611E-02-1.30821E-02 1.70111E-15 2.61163E-13
 -1       111 1.66958E+01-3.56940E-04-5.21259E-03-2.01599E-02-6.28986E-15 2.04638E-13
 -1       112 1.74473E+01 3.02204E-03 4.25510E-03-2.26545E-02 5.02408E-14 1.67274E-13
 -1       113 1.81646E+01 5.06650E-03 1.05653E-02-2.12155E-02-7.37904E-14 1.94874E-13
 -1       114 1.87762E+01 5.77345E-03 1.32691E-02-1.73036E-02 3.65512E-14 2.55605E-13
 -1       115 1.92482E+01 5.44070E-03 1.29925E-02-1.24602E-02-2.83860E-14-3.00278E-13
 -1       116 1.95790E+01 4.47628E-03 1.08263E-02-7.85296E-03-2.58589E-14 1.75402E-15
 -1       117 1.97884E+01 3.25933E-03 7.83611E-03-4.15347E-03 7.62818E-14 1.79187E-13
 -1       118 1.99066E+01 2.08320E-03 4.84285E-03-1.63606E-03 3.54994E-15 3.56962E-14
 -1       119 1.99652E+01 1.18374E-03 2.44953E-03-3.19844E-04 2.52524E-14-3.57670E-13
 -1       120 1.99910E+01 6.71772E-04 1.11201E-03-3.02789E-05-4.73485E-14-3.55153E-13
 -1       121 2.00000E+01-1.65325E-04 2.12087E-04 1.43532E-04 1.58329E-13-4.40250E-13
 -1       122 1.99996E+01-6.82298E-04 3.94002E-04-1.58262E-04-4.37996E-13 9.81090E-14
 -1       123 1.99995E+01-1.25966E-02 3.75357E-04-1.72984E-03-3.16426E-13 4.72542E-14
 -1       124 1.99983E+01-2.65701E-02-1.54260E-03-2.39563E-03-3.54669E-13-1.08801E-13
 -1       125 1.99970E+01-1.98088E-02-3.94161E-03-1.43719E-03-1.02818E-12 1.07733E-14
 -1       126 1.99963E+01 3.21805E-02-5.58369E-03 8.11894E-04 1.92367E-13-2.34062E-13
 -1       127 1.99963E+01 1.42702E-01-5.85103E-03 3.56921E-03-2.98396E-13 1.00590E-13
 -1       128 1.99976E+01 3.16178E-01-4.19742E-03 6.47010E-03 2.45131E-13 1.81300E-13
 -1       129 1.99999E+01 5.32157E-01-5.83627E-04 8.31915E-03-8.12059E-14-1.20622E-13
 -1       130 2.00029E+01 7.51160E-01 4.44751E-03 8.11978E-03 2.09971E-13-1.17949E-14
 -1       131 2.00059E+01 9.19757E-01 9.62829E-03 5.20539E-03 2.38896E-13-8.48302E-14
 -1       132 2.00075E+01 9.83984E-01 1.30173E-02-5.38364E-04-4.22549E-13-5.27556E-13
 -1       133 2.00075E+01 9.11360E-01 1.28343E-02-7.17571E-03-9.59163E-13 1.88434E-13
 -1       134 2.00046E+01 7.01883E-01 7.46412E-03-1.33143E-02-7.56545E-13-1.70309E-14
 -1       135 1.99997E+01 4.07717E-01-2.54065E-03-1.52397E-02-2.81418E-13 4.44748E-14
 -1       136 1.99972E+01 1.28167E-01-1.19717E-02-7.21392E-03 6.07280E-13 2.64693E-13
 -1       137 1.99974E+01-2.12596E-02-6.20929E-03 1.14993E-02 1.44349E-12-2.96294E-14
 -1       138-1.36375E+00-1.95316E+01-2.92612E+00-3.79973E+00 7.72882E-13 3.49054E-13
 -1       139-6.58844E-01-5.28968E+00-1.89774E+00-1.37457E+00 2.29383E-12 1.16646E-12
 -1       140 6.25790E+00 7.42462E+00-5.71710E-01 7.05415E+00 2.28417E-12 1.65157E-12
 -1       141 2.14601E+01 1.31474E+01 8.91406E-01 1.66539E+01 1.14686E-12 1.34220E-12
 -1       142 4.38911E+01 1.03879E+01 2.29312E+00 2.07147E+01 1.13798E-14 2.36478E-14
 -1       143 6.31069E+01 4.17793E+00 3.22778E+00 1.46823E+01-1.63924E-13-3.96572E-13
 -1       144 7.15465E+01 9.82797E-01 3.62511E+00 9.15732E-01-8.63892E-15-9.73541E-13
 -1       145 6.38317E+01 3.97521E+00 3.29353E+00-1.40627E+01 5.23422E-13-1.97642E-12
 -1       146 4.30034E+01 1.05856E+01 2.23567E+00-2.07576E+01 1.02279E-12-2.02577E-12
 -1       147 2.13846E+01 1.30753E+01 8.94077E-01-1.64503E+01 1.27859E-12-1.52034E-12
 -1       148 5.51901E+00 7.20314E+00-6.32373E-01-6.52273E+00 1.30429E-12-9.55847E-13
 -1       149-6.23899E-01-4.76209E+00-1.86924E+00 1.31843E+00 8.86180E-13-4.40536E-13
 -1       150-1.38669E+00-1.85712E+01-2.85797E+00 3.75129E+00 8.93563E-13-1.03667E-13
 -1       151-7.54114E-01-2.73125E+01-3.45838E+00 2.96644E-01 1.72085E-15-1.06068E-13
 -1       152-1.71790E+00-2.69524E+01-3.67990E+00-5.03228E+00-7.28112E-13-1.11775E-13
 -1       153-3.65277E+00-1.73715E+01-3.50466E+00-7.05923E+00-1.11983E-12-5.03070E-13
 -1       154-1.29535E+00-3.65086E+00-2.77874E+00-1.69168E+00-1.28375E-12-9.49407E-13
 -1       155 1.15017E+01 6.86723E+00-1.19289E+00 9.23335E+00-1.45894E-12-1.79645E-12
 -1       156 3.96529E+01 9.42974E+00 1.82232E+00 1.86483E+01-7.74825E-13-1.28531E-12
 -1       157 7.32940E+01 5.27871E+00 5.47419E+00 1.62868E+01-8.47655E-14-7.78044E-13
 -1       158 9.01094E+01 1.76217E+00 7.35960E+00 1.72208E+00-1.53613E-13 5.62564E-13
 -1       159 8.00450E+01 3.82027E+00 6.19510E+00-1.42623E+01-4.48204E-13 2.02849E-12
 -1       160 5.20593E+01 8.65062E+00 3.15935E+00-2.02700E+01-9.80438E-13 2.22411E-12
 -1       161 4.21219E+00 2.38263E+00-2.05404E+00-3.79141E+00-5.44675E-13 1.77414E-13
 -1       162-2.83496E+00-8.38048E+00-2.99242E+00 4.28833E+00-6.20060E-14 2.61013E-13
 -1       163-3.55054E+00-1.94603E+01-3.57881E+00 7.11584E+00 6.23168E-13-2.34757E-13
 -1       164-1.62386E+00-2.68658E+01-3.63674E+00 4.95879E+00 1.04784E-12-2.97920E-13
 -1       165 2.10141E+01 3.69363E+00-5.73877E-02-3.60961E+00-2.60507E-13-6.23494E-14
 -1       166 1.99905E+01 4.20841E+00-4.59434E-02-2.80787E+00-2.16094E-13-3.04045E-13
 -1       167 1.95105E+01 4.47661E+00-3.13371E-02-2.19539E+00-1.41374E-13-4.14658E-13
 -1       168 1.92677E+01 4.61536E+00-2.34976E-02-1.67419E+00-7.54104E-14-4.77059E-13
 -1       169 1.91369E+01 4.69709E+00-1.95358E-02-1.21867E+00-2.33616E-14-4.87880E-13
 -1       170 1.90630E+01 4.74810E+00-1.74349E-02-7.91764E-01 1.42554E-14-4.70687E-13
 -1       171 1.90257E+01 4.77599E+00-1.64208E-02-3.86713E-01 6.65675E-14-4.47429E-13
 -1       172 1.90148E+01 4.78453E+00-1.61285E-02 8.27992E-03 1.09500E-13-4.31050E-13
 -1       173 1.90274E+01 4.77471E+00-1.64612E-02 4.03605E-01 1.53979E-13-3.92394E-13
 -1       174 1.90667E+01 4.74513E+00-1.75145E-02 8.09717E-01 1.94188E-13-3.55038E-13
 -1       175 1.91414E+01 4.69267E+00-1.96806E-02 1.23114E+00 2.30243E-13-2.89087E-13
 -1       176 1.92770E+01 4.60566E+00-2.39825E-02 1.69774E+00 2.80285E-13-1.91706E-13
 -1       177 1.95245E+01 4.45976E+00-3.26162E-02 2.22517E+00 3.08358E-13-3.66322E-14
 -1       178 2.00132E+01 4.18407E+00-4.71702E-02 2.84736E+00 3.16932E-13 2.12406E-13
 -1       179 2.11355E+01 3.46350E+00-6.00585E-02 3.53578E+00 2.60694E-13 6.39232E-13
 -1       180 2.24200E+01 1.14348E+00-3.36561E-01 3.01440E+00 1.67001E-13 1.15535E-12
 -1       181 2.19724E+01 8.58170E-01 6.91378E-04-1.95885E+00-2.32897E-13 2.64785E-13
 -1       182 2.04481E+01 1.90353E-01-9.93525E-03-7.63864E-01-2.09548E-13 1.59032E-13
 -1       183 1.96730E+01 1.01660E-01 1.36034E-02-2.85271E-01-1.50502E-13 8.49225E-14
 -1       184 1.93336E+01 4.72068E-02 1.00169E-02-6.75490E-02-9.31655E-14-1.72883E-14
 -1       185 1.92044E+01 2.26072E-02 5.15853E-03 3.98281E-02-5.56075E-14-5.73847E-14
 -1       186 1.91916E+01 9.57532E-03 2.43351E-03 9.25770E-02-3.15907E-14-7.96193E-14
 -1       187 1.92409E+01 2.18933E-03 1.13168E-03 1.15116E-01-7.93591E-14-1.24017E-13
 -1       188 1.93210E+01-2.02958E-03 4.98627E-04 1.20237E-01-8.97488E-14-1.70720E-13
 -1       189 1.94131E+01-4.31352E-03 1.64738E-04 1.15365E-01-9.06401E-14-1.84429E-13
 -1       190 1.95060E+01-5.36152E-03-1.99886E-05 1.05115E-01-7.27591E-14-1.44140E-13
 -1       191 1.95937E+01-5.60924E-03-1.18309E-04 9.24601E-02-8.59524E-15-3.41521E-13
 -1       192 1.96728E+01-5.34086E-03-1.61187E-04 7.93331E-02-3.43381E-14-3.59091E-13
 -1       193 1.97425E+01-4.74144E-03-1.66352E-04 6.69955E-02-1.27741E-14-3.73414E-13
 -1       194 1.98029E+01-3.92384E-03-1.44295E-04 5.62802E-02-3.90208E-14-3.62965E-13
 -1       195 1.98556E+01-2.94207E-03-1.00327E-04 4.77759E-02-4.51225E-14-2.84780E-13
 -1       196 1.99025E+01-1.79534E-03-3.52123E-05 4.19836E-02-2.49410E-14-3.22023E-13
 -1       197 1.99464E+01-4.23070E-04 5.50390E-05 3.94714E-02-3.17821E-14-3.50272E-13
 -1       198 1.99910E+01 1.31149E-03 1.80200E-04 4.10532E-02 2.06583E-14-3.56296E-13
 -1       199 2.00411E+01 3.65400E-03 3.57814E-04 4.80270E-02-2.79819E-14-3.70097E-13
 -1       200 2.01030E+01 7.01694E-03 6.16239E-04 6.25208E-02 5.07371E-14-4.17603E-13
 -1       201 2.01858E+01 1.20767E-02 9.98248E-04 8.80215E-02 6.18195E-14-2.92006E-13
 -1       202 2.03026E+01 1.99224E-02 1.55967E-03 1.30207E-01 2.39304E-14-2.88443E-13
 -1       203 2.04727E+01 3.21943E-02 2.42193E-03 1.97882E-01 8.27512E-14-2.87531E-13
 -1       204 2.07395E+01 5.32858E-02 3.57892E-03 3.12624E-01 5.78383E-14-3.44871E-13
 -1       205 2.11221E+01 8.50553E-02 5.04713E-03 4.87599E-01-5.50235E-14-2.11911E-13
 -1       206 2.16891E+01 1.34056E-01 6.37569E-03 7.58966E-01-9.38204E-14-3.90189E-13
 -1       207 2.25201E+01 2.05232E-01 6.52965E-03 1.17100E+00 1.01356E-14-3.84815E-13
 -1       208 2.37088E+01 2.95294E-01 4.09456E-03 1.76625E+00 2.10587E-14-3.60547E-13
 -1       209 2.53434E+01 3.68150E-01-2.75814E-04 2.54014E+00-5.10095E-15-4.33428E-13
 -1       210 2.74637E+01 2.95487E-01 2.02314E-03 3.31202E+00 3.66019E-14-3.67161E-13
 -1       211 3.00053E+01-2.16237E-01 3.15936E-02 3.46870E+00 1.57789E-13-3.56272E-13
 -1       212 3.27893E+01-1.50556E+00 7.20215E-02 1.79041E+00 1.24584E-13-1.20429E-13
 -1       213 3.52749E+01-2.69651E+00 2.89601E-02-2.10342E+00-5.60324E-14-1.73661E-13
 -1       214 3.71943E+01-1.62519E+00-6.05893E-02-5.88061E+00-1.71696E-13 5.62952E-14
 -1       215 3.79930E+01 2.87856E+00-1.21385E-01-4.89728E+00-6.66717E-13-4.71637E-14
 -1       216 3.49388E+01 4.56407E-01-3.38134E-01 6.03151E+00 2.10831E-13-8.47940E-13
 -1       217 3.57467E+01-1.63292E+00-8.09334E-02 4.75533E+00 4.78742E-13-8.28754E-13
 -1       218 3.54843E+01-1.66716E+00 1.39433E-01 7.03638E-01 3.52867E-13-8.27352E-13
 -1       219 3.31894E+01-5.83904E-01 9.58019E-02-2.30526E+00 9.05352E-14-4.54099E-13
 -1       220 3.01780E+01 5.15141E-02 1.28209E-02-3.00962E+00 1.56604E-13-5.01151E-13
 -1       221 2.73294E+01 2.31772E-01-1.53785E-02-2.56550E+00 1.84050E-14-2.39201E-13
 -1       222 2.50235E+01 2.19770E-01-1.20744E-02-1.86929E+00 1.08155E-13-6.70124E-14
 -1       223 2.33135E+01 1.60898E-01-3.95963E-03-1.27179E+00-3.46884E-14-2.83728E-13
 -1       224 2.21063E+01 1.06986E-01 8.40951E-04-8.41757E-01-1.90715E-13-3.67085E-13
 -1       225 2.12763E+01 6.91447E-02 2.44377E-03-5.52592E-01-5.22911E-14-2.71139E-13
 -1       226 2.07155E+01 4.66257E-02 2.21523E-03-3.58923E-01 1.62775E-13-3.32913E-13
 -1       227 2.03479E+01 3.67050E-02 1.08504E-03-2.18915E-01-1.73579E-13-2.58034E-13
 -1       228 2.01267E+01 3.55312E-02 8.19011E-04-1.01189E-01-2.14940E-13-5.50147E-13
 -1       229 2.00372E+01 4.12285E-02-4.02731E-04-3.83480E-02 1.98086E-13-3.32439E-13
 -1       230 2.09650E+01 2.77994E-01-5.08096E-02 1.16495E+00 1.77289E-13 1.02355E-12
 -1       231 1.98756E+01 1.30599E-01 1.00181E-02 4.46718E-01 1.33026E-13 8.59238E-13
 -1       232 1.93710E+01 5.63656E-02 1.34206E-02 1.48571E-01 9.67195E-14 7.17432E-13
 -1       233 1.91591E+01 2.26710E-02 7.34045E-03 6.48523E-03 1.14323E-13 6.28480E-13
 -1       234 1.91072E+01 9.94662E-03 3.58952E-03-6.21896E-02 7.26363E-14 5.62031E-13
 -1       235 1.91422E+01 3.28405E-03 1.73828E-03-9.39635E-02 6.39326E-14 4.72604E-13
 -1       236 1.92215E+01-4.58698E-04 8.78689E-04-1.05305E-01 2.76646E-14 4.03801E-13
 -1       237 1.93200E+01-2.53598E-03 4.46180E-04-1.04913E-01 7.97561E-14 3.82244E-13
 -1       238 1.94231E+01-3.57131E-03 2.04683E-04-9.79776E-02 1.24054E-14 3.97837E-13
 -1       239 1.95222E+01-3.93449E-03 6.19887E-05-8.77708E-02 4.40667E-14 4.17090E-13
 -1       240 1.96129E+01-3.86449E-03-2.14788E-05-7.64030E-02 8.48401E-14 3.24881E-13
 -1       241 1.96933E+01-3.52266E-03-6.67174E-05-6.52308E-02 6.82308E-14 2.61329E-13
 -1       242 1.97632E+01-3.02032E-03-8.71780E-05-5.51013E-02 2.35550E-14 2.20608E-13
 -1       243 1.98234E+01-2.43630E-03-9.24539E-05-4.65070E-02 7.16127E-14 1.43436E-13
 -1       244 1.98753E+01-1.83023E-03-8.99055E-05-3.96821E-02-1.90595E-14 1.54859E-13
 -1       245 1.99206E+01-1.25459E-03-8.56124E-05-3.46529E-02-6.54451E-14 1.52903E-13
 -1       246 1.99611E+01-7.66744E-04-8.49884E-05-3.12481E-02-3.60155E-14 2.19113E-13
 -1       247 1.99982E+01-4.41755E-04-9.30972E-05-2.90670E-02 5.11004E-14 1.82225E-13
 -1       248 2.00324E+01-3.85408E-04-1.14598E-04-2.74081E-02 1.96714E-14 1.02988E-13
 -1       249 2.00636E+01-7.45520E-04-1.53177E-04-2.51599E-02 1.59408E-14 6.23865E-14
 -1       250 2.00898E+01-1.71683E-03-2.10327E-04-2.06702E-02 2.83590E-14 4.52618E-14
 -1       251 2.01067E+01-3.53093E-03-2.83438E-04-1.16275E-02 1.37550E-13 4.16605E-16
 -1       252 2.01072E+01-6.41796E-03-3.63536E-04 4.97547E-03 4.61934E-14 8.25069E-14
 -1       253 2.00806E+01-1.05233E-02-4.33631E-04 3.26856E-02-1.98053E-13 9.50592E-14
 -1       254 2.00125E+01-1.57649E-02-4.69447E-04 7.50814E-02 1.82930E-13 1.19505E-13
 -1       255 1.98854E+01-2.16350E-02-4.44740E-04 1.34747E-01 4.46908E-15 4.97094E-14
 -1       256 1.96813E+01-2.69919E-02-3.42439E-04 2.11640E-01 7.51482E-14 3.61112E-14
 -1       257 1.93851E+01-2.99604E-02-1.68808E-04 3.01019E-01-1.20915E-13 7.01059E-14
 -1       258 1.89914E+01-2.81371E-02 3.58356E-05 3.91563E-01-4.15468E-14 1.63019E-13
 -1       259 1.85108E+01-1.92893E-02 2.07859E-04 4.64887E-01-1.56866E-13 3.65191E-13
 -1       260 1.79766E+01-2.55972E-03 2.88790E-04 4.97958E-01-8.07578E-14 3.68823E-13
 -1       261 1.74458E+01 2.02493E-02 2.74211E-04 4.69279E-01-9.98984E-16 2.65263E-13
 -1       262 1.69917E+01 4.41864E-02 2.37353E-04 3.67773E-01-3.03538E-14 2.69450E-13
 -1       263 1.66889E+01 6.23314E-02 2.97367E-04 2.00653E-01 1.00993E-13 3.24002E-13
 -1       264 1.65922E+01 6.85980E-02 5.23684E-04-4.76267E-03 2.05880E-13 2.50142E-13
 -1       265 1.67189E+01 6.07378E-02 8.64544E-04-2.08157E-01 6.26235E-16 1.83321E-13
 -1       266 1.70431E+01 4.15346E-02 1.15676E-03-3.69859E-01-2.98230E-13 1.51508E-13
 -1       267 1.75046E+01 1.73260E-02 1.23016E-03-4.64150E-01 1.65883E-17 3.96545E-13
 -1       268 1.80271E+01-5.05724E-03 1.01700E-03-4.85641E-01 5.79172E-14 4.63500E-13
 -1       269 1.85395E+01-2.09478E-02 5.82344E-04-4.46839E-01 5.99010E-14 3.75711E-13
 -1       270 1.89893E+01-2.88266E-02 7.44290E-05-3.70036E-01-8.04511E-14 1.85295E-13
 -1       271 1.93485E+01-2.97159E-02-3.62300E-04-2.78548E-01 1.02095E-13 4.34543E-13
 -1       272 1.96111E+01-2.58741E-02-6.46458E-04-1.90805E-01-5.17130E-14 2.47023E-13
 -1       273 1.97866E+01-1.96708E-02-7.65578E-04-1.18161E-01 1.28373E-13-2.32131E-14
 -1       274 1.98931E+01-1.29916E-02-7.47255E-04-6.53498E-02 2.66457E-14 1.43797E-13
 -1       275 1.99514E+01-7.19287E-03-6.11822E-04-3.19754E-02 1.45519E-13 1.49211E-13
 -1       276 1.99801E+01-3.36218E-03-4.18178E-04-1.40938E-02 9.09053E-14-1.33491E-13
 -1       277 1.99938E+01-2.10787E-03-1.42849E-04-5.08900E-03 7.13268E-14-2.22272E-13
 -1       278 1.99970E+01-8.30665E-03 8.12308E-05-9.71792E-03-1.43042E-14 1.39401E-13
 -1       279 2.00025E+01-1.50250E-02 2.53785E-04-8.26147E-03-1.12805E-13-9.82979E-14
 -1       280 2.00104E+01-1.01316E-02 4.84061E-04 9.35636E-03-1.01651E-13-2.91225E-13
 -1       281 2.00169E+01 2.03255E-02 5.35953E-04 4.45869E-02-2.19602E-13 3.58941E-13
 -1       282 2.00198E+01 8.67648E-02 4.82541E-04 9.03918E-02-8.01803E-15-3.72828E-13
 -1       283 2.00171E+01 1.95735E-01 2.80055E-04 1.36928E-01 1.69390E-13 1.79427E-13
 -1       284 2.00080E+01 3.39594E-01-5.91870E-05 1.68647E-01 3.67927E-13-6.24540E-14
 -1       285 1.99931E+01 4.98559E-01-4.66938E-04 1.70439E-01 4.90414E-13 1.45963E-13
 -1       286 1.99756E+01 6.41981E-01-8.35051E-04 1.32033E-01 2.55387E-13-3.54622E-13
 -1       287 1.99607E+01 7.34619E-01-1.03522E-03 5.32501E-02 4.77427E-14-3.43835E-13
 -1       288 1.99545E+01 7.47643E-01-1.00582E-03-4.99445E-02 6.26115E-14-2.92983E-13
 -1       289 1.99623E+01 6.69537E-01-7.90010E-04-1.53308E-01 8.18453E-14 1.46817E-13
 -1       290 1.99859E+01 5.12611E-01-5.22922E-04-2.19110E-01 2.11049E-13 4.10037E-13
 -1       291 2.00211E+01 3.17882E-01-3.05084E-04-2.14911E-01 2.00172E-13 3.99782E-13
 -1       292 2.00422E+01 1.61866E-01 8.14543E-05-1.37647E-01 2.00538E-13 5.54459E-13
 -1       293-7.56212E-01-1.17691E+01-9.63213E-01 2.71761E+00 5.06067E-13 2.89629E-13
 -1       294 4.41147E+00-7.69416E+00-5.73056E-01 5.52440E+00 4.77063E-13 1.14163E-12
 -1       295 1.35822E+01-4.11773E+00-2.38041E-01 7.79269E+00 8.03552E-13 4.02844E-13
 -1       296 2.27512E+01 6.93746E-01 3.47869E-02 8.67074E+00 8.24868E-13 8.81795E-14
 -1       297 3.39913E+01 4.67606E+00 4.93325E-01 9.15062E+00 7.01758E-13-2.23210E-13
 -1       298 4.42793E+01 6.48557E+00 8.54812E-01 7.03532E+00 1.40478E-13-4.30322E-13
 -1       299 4.93457E+01 7.41255E+00 9.38031E-01 2.60035E+00 1.04083E-13-6.94111E-13
 -1       300 4.80158E+01 7.87873E+00 7.95215E-01-1.86096E+00 5.03347E-13-1.03954E-12
 -1       301 4.42463E+01 6.49474E+00 8.34049E-01-6.97407E+00 5.83200E-13-1.20090E-12
 -1       302 3.38174E+01 3.84062E+00 3.86581E-01-8.18601E+00 5.70516E-13-1.27193E-12
 -1       303 2.23453E+01 7.41320E-01 3.54093E-02-8.75091E+00 5.71571E-13-7.97362E-13
 -1       304 1.21904E+01-3.56731E+00-3.36839E-01-7.33473E+00 4.26159E-13-5.64909E-13
 -1       305 4.47032E+00-7.70801E+00-6.36625E-01-5.32086E+00 4.58605E-13-1.95559E-13
 -1       306-3.83877E-01-1.09245E+01-8.53207E-01-3.13753E+00 3.91354E-14-5.01724E-13
 -1       307-1.85416E+00-1.22339E+01-9.84922E-01-1.09790E+00-1.45795E-13-3.76171E-13
 -1       308 1.58802E-01-1.18121E+01-1.13414E+00 8.12921E-01-3.46168E-13-2.82552E-13
 -1       309 6.69483E+00-8.70380E+00-1.05153E+00 3.18532E+00-2.93987E-13-4.12181E-13
 -1       310 1.81932E+01-5.01557E+00-7.04802E-01 5.23607E+00-3.73090E-13-6.27803E-13
 -1       311 3.36308E+01-1.47352E+00 4.30983E-02 5.47684E+00-6.58723E-13-5.16143E-13
 -1       312 4.70611E+01 1.74056E+00 8.23402E-01 1.42833E-02-4.71498E-13-4.05509E-13
 -1       313 5.27559E+01 6.71567E+00 1.47603E+00-1.07096E+00-6.82787E-13 1.22763E-13
 -1       314 5.77693E+01 7.11517E+00 2.17101E+00-4.63742E-01-7.03854E-13 4.99017E-13
 -1       315 5.21220E+01 3.86037E+00 1.47411E+00-2.04402E+00-2.19338E-13 5.14144E-13
 -1       316 3.98336E+01-4.61345E-01 3.97290E-01-3.97730E+00 2.54269E-13 4.78229E-13
 -1       317 2.51145E+01-3.50065E+00-4.00876E-01-5.56674E+00-8.08797E-14 4.48586E-13
 -1       318 1.41835E+01-6.83684E+00-7.47236E-01-4.97600E+00-2.63123E-14 1.16837E-13
 -1       319 6.13434E+00-8.82111E+00-9.37044E-01-3.15030E+00 1.76525E-13 3.80852E-13
 -1       320-2.77860E-02-1.17944E+01-1.06654E+00-6.84936E-01 1.40332E-13 1.74874E-13
 -1       321-1.85264E+00-1.21796E+01-9.89480E-01 9.20261E-01 1.52600E-13-3.32095E-13
 -1       322 3.36801E+01 3.31784E+00-5.61661E-01 2.08835E+00-6.08569E-13-7.27196E-13
 -1       323 2.01367E+01 3.00092E+00-2.20078E-02-2.09638E+00-2.09823E-13-2.43969E-13
 -1       324 2.07572E+01 2.20821E+00-1.76821E-02-2.36374E+00-2.69315E-13-1.23471E-13
 -1       325 1.95833E+01 3.69193E+00-1.56173E-02-1.31662E+00-6.33406E-14-3.65843E-13
 -1       326 1.94599E+01 3.84898E+00-1.37109E-02-9.23198E-01-1.01752E-15-3.76886E-13
 -1       327 1.93908E+01 3.93994E+00-1.27119E-02-5.43576E-01 4.97774E-14-3.37685E-13
 -1       328 1.93602E+01 3.98131E+00-1.22904E-02-1.73138E-01 1.09986E-13-3.31884E-13
 -1       329 1.93615E+01 3.97970E+00-1.23079E-02 1.94308E-01 1.60325E-13-3.12442E-13
 -1       330 1.93950E+01 3.93475E+00-1.27551E-02 5.65072E-01 2.07729E-13-2.81563E-13
 -1       331 1.94660E+01 3.84133E+00-1.37678E-02 9.38854E-01 2.60099E-13-2.26601E-13
 -1       332 1.95932E+01 3.67875E+00-1.56833E-02 1.33299E+00 3.13077E-13-1.44973E-13
 -1       333 1.98083E+01 3.41009E+00-1.90555E-02 1.73906E+00 3.46929E-13-4.00227E-14
 -1       334 2.01759E+01 2.95109E+00-2.32770E-02 2.12323E+00 3.61772E-13 1.06231E-13
 -1       335 2.07602E+01 2.10608E+00-2.94925E-02 2.30661E+00 3.30811E-13 3.86701E-13
 -1       336 2.10938E+01 1.18622E+00-2.41274E-02 1.91417E+00 2.64835E-13 6.32743E-13
 -1       337 2.03828E+01 4.93751E-01 7.81168E-03 9.24849E-01 2.03128E-13 5.16284E-13
 -1       338 7.96091E+00-5.41674E+00-4.77915E-02-5.35239E+00 1.44815E-13 1.28716E-13
 -1       339 2.04593E+01 6.75380E-01 1.25825E-02-1.02428E+00-2.16930E-13-5.49804E-14
 -1       340 2.00378E+01 3.36942E-01 7.17108E-03-4.57116E-01-1.67325E-13-5.06874E-14
 -1       341 1.97840E+01 1.76656E-01 4.10060E-03-1.47981E-01-8.92833E-14-5.60059E-14
 -1       342 1.96490E+01 9.06687E-02 1.88775E-03 2.33871E-02-7.82931E-14-1.19622E-13
 -1       343 1.95941E+01 4.15956E-02 7.89797E-04 1.14782E-01-7.29429E-14-1.53755E-13
 -1       344 1.95894E+01 1.26948E-02 2.74555E-04 1.58271E-01-8.68162E-14-1.51101E-13
 -1       345 1.96141E+01-4.20835E-03 1.89302E-05 1.72757E-01-6.19563E-14-1.27454E-13
 -1       346 1.96545E+01-1.35572E-02-1.14130E-04 1.70018E-01-8.41245E-14-1.33169E-13
 -1       347 1.97016E+01-1.80049E-02-1.79392E-04 1.57674E-01-1.28969E-13-1.58887E-13
 -1       348 1.97498E+01-1.92383E-02-2.02590E-04 1.40756E-01-1.22769E-14-1.82615E-13
 -1       349 1.97962E+01-1.83580E-02-1.98200E-04 1.22614E-01-2.00713E-14-1.88682E-13
 -1       350 1.98391E+01-1.60693E-02-1.75015E-04 1.05499E-01-3.97290E-15-1.02726E-13
 -1       351 1.98784E+01-1.27809E-02-1.37923E-04 9.09725E-02-9.80593E-16-1.09582E-13
 -1       352 1.99147E+01-8.65257E-03-8.85035E-05 8.02232E-02-1.17734E-13-1.50648E-13
 -1       353 1.99491E+01-3.60215E-03-2.50044E-05 7.43481E-02-3.62358E-14-1.14240E-13
 -1       354 1.99836E+01 2.72623E-03 5.82743E-05 7.46325E-02-4.76481E-14-9.74858E-14
 -1       355 2.00206E+01 1.10440E-02 1.72376E-04 8.28791E-02 1.62023E-14-1.20611E-13
 -1       356 2.00633E+01 2.25697E-02 3.36121E-04 1.01836E-01 2.05464E-14-1.21218E-13
 -1       357 2.01156E+01 3.92816E-02 5.79647E-04 1.35797E-01 7.33171E-14-9.40968E-14
 -1       358 2.01828E+01 6.43107E-02 9.48821E-04 1.91468E-01 1.56593E-13-1.45856E-13
 -1       359 2.02709E+01 1.02413E-01 1.52335E-03 2.79028E-01 1.98778E-14-1.05900E-13
 -1       360 2.03935E+01 1.64811E-01 2.43604E-03 4.22791E-01 3.41258E-15-1.92882E-13
 -1       361 2.05464E+01 2.57010E-01 3.71278E-03 6.33736E-01-2.10151E-15-3.80004E-13
 -1       362 2.07392E+01 3.95169E-01 5.45779E-03 9.49736E-01 2.34483E-14-2.07234E-13
 -1       363 2.09696E+01 5.93642E-01 7.45008E-03 1.41359E+00 1.10474E-14 4.36153E-14
 -1       364 2.12224E+01 8.53015E-01 9.25915E-03 2.07103E+00-6.43418E-14 3.86718E-14
 -1       365 2.14723E+01 1.12041E+00 1.11240E-02 2.94878E+00-2.27782E-14-4.59528E-14
 -1       366 2.17260E+01 1.19332E+00 1.72789E-02 4.00062E+00 7.02966E-14-2.95551E-14
 -1       367 2.21703E+01 5.51363E-01 3.75718E-02 4.99298E+00 6.07856E-14-5.42622E-15
 -1       368 2.35384E+01-1.67870E+00 9.50483E-02 5.30811E+00 2.26721E-13-1.51705E-13
 -1       369 2.66142E+01-5.10540E+00 4.09213E-02 4.04425E+00 3.95517E-14-1.13753E-13
 -1       370 6.02379E-01-4.62825E+00-4.09970E-02 2.53250E+00 1.54370E-13 2.55240E-13
 -1       371 3.38912E+01-4.96066E+00-1.93779E-02 5.02381E-01 3.77164E-13 7.63278E-17
 -1       372 2.72664E+01-3.46781E+00 7.54139E-02-3.96676E+00 2.10054E-13-2.68990E-13
 -1       373 2.44859E+01-5.21255E-01 5.55996E-02-4.99308E+00 1.49478E-13-1.47198E-13
 -1       374 2.31897E+01 7.62531E-01 1.98152E-02-4.48007E+00 1.87907E-13-9.39385E-14
 -1       375 2.24383E+01 9.91166E-01 1.11296E-02-3.47941E+00 1.32992E-13 2.13137E-14
 -1       376 2.18546E+01 8.29926E-01 9.77794E-03-2.51322E+00-1.86532E-13-2.31337E-13
 -1       377 2.13594E+01 5.99930E-01 8.77080E-03-1.74926E+00-8.27259E-14-2.05017E-13
 -1       378 2.09497E+01 4.08632E-01 7.08268E-03-1.19633E+00-6.16189E-14-3.30612E-14
 -1       379 2.06253E+01 2.77389E-01 5.23901E-03-8.09480E-01-4.12268E-14 7.09898E-14
 -1       380 2.03801E+01 2.01113E-01 3.98123E-03-5.34436E-01-9.83751E-14 6.86439E-14
 -1       381 2.01946E+01 1.68993E-01 2.66880E-03-3.23476E-01-3.44790E-13 2.22522E-13
 -1       382 1.98422E+01 2.25335E-01 6.87011E-03 2.74747E-01 1.61441E-13 3.21727E-13
 -1       383 1.96484E+01 1.12790E-01 3.30416E-03 4.70657E-02 1.67999E-13 2.41902E-13
 -1       384 1.95584E+01 5.54133E-02 1.49016E-03-7.51517E-02 1.14528E-13 2.06836E-13
 -1       385 1.95363E+01 2.22365E-02 6.02964E-04-1.37110E-01 7.89086E-14 1.97318E-13
 -1       386 1.95547E+01 2.81160E-03 1.71266E-04-1.63056E-01 5.95062E-14 1.27513E-13
 -1       387 1.95954E+01-8.26422E-03-5.01658E-05-1.67461E-01 3.30033E-14 1.65522E-13
 -1       388 1.96464E+01-1.40209E-02-1.64204E-04-1.59442E-01 2.45987E-14 1.39707E-13
 -1       389 1.97005E+01-1.63220E-02-2.15727E-04-1.44925E-01 1.00977E-13 1.07921E-13
 -1       390 1.97532E+01-1.63861E-02-2.28134E-04-1.27802E-01 5.76684E-14 1.25376E-13
 -1       391 1.98022E+01-1.50403E-02-2.16053E-04-1.10601E-01 7.84435E-14 1.09270E-13
 -1       392 1.98466E+01-1.28623E-02-1.89566E-04-9.49127E-02 2.73788E-14 1.31892E-13
 -1       393 1.98862E+01-1.02743E-02-1.56143E-04-8.16563E-02 3.34881E-14 1.09774E-13
 -1       394 1.99216E+01-7.61497E-03-1.21907E-04-7.12408E-02 3.68867E-15 1.72624E-14
 -1       395 1.99536E+01-5.20396E-03-9.26599E-05-6.36416E-02-7.80261E-14 1.41106E-14
 -1       396 1.99830E+01-3.40502E-03-7.47994E-05-5.83974E-02 4.62383E-14-7.99745E-14
 -1       397 2.00103E+01-2.68808E-03-7.60732E-05-5.45342E-02 8.88393E-14-8.00131E-14
 -1       398 2.00358E+01-3.68446E-03-1.06032E-04-5.04197E-02 6.19968E-15-2.43122E-14
 -1       399 2.00589E+01-7.21926E-03-1.75864E-04-4.35687E-02 3.32538E-14 1.55883E-13
 -1       400 2.00779E+01-1.42902E-02-2.97121E-04-3.04425E-02 1.13834E-13 1.48137E-13
 -1       401 2.00896E+01-2.59436E-02-4.78749E-04-6.33015E-03 4.82113E-14 2.53567E-13
 -1       402 2.00890E+01-4.29815E-02-7.21867E-04 3.45371E-02-9.43123E-14 1.95266E-13
 -1       403 2.00688E+01-6.54339E-02-1.01234E-03 9.84127E-02-4.48444E-14 3.16821E-14
 -1       404 2.00192E+01-9.17755E-02-1.31236E-03 1.90727E-01 2.71403E-13 1.18163E-13
 -1       405 1.99286E+01-1.18004E-01-1.55431E-03 3.13804E-01 4.60848E-14-3.13531E-14
 -1       406 1.97847E+01-1.36949E-01-1.64284E-03 4.63625E-01-1.36764E-13 1.00234E-13
 -1       407 1.95775E+01-1.38515E-01-1.47041E-03 6.26216E-01-2.21141E-13 1.72909E-13
 -1       408 1.93035E+01-1.11779E-01-9.58826E-04 7.75206E-01-1.30702E-13 4.21647E-13
 -1       409 1.89718E+01-4.94286E-02-9.22257E-05 8.73024E-01-1.28524E-13 3.99918E-13
 -1       410 1.86090E+01 4.62891E-02 1.02462E-03 8.78234E-01 6.05025E-15 3.20615E-13
 -1       411 1.82605E+01 1.59143E-01 2.18082E-03 7.59485E-01 2.78437E-14 3.45542E-13
 -1       412 1.79839E+01 2.60352E-01 3.11209E-03 5.12028E-01 1.05516E-13 2.48837E-13
 -1       413 1.78338E+01 3.18249E-01 3.60386E-03 1.68056E-01 9.88712E-14 2.26188E-13
 -1       414 1.78423E+01 3.12695E-01 3.53420E-03-2.07937E-01 9.33773E-14 4.06285E-13
 -1       415 1.80064E+01 2.45545E-01 2.91381E-03-5.39928E-01-1.30890E-13 2.65870E-13
 -1       416 1.82892E+01 1.39658E-01 1.88805E-03-7.67401E-01-2.35641E-13 6.93931E-14
 -1       417 1.86342E+01 2.72459E-02 6.98059E-04-8.64036E-01 5.98834E-14 1.60887E-13
 -1       418 1.89846E+01-6.42275E-02-3.97496E-04-8.39804E-01 4.84151E-14 2.64893E-13
 -1       419 1.92977E+01-1.20529E-01-1.19777E-03-7.29177E-01 2.39422E-14 4.79742E-13
 -1       420 1.95499E+01-1.41048E-01-1.61942E-03-5.74536E-01-1.59357E-14 3.45682E-13
 -1       421 1.97350E+01-1.33895E-01-1.69179E-03-4.13010E-01 1.69806E-13 1.86115E-13
 -1       422 1.98588E+01-1.10066E-01-1.51520E-03-2.70115E-01 1.57522E-13 1.45472E-13
 -1       423 1.99330E+01-7.95827E-02-1.20155E-03-1.59049E-01-1.98642E-14 1.87102E-13
 -1       424 1.99714E+01-4.97347E-02-8.71216E-04-8.32742E-02 1.28156E-13 1.08615E-13
 -1       425 1.99884E+01-2.62386E-02-3.87043E-04-3.96337E-02 3.03084E-13 1.36554E-13
 -1       426 1.99929E+01-1.32372E-02-1.79394E-04-1.98977E-02 1.67679E-13 9.82685E-14
 -1       427 2.00564E+01-2.94939E-02 5.44770E-04 4.55441E-02-6.28573E-14-3.10935E-13
 -1       428 2.00298E+01-3.32433E-02 3.26835E-04-2.51845E-03 1.82855E-13-2.69053E-13
 -1       429 2.00748E+01-3.01235E-04 6.35588E-04 1.16732E-01-1.51859E-13 1.49691E-13
 -1       430 2.00754E+01 6.56196E-02 5.43190E-04 1.99860E-01 2.50960E-13 1.51891E-13
 -1       431 2.00523E+01 1.69877E-01 2.80805E-04 2.71602E-01 2.30752E-13 4.05344E-13
 -1       432 2.00049E+01 3.04793E-01-1.52678E-04 3.06268E-01 1.95196E-14-1.21015E-13
 -1       433 1.99406E+01 4.51584E-01-6.64746E-04 2.81106E-01-1.03862E-13-1.62186E-13
 -1       434 1.98753E+01 5.81843E-01-1.10783E-03 1.85116E-01-7.08487E-14-4.75635E-13
 -1       435 1.98318E+01 6.62463E-01-1.33738E-03 3.08464E-02-6.65565E-14-4.13788E-13
 -1       436 1.98311E+01 6.69751E-01-1.23673E-03-1.53889E-01 2.16237E-13 2.83964E-13
 -1       437 1.98879E+01 5.90746E-01-7.33137E-04-3.13710E-01 3.14794E-13 2.61057E-13
 -1       438 1.99962E+01 4.36868E-01 3.80801E-04-3.88448E-01 1.17355E-13-1.16693E-14
 -1       439 2.00412E+01 3.28933E-01 1.04973E-02 5.36601E-01 1.88335E-13 4.41839E-13
 -1       440 1.27513E+01-5.14164E+00 2.18911E-02 8.66620E+00-1.84061E-13 4.14613E-13
 -1       441 3.04163E+01-1.64554E+00 3.88450E-03 4.59477E+00 3.49290E-13-8.40272E-13
 -1       442 1.38155E+01-6.46959E+00-1.28761E-01-6.08830E+00 2.52048E-13 4.36685E-13
 -1       443 1.97907E+01 3.43347E+00-1.87144E-02-1.71927E+00-1.32026E-13-3.28950E-13
 -1       444 3.93016E+01-1.88180E+00 3.89385E-02 3.98976E+00 3.31006E-13-1.19044E-13
 -1       445 3.59986E+01 3.29497E+00 7.84214E-02 2.54426E+00 4.13822E-13-7.78544E-13
 -1       446 3.88558E+01 7.31092E+00 9.69747E-02 7.12200E-01 1.80189E-13-1.16887E-12
 -1       447 3.72602E+01 9.35585E+00-4.51833E-02-5.55390E-02 3.79474E-13-1.13093E-12
 -1       448 3.70256E+01 7.23645E+00-3.22549E-02 2.18307E-02 4.31641E-13-8.85375E-13
 -1       449 3.55466E+01 3.29975E+00 2.00312E-02-1.36018E+00 3.71501E-13-5.80952E-13
 -1       450 2.99347E+01-2.14643E+00-5.75049E-03-4.76416E+00 2.50147E-14-7.16857E-13
 -1       451 2.17846E+01-4.47394E+00-5.64994E-03-7.78148E+00 2.64858E-13-6.54782E-13
 -1       452 1.29135E+01-5.25555E+00 3.10566E-03-8.61195E+00 2.50883E-13-4.06192E-13
 -1       453 5.44724E+00-4.26145E+00 4.62860E-02-6.93983E+00 7.04159E-14-3.68497E-13
 -1       454 5.82343E-01-4.70672E+00-5.18846E-02-2.72573E+00 6.49619E-14-6.22252E-13
 -1       455 2.55816E+00-3.73531E+00 3.38617E-02 2.43939E+00 1.10044E-13-1.46799E-13
 -1       456 8.79087E+00-5.69105E+00-6.10141E-02 5.55532E+00-1.26843E-14-1.74513E-13
 -1       457 1.87431E+01-7.04703E+00-1.98911E-01 5.72162E+00 1.51879E-13-1.29854E-13
 -1       458 3.13412E+01-6.24598E+00-1.23257E-01 2.29654E+00 1.17323E-13 8.58480E-14
 -1       459 3.87639E+01-2.76089E+00 5.66672E-02-2.86832E+00-2.15866E-13 1.10745E-14
 -1       460 2.63003E+01-6.68875E+00-1.18311E-01-4.19244E+00 1.39416E-13-2.89352E-14
 -1       461 2.48695E+00-4.91223E+00-7.41215E-02-2.71391E+00 1.04416E-13-7.74381E-14
 -1       462 2.34838E+01-4.73144E+00 3.26016E-02 7.31754E+00 2.15689E-13-7.18335E-13
 -1       463 4.46274E+00-4.43872E+00 1.45967E-02 6.40976E+00 3.86080E-14 6.04766E-13
 -1       464 4.10848E+01 2.07318E+00-9.70614E-04 4.69306E+00 6.17562E-14-1.97509E-13
 -1       465 2.00948E+01 3.07411E-01 2.04392E-03-3.88082E-01-1.57824E-13 1.11195E-13
 -1       466 3.49767E+01-5.03555E+00-3.40142E-02-5.32049E-01 3.27405E-13 2.73337E-13
 -1       467 1.97323E+01 3.10474E+00-5.39270E-03-6.33482E-01 3.05108E-14-3.15042E-13
 -1       468 1.98287E+01 2.93113E+00-5.99187E-03-9.49935E-01-2.82939E-14-3.19912E-13
 -1       469 1.96644E+01 3.22744E+00-5.02490E-03 8.83591E-03 1.24966E-13-2.85010E-13
 -1       470 1.96829E+01 3.19444E+00-5.10183E-03 3.30221E-01 1.73644E-13-2.65669E-13
 -1       471 1.97369E+01 3.09757E+00-5.41470E-03 6.45374E-01 2.21801E-13-2.20648E-13
 -1       472 1.98358E+01 2.91969E+00-5.93883E-03 9.60672E-01 2.83496E-13-1.60268E-13
 -1       473 1.99922E+01 2.63346E+00-6.56303E-03 1.25550E+00 2.98658E-13-8.03942E-14
 -1       474 2.02228E+01 2.19402E+00-5.81691E-03 1.48929E+00 3.22177E-13 3.08204E-14
 -1       475 2.04789E+01 1.54607E+00-3.25719E-03 1.54172E+00 2.90890E-13 1.99424E-13
 -1       476 2.05343E+01 9.90655E-01 3.19867E-03 1.29733E+00 2.58107E-13 3.43010E-13
 -1       477 2.03439E+01 9.73462E-01 2.64586E-03-9.40674E-01-1.75249E-13-1.36886E-13
 -1       478 4.22074E+00-5.21482E-01 2.06462E-01-6.48727E-01-2.31504E-13 6.17839E-14
 -1       479 2.03909E+01 1.75714E+00-5.28052E-03-1.52327E+00-2.05081E-13-1.79866E-13
 -1       480 2.01726E+01 5.44097E-01 1.89480E-03-4.66544E-01-1.40782E-13-9.89867E-14
 -1       481 2.00254E+01 3.03987E-01 1.04541E-03-1.65210E-01-8.85855E-14-7.14076E-14
 -1       482 1.99249E+01 1.62109E-01 4.45865E-04 1.64606E-02-9.01351E-14-7.84515E-14
 -1       483 1.98664E+01 7.59814E-02 1.57715E-04 1.19435E-01-9.41760E-14-1.24523E-13
 -1       484 1.98395E+01 2.34417E-02 2.36874E-05 1.71270E-01-9.57063E-14-1.89141E-13
 -1       485 1.98339E+01-7.81685E-03-4.44770E-05 1.90567E-01-5.18503E-14-2.31853E-13
 -1       486 1.98418E+01-2.51630E-02-7.88328E-05 1.89938E-01-1.08206E-13-1.50168E-13
 -1       487 1.98576E+01-3.32752E-02-9.29638E-05 1.77974E-01-7.70500E-14-5.96582E-14
 -1       488 1.98774E+01-3.52264E-02-9.38442E-05 1.60547E-01 2.75648E-14-6.06925E-14
 -1       489 1.98987E+01-3.30423E-02-8.58031E-05 1.41673E-01 1.41568E-14-2.32422E-14
 -1       490 1.99203E+01-2.80015E-02-7.15130E-05 1.24127E-01-6.79167E-14-1.12008E-13
 -1       491 1.99415E+01-2.07962E-02-5.22532E-05 1.09912E-01-1.30678E-13-1.22376E-13
 -1       492 1.99624E+01-1.16031E-02-2.79658E-05 1.00628E-01-5.47917E-14-8.45959E-15
 -1       493 1.99833E+01-7.81925E-05 2.89078E-06 9.78109E-02-7.44111E-14 2.45942E-15
 -1       494 2.00046E+01 1.47280E-02 4.37641E-05 1.03269E-01 8.93053E-15-1.46770E-14
 -1       495 2.00269E+01 3.45571E-02 1.00808E-04 1.19456E-01 1.53239E-15-4.40497E-14
 -1       496 2.00504E+01 6.22645E-02 1.83936E-04 1.49934E-01 5.35252E-14-3.47455E-14
 -1       497 2.00744E+01 1.02320E-01 3.09381E-04 1.99953E-01 1.12994E-13-1.14041E-13
 -1       498 2.00966E+01 1.61398E-01 4.90790E-04 2.77137E-01 8.24850E-14-2.06281E-13
 -1       499 2.01112E+01 2.55183E-01 8.25924E-04 3.99559E-01 4.30283E-15-3.89102E-13
 -1       500 2.01031E+01 3.90074E-01 1.25839E-03 5.71686E-01 2.56573E-14-2.51043E-13
 -1       501 2.00494E+01 5.88146E-01 1.89913E-03 8.18022E-01 9.96210E-14-8.33546E-14
 -1       502 1.99061E+01 8.70506E-01 2.71117E-03 1.16280E+00 1.83977E-13-2.07157E-13
 -1       503 1.96007E+01 1.24898E+00 3.72822E-03 1.63163E+00-6.86841E-14-1.92919E-13
 -1       504 1.90276E+01 1.69594E+00 5.90112E-03 2.24739E+00-6.63069E-14-2.05115E-13
 -1       505 1.80617E+01 2.07347E+00 1.49077E-02 3.03030E+00-5.94118E-14-1.66422E-13
 -1       506 1.66305E+01 1.98513E+00 4.68444E-02 4.02989E+00 2.73332E-14-1.12377E-13
 -1       507 1.49752E+01 5.40407E-01 1.38209E-01 5.18346E+00 3.06612E-14-3.24601E-14
 -1       508 1.80564E+01 9.81901E-01 7.14720E-02-5.07074E+00 1.95139E-13-2.89751E-13
 -1       509 1.88495E+01 1.76012E+00 2.42387E-02-3.96098E+00 5.17826E-14-2.87443E-13
 -1       510 1.95369E+01 1.64055E+00 9.77206E-03-2.97102E+00-2.77324E-13-3.72674E-13
 -1       511 1.99483E+01 1.26911E+00 5.82996E-03-2.16811E+00-2.12211E-14-2.65967E-13
 -1       512 2.01389E+01 9.04491E-01 4.47329E-03-1.55256E+00-5.57026E-14-1.98390E-13
 -1       513 2.01936E+01 6.25937E-01 3.34450E-03-1.09791E+00 2.60967E-15-1.26566E-13
 -1       514 2.01786E+01 4.45140E-01 3.02919E-03-7.69798E-01-4.93048E-14-1.02915E-13
 -1       515 2.01461E+01 3.53642E-01 2.17084E-03-5.65315E-01-4.28001E-14-6.26551E-14
 -1       516 1.98544E+01 1.07844E-01 3.97285E-04-7.45603E-02 1.04181E-13 1.01178E-13
 -1       517 1.99352E+01 2.12285E-01 9.84213E-04 6.42256E-02 1.53959E-13 1.32111E-13
 -1       518 2.00679E+01 3.87805E-01 1.13872E-03 3.04150E-01 1.79652E-13 1.03340E-13
 -1       519 1.98140E+01 4.45477E-02 1.32691E-04-1.49276E-01 9.98466E-14 1.06158E-13
 -1       520 1.98019E+01 6.38107E-03 5.12129E-06-1.83037E-01 6.55644E-14 8.22273E-14
 -1       521 1.98078E+01-1.56856E-02-6.01221E-05-1.91242E-01 4.08284E-14 2.77617E-14
 -1       522 1.98243E+01-2.71864E-02-9.22366E-05-1.84287E-01 3.96607E-14 1.94079E-14
 -1       523 1.98462E+01-3.17144E-02-1.03710E-04-1.69205E-01 2.98465E-14 8.33513E-14
 -1       524 1.98703E+01-3.16955E-02-1.01961E-04-1.50725E-01 7.10460E-14 1.14007E-13
 -1       525 1.98946E+01-2.88139E-02-9.20267E-05-1.31966E-01 5.26650E-14 2.11908E-13
 -1       526 1.99179E+01-2.42745E-02-7.75792E-05-1.14901E-01 8.52940E-14 1.39018E-13
 -1       527 1.99398E+01-1.89909E-02-6.14750E-05-1.00657E-01 7.59385E-14 7.77463E-14
 -1       528 1.99605E+01-1.37389E-02-4.62265E-05-8.96958E-02 7.84668E-15 7.14913E-14
 -1       529 1.99802E+01-9.29813E-03-3.44370E-05-8.18925E-02 7.74762E-14-8.03820E-14
 -1       530 1.99995E+01-6.58838E-03-2.92020E-05-7.65076E-02 6.17417E-16 1.70698E-14
 -1       531 2.00188E+01-6.79829E-03-3.44365E-05-7.20746E-02 4.19230E-14 7.36759E-14
 -1       532 2.00387E+01-1.14836E-02-5.50302E-05-6.62035E-02-3.65157E-14-3.24643E-14
 -1       533 2.00595E+01-2.25911E-02-9.66516E-05-5.53345E-02-3.65357E-15 7.24851E-14
 -1       534 2.00814E+01-4.23274E-02-1.64932E-04-3.45054E-02 1.14484E-14 2.62538E-13
 -1       535 2.01035E+01-7.27562E-02-2.63687E-04 2.74203E-03 2.36449E-14 3.56765E-13
 -1       536 2.01243E+01-1.14979E-01-3.91926E-04 6.41080E-02 3.56455E-14 1.35539E-13
 -1       537 2.01402E+01-1.67782E-01-5.39691E-04 1.57624E-01 4.55852E-14-4.32783E-14
 -1       538 2.01450E+01-2.25796E-01-6.83462E-04 2.89698E-01 1.29660E-13 1.33840E-13
 -1       539 2.01291E+01-2.77567E-01-7.82590E-04 4.61783E-01-6.84155E-14 7.94554E-14
 -1       540 2.00790E+01-3.04614E-01-7.81998E-04 6.65682E-01-3.33560E-13 4.36798E-14
 -1       541 1.99798E+01-2.83241E-01-6.19635E-04 8.78406E-01-3.84376E-13 2.88128E-13
 -1       542 1.98195E+01-1.91163E-01-2.81829E-04 1.05906E+00-6.42108E-14 4.92398E-13
 -1       543 1.95980E+01-1.92588E-02 2.32271E-04 1.15197E+00 8.69017E-14 3.12593E-13
 -1       544 1.93367E+01 2.14983E-01 8.06716E-04 1.10001E+00 1.10854E-13 7.80893E-14
 -1       545 1.90820E+01 4.61206E-01 1.29134E-03 8.68280E-01 1.51948E-13 7.19877E-14
 -1       546 1.88962E+01 6.47374E-01 1.55832E-03 4.69216E-01 1.02794E-13 6.43688E-15
 -1       547 1.88331E+01 7.09421E-01 1.64207E-03-2.79251E-02-2.58138E-15 8.19065E-14
 -1       548 1.89120E+01 6.24297E-01 1.52672E-03-5.15966E-01 1.66114E-14 1.30920E-13
 -1       549 1.91070E+01 4.22988E-01 1.21218E-03-8.91243E-01-1.59400E-14 5.57237E-14
 -1       550 1.93609E+01 1.73117E-01 7.29623E-04-1.09279E+00-2.33831E-13 6.78352E-14
 -1       551 1.96125E+01-5.48124E-02 1.61814E-04-1.11667E+00-1.31059E-13 3.60952E-13
 -1       552 1.98187E+01-2.14723E-01-3.31882E-04-1.00334E+00-8.02136E-14 2.09291E-13
 -1       553 1.99616E+01-2.93344E-01-6.53269E-04-8.11858E-01 1.18574E-13 1.37677E-13
 -1       554 2.00440E+01-3.02351E-01-7.84183E-04-5.97366E-01 2.15723E-13-8.91279E-14
 -1       555 2.00789E+01-2.64696E-01-7.54721E-04-3.99217E-01 1.90498E-13-2.87339E-13
 -1       556 2.00817E+01-2.03549E-01-6.36693E-04-2.39335E-01-9.80059E-14-3.53560E-13
 -1       557 2.00663E+01-1.37532E-01-4.58098E-04-1.25113E-01 2.04690E-13-9.32130E-14
 -1       558 2.00440E+01-7.91674E-02-1.97918E-04-5.42630E-02 2.84121E-13-3.37124E-13
 -1       559 2.01674E+01-7.61801E-02 2.78097E-04 2.06763E-01 1.65126E-13 5.58756E-13
 -1       560 2.01451E+01-9.85347E-02 4.74396E-04 9.46195E-02 4.92806E-14-4.01782E-15
 -1       561 2.00928E+01-8.73719E-02 2.12385E-04 9.09864E-03 1.86035E-13-6.12503E-13
 -1       562 3.28206E+01 4.20013E+00-1.49421E-01-1.20932E+00 4.97775E-13-7.73950E-13
 -1       563 2.01468E+01-8.25298E-03 2.08922E-04 3.25139E-01 1.05007E-13 1.33934E-13
 -1       564 2.00741E+01 1.08887E-01 3.07187E-05 4.15490E-01-1.53621E-13-7.81543E-14
 -1       565 1.99547E+01 2.67217E-01-1.95288E-04 4.41666E-01-2.36281E-13-5.25407E-14
 -1       566 1.98115E+01 4.44064E-01-4.09199E-04 3.74751E-01-2.51278E-13-1.51211E-13
 -1       567 1.96868E+01 6.00511E-01-5.77988E-04 2.10227E-01 1.48806E-13-1.89998E-13
 -1       568 1.96258E+01 6.99102E-01-6.85212E-04-3.44453E-02 1.16946E-13-6.65700E-14
 -1       569 1.96731E+01 7.00934E-01-6.39308E-04-3.00435E-01 8.74126E-14 1.86546E-13
 -1       570 1.98401E+01 5.92986E-01-5.37767E-04-5.06744E-01-3.97709E-14 2.87210E-13
 -1       571 3.18351E+01-2.67354E-01-8.89769E-02 5.19047E-01 3.11119E-13-7.92949E-13
 -1       572 4.69896E+00-1.29660E+00 1.77360E-01 4.38390E+00-1.19335E-13 3.74048E-13
 -1       573 3.14790E+01 8.06252E+00-2.04017E-01 9.77196E-01 2.15203E-13-4.81226E-13
 -1       574 1.50964E+01-3.04410E+00 1.41787E-01-6.24339E+00-8.11573E-14 3.45286E-13
 -1       575 1.90532E+01-1.88527E+00 1.24915E-01-5.97292E+00 1.79100E-13-1.45634E-13
 -1       576 1.07883E+01-2.85337E+00 1.50585E-01 7.86138E+00-2.95319E-13 3.08871E-13
 -1       577 1.96801E+01 3.19883E+00-5.10952E-03-3.12673E-01 6.93789E-14-2.92254E-13
 -1       578 2.79875E+01-4.43372E+00-1.86285E-02 3.65859E+00 1.97301E-13-8.67889E-13
 -1       579 2.65703E+01-4.65965E+00 6.35563E-03-5.09734E+00 5.51018E-14-4.08618E-13
 -1       580 3.21027E+01 7.65334E+00-1.92695E-01-1.21002E+00 2.81705E-13-6.41421E-13
 -1       581 3.19971E+01 4.12913E+00-1.57690E-01 1.53776E+00 1.45356E-13-3.68733E-13
 -1       582 1.76690E+01-3.33753E+00 1.42039E-01 6.27895E+00 9.95870E-14-1.60386E-13
 -1       583 3.12627E+01-6.90031E-01-1.17019E-01-7.55562E-01-1.05294E-13-3.57277E-13
 -1       584 1.99145E+01-5.08316E+00 7.67712E-02-7.91971E+00 1.25830E-13-5.79522E-13
 -1       585 1.23107E+01-3.26902E+00 1.56874E-01-8.20464E+00 1.60545E-13-4.04607E-13
 -1       586 5.43081E+00-7.84256E-01 1.87441E-01-4.54465E+00-5.90326E-14-3.89577E-13
 -1       587 4.84381E+00 1.43959E-01 2.27082E-01 1.90898E-01 9.24952E-14-4.29892E-13
 -1       588 1.00983E+01-1.21842E+00 1.96005E-01 5.20010E+00 4.10089E-14-9.45077E-15
 -1       589 9.13628E+00-1.83953E+00 1.77932E-01-5.07943E+00-2.69576E-13 3.86746E-13
 -1       590 2.35087E+01-5.20836E+00 4.41707E-02-5.23599E+00 1.01572E-13 3.53224E-14
 -1       591 2.05563E+01-4.93320E+00 8.78789E-02 7.56019E+00-2.36033E-13-3.08378E-13
 -1       592 1.99783E+01 2.65377E+00-6.74947E-03-1.24323E+00-9.14600E-14-2.96243E-13
 -1       593 2.02675E+01 6.54477E-01 6.22816E-03 7.95580E-01 2.12116E-13 2.47847E-13
 -1       594 2.01632E+01 2.28280E+00-6.10321E-03-1.43492E+00-1.51487E-13-2.41063E-13
 -1       595 2.87625E+01 7.69983E+00-1.76917E-01-2.16841E-01 1.88467E-13-2.65812E-13
 -1       596 2.01404E+01 5.01236E-01 3.55432E-03 5.17093E-01 1.95002E-13 1.53981E-13
 -1       597 2.88532E+01-3.37971E+00-5.06886E-02-1.77317E+00-1.28994E-13-2.52989E-13
 -1       598 1.99593E+01 2.45030E+00-1.60328E-03 3.93745E-01 1.87944E-13-1.89074E-13
 -1       599 1.99276E+01 2.52512E+00-1.52474E-03 1.35694E-01 1.26854E-13-2.38552E-13
 -1       600 2.01191E+01 2.04724E+00-1.80593E-03 8.50116E-01 2.61036E-13-1.04437E-13
 -1       601 2.02406E+01 1.68352E+00-2.00837E-03 1.00109E+00 2.53648E-13-1.50601E-14
 -1       602 2.03643E+01 1.02612E+00 3.46365E-03 1.00952E+00 2.41985E-13 1.19148E-13
 -1       603 2.02927E+01 1.11639E+00-4.07696E-04-7.62204E-01-1.19357E-13-1.48954E-13
 -1       604 2.02701E+01 1.62769E+00 7.14953E-04-1.08789E+00-1.45454E-13-1.97638E-13
 -1       605 2.02802E+01-2.20671E-01 2.06650E-04 1.56905E-01 3.16126E-13 5.39025E-13
 -1       606 2.02406E+01 6.73752E-01 4.28081E-04-3.91970E-01-9.94141E-14-1.68022E-13
 -1       607 2.01679E+01 3.92308E-01 1.75617E-04-1.38519E-01-9.83998E-14-1.39823E-13
 -1       608 2.01025E+01 2.13222E-01 5.07497E-05 2.37284E-02-1.07843E-13-1.13252E-13
 -1       609 2.00524E+01 9.92372E-02 7.04236E-06 1.19212E-01-1.23179E-13-1.54450E-13
 -1       610 2.00176E+01 2.79271E-02-1.44054E-05 1.68601E-01-1.00060E-13-1.55818E-13
 -1       611 1.99955E+01-1.48583E-02-2.50779E-05 1.87562E-01-5.06908E-14-1.48658E-13
 -1       612 1.99829E+01-3.83656E-02-3.01684E-05 1.87501E-01-1.87400E-14-1.16413E-13
 -1       613 1.99772E+01-4.87968E-02-3.12889E-05 1.76561E-01 8.12042E-16-7.81035E-14
 -1       614 1.99763E+01-5.03517E-02-2.94745E-05 1.60483E-01-4.78619E-14-1.36678E-13
 -1       615 1.99785E+01-4.58206E-02-2.55866E-05 1.43287E-01-1.31690E-14-1.74169E-13
 -1       616 1.99828E+01-3.69273E-02-2.01826E-05 1.27810E-01-9.84557E-14-6.08075E-14
 -1       617 1.99883E+01-2.45196E-02-1.34680E-05 1.16142E-01-7.93360E-15-3.10502E-14
 -1       618 1.99943E+01-8.64625E-03-5.26485E-06 1.09977E-01-6.91486E-14-3.27741E-15
 -1       619 2.00001E+01 1.14715E-02 5.06694E-06 1.10920E-01-1.20744E-13 8.68768E-15
 -1       620 2.00043E+01 3.75829E-02 1.87885E-05 1.20772E-01-2.61074E-15-2.12041E-16
 -1       621 2.00050E+01 7.26895E-02 3.78544E-05 1.41796E-01 4.02596E-14-2.23601E-14
 -1       622 1.99982E+01 1.21496E-01 6.63915E-05 1.76957E-01 6.42878E-14-3.95424E-14
 -1       623 1.99776E+01 1.90925E-01 9.19967E-05 2.30164E-01-1.06460E-14-1.23359E-13
 -1       624 1.99281E+01 2.97378E-01 1.85210E-04 3.10691E-01-3.33183E-14-2.73380E-13
 -1       625 1.98331E+01 4.45771E-01 2.59622E-04 4.16672E-01 1.34362E-13-2.39365E-13
 -1       626 1.96582E+01 6.58171E-01 3.79825E-04 5.56315E-01 7.36766E-14-3.18334E-13
 -1       627 1.93488E+01 9.55450E-01 5.10086E-04 7.32029E-01-2.95724E-14-3.61249E-13
 -1       628 1.88201E+01 1.35364E+00 6.71188E-04 9.40187E-01 8.05432E-14-4.82956E-13
 -1       629 1.79446E+01 1.84647E+00 1.50733E-03 1.16841E+00-1.43715E-14-5.01593E-13
 -1       630 1.65407E+01 2.36646E+00 7.02965E-03 1.40018E+00-6.26905E-15-2.72988E-13
 -1       631 1.43604E+01 2.71191E+00 3.40811E-02 1.64764E+00 9.37792E-15-2.07477E-13
 -1       632 1.10120E+01 2.46981E+00 1.27458E-01 2.02952E+00 9.53508E-14-2.60590E-13
 -1       633 1.43653E+01 2.36742E+00 6.35413E-02-3.24707E+00-1.12750E-13-3.54109E-14
 -1       634 2.00080E+01 5.94416E-02 3.99542E-06-1.48993E-01 1.16889E-13 1.20985E-14
 -1       635 1.63945E+01 2.41362E+00 1.59086E-02-2.41095E+00-1.20277E-13-2.53237E-13
 -1       636 1.79045E+01 1.98518E+00 4.07757E-03-1.89246E+00-3.53233E-14-1.19661E-13
 -1       637 1.88474E+01 1.48733E+00 1.80813E-03-1.46631E+00 4.11285E-14 2.62440E-14
 -1       638 1.94086E+01 1.06587E+00 1.21423E-03-1.11536E+00 4.16393E-15 9.97855E-14
 -1       639 1.97214E+01 7.62723E-01 7.56863E-04-8.32792E-01-1.20450E-13 1.94933E-14
 -1       640 1.97839E+01 6.62514E-01 7.48839E-04-6.54315E-01 3.34154E-14 1.91228E-14
 -1       641 2.01117E+01 2.86167E-01 1.96762E-04 5.23194E-02 1.21688E-13 1.44132E-14
 -1       642 2.00505E+01 1.47136E-01 5.95079E-05-7.69070E-02 8.99850E-14 2.24652E-14
 -1       643 2.01898E+01 5.05786E-01 5.35535E-04 2.63860E-01 1.69357E-13 1.26855E-14
 -1       644 1.99812E+01 5.55095E-03-1.86400E-05-1.82536E-01 9.93203E-14-1.61918E-15
 -1       645 1.99664E+01-2.56988E-02-3.05805E-05-1.91303E-01 3.18202E-14 7.24063E-15
 -1       646 1.99600E+01-4.17054E-02-3.56864E-05-1.85122E-01 4.04619E-14-6.90674E-15
 -1       647 1.99593E+01-4.75151E-02-3.61184E-05-1.70888E-01 2.64206E-14 3.31859E-16
 -1       648 1.99622E+01-4.66473E-02-3.34137E-05-1.53340E-01-1.73798E-14-1.48098E-15
 -1       649 1.99673E+01-4.16050E-02-2.88196E-05-1.35651E-01 8.50219E-14 1.54715E-14
 -1       650 1.99738E+01-3.42281E-02-2.33151E-05-1.19836E-01 1.55791E-13 5.63255E-14
 -1       651 1.99811E+01-2.59677E-02-1.77094E-05-1.07044E-01 7.33894E-14-9.40209E-14
 -1       652 1.99894E+01-1.81269E-02-1.27734E-05-9.77222E-02 1.48522E-14-5.83653E-14
 -1       653 1.99988E+01-1.20880E-02-9.38078E-06-9.16804E-02-3.76112E-14 2.65715E-14
 -1       654 2.00100E+01-9.53220E-03-8.64350E-06-8.80472E-02-1.68777E-15 2.88979E-15
 -1       655 2.00242E+01-1.26344E-02-1.20316E-05-8.51264E-02 1.39667E-14 1.58208E-13
 -1       656 2.00430E+01-2.41911E-02-2.14322E-05-8.01589E-02-8.31476E-14 1.25457E-13
 -1       657 2.00688E+01-4.75918E-02-3.90819E-05-6.90164E-02-7.28402E-14 1.43270E-13
 -1       658 2.01042E+01-8.64860E-02-6.72563E-05-4.58869E-02-2.25005E-14 1.36752E-13
 -1       659 2.01523E+01-1.43938E-01-1.07510E-04-3.08452E-03 1.69409E-13 5.81636E-14
 -1       660 2.02153E+01-2.20819E-01-1.59398E-04 6.87752E-02 1.41344E-13 1.09904E-13
 -1       661 2.02933E+01-3.13275E-01-2.18622E-04 1.79824E-01 7.55154E-14 8.92069E-14
 -1       662 2.03820E+01-4.09393E-01-2.74223E-04 3.38611E-01 2.36634E-15 5.03681E-14
 -1       663 2.04695E+01-4.85989E-01-3.02993E-04 5.47707E-01-1.00801E-13 1.32094E-13
 -1       664 2.05350E+01-5.07646E-01-2.71476E-04 7.96898E-01-4.34775E-13 1.91849E-14
 -1       665 2.05497E+01-4.31639E-01-1.21874E-04 1.05494E+00-3.18702E-13-9.64135E-14
 -1       666 2.04854E+01-2.22843E-01 6.63863E-05 1.26393E+00 4.81088E-14-1.24875E-13
 -1       667 2.03310E+01 1.22272E-01 3.69759E-04 1.34429E+00 1.82991E-13-2.65862E-14
 -1       668 2.01108E+01 5.50908E-01 6.19300E-04 1.21761E+00 4.88405E-14 1.43368E-14
 -1       669 1.98907E+01 9.50391E-01 6.59485E-04 8.48479E-01 8.05964E-14 2.85180E-13
 -1       670 1.97563E+01 1.18477E+00 4.62520E-04 2.82470E-01-1.14703E-15 2.96484E-13
 -1       671 1.97670E+01 1.16298E+00 4.03625E-04-3.51533E-01 4.44180E-14 1.47401E-14
 -1       672 1.99172E+01 8.93519E-01 4.93560E-04-8.93011E-01 1.61248E-14 2.97629E-14
 -1       673 2.01407E+01 4.78860E-01 5.28763E-04-1.22402E+00-9.47946E-14 1.75845E-13
 -1       674 2.03520E+01 5.52434E-02 3.27508E-04-1.31240E+00-2.64031E-13 1.01030E-13
 -1       675 2.04905E+01-2.71652E-01 5.92602E-05-1.20322E+00-4.64727E-14 2.02607E-13
 -1       676 2.05377E+01-4.57630E-01-1.46912E-04-9.78071E-01 4.99283E-14 2.46922E-13
 -1       677 2.05084E+01-5.12060E-01-2.76987E-04-7.15511E-01 3.80653E-13-4.28901E-14
 -1       678 2.04317E+01-4.72407E-01-3.14678E-04-4.70594E-01 2.74151E-13-1.28696E-13
 -1       679 2.03355E+01-3.80773E-01-2.38489E-04-2.71901E-01 2.08188E-13-3.17319E-13
 -1       680 2.02378E+01-2.70407E-01-2.62474E-04-1.30222E-01 4.88148E-14-5.67102E-13
 -1       681 2.01601E+01-1.72220E-01-2.18396E-04-3.81953E-02 1.93686E-13-5.06145E-13
 -1       682 2.02195E+01-1.15159E-01 1.72440E-05 4.81053E-01 5.98147E-14-8.35784E-14
 -1       683 9.55187E+00-2.31202E-01 1.53157E-01 5.55051E+00-4.56992E-13 2.51958E-13
 -1       684 2.93153E+01 5.68229E-01-9.36989E-02 1.48626E+00-8.27116E-14-1.26628E-13
 -1       685 2.02309E+01-2.06952E-01-3.95047E-04 4.52385E-02 2.56461E-13-4.23013E-13
 -1       686 2.00600E+01 4.16489E-02-5.57314E-05 5.92137E-01 9.88764E-14-2.07719E-13
 -1       687 2.02901E+01-2.00122E-01 1.36663E-04 3.19957E-01 1.50719E-13 2.56541E-13
 -1       688 1.98295E+01 2.59847E-01-1.18967E-04 6.03105E-01 4.22599E-14-1.34191E-13
 -1       689 1.95841E+01 5.00109E-01-1.34954E-04 4.80057E-01 1.08996E-13 2.99597E-14
 -1       690 1.93938E+01 7.14407E-01-3.20016E-04 2.15203E-01 5.39032E-14-4.22079E-13
 -1       691 1.93528E+01 8.33452E-01-2.97354E-04-1.47646E-01-9.75434E-14 2.48443E-13
 -1       692 1.95092E+01 8.00529E-01-5.92950E-05-4.48942E-01-7.27771E-15 1.83823E-13
 -1       693 7.01957E+00 1.22300E+00 1.84294E-01 1.70284E+00-1.77698E-13 3.10821E-13
 -1       694 2.99841E+01 1.24732E+00-1.10413E-01-1.54164E+00 3.12455E-13-5.46882E-13
 -1       695 2.88672E+01 5.53429E+00-1.59903E-01 1.84258E+00 1.15769E-13-1.32290E-13
 -1       696 1.64027E+01-2.73898E+00 1.16381E-01 7.21177E+00-2.80814E-13 4.98108E-14
 -1       697 2.00234E+01 2.29563E+00-1.70553E-03 6.37321E-01 2.36951E-13-1.43688E-13
 -1       698 1.26683E+01 4.15543E-01 1.61854E-01-4.83670E+00 6.52256E-14 1.40311E-13
 -1       699 2.00181E+01 2.30591E+00-1.62705E-03-6.28858E-01-6.73805E-15-2.66092E-13
 -1       700 2.36852E+01-4.73802E+00 4.38849E-02-5.67966E+00-9.02056E-17-1.86220E-13
 -1       701 1.79084E+01-3.58599E+00 8.30666E-02-7.36497E+00 1.83336E-13-4.49911E-13
 -1       702 7.49016E+00 1.42430E+00 1.60686E-01-1.99598E+00-5.44183E-14-3.56250E-13
 -1       703 1.07830E+01-4.39618E-01 1.55235E-01-6.02438E+00 3.89029E-14-5.77399E-13
 -1       704 2.44751E+01-4.42794E+00 1.37232E-02 4.52298E+00-6.94360E-14-8.47693E-13
 -1       705 2.87419E+01-2.71230E+00-6.19055E-02 7.90747E-01 1.37450E-13-6.90380E-13
 -1       706 2.90359E+01 4.82687E+00-1.44928E-01-2.03918E+00 4.49245E-13-1.87853E-13
 -1       707 2.01170E+01 2.05880E+00-6.75049E-04-8.43232E-01-7.20212E-14-2.62130E-13
 -1       708 1.99267E+01 2.52681E+00-1.52709E-03-1.26425E-01 9.52175E-14-2.44381E-13
 -1       709 2.02748E+01 8.55903E-01 1.72389E-03 5.84429E-01 1.75953E-13 1.44184E-14
 -1       710 2.68123E+01 5.93321E+00-1.12527E-01-1.31859E+00 5.04655E-13 2.58213E-13
 -1       711 9.34649E+00 1.70933E+00 1.65629E-01-2.27758E+00-1.99693E-14-7.31012E-14
 -1       712 2.74662E+01 2.41921E+00-7.31232E-02 2.19860E+00 5.50428E-14 1.73854E-14
 -1       713 2.70723E+01 6.40377E+00-1.26525E-01 1.01475E+00 4.49155E-14 4.02340E-13
 -1       714 2.61955E+01-3.80513E+00-8.32029E-03 2.17211E+00-3.95281E-14-5.60139E-13
 -1       715 1.52967E+01-1.41928E+00 7.43320E-02-6.37511E+00-3.65801E-14-4.39307E-13
 -1       716 2.11639E+01-3.50284E+00 4.30081E-02 5.56570E+00-2.13310E-13-5.37490E-13
 -1       717 1.99563E+01 2.45595E+00-1.57104E-03-3.84061E-01 3.45781E-14-2.50268E-13
 -1       718 2.62897E+01-4.18785E+00-9.73698E-03-3.00810E+00-5.04718E-14-2.09829E-13
 -1       719 2.02647E+01 1.30970E+00-7.20307E-04 6.30434E-01 1.94540E-13-5.70698E-14
 -1       720 1.92158E+01 6.46426E-01 1.48843E-04 6.03105E-01-2.20865E-14 2.34407E-14
 -1       721 2.01896E+01 1.87170E+00-1.46455E-05-9.83910E-01-1.11159E-13-2.51217E-13
 -1       722 2.02819E+01 1.16365E+00-4.86582E-04-5.66707E-01-1.18104E-13-2.15729E-13
 -1       723 2.02892E+01 7.29876E-01-1.03282E-04-2.90061E-01-7.45127E-14-1.89688E-13
 -1       724 2.02620E+01 4.33965E-01 1.33412E-05-9.23147E-02-6.27685E-14-1.47889E-13
 -1       725 2.02218E+01 2.35558E-01-7.02290E-06 3.76491E-02-1.06078E-13-9.86289E-14
 -1       726 2.01803E+01 1.05579E-01-9.69471E-06 1.15393E-01-1.22001E-13-9.31981E-14
 -1       727 2.01427E+01 2.32036E-02-8.80665E-06 1.55745E-01-7.19858E-14-1.03065E-13
 -1       728 2.01108E+01-2.60917E-02-8.28180E-06 1.70855E-01-1.80346E-14-9.48656E-14
 -1       729 2.00848E+01-5.24445E-02-8.02883E-06 1.70058E-01 8.40386E-15-1.24800E-13
 -1       730 2.00641E+01-6.29659E-02-7.48579E-06 1.60263E-01-2.54355E-14-1.05217E-13
 -1       731 2.00480E+01-6.25807E-02-6.60741E-06 1.46442E-01-5.88660E-14-5.76178E-14
 -1       732 2.00355E+01-5.45643E-02-5.47382E-06 1.32124E-01 2.24868E-15-1.88698E-13
 -1       733 2.00256E+01-4.08818E-02-4.16732E-06 1.19805E-01-5.85942E-14-1.15750E-13
 -1       734 2.00172E+01-2.23866E-02-2.73650E-06 1.11292E-01-3.17380E-14-8.25881E-14
 -1       735 2.00088E+01 1.10175E-03-1.18313E-06 1.07969E-01-4.06647E-14-7.90581E-14
 -1       736 1.99984E+01 3.08367E-02 5.59146E-07 1.10981E-01-4.43286E-14 1.28959E-14
 -1       737 1.99829E+01 6.93072E-02 2.52613E-06 1.21346E-01-6.90277E-15-3.46278E-15
 -1       738 1.99575E+01 1.20532E-01 5.67707E-06 1.39941E-01 7.01422E-15-3.28898E-14
 -1       739 1.99146E+01 1.90382E-01-6.49403E-06 1.67390E-01 2.84692E-14-1.92827E-13
 -1       740 1.98374E+01 2.93100E-01 2.06751E-05 2.05280E-01-4.94006E-14-1.38954E-13
 -1       741 1.97127E+01 4.30804E-01 8.79810E-06 2.47686E-01 4.40644E-14-6.90936E-14
 -1       742 1.95080E+01 6.21106E-01-2.49753E-06 2.90085E-01 1.94015E-15-2.70204E-13
 -1       743 1.91773E+01 8.78837E-01-4.50877E-05 3.18970E-01-1.95905E-14-2.90256E-13
 -1       744 1.86522E+01 1.21442E+00-1.37718E-04 3.08813E-01-7.31294E-14-3.21503E-13
 -1       745 1.78337E+01 1.62296E+00-7.25459E-06 2.15986E-01 5.67123E-14-2.36497E-13
 -1       746 1.65792E+01 2.06347E+00 2.43910E-03-2.57124E-02 9.17854E-14-2.57400E-13
 -1       747 1.46894E+01 2.41253E+00 1.45971E-02-5.04049E-01-5.72296E-15-3.08117E-13
 -1       748 1.18646E+01 2.41468E+00 6.75500E-02-1.29244E+00 9.21882E-14-2.68136E-13
 -1       749 2.02877E+01 9.30860E-01 5.27847E-04 4.44986E-01 1.91064E-13-3.10935E-14
 -1       750 2.01431E+01 6.19449E-02-1.00067E-05-1.41027E-01 9.91360E-14 1.36497E-15
 -1       751 1.06441E+01 2.45388E+00 9.69016E-02 1.01626E-01-1.67983E-13-7.17724E-14
 -1       752 2.75459E+01-2.11749E+00-2.81549E-02 1.68877E-01-2.33806E-13-7.60295E-14
 -1       753 1.74208E+01 1.89890E+00-2.90489E-03-6.90293E-01 3.35585E-13-2.98446E-13
 -1       754 1.84642E+01 1.44589E+00 3.75089E-04-6.79281E-01 1.09578E-13 7.79915E-14
 -1       755 1.91216E+01 1.06534E+00 5.74515E-04-6.02694E-01 5.57763E-14 2.01906E-13
 -1       756 2.00812E+01-3.83205E-02-9.92453E-06-1.75667E-01 5.38039E-14 7.81958E-14
 -1       757 2.00593E+01-5.63282E-02-9.83476E-06-1.69677E-01 2.86727E-14 4.87155E-14
 -1       758 2.00424E+01-6.17917E-02-9.14222E-06-1.56924E-01 6.01463E-14-8.57539E-15
 -1       759 2.00297E+01-5.90388E-02-7.98020E-06-1.41615E-01 4.36223E-14-8.20994E-14
 -1       760 2.00202E+01-5.12154E-02-6.53766E-06-1.26604E-01 8.39577E-14-6.52129E-14
 -1       761 2.00135E+01-4.06940E-02-4.98307E-06-1.13737E-01 1.19100E-13 5.09424E-14
 -1       762 2.00092E+01-2.94219E-02-3.46411E-06-1.04100E-01-1.62061E-14 6.31709E-14
 -1       763 2.00074E+01-1.92433E-02-2.14122E-06-9.81645E-02 1.41269E-14 3.61457E-14
 -1       764 2.00086E+01-1.22116E-02-1.22495E-06-9.58435E-02-7.73407E-14 7.86994E-14
 -1       765 2.00141E+01-1.08921E-02-1.01589E-06-9.64349E-02-7.57187E-14 1.68655E-13
 -1       766 2.00262E+01-1.86240E-02-1.98556E-06-9.84573E-02-3.03722E-14 2.03974E-13
 -1       767 2.00482E+01-3.96717E-02-4.85723E-06-9.93577E-02-8.70197E-14 1.71037E-13
 -1       768 2.00851E+01-7.91247E-02-1.06964E-05-9.50856E-02 1.47710E-15 1.10714E-13
 -1       769 2.01433E+01-1.42317E-01-2.09896E-05-7.95549E-02 1.16141E-13-5.03887E-14
 -1       770 2.02301E+01-2.33433E-01-3.72672E-05-4.40898E-02 2.03623E-14 6.72629E-14
 -1       771 2.03526E+01-3.52896E-01-6.09772E-05 2.28897E-02 8.30127E-14 2.14098E-13
 -1       772 2.05147E+01-4.93224E-01-9.36469E-05 1.35371E-01-3.77420E-14 2.56911E-13
 -1       773 2.07127E+01-6.33532E-01-1.33069E-04 3.07363E-01-6.15286E-14 3.44536E-13
 -1       774 2.09299E+01-7.34194E-01-1.55297E-04 5.47100E-01-1.81536E-13 3.48727E-13
 -1       775 2.11310E+01-7.35445E-01-1.23797E-04 8.46344E-01-2.41090E-13 5.10484E-14
 -1       776 2.12645E+01-5.67021E-01 1.12893E-04 1.16512E+00-1.46786E-13-3.56708E-14
 -1       777 2.12778E+01-1.78382E-01 1.09929E-04 1.41980E+00-1.28425E-13 1.48351E-13
 -1       778 2.11482E+01 4.17604E-01 4.55196E-04 1.49042E+00 1.15863E-13 2.26553E-13
 -1       779 2.09191E+01 1.09676E+00 6.57857E-04 1.26397E+00-6.72188E-14 2.76397E-13
 -1       780 2.07017E+01 1.64056E+00 5.20665E-04 7.12996E-01 1.93595E-13 1.66691E-13
 -1       781 2.06213E+01 1.82676E+00-5.50959E-04-4.73227E-02 2.57481E-13-1.52271E-13
 -1       782 2.07290E+01 1.57226E+00-4.45632E-04-7.88539E-01 9.51268E-14-4.10664E-13
 -1       783 2.09580E+01 9.90144E-01 3.44906E-04-1.29243E+00-1.57460E-13-3.40203E-13
 -1       784 2.11795E+01 3.08036E-01 3.39926E-04-1.46660E+00-2.57049E-13-1.18012E-13
 -1       785 2.12895E+01-2.63375E-01 1.86799E-04-1.35589E+00-2.12109E-13-1.20562E-13
 -1       786 2.12557E+01-6.17535E-01 7.92885E-05-1.07930E+00-3.26916E-14-2.40700E-13
 -1       787 2.11071E+01-7.52314E-01-5.95805E-05-7.54523E-01 1.74901E-13 8.81875E-14
 -1       788 2.08978E+01-7.23932E-01-1.37765E-04-4.59674E-01 3.82779E-13 2.18997E-13
 -1       789 2.06767E+01-6.01959E-01-1.73447E-04-2.29946E-01 4.45557E-13-1.99344E-14
 -1       790 2.04792E+01-4.45132E-01 8.40447E-05-7.22017E-02 2.71118E-13 4.09850E-14
 -1       791 2.03422E+01-3.20362E-01-5.93369E-04 2.52735E-03 1.64618E-13-1.83744E-13
 -1       792 1.95959E+01 3.03966E-01 1.71109E-04 8.17258E-01-1.09764E-13 5.59236E-14
 -1       793 1.89788E+01 9.30610E-01 1.45519E-04 1.85214E-01 2.48467E-13-1.26503E-13
 -1       794 2.74777E+01 2.17609E+00-7.46060E-02-2.15958E+00 2.66599E-13 1.90119E-13
 -1       795 2.77443E+01-1.04581E+00-5.18382E-02-1.00383E+00 1.25702E-13-1.68100E-13
 -1       796 1.99862E+01-1.38950E-02-7.35114E-05 8.32834E-01 2.42179E-13-5.76191E-13
 -1       797 1.33693E+01 2.69700E+00 4.54869E-02-5.91256E-01-3.53222E-13-1.88556E-13
 -1       798 1.58246E+01 2.35977E+00 7.52817E-04-5.75741E-01-1.19193E-13-3.16478E-13
 -1       799 2.01089E+01-1.73080E-03-9.62945E-06-1.68888E-01 3.20640E-14 7.44675E-14
 -1       800 2.12967E+01-3.59848E+00 4.84549E-02-5.66041E+00-9.72486E-15-3.74093E-15
 -1       801 2.02827E+01-2.43747E-01-9.71064E-05 6.92222E-01 1.76769E-13 3.20400E-13
 -1       802 2.02680E+01 5.64790E-01-5.93562E-05 1.95186E-01 1.71358E-13-2.21186E-14
 -1       803 2.01382E+01 1.88957E+00-3.42620E-04 1.99128E-01 1.26093E-13-1.63766E-13
 -1       804 1.41444E+01-2.90098E-01 7.21749E-02 5.41071E+00-2.71605E-13 5.00194E-13
 -1       805 1.21539E+01 9.74539E-01 8.82236E-02-4.25905E+00 3.29702E-14-4.86028E-13
 -1       806 1.11404E+01 1.48736E+00 9.81730E-02 3.32410E+00-2.41675E-13 5.51642E-16
 -1       807 2.01263E+01 1.92832E+00-3.29460E-04 3.36391E-03 1.00422E-13-2.09707E-13
 -1       808 2.54296E+01 5.83322E+00-6.75418E-02-1.91349E-01 9.35502E-14 8.71405E-13
 -1       809 2.01835E+01 1.64780E-01-5.11457E-06-8.09568E-02 9.24795E-14-4.54627E-14
 -1       810 2.58544E+01 3.79393E+00-6.70202E-02-1.95384E+00 4.66259E-13 2.97993E-13
 -1       811 2.67921E+01-4.13816E-01-3.25893E-02 1.48987E+00-2.13973E-13-1.86010E-13
 -1       812 2.02277E+01 3.23798E-01-3.49966E-05 2.55760E-02 1.06526E-13-5.53812E-14
 -1       813 2.04692E+01-3.94090E-01 6.02536E-04 2.40328E-01 2.33953E-13 4.62238E-13
 -1       814 2.61116E+01 4.12819E+00-7.16014E-02 1.93100E+00 3.00409E-13 3.73918E-13
 -1       815 2.02163E+01 1.58538E+00-6.40221E-04 5.32532E-01 1.85096E-13-1.21585E-13
 -1       816 2.04421E+01-3.65503E-01 4.28461E-04 4.74027E-01 1.51029E-13 2.30667E-14
 -1       817 1.89614E+01 1.05256E+00 5.39123E-04-2.04822E-01 2.01383E-13 2.02164E-13
 -1       818 2.38801E+01-3.80321E+00 6.92646E-03-3.74663E+00-2.08283E-13-8.76601E-14
 -1       819 2.62749E+01-2.60608E+00-5.11592E-03 2.86181E-01 6.78678E-14-1.20800E-13
 -1       820 2.02145E+01 1.59452E+00-5.89982E-04-5.28000E-01-4.93049E-14-1.80529E-13
 -1       821 2.36684E+01-3.75026E+00 1.40027E-02 3.81937E+00-1.09438E-13-7.81003E-13
 -1       822 2.01691E+01 1.77746E+00-4.50634E-04 3.79745E-01 1.75767E-13-1.36169E-13
 -1       823 2.01658E+01 1.78423E+00-5.77267E-04-3.73830E-01 1.01521E-14-2.34412E-13
 -1       824 1.81925E+01-1.61738E+00 3.13128E-02 5.23069E+00-2.23843E-13-3.42469E-13
 -1       825 2.03136E+01 9.31024E-01 4.01365E-04 3.02569E-01 1.43385E-13-8.99928E-14
 -1       826 2.06224E+01-5.78876E-01-7.85662E-04 7.00139E-01 2.89224E-13 1.40226E-14
 -1       827 2.02814E+01 1.23319E+00 3.93346E-04 4.16726E-01 1.50988E-13-1.15398E-13
 -1       828 2.02936E+01 1.15053E+00 6.59298E-04-3.85410E-01-5.24924E-14-1.60244E-13
 -1       829 2.03351E+01 7.22706E-01-5.04589E-04-1.89131E-01-3.27085E-14-1.40086E-13
 -1       830 2.03296E+01 4.32344E-01 4.28072E-05-4.47808E-02-3.12322E-14-1.28162E-13
 -1       831 2.03036E+01 2.29461E-01-1.04555E-06 4.94243E-02-7.01753E-14-8.30269E-14
 -1       832 2.02671E+01 9.49208E-02-3.61158E-06 1.05774E-01-6.96985E-14 1.46685E-14
 -1       833 2.02274E+01 9.54342E-03-2.06103E-06 1.34408E-01-6.21251E-14 4.48894E-14
 -1       834 2.01888E+01-4.07146E-02-1.36242E-06 1.44186E-01-3.63441E-14 2.32347E-14
 -1       835 2.01534E+01-6.62102E-02-9.62252E-07 1.42171E-01-9.56662E-15-6.41869E-14
 -1       836 2.01220E+01-7.44282E-02-6.81364E-07 1.33672E-01-3.81816E-14-9.20224E-14
 -1       837 2.00947E+01-7.06138E-02-5.12970E-07 1.22532E-01-1.01642E-13-8.79937E-14
 -1       838 2.00709E+01-5.82356E-02-4.50775E-07 1.11456E-01-9.14579E-16-1.06933E-13
 -1       839 2.00495E+01-3.93110E-02-5.11515E-07 1.02283E-01 3.01646E-14-1.02189E-13
 -1       840 2.00291E+01-1.46112E-02-7.40587E-07 9.61997E-02-7.07104E-14-8.33221E-14
 -1       841 2.00075E+01 1.62416E-02-1.20270E-06 9.38567E-02 8.15212E-15-1.62741E-13
 -1       842 1.99814E+01 5.47802E-02-1.99707E-06 9.53682E-02-9.95909E-14-1.13466E-13
 -1       843 1.99465E+01 1.03789E-01-2.79506E-06 1.00154E-01-3.06540E-14-2.06354E-13
 -1       844 1.98959E+01 1.67396E-01-1.65339E-05 1.06645E-01 2.76464E-14-1.47511E-13
 -1       845 1.98149E+01 2.56238E-01-2.53343E-06 1.11307E-01 1.08571E-14-1.35389E-13
 -1       846 1.96956E+01 3.69454E-01-1.71886E-05 1.06709E-01 9.48665E-14-6.82459E-14
 -1       847 1.95136E+01 5.18434E-01-3.34960E-05 8.12287E-02 6.66252E-14 5.49727E-14
 -1       848 1.92382E+01 7.09975E-01-6.23578E-05 1.40411E-02 2.55528E-14 1.60375E-13
 -1       849 1.88276E+01 9.45036E-01-1.33993E-04-1.28871E-01-9.96831E-14 1.67182E-13
 -1       850 1.82275E+01 1.20985E+00-1.51582E-04-4.01057E-01 3.16885E-14 6.08714E-14
 -1       851 1.73702E+01 1.46093E+00 6.17597E-04-8.83043E-01 3.44583E-14-3.40285E-14
 -1       852 1.61829E+01 1.59787E+00 6.47233E-03-1.68623E+00-1.10021E-13-1.20980E-13
 -1       853 1.45309E+01 1.55091E+00 2.85363E-02-2.74798E+00 2.11311E-15-4.65253E-13
 -1       854 1.82778E+01 1.36874E+00-1.53833E-05-7.35965E-02 2.72927E-13-1.75370E-16
 -1       855 2.00988E+01-7.31176E-02-1.61523E-06-1.32278E-01 9.13380E-14 7.25537E-14
 -1       856 2.01271E+01-6.98202E-02-2.03029E-06-1.43061E-01 6.95480E-14 2.99672E-14
 -1       857 2.01597E+01-5.27346E-02-2.53636E-06-1.49016E-01 8.64896E-14 7.74967E-15
 -1       858 2.00747E+01-6.74182E-02-1.23952E-06-1.20054E-01 5.66457E-14 4.81572E-14
 -1       859 2.00544E+01-5.62607E-02-8.80054E-07-1.08744E-01 5.86719E-14-1.91150E-14
 -1       860 2.00376E+01-4.23739E-02-5.16331E-07-9.99466E-02 4.36827E-14 1.59858E-14
 -1       861 2.00241E+01-2.80833E-02-1.30059E-07-9.47217E-02-6.07661E-14 7.41207E-14
 -1       862 2.00143E+01-1.57039E-02 2.71171E-07-9.37233E-02-8.46023E-14 1.32741E-13
 -1       863 2.00091E+01-7.93341E-03 6.69934E-07-9.72570E-02-1.41878E-13 1.26289E-13
 -1       864 2.00105E+01-8.24074E-03 1.03267E-06-1.05234E-01-1.19787E-13 1.76841E-13
 -1       865 2.00221E+01-2.12096E-02 1.20863E-06-1.16992E-01-9.64618E-14 2.92595E-13
 -1       866 2.00495E+01-5.27451E-02 7.99401E-07-1.30921E-01-1.61912E-14 1.84546E-13
 -1       867 2.01007E+01-1.09950E-01-1.17974E-06-1.43822E-01 7.33090E-14 2.10077E-13
 -1       868 2.01865E+01-2.00344E-01-6.51693E-06-1.49939E-01 3.81455E-14 2.70366E-13
 -1       869 2.03200E+01-3.29921E-01-1.68796E-05-1.39640E-01 6.68851E-14 2.44052E-13
 -1       870 2.05145E+01-4.99374E-01-3.64827E-05-9.79875E-02-5.94037E-14 3.26384E-13
 -1       871 2.07795E+01-6.97678E-01-7.84832E-05-3.99359E-03-5.75065E-14 2.89234E-13
 -1       872 2.11131E+01-8.93129E-01-1.54114E-04 1.67452E-01-1.64459E-13 1.70732E-13
 -1       873 2.14919E+01-1.02378E+00-2.19611E-04 4.37980E-01-5.14423E-14 3.17930E-13
 -1       874 2.18596E+01-9.92996E-01-2.27833E-04 8.07861E-01-1.60867E-13 2.63730E-13
 -1       875 2.21291E+01-6.86301E-01 5.47757E-04 1.22497E+00-1.81118E-13 2.25737E-13
 -1       876 2.22067E+01-3.07643E-02-7.36264E-04 1.56418E+00-8.87020E-14 1.87991E-13
 -1       877 2.20637E+01 9.20363E-01-8.31230E-04 1.62231E+00-1.43014E-14 2.70869E-13
 -1       878 2.17874E+01 1.91080E+00 6.65773E-04 1.24035E+00 1.77075E-13-3.75492E-14
 -1       879 2.15736E+01 2.53520E+00 9.43266E-05 4.27822E-01 5.31928E-13-1.08460E-13
 -1       880 2.15897E+01 2.48204E+00-2.85725E-03-5.47704E-01 2.27683E-13-1.03448E-13
 -1       881 2.18335E+01 1.77009E+00-8.52593E-04-1.30465E+00-8.49270E-14-7.89408E-14
 -1       882 2.21082E+01 7.56633E-01-3.17773E-04-1.61404E+00-3.01750E-13-1.79655E-13
 -1       883 2.22251E+01-1.66564E-01-3.97502E-04-1.49493E+00-1.41509E-13-1.86225E-13
 -1       884 2.21179E+01-7.71895E-01 1.83937E-04-1.12852E+00-8.07511E-15-3.28222E-13
 -1       885 2.18300E+01-1.02719E+00 7.70472E-05-7.05581E-01-1.89761E-13-1.48327E-13
 -1       886 2.14574E+01-1.02008E+00-7.36378E-05-3.43337E-01 6.40892E-14 5.39684E-14
 -1       887 2.10818E+01-8.62304E-01-1.41655E-04-8.57907E-02 3.90533E-13 2.83103E-13
 -1       888 2.07553E+01-6.45595E-01 2.84490E-04 7.36966E-02 4.09997E-13 3.02774E-13
 -1       889 1.92062E+01 4.13697E-01 8.84245E-04 1.10803E+00-1.92689E-14 1.60766E-13
 -1       890 1.31258E+01 2.11091E+00 4.52199E-02 1.84473E+00-4.91030E-13 1.62627E-13
 -1       891 1.86775E+01-1.76576E+00 3.41888E-02-5.12499E+00-1.05698E-13-9.57567E-15
 -1       892 1.55710E+01 2.02930E+00 1.28178E-02 1.04059E+00-1.19392E-13-4.78968E-14
 -1       893 2.59572E+01 3.49982E-01-3.25193E-02-1.80077E+00 1.44896E-13 1.28699E-13
 -1       894 2.07087E+01-6.15095E-01-1.00745E-03 3.61299E-01 2.54406E-13 2.82907E-13
 -1       895 1.86557E+01 9.01714E-01 1.17700E-03 7.27110E-01 6.17374E-14 2.57872E-13
 -1       896 1.98249E+01-5.19809E-02 3.85158E-04 1.17034E+00 1.90079E-13-6.39499E-13
 -1       897 1.72786E+01 1.71519E+00 4.92261E-03 2.24407E-01 4.19989E-13 5.39893E-14
 -1       898 2.01361E+01 1.89295E+00-5.37620E-04-1.91752E-01 6.28294E-14-1.94835E-13
 -1       899 1.64930E+01 1.89656E+00 9.75110E-03 5.76257E-01 1.81604E-13-1.41302E-13
 -1       900 2.03274E+01-3.91837E-01 9.61295E-04 9.98380E-01-5.53453E-14-9.94624E-14
 -1       901 2.59392E+01-3.08692E+00-9.50440E-03-1.11157E+00-1.95873E-13 8.29059E-14
 -1       902 2.46569E+01 4.72472E+00-5.26873E-02 1.05665E+00 3.43553E-13 2.82427E-13
 -1       903 2.02742E+01 1.59794E-01 4.26149E-06-8.16602E-02 8.64035E-14-6.41065E-14
 -1       904 2.46931E+01 4.47500E+00-5.70250E-02-1.18078E+00 1.09826E-13 9.69530E-13
 -1       905 2.59820E+01-1.91661E+00-1.67571E-02 4.30305E-01-2.00112E-13-2.55546E-13
 -1       906 2.03275E+01 5.70215E-01-2.62440E-04 1.23736E-01 1.29729E-13-3.52721E-14
 -1       907 2.48573E+01 1.83872E+00-2.26672E-02-2.03894E+00 1.03010E-13 1.46781E-13
 -1       908 2.53959E+01-1.29857E+00-1.10652E-03-9.92935E-01-7.96112E-14-9.66755E-14
 -1       909 1.83926E+01 1.16643E+00-5.83878E-06 3.74849E-01 2.89660E-13 1.05084E-13
 -1       910 2.11970E+01-2.65834E+00 9.40775E-03-4.29416E+00-1.88540E-13 9.93615E-14
 -1       911 2.01961E+01-1.52990E-02-3.36970E-06-1.45389E-01 5.97861E-14 1.81146E-14
 -1       912 2.49242E+01-3.29862E+00 6.05845E-04 1.89296E+00-2.03277E-13-3.77587E-13
 -1       913 2.02806E+01 1.32746E+00-8.93752E-05-2.91348E-01 1.25726E-15-1.85384E-13
 -1       914 2.52563E+01 1.64292E+00-2.20325E-02 2.09822E+00 1.74767E-13 1.45558E-13
 -1       915 2.08332E+01-2.56275E+00 1.61499E-02 4.48063E+00-2.35402E-13-6.43371E-13
 -1       916 1.46652E+01 8.49120E-01 3.97646E-02 3.78312E+00-2.67422E-13 5.15340E-13
 -1       917 2.02739E+01 1.40802E+00-2.64645E-06 6.95016E-02 8.06618E-14-1.74513E-13
 -1       918 2.02887E+01 1.33524E+00 3.29746E-04 1.99482E-01 1.15972E-13-1.30499E-13
 -1       919 1.59283E+01 3.18650E-02 2.75786E-02-4.46987E+00-2.90505E-14-2.77227E-13
 -1       920 2.02353E+01 5.14500E-02-6.29189E-06-1.25722E-01 3.20838E-14-2.76419E-14
 -1       921 1.85831E+01 6.00655E-01-5.10832E-03 1.46864E+00-1.65255E-13 1.25098E-13
 -1       922 1.76448E+01-2.25194E-01 5.44711E-03 3.71325E+00-2.47817E-13-1.10064E-14
 -1       923 2.03769E+01 6.74161E-01 2.86146E-04-1.01637E-01-2.44476E-14-1.09308E-13
 -1       924 2.03789E+01 3.94640E-01-6.10381E-05-8.32876E-03-2.06556E-14-9.77374E-14
 -1       925 2.03575E+01 2.00065E-01-1.35471E-05 5.25804E-02-1.25021E-14-2.04450E-14
 -1       926 2.03217E+01 7.05760E-02 9.38836E-07 8.81119E-02-2.07419E-14-1.32863E-14
 -1       927 2.02793E+01-1.05904E-02 3.09989E-06 1.05196E-01-3.45860E-14-5.19182E-15
 -1       928 2.02355E+01-5.67794E-02 2.61157E-06 1.09909E-01-8.85359E-14-3.80749E-14
 -1       929 2.01934E+01-7.81316E-02 2.63780E-06 1.07028E-01-5.13875E-14-7.18289E-14
 -1       930 2.01545E+01-8.20710E-02 2.45709E-06 1.00147E-01-9.71228E-14-7.22463E-14
 -1       931 2.01193E+01-7.38158E-02 2.06548E-06 9.18270E-02-4.90522E-14 1.77314E-14
 -1       932 2.00873E+01-5.67924E-02 1.50495E-06 8.37652E-02 1.58797E-14 3.55367E-14
 -1       933 2.00572E+01-3.29576E-02 7.96486E-07 7.69384E-02-6.00180E-14-4.43055E-14
 -1       934 2.00273E+01-3.03122E-03-5.57778E-08 7.16568E-02-5.92051E-14 1.19237E-14
 -1       935 1.99948E+01 3.33512E-02-1.02074E-06 6.75077E-02-2.94088E-14-3.33759E-14
 -1       936 1.99562E+01 7.75412E-02-1.73840E-06 6.31389E-02-2.82271E-14 1.18830E-14
 -1       937 1.99063E+01 1.31774E-01-1.02613E-05 5.59080E-02-6.36862E-15 1.08170E-13
 -1       938 1.98342E+01 2.02832E-01 5.72402E-07 3.97790E-02 4.08572E-14 1.23328E-13
 -1       939 1.97366E+01 2.87460E-01-3.55850E-06 7.69891E-03 1.19638E-13 1.30009E-13
 -1       940 1.95982E+01 3.91196E-01-3.98952E-06-5.41097E-02 1.55948E-13 1.62468E-13
 -1       941 1.94032E+01 5.13874E-01 2.78372E-06-1.66865E-01 9.37502E-14 1.00661E-13
 -1       942 1.91334E+01 6.48528E-01 1.04407E-05-3.62766E-01-3.58042E-14 9.57646E-14
 -1       943 1.87713E+01 7.74303E-01-3.38372E-05-6.88564E-01-4.95213E-14 1.28428E-13
 -1       944 1.83081E+01 8.43104E-01-1.37983E-05-1.20902E+00-4.44497E-14 9.40959E-15
 -1       945 1.77665E+01 7.61930E-01 1.59439E-03-2.00903E+00-8.87934E-14-1.41808E-13
 -1       946 2.01677E+01-8.07469E-02 9.25373E-07-1.08991E-01 2.99207E-14 1.01741E-13
 -1       947 2.03089E+01 3.24098E-01-1.65205E-04-2.44635E-03 8.90723E-14-4.62166E-15
 -1       948 2.00995E+01-7.07582E-02 9.87526E-07-9.21951E-02 7.66577E-14 1.10493E-13
 -1       949 2.01316E+01-8.02770E-02 1.03162E-06-1.00732E-01 1.01860E-13 6.38680E-14
 -1       950 2.02077E+01-6.72697E-02 5.64868E-07-1.14487E-01 3.97602E-14 4.67375E-14
 -1       951 2.00715E+01-5.58349E-02 8.80674E-07-8.52091E-02 5.72924E-14 1.92275E-13
 -1       952 2.00472E+01-3.83633E-02 7.90169E-07-8.11752E-02-4.94356E-14 2.10785E-13
 -1       953 2.00266E+01-2.08576E-02 7.86954E-07-8.12614E-02-1.16918E-13 2.59153E-13
 -1       954 2.00101E+01-5.94145E-03 8.82323E-07-8.65512E-02-1.16489E-13 2.65649E-13
 -1       955 1.99991E+01 3.18203E-03 1.28847E-06-9.81323E-02-1.26248E-13 1.22101E-13
 -1       956 1.99962E+01 2.24216E-03 2.14632E-06-1.17085E-01-1.30742E-13 1.90065E-14
 -1       957 2.00064E+01-1.45695E-02 3.60932E-06-1.44312E-01-3.40054E-14-6.59853E-15
 -1       958 2.00373E+01-5.49555E-02 5.41674E-06-1.80073E-01 2.55486E-14 5.83698E-14
 -1       959 2.01007E+01-1.28514E-01 6.59199E-06-2.23039E-01 5.82200E-14 2.92143E-14
 -1       960 2.02125E+01-2.45959E-01 4.80831E-06-2.68648E-01-6.76741E-14 1.39722E-14
 -1       961 2.03932E+01-4.16809E-01 1.98968E-06-3.06560E-01-1.30380E-13 3.03280E-13
 -1       962 2.06658E+01-6.44448E-01-1.83164E-05-3.17110E-01-8.31220E-15 2.82746E-13
 -1       963 2.10498E+01-9.16243E-01-1.04080E-04-2.68103E-01-1.33465E-14 2.23931E-13
 -1       964 2.15506E+01-1.18922E+00-2.93378E-04-1.14952E-01-1.42290E-13 7.13467E-14
 -1       965 2.21393E+01-1.37072E+00-5.92615E-04 1.90799E-01-1.18329E-13 1.44746E-13
 -1       966 2.27354E+01-1.30770E+00-5.57387E-04 6.71561E-01-2.16582E-13 3.22456E-13
 -1       967 2.31728E+01-8.16086E-01 4.34602E-04 1.23986E+00-4.04583E-14 3.32748E-13
 -1       968 2.33319E+01 2.85662E-01 1.59314E-03 1.73611E+00-7.24126E-14 2.86504E-13
 -1       969 2.31248E+01 1.75670E+00-1.00996E-02 1.78330E+00 2.31742E-13 3.48195E-13
 -1       970 2.28029E+01 3.04598E+00-2.82195E-03 1.09152E+00 3.73388E-13 1.78620E-13
 -1       971 2.26114E+01 3.53351E+00-8.10672E-03-9.66718E-02 5.06668E-13 2.42705E-13
 -1       972 2.27987E+01 2.88727E+00-5.12834E-03-1.23952E+00 8.56780E-15 2.03907E-13
 -1       973 2.31847E+01 1.49840E+00-6.75975E-03-1.78353E+00 4.53617E-14 2.25704E-13
 -1       974 2.33551E+01 5.45149E-02-1.86035E-03-1.65488E+00-2.79605E-13 2.22269E-14
 -1       975 2.31580E+01-9.31258E-01-9.11458E-04-1.13574E+00-4.20306E-15 1.26271E-13
 -1       976 2.26830E+01-1.35920E+00 4.43273E-04-5.51886E-01-1.58504E-13 1.22712E-13
 -1       977 2.20884E+01-1.37097E+00 3.81871E-05-9.25357E-02-1.91838E-13-1.37360E-13
 -1       978 2.15180E+01-1.16108E+00 4.96029E-04 1.96092E-01 1.61384E-13 1.32427E-13
 -1       979 2.10619E+01-8.87207E-01-7.60579E-04 3.23920E-01 4.61468E-13 2.65303E-13
 -1       980 2.03335E+01 1.35487E-01-1.72449E-05-7.45263E-02 1.94194E-14-7.56529E-15
 -1       981 2.02734E+01 1.40950E+00 8.00090E-05-6.44926E-02 4.11619E-14-1.89805E-13
 -1       982 2.49530E+01-3.34910E-01-1.39866E-02 1.59747E+00-1.29886E-13-1.19873E-13
 -1       983 1.95156E+01-6.17091E-02 1.37680E-03 1.64687E+00 4.41791E-14-4.81091E-13
 -1       984 2.02808E+01 1.31401E+00 1.08430E-03 3.13193E-01 1.28494E-13-1.09560E-13
 -1       985 2.02708E+01 1.40008E+00 8.14342E-04-1.78695E-01 3.86931E-14-1.69735E-13
 -1       986 1.64349E+01 1.18960E+00 1.28364E-02 2.32202E+00-2.15247E-13 8.89565E-13
 -1       987 2.39116E+01-3.00522E+00 3.48843E-03-2.12998E+00-1.42503E-13-1.27709E-13
 -1       988 1.75431E+01 1.38229E+00-6.39122E-04 8.61853E-01 4.16052E-13 5.80263E-14
 -1       989 2.10701E+01-9.77147E-01 4.64467E-04 8.55103E-01 2.05768E-13-2.23150E-13
 -1       990 1.94571E+01-1.13430E+00 8.12290E-03 3.63080E+00-4.09609E-14-6.60359E-13
 -1       991 1.70823E+01 5.01894E-01 1.05466E-02-3.08073E+00-2.52317E-13-9.61241E-14
 -1       992 2.45836E+01-2.57927E+00-1.94676E-03-7.49477E-01-1.36131E-13-4.16703E-13
 -1       993 2.02937E+01 3.04481E-02-1.56129E-06-1.02443E-01 1.76134E-14-2.16359E-15
 -1       994 2.03674E+01 9.99363E-01 9.13635E-05 1.99650E-03 2.82770E-14-1.52593E-13
 -1       995 1.69189E+01 1.27958E+00-4.55860E-03 1.66748E+00-2.84600E-13 8.22678E-13
 -1       996 2.47770E+01 5.11686E-02-1.21213E-02-1.71542E+00-7.57684E-15 7.21745E-14
 -1       997 2.02505E+01-3.31921E-02-1.88089E-07-1.13820E-01 3.35166E-14-8.30211E-15
 -1       998 2.28173E+01-2.93038E+00 6.65675E-03 3.09900E+00-1.69515E-13-6.89101E-13
 -1       999 2.49924E+01-2.35013E+00-7.75174E-03 1.85877E-01-3.39018E-13-5.89995E-14
 -1      1000 2.03301E+01-5.67533E-01 1.63419E-03 1.43935E+00 1.39996E-13-6.00666E-13
 -1      1001 1.80663E+01 1.00050E+00 2.88184E-03 1.25595E+00 9.10400E-14 7.68826E-13
 -1      1002 1.94660E+01-1.27238E+00 7.89656E-03-3.84166E+00-1.55284E-13 1.71829E-13
 -1      1003 2.38576E+01 3.22916E+00-2.21961E-02 1.57593E+00 3.87074E-13 2.49792E-13
 -1      1004 2.03676E+01 9.66482E-01-4.76453E-04 7.95949E-02 9.46608E-14-1.17918E-13
 -1      1005 2.03643E+01 2.96348E-01 1.92299E-04-2.28211E-02 1.01841E-13-6.41029E-14
 -1      1006 2.03278E+01 1.01307E+00-2.30270E-04 2.30892E-01 1.14723E-13-9.29194E-14
 -1      1007 2.03814E+01 6.43987E-01 1.49785E-04 9.36285E-02 7.39168E-14-8.39339E-14
 -1      1008 2.40785E+01 2.89881E+00-2.41365E-02-1.72901E+00-7.46521E-14 4.53308E-13
 -1      1009 2.01070E+01-6.84456E-02 5.53768E-07-6.08950E-02-1.22302E-14 9.06373E-14
 -1      1010 2.04109E+01 3.33180E-01 6.37056E-05 1.18139E-02 2.77354E-14-1.34282E-13
 -1      1011 2.03876E+01 1.54746E-01 3.33658E-05 4.33472E-02-4.51371E-14-1.01400E-13
 -1      1012 2.03489E+01 3.75756E-02-1.62420E-05 6.11648E-02-7.34813E-14-8.51002E-14
 -1      1013 2.03030E+01-3.36151E-02-6.63050E-06 6.90098E-02-6.94004E-14-9.08029E-14
 -1      1014 2.02553E+01-7.18627E-02-2.85944E-06 7.01597E-02-5.82444E-14-4.66786E-14
 -1      1015 2.02089E+01-8.67157E-02-4.76662E-07 6.73428E-02-5.46197E-14-1.85048E-14
 -1      1016 2.01654E+01-8.52018E-02 6.98845E-07 6.25100E-02-2.24185E-15 7.72381E-14
 -1      1017 2.01254E+01-7.22511E-02 9.27457E-07 5.69371E-02-3.17260E-14-7.97271E-15
 -1      1018 2.00882E+01-5.11000E-02 4.20714E-07 5.12821E-02-5.67865E-14-2.02548E-14
 -1      1019 2.00525E+01-2.36366E-02-6.78728E-07 4.55843E-02-2.94018E-14-6.73132E-14
 -1      1020 2.00165E+01 9.31230E-03-2.20011E-06 3.91726E-02-2.69746E-14-2.88904E-14
 -1      1021 1.99775E+01 4.77286E-02-4.48929E-06 3.04499E-02 4.39833E-14 9.63429E-14
 -1      1022 1.99322E+01 9.21137E-02-1.23525E-05 1.65601E-02 1.35657E-14 1.26323E-13
 -1      1023 1.98733E+01 1.45954E-01-5.95505E-06-9.03499E-03-1.56698E-14 2.73208E-14
 -1      1024 1.98010E+01 2.04395E-01-7.60626E-06-5.20234E-02 1.99632E-14 2.12875E-14
 -1      1025 1.97077E+01 2.68572E-01-2.81831E-06-1.25131E-01 7.23676E-14-2.73403E-14
 -1      1026 1.95881E+01 3.33784E-01 1.91531E-05-2.46079E-01 1.22888E-13-9.32077E-14
 -1      1027 1.94403E+01 3.88555E-01 6.77228E-05-4.39885E-01-1.97152E-14-1.32281E-13
 -1      1028 1.92701E+01 4.09365E-01 2.55894E-04-7.40811E-01-7.64790E-14-9.82660E-14
 -1      1029 1.90993E+01 3.53222E-01 4.82112E-04-1.19195E+00-6.87571E-14-6.86405E-14
 -1      1030 1.89852E+01 1.45125E-01 9.11045E-04-1.83222E+00-1.02003E-13-5.21312E-14
 -1      1031 2.02297E+01-7.98713E-02-3.38095E-06-7.47355E-02 1.90465E-14-6.60449E-14
 -1      1032 2.00738E+01-4.94479E-02 6.49723E-07-5.84643E-02-2.63944E-14 2.20577E-13
 -1      1033 1.89740E+01-5.54766E-02 1.31764E-04 2.32210E+00 7.62921E-14-3.84703E-13
 -1      1034 2.00440E+01-2.80709E-02 6.10249E-07-5.94234E-02-6.82614E-14 2.12093E-13
 -1      1035 2.00175E+01-6.75914E-03 6.91536E-07-6.52413E-02-6.29889E-14 1.85622E-13
 -1      1036 1.99947E+01 1.18187E-02 9.94110E-07-7.77200E-02-4.46449E-14 1.17659E-13
 -1      1037 1.99768E+01 2.42107E-02 1.12906E-06-9.91627E-02 3.06338E-15-4.23328E-14
 -1      1038 1.99669E+01 2.56166E-02 4.25912E-06-1.32445E-01-1.28548E-13-1.67802E-13
 -1      1039 1.99707E+01 9.13954E-03 9.69249E-06-1.80923E-01-1.24856E-13-1.97960E-13
 -1      1040 1.99978E+01-3.48421E-02 1.87837E-05-2.47915E-01 5.62797E-14-1.42769E-13
 -1      1041 2.00633E+01-1.19106E-01 3.13817E-05-3.35451E-01-5.92741E-15-2.15642E-14
 -1      1042 2.01893E+01-2.59215E-01 4.76609E-05-4.41767E-01-2.11208E-13-5.84186E-14
 -1      1043 2.04062E+01-4.71286E-01 8.81358E-05-5.57239E-01-1.11215E-13-2.09646E-13
 -1      1044 2.07522E+01-7.66050E-01 1.44347E-04-6.56748E-01-2.05576E-14-1.03364E-13
 -1      1045 2.12679E+01-1.13577E+00 1.95635E-04-6.91985E-01-6.80759E-14 1.07827E-13
 -1      1046 2.19765E+01-1.52627E+00-2.80419E-04-5.86094E-01-7.04120E-14-2.90322E-14
 -1      1047 2.28630E+01-1.80577E+00 1.72386E-03-2.46494E-01-2.61629E-13-2.15900E-13
 -1      1048 2.37848E+01-1.75090E+00 1.81474E-03 3.90342E-01-1.83804E-13-2.51466E-13
 -1      1049 2.36902E+01-1.79541E+00-7.75293E-05-2.54623E-01-1.79599E-13 6.02812E-14
 -1      1050 2.27688E+01-1.80608E+00 9.78172E-04 3.50347E-01-2.84598E-15 3.31545E-14
 -1      1051 2.19201E+01-1.49070E+00 5.78331E-04 6.55084E-01 7.88775E-14-7.12717E-14
 -1      1052 2.04090E+01 5.89621E-01-3.65622E-05-3.94311E-02-5.08658E-15-1.17178E-13
 -1      1053 2.18559E+01-2.18000E+00 4.52377E-03-2.74138E+00-1.59474E-13-3.69322E-13
 -1      1054 2.03621E+01 1.01069E+00-2.46754E-05-6.95591E-02 2.15096E-14-2.02766E-13
 -1      1055 2.11052E+01-1.85013E+00-5.04107E-03 2.99562E+00-1.30946E-13-6.64085E-13
 -1      1056 1.89072E+01-2.27435E-01 2.99234E-03-2.65777E+00-6.55579E-14 6.88254E-14
 -1      1057 2.41610E+01-1.08643E+00-4.68036E-03-1.10303E+00-2.32360E-13-3.91084E-14
 -1      1058 2.02448E+01-7.96423E-01-5.00308E-03 2.06422E+00 3.60876E-13-7.29676E-13
 -1      1059 2.01440E+01-8.23499E-02 5.28920E-08-6.53868E-02 2.71872E-14 1.38087E-14
 -1      1060 2.02768E+01-5.24817E-02-7.18275E-06-7.58263E-02 1.65253E-14-3.89869E-14
 -1      1061 2.01851E+01-8.77106E-02-1.14115E-06-7.05509E-02 4.96274E-14-5.77832E-14
 -1      1062 2.32291E+01-2.34800E+00 2.26676E-04-1.23600E+00-9.35410E-14-2.08273E-13
 -1      1063 2.13606E+01-1.35943E+00-1.50201E-03 1.47854E+00 1.99076E-13-1.76210E-14
 -1      1064 2.03664E+01 9.78398E-02-2.44549E-05-5.69254E-02 1.19524E-14-7.65139E-15
 -1      1065 2.38411E+01-2.71243E+00-5.29068E-03 1.50997E+00-5.12947E-14-3.17227E-13
 -1      1066 2.03979E+01 2.46439E-01-4.07168E-05-2.88215E-02 2.57306E-14-3.40765E-14
 -1      1067 2.04159E+01 6.64559E-01-2.48727E-04 1.71180E-02 4.21420E-14-8.52615E-14
 -1      1068 2.04126E+01 6.96171E-01 2.05151E-04-1.27232E-02 2.11644E-14-1.72503E-13
 -1      1069 2.05836E+01-1.16731E+00-5.77348E-04-2.30880E+00 8.88224E-15-4.38149E-13
 -1      1070 2.01138E+01-6.14381E-01-1.89123E-03-1.75763E+00-5.03746E-14-3.78833E-13
 -1      1071 2.03945E+01 1.01035E-01-6.41320E-05 2.02352E-02 5.67093E-15-1.41797E-13
 -1      1072 2.03516E+01 2.31046E-03-6.59003E-07 2.56365E-02 6.02117E-15-6.61416E-14
 -1      1073 2.03027E+01-5.52790E-02-1.14538E-06 2.75870E-02-4.49149E-14 2.75277E-15
 -1      1074 2.02526E+01-8.33683E-02-1.80290E-06 2.73783E-02-4.09794E-14 2.70098E-14
 -1      1075 2.02043E+01-9.06800E-02-2.42645E-06 2.58386E-02-1.65969E-14 9.27222E-14
 -1      1076 2.01591E+01-8.35948E-02-2.82334E-06 2.34673E-02-1.45818E-14 4.74135E-14
 -1      1077 2.01173E+01-6.65951E-02-3.19791E-06 2.04041E-02-7.32681E-14-2.05364E-14
 -1      1078 2.00782E+01-4.26859E-02-3.91187E-06 1.63705E-02-8.77650E-14 1.75943E-14
 -1      1079 2.00406E+01-1.37826E-02-5.49061E-06 1.05510E-02-1.74904E-14 2.34345E-14
 -1      1080 2.00029E+01 1.89221E-02-9.08693E-06 1.38850E-03 8.81558E-14 1.28609E-14
 -1      1081 1.99631E+01 5.45760E-02-1.86023E-05-1.37116E-02 4.83444E-14-1.71324E-14
 -1      1082 1.99170E+01 9.40682E-02-2.13981E-05-4.05314E-02-5.10043E-14-3.20856E-14
 -1      1083 1.98672E+01 1.31815E-01-3.87369E-05-8.31802E-02 8.99484E-14-2.55058E-14
 -1      1084 1.98108E+01 1.66063E-01-6.06206E-05-1.51800E-01 6.79939E-14 1.18778E-14
 -1      1085 1.97496E+01 1.89828E-01-8.55531E-05-2.59377E-01-4.59972E-14-7.09978E-14
 -1      1086 1.96899E+01 1.90474E-01-1.05472E-04-4.22930E-01-2.46875E-14-2.06311E-13
 -1      1087 1.96470E+01 1.46453E-01-1.03803E-04-6.62942E-01-3.03385E-14-2.03665E-13
 -1      1088 1.96523E+01 2.02999E-02-6.64950E-04-1.00049E+00 7.74713E-15-1.61867E-13
 -1      1089 1.97945E+01-2.25013E-01-1.68944E-03-1.35851E+00-7.51920E-14-2.09109E-13
 -1      1090 2.00304E+01-1.12509E-02 8.32300E-06-3.59616E-02-2.65614E-14 1.09088E-13
 -1      1091 2.03238E+01 3.00665E-03-1.31841E-05-7.10649E-02 4.76568E-14-2.34653E-14
 -1      1092 1.99984E+01 1.49711E-02 1.15854E-05-4.72498E-02-5.19950E-14 3.25524E-14
 -1      1093 2.00642E+01-3.70224E-02 7.06506E-06-3.03527E-02-2.64642E-14 8.41091E-14
 -1      1094 1.99681E+01 3.92713E-02 1.84084E-05-6.70088E-02 2.57295E-14-4.63066E-15
 -1      1095 1.99403E+01 5.83677E-02 3.25318E-05-9.91648E-02 3.28290E-14 5.66511E-14
 -1      1096 1.99176E+01 6.73753E-02 4.92730E-05-1.49031E-01 5.59339E-14-8.93125E-14
 -1      1097 1.99056E+01 5.86154E-02 7.21564E-05-2.23393E-01-5.48124E-14-2.80548E-13
 -1      1098 1.99145E+01 2.05464E-02 9.93309E-05-3.30139E-01-1.01109E-14-1.21691E-13
 -1      1099 1.99623E+01-6.35819E-02 1.17431E-04-4.76901E-01-4.88770E-14-1.12255E-13
 -1      1100 2.00780E+01-2.16532E-01 1.93867E-04-6.67653E-01-5.39596E-14-1.33361E-13
 -1      1101 2.03031E+01-4.64143E-01 7.61225E-04-8.97901E-01-1.03126E-13-2.58832E-13
 -1      1102 2.06965E+01-8.33701E-01 1.18456E-03-1.14081E+00-1.45311E-13-1.43597E-13
 -1      1103 2.13379E+01-1.34168E+00-1.26037E-03-1.33048E+00-2.80401E-14-1.83125E-13
 -1      1104 2.34023E+01-2.34233E+00 7.17085E-03 1.07076E+00 7.96585E-15-2.19981E-13
 -1      1105 2.04334E+01 4.05348E-01-4.21448E-05-4.66987E-04-2.86945E-15-1.74271E-13
 -1      1106 2.22950E+01-1.93575E+00 2.49322E-03 1.44455E+00-1.05372E-13 9.34175E-14
 -1      1107 2.04218E+01 2.28129E-01-1.67295E-04 9.62431E-03 6.68507E-15-2.07564E-13
 -1      1108 2.04146E+01 4.70430E-01 4.47873E-05 1.81366E-02 3.95604E-14-1.07872E-13
 -1      1109 2.06047E+01-1.25867E+00-2.66002E-03 2.52577E+00 6.96537E-14-8.77699E-13
 -1      1110 2.01006E+01-6.02845E-02 7.36337E-06-2.84647E-02-8.00677E-14 3.47546E-14
 -1      1111 2.21137E+01-1.87059E+00-2.31846E-03-1.48638E+00 7.87375E-14-2.04841E-13
 -1      1112 2.01401E+01-7.87541E-02 8.97906E-06-2.88883E-02-4.79108E-14-3.77369E-15
 -1      1113 2.02794E+01-6.95809E-02 2.04545E-05-3.35215E-02 1.25337E-14-6.33544E-14
 -1      1114 2.04117E+01 1.82913E-01 6.78908E-05-1.88993E-02 2.03774E-14-4.21871E-14
 -1      1115 2.03754E+01 5.42027E-02 2.10009E-05-2.83852E-02 5.66583E-14-9.16125E-14
 -1      1116 2.04312E+01 3.80238E-01 2.36453E-04-1.62396E-03-2.86086E-14-3.99815E-14
 -1      1117 2.02300E+01-8.83063E-02 1.56705E-05-3.24130E-02 1.93696E-14-2.09222E-14
 -1      1118 2.01833E+01-8.94629E-02 1.17749E-05-3.05295E-02 2.42135E-15-7.76034E-14
 -1      1119 2.03292E+01-2.55078E-02 2.53707E-05-3.26665E-02 4.04416E-14-7.72143E-14
 -1      1120 2.79632E+01 9.08659E+00 2.32527E+00-6.69792E+00-4.04121E-14 8.54455E-13
 -1      1121 2.05479E+01 6.22729E+00 2.09711E-01-3.90350E+00-1.82354E-14-3.74492E-14
 -1      1122 1.94347E+01 5.85297E+00 7.51698E-02-2.88755E+00-1.13659E-14-3.75772E-13
 -1      1123 1.90263E+01 5.72602E+00 6.03701E-02-2.23483E+00-6.68562E-15-5.06466E-13
 -1      1124 1.88402E+01 5.66942E+00 5.78210E-02-1.70096E+00-2.30024E-15-5.61989E-13
 -1      1125 1.87459E+01 5.64043E+00 5.55512E-02-1.23374E+00-1.28543E-15-5.72789E-13
 -1      1126 1.86968E+01 5.62516E+00 5.37565E-02-8.04062E-01-4.10262E-16-5.65909E-13
 -1      1127 1.86726E+01 5.61755E+00 5.25060E-02-3.92693E-01 1.70632E-15-5.33761E-13
 -1      1128 1.86658E+01 5.61537E+00 5.21072E-02 8.48913E-03 3.64346E-15-5.02588E-13
 -1      1129 1.86737E+01 5.61790E+00 5.26225E-02 4.10080E-01 5.49127E-15-4.72897E-13
 -1      1130 1.86989E+01 5.62589E+00 5.40166E-02 8.22800E-01 6.48049E-15-4.23951E-13
 -1      1131 1.87497E+01 5.64179E+00 5.62223E-02 1.25512E+00 8.73954E-15-3.51957E-13
 -1      1132 1.88452E+01 5.67110E+00 5.84779E-02 1.72679E+00 1.02956E-14-2.42869E-13
 -1      1133 1.90323E+01 5.72790E+00 6.06842E-02 2.26784E+00 1.27259E-14-7.83575E-14
 -1      1134 1.94319E+01 5.85041E+00 6.94646E-02 2.92829E+00 1.46272E-14 2.16669E-13
 -1      1135 2.04535E+01 6.18197E+00 1.52990E-01 3.87816E+00 1.30174E-14 7.21961E-13
 -1      1136 2.52176E+01 7.99438E+00 1.43023E+00 5.84602E+00 1.74305E-14 1.64671E-12
 -1      1137 2.88127E+01 3.61616E+00 1.27113E+00-4.21690E+00-1.49714E-13 1.39500E-12
 -1      1138 2.02284E+01-1.77713E-01-6.16295E-01-1.09899E-01-5.15490E-14 1.05091E-12
 -1      1139 1.88346E+01-9.63914E-02-2.36364E-01 6.25330E-02-2.01887E-14 6.00686E-13
 -1      1140 1.85012E+01-4.80655E-02-5.95730E-02 4.05326E-02-1.82922E-14 2.80422E-13
 -1      1141 1.84466E+01-2.46260E-02-1.51819E-02 2.67996E-02-9.02902E-15 6.63289E-14
 -1      1142 1.85290E+01-1.30726E-02-4.98781E-03 1.90736E-02-8.11786E-15-2.16459E-14
 -1      1143 1.86766E+01-6.62778E-03-1.49497E-03 1.41343E-02-2.19941E-15-8.26457E-14
 -1      1144 1.88500E+01-2.86124E-03 5.40663E-04 1.07093E-02 7.80642E-15-1.58529E-13
 -1      1145 1.90266E+01-6.31732E-04 1.85572E-03 8.17605E-03-4.43372E-15-2.60899E-13
 -1      1146 1.91938E+01 6.57203E-04 2.59621E-03 6.22611E-03-1.28086E-14-4.19921E-13
 -1      1147 1.93447E+01 1.34631E-03 2.89684E-03 4.69485E-03-6.23538E-15-6.57376E-13
 -1      1148 1.94765E+01 1.64428E-03 2.89053E-03 3.48354E-03 1.07374E-14-5.80546E-13
 -1      1149 1.95886E+01 1.68482E-03 2.68324E-03 2.52496E-03 6.41460E-15-6.60283E-13
 -1      1150 1.96824E+01 1.55441E-03 2.34911E-03 1.76838E-03 6.44844E-15-6.27228E-13
 -1      1151 1.97599E+01 1.30654E-03 1.93402E-03 1.17299E-03-8.68996E-15-6.63474E-13
 -1      1152 1.98240E+01 9.68829E-04 1.45910E-03 7.04876E-04-7.86854E-15-7.67522E-13
 -1      1153 1.98780E+01 5.45744E-04 9.21701E-04 3.35994E-04-1.24769E-15-7.45024E-13
 -1      1154 1.99258E+01 1.76911E-05 2.92485E-04 4.44444E-05-2.63302E-14-7.63364E-13
 -1      1155 1.99720E+01-6.64038E-04-4.92688E-04-1.83509E-04-9.68988E-15-8.31091E-13
 -1      1156 2.00222E+01-1.58767E-03-1.54904E-03-3.48419E-04 7.78831E-15-7.52460E-13
 -1      1157 2.00842E+01-2.89889E-03-3.07227E-03-4.26757E-04-3.03585E-15-7.78184E-13
 -1      1158 2.01693E+01-4.82950E-03-5.39023E-03-3.48499E-04-1.30708E-14-5.85334E-13
 -1      1159 2.02943E+01-7.74355E-03-9.05636E-03 4.30883E-05-3.37675E-15-5.50636E-13
 -1      1160 2.04856E+01-1.24651E-02-1.50795E-02 1.01302E-03-9.49501E-15-5.28002E-13
 -1      1161 2.07960E+01-1.89328E-02-2.49992E-02 3.08648E-03-7.24139E-15-4.11139E-13
 -1      1162 2.12925E+01-2.96736E-02-4.15554E-02 9.18286E-03-1.94419E-14-4.99354E-13
 -1      1163 2.20717E+01-4.46041E-02-6.77827E-02 2.04039E-02 5.08742E-14-5.99923E-13
 -1      1164 2.33149E+01-6.46401E-02-1.07179E-01 4.27817E-02 2.04342E-14-6.99461E-13
 -1      1165 2.52761E+01-8.72622E-02-1.56022E-01 8.50888E-02-1.15108E-14-6.75182E-13
 -1      1166 2.82788E+01-1.01093E-01-1.83910E-01 1.57513E-01 1.17172E-14-5.56666E-13
 -1      1167 3.25707E+01-7.55828E-02-9.74537E-02 2.54986E-01 1.17484E-14-5.00155E-13
 -1      1168 3.77964E+01 4.76010E-02 2.57641E-01 3.01273E-01 4.05448E-14-2.82274E-13
 -1      1169 4.17873E+01 2.88348E-01 8.43870E-01 3.17183E-02-9.76302E-15-2.69021E-13
 -1      1170 4.00575E+01 4.40499E-01 9.01765E-01-8.01892E-01-1.40513E-14-1.93068E-13
 -1      1171 3.04909E+01 2.32242E-01-4.89009E-01-1.59029E+00-8.05814E-14-2.91100E-13
 -1      1172 1.84745E+01-4.81337E-01-2.69880E+00-1.11939E+00-8.99836E-14-1.14597E-12
 -1      1173 1.53822E+01-6.84510E-01-3.34617E+00 4.64824E-01-7.05547E-14-2.27351E-12
 -1      1174 2.44648E+01-1.24217E-01-1.54922E+00 1.17082E+00-1.55848E-14-2.80576E-12
 -1      1175 3.55589E+01 3.26495E-01 3.42211E-01 8.75580E-01 9.55677E-14-2.12030E-12
 -1      1176 4.14989E+01 3.53845E-01 9.95719E-01 3.30432E-01-6.62335E-14-1.05571E-12
 -1      1177 4.07474E+01 9.53254E-02 6.23939E-01-8.22533E-02 8.02310E-15-8.87186E-13
 -1      1178 3.59598E+01-2.97841E-02 9.92190E-02-1.98618E-01 4.67374E-14-4.93855E-13
 -1      1179 3.09272E+01-6.55583E-02-1.31300E-01-1.62154E-01-1.42425E-14-4.80171E-13
 -1      1180 2.70387E+01-6.14599E-02-1.59728E-01-1.03740E-01 6.82180E-15-1.79412E-13
 -1      1181 2.43652E+01-4.69674E-02-1.21334E-01-6.01187E-02-2.40268E-14-6.28664E-15
 -1      1182 2.26114E+01-3.30601E-02-7.90466E-02-3.36760E-02 2.38334E-14-4.16271E-13
 -1      1183 2.14767E+01-2.26896E-02-4.92757E-02-1.90891E-02-4.17461E-14-5.02893E-13
 -1      1184 2.07435E+01-1.61061E-02-3.24199E-02-1.13457E-02 6.22419E-14 4.23966E-14
 -1      1185 2.02799E+01-1.27151E-02-2.52007E-02-6.55597E-03-5.36563E-14-1.59345E-13
 -1      1186 2.00265E+01-9.69592E-03-1.95919E-02-1.01095E-03 4.72582E-14-6.90931E-13
 -1      1187 1.99800E+01-1.04495E-02 6.75862E-03 1.24618E-02 9.04378E-14-7.66399E-13
 -1      1188 2.77925E+01 5.25665E-01 3.76752E-01 1.96654E+00-2.70894E-14 2.36067E-12
 -1      1189 2.00859E+01-6.66420E-02-5.73633E-01 1.29493E-01 9.19056E-15 2.06085E-12
 -1      1190 1.89081E+01-4.19639E-02-1.93197E-01 1.93131E-02 3.58134E-15 1.75673E-12
 -1      1191 1.85296E+01-2.26598E-02-5.04478E-02 1.17170E-03-3.84935E-15 1.56938E-12
 -1      1192 1.84593E+01-1.37194E-02-1.37376E-02-4.38644E-03 3.31983E-15 1.42737E-12
 -1      1193 1.85354E+01-7.90776E-03-4.92570E-03-5.63681E-03 9.46682E-15 1.20430E-12
 -1      1194 1.86801E+01-4.44385E-03-2.01617E-03-5.75820E-03 1.72968E-14 1.06346E-12
 -1      1195 1.88520E+01-2.27811E-03-3.29195E-04-5.43492E-03-6.35608E-15 1.04723E-12
 -1      1196 1.90280E+01-9.17304E-04 8.12641E-04-4.91846E-03 1.10320E-15 9.18108E-13
 -1      1197 1.91950E+01-8.27251E-05 1.51469E-03-4.31265E-03 1.46060E-14 8.07149E-13
 -1      1198 1.93463E+01 3.97511E-04 1.85877E-03-3.67989E-03 1.46245E-14 7.21583E-13
 -1      1199 1.94787E+01 6.36435E-04 1.93842E-03-3.06122E-03 5.44598E-15 6.82716E-13
 -1      1200 1.95921E+01 7.11456E-04 1.83607E-03-2.48322E-03 1.46877E-14 5.96958E-13
 -1      1201 1.96875E+01 6.77179E-04 1.61513E-03-1.96262E-03-1.20827E-14 4.75799E-13
 -1      1202 1.97672E+01 5.73606E-04 1.32226E-03-1.51011E-03-1.12993E-14 4.85694E-13
 -1      1203 1.98339E+01 4.32266E-04 9.92846E-04-1.13385E-03 8.36756E-15 3.46846E-13
 -1      1204 1.98905E+01 2.81576E-04 6.57463E-04-8.42559E-04 8.70282E-15 3.55653E-13
 -1      1205 1.99399E+01 1.52120E-04 3.48993E-04-6.48376E-04 2.31989E-15 4.32904E-13
 -1      1206 1.99847E+01 8.20971E-05 1.10832E-04-5.69071E-04-5.98710E-15 4.73488E-13
 -1      1207 2.00267E+01 1.22668E-04 6.04863E-06-6.28992E-04-3.35193E-15 4.24303E-13
 -1      1208 2.00668E+01 3.42218E-04 1.26619E-04-8.57555E-04 1.57294E-14 4.06215E-13
 -1      1209 2.01040E+01 8.27381E-04 6.00223E-04-1.28338E-03 1.83947E-14 3.88417E-13
 -1      1210 2.01349E+01 1.67712E-03 1.58952E-03-1.92158E-03-1.43616E-14 3.06158E-13
 -1      1211 2.01523E+01 2.98447E-03 3.27530E-03-2.75151E-03 6.85428E-14-6.66320E-14
 -1      1212 2.01441E+01 4.79972E-03 5.81164E-03-3.68385E-03-7.22138E-15 5.97016E-15
 -1      1213 2.00928E+01 7.07113E-03 9.24059E-03-4.52041E-03-9.16313E-15 4.24228E-13
 -1      1214 1.99750E+01 9.56755E-03 1.33627E-02-4.91956E-03 8.48887E-15 7.92704E-14
 -1      1215 1.97631E+01 1.18056E-02 1.75845E-02-4.39454E-03-1.72280E-15-6.37927E-14
 -1      1216 1.94301E+01 1.30314E-02 2.08090E-02-2.38562E-03-1.67420E-14-3.80113E-14
 -1      1217 1.89565E+01 1.23258E-02 2.14905E-02 1.55407E-03-1.64226E-14 4.50456E-14
 -1      1218 1.83421E+01 8.89617E-03 1.79930E-02 7.46188E-03-4.38321E-15-1.35131E-13
 -1      1219 1.76164E+01 2.51977E-03 9.29345E-03 1.46475E-02-2.58617E-14 1.94324E-13
 -1      1220 1.68460E+01-6.03023E-03-4.15329E-03 2.15621E-02-1.35188E-14 4.30878E-13
 -1      1221 1.61311E+01-1.49001E-02-1.98881E-02 2.60812E-02-2.98783E-14 6.57856E-13
 -1      1222 1.55864E+01-2.16552E-02-3.38327E-02 2.62694E-02 2.99049E-14 4.13003E-13
 -1      1223 1.53121E+01-2.42743E-02-4.17576E-02 2.13283E-02-2.75322E-14 2.43758E-13
 -1      1224 1.53613E+01-2.20940E-02-4.11863E-02 1.21651E-02 1.59341E-14-1.93078E-13
 -1      1225 1.57224E+01-1.60946E-02-3.25916E-02 1.13015E-03-8.99237E-16-9.51322E-15
 -1      1226 1.63227E+01-8.34250E-03-1.90832E-02-8.97090E-03 6.89553E-15 2.60986E-13
 -1      1227 1.70531E+01-1.00870E-03-4.83894E-03-1.59979E-02 1.83059E-14 1.81053E-13
 -1      1228 1.78003E+01 4.42398E-03 6.66702E-03-1.91114E-02-3.40754E-14 1.90695E-13
 -1      1229 1.84743E+01 7.43028E-03 1.36850E-02-1.87143E-02-2.41431E-14 2.65184E-13
 -1      1230 1.90215E+01 8.24968E-03 1.61941E-02-1.59366E-02 3.19608E-14 4.62321E-14
 -1      1231 1.94247E+01 7.50825E-03 1.52561E-02-1.20529E-02-2.55971E-14-2.48865E-13
 -1      1232 1.96940E+01 5.89980E-03 1.22778E-02-8.09908E-03-2.92109E-14 8.93296E-14
 -1      1233 1.98555E+01 4.01514E-03 8.52903E-03-4.74623E-03 5.49621E-14 1.32421E-13
 -1      1234 1.99410E+01 2.30956E-03 4.99722E-03-2.34770E-03 4.13902E-14-2.16763E-13
 -1      1235 1.99809E+01 1.20366E-03 2.47503E-03-1.02528E-03-2.43089E-15-3.71065E-13
 -1      1236 1.99974E+01 7.98950E-04 1.25828E-03-4.80662E-04 4.95761E-14-3.81111E-13
 -1      1237 2.00006E+01-1.63899E-04-5.43502E-04 3.57219E-04 1.54812E-14-4.07251E-13
 -1      1238 1.99994E+01 7.31130E-04-5.18590E-04 1.50553E-04-4.13861E-13-1.49572E-14
 -1      1239 2.00002E+01-5.32385E-03 8.25196E-04-7.92321E-04-5.27236E-13-1.08783E-13
 -1      1240 1.99985E+01-2.16896E-02-1.24864E-03-1.96279E-03-1.85746E-13-3.42635E-14
 -1      1241 1.99958E+01-2.99273E-02-4.92778E-03-1.81848E-03-8.30286E-13-1.11055E-13
 -1      1242 1.99938E+01-4.40898E-03-8.15086E-03-2.68205E-04-3.97710E-13-1.03090E-13
 -1      1243 1.99928E+01 7.54465E-02-9.61734E-03 2.26301E-03-5.88809E-15-1.46365E-13
 -1      1244 1.99939E+01 2.19143E-01-8.33357E-03 5.00631E-03-3.16101E-14 1.41204E-13
 -1      1245 1.99972E+01 4.19668E-01-3.88571E-03 7.30529E-03 5.18717E-14-9.31445E-14
 -1      1246 2.00023E+01 6.46268E-01 3.32101E-03 8.07892E-03 2.00256E-13-2.11629E-14
 -1      1247 2.00082E+01 8.50588E-01 1.17777E-02 6.49644E-03 8.19171E-14-2.20692E-14
 -1      1248 2.00131E+01 9.75819E-01 1.88883E-02 2.26552E-03 4.37417E-14-3.12779E-13
 -1      1249 2.00153E+01 9.74608E-01 2.16793E-02-4.00904E-03-6.42280E-13-2.02481E-13
 -1      1250 2.00127E+01 8.28836E-01 1.73992E-02-1.02205E-02-9.16640E-13-1.40610E-14
 -1      1251 2.00051E+01 5.62862E-01 5.41707E-03-1.41386E-02-4.93690E-13 6.27368E-14
 -1      1252 1.99955E+01 2.57377E-01-1.01048E-02-1.12092E-02-4.32120E-15 6.17531E-14
 -1      1253 1.99916E+01 2.75842E-02-1.67780E-02 2.92607E-03 1.35037E-12 1.01329E-13
 -1      1254 1.99901E+01-2.09309E-02 7.63414E-03 1.34168E-02 9.65892E-13-1.24233E-13
 -1      1255-9.75599E-01-2.54875E+01-3.68228E+00-2.20204E+00 3.18523E-13 1.40818E-13
 -1      1256-1.38404E+00-1.33277E+01-2.74635E+00-3.34352E+00 1.78679E-12 8.10074E-13
 -1      1257 2.14787E+00 1.12214E+00-1.39362E+00 2.33808E+00 2.39897E-12 1.50369E-12
 -1      1258 1.33835E+01 1.09737E+01 2.14634E-01 1.19276E+01 1.79390E-12 1.72751E-12
 -1      1259 3.30958E+01 1.25699E+01 1.92359E+00 1.95129E+01 5.89417E-13 6.46816E-13
 -1      1260 5.51362E+01 7.73592E+00 3.34033E+00 1.85916E+01-1.33227E-13-3.28626E-13
 -1      1261 6.99373E+01 2.74333E+00 4.20019E+00 8.27731E+00-2.31482E-14-6.39766E-13
 -1      1262 7.03106E+01 2.67150E+00 4.21654E+00-6.92424E+00 2.24903E-13-1.50641E-12
 -1      1263 5.52300E+01 7.64374E+00 3.36180E+00-1.85734E+01 7.79488E-13-2.21312E-12
 -1      1264 3.26301E+01 1.27738E+01 1.95003E+00-1.92978E+01 1.15086E-12-1.79656E-12
 -1      1265 1.30731E+01 1.09477E+01 2.63561E-01-1.16290E+01 1.33116E-12-1.30518E-12
 -1      1266 1.88848E+00 1.22706E+00-1.39659E+00-2.11303E+00 1.17861E-12-7.24532E-13
 -1      1267-1.40212E+00-1.25454E+01-2.70759E+00 3.23157E+00 7.89147E-13-2.20712E-13
 -1      1268-1.14715E+00-2.46396E+01-3.63786E+00 2.45283E+00 5.77649E-13-1.34781E-13
 -1      1269-1.27208E+00-2.90231E+01-4.09126E+00-2.50269E+00-4.79977E-13-1.09600E-13
 -1      1270-2.85692E+00-2.37836E+01-4.06509E+00-6.77595E+00-9.02167E-13-3.10169E-13
 -1      1271-3.15621E+00-1.12733E+01-3.51625E+00-5.28564E+00-1.26432E-12-7.63833E-13
 -1      1272 4.10477E+00 1.67562E+00-2.22282E+00 3.20557E+00-1.39777E-12-1.43685E-12
 -1      1273 2.51171E+01 9.06819E+00 4.79957E-01 1.45061E+01-1.18106E-12-1.71418E-12
 -1      1274 5.85445E+01 8.33138E+00 4.49769E+00 1.88844E+01-3.25961E-13-1.02585E-12
 -1      1275 8.62768E+01 4.21509E+00 7.84844E+00 9.86347E+00-1.22860E-13-2.42473E-13
 -1      1276 8.98694E+01 2.98163E+00 8.17927E+00-6.83784E+00-2.58980E-13 1.37945E-12
 -1      1277 6.84933E+01 6.86377E+00 5.52244E+00-1.85204E+01-7.50622E-13 2.35234E-12
 -1      1278 3.64206E+01 9.67684E+00 1.71579E+00-1.78241E+01-8.59091E-13 1.83853E-12
 -1      1279 1.15370E+01 5.97733E+00-1.30205E+00-8.52127E+00-3.61711E-13 3.77032E-13
 -1      1280-2.67586E-01-3.48650E+00-2.90263E+00 9.54765E-01-3.69482E-13 3.22631E-13
 -1      1281-4.19199E+00-1.49884E+01-3.86539E+00 6.61536E+00 2.14717E-13-3.45279E-14
 -1      1282-2.87394E+00-2.47699E+01-4.13990E+00 6.62070E+00 1.06781E-12-2.80970E-13
 -1      1283-1.36691E+00-2.90453E+01-4.10168E+00 2.77511E+00 5.85157E-13-2.54428E-13
 -1      1284 2.22673E+01 1.83821E+00-7.25815E-01-2.79040E+00-5.74818E-14 6.28164E-13
 -1      1285 2.03598E+01 4.69006E+00-4.87411E-02-3.30643E+00-1.26732E-13-1.94747E-13
 -1      1286 2.08674E+01 4.81057E+00-1.13350E-01-4.16073E+00-1.75804E-13-1.23859E-14
 -1      1287 1.95315E+01 4.99395E+00-1.97131E-02-2.65406E+00-1.18995E-13-4.34309E-13
 -1      1288 1.98297E+01 5.09034E+00 4.27835E-05-3.04492E+00-1.33810E-13-3.41588E-13
 -1      1289 2.05264E+01 3.95273E+00-2.59865E-02-3.07401E+00-2.15824E-13-1.63633E-13
 -1      1290 1.91853E+01 5.08420E+00-3.39244E-03-2.07035E+00-7.19355E-14-5.28619E-13
 -1      1291 1.93335E+01 5.13938E+00 1.05251E-02-2.36370E+00-9.47124E-14-4.85549E-13
 -1      1292 1.97552E+01 4.36718E+00-2.38568E-02-2.49001E+00-1.78049E-13-3.49581E-13
 -1      1293 1.90092E+01 5.13106E+00 3.46704E-03-1.56414E+00-3.85377E-14-5.71198E-13
 -1      1294 1.90874E+01 5.16077E+00 1.28130E-02-1.81410E+00-4.79356E-14-5.56298E-13
 -1      1295 1.93931E+01 4.55520E+00-1.94873E-02-1.93095E+00-1.00196E-13-4.44624E-13
 -1      1296 1.89153E+01 5.16072E+00 6.55871E-03-1.11670E+00-8.63936E-15-5.77385E-13
 -1      1297 1.89578E+01 5.17711E+00 1.27698E-02-1.33809E+00-1.88599E-14-5.75096E-13
 -1      1298 1.92056E+01 4.66160E+00-1.60434E-02-1.44434E+00-4.74820E-14-4.74211E-13
 -1      1299 1.88638E+01 5.18050E+00 8.18319E-03-6.93568E-01 1.21426E-14-5.55611E-13
 -1      1300 1.88868E+01 5.18937E+00 1.19971E-02-9.03716E-01 6.56680E-15-5.69687E-13
 -1      1301 1.91026E+01 4.72697E+00-1.39972E-02-1.00395E+00-3.98054E-15-4.79856E-13
 -1      1302 1.88398E+01 5.19242E+00 9.27903E-03-2.89041E-01 4.41324E-14-5.28556E-13
 -1      1303 1.88497E+01 5.19626E+00 1.10602E-02-4.91073E-01 3.22901E-14-5.41499E-13
 -1      1304 1.90467E+01 4.76595E+00-1.29235E-02-5.88562E-01 3.47427E-14-4.50175E-13
 -1      1305 1.88361E+01 5.19737E+00 1.02127E-02 1.08182E-01 6.77227E-14-5.02900E-13
 -1      1306 1.88357E+01 5.19724E+00 1.01409E-02-9.13972E-02 6.20881E-14-5.20797E-13
 -1      1307 1.90225E+01 4.78397E+00-1.24739E-02-1.89013E-01 8.77547E-14-4.40842E-13
 -1      1308 1.88514E+01 5.19590E+00 1.11552E-02 5.08443E-01 9.26854E-14-4.61353E-13
 -1      1309 1.88408E+01 5.19178E+00 9.21565E-03 3.05990E-01 8.44765E-14-4.84784E-13
 -1      1310 1.90233E+01 4.78334E+00-1.24903E-02 2.05703E-01 1.21961E-13-4.05512E-13
 -1      1311 1.88901E+01 5.18822E+00 1.20956E-02 9.22574E-01 1.15789E-13-4.14601E-13
 -1      1312 1.88663E+01 5.17917E+00 8.12531E-03 7.11462E-01 1.10439E-13-4.43753E-13
 -1      1313 1.90494E+01 4.76388E+00-1.29751E-02 6.05938E-01 1.67353E-13-3.70939E-13
 -1      1314 1.89621E+01 5.17524E+00 1.28947E-02 1.35571E+00 1.38480E-13-3.37577E-13
 -1      1315 1.89188E+01 5.15848E+00 6.44720E-03 1.13286E+00 1.30375E-13-3.82217E-13
 -1      1316 1.91069E+01 4.72341E+00-1.39981E-02 1.01915E+00 2.00962E-13-3.17156E-13
 -1      1317 1.90950E+01 5.15691E+00 1.28986E-02 1.84024E+00 1.72161E-13-2.21250E-13
 -1      1318 1.90153E+01 5.12649E+00 3.14734E-03 1.58750E+00 1.55605E-13-2.88453E-13
 -1      1319 1.92125E+01 4.65507E+00-1.61488E-02 1.46222E+00 2.40897E-13-2.34927E-13
 -1      1320 1.93447E+01 5.13338E+00 1.04445E-02 2.39719E+00 1.90202E-13-3.45141E-14
 -1      1321 1.91940E+01 5.07648E+00-4.18336E-03 2.09987E+00 1.77396E-13-1.46001E-13
 -1      1322 1.94053E+01 4.54265E+00-1.99130E-02 1.95754E+00 2.79684E-13-1.10974E-13
 -1      1323 1.98550E+01 5.09953E+00 6.03136E-03 3.08384E+00 1.96829E-13 2.73274E-13
 -1      1324 1.95440E+01 4.98464E+00-2.02500E-02 2.69661E+00 1.82500E-13 8.71837E-14
 -1      1325 1.97743E+01 4.34582E+00-2.47752E-02 2.52783E+00 3.01191E-13 9.57567E-14
 -1      1326 2.11031E+01 4.90661E+00 7.98737E-03 4.05345E+00 1.46105E-13 8.12905E-13
 -1      1327 2.03340E+01 4.73397E+00-4.80930E-02 3.41570E+00 1.47771E-13 4.93210E-13
 -1      1328 2.05632E+01 3.91594E+00-2.28607E-02 3.17842E+00 2.72428E-13 4.32793E-13
 -1      1329 2.72027E+01 3.20529E+00 9.28825E-01 4.58204E+00 4.98629E-14 1.69670E-12
 -1      1330 2.20201E+01 3.52217E+00-1.82139E-01 3.88469E+00 5.98965E-14 1.09782E-12
 -1      1331 2.21134E+01 2.56165E+00-3.25122E-02 3.45649E+00 2.29306E-13 9.10300E-13
 -1      1332 2.14270E+01 3.59579E-01-7.63665E-01 1.18360E+00 1.10315E-13 1.67227E-12
 -1      1333 2.20015E+01 1.31296E-01-4.00854E-01-1.28566E+00-1.46660E-13 6.95166E-13
 -1      1334 2.06789E+01 3.06719E-01-1.64788E-01-8.05746E-01-1.36620E-13 5.25274E-13
 -1      1335 2.00812E+01 1.53526E-01-7.35231E-02-4.02010E-01-1.12708E-13 4.54125E-13
 -1      1336 1.96115E+01 9.12270E-02-1.48983E-02-3.29830E-01-1.07012E-13 2.89047E-13
 -1      1337 2.09728E+01 3.69315E-01-1.04171E-01-1.27382E+00-2.41307E-13 2.17444E-13
 -1      1338 1.92543E+01 6.45164E-02 3.06029E-03-1.35169E-01-8.67214E-14 2.43576E-13
 -1      1339 1.91002E+01 4.12664E-02 1.32495E-02-1.17371E-01-6.87818E-14 1.31315E-13
 -1      1340 1.99223E+01 1.33921E-01-3.51160E-02-5.03675E-01-1.81740E-13 1.24005E-13
 -1      1341 1.89400E+01 3.15342E-02 1.32590E-02-2.78471E-02-4.68332E-14 6.81157E-14
 -1      1342 1.89208E+01 1.93978E-02 1.10690E-02-1.84655E-02-4.90289E-14-1.07171E-14
 -1      1343 1.94453E+01 5.54628E-02-8.49710E-03-1.69675E-01-1.24073E-13 3.79696E-14
 -1      1344 1.88649E+01 1.60290E-02 8.77909E-03 2.52116E-02-2.26980E-14-2.95545E-14
 -1      1345 1.89075E+01 9.09526E-03 6.43375E-03 2.98512E-02-3.08902E-14-5.40124E-14
 -1      1346 1.92367E+01 2.44178E-02-3.51232E-03-1.07977E-02-7.33632E-14-3.97104E-14
 -1      1347 1.89078E+01 7.87873E-03 4.67102E-03 5.10623E-02-1.66024E-14-7.40692E-14
 -1      1348 1.89784E+01 3.52722E-03 3.64319E-03 5.29651E-02-1.01581E-14-8.95360E-14
 -1      1349 1.91804E+01 1.02338E-02-2.22585E-03 6.79833E-02-5.48212E-14-6.31691E-14
 -1      1350 1.90082E+01 3.21526E-03 2.44424E-03 6.18189E-02-2.66261E-14-1.01461E-13
 -1      1351 1.90891E+01 3.59767E-04 2.21508E-03 6.21009E-02-3.69193E-14-1.49650E-13
 -1      1352 1.92070E+01 2.81836E-03-1.33104E-03 1.04940E-01-4.44485E-14-1.07639E-13
 -1      1353 1.91330E+01 4.77296E-04 1.33552E-03 6.38569E-02-3.86449E-14-1.72750E-13
 -1      1354 1.92143E+01-1.42745E-03 1.44530E-03 6.31920E-02-4.66341E-14-2.33466E-13
 -1      1355 1.92767E+01-1.25425E-03-5.68001E-04 1.18366E-01-8.95050E-14-1.40329E-13
 -1      1356 1.92633E+01-1.09813E-03 7.51857E-04 6.08978E-02-5.11994E-14-2.55577E-13
 -1      1357 1.93395E+01-2.36039E-03 9.78815E-04 5.97192E-02-6.97456E-14-3.36397E-13
 -1      1358 1.93658E+01-3.44477E-03-1.15833E-05 1.18231E-01-9.48538E-14-2.01073E-13
 -1      1359 1.93883E+01-1.93376E-03 4.17034E-04 5.52657E-02-6.68080E-14-3.41137E-13
 -1      1360 1.94566E+01-2.74594E-03 6.70412E-04 5.38592E-02-7.20637E-15-3.90899E-13
 -1      1361 1.94600E+01-4.48636E-03 3.37030E-04 1.10495E-01-8.63617E-14-1.61823E-13
 -1      1362 1.95021E+01-2.28724E-03 2.15412E-04 4.84607E-02 2.55598E-14-4.55398E-13
 -1      1363 1.95615E+01-2.77829E-03 4.59636E-04 4.70137E-02-2.07354E-14-4.65812E-13
 -1      1364 1.95513E+01-4.80070E-03 5.21947E-04 9.89218E-02-3.22403E-14-2.49670E-13
 -1      1365 1.96023E+01-2.32464E-03 9.50317E-05 4.14587E-02-4.54241E-14-4.72489E-13
 -1      1366 1.96527E+01-2.58429E-03 3.16990E-04 4.00929E-02-1.48618E-14-5.07414E-13
 -1      1367 1.96351E+01-4.65225E-03 5.90683E-04 8.59474E-02-3.04512E-14-3.66810E-13
 -1      1368 1.96885E+01-2.15469E-03 2.87434E-05 3.48940E-02 1.38202E-14-4.99330E-13
 -1      1369 1.97306E+01-2.24545E-03 2.25635E-04 3.36869E-02-5.74630E-15-4.89336E-13
 -1      1370 1.97096E+01-4.21187E-03 5.80352E-04 7.31574E-02-8.71422E-15-3.77780E-13
 -1      1371 1.97615E+01-1.84601E-03 6.46425E-07 2.91817E-02-2.76862E-15-4.95504E-13
 -1      1372 1.97965E+01-1.80957E-03 1.75481E-04 2.81836E-02-3.42479E-14-5.40581E-13
 -1      1373 1.97745E+01-3.58670E-03 5.16541E-04 6.15900E-02-2.70252E-14-3.76948E-13
 -1      1374 1.98233E+01-1.43593E-03 1.18993E-06 2.46101E-02-5.28348E-14-5.14735E-13
 -1      1375 1.98527E+01-1.29630E-03 1.61200E-04 2.38582E-02-2.55235E-14-5.55400E-13
 -1      1376 1.98307E+01-2.83490E-03 4.15042E-04 5.19489E-02-5.02609E-14-3.22112E-13
 -1      1377 1.98764E+01-9.33970E-04 2.51171E-05 2.14198E-02 6.78400E-15-5.59141E-13
 -1      1378 1.99020E+01-6.98377E-04 1.81626E-04 2.09513E-02-2.68396E-14-5.27873E-13
 -1      1379 1.98799E+01-1.97145E-03 2.83346E-04 4.47724E-02-3.39440E-14-3.36090E-13
 -1      1380 1.99241E+01-3.20819E-04 7.04223E-05 1.98807E-02-3.09671E-14-5.34300E-13
 -1      1381 1.99479E+01 2.16589E-05 2.39848E-04 1.97467E-02-5.81234E-14-5.51639E-13
 -1      1382 1.99247E+01-9.66829E-04 1.21259E-04 4.05881E-02-2.84114E-14-3.33127E-13
 -1      1383 1.99702E+01 4.57921E-04 1.37648E-04 2.03809E-02-1.01723E-14-5.51578E-13
 -1      1384 1.99949E+01 9.40375E-04 3.43726E-04 2.06647E-02 4.47936E-14-5.63754E-13
 -1      1385 1.99681E+01 2.62770E-04-7.95184E-05 4.00786E-02-3.00204E-14-3.81452E-13
 -1      1386 2.00198E+01 1.50517E-03 2.29015E-04 2.35448E-02 2.54218E-14-5.75030E-13
 -1      1387 2.00488E+01 2.19059E-03 5.06489E-04 2.43872E-02-2.50442E-14-5.66332E-13
 -1      1388 2.00143E+01 1.87690E-03-3.37037E-04 4.42884E-02 2.67865E-14-3.44191E-13
 -1      1389 2.00796E+01 2.99672E-03 3.46510E-04 3.04044E-02 1.26972E-14-5.96301E-13
 -1      1390 2.01176E+01 3.99077E-03 7.46440E-04 3.20439E-02 4.18014E-15-5.95718E-13
 -1      1391 2.00687E+01 4.15042E-03-6.82435E-04 5.49132E-02-1.58665E-14-3.90772E-13
 -1      1392 2.01589E+01 5.22237E-03 4.86877E-04 4.26637E-02 2.13348E-14-4.58703E-13
 -1      1393 2.02131E+01 6.69264E-03 1.08296E-03 4.54984E-02 2.67911E-14-4.21339E-13
 -1      1394 2.01388E+01 7.54138E-03-1.16596E-03 7.47342E-02 7.63712E-14-3.84109E-13
 -1      1395 2.02716E+01 8.65279E-03 6.29317E-04 6.31117E-02 7.19238E-15-4.35159E-13
 -1      1396 2.03529E+01 1.08300E-02 1.50796E-03 6.78086E-02-8.75851E-15-4.43682E-13
 -1      1397 2.02354E+01 1.28017E-02-1.86896E-03 1.08286E-01 2.03192E-14-2.77812E-13
 -1      1398 2.04386E+01 1.42449E-02 7.72819E-04 9.62852E-02 4.19469E-14-4.35438E-13
 -1      1399 2.05643E+01 1.71411E-02 2.05102E-03 1.03847E-01 5.94589E-14-3.55188E-13
 -1      1400 2.03740E+01 2.10856E-02-2.94283E-03 1.62853E-01 5.48741E-14-2.95357E-13
 -1      1401 2.06992E+01 2.29483E-02 5.67666E-04 1.51552E-01 4.69134E-14-3.36372E-13
 -1      1402 2.09089E+01 2.79794E-02 2.32386E-03 1.65244E-01-4.66688E-14-3.48455E-13
 -1      1403 2.05843E+01 3.50424E-02-4.61839E-03 2.52855E-01 9.04446E-14-3.26060E-13
 -1      1404 2.11041E+01 3.70135E-02-3.80920E-04 2.38895E-01-6.84678E-14-2.98291E-13
 -1      1405 2.14235E+01 4.41199E-02 2.02091E-03 2.59164E-01 2.44891E-14-3.19637E-13
 -1      1406 2.08993E+01 5.72324E-02-7.19776E-03 3.97092E-01-1.16105E-14-3.01711E-13
 -1      1407 2.17148E+01 5.81501E-02-3.23131E-03 3.73903E-01-1.36028E-14-4.27744E-13
 -1      1408 2.22197E+01 6.79000E-02-4.04350E-04 4.06422E-01-3.16067E-14-5.13724E-13
 -1      1409 2.13596E+01 9.22480E-02-1.11026E-02 6.18457E-01-8.54100E-14-2.86926E-13
 -1      1410 2.26506E+01 8.95712E-02-9.80838E-03 5.81194E-01-5.87551E-15-5.73753E-13
 -1      1411 2.34406E+01 1.00472E-01-6.74656E-03 6.32099E-01 8.23300E-15-5.28366E-13
 -1      1412 2.20404E+01 1.44635E-01-1.73818E-02 9.58140E-01-5.52631E-14-4.32854E-13
 -1      1413 2.40636E+01 1.31150E-01-2.22087E-02 8.85344E-01 3.77129E-15-4.84265E-13
 -1      1414 2.52681E+01 1.36778E-01-1.72501E-02 9.61249E-01 1.39715E-14-4.74419E-13
 -1      1415 2.30310E+01 2.15839E-01-2.64020E-02 1.46024E+00 4.49502E-14-3.52160E-13
 -1      1416 2.61346E+01 1.71507E-01-3.79432E-02 1.29095E+00 1.77983E-14-4.69735E-13
 -1      1417 2.78722E+01 1.52219E-01-2.27283E-02 1.39144E+00-2.34604E-14-4.87319E-13
 -1      1418 2.44310E+01 2.88587E-01-3.56630E-02 2.14715E+00-1.19002E-15-4.10397E-13
 -1      1419 2.90055E+01 1.64640E-01-3.72779E-02 1.71808E+00-1.89015E-14-4.47364E-13
 -1      1420 3.12363E+01 7.60436E-02 9.04190E-03 1.81035E+00 7.19563E-15-3.98626E-13
 -1      1421 2.63208E+01 2.88357E-01-3.38653E-02 2.93604E+00-8.73520E-15-4.28959E-13
 -1      1422 3.25879E+01-5.49447E-03 3.18061E-02 1.86327E+00 9.36543E-14-3.65236E-13
 -1      1423 3.47655E+01-2.21203E-01 1.20343E-01 1.82618E+00 6.94306E-14-2.89449E-13
 -1      1424 2.87073E+01 1.75945E-02 3.12239E-03 3.44965E+00 1.05700E-13-3.64875E-13
 -1      1425 3.61735E+01-4.97819E-01 2.09085E-01 1.07013E+00 7.23310E-14-1.84283E-13
 -1      1426 3.68424E+01-8.22056E-01 2.36027E-01 6.40303E-01 4.69208E-14-1.88349E-13
 -1      1427 3.14446E+01-8.14347E-01 8.53029E-02 2.77936E+00 1.36523E-13-2.91489E-13
 -1      1428 3.78601E+01-1.06023E+00 3.37346E-01-1.12337E+00-1.26565E-14-1.50685E-13
 -1      1429 3.54934E+01-1.16982E+00 4.49426E-02-1.80318E+00-1.04167E-13-2.20324E-13
 -1      1430 3.40068E+01-2.04859E+00 9.65926E-02-3.21821E-02 5.79259E-14-1.40787E-13
 -1      1431 3.61043E+01-8.24038E-01 7.69689E-02-3.65579E+00-1.16768E-13-1.70863E-13
 -1      1432 3.12153E+01-2.72753E-01-6.06434E-01-3.92819E+00-1.60844E-13-3.13360E-13
 -1      1433 3.60381E+01-2.28699E+00-8.30549E-02-4.05883E+00-1.14839E-13-2.94209E-14
 -1      1434 3.12207E+01 8.36688E-01-7.19606E-01-3.43927E+00-2.67120E-13-4.53582E-13
 -1      1435 2.75541E+01 1.62499E+00-1.23934E+00-2.43230E+00-4.31932E-13-8.33500E-13
 -1      1436 3.72078E+01 4.43643E-01-2.18917E-01-5.95909E+00-4.53471E-13 2.31482E-14
 -1      1437 2.76258E+01 5.28926E-01-1.11509E+00 3.46281E+00-8.53206E-14-1.76104E-12
 -1      1438 3.23725E+01-1.46207E-01-4.75329E-01 3.56936E+00 1.88016E-13-1.71441E-12
 -1      1439 3.31435E+01-5.14675E-01-2.71656E-01 2.99872E+00 3.36509E-13-1.64091E-12
 -1      1440 3.69099E+01-7.88668E-01 2.00388E-01 2.54696E+00 3.50511E-13-1.17595E-12
 -1      1441 3.54023E+01-6.35868E-01-1.77927E-01 5.62570E+00 4.17277E-13-8.33786E-13
 -1      1442 3.71099E+01-7.32669E-01 2.78843E-01 8.02415E-01 1.96961E-13-1.12732E-12
 -1      1443 3.84137E+01-6.10888E-01 4.22384E-01 2.41818E-01 1.03390E-13-8.30863E-13
 -1      1444 3.57971E+01-1.51608E+00 1.34809E-01 2.78145E+00 4.18101E-13-9.79550E-13
 -1      1445 3.72769E+01-4.01229E-01 2.87316E-01-1.04436E+00-2.76168E-15-6.71505E-13
 -1      1446 3.57977E+01-1.13929E-01 1.93243E-01-1.29003E+00 1.55008E-13-5.84005E-13
 -1      1447 3.44917E+01-1.05161E+00 1.79767E-01-9.37041E-01 1.95149E-13-5.77847E-13
 -1      1448 3.41805E+01-9.11670E-02 7.72234E-02-1.56697E+00 1.30737E-13-5.91915E-13
 -1      1449 3.17795E+01 9.62040E-02-3.49389E-03-1.56707E+00 5.82503E-14-3.36453E-13
 -1      1450 3.17449E+01-2.63731E-01 7.10970E-02-2.75571E+00 1.57853E-13-4.85362E-13
 -1      1451 3.02759E+01 5.48442E-02-3.01924E-02-1.37048E+00 3.20629E-14-3.19827E-13
 -1      1452 2.81241E+01 1.28722E-01-6.17242E-02-1.29638E+00 7.71388E-14-3.26197E-13
 -1      1453 2.87264E+01 1.10154E-01-1.60061E-02-2.82119E+00 6.39222E-14-3.94983E-13
 -1      1454 2.69305E+01 8.74566E-02-4.62472E-02-1.00396E+00 7.88640E-14-2.99524E-13
 -1      1455 2.53409E+01 1.03419E-01-5.37696E-02-9.28857E-01 3.60129E-15-1.31034E-13
 -1      1456 2.61058E+01 1.89249E-01-4.11175E-02-2.22225E+00 6.23807E-14-1.39805E-13
 -1      1457 2.44687E+01 7.57966E-02-3.16373E-02-6.82325E-01 6.77271E-14-1.40943E-13
 -1      1458 2.33879E+01 7.11202E-02-3.33402E-02-6.25640E-01 4.74273E-15-1.38403E-13
 -1      1459 2.40929E+01 1.58808E-01-3.57672E-02-1.56695E+00 7.00950E-14-1.40426E-13
 -1      1460 2.27782E+01 5.51158E-02-1.64023E-02-4.50182E-01-2.20110E-14-2.95153E-13
 -1      1461 2.20678E+01 4.61340E-02-1.79703E-02-4.11675E-01-1.12734E-13-3.71824E-13
 -1      1462 2.26464E+01 1.09920E-01-2.43910E-02-1.05225E+00-1.15687E-13-3.45811E-13
 -1      1463 2.16512E+01 3.75111E-02-7.21265E-03-2.94618E-01-3.86358E-14-4.31682E-13
 -1      1464 2.11892E+01 2.97846E-02-9.34127E-03-2.69356E-01-8.88005E-15-4.46171E-13
 -1      1465 2.16433E+01 7.07896E-02-1.54210E-02-6.93739E-01-1.55754E-13-3.07870E-13
 -1      1466 2.09087E+01 2.56981E-02-3.16844E-03-1.91390E-01 1.47964E-13-3.32817E-13
 -1      1467 2.06115E+01 2.04246E-02-5.66928E-03-1.74288E-01 4.67517E-14-7.91442E-14
 -1      1468 2.09608E+01 4.55602E-02-1.00206E-02-4.53745E-01 9.63509E-14-2.28489E-13
 -1      1469 2.04279E+01 1.97493E-02-2.52703E-03-1.18033E-01-4.95832E-14-1.33418E-13
 -1      1470 2.02487E+01 1.63495E-02-4.74554E-03-1.04652E-01 1.95495E-14-2.98802E-13
 -1      1471 2.05055E+01 3.25100E-02-7.50686E-03-2.88195E-01-1.76074E-15-3.71097E-13
 -1      1472 2.01386E+01 1.70726E-02-3.47124E-03-5.72048E-02-7.51558E-14-5.09204E-13
 -1      1473 2.00621E+01 1.80723E-02 3.61506E-04-4.40384E-02-8.74732E-14-6.53172E-13
 -1      1474 2.02159E+01 2.84323E-02-6.63768E-03-1.60014E-01-2.18855E-13-2.62223E-13
 -1      1475 2.00197E+01 1.96134E-02-8.39721E-04-1.61205E-02 1.00844E-14-6.58845E-13
 -1      1476 2.00145E+01 1.46119E-02 1.32539E-02-9.46488E-03 2.92894E-13-3.34234E-13
 -1      1477 2.00147E+01 1.79787E-02-2.08848E-03-1.48161E-02 7.55631E-13-1.31411E-13
 -1      1478 2.00742E+01 3.42658E-02-3.38192E-03-6.94379E-02 1.18000E-14-5.41401E-13
 -1      1479 2.02599E+01 7.58208E-02-1.51752E-01 4.83560E-01 9.75123E-14 1.43027E-12
 -1      1480 2.15305E+01 2.16081E-01-2.29249E-01 7.21044E-01 9.62563E-14 1.58235E-12
 -1      1481 2.17293E+01 8.82217E-01-8.52819E-02 2.06509E+00 1.78531E-13 1.12935E-12
 -1      1482 1.93301E+01 3.41502E-02-2.07771E-02 1.85286E-01 7.91971E-14 1.23134E-12
 -1      1483 1.97530E+01 1.14136E-01-6.19622E-02 2.38986E-01 6.76577E-14 1.33732E-12
 -1      1484 2.03038E+01 1.86267E-01-5.55016E-02 7.88122E-01 1.50081E-13 9.54773E-13
 -1      1485 1.89497E+01 1.66328E-02 6.07221E-03 5.25541E-02 5.70351E-14 1.09399E-12
 -1      1486 1.90899E+01 5.13803E-02 1.68165E-03 7.99635E-02 4.89730E-14 1.15536E-12
 -1      1487 1.95552E+01 6.68109E-02-1.53485E-02 2.97251E-01 1.10266E-13 8.06603E-13
 -1      1488 1.88399E+01 8.54873E-03 7.17636E-03-8.99208E-03 6.74426E-14 9.62345E-13
 -1      1489 1.88564E+01 2.53763E-02 1.15195E-02 6.02719E-03 5.85790E-14 1.04430E-12
 -1      1490 1.92203E+01 2.11131E-02-6.93453E-03 7.64774E-02 1.02878E-13 6.76740E-13
 -1      1491 1.88666E+01 3.78899E-03 4.81517E-03-3.93757E-02 5.11852E-14 8.24691E-13
 -1      1492 1.88234E+01 1.34924E-02 8.53128E-03-3.11270E-02 4.06938E-14 9.12414E-13
 -1      1493 1.91043E+01 6.98658E-03-4.67832E-03-2.81190E-02 9.23853E-14 6.10903E-13
 -1      1494 1.89615E+01 1.15858E-03 3.27604E-03-5.28442E-02 4.20644E-14 7.34818E-13
 -1      1495 1.88908E+01 7.14057E-03 5.30103E-03-4.84421E-02 4.15556E-14 7.86499E-13
 -1      1496 1.91076E+01 9.51285E-04-3.22483E-03-7.80411E-02 7.68871E-14 5.33580E-13
 -1      1497 1.90867E+01-3.26911E-04 2.45206E-03-5.68779E-02 2.27465E-14 6.95586E-13
 -1      1498 1.90060E+01 3.44847E-03 3.38040E-03-5.48257E-02 1.74223E-14 7.15128E-13
 -1      1499 1.91718E+01-1.96712E-03-2.09367E-03-9.95345E-02 3.68863E-14 4.43947E-13
 -1      1500 1.92205E+01-1.14255E-03 1.95950E-03-5.55091E-02 3.97497E-14 5.93370E-13
 -1      1501 1.91395E+01 1.20013E-03 2.28192E-03-5.49083E-02 4.50848E-14 6.67775E-13
 -1      1502 1.92651E+01-3.41519E-03-1.21719E-03-1.04992E-01 6.34640E-14 4.00230E-13
 -1      1503 1.93506E+01-1.53768E-03 1.60190E-03-5.11771E-02 2.18995E-14 5.71171E-13
 -1      1504 1.92747E+01-1.51636E-04 1.60595E-03-5.14493E-02 1.54230E-14 6.02241E-13
 -1      1505 1.93687E+01-4.02478E-03-5.94924E-04-1.01331E-01 3.96630E-14 3.99717E-13
 -1      1506 1.94703E+01-1.66259E-03 1.30791E-03-4.54312E-02 2.67484E-14 5.59526E-13
 -1      1507 1.94021E+01-9.16242E-04 1.14980E-03-4.61907E-02 3.17668E-14 5.82660E-13
 -1      1508 1.94716E+01-4.12079E-03-1.85862E-04-9.27679E-02 2.74062E-14 4.02438E-13
 -1      1509 1.95765E+01-1.61514E-03 1.05507E-03-3.92721E-02 4.76691E-14 4.64059E-13
 -1      1510 1.95171E+01-1.28708E-03 8.23448E-04-4.02584E-02 3.29066E-14 5.11974E-13
 -1      1511 1.95675E+01-3.89923E-03 6.28742E-05-8.19889E-02 5.74797E-14 3.81387E-13
 -1      1512 1.96683E+01-1.46144E-03 8.35655E-04-3.33409E-02 5.14217E-14 3.77331E-13
 -1      1513 1.96176E+01-1.39311E-03 5.83907E-04-3.43783E-02 4.69143E-14 4.48107E-13
 -1      1514 1.96537E+01-3.48799E-03 1.96891E-04-7.07255E-02 7.51482E-14 2.81371E-13
 -1      1515 1.97466E+01-1.24709E-03 6.45526E-04-2.80340E-02 1.08589E-14 3.21596E-13
 -1      1516 1.97039E+01-1.32342E-03 4.06739E-04-2.90055E-02 1.79761E-14 3.49255E-13
 -1      1517 1.97291E+01-2.97326E-03 2.50572E-04-6.00787E-02 5.30660E-14 2.78690E-13
 -1      1518 1.98130E+01-1.00447E-03 4.81231E-04-2.35778E-02 7.40301E-14 2.65992E-13
 -1      1519 1.97772E+01-1.14139E-03 2.75535E-04-2.44083E-02 1.98491E-14 3.00702E-13
 -1      1520 1.97942E+01-2.41440E-03 2.48913E-04-5.07185E-02 2.82541E-14 1.65425E-13
 -1      1521 1.98695E+01-7.58221E-04 3.39550E-04-2.00742E-02-2.95256E-14 2.06528E-13
 -1      1522 1.98393E+01-8.94430E-04 1.78039E-04-2.07193E-02 3.86497E-14 2.86544E-13
 -1      1523 1.98501E+01-1.85434E-03 2.10328E-04-4.30090E-02 4.67917E-14 1.68130E-13
 -1      1524 1.99186E+01-5.30176E-04 2.17875E-04-1.75251E-02-3.58784E-14 2.81120E-13
 -1      1525 1.98925E+01-6.22046E-04 1.04502E-04-1.79657E-02-5.05983E-14 2.25469E-13
 -1      1526 1.98986E+01-1.32863E-03 1.49274E-04-3.70822E-02-4.98398E-14 1.35074E-13
 -1      1527 1.99623E+01-3.44127E-04 1.15049E-04-1.58347E-02-9.60597E-15 3.48499E-13
 -1      1528 1.99390E+01-3.63622E-04 4.69061E-05-1.60766E-02-9.35108E-15 3.25084E-13
 -1      1529 1.99413E+01-8.74246E-04 7.87538E-05-3.28691E-02-4.35385E-14 2.07733E-13
 -1      1530 2.00024E+01-2.30694E-04 3.26573E-05-1.47917E-02 1.90785E-14 2.68140E-13
 -1      1531 1.99810E+01-1.66577E-04-1.30910E-06-1.48714E-02 2.38044E-14 3.30794E-13
 -1      1532 1.99799E+01-5.38887E-04 1.29291E-05-3.00893E-02-4.49594E-15 2.16292E-13
 -1      1533 2.00400E+01-2.32032E-04-2.32393E-05-1.40303E-02 5.04991E-14 2.46445E-13
 -1      1534 2.00199E+01-9.49822E-05-4.50921E-05-1.40266E-02-5.83819E-15 2.67867E-13
 -1      1535 2.00155E+01-3.90649E-04-2.99762E-05-2.82005E-02 4.19748E-14 1.45685E-13
 -1      1536 2.00749E+01-4.05467E-04-4.00262E-05-1.29708E-02 3.02613E-14 2.11947E-13
 -1      1537 2.00561E+01-2.37809E-04-8.71551E-05-1.30231E-02 3.18612E-15 2.72708E-13
 -1      1538 2.00484E+01-5.26906E-04-2.45345E-05-2.63082E-02-1.45229E-16 7.73602E-14
 -1      1539 2.01049E+01-8.24164E-04 3.41574E-06-1.07479E-02 1.54725E-14 1.93966E-13
 -1      1540 2.00886E+01-7.14509E-04-1.26872E-04-1.10804E-02 3.19791E-14 2.18082E-13
 -1      1541 2.00776E+01-1.07948E-03 6.48693E-05-2.30460E-02 2.59302E-14 3.11654E-14
 -1      1542 2.01251E+01-1.57146E-03 1.37390E-04-6.14540E-03 9.86240E-14 5.79336E-14
 -1      1543 2.01140E+01-1.67344E-03-1.58870E-04-7.09207E-03 2.70025E-14 1.82699E-13
 -1      1544 2.01000E+01-2.21055E-03 2.85811E-04-1.64491E-02 7.61933E-14 3.87594E-14
 -1      1545 2.01272E+01-2.72391E-03 3.98575E-04 2.42781E-03 1.54992E-15-6.18716E-14
 -1      1546 2.01261E+01-3.27571E-03-1.71935E-04 4.06508E-04 8.16970E-14 4.58499E-14
 -1      1547 2.01102E+01-4.09043E-03 6.96331E-04-3.87264E-03 1.21713E-13 6.59905E-15
 -1      1548 2.00982E+01-4.31708E-03 8.20248E-04 1.68587E-02-1.45767E-13 2.10141E-13
 -1      1549 2.01145E+01-5.65438E-03-1.49593E-04 1.31844E-02-1.31826E-13-4.09099E-14
 -1      1550 2.00993E+01-6.84524E-03 1.35680E-03 1.79568E-02-7.85217E-14 1.12457E-13
 -1      1551 2.00206E+01-6.28992E-03 1.41152E-03 3.90636E-02 8.22315E-14 2.00071E-13
 -1      1552 2.00642E+01-8.83883E-03-7.45901E-05 3.31007E-02 5.72346E-14 2.51774E-13
 -1      1553 2.00549E+01-1.04634E-02 2.31071E-03 5.26217E-02-9.80487E-15 1.17653E-13
 -1      1554 1.98731E+01-8.41092E-03 2.12364E-03 7.04403E-02-3.29641E-14 5.12841E-14
 -1      1555 1.99563E+01-1.26415E-02 6.02129E-05 6.16412E-02 3.44620E-14 1.16951E-13
 -1      1556 1.99608E+01-1.46594E-02 3.55043E-03 1.03262E-01 9.41515E-14 6.97366E-14
 -1      1557 1.96329E+01-1.02065E-02 2.80886E-03 1.10989E-01 2.25479E-14-5.07684E-14
 -1      1558 1.97686E+01-1.65253E-02 2.33722E-04 9.91486E-02 3.48684E-14-6.10059E-15
 -1      1559 1.97990E+01-1.87200E-02 4.96862E-03 1.71260E-01 5.81293E-14 2.55153E-14
 -1      1560 1.92810E+01-1.09389E-02 3.19192E-03 1.58191E-01-2.78102E-14 6.20944E-15
 -1      1561 1.94801E+01-1.95078E-02 3.76139E-04 1.43795E-01-9.73243E-14-2.86594E-14
 -1      1562 1.95520E+01-2.14062E-02 6.30749E-03 2.54380E-01-7.10300E-14 9.19004E-14
 -1      1563 1.88101E+01-9.70743E-03 2.89169E-03 2.05980E-01-4.17938E-15 5.35023E-14
 -1      1564 1.90766E+01-2.02071E-02 3.59340E-04 1.90560E-01-1.60945E-14 7.15920E-15
 -1      1565 1.92085E+01-2.10356E-02 7.13669E-03 3.44758E-01-6.12062E-14 9.26377E-14
 -1      1566 1.82332E+01-5.73744E-03 1.53594E-03 2.44490E-01-1.20924E-13 2.06944E-13
 -1      1567 1.85594E+01-1.71490E-02 2.31506E-05 2.30780E-01-5.21276E-14 8.51680E-14
 -1      1568 1.87697E+01-1.58933E-02 6.90870E-03 4.27634E-01-8.60440E-14 2.46770E-13
 -1      1569 1.75914E+01 1.15219E-03-1.02702E-03 2.61380E-01-8.15018E-14 3.89399E-13
 -1      1570 1.79534E+01-9.38542E-03-7.50277E-04 2.53009E-01-7.42515E-14 2.34772E-13
 -1      1571 1.82566E+01-5.00255E-03 5.13643E-03 4.82212E-01-1.28108E-13 3.53282E-13
 -1      1572 1.69551E+01 1.00879E-02-4.48772E-03 2.45221E-01-6.11880E-15 4.13718E-13
 -1      1573 1.73125E+01 2.73615E-03-1.92205E-03 2.45762E-01-2.15804E-14 3.51080E-13
 -1      1574 1.77142E+01 1.09361E-02 1.67218E-03 4.85891E-01-5.40791E-14 3.09395E-13
 -1      1575 1.64151E+01 1.90233E-02-7.98177E-03 1.90329E-01 3.94055E-14 4.86385E-13
 -1      1576 1.67163E+01 1.70787E-02-3.20897E-03 2.01858E-01-4.81919E-14 4.09712E-13
 -1      1577 1.72090E+01 2.89958E-02-3.02014E-03 4.21865E-01-2.62498E-14 2.63990E-13
 -1      1578 1.60625E+01 2.52784E-02-1.03108E-02 1.00949E-01-3.57483E-15 3.03159E-13
 -1      1579 1.62563E+01 3.00237E-02-4.11778E-03 1.22742E-01 1.19633E-13 4.80524E-13
 -1      1580 1.68177E+01 4.44645E-02-7.82658E-03 2.87734E-01 6.83897E-14 2.79055E-13
 -1      1581 1.59627E+01 2.66616E-02-1.04756E-02-7.93278E-03 1.11109E-13 1.90252E-13
 -1      1582 1.60130E+01 3.77488E-02-4.15178E-03 2.02795E-02 1.53133E-14 2.98807E-13
 -1      1583 1.66084E+01 5.24826E-02-1.13316E-02 1.00635E-01 1.03639E-13 2.93042E-13
 -1      1584 1.61341E+01 2.25839E-02-8.22441E-03-1.14632E-01 1.07288E-14-1.21370E-13
 -1      1585 1.60316E+01 3.79353E-02-3.09461E-03-8.58510E-02 8.05072E-14 8.04721E-14
 -1      1586 1.66197E+01 5.01945E-02-1.24574E-02-1.05273E-01 1.59036E-13 2.30774E-13
 -1      1587 1.65417E+01 1.43962E-02-4.24013E-03-1.98208E-01-1.03867E-13 2.04141E-13
 -1      1588 1.63072E+01 3.08626E-02-1.17822E-03-1.74617E-01-1.77964E-13-3.97182E-14
 -1      1589 1.68482E+01 3.81842E-02-1.09939E-02-2.89365E-01-2.15421E-13 1.09340E-13
 -1      1590 1.71087E+01 4.69946E-03 2.00627E-04-2.45515E-01 3.02191E-14 2.85367E-13
 -1      1591 1.67862E+01 1.91673E-02 1.00447E-03-2.30820E-01 6.70926E-15 3.53526E-13
 -1      1592 1.72494E+01 2.02307E-02-7.65591E-03-4.18390E-01-1.36868E-13 2.71989E-13
 -1      1593 1.77410E+01-3.88069E-03 3.85053E-03-2.54359E-01 9.92767E-14 2.86748E-13
 -1      1594 1.73839E+01 6.49029E-03 2.79535E-03-2.49368E-01 4.73613E-14 3.47021E-13
 -1      1595 1.77522E+01 1.54112E-03-3.64936E-03-4.76579E-01 3.01493E-14 4.52101E-13
 -1      1596 1.83520E+01-9.67487E-03 5.98431E-03-2.31929E-01 2.15640E-14 3.02596E-13
 -1      1597 1.80089E+01-4.07022E-03 3.76872E-03-2.34986E-01 4.90863E-14 2.91173E-13
 -1      1598 1.82801E+01-1.34290E-02-9.15469E-05-4.67627E-01 6.42166E-14 3.78723E-13
 -1      1599 1.88803E+01-1.22633E-02 6.52941E-03-1.90309E-01-5.84823E-14 1.51984E-13
 -1      1600 1.85854E+01-1.08652E-02 3.85631E-03-1.98482E-01-8.95852E-14 1.79164E-13
 -1      1601 1.87693E+01-2.23553E-02 2.36644E-03-4.09241E-01 2.12391E-14 3.20003E-13
 -1      1602 1.92948E+01-1.21726E-02 5.87194E-03-1.41822E-01 5.07886E-14 6.00431E-14
 -1      1603 1.90650E+01-1.37325E-02 3.27649E-03-1.52088E-01 9.34524E-14 2.39219E-13
 -1      1604 1.91786E+01-2.51764E-02 3.58919E-03-3.24505E-01-2.77447E-14 2.33501E-13
 -1      1605 1.95914E+01-1.03474E-02 4.55504E-03-9.59975E-02-4.41897E-14 1.54344E-13
 -1      1606 1.94284E+01-1.34771E-02 2.36092E-03-1.05998E-01-5.71821E-14 3.99880E-14
 -1      1607 1.94912E+01-2.33232E-02 3.78723E-03-2.34446E-01 2.79568E-14 4.38634E-13
 -1      1608 1.97844E+01-7.72459E-03 3.05646E-03-5.85489E-02 6.20129E-14 9.01705E-14
 -1      1609 1.96796E+01-1.12566E-02 1.40468E-03-6.68285E-02 2.75379E-14 3.26792E-14
 -1      1610 1.97096E+01-1.87430E-02 3.30421E-03-1.53993E-01 5.90934E-15 4.65726E-14
 -1      1611 1.98977E+01-5.02434E-03 1.70349E-03-3.17259E-02 2.66910E-14 1.16520E-13
 -1      1612 1.98371E+01-8.15894E-03 5.97380E-04-3.76444E-02 7.74361E-14 1.46724E-13
 -1      1613 1.98486E+01-1.31850E-02 2.47993E-03-9.11618E-02 7.47497E-14 2.79431E-14
 -1      1614 1.99570E+01-2.73366E-03 7.09382E-04-1.51423E-02 8.83654E-14-1.04181E-13
 -1      1615 1.99259E+01-5.05680E-03 4.13771E-05-1.86962E-02 1.04416E-13 8.12855E-14
 -1      1616 1.99285E+01-8.00121E-03 1.58536E-03-4.81061E-02 1.44966E-13 1.99826E-13
 -1      1617 1.99848E+01-1.27463E-03 2.01251E-04-6.56677E-03-1.92242E-14-2.85164E-13
 -1      1618 1.99706E+01-2.65019E-03-2.08760E-04-8.26888E-03 3.21176E-14-1.93339E-13
 -1      1619 1.99696E+01-4.19396E-03 8.20032E-04-2.26362E-02 9.19608E-14-3.83260E-14
 -1      1620 1.99963E+01-9.54653E-04-9.08314E-05-2.32411E-03 5.82720E-14-2.84176E-13
 -1      1621 1.99911E+01-1.52222E-03-1.78830E-04-3.09194E-03 3.12245E-14-2.77281E-13
 -1      1622 1.99892E+01-2.10436E-03 5.06171E-04-9.42187E-03 9.57082E-14-2.38389E-13
 -1      1623 1.99992E+01-8.69403E-04-9.51081E-06-3.40507E-04-1.12238E-13-9.66681E-14
 -1      1624 1.99992E+01-9.89508E-03 5.18730E-04-5.68670E-03-1.93300E-13 8.58507E-14
 -1      1625 1.99981E+01-4.62912E-03 1.65208E-04-4.47709E-03-2.06053E-13 6.21936E-14
 -1      1626 2.00020E+01-1.81151E-02 4.10580E-04-4.51295E-03-2.45322E-13-1.04919E-13
 -1      1627 2.00004E+01-1.36737E-02 3.01541E-04-4.78826E-03-1.91971E-13 5.24609E-14
 -1      1628 2.00009E+01-1.23429E-02 3.50594E-04-9.18845E-03-8.70828E-14 1.82616E-14
 -1      1629 2.00058E+01-1.04661E-02 1.08570E-04 5.49607E-03-5.55455E-13-1.90228E-13
 -1      1630 2.00040E+01-1.65028E-02 7.56681E-05 2.81803E-03-2.95040E-13-2.01912E-13
 -1      1631 2.00048E+01-1.64438E-02-1.09874E-03-5.08415E-04-1.41235E-13-2.27316E-13
 -1      1632 2.00084E+01 3.17619E-02-2.49006E-04 2.45767E-02-3.24008E-14 1.45043E-13
 -1      1633 2.00073E+01 4.42918E-03-3.30709E-04 2.01322E-02-5.81103E-13 2.14855E-13
 -1      1634 2.00107E+01-1.74114E-03-2.11437E-03 2.61818E-02-1.80079E-13-2.60215E-14
 -1      1635 2.00090E+01 1.19706E-01-5.19858E-04 4.87892E-02-1.33623E-13-1.22283E-13
 -1      1636 2.00092E+01 6.54131E-02-6.35321E-04 4.36566E-02 4.30336E-14-3.19987E-13
 -1      1637 2.00143E+01 4.50634E-02-2.86837E-03 6.71964E-02-1.33387E-13-3.76496E-14
 -1      1638 2.00069E+01 2.58558E-01-6.40799E-04 7.27818E-02 1.54328E-13 1.82830E-13
 -1      1639 2.00087E+01 1.75537E-01-7.93245E-04 6.81140E-02-4.41418E-14 1.95346E-13
 -1      1640 2.00145E+01 1.32891E-01-2.95123E-03 1.14011E-01 1.43087E-13-4.41503E-14
 -1      1641 2.00017E+01 4.34447E-01-5.21341E-04 8.82448E-02 8.11972E-14-2.49736E-13
 -1      1642 2.00052E+01 3.32792E-01-6.77907E-04 8.58933E-02 2.69728E-13 9.49863E-14
 -1      1643 2.00097E+01 2.62174E-01-2.17198E-03 1.53944E-01 2.30124E-13 1.19852E-13
 -1      1644 1.99943E+01 6.18544E-01-1.42797E-04 8.73724E-02 4.15238E-13 1.12089E-13
 -1      1645 1.99988E+01 5.16792E-01-2.65545E-04 8.88645E-02 2.76652E-13 1.40144E-13
 -1      1646 2.00001E+01 4.19014E-01-4.44581E-04 1.71384E-01 4.23007E-13-2.78471E-14
 -1      1647 1.99862E+01 7.70191E-01 4.28222E-04 6.51352E-02 1.45840E-13-1.95967E-13
 -1      1648 1.99906E+01 6.92966E-01 4.06793E-04 7.12454E-02 2.10256E-13-1.45738E-13
 -1      1649 1.99872E+01 5.77327E-01 1.98235E-03 1.53384E-01 3.70424E-13-1.17929E-13
 -1      1650 1.99802E+01 8.46549E-01 9.89271E-04 2.20942E-02-1.78597E-13-5.17944E-13
 -1      1651 1.99829E+01 8.18200E-01 1.18327E-03 3.22667E-02 1.69572E-13-2.07579E-13
 -1      1652 1.99744E+01 7.02403E-01 4.51619E-03 9.44761E-02 1.20556E-13-2.81103E-13
 -1      1653 1.99790E+01 8.18260E-01 1.23852E-03-3.26373E-02-4.04413E-13-5.17164E-16
 -1      1654 1.99785E+01 8.52713E-01 1.64860E-03-2.09758E-02-1.63423E-13-4.50767E-13
 -1      1655 1.99664E+01 7.59515E-01 6.33322E-03 2.32086E-03 6.05922E-14-4.75961E-13
 -1      1656 1.99847E+01 6.80273E-01 7.74400E-04-8.56703E-02-3.19204E-13 5.00557E-14
 -1      1657 1.99802E+01 7.76765E-01 1.51215E-03-7.55330E-02-4.75370E-13 2.54567E-13
 -1      1658 1.99673E+01 7.27069E-01 6.47485E-03-1.02575E-01-7.03994E-15 1.27207E-13
 -1      1659 1.99972E+01 4.63466E-01-7.20186E-04-1.16514E-01-7.28939E-14 2.67336E-13
 -1      1660 1.99894E+01 5.97486E-01 2.71439E-04-1.12679E-01-2.85230E-13 1.16384E-13
 -1      1661 1.99805E+01 6.03598E-01 4.45698E-03-1.89181E-01 1.75698E-13 1.09181E-13
 -1      1662 2.00142E+01 2.33470E-01-2.33750E-03-1.08429E-01 2.98629E-13 3.24548E-13
 -1      1663 2.00046E+01 3.61247E-01-1.97006E-03-1.14959E-01-9.84161E-14 1.64543E-13
 -1      1664 2.00036E+01 4.17651E-01 4.19947E-04-2.21445E-01 5.36468E-14 3.53567E-13
 -1      1665 2.00215E+01 7.63510E-02-6.25147E-04-5.90233E-02 8.25013E-13 1.77678E-13
 -1      1666 2.00144E+01 1.52218E-01-4.88540E-03-7.33777E-02 4.43211E-13 4.07768E-13
 -1      1667 2.00297E+01 2.35023E-01-2.38667E-03-1.77691E-01 2.09107E-13 5.21111E-13
 -1      1668 2.00409E+01 9.68572E-02-9.36987E-04-8.79985E-02 2.99046E-13 6.45168E-14
 -1      1669-5.01864E-01-1.52166E+01-1.61465E+00-2.68010E-01 5.79758E-13 3.00954E-13
 -1      1670-6.53811E-01-1.89707E+01-1.97405E+00 1.16326E+00 5.01932E-13-2.39253E-14
 -1      1671 2.54187E+00-6.39535E+00-9.52305E-01 2.11287E+00 1.39089E-12 1.04097E-12
 -1      1672 1.27084E+00-1.27690E+01-1.60874E+00 9.34069E-01 7.87814E-13 7.69954E-13
 -1      1673 1.05215E+01 1.45881E+00-2.08642E-01 7.12209E+00 1.49725E-12 9.18710E-13
 -1      1674 6.42341E+00-4.23132E+00-1.00610E+00 3.75054E+00 1.44551E-12 8.65419E-13
 -1      1675 2.19799E+01 7.14634E+00 5.49671E-01 1.21842E+01 1.00886E-12 6.73905E-13
 -1      1676 1.43262E+01 4.02731E+00-3.89918E-01 8.28029E+00 1.53122E-12 8.78742E-13
 -1      1677 3.81533E+01 7.80337E+00 1.27985E+00 1.46591E+01 3.61544E-13-2.28706E-14
 -1      1678 2.75689E+01 8.24559E+00 3.90087E-01 1.31037E+01 9.06608E-13 5.54889E-13
 -1      1679 5.24657E+01 5.39783E+00 1.72337E+00 1.09219E+01-1.54113E-14-4.01679E-13
 -1      1680 4.37974E+01 7.52433E+00 1.17629E+00 1.36526E+01 6.18394E-14-1.08580E-13
 -1      1681 5.90942E+01 3.89088E+00 1.79445E+00 2.26457E+00 2.49800E-14-7.13457E-13
 -1      1682 5.55097E+01 5.10282E+00 1.64086E+00 8.16961E+00-1.68754E-14-4.33986E-13
 -1      1683 5.51909E+01 5.14500E+00 1.56217E+00-7.30818E+00 5.07983E-13-1.37562E-12
 -1      1684 5.85076E+01 4.10183E+00 1.73305E+00-1.00306E+00 2.62623E-13-1.01166E-12
 -1      1685 4.32523E+01 7.68736E+00 1.12675E+00-1.37593E+01 7.66970E-13-1.62337E-12
 -1      1686 5.27613E+01 5.36430E+00 1.74374E+00-1.07371E+01 5.67525E-13-1.56597E-12
 -1      1687 2.75922E+01 7.61579E+00 3.24348E-01-1.24955E+01 8.63976E-13-1.32339E-12
 -1      1688 3.75881E+01 7.39631E+00 1.17982E+00-1.40475E+01 7.83540E-13-1.52367E-12
 -1      1689 1.37257E+01 3.83675E+00-4.54931E-01-8.05725E+00 9.08162E-13-8.65197E-13
 -1      1690 2.15742E+01 6.99915E+00 4.66710E-01-1.21111E+01 9.37805E-13-1.10623E-12
 -1      1691 5.57683E+00-3.73747E+00-1.08812E+00-3.37146E+00 6.72351E-13-5.31464E-13
 -1      1692 9.29762E+00 1.79872E+00-3.01252E-01-6.62978E+00 8.78186E-13-6.75460E-13
 -1      1693 1.33834E+00-1.22975E+01-1.59262E+00-8.29940E-01 6.42819E-13-1.18267E-13
 -1      1694 2.59285E+00-6.10319E+00-9.64602E-01-2.01971E+00 6.50813E-13-2.62346E-13
 -1      1695-4.93728E-01-1.81940E+01-1.87193E+00-1.18683E+00 3.10307E-14-3.28598E-13
 -1      1696-2.71673E-01-1.42870E+01-1.50036E+00-2.00194E-02 4.55969E-13-3.20632E-13
 -1      1697-1.30228E+00-1.88754E+01-1.96936E+00-2.60374E+00-4.27450E-13-1.93845E-13
 -1      1698-9.62418E-01-1.89908E+01-1.87511E+00-7.11044E-01-4.60465E-14-2.19935E-13
 -1      1699-9.17558E-01-1.42375E+01-1.93349E+00-2.87963E+00-7.10654E-13-4.11601E-13
 -1      1700-8.11318E-01-1.84673E+01-2.15053E+00-2.29438E+00-5.13756E-13-2.36589E-13
 -1      1701 3.54613E+00-5.97240E+00-1.54936E+00 6.60547E-01-8.00915E-13-6.57474E-13
 -1      1702 1.23698E+00-1.22194E+01-2.15342E+00-1.73100E+00-6.82898E-13-4.17111E-13
 -1      1703 1.52636E+01 1.07434E+00-7.03959E-01 6.82909E+00-9.52127E-13-1.17462E-12
 -1      1704 8.26882E+00-3.97519E+00-1.74160E+00 2.34662E+00-7.86926E-13-8.38329E-13
 -1      1705 3.55407E+01 4.15040E+00 7.43327E-01 1.16024E+01-8.13682E-13-9.64562E-13
 -1      1706 2.23591E+01 2.44438E+00-7.73587E-01 7.87172E+00-1.00808E-12-1.17861E-12
 -1      1707 5.76520E+01 3.38032E+00 2.42524E+00 8.09510E+00-2.65038E-13-5.38902E-13
 -1      1708 4.34990E+01 4.47901E+00 8.99506E-01 9.30838E+00-6.10956E-13-8.31335E-13
 -1      1709 6.89818E+01 3.91340E+00 3.58729E+00 1.04629E+00-3.92686E-13 3.57492E-13
 -1      1710 6.18269E+01 4.81084E+00 2.67054E+00 6.73518E+00-3.46279E-13-2.56684E-13
 -1      1711 6.79087E+01 4.64730E+00 3.57601E+00-6.64037E+00-5.43676E-13 1.16618E-12
 -1      1712 7.18559E+01 3.79026E+00 3.93142E+00-8.81243E-02-4.26881E-13 5.24830E-13
 -1      1713 5.19611E+01 5.21683E+00 1.85604E+00-1.09058E+01-5.50671E-13 1.29852E-12
 -1      1714 6.43829E+01 3.88118E+00 3.34904E+00-8.38565E+00-3.65721E-13 1.31539E-12
 -1      1715 3.05575E+01 3.65412E+00-1.11083E-01-9.37510E+00-9.54792E-14 8.11351E-13
 -1      1716 4.48828E+01 4.35471E+00 1.61065E+00-1.17829E+01-3.53606E-13 1.29319E-12
 -1      1717 1.45958E+01-4.11942E-01-1.25523E+00-5.24522E+00-2.83773E-13 2.76890E-13
 -1      1718 2.30255E+01 3.00103E+00-1.28386E-01-9.28394E+00-1.68532E-13 6.35048E-13
 -1      1719 5.95795E+00-7.07122E+00-1.67667E+00-9.65945E-01-2.70894E-14 2.16605E-13
 -1      1720 1.00173E+01-2.17205E+00-1.06704E+00-4.18889E+00-2.53575E-13 5.92859E-14
 -1      1721 1.16263E+00-1.31232E+01-2.01359E+00 1.76243E+00 3.48166E-13 8.34610E-14
 -1      1722 2.40671E+00-8.06118E+00-1.57245E+00 3.85810E-01 4.19664E-14 3.25073E-13
 -1      1723 9.65985E+00-8.27568E+00-1.14747E+00-4.07016E+00 2.83107E-14 3.15886E-13
 -1      1724-7.79117E-01-1.84166E+01-2.07400E+00 2.20224E+00 6.07792E-13-7.43849E-15
 -1      1725-1.07395E+00-1.51399E+01-1.93435E+00 2.86832E+00 4.05675E-13 6.98192E-14
 -1      1726-9.84356E-01-1.91511E+01-1.90417E+00 8.67237E-01 2.77223E-13-2.51466E-13
 -1      1727-1.26598E+00-1.87427E+01-1.93815E+00 2.57511E+00 5.37237E-13-3.04035E-13
 -1      1728 2.51618E+01 1.40374E+00-1.58356E+00 8.07227E-01-3.46223E-13-1.20425E-12
 -1      1729 2.68259E+01 1.11050E+00-1.30525E+00 1.70060E+00-2.59015E-13-1.64918E-12
 -1      1730-1.77051E+00-1.30537E+01-1.38828E+00 1.80637E+00 3.80862E-13-1.13354E-13
 -1      1731 1.80285E+01-1.98489E+00-1.84232E-01 8.02995E+00 9.12048E-13 3.17191E-13
 -1      1732 3.61798E+01 3.34971E+00-2.62096E-01-1.67051E+00-6.69020E-13-2.97540E-13
 -1      1733 1.99979E+01-1.84943E-03 3.66045E-04-2.57390E-03-1.43535E-13-2.76266E-14
 -1      1734 1.99948E+01-5.38202E-03-1.54019E-04-7.26743E-03 4.37215E-14-3.26354E-14
 -1      1735 1.33225E+00-1.03998E+01-1.07621E+00 4.06674E+00 4.89497E-13 8.58924E-13
 -1      1736 8.77130E+00-6.19056E+00-5.50556E-01 6.71906E+00 6.82010E-13 8.29031E-13
 -1      1737 2.86395E+01 2.96119E+00 4.17727E-01 8.99507E+00 7.74270E-13-4.37428E-14
 -1      1738 4.00368E+01 6.13905E+00 1.07146E+00 8.34519E+00 3.81126E-13-3.08198E-13
 -1      1739 4.81973E+01 7.59173E+00 1.45488E+00 4.96150E+00 1.15047E-13-6.28719E-13
 -1      1740 5.01167E+01 8.47840E+00 1.49062E+00 3.02940E-01 3.21410E-13-9.36723E-13
 -1      1741 4.77533E+01 7.87888E+00 1.42854E+00-4.54439E+00 5.72653E-13-1.06659E-12
 -1      1742 3.97628E+01 5.76890E+00 9.94206E-01-7.69864E+00 5.82603E-13-1.34803E-12
 -1      1743 2.86454E+01 2.65373E+00 4.67414E-01-8.67202E+00 5.56055E-13-1.12987E-12
 -1      1744 1.72277E+01-1.43834E+00-1.56832E-01-8.05917E+00 5.35905E-13-5.99965E-13
 -1      1745 8.04801E+00-6.06462E+00-6.75333E-01-6.25195E+00 4.07785E-13-4.46823E-13
 -1      1746 1.57172E+00-1.00999E+01-1.08075E+00-4.15692E+00 2.69895E-13-3.63903E-13
 -1      1747-1.60504E+00-1.26456E+01-1.33330E+00-2.11548E+00-3.61378E-14-4.63407E-13
 -1      1748-1.46487E+00-1.30466E+01-1.49722E+00-2.65845E-01-2.97873E-13-3.21854E-13
 -1      1749 2.82890E+00-1.10948E+01-1.46849E+00 1.81681E+00-3.05089E-13-3.42046E-13
 -1      1750 1.19904E+01-7.24537E+00-1.09374E+00 4.12623E+00-3.14304E-13-5.79481E-13
 -1      1751 2.58937E+01-3.29394E+00-3.28799E-01 5.42897E+00-5.30687E-13-6.10845E-13
 -1      1752 4.20653E+01 6.71522E-01 9.89416E-01 3.28988E+00-6.77236E-13-5.05818E-13
 -1      1753 5.18931E+01 5.20742E+00 1.93064E+00-7.68680E-01-4.70624E-13-1.34559E-13
 -1      1754 5.71695E+01 8.31015E+00 2.75247E+00-6.21537E-01-6.81677E-13 2.42667E-13
 -1      1755 5.72825E+01 6.64340E+00 2.78796E+00-1.60495E+00-5.01654E-13 6.53699E-13
 -1      1756 4.71638E+01 2.40287E+00 1.46049E+00-3.15470E+00-8.52096E-15 4.93827E-13
 -1      1757 3.28782E+01-1.81113E+00 1.37022E-01-5.01856E+00 1.59428E-13 5.68212E-13
 -1      1758 1.92318E+01-5.49913E+00-7.51426E-01-5.04752E+00-1.09468E-13 1.42664E-13
 -1      1759-1.52631E+00-1.29775E+01-1.47062E+00 2.83767E-01 1.42747E-13-1.54377E-13
 -1      1760 3.42496E+01 1.70884E+00-5.27607E-01 4.45569E+00-2.96541E-13-8.62088E-13
 -1      1761 2.28602E+01 1.98477E+00-2.35606E-02-2.72212E+00-1.81907E-13 5.02098E-13
 -1      1762 2.34677E+00-1.12227E+01-1.41103E+00-1.67258E+00 1.65534E-13 2.98817E-13
 -1      1763 1.98224E+01 3.71860E+00-3.49121E-02-2.15449E+00-1.70666E-13-2.89636E-13
 -1      1764 2.00517E+01 3.56058E+00-4.29480E-02-2.44099E+00-2.21023E-13-2.36283E-13
 -1      1765 2.03656E+01 3.18229E+00-4.52048E-02-2.58452E+00-2.32820E-13-1.67436E-13
 -1      1766 2.05846E+01 2.80913E+00-1.42604E-01-2.85278E+00-2.64160E-13-6.39766E-14
 -1      1767 2.04303E+01 2.69106E+00-3.10433E-03-2.22075E+00-2.41189E-13-1.78822E-13
 -1      1768 1.93546E+01 4.18924E+00-2.02008E-02-1.26999E+00-4.32692E-14-3.87620E-13
 -1      1769 1.94280E+01 4.14950E+00-1.71859E-02-1.49438E+00-7.11250E-14-3.84109E-13
 -1      1770 1.92578E+01 4.29501E+00-1.68098E-02-8.59239E-01 6.46358E-15-3.84151E-13
 -1      1771 1.93005E+01 4.27105E+00-1.43604E-02-1.06996E+00-1.53191E-14-3.90538E-13
 -1      1772 1.95263E+01 3.78331E+00-9.30661E-03-1.11904E+00-3.54600E-14-3.72674E-13
 -1      1773 1.92061E+01 4.35549E+00-1.48065E-02-4.66525E-01 5.88288E-14-3.51800E-13
 -1      1774 1.92281E+01 4.34263E+00-1.33218E-02-6.66746E-01 3.17332E-14-3.66446E-13
 -1      1775 1.94290E+01 3.90376E+00-9.21705E-03-7.32789E-01 2.38102E-14-3.59240E-13
 -1      1776 1.91866E+01 4.38112E+00-1.36679E-02-8.35591E-02 1.12030E-13-3.43501E-13
 -1      1777 1.91931E+01 4.37720E+00-1.32158E-02-2.78914E-01 9.05759E-14-3.54303E-13
 -1      1778 1.93786E+01 3.96830E+00-9.15944E-03-3.58069E-01 7.70829E-14-3.35962E-13
 -1      1779 1.91947E+01 4.37583E+00-1.31676E-02 2.97990E-01 1.60754E-13-3.14110E-13
 -1      1780 1.91871E+01 4.38029E+00-1.37502E-02 1.02477E-01 1.34164E-13-3.33514E-13
 -1      1781 1.93638E+01 3.98773E+00-9.14274E-03 1.05736E-02 1.31597E-13-3.24778E-13
 -1      1782 1.92322E+01 4.33860E+00-1.33242E-02 6.86531E-01 2.02171E-13-2.83920E-13
 -1      1783 1.92089E+01 4.35231E+00-1.49165E-02 4.85810E-01 1.85886E-13-3.06496E-13
 -1      1784 1.93813E+01 3.96500E+00-9.18209E-03 3.79394E-01 1.83165E-13-2.97087E-13
 -1      1785 1.93060E+01 4.26514E+00-1.43958E-02 1.08406E+00 2.49027E-13-2.19698E-13
 -1      1786 1.92625E+01 4.28960E+00-1.69771E-02 8.76139E-01 2.25545E-13-2.55318E-13
 -1      1787 1.94343E+01 3.89743E+00-9.18915E-03 7.51352E-01 2.23420E-13-2.53087E-13
 -1      1788 1.94378E+01 4.13788E+00-1.74127E-02 1.51409E+00 3.00181E-13-1.39382E-13
 -1      1789 1.93613E+01 4.18040E+00-2.05073E-02 1.28457E+00 2.69280E-13-1.87003E-13
 -1      1790 1.95343E+01 3.77333E+00-9.24112E-03 1.13502E+00 2.82075E-13-1.84748E-13
 -1      1791 1.96665E+01 3.92164E+00-2.53224E-02 1.97912E+00 3.29657E-13-1.27016E-14
 -1      1792 1.95341E+01 3.99832E+00-2.69123E-02 1.72184E+00 3.09415E-13-8.71594E-14
 -1      1793 1.97077E+01 3.56603E+00-8.83751E-03 1.53496E+00 3.21017E-13-8.99367E-14
 -1      1794 2.00794E+01 3.52253E+00-4.43060E-02 2.47542E+00 3.43031E-13 1.82819E-13
 -1      1795 1.98414E+01 3.68394E+00-3.79572E-02 2.18052E+00 3.30548E-13 5.96502E-14
 -1      1796 2.00031E+01 3.22180E+00-6.25452E-03 1.93122E+00 3.49450E-13 3.28574E-14
 -1      1797 2.09195E+01 2.66958E+00-6.21157E-02 2.85480E+00 3.00547E-13 5.23685E-13
 -1      1798 2.04132E+01 3.10032E+00-4.96672E-02 2.61277E+00 3.16504E-13 3.20868E-13
 -1      1799 2.04989E+01 2.60879E+00-6.82689E-04 2.23800E+00 3.39593E-13 2.51292E-13
 -1      1800 2.17302E+01 1.21145E+00-1.23382E-01 2.32827E+00 2.27825E-13 9.11438E-13
 -1      1801 2.12779E+01 2.27248E+00 3.29982E-03 2.74113E+00 2.58557E-13 6.64191E-13
 -1      1802 2.09595E+01 1.68903E+00-1.37153E-02 2.14492E+00 3.02831E-13 5.16198E-13
 -1      1803 2.09604E+01 7.78680E-01-6.06126E-02 1.52307E+00 2.26409E-13 8.36034E-13
 -1      1804 2.17984E+01 2.45795E+00 9.08950E-02-3.04773E+00-2.35189E-13 1.47465E-13
 -1      1805 2.01207E+01 2.99566E-01-4.93922E-03 6.62388E-01 1.70138E-13 6.92059E-13
 -1      1806 2.06512E+01 4.38331E-01-1.43024E-02 1.03277E+00 1.85602E-13 7.66175E-13
 -1      1807 2.07490E+01 8.47064E-01 5.41190E-03 1.40828E+00 2.34830E-13 5.73205E-13
 -1      1808 3.84480E+00-8.24289E+00-5.20537E-01-3.04421E+00 1.19127E-13 1.20348E-13
 -1      1809 7.41136E+00-7.13859E+00-3.43172E-01-4.41071E+00 1.63092E-13 1.94011E-13
 -1      1810 2.15089E+01 1.74226E+00 7.95270E-02-2.33688E+00-2.48378E-13 6.38101E-14
 -1      1811 2.05224E+01 5.00853E-01 3.24937E-02-9.21039E-01-2.03636E-13 5.38988E-14
 -1      1812 2.00911E+01 3.52081E-01 7.66677E-03-6.29094E-01-1.76376E-13 8.33708E-15
 -1      1813 1.98968E+01 2.57323E-01 2.74364E-02-3.90708E-01-1.62775E-13 1.13598E-14
 -1      1814 1.97060E+01 1.78087E-01 1.04208E-02-2.52871E-01-1.27235E-13-3.52635E-14
 -1      1815 2.02007E+01 4.83412E-01-5.90807E-03-7.21906E-01-1.95456E-13-5.11227E-14
 -1      1816 1.95841E+01 1.32779E-01 1.66506E-02-1.19288E-01-9.21520E-14-3.17229E-14
 -1      1817 1.95062E+01 9.31249E-02 6.95183E-03-4.84772E-02-7.05113E-14-6.31769E-14
 -1      1818 1.98751E+01 2.43954E-01-5.80635E-03-2.94886E-01-1.32488E-13-4.42888E-14
 -1      1819 1.94416E+01 6.84444E-02 8.67806E-03 2.50796E-02-7.05761E-14-7.81783E-14
 -1      1820 1.94273E+01 4.67488E-02 4.10964E-03 6.12714E-02-5.10206E-14-9.57010E-14
 -1      1821 1.96928E+01 1.25326E-01-4.64811E-03-5.79894E-02-8.86689E-14-7.88072E-14
 -1      1822 1.94014E+01 3.24082E-02 4.23333E-03 9.99950E-02-6.23333E-14-1.11898E-13
 -1      1823 1.94214E+01 1.99707E-02 2.43618E-03 1.16780E-01-8.19396E-14-1.63856E-13
 -1      1824 1.96066E+01 6.09719E-02-3.46494E-03 7.16326E-02-7.44831E-14-1.36406E-13
 -1      1825 1.94199E+01 1.13355E-02 1.85390E-03 1.34721E-01-8.89459E-14-1.48527E-13
 -1      1826 1.94572E+01 4.16266E-03 1.45525E-03 1.40162E-01-7.87338E-14-1.65464E-13
 -1      1827 1.95827E+01 2.40927E-02-2.34080E-03 1.38076E-01-8.81315E-14-1.67775E-13
 -1      1828 1.94699E+01-1.02406E-03 5.54645E-04 1.45581E-01-8.33995E-14-1.50790E-13
 -1      1829 1.95144E+01-4.99230E-03 8.45333E-04 1.44392E-01-7.37596E-14-1.48778E-13
 -1      1830 1.95967E+01 2.58221E-03-1.44185E-03 1.66456E-01-7.42275E-14-1.44295E-13
 -1      1831 1.95347E+01-7.96833E-03-1.64838E-04 1.42425E-01-7.36584E-14-1.47800E-13
 -1      1832 1.95804E+01-9.90611E-03 4.54407E-04 1.37550E-01-6.86089E-14-1.33815E-13
 -1      1833 1.96318E+01-9.63957E-03-7.98904E-04 1.71939E-01-7.29555E-14-1.29937E-13
 -1      1834 1.96038E+01-1.14224E-02-5.48391E-04 1.31513E-01-1.06826E-13-1.55550E-13
 -1      1835 1.96473E+01-1.20522E-02 2.09212E-04 1.24859E-01-6.24598E-14-2.27184E-13
 -1      1836 1.96771E+01-1.59699E-02-3.70271E-04 1.64139E-01-1.08517E-13-1.61509E-13
 -1      1837 1.96713E+01-1.25945E-02-7.25094E-04 1.16935E-01-2.02825E-14-2.74440E-13
 -1      1838 1.97109E+01-1.23799E-02 6.83536E-05 1.09751E-01-5.49056E-15-2.69961E-13
 -1      1839 1.97257E+01-1.84769E-02-1.02240E-04 1.49335E-01-7.83711E-14-1.70518E-13
 -1      1840 1.97338E+01-1.22704E-02-7.70978E-04 1.01390E-01-6.82676E-15-2.70976E-13
 -1      1841 1.97688E+01-1.15098E-02 6.00266E-06 9.45002E-02-1.99066E-14-2.81913E-13
 -1      1842 1.97735E+01-1.84839E-02 5.00267E-05 1.31688E-01-3.69225E-16-1.82204E-13
 -1      1843 1.97900E+01-1.09587E-02-7.34020E-04 8.66729E-02-3.33688E-14-2.70670E-13
 -1      1844 1.98206E+01-9.83342E-03 6.69599E-06 8.06279E-02-2.82168E-14-2.46839E-13
 -1      1845 1.98184E+01-1.68450E-02 1.19630E-04 1.13980E-01-2.88082E-14-1.68655E-13
 -1      1846 1.98400E+01-8.96600E-03-6.45095E-04 7.40056E-02-1.57485E-14-2.25221E-13
 -1      1847 1.98667E+01-7.56466E-03 6.38564E-05 6.91978E-02 5.85721E-15-1.45046E-13
 -1      1848 1.98595E+01-1.40845E-02 1.29701E-04 9.81019E-02 1.91644E-15-1.01827E-13
 -1      1849 1.98846E+01-6.43408E-03-5.23496E-04 6.42916E-02-5.64904E-14-1.77750E-13
 -1      1850 1.99086E+01-4.76165E-03 1.79971E-04 6.10524E-02-4.45598E-14-1.82932E-13
 -1      1851 1.98970E+01-1.04665E-02 9.56107E-05 8.54169E-02-6.49354E-14-1.70002E-13
 -1      1852 1.99254E+01-3.35122E-03-3.80097E-04 5.83366E-02-3.72944E-14-2.04616E-13
 -1      1853 1.99481E+01-1.32430E-03 3.68195E-04 5.70290E-02-2.15698E-14-2.18339E-13
 -1      1854 1.99320E+01-6.01968E-03 2.67758E-05 7.70564E-02-6.27268E-14-1.54073E-13
 -1      1855 1.99650E+01 4.61505E-04-2.19357E-04 5.70672E-02-3.83820E-14-2.42697E-13
 -1      1856 1.99881E+01 3.03510E-03 6.55738E-04 5.81921E-02-3.48235E-14-2.39526E-13
 -1      1857 1.99660E+01-5.24171E-04-7.18465E-05 7.41988E-02-5.61634E-14-1.11481E-13
 -1      1858 2.00062E+01 5.39383E-03-4.07310E-05 6.17840E-02 1.77438E-14-2.63340E-13
 -1      1859 2.00323E+01 8.85670E-03 1.08966E-03 6.61183E-02 5.92476E-15-2.53494E-13
 -1      1860 2.00011E+01 6.54585E-03-1.98207E-04 7.83723E-02-1.82475E-14-9.04112E-14
 -1      1861 2.00530E+01 1.21311E-02 1.60004E-04 7.44947E-02-2.63244E-14-2.44917E-13
 -1      1862 2.00856E+01 1.70488E-02 1.74586E-03 8.32875E-02 2.84304E-14-2.10557E-13
 -1      1863 2.00401E+01 1.61386E-02-3.50986E-04 9.18307E-02 2.90487E-14-1.51842E-13
 -1      1864 2.01108E+01 2.17992E-02 3.88541E-04 9.83865E-02 7.10935E-14-2.08072E-13
 -1      1865 2.01545E+01 2.90774E-02 2.74154E-03 1.13653E-01 8.75697E-14-2.04154E-13
 -1      1866 2.00865E+01 2.98269E-02-5.25929E-04 1.18064E-01 2.85669E-14-7.93390E-14
 -1      1867 2.01867E+01 3.61962E-02 6.47003E-04 1.38521E-01 9.99223E-14-2.15986E-13
 -1      1868 2.02484E+01 4.72596E-02 4.25118E-03 1.63487E-01 8.99744E-14-1.57300E-13
 -1      1869 2.01448E+01 5.01327E-02-7.09267E-04 1.62525E-01 1.33682E-13-1.54373E-13
 -1      1870 2.02903E+01 5.82014E-02 9.41483E-04 2.02896E-01 1.71746E-14-1.93542E-13
 -1      1871 2.03805E+01 7.53157E-02 6.69342E-03 2.42556E-01 1.83959E-14-1.95133E-13
 -1      1872 2.02205E+01 8.10299E-02-8.71801E-04 2.33664E-01 8.90816E-14-1.23495E-13
 -1      1873 2.04386E+01 9.31301E-02 1.16009E-03 3.07106E-01 2.38533E-14-2.32413E-13
 -1      1874 2.05790E+01 1.21259E-01 1.02043E-02 3.73982E-01 5.71721E-14-3.10242E-13
 -1      1875 2.03231E+01 1.29734E-01-1.12558E-03 3.48044E-01-1.23909E-14-1.14958E-13
 -1      1876 2.06504E+01 1.47567E-01 1.32606E-03 4.69616E-01 4.03054E-14-3.67776E-13
 -1      1877 2.08513E+01 1.88450E-01 1.48582E-02 5.69162E-01-2.97154E-14-3.14709E-13
 -1      1878 2.04589E+01 2.06391E-01-7.09264E-04 5.24599E-01 2.81272E-14-3.21173E-13
 -1      1879 2.09399E+01 2.28296E-01 7.92815E-04 7.13701E-01-4.72452E-14-2.34760E-13
 -1      1880 2.12369E+01 2.89403E-01 2.11608E-02 8.65987E-01-4.75765E-14-2.71499E-13
 -1      1881 2.06301E+01 3.20424E-01 1.05639E-04 7.86168E-01 5.80872E-15-3.39368E-13
 -1      1882 2.13403E+01 3.46888E-01-9.40648E-04 1.08013E+00-5.07944E-14-1.84036E-13
 -1      1883 2.17729E+01 4.32209E-01 2.82438E-02 1.30718E+00 3.31454E-14-1.87124E-13
 -1      1884 2.08420E+01 4.88037E-01 1.74310E-03 1.17387E+00-1.00493E-14-3.24275E-14
 -1      1885 2.18827E+01 5.07732E-01-4.82775E-03 1.61417E+00-2.70877E-14-1.58688E-13
 -1      1886 2.24964E+01 6.11402E-01 3.44075E-02 1.93533E+00-2.64060E-14-1.66937E-13
 -1      1887 2.10882E+01 7.17673E-01 4.56181E-03 1.73230E+00 1.63489E-14 1.15369E-14
 -1      1888 2.26014E+01 6.88817E-01-1.01116E-02 2.35096E+00-4.33611E-14-2.74308E-13
 -1      1889 2.34366E+01 7.71002E-01 3.76090E-02 2.75873E+00-1.42698E-14-2.31551E-13
 -1      1890 2.13503E+01 9.84979E-01 8.92537E-03 2.49917E+00-7.00950E-14-5.09874E-14
 -1      1891 2.35491E+01 7.86358E-01-8.35337E-03 3.26370E+00 5.27091E-14-2.28662E-13
 -1      1892 2.46200E+01 7.20703E-01 3.83796E-02 3.66281E+00 9.80912E-14-1.51369E-13
 -1      1893 2.16128E+01 1.16412E+00 1.53654E-02 3.46815E+00 3.82919E-14-1.74552E-14
 -1      1894 2.48654E+01 5.02120E-01 2.50521E-02 4.13687E+00 7.22911E-14-1.64667E-13
 -1      1895 2.61335E+01 1.83317E-02 4.37003E-02 4.23431E+00 1.10932E-13-1.36653E-13
 -1      1896 2.19429E+01 8.88882E-01 2.19469E-02 4.50719E+00 6.31752E-14-2.57971E-14
 -1      1897 2.69318E+01-7.36721E-01 1.22569E-01 4.32654E+00 2.38060E-13-1.95415E-13
 -1      1898 2.83429E+01-1.87549E+00 6.97889E-02 3.56471E+00 1.79412E-13-7.14186E-14
 -1      1899 2.27254E+01-5.73073E-01 1.81709E-02 5.22368E+00 1.48395E-13-5.73291E-14
 -1      1900 3.01546E+01-3.11537E+00 1.97327E-01 2.81280E+00 7.04020E-14-6.85563E-14
 -1      1901 3.15881E+01-4.09653E+00 9.67828E-02 1.04153E+00-1.83187E-14-1.28106E-13
 -1      1902 2.47173E+01-3.46278E+00-2.41047E-02 4.80994E+00 1.18766E-13-1.61399E-13
 -1      1903 1.03443E-01-7.86683E+00-3.72183E-01 2.88934E+00 3.69815E-13 2.75724E-13
 -1      1904-5.02656E-01-8.09825E+00-4.06355E-01 1.48940E+00 1.64403E-13-7.43849E-15
 -1      1905 3.50213E+01-3.14028E+00-5.23276E-02 2.66495E+00 2.91017E-13-4.15071E-13
 -1      1906 3.48446E+01-3.29169E+00 1.42982E-01 6.57801E-01 3.75464E-13-3.76449E-13
 -1      1907 3.14606E+01-2.85486E+00 2.22721E-02-1.61716E+00 2.47913E-13-4.53276E-13
 -1      1908 3.03661E+01-1.75874E+00 1.62249E-01-3.04701E+00 1.24220E-13-4.22065E-13
 -1      1909 2.88302E+01-7.92601E-01 3.63165E-02-3.66522E+00 2.81303E-14-3.60195E-13
 -1      1910 2.74217E+01-6.92536E-02 6.91704E-02-3.98529E+00 1.58627E-13-4.35971E-13
 -1      1911 2.56650E+01-1.96194E+00 2.47167E-02-4.60593E+00 1.81702E-13-1.83520E-13
 -1      1912 2.66907E+01 3.10952E-01 2.45650E-02-3.76912E+00 2.10994E-13-3.90490E-13
 -1      1913 2.53209E+01 5.46486E-01 5.46622E-03-3.52493E+00 8.93805E-14-2.62089E-13
 -1      1914 2.37667E+01 1.17778E-01 8.29334E-03-4.78467E+00 2.05377E-13-1.19592E-13
 -1      1915 2.49155E+01 6.02967E-01 2.58794E-02-3.05279E+00 6.98781E-14-1.04791E-13
 -1      1916 2.37796E+01 6.03018E-01-7.69371E-03-2.67517E+00 1.53733E-13 1.41900E-14
 -1      1917 2.27945E+01 8.72493E-01 3.42544E-03-3.98597E+00 1.59649E-13-5.20348E-14
 -1      1918 2.34814E+01 5.47549E-01 2.85182E-02-2.22058E+00 1.86275E-14-8.05796E-14
 -1      1919 2.26241E+01 4.78795E-01-4.15326E-03-1.89004E+00-1.68856E-13-2.96695E-13
 -1      1920 2.21298E+01 9.00064E-01 6.69107E-04-2.98941E+00 1.50340E-14-9.84330E-14
 -1      1921 2.23771E+01 4.07555E-01 2.68303E-02-1.53455E+00-1.09203E-13-2.98308E-13
 -1      1922 2.17642E+01 3.37437E-01 3.35959E-04-1.29144E+00-1.51056E-13-3.11345E-13
 -1      1923 2.15856E+01 7.02204E-01-5.65020E-04-2.12220E+00-1.73245E-13-2.20501E-13
 -1      1924 2.15614E+01 2.80208E-01 2.20049E-02-1.03689E+00-1.23840E-13-1.76380E-13
 -1      1925 2.11368E+01 2.27507E-01 2.65980E-03-8.70114E-01-9.47263E-14-6.36610E-14
 -1      1926 2.11320E+01 4.92662E-01-1.10113E-03-1.46522E+00-5.08031E-14-8.62525E-14
 -1      1927 2.09763E+01 1.89097E-01 1.64256E-02-6.93611E-01-1.09190E-13-4.99855E-14
 -1      1928 2.06883E+01 1.55477E-01 3.33532E-03-5.79940E-01-5.05151E-15-1.55509E-13
 -1      1929 2.07671E+01 3.33420E-01-1.46261E-03-9.97646E-01-6.95772E-14 4.57167E-14
 -1      1930 2.05659E+01 1.34116E-01 1.14913E-02-4.55340E-01 9.14646E-14-1.33710E-13
 -1      1931 2.03766E+01 1.16672E-01 3.39746E-03-3.72407E-01-1.42256E-13-1.47429E-13
 -1      1932 2.04849E+01 2.31107E-01-1.80173E-03-6.68473E-01-7.83223E-14 1.04221E-13
 -1      1933 2.02839E+01 1.08733E-01 7.20242E-03-2.77197E-01-3.38446E-13-5.86927E-14
 -1      1934 2.01669E+01 1.03072E-01 3.23174E-03-2.08306E-01-2.53018E-13-1.91129E-13
 -1      1935 2.02717E+01 1.77586E-01-2.67127E-03-4.26768E-01-2.22427E-13 1.54329E-13
 -1      1936 2.00885E+01 1.01118E-01 2.27930E-03-1.26109E-01 2.04347E-14-1.79965E-14
 -1      1937 1.95153E+01 1.12528E-01 9.63862E-03 1.26938E-01 1.30788E-13 4.70120E-13
 -1      1938 1.96309E+01 1.59020E-01 1.71433E-02 2.20724E-01 1.25669E-13 5.22693E-13
 -1      1939 1.93857E+01 5.76274E-02 6.11390E-03-1.42454E-02 1.13369E-13 4.01663E-13
 -1      1940 1.94214E+01 8.25561E-02 1.19781E-02 3.24682E-02 1.37558E-13 4.36541E-13
 -1      1941 1.97173E+01 1.54283E-01-4.68053E-03 1.53665E-01 1.60609E-13 2.75427E-13
 -1      1942 1.93542E+01 2.75121E-02 3.67503E-03-8.85912E-02 9.33927E-14 3.35924E-13
 -1      1943 1.93427E+01 4.14943E-02 6.24401E-03-6.54367E-02 9.38634E-14 3.77243E-13
 -1      1944 1.95834E+01 7.72964E-02-4.07457E-03-1.72978E-02 1.39055E-13 2.25289E-13
 -1      1945 1.93805E+01 9.94866E-03 2.23960E-03-1.23583E-01 4.72664E-14 2.88526E-13
 -1      1946 1.93442E+01 1.79876E-02 2.96896E-03-1.13749E-01 6.63753E-14 3.12929E-13
 -1      1947 1.95352E+01 3.46566E-02-2.90014E-03-1.08053E-01 9.67461E-14 2.15568E-13
 -1      1948 1.94376E+01-3.43134E-04 1.37045E-03-1.35287E-01 7.08095E-14 2.52441E-13
 -1      1949 1.93901E+01 4.21911E-03 1.19506E-03-1.33265E-01 4.00619E-14 2.58683E-13
 -1      1950 1.95385E+01 1.01609E-02-1.87869E-03-1.51251E-01 7.61622E-14 1.60212E-13
 -1      1951 1.95086E+01-6.13776E-03 8.15843E-04-1.33333E-01 6.83442E-15 2.77015E-13
 -1      1952 1.94580E+01-3.72759E-03 2.16742E-04-1.35811E-01 5.91197E-14 2.74983E-13
 -1      1953 1.95713E+01-3.91065E-03-1.10568E-03-1.65959E-01 5.89840E-14 1.54799E-13
 -1      1954 1.95833E+01-9.03557E-03 4.55841E-04-1.23790E-01 2.37001E-14 2.70138E-13
 -1      1955 1.95341E+01-7.99771E-03-3.21328E-04-1.28663E-01 1.12843E-14 2.72116E-13
 -1      1956 1.96193E+01-1.15745E-02-5.69912E-04-1.63847E-01 1.78774E-14 1.55673E-13
 -1      1957 1.96556E+01-1.00436E-02 2.27634E-04-1.10596E-01 9.25423E-14 2.13573E-13
 -1      1958 1.96102E+01-9.88468E-03-5.98035E-04-1.16492E-01 7.49202E-14 2.56699E-13
 -1      1959 1.96731E+01-1.51441E-02-2.20906E-04-1.52377E-01 7.52865E-14 1.24330E-13
 -1      1960 1.97222E+01-9.83022E-03 9.24134E-05-9.63190E-02 5.39109E-14 1.78826E-13
 -1      1961 1.96817E+01-1.02238E-02-7.12752E-04-1.02343E-01 8.42575E-14 2.22479E-13
 -1      1962 1.97273E+01-1.60696E-02-7.86302E-06-1.36423E-01 6.97508E-14 1.12929E-13
 -1      1963 1.97817E+01-8.85359E-03 2.28223E-05-8.26081E-02 5.38874E-14 1.56840E-13
 -1      1964 1.97464E+01-9.57759E-03-7.26616E-04-8.81929E-02 7.57261E-14 1.76287E-13
 -1      1965 1.97785E+01-1.53098E-02 1.09563E-04-1.19174E-01 8.11310E-14 1.18533E-13
 -1      1966 1.98341E+01-7.43741E-03-2.14042E-06-7.04768E-02 3.62936E-14 1.43709E-13
 -1      1967 1.98036E+01-8.33586E-03-6.79917E-04-7.52814E-02 2.38691E-14 1.80213E-13
 -1      1968 1.98253E+01-1.35212E-02 1.61397E-04-1.02675E-01 5.83654E-14 1.15547E-13
 -1      1969 1.98801E+01-5.82305E-03-1.43494E-07-6.04794E-02 2.50356E-15 1.25015E-13
 -1      1970 1.98537E+01-6.77917E-03-6.00320E-04-6.43299E-02 6.76526E-14 1.72992E-13
 -1      1971 1.98673E+01-1.11702E-02 1.69811E-04-8.81734E-02 3.31916E-14 1.64709E-13
 -1      1972 1.99206E+01-4.21186E-03 1.19886E-05-5.28147E-02-3.28386E-14 7.90418E-14
 -1      1973 1.98976E+01-5.12559E-03-5.07506E-04-5.56717E-02-2.49457E-14 8.97365E-14
 -1      1974 1.99047E+01-8.61165E-03 1.51521E-04-7.63277E-02 1.15851E-14 2.95580E-14
 -1      1975 1.99570E+01-2.80450E-03 1.59091E-05-4.73659E-02-8.17118E-14 1.10768E-13
 -1      1976 1.99364E+01-3.57137E-03-4.16202E-04-4.93167E-02-7.53215E-14 8.50035E-14
 -1      1977 1.99383E+01-6.15373E-03 1.19804E-04-6.73287E-02-3.62788E-14 2.29540E-15
 -1      1978 1.99902E+01-1.83985E-03-1.05088E-05-4.36801E-02 5.38912E-14 5.19644E-14
 -1      1979 1.99715E+01-2.32996E-03-3.38349E-04-4.49565E-02 7.23800E-15 6.60238E-14
 -1      1980 1.99688E+01-4.11893E-03 8.62182E-05-6.09353E-02-1.72426E-14 1.71068E-14
 -1      1981 2.00209E+01-1.63317E-03-9.50511E-05-4.08921E-02 6.01103E-14 2.86855E-14
 -1      1982 2.00038E+01-1.67085E-03-2.84661E-04-4.19114E-02 8.28793E-14 7.95162E-14
 -1      1983 1.99971E+01-2.90377E-03 6.21472E-05-5.64346E-02 7.05288E-14-7.98703E-14
 -1      1984 2.00490E+01-2.60818E-03-2.72016E-04-3.75948E-02 1.68869E-15 4.75559E-14
 -1      1985 2.00336E+01-1.95576E-03-2.65593E-04-3.90227E-02-7.33264E-15 6.56195E-14
 -1      1986 2.00236E+01-3.03514E-03 6.02271E-05-5.25314E-02 4.63796E-14-7.88073E-14
 -1      1987 2.00731E+01-5.31120E-03-5.80891E-04-3.16757E-02 3.24341E-14 1.17224E-13
 -1      1988 2.00606E+01-3.66405E-03-2.91620E-04-3.45014E-02 3.58087E-14 1.19458E-13
 -1      1989 2.00482E+01-5.21245E-03 9.56303E-05-4.71761E-02 1.84369E-16 7.77457E-14
 -1      1990 2.00902E+01-1.03850E-02-1.06113E-03-2.01604E-02 1.09216E-13 7.40613E-14
 -1      1991 2.00827E+01-7.39117E-03-3.72609E-04-2.57625E-02 7.29906E-14 8.45711E-14
 -1      1992 2.00697E+01-1.03127E-02 1.87050E-04-3.73655E-02 9.55603E-14 1.41981E-13
 -1      1993 2.00952E+01-1.84687E-02-1.74098E-03 8.57287E-04 5.84241E-14 1.96913E-13
 -1      1994 2.00964E+01-1.37923E-02-5.16085E-04-9.30548E-03 1.18447E-13 1.36659E-13
 -1      1995 2.00860E+01-1.93196E-02 3.56989E-04-1.89770E-02 7.38515E-14 2.05178E-13
 -1      1996 2.00802E+01-2.99806E-02-2.61860E-03 3.60631E-02-1.20232E-13 1.24758E-13
 -1      1997 2.00954E+01-2.34324E-02-7.24290E-04 1.92481E-02-2.47996E-14 1.72703E-13
 -1      1998 2.00929E+01-3.31214E-02 6.30518E-04 1.32410E-02-2.58146E-14 2.22875E-13
 -1      1999 2.00344E+01-4.47465E-02-3.63595E-03 9.03544E-02 8.67826E-14 1.21834E-13
 -1      2000 2.00707E+01-3.64994E-02-9.90178E-04 6.47935E-02-9.66727E-14 8.29878E-14
 -1      2001 2.00843E+01-5.21116E-02 1.03094E-03 6.53375E-02-6.67465E-14 1.14917E-13
 -1      2002 1.99447E+01-6.14770E-02-4.65045E-03 1.67636E-01 1.29939E-13 1.38979E-13
 -1      2003 2.00105E+01-5.23564E-02-1.29265E-03 1.31839E-01 2.46779E-13 1.42953E-13
 -1      2004 2.00515E+01-7.55541E-02 1.56986E-03 1.43232E-01 1.10325E-13 8.34631E-14
 -1      2005 1.97965E+01-7.72011E-02-5.41778E-03 2.68826E-01 4.71294E-14 1.65826E-14
 -1      2006 1.99003E+01-6.89760E-02-1.59114E-03 2.22864E-01 3.38243E-14 2.32116E-14
 -1      2007 1.99837E+01-1.00760E-01 2.22839E-03 2.50929E-01 2.08157E-13 7.61637E-14
 -1      2008 1.95770E+01-8.69420E-02-5.60788E-03 3.89179E-01-1.46075E-13 6.41503E-14
 -1      2009 1.97254E+01-8.24404E-02-1.81923E-03 3.35889E-01-1.63062E-14 5.31555E-14
 -1      2010 1.98685E+01-1.22317E-01 2.92792E-03 3.87748E-01-5.85192E-14 1.74429E-14
 -1      2011 1.92788E+01-8.41232E-02-4.88166E-03 5.15575E-01-1.40573E-13 2.24431E-13
 -1      2012 1.94737E+01-8.68935E-02-1.87589E-03 4.61655E-01-1.79885E-13 8.04382E-14
 -1      2013 1.96939E+01-1.31902E-01 3.49511E-03 5.44860E-01-2.11427E-13 1.03409E-13
 -1      2014 1.89060E+01-6.22481E-02-3.03578E-03 6.25184E-01-1.61892E-13 4.23251E-13
 -1      2015 1.91414E+01-7.55017E-02-1.62192E-03 5.81468E-01-1.30001E-13 3.24532E-13
 -1      2016 1.94524E+01-1.19446E-01 3.64022E-03 7.02159E-01-1.65906E-13 3.09533E-13
 -1      2017 1.84796E+01-1.79922E-02-1.78440E-04 6.87496E-01-9.32838E-14 3.70643E-13
 -1      2018 1.87387E+01-4.28415E-02-8.80568E-04 6.67540E-01-1.36534E-13 4.10294E-13
 -1      2019 1.91457E+01-7.63392E-02 2.99580E-03 8.27513E-01-1.20835E-13 4.59593E-13
 -1      2020 1.80399E+01 4.51571E-02 3.15860E-03 6.71339E-01 1.34481E-14 2.83005E-13
 -1      2021 1.82958E+01 1.15327E-02 5.03087E-04 6.87795E-01 1.03411E-14 3.29013E-13
 -1      2022 1.87913E+01-3.85270E-04 1.27004E-03 8.80916E-01-3.87397E-14 3.30080E-13
 -1      2023 1.76448E+01 1.14907E-01 6.11677E-03 5.56427E-01-1.97507E-14 3.24640E-13
 -1      2024 1.78630E+01 7.98986E-02 2.55951E-03 6.15800E-01 2.94283E-14 2.89659E-13
 -1      2025 1.84259E+01 9.93155E-02-1.51790E-03 8.25182E-01 2.38243E-15 3.43882E-13
 -1      2026 1.73584E+01 1.72361E-01 7.84937E-03 3.45342E-01 9.24235E-14 2.45859E-13
 -1      2027 1.75046E+01 1.46128E-01 5.04355E-03 4.43337E-01 3.20963E-14 2.61839E-13
 -1      2028 1.81029E+01 2.01195E-01-4.78945E-03 6.41498E-01 8.09253E-14 3.02961E-13
 -1      2029 1.72338E+01 1.99049E-01 7.93855E-03 6.90415E-02 1.55905E-13 2.35655E-13
 -1      2030 1.72830E+01 1.90401E-01 7.36654E-03 1.89507E-01 9.21208E-14 2.69926E-13
 -1      2031 1.78815E+01 2.76634E-01-7.46700E-03 3.43357E-01 7.66427E-14 2.29668E-13
 -1      2032 1.72964E+01 1.85665E-01 6.59333E-03-2.19631E-01 1.41449E-14 3.60047E-13
 -1      2033 1.72400E+01 1.97718E-01 8.71690E-03-1.00443E-01 2.05184E-13 3.37145E-13
 -1      2034 1.78079E+01 3.01343E-01-8.44991E-03-2.02497E-02 1.37094E-13 3.27617E-13
 -1      2035 1.75331E+01 1.36934E-01 4.47625E-03-4.63380E-01-2.52116E-13 2.21797E-13
 -1      2036 1.73822E+01 1.65457E-01 8.43917E-03-3.68683E-01-1.46577E-13 3.24316E-13
 -1      2037 1.78977E+01 2.66782E-01-7.32341E-03-3.77753E-01-4.01697E-14 3.66564E-13
 -1      2038 1.78975E+01 6.91006E-02 2.31410E-03-6.20271E-01-1.46067E-13 2.59728E-13
 -1      2039 1.76789E+01 1.04748E-01 6.42386E-03-5.64927E-01-2.50799E-13 2.07305E-13
 -1      2040 1.81296E+01 1.84534E-01-4.61693E-03-6.59642E-01-1.87323E-13 1.23715E-13
 -1      2041 1.83251E+01 1.92167E-03 5.89424E-04-6.75624E-01-6.59233E-15 3.82840E-13
 -1      2042 1.80737E+01 3.47079E-02 3.21495E-03-6.62561E-01-9.44655E-15 3.40443E-13
 -1      2043 1.84539E+01 8.04993E-02-1.43541E-03-8.21990E-01-1.10117E-13 7.02520E-14
 -1      2044 1.87528E+01-4.94589E-02-5.37764E-04-6.41410E-01 6.18418E-14 3.43959E-13
 -1      2045 1.85025E+01-2.63253E-02-2.63084E-04-6.63223E-01 7.82808E-14 3.74747E-13
 -1      2046 1.88111E+01-1.70361E-02 1.19659E-03-8.56955E-01 6.84206E-14 2.05920E-13
 -1      2047 1.91330E+01-7.84827E-02-1.12225E-03-5.46213E-01 2.54618E-14 4.19091E-13
 -1      2048 1.89097E+01-6.72024E-02-3.14183E-03-5.89964E-01 3.02184E-14 3.90306E-13
 -1      2049 1.91495E+01-8.80540E-02 2.77729E-03-7.87554E-01 2.82907E-14 3.24694E-13
 -1      2050 1.94392E+01-8.64045E-02-1.30133E-03-4.22712E-01 2.18679E-14 3.82791E-13
 -1      2051 1.92580E+01-8.54788E-02-4.92508E-03-4.74987E-01-4.31502E-14 3.63252E-13
 -1      2052 1.94355E+01-1.25215E-01 3.32795E-03-6.52976E-01-2.23870E-14 5.28968E-13
 -1      2053 1.96648E+01-7.89270E-02-1.21129E-03-2.98369E-01 1.04093E-13 1.90111E-13
 -1      2054 1.95298E+01-8.50411E-02-5.55203E-03-3.48610E-01 1.51205E-13 4.42483E-13
 -1      2055 1.96547E+01-1.31906E-01 3.14887E-03-4.93426E-01 9.34578E-14 2.14120E-13
 -1      2056 1.98165E+01-6.28218E-02-9.67168E-04-1.91303E-01 1.66916E-13 1.60040E-14
 -1      2057 1.97244E+01-7.24689E-02-5.26627E-03-2.33001E-01 7.81482E-14 6.84335E-14
 -1      2058 1.98079E+01-1.17184E-01 2.58112E-03-3.40347E-01 1.34657E-13 1.53595E-13
 -1      2059 1.99090E+01-4.38707E-02-6.45900E-04-1.10204E-01-7.53453E-14 1.92391E-13
 -1      2060 1.98515E+01-5.42522E-02-4.42251E-03-1.40638E-01 8.79785E-14 5.20535E-14
 -1      2061 1.99046E+01-9.11610E-02 1.87456E-03-2.13034E-01 8.56726E-14 1.47169E-13
 -1      2062 1.99592E+01-2.63614E-02-3.41398E-04-5.64063E-02 2.06525E-13 2.11528E-13
 -1      2063 1.99265E+01-3.54275E-02-3.34887E-03-7.57302E-02 8.84672E-14 1.66919E-13
 -1      2064 1.99585E+01-6.21180E-02 1.21941E-03-1.19574E-01 1.27546E-15 1.46392E-13
 -1      2065 1.99832E+01-1.33212E-02-4.27945E-05-2.61663E-02 1.28932E-13-2.08549E-14
 -1      2066 1.99663E+01-1.93627E-02-2.10055E-03-3.63237E-02 1.77451E-13 8.99366E-14
 -1      2067 1.99838E+01-3.60956E-02 7.97433E-04-5.99794E-02 3.16812E-13 1.16570E-13
 -1      2068 1.99923E+01-7.03843E-03-2.40602E-04-1.17583E-02 5.87916E-14-7.16035E-14
 -1      2069 1.99843E+01-9.54853E-03-1.14805E-03-1.67745E-02 1.43777E-13-1.56863E-14
 -1      2070 1.99919E+01-2.07632E-02-2.64924E-04-2.94011E-02 1.93095E-13 1.36324E-13
 -1      2071 1.99945E+01-1.03678E-02-2.26746E-04-1.45076E-02 2.74967E-14 1.20581E-13
 -1      2072 2.00402E+01-7.23703E-04 2.49309E-03 4.72161E-02-8.65578E-14-2.55167E-14
 -1      2073 2.00318E+01-1.80670E-02 4.55943E-04 2.63693E-02-4.94633E-14-2.60192E-13
 -1      2074 2.00235E+01-1.82163E-02 2.15111E-03 5.14872E-03 6.76735E-14-2.80966E-13
 -1      2075 2.00129E+01-2.32705E-02-2.91076E-04-6.28130E-03 5.24897E-14-1.70552E-13
 -1      2076 2.00406E+01-3.59171E-02-1.44022E-03 2.06766E-02 9.90175E-16-3.10460E-13
 -1      2077 2.00004E+01-1.32138E-02 8.98072E-04-1.42443E-02 7.17059E-14 1.22911E-14
 -1      2078 2.00494E+01 4.70942E-02 2.28090E-03 1.05817E-01-7.32496E-14-2.35656E-13
 -1      2079 2.00457E+01 1.29040E-02 1.06709E-03 7.89814E-02-2.08725E-13 2.69990E-13
 -1      2080 2.00627E+01-2.12205E-02-1.94722E-03 8.01794E-02-7.38341E-14 6.05744E-15
 -1      2081 2.00460E+01 1.33424E-01 1.41013E-03 1.70202E-01 2.74530E-13 1.68696E-13
 -1      2082 2.00495E+01 7.97924E-02 1.57644E-03 1.42937E-01 1.11273E-13 3.27952E-14
 -1      2083 2.00718E+01 2.55118E-02-2.30276E-03 1.58221E-01 2.49606E-14 7.58691E-14
 -1      2084 2.00268E+01 2.55183E-01-1.34444E-04 2.20791E-01 3.14019E-13 2.58143E-13
 -1      2085 2.00388E+01 1.86342E-01 1.78925E-03 2.02137E-01 1.45688E-13 2.70708E-13
 -1      2086 2.00607E+01 1.11416E-01-2.26456E-03 2.36828E-01 2.67510E-13 1.34013E-13
 -1      2087 1.99927E+01 3.99005E-01-2.09049E-03 2.37325E-01 2.53333E-13-2.70408E-14
 -1      2088 2.00122E+01 3.24603E-01 1.53384E-03 2.36017E-01 2.19558E-13-4.17151E-14
 -1      2089 2.00266E+01 2.33748E-01-1.56764E-03 2.91272E-01 1.47701E-13 1.47036E-13
 -1      2090 1.99499E+01 5.40907E-01-3.95510E-03 2.03648E-01 1.36564E-13-3.35980E-13
 -1      2091 1.99730E+01 4.75288E-01 7.35971E-04 2.25678E-01 1.60163E-13-2.66168E-14
 -1      2092 1.99729E+01 3.79188E-01-1.98686E-04 2.96939E-01-7.25291E-14-7.57391E-14
 -1      2093 1.99102E+01 6.50149E-01-5.04670E-03 1.14791E-01 4.59321E-14-2.78225E-13
 -1      2094 1.99300E+01 6.09216E-01-5.41984E-04 1.60340E-01 7.93561E-14-3.78391E-13
 -1      2095 1.99108E+01 5.23369E-01 1.66126E-03 2.36530E-01-1.34650E-13-3.84108E-13
 -1      2096 1.98886E+01 6.96638E-01-4.82054E-03-1.44087E-02 1.49105E-14-3.41472E-13
 -1      2097 1.98970E+01 6.92809E-01-2.12435E-03 4.54237E-02-9.54355E-14-2.64788E-13
 -1      2098 1.98590E+01 6.33849E-01 3.52647E-03 1.10294E-01-6.56041E-14-4.17610E-13
 -1      2099 1.98977E+01 6.63313E-01-3.11049E-03-1.57595E-01 2.26890E-13 2.26497E-13
 -1      2100 1.98886E+01 7.00932E-01-3.52285E-03-9.70428E-02 1.44549E-13 3.73271E-14
 -1      2101 1.98385E+01 6.81097E-01 4.88111E-03-6.11929E-02 6.91748E-14-6.06383E-14
 -1      2102 1.99445E+01 5.49612E-01-1.67817E-04-2.68294E-01 3.67162E-13 3.99672E-13
 -1      2103 1.99155E+01 6.21853E-01-4.43094E-03-2.28643E-01 2.62878E-13 6.84483E-14
 -1      2104 1.98663E+01 6.44713E-01 4.99597E-03-2.36410E-01 2.69373E-13 2.26595E-13
 -1      2105 2.00176E+01 3.77526E-01 1.39352E-03-2.99195E-01 2.00536E-13 1.86277E-13
 -1      2106 1.99802E+01 4.67782E-01-3.91017E-03-3.01365E-01 1.89697E-13 2.92689E-13
 -1      2107 1.99480E+01 5.24087E-01 4.09499E-03-3.58059E-01 2.12184E-13 1.73591E-13
 -1      2108 1.97267E+01 1.78653E-01 1.26229E-02 3.26601E-01 1.48177E-13 5.77670E-13
 -1      2109 1.99813E+01 2.56151E-01 1.69791E-02 5.04744E-01 1.52347E-13 6.42163E-13
 -1      2110 2.01786E+01 4.15320E-01-3.95042E-04 7.31725E-01 1.83735E-13 4.89705E-13
 -1      2111 1.99088E+01 2.63865E-01-3.77867E-03 4.02562E-01 1.84266E-13 4.02203E-13
 -1      2112 1.31095E+01-4.53353E+00-5.02567E-02 8.30816E+00 3.12195E-13 3.65027E-13
 -1      2113 8.64666E+00-6.28298E+00-2.83781E-01 7.04401E+00 9.50906E-14 8.37816E-13
 -1      2114 3.20602E+01 1.54208E+00 2.86434E-01 6.78165E+00 4.98074E-13-5.55000E-13
 -1      2115 2.66111E+01-7.44468E-01-1.25665E-01 6.61148E+00 4.49307E-13-4.02067E-13
 -1      2116 4.48658E+01 4.53827E+00 4.86805E-01-2.57302E+00-7.30860E-13 4.32432E-14
 -1      2117 4.21234E+01 5.08319E+00 1.13981E-01 1.15006E-01-6.91225E-13-2.72768E-13
 -1      2118 1.00737E+01-7.66509E+00-5.52878E-01-4.52196E+00 2.32259E-13 2.99205E-13
 -1      2119 1.40537E+01-6.61589E+00-3.47400E-01-5.56660E+00 9.02611E-14 2.83565E-13
 -1      2120 1.08664E+01-6.14018E+00-1.54234E-01-5.64628E+00 1.85851E-13 2.86132E-13
 -1      2121 1.95229E+01 4.01614E+00-2.56675E-02-1.70024E+00-1.00968E-13-3.66630E-13
 -1      2122 1.96513E+01 3.94258E+00-2.43472E-02-1.95538E+00-1.39506E-13-3.32241E-13
 -1      2123 1.99733E+01 3.25319E+00-8.05481E-03-1.90846E+00-1.67778E-13-2.88995E-13
 -1      2124 1.96935E+01 3.58330E+00-9.29198E-03-1.51696E+00-9.16205E-14-3.50721E-13
 -1      2125 3.74079E+01-3.08260E-01-1.13497E-01 4.97899E+00 3.54716E-13-4.26714E-13
 -1      2126 3.76264E+01-2.29629E+00-8.17258E-02 4.37720E+00 4.03289E-13-3.77226E-13
 -1      2127 3.96443E+01 4.98054E+00 3.97448E-01 4.91677E+00 2.39753E-13-6.52811E-13
 -1      2128 3.48547E+01 3.56539E+00 8.30908E-02 5.65519E+00 4.76480E-13-5.91305E-13
 -1      2129 4.34190E+01 7.20815E+00 3.06992E-01 1.86087E+00 1.32672E-13-9.73444E-13
 -1      2130 4.13568E+01 6.56195E+00 3.02553E-01 3.48563E+00 1.70225E-13-8.12628E-13
 -1      2131 4.20525E+01 8.42067E+00 1.49146E-01-5.24100E-01 4.46310E-13-1.11997E-12
 -1      2132 4.29296E+01 8.25223E+00 3.10921E-01 7.99285E-01 3.37674E-13-9.94732E-13
 -1      2133 4.03994E+01 6.44226E+00 2.05679E-01-2.94505E+00 5.08121E-13-1.03029E-12
 -1      2134 4.17296E+01 7.46713E+00 1.59455E-01-1.15899E+00 4.79006E-13-1.08136E-12
 -1      2135 3.45346E+01 3.24041E+00 1.80206E-03-4.53020E+00 5.22762E-13-9.67004E-13
 -1      2136 3.92880E+01 4.84965E+00 3.10781E-01-4.12348E+00 5.18155E-13-9.07940E-13
 -1      2137 3.68437E+01 5.65443E+00 2.70835E-01-6.29502E-01 3.73618E-13-6.90281E-13
 -1      2138 2.61927E+01-9.84740E-01-1.15080E-01-6.68419E+00 3.53495E-13-8.93674E-13
 -1      2139 3.14567E+01 8.79058E-01 1.43561E-01-6.47532E+00 3.40977E-13-1.03062E-12
 -1      2140 1.69015E+01-4.04005E+00-2.60293E-01-7.54355E+00 3.69038E-13-5.83145E-13
 -1      2141 2.20297E+01-1.88925E+00 5.35659E-02-8.23898E+00 4.55302E-13-6.80955E-13
 -1      2142 8.68976E+00-6.26319E+00-3.18216E-01-6.96738E+00 3.40616E-13-3.16955E-13
 -1      2143 1.27455E+01-4.34296E+00-4.93803E-02-8.07462E+00 3.30291E-13-4.92481E-13
 -1      2144 2.59213E+00-7.20539E+00-3.38882E-01-4.95560E+00 4.55191E-14-4.66571E-13
 -1      2145 5.21253E+00-5.83637E+00-1.55219E-01-6.39137E+00 2.24598E-13-3.07782E-13
 -1      2146-5.16336E-01-8.14038E+00-4.10705E-01-1.66742E+00-7.56756E-14-4.82336E-13
 -1      2147 2.15468E-01-7.54419E+00-3.40452E-01-3.13386E+00 6.29496E-14-5.29854E-13
 -1      2148 1.77393E+00-7.40516E+00-3.41561E-01 1.99325E+00-1.14020E-13-1.64924E-13
 -1      2149 3.58346E-01-7.46442E+00-3.51484E-01 5.01868E-01-3.30153E-14-2.58682E-13
 -1      2150 8.23884E+00-7.06947E+00-3.43545E-01 4.61797E+00-1.53877E-13-2.40641E-13
 -1      2151 4.39497E+00-8.24624E+00-5.24033E-01 3.21255E+00-1.49047E-13-1.88349E-13
 -1      2152 1.87037E+01-5.91827E+00-3.09904E-01 5.51446E+00-8.81517E-14-2.71394E-13
 -1      2153 1.25511E+01-7.63457E+00-6.68892E-01 4.50911E+00-6.17284E-14-3.00260E-13
 -1      2154 3.20652E+01-4.03221E+00-6.97306E-02 3.90531E+00-2.20490E-13-1.45217E-13
 -1      2155 2.45557E+01-5.62111E+00-5.06416E-01 3.81967E+00-1.41331E-13-2.37588E-13
 -1      2156 4.21557E+01-7.47313E-01 3.28685E-01-1.35863E+00-4.27061E-13-2.31259E-13
 -1      2157 3.64996E+01-2.47605E+00-4.15168E-02 9.25320E-01-4.15057E-13-1.71196E-13
 -1      2158 4.24152E+01 2.68434E+00 2.29646E-01-2.88123E+00-5.17142E-13-1.90847E-13
 -1      2159 4.47118E+01 5.09430E+00 4.96733E-01 1.39617E+00-6.46594E-13-9.98090E-14
 -1      2160 3.91359E+01-1.73523E+00-9.58261E-02 5.61017E-01 2.65024E-13 1.64091E-13
 -1      2161 4.44875E+01 6.01753E-01 4.52585E-01 1.03517E+00 1.04111E-13 1.28120E-13
 -1      2162 2.01587E+01-6.70473E+00-4.90034E-01-4.55972E+00 5.81757E-14 1.25899E-13
 -1      2163 2.59359E+01-5.15417E+00-1.55415E-01-4.82102E+00-8.67084E-14 1.44551E-13
 -1      2164 2.52219E-01-8.14764E+00-4.40034E-01-7.69875E-01 4.23411E-14-2.26319E-13
 -1      2165 1.67483E+00-8.01308E+00-3.85515E-01-1.94973E+00 1.51490E-13-1.53211E-14
 -1      2166 4.99891E+00-5.56502E+00-2.47520E-01-3.95953E+00 2.17271E-13 4.55191E-14
 -1      2167 2.33118E+01-2.11271E+00 1.18306E-01 7.99818E+00 5.17697E-13-4.07008E-13
 -1      2168 1.85409E+01-4.33679E+00-1.50537E-01 7.51874E+00 5.31852E-13-2.24015E-13
 -1      2169 4.55547E+00-5.92168E+00-1.68813E-01 6.13936E+00 1.66755E-13 8.82572E-13
 -1      2170 1.89502E+00-7.75029E+00-4.17270E-01 4.46649E+00 2.09666E-13 4.78340E-13
 -1      2171 2.83213E+01-5.97364E+00-1.68552E-01 3.21587E+00 7.40519E-14 5.96745E-14
 -1      2172 3.41389E+01-4.59489E+00 1.15203E-01-2.89959E-01 7.06657E-14-7.00551E-14
 -1      2173 3.64484E+01-3.58973E+00 1.52576E-03 2.33592E+00 2.83842E-13-1.84075E-13
 -1      2174 1.82446E+01-5.16036E+00 2.55995E-02 8.13324E+00 6.25611E-14-6.15896E-14
 -1      2175 2.07372E+01 1.10872E+00-2.05685E-02-1.61560E+00-2.38715E-13 1.60358E-14
 -1      2176 2.06271E+01 1.32946E+00-1.88419E-02-1.67689E+00-2.46692E-13-7.74242E-14
 -1      2177 1.10066E+00-5.23857E+00-2.20223E-01-8.73374E-02 5.42830E-14 6.50591E-14
 -1      2178 2.32167E+00-4.83786E+00-1.52026E-01 4.51335E+00 1.73056E-13 3.12805E-13
 -1      2179 3.56079E+01-3.75647E+00 7.43528E-03-1.79604E+00 3.36953E-14 2.72005E-15
 -1      2180 4.11426E+01-7.41006E-01 1.27086E-01-3.32736E+00-3.01759E-13-1.28897E-13
 -1      2181 3.03447E+01-4.36571E+00-3.14626E-03-1.91758E+00 2.69035E-13-2.80886E-14
 -1      2182 2.01073E+01 1.61921E-01-2.52413E-03-2.29211E-01-8.16621E-14 4.57357E-13
 -1      2183 2.00112E+01-2.39578E-02 3.22175E-04-1.39832E-02 2.29257E-13-7.78595E-14
 -1      2184 4.82873E+01 4.38796E+00 7.59821E-01 2.04084E+00-3.57714E-13 2.29927E-13
 -1      2185 3.80123E+01 3.44749E+00 1.28250E-02 3.36941E+00-3.81362E-13-5.57082E-13
 -1      2186 2.00762E+01 2.34611E-01 2.15036E-03-2.58512E-01-3.29274E-14 3.73245E-13
 -1      2187 2.00513E+01 3.09307E-01-1.51834E-03-2.99901E-01 7.48173E-14 2.98269E-13
 -1      2188 2.00399E+01 3.75146E-01 9.55157E-04-3.90031E-01-3.59194E-14 1.33915E-14
 -1      2189 2.01509E+01 2.41520E-01 4.46249E-03-3.57989E-01-2.24096E-13 2.20159E-13
 -1      2190 8.51563E+00-4.97877E+00-2.55010E-02 7.65010E+00-8.60978E-14 6.37740E-13
 -1      2191 3.35269E+01 9.93964E-01 1.85320E-01 3.54225E+00 3.66443E-13-7.47180E-13
 -1      2192 2.71052E+01-3.28267E+00 4.31379E-02 5.88806E+00 2.36033E-13-8.16791E-13
 -1      2193 1.99182E+01-6.81843E+00-1.68228E-01-5.30747E+00 2.39919E-13 2.42334E-13
 -1      2194 2.50389E+01-6.68358E+00-1.18391E-01 4.30697E+00 6.18394E-14 6.71685E-15
 -1      2195 1.34837E+01-6.77797E+00-2.70824E-01 5.64062E+00 6.92224E-14-1.61093E-13
 -1      2196 5.33886E+00-5.16675E+00-2.00779E-01 3.93554E+00 5.27356E-15-2.52964E-13
 -1      2197 1.22423E+00-4.69694E+00-1.85488E-01-1.37642E-01 9.66970E-14-3.11140E-13
 -1      2198 2.75151E+00-4.78968E+00-1.42174E-01-4.93796E+00 7.62446E-14-5.31575E-13
 -1      2199 9.09099E+00-5.11634E+00-6.52844E-02-7.78547E+00 1.75304E-13-3.80723E-13
 -1      2200 1.73416E+01-5.03091E+00-2.33070E-02-8.22475E+00 2.59626E-13-5.07136E-13
 -1      2201 3.32041E+01 6.44814E-01 1.17270E-01-3.14210E+00 1.72438E-13-6.32605E-13
 -1      2202 3.79990E+01 8.70316E+00 2.21420E-01-1.88148E-02 4.54969E-13-9.86655E-13
 -1      2203 3.87839E+01 8.76963E+00 3.03896E-01 3.04324E-01 2.40419E-13-1.17328E-12
 -1      2204 3.83657E+01 9.04911E-01-1.81897E-01 5.17061E+00 1.89959E-13-5.14283E-13
 -1      2205 3.81323E+01 5.68635E+00 3.64866E-01 1.68552E+00 3.35509E-13-9.40137E-13
 -1      2206 2.61960E+01-3.16024E+00 1.20496E-01-6.43241E+00 1.55542E-13-8.11018E-13
 -1      2207 4.57920E+01 2.57655E+00 4.38364E-01 2.02639E+00-3.75255E-14 1.73195E-13
 -1      2208 3.00188E+01-4.55675E+00-3.93177E-01-2.86129E+00 1.51767E-13 3.30402E-13
 -1      2209 3.69304E+01-2.71039E+00 1.46826E-01-2.14026E+00 2.21378E-13 2.56128E-13
 -1      2210 3.08682E+01-5.84627E+00-2.84219E-02-2.21769E+00 2.25098E-13 1.13076E-13
 -1      2211 1.95593E+01 3.51673E+00-1.11277E-02-5.91173E-01 4.13723E-14-3.24738E-13
 -1      2212 1.95949E+01 3.47081E+00-1.05146E-02-7.75466E-01 1.35287E-14-3.49908E-13
 -1      2213 1.96417E+01 3.38266E+00-1.28065E-02-9.39897E-01-7.56784E-15-3.52575E-13
 -1      2214 1.97027E+01 3.30205E+00-1.28768E-02-1.12910E+00-4.96259E-14-3.42279E-13
 -1      2215 1.97863E+01 3.03400E+00 1.92144E-04-7.91767E-01 3.29879E-15-3.23039E-13
 -1      2216 1.95119E+01 3.59929E+00-9.62024E-03 9.94278E-02 1.51003E-13-3.01158E-13
 -1      2217 1.95112E+01 3.60011E+00-9.62619E-03-7.99953E-02 1.13610E-13-3.07938E-13
 -1      2218 1.95380E+01 3.55986E+00-9.72018E-03 4.45332E-01 1.97239E-13-2.74188E-13
 -1      2219 1.95205E+01 3.58245E+00-1.01373E-02 2.64566E-01 1.64480E-13-2.93095E-13
 -1      2220 1.96779E+01 3.22214E+00-9.00540E-04 1.69524E-01 1.50539E-13-2.75857E-13
 -1      2221 1.96002E+01 3.46322E+00-1.06166E-02 7.89177E-01 2.43454E-13-2.30467E-13
 -1      2222 1.95637E+01 3.51030E+00-1.12132E-02 6.07779E-01 2.10629E-13-2.54856E-13
 -1      2223 1.97149E+01 3.15860E+00-4.94999E-04 4.87787E-01 1.97718E-13-2.43142E-13
 -1      2224 1.97113E+01 3.28926E+00-1.29485E-02 1.14242E+00 3.01211E-13-1.52089E-13
 -1      2225 1.96484E+01 3.37273E+00-1.28935E-02 9.53143E-01 2.68189E-13-1.96993E-13
 -1      2226 1.97922E+01 3.02489E+00 2.72909E-04 8.03283E-01 2.49392E-13-1.91126E-13
 -1      2227 1.98911E+01 3.00334E+00-1.81473E-02 1.48937E+00 3.29171E-13-6.58449E-14
 -1      2228 1.97912E+01 3.14450E+00-1.52699E-02 1.29913E+00 3.05799E-13-1.18522E-13
 -1      2229 1.99221E+01 2.79956E+00 2.02811E-03 1.10922E+00 2.91113E-13-1.22912E-13
 -1      2230 2.01678E+01 2.53734E+00-2.87128E-02 1.78585E+00 3.46235E-13 6.51822E-14
 -1      2231 2.00149E+01 2.78365E+00-1.81020E-02 1.62140E+00 3.37849E-13-5.22499E-15
 -1      2232 2.01176E+01 2.44820E+00 5.83496E-03 1.37716E+00 3.04293E-13-1.83239E-14
 -1      2233 2.05855E+01 1.79496E+00-2.65762E-02 1.89027E+00 3.04277E-13 2.91140E-13
 -1      2234 2.03644E+01 2.22516E+00-1.08145E-02 1.85254E+00 3.22900E-13 1.55136E-13
 -1      2235 2.03886E+01 1.91191E+00 1.40444E-02 1.53170E+00 3.05535E-13 1.14382E-13
 -1      2236 2.07926E+01 1.06704E+00-1.78350E-02 1.59026E+00 2.60486E-13 4.83454E-13
 -1      2237 2.06790E+01 1.53576E+00 8.79541E-04 1.79144E+00 2.89943E-13 3.74294E-13
 -1      2238 2.05047E+01 1.27996E+00 4.46588E-04 1.42004E+00 2.72296E-13 2.73384E-13
 -1      2239 2.04501E+01 7.43475E-01-1.85046E-03 1.11107E+00 2.39720E-13 4.27327E-13
 -1      2240 2.04026E+01 8.54599E-01 1.31832E-02-9.99844E-01-1.92834E-13-9.54833E-14
 -1      2241 2.01904E+01 6.27381E-01-4.51205E-03-6.90528E-01-1.72190E-13-1.00834E-13
 -1      2242 2.35523E+00-2.45667E+00 9.71417E-02 1.00970E+00-1.24990E-13 1.75859E-13
 -1      2243 3.34461E+00-2.68586E+00 7.59448E-02-1.82378E+00-3.85247E-14-2.22600E-14
 -1      2244 2.05477E+01 1.95547E+00-1.36769E-02-1.90116E+00-2.30699E-13-1.54765E-13
 -1      2245 2.04113E+01 1.21677E+00-6.34579E-03-1.28703E+00-2.17703E-13-1.28248E-13
 -1      2246 2.03745E+01 1.37627E+00 3.96633E-03-1.23110E+00-1.89278E-13-1.46786E-13
 -1      2247 2.02876E+01 2.36506E+00-7.74390E-03-1.82557E+00-2.01962E-13-2.06134E-13
 -1      2248 2.01256E+01 4.69674E-01 1.61915E-02-4.74362E-01-1.51374E-13-6.91861E-14
 -1      2249 1.99844E+01 3.44750E-01-4.48591E-05-3.02658E-01-1.08167E-13-8.03264E-14
 -1      2250 2.02441E+01 7.45864E-01-2.21777E-03-6.92223E-01-1.70184E-13-1.26658E-13
 -1      2251 1.99212E+01 2.59712E-01 1.08282E-02-1.65085E-01-9.15255E-14-6.66016E-14
 -1      2252 1.98427E+01 1.88226E-01 6.86135E-04-6.78209E-02-8.68262E-14-9.89590E-14
 -1      2253 2.00811E+01 4.16666E-01-3.76204E-03-3.09270E-01-1.11822E-13-8.22692E-14
 -1      2254 1.97984E+01 1.38759E-01 6.37889E-03 1.42898E-02-8.42745E-14-9.40668E-14
 -1      2255 1.97635E+01 9.64586E-02 7.18336E-04 6.76660E-02-6.43118E-14-8.95274E-14
 -1      2256 1.99607E+01 2.27497E-01-3.65813E-03-7.02558E-02-9.54749E-14-7.60652E-14
 -1      2257 1.97378E+01 6.65855E-02 3.57616E-03 1.13472E-01-7.72914E-14-1.24227E-13
 -1      2258 1.97307E+01 4.10887E-02 6.25869E-04 1.40128E-01-9.11518E-14-1.23012E-13
 -1      2259 1.98851E+01 1.15181E-01-2.94023E-03 7.06103E-02-9.55489E-14-9.52881E-14
 -1      2260 1.97191E+01 2.28689E-02 1.85705E-03 1.62501E-01-9.86488E-14-1.57983E-13
 -1      2261 1.97286E+01 7.66976E-03 5.09637E-04 1.72754E-01-7.08252E-14-1.60076E-13
 -1      2262 1.98458E+01 4.71403E-02-2.12791E-03 1.47060E-01-1.02972E-13-1.54607E-13
 -1      2263 1.97268E+01-3.19306E-03 7.96229E-04 1.80317E-01-4.86767E-14-1.74047E-13
 -1      2264 1.97453E+01-1.18049E-02 3.98481E-04 1.80678E-01-6.86780E-14-1.68076E-13
 -1      2265 1.98320E+01 6.18067E-03-1.44219E-03 1.81986E-01-6.56748E-14-2.28160E-13
 -1      2266 1.97496E+01-1.78544E-02 1.46958E-04 1.79248E-01-1.06431E-13-1.37802E-13
 -1      2267 1.97723E+01-2.21536E-02 3.08449E-04 1.73966E-01-1.26643E-13-1.46970E-13
 -1      2268 1.98350E+01-1.74612E-02-9.26137E-04 1.90886E-01-7.95771E-14-1.99034E-13
 -1      2269 1.97802E+01-2.50007E-02-2.35540E-04 1.67495E-01-1.07091E-13-1.20606E-13
 -1      2270 1.98040E+01-2.64516E-02 2.46197E-04 1.59395E-01-2.66707E-14-1.00037E-13
 -1      2271 1.98481E+01-2.97439E-02-5.61388E-04 1.84294E-01-1.13302E-13-1.15686E-13
 -1      2272 1.98137E+01-2.71559E-02-4.42436E-04 1.50572E-01 1.16827E-14-1.16096E-13
 -1      2273 1.98369E+01-2.67204E-02 2.13561E-04 1.41548E-01 5.72223E-15-1.01477E-13
 -1      2274 1.98666E+01-3.44888E-02-3.16661E-04 1.69396E-01-6.20793E-15-5.91947E-14
 -1      2275 1.98472E+01-2.59824E-02-5.34574E-04 1.32206E-01-3.32957E-15-1.07173E-13
 -1      2276 1.98690E+01-2.42805E-02 2.11273E-04 1.23541E-01 2.59406E-14-3.91587E-14
 -1      2277 1.98877E+01-3.42032E-02-1.62738E-04 1.51106E-01 1.06020E-14-2.65609E-14
 -1      2278 1.98794E+01-2.25438E-02-5.54201E-04 1.14943E-01-1.34835E-14-6.40567E-14
 -1      2279 1.98995E+01-1.99410E-02 2.41593E-04 1.07533E-01-4.10113E-14-1.05228E-13
 -1      2280 1.99094E+01-3.05077E-02-7.59918E-05 1.32798E-01-2.04316E-14-6.91811E-14
 -1      2281 1.99096E+01-1.74461E-02-5.31547E-04 1.00586E-01-1.07822E-13-1.49352E-13
 -1      2282 1.99283E+01-1.40961E-02 3.10142E-04 9.51123E-02-1.47658E-13-1.46033E-13
 -1      2283 1.99309E+01-2.43648E-02-3.81031E-05 1.16845E-01-1.21694E-13-1.58455E-13
 -1      2284 1.99382E+01-1.09039E-02-4.89231E-04 9.05463E-02-1.01548E-13-7.01732E-14
 -1      2285 1.99562E+01-6.75996E-03 4.27595E-04 8.76264E-02-3.06176E-14-6.14532E-14
 -1      2286 1.99519E+01-1.61924E-02-3.46769E-05 1.05032E-01-7.12384E-14-6.12352E-14
 -1      2287 1.99660E+01-2.74785E-03-4.45806E-04 8.61501E-02-5.35420E-14-4.83718E-14
 -1      2288 1.99841E+01 2.45643E-03 6.11823E-04 8.64897E-02-5.47609E-14-3.20605E-14
 -1      2289 1.99726E+01-5.89509E-03-5.33299E-05 9.89140E-02-6.25549E-14-3.38894E-14
 -1      2290 1.99940E+01 7.62670E-03-4.19201E-04 8.89520E-02-1.00062E-14-4.02694E-14
 -1      2291 2.00136E+01 1.44339E-02 8.90849E-04 9.35139E-02 3.58420E-15-3.66305E-14
 -1      2292 1.99935E+01 7.18328E-03-8.10577E-05 1.00148E-01-3.67201E-14 2.91256E-14
 -1      2293 2.00237E+01 2.13863E-02-4.30747E-04 1.01088E-01-1.18590E-14-5.69646E-14
 -1      2294 2.00466E+01 3.07202E-02 1.30682E-03 1.11310E-01 2.11866E-14-8.48293E-14
 -1      2295 2.00151E+01 2.43985E-02-1.00227E-04 1.10848E-01-1.24658E-14-4.46389E-14
 -1      2296 2.00569E+01 4.04853E-02-5.10779E-04 1.25723E-01 3.69750E-14-6.64412E-14
 -1      2297 2.00851E+01 5.38232E-02 1.92032E-03 1.43817E-01 4.30045E-14-7.91490E-14
 -1      2298 2.00378E+01 4.80652E-02-8.20489E-05 1.33999E-01 3.36289E-14-4.33573E-14
 -1      2299 2.00951E+01 6.80292E-02-7.07934E-04 1.67649E-01 7.26677E-14-1.02561E-13
 -1      2300 2.01314E+01 8.76745E-02 2.82057E-03 1.97011E-01 1.32909E-13-1.45105E-13
 -1      2301 2.00614E+01 8.18782E-02 2.49948E-05 1.73981E-01 6.82790E-14-6.40133E-14
 -1      2302 2.01394E+01 1.08784E-01-1.11543E-03 2.34123E-01 1.10390E-13-1.69729E-13
 -1      2303 2.01877E+01 1.38370E-01 4.26642E-03 2.79829E-01 9.30024E-14-1.45766E-13
 -1      2304 2.00847E+01 1.31585E-01 3.18032E-04 2.37226E-01 9.74272E-14-1.73825E-13
 -1      2305 2.01904E+01 1.72145E-01-1.86889E-03 3.38853E-01 2.72823E-14-2.23970E-13
 -1      2306 2.02570E+01 2.19272E-01 6.19431E-03 4.13469E-01-4.20486E-15-2.45562E-13
 -1      2307 2.01039E+01 2.07526E-01 7.39792E-04 3.36195E-01 6.28775E-14-3.14558E-13
 -1      2308 2.02457E+01 2.68182E-01-3.08031E-03 4.97702E-01 1.45983E-14-2.46324E-13
 -1      2309 2.03294E+01 3.35748E-01 8.44451E-03 6.04972E-01 8.93968E-15-2.91174E-13
 -1      2310 2.01098E+01 3.23315E-01 2.27642E-03 4.82958E-01-1.29237E-16-3.51041E-13
 -1      2311 2.02922E+01 4.08733E-01-5.17428E-03 7.27248E-01 4.01484E-14-2.56934E-13
 -1      2312 2.03980E+01 5.07805E-01 1.14916E-02 8.85632E-01 1.02464E-13-1.74121E-13
 -1      2313 2.00843E+01 4.91251E-01 4.67612E-03 6.91087E-01 5.84019E-14-1.52440E-13
 -1      2314 2.03112E+01 6.13052E-01-8.54075E-03 1.05976E+00 1.04334E-13-1.76489E-13
 -1      2315 2.04379E+01 7.52065E-01 1.48240E-02 1.28801E+00 7.41638E-14-5.81131E-14
 -1      2316 1.99960E+01 7.34677E-01 8.84389E-03 9.85455E-01 1.52399E-13-1.33059E-13
 -1      2317 2.02644E+01 8.94473E-01-1.36064E-02 1.53011E+00 5.81783E-15-6.72108E-14
 -1      2318 2.04041E+01 1.07319E+00 1.80281E-02 1.84654E+00-3.17212E-14-6.35297E-14
 -1      2319 1.97896E+01 1.07111E+00 1.56635E-02 1.39108E+00 8.02418E-14-2.11746E-13
 -1      2320 2.00915E+01 1.24093E+00-1.97484E-02 2.17342E+00-8.26323E-14-8.98895E-14
 -1      2321 2.02318E+01 1.42851E+00 2.20917E-02 2.58484E+00-1.61069E-15-1.50131E-13
 -1      2322 1.93793E+01 1.49424E+00 2.63630E-02 1.93247E+00-1.00893E-13-1.79601E-13
 -1      2323 1.97234E+01 1.56017E+00-2.16410E-02 3.01288E+00-3.72608E-14-4.73189E-14
 -1      2324 1.98707E+01 1.64511E+00 3.47582E-02 3.49137E+00-3.13777E-14-1.35128E-13
 -1      2325 1.86493E+01 1.92237E+00 4.34951E-02 2.63081E+00-4.64414E-14-1.79349E-13
 -1      2326 1.91530E+01 1.56284E+00-5.14333E-04 4.04032E+00 2.10942E-14-1.32467E-13
 -1      2327 1.93910E+01 1.23945E+00 6.47712E-02 4.49412E+00 3.37924E-14-1.31475E-13
 -1      2328 1.74878E+01 2.08800E+00 7.23282E-02 3.51204E+00-1.02756E-14-1.83869E-13
 -1      2329 1.86422E+01 6.11688E-01 8.79597E-02 5.11497E+00 9.04415E-14-4.29379E-14
 -1      2330 1.91552E+01-6.92259E-01 1.11039E-01 5.38553E+00 1.19280E-13-1.37987E-13
 -1      2331 1.59300E+01 1.26401E+00 9.50199E-02 4.60898E+00 3.46043E-14-2.31482E-14
 -1      2332 2.00105E+01-3.41127E-02-9.31304E-04-2.32607E-02 2.74290E-13-1.58901E-14
 -1      2333 2.12556E+01 1.15526E-01 6.35637E-02-5.06578E+00 1.89265E-13-1.32956E-13
 -1      2334 2.06629E+01 9.43277E-01 5.34249E-02-4.76833E+00 1.58373E-13-1.13312E-13
 -1      2335 2.10220E+01 1.23486E+00 3.92291E-02-4.19875E+00 1.09879E-13-5.84454E-14
 -1      2336 2.06252E+01 1.37352E+00-3.26507E-03-3.72365E+00 7.96542E-15-8.57795E-14
 -1      2337 1.85049E+01 1.37866E+00 4.71975E-02-4.51717E+00 1.84219E-13-3.34052E-13
 -1      2338 2.09901E+01 1.32599E+00 2.89287E-02-3.20468E+00-1.31002E-13-1.99971E-13
 -1      2339 2.06696E+01 1.21350E+00-1.43010E-02-2.74346E+00-2.27936E-13-3.30454E-13
 -1      2340 1.92611E+01 1.72700E+00 3.59832E-02-3.45795E+00-1.42930E-13-3.81917E-13
 -1      2341 2.09072E+01 1.07051E+00 2.41299E-02-2.33055E+00-1.42854E-13-2.80834E-13
 -1      2342 2.06346E+01 9.11408E-01-1.17807E-02-1.95747E+00-4.13740E-14-3.29525E-13
 -1      2343 1.97917E+01 1.47244E+00 2.34977E-02-2.56289E+00-1.58844E-13-3.18397E-13
 -1      2344 2.07575E+01 7.73967E-01 2.01513E-02-1.64776E+00-8.84492E-14-1.94142E-13
 -1      2345 2.05325E+01 6.38223E-01-7.43039E-03-1.37186E+00-9.88584E-14-1.73959E-13
 -1      2346 2.00709E+01 1.09528E+00 1.43773E-02-1.85389E+00 3.43787E-14-2.45954E-13
 -1      2347 2.05802E+01 5.35365E-01 1.56383E-02-1.14744E+00-5.43688E-14-1.10012E-13
 -1      2348 2.04030E+01 4.39080E-01-4.13062E-03-9.50731E-01 3.26488E-14-9.31952E-14
 -1      2349 2.01782E+01 7.68469E-01 8.32497E-03-1.32006E+00-6.23230E-14-1.01010E-13
 -1      2350 2.04079E+01 3.74676E-01 1.16400E-02-7.89587E-01 3.09692E-15-5.69765E-15
 -1      2351 2.02751E+01 3.15595E-01-1.59830E-03-6.46614E-01-1.26232E-13 5.04078E-15
 -1      2352 2.01882E+01 5.33931E-01 4.10693E-03-9.29392E-01-7.84702E-15-1.91556E-13
 -1      2353 2.02730E+01 2.85767E-01 8.61394E-03-5.50258E-01-9.74375E-14 2.29726E-15
 -1      2354 2.01770E+01 2.58473E-01 2.08517E-03-4.39768E-01-1.71289E-13 1.82719E-13
 -1      2355 2.01182E+01 3.25371E-01 9.73994E-04-4.70850E-01-7.60089E-14 2.12025E-14
 -1      2356 2.01552E+01 3.92409E-01-1.71162E-03-6.63574E-01-1.05581E-13-7.45619E-14
 -1      2357 1.96990E+01 6.10827E-02 9.90878E-04-1.07563E-01 9.14088E-14 1.62761E-13
 -1      2358 1.97160E+01 9.15456E-02 5.02445E-03-7.01987E-02 1.09371E-13 1.65483E-13
 -1      2359 1.97521E+01 1.27134E-01 1.28906E-03-8.24376E-03 1.27161E-13 1.68224E-13
 -1      2360 1.98063E+01 1.78191E-01 8.85659E-03 6.29245E-02 1.56981E-13 1.86799E-13
 -1      2361 1.98815E+01 1.55076E-01-3.44490E-03-8.57840E-03 1.30909E-13 1.20294E-13
 -1      2362 1.98646E+01 2.40095E-01 1.72233E-03 1.70324E-01 1.75310E-13 1.72515E-13
 -1      2363 1.99682E+01 3.25122E-01 1.09569E-02 3.00045E-01 1.72814E-13 2.00401E-13
 -1      2364 1.99830E+01 2.92707E-01-4.23821E-03 1.77000E-01 1.65256E-13 1.24302E-13
 -1      2365 1.96867E+01 2.13281E-02 7.43233E-04-1.57184E-01 8.85867E-14 1.26375E-13
 -1      2366 1.96813E+01 3.95546E-02 2.67960E-03-1.40278E-01 9.54870E-14 1.60237E-13
 -1      2367 1.98250E+01 7.28791E-02-2.59768E-03-1.14059E-01 1.03120E-13 9.16897E-14
 -1      2368 1.97000E+01-2.31090E-03 5.43111E-04-1.75790E-01 5.02123E-14 1.18587E-13
 -1      2369 1.96819E+01 8.30875E-03 1.25967E-03-1.71305E-01 6.30910E-14 1.12131E-13
 -1      2370 1.98019E+01 2.33463E-02-1.79689E-03-1.67511E-01 8.99274E-14 1.02691E-13
 -1      2371 1.97279E+01-1.55943E-02 3.89123E-04-1.75575E-01 1.64893E-14 8.61872E-14
 -1      2372 1.97036E+01-9.87882E-03 3.95358E-04-1.78390E-01 2.49690E-14 9.63984E-14
 -1      2373 1.98011E+01-5.92413E-03-1.16489E-03-1.87967E-01 5.45471E-14 4.91040E-14
 -1      2374 1.97627E+01-2.20808E-02 2.78372E-04-1.64650E-01 7.66944E-14 6.89285E-14
 -1      2375 1.97363E+01-1.95728E-02-1.20250E-04-1.71412E-01 5.59961E-14 8.99008E-14
 -1      2376 1.98139E+01-2.21296E-02-7.07164E-04-1.88235E-01 4.32621E-14 2.39880E-14
 -1      2377 1.97998E+01-2.40992E-02 2.05771E-04-1.48442E-01 3.51080E-14 1.20851E-13
 -1      2378 1.97736E+01-2.36800E-02-4.09756E-04-1.56935E-01 7.22404E-14 1.11251E-13
 -1      2379 1.98342E+01-2.97635E-02-3.92418E-04-1.76975E-01 3.61699E-14 5.12125E-14
 -1      2380 1.98363E+01-2.32312E-02 1.64203E-04-1.30554E-01 7.87906E-14 1.30426E-13
 -1      2381 1.98116E+01-2.41391E-02-5.51174E-04-1.39325E-01 7.99043E-14 1.24174E-13
 -1      2382 1.98579E+01-3.17813E-02-1.86128E-04-1.60032E-01 4.64213E-14 6.81805E-14
 -1      2383 1.98705E+01-2.05812E-02 1.45764E-04-1.13321E-01 3.28596E-14 1.40050E-13
 -1      2384 1.98480E+01-2.22835E-02-5.96560E-04-1.21448E-01 5.08910E-14 1.63397E-13
 -1      2385 1.98824E+01-3.01966E-02-5.91697E-05-1.41308E-01 6.51030E-14 1.77107E-13
 -1      2386 1.99020E+01-1.69487E-02 1.41937E-04-9.81721E-02 3.58768E-14 1.19930E-13
 -1      2387 1.98817E+01-1.90573E-02-5.81245E-04-1.05114E-01 2.99565E-14 1.22106E-13
 -1      2388 1.99064E+01-2.64227E-02 1.12220E-05-1.23332E-01 5.71245E-14 1.64701E-13
 -1      2389 1.99307E+01-1.29555E-02 1.42906E-04-8.58637E-02 4.33293E-14 3.74294E-14
 -1      2390 1.99125E+01-1.51622E-02-5.29009E-04-9.13658E-02 4.82581E-14 5.88523E-14
 -1      2391 1.99291E+01-2.14951E-02 4.23016E-05-1.07644E-01 9.43883E-14 1.19840E-13
 -1      2392 1.99570E+01-9.15471E-03 1.36305E-04-7.66034E-02-3.67259E-14 2.22338E-14
 -1      2393 1.99406E+01-1.11743E-02-4.55248E-04-8.06555E-02 1.11452E-14 4.05292E-14
 -1      2394 1.99505E+01-1.62407E-02 4.69634E-05-9.50334E-02 4.51205E-14 7.31790E-14
 -1      2395 1.99816E+01-6.13342E-03 1.05674E-04-7.00856E-02 5.13913E-14-9.45737E-14
 -1      2396 1.99666E+01-7.64977E-03-3.69039E-04-7.29189E-02 7.91069E-15-4.76479E-14
 -1      2397 1.99706E+01-1.14227E-02 3.47900E-05-8.56685E-02 1.84755E-14-6.95442E-15
 -1      2398 2.00048E+01-4.61226E-03 2.89327E-05-6.54408E-02 5.62342E-14-5.24591E-14
 -1      2399 1.99909E+01-5.22551E-03-2.74585E-04-6.75649E-02 3.70826E-14-6.97400E-14
 -1      2400 1.99901E+01-7.87887E-03 1.29597E-05-7.91194E-02 6.60173E-14-3.30920E-14
 -1      2401 2.00270E+01-5.53641E-03-1.22637E-04-6.11045E-02 2.23197E-14-3.02661E-14
 -1      2402 2.00144E+01-4.71665E-03-1.72384E-04-6.33811E-02 3.20163E-14-3.24354E-14
 -1      2403 2.00093E+01-6.65260E-03-1.29011E-05-7.42904E-02 7.76054E-15 6.19146E-14
 -1      2404 2.00482E+01-1.01372E-02-3.84053E-04-5.46225E-02-3.54315E-14-8.81715E-15
 -1      2405 2.00371E+01-7.19679E-03-6.04911E-05-5.83641E-02 1.53555E-14-6.53555E-14
 -1      2406 2.00289E+01-9.10498E-03-3.77291E-05-6.92633E-02 3.78361E-14 2.06690E-14
 -1      2407 2.00677E+01-1.99241E-02-7.93538E-04-4.24286E-02 5.07296E-14 1.63516E-13
 -1      2408 2.00591E+01-1.40332E-02 6.36043E-05-4.95003E-02 1.06953E-14 1.08267E-13
 -1      2409 2.00494E+01-1.69750E-02-5.55837E-05-6.10749E-02-4.48094E-14-2.18648E-14
 -1      2410 2.00838E+01-3.65397E-02-1.38472E-03-1.96723E-02 2.56452E-14 2.82564E-13
 -1      2411 2.00795E+01-2.68237E-02 1.99832E-04-3.25509E-02 7.76716E-14 2.23141E-13
 -1      2412 2.00709E+01-3.23246E-02-5.73425E-05-4.54733E-02-7.04887E-15 1.53804E-13
 -1      2413 2.00937E+01-6.13820E-02-2.17185E-03 1.97645E-02-2.81418E-14 2.53370E-13
 -1      2414 2.00964E+01-4.71549E-02 3.40411E-04-1.94788E-03 4.40094E-14 2.62359E-13
 -1      2415 2.00933E+01-5.72703E-02-2.71791E-05-1.67482E-02 4.13447E-14 3.43102E-13
 -1      2416 2.00930E+01-9.48894E-02-3.12622E-03 8.28454E-02-3.05841E-14 4.35959E-14
 -1      2417 2.01063E+01-7.60764E-02 4.62401E-04 4.90194E-02-3.82064E-14 1.20566E-13
 -1      2418 2.01153E+01-9.33704E-02 6.19857E-05 3.22001E-02 2.45385E-14 2.31595E-13
 -1      2419 2.00751E+01-1.35424E-01-4.14466E-03 1.76258E-01 1.11429E-13-2.51535E-16
 -1      2420 2.01038E+01-1.13198E-01 5.19094E-04 1.27460E-01-5.04479E-15-7.34024E-14
 -1      2421 2.01345E+01-1.40539E-01 2.52270E-04 1.09295E-01 4.34538E-14 3.79891E-14
 -1      2422 2.00312E+01-1.77856E-01-5.01729E-03 3.04279E-01 1.19807E-13 5.74970E-14
 -1      2423 2.00808E+01-1.55402E-01 4.34799E-04 2.39254E-01 2.28604E-13 4.47543E-14
 -1      2424 2.01460E+01-1.95449E-01 5.98709E-04 2.21870E-01 9.60631E-14 4.58955E-14
 -1      2425 1.99509E+01-2.12272E-01-5.41342E-03 4.65478E-01-1.36009E-13 1.04137E-13
 -1      2426 2.00267E+01-1.95406E-01 1.13360E-04 3.86255E-01-5.36250E-14-1.13788E-14
 -1      2427 2.01419E+01-2.49671E-01 1.15169E-03 3.74036E-01 1.99366E-14 1.83106E-13
 -1      2428 1.98228E+01-2.23773E-01-4.91845E-03 6.48559E-01-2.69040E-13 1.05561E-13
 -1      2429 1.99285E+01-2.20838E-01-5.25234E-04 5.62363E-01-2.27822E-13 8.27915E-14
 -1      2430 2.01106E+01-2.88269E-01 1.91159E-03 5.62662E-01-1.81239E-13 3.82377E-14
 -1      2431 1.96383E+01-1.94752E-01-3.17233E-03 8.28592E-01-2.37070E-13 3.49564E-13
 -1      2432 1.97740E+01-2.15017E-01-1.46352E-03 7.49206E-01-2.99681E-13 2.45677E-13
 -1      2433 2.00373E+01-2.90317E-01 2.75045E-03 7.72390E-01-3.86799E-13 1.69868E-13
 -1      2434 1.93960E+01-1.10897E-01-1.07504E-04 9.66161E-01-1.19410E-13 4.63394E-13
 -1      2435 1.95558E+01-1.60930E-01-2.49504E-03 9.13439E-01-7.10150E-14 4.59733E-13
 -1      2436 1.99078E+01-2.33194E-01 3.32157E-03 9.71351E-01-2.05998E-13 4.08016E-13
 -1      2437 1.91088E+01 2.95717E-02 3.79411E-03 1.01274E+00 1.13127E-14 3.18681E-13
 -1      2438 1.92792E+01-4.89959E-02-3.12175E-03 1.00891E+00-9.71936E-15 3.62439E-13
 -1      2439 1.97150E+01-1.01812E-01 3.07237E-03 1.11094E+00 2.38285E-14 4.11961E-13
 -1      2440 1.88089E+01 2.07124E-01 7.40583E-03 9.24572E-01 5.60589E-14 1.97828E-13
 -1      2441 1.89690E+01 1.13155E-01-2.69259E-03 9.86822E-01 1.11982E-14 2.15143E-13
 -1      2442 1.94687E+01 9.90855E-02 1.49933E-03 1.13389E+00 6.37505E-14 2.12858E-13
 -1      2443 1.85466E+01 3.79646E-01 9.33713E-03 6.82782E-01 1.39491E-13 2.03869E-13
 -1      2444 1.86715E+01 2.94531E-01-7.07801E-04 8.14226E-01 1.01651E-13 2.18587E-13
 -1      2445 1.92029E+01 3.35531E-01-1.44461E-03 9.92852E-01 1.33283E-13 1.15524E-13
 -1      2446 1.83786E+01 4.94555E-01 8.70769E-03 3.10737E-01 7.18280E-14 9.28797E-14
 -1      2447 1.84458E+01 4.45543E-01 2.68050E-03 4.94390E-01 9.88727E-14 1.34273E-13
 -1      2448 1.89745E+01 5.47424E-01-4.86771E-03 6.75559E-01 1.26243E-13 4.68751E-14
 -1      2449 1.83479E+01 5.11899E-01 5.81666E-03-1.24225E-01 6.87879E-14 2.15066E-13
 -1      2450 1.83445E+01 5.16527E-01 6.46599E-03 7.67997E-02 1.10897E-13 1.24557E-13
 -1      2451 1.88448E+01 6.68683E-01-7.13739E-03 2.22954E-01 7.29521E-14 5.76028E-14
 -1      2452 1.84639E+01 4.25223E-01 1.98848E-03-5.31089E-01-3.49428E-14 1.77437E-13
 -1      2453 1.83911E+01 4.81878E-01 9.06420E-03-3.53965E-01 1.50292E-14 2.31106E-13
 -1      2454 1.88532E+01 6.57418E-01-6.92203E-03-2.75105E-01-2.62451E-14 1.14883E-13
 -1      2455 1.86973E+01 2.65187E-01-1.23863E-03-8.29080E-01-1.63554E-13-2.92268E-14
 -1      2456 1.85700E+01 3.54026E-01 9.26847E-03-7.08474E-01-6.84110E-15 1.86287E-14
 -1      2457 1.89961E+01 5.17399E-01-4.37476E-03-7.10931E-01 6.21989E-14 1.37452E-13
 -1      2458 1.89931E+01 8.30970E-02-2.96034E-03-9.75715E-01-9.08018E-14 5.67633E-14
 -1      2459 1.88346E+01 1.76495E-01 6.99123E-03-9.25384E-01-2.56879E-13 1.69578E-14
 -1      2460 1.92289E+01 2.96172E-01-9.04819E-04-1.00080E+00-1.95849E-13 5.92435E-14
 -1      2461 1.92926E+01-7.31903E-02-3.16624E-03-9.74469E-01-5.38943E-14 2.62085E-13
 -1      2462 1.91277E+01 1.71645E-03 3.22363E-03-9.88495E-01 5.35088E-14 2.32631E-13
 -1      2463 1.94891E+01 6.08735E-02 1.89828E-03-1.11235E+00-1.26509E-13 2.50485E-13
 -1      2464 1.95525E+01-1.75876E-01-2.39645E-03-8.62563E-01-5.55685E-14 3.27399E-13
 -1      2465 1.94011E+01-1.30875E-01-6.42071E-04-9.22110E-01-6.88180E-14 2.56483E-13
 -1      2466 1.97225E+01-1.31120E-01 3.26361E-03-1.06499E+00-1.50750E-13 2.81076E-13
 -1      2467 1.97513E+01-2.20164E-01-1.29543E-03-6.90211E-01 7.31400E-14 2.14986E-13
 -1      2468 1.96256E+01-2.04948E-01-3.55666E-03-7.72599E-01 8.77822E-14 2.95920E-13
 -1      2469 1.98985E+01-2.49986E-01 3.33474E-03-9.09767E-01 4.42615E-14 1.75870E-13
 -1      2470 1.98865E+01-2.17149E-01-3.06840E-04-5.03087E-01 1.46444E-13-5.72455E-14
 -1      2471 1.97912E+01-2.24532E-01-5.12075E-03-5.88725E-01 1.30736E-13 6.05349E-14
 -1      2472 2.00105E+01-2.94319E-01 2.66672E-03-7.04579E-01 1.96218E-13 4.25020E-14
 -1      2473 1.99671E+01-1.84073E-01 3.96279E-04-3.33362E-01 1.23209E-13-6.38180E-14
 -1      2474 1.99008E+01-2.04800E-01-5.46517E-03-4.08954E-01 1.46557E-13-1.40011E-13
 -1      2475 2.00676E+01-2.80849E-01 1.79808E-03-4.96921E-01 1.99120E-13-2.55237E-13
 -1      2476 2.00066E+01-1.37388E-01 7.85926E-04-1.98504E-01-1.85553E-14-4.33625E-14
 -1      2477 1.99647E+01-1.63206E-01-4.97921E-03-2.57212E-01 3.81332E-14-7.96127E-14
 -1      2478 2.00847E+01-2.32265E-01 1.04548E-03-3.17271E-01 1.24232E-14-2.99418E-13
 -1      2479 2.00188E+01-8.94899E-02 9.27715E-04-1.03729E-01 9.11181E-14-1.36902E-14
 -1      2480 1.99952E+01-1.14655E-01-4.07805E-03-1.43971E-01 8.77386E-14 1.01499E-13
 -1      2481 2.00770E+01-1.69288E-01 5.38464E-04-1.80179E-01 4.23119E-14-1.84693E-13
 -1      2482 2.00159E+01-4.96459E-02 6.75191E-04-4.61287E-02 3.50759E-13-1.37331E-13
 -1      2483 2.00035E+01-6.96925E-02-3.27055E-03-6.97845E-02 1.74667E-13-1.57719E-13
 -1      2484 2.00573E+01-1.06874E-01 6.00774E-04-8.80382E-02 2.74295E-13-2.79585E-13
 -1      2485 2.01224E+01-2.14137E-03 1.85098E-03 2.05091E-01 1.73312E-13 1.93882E-13
 -1      2486 2.01215E+01-3.55690E-02 1.09180E-03 1.60245E-01 1.64158E-14 3.22463E-13
 -1      2487 2.01136E+01-4.58547E-02 2.65666E-03 1.07528E-01-6.58819E-14 1.99843E-13
 -1      2488 2.00985E+01-6.26846E-02 1.47681E-04 6.91000E-02-3.17890E-14-1.91858E-13
 -1      2489 2.01538E+01-9.40391E-02-2.30011E-03 1.49880E-01 8.53371E-14 4.15437E-13
 -1      2490 2.00796E+01-5.47430E-02 2.77521E-03 2.88276E-02-1.72116E-14-4.72042E-13
 -1      2491 2.00592E+01-5.78709E-02 2.72722E-04 4.57616E-03 1.37673E-13-4.25406E-13
 -1      2492 2.01164E+01-9.89233E-02-2.05002E-03 4.96438E-02 1.03217E-13-4.13745E-13
 -1      2493 3.76736E+01-3.04579E+00 2.51735E-01 1.51362E+00 2.27277E-13 5.72875E-14
 -1      2494 3.54031E+01 5.62886E+00-1.38242E-01-1.55088E-01 3.39118E-13-9.58539E-13
 -1      2495 3.43626E+01 3.67384E+00-9.57012E-02 4.56720E-01 5.02820E-13-8.21510E-13
 -1      2496 2.00967E+01 8.22502E-02 2.91351E-04 2.99426E-01 1.97822E-13 2.45886E-13
 -1      2497 2.01147E+01 3.24806E-02 2.11246E-03 2.60290E-01 1.73071E-13 1.32574E-13
 -1      2498 2.01538E+01-4.94308E-02-2.87962E-03 2.66311E-01 1.21445E-13 2.71261E-13
 -1      2499 2.00324E+01 2.05630E-01-1.85687E-03 3.60705E-01-6.08402E-14-5.68104E-14
 -1      2500 2.00703E+01 1.43866E-01 3.00541E-03 3.41061E-01 3.09346E-14 2.62957E-13
 -1      2501 2.01072E+01 4.36388E-02-2.85614E-03 3.72408E-01-6.26976E-14 9.85014E-15
 -1      2502 1.99372E+01 3.55130E-01-4.08980E-03 3.59646E-01-1.68427E-13-5.78662E-14
 -1      2503 1.99895E+01 2.90136E-01 3.30919E-03 3.71782E-01-1.46977E-13-7.86082E-14
 -1      2504 2.00121E+01 1.83728E-01-2.10038E-03 4.32306E-01-1.40323E-13-1.54333E-13
 -1      2505 1.98320E+01 5.06152E-01-5.62737E-03 2.76735E-01-1.89264E-13-4.52747E-13
 -1      2506 1.98860E+01 4.50242E-01 2.69108E-03 3.26907E-01-2.09001E-13-1.47461E-13
 -1      2507 1.98828E+01 3.55669E-01-4.06860E-04 4.13013E-01-2.60768E-13-7.02738E-14
 -1      2508 1.97505E+01 6.23482E-01-5.81796E-03 1.16462E-01 7.53467E-14-3.18818E-13
 -1      2509 1.97879E+01 5.90533E-01 9.55840E-04 1.98218E-01 7.19083E-14-2.91768E-13
 -1      2510 1.97514E+01 5.27834E-01 1.84343E-03 2.96922E-01 6.97118E-15-1.32409E-13
 -1      2511 1.97258E+01 6.77320E-01-4.29348E-03-9.80263E-02 1.70961E-13 1.66221E-13
 -1      2512 1.97296E+01 6.76340E-01-1.64603E-03 1.25344E-03 6.42888E-14-3.02605E-13
 -1      2513 1.96615E+01 6.61207E-01 4.35782E-03 9.06247E-02 8.72642E-14-2.93210E-13
 -1      2514 1.97867E+01 6.41024E-01-1.17353E-03-3.08796E-01 2.09280E-13 2.83898E-13
 -1      2515 1.97448E+01 6.77232E-01-4.39352E-03-2.21778E-01 8.93940E-14 2.51808E-13
 -1      2516 1.96552E+01 7.14692E-01 5.60206E-03-1.67823E-01 7.32604E-14 1.37131E-13
 -1      2517 1.99321E+01 5.14789E-01 2.91677E-03-4.49471E-01-9.24163E-15 8.89488E-14
 -1      2518 1.98474E+01 5.82491E-01-6.50842E-03-4.02928E-01 3.62489E-14 2.68686E-13
 -1      2519 1.97603E+01 6.61706E-01 5.20532E-03-4.06593E-01 1.02534E-13 2.75693E-13
 -1      2520 4.10246E+01 6.96403E-01 4.17986E-01 4.27810E+00 2.37421E-13-1.40277E-13
 -1      2521 2.29123E+01-6.01690E+00-3.18872E-02 4.72065E+00 1.33171E-13-1.45876E-13
 -1      2522 3.36665E+01 1.37884E+00-6.81520E-02 1.58511E+00 3.89355E-13-8.03468E-13
 -1      2523 3.11245E+01-8.61863E-01-6.88280E-02 2.47611E+00 4.10429E-13-8.34666E-13
 -1      2524 3.26495E+01 2.09067E+00-1.56686E-02-3.69319E-01 4.18818E-13-8.08159E-13
 -1      2525 4.42794E+00-2.85585E+00 5.55671E-02 5.44245E+00 3.01426E-14 3.76588E-13
 -1      2526 2.81503E+00-2.86457E+00 1.00008E-01 3.33356E+00-3.48332E-14 2.67342E-13
 -1      2527 3.54192E+01-4.49958E+00-1.50053E-02-1.87840E-01-8.82627E-15 3.48610E-14
 -1      2528 3.42513E+01 7.71164E+00-1.26328E-01 6.65009E-01 3.65596E-13-6.41376E-13
 -1      2529 3.41463E+01 8.67375E+00-1.82414E-01 3.46958E-01 2.98206E-13-7.71140E-13
 -1      2530 1.17132E+01-4.04849E+00 9.28933E-02-5.70968E+00-2.87825E-14 2.66537E-13
 -1      2531 1.45763E+01-4.71363E+00 2.57736E-02-6.23899E+00 7.58282E-14 4.81060E-13
 -1      2532 2.31635E+01-2.84834E+00 8.31524E-02-5.09102E+00 2.55795E-13-2.39073E-13
 -1      2533 2.19399E+01-9.96824E-01 1.59416E-01-5.40136E+00 1.84838E-13-1.26489E-13
 -1      2534 1.14432E+01-4.08632E+00-1.48653E-02 8.32855E+00-2.41140E-13 3.09697E-13
 -1      2535 7.89074E+00-3.51234E+00 1.55361E-01 7.01416E+00-1.18128E-13 5.58664E-13
 -1      2536 1.95185E+01 3.58547E+00-1.00967E-02-2.45154E-01 8.78957E-14-3.15538E-13
 -1      2537 1.95346E+01 3.56477E+00-9.67306E-03-4.25818E-01 5.74430E-14-3.20383E-13
 -1      2538 1.97109E+01 3.16433E+00-5.82897E-04-4.73089E-01 4.98901E-14-3.01609E-13
 -1      2539 1.96765E+01 3.22425E+00-9.20935E-04-1.51912E-01 8.51568E-14-2.87922E-13
 -1      2540 2.00420E+01-5.58599E-02 1.04668E-03-2.56036E-02 2.05447E-13-2.62821E-13
 -1      2541 2.90295E+01-3.23794E+00-6.57408E-02 4.21883E+00 3.70856E-13-8.65030E-13
 -1      2542 2.59204E+01-4.41710E+00 3.74178E-02 5.32717E+00 2.23516E-13-6.90420E-13
 -1      2543 2.43770E+01-4.55303E+00 8.63306E-03-6.30847E+00 1.46577E-13-6.42486E-13
 -1      2544 2.78205E+01-3.55417E+00-1.04716E-01-4.91286E+00 1.05749E-14-5.78815E-13
 -1      2545 3.43634E+01 8.44602E+00-2.12200E-01-5.87328E-01 2.88991E-13-9.11965E-13
 -1      2546 3.54663E+01 7.45463E+00-6.04177E-02-4.70235E-01 2.65732E-13-9.33975E-13
 -1      2547 3.28672E+01 6.14656E+00-3.56613E-02-1.20995E+00 3.78891E-13-6.24167E-13
 -1      2548 3.37549E+01 3.75658E+00-7.21164E-02 2.90949E-01 1.84353E-13-5.42455E-13
 -1      2549 3.41494E+01 5.50677E+00-2.02737E-01 6.17599E-01 2.42029E-13-6.28608E-13
 -1      2550 2.22240E+01-4.37031E+00 1.11155E-01 5.25130E+00 8.29337E-14-1.83839E-13
 -1      2551 1.81650E+01-5.31648E+00-2.95602E-02 6.08131E+00 1.55653E-13-1.33768E-13
 -1      2552 1.33910E+01-4.27097E+00 8.93998E-02 5.87211E+00 6.80567E-14-1.19016E-13
 -1      2553 2.08089E+01-2.32093E+00 2.07228E-01 5.66404E+00 1.32366E-13-2.42237E-13
 -1      2554 3.07959E+01-1.32367E+00-2.34114E-02-2.72003E+00-7.43225E-14-4.31988E-13
 -1      2555 3.31585E+01 1.17715E+00-1.04506E-01-1.21634E+00 1.40749E-13-4.27658E-13
 -1      2556 1.65197E+01-5.03322E+00 5.88658E-02-8.18660E+00 1.61759E-13-4.85043E-13
 -1      2557 2.06432E+01-4.89686E+00-1.92425E-02-7.91780E+00 1.90903E-13-5.85032E-13
 -1      2558 9.02875E+00-3.61610E+00 1.52610E-01-7.48203E+00 1.53655E-13-3.42615E-13
 -1      2559 1.24818E+01-4.30892E+00 4.81804E-02-8.51127E+00 1.96454E-13-3.44183E-13
 -1      2560 3.21202E+00-2.55864E+00 1.18627E-01-3.53914E+00 4.96825E-15-5.19695E-13
 -1      2561 5.22179E+00-2.48290E+00 7.90645E-02-5.77773E+00 2.80886E-14-3.55549E-13
 -1      2562 3.68769E+00-1.74692E+00 1.30242E-01 1.42469E+00 9.88237E-14-2.63400E-13
 -1      2563 2.72561E+00-2.11062E+00 1.19562E-01-1.35684E+00 1.40672E-13-5.20972E-13
 -1      2564 5.05738E+00-4.18871E-01 1.89591E-01-2.19406E+00 8.05744E-14-3.99014E-13
 -1      2565 9.64633E+00-3.46136E+00 9.85449E-02 5.47881E+00 3.54716E-14-1.15102E-13
 -1      2566 6.38375E+00-2.28656E+00 1.54273E-01 3.76661E+00 9.40636E-14-1.84075E-13
 -1      2567 1.38774E+01-2.58264E+00 8.65209E-02 5.81871E+00 6.10345E-14 1.24900E-15
 -1      2568 5.90334E+00-3.22395E+00 7.68906E-02-3.84881E+00-1.15186E-14 1.11022E-13
 -1      2569 8.73955E+00-3.60253E+00 1.05743E-01-5.27119E+00-2.20102E-14 2.35645E-13
 -1      2570 1.20412E+01-2.66666E+00 6.63219E-02-5.73968E+00-2.58071E-13 2.91517E-13
 -1      2571 1.87698E+01-5.60738E+00-5.20034E-05-5.64364E+00 1.89793E-13 2.50799E-13
 -1      2572 2.47887E+01-6.13401E+00-8.96203E-02-4.77416E+00 1.46383E-13-5.17364E-14
 -1      2573 2.16352E+01-5.03224E+00-4.66732E-02 7.55253E+00 1.64313E-14-5.01967E-13
 -1      2574 1.70350E+01-4.83318E+00 1.52856E-01 8.02625E+00-2.47330E-13-6.39939E-14
 -1      2575 3.85277E+01-1.92786E+00 2.16459E-01-4.07284E+00-1.45550E-13 9.99201E-15
 -1      2576 3.44299E+01-5.27464E+00-7.36660E-02 3.44199E-02 3.92186E-13 1.46771E-13
 -1      2577 1.99115E+01 2.81387E+00 1.13690E-03-1.09839E+00-6.07844E-14-3.04995E-13
 -1      2578 1.97816E+01 3.16197E+00-1.47348E-02-1.28605E+00-7.18037E-14-3.28694E-13
 -1      2579 1.98781E+01 3.02606E+00-1.71523E-02-1.47558E+00-1.15304E-13-3.16051E-13
 -1      2580 2.03327E+01 5.90012E-01 9.12590E-03 8.70951E-01 1.99219E-13 3.87908E-13
 -1      2581 2.03939E+01 8.35915E-01 6.82670E-03 1.04707E+00 2.30801E-13 2.95604E-13
 -1      2582 2.01626E+01 4.88673E-01 7.89975E-03 6.62189E-01 2.00541E-13 3.49321E-13
 -1      2583 4.29153E+00-1.00570E+00 1.65876E-01 1.88377E+00-2.72532E-13 2.14495E-13
 -1      2584 6.44295E+00-1.36861E+00 1.27300E-01-2.97795E+00-1.78191E-13 1.99507E-13
 -1      2585 1.99862E+01 2.83961E+00-1.50538E-02-1.58574E+00-1.35283E-13-2.86084E-13
 -1      2586 2.01318E+01 2.61398E+00-2.20107E-02-1.75226E+00-1.79862E-13-2.51490E-13
 -1      2587 2.02800E+01 2.05047E+00 1.28725E-03-1.48490E+00-1.82964E-13-2.11351E-13
 -1      2588 2.00823E+01 2.49335E+00 2.56212E-03-1.34102E+00-1.24468E-13-2.75069E-13
 -1      2589 3.20565E+01 1.76679E+00-4.40355E-02 4.07838E-01 3.18356E-14-3.74201E-13
 -1      2590 1.59745E+01-1.35668E+00 7.29297E-02 5.79442E+00 3.54855E-14-1.56125E-13
 -1      2591 1.84079E+01-4.16568E-01 5.34056E-02-5.58039E+00 1.19085E-13-1.80037E-13
 -1      2592 2.00664E+01-8.89570E-02-2.28908E-03-2.40195E-02 2.36504E-13-3.92389E-13
 -1      2593 2.44538E+01-4.86522E+00 5.03274E-02 5.72654E+00 5.52336E-14-4.80921E-13
 -1      2594 3.20636E+01 6.33452E+00-9.55084E-02 1.31475E+00 2.40030E-13-4.05509E-13
 -1      2595 2.00514E+01 3.90042E-01-3.08652E-03-4.72747E-01-8.29198E-15-5.15783E-14
 -1      2596 3.26710E+01 8.44551E+00-1.28102E-01-1.46694E-01 2.35201E-13-7.57103E-13
 -1      2597 3.04554E+01 7.76886E+00-1.57605E-01-6.45434E-01 2.27457E-13-5.14044E-13
 -1      2598 3.01274E+01 7.94774E+00-1.64906E-01 2.97762E-01 1.39389E-13-3.98639E-13
 -1      2599 1.99971E+01 4.86520E-01 5.36964E-03-5.48385E-01-9.07277E-15 8.42260E-14
 -1      2600 2.56858E+01-4.19314E+00 1.85174E-01-4.50953E+00 1.54654E-13-1.22928E-13
 -1      2601 2.09446E+01-3.61281E+00 8.06212E-03-5.69084E+00 1.78468E-13-8.99281E-15
 -1      2602 2.00037E+01 3.65004E-01 8.25000E-03 3.92867E-01 1.83206E-13 2.36820E-13
 -1      2603 2.00980E+01 4.32938E-01 1.16995E-02 5.35328E-01 1.90578E-13 2.98318E-13
 -1      2604 2.01859E+01 5.65406E-01-3.11853E-03 6.52757E-01 2.00485E-13 1.98852E-13
 -1      2605 2.00855E+01 4.37144E-01-5.38124E-03 4.07605E-01 1.96514E-13 1.24632E-13
 -1      2606 7.65512E+00-2.10405E+00 1.64170E-01 6.22189E+00-1.55181E-13 3.78891E-13
 -1      2607 3.04053E+01-5.60898E+00-5.62176E-03-1.70619E+00 3.06061E-13-5.68712E-14
 -1      2608 2.88992E+01-5.32722E+00-5.30956E-03-2.59574E+00 2.30593E-13 1.18239E-14
 -1      2609 7.15898E+00-7.06050E-01 1.40245E-01 2.83202E+00 4.88498E-15-2.68841E-13
 -1      2610 1.58057E+01-3.92240E+00 1.54195E-01 7.89876E+00-3.50359E-13-6.47538E-14
 -1      2611 2.99919E+01-2.47444E+00-4.75577E-02 2.03848E+00 2.94216E-13-8.88872E-13
 -1      2612 2.78993E+01-3.86162E+00 5.48932E-02-3.50395E+00-1.32533E-14-2.83690E-13
 -1      2613 2.94828E+01-2.88090E+00-2.59165E-03-3.14417E+00-2.77972E-14-3.90549E-13
 -1      2614 2.98285E+01-2.25275E+00-1.80562E-01-1.25070E+00-1.33005E-13-3.00940E-13
 -1      2615 8.66571E+00-2.09325E+00 1.68116E-01-6.51742E+00 7.33302E-14-4.38455E-13
 -1      2616 1.60804E+01-4.33393E+00 9.93674E-02-8.12597E+00 1.06165E-13-4.85084E-13
 -1      2617 2.34690E+01-4.91538E+00 9.21319E-02-6.57233E+00 1.35170E-13-5.53856E-13
 -1      2618 1.98444E+01 2.76583E+00-6.29585E-03 5.15851E-01 2.03036E-13-2.05519E-13
 -1      2619 1.98194E+01 2.81562E+00-5.70353E-03 3.65118E-01 1.80365E-13-2.30071E-13
 -1      2620 1.98025E+01 2.85311E+00-5.62505E-03 2.29752E-01 1.49718E-13-2.57558E-13
 -1      2621 1.97940E+01 2.87001E+00-5.43890E-03 7.52158E-02 1.31795E-13-2.62117E-13
 -1      2622 1.99489E+01 2.50193E+00 3.62187E-03 2.65062E-01 1.54423E-13-2.19907E-13
 -1      2623 2.00434E+01 2.32421E+00-1.09579E-02 1.04516E+00 2.85357E-13-9.49750E-14
 -1      2624 1.99789E+01 2.47392E+00-6.36839E-03 9.09841E-01 2.70179E-13-1.36271E-13
 -1      2625 2.02064E+01 1.91444E+00-1.65118E-02 1.23357E+00 2.94493E-13 3.59933E-15
 -1      2626 2.01248E+01 2.14707E+00-4.78480E-03 1.13138E+00 2.73900E-13-3.99780E-14
 -1      2627 2.01898E+01 1.89174E+00 7.76274E-03 9.27047E-01 2.59228E-13-5.79375E-14
 -1      2628 2.04444E+01 1.01311E+00 2.22129E-03 1.15369E+00 2.48611E-13 2.25711E-13
 -1      2629 2.04012E+01 1.27492E+00-7.16728E-03 1.26615E+00 2.69161E-13 1.64588E-13
 -1      2630 2.03145E+01 8.46498E-01 6.14259E-03 8.98377E-01 2.36559E-13 1.80061E-13
 -1      2631 2.03218E+01 1.06084E+00 5.89046E-03-8.55646E-01-1.38217E-13-1.42558E-13
 -1      2632 2.02282E+01 8.15744E-01-5.70853E-03-6.13438E-01-1.26287E-13-1.32426E-13
 -1      2633 2.03159E+01 1.68912E+00-6.79699E-03-1.29436E+00-1.67911E-13-1.88462E-13
 -1      2634 2.02984E+01 1.30282E+00-3.04356E-03-1.01953E+00-1.58718E-13-1.68311E-13
 -1      2635 2.02808E+01 1.37410E+00 6.20913E-04-9.22774E-01-1.38506E-13-1.67206E-13
 -1      2636 2.02232E+01 1.95326E+00-4.26692E-04-1.26522E+00-1.43893E-13-2.11821E-13
 -1      2637 2.02260E+01-1.43571E-01 2.52911E-03 1.83575E-01 2.17339E-13 7.23539E-13
 -1      2638 2.02108E+01-1.57066E-01 5.13009E-04 1.25564E-01 2.45871E-13 2.20806E-13
 -1      2639 2.02176E+01 6.28286E-01 8.59151E-03-4.35670E-01-1.18861E-13-1.23004E-13
 -1      2640 2.01332E+01 4.75841E-01-3.37950E-03-2.77138E-01-8.27802E-14-1.19595E-13
 -1      2641 2.02613E+01 8.93460E-01 5.86866E-05-5.70465E-01-1.17478E-13-1.57513E-13
 -1      2642 2.01071E+01 3.62974E-01 6.59011E-03-1.57398E-01-8.82799E-14-9.46769E-14
 -1      2643 2.00480E+01 2.68380E-01-1.77041E-03-5.95911E-02-9.49816E-14-1.31242E-13
 -1      2644 2.01960E+01 5.29302E-01-1.64279E-03-2.60625E-01-9.35963E-14-1.46854E-13
 -1      2645 2.00219E+01 1.98258E-01 4.51557E-03 1.59257E-02-9.98418E-14-1.12690E-13
 -1      2646 1.99862E+01 1.38839E-01-8.26825E-04 7.27199E-02-1.00012E-13-1.27776E-13
 -1      2647 2.01270E+01 2.99492E-01-2.09498E-03-5.39865E-02-1.08673E-13-1.26947E-13
 -1      2648 1.99653E+01 9.48223E-02 2.89648E-03 1.16363E-01-1.05758E-13-1.52844E-13
 -1      2649 1.99475E+01 5.76943E-02-2.79641E-04 1.46086E-01-1.10279E-13-1.73457E-13
 -1      2650 2.00706E+01 1.53637E-01-1.90200E-03 7.38380E-02-1.19953E-13-1.36811E-13
 -1      2651 1.99326E+01 3.03997E-02 1.73084E-03 1.67912E-01-9.98047E-14-1.81214E-13
 -1      2652 1.99270E+01 7.84890E-03 2.42777E-05 1.80186E-01-7.15324E-14-2.03431E-13
 -1      2653 2.00297E+01 6.16347E-02-1.52556E-03 1.45489E-01-1.14072E-13-1.52461E-13
 -1      2654 1.99173E+01-8.40715E-03 9.23838E-04 1.87733E-01-4.22684E-14-1.99010E-13
 -1      2655 1.99196E+01-2.12391E-02 1.88601E-04 1.89168E-01-5.30333E-14-1.63340E-13
 -1      2656 2.00026E+01 5.13155E-03-1.14761E-03 1.79095E-01-7.26589E-14-1.67948E-13
 -1      2657 1.99140E+01-3.00864E-02 3.82648E-04 1.87882E-01-5.34535E-14-1.44163E-13
 -1      2658 1.99210E+01-3.63817E-02 2.75200E-04 1.83027E-01-6.04177E-14-1.02617E-13
 -1      2659 1.99864E+01-2.75910E-02-8.29351E-04 1.88139E-01-3.26319E-14-1.28272E-13
 -1      2660 1.99183E+01-4.02241E-02 3.23905E-05 1.76775E-01-4.63272E-14-6.40244E-14
 -1      2661 1.99279E+01-4.21144E-02 3.21009E-04 1.68761E-01 1.58713E-14-9.21971E-14
 -1      2662 1.99782E+01-4.42466E-02-5.82958E-04 1.82352E-01-1.40679E-14-8.02476E-14
 -1      2663 1.99272E+01-4.25684E-02-1.84445E-04 1.60255E-01-5.31098E-15-1.00506E-13
 -1      2664 1.99380E+01-4.14790E-02 3.48644E-04 1.51237E-01-2.44058E-14-9.25255E-14
 -1      2665 1.99754E+01-5.00168E-02-4.01460E-04 1.68643E-01-1.16808E-14-1.01009E-13
 -1      2666 1.99387E+01-3.96127E-02-3.12072E-04 1.42370E-01-2.47596E-14-1.07764E-13
 -1      2667 1.99498E+01-3.64573E-02 3.73286E-04 1.33848E-01-5.16253E-14-1.22706E-13
 -1      2668 1.99765E+01-4.83767E-02-2.72486E-04 1.51865E-01-4.31302E-14-1.77406E-13
 -1      2669 1.99515E+01-3.29257E-02-3.84888E-04 1.25951E-01-9.50995E-14-1.07611E-13
 -1      2670 1.99626E+01-2.82156E-02 4.06622E-04 1.19008E-01-1.01161E-13-1.01300E-13
 -1      2671 1.99801E+01-4.15656E-02-1.82826E-04 1.35428E-01-5.66086E-14-1.14624E-13
 -1      2672 1.99647E+01-2.33327E-02-4.30790E-04 1.13062E-01-5.78266E-14-5.54057E-14
 -1      2673 1.99758E+01-1.72308E-02 4.59084E-04 1.08558E-01-3.91406E-14-1.58362E-14
 -1      2674 1.99851E+01-3.08535E-02-1.19263E-04 1.21779E-01-5.30603E-14-5.24886E-14
 -1      2675 1.99781E+01-1.09956E-02-4.74490E-04 1.05366E-01-7.92980E-14 9.16622E-15
 -1      2676 1.99893E+01-3.32224E-03 5.41241E-04 1.04109E-01-7.48650E-14-1.27898E-14
 -1      2677 1.99910E+01-1.66732E-02-6.76231E-05 1.12795E-01-3.60115E-14-2.56985E-14
 -1      2678 1.99913E+01 4.59797E-03-5.41060E-04 1.04451E-01-9.60467E-14 1.22399E-14
 -1      2679 2.00030E+01 1.44065E-02 6.64599E-04 1.07365E-01-5.59862E-14-6.77439E-15
 -1      2680 1.99970E+01 1.35704E-03-1.04520E-05 1.10115E-01-8.10780E-14 1.15706E-14
 -1      2681 2.00040E+01 2.47434E-02-6.60132E-04 1.12139E-01-2.14891E-15-4.51118E-14
 -1      2682 2.00164E+01 3.77343E-02 8.41652E-04 1.20443E-01-5.04871E-16-2.82388E-14
 -1      2683 2.00022E+01 2.45239E-02 7.69634E-05 1.15428E-01-6.59129E-14-9.12408E-15
 -1      2684 2.00152E+01 5.17459E-02-8.71391E-04 1.30812E-01 5.79149E-14-3.12559E-14
 -1      2685 2.00285E+01 6.96219E-02 1.08397E-03 1.46237E-01 8.79182E-14-3.71232E-14
 -1      2686 2.00050E+01 5.52371E-02 2.33035E-04 1.30756E-01 1.23347E-14 2.89908E-15
 -1      2687 2.00232E+01 8.92989E-02-1.23312E-03 1.63780E-01 5.50606E-14-3.24008E-14
 -1      2688 2.00371E+01 1.14694E-01 1.40438E-03 1.88816E-01 9.32553E-14-7.84330E-14
 -1      2689 2.00026E+01 9.74070E-02 5.21021E-04 1.58706E-01 5.51700E-14-5.73576E-14
 -1      2690 2.00239E+01 1.42972E-01-1.85968E-03 2.15688E-01 7.05046E-14-1.37388E-13
 -1      2691 2.00378E+01 1.79924E-01 1.89072E-03 2.53864E-01 3.86871E-14-1.64610E-13
 -1      2692 1.99901E+01 1.57059E-01 1.05539E-03 2.02706E-01 3.53958E-14-8.56844E-14
 -1      2693 2.00091E+01 2.23865E-01-2.84122E-03 2.94988E-01 2.24601E-14-2.37242E-13
 -1      2694 2.00192E+01 2.81037E-01 2.35199E-03 3.54986E-01 3.11166E-17-3.47471E-13
 -1      2695 1.99574E+01 2.45158E-01 1.82961E-03 2.69234E-01-2.39601E-14-1.92788E-13
 -1      2696 1.99657E+01 3.43082E-01-4.36495E-03 4.10423E-01 5.73512E-14-3.28460E-13
 -1      2697 1.99652E+01 4.23088E-01 2.48023E-03 4.92953E-01 9.23916E-14-2.63489E-13
 -1      2698 1.98894E+01 3.74729E-01 3.68058E-03 3.62337E-01 4.35827E-14-2.78594E-13
 -1      2699 1.98698E+01 5.13672E-01-6.64564E-03 5.68067E-01 7.64294E-14-2.58031E-13
 -1      2700 1.98465E+01 6.28473E-01 2.40307E-03 6.83873E-01 6.77969E-14-1.83294E-13
 -1      2701 1.97620E+01 5.57473E-01 6.41661E-03 4.84904E-01 1.27244E-13-2.84488E-13
 -1      2702 1.96808E+01 7.57440E-01-1.00888E-02 7.82251E-01 3.51315E-14-1.86998E-13
 -1      2703 1.96119E+01 9.17162E-01 1.51805E-03 9.40204E-01 9.81788E-14-2.76862E-13
 -1      2704 1.95325E+01 8.16601E-01 1.09166E-02 6.42538E-01 2.40528E-14-3.64763E-13
 -1      2705 1.93328E+01 1.09275E+00-1.51167E-02 1.06406E+00 1.52015E-13-3.24651E-13
 -1      2706 1.91810E+01 1.30228E+00-6.05907E-04 1.27177E+00 3.96167E-15-3.23385E-13
 -1      2707 1.91342E+01 1.17143E+00 1.80650E-02 8.34813E-01 3.09698E-14-3.93651E-13
 -1      2708 1.87240E+01 1.52181E+00-2.19793E-02 1.42134E+00-9.23122E-14-2.83188E-13
 -1      2709 1.84349E+01 1.76693E+00-3.19136E-03 1.68245E+00-7.63443E-14-2.65058E-13
 -1      2710 1.84652E+01 1.62828E+00 2.93510E-02 1.05384E+00 4.51889E-14-4.98200E-13
 -1      2711 1.77083E+01 1.99491E+00-2.92420E-02 1.85901E+00-6.18427E-14-2.52287E-13
 -1      2712 1.72192E+01 2.21218E+00 2.72528E-04 2.17286E+00-7.73340E-15-2.22531E-13
 -1      2713 1.73765E+01 2.15203E+00 4.82637E-02 1.28487E+00-3.68781E-14-4.01679E-13
 -1      2714 1.60988E+01 2.33604E+00-2.75765E-02 2.39373E+00 3.26735E-15-2.03075E-13
 -1      2715 1.53789E+01 2.34680E+00 3.15399E-02 2.76656E+00 3.41323E-14-1.49714E-13
 -1      2716 1.56615E+01 2.60828E+00 8.53050E-02 1.52128E+00 9.81680E-15-2.28607E-13
 -1      2717 1.37078E+01 2.18111E+00 3.94842E-02 3.12755E+00 8.77978E-14-9.82686E-14
 -1      2718 1.28010E+01 1.37895E+00 9.42540E-02 3.62033E+00 2.76272E-14-8.99836E-14
 -1      2719 1.30246E+01 2.64670E+00 1.61148E-01 1.80391E+00 7.83974E-14-2.25958E-13
 -1      2720 1.61658E+01 1.62333E+00 6.74892E-02-4.12546E+00 1.80043E-13-2.10276E-13
 -1      2721 1.65702E+01 2.03717E+00 1.58576E-02-3.63331E+00 5.41754E-14-1.83700E-13
 -1      2722 1.99064E+01 3.00557E-02-2.77078E-05-1.66767E-01 9.54798E-14 5.72009E-14
 -1      2723 1.99161E+01 5.79585E-02 2.33463E-03-1.46597E-01 1.01806E-13 7.37030E-14
 -1      2724 1.75766E+01 2.08178E+00 2.57485E-02-3.15127E+00-3.17931E-14-3.06678E-13
 -1      2725 1.79082E+01 1.98915E+00-2.15168E-02-2.73278E+00-1.61756E-13-2.25936E-13
 -1      2726 1.86836E+01 1.81500E+00 8.50811E-03-2.40583E+00-1.64731E-13-2.01326E-13
 -1      2727 1.88848E+01 1.59672E+00-2.13139E-02-2.05350E+00-5.33533E-14-1.30358E-13
 -1      2728 1.72810E+01 2.24856E+00 5.23735E-02-2.14693E+00-7.08320E-14-2.20654E-13
 -1      2729 1.93753E+01 1.38330E+00 5.64171E-03-1.80305E+00 1.57149E-14-1.02482E-13
 -1      2730 1.94667E+01 1.17296E+00-1.53166E-02-1.52266E+00 5.51486E-14-1.17021E-13
 -1      2731 1.84639E+01 1.76632E+00 3.24190E-02-1.67741E+00 1.05970E-14-2.74442E-14
 -1      2732 1.97631E+01 9.92540E-01 5.89813E-03-1.32687E+00-3.22815E-14 5.57741E-15
 -1      2733 1.97855E+01 8.29575E-01-1.00171E-02-1.11364E+00-1.78015E-14 1.32144E-14
 -1      2734 1.91802E+01 1.29427E+00 1.97084E-02-1.28815E+00 6.03257E-14 1.14091E-13
 -1      2735 1.99570E+01 7.00227E-01 5.66654E-03-9.60633E-01-5.86644E-14-6.05807E-14
 -1      2736 1.99463E+01 5.93088E-01-4.64696E-03-8.04671E-01-3.86212E-14-9.53113E-14
 -1      2737 1.95951E+01 9.22137E-01 1.10320E-02-9.71025E-01-6.92471E-14 7.25276E-14
 -1      2738 1.99892E+01 5.66283E-01 7.94712E-03-7.17468E-01 1.94807E-14-8.60012E-14
 -1      2739 1.99747E+01 5.05591E-01 1.54082E-04-6.18321E-01-1.79308E-14-9.26673E-14
 -1      2740 1.98040E+01 6.15119E-01-6.01269E-03-5.79947E-01 3.88190E-15 2.52693E-13
 -1      2741 1.97508E+01 7.17204E-01 2.68497E-03-7.38931E-01-2.76182E-14-5.84734E-14
 -1      2742 1.99851E+01 1.89815E-01-1.00349E-03-1.25550E-02 1.11937E-13 6.84897E-14
 -1      2743 2.00334E+01 2.62265E-01 5.93338E-03 6.32922E-02 1.41000E-13 7.62829E-14
 -1      2744 1.99342E+01 9.12378E-02-3.77331E-04-1.14169E-01 8.46152E-14 5.79568E-14
 -1      2745 1.99598E+01 1.36473E-01 3.82506E-03-7.20534E-02 9.50852E-14 5.61356E-14
 -1      2746 2.00729E+01 2.13496E-01-2.19359E-03-1.52126E-02 1.10238E-13 2.69173E-14
 -1      2747 2.00228E+01 1.00893E-01-1.83604E-03-1.14944E-01 9.59102E-14 3.03575E-14
 -1      2748 2.00646E+01 3.48228E-01-1.86764E-03 1.62033E-01 1.62261E-13 7.12856E-14
 -1      2749 2.01418E+01 4.62187E-01 7.99767E-03 2.88710E-01 1.68183E-13 6.35635E-14
 -1      2750 2.01413E+01 3.91933E-01-2.19613E-03 1.53547E-01 1.44273E-13 8.74604E-15
 -1      2751 1.98956E+01-6.74611E-03 1.58541E-04-1.87397E-01 7.46166E-14 1.67089E-14
 -1      2752 1.98949E+01 9.75253E-03 1.30465E-03-1.81106E-01 8.44604E-14 4.66643E-14
 -1      2753 1.99899E+01 3.07758E-02-1.39381E-03-1.67066E-01 1.21428E-13-6.43507E-15
 -1      2754 1.98962E+01-2.73271E-02 2.50834E-04-1.88126E-01 2.34542E-14 3.12935E-14
 -1      2755 1.98892E+01-1.84345E-02 6.11256E-04-1.90208E-01 3.68438E-14 3.35835E-14
 -1      2756 1.99705E+01-1.12656E-02-1.00362E-03-1.87730E-01 4.91754E-14 2.62171E-15
 -1      2757 1.99037E+01-3.70593E-02 2.92581E-04-1.77374E-01 2.13671E-14 4.09674E-14
 -1      2758 1.98934E+01-3.32429E-02 1.59324E-04-1.84073E-01 2.79859E-14 5.35772E-15
 -1      2759 1.99610E+01-3.44966E-02-6.95066E-04-1.88677E-01 4.57122E-14-2.30427E-15
 -1      2760 1.99153E+01-3.95986E-02 3.07970E-04-1.60939E-01 3.00098E-14 5.91814E-14
 -1      2761 1.99034E+01-3.91245E-02-1.21780E-04-1.69709E-01 2.87190E-14 2.53542E-14
 -1      2762 1.99582E+01-4.51188E-02-4.64851E-04-1.78230E-01 3.63292E-14-4.65317E-15
 -1      2763 1.99287E+01-3.74931E-02 3.10078E-04-1.42739E-01 2.01832E-14 1.25449E-13
 -1      2764 1.99165E+01-3.91476E-02-2.83869E-04-1.51890E-01 8.62065E-15 7.06239E-14
 -1      2765 1.99598E+01-4.73914E-02-3.00414E-04-1.62176E-01-3.14327E-15-1.08679E-14
 -1      2766 1.99428E+01-3.25627E-02 3.05321E-04-1.25336E-01 9.35764E-14 1.16399E-13
 -1      2767 1.99309E+01-3.54743E-02-3.64170E-04-1.33788E-01 6.71597E-14 1.42028E-13
 -1      2768 1.99642E+01-4.43048E-02-1.88196E-04-1.44451E-01 3.66284E-14 6.74293E-15
 -1      2769 1.99570E+01-2.61638E-02 2.95527E-04-1.10294E-01 1.04243E-13 1.01671E-13
 -1      2770 1.99456E+01-2.96742E-02-3.88441E-04-1.17416E-01 1.51083E-13 1.35084E-13
 -1      2771 1.99702E+01-3.80137E-02-1.16681E-04-1.27634E-01 1.22592E-13 5.74172E-14
 -1      2772 1.99710E+01-1.94015E-02 2.78549E-04-9.84112E-02 6.22727E-14-7.62362E-15
 -1      2773 1.99603E+01-2.29591E-02-3.73073E-04-1.03929E-01 8.05466E-14 2.89371E-14
 -1      2774 1.99773E+01-3.01509E-02-7.73372E-05-1.13297E-01 1.13013E-13-4.79414E-16
 -1      2775 1.99850E+01-1.33202E-02 2.48088E-04-8.98426E-02 6.06408E-14-5.17227E-14
 -1      2776 1.99747E+01-1.63823E-02-3.26462E-04-9.37904E-02 3.49328E-14 2.08896E-15
 -1      2777 1.99851E+01-2.20850E-02-6.48939E-05-1.02234E-01 4.09323E-14-1.10986E-13
 -1      2778 1.99993E+01-9.08582E-03 1.93089E-04-8.41172E-02-3.96641E-14 3.84030E-14
 -1      2779 1.99893E+01-1.10242E-02-2.49835E-04-8.68477E-02 3.53450E-14-2.49881E-15
 -1      2780 1.99939E+01-1.51539E-02-7.74225E-05-9.45735E-02-1.31082E-15 5.04055E-15
 -1      2781 2.00144E+01-8.15856E-03 9.69904E-05-8.00596E-02 1.51289E-14 7.94241E-14
 -1      2782 2.00047E+01-8.17132E-03-1.37802E-04-8.22971E-02-4.25946E-14 2.09006E-14
 -1      2783 2.00042E+01-1.08882E-02-1.16299E-04-8.97880E-02-3.21972E-14-1.26663E-14
 -1      2784 2.00314E+01-1.24390E-02-6.28040E-05-7.56205E-02-9.50926E-15 1.15996E-13
 -1      2785 2.00216E+01-9.47943E-03 2.09127E-05-7.85556E-02 4.85215E-14 1.30195E-13
 -1      2786 2.00168E+01-1.12180E-02-1.85840E-04-8.66024E-02 9.42163E-15 8.85703E-14
 -1      2787 2.00510E+01-2.43388E-02-3.14582E-04-6.76344E-02-2.40106E-14 7.57864E-14
 -1      2788 2.00412E+01-1.70911E-02 2.41809E-04-7.30444E-02-4.43901E-14 1.18367E-13
 -1      2789 2.00331E+01-1.86343E-02-2.92094E-04-8.28011E-02-2.60574E-14 1.70928E-13
 -1      2790 2.00745E+01-4.66913E-02-6.90021E-04-5.15498E-02-5.54037E-14 1.99527E-13
 -1      2791 2.00648E+01-3.36422E-02 5.40870E-04-6.19152E-02-1.12290E-14 1.20040E-13
 -1      2792 2.00551E+01-3.62357E-02-4.39889E-04-7.49549E-02-8.00473E-14 8.92832E-14
 -1      2793 2.01029E+01-8.23638E-02-1.21810E-03-2.12264E-02-1.19779E-14 3.34787E-13
 -1      2794 2.00938E+01-6.20481E-02 9.27120E-04-3.97811E-02-2.00053E-14 2.47760E-13
 -1      2795 2.00853E+01-6.75437E-02-6.26899E-04-5.81066E-02-7.01663E-14 1.04381E-13
 -1      2796 2.01368E+01-1.33392E-01-1.91257E-03 3.10338E-02 1.19201E-13 1.69424E-13
 -1      2797 2.01293E+01-1.04910E-01 1.38973E-03 4.16946E-04 8.13093E-14 2.59688E-13
 -1      2798 2.01266E+01-1.15905E-01-8.33542E-04-2.55121E-02 8.32468E-14 1.20606E-13
 -1      2799 2.01756E+01-1.99451E-01-2.74941E-03 1.13942E-01 1.05180E-13 4.18516E-14
 -1      2800 2.01716E+01-1.63348E-01 1.87859E-03 6.71825E-02 1.27968E-13 1.51025E-13
 -1      2801 2.01818E+01-1.83250E-01-1.00847E-03 3.13809E-02 1.80374E-13 5.04975E-14
 -1      2802 2.02162E+01-2.75596E-01-3.63173E-03 2.35764E-01 7.92446E-14 8.90172E-14
 -1      2803 2.02188E+01-2.35120E-01 2.28045E-03 1.69516E-01 9.29078E-14 4.76978E-14
 -1      2804 2.02522E+01-2.68007E-01-1.05299E-03 1.22391E-01 1.04609E-13 1.12361E-13
 -1      2805 2.02518E+01-3.49582E-01-4.34518E-03 4.01476E-01 1.50259E-14 7.72759E-14
 -1      2806 2.02653E+01-3.12085E-01 2.40071E-03 3.14763E-01 4.89956E-14 1.12058E-13
 -1      2807 2.03360E+01-3.62150E-01-8.15605E-04 2.56994E-01 2.27134E-14 4.49914E-14
 -1      2808 2.02702E+01-3.99779E-01-4.52394E-03 6.08187E-01-2.41746E-13 2.62644E-14
 -1      2809 2.03000E+01-3.77638E-01 1.97522E-03 5.04760E-01-4.72740E-14 8.83740E-14
 -1      2810 2.04255E+01-4.47945E-01-1.17921E-04 4.40995E-01-4.94955E-15 8.91174E-14
 -1      2811 2.02538E+01-3.95796E-01-3.67480E-03 8.39126E-01-4.29428E-13 7.78626E-14
 -1      2812 2.03057E+01-4.05600E-01 7.44492E-04 7.30152E-01-4.02050E-13 5.43675E-14
 -1      2813 2.05046E+01-4.95921E-01 1.15698E-03 6.70931E-01-2.82707E-13 7.23978E-14
 -1      2814 2.01829E+01-3.04780E-01-1.38776E-03 1.05791E+00-1.98014E-13 1.92028E-13
 -1      2815 2.02603E+01-3.63161E-01-1.35471E-03 9.63858E-01-3.29053E-13 1.07805E-13
 -1      2816 2.05481E+01-4.67056E-01 2.88679E-03 9.26482E-01-3.93678E-13-4.88735E-14
 -1      2817 2.00438E+01-1.05545E-01 2.30240E-03 1.20748E+00 7.94795E-14 1.02965E-13
 -1      2818 2.01448E+01-2.20946E-01-4.00613E-03 1.15691E+00 1.81117E-14 2.29889E-13
 -1      2819 2.05264E+01-3.22921E-01 4.46224E-03 1.16323E+00-1.32267E-13-1.13646E-13
 -1      2820 1.98409E+01 1.92044E-01 6.51998E-03 1.21936E+00 1.67157E-13 2.10813E-14
 -1      2821 1.99548E+01 2.97635E-02-6.17781E-03 1.24257E+00 1.45404E-13 1.25755E-13
 -1      2822 2.04177E+01-4.53516E-02 4.81767E-03 1.31193E+00 9.15538E-14-1.41052E-13
 -1      2823 1.96077E+01 5.32036E-01 9.43915E-03 1.03762E+00 1.07335E-13-4.53453E-14
 -1      2824 1.97150E+01 3.57716E-01-6.52770E-03 1.15414E+00 1.11682E-13-3.58654E-14
 -1      2825 2.02265E+01 3.39803E-01 2.99748E-03 1.29203E+00 1.24101E-13 1.69639E-14
 -1      2826 1.94057E+01 8.18745E-01 9.19383E-03 6.52129E-01 8.71069E-14 1.71135E-13
 -1      2827 1.94823E+01 6.85013E-01-4.06539E-03 8.56807E-01 1.33831E-13 1.03952E-13
 -1      2828 1.99984E+01 7.49666E-01-9.88215E-04 1.04432E+00 6.80191E-14 1.40620E-13
 -1      2829 1.93035E+01 9.52925E-01 5.40466E-03 1.21687E-01-2.62919E-14 2.24329E-13
 -1      2830 1.93293E+01 9.08019E-01 8.10067E-04 3.78540E-01 4.17882E-14 2.16701E-13
 -1      2831 1.98130E+01 1.06192E+00-5.31709E-03 5.72465E-01 9.69065E-15 3.37890E-13
 -1      2832 1.93414E+01 8.83129E-01-1.56359E-04-4.35786E-01 5.82066E-14 6.31937E-14
 -1      2833 1.93097E+01 9.44656E-01 6.20852E-03-1.83765E-01 1.96522E-15 1.16179E-13
 -1      2834 1.97480E+01 1.16621E+00-7.14693E-03-3.51747E-02 2.52546E-14 1.64167E-13
 -1      2835 1.95071E+01 6.36094E-01-4.80198E-03-8.89959E-01 2.75368E-14 9.64294E-14
 -1      2836 1.94272E+01 7.80417E-01 9.47402E-03-6.97842E-01 5.74372E-14 5.16273E-14
 -1      2837 1.98327E+01 1.02312E+00-4.92889E-03-6.30227E-01 5.76050E-14-5.27971E-14
 -1      2838 1.97416E+01 3.00696E-01-6.76446E-03-1.15343E+00-2.03614E-13 9.88806E-14
 -1      2839 1.96347E+01 4.77120E-01 9.19570E-03-1.05263E+00-8.61471E-14 1.52267E-13
 -1      2840 2.00280E+01 6.85954E-01-4.18796E-04-1.07007E+00-3.32335E-14 1.46949E-13
 -1      2841 1.99727E+01-2.06313E-02-6.01757E-03-1.20900E+00-2.47117E-13 2.22982E-13
 -1      2842 1.98628E+01 1.36705E-01 5.98534E-03-1.20020E+00-2.28315E-13 9.27545E-14
 -1      2843 2.02529E+01 2.70730E-01 3.42410E-03-1.27899E+00-1.84593E-13 1.08152E-13
 -1      2844 2.01473E+01-2.55840E-01-3.64981E-03-1.09892E+00-3.27082E-14 1.57009E-13
 -1      2845 2.00529E+01-1.49098E-01 1.73269E-03-1.15976E+00-9.56097E-14 2.71042E-13
 -1      2846 2.04309E+01-1.03201E-01 4.94356E-03-1.26505E+00-1.52707E-13 1.29738E-13
 -1      2847 2.02458E+01-3.79961E-01-1.00059E-03-8.92440E-01 3.71095E-14 1.94806E-13
 -1      2848 2.01761E+01-3.30900E-01-1.82836E-03-9.91790E-01 9.14432E-15 1.64368E-13
 -1      2849 2.05227E+01-3.60517E-01 4.33132E-03-1.09385E+00-2.72920E-14 2.00643E-13
 -1      2850 2.02753E+01-4.05660E-01 1.03782E-03-6.55561E-01 3.19109E-13-3.13493E-14
 -1      2851 2.02311E+01-4.04131E-01-3.93933E-03-7.65236E-01 2.12869E-13 3.58268E-14
 -1      2852 2.05284E+01-4.82498E-01 2.67108E-03-8.46891E-01 2.18501E-13 9.23861E-14
 -1      2853 2.02564E+01-3.63612E-01 2.19970E-03-4.35128E-01 3.08786E-13-2.28885E-13
 -1      2854 2.02336E+01-3.92648E-01-4.65556E-03-5.35514E-01 2.70655E-13-8.85016E-14
 -1      2855 2.04720E+01-4.91521E-01 9.72069E-04-5.91364E-01 3.14821E-13-6.82356E-14
 -1      2856 2.02105E+01-2.85725E-01 2.64909E-03-2.56398E-01 5.81036E-14-3.32882E-13
 -1      2857 2.02033E+01-3.29413E-01-4.41310E-03-3.36961E-01 2.13643E-13-2.23309E-13
 -1      2858 2.03830E+01-4.26920E-01-2.20374E-04-3.68940E-01 2.61718E-13-2.05165E-13
 -1      2859 2.01545E+01-1.98397E-01 2.33966E-03-1.27996E-01 1.23472E-13-3.33949E-13
 -1      2860 2.01570E+01-2.44202E-01-3.81562E-03-1.85540E-01-1.32714E-14-4.75477E-13
 -1      2861 2.02855E+01-3.26610E-01-7.51066E-04-1.98392E-01 1.40098E-13-4.88962E-13
 -1      2862 2.01033E+01-1.20745E-01 1.88846E-03-4.76539E-02 2.73501E-13-4.06311E-13
 -1      2863 2.01115E+01-1.61688E-01-3.08150E-03-8.31644E-02 2.61551E-13-2.79220E-13
 -1      2864 2.02004E+01-2.20539E-01 3.68242E-04-8.21061E-02 9.70800E-14-4.55376E-13
 -1      2865 2.01283E+01-1.26383E-01 1.45687E-03-1.22958E-02 2.27414E-13-5.68035E-13
 -1      2866 2.01410E+01-2.17700E-03-7.94307E-04 4.49191E-01-6.81707E-14-1.43051E-13
 -1      2867 2.01895E+01-5.62037E-02 3.20988E-03 4.00145E-01 1.07633E-13-2.32762E-14
 -1      2868 9.75671E+00-1.64399E+00 2.31283E-02 6.71863E+00-3.64431E-13 3.38313E-13
 -1      2869 7.33727E+00-6.75606E-01 2.17546E-01 4.90634E+00-2.70589E-13 4.20580E-13
 -1      2870 3.05131E+01 1.97364E-02-4.86028E-02 5.40230E-01-8.21843E-14-2.97012E-13
 -1      2871 3.03957E+01 2.21559E+00-1.90146E-01 1.47700E+00 2.65066E-14-1.81188E-13
 -1      2872 2.01921E+01-1.47304E-01 2.82053E-03 7.09838E-02 2.37993E-13-2.23540E-13
 -1      2873 2.01597E+01-1.43592E-01 4.87009E-04 2.65767E-02 2.69531E-13-5.13926E-13
 -1      2874 2.01916E+01-1.93606E-01-2.63976E-03 3.00354E-03 1.69484E-13-5.39469E-13
 -1      2875 2.02578E+01-2.18023E-01-8.76951E-04 9.96495E-02 3.27004E-13-1.65990E-14
 -1      2876 1.99960E+01 1.52168E-01-3.45017E-03 5.16498E-01-7.09757E-14-1.19506E-13
 -1      2877 2.00783E+01 8.22357E-02 4.81680E-03 5.00123E-01-1.42423E-14-1.77138E-13
 -1      2878 2.01353E+01-4.59175E-02-4.19550E-03 5.39913E-01 1.41200E-14-1.46104E-13
 -1      2879 2.02180E+01-1.00975E-01 1.36574E-03 3.24379E-01 1.49729E-13 5.50481E-14
 -1      2880 2.02300E+01-1.34817E-01 1.33993E-03 2.61378E-01 1.88848E-13 3.97672E-13
 -1      2881 2.02807E+01-2.17303E-01-3.28279E-03 2.36987E-01 1.74359E-13 5.74425E-13
 -1      2882 2.02506E+01-1.66757E-01-4.06481E-03 4.01645E-01 1.56371E-13 8.54080E-15
 -1      2883 1.98056E+01 3.46310E-01-5.78718E-03 4.86673E-01-1.10664E-13-8.86718E-14
 -1      2884 1.99067E+01 2.70513E-01 5.60540E-03 5.18905E-01-7.03589E-14-5.18494E-14
 -1      2885 1.99412E+01 1.43996E-01-3.11655E-03 6.03386E-01 1.02499E-13-1.70789E-13
 -1      2886 1.96206E+01 5.41971E-01-7.03875E-03 3.41417E-01 1.40256E-13-1.14475E-13
 -1      2887 1.97120E+01 4.76875E-01 4.85755E-03 4.25073E-01-2.36844E-14-2.07350E-15
 -1      2888 1.97059E+01 3.78644E-01-5.57359E-04 5.48220E-01 2.89612E-14 5.16723E-14
 -1      2889 1.94998E+01 6.97545E-01-6.60086E-03 8.58892E-02 3.68994E-14-3.22366E-13
 -1      2890 1.95497E+01 6.57809E-01 2.24417E-03 2.13175E-01 3.11287E-14-3.86182E-13
 -1      2891 1.94916E+01 6.13493E-01 2.92445E-03 3.53676E-01 4.95649E-14-1.58806E-13
 -1      2892 1.95125E+01 7.60294E-01-3.57588E-03-2.26689E-01-6.38530E-14 1.09749E-13
 -1      2893 1.94892E+01 7.61769E-01-1.21391E-03-8.68801E-02 2.75733E-14 1.18808E-13
 -1      2894 1.93761E+01 7.87971E-01 5.64054E-03 3.68507E-02 5.53185E-14-1.56854E-13
 -1      2895 1.96814E+01 6.93977E-01-8.06126E-04-4.77086E-01 4.34546E-14 1.65245E-13
 -1      2896 1.95857E+01 7.41327E-01-4.29877E-03-3.70977E-01 1.37893E-13-3.17351E-14
 -1      2897 1.94400E+01 8.30368E-01 6.36330E-03-3.02807E-01-7.13837E-14 2.43460E-13
 -1      2898 1.96375E+01 7.37355E-01 6.89683E-04-5.50442E-01-3.76383E-14 1.62071E-13
 -1      2899 5.76160E+00-1.47537E-02 1.55436E-01 3.05721E+00-1.04451E-13 4.22717E-13
 -1      2900 5.56579E+00 3.90859E-01 1.71451E-01 5.12754E-01-2.63911E-13 2.23932E-13
 -1      2901 3.11927E+01 2.58097E+00-1.99561E-01-1.27813E+00 4.31738E-13-6.42375E-13
 -1      2902 3.09501E+01 6.51541E-01-6.35591E-02-6.20260E-01 2.39614E-13-6.87755E-13
 -1      2903 3.04653E+01 4.97397E+00-1.30374E-01 1.72673E+00 1.89099E-13-2.47830E-13
 -1      2904 3.01348E+01 6.73848E+00-2.06218E-01 1.35377E+00 1.38584E-13-2.82996E-13
 -1      2905 1.92188E+01-4.26662E+00 5.87613E-02-5.80059E+00 1.17295E-13 2.27984E-13
 -1      2906 1.80590E+01-3.90921E+00-1.58411E-03 7.38334E+00-3.30222E-13-1.74194E-13
 -1      2907 1.39884E+01-2.68430E+00 2.40666E-01 7.51285E+00-3.20771E-13 9.76580E-14
 -1      2908 1.99232E+01 2.59673E+00-7.87136E-03 7.93912E-01 2.63118E-13-1.55824E-13
 -1      2909 1.98793E+01 2.68883E+00-6.13684E-03 6.45056E-01 2.31299E-13-1.80545E-13
 -1      2910 1.99977E+01 2.38922E+00 4.26465E-03 5.16303E-01 2.09785E-13-1.68292E-13
 -1      2911 2.00792E+01 2.19138E+00 5.44309E-03 7.45386E-01 2.41490E-13-1.24886E-13
 -1      2912 1.57503E+01-8.32645E-01 1.26333E-01-5.48180E+00 5.63161E-14-6.76542E-14
 -1      2913 1.54285E+01 8.16986E-01 1.35848E-01-4.92128E+00 8.74439E-14-7.69246E-14
 -1      2914 1.27243E+01-1.72064E-01 2.23088E-01 5.00219E+00-2.91434E-15 2.06501E-14
 -1      2915 1.98743E+01 2.69751E+00-6.10082E-03-6.34816E-01 1.43369E-14-2.95166E-13
 -1      2916 1.99174E+01 2.60778E+00-7.73224E-03-7.84101E-01-2.09496E-14-2.93451E-13
 -1      2917 2.20066E+01-4.81223E+00 1.08542E-01-6.69787E+00 5.42205E-14-4.03490E-13
 -1      2918 2.48450E+01-4.82730E+00-5.80095E-02-5.41847E+00 2.66592E-14-3.08059E-13
 -1      2919 1.52218E+01-3.33836E+00 1.32194E-01-7.76859E+00 1.72237E-13-4.36068E-13
 -1      2920 1.86957E+01-4.42234E+00 1.77097E-02-7.71466E+00 1.49714E-13-5.24851E-13
 -1      2921 2.09821E+01-4.25618E+00 1.05143E-01-6.59735E+00 7.64805E-14-3.20848E-13
 -1      2922 6.09517E+00 8.06367E-01 1.59114E-01-8.56124E-01 2.29539E-14-4.16167E-13
 -1      2923 6.40812E+00 3.00616E-01 1.51345E-01-3.29016E+00-5.74957E-14-3.54550E-13
 -1      2924 8.20650E+00-5.95405E-01 1.82072E-01-5.28440E+00-3.27099E-14-5.02376E-13
 -1      2925 1.13435E+01-1.86329E+00 1.14419E-01-7.08772E+00 9.73804E-14-5.24886E-13
 -1      2926 2.60167E+01-4.53387E+00-4.59198E-02 4.18157E+00 5.61634E-14-7.40349E-13
 -1      2927 2.27261E+01-4.62559E+00 7.17516E-02 5.92020E+00-8.47517E-14-4.81764E-13
 -1      2928 3.01466E+01-1.69543E+00-1.26903E-01 7.58358E-01 2.30622E-13-7.62349E-13
 -1      2929 2.83954E+01-3.35116E+00-4.29432E-03 2.17452E+00 1.83832E-13-9.47187E-13
 -1      2930 2.95544E+01-8.24313E-01-6.60995E-02-4.14432E-01 1.69021E-13-6.58418E-13
 -1      2931 3.03776E+01 6.17103E+00-2.22473E-01-1.56896E+00 3.34288E-13-3.71064E-13
 -1      2932 3.09326E+01 4.57761E+00-1.34600E-01-1.71685E+00 4.25937E-13-5.07483E-13
 -1      2933 1.72166E+01-2.33537E+00 2.09835E-01-6.01451E+00 1.00725E-13 1.33615E-13
 -1      2934 1.02771E+01 8.54125E-01 1.43837E-01 3.55592E+00 1.64452E-14-1.42192E-13
 -1      2935 1.35849E+01-1.29055E+00 1.05251E-01-5.56069E+00-8.23230E-14 1.25483E-13
 -1      2936 1.99721E+01 2.48814E+00-6.02597E-03-9.01606E-01-4.93963E-14-2.86615E-13
 -1      2937 2.00370E+01 2.34399E+00-8.97324E-03-1.03428E+00-7.63191E-14-2.79995E-13
 -1      2938 2.00735E+01 2.20541E+00 6.06881E-03-7.38982E-01-4.28810E-14-2.55690E-13
 -1      2939 1.99323E+01 2.53948E+00 3.42702E-03 4.62567E-03 1.12909E-13-2.31869E-13
 -1      2940 1.97934E+01 2.87084E+00-5.49409E-03-6.18309E-02 1.04537E-13-2.62060E-13
 -1      2941 1.98009E+01 2.85619E+00-5.55562E-03-2.16464E-01 8.24489E-14-2.67627E-13
 -1      2942 2.03240E+01 1.60369E+00 1.62343E-03 1.26992E+00 2.79582E-13 8.01893E-14
 -1      2943 1.11488E+01-5.53527E-01 2.54462E-01-4.79355E+00-1.09468E-13 2.77500E-13
 -1      2944 1.34987E+01 1.43839E+00 7.61467E-02-4.05635E+00 3.17524E-14 1.33560E-13
 -1      2945 2.02197E+01 6.75305E-01-1.90783E-03 4.17819E-01 1.73538E-13 2.22707E-14
 -1      2946 2.01793E+01 6.17212E-01 1.49832E-03 4.45702E-01 1.81057E-13 6.00687E-14
 -1      2947 2.77421E+01 6.82149E+00-1.58242E-01-8.27765E-01 3.63709E-13 8.70068E-14
 -1      2948 2.93528E+01 6.71206E+00-1.46383E-01-1.26313E+00 3.97821E-13-2.48086E-13
 -1      2949 2.79896E+01 5.46132E+00-9.69686E-02-1.63899E+00 5.05401E-13 2.42341E-14
 -1      2950 8.16676E+00 1.40810E+00 1.80007E-01-4.11156E-01-1.64788E-13 3.32789E-14
 -1      2951 7.01022E+00 7.66111E-01 2.55856E-01-1.43075E+00-1.31678E-13 2.00950E-14
 -1      2952 2.93746E+01-1.35411E+00-3.32616E-02-1.08357E-01-1.40457E-13-2.16105E-13
 -1      2953 1.29893E+01-1.52709E+00 1.58958E-01 6.57278E+00-3.84345E-13 2.20338E-13
 -1      2954 8.26794E+00 4.97038E-01 1.97592E-01 3.65000E+00-2.25757E-13 2.95042E-13
 -1      2955 2.83691E+01 1.60475E+00-5.98812E-02 1.80396E+00-1.64729E-14-5.93969E-14
 -1      2956 2.95566E+01 3.15183E+00-1.24766E-01 1.90205E+00 1.17073E-13-1.69337E-13
 -1      2957 2.81268E+01 3.95247E+00-1.14919E-01 2.08611E+00 1.14728E-13-5.00988E-14
 -1      2958 2.92411E+01 7.10884E+00-1.57840E-01 9.76238E-01 1.14658E-13-9.26551E-14
 -1      2959 2.79143E+01 7.08884E+00-1.55678E-01 4.51260E-01 1.05471E-13 1.05468E-13
 -1      2960 2.80395E+01 6.03106E+00-1.22101E-01 1.39588E+00 9.12603E-14 1.94150E-14
 -1      2961 2.96905E+01 3.12293E+00-8.72119E-02-1.82068E+00 3.93546E-13-3.47986E-13
 -1      2962 2.02109E+01 6.97868E-01 6.57004E-03 5.57908E-01 1.94610E-13 8.27366E-14
 -1      2963 8.26029E+00 1.52530E+00 2.57331E-01 1.07211E+00 3.31601E-14-3.64930E-13
 -1      2964 2.70527E+01-4.11033E+00-1.48429E-02 2.83384E+00 3.95517E-15-7.79529E-13
 -1      2965 2.54146E+01-4.12362E+00 1.02735E-02 3.38372E+00-6.62968E-14-8.30240E-13
 -1      2966 2.73857E+01-3.29398E+00-4.09440E-02 1.45979E+00 1.15890E-13-5.52947E-13
 -1      2967 1.40560E+01-2.29440E+00 1.36637E-01-7.18836E+00 3.45696E-14-4.78700E-13
 -1      2968 1.63968E+01-2.58985E+00 6.78437E-03-6.87693E+00 8.83876E-14-4.21857E-13
 -1      2969 1.30334E+01-9.07025E-01 9.70634E-02-6.22488E+00-1.00336E-14-4.89997E-13
 -1      2970 2.09778E+01-4.17968E+00 8.38434E-02 6.48738E+00-1.75054E-13-2.50189E-13
 -1      2971 1.88081E+01-3.15656E+00 4.39839E-02 6.43733E+00-2.14967E-13-1.67338E-13
 -1      2972 2.28328E+01-3.99465E+00 3.77128E-02 5.00104E+00-1.60287E-13-6.82112E-13
 -1      2973 2.03172E+01 1.39058E+00 8.87641E-03 1.02315E+00 2.46082E-13 5.10362E-14
 -1      2974 9.06330E+00 4.53689E-01 1.79399E-01-4.10178E+00-1.33157E-14-4.71873E-13
 -1      2975 1.55632E+01 2.42112E+00 8.53845E-02-2.81337E+00-1.53228E-13-1.29646E-13
 -1      2976 1.98165E+01 2.82072E+00-5.70195E-03-3.51535E-01 5.97639E-14-2.72092E-13
 -1      2977 1.98407E+01 2.77242E+00-6.19545E-03-5.05047E-01 2.89190E-14-2.82186E-13
 -1      2978 1.99936E+01 2.39696E+00 4.27484E-03-5.07250E-01 7.60283E-15-2.61377E-13
 -1      2979 1.99469E+01 2.50542E+00 3.59476E-03-2.55561E-01 6.91238E-14-2.53999E-13
 -1      2980 2.65907E+01-4.37757E+00 5.39866E-02-4.00329E+00-2.09416E-14-2.24210E-13
 -1      2981 2.72694E+01-3.89456E+00-1.25038E-01-2.39879E+00-8.57456E-14-2.24563E-13
 -1      2982 2.50757E+01-4.41879E+00 3.96703E-02-4.39125E+00-6.77930E-15-2.46109E-13
 -1      2983 9.18927E+00 1.87017E+00 1.01795E-01 2.01584E-01 2.65864E-14-3.19272E-13
 -1      2984 8.99980E+00 1.13807E-02 1.42867E-01-3.65198E+00-1.55820E-13 2.76168E-13
 -1      2985 1.09839E+01 9.06118E-01 1.25976E-01-3.61055E+00 9.43273E-14 1.54349E-13
 -1      2986 2.02359E+01 1.47648E+00-9.94786E-03 8.06795E-01 2.24598E-13-4.35767E-14
 -1      2987 2.02004E+01 1.66693E+00-1.46826E-03 7.43943E-01 2.26772E-13-7.71487E-14
 -1      2988 2.02595E+01 7.55332E-01 6.69467E-03 7.54803E-01 2.12444E-13 1.37883E-13
 -1      2989 1.92850E+01 6.68969E-01-9.46442E-03 4.04116E-01 1.40473E-14-1.64057E-13
 -1      2990 1.94205E+01 5.79927E-01 7.19890E-03 5.38240E-01 9.64023E-14-4.70940E-14
 -1      2991 2.00848E+01 2.25122E+00-6.07220E-03-1.11705E+00-9.24365E-14-2.71764E-13
 -1      2992 2.01632E+01 2.06806E+00-8.25568E-03-1.19942E+00-1.28852E-13-2.37275E-13
 -1      2993 2.02345E+01 1.76662E+00 5.80550E-03-1.03779E+00-1.34391E-13-2.21768E-13
 -1      2994 2.01669E+01 1.98091E+00 8.00356E-03-9.14669E-01-8.02705E-14-2.64832E-13
 -1      2995 2.02934E+01 1.15565E+00 5.75951E-03-6.65901E-01-1.27936E-13-1.85921E-13
 -1      2996 2.02564E+01 9.10250E-01-4.84437E-03-4.79304E-01-1.12619E-13-2.07990E-13
 -1      2997 2.02711E+01 7.14087E-01 4.65453E-03-3.44644E-01-9.41901E-14-1.83763E-13
 -1      2998 2.02268E+01 5.51281E-01-3.69614E-03-2.14296E-01-8.17610E-14-1.79696E-13
 -1      2999 2.02834E+01 9.46523E-01 2.54891E-04-4.23519E-01-9.67336E-14-1.99705E-13
 -1      3000 2.02214E+01 4.23919E-01 4.16161E-03-1.18890E-01-8.77123E-14-1.36690E-13
 -1      3001 2.01819E+01 3.16145E-01-2.31303E-03-3.38795E-02-9.20275E-14-1.26157E-13
 -1      3002 2.02722E+01 5.80582E-01-3.05759E-04-1.87823E-01-6.12008E-14-1.64903E-13
 -1      3003 2.01677E+01 2.32664E-01 3.17590E-03 2.78121E-02-1.10064E-13-1.00693E-13
 -1      3004 2.01375E+01 1.62220E-01-1.29820E-03 7.89677E-02-1.17483E-13-1.25637E-13
 -1      3005 2.02375E+01 3.33096E-01-8.29482E-04-2.47336E-02-8.95115E-14-1.26358E-13
 -1      3006 2.01208E+01 1.08356E-01 2.23222E-03 1.15070E-01-1.12765E-13-1.04480E-13
 -1      3007 2.00997E+01 6.33812E-02-6.15029E-04 1.42527E-01-1.04991E-13-1.20406E-13
 -1      3008 2.01968E+01 1.68940E-01-1.00977E-03 7.84208E-02-1.13074E-13-8.69512E-14
 -1      3009 2.00834E+01 2.96224E-02 1.45810E-03 1.60521E-01-9.43087E-14-1.16835E-13
 -1      3010 2.00699E+01 2.12433E-03-1.76514E-04 1.72133E-01-8.35244E-14-1.26417E-13
 -1      3011 2.01578E+01 6.29918E-02-9.69123E-04 1.36875E-01-1.01176E-13-1.12841E-13
 -1      3012 2.00554E+01-1.78616E-02 8.71023E-04 1.78030E-01-4.73705E-14-1.08607E-13
 -1      3013 2.00477E+01-3.33331E-02 9.52352E-05 1.79595E-01-1.56116E-14-1.00336E-13
 -1      3014 2.01237E+01-2.58644E-03-8.41766E-04 1.64149E-01-5.17946E-14-1.00361E-13
 -1      3015 2.00354E+01-4.38558E-02 4.46317E-04 1.77966E-01-8.89282E-15-1.12750E-13
 -1      3016 2.00318E+01-5.10650E-02 2.57882E-04 1.73669E-01 5.18048E-15-1.00554E-13
 -1      3017 2.00954E+01-4.01741E-02-6.95646E-04 1.70964E-01-4.13067E-15-1.10970E-13
 -1      3018 2.00216E+01-5.50975E-02 1.50061E-04 1.67871E-01-1.01567E-14-1.02836E-13
 -1      3019 2.00209E+01-5.66476E-02 3.51239E-04 1.60683E-01-2.97392E-14-1.18395E-13
 -1      3020 2.00725E+01-5.84089E-02-5.56919E-04 1.65421E-01-1.21465E-14-1.08753E-13
 -1      3021 2.00127E+01-5.62256E-02-5.22364E-05 1.53121E-01-5.96670E-14-1.00704E-13
 -1      3022 2.00139E+01-5.38759E-02 4.02709E-04 1.45136E-01-1.74735E-14-1.18055E-13
 -1      3023 2.00546E+01-6.33101E-02-4.33920E-04 1.53437E-01-3.80362E-14-7.21101E-14
 -1      3024 2.00073E+01-5.03388E-02-1.91420E-04 1.37508E-01 1.10396E-14-1.92207E-13
 -1      3025 2.00097E+01-4.52004E-02 4.31330E-04 1.30208E-01-5.10134E-14-1.08648E-13
 -1      3026 2.00406E+01-5.89728E-02-3.26258E-04 1.39244E-01-2.72698E-14-1.12205E-13
 -1      3027 2.00042E+01-3.93370E-02-2.94308E-04 1.23718E-01-7.71092E-14-8.44069E-14
 -1      3028 2.00075E+01-3.19903E-02 4.50117E-04 1.18192E-01-1.64621E-14-7.66496E-14
 -1      3029 2.00297E+01-4.80085E-02-2.28375E-04 1.25837E-01-3.90041E-14-1.81676E-13
 -1      3030 2.00026E+01-2.41184E-02-3.85071E-04 1.13713E-01-3.45705E-15-6.74967E-14
 -1      3031 2.00062E+01-1.46686E-02 4.67135E-04 1.10831E-01-3.50913E-14-7.48277E-14
 -1      3032 2.00209E+01-3.18148E-02-1.30381E-04 1.15356E-01-3.14652E-14-7.21492E-14
 -1      3033 2.00013E+01-4.65914E-03-4.87443E-04 1.09048E-01-7.97139E-14-4.50946E-14
 -1      3034 2.00049E+01 7.26260E-03 4.85380E-04 1.09612E-01-1.05495E-13-4.26863E-14
 -1      3035 2.00128E+01-1.07119E-02-1.70053E-05 1.09386E-01-4.34450E-14-9.87282E-14
 -1      3036 1.99987E+01 2.00169E-02-6.27493E-04 1.11120E-01-7.08466E-14 1.68585E-14
 -1      3037 2.00016E+01 3.53119E-02 5.01167E-04 1.15990E-01-1.32044E-14 8.42366E-15
 -1      3038 2.00038E+01 1.60408E-02 1.35159E-04 1.09184E-01-3.51921E-14-4.35324E-14
 -1      3039 1.99927E+01 5.19888E-02-8.37046E-04 1.21367E-01-3.48976E-15 1.43043E-14
 -1      3040 1.99939E+01 7.22143E-02 4.99877E-04 1.31575E-01-1.28051E-14-7.15798E-15
 -1      3041 1.99915E+01 5.03504E-02 3.62446E-04 1.15829E-01-3.07895E-14-2.41574E-14
 -1      3042 1.99797E+01 9.47244E-02-1.15872E-03 1.41398E-01 8.16262E-15-1.21646E-14
 -1      3043 1.99774E+01 1.22302E-01 4.53529E-04 1.58239E-01 6.49732E-14-5.54897E-14
 -1      3044 1.99719E+01 9.55277E-02 7.22303E-04 1.30276E-01 4.38285E-15 1.60433E-15
 -1      3045 1.99539E+01 1.53437E-01-1.67918E-03 1.73044E-01 3.21806E-14-4.87365E-14
 -1      3046 1.99448E+01 1.91972E-01 3.39181E-04 1.98122E-01-1.65204E-14-1.26100E-13
 -1      3047 1.99392E+01 1.56699E-01 1.31573E-03 1.53265E-01 1.49273E-14-1.11191E-13
 -1      3048 1.99038E+01 2.38604E-01-2.41510E-03 2.19286E-01-6.32929E-14-1.20866E-13
 -1      3049 1.98796E+01 2.96171E-01-4.06390E-05 2.56558E-01-5.40211E-14-2.07295E-13
 -1      3050 1.98819E+01 2.43452E-01 2.17184E-03 1.85981E-01-2.80508E-14-1.87900E-13
 -1      3051 1.98137E+01 3.59923E-01-3.52789E-03 2.81791E-01-1.62796E-15-1.37998E-13
 -1      3052 1.97665E+01 4.37898E-01-1.01720E-03 3.29330E-01 9.10921E-14-1.43136E-13
 -1      3053 1.97850E+01 3.65675E-01 3.84574E-03 2.26259E-01 1.08259E-14-8.84208E-14
 -1      3054 1.96602E+01 5.28232E-01-5.02710E-03 3.57665E-01 6.36516E-14-2.48778E-13
 -1      3055 1.95714E+01 6.36810E-01-2.71414E-03 4.17894E-01 4.06717E-15-3.32938E-13
 -1      3056 1.96272E+01 5.31908E-01 6.21898E-03 2.69030E-01 4.11737E-14-1.91884E-13
 -1      3057 1.94012E+01 7.62316E-01-7.16950E-03 4.44679E-01 2.68610E-14-3.20699E-13
 -1      3058 1.92424E+01 9.09727E-01-5.78021E-03 5.16053E-01-1.93673E-14-3.83961E-13
 -1      3059 1.93701E+01 7.59698E-01 9.91739E-03 3.05428E-01-2.47942E-14-2.83568E-13
 -1      3060 1.89743E+01 1.07798E+00-1.01417E-02 5.31867E-01-1.02996E-13-3.58921E-13
 -1      3061 1.87011E+01 1.26880E+00-1.09408E-02 6.08291E-01-2.28435E-14-4.66303E-13
 -1      3062 1.89589E+01 1.06220E+00 1.55017E-02 3.16230E-01-5.46347E-14-3.09316E-13
 -1      3063 1.82854E+01 1.48063E+00-1.42079E-02 5.96584E-01 4.79445E-14-3.92099E-13
 -1      3064 1.78312E+01 1.70772E+00-1.85419E-02 6.65261E-01 4.28663E-14-4.44188E-13
 -1      3065 1.83126E+01 1.44311E+00 2.39352E-02 2.67182E-01-1.18286E-16-2.68545E-13
 -1      3066 1.71954E+01 1.94515E+00-1.91238E-02 6.01310E-01 7.32543E-14-4.16267E-13
 -1      3067 1.64661E+01 2.17322E+00-2.60979E-02 6.43892E-01 7.01800E-14-2.74795E-13
 -1      3068 1.73155E+01 1.88053E+00 3.75190E-02 1.03560E-01 9.76018E-14-2.56246E-13
 -1      3069 1.55006E+01 2.37576E+00-2.14881E-02 4.99941E-01-1.47087E-14-2.44603E-13
 -1      3070 1.43729E+01 2.51187E+00-1.99650E-02 5.03770E-01-1.26158E-14-2.46581E-13
 -1      3071 1.57983E+01 2.29745E+00 6.22008E-02-2.51587E-01 2.48347E-14-2.84408E-13
 -1      3072 1.29125E+01 2.53187E+00-1.90885E-03 2.65913E-01 1.92693E-14-2.11275E-13
 -1      3073 1.12738E+01 2.34048E+00 4.35042E-02 2.19244E-01 8.23994E-14-2.78444E-13
 -1      3074 1.35223E+01 2.49060E+00 1.12861E-01-8.82416E-01 4.83251E-14-2.56007E-13
 -1      3075 2.02372E+01 7.06883E-01-3.35569E-03 3.53184E-01 1.80280E-13-1.10095E-14
 -1      3076 2.02797E+01 8.98069E-01 1.19295E-03 5.16586E-01 1.75699E-13-8.73016E-15
 -1      3077 2.00630E+01 3.10191E-02-3.52409E-04-1.62309E-01 9.51523E-14-9.46583E-15
 -1      3078 2.00795E+01 6.58113E-02 1.89758E-03-1.43003E-01 1.10124E-13-1.63707E-14
 -1      3079 9.02299E+00 1.89222E+00 1.78906E-01 9.14448E-01-1.97606E-13 1.64591E-14
 -1      3080 9.83945E+00 2.01216E+00 6.46600E-02-1.07714E+00-3.92195E-14-1.70600E-13
 -1      3081 2.83351E+01-2.60811E+00 1.94028E-02-7.26090E-01-2.51859E-13-1.45384E-13
 -1      3082 2.83134E+01-8.99151E-01-1.03869E-01 8.08996E-01-1.94865E-13-1.48687E-13
 -1      3083 1.75939E+01 1.93008E+00-1.32740E-02-1.26147E+00 1.21248E-13-1.46515E-13
 -1      3084 1.80782E+01 1.68594E+00-1.92959E-02-1.09719E+00 1.36435E-13-9.58617E-14
 -1      3085 1.86113E+01 1.45547E+00-8.06834E-03-1.05148E+00 1.23738E-13 1.26303E-13
 -1      3086 1.88979E+01 1.24277E+00-1.41735E-02-9.05127E-01 7.58320E-14 1.00005E-13
 -1      3087 1.80236E+01 1.70237E+00 2.67520E-02-6.92648E-01 2.61267E-13-1.87504E-13
 -1      3088 1.92405E+01 1.06295E+00-2.82410E-03-8.46951E-01-3.69550E-14 9.67087E-14
 -1      3089 1.93993E+01 9.05715E-01-8.74795E-03-7.21140E-01-1.95501E-14 1.00460E-13
 -1      3090 1.88394E+01 1.27059E+00 1.73771E-02-6.43484E-01 1.12536E-14 2.27132E-13
 -1      3091 1.96002E+01 7.84881E-01 6.05007E-04-6.36364E-01-1.20759E-13 1.53785E-13
 -1      3092 2.00214E+01-4.08081E-02 1.83224E-04-1.80765E-01 4.51845E-14 2.69727E-14
 -1      3093 2.00257E+01-2.99129E-02 6.46878E-04-1.82490E-01 5.25199E-14 2.07732E-14
 -1      3094 2.00100E+01-5.21736E-02 2.96598E-04-1.70587E-01 1.57434E-14 3.07105E-14
 -1      3095 2.00109E+01-4.78458E-02 2.77995E-04-1.76739E-01 3.12421E-14 2.31272E-14
 -1      3096 2.00681E+01-4.81149E-02-6.24545E-04-1.73067E-01 3.87701E-14 8.55893E-14
 -1      3097 2.00029E+01-5.41104E-02 3.54883E-04-1.55383E-01 2.61417E-14-3.77381E-15
 -1      3098 2.00016E+01-5.41299E-02 3.09008E-05-1.63489E-01 5.08250E-14 2.62401E-14
 -1      3099 2.00492E+01-5.96522E-02-4.82050E-04-1.63484E-01 4.78214E-14 3.74949E-14
 -1      3100 1.99990E+01-4.99830E-02 3.79042E-04-1.38841E-01 6.12324E-14-5.69551E-14
 -1      3101 1.99963E+01-5.27575E-02-1.26125E-04-1.47235E-01 1.94022E-14-2.54420E-14
 -1      3102 2.00349E+01-6.08515E-02-3.65775E-04-1.49307E-01 4.89091E-14-4.88614E-14
 -1      3103 1.99974E+01-4.22480E-02 3.82677E-04-1.23395E-01 1.18155E-13-2.88201E-14
 -1      3104 1.99939E+01-4.66061E-02-2.17594E-04-1.31004E-01 1.00806E-13-4.84379E-14
 -1      3105 2.00241E+01-5.54446E-02-2.75703E-04-1.34051E-01 6.62326E-14-6.50197E-14
 -1      3106 1.99977E+01-3.27942E-02 3.73944E-04-1.10541E-01 9.60729E-14 4.87362E-15
 -1      3107 1.99936E+01-3.78191E-02-2.60355E-04-1.16740E-01 1.53992E-13 3.15732E-14
 -1      3108 2.00162E+01-4.61865E-02-2.11312E-04-1.20052E-01 9.73843E-14-9.84494E-15
 -1      3109 1.99997E+01-2.32352E-02 3.56509E-04-1.01044E-01-2.53022E-14 1.77870E-14
 -1      3110 1.99951E+01-2.81178E-02-2.63708E-04-1.05567E-01 1.85769E-14-1.50431E-14
 -1      3111 2.00108E+01-3.52349E-02-1.73556E-04-1.08768E-01 5.86433E-14 8.17709E-14
 -1      3112 2.00034E+01-1.51840E-02 3.29852E-04-9.50463E-02-1.48604E-14 4.79757E-14
 -1      3113 1.99983E+01-1.90830E-02-2.29431E-04-9.79486E-02-1.42375E-14 9.67875E-15
 -1      3114 2.00078E+01-2.44868E-02-1.66227E-04-1.00973E-01-1.16635E-14 2.91853E-14
 -1      3115 2.00096E+01-1.05189E-02 2.89013E-04-9.20686E-02-7.17957E-15 2.42157E-14
 -1      3116 2.00037E+01-1.24249E-02-1.51565E-04-9.37436E-02-3.37761E-14 3.89435E-14
 -1      3117 2.00075E+01-1.58968E-02-1.97051E-04-9.68600E-02-3.15004E-14 7.72562E-14
 -1      3118 2.00195E+01-1.16330E-02 2.23780E-04-9.09142E-02-4.17098E-14 1.22337E-13
 -1      3119 2.00122E+01-1.02431E-02-1.61319E-05-9.21579E-02-2.18118E-14 6.79147E-14
 -1      3120 2.00107E+01-1.17855E-02-2.78444E-04-9.60385E-02-7.01740E-14 1.10510E-13
 -1      3121 2.00350E+01-2.16294E-02 1.17303E-04-8.94665E-02-7.24638E-14 1.40302E-13
 -1      3122 2.00256E+01-1.52561E-02 1.98715E-04-9.15896E-02-5.61100E-15 1.49065E-13
 -1      3123 2.00192E+01-1.51225E-02-4.27506E-04-9.74262E-02-5.95401E-14 1.86332E-13
 -1      3124 2.00589E+01-4.43812E-02-5.57037E-05-8.43882E-02-8.65875E-14 9.99370E-14
 -1      3125 2.00465E+01-3.09424E-02 5.21091E-04-8.93653E-02-8.41424E-14 1.09126E-13
 -1      3126 2.00357E+01-2.97327E-02-6.64338E-04-9.90210E-02-3.78661E-14 2.12732E-13
 -1      3127 2.00951E+01-8.43099E-02-3.30390E-04-7.07485E-02-3.00637E-14 4.43592E-14
 -1      3128 2.00785E+01-6.14851E-02 9.80581E-04-8.13768E-02-3.24099E-14 1.49127E-13
 -1      3129 2.00643E+01-6.03179E-02-1.00684E-03-9.75422E-02-5.34834E-14 1.14224E-13
 -1      3130 2.01482E+01-1.45657E-01-7.50828E-04-4.16537E-02 1.36552E-13-2.78722E-14
 -1      3131 2.01261E+01-1.11334E-01 1.59754E-03-6.16640E-02 6.66111E-14 4.47040E-14
 -1      3132 2.01107E+01-1.12108E-01-1.45993E-03-8.79470E-02 5.28056E-14 3.45214E-14
 -1      3133 2.02229E+01-2.30948E-01-1.36217E-03 1.19504E-02 9.14073E-14 7.67576E-14
 -1      3134 2.01945E+01-1.84125E-01 2.36316E-03-2.20581E-02 1.37374E-13 2.52617E-14
 -1      3135 2.01818E+01-1.89854E-01-1.99630E-03-6.28790E-02 7.68932E-14-4.83759E-14
 -1      3136 2.03227E+01-3.38352E-01-2.18696E-03 1.00969E-01 7.31217E-14 1.77534E-13
 -1      3137 2.02883E+01-2.80640E-01 3.20639E-03 4.78613E-02 9.29869E-14 1.90446E-13
 -1      3138 2.02850E+01-2.95800E-01-2.52768E-03-1.22190E-02 4.39751E-14 1.72732E-13
 -1      3139 2.04473E+01-4.57825E-01-3.17386E-03 2.36741E-01-2.51012E-14 1.81917E-13
 -1      3140 2.04091E+01-3.95572E-01 3.94794E-03 1.60005E-01 4.95471E-14 1.85914E-13
 -1      3141 2.04262E+01-4.26258E-01-2.87034E-03 7.68566E-02 3.57340E-14 2.23940E-13
 -1      3142 2.05891E+01-5.66608E-01-4.10950E-03 4.27630E-01-5.81260E-14 2.47535E-13
 -1      3143 2.05524E+01-5.13240E-01 4.25760E-03 3.25382E-01-2.79443E-14 2.28675E-13
 -1      3144 2.06062E+01-5.66747E-01-2.72663E-03 2.18495E-01-4.34322E-14 3.11174E-13
 -1      3145 2.07293E+01-6.25982E-01-4.51322E-03 6.72649E-01-3.08724E-13 1.73205E-13
 -1      3146 2.07032E+01-6.03379E-01 3.65991E-03 5.49018E-01-1.52303E-13 2.42430E-13
 -1      3147 2.08157E+01-6.86588E-01-1.71455E-03 4.24155E-01-1.29561E-13 3.16714E-13
 -1      3148 2.08369E+01-5.83223E-01-3.59373E-03 9.51862E-01-3.25483E-13-1.12705E-14
 -1      3149 2.08329E+01-6.19800E-01 1.64365E-03 8.21302E-01-3.46963E-13 7.14950E-14
 -1      3150 2.10295E+01-7.35603E-01 4.84159E-04 6.94440E-01-2.05683E-13 1.86365E-13
 -1      3151 2.08732E+01-3.84961E-01-6.87879E-04 1.21571E+00-4.65419E-14-1.05300E-13
 -1      3152 2.09014E+01-5.06892E-01-1.92808E-03 1.10661E+00-2.21043E-13-1.03635E-13
 -1      3153 2.12039E+01-6.48697E-01 3.75536E-03 1.00609E+00-2.12965E-13 4.24484E-14
 -1      3154 2.08070E+01-5.63671E-03 4.13434E-03 1.38208E+00-6.28740E-15 7.49556E-14
 -1      3155 2.08698E+01-2.20764E-01-6.63557E-03 1.33496E+00-4.63558E-14 1.93966E-15
 -1      3156 2.12844E+01-3.66281E-01 6.89293E-03 1.29762E+00-1.22404E-13 8.03275E-15
 -1      3157 2.06378E+01 5.16375E-01 9.28562E-03 1.35121E+00 7.36794E-14 2.03108E-13
 -1      3158 2.07238E+01 2.38143E-01-1.03173E-02 1.40842E+00 1.49418E-13 1.52170E-13
 -1      3159 2.12295E+01 1.27949E-01 7.80263E-03 1.46664E+00-1.28996E-14 1.93083E-13
 -1      3160 2.04170E+01 1.05528E+00 1.15127E-02 1.05051E+00-7.75074E-15 2.44410E-13
 -1      3161 2.05005E+01 7.88623E-01-1.05509E-02 1.23316E+00-3.16239E-14 2.12697E-13
 -1      3162 2.10457E+01 7.63368E-01 5.01360E-03 1.39301E+00 2.77136E-14 2.40314E-13
 -1      3163 2.02391E+01 1.42970E+00 8.19408E-03 4.91426E-01 8.42240E-14 1.87469E-13
 -1      3164 2.02892E+01 1.27046E+00-6.00203E-03 7.78156E-01 1.00181E-13 2.23851E-13
 -1      3165 2.08119E+01 1.36894E+00-9.46994E-04 1.00289E+00 3.91562E-14 2.41935E-13
 -1      3166 2.01961E+01 1.48822E+00 1.85521E-04-2.02076E-01 1.32075E-13-9.92627E-14
 -1      3167 2.01922E+01 1.50296E+00 1.56254E-03 1.20921E-01 1.52522E-13 4.02652E-14
 -1      3168 2.06540E+01 1.72840E+00-6.57526E-03 3.38085E-01 2.11562E-13 5.05879E-14
 -1      3169 2.03146E+01 1.20550E+00-7.53810E-03-8.37177E-01 2.30511E-14-1.69990E-13
 -1      3170 2.02590E+01 1.38806E+00 8.70491E-03-5.63507E-01 8.75800E-14-2.06718E-13
 -1      3171 2.06681E+01 1.69370E+00-7.09194E-03-4.24974E-01 2.12295E-13-3.13490E-13
 -1      3172 2.05342E+01 6.98865E-01-1.10852E-02-1.25015E+00-6.96665E-14-8.11522E-14
 -1      3173 2.04496E+01 9.74620E-01 1.13322E-02-1.08729E+00-6.54672E-14-1.51467E-13
 -1      3174 2.08466E+01 1.28243E+00-6.97717E-04-1.05553E+00-5.01285E-14-3.65236E-13
 -1      3175 2.07502E+01 1.51139E-01-1.00466E-02-1.38063E+00-2.48613E-13 5.59691E-14
 -1      3176 2.06676E+01 4.24765E-01 8.64690E-03-1.34299E+00-1.55385E-13 5.95205E-14
 -1      3177 2.10820E+01 6.56011E-01 5.54934E-03-1.39511E+00-2.01871E-13-2.39628E-13
 -1      3178 2.08790E+01-2.85775E-01-5.96148E-03-1.27312E+00-1.56900E-13 1.14277E-13
 -1      3179 2.08225E+01-8.34376E-02 3.41947E-03-1.33441E+00-2.18654E-13 7.80194E-14
 -1      3180 2.12509E+01 3.06352E-02 7.92600E-03-1.42182E+00-2.36751E-13-5.17014E-14
 -1      3181 2.08919E+01-5.43405E-01-1.33300E-03-1.02580E+00-2.05760E-14 1.49433E-13
 -1      3182 2.08709E+01-4.36340E-01-1.21817E-03-1.14256E+00-9.98213E-14 1.13868E-13
 -1      3183 2.12849E+01-4.34571E-01 6.57606E-03-1.22195E+00-1.13934E-13-2.38572E-13
 -1      3184 2.08084E+01-6.29193E-01 2.09181E-03-7.35095E-01 2.74635E-13 9.50810E-14
 -1      3185 2.08188E+01-6.05925E-01-3.85277E-03-8.67478E-01 1.54437E-13 1.38774E-13
 -1      3186 2.11863E+01-6.82953E-01 3.31553E-03-9.16668E-01 9.46633E-14-1.62576E-13
 -1      3187 2.06686E+01-5.90725E-01 3.87784E-03-4.66948E-01 2.73640E-13 1.21552E-13
 -1      3188 2.06999E+01-6.23884E-01-4.59688E-03-5.88195E-01 3.45300E-13 1.46542E-13
 -1      3189 2.10007E+01-7.39253E-01 1.93366E-04-6.04471E-01 2.18732E-13 2.47075E-13
 -1      3190 2.05116E+01-4.82799E-01 4.39978E-03-2.53493E-01 3.37054E-13-1.93216E-13
 -1      3191 2.05522E+01-5.44733E-01-4.17910E-03-3.50336E-01 3.61225E-13-5.53594E-14
 -1      3192 2.07817E+01-6.65787E-01-1.78250E-03-3.41458E-01 4.77487E-13 1.04599E-13
 -1      3193 2.03624E+01-3.49037E-01 3.97340E-03-1.05124E-01 1.83064E-13-2.54212E-13
 -1      3194 2.04044E+01-4.18366E-01-3.08524E-03-1.71740E-01 2.30919E-13-2.17413E-13
 -1      3195 2.05683E+01-5.25725E-01-2.90807E-03-1.47221E-01 2.92178E-13 5.26489E-16
 -1      3196 2.02496E+01-2.41076E-01 1.06202E-03-1.93160E-02 1.37782E-13-4.23310E-13
 -1      3197 2.02876E+01-3.00466E-01-2.73375E-03-6.38330E-02 8.51033E-14-3.91128E-13
 -1      3198 2.04071E+01-3.89481E-01-3.13150E-03-3.33924E-02 2.27796E-13-1.71986E-14
 -1      3199 2.02838E+01-2.61522E-01-4.42457E-04 2.55189E-02 1.94013E-13-3.35522E-13
 -1      3200 1.95688E+01 3.93806E-01-8.22658E-03 6.45639E-01-1.49015E-14 5.90028E-14
 -1      3201 1.97343E+01 2.92463E-01 8.61724E-03 7.04509E-01-7.98411E-14-7.31052E-14
 -1      3202 1.94048E+01 4.72643E-01-1.96660E-04 7.20098E-01-2.04494E-14 6.28578E-14
 -1      3203 1.91517E+01 8.68559E-01-8.94527E-03 1.62657E-02 1.54478E-13 3.25437E-14
 -1      3204 1.91982E+01 8.22865E-01 3.54826E-03 2.03195E-01 2.14269E-13-2.80630E-13
 -1      3205 1.90974E+01 7.96242E-01 4.09818E-03 4.02410E-01 5.96432E-14-9.99798E-14
 -1      3206 2.02904E+01 9.29822E-01-7.26602E-03 7.81029E-01 2.08283E-13 5.40744E-14
 -1      3207 2.81609E+01 3.43311E+00-1.44421E-01-2.06746E+00 4.00208E-13-1.31839E-14
 -1      3208 2.87809E+01 1.83688E+00-5.20219E-02-1.90847E+00 2.92461E-13-1.84144E-13
 -1      3209 2.87463E+01-5.97036E-02-1.31073E-01-1.20370E+00 1.96967E-13-3.88106E-13
 -1      3210 2.83176E+01-1.74999E+00-2.50648E-02-1.53416E-01 6.85979E-14-3.63848E-13
 -1      3211 2.77580E+01 5.30838E-01-5.08944E-02-1.63161E+00 1.23714E-13-5.81063E-14
 -1      3212 1.98909E+01 1.19479E-01-5.31148E-03 7.17406E-01 1.10124E-13-3.39622E-13
 -1      3213 2.00407E+01 2.45530E-02 7.54327E-03 7.06703E-01 1.82257E-13-3.24936E-13
 -1      3214 1.97853E+01 1.34546E-01-4.51719E-03 8.33550E-01 6.94785E-14-2.80165E-13
 -1      3215 1.36777E+01 2.46722E+00 1.74258E-02-1.88617E+00-2.72444E-13-1.61399E-13
 -1      3216 1.47439E+01 2.52660E+00-1.96870E-02-1.56942E+00-2.47771E-13-2.63185E-13
 -1      3217 1.60219E+01 2.38497E+00-4.19373E-03-1.44248E+00-1.71941E-13-3.12657E-13
 -1      3218 1.67774E+01 2.16190E+00-2.54087E-02-1.27709E+00-7.54830E-14-3.22494E-13
 -1      3219 1.67542E+01 2.17176E+00 4.05039E-02-6.41547E-01 1.27953E-13-3.58180E-13
 -1      3220 1.21077E+01 2.17598E+00 1.78038E-01-2.71137E+00-1.37045E-13-4.71151E-14
 -1      3221 1.00221E+01 2.04929E+00 1.97512E-01-1.64255E+00 1.99641E-14-3.17107E-13
 -1      3222 2.00385E+01-1.53050E-02-1.70915E-05-1.80543E-01 3.84414E-14 2.11217E-14
 -1      3223 2.00479E+01 5.29350E-03 1.17464E-03-1.74273E-01 5.94442E-14 2.88233E-14
 -1      3224 2.01225E+01 2.87884E-02-9.60898E-04-1.56062E-01 5.74648E-14 4.38374E-14
 -1      3225 2.00922E+01-2.10597E-02-7.89286E-04-1.72971E-01 5.56820E-14 7.25121E-14
 -1      3226 1.98615E+01-3.51580E+00 1.40595E-01-6.46845E+00 6.52881E-14-2.75467E-13
 -1      3227 2.22541E+01-4.24983E+00-2.83084E-02-5.68369E+00 2.12538E-14-1.01547E-13
 -1      3228 2.01618E+01-9.99468E-02-1.77814E-03 6.43719E-01 1.60715E-13-5.64271E-14
 -1      3229 2.02607E+01-1.70948E-01 4.90081E-03 5.82491E-01 6.71463E-14 1.82479E-13
 -1      3230 2.01274E+01-1.42688E-01-6.50013E-03 7.68003E-01 2.48726E-13-1.54236E-13
 -1      3231 2.02761E+01 1.26005E+00 3.49633E-03 7.98948E-01 2.09130E-13 6.02383E-16
 -1      3232 2.01891E+01 4.16582E-01-2.92397E-03 1.23283E-01 1.43324E-13-2.52490E-14
 -1      3233 2.02357E+01 5.47686E-01 4.83013E-03 2.33119E-01 1.69605E-13-7.86412E-15
 -1      3234 2.02758E+01 7.42593E-01-1.38014E-04 3.14846E-01 1.81185E-13-1.09930E-14
 -1      3235 2.00439E+01 2.16160E+00-4.35194E-03 2.92490E-01 1.62922E-13-1.68985E-13
 -1      3236 2.00310E+01 2.20036E+00-3.33327E-03 1.70776E-01 1.18586E-13-2.03787E-13
 -1      3237 1.50121E+01-1.54775E+00 3.47842E-02 6.30703E+00-2.82260E-13 2.99233E-13
 -1      3238 1.20555E+01-1.83822E-01 1.57897E-01 5.48745E+00-3.89702E-13 2.95083E-13
 -1      3239 9.76817E+00 1.20197E+00 9.86639E-02-3.28685E+00-1.31700E-14-4.41050E-13
 -1      3240 1.15108E+01 2.88181E-01 1.36060E-01-5.15837E+00 3.92464E-14-5.48728E-13
 -1      3241 1.36497E+01-2.16311E-01 9.46875E-02-5.29398E+00-2.19269E-14-4.28477E-13
 -1      3242 1.19022E+01 1.69583E+00 6.04529E-02-2.70309E+00 7.47171E-14-4.08104E-13
 -1      3243 1.02404E+01 6.25136E-01 7.96766E-02 4.41506E+00-3.18981E-13-5.71765E-15
 -1      3244 9.06702E+00 1.37131E+00 1.17082E-01 2.54634E+00-1.86004E-13 1.54196E-13
 -1      3245 1.08731E+01 1.96427E+00 1.12933E-01 1.69981E+00-2.28764E-13 9.96286E-14
 -1      3246 1.27545E+01 5.84964E-01 1.27376E-01 4.40778E+00-2.23380E-13 2.10713E-13
 -1      3247 1.23759E+01 2.36128E+00 5.81663E-02-1.69506E+00-2.15640E-13-6.69326E-14
 -1      3248 2.00239E+01 2.21925E+00-3.67959E-03 6.59700E-02 1.12056E-13-2.21283E-13
 -1      3249 2.00235E+01 2.22013E+00-3.66013E-03-5.80245E-02 9.76932E-14-2.26223E-13
 -1      3250 2.01378E+01 1.92365E+00 4.96651E-03 1.01362E-01 1.03655E-13-2.01242E-13
 -1      3251 2.02805E+01 1.09510E+00 5.04439E-03 6.14985E-01 1.83338E-13-2.11628E-14
 -1      3252 2.02385E+01 1.48384E+00-5.28743E-03-8.77080E-01-1.27500E-13-2.05715E-13
 -1      3253 2.02770E+01 1.12947E+00 2.78480E-03 5.41781E-01 1.91382E-13-4.19944E-14
 -1      3254 2.71091E+01 6.64318E+00-1.39598E-01-2.07606E-01 1.79079E-13 3.81265E-13
 -1      3255 2.61720E+01 5.95551E+00-8.13650E-02-6.99422E-01 2.72005E-13 6.06380E-13
 -1      3256 2.62886E+01 6.19203E+00-8.56908E-02 3.72848E-01 6.11317E-14 6.78801E-13
 -1      3257 2.01590E+01 1.11773E-01-1.09692E-03-1.12627E-01 1.11414E-13-3.27919E-14
 -1      3258 2.00965E+01 1.07820E-01-8.89749E-04-1.15548E-01 1.08640E-13-1.70293E-14
 -1      3259 2.01223E+01 1.63345E-01 2.83938E-03-7.62214E-02 9.07584E-14-1.17036E-14
 -1      3260 2.63181E+01 4.87646E+00-9.51969E-02-1.65546E+00 4.90566E-13 2.71613E-13
 -1      3261 2.74492E+01 4.26640E+00-9.10867E-02-1.99446E+00 5.04874E-13 7.35523E-14
 -1      3262 2.67017E+01 3.03465E+00-5.93653E-02-2.03053E+00 4.02935E-13 2.37452E-13
 -1      3263 2.71136E+01-1.21837E+00-3.52542E-02 7.92735E-01-1.79978E-13-1.53946E-13
 -1      3264 2.80134E+01-1.53067E-02-6.15795E-02 1.44606E+00-1.53579E-13-1.00763E-13
 -1      3265 2.71591E+01 9.85213E-01-4.97320E-02 1.88590E+00-1.04888E-13-9.50282E-14
 -1      3266 1.93328E+01 9.33631E-01 5.77301E-03-5.22270E-01 3.24846E-14 1.95502E-13
 -1      3267 2.01394E+01 2.29146E-01-1.71792E-03-2.61892E-02 9.72066E-14-2.83444E-14
 -1      3268 2.01762E+01 3.15080E-01 3.95938E-03 4.23765E-02 1.13558E-13-2.99430E-14
 -1      3269 2.02430E+01 4.42280E-01-9.85201E-04 1.07136E-01 1.44028E-13-3.74770E-14
 -1      3270 2.02007E+01 2.42503E-01-1.15019E-03-2.99980E-02 8.73172E-14-5.62022E-14
 -1      3271 1.47855E+01 2.57221E+00 6.59552E-02-5.65459E-01-2.81524E-13-1.49426E-13
 -1      3272 2.03808E+01-2.91074E-01 2.92268E-03 2.81562E-01 1.70254E-13 4.84719E-13
 -1      3273 2.03687E+01-3.06358E-01-1.03437E-03 1.96666E-01 2.45895E-13 4.93507E-13
 -1      3274 2.74937E+01 4.71569E+00-1.24617E-01 1.91046E+00 2.07154E-13 8.98587E-14
 -1      3275 2.65958E+01 5.28296E+00-9.94253E-02 1.52324E+00 1.77344E-13 3.64622E-13
 -1      3276 2.68360E+01 3.33834E+00-6.09879E-02 2.00518E+00 1.81209E-13 1.80397E-13
 -1      3277 2.01587E+01 1.80279E+00-6.69391E-03 6.86157E-01 2.25132E-13-1.12336E-13
 -1      3278 2.01236E+01 1.93102E+00-2.58421E-03 5.89091E-01 2.07968E-13-1.28764E-13
 -1      3279 2.02464E+01 1.46049E+00 3.76670E-03 5.83756E-01 1.94148E-13-9.05054E-14
 -1      3280 2.03282E+01-2.36538E-01 1.22673E-03 4.79778E-01 1.39306E-13-1.19628E-14
 -1      3281 2.03690E+01-2.77978E-01 2.40003E-03 3.94266E-01 1.27453E-13 1.95912E-13
 -1      3282 2.04512E+01-3.88244E-01-3.71075E-03 3.55566E-01 1.80704E-13 2.99558E-13
 -1      3283 1.92324E+01 9.16358E-01-5.91446E-03-3.33691E-01 1.07085E-13 3.76423E-13
 -1      3284 1.91631E+01 9.37405E-01 3.97660E-04-1.75272E-01 6.82458E-14 3.95409E-13
 -1      3285 1.89664E+01 9.97633E-01 2.65473E-03-4.58144E-03 2.40060E-13 4.08741E-14
 -1      3286 1.90412E+01 1.06001E+00 1.73217E-03-3.97756E-01 1.72395E-13 2.44713E-13
 -1      3287 2.25715E+01-3.70156E+00 1.10177E-02-4.71165E+00-7.03257E-14 9.48026E-15
 -1      3288 2.39006E+01-4.18492E+00 6.83746E-02-4.62519E+00-7.17620E-14-1.31863E-13
 -1      3289 2.48677E+01-4.07040E+00-6.72803E-02-3.39714E+00-1.41647E-13-2.68245E-13
 -1      3290 2.74532E+01-2.73719E+00-4.68565E-02 5.40269E-01 1.37622E-13-3.19331E-13
 -1      3291 2.62579E+01-3.13336E+00 6.47421E-03 1.24365E+00 3.47691E-14-2.75133E-13
 -1      3292 2.70112E+01-1.85154E+00-1.45546E-02-3.75180E-01 1.78121E-13-6.68632E-14
 -1      3293 2.01197E+01 1.94036E+00-2.62954E-03-5.82640E-01-2.04775E-14-2.16167E-13
 -1      3294 2.01574E+01 1.81193E+00-6.42884E-03-6.82200E-01-6.75374E-14-2.19155E-13
 -1      3295 2.49630E+01-3.78012E+00 1.51151E-02 2.99327E+00-8.04842E-14-6.66911E-13
 -1      3296 2.41041E+01-4.10133E+00 2.22558E-02 4.18036E+00-1.31957E-13-8.48887E-13
 -1      3297 2.23725E+01-3.66260E+00 2.25557E-03 4.70016E+00-2.07657E-13-7.62838E-13
 -1      3298 2.03197E+01-2.68199E-01 2.75262E-03 8.04129E-02 3.05564E-13 1.67899E-13
 -1      3299 1.21889E+01 2.66012E+00 1.39244E-01-2.53765E-01-2.79698E-13-1.74957E-13
 -1      3300 2.71066E+01-3.17550E+00-2.36254E-03-1.40903E+00-1.31792E-13-6.51944E-14
 -1      3301 2.00903E+01 2.02611E+00-5.18661E-03 5.04621E-01 2.12193E-13-1.41425E-13
 -1      3302 2.00648E+01 2.10591E+00-3.02206E-03 3.90800E-01 1.82680E-13-1.57664E-13
 -1      3303 2.01599E+01 1.84797E+00 4.99081E-03 2.90565E-01 1.49497E-13-1.40457E-13
 -1      3304 2.01987E+01 1.69511E+00 4.28250E-03 4.57242E-01 1.80960E-13-1.29996E-13
 -1      3305 2.00618E+01 2.11212E+00-3.01154E-03-3.82906E-01 2.11064E-14-2.38002E-13
 -1      3306 2.00865E+01 2.03449E+00-5.10078E-03-4.97714E-01-1.79322E-15-2.54905E-13
 -1      3307 2.01954E+01 1.70258E+00 4.00487E-03-4.51723E-01-2.33490E-14-2.15450E-13
 -1      3308 2.02326E+01 1.50404E+00-2.77146E-03-7.69182E-01-1.26764E-13-2.33486E-13
 -1      3309 2.03567E+01-3.16507E-01-5.40439E-03 5.84858E-01 1.99128E-13 2.30098E-13
 -1      3310 1.83598E+01-2.58201E+00 8.06329E-02-6.14687E+00-2.04975E-14-2.27970E-13
 -1      3311 1.95712E+01-2.57924E+00 1.68688E-02 5.38388E+00-2.26364E-13-5.08754E-13
 -1      3312 1.75109E+01-2.13110E+00 1.10631E-01 6.14350E+00-1.91916E-13-3.57006E-14
 -1      3313 1.61342E+01-9.95609E-01 2.52947E-02 5.40701E+00-2.37740E-13 2.27568E-13
 -1      3314 2.04156E+01-3.58835E-01 1.48794E-03 1.16198E-01 2.24503E-13 1.67678E-13
 -1      3315 2.02877E+01 7.39020E-01-3.60819E-03 2.48318E-01 1.57999E-13-3.95068E-14
 -1      3316 2.03001E+01 9.36260E-01 1.30000E-03 3.74393E-01 1.63421E-13-5.50686E-14
 -1      3317 2.04449E+01-4.00895E-01 1.11953E-03 6.95167E-01 2.20663E-13 2.46878E-13
 -1      3318 2.05339E+01-4.65971E-01 1.65533E-03 5.82829E-01 2.84919E-13-4.22046E-15
 -1      3319 2.02833E+01 1.08661E+00-3.62438E-05 4.33093E-01 1.81967E-13-7.61310E-14
 -1      3320 2.02661E+01 1.26934E+00-3.15872E-03 5.20915E-01 1.78452E-13-8.09571E-14
 -1      3321 2.02501E+01 1.40931E+00 5.44124E-04 4.77281E-01 1.60883E-13-1.03633E-13
 -1      3322 2.02980E+01 1.08300E+00 9.32160E-04 3.61990E-01 1.50812E-13-1.13776E-13
 -1      3323 2.02851E+01 1.16264E+00-6.25272E-05-4.75943E-01-8.01433E-14-1.90729E-13
 -1      3324 2.02868E+01 9.30949E-01-4.15806E-03-3.36510E-01-6.10206E-14-1.77634E-13
 -1      3325 2.03168E+01 7.36786E-01 3.33910E-03-2.41871E-01-5.32992E-14-1.60766E-13
 -1      3326 2.02948E+01 5.73510E-01-3.18739E-03-1.40978E-01-4.11510E-14-1.53435E-13
 -1      3327 2.03141E+01 9.28631E-01-1.26112E-03-2.82610E-01-4.14672E-14-1.44987E-13
 -1      3328 2.03000E+01 4.40786E-01 2.74276E-03-7.05534E-02-3.86871E-14-1.46256E-13
 -1      3329 2.02747E+01 3.28001E-01-2.13784E-03-3.61514E-03-6.60525E-14-1.13373E-13
 -1      3330 2.03299E+01 5.80930E-01 8.40805E-04-1.13936E-01-2.83103E-14-1.40181E-13
 -1      3331 2.02664E+01 2.38544E-01 2.14213E-03 4.16221E-02-9.42458E-14-1.01261E-13
 -1      3332 2.02418E+01 1.63368E-01-1.27435E-03 8.26336E-02-1.04511E-13-8.37705E-14
 -1      3333 2.03147E+01 3.30033E-01-3.26822E-05 4.18438E-03-5.88681E-14-1.07790E-13
 -1      3334 2.02268E+01 1.04760E-01 1.60613E-03 1.08963E-01-1.06321E-13-5.27677E-14
 -1      3335 2.02053E+01 5.63325E-02-6.41618E-04 1.31114E-01-5.87167E-14-4.41706E-14
 -1      3336 2.02827E+01 1.61203E-01-4.25582E-04 7.89953E-02-7.46715E-14-2.79400E-14
 -1      3337 2.01876E+01 1.95470E-02 1.11663E-03 1.43787E-01-6.12265E-14-2.22015E-14
 -1      3338 2.01698E+01-9.90373E-03-2.06123E-04 1.53039E-01-4.51836E-14-2.16008E-14
 -1      3339 2.02446E+01 5.12310E-02-5.78875E-04 1.21069E-01-5.65340E-14 3.99635E-14
 -1      3340 2.01517E+01-3.13107E-02 7.13966E-04 1.56530E-01-3.12270E-14-3.56551E-14
 -1      3341 2.01376E+01-4.74033E-02 7.78993E-05 1.57539E-01-1.04112E-14-6.00023E-14
 -1      3342 2.02056E+01-1.65172E-02-6.14343E-04 1.39930E-01-6.09932E-14 3.38358E-14
 -1      3343 2.01205E+01-5.80620E-02 4.04479E-04 1.55378E-01 1.45829E-15-8.28589E-14
 -1      3344 2.01095E+01-6.48447E-02 2.52191E-04 1.51615E-01-1.16226E-14-8.27081E-14
 -1      3345 2.01689E+01-5.42837E-02-5.84635E-04 1.43550E-01-1.54351E-14-1.58598E-14
 -1      3346 2.00940E+01-6.80453E-02 1.74186E-04 1.46437E-01-3.74507E-14-8.96295E-14
 -1      3347 2.00858E+01-6.83757E-02 3.50133E-04 1.40421E-01-5.70523E-14-8.55290E-14
 -1      3348 2.01359E+01-7.10142E-02-5.19123E-04 1.38102E-01-1.49146E-14-7.64152E-14
 -1      3349 2.00719E+01-6.63941E-02 3.49957E-06 1.34123E-01-9.87376E-14-8.97052E-14
 -1      3350 2.00658E+01-6.22071E-02 3.96352E-04 1.27649E-01-5.70637E-14-1.37068E-13
 -1      3351 2.01069E+01-7.30859E-02-4.33752E-04 1.28147E-01-7.97630E-14-9.35033E-14
 -1      3352 2.00535E+01-5.65257E-02-1.27520E-04 1.21561E-01-7.99725E-15-1.59296E-13
 -1      3353 2.00488E+01-4.90185E-02 4.07402E-04 1.15901E-01-3.27832E-14-1.35126E-13
 -1      3354 2.00817E+01-6.48589E-02-3.34890E-04 1.16946E-01-5.65227E-14-9.24007E-14
 -1      3355 2.00377E+01-4.04704E-02-2.37722E-04 1.10932E-01-1.69683E-14-8.28669E-14
 -1      3356 2.00338E+01-3.02206E-02 3.92143E-04 1.06998E-01-2.18938E-14-5.33729E-14
 -1      3357 2.00594E+01-4.90730E-02-2.21544E-04 1.06758E-01 3.59725E-14-1.29669E-13
 -1      3358 2.00230E+01-1.90727E-02-3.45009E-04 1.03745E-01-6.81517E-14-8.54658E-14
 -1      3359 2.00193E+01-6.09843E-03 3.51248E-04 1.02215E-01-2.41296E-14-7.73912E-14
 -1      3360 2.00390E+01-2.71128E-02-8.57433E-05 9.90910E-02-3.41075E-14-7.76254E-14
 -1      3361 2.00077E+01 7.92208E-03-4.67190E-04 1.01033E-01 7.27842E-15-8.69699E-14
 -1      3362 2.00030E+01 2.41562E-02 2.75314E-04 1.02434E-01-4.92427E-14-3.15789E-14
 -1      3363 2.00184E+01 8.42260E-04 8.85419E-05 9.48598E-02-1.81969E-14-1.38982E-13
 -1      3364 1.99892E+01 4.18910E-02-6.23025E-04 1.03448E-01-8.97594E-14-4.94306E-14
 -1      3365 1.99818E+01 6.25220E-02 1.40740E-04 1.08191E-01-6.78964E-14-7.12952E-14
 -1      3366 1.99952E+01 3.57755E-02 3.27925E-04 9.44488E-02-5.59309E-14-1.23931E-13
 -1      3367 1.99634E+01 8.54648E-02-8.33773E-04 1.11242E-01-1.52897E-14-1.06660E-13
 -1      3368 1.99509E+01 1.12337E-01-9.43828E-05 1.19587E-01-4.30712E-15-1.39468E-13
 -1      3369 1.99656E+01 7.98890E-02 6.74305E-04 9.76375E-02-6.42681E-14-1.58864E-13
 -1      3370 1.99246E+01 1.42697E-01-1.14584E-03 1.24068E-01-3.49407E-14-8.38271E-14
 -1      3371 1.99031E+01 1.78492E-01-5.07202E-04 1.36029E-01 2.47244E-14-1.87269E-13
 -1      3372 1.99242E+01 1.36765E-01 1.19999E-03 1.03344E-01 3.61371E-16-1.77948E-13
 -1      3373 1.98618E+01 2.21952E-01-1.51773E-03 1.40793E-01 4.67789E-14-2.03767E-13
 -1      3374 1.98222E+01 2.73107E-01-1.23941E-03 1.56454E-01-9.90587E-15-1.27733E-13
 -1      3375 1.98608E+01 2.13541E-01 1.94987E-03 1.09196E-01 3.22184E-14-1.15176E-13
 -1      3376 1.97614E+01 3.30085E-01-2.05033E-03 1.58102E-01 4.58494E-14-1.14974E-13
 -1      3377 1.96972E+01 3.96435E-01-2.56101E-03 1.74041E-01 6.53008E-14-6.40288E-14
 -1      3378 1.97637E+01 3.16072E-01 3.19819E-03 1.09512E-01 5.21469E-14-1.13770E-13
 -1      3379 1.96056E+01 4.73962E-01-2.60965E-03 1.67779E-01 1.92831E-14-8.16076E-14
 -1      3380 1.94992E+01 5.62518E-01-4.69027E-03 1.80345E-01 4.77058E-14-1.01307E-13
 -1      3381 1.96180E+01 4.48840E-01 4.88980E-03 9.51474E-02 6.00949E-14-1.53823E-14
 -1      3382 1.93618E+01 6.66150E-01-3.25642E-03 1.57193E-01 3.75855E-14-3.18270E-14
 -1      3383 1.91889E+01 7.81317E-01-8.13023E-03 1.57815E-01-2.61876E-14-2.58777E-14
 -1      3384 1.93964E+01 6.21730E-01 7.35570E-03 4.99155E-02 9.43241E-14 9.61255E-14
 -1      3385 1.89857E+01 9.15047E-01-3.88112E-03 1.02890E-01-1.03044E-13-5.62674E-14
 -1      3386 1.87101E+01 1.05742E+00-1.35351E-02 7.61335E-02-5.82596E-14-6.24073E-14
 -1      3387 1.90636E+01 8.38839E-01 1.07940E-02-5.33233E-02-8.31070E-14 1.62652E-13
 -1      3388 1.84150E+01 1.21957E+00-4.30913E-03-3.42524E-02 1.76775E-14-9.70744E-14
 -1      3389 1.79844E+01 1.38029E+00-2.15255E-02-1.14054E-01 4.99462E-14-8.79494E-14
 -1      3390 1.85726E+01 1.09406E+00 1.54454E-02-2.57988E-01-1.44822E-14 1.24328E-13
 -1      3391 1.75647E+01 1.55568E+00-4.02343E-03-3.15507E-01 2.09646E-14-1.05351E-13
 -1      3392 1.69049E+01 1.70676E+00-3.15495E-02-4.87498E-01 3.40782E-14-1.89840E-13
 -1      3393 1.78638E+01 1.35913E+00 2.19782E-02-6.30660E-01 2.93683E-14 6.00997E-14
 -1      3394 1.63214E+01 1.85201E+00-4.88524E-04-8.28469E-01-3.76578E-14-1.77356E-13
 -1      3395 1.53436E+01 1.92892E+00-3.43084E-02-1.14809E+00-2.88380E-14-2.55456E-13
 -1      3396 1.68661E+01 1.56484E+00 3.33082E-02-1.26650E+00-2.91200E-14-1.01130E-13
 -1      3397 1.45224E+01 1.99682E+00 1.20214E-02-1.58197E+00-1.85594E-14-3.97401E-13
 -1      3398 1.30876E+01 1.89420E+00-9.24826E-03-2.08924E+00 7.29954E-14-3.42934E-13
 -1      3399 1.35210E+01 1.31139E+00 1.01076E-01-3.48797E+00 5.15057E-14-4.83266E-13
 -1      3400 1.54814E+01 1.61838E+00 5.76350E-02-2.19755E+00-6.88312E-14-3.12353E-13
 -1      3401 1.83527E+01 1.39707E+00-6.01917E-03-3.62693E-01 1.24753E-13-1.78102E-15
 -1      3402 1.86878E+01 1.20586E+00-9.43817E-03-3.54525E-01 1.50354E-13 1.86585E-13
 -1      3403 1.86504E+01 1.21879E+00 1.03884E-02-1.46699E-01 2.30160E-13 3.62082E-14
 -1      3404 2.00649E+01-6.58580E-02 3.68227E-04-1.37268E-01 7.43743E-14-3.19610E-14
 -1      3405 2.00714E+01-6.70030E-02 8.96978E-05-1.44165E-01 8.20557E-14-1.34347E-14
 -1      3406 2.00855E+01-6.59045E-02 2.97068E-04-1.50354E-01 4.71672E-14 3.23247E-15
 -1      3407 2.00944E+01-6.20881E-02 2.87922E-04-1.55742E-01 5.55645E-14 1.87508E-14
 -1      3408 2.01113E+01-7.20890E-02-4.80093E-04-1.37792E-01 7.59468E-14 6.30647E-14
 -1      3409 2.01103E+01-5.51099E-02 1.64366E-04-1.59740E-01 5.86849E-14 2.47146E-14
 -1      3410 2.01221E+01-4.38005E-02 5.66527E-04-1.61471E-01 7.01168E-14 5.42797E-14
 -1      3411 2.01414E+01-6.20308E-02-5.57433E-04-1.46329E-01 8.04500E-14-1.80415E-15
 -1      3412 2.00481E+01-5.88934E-02 4.00773E-04-1.23610E-01 6.59372E-14-2.82258E-14
 -1      3413 2.00527E+01-6.31510E-02-4.61493E-05-1.30546E-01 5.60555E-14-4.06941E-14
 -1      3414 2.00854E+01-7.07650E-02-4.00306E-04-1.26170E-01 7.11465E-14 6.82956E-14
 -1      3415 2.00345E+01-4.79311E-02 4.11651E-04-1.11486E-01 5.32902E-14-1.31260E-14
 -1      3416 2.00376E+01-5.39127E-02-1.34210E-04-1.17496E-01 6.14464E-14-4.40736E-14
 -1      3417 2.00635E+01-6.22299E-02-3.27723E-04-1.14322E-01 7.32529E-14 2.22924E-14
 -1      3418 2.00239E+01-3.52843E-02 4.13208E-04-1.02241E-01 5.64871E-15 4.76443E-14
 -1      3419 2.00257E+01-4.18659E-02-1.83978E-04-1.06741E-01 6.85179E-14 8.45420E-15
 -1      3420 2.00451E+01-4.96226E-02-2.70560E-04-1.04214E-01 4.16629E-14-2.40226E-14
 -1      3421 2.00163E+01-2.30226E-02 4.14179E-04-9.66467E-02-1.04258E-14 4.23370E-14
 -1      3422 2.00167E+01-2.91624E-02-1.98902E-04-9.93558E-02-3.16537E-14 4.84599E-14
 -1      3423 2.00302E+01-3.54769E-02-2.38048E-04-9.71680E-02-1.50370E-14 6.37533E-14
 -1      3424 2.00120E+01-1.33246E-02 4.20089E-04-9.49934E-02-1.30612E-13 1.04750E-13
 -1      3425 2.00109E+01-1.78832E-02-1.75458E-04-9.58996E-02-4.30733E-14 5.57729E-14
 -1      3426 2.00186E+01-2.21231E-02-2.42619E-04-9.40361E-02-6.74290E-14 1.07722E-13
 -1      3427 2.00122E+01-8.82721E-03 4.32847E-04-9.70919E-02-1.09883E-13 1.58762E-13
 -1      3428 2.00090E+01-1.03905E-02-1.01927E-04-9.64719E-02-1.18925E-13 9.31319E-14
 -1      3429 2.00110E+01-1.20837E-02-3.01921E-04-9.52976E-02-1.05076E-13 1.52517E-13
 -1      3430 2.00191E+01-1.29543E-02 4.49053E-04-1.02169E-01-7.25054E-14 1.84822E-13
 -1      3431 2.00127E+01-9.66852E-03 4.30633E-05-1.00660E-01-7.97608E-14 2.15175E-13
 -1      3432 2.00087E+01-8.46629E-03-4.40409E-04-1.01065E-01-1.27780E-13 1.47722E-13
 -1      3433 2.00362E+01-3.01693E-02 4.56290E-04-1.08631E-01-7.76880E-14 2.71468E-13
 -1      3434 2.00249E+01-1.96241E-02 2.91780E-04-1.07367E-01-3.40370E-14 2.30927E-13
 -1      3435 2.00147E+01-1.53310E-02-6.90069E-04-1.10974E-01-1.30809E-13 2.33717E-13
 -1      3436 2.00687E+01-6.60359E-02 4.27070E-04-1.13660E-01-2.48671E-14 1.88484E-13
 -1      3437 2.00503E+01-4.52616E-02 6.87398E-04-1.14477E-01-7.48357E-14 2.07545E-13
 -1      3438 2.00332E+01-3.79658E-02-1.08872E-03-1.23907E-01-4.29683E-14 2.17001E-13
 -1      3439 2.01238E+01-1.26871E-01 3.10496E-04-1.12619E-01 9.57289E-14 1.07234E-13
 -1      3440 2.00954E+01-9.25731E-02 1.28022E-03-1.18329E-01 7.40185E-14 1.39367E-13
 -1      3441 2.00710E+01-8.29236E-02-1.67319E-03-1.37494E-01 3.37372E-14 1.69895E-13
 -1      3442 2.02106E+01-2.18652E-01 2.44789E-05-9.82734E-02 2.46897E-14 2.07237E-13
 -1      3443 2.01687E+01-1.67873E-01 2.11615E-03-1.12968E-01 1.04679E-13 1.39251E-13
 -1      3444 2.01375E+01-1.57557E-01-2.46377E-03-1.47308E-01 5.93660E-14 2.29604E-13
 -1      3445 2.03388E+01-3.44712E-01-5.45149E-04-5.99647E-02 5.07543E-14 2.31687E-13
 -1      3446 2.02805E+01-2.76175E-01 3.21108E-03-8.92426E-02 3.40833E-16 1.83603E-13
 -1      3447 2.02446E+01-2.68630E-01-3.43407E-03-1.45720E-01 5.42052E-14 2.36763E-13
 -1      3448 2.05168E+01-5.01662E-01-1.51807E-03 1.68892E-02-5.89640E-14 3.27906E-13
 -1      3449 2.04409E+01-4.18097E-01 4.49813E-03-3.39696E-02 3.12217E-14 2.57649E-13
 -1      3450 2.04057E+01-4.19415E-01-4.46280E-03-1.20516E-01 2.45786E-15 2.87522E-13
 -1      3451 2.07473E+01-6.73224E-01-2.93764E-03 1.49968E-01-8.33906E-14 3.44922E-13
 -1      3452 2.06559E+01-5.84784E-01 5.73928E-03 7.01093E-02-9.24854E-14 2.79194E-13
 -1      3453 2.06329E+01-6.04501E-01-5.26427E-03-5.37492E-02-4.74208E-14 3.37402E-13
 -1      3454 2.10208E+01-8.22748E-01-4.59240E-03 3.56161E-01-1.52713E-13 3.05700E-13
 -1      3455 2.09220E+01-7.50950E-01 6.42965E-03 2.42101E-01-1.09204E-13 2.96406E-13
 -1      3456 2.09314E+01-8.02027E-01-5.34102E-03 7.77691E-02-1.17400E-13 1.95528E-13
 -1      3457 2.13082E+01-8.87313E-01-5.74418E-03 6.42297E-01-1.32295E-13 1.93220E-13
 -1      3458 2.12178E+01-8.67699E-01 5.76600E-03 4.96217E-01-1.17575E-13 3.58730E-13
 -1      3459 2.12901E+01-9.64415E-01-3.97900E-03 2.97876E-01-1.09747E-13 2.06821E-13
 -1      3460 2.15573E+01-7.80487E-01-4.83718E-03 9.88356E-01-1.89627E-13 1.75767E-13
 -1      3461 2.14965E+01-8.59658E-01 2.74524E-03 8.27649E-01-1.80114E-13 1.68336E-13
 -1      3462 2.16711E+01-1.01134E+00-4.38795E-04 6.18620E-01-9.58254E-14 2.86559E-13
 -1      3463 2.16998E+01-4.18545E-01-7.83341E-04 1.32486E+00-1.50510E-13 1.92857E-13
 -1      3464 2.16883E+01-6.36220E-01-2.83868E-03 1.19034E+00-1.61835E-13 1.26946E-13
 -1      3465 2.20023E+01-8.36060E-01 5.54297E-03 1.01604E+00-1.85337E-13 2.55151E-13
 -1      3466 2.16802E+01 2.26596E-01 6.03796E-03 1.52806E+00 4.59232E-14 1.81357E-13
 -1      3467 2.17239E+01-1.34505E-01-1.09789E-02 1.48028E+00-5.58036E-14 2.08529E-13
 -1      3468 2.21901E+01-3.47912E-01 1.10726E-02 1.40205E+00-1.23141E-13 2.15235E-13
 -1      3469 2.15006E+01 1.05458E+00 1.26278E-02 1.44057E+00-4.63913E-14 2.58133E-13
 -1      3470 2.15812E+01 6.23299E-01-1.63424E-02 1.54222E+00 2.37753E-14 2.13090E-13
 -1      3471 2.21609E+01 4.55676E-01 9.45246E-03 1.61005E+00-5.60968E-14 2.10650E-13
 -1      3472 2.12570E+01 1.81307E+00 1.37291E-02 9.70479E-01 2.07797E-13 5.76592E-14
 -1      3473 2.13322E+01 1.45581E+00-1.48646E-02 1.24159E+00 5.09733E-14 1.30775E-13
 -1      3474 2.19439E+01 1.42519E+00 5.63643E-03 1.45502E+00 8.49071E-14 1.14477E-13
 -1      3475 2.11033E+01 2.18640E+00 4.45476E-03 1.85512E-01 3.45030E-13-8.48886E-14
 -1      3476 2.11296E+01 2.06159E+00-6.13229E-03 5.69154E-01 3.88820E-13 1.09773E-14
 -1      3477 2.16860E+01 2.22575E+00-1.79006E-03 8.52146E-01 3.47706E-13-9.75429E-14
 -1      3478 2.11509E+01 1.99460E+00-9.51954E-03-6.65652E-01 1.65634E-13-2.95733E-13
 -1      3479 2.11123E+01 2.16370E+00 4.36965E-03-2.91042E-01 2.65898E-13-1.45345E-13
 -1      3480 2.15825E+01 2.50753E+00-6.65723E-03-5.94289E-02 3.76522E-13-1.01259E-13
 -1      3481 2.13742E+01 1.32987E+00-1.65091E-02-1.28724E+00-1.25533E-13-2.53293E-13
 -1      3482 2.12948E+01 1.71009E+00 1.28623E-02-1.04038E+00 2.91483E-14-2.81456E-13
 -1      3483 2.17219E+01 2.12690E+00-2.88335E-03-9.45651E-01 6.15077E-14-6.96123E-14
 -1      3484 2.16194E+01 4.87295E-01-1.59987E-02-1.52613E+00-2.80030E-13-1.84456E-13
 -1      3485 2.15419E+01 9.18172E-01 1.20259E-02-1.45097E+00-2.49514E-13-2.12348E-13
 -1      3486 2.19932E+01 1.27397E+00 6.90524E-03-1.48345E+00-1.81955E-13-1.31264E-13
 -1      3487 2.17403E+01-2.41756E-01-9.71548E-03-1.41507E+00-1.86732E-13-2.13240E-13
 -1      3488 2.17038E+01 1.00982E-01 4.95925E-03-1.48225E+00-2.26784E-13-2.14922E-13
 -1      3489 2.21938E+01 3.08431E-01 1.15634E-02-1.57042E+00-2.78847E-13-2.22127E-13
 -1      3490 2.16800E+01-7.01598E-01-1.92282E-03-1.09991E+00-2.84867E-14-3.52934E-13
 -1      3491 2.16997E+01-5.06091E-01-1.58620E-03-1.24472E+00-8.85771E-14-2.99263E-13
 -1      3492 2.21914E+01-4.60388E-01 9.87404E-03-1.31783E+00 1.20981E-15-1.91987E-13
 -1      3493 2.14708E+01-8.83596E-01 3.51391E-03-7.31260E-01 2.20418E-14-6.90628E-14
 -1      3494 2.15380E+01-8.24565E-01-5.07985E-03-8.93934E-01-6.57351E-14-2.58267E-13
 -1      3495 2.19797E+01-8.97498E-01 4.55915E-03-9.15576E-01-1.29419E-13-2.91522E-13
 -1      3496 2.11849E+01-8.59705E-01 6.08351E-03-4.05559E-01 2.19920E-13 6.42163E-14
 -1      3497 2.12792E+01-8.94395E-01-5.56504E-03-5.49060E-01 8.58295E-14 1.10599E-13
 -1      3498 2.16373E+01-1.02715E+00-9.16838E-04-5.20106E-01-8.00382E-14 1.13242E-14
 -1      3499 2.08883E+01-7.19926E-01 6.22969E-03-1.61730E-01 4.42893E-13 1.22025E-13
 -1      3500 2.09894E+01-8.02896E-01-4.51673E-03-2.71485E-01 4.30654E-13 2.19420E-13
 -1      3501 2.12566E+01-9.47804E-01-4.31872E-03-2.09677E-01 2.10407E-13 9.63712E-14
 -1      3502 2.06271E+01-5.36232E-01 5.70256E-03-3.17948E-04 2.73517E-13 1.74066E-13
 -1      3503 2.07174E+01-6.33261E-01-3.22626E-03-7.61130E-02 3.46598E-13 2.08332E-13
 -1      3504 2.09062E+01-7.59100E-01-4.00995E-03-3.06151E-03 4.43606E-13 4.04573E-13
 -1      3505 2.04832E+01-4.28857E-01-5.27315E-04 8.58311E-02 2.88248E-13 1.87432E-13
 -1      3506 1.91799E+01 5.18738E-01-1.15434E-02 8.50669E-01-6.39560E-14 1.46232E-13
 -1      3507 1.94335E+01 3.74607E-01 1.31999E-02 9.54082E-01-5.91428E-14 9.64261E-14
 -1      3508 1.17506E+01 2.22531E+00 1.63244E-02 1.01738E+00-3.81053E-13 1.13770E-13
 -1      3509 1.31683E+01 2.39847E+00 3.80971E-02 5.64767E-01-4.43092E-13 2.63713E-14
 -1      3510 1.21782E+01 1.80950E+00 8.35322E-02 2.57694E+00-3.57644E-13 5.67393E-14
 -1      3511 1.70909E+01-1.54979E+00 7.48717E-02-5.72228E+00-6.34215E-14-2.88262E-13
 -1      3512 1.98092E+01-2.74724E+00-5.47705E-03-5.43401E+00-6.34319E-14-1.10016E-14
 -1      3513 1.44235E+01 2.33160E+00-9.14348E-04 3.12178E-01-2.41412E-13-1.11198E-13
 -1      3514 1.56140E+01 2.18890E+00-1.01440E-02 2.15072E-01-7.21275E-14-1.77558E-13
 -1      3515 1.44856E+01 2.10043E+00 5.48506E-02 1.45395E+00-3.23577E-13 6.82735E-14
 -1      3516 2.66516E+01 1.18247E+00-7.83065E-02-1.95570E+00 2.06689E-13 2.06356E-13
 -1      3517 2.68738E+01-2.54071E-01-2.55146E-02-1.44304E+00 1.83714E-13-1.19297E-14
 -1      3518 2.05813E+01-4.80899E-01 4.60195E-03 4.16419E-01 1.37584E-13 1.65723E-13
 -1      3519 2.05897E+01-4.95323E-01 3.18490E-03 3.00768E-01 2.34543E-13 4.05781E-13
 -1      3520 2.06798E+01-6.05138E-01-4.52798E-04 5.26761E-01 3.05488E-13 1.51817E-13
 -1      3521 1.87936E+01 9.05551E-01-1.01902E-02 4.50735E-01 1.41666E-13 1.37556E-13
 -1      3522 1.89623E+01 7.82249E-01 9.92209E-03 6.67050E-01 2.00068E-15 1.45148E-13
 -1      3523 1.89296E+01 6.50980E-01 6.82473E-04 9.34395E-01-3.80217E-14 1.25718E-13
 -1      3524 2.02045E+01 1.59575E+00-2.76061E-03-7.10117E-01-9.80738E-14-2.34194E-13
 -1      3525 1.96843E+01 1.20741E-01-7.87458E-03 9.93348E-01 4.13592E-14-2.11528E-13
 -1      3526 1.99315E+01-1.63354E-02 1.15566E-02 9.92698E-01 2.26141E-13-6.46529E-13
 -1      3527 1.95069E+01 1.65262E-01-5.93797E-03 1.15277E+00 1.37964E-13-1.60467E-13
 -1      3528 1.73020E+01 1.79046E+00-1.29468E-02-2.18267E-01 4.63029E-13-1.41176E-13
 -1      3529 1.78421E+01 1.58155E+00-1.13868E-02-2.56076E-01 2.58156E-13 1.63024E-14
 -1      3530 1.78210E+01 1.56067E+00 1.58697E-02 6.08680E-02 2.94154E-13 8.59924E-15
 -1      3531 2.00301E+01 2.20266E+00-3.31394E-03-1.62759E-01 8.50871E-14-2.27238E-13
 -1      3532 2.00421E+01 2.16616E+00-4.19786E-03-2.84616E-01 4.74575E-14-2.18532E-13
 -1      3533 2.01561E+01 1.85248E+00 4.29111E-03-2.83455E-01 3.54763E-14-2.07306E-13
 -1      3534 1.60826E+01 2.09836E+00-1.95816E-02 2.95040E-02 5.22468E-14-2.55778E-13
 -1      3535 1.68983E+01 1.89856E+00-1.37648E-02-8.00885E-02 2.71500E-13-1.77249E-13
 -1      3536 1.69265E+01 1.81610E+00 2.09709E-02 4.02495E-01 3.01505E-13-2.61000E-14
 -1      3537 1.61122E+01 1.98826E+00 4.51711E-02 8.05035E-01 2.07245E-14-1.63201E-13
 -1      3538 2.01427E+01-2.01687E-01-2.48972E-03 9.16448E-01 8.11239E-14-4.05440E-13
 -1      3539 2.03214E+01-3.06108E-01 7.71645E-03 8.35780E-01 5.00181E-14 1.03964E-13
 -1      3540 2.04624E+01-4.96523E-01-7.04231E-03 8.46839E-01 5.27432E-14-3.37540E-14
 -1      3541 2.00634E+01-2.43504E-01-9.96092E-03 1.09316E+00 6.34460E-14-4.13134E-13
 -1      3542 2.62562E+01-3.51313E+00 4.77057E-02-2.00060E+00-7.38029E-14-7.02563E-14
 -1      3543 2.66398E+01-2.66252E+00-5.63223E-02-4.95750E-01-1.90343E-13 1.94983E-14
 -1      3544 2.50451E+01-3.52281E+00 2.36179E-03-2.44522E+00-1.87243E-13-5.33913E-14
 -1      3545 2.58570E+01 5.45347E+00-1.10370E-01 1.01677E+00 2.07286E-13 4.78919E-13
 -1      3546 2.50928E+01 5.34267E+00-4.68299E-02 5.10263E-01 1.96801E-13 5.18594E-13
 -1      3547 2.54224E+01 4.47682E+00-5.51574E-02 1.46338E+00 3.35343E-13 3.58085E-13
 -1      3548 2.02088E+01 1.07282E-01-9.58664E-04-1.11670E-01 9.12648E-14-1.58006E-14
 -1      3549 2.02327E+01 1.67893E-01 2.05326E-03-7.94431E-02 8.81905E-14-3.62604E-14
 -1      3550 2.50952E+01 5.22215E+00-3.93411E-02-6.90629E-01 8.67709E-14 1.06299E-12
 -1      3551 2.57785E+01 5.15307E+00-8.60503E-02-1.20744E+00 2.92474E-13 5.83663E-13
 -1      3552 2.52942E+01 4.20705E+00-5.35237E-02-1.53577E+00 3.24719E-13 5.82397E-13
 -1      3553 2.67529E+01-1.99954E+00-1.34173E-02 2.87648E-01-2.08966E-13-1.55050E-13
 -1      3554 2.64046E+01-1.10755E+00-4.73468E-03 9.75248E-01-2.18920E-13-1.89855E-13
 -1      3555 2.59243E+01-2.50868E+00-3.35529E-02-3.57982E-01-2.37416E-13-8.42867E-14
 -1      3556 2.01369E+01 1.92471E+00 4.71439E-03-9.43561E-02 9.02145E-14-2.05830E-13
 -1      3557 2.02749E+01 4.41421E-01-2.82531E-03 7.33935E-02 1.21499E-13-2.51609E-14
 -1      3558 2.03026E+01 5.77830E-01 3.49277E-03 1.61782E-01 1.52584E-13-2.93839E-14
 -1      3559 2.03190E+01 7.43239E-01-1.30243E-03 2.09229E-01 1.44082E-13-6.86966E-14
 -1      3560 2.53157E+01 2.79384E+00-5.22008E-02-1.99994E+00 2.22610E-13 2.44502E-13
 -1      3561 2.61183E+01 2.01861E+00-4.37904E-02-2.10508E+00 1.71713E-13 2.21500E-13
 -1      3562 2.54389E+01 1.11009E+00-2.43307E-02-1.91481E+00 1.00104E-13 7.70295E-14
 -1      3563 2.06050E+01-5.22217E-01-1.35860E-03 1.63328E-01 3.07519E-13 3.03293E-13
 -1      3564 2.02537E+01 1.39318E+00 3.16951E-03-5.53566E-01-8.30695E-14-2.03541E-13
 -1      3565 2.57107E+01-4.89265E-01-1.38377E-03-1.42218E+00 4.48764E-14 4.71324E-14
 -1      3566 2.65092E+01-1.24440E+00-3.85286E-02-9.69140E-01 4.41782E-14-3.76331E-14
 -1      3567 2.58235E+01-1.88669E+00-9.75766E-04-3.59578E-01-8.96809E-15-8.07479E-14
 -1      3568 1.86588E+01 1.10248E+00-8.09508E-03 7.63037E-02 2.43625E-13 4.31783E-14
 -1      3569 1.87117E+01 1.05608E+00 8.69608E-03 2.73198E-01 2.40342E-13 6.99340E-14
 -1      3570 1.85077E+01 1.02016E+00-6.85746E-03 5.62609E-01 1.71995E-13 2.12500E-13
 -1      3571 1.83163E+01 1.25463E+00-6.97893E-03 1.68670E-01 3.70455E-13 4.17060E-14
 -1      3572 2.13453E+01-3.03440E+00 8.18339E-02-4.90607E+00-1.06564E-13 8.60787E-14
 -1      3573 2.23931E+01-3.27217E+00-2.76477E-02-4.05779E+00-1.95177E-13 3.34585E-14
 -1      3574 1.98567E+01-2.23065E+00-3.94975E-03-4.76785E+00-1.38894E-13 8.20264E-14
 -1      3575 2.02559E+01 1.37779E+00 2.14276E-03-4.60823E-01-4.71821E-14-1.67304E-13
 -1      3576 2.01755E+01-3.49036E-02-6.18055E-04-1.47729E-01 7.53048E-14 2.31079E-14
 -1      3577 2.01394E+01-2.80854E-02-6.04534E-05-1.60936E-01 6.34299E-14 4.31717E-14
 -1      3578 2.01548E+01-5.79352E-03 9.42694E-04-1.55969E-01 5.02252E-14 5.57428E-14
 -1      3579 2.07303E+01-6.37649E-01-3.40208E-03 2.20993E-01 3.84475E-13 1.70629E-13
 -1      3580 2.54942E+01-3.55245E+00-2.25830E-02 2.06850E+00-1.58743E-13-3.56113E-13
 -1      3581 2.42926E+01-3.52815E+00-7.11040E-03 2.84139E+00-1.08524E-13-5.93177E-13
 -1      3582 2.56672E+01-2.93972E+00 1.77828E-02 1.07905E+00-1.55457E-13-2.24631E-13
 -1      3583 2.02221E+01 1.55516E+00-6.91565E-04-3.35070E-01 7.38788E-15-2.03837E-13
 -1      3584 2.02393E+01 1.46029E+00-3.09218E-03-4.04922E-01-3.76590E-14-1.85761E-13
 -1      3585 2.02914E+01 1.25206E+00 4.42578E-03-3.43211E-01-3.91630E-14-1.75335E-13
 -1      3586 2.60285E+01 6.66305E-01-3.17337E-02 1.78654E+00-7.69732E-14-3.52218E-14
 -1      3587 2.63435E+01 1.96219E+00-6.29491E-02 2.12031E+00 8.24063E-14 7.40380E-14
 -1      3588 2.22263E+01-3.15815E+00 2.49077E-02 4.17512E+00-2.03684E-13-6.65953E-13
 -1      3589 2.10277E+01-2.96315E+00 6.45853E-02 5.00414E+00-2.74482E-13-6.46783E-13
 -1      3590 1.94811E+01-2.15304E+00-3.33684E-03 4.88934E+00-2.46792E-13-6.57724E-13
 -1      3591 1.43651E+01 2.67836E-01 4.36746E-02 4.58709E+00-2.39184E-13 4.75522E-13
 -1      3592 1.29280E+01 1.14961E+00 5.27234E-02 3.55804E+00-2.63241E-13 1.59782E-13
 -1      3593 1.39317E+01 1.49629E+00 6.61603E-02 2.79996E+00-3.68958E-13 3.02529E-13
 -1      3594 2.02020E+01 1.64076E+00-3.35308E-03 1.30248E-01 1.10737E-13-1.73603E-13
 -1      3595 2.01977E+01 1.66107E+00-2.63441E-03 3.99594E-02 8.53461E-14-1.97358E-13
 -1      3596 2.02198E+01 1.54921E+00-4.31057E-03 2.82397E-01 1.37479E-13-1.32596E-13
 -1      3597 2.02100E+01 1.60878E+00-1.91138E-03 2.01200E-01 1.19109E-13-1.40596E-13
 -1      3598 2.02849E+01 1.38992E+00 5.78229E-03 1.34782E-01 1.02179E-13-1.38729E-13
 -1      3599 2.56816E+01 2.87141E+00-3.80653E-02 2.03749E+00 2.50796E-13 2.43455E-13
 -1      3600 1.40212E+01 4.37087E-01 1.70654E-02-4.38578E+00 7.01609E-14-3.68476E-13
 -1      3601 1.55450E+01-6.40374E-01 4.01814E-02-5.39583E+00 1.32672E-14-3.53287E-13
 -1      3602 1.73364E+01-8.62424E-01 5.11956E-02-4.80047E+00-9.60638E-14-1.32162E-13
 -1      3603 1.52126E+01 8.26182E-01 4.56685E-02-3.56185E+00 3.45687E-15-3.93536E-13
 -1      3604 1.63166E+01-3.69799E-01 4.69013E-02 4.61427E+00-2.37175E-13 2.41002E-13
 -1      3605 2.01726E+01 2.26088E-02-4.17919E-04-1.47699E-01 2.84860E-14 4.50782E-14
 -1      3606 2.01921E+01 6.06940E-02 1.42103E-03-1.31858E-01 6.64923E-14 2.36612E-15
 -1      3607 2.02130E+01 1.70750E-02-6.38610E-04-1.36399E-01 4.94181E-14 5.51425E-16
 -1      3608 2.02519E+01 1.04524E-01-5.74032E-04-1.04933E-01 6.21294E-14-5.75327E-14
 -1      3609 1.85743E+01 7.46818E-01-1.23768E-02 1.08496E+00-6.94327E-14 1.46443E-13
 -1      3610 1.89248E+01 5.37801E-01 1.75776E-02 1.28756E+00-8.54259E-14 9.72710E-14
 -1      3611 2.03102E+01 1.01218E+00-3.05800E-03-2.47073E-01-1.58907E-14-1.60319E-13
 -1      3612 1.78280E+01-8.96123E-01 7.35059E-03 4.45395E+00-2.54369E-13-2.31809E-13
 -1      3613 1.61008E+01 2.72275E-01-7.56353E-03 3.77486E+00-2.41593E-13 3.92313E-13
 -1      3614 2.03587E+01 7.05113E-01 2.43588E-03-1.44997E-01-1.94093E-14-1.15615E-13
 -1      3615 2.03499E+01 5.47785E-01-2.73767E-03-7.26856E-02-2.65434E-14-1.15264E-13
 -1      3616 2.03563E+01 4.18352E-01 1.43042E-03-2.77270E-02-4.00247E-14-1.01281E-13
 -1      3617 2.03402E+01 3.07893E-01-1.71769E-03 2.03603E-02-4.56076E-14-9.73146E-14
 -1      3618 2.03781E+01 5.35536E-01 1.29995E-03-5.34337E-02-2.89110E-14-1.02874E-13
 -1      3619 2.03329E+01 2.18885E-01 1.33226E-03 4.97311E-02-2.66890E-14-5.04369E-14
 -1      3620 2.03120E+01 1.44511E-01-1.02699E-03 7.92705E-02-4.25193E-14-1.52213E-14
 -1      3621 2.03672E+01 2.97036E-01 2.53603E-04 2.33061E-02-1.42325E-14-6.36734E-14
 -1      3622 2.02965E+01 8.59081E-02 1.06139E-03 9.57855E-02-4.08409E-14-4.13698E-15
 -1      3623 2.02748E+01 3.81319E-02-5.04761E-04 1.11549E-01-3.36929E-14 1.56166E-15
 -1      3624 2.03379E+01 1.34653E-01-1.32797E-04 7.12603E-02-2.46807E-14-7.35325E-15
 -1      3625 2.02552E+01 1.74112E-03 7.79942E-04 1.18811E-01-4.68483E-14 2.11951E-14
 -1      3626 2.02346E+01-2.67431E-02-1.33540E-04 1.25085E-01-3.47836E-14 1.37017E-14
 -1      3627 2.02985E+01 2.92221E-02-3.58182E-04 9.72971E-02-2.48292E-14 9.56957E-16
 -1      3628 2.02136E+01-4.72246E-02 5.31835E-04 1.26232E-01-5.21813E-14 7.69451E-15
 -1      3629 2.01952E+01-6.19738E-02 1.10154E-04 1.26469E-01-4.93770E-14-4.56865E-14
 -1      3630 2.02553E+01-3.44783E-02-4.77084E-04 1.07965E-01-6.17208E-14-2.14941E-14
 -1      3631 2.01746E+01-7.12323E-02 3.28045E-04 1.23952E-01-3.64882E-14-6.61809E-14
 -1      3632 2.01585E+01-7.63370E-02 2.55541E-04 1.20770E-01-3.27016E-14-7.19773E-14
 -1      3633 2.02125E+01-6.82081E-02-5.09105E-04 1.08703E-01-7.61244E-14-5.96374E-14
 -1      3634 2.01391E+01-7.77543E-02 1.65140E-04 1.16416E-01-5.24620E-14-9.62043E-14
 -1      3635 2.01254E+01-7.61281E-02 3.28108E-04 1.11723E-01-7.75818E-14-5.90189E-14
 -1      3636 2.01722E+01-8.07686E-02-4.81332E-04 1.03693E-01-7.09187E-14-7.71414E-14
 -1      3637 2.01076E+01-7.20486E-02 3.43551E-05 1.06824E-01-8.13132E-14-3.49223E-14
 -1      3638 2.00958E+01-6.56572E-02 3.46690E-04 1.01966E-01-4.63284E-14-2.09984E-14
 -1      3639 2.01355E+01-7.84972E-02-4.12425E-04 9.60043E-02-7.15811E-14-3.23162E-14
 -1      3640 2.00794E+01-5.75880E-02-7.45700E-05 9.73806E-02 1.27421E-14-1.85368E-14
 -1      3641 2.00689E+01-4.76246E-02 3.22136E-04 9.32706E-02 3.11690E-14-3.32806E-14
 -1      3642 2.01022E+01-6.57241E-02-3.12172E-04 8.77571E-02-1.00501E-14 3.53417E-14
 -1      3643 2.00535E+01-3.63793E-02-1.71499E-04 8.95011E-02-2.19216E-14-6.46887E-14
 -1      3644 2.00435E+01-2.33876E-02 2.56329E-04 8.67131E-02-9.33839E-14-5.09161E-14
 -1      3645 2.00716E+01-4.51409E-02-1.82467E-04 8.02848E-02-2.15187E-14-1.81216E-15
 -1      3646 2.00280E+01-9.17901E-03-2.65033E-04 8.39438E-02-7.70697E-14-4.40276E-14
 -1      3647 2.00174E+01 6.87042E-03 1.40574E-04 8.27615E-02-1.78737E-14-1.06559E-13
 -1      3648 2.00420E+01-1.80783E-02-1.75651E-05 7.42299E-02-7.91624E-14-3.27558E-14
 -1      3649 2.00007E+01 2.43857E-02-3.61672E-04 8.08402E-02 3.71676E-15-1.11606E-13
 -1      3650 1.99877E+01 4.40601E-02-4.75482E-05 8.12436E-02-5.20669E-14-8.14753E-14
 -1      3651 2.00115E+01 1.53022E-02 1.96419E-04 6.95464E-02-2.75078E-14 2.29323E-15
 -1      3652 1.99680E+01 6.57747E-02-4.64804E-04 7.95899E-02-5.30535E-14-6.49862E-14
 -1      3653 1.99502E+01 9.01786E-02-3.47957E-04 8.11577E-02-4.55665E-14-5.70033E-14
 -1      3654 1.99767E+01 5.58838E-02 4.82760E-04 6.53654E-02-3.79370E-14-5.68924E-14
 -1      3655 1.99250E+01 1.17515E-01-5.86826E-04 7.85627E-02-9.78852E-15-7.78943E-14
 -1      3656 1.98990E+01 1.48253E-01-8.52312E-04 8.03050E-02 6.21954E-14-3.92529E-14
 -1      3657 1.99335E+01 1.05530E-01 8.84010E-04 5.96833E-02-1.48168E-14 5.31534E-14
 -1      3658 1.98631E+01 1.85279E-01-6.57450E-04 7.42651E-02 5.82266E-14-4.08582E-14
 -1      3659 1.98209E+01 2.26781E-01-1.63239E-03 7.38310E-02 1.69890E-14 8.02893E-15
 -1      3660 1.98742E+01 1.68684E-01 1.44465E-03 4.83702E-02 1.50227E-14 1.42859E-13
 -1      3661 1.97727E+01 2.72726E-01-7.24115E-04 6.08633E-02 4.84146E-14-7.02273E-15
 -1      3662 1.97101E+01 3.23483E-01-2.86598E-03 5.44769E-02 1.10254E-13 5.82754E-14
 -1      3663 1.97913E+01 2.47453E-01 2.22498E-03 2.45924E-02 7.51876E-14 1.15126E-13
 -1      3664 1.96427E+01 3.82594E-01-5.93180E-04 2.83510E-02 1.20898E-13 6.04335E-14
 -1      3665 1.95466E+01 4.46308E-01-4.76330E-03 9.26041E-03 1.19512E-13 1.38679E-13
 -1      3666 1.96762E+01 3.42672E-01 3.21933E-03-2.16205E-02 1.40602E-13 1.68525E-13
 -1      3667 1.94526E+01 5.20801E-01-1.96390E-04-3.98748E-02 1.21275E-13 1.02512E-13
 -1      3668 1.93065E+01 5.98035E-01-7.60541E-03-8.29933E-02 8.33161E-14 1.20535E-13
 -1      3669 1.95133E+01 4.57356E-01 4.52278E-03-1.07808E-01 1.25406E-13 8.94446E-14
 -1      3670 1.91782E+01 6.87798E-01 7.31188E-04-1.70233E-01-1.73622E-14 1.24446E-13
 -1      3671 1.89598E+01 7.74998E-01-1.17354E-02-2.55598E-01-4.76872E-14 1.34954E-13
 -1      3672 1.92856E+01 5.87890E-01 6.08413E-03-2.60461E-01 1.63036E-14 1.25965E-13
 -1      3673 1.87898E+01 8.74320E-01 2.55532E-03-4.03076E-01-7.67614E-14 1.60412E-13
 -1      3674 1.84702E+01 9.59135E-01-1.74631E-02-5.58753E-01-3.93200E-14 1.30038E-13
 -1      3675 1.89750E+01 7.20434E-01 7.72888E-03-5.18902E-01-4.75947E-14 9.60056E-14
 -1      3676 1.82563E+01 1.05032E+00 6.00518E-03-7.97693E-01 1.37000E-14 2.63821E-14
 -1      3677 1.77996E+01 1.10409E+00-2.47776E-02-1.06513E+00 4.61833E-14 2.66155E-14
 -1      3678 1.85668E+01 8.20060E-01 8.89720E-03-9.38587E-01-3.65715E-14 4.27630E-14
 -1      3679 1.75517E+01 1.14756E+00 1.21241E-02-1.43850E+00-2.82749E-15-1.11386E-13
 -1      3680 1.69231E+01 1.11599E+00-3.05595E-02-1.87337E+00-9.83102E-14-1.31703E-13
 -1      3681 1.80643E+01 8.17143E-01 1.00713E-02-1.59383E+00-8.23371E-14-1.99161E-14
 -1      3682 2.01341E+01-7.68560E-02 3.02616E-04-1.21032E-01 4.76607E-14 1.21126E-13
 -1      3683 2.01485E+01-7.45433E-02 2.51321E-04-1.25455E-01 6.82651E-14 8.69198E-14
 -1      3684 2.02450E+01 2.40516E-01-1.69481E-03-4.17953E-02 7.91983E-14-2.61319E-14
 -1      3685 2.02731E+01 3.32438E-01 3.01014E-03 1.43044E-02 9.74038E-14-1.89094E-14
 -1      3686 2.02879E+01 2.42446E-01-3.46680E-04-4.41000E-02 8.54719E-14-3.85138E-14
 -1      3687 2.00776E+01-6.30170E-02 3.98998E-04-1.00789E-01 8.36881E-14 7.26041E-14
 -1      3688 2.00876E+01-6.90575E-02-7.25561E-06-1.05827E-01 6.18273E-14 8.35521E-14
 -1      3689 2.01039E+01-7.35210E-02 3.66974E-04-1.10754E-01 8.24958E-14 9.95960E-14
 -1      3690 2.01159E+01-7.63650E-02 1.03895E-04-1.16082E-01 9.98672E-14 9.62101E-14
 -1      3691 2.01480E+01-8.11311E-02-4.68159E-04-1.04919E-01 5.92448E-14 8.15251E-14
 -1      3692 2.01142E+01-7.60321E-02-4.08033E-04-9.64331E-02 7.41853E-14 7.57186E-14
 -1      3693 2.01682E+01-6.88440E-02 1.83271E-04-1.29191E-01 6.36058E-14 4.74462E-14
 -1      3694 2.01851E+01-5.87173E-02 4.43755E-04-1.31010E-01 8.01451E-14 1.79008E-14
 -1      3695 2.01859E+01-7.47226E-02-5.08518E-04-1.11918E-01 3.43209E-14 8.48917E-14
 -1      3696 2.00552E+01-4.84969E-02 4.17287E-04-9.28601E-02 4.79334E-14 8.07645E-14
 -1      3697 2.00632E+01-5.62390E-02-8.95630E-05-9.67805E-02 6.86861E-14 6.80852E-14
 -1      3698 2.00844E+01-6.37096E-02-3.43556E-04-8.86060E-02 7.57298E-14 1.60715E-13
 -1      3699 2.00363E+01-3.25245E-02 4.37586E-04-8.82055E-02-7.32852E-14 1.22820E-13
 -1      3700 2.00425E+01-4.07221E-02-1.47289E-04-9.04431E-02-1.40565E-15 8.69613E-14
 -1      3701 2.00585E+01-4.74253E-02-2.88650E-04-8.30440E-02 7.01687E-15 1.99327E-13
 -1      3702 2.00211E+01-1.74938E-02 4.73833E-04-8.77474E-02-8.46999E-14 1.86010E-13
 -1      3703 2.00254E+01-2.49379E-02-1.80068E-04-8.79240E-02-9.06707E-14 1.43972E-13
 -1      3704 2.00362E+01-2.98770E-02-2.58481E-04-8.10243E-02-8.95526E-14 2.26521E-13
 -1      3705 2.00103E+01-6.05164E-03 5.38542E-04-9.21937E-02-1.38119E-13 2.20066E-13
 -1      3706 2.00123E+01-1.13551E-02-1.81211E-04-9.00834E-02-8.20486E-14 2.17956E-13
 -1      3707 2.00176E+01-1.36507E-02-2.72366E-04-8.36670E-02-1.07870E-13 2.67821E-13
 -1      3708 2.00058E+01-1.53155E-03 6.42109E-04-1.02062E-01-1.42760E-13 1.54736E-13
 -1      3709 2.00043E+01-2.90748E-03-1.35166E-04-9.76015E-02-1.45547E-13 1.44316E-13
 -1      3710 2.00037E+01-1.68516E-03-3.56892E-04-9.20552E-02-1.11803E-13 1.84652E-13
 -1      3711 2.00105E+01-8.37576E-03 7.89701E-04-1.17582E-01-1.47218E-13 1.85211E-13
 -1      3712 2.00038E+01-3.42475E-03-1.43447E-05-1.10948E-01-1.57470E-13 1.22950E-13
 -1      3713 1.99963E+01 2.24771E-03-5.47940E-04-1.07275E-01-1.51630E-13 9.20787E-14
 -1      3714 2.00298E+01-3.24890E-02 9.74109E-04-1.38428E-01-1.23485E-14 9.82667E-14
 -1      3715 2.00152E+01-1.80280E-02 2.25277E-04-1.30202E-01-7.16961E-14 1.15554E-13
 -1      3716 1.99992E+01-6.94502E-03-8.95458E-04-1.30330E-01-7.41045E-14-2.94218E-14
 -1      3717 2.00717E+01-8.13749E-02 1.16351E-03-1.63154E-01 2.30573E-14 1.44443E-13
 -1      3718 2.00453E+01-5.33974E-02 6.48203E-04-1.54633E-01 3.56354E-14 1.04568E-13
 -1      3719 2.00183E+01-3.60870E-02-1.46075E-03-1.61826E-01 2.85439E-14 3.26063E-14
 -1      3720 2.01473E+01-1.63771E-01 1.28281E-03-1.88230E-01 3.62620E-14 1.05159E-13
 -1      3721 2.01040E+01-1.17699E-01 1.34041E-03-1.81909E-01 7.70555E-14 1.22895E-13
 -1      3722 2.00633E+01-9.39135E-02-2.31242E-03-2.01281E-01 2.16501E-14 4.65375E-14
 -1      3723 2.02710E+01-2.88305E-01 1.19232E-03-2.06538E-01 3.55681E-14 1.25233E-13
 -1      3724 2.02048E+01-2.19803E-01 2.40153E-03-2.06798E-01-3.11271E-14 9.10619E-14
 -1      3725 2.01477E+01-1.90668E-01-3.50794E-03-2.45839E-01-9.44466E-15-1.17570E-14
 -1      3726 2.04593E+01-4.60446E-01 6.64560E-04-2.05360E-01-1.03741E-13 2.71834E-13
 -1      3727 2.03645E+01-3.67202E-01 3.91842E-03-2.19268E-01 2.09087E-14 2.61170E-13
 -1      3728 2.02898E+01-3.36520E-01-5.05089E-03-2.88177E-01-9.44294E-14 1.66729E-13
 -1      3729 2.07281E+01-6.76616E-01-5.93251E-04-1.64169E-01 4.51733E-15 3.18014E-13
 -1      3730 2.06010E+01-5.61775E-01 5.87845E-03-2.02084E-01-4.51614E-14 2.68278E-13
 -1      3731 2.05115E+01-5.37890E-01-6.82406E-03-3.13501E-01-8.57627E-14 2.85725E-13
 -1      3732 2.10857E+01-9.14448E-01-2.81510E-03-5.39604E-02-1.21768E-13 1.45785E-13
 -1      3733 2.09284E+01-7.92058E-01 8.00262E-03-1.28935E-01-1.99555E-14 2.09270E-13
 -1      3734 2.08350E+01-7.89916E-01-8.47698E-03-2.95995E-01 1.70153E-14 2.67041E-13
 -1      3735 2.15220E+01-1.12009E+00-5.85756E-03 1.58739E-01-9.29947E-14 1.59184E-13
 -1      3736 2.13468E+01-1.02196E+00 9.54722E-03 3.42852E-02-1.72072E-13 1.13963E-13
 -1      3737 2.12745E+01-1.06380E+00-9.21072E-03-1.97238E-01-7.52012E-14 1.27442E-13
 -1      3738 2.19949E+01-1.19545E+00-8.73289E-03 4.98656E-01-1.27250E-13 2.02766E-13
 -1      3739 2.18282E+01-1.17758E+00 9.18987E-03 3.21195E-01-7.41138E-14 2.15514E-13
 -1      3740 2.18218E+01-1.29149E+00-7.98740E-03 2.99717E-02-1.38865E-13 7.40048E-14
 -1      3741 2.24247E+01-9.96275E-01-6.47949E-03 9.52228E-01-1.82807E-13 2.55809E-13
 -1      3742 2.22997E+01-1.13873E+00 4.76090E-03 7.40882E-01-1.45374E-13 2.75128E-13
 -1      3743 2.24245E+01-1.34705E+00-3.22445E-03 4.20986E-01-1.61112E-13 2.29694E-13
 -1      3744 2.26917E+01-3.98708E-01-1.23708E-03 1.40878E+00-1.18821E-13 2.85001E-13
 -1      3745 2.26386E+01-7.56923E-01-5.52476E-03 1.22668E+00-1.22267E-13 2.42465E-13
 -1      3746 2.29617E+01-1.04060E+00 8.04110E-03 9.59713E-01-1.28716E-13 3.20275E-13
 -1      3747 2.26877E+01 6.48446E-01 5.28679E-03 1.67384E+00-2.02885E-14 2.94011E-13
 -1      3748 2.27372E+01 7.94088E-02-1.68414E-02 1.63461E+00-1.51948E-13 2.00487E-13
 -1      3749 2.32867E+01-2.93613E-01 9.60100E-03 1.50026E+00-6.63768E-14 2.94503E-13
 -1      3750 2.24638E+01 1.88984E+00 1.45443E-02 1.49052E+00 2.12668E-13 1.70786E-13
 -1      3751 2.25674E+01 1.26227E+00-2.36149E-02 1.67005E+00 1.51998E-13 2.57497E-13
 -1      3752 2.32621E+01 1.02330E+00 2.29749E-04 1.78395E+00 1.04509E-13 3.32193E-13
 -1      3753 2.21950E+01 2.84394E+00 1.29983E-02 7.62353E-01 4.91671E-13 9.53478E-14
 -1      3754 2.22693E+01 2.42675E+00-1.93115E-02 1.15821E+00 2.73161E-13 1.58460E-13
 -1      3755 2.29855E+01 2.40309E+00-5.10856E-03 1.44868E+00 2.77327E-13 2.76086E-13
 -1      3756 2.21135E+01 3.00389E+00-7.50817E-03-3.00672E-01 2.93418E-13 3.72129E-14
 -1      3757 2.20923E+01 3.02424E+00-1.15928E-02 1.69368E-01 5.38090E-13 4.63570E-14
 -1      3758 2.27300E+01 3.34684E+00 5.80955E-04 5.19264E-01 4.76056E-13 2.12137E-13
 -1      3759 2.23170E+01 2.26301E+00-2.49035E-02-1.25258E+00-9.71723E-14 9.76164E-14
 -1      3760 2.22004E+01 2.72847E+00-1.98804E-03-8.95550E-01 7.09823E-14 6.00388E-14
 -1      3761 2.27345E+01 3.25588E+00 5.80055E-03-6.57373E-01 2.61400E-13 2.15471E-13
 -1      3762 2.26163E+01 1.05826E+00-2.49704E-02-1.67174E+00-1.38089E-13 1.99068E-14
 -1      3763 2.25173E+01 1.69631E+00 1.30259E-02-1.53603E+00-4.85410E-14 8.81474E-14
 -1      3764 2.30644E+01 2.20890E+00 5.30349E-03-1.51916E+00-5.01465E-15 2.16490E-13
 -1      3765 2.27629E+01-9.55797E-02-1.51743E-02-1.55930E+00-2.31013E-13-1.12140E-13
 -1      3766 2.27251E+01 4.52073E-01 5.15427E-03-1.63726E+00-3.25511E-13-1.33310E-13
 -1      3767 2.33119E+01 7.99757E-01 1.16183E-02-1.74349E+00-1.22641E-13 1.15867E-13
 -1      3768 2.26282E+01-8.59441E-01-2.71882E-03-1.12654E+00 9.05179E-15-6.01784E-14
 -1      3769 2.26834E+01-5.33495E-01-3.87442E-03-1.31959E+00-1.61085E-14 7.33896E-15
 -1      3770 2.32849E+01-4.38626E-01 1.02433E-02-1.40228E+00-1.16667E-13 6.32862E-14
 -1      3771 2.22618E+01-1.18053E+00 6.28679E-03-6.31932E-01-2.09688E-13-5.19752E-14
 -1      3772 2.23933E+01-1.07128E+00-7.68342E-03-8.42679E-01-7.67840E-14-1.46865E-13
 -1      3773 2.29269E+01-1.14310E+00 6.24059E-03-8.40181E-01-5.52445E-14 9.19522E-14
 -1      3774 2.17867E+01-1.17607E+00 9.70995E-03-2.25403E-01-3.36491E-14 5.63568E-15
 -1      3775 2.19561E+01-1.21327E+00-7.79619E-03-3.98019E-01-2.40647E-13-1.47945E-13
 -1      3776 2.23724E+01-1.37263E+00-2.63210E-03-3.13620E-01-2.28089E-13 3.30140E-15
 -1      3777 2.13142E+01-9.89729E-01 1.04073E-02 4.27201E-02 2.01635E-13 2.02224E-13
 -1      3778 2.14860E+01-1.09994E+00-4.75246E-03-7.16384E-02 1.41667E-13 8.63755E-14
 -1      3779 2.17746E+01-1.27529E+00-8.42557E-03 6.07460E-02 1.78069E-15 2.38322E-14
 -1      3780 2.09162E+01-7.50289E-01 6.47855E-03 1.88734E-01 4.87628E-13 3.21873E-13
 -1      3781 2.10753E+01-8.83564E-01-2.88825E-03 1.21816E-01 3.99831E-13 2.63341E-13
 -1      3782 2.12655E+01-1.04529E+00-1.20838E-02 2.65311E-01 2.85749E-13 2.27147E-13
 -1      3783 2.08689E+01-7.54168E-01-5.44457E-03 3.45325E-01 4.12630E-13 2.98286E-13
 -1      3784 2.02844E+01 9.08591E-02-8.06134E-04-1.00321E-01 2.40967E-14-3.61565E-14
 -1      3785 2.03062E+01 1.51528E-01 1.28817E-03-7.68112E-02 6.10630E-14-5.31356E-14
 -1      3786 2.02790E+01 1.42212E+00 4.82513E-03 2.36066E-03 5.85996E-14-1.90593E-13
 -1      3787 2.01978E+01 1.66197E+00-2.48710E-03-3.44760E-02 8.47396E-14-1.95111E-13
 -1      3788 2.02013E+01 1.64410E+00-2.95590E-03-1.24521E-01 5.52682E-14-1.87714E-13
 -1      3789 2.58654E+01-3.92871E-01-3.16799E-02 1.53172E+00-1.99818E-13-1.78698E-13
 -1      3790 2.51338E+01 6.84562E-01-5.61263E-03 1.86083E+00-2.20483E-14 4.83589E-14
 -1      3791 1.93208E+01 1.66086E-01-1.18294E-02 1.37712E+00 6.27493E-15-9.78019E-14
 -1      3792 1.97122E+01-3.26763E-02 1.84063E-02 1.39645E+00 1.71339E-13-5.68533E-13
 -1      3793 1.90211E+01 2.49426E-01-1.02253E-02 1.58959E+00-1.05852E-13-1.88801E-13
 -1      3794 2.02423E+01 1.44439E+00-2.91191E-03 4.17290E-01 1.52077E-13-1.33314E-13
 -1      3795 2.02265E+01 1.53965E+00-6.98999E-04 3.47813E-01 1.54286E-13-1.25398E-13
 -1      3796 2.02859E+01 1.32817E+00 1.24213E-03 2.56726E-01 1.23976E-13-1.02413E-13
 -1      3797 2.02807E+01 1.28088E+00 2.51746E-03 3.63678E-01 1.23956E-13-1.16499E-13
 -1      3798 2.08631E+01-7.31834E-01 6.16065E-03 5.20161E-01 4.00420E-13 1.21486E-13
 -1      3799 2.02036E+01 1.63881E+00-1.75474E-03-1.88788E-01 5.03180E-14-1.76891E-13
 -1      3800 2.02132E+01 1.58407E+00-3.42240E-03-2.73097E-01 3.03888E-14-2.02085E-13
 -1      3801 2.02715E+01 1.37202E+00 6.89425E-04-2.31279E-01 3.04536E-14-1.82638E-13
 -1      3802 2.02777E+01 1.41561E+00 4.85167E-03-1.22006E-01 3.31222E-14-1.67810E-13
 -1      3803 1.47770E+01 1.63130E+00 5.91921E-03 2.15292E+00-3.71752E-13 4.28489E-13
 -1      3804 1.59661E+01 1.60737E+00 1.41092E-02 1.66057E+00-1.84569E-13 4.65435E-13
 -1      3805 1.55973E+01 1.04260E+00 3.24662E-02 3.04342E+00-2.80037E-13 6.01356E-13
 -1      3806 2.40313E+01-3.29536E+00 6.37052E-02-2.90171E+00-2.22414E-13-1.03259E-13
 -1      3807 2.48112E+01-3.10025E+00-3.36900E-02-1.64643E+00-2.16981E-13-3.27750E-14
 -1      3808 1.73968E+01 1.53616E+00-2.34197E-03 5.57084E-01 3.66108E-13-1.71196E-14
 -1      3809 1.78929E+01 1.38689E+00-3.68027E-03 3.70974E-01 2.80434E-13-9.82829E-15
 -1      3810 1.80103E+01 1.29699E+00 1.50267E-02 6.00541E-01 2.80789E-13 7.71795E-14
 -1      3811 2.03348E+01 9.90426E-01 1.10319E-03-1.94901E-01 7.12199E-16-1.43746E-13
 -1      3812 2.08258E+01-7.72935E-01-3.11606E-03 7.80996E-01 2.53731E-13-2.27491E-13
 -1      3813 2.10904E+01-9.21516E-01 7.26061E-03 5.75816E-01 3.27607E-13-6.73485E-14
 -1      3814 1.88996E+01-1.30228E+00 4.43051E-02 4.34417E+00-1.53540E-13-6.76706E-13
 -1      3815 1.85969E+01-7.19494E-01 8.38056E-03 3.71750E+00-1.59672E-13-4.53417E-13
 -1      3816 2.00385E+01-1.83764E+00-1.04169E-02 4.04628E+00-1.51233E-13-7.41730E-13
 -1      3817 1.74622E+01 6.39482E-01 1.42653E-02-2.52589E+00-1.56899E-13-1.54622E-13
 -1      3818 1.66098E+01 1.08306E+00 1.96835E-02-2.37443E+00-2.12445E-13-1.25452E-13
 -1      3819 1.57504E+01 9.45995E-01-2.44523E-02-2.95528E+00-1.56841E-13-2.82600E-13
 -1      3820 2.03142E+01 4.44629E-01-1.43674E-03 5.65381E-02 1.12751E-13-1.02158E-15
 -1      3821 2.52664E+01-2.79720E+00 1.50437E-02-9.30385E-01-2.49260E-13-1.73368E-13
 -1      3822 2.53031E+01-2.27830E+00-1.11889E-03-1.50207E-01-1.41534E-13-3.82416E-13
 -1      3823 2.42060E+01-2.82899E+00-2.34025E-02-1.46830E+00-1.40462E-13-2.25029E-13
 -1      3824 2.54708E+01-1.09301E+00-1.63716E-02 1.02360E+00-1.62380E-13-2.01807E-13
 -1      3825 2.02666E+01 4.38250E-02 9.81000E-04-1.12961E-01 1.75343E-14-2.16476E-14
 -1      3826 2.03117E+01 8.22532E-02-2.77714E-04-8.93170E-02 8.42463E-15-6.64968E-15
 -1      3827 2.02454E+01 5.96823E-03-3.34998E-04-1.24261E-01 3.31618E-14 2.91072E-15
 -1      3828 2.03178E+01 1.19710E+00-2.43827E-03 3.20545E-02 5.39821E-14-1.72870E-13
 -1      3829 2.03181E+01 1.19869E+00-1.94957E-03-2.83892E-02 2.52471E-14-1.79928E-13
 -1      3830 1.67062E+01 1.25336E+00 2.39439E-02 1.95206E+00-2.62899E-13 9.88639E-13
 -1      3831 1.62139E+01 1.61687E+00-9.57883E-03 1.36856E+00-1.81439E-13 4.07804E-13
 -1      3832 1.66950E+01 1.58666E+00 5.31482E-03 1.12410E+00-9.60560E-15 2.10202E-13
 -1      3833 2.53773E+01 1.51328E-01-2.93369E-02-1.74031E+00 8.08208E-15-3.87017E-14
 -1      3834 2.50847E+01-6.23991E-01-1.30095E-02-1.33040E+00-5.51076E-14-6.70696E-14
 -1      3835 2.48453E+01 9.68614E-01-7.81856E-03-1.89845E+00 9.36612E-14 9.13158E-15
 -1      3836 2.02270E+01-5.10139E-02-5.09461E-04-1.14499E-01 4.93604E-14 6.72114E-15
 -1      3837 2.02057E+01-4.38082E-02-1.85884E-05-1.31824E-01 6.67854E-14 5.49281E-15
 -1      3838 2.02250E+01-2.22526E-02 6.87846E-04-1.28675E-01 4.62863E-14 8.64458E-15
 -1      3839 2.35757E+01 4.20143E+00-1.71247E-02 4.37505E-01 4.29309E-13 2.71219E-13
 -1      3840 2.39283E+01 4.56059E+00-5.31271E-02-1.79468E-01 3.02031E-13 5.02244E-13
 -1      3841 2.26562E+01-2.93444E+00-6.66455E-03-3.24339E+00-1.47365E-13-3.10004E-14
 -1      3842 2.06877E+01-6.88535E-01-3.76129E-04 9.46246E-01 1.17655E-13-1.49112E-13
 -1      3843 2.32230E+01-3.31453E+00 1.57593E-02 3.47627E+00-9.54202E-14-7.38837E-13
 -1      3844 2.18050E+01-2.80008E+00-1.40845E-02 3.82411E+00-1.28659E-13-5.23026E-13
 -1      3845 2.38895E+01-3.12475E+00 1.85926E-02 2.51209E+00-1.61217E-13-6.54025E-13
 -1      3846 2.55696E+01-2.49361E+00-3.29287E-02 2.56559E-01-1.58493E-13-1.18128E-13
 -1      3847 2.49723E+01-2.79863E+00-6.06508E-03 1.01873E+00-2.44735E-13-1.69201E-13
 -1      3848 2.52634E+01-1.78574E+00 1.79302E-02-4.35947E-01-2.19548E-13-1.69321E-13
 -1      3849 1.69520E+01 5.23055E-01 1.11221E-02 3.01702E+00-2.07908E-13 4.62521E-13
 -1      3850 1.99086E+01-3.45692E-01-1.24844E-02 1.55317E+00 1.15062E-13-6.20746E-13
 -1      3851 2.00505E+01-3.07536E-01-4.87759E-03 1.30117E+00 1.39873E-13-7.40813E-13
 -1      3852 2.03541E+01-4.56487E-01 1.39658E-02 1.20802E+00 8.40162E-14-2.71704E-13
 -1      3853 1.81969E+01 1.09321E+00-1.12685E-03 8.00003E-01 2.22283E-13 4.28074E-13
 -1      3854 1.83849E+01 9.76294E-01 1.80936E-02 9.72985E-01 7.32412E-14 5.05739E-13
 -1      3855 1.83490E+01 7.81771E-01-1.41998E-03 1.36523E+00-7.66180E-14 4.26199E-13
 -1      3856 1.77909E+01 1.17941E+00-2.16364E-03 1.07570E+00 4.06328E-13 3.57666E-13
 -1      3857 1.91692E+01-1.47618E+00 5.35427E-02-4.44979E+00-1.30292E-13 1.86020E-13
 -1      3858 2.01741E+01-1.98076E+00-3.23804E-02-4.05754E+00-1.78960E-13 1.69535E-13
 -1      3859 2.45822E+01 2.45183E+00-2.85394E-02 1.83638E+00 3.41775E-13 2.14231E-13
 -1      3860 2.49688E+01 3.63825E+00-5.18076E-02 1.75163E+00 3.32245E-13 3.13388E-13
 -1      3861 2.03224E+01 1.13947E+00-4.69082E-03 1.36782E-01 1.09308E-13-1.30721E-13
 -1      3862 2.03200E+01 1.18227E+00-1.72701E-03 7.75982E-02 8.24136E-14-1.38197E-13
 -1      3863 2.03716E+01 9.96670E-01 4.11106E-03 4.03845E-02 6.17779E-14-1.28338E-13
 -1      3864 1.70221E+01 1.61849E+00-1.10981E-03 7.36692E-01 3.28294E-13 6.75987E-14
 -1      3865 2.03474E+01 2.15839E-01 9.17565E-05-4.97624E-02 7.15073E-14-2.18278E-14
 -1      3866 2.03184E+01 2.24059E-01-1.60343E-03-5.24571E-02 9.77619E-14-7.25391E-14
 -1      3867 2.03399E+01 3.15405E-01 1.98431E-03-1.17147E-02 9.64441E-14-4.08130E-14
 -1      3868 2.03254E+01 9.80118E-01 3.44084E-03 2.67276E-01 1.28264E-13-1.10182E-13
 -1      3869 2.02995E+01 1.12308E+00-1.14002E-03 3.19046E-01 1.33347E-13-1.20219E-13
 -1      3870 2.03017E+01 1.16768E+00 7.23868E-04 2.74326E-01 1.21698E-13-8.78681E-14
 -1      3871 2.42686E+01 3.97146E+00-3.19813E-02 1.34576E+00 3.46650E-13 2.16369E-13
 -1      3872 2.40728E+01 8.04179E-01-1.14831E-02 1.76757E+00 2.05625E-14 2.22529E-13
 -1      3873 2.41828E+01 1.73445E+00-1.15371E-02 1.94713E+00 2.33064E-13 2.32200E-13
 -1      3874 1.77298E+01-6.92543E-01-1.57667E-03-4.22408E+00-1.30233E-13-3.42677E-14
 -1      3875 2.03293E+01 7.79079E-01-3.03395E-03 1.80246E-01 1.15638E-13-8.12507E-14
 -1      3876 2.03601E+01 6.22810E-01 4.89429E-03 1.12220E-01 9.94340E-14-6.53557E-14
 -1      3877 2.03489E+01 8.15996E-01-4.35603E-03 1.58740E-01 1.00243E-13-8.26714E-14
 -1      3878 2.43698E+01 3.70808E+00-4.13108E-02-1.50016E+00 4.28824E-14 6.99121E-13
 -1      3879 2.49575E+01 3.30228E+00-5.35900E-02-1.84346E+00 1.96964E-13 3.53407E-13
 -1      3880 2.00899E+01-6.15893E-02 3.81413E-04-7.33765E-02 2.32222E-14 1.46117E-13
 -1      3881 2.01037E+01-6.96213E-02 1.09763E-05-7.62636E-02 5.02259E-14 1.10831E-13
 -1      3882 2.03952E+01 3.66336E-01 4.46950E-04 5.06364E-04 1.31869E-14-1.12295E-13
 -1      3883 2.03836E+01 2.63936E-01-9.97138E-04 3.20248E-02 5.46910E-15-7.37457E-14
 -1      3884 2.03737E+01 1.79646E-01 6.15956E-04 4.70170E-02-2.51777E-14-6.37355E-14
 -1      3885 2.03546E+01 1.10785E-01-6.30188E-04 6.59084E-02-3.22191E-14-4.83214E-14
 -1      3886 2.03987E+01 2.42779E-01 2.41886E-04 2.81090E-02-1.07805E-14-1.16397E-13
 -1      3887 2.03367E+01 5.60449E-02 6.08430E-04 7.38101E-02-3.58760E-14-6.24530E-14
 -1      3888 2.03144E+01 1.24298E-02-2.91754E-04 8.35091E-02-4.08268E-14-4.93923E-14
 -1      3889 2.03668E+01 9.52503E-02-1.00982E-04 5.28309E-02-6.35545E-14-1.05043E-13
 -1      3890 2.02925E+01-2.06128E-02 5.04638E-04 8.63379E-02-6.02406E-14-8.66960E-14
 -1      3891 2.02699E+01-4.57103E-02-1.40010E-05 8.98718E-02-7.78844E-14-8.34140E-14
 -1      3892 2.03241E+01 1.30294E-03-3.20978E-04 6.54546E-02-7.01801E-14-7.51460E-14
 -1      3893 2.02466E+01-6.32837E-02 3.78954E-04 8.93613E-02-7.26452E-14-7.47831E-14
 -1      3894 2.02251E+01-7.51202E-02 1.62105E-04 8.90345E-02-4.74561E-14-8.34845E-14
 -1      3895 2.02772E+01-5.34844E-02-4.55686E-04 6.98022E-02-5.99276E-14-7.52352E-14
 -1      3896 2.02021E+01-8.17511E-02 2.64192E-04 8.66211E-02-5.05028E-14-5.47379E-14
 -1      3897 2.01825E+01-8.42687E-02 2.55627E-04 8.41670E-02-8.82304E-14-5.09966E-14
 -1      3898 2.02302E+01-8.00144E-02-4.97816E-04 6.88689E-02-5.33022E-14-2.31371E-14
 -1      3899 2.01608E+01-8.32447E-02 1.62449E-04 8.08794E-02-7.55748E-14 1.96078E-14
 -1      3900 2.01431E+01-7.92534E-02 2.85118E-04 7.75377E-02-1.66175E-14 4.25787E-14
 -1      3901 2.01855E+01-8.66074E-02-4.72700E-04 6.49755E-02-3.34593E-14 3.41172E-14
 -1      3902 2.01229E+01-7.28474E-02 7.34753E-05 7.40477E-02-1.88127E-14 2.91853E-14
 -1      3903 2.01069E+01-6.42351E-02 2.62889E-04 7.06407E-02-7.83621E-15 1.34302E-14
 -1      3904 2.01440E+01-7.92607E-02-3.99805E-04 5.97315E-02 5.45970E-16 3.42026E-14
 -1      3905 2.00881E+01-5.38968E-02-3.67788E-06 6.73033E-02-3.42402E-14 9.75089E-15
 -1      3906 2.00730E+01-4.18059E-02 1.93162E-04 6.42940E-02-4.96328E-14-2.35178E-14
 -1      3907 2.01058E+01-6.20679E-02-2.90757E-04 5.41020E-02-5.23664E-14-1.60572E-14
 -1      3908 2.00550E+01-2.83143E-02-6.88751E-05 6.11561E-02-3.53528E-14-5.57661E-14
 -1      3909 2.00400E+01-1.32818E-02 7.07141E-05 5.86661E-02-4.13375E-14-1.12553E-14
 -1      3910 2.00698E+01-3.75940E-02-1.50187E-04 4.84372E-02-4.71309E-14-4.81520E-14
 -1      3911 2.00218E+01 3.13982E-03-1.18996E-04 5.54304E-02-3.04671E-14 6.56580E-15
 -1      3912 2.00054E+01 2.10724E-02-1.20748E-04 5.32012E-02-3.23234E-14-7.61810E-15
 -1      3913 2.00345E+01-7.19302E-03 2.34208E-05 4.24274E-02-2.01156E-14-5.22348E-14
 -1      3914 1.99858E+01 4.06687E-02-1.45442E-04 4.91281E-02 2.82784E-16 2.76906E-14
 -1      3915 1.99660E+01 6.18601E-02-4.13034E-04 4.64042E-02 7.71797E-15 4.57957E-14
 -1      3916 1.99976E+01 2.87227E-02 2.36835E-04 3.49504E-02 8.65437E-15 2.58820E-14
 -1      3917 1.99436E+01 8.52416E-02-1.37576E-04 4.01159E-02 2.60530E-15 9.45436E-14
 -1      3918 1.99176E+01 1.10299E-01-8.88227E-04 3.54586E-02-1.63794E-14 1.22962E-13
 -1      3919 1.99562E+01 7.04101E-02 5.01639E-04 2.37818E-02 2.65947E-14 1.32896E-13
 -1      3920 1.98889E+01 1.39950E-01-2.17138E-05 2.40515E-02-3.31722E-14 1.29562E-13
 -1      3921 1.98509E+01 1.71411E-01-1.56115E-03 1.40412E-02 2.12912E-14 1.15306E-13
 -1      3922 1.99051E+01 1.19931E-01 8.62064E-04 4.40265E-03-1.10297E-14 8.07764E-14
 -1      3923 1.98163E+01 2.05620E-01 1.90394E-04-5.45083E-03 3.38645E-14 1.05491E-13
 -1      3924 1.97644E+01 2.41060E-01-2.52466E-03-2.41706E-02 8.34172E-14 7.65429E-14
 -1      3925 1.98406E+01 1.76500E-01 1.24147E-03-2.95801E-02 5.49464E-15 1.29043E-14
 -1      3926 1.97206E+01 2.81669E-01 6.84801E-04-5.77624E-02 1.14998E-13 1.13024E-14
 -1      3927 1.96465E+01 3.22142E-01-3.93642E-03-9.26102E-02 1.31799E-13 6.65455E-14
 -1      3928 1.97590E+01 2.38308E-01 1.66923E-03-8.69726E-02 5.44733E-14-5.25857E-15
 -1      3929 1.95916E+01 3.68709E-01 1.57805E-03-1.48902E-01 1.47077E-13-2.44114E-14
 -1      3930 1.94865E+01 4.12006E-01-5.88038E-03-2.10743E-01 1.08276E-13-4.60645E-15
 -1      3931 1.96539E+01 3.03577E-01 2.09994E-03-1.83088E-01 9.85370E-14-6.78067E-14
 -1      3932 1.94205E+01 4.61334E-01 3.14347E-03-3.02040E-01 1.96258E-14-1.09583E-14
 -1      3933 1.92746E+01 5.01128E-01-8.45732E-03-4.07124E-01-2.87009E-14-1.87045E-14
 -1      3934 1.95212E+01 3.64095E-01 2.37034E-03-3.39187E-01 4.32880E-14-9.54057E-14
 -1      3935 1.92017E+01 5.44781E-01 5.75352E-03-5.50527E-01-4.97707E-14-5.66311E-15
 -1      3936 1.90055E+01 5.67739E-01-1.14689E-02-7.22137E-01-4.47570E-14 3.01931E-14
 -1      3937 1.93617E+01 4.01993E-01 2.15124E-03-5.84690E-01-2.71038E-14-1.17005E-13
 -1      3938 1.89368E+01 5.88013E-01 9.76824E-03-9.38621E-01-5.63517E-14 4.03909E-14
 -1      3939 1.86862E+01 5.67071E-01-1.45426E-02-1.20731E+00-7.66668E-14-1.92470E-14
 -1      3940 1.91863E+01 3.84866E-01 8.37766E-04-9.58621E-01-8.62857E-14-5.00856E-14
 -1      3941 1.86492E+01 5.28871E-01 1.57021E-02-1.52227E+00-1.15011E-13 2.30019E-14
 -1      3942 1.83565E+01 4.16444E-01-1.65323E-02-1.92359E+00-1.20232E-13-4.51538E-14
 -1      3943 1.90274E+01 2.48498E-01-4.68691E-03-1.50218E+00-7.50872E-14-6.58290E-14
 -1      3944 2.01995E+01-8.03043E-02 2.22581E-04-9.22974E-02 1.10457E-14 5.42847E-15
 -1      3945 2.02198E+01-7.26832E-02 3.28758E-04-9.39822E-02 1.25401E-14-1.81263E-14
 -1      3946 2.03456E+01 4.78826E-01-1.56661E-03 4.71797E-02 7.71035E-14-4.44850E-14
 -1      3947 2.00611E+01-4.32377E-02 4.08067E-04-7.01048E-02-3.52219E-14 2.50172E-13
 -1      3948 2.00729E+01-5.28704E-02-7.29704E-05-7.16546E-02 4.73862E-15 2.11029E-13
 -1      3949 2.00893E+01-5.93458E-02-3.33113E-04-5.95630E-02-2.54165E-14 1.30223E-13
 -1      3950 2.45005E+01 2.35365E+00-2.32666E-02-1.84571E+00 3.54161E-14 3.25391E-13
 -1      3951 1.87264E+01 2.68551E-01-1.71696E-02 1.90027E+00-1.21445E-13-3.51672E-14
 -1      3952 1.93118E+01-2.54783E-02 2.90906E-02 1.96468E+00 1.96534E-14-4.32716E-13
 -1      3953 2.00359E+01-2.36585E-02 4.54032E-04-7.06067E-02-1.10728E-13 2.48130E-13
 -1      3954 2.00457E+01-3.36395E-02-1.49665E-04-7.02022E-02-6.06334E-14 2.35411E-13
 -1      3955 2.00581E+01-3.90579E-02-2.67166E-04-5.87708E-02-3.63988E-14 2.32581E-13
 -1      3956 2.00145E+01-5.35648E-03 5.39244E-04-7.61731E-02-8.42948E-14 1.97727E-13
 -1      3957 2.00221E+01-1.44200E-02-2.17864E-04-7.32182E-02-7.12657E-14 2.37882E-13
 -1      3958 2.00301E+01-1.76380E-02-2.25474E-04-6.20919E-02-6.13950E-14 1.88066E-13
 -1      3959 1.99978E+01 8.75884E-03 6.84798E-04-8.82698E-02-6.84322E-14 1.11996E-13
 -1      3960 2.00024E+01 2.13997E-03-2.70738E-04-8.21347E-02-8.30808E-14 1.75285E-13
 -1      3961 2.00055E+01 2.33705E-03-2.31415E-04-7.11540E-02-7.38596E-14 1.32967E-13
 -1      3962 1.99878E+01 1.48446E-02 9.13179E-04-1.08610E-01-6.80523E-14-4.64319E-14
 -1      3963 1.99880E+01 1.27290E-02-2.91839E-04-9.86257E-02-6.63042E-14 2.78816E-14
 -1      3964 1.99850E+01 1.77711E-02-3.21144E-04-8.80046E-02-9.82602E-15 4.75364E-14
 -1      3965 1.99885E+01 7.58836E-03 1.24284E-03-1.39123E-01-9.50504E-14-7.89293E-14
 -1      3966 1.99818E+01 1.28512E-02-2.49648E-04-1.24632E-01-9.93947E-14-8.76867E-14
 -1      3967 1.99706E+01 2.44975E-02-5.38555E-04-1.15226E-01-4.23961E-14-8.73576E-14
 -1      3968 2.00069E+01-2.03624E-02 1.67754E-03-1.81655E-01-6.33609E-14 3.58175E-15
 -1      3969 1.99894E+01-3.74873E-03-8.69969E-05-1.62230E-01-9.72234E-14-6.83482E-14
 -1      3970 1.99665E+01 1.65953E-02-9.52718E-04-1.55946E-01-1.38821E-13-2.54752E-13
 -1      3971 2.00534E+01-7.87581E-02 2.18776E-03-2.37248E-01 3.34589E-14-1.83988E-14
 -1      3972 2.00195E+01-4.55529E-02 2.89775E-04-2.13120E-01 3.11185E-14-2.30143E-14
 -1      3973 1.99802E+01-1.42985E-02-1.65961E-03-2.13531E-01-3.59043E-14-1.46601E-13
 -1      3974 2.01437E+01-1.79631E-01 2.67556E-03-3.04671E-01-4.13878E-14 3.80595E-14
 -1      3975 2.00856E+01-1.23444E-01 1.02371E-03-2.77535E-01 6.53869E-15 1.43472E-14
 -1      3976 2.00236E+01-7.95246E-02-2.78177E-03-2.90729E-01 2.96903E-14-1.02243E-13
 -1      3977 2.02990E+01-3.35995E-01 2.94248E-03-3.77858E-01-2.12115E-13 1.04257E-13
 -1      3978 2.02072E+01-2.50106E-01 2.31107E-03-3.52165E-01-1.56368E-13 2.12019E-14
 -1      3979 2.01149E+01-1.93436E-01-4.45452E-03-3.87816E-01-9.61746E-14-6.90821E-15
 -1      3980 2.05456E+01-5.58483E-01 2.59503E-03-4.42061E-01-6.36373E-14 5.52037E-14
 -1      3981 2.04100E+01-4.37791E-01 4.38603E-03-4.26805E-01-1.08283E-13 8.53749E-14
 -1      3982 2.02801E+01-3.72004E-01-6.74917E-03-4.99257E-01-1.53766E-13-1.54636E-13
 -1      3983 2.09113E+01-8.46870E-01 9.96415E-04-4.68510E-01-2.25137E-14 1.43879E-13
 -1      3984 2.07243E+01-6.92971E-01 7.38879E-03-4.79072E-01-1.42937E-14 7.83735E-14
 -1      3985 2.05536E+01-6.28735E-01-9.55699E-03-6.08145E-01-6.50478E-14-2.05504E-13
 -1      3986 2.14183E+01-1.17512E+00-2.10025E-03-4.09998E-01-5.49770E-14 1.17583E-13
 -1      3987 2.11792E+01-1.00515E+00 1.10924E-02-4.69150E-01-2.58993E-14 1.87942E-13
 -1      3988 2.09750E+01-9.65058E-01-1.26644E-02-6.78548E-01-7.08828E-14 2.18829E-14
 -1      3989 2.20604E+01-1.47141E+00-7.99895E-03-2.06312E-01-7.97033E-14 1.24142E-14
 -1      3990 2.17856E+01-1.32783E+00 1.42228E-02-3.38941E-01-9.46179E-14 5.77561E-14
 -1      3991 2.15763E+01-1.34798E+00-1.54672E-02-6.46382E-01-4.25657E-14 1.11382E-13
 -1      3992 2.27856E+01-1.58012E+00-1.32714E-02 2.04740E-01-3.00895E-13 4.32558E-14
 -1      3993 2.25196E+01-1.54933E+00 1.73769E-02-1.37426E-02-1.81157E-13-1.77156E-14
 -1      3994 2.23691E+01-1.69867E+00-1.88614E-02-4.30954E-01-1.45517E-13-1.85516E-13
 -1      3995 2.34720E+01-1.26455E+00-1.94567E-03 8.21915E-01-9.39045E-14 1.37706E-13
 -1      3996 2.32689E+01-1.49619E+00 8.51885E-03 5.42289E-01-2.36120E-13 8.79813E-14
 -1      3997 2.32714E+01-1.80380E+00-2.04622E-02 5.11617E-02-2.73897E-13-2.79810E-13
 -1      3998 2.41053E+01 2.11068E-02-1.14071E-02 1.66876E+00-8.84579E-14 1.17300E-13
 -1      3999 2.33462E+01 3.17077E+00 5.44520E-03 1.32305E+00 3.47189E-13 1.72092E-13
 -1      4000 2.34653E+01 2.46712E+00-2.48653E-02 1.66096E+00 3.15377E-13 2.74593E-13
 -1      4001 2.36047E+01 2.15742E+00-2.59963E-02-1.73687E+00-1.18933E-14 2.73200E-13
 -1      4002 2.34743E+01 2.97282E+00 1.17415E-02-1.45965E+00-4.61992E-14 3.54590E-13
 -1      4003 2.40386E+01 3.51928E-02-1.74451E-02-1.68246E+00-1.20024E-13 1.53909E-13
 -1      4004 2.39928E+01 8.35023E-01-7.45487E-03-1.77732E+00 3.71144E-14 2.87357E-13
 -1      4005 2.31954E+01-1.55389E+00 1.03475E-02-4.11090E-01-1.37092E-13 1.56003E-13
 -1      4006 2.34214E+01-1.37023E+00-1.04007E-02-7.05093E-01-6.67730E-14 1.36110E-13
 -1      4007 2.24505E+01-1.55441E+00 1.62107E-02 1.16626E-01-4.52407E-14-1.01381E-13
 -1      4008 2.27211E+01-1.60787E+00-1.14886E-02-9.91290E-02-5.05954E-14 1.31106E-13
 -1      4009 2.31987E+01-1.81596E+00-6.89555E-03 6.33585E-02-6.69577E-14 6.87932E-14
 -1      4010 2.17494E+01-1.29917E+00 1.65828E-02 4.19242E-01 1.13441E-13-1.09131E-13
 -1      4011 2.20079E+01-1.45586E+00-7.71561E-03 2.86647E-01-4.19095E-14-1.68624E-13
 -1      4012 2.23017E+01-1.66274E+00-1.20058E-02 5.12013E-01 2.58067E-14-7.26264E-15
 -1      4013 2.13075E+01-1.08459E+00-6.93166E-04 5.32379E-01 2.14912E-13-7.28142E-14
 -1      4014 1.72345E+01 1.32535E+00-4.58916E-03 1.26182E+00 7.60349E-14 4.61986E-13
 -1      4015 2.03898E+01 6.32270E-01-1.37095E-03-7.30690E-02-1.60886E-14-1.06731E-13
 -1      4016 2.03914E+01 4.89255E-01-1.71657E-03-2.35864E-02 2.13420E-15-9.63947E-14
 -1      4017 2.04097E+01 4.60769E-01 5.62998E-04-1.25402E-02 1.35687E-14-1.26469E-13
 -1      4018 2.16703E+01-2.32538E+00 6.22042E-02-3.48152E+00-1.69422E-13-1.79244E-13
 -1      4019 2.27749E+01-2.65119E+00-3.19543E-02-2.46713E+00-9.33858E-14-2.36521E-13
 -1      4020 2.40124E+01 4.28433E+00-3.71697E-02-7.92618E-01 1.33733E-13 5.90911E-13
 -1      4021 1.84270E+01-7.06695E-02 4.16809E-02 2.96947E+00-9.25874E-14-1.73131E-13
 -1      4022 1.77302E+01 4.88995E-01-1.16511E-02 2.39516E+00-6.48778E-14 2.51306E-13
 -1      4023 2.14495E+01-1.24025E+00-1.03969E-02 7.62675E-01 8.69830E-14-1.36919E-13
 -1      4024 2.07070E+01-8.11457E-01-1.03048E-02 1.16043E+00 2.12290E-13-2.87358E-13
 -1      4025 2.40008E+01 1.65018E+00-2.29448E-02-1.89168E+00 1.08941E-13 2.19284E-13
 -1      4026 2.48145E+01-1.88409E+00-1.90435E-02 3.77720E-01-1.38314E-13-3.01829E-13
 -1      4027 2.43980E+01-1.12966E+00 6.20466E-03 9.75477E-01-8.53386E-14-2.21931E-13
 -1      4028 2.07243E+01-1.77545E+00 6.79880E-03-3.32069E+00-1.87332E-13-1.06748E-13
 -1      4029 1.65860E+01 2.91882E-01 4.18451E-02-3.75039E+00-1.93543E-13-1.71390E-13
 -1      4030 1.82342E+01-3.54447E-01 2.52373E-02-3.50851E+00-1.74721E-13-3.66556E-14
 -1      4031 2.03687E+01 1.01530E+00 3.98563E-03-3.32680E-02 1.02148E-14-1.76397E-13
 -1      4032 2.03150E+01 1.20345E+00-2.12184E-03-6.99420E-02 2.02865E-14-2.04348E-13
 -1      4033 2.03149E+01 1.20526E+00 2.70752E-04-1.22190E-01 3.79487E-14-1.80320E-13
 -1      4034 2.40226E+01-6.36421E-01-8.29745E-03 1.37316E+00-5.11778E-14 6.62118E-14
 -1      4035 2.18872E+01-2.34427E+00-4.14228E-04 3.04511E+00-1.94190E-13-5.88562E-13
 -1      4036 2.10430E+01-2.14460E+00 3.38015E-02 3.69155E+00-1.95996E-13-6.11957E-13
 -1      4037 2.03352E+01-1.52372E+00 1.08291E-02 3.33753E+00-8.58395E-14-5.68348E-13
 -1      4038 1.83542E+01 3.07859E-01 2.55339E-02-2.33282E+00-9.09270E-14-6.11468E-14
 -1      4039 1.79719E+01 1.03485E-01-1.11336E-02-2.86461E+00-1.37795E-13-6.54338E-15
 -1      4040 1.89148E+01-5.80365E-02-1.34621E-02-2.22974E+00-7.97457E-14-2.07811E-14
 -1      4041 2.37549E+01-5.21291E-01-1.04761E-02-1.37102E+00-2.42159E-13 5.69089E-14
 -1      4042 2.44821E+01-5.19421E-01 6.91414E-03-1.40391E+00-1.60651E-13 1.05922E-14
 -1      4043 2.47443E+01-1.19890E+00-1.73071E-02-1.03966E+00-1.62806E-13-1.17040E-13
 -1      4044 2.36524E+01-1.01660E+00-4.83758E-03-1.10726E+00-1.39706E-13 3.61499E-14
 -1      4045 1.95997E+01-4.64479E-01-1.17361E-02 2.20934E+00 2.73050E-13-6.88876E-13
 -1      4046 1.98392E+01-4.09681E-01-5.37139E-03 1.85269E+00 2.31931E-13-6.38249E-13
 -1      4047 2.03379E+01-6.42151E-01 2.30799E-02 1.74080E+00 2.09128E-13-6.02043E-13
 -1      4048 2.01242E+01-7.59072E-02-4.05555E-04-6.30786E-02-2.97585E-15 4.54677E-14
 -1      4049 2.01225E+01-7.61302E-02 3.54994E-04-7.91613E-02 4.69674E-14 4.65983E-14
 -1      4050 2.01385E+01-8.10902E-02 1.03924E-04-8.26678E-02 6.36061E-14 2.44867E-14
 -1      4051 2.46034E+01-1.69641E+00-9.69887E-03-4.97493E-01-2.49705E-13-5.99666E-14
 -1      4052 2.02513E+01-6.69298E-02-4.92453E-04-7.54552E-02 1.71942E-14-6.69087E-14
 -1      4053 2.02430E+01-6.02369E-02 7.06211E-05-9.55798E-02 1.87770E-14-1.09291E-14
 -1      4054 2.02649E+01-4.14931E-02 4.63688E-04-9.40816E-02 2.35754E-14-3.28067E-14
 -1      4055 2.01773E+01-8.37098E-02 2.08924E-04-8.92620E-02 4.67344E-14-8.03516E-16
 -1      4056 2.02056E+01-8.44949E-02-5.04482E-04-7.27176E-02 3.12554E-14-6.75457E-14
 -1      4057 2.01591E+01-8.37401E-02 3.09230E-04-8.60525E-02 7.16193E-14-1.73385E-14
 -1      4058 2.03721E+01 4.66396E-01 4.09926E-04 3.23171E-02 7.51321E-14-6.98813E-14
 -1      4059 2.36253E+01-2.58680E+00 4.58192E-02-1.65036E+00-8.67193E-14-1.50021E-13
 -1      4060 2.38293E+01-2.49813E+00-2.81440E-02-1.01682E+00-1.29722E-13-3.24937E-13
 -1      4061 2.02700E+01-2.17268E-03-4.44240E-04-1.08698E-01 3.28568E-14-1.03506E-15
 -1      4062 2.42141E+01-2.09035E+00 2.02455E-02-1.46462E-01-1.40779E-13-3.61572E-13
 -1      4063 1.76499E+01 8.77960E-01 1.67355E-02 1.87889E+00-1.67363E-13 6.11321E-13
 -1      4064 2.36817E+01 3.82008E+00-3.73785E-02 1.05077E+00 3.25271E-13 1.29367E-13
 -1      4065 2.36648E+01 3.59266E+00-5.26795E-02-1.23331E+00 6.34111E-14 5.55866E-13
 -1      4066 2.39511E+01-1.42323E+00 1.17002E-02-6.87734E-01-1.77942E-13 1.79913E-15
 -1      4067 2.07995E+01-9.59718E-01-6.00674E-03 1.46889E+00 1.73400E-13-3.37825E-13
 -1      4068 2.12425E+01-1.13136E+00 1.74418E-02 1.14841E+00 1.25338E-13-3.77747E-14
 -1      4069 2.16442E+01-1.45396E+00-9.54829E-03 1.08226E+00 1.54775E-13 2.79376E-14
 -1      4070 2.08391E+01-1.09935E+00-9.22573E-04 1.78044E+00 2.96995E-13-3.95157E-13
 -1      4071 2.03703E+01 8.45046E-01-4.16428E-04-8.92296E-02-9.29093E-17-1.48285E-13
 -1      4072 2.03879E+01 8.00509E-01 1.40337E-03-5.86379E-02 5.08347E-15-1.58698E-13
 -1      4073 2.03302E+01 6.25621E-02-5.35412E-04-7.99052E-02 9.44814E-15-1.21728E-14
 -1      4074 2.03515E+01 1.19164E-01 7.31359E-04-6.48318E-02 5.01506E-15-2.46621E-14
 -1      4075 2.03208E+01 1.17214E+00-1.53791E-04-1.73225E-01 3.84556E-14-1.81567E-13
 -1      4076 2.43821E+01-3.01116E+00-4.17546E-03 1.70347E+00-1.01129E-13-3.75149E-13
 -1      4077 2.33856E+01-2.85366E+00-2.72726E-03 2.29929E+00-1.45052E-13-5.28673E-13
 -1      4078 2.44408E+01-2.58275E+00-1.07545E-02 8.61448E-01-1.74846E-13-1.41046E-13
 -1      4079 2.03404E+01 9.78301E-01 5.04079E-05 1.50078E-01 1.04926E-13-1.16284E-13
 -1      4080 2.03802E+01 8.14315E-01 3.01919E-03 9.08102E-02 9.14646E-14-1.06826E-13
 -1      4081 1.75206E+01 1.12900E+00-4.65480E-03 1.45057E+00-1.39033E-13 8.57436E-13
 -1      4082 1.90858E+01-7.37002E-01-1.50414E-02-3.23727E+00-1.08527E-13 7.61474E-14
 -1      4083 2.25466E+01-2.31236E+00-1.17901E-02-2.00692E+00-7.82898E-14-2.15164E-13
 -1      4084 2.03811E+01 1.71738E-01 1.38706E-04-4.37098E-02 1.53001E-14-3.01736E-14
 -1      4085 2.03651E+01 1.88481E-01-1.07191E-03-5.18544E-02 2.23536E-14-2.62704E-14
 -1      4086 2.03819E+01 2.74440E-01 6.01254E-04-2.45595E-02 6.32094E-14-4.74980E-14
 -1      4087 2.03869E+01 8.09287E-01-3.21862E-03 4.55418E-02 7.19871E-14-1.02212E-13
 -1      4088 2.03905E+01 8.27490E-01-1.45949E-03 1.30590E-02 3.95132E-14-1.24281E-13
 -1      4089 2.04173E+01 6.87749E-01 2.57946E-03 1.76524E-03 3.43353E-14-1.16597E-13
 -1      4090 2.03883E+01 8.40498E-01-2.03473E-03-6.96065E-03 3.16469E-14-1.47074E-13
 -1      4091 2.03847E+01 8.45654E-01-2.35138E-03-3.80679E-02 1.02492E-14-1.99341E-13
 -1      4092 2.01201E+01-1.16446E+00 2.98911E-02-3.00837E+00-9.69407E-14-1.17362E-13
 -1      4093 2.10781E+01-1.70437E+00-4.19772E-02-2.53622E+00-1.20901E-13-3.98870E-13
 -1      4094 1.98261E+01-6.99440E-01 2.33016E-02-2.50363E+00-3.12749E-14-1.54709E-13
 -1      4095 1.96022E+01-2.18025E-01 2.02781E-02-1.80552E+00-4.44905E-14-2.24011E-13
 -1      4096 1.95709E+01-4.14548E-01 1.03714E-02-2.19234E+00-4.60212E-14-1.41413E-13
 -1      4097 2.02659E+01-9.33565E-01-3.61102E-02-2.02765E+00-7.43719E-15-4.18268E-13
 -1      4098 1.91035E+01-5.71999E-01-1.88889E-02 2.94403E+00 7.29907E-14-4.81004E-13
 -1      4099 2.03917E+01 1.28685E-01 2.35686E-04 3.12959E-02-3.33060E-14-1.15807E-13
 -1      4100 2.03715E+01 6.84687E-02-2.93922E-04 4.12782E-02-5.47839E-14-1.14618E-13
 -1      4101 2.03510E+01 2.10514E-02 4.05266E-04 4.26892E-02-4.22375E-14-6.51926E-14
 -1      4102 2.03274E+01-1.59941E-02-4.47068E-05 4.79538E-02-3.18127E-14-5.84033E-14
 -1      4103 2.03708E+01 5.07174E-02-3.52035E-04 2.34309E-02 6.98800E-15-1.16465E-13
 -1      4104 2.03036E+01-4.35241E-02 3.80295E-04 4.75571E-02-6.01458E-14-2.27303E-14
 -1      4105 2.02793E+01-6.35583E-02 1.36857E-04 4.94961E-02-5.15474E-14-4.28431E-15
 -1      4106 2.03244E+01-2.75596E-02-6.37905E-04 2.69333E-02-2.48362E-14-1.80203E-14
 -1      4107 2.02546E+01-7.68745E-02 3.32462E-04 4.80742E-02-4.66029E-14 2.33670E-14
 -1      4108 2.02312E+01-8.48181E-02 2.33642E-04 4.79287E-02-4.85524E-14 4.17884E-14
 -1      4109 2.02748E+01-7.04462E-02-7.71850E-04 2.77184E-02-3.04581E-14-7.14348E-15
 -1      4110 2.02072E+01-8.81238E-02 2.73070E-04 4.59799E-02-4.03774E-14 3.51297E-14
 -1      4111 2.01853E+01-8.76252E-02 2.63335E-04 4.46600E-02 2.50016E-15 8.15041E-14
 -1      4112 2.02258E+01-8.80889E-02-7.87422E-04 2.67790E-02-4.15757E-14 6.34157E-14
 -1      4113 2.01628E+01-8.39625E-02 2.11939E-04 4.24833E-02-1.19611E-14 4.97290E-14
 -1      4114 2.01426E+01-7.76162E-02 2.39076E-04 4.05880E-02-2.98203E-14 8.55406E-15
 -1      4115 2.01794E+01-8.80743E-02-7.20139E-04 2.47812E-02-1.41161E-14 1.01408E-13
 -1      4116 2.01217E+01-6.90838E-02 1.56743E-04 3.82830E-02-4.92209E-14-1.45453E-14
 -1      4117 2.01030E+01-5.86427E-02 1.67001E-04 3.61164E-02-5.50554E-14-9.35862E-15
 -1      4118 2.01364E+01-7.58614E-02-5.97809E-04 2.20462E-02-3.50507E-14-1.45672E-14
 -1      4119 2.00835E+01-4.65919E-02 1.15507E-04 3.35643E-02-7.32666E-14-1.24785E-14
 -1      4120 2.00654E+01-3.31575E-02 4.51968E-05 3.11261E-02-5.76402E-14-2.71795E-14
 -1      4121 2.00964E+01-5.52129E-02-4.40514E-04 1.85086E-02-8.84851E-14 3.60222E-15
 -1      4122 2.00467E+01-1.83626E-02 9.90822E-05 2.79384E-02-1.25011E-14-3.57746E-14
 -1      4123 2.00283E+01-2.55457E-03-1.37298E-04 2.48708E-02-1.25084E-14-3.64580E-15
 -1      4124 2.00586E+01-2.86022E-02-2.62758E-04 1.36291E-02-5.31491E-14 2.25852E-15
 -1      4125 2.00098E+01 1.46361E-02 1.24111E-04 2.02927E-02 2.07758E-14-3.42534E-14
 -1      4126 1.99895E+01 3.25164E-02-4.03013E-04 1.57681E-02 6.99367E-14 3.08457E-14
 -1      4127 2.00216E+01 2.40676E-03-7.69170E-05 6.23385E-03 2.05431E-14 2.42023E-14
 -1      4128 1.99704E+01 5.20563E-02 2.21298E-04 8.51722E-03 3.33348E-14 2.24337E-14
 -1      4129 1.99463E+01 7.17665E-02-8.18165E-04 1.10355E-03 3.26463E-14 1.91688E-14
 -1      4130 1.99834E+01 3.67783E-02 1.01602E-04-5.75433E-03 8.28530E-14 1.97944E-14
 -1      4131 1.99247E+01 9.47846E-02 4.48203E-04-1.15579E-02-3.00800E-14 3.05581E-14
 -1      4132 1.98930E+01 1.17383E-01-1.35589E-03-2.53549E-02-4.87013E-14-4.31885E-15
 -1      4133 1.99410E+01 7.45120E-02 2.34728E-04-2.63649E-02 4.04755E-16-3.20283E-14
 -1      4134 1.98703E+01 1.41617E-01 8.22174E-04-4.56409E-02 2.96328E-14-3.37957E-14
 -1      4135 1.98309E+01 1.64115E-01-2.06518E-03-6.83704E-02 5.55922E-14-3.44712E-14
 -1      4136 1.98933E+01 1.13079E-01 2.33758E-04-6.07860E-02 6.45172E-15-4.45762E-15
 -1      4137 1.98064E+01 1.89718E-01 1.48969E-03-1.01253E-01 4.08395E-14 2.89399E-14
 -1      4138 1.97546E+01 2.11379E-01-3.04589E-03-1.39464E-01 4.58275E-14 2.93927E-14
 -1      4139 1.98401E+01 1.48961E-01 9.52420E-05-1.15817E-01 9.65884E-14-1.74425E-14
 -1      4140 1.97297E+01 2.36289E-01 2.56867E-03-1.91502E-01 7.40091E-15-1.62419E-14
 -1      4141 1.96626E+01 2.53385E-01-4.26130E-03-2.53892E-01 3.92850E-14-5.89606E-14
 -1      4142 1.97805E+01 1.77567E-01-3.53784E-04-2.03120E-01 8.08752E-15 1.87567E-15
 -1      4143 1.96414E+01 2.72911E-01 4.25734E-03-3.33833E-01 3.25510E-14-1.37819E-13
 -1      4144 1.95574E+01 2.78222E-01-5.59919E-03-4.32525E-01-3.02138E-14-1.77587E-13
 -1      4145 1.97178E+01 1.88870E-01-1.36312E-03-3.37655E-01-3.44868E-14-1.79428E-13
 -1      4146 1.95482E+01 2.83199E-01 6.81233E-03-5.51155E-01-1.51712E-14-1.86991E-13
 -1      4147 1.94505E+01 2.63904E-01-6.56302E-03-7.02249E-01-3.50459E-14-2.19526E-13
 -1      4148 1.96618E+01 1.65385E-01-3.33615E-03-5.38216E-01-3.76680E-14-1.66220E-13
 -1      4149 1.94706E+01 2.36178E-01 1.03241E-02-8.70954E-01-6.12229E-14-1.89037E-13
 -1      4150 1.93772E+01 1.75557E-01-3.69303E-03-1.09607E+00-4.99343E-14-1.38154E-13
 -1      4151 1.96330E+01 7.79861E-02-7.19140E-03-8.25271E-01 7.80929E-15-2.24698E-13
 -1      4152 1.94717E+01 8.49045E-02 1.44367E-02-1.28043E+00-5.00273E-14-1.55681E-13
 -1      4153 1.94171E+01-4.17423E-02 3.52220E-03-1.58968E+00-3.53234E-14-1.38762E-13
 -1      4154 1.98920E+01-4.49029E-01-2.70625E-02-1.55589E+00-4.41847E-14-2.77282E-13
 -1      4155 1.96888E+01-1.19167E-01-1.57760E-02-1.17517E+00-5.53758E-14-1.82431E-13
 -1      4156 2.00246E+01-8.01817E-03 4.98048E-04-5.07961E-02-5.43825E-14 1.51968E-13
 -1      4157 2.00371E+01-2.01990E-02-2.10522E-04-4.75645E-02-2.60854E-14 1.72891E-13
 -1      4158 2.02876E+01-1.59735E-02-1.73440E-04-9.28019E-02 2.77431E-14-1.65416E-14
 -1      4159 2.03102E+01 1.86184E-02 6.08109E-04-8.59221E-02 3.37544E-14-2.28646E-14
 -1      4160 2.03434E+01 4.97980E-02-2.11198E-04-6.44706E-02 2.84247E-14-1.47778E-14
 -1      4161 2.02984E+01-2.54752E-02-4.05583E-04-7.37509E-02 4.42834E-14-2.36357E-14
 -1      4162 1.99973E+01 1.47163E-02 6.55264E-04-6.26551E-02-4.63802E-14 8.21983E-14
 -1      4163 2.00077E+01 3.24499E-03-3.52740E-04-5.61782E-02-6.98456E-14 1.43205E-13
 -1      4164 2.00139E+01 1.67764E-03-1.69025E-04-4.12291E-02-7.26912E-14 7.36851E-14
 -1      4165 2.00547E+01-3.17664E-02 4.15532E-04-4.51409E-02-2.70097E-14 1.51036E-13
 -1      4166 2.00691E+01-4.35016E-02-8.75039E-05-4.41950E-02-4.86739E-15 1.64132E-13
 -1      4167 2.00465E+01-2.44653E-02-2.75040E-04-3.29036E-02-1.13822E-14 9.18004E-14
 -1      4168 1.99736E+01 3.35943E-02 9.24209E-04-8.33174E-02 1.49933E-14 3.83497E-14
 -1      4169 1.99809E+01 2.43353E-02-5.07150E-04-7.23210E-02 1.76484E-14 5.14046E-14
 -1      4170 1.99829E+01 2.70332E-02-1.27699E-04-5.65582E-02 1.01688E-14-2.71578E-14
 -1      4171 1.99553E+01 4.46417E-02 1.34595E-03-1.16154E-01-4.24191E-14-2.72823E-14
 -1      4172 1.99579E+01 3.96879E-02-6.64866E-04-9.90424E-02 1.71830E-14 3.10158E-14
 -1      4173 1.99537E+01 4.85357E-02-2.58734E-04-8.22640E-02 1.28525E-14 4.13929E-14
 -1      4174 1.99468E+01 4.19628E-02 1.96159E-03-1.65588E-01-4.13201E-14-2.00738E-13
 -1      4175 1.99416E+01 4.45054E-02-7.99273E-04-1.40437E-01-7.06788E-14-1.35119E-13
 -1      4176 1.99278E+01 6.23161E-02-5.53448E-04-1.22924E-01 5.34523E-14 1.41349E-14
 -1      4177 1.99556E+01 1.69162E-02 2.80459E-03-2.36735E-01-1.16680E-14-2.44079E-13
 -1      4178 1.99376E+01 3.16423E-02-8.40354E-04-2.01484E-01-6.20399E-14-2.64335E-13
 -1      4179 1.99090E+01 6.17951E-02-1.17530E-03-1.84585E-01-3.50970E-16-1.98647E-13
 -1      4180 1.99946E+01-4.27892E-02 3.86655E-03-3.34653E-01 8.44390E-16-8.48495E-14
 -1      4181 1.99562E+01-9.20667E-03-6.54080E-04-2.87666E-01 4.57914E-14-1.56474E-13
 -1      4182 1.99046E+01 3.71729E-02-2.32536E-03-2.74614E-01-3.12965E-14-2.04481E-13
 -1      4183 2.00837E+01-1.53691E-01 5.03147E-03-4.62400E-01-1.37149E-13-7.55436E-14
 -1      4184 2.00142E+01-9.23020E-02-9.51350E-06-4.03634E-01-2.94053E-14-1.09166E-13
 -1      4185 1.99280E+01-2.60007E-02-4.29361E-03-4.00860E-01-1.26812E-14-1.24790E-13
 -1      4186 2.02524E+01-3.35710E-01 6.11578E-03-6.17059E-01-9.96278E-14-1.89562E-13
 -1      4187 2.01374E+01-2.35999E-01 1.45939E-03-5.50231E-01-1.24073E-13-1.03059E-13
 -1      4188 2.00015E+01-1.47901E-01-7.43718E-03-5.69426E-01-7.96988E-14-1.00066E-13
 -1      4189 2.05401E+01-6.10374E-01 6.07409E-03-7.82311E-01-4.13796E-14-2.34400E-13
 -1      4190 2.03633E+01-4.61986E-01 3.95784E-03-7.19456E-01-9.95054E-14-2.69030E-13
 -1      4191 2.01611E+01-3.52754E-01-1.13823E-02-7.80502E-01-6.24303E-14-1.92845E-13
 -1      4192 2.09986E+01-9.87206E-01 4.98389E-03-9.22441E-01-1.38100E-13-3.33730E-14
 -1      4193 2.07411E+01-7.85442E-01 8.39252E-03-8.85853E-01-8.91368E-14-1.10470E-13
 -1      4194 2.04564E+01-6.64063E-01-1.52580E-02-1.01917E+00-1.48975E-13-2.09136E-13
 -1      4195 2.16894E+01-1.44041E+00 5.76332E-03-9.60633E-01-3.19096E-14-3.39806E-14
 -1      4196 2.13305E+01-1.21002E+00 1.40829E-02-9.93194E-01-5.80665E-14-3.28717E-14
 -1      4197 2.09542E+01-1.10495E+00-2.07872E-02-1.24115E+00-1.03567E-13-1.52942E-13
 -1      4198 2.35700E+01-2.07169E+00-2.51420E-04-4.07600E-01-1.95921E-13-3.18140E-13
 -1      4199 2.31269E+01-2.01651E+00 3.60417E-02-7.08408E-01-1.66723E-13-2.05340E-13
 -1      4200 2.04132E+01 6.49043E-01 1.78067E-03-2.67676E-02-1.84843E-15-1.66405E-13
 -1      4201 2.31298E+01-2.03662E+00 2.19753E-02 6.88864E-01-1.52625E-14-1.46881E-14
 -1      4202 2.35583E+01-2.11876E+00-1.33950E-02 4.21330E-01-8.11601E-14-4.72929E-14
 -1      4203 2.04222E+01 4.96325E-01-6.08115E-04-1.61106E-02-2.81298E-15-1.67400E-13
 -1      4204 2.04215E+01 3.72522E-01-5.60674E-05 7.09204E-03 1.54247E-14-1.75319E-13
 -1      4205 2.04234E+01 5.48581E-01 1.88650E-04-6.78667E-03 9.23235E-15-1.63933E-13
 -1      4206 2.21374E+01-1.65805E+00 2.43014E-02 1.01997E+00 1.85409E-15 9.24332E-14
 -1      4207 2.25409E+01-1.88981E+00-2.94113E-03 9.05471E-01-9.29630E-14 1.00348E-13
 -1      4208 2.27777E+01-2.16478E+00-1.32305E-02 1.28238E+00-7.13650E-14-4.96027E-14
 -1      4209 2.17493E+01-1.68148E+00-2.80455E-02 1.47368E+00 5.76703E-14 1.05005E-13
 -1      4210 2.04174E+01 2.80399E-01-1.68225E-04 1.15578E-02 1.48992E-14-1.79086E-13
 -1      4211 2.04044E+01 1.91963E-01-3.24990E-04 2.73008E-02-2.16033E-14-1.63612E-13
 -1      4212 2.04062E+01 1.65339E-01-3.26573E-05 1.52323E-02 9.15654E-15-1.80801E-13
 -1      4213 2.04260E+01 3.17432E-01 7.09848E-05 4.87928E-03-7.55319E-15-1.88740E-13
 -1      4214 2.03944E+01 5.53635E-01-2.22183E-03 5.30539E-02 6.28318E-14-9.75586E-14
 -1      4215 2.03962E+01 7.16364E-01 1.99033E-03 5.17488E-02 6.48904E-14-1.15673E-13
 -1      4216 2.04191E+01 5.71952E-01 1.88645E-03 2.06748E-02 3.26485E-14-9.81473E-14
 -1      4217 2.03864E+01 3.83014E-01-1.16684E-03-3.34154E-03 7.31551E-14-8.90308E-14
 -1      4218 2.03171E+01 1.18310E+00 4.52446E-03 2.22630E-01 1.17330E-13-1.02043E-13
 -1      4219 2.00615E+01-1.17025E+00 1.35198E-02 3.04406E+00 6.25073E-14-7.25680E-13
 -1      4220 1.97513E+01-6.52149E-01 3.30016E-03 2.45185E+00 1.36433E-13-6.45405E-13
 -1      4221 2.03884E+01-1.04105E+00-1.60686E-02 2.29500E+00 2.01097E-13-7.63715E-13
 -1      4222 2.07876E+01-1.61270E+00-4.09750E-02 2.76219E+00 7.75595E-15-8.62712E-13
 -1      4223 2.00877E+01-5.42133E-02 3.78483E-04-4.37940E-02-5.79852E-14 1.05556E-13
 -1      4224 2.01040E+01-6.43967E-02 1.89023E-05-4.43657E-02-6.19196E-14 5.30965E-14
 -1      4225 2.00811E+01-4.91617E-02-4.08102E-04-2.92361E-02-5.04774E-14 8.20777E-14
 -1      4226 2.43386E+01-2.05175E+00 4.14007E-03-4.22832E-02-3.15985E-13-5.64423E-14
 -1      4227 2.20577E+01-1.96355E+00 3.40088E-02-2.06478E+00-1.59950E-14-3.09125E-13
 -1      4228 2.25708E+01-2.15891E+00-4.11362E-02-1.39160E+00 6.39115E-15-1.56205E-13
 -1      4229 2.25274E+01-1.86314E+00 1.15140E-03-8.72250E-01-9.15526E-14-1.51228E-13
 -1      4230 2.13820E+01-1.52286E+00 1.30680E-02-1.93116E+00 7.64243E-14-3.79976E-13
 -1      4231 2.04046E+01 3.60644E-01 6.58704E-04-7.02088E-03 3.69437E-14-5.84048E-14
 -1      4232 2.01241E+01-7.30377E-02 3.63138E-04-4.53059E-02-3.98716E-14 3.97200E-14
 -1      4233 2.01424E+01-8.03703E-02 1.11996E-04-4.67143E-02 1.51479E-15 1.25130E-14
 -1      4234 2.01186E+01-7.02192E-02-5.45244E-04-2.85571E-02-7.11133E-14 1.85930E-14
 -1      4235 2.02551E+01-7.45990E-02 2.39177E-04-5.47389E-02 1.92824E-14-6.10930E-14
 -1      4236 2.02787E+01-6.02303E-02 3.18824E-04-5.39388E-02 6.44798E-15-4.56553E-14
 -1      4237 2.01630E+01-8.56464E-02-4.68460E-04-6.79673E-02 4.32099E-14-1.66874E-14
 -1      4238 2.03887E+01 1.39124E-01-4.34899E-04-3.83332E-02 2.25913E-14-1.91969E-14
 -1      4239 2.04047E+01 2.15485E-01 2.61278E-05-2.31346E-02 2.51817E-14-3.86694E-14
 -1      4240 2.03497E+01 2.79460E-02-1.27691E-04-5.02515E-02 4.86736E-14-5.83134E-14
 -1      4241 2.03714E+01 7.71854E-02 3.22717E-04-4.18453E-02 3.34703E-14-3.21936E-14
 -1      4242 2.03918E+01 1.17521E-01-1.42695E-04-2.38386E-02 3.82838E-14-7.09941E-14
 -1      4243 2.20914E+01-1.65219E+00 2.15012E-02-1.00856E+00-4.21052E-14-9.41519E-14
 -1      4244 2.16494E+01-1.64526E+00-3.26020E-02-1.41544E+00 3.65809E-14-2.14434E-13
 -1      4245 2.26049E+01-2.37837E+00 1.88212E-02 2.18876E+00-2.06697E-13-4.15482E-13
 -1      4246 2.17853E+01-1.90718E+00 5.16404E-03 2.21000E+00-9.30206E-14-3.80117E-13
 -1      4247 2.04209E+01 4.25292E-01-1.11138E-03 8.69414E-03 1.77470E-17-7.84347E-14
 -1      4248 2.04231E+01 5.23169E-01 7.16237E-04 9.16801E-03 3.78515E-15-6.50601E-14
 -1      4249 2.02081E+01-8.76717E-02 3.14303E-04-5.20497E-02 2.33343E-14-1.48686E-14
 -1      4250 2.02305E+01-8.34964E-02 2.64119E-04-5.29314E-02 2.59519E-14-2.61798E-14
 -1      4251 2.02520E+01-8.01105E-02-7.72466E-04-3.29400E-02 1.71351E-14-4.49866E-14
 -1      4252 2.04245E+01 5.31264E-01-1.04861E-03 4.06807E-03 1.53347E-14-1.08891E-13
 -1      4253 1.72773E+01 1.07614E+00-6.11972E-03 1.73205E+00-1.78711E-13 9.62388E-13
 -1      4254 2.41638E+01-2.38081E+00-1.33180E-03 6.74769E-01-1.52053E-13-1.47826E-13
 -1      4255 2.04328E+01 3.97550E-01 1.23961E-03-2.45803E-03-2.03408E-14-1.00183E-13
 -1      4256 2.03873E+01 7.87762E-02 2.73939E-04-4.53488E-03 4.79379E-14-1.01694E-13
 -1      4257 2.03660E+01 2.84268E-02 1.55767E-04-1.25881E-03 3.80678E-14-7.81506E-14
 -1      4258 2.01642E+01-8.54372E-02 3.48508E-04-4.84556E-02 1.42947E-14-2.50383E-14
 -1      4259 2.01847E+01-8.81999E-02 1.93846E-04-5.00049E-02 2.13845E-14-4.29748E-14
 -1      4260 2.01595E+01-8.49954E-02-6.66812E-04-2.96261E-02-1.54715E-14-3.42031E-14
 -1      4261 2.10076E+01-1.23904E+00 1.40445E-02-1.80608E+00 3.75448E-15-3.61150E-13
 -1      4262 1.99660E+01 4.84933E-02 5.96048E-04-4.08755E-02 3.37261E-14-1.07639E-15
 -1      4263 1.99806E+01 3.35003E-02-3.94895E-04-3.11427E-02 2.05346E-14 6.66434E-15
 -1      4264 2.02937E+01-6.16158E-02 4.92420E-04-3.62082E-03-1.40378E-14-4.38987E-14
 -1      4265 2.02686E+01-7.61799E-02 4.29827E-04-2.66338E-03-8.64966E-15-4.67563E-14
 -1      4266 2.02438E+01-8.51593E-02 5.10277E-04-3.12346E-03-8.11840E-15-2.41640E-14
 -1      4267 2.02195E+01-8.92228E-02 4.38847E-04-2.87149E-03 5.13150E-15 1.76137E-14
 -1      4268 2.01960E+01-8.94991E-02 4.84054E-04-2.88072E-03-2.43572E-15 9.55002E-15
 -1      4269 2.01732E+01-8.63324E-02 3.90272E-04-3.16802E-03 2.62736E-15 6.05338E-15
 -1      4270 2.01514E+01-8.06672E-02 4.34564E-04-3.16835E-03-3.45746E-14 8.49230E-15
 -1      4271 2.01302E+01-7.26023E-02 2.98649E-04-3.97939E-03-7.45789E-14-2.92288E-14
 -1      4272 2.01104E+01-6.29441E-02 3.80484E-04-4.41853E-03-7.58581E-14 4.01046E-15
 -1      4273 2.00905E+01-5.15967E-02 1.72423E-04-5.92817E-03-6.05630E-14 3.62881E-14
 -1      4274 2.00722E+01-3.92974E-02 3.40434E-04-7.33249E-03-5.86608E-14 5.69093E-14
 -1      4275 2.00531E+01-2.57764E-02 1.49143E-05-9.97264E-03-3.93564E-14 5.39301E-14
 -1      4276 2.00362E+01-1.17979E-02 3.36106E-04-1.30407E-02-1.67760E-14 8.49229E-14
 -1      4277 2.00168E+01 3.09144E-03-1.73815E-04-1.76070E-02 1.78807E-14 6.07405E-14
 -1      4278 2.00010E+01 1.79704E-02 3.97383E-04-2.33247E-02 1.50255E-14 3.01978E-14
 -1      4279 1.99423E+01 6.46747E-02-5.99845E-04-5.48434E-02-9.87652E-15-4.91841E-14
 -1      4280 1.99294E+01 7.84671E-02 9.64898E-04-7.07449E-02-7.16964E-15-1.65465E-14
 -1      4281 1.99036E+01 9.22643E-02-7.81799E-04-9.27466E-02 5.65204E-14 1.21711E-14
 -1      4282 1.98938E+01 1.02912E-01 1.57151E-03-1.17516E-01 1.01144E-13-4.23725E-14
 -1      4283 1.98648E+01 1.12780E-01-9.32914E-04-1.52568E-01 9.81659E-14-8.03079E-14
 -1      4284 1.98612E+01 1.17078E-01 2.54318E-03-1.89873E-01 7.68022E-15-1.38480E-13
 -1      4285 1.98299E+01 1.19039E-01-9.08500E-04-2.44112E-01-5.66170E-14-1.56875E-13
 -1      4286 1.98381E+01 1.11683E-01 4.01774E-03-2.98353E-01-5.94268E-14-1.16782E-13
 -1      4287 1.98080E+01 9.92094E-02-4.94671E-04-3.79631E-01-2.21613E-14-1.65743E-13
 -1      4288 1.98372E+01 7.18475E-02 6.13534E-03-4.55428E-01-9.53206E-15-1.25654E-13
 -1      4289 1.98166E+01 3.47103E-02 6.60469E-04-5.72781E-01-4.46759E-14-8.89284E-14
 -1      4290 1.98815E+01-2.51991E-02 8.95572E-03-6.73712E-01-4.38123E-14-1.37883E-13
 -1      4291 1.98864E+01-1.02993E-01 2.63842E-03-8.34821E-01 6.49976E-15-9.30340E-14
 -1      4292 2.03034E+01-3.91916E-02 9.99810E-05-5.48513E-02 3.36089E-14-4.50031E-14
 -1      4293 2.03271E+01-1.02441E-02 3.49030E-04-5.10692E-02 5.80736E-14-3.61973E-14
 -1      4294 2.03498E+01 1.32408E-02-4.86325E-04-3.05702E-02 4.74044E-14-8.52457E-14
 -1      4295 2.03015E+01-4.87469E-02-6.96463E-04-3.30968E-02 2.51317E-14-6.76419E-14
 -1      4296 2.15222E+01-1.62436E+00 1.14208E-02 2.02618E+00-1.12172E-14-4.00216E-13
 -1      4297 2.00053E+01-2.12308E-01 1.14325E-02-9.62580E-01-3.69572E-14-1.41179E-13
 -1      4298 2.02767E+01-5.17198E-01 1.38628E-02-1.26777E+00-1.28830E-13-2.03893E-13
 -1      4299 2.00776E+01-3.42836E-01 6.40914E-03-1.12691E+00-1.44343E-13-2.27837E-13
 -1      4300 2.07612E+01-9.63467E-01 1.69352E-02-1.56889E+00-6.27003E-14-3.21814E-13
 -1      4301 2.04389E+01-7.16012E-01 1.06171E-02-1.44484E+00-1.04861E-13-2.95867E-13
 -1      4302 2.04146E+01 3.12719E-01-4.01588E-04-1.50933E-02 1.53902E-15-4.45725E-14
 -1      4303 2.10591E+01-1.28664E+00 1.89960E-02 1.98383E+00 1.31801E-13-4.56962E-13
 -1      4304 2.36133E+01-2.49476E+00 1.27329E-02 1.28046E+00-2.00866E-14-3.41138E-13
 -1      4305 2.04208E+01 2.80001E-01 2.25924E-04-1.00123E-02-4.86699E-15-3.85416E-14
 -1      4306 2.04275E+01 3.02377E-01-4.17240E-04 1.94519E-03-9.34014E-15-1.07634E-13
 -1      4307 2.03186E+01-4.01307E-02 3.42760E-04-2.21979E-03-9.54486E-15-6.22934E-14
 -1      4308 2.04182E+01 2.07961E-01 4.24443E-04-5.41619E-03 1.25762E-14-1.21281E-13
 -1      4309 2.02041E+01-8.99353E-02-7.51405E-04-3.14170E-02 1.16264E-14-4.55757E-14
 -1      4310 2.03430E+01-1.06278E-02 4.08165E-04-4.17294E-03 1.95535E-14-7.88076E-14
 -1      4311 2.04053E+01 1.42223E-01-5.37204E-05 1.64353E-04 2.44209E-14-9.09757E-14
 -1      4312 2.29677E+01-2.28499E+00-7.18900E-03 1.48746E+00-9.37982E-14-1.59217E-13
 -3
    1PSTEP                         3           1           1          
  100CL  101 1.000000000        4312                     0    1           1
 -4  TOSTRAIN    6    1
 -5  EXX         1    4    1    1
 -5  EYY         1    4    2    2
 -5  EZZ         1    4    3    3
 -5  EXY         1    4    1    2
 -5  EYZ         1    4    2    3
 -5  EZX         1    4    3    1
 -1         1 8.69403E-05 1.31792E-05-4.35245E-05-8.58890E-05-2.85704E-18 5.70816E-18
 -1         2 4.12367E-05-1.26235E-04 2.40276E-05 1.16080E-06 2.11949E-18-8.25487E-19
 -1         3 9.52417E-05-2.85658E-05-2.85797E-05 5.96778E-09-1.91172E-18-1.86737E-18
 -1         4 9.51592E-05-2.86653E-05-2.84132E-05 1.08057E-07 2.84683E-18-2.55758E-18
 -1         5 1.43344E-04-2.14778E-05-4.25284E-05 3.85293E-05-2.17529E-19 1.43530E-17
 -1         6 1.45404E-04 2.57572E-10-4.41866E-05-5.35243E-05-8.27975E-19 1.00361E-17
 -1         7 9.06090E-05-5.11329E-07-3.90680E-05-2.92498E-05-1.24090E-19 7.70641E-19
 -1         8 8.51253E-05 8.64305E-08-3.63396E-05-2.02679E-05-1.13979E-19-1.80134E-18
 -1         9 8.28142E-05 7.68344E-08-3.53513E-05-1.56383E-05-1.11504E-19-2.98496E-18
 -1        10 8.17763E-05 3.86514E-08-3.48822E-05-1.20755E-05-3.16843E-20-3.44903E-18
 -1        11 8.12534E-05 1.94753E-08-3.46529E-05-9.01017E-06-1.94421E-20-3.63126E-18
 -1        12 8.09831E-05 9.22318E-09-3.45384E-05-6.28161E-06 1.44525E-20-3.62163E-18
 -1        13 8.08411E-05 4.61694E-09-3.44805E-05-3.68381E-06 2.16639E-20-3.47205E-18
 -1        14 8.07816E-05 2.76306E-09-3.44568E-05-1.18301E-06 5.41452E-20-3.26851E-18
 -1        15 8.07837E-05 2.75025E-09-3.44575E-05 1.28836E-06 7.03465E-20-3.10296E-18
 -1        16 8.08476E-05 4.53265E-09-3.44827E-05 3.79430E-06 8.55966E-20-2.84085E-18
 -1        17 8.09949E-05 8.42710E-09-3.45421E-05 6.40435E-06 9.08608E-20-2.50897E-18
 -1        18 8.12702E-05 1.82373E-08-3.46582E-05 9.15261E-06 1.09367E-19-1.97887E-18
 -1        19 8.17982E-05 3.82926E-08-3.48900E-05 1.22538E-05 1.71180E-19-1.19564E-18
 -1        20 8.28405E-05 8.04973E-08-3.53637E-05 1.58682E-05 1.72186E-19 1.25053E-19
 -1        21 8.50891E-05 1.69891E-07-3.63774E-05 2.04799E-05 1.91906E-19 2.40800E-18
 -1        22 9.16451E-05-9.93052E-08-3.87404E-05 2.79963E-05 4.12929E-21 6.48055E-18
 -1        23 1.12977E-04-3.81274E-05-3.53977E-05-4.40210E-06-5.51842E-19 7.18083E-18
 -1        24 9.28118E-05-2.76992E-05-2.90014E-05 3.91251E-07-1.54057E-19 4.91844E-18
 -1        25 8.91302E-05-2.68554E-05-2.69325E-05 3.76072E-07-1.14045E-19 2.59064E-18
 -1        26 8.80311E-05-2.64931E-05-2.63962E-05 2.04192E-07 6.42885E-21 9.98890E-19
 -1        27 8.80616E-05-2.64726E-05-2.63896E-05 1.39941E-07-3.02558E-20 3.65283E-21
 -1        28 8.85998E-05-2.66103E-05-2.65606E-05 1.00973E-07-1.52667E-20-3.58540E-19
 -1        29 8.93599E-05-2.68246E-05-2.67948E-05 7.53184E-08 2.52287E-20-6.15085E-19
 -1        30 9.01907E-05-2.70661E-05-2.70467E-05 5.70352E-08 4.04046E-20-1.26004E-18
 -1        31 9.10074E-05-2.73067E-05-2.72930E-05 4.32922E-08-1.42097E-20-1.96096E-18
 -1        32 9.17632E-05-2.75308E-05-2.75208E-05 3.26500E-08-2.39175E-19-3.35957E-18
 -1        33 9.24351E-05-2.77308E-05-2.77234E-05 2.42972E-08 3.29494E-19-3.85067E-18
 -1        34 9.30150E-05-2.79039E-05-2.78983E-05 1.77157E-08-1.55021E-19-3.74327E-18
 -1        35 9.35046E-05-2.80504E-05-2.80462E-05 1.25340E-08 1.75888E-19-4.06278E-18
 -1        36 9.39119E-05-2.81725E-05-2.81693E-05 8.46236E-09 1.61769E-20-3.79844E-18
 -1        37 9.42487E-05-2.82738E-05-2.82712E-05 5.26313E-09-2.35230E-19-4.37325E-18
 -1        38 9.45297E-05-2.83585E-05-2.83564E-05 2.73674E-09 1.48706E-19-4.80411E-18
 -1        39 9.47720E-05-2.84318E-05-2.84300E-05 7.17265E-10-1.43378E-19-4.54583E-18
 -1        40 9.49956E-05-2.84998E-05-2.84979E-05-9.24254E-10-3.49393E-19-4.75778E-18
 -1        41 9.52250E-05-2.85698E-05-2.85679E-05-2.26451E-09 2.29807E-19-5.00481E-18
 -1        42 9.54922E-05-2.86516E-05-2.86496E-05-3.28992E-09-6.25312E-20-4.67552E-18
 -1        43 9.58422E-05-2.87590E-05-2.87570E-05-3.81223E-09-1.63556E-19-4.27437E-18
 -1        44 9.63418E-05-2.89123E-05-2.89109E-05-3.29705E-09 6.40364E-20-3.43803E-18
 -1        45 9.70939E-05-2.91423E-05-2.91435E-05-3.02085E-10-9.46921E-20-3.48952E-18
 -1        46 9.82614E-05-2.95014E-05-2.95056E-05 2.83563E-09 2.32313E-19-2.50644E-18
 -1        47 1.00218E-04-3.00931E-05-3.01178E-05 2.83927E-08-6.16815E-19-2.55187E-18
 -1        48 1.03223E-04-3.10027E-05-3.10622E-05 6.94431E-08 4.82148E-19-3.22987E-18
 -1        49 1.08009E-04-3.24401E-05-3.25744E-05 1.58409E-07 1.55062E-19-4.17019E-18
 -1        50 1.15580E-04-3.46987E-05-3.49672E-05 3.37948E-07-1.08442E-19-3.94656E-18
 -1        51 1.27290E-04-3.81765E-05-3.86239E-05 6.77917E-07 1.78952E-19-3.69688E-18
 -1        52 1.44507E-04-4.33004E-05-4.38025E-05 1.24325E-06-1.46126E-19-3.29533E-18
 -1        53 1.67172E-04-5.01469E-05-5.00669E-05 1.90551E-06 1.98672E-19-2.66964E-18
 -1        54 1.90078E-04-5.73086E-05-5.53826E-05 1.79995E-06 3.04402E-20-1.12806E-18
 -1        55 1.97452E-04-6.00835E-05-5.60110E-05-1.78464E-06 6.45201E-20-1.34848E-18
 -1        56 1.71569E-04-5.17269E-05-5.03064E-05-8.33992E-06-5.08061E-19-1.57019E-18
 -1        57 1.18669E-04-3.34292E-05-4.17779E-05-1.10033E-05 1.70201E-20-3.90546E-18
 -1        58 7.69351E-05-1.77711E-05-3.64148E-05-1.23030E-06-1.05143E-18-1.07479E-17
 -1        59 9.45003E-05-2.45437E-05-3.84668E-05 6.35445E-06-5.51868E-19-1.65205E-17
 -1        60 1.45757E-04-4.29262E-05-4.58990E-05 7.22804E-06 8.56787E-19-1.61449E-17
 -1        61 1.85558E-04-5.63079E-05-5.29532E-05 3.78082E-06 4.44838E-19-8.81295E-18
 -1        62 1.98627E-04-6.05487E-05-5.64058E-05 6.23070E-08-8.02147E-19-5.57681E-18
 -1        63 1.83019E-04-5.52126E-05-5.38059E-05-1.39882E-06 8.28044E-19-4.64640E-18
 -1        64 1.58617E-04-4.75272E-05-4.77931E-05-1.19982E-06 2.05985E-20-2.09948E-18
 -1        65 1.37320E-04-4.10836E-05-4.17209E-05-7.37815E-07 4.04328E-19-2.46878E-18
 -1        66 1.21874E-04-3.64928E-05-3.69965E-05-3.99460E-07-1.54029E-19-3.33652E-19
 -1        67 1.11509E-04-3.34266E-05-3.37318E-05-2.05745E-07 1.04218E-19-1.05486E-18
 -1        68 1.04757E-04-3.14250E-05-3.15906E-05-1.06224E-07-3.88305E-19-2.88440E-18
 -1        69 1.00389E-04-3.01235E-05-3.02129E-05-5.84464E-08 6.66352E-20-2.51462E-18
 -1        70 9.75823E-05-2.92815E-05-2.93411E-05-3.52341E-08-3.45199E-19 1.04445E-18
 -1        71 9.58878E-05-2.87718E-05-2.88248E-05-1.78031E-08 3.91428E-19-3.38991E-18
 -1        72 9.51620E-05-2.85459E-05-2.85707E-05 5.01561E-08-5.55502E-19-5.35155E-18
 -1        73 1.02183E-04-3.05894E-05-3.41517E-05-1.92942E-06 1.63080E-19 1.37391E-17
 -1        74 9.25692E-05-2.75193E-05-2.89072E-05-3.33492E-07 2.33596E-20 1.15595E-17
 -1        75 8.91165E-05-2.67087E-05-2.69716E-05-1.30175E-07 3.34082E-20 1.00430E-17
 -1        76 8.80636E-05-2.64476E-05-2.64390E-05-9.94642E-08 1.69158E-20 9.26013E-18
 -1        77 8.80978E-05-2.64538E-05-2.64168E-05-7.87278E-08 5.55696E-20 8.05362E-18
 -1        78 8.86346E-05-2.66049E-05-2.65782E-05-6.31440E-08 9.85309E-20 6.89233E-18
 -1        79 8.93925E-05-2.68259E-05-2.68075E-05-5.16162E-08 7.03633E-20 6.33192E-18
 -1        80 9.02206E-05-2.70709E-05-2.70568E-05-4.23996E-08 1.82120E-20 6.16743E-18
 -1        81 9.10351E-05-2.73133E-05-2.73015E-05-3.46336E-08 1.05490E-20 5.12227E-18
 -1        82 9.17898E-05-2.75385E-05-2.75284E-05-2.79675E-08 1.29461E-19 4.68455E-18
 -1        83 9.24618E-05-2.77394E-05-2.77308E-05-2.22470E-08 2.12885E-20 4.31041E-18
 -1        84 9.30437E-05-2.79135E-05-2.79063E-05-1.73849E-08 8.73638E-20 4.04938E-18
 -1        85 9.35375E-05-2.80614E-05-2.80555E-05-1.33153E-08 4.32455E-20 2.97944E-18
 -1        86 9.39516E-05-2.81855E-05-2.81808E-05-9.98289E-09-1.78337E-19 3.01359E-18
 -1        87 9.42975E-05-2.82892E-05-2.82857E-05-7.34498E-09 3.20493E-19 2.62820E-18
 -1        88 9.45889E-05-2.83766E-05-2.83741E-05-5.37817E-09-1.99888E-19 1.84520E-18
 -1        89 9.48396E-05-2.84517E-05-2.84503E-05-4.08649E-09 2.58953E-21 2.48396E-18
 -1        90 9.50625E-05-2.85184E-05-2.85181E-05-3.50703E-09 3.58221E-21 2.97171E-18
 -1        91 9.52684E-05-2.85800E-05-2.85805E-05-3.70905E-09-2.03028E-19 2.62715E-18
 -1        92 9.54639E-05-2.86382E-05-2.86394E-05-4.78031E-09 2.11508E-19 2.71179E-18
 -1        93 9.56487E-05-2.86931E-05-2.86947E-05-6.79125E-09 1.84390E-19 2.45031E-18
 -1        94 9.58123E-05-2.87415E-05-2.87427E-05-9.72539E-09-1.41131E-19 2.18078E-18
 -1        95 9.59294E-05-2.87757E-05-2.87755E-05-1.33636E-08 4.96761E-19 8.43510E-19
 -1        96 9.59542E-05-2.87823E-05-2.87789E-05-1.71174E-08 1.89411E-20-1.37319E-18
 -1        97 9.58159E-05-2.87402E-05-2.87314E-05-1.98302E-08-1.66019E-19 2.34417E-18
 -1        98 9.54160E-05-2.86203E-05-2.86032E-05-1.96086E-08 2.82034E-19 1.64410E-18
 -1        99 9.46323E-05-2.83861E-05-2.83585E-05-1.38254E-08-2.72642E-19 1.51190E-19
 -1       100 9.33323E-05-2.79985E-05-2.79591E-05 4.92845E-10-1.88972E-19-8.61826E-19
 -1       101 9.14032E-05-2.74235E-05-2.73744E-05 2.56608E-08 3.72843E-20-1.53386E-19
 -1       102 8.87955E-05-2.66459E-05-2.65935E-05 6.16721E-08 8.68620E-20-6.56695E-19
 -1       103 8.55779E-05-2.56852E-05-2.56411E-05 1.04315E-07-3.16223E-19 2.63652E-19
 -1       104 8.19815E-05-2.46090E-05-2.45882E-05 1.44204E-07-2.59495E-19 2.36028E-18
 -1       105 7.84093E-05-2.35368E-05-2.35527E-05 1.68216E-07-2.80851E-19 3.30858E-18
 -1       106 7.53837E-05-2.26249E-05-2.26832E-05 1.64064E-07 5.27528E-19 4.32250E-18
 -1       107 7.34279E-05-2.20314E-05-2.21250E-05 1.26550E-07-5.19162E-19 1.75361E-18
 -1       108 7.29134E-05-2.18702E-05-2.19798E-05 6.18235E-08 2.23053E-19 5.33820E-19
 -1       109 7.39369E-05-2.21727E-05-2.22732E-05-1.38755E-08-1.79910E-19-1.79874E-18
 -1       110 7.62860E-05-2.28761E-05-2.29464E-05-8.09842E-08 1.05333E-20 1.61670E-18
 -1       111 7.95119E-05-2.38454E-05-2.38755E-05-1.24799E-07-3.89366E-20 1.26681E-18
 -1       112 8.30718E-05-2.49164E-05-2.49087E-05-1.40242E-07 3.11014E-19 1.03554E-18
 -1       113 8.64758E-05-2.59404E-05-2.59064E-05-1.31334E-07-4.56797E-19 1.20638E-18
 -1       114 8.93833E-05-2.68146E-05-2.67682E-05-1.07118E-07 2.26269E-19 1.58232E-18
 -1       115 9.16318E-05-2.74901E-05-2.74433E-05-7.71348E-08-1.75722E-19-1.85888E-18
 -1       116 9.32115E-05-2.79642E-05-2.79248E-05-4.86136E-08-1.60080E-19 1.08592E-20
 -1       117 9.42147E-05-2.82648E-05-2.82365E-05-2.57119E-08 4.72220E-19 1.10925E-18
 -1       118 9.47834E-05-2.84350E-05-2.84179E-05-1.01280E-08 2.19760E-20 2.20976E-19
 -1       119 9.50670E-05-2.85195E-05-2.85117E-05-1.97999E-09 1.56324E-19-2.21415E-18
 -1       120 9.51925E-05-2.85569E-05-2.85542E-05-1.87441E-10-2.93109E-19-2.19857E-18
 -1       121 9.52381E-05-2.85725E-05-2.85702E-05 8.88530E-10 9.80133E-19-2.72536E-18
 -1       122 9.52368E-05-2.85747E-05-2.85681E-05-9.79716E-10-2.71141E-18 6.07342E-19
 -1       123 9.52530E-05-2.86312E-05-2.85509E-05-1.07086E-08-1.95883E-18 2.92526E-19
 -1       124 9.52699E-05-2.86933E-05-2.85383E-05-1.48301E-08-2.19557E-18-6.73528E-19
 -1       125 9.52577E-05-2.86558E-05-2.85576E-05-8.89691E-09-6.36490E-18 6.66922E-20
 -1       126 9.51825E-05-2.84049E-05-2.86387E-05 5.02601E-09 1.19084E-18-1.44895E-18
 -1       127 9.50251E-05-2.78783E-05-2.87979E-05 2.20951E-08-1.84722E-18 6.22701E-19
 -1       128 9.47809E-05-2.70564E-05-2.90396E-05 4.00530E-08 1.51747E-18 1.12233E-18
 -1       129 9.44783E-05-2.60364E-05-2.93343E-05 5.14995E-08-5.02711E-19-7.46708E-19
 -1       130 9.41725E-05-2.50050E-05-2.96275E-05 5.02653E-08 1.29982E-18-7.30163E-20
 -1       131 9.39383E-05-2.42138E-05-2.98479E-05 3.22238E-08 1.47888E-18-5.25140E-19
 -1       132 9.38495E-05-2.39151E-05-2.99259E-05-3.33273E-09-2.61578E-18-3.26582E-18
 -1       133 9.39533E-05-2.42606E-05-2.98229E-05-4.44211E-08-5.93768E-18 1.16650E-18
 -1       134 9.42464E-05-2.52463E-05-2.95451E-05-8.24221E-08-4.68337E-18-1.05429E-19
 -1       135 9.46577E-05-2.66258E-05-2.91655E-05-9.43408E-08-1.74210E-18 2.75321E-19
 -1       136 9.50590E-05-2.79401E-05-2.88076E-05-4.46576E-08 3.75935E-18 1.63857E-18
 -1       137 9.52650E-05-2.86601E-05-2.85669E-05 7.11863E-08 8.93592E-18-1.83419E-19
 -1       138 2.55884E-05-8.68793E-05 1.59166E-05-2.35221E-05 4.78320E-18 2.16062E-18
 -1       139 7.13040E-06-2.15367E-05-5.38977E-07-8.50923E-06 1.42030E-17 7.22096E-18
 -1       140 2.00097E-05 2.72322E-05-2.22689E-05 4.36685E-05 1.41404E-17 1.02237E-17
 -1       141 8.21354E-05 3.06758E-05-4.51944E-05 1.03096E-04 7.09983E-18 8.30728E-18
 -1       142 1.90890E-04-1.65115E-05-6.66218E-05 1.28234E-04 7.00920E-20 1.46960E-19
 -1       143 2.89930E-04-7.48690E-05-8.07509E-05 9.08906E-05-1.01490E-18-2.45555E-18
 -1       144 3.34115E-04-1.02708E-04-8.63508E-05 5.66881E-06-5.34690E-20-6.02653E-18
 -1       145 2.93576E-04-7.69636E-05-8.11835E-05-8.70549E-05 3.23990E-18-1.22360E-17
 -1       146 1.86462E-04-1.42198E-05-6.59096E-05-1.28499E-04 6.33094E-18-1.25391E-17
 -1       147 8.18752E-05 3.04368E-05-4.49710E-05-1.01835E-04 7.91341E-18-9.41477E-18
 -1       148 1.68942E-05 2.73198E-05-2.11858E-05-4.03788E-05 8.07477E-18-5.91695E-18
 -1       149 6.50238E-06-1.91150E-05-1.20687E-06 8.16172E-06 5.48750E-18-2.72766E-18
 -1       150 2.40098E-05-8.23704E-05 1.49019E-05 2.32223E-05 5.52985E-18-6.41892E-19
 -1       151 4.03674E-05-1.24042E-04 2.36267E-05 1.83637E-06 1.10114E-20-6.56556E-19
 -1       152 3.55799E-05-1.20634E-04 2.34342E-05-3.11522E-05-4.50749E-18-6.91933E-19
 -1       153 1.24290E-05-7.24966E-05 1.33458E-05-4.37000E-05-6.93212E-18-3.11338E-18
 -1       154 3.01682E-06-1.15649E-05-6.16611E-06-1.04723E-05-7.94390E-18-5.87629E-18
 -1       155 4.66638E-05 1.79742E-05-3.19218E-05 5.71588E-05-9.03064E-18-1.11207E-17
 -1       156 1.72749E-04-1.43469E-05-6.14404E-05 1.15442E-04-4.79463E-18-7.95872E-18
 -1       157 3.33658E-04-8.73892E-05-8.61791E-05 1.00823E-04-5.25160E-19-4.81581E-18
 -1       158 4.16061E-04-1.30850E-04-9.61994E-05 1.06605E-05-9.51218E-19 3.48258E-18
 -1       159 3.66859E-04-1.05008E-04-9.03070E-05-8.82907E-05-2.77493E-18 1.25573E-17
 -1       160 2.31030E-04-3.76903E-05-7.16839E-05-1.25481E-04-6.06963E-18 1.37694E-17
 -1       161 1.95886E-05 8.26280E-06-1.92023E-05-2.34707E-05-3.37246E-18 1.09606E-18
 -1       162 2.74721E-06-3.15822E-05 1.77242E-06 2.65468E-05-3.84553E-19 1.61593E-18
 -1       163 1.60057E-05-8.24833E-05 1.58307E-05 4.40504E-05 3.85739E-18-1.45340E-18
 -1       164 3.58424E-05-1.20417E-04 2.33818E-05 3.06973E-05 6.48658E-18-1.84420E-18
 -1       165 9.48724E-05-1.23494E-05-3.55700E-05-2.23452E-05-1.61267E-18-3.86062E-19
 -1       166 8.92463E-05-8.45212E-06-3.47886E-05-1.73821E-05-1.33772E-18-1.88217E-18
 -1       167 8.65567E-05-6.51016E-06-3.44165E-05-1.35905E-05-8.75174E-19-2.56692E-18
 -1       168 8.51912E-05-5.51383E-06-3.42306E-05-1.03640E-05-4.66818E-19-2.95321E-18
 -1       169 8.44459E-05-4.94343E-06-3.41416E-05-7.54415E-06-1.44620E-19-3.02022E-18
 -1       170 8.40179E-05-4.59789E-06-3.40988E-05-4.90140E-06 8.82486E-20-2.91381E-18
 -1       171 8.37990E-05-4.41327E-06-3.40806E-05-2.39394E-06 4.12086E-19-2.76979E-18
 -1       172 8.37344E-05-4.35741E-06-3.40758E-05 5.12567E-08 6.77855E-19-2.66842E-18
 -1       173 8.38090E-05-4.42172E-06-3.40814E-05 2.49851E-06 9.53204E-19-2.42909E-18
 -1       174 8.40400E-05-4.61724E-06-3.41003E-05 5.01253E-06 1.20212E-18-2.19787E-18
 -1       175 8.44737E-05-4.97065E-06-3.41423E-05 7.62137E-06 1.42531E-18-1.78958E-18
 -1       176 8.52499E-05-5.57259E-06-3.42323E-05 1.05098E-05 1.73510E-18-1.18675E-18
 -1       177 8.66494E-05-6.60864E-06-3.44186E-05 1.37749E-05 1.90889E-18-2.26767E-19
 -1       178 8.93909E-05-8.59868E-06-3.47921E-05 1.76265E-05 1.96198E-18 1.31491E-18
 -1       179 9.57830E-05-1.36149E-05-3.54274E-05 2.18881E-05 1.61381E-18 3.95718E-18
 -1       180 1.05609E-04-2.61026E-05-3.52647E-05 1.86606E-05 1.03380E-18 7.15208E-18
 -1       181 1.03404E-04-2.73036E-05-3.26118E-05-1.21262E-05-1.44181E-18 1.63917E-18
 -1       182 9.71141E-05-2.82909E-05-2.95308E-05-4.72868E-06-1.29720E-18 9.84494E-19
 -1       183 9.35161E-05-2.76396E-05-2.81847E-05-1.76597E-06-9.31670E-19 5.25696E-19
 -1       184 9.19831E-05-2.74090E-05-2.76392E-05-4.18161E-07-5.76742E-19-1.07024E-19
 -1       185 9.14099E-05-2.73346E-05-2.74426E-05 2.46555E-07-3.44236E-19-3.55238E-19
 -1       186 9.13714E-05-2.73744E-05-2.74187E-05 5.73096E-07-1.95562E-19-4.92877E-19
 -1       187 9.16188E-05-2.74783E-05-2.74848E-05 7.12626E-07-4.91271E-19-7.67725E-19
 -1       188 9.20069E-05-2.76118E-05-2.75962E-05 7.44326E-07-5.55588E-19-1.05684E-18
 -1       189 9.24490E-05-2.77537E-05-2.77260E-05 7.14163E-07-5.61105E-19-1.14170E-18
 -1       190 9.28935E-05-2.78913E-05-2.78582E-05 6.50715E-07-4.50413E-19-8.92293E-19
 -1       191 9.33114E-05-2.80175E-05-2.79835E-05 5.72372E-07-5.32087E-20-2.11418E-18
 -1       192 9.36880E-05-2.81292E-05-2.80972E-05 4.91110E-07-2.12569E-19-2.22294E-18
 -1       193 9.40188E-05-2.82259E-05-2.81975E-05 4.14734E-07-7.90775E-20-2.31161E-18
 -1       194 9.43055E-05-2.83084E-05-2.82850E-05 3.48401E-07-2.41557E-19-2.24692E-18
 -1       195 9.45546E-05-2.83790E-05-2.83614E-05 2.95756E-07-2.79330E-19-1.76293E-18
 -1       196 9.47762E-05-2.84406E-05-2.84297E-05 2.59899E-07-1.54397E-19-1.99348E-18
 -1       197 9.49834E-05-2.84970E-05-2.84940E-05 2.44347E-07-1.96746E-19-2.16835E-18
 -1       198 9.51933E-05-2.85526E-05-2.85596E-05 2.54139E-07 1.27885E-19-2.20564E-18
 -1       199 9.54280E-05-2.86132E-05-2.86336E-05 2.97310E-07-1.73221E-19-2.29108E-18
 -1       200 9.57176E-05-2.86860E-05-2.87256E-05 3.87034E-07 3.14086E-19-2.58516E-18
 -1       201 9.61042E-05-2.87808E-05-2.88494E-05 5.44895E-07 3.82691E-19-1.80766E-18
 -1       202 9.66485E-05-2.89111E-05-2.90248E-05 8.06040E-07 1.48141E-19-1.78560E-18
 -1       203 9.74397E-05-2.90969E-05-2.92812E-05 1.22499E-06 5.12269E-19-1.77996E-18
 -1       204 9.86785E-05-2.93793E-05-2.96870E-05 1.93529E-06 3.58045E-19-2.13491E-18
 -1       205 1.00453E-04-2.97766E-05-3.02718E-05 3.01847E-06-3.40620E-19-1.31183E-18
 -1       206 1.03081E-04-3.03552E-05-3.11456E-05 4.69836E-06-5.80783E-19-2.41545E-18
 -1       207 1.06936E-04-3.12036E-05-3.24336E-05 7.24907E-06 6.27499E-20-2.38219E-18
 -1       208 1.12471E-04-3.24694E-05-3.42720E-05 1.09339E-05 1.30370E-19-2.23195E-18
 -1       209 1.20157E-04-3.44514E-05-3.67321E-05 1.57247E-05-3.15751E-20-2.68310E-18
 -1       210 1.30354E-04-3.78296E-05-3.96463E-05 2.05030E-05 2.26582E-19-2.27293E-18
 -1       211 1.43146E-04-4.39395E-05-4.24053E-05 2.14729E-05 9.76748E-19-2.20549E-18
 -1       212 1.58187E-04-5.41140E-05-4.43481E-05 1.10835E-05 7.71329E-19-7.45508E-19
 -1       213 1.71786E-04-6.32746E-05-4.64026E-05-1.30212E-05-3.46893E-19-1.07520E-18
 -1       214 1.79524E-04-6.07872E-05-5.11015E-05-3.64038E-05-1.06276E-18 3.48528E-19
 -1       215 1.76980E-04-4.03950E-05-5.89660E-05-3.03165E-05-4.12780E-18-2.91803E-19
 -1       216 1.66206E-04-4.72562E-05-5.21748E-05 3.73379E-05 1.30496E-18-5.24915E-18
 -1       217 1.72671E-04-5.87269E-05-4.91194E-05 2.94378E-05 2.96372E-18-5.13043E-18
 -1       218 1.71155E-04-5.88298E-05-4.76462E-05 4.35585E-06 2.18447E-18-5.12166E-18
 -1       219 1.58742E-04-5.03307E-05-4.61230E-05-1.42706E-05 5.60405E-19-2.81114E-18
 -1       220 1.43613E-04-4.28844E-05-4.31239E-05-1.86310E-05 9.69459E-19-3.10250E-18
 -1       221 1.29831E-04-3.79164E-05-3.94464E-05-1.58817E-05 1.13923E-19-1.48077E-18
 -1       222 1.18863E-04-3.46840E-05-3.61192E-05-1.15718E-05 6.69533E-19-4.14821E-19
 -1       223 1.10793E-04-3.25332E-05-3.35537E-05-7.87298E-06-2.14736E-19-1.75640E-18
 -1       224 1.05114E-04-3.10722E-05-3.17292E-05-5.21088E-06-1.18062E-18-2.27243E-18
 -1       225 1.01213E-04-3.00689E-05-3.04818E-05-3.42080E-06-3.23711E-19-1.67848E-18
 -1       226 9.85756E-05-2.93747E-05-2.96497E-05-2.22190E-06 1.00766E-18-2.06089E-18
 -1       227 9.68409E-05-2.88952E-05-2.91157E-05-1.35519E-06-1.07454E-18-1.59735E-18
 -1       228 9.57897E-05-2.85845E-05-2.87993E-05-6.26406E-07-1.33058E-18-3.40567E-18
 -1       229 9.53570E-05-2.84277E-05-2.86854E-05-2.37392E-07 1.22624E-18-2.05796E-18
 -1       230 9.95090E-05-2.85537E-05-3.05891E-05 7.21158E-06 1.09761E-18 6.33627E-18
 -1       231 9.44449E-05-2.77862E-05-2.85326E-05 2.76540E-06 8.23501E-19 5.31906E-18
 -1       232 9.21431E-05-2.74236E-05-2.76895E-05 9.19727E-07 5.98743E-19 4.44126E-18
 -1       233 9.11910E-05-2.72727E-05-2.73676E-05 4.01467E-08 7.07722E-19 3.89059E-18
 -1       234 9.09675E-05-2.72538E-05-2.72932E-05-3.84983E-07 4.49654E-19 3.47923E-18
 -1       235 9.11462E-05-2.73329E-05-2.73424E-05-5.81679E-07 3.95773E-19 2.92564E-18
 -1       236 9.15303E-05-2.74627E-05-2.74544E-05-6.51890E-07 1.71257E-19 2.49972E-18
 -1       237 9.20032E-05-2.76128E-05-2.75943E-05-6.49461E-07 4.93729E-19 2.36627E-18
 -1       238 9.24958E-05-2.77646E-05-2.77412E-05-6.06528E-07 7.67955E-20 2.46280E-18
 -1       239 9.29685E-05-2.79077E-05-2.78830E-05-5.43343E-07 2.72794E-19 2.58198E-18
 -1       240 9.34005E-05-2.80368E-05-2.80131E-05-4.72971E-07 5.25201E-19 2.01117E-18
 -1       241 9.37829E-05-2.81500E-05-2.81286E-05-4.03809E-07 4.22381E-19 1.61775E-18
 -1       242 9.41149E-05-2.82474E-05-2.82292E-05-3.41103E-07 1.45817E-19 1.36567E-18
 -1       243 9.44006E-05-2.83306E-05-2.83161E-05-2.87900E-07 4.43317E-19 8.87937E-19
 -1       244 9.46470E-05-2.84019E-05-2.83911E-05-2.45651E-07-1.17987E-19 9.58652E-19
 -1       245 9.48621E-05-2.84639E-05-2.84567E-05-2.14518E-07-4.05136E-19 9.46540E-19
 -1       246 9.50543E-05-2.85195E-05-2.85152E-05-1.93441E-07-2.22953E-19 1.35641E-18
 -1       247 9.52301E-05-2.85708E-05-2.85686E-05-1.79939E-07 3.16336E-19 1.12806E-18
 -1       248 9.53933E-05-2.86195E-05-2.86178E-05-1.69669E-07 1.21775E-19 6.37546E-19
 -1       249 9.55425E-05-2.86657E-05-2.86620E-05-1.55752E-07 9.86811E-20 3.86202E-19
 -1       250 9.56685E-05-2.87076E-05-2.86983E-05-1.27958E-07 1.75556E-19 2.80192E-19
 -1       251 9.57518E-05-2.87403E-05-2.87202E-05-7.19800E-08 8.51498E-19 2.57987E-21
 -1       252 9.57584E-05-2.87547E-05-2.87172E-05 3.08005E-08 2.85959E-19 5.10757E-19
 -1       253 9.56376E-05-2.87361E-05-2.86736E-05 2.02340E-07-1.22604E-18 5.88461E-19
 -1       254 9.53207E-05-2.86636E-05-2.85690E-05 4.64790E-07 1.13243E-18 7.39794E-19
 -1       255 9.47241E-05-2.85101E-05-2.83790E-05 8.34148E-07 2.76642E-20 3.07725E-19
 -1       256 9.37595E-05-2.82442E-05-2.80792E-05 1.31015E-06 4.65203E-19 2.23546E-19
 -1       257 9.23532E-05-2.78355E-05-2.76511E-05 1.86345E-06-7.48519E-19 4.33989E-19
 -1       258 9.04752E-05-2.72645E-05-2.70901E-05 2.42396E-06-2.57196E-19 1.00917E-18
 -1       259 8.81738E-05-2.65361E-05-2.64154E-05 2.87787E-06-9.71074E-19 2.26071E-18
 -1       260 8.56063E-05-2.56935E-05-2.56759E-05 3.08260E-06-4.99929E-19 2.28319E-18
 -1       261 8.30457E-05-2.48265E-05-2.49501E-05 2.90506E-06-6.18731E-21 1.64211E-18
 -1       262 8.08493E-05-2.40637E-05-2.43358E-05 2.27669E-06-1.87902E-19 1.66802E-18
 -1       263 7.93816E-05-2.35449E-05-2.39289E-05 1.24214E-06 6.25190E-19 2.00573E-18
 -1       264 7.89117E-05-2.33772E-05-2.37986E-05-2.94832E-08 1.27450E-18 1.54850E-18
 -1       265 7.95258E-05-2.35961E-05-2.39668E-05-1.28859E-06 3.87948E-21 1.13485E-18
 -1       266 8.10969E-05-2.41512E-05-2.44012E-05-2.28960E-06-1.84618E-18 9.37915E-19
 -1       267 8.33286E-05-2.49258E-05-2.50254E-05-2.87331E-06 1.03811E-22 2.45481E-18
 -1       268 8.58492E-05-2.57786E-05-2.57410E-05-3.00635E-06 3.58535E-19 2.86929E-18
 -1       269 8.83123E-05-2.65856E-05-2.64523E-05-2.76614E-06 3.70816E-19 2.32583E-18
 -1       270 9.04664E-05-2.72650E-05-2.70860E-05-2.29070E-06-4.98029E-19 1.14706E-18
 -1       271 9.21789E-05-2.77818E-05-2.76001E-05-1.72434E-06 6.32016E-19 2.69003E-18
 -1       272 9.34240E-05-2.81381E-05-2.79820E-05-1.18118E-06-3.20129E-19 1.52919E-18
 -1       273 9.42509E-05-2.83591E-05-2.82420E-05-7.31472E-07 7.94693E-19-1.43702E-19
 -1       274 9.47486E-05-2.84795E-05-2.84037E-05-4.04547E-07 1.64950E-19 8.90173E-19
 -1       275 9.50180E-05-2.85354E-05-2.84947E-05-1.97943E-07 9.00831E-19 9.23690E-19
 -1       276 9.51488E-05-2.85584E-05-2.85402E-05-8.72470E-08 5.62747E-19-8.26372E-19
 -1       277 9.52118E-05-2.85724E-05-2.85603E-05-3.15033E-08 4.41547E-19-1.37597E-18
 -1       278 9.52355E-05-2.86068E-05-2.85549E-05-6.01586E-08-8.85496E-20 8.62957E-19
 -1       279 9.52712E-05-2.86469E-05-2.85523E-05-5.11425E-08-6.98319E-19-6.08511E-19
 -1       280 9.53013E-05-2.86352E-05-2.85695E-05 5.79203E-08-6.29267E-19-1.80282E-18
 -1       281 9.52889E-05-2.84996E-05-2.86221E-05 2.76014E-07-1.35944E-18 2.22201E-18
 -1       282 9.52077E-05-2.81872E-05-2.87213E-05 5.59568E-07-4.96358E-20-2.30798E-18
 -1       283 9.50396E-05-2.76642E-05-2.88742E-05 8.47649E-07 1.04860E-18 1.11074E-18
 -1       284 9.47910E-05-2.69656E-05-2.90682E-05 1.04401E-06 2.27764E-18-3.86620E-19
 -1       285 9.44938E-05-2.61868E-05-2.92760E-05 1.05510E-06 3.03589E-18 9.03584E-19
 -1       286 9.42060E-05-2.54783E-05-2.94577E-05 8.17348E-07 1.58097E-18-2.19528E-18
 -1       287 9.40028E-05-2.50156E-05-2.95696E-05 3.29643E-07 2.95550E-19-2.12850E-18
 -1       288 9.39550E-05-2.49449E-05-2.95794E-05-3.09180E-07 3.87595E-19-1.81371E-18
 -1       289 9.41031E-05-2.53281E-05-2.94778E-05-9.49050E-07 5.06661E-19 9.08867E-19
 -1       290 9.44396E-05-2.61096E-05-2.92861E-05-1.35640E-06 1.30649E-18 2.53832E-18
 -1       291 9.48850E-05-2.70874E-05-2.90572E-05-1.33040E-06 1.23916E-18 2.47484E-18
 -1       292 9.52075E-05-2.78610E-05-2.88625E-05-8.52098E-07 1.24142E-18 3.43237E-18
 -1       293 1.45880E-05-5.35870E-05 1.33066E-05 1.68233E-05 3.13254E-18 1.79327E-18
 -1       294 3.28173E-05-4.21223E-05 1.96072E-06 3.41987E-05 2.95255E-18 7.06709E-18
 -1       295 7.08995E-05-3.86713E-05-1.46542E-05 4.82404E-05 4.97335E-18 2.49372E-18
 -1       296 1.07298E-04-2.92479E-05-3.33272E-05 5.36760E-05 5.10570E-18 5.47395E-19
 -1       297 1.54479E-04-2.69968E-05-5.28900E-05 5.66467E-05 4.34411E-18-1.38151E-18
 -1       298 2.00368E-04-3.35937E-05-6.84507E-05 4.35520E-05 8.69638E-19-2.66392E-18
 -1       299 2.23050E-04-3.65360E-05-7.66164E-05 1.60974E-05 6.44274E-19-4.29700E-18
 -1       300 2.16255E-04-3.22123E-05-7.60626E-05-1.15202E-05 3.11613E-18-6.43491E-18
 -1       301 2.00227E-04-3.34731E-05-6.85155E-05-4.31728E-05 3.61019E-18-7.43441E-18
 -1       302 1.54996E-04-3.05742E-05-5.19563E-05-5.06753E-05 3.53160E-18-7.87402E-18
 -1       303 1.05296E-04-2.84423E-05-3.28122E-05-5.41723E-05 3.53806E-18-4.93524E-18
 -1       304 6.36270E-05-3.39209E-05-1.39227E-05-4.54055E-05 2.63893E-18-3.49687E-18
 -1       305 3.32082E-05-4.21815E-05 1.59371E-06-3.29386E-05 2.83883E-18-1.21070E-18
 -1       306 1.49973E-05-5.02541E-05 1.20919E-05-1.94228E-05 2.42040E-19-3.10586E-18
 -1       307 1.00548E-05-5.42010E-05 1.54357E-05-6.79654E-06-9.02553E-19-2.32892E-18
 -1       308 1.92508E-05-5.48546E-05 1.12468E-05 5.03237E-06-2.14373E-18-1.74881E-18
 -1       309 4.58163E-05-4.95086E-05-2.13731E-06 1.97187E-05-1.81879E-18-2.55153E-18
 -1       310 9.48061E-05-4.88670E-05-2.21814E-05 3.24138E-05-2.30901E-18-3.88640E-18
 -1       311 1.62190E-04-5.51223E-05-4.57337E-05 3.39043E-05-4.07783E-18-3.19543E-18
 -1       312 2.20438E-04-6.01180E-05-6.57957E-05 8.84201E-08-2.91888E-18-2.50934E-18
 -1       313 2.39516E-04-4.54947E-05-7.79307E-05-6.62975E-06-4.22754E-18 7.60000E-19
 -1       314 2.61826E-04-5.17473E-05-8.23540E-05-2.87079E-06-4.35693E-18 3.08892E-18
 -1       315 2.40579E-04-5.81831E-05-7.29552E-05-1.26535E-05-1.35774E-18 3.18357E-18
 -1       316 1.89775E-04-5.96695E-05-5.43542E-05-2.46214E-05 1.57379E-18 2.96038E-18
 -1       317 1.25167E-04-5.19750E-05-3.27859E-05-3.44607E-05-5.00596E-19 2.77615E-18
 -1       318 7.83747E-05-5.17510E-05-1.40534E-05-3.08038E-05-1.63266E-19 7.23366E-19
 -1       319 4.31513E-05-4.94300E-05-6.23873E-07-1.95019E-05 1.09246E-18 2.35760E-18
 -1       320 1.82405E-05-5.46006E-05 1.18101E-05-4.24008E-06 8.69479E-19 1.08240E-18
 -1       321 9.99094E-06-5.39381E-05 1.53343E-05 5.69685E-06 9.44700E-19-2.05511E-18
 -1       322 1.56444E-04-3.15128E-05-5.55288E-05 1.29279E-05-3.76760E-18-4.50166E-18
 -1       323 9.16337E-05-1.44453E-05-3.31586E-05-1.29776E-05-1.29890E-18-1.51027E-18
 -1       324 9.57143E-05-1.91125E-05-3.28919E-05-1.46327E-05-1.66720E-18-7.64328E-19
 -1       325 8.80020E-05-1.03732E-05-3.33247E-05-8.15053E-06-3.92106E-19-2.26474E-18
 -1       326 8.71874E-05-9.45183E-06-3.33637E-05-5.71503E-06-6.29877E-21-2.33309E-18
 -1       327 8.67267E-05-8.92134E-06-3.33901E-05-3.36499E-06 3.08146E-19-2.09044E-18
 -1       328 8.65212E-05-8.68121E-06-3.34035E-05-1.07181E-06 6.80864E-19-2.05452E-18
 -1       329 8.65298E-05-8.69071E-06-3.34031E-05 1.20286E-06 9.92489E-19-1.93416E-18
 -1       330 8.67542E-05-8.95196E-06-3.33889E-05 3.49806E-06 1.28594E-18-1.74301E-18
 -1       331 8.72274E-05-9.49688E-06-3.33618E-05 5.81196E-06 1.61013E-18-1.40276E-18
 -1       332 8.80681E-05-1.04500E-05-3.33204E-05 8.25187E-06 1.93810E-18-8.97455E-19
 -1       333 8.94808E-05-1.20318E-05-3.32599E-05 1.07656E-05 2.14766E-18-2.47764E-19
 -1       334 9.18929E-05-1.47366E-05-3.31493E-05 1.31438E-05 2.23954E-18 6.57622E-19
 -1       335 9.58914E-05-1.95863E-05-3.28065E-05 1.42790E-05 2.04788E-18 2.39385E-18
 -1       336 9.87865E-05-2.44509E-05-3.19435E-05 1.18496E-05 1.63945E-18 3.91699E-18
 -1       337 9.63446E-05-2.67783E-05-2.97865E-05 5.72526E-06 1.25746E-18 3.19605E-18
 -1       338 4.57156E-05-3.70985E-05-3.86211E-06-3.31339E-05 8.96478E-19 7.96846E-19
 -1       339 9.64424E-05-2.60294E-05-3.01325E-05-6.34078E-06-1.34289E-18-3.40353E-19
 -1       340 9.49266E-05-2.70312E-05-2.90727E-05-2.82976E-06-1.03583E-18-3.13779E-19
 -1       341 9.39511E-05-2.74274E-05-2.84956E-05-9.16076E-07-5.52707E-19-3.46700E-19
 -1       342 9.34343E-05-2.76409E-05-2.81905E-05 1.44777E-07-4.84670E-19-7.40520E-19
 -1       343 9.32445E-05-2.77946E-05-2.80472E-05 7.10558E-07-4.51552E-19-9.51817E-19
 -1       344 9.32642E-05-2.79248E-05-2.80016E-05 9.79771E-07-5.37433E-19-9.35388E-19
 -1       345 9.34066E-05-2.80403E-05-2.80141E-05 1.06945E-06-3.83539E-19-7.89003E-19
 -1       346 9.36124E-05-2.81423E-05-2.80590E-05 1.05249E-06-5.20771E-19-8.24377E-19
 -1       347 9.38430E-05-2.82306E-05-2.81202E-05 9.76078E-07-7.98380E-19-9.83586E-19
 -1       348 9.40746E-05-2.83054E-05-2.81875E-05 8.71348E-07-7.60001E-20-1.13047E-18
 -1       349 9.42939E-05-2.83674E-05-2.82549E-05 7.59040E-07-1.24251E-19-1.16803E-18
 -1       350 9.44952E-05-2.84179E-05-2.83195E-05 6.53090E-07-2.45940E-20-6.35922E-19
 -1       351 9.46776E-05-2.84584E-05-2.83801E-05 5.63163E-07-6.07039E-21-6.78366E-19
 -1       352 9.48442E-05-2.84906E-05-2.84376E-05 4.96620E-07-7.28832E-19-9.32583E-19
 -1       353 9.50009E-05-2.85158E-05-2.84937E-05 4.60250E-07-2.24317E-19-7.07199E-19
 -1       354 9.51560E-05-2.85351E-05-2.85516E-05 4.62011E-07-2.94964E-19-6.03484E-19
 -1       355 9.53202E-05-2.85485E-05-2.86158E-05 5.13061E-07 1.00300E-19-7.46638E-19
 -1       356 9.55067E-05-2.85548E-05-2.86925E-05 6.30413E-07 1.27192E-19-7.50399E-19
 -1       357 9.57318E-05-2.85504E-05-2.87900E-05 8.40650E-07 4.53869E-19-5.82504E-19
 -1       358 9.60151E-05-2.85276E-05-2.89199E-05 1.18528E-06 9.69386E-19-9.02920E-19
 -1       359 9.63794E-05-2.84729E-05-2.90974E-05 1.72731E-06 1.23054E-19-6.55571E-19
 -1       360 9.68729E-05-2.83522E-05-2.93574E-05 2.61728E-06 2.11241E-20-1.19403E-18
 -1       361 9.74673E-05-2.81334E-05-2.97014E-05 3.92312E-06-1.30132E-20-2.35241E-18
 -1       362 9.81860E-05-2.77535E-05-3.01660E-05 5.87932E-06 1.45158E-19-1.28288E-18
 -1       363 9.89963E-05-2.71403E-05-3.07691E-05 8.75082E-06 6.83814E-20 2.69999E-19
 -1       364 9.98270E-05-2.62689E-05-3.14922E-05 1.28207E-05-3.98309E-19 2.39395E-19
 -1       365 1.00633E-04-2.53554E-05-3.22224E-05 1.82544E-05-1.41011E-19-2.84469E-19
 -1       366 1.01728E-04-2.53793E-05-3.26595E-05 2.47658E-05 4.35167E-19-1.82956E-19
 -1       367 1.04732E-04-2.91000E-05-3.22806E-05 3.09089E-05 3.76288E-19-3.35902E-20
 -1       368 1.14350E-04-4.17559E-05-3.07756E-05 3.28597E-05 1.40361E-18-9.39042E-19
 -1       369 1.33969E-04-6.23901E-05-3.05320E-05 2.50358E-05 2.44793E-19-7.04129E-19
 -1       370 9.53882E-06-2.28412E-05 5.55602E-06 1.56774E-05 9.55612E-19 1.58003E-18
 -1       371 1.68501E-04-7.20105E-05-4.14216E-05 3.10998E-06 2.33490E-18 2.64698E-22
 -1       372 1.34686E-04-5.55731E-05-3.36389E-05-2.45561E-05 1.30030E-18-1.66516E-18
 -1       373 1.17265E-04-3.75415E-05-3.39705E-05-3.09096E-05 9.25357E-19-9.11235E-19
 -1       374 1.09309E-04-2.95253E-05-3.41231E-05-2.77338E-05 1.16323E-18-5.81529E-19
 -1       375 1.05417E-04-2.73507E-05-3.34176E-05-2.15392E-05 8.23285E-19 1.31938E-19
 -1       376 1.02870E-04-2.72828E-05-3.23599E-05-1.55581E-05-1.15472E-18-1.43209E-18
 -1       377 1.00842E-04-2.76691E-05-3.13287E-05-1.08288E-05-5.12121E-19-1.26915E-18
 -1       378 9.91665E-05-2.79924E-05-3.04781E-05-7.40583E-06-3.81448E-19-2.04666E-19
 -1       379 9.78118E-05-2.81513E-05-2.98360E-05-5.01107E-06-2.55218E-19 4.39462E-19
 -1       380 9.67553E-05-2.81625E-05-2.93828E-05-3.30841E-06-6.08990E-19 4.24939E-19
 -1       381 9.59197E-05-2.80486E-05-2.90782E-05-2.00247E-06-2.13441E-18 1.37752E-18
 -1       382 9.41551E-05-2.72828E-05-2.86352E-05 1.70081E-06 9.99396E-19 1.99164E-18
 -1       383 9.33979E-05-2.75368E-05-2.82145E-05 2.91359E-07 1.03999E-18 1.49749E-18
 -1       384 9.30540E-05-2.76788E-05-2.80126E-05-4.65225E-07 7.08980E-19 1.28041E-18
 -1       385 9.29975E-05-2.78040E-05-2.79379E-05-8.48776E-07 4.88482E-19 1.22149E-18
 -1       386 9.31135E-05-2.79222E-05-2.79385E-05-1.00939E-06 3.68372E-19 7.89364E-19
 -1       387 9.33231E-05-2.80326E-05-2.79818E-05-1.03666E-06 2.04306E-19 1.02466E-18
 -1       388 9.35747E-05-2.81329E-05-2.80471E-05-9.87020E-07 1.52278E-19 8.64851E-19
 -1       389 9.38356E-05-2.82210E-05-2.81213E-05-8.97157E-07 6.25097E-19 6.68083E-19
 -1       390 9.40867E-05-2.82966E-05-2.81966E-05-7.91154E-07 3.56995E-19 7.76138E-19
 -1       391 9.43181E-05-2.83602E-05-2.82684E-05-6.84672E-07 4.85603E-19 6.76435E-19
 -1       392 9.45261E-05-2.84132E-05-2.83348E-05-5.87555E-07 1.69487E-19 8.16473E-19
 -1       393 9.47111E-05-2.84575E-05-2.83949E-05-5.05491E-07 2.07307E-19 6.79552E-19
 -1       394 9.48759E-05-2.84956E-05-2.84492E-05-4.41015E-07 2.28346E-20 1.06863E-19
 -1       395 9.50248E-05-2.85298E-05-2.84982E-05-3.93972E-07-4.83018E-19 8.73514E-20
 -1       396 9.51621E-05-2.85632E-05-2.85426E-05-3.61508E-07 2.86237E-19-4.95080E-19
 -1       397 9.52913E-05-2.85989E-05-2.85827E-05-3.37593E-07 5.49958E-19-4.95319E-19
 -1       398 9.54141E-05-2.86400E-05-2.86178E-05-3.12122E-07 3.83790E-20-1.50504E-19
 -1       399 9.55291E-05-2.86897E-05-2.86461E-05-2.69711E-07 2.05857E-19 9.64991E-19
 -1       400 9.56297E-05-2.87503E-05-2.86636E-05-1.88454E-07 7.04689E-19 9.17036E-19
 -1       401 9.57024E-05-2.88223E-05-2.86646E-05-3.91866E-08 2.98451E-19 1.56970E-18
 -1       402 9.57243E-05-2.89022E-05-2.86406E-05 2.13801E-07-5.83838E-19 1.20879E-18
 -1       403 9.56604E-05-2.89798E-05-2.85810E-05 6.09222E-07-2.77608E-19 1.96127E-19
 -1       404 9.54624E-05-2.90340E-05-2.84740E-05 1.18069E-06 1.68011E-18 7.31488E-19
 -1       405 9.50687E-05-2.90291E-05-2.83082E-05 1.94260E-06 2.85287E-19-1.94090E-19
 -1       406 9.44108E-05-2.89136E-05-2.80760E-05 2.87006E-06-8.46635E-19 6.20499E-19
 -1       407 9.34261E-05-2.86253E-05-2.77770E-05 3.87658E-06-1.36897E-18 1.07039E-18
 -1       408 9.20826E-05-2.81074E-05-2.74214E-05 4.79889E-06-8.09108E-19 2.61020E-18
 -1       409 9.04128E-05-2.73378E-05-2.70324E-05 5.40443E-06-7.95623E-19 2.47568E-18
 -1       410 8.85467E-05-2.63653E-05-2.66455E-05 5.43669E-06 3.74537E-20 1.98476E-18
 -1       411 8.67242E-05-2.53317E-05-2.63034E-05 4.70158E-06 1.72367E-19 2.13907E-18
 -1       412 8.52614E-05-2.44560E-05-2.60484E-05 3.16970E-06 6.53195E-19 1.54042E-18
 -1       413 8.44631E-05-2.39665E-05-2.59143E-05 1.04035E-06 6.12060E-19 1.40021E-18
 -1       414 8.45116E-05-2.40050E-05-2.59189E-05-1.28723E-06 5.78048E-19 2.51510E-18
 -1       415 8.53898E-05-2.45583E-05-2.60603E-05-3.34241E-06-8.10267E-19 1.64586E-18
 -1       416 8.68891E-05-2.54650E-05-2.63179E-05-4.75058E-06-1.45873E-18 4.29578E-19
 -1       417 8.86942E-05-2.64915E-05-2.66558E-05-5.34879E-06 3.70707E-19 9.95963E-19
 -1       418 9.04953E-05-2.74262E-05-2.70310E-05-5.19879E-06 2.99713E-19 1.63981E-18
 -1       419 9.20678E-05-2.81404E-05-2.74017E-05-4.51396E-06 1.48213E-19 2.96983E-18
 -1       420 9.32986E-05-2.85978E-05-2.77347E-05-3.55665E-06-9.86496E-20 2.13994E-18
 -1       421 9.41701E-05-2.88281E-05-2.80097E-05-2.55673E-06 1.05118E-18 1.15214E-18
 -1       422 9.47249E-05-2.88916E-05-2.82196E-05-1.67214E-06 9.75137E-19 9.00542E-19
 -1       423 9.50345E-05-2.88530E-05-2.83678E-05-9.84588E-07-1.22969E-19 1.15825E-18
 -1       424 9.51744E-05-2.87662E-05-2.84637E-05-5.15507E-07 7.93347E-19 6.72381E-19
 -1       425 9.52211E-05-2.86793E-05-2.85193E-05-2.45351E-07 1.87623E-18 8.45332E-19
 -1       426 9.52234E-05-2.86240E-05-2.85432E-05-1.23176E-07 1.03801E-18 6.08329E-19
 -1       427 9.55481E-05-2.87932E-05-2.86073E-05 2.81940E-07-3.89116E-19-1.92484E-18
 -1       428 9.54269E-05-2.87727E-05-2.85649E-05-1.55904E-08 1.13196E-18-1.66557E-18
 -1       429 9.55940E-05-2.86807E-05-2.86749E-05 7.22629E-07-9.40077E-19 9.26658E-19
 -1       430 9.55026E-05-2.83674E-05-2.87703E-05 1.23723E-06 1.55356E-18 9.40279E-19
 -1       431 9.52439E-05-2.78376E-05-2.88874E-05 1.68135E-06 1.42847E-18 2.50927E-18
 -1       432 9.48264E-05-2.71269E-05-2.90146E-05 1.89594E-06 1.20836E-19-7.49139E-19
 -1       433 9.43112E-05-2.63352E-05-2.91349E-05 1.74018E-06-6.42956E-19-1.00401E-18
 -1       434 9.38145E-05-2.56210E-05-2.92297E-05 1.14596E-06-4.38587E-19-2.94441E-18
 -1       435 9.34926E-05-2.51746E-05-2.92839E-05 1.90954E-07-4.12016E-19-2.56155E-18
 -1       436 9.34788E-05-2.51391E-05-2.92928E-05-9.52648E-07 1.33861E-18 1.75787E-18
 -1       437 9.38614E-05-2.55971E-05-2.92587E-05-1.94202E-06 1.94873E-18 1.61606E-18
 -1       438 9.45955E-05-2.64863E-05-2.91883E-05-2.40468E-06 7.26484E-19-7.22387E-20
 -1       439 9.49492E-05-2.70789E-05-2.90501E-05 3.32181E-06 1.16588E-18 2.73520E-18
 -1       440 6.80346E-05-4.27315E-05-1.07668E-05 5.36479E-05-1.13968E-18 2.56670E-18
 -1       441 1.47185E-04-5.12933E-05-4.10826E-05 2.84438E-05 2.16232E-18-5.20184E-18
 -1       442 7.52144E-05-5.03601E-05-1.11073E-05-3.76895E-05 1.56034E-18 2.70325E-18
 -1       443 8.93632E-05-1.18958E-05-3.32665E-05-1.06431E-05-8.17304E-19-2.03637E-18
 -1       444 1.89783E-04-6.51618E-05-5.32715E-05 2.46985E-05 2.04908E-18-7.36919E-19
 -1       445 1.66603E-04-3.58483E-05-5.57603E-05 1.57502E-05 2.56177E-18-4.81962E-18
 -1       446 1.74445E-04-2.08329E-05-6.54906E-05 4.40886E-06 1.11512E-18-7.23599E-18
 -1       447 1.64129E-04-8.61264E-06-6.68095E-05-3.43813E-07 2.34914E-18-7.00106E-18
 -1       448 1.66021E-04-1.83883E-05-6.33850E-05 1.35143E-07 2.67228E-18-5.48094E-18
 -1       449 1.64527E-04-3.50964E-05-5.53994E-05-8.42015E-06 2.29969E-18-3.59618E-18
 -1       450 1.45621E-04-5.29767E-05-3.97249E-05-2.94924E-05 1.54901E-19-4.43792E-18
 -1       451 1.10136E-04-5.24173E-05-2.47565E-05-4.81711E-05 1.63975E-18-4.05326E-18
 -1       452 6.89964E-05-4.34788E-05-1.09252E-05-5.33121E-05 1.55346E-18-2.51450E-18
 -1       453 3.19609E-05-2.81405E-05-1.47357E-06-4.29608E-05 4.35798E-19-2.28085E-18
 -1       454 9.57106E-06-2.31707E-05 5.64489E-06-1.68736E-05 4.02023E-19-3.85209E-18
 -1       455 1.74695E-05-2.14901E-05 1.84289E-06 1.51010E-05 6.81120E-19-9.08231E-19
 -1       456 5.00785E-05-3.95715E-05-4.71885E-06 3.43901E-05-7.88799E-20-1.08039E-18
 -1       457 9.96043E-05-6.00490E-05-1.76559E-05 3.54196E-05 9.39783E-19-8.03874E-19
 -1       458 1.58343E-04-7.43398E-05-3.64372E-05 1.42167E-05 7.26860E-19 5.31725E-19
 -1       459 1.88453E-04-6.86051E-05-5.11631E-05-1.77562E-05-1.33625E-18 6.92449E-20
 -1       460 1.34964E-04-6.92541E-05-2.85800E-05-2.59532E-05 8.63338E-19-1.78883E-19
 -1       461 1.89660E-05-2.68385E-05 3.11173E-06-1.68004E-05 6.46074E-19-4.78997E-19
 -1       462 1.18540E-04-5.61255E-05-2.66338E-05 4.52991E-05 1.33535E-18-4.44703E-18
 -1       463 2.75713E-05-2.75330E-05 3.51958E-08 3.96795E-05 2.38546E-19 3.74378E-18
 -1       464 1.92682E-04-4.88190E-05-6.16589E-05 2.90523E-05 3.82224E-19-1.22290E-18
 -1       465 9.52474E-05-2.72459E-05-2.91363E-05-2.40241E-06-9.77008E-19 6.88352E-19
 -1       466 1.73798E-04-7.38969E-05-4.29350E-05-3.29363E-06 2.02695E-18 1.69216E-18
 -1       467 8.95355E-05-1.33968E-05-3.26500E-05-3.92156E-06 1.88876E-19-1.95026E-18
 -1       468 9.02437E-05-1.43604E-05-3.25426E-05-5.88055E-06-1.75153E-19-1.98041E-18
 -1       469 8.90367E-05-1.27161E-05-3.27266E-05 5.46985E-08 7.73602E-19-1.76435E-18
 -1       470 8.91721E-05-1.28996E-05-3.27063E-05 2.04423E-06 1.07494E-18-1.64462E-18
 -1       471 8.95678E-05-1.34375E-05-3.26464E-05 3.99518E-06 1.37306E-18-1.36592E-18
 -1       472 9.02935E-05-1.44250E-05-3.25361E-05 5.94702E-06 1.75497E-18-9.92136E-19
 -1       473 9.14482E-05-1.60106E-05-3.23536E-05 7.77213E-06 1.84884E-18-4.97680E-19
 -1       474 9.31729E-05-1.84337E-05-3.20517E-05 9.21941E-06 1.99443E-18 1.90784E-19
 -1       475 9.53144E-05-2.18886E-05-3.14797E-05 9.54399E-06 1.80075E-18 1.23454E-18
 -1       476 9.63626E-05-2.46219E-05-3.07347E-05 8.03107E-06 1.59782E-18 2.12340E-18
 -1       477 9.54814E-05-2.44310E-05-3.04408E-05-5.82322E-06-1.08488E-18-8.47387E-19
 -1       478 2.05488E-05-8.80782E-06-4.30150E-06-4.01593E-06-1.43313E-18 3.82224E-19
 -1       479 9.45970E-05-2.07550E-05-3.16653E-05-9.42976E-06-1.26955E-18-1.11346E-18
 -1       480 9.52800E-05-2.62297E-05-2.95862E-05-2.88813E-06-8.71504E-19-6.12776E-19
 -1       481 9.49235E-05-2.71617E-05-2.90371E-05-1.02273E-06-5.48386E-19-4.42047E-19
 -1       482 9.46482E-05-2.76928E-05-2.86936E-05 1.01899E-07-5.57979E-19-4.85652E-19
 -1       483 9.44933E-05-2.80190E-05-2.84884E-05 7.39362E-07-5.82994E-19-7.70859E-19
 -1       484 9.44402E-05-2.82305E-05-2.83755E-05 1.06024E-06-5.92468E-19-1.17087E-18
 -1       485 9.44584E-05-2.83713E-05-2.83232E-05 1.17970E-06-3.20978E-19-1.43528E-18
 -1       486 9.45211E-05-2.84652E-05-2.83099E-05 1.17580E-06-6.69847E-19-9.29609E-19
 -1       487 9.46077E-05-2.85263E-05-2.83209E-05 1.10175E-06-4.76976E-19-3.69312E-19
 -1       488 9.47045E-05-2.85638E-05-2.83463E-05 9.93864E-07 1.70639E-19-3.75716E-19
 -1       489 9.48030E-05-2.85839E-05-2.83799E-05 8.77021E-07 8.76375E-20-1.43880E-19
 -1       490 9.48986E-05-2.85908E-05-2.84179E-05 7.68406E-07-4.20437E-19-6.93382E-19
 -1       491 9.49895E-05-2.85869E-05-2.84584E-05 6.80407E-07-8.08958E-19-7.57563E-19
 -1       492 9.50758E-05-2.85730E-05-2.85013E-05 6.22934E-07-3.39187E-19-5.23689E-20
 -1       493 9.51586E-05-2.85479E-05-2.85474E-05 6.05496E-07-4.60640E-19 1.52250E-20
 -1       494 9.52389E-05-2.85079E-05-2.85988E-05 6.39282E-07 5.52842E-20-9.08578E-20
 -1       495 9.53168E-05-2.84455E-05-2.86588E-05 7.39487E-07 9.48626E-21-2.72688E-19
 -1       496 9.53890E-05-2.83472E-05-2.87315E-05 9.28164E-07 3.31346E-19-2.15091E-19
 -1       497 9.54459E-05-2.81910E-05-2.88225E-05 1.23780E-06 6.99489E-19-7.05968E-19
 -1       498 9.54670E-05-2.79416E-05-2.89377E-05 1.71561E-06 5.10622E-19-1.27698E-18
 -1       499 9.54017E-05-2.75162E-05-2.90908E-05 2.47346E-06 2.66364E-20-2.40873E-18
 -1       500 9.51700E-05-2.68630E-05-2.92700E-05 3.53901E-06 1.58830E-19-1.55408E-18
 -1       501 9.46306E-05-2.58441E-05-2.94732E-05 5.06395E-06 6.16701E-19-5.16006E-19
 -1       502 9.35433E-05-2.42958E-05-2.96679E-05 7.19829E-06 1.13891E-18-1.28240E-18
 -1       503 9.15473E-05-2.20589E-05-2.97676E-05 1.01006E-05-4.25187E-19-1.19426E-18
 -1       504 8.81762E-05-1.91147E-05-2.95769E-05 1.39124E-05-4.10474E-19-1.26976E-18
 -1       505 8.30249E-05-1.59501E-05-2.86936E-05 1.87590E-05-3.67787E-19-1.03024E-18
 -1       506 7.62898E-05-1.43717E-05-2.63706E-05 2.49469E-05 1.69201E-19-6.95652E-19
 -1       507 7.03408E-05-1.90172E-05-2.15070E-05 3.20881E-05 1.89762E-19-2.00906E-19
 -1       508 8.44780E-05-2.12212E-05-2.68572E-05-3.13903E-05 1.20799E-18-1.79378E-18
 -1       509 8.72103E-05-1.85809E-05-2.93269E-05-2.45204E-05 3.20557E-19-1.77940E-18
 -1       510 9.06754E-05-2.01117E-05-3.02070E-05-1.83920E-05-1.71677E-18-2.30703E-18
 -1       511 9.31706E-05-2.24625E-05-3.02828E-05-1.34216E-05-1.31366E-19-1.64647E-18
 -1       512 9.46012E-05-2.44692E-05-3.00408E-05-9.61111E-06-3.44826E-19-1.22813E-18
 -1       513 9.52610E-05-2.58721E-05-2.97263E-05-6.79659E-06 1.61548E-20-7.83500E-19
 -1       514 9.54482E-05-2.67111E-05-2.94480E-05-4.76542E-06-3.05220E-19-6.37092E-19
 -1       515 9.54256E-05-2.70993E-05-2.92750E-05-3.49957E-06-2.64953E-19-3.87865E-19
 -1       516 9.43900E-05-2.78504E-05-2.85156E-05-4.61564E-07 6.44929E-19 6.26339E-19
 -1       517 9.46248E-05-2.74694E-05-2.87774E-05 3.97587E-07 9.53080E-19 8.17832E-19
 -1       518 9.50058E-05-2.68234E-05-2.92170E-05 1.88283E-06 1.11213E-18 6.39726E-19
 -1       519 9.42887E-05-2.80938E-05-2.83688E-05-9.24087E-07 6.18098E-19 6.57171E-19
 -1       520 9.42856E-05-2.82580E-05-2.82975E-05-1.13309E-06 4.05875E-19 5.09026E-19
 -1       521 9.43453E-05-2.83714E-05-2.82747E-05-1.18388E-06 2.52747E-19 1.71858E-19
 -1       522 9.44402E-05-2.84497E-05-2.82820E-05-1.14082E-06 2.45519E-19 1.20144E-19
 -1       523 9.45513E-05-2.85026E-05-2.83069E-05-1.04746E-06 1.84764E-19 5.15984E-19
 -1       524 9.46661E-05-2.85370E-05-2.83414E-05-9.33059E-07 4.39809E-19 7.05756E-19
 -1       525 9.47773E-05-2.85579E-05-2.83801E-05-8.16935E-07 3.26021E-19 1.31181E-18
 -1       526 9.48818E-05-2.85696E-05-2.84198E-05-7.11293E-07 5.28011E-19 8.60586E-19
 -1       527 9.49789E-05-2.85758E-05-2.84587E-05-6.23112E-07 4.70095E-19 4.81286E-19
 -1       528 9.50698E-05-2.85804E-05-2.84956E-05-5.55260E-07 4.85747E-20 4.42565E-19
 -1       529 9.51574E-05-2.85874E-05-2.85301E-05-5.06953E-07 4.79615E-19-4.97603E-19
 -1       530 9.52451E-05-2.86020E-05-2.85614E-05-4.73618E-07 3.82211E-21 1.05670E-19
 -1       531 9.53374E-05-2.86306E-05-2.85887E-05-4.46176E-07 2.59523E-19 4.56089E-19
 -1       532 9.54388E-05-2.86813E-05-2.86106E-05-4.09832E-07-2.26050E-19-2.00969E-19
 -1       533 9.55540E-05-2.87639E-05-2.86247E-05-3.42547E-07-2.26174E-20 4.48717E-19
 -1       534 9.56862E-05-2.88890E-05-2.86280E-05-2.13605E-07 7.08708E-20 1.62524E-18
 -1       535 9.58353E-05-2.90654E-05-2.86166E-05 1.69745E-08 1.46373E-19 2.20855E-18
 -1       536 9.59949E-05-2.92960E-05-2.85866E-05 3.96859E-07 2.20663E-19 8.39051E-19
 -1       537 9.61463E-05-2.95699E-05-2.85346E-05 9.75767E-07 2.82194E-19-2.67913E-19
 -1       538 9.62523E-05-2.98529E-05-2.84593E-05 1.79337E-06 8.02655E-19 8.28532E-19
 -1       539 9.62504E-05-3.00765E-05-2.83630E-05 2.85866E-06-4.23525E-19 4.91867E-19
 -1       540 9.60508E-05-3.01338E-05-2.82529E-05 4.12089E-06-2.06490E-18 2.70399E-19
 -1       541 9.55474E-05-2.98905E-05-2.81409E-05 5.43775E-06-2.37947E-18 1.78365E-18
 -1       542 9.46520E-05-2.92234E-05-2.80418E-05 6.55609E-06-3.97496E-19 3.04818E-18
 -1       543 9.33511E-05-2.80892E-05-2.79686E-05 7.13127E-06 5.37963E-19 1.93510E-18
 -1       544 9.17713E-05-2.66013E-05-2.79271E-05 6.80956E-06 6.86237E-19 4.83410E-19
 -1       545 9.02061E-05-2.50657E-05-2.79128E-05 5.37507E-06 9.40634E-19 4.45637E-19
 -1       546 8.90548E-05-2.39140E-05-2.79119E-05 2.90467E-06 6.36343E-19 3.98470E-20
 -1       547 8.86657E-05-2.35286E-05-2.79101E-05-1.72869E-07-1.59786E-20 5.07041E-19
 -1       548 8.91633E-05-2.40465E-05-2.79018E-05-3.19408E-06 1.02834E-19 8.10456E-19
 -1       549 9.03798E-05-2.52832E-05-2.78942E-05-5.51722E-06-9.86773E-20 3.44956E-19
 -1       550 9.19466E-05-2.68352E-05-2.79023E-05-6.76488E-06-1.44753E-18 4.19933E-19
 -1       551 9.34711E-05-2.82792E-05-2.79388E-05-6.91274E-06-8.11317E-19 2.23446E-18
 -1       552 9.46818E-05-2.93344E-05-2.80072E-05-6.21114E-06-4.96561E-19 1.29561E-18
 -1       553 9.54752E-05-2.99125E-05-2.81006E-05-5.02579E-06 7.34031E-19 8.52285E-19
 -1       554 9.58805E-05-3.00729E-05-2.82060E-05-3.69798E-06 1.33543E-18-5.51744E-19
 -1       555 9.59928E-05-2.99435E-05-2.83095E-05-2.47134E-06 1.17927E-18-1.77876E-18
 -1       556 9.59187E-05-2.96565E-05-2.84003E-05-1.48160E-06-6.06703E-19-2.18871E-18
 -1       557 9.57511E-05-2.93205E-05-2.84719E-05-7.74511E-07 1.26713E-18-5.77033E-19
 -1       558 9.55612E-05-2.90110E-05-2.85222E-05-3.35914E-07 1.75884E-18-2.08696E-18
 -1       559 9.61438E-05-2.91738E-05-2.87005E-05 1.27996E-06 1.02221E-18 3.45897E-18
 -1       560 9.60689E-05-2.92485E-05-2.86356E-05 5.85740E-07 3.05070E-19-2.48722E-20
 -1       561 9.58043E-05-2.91203E-05-2.85781E-05 5.63249E-08 1.15164E-18-3.79169E-18
 -1       562 1.50502E-04-2.66725E-05-5.35983E-05-7.48627E-06 3.08124E-18-4.79114E-18
 -1       563 9.59487E-05-2.88208E-05-2.87684E-05 2.01276E-06 6.50045E-19 8.29118E-19
 -1       564 9.54355E-05-2.81589E-05-2.88327E-05 2.57208E-06-9.50985E-19-4.83812E-19
 -1       565 9.46409E-05-2.72340E-05-2.88894E-05 2.73412E-06-1.46269E-18-3.25252E-19
 -1       566 9.37066E-05-2.61869E-05-2.89384E-05 2.31988E-06-1.55553E-18-9.36070E-19
 -1       567 9.28897E-05-2.52636E-05-2.89846E-05 1.30140E-06 9.21180E-19-1.17618E-18
 -1       568 9.24585E-05-2.47068E-05-2.90389E-05-2.13233E-07 7.23949E-19-4.12100E-19
 -1       569 9.26811E-05-2.47658E-05-2.91088E-05-1.85983E-06 5.41125E-19 1.15481E-18
 -1       570 9.36303E-05-2.55185E-05-2.91927E-05-3.13699E-06-2.46201E-19 1.77796E-18
 -1       571 1.52105E-04-4.66247E-05-4.55205E-05 3.21315E-06 1.92603E-18-4.90861E-18
 -1       572 2.39749E-05-1.31404E-05-4.01594E-06 2.71384E-05-7.38824E-19 2.31526E-18
 -1       573 1.38674E-04-6.28561E-06-5.74594E-05 6.04931E-06 1.33228E-18-2.97909E-18
 -1       574 7.60339E-05-3.62646E-05-1.65424E-05-3.86495E-05-5.02238E-19 2.13743E-18
 -1       575 9.32441E-05-3.63747E-05-2.39307E-05-3.69752E-05 1.10861E-18-9.01428E-19
 -1       576 5.52341E-05-2.92145E-05-1.06186E-05 4.86657E-05-1.82811E-18 1.91202E-18
 -1       577 8.91523E-05-1.28746E-05-3.27085E-05-1.93559E-06 4.29488E-19-1.80919E-18
 -1       578 1.39634E-04-6.10684E-05-3.37369E-05 2.26484E-05 1.22140E-18-5.37278E-18
 -1       579 1.33173E-04-6.01554E-05-3.12706E-05-3.15550E-05 3.41222E-19-2.52948E-18
 -1       580 1.42212E-04-9.14129E-06-5.77120E-05-7.49061E-06 1.74404E-18-3.97071E-18
 -1       581 1.46694E-04-2.58223E-05-5.23598E-05 9.51944E-06 8.99708E-19-2.28270E-18
 -1       582 8.87031E-05-4.13373E-05-1.97972E-05 3.88697E-05 6.16640E-19-9.92776E-19
 -1       583 1.50023E-04-4.77797E-05-4.42325E-05-4.67729E-06-6.51871E-19-2.21150E-18
 -1       584 1.01983E-04-5.27646E-05-2.08221E-05-4.90268E-05 7.78900E-19-3.58750E-18
 -1       585 6.30682E-05-3.33776E-05-1.21697E-05-5.07906E-05 9.93993E-19-2.50473E-18
 -1       586 2.67136E-05-1.17606E-05-5.74536E-06-2.81336E-05-3.65362E-19-2.41182E-18
 -1       587 2.25357E-05-6.55861E-06-6.04403E-06 1.18175E-06 5.72573E-19-2.66106E-18
 -1       588 4.95475E-05-2.05081E-05-1.17521E-05 3.21911E-05 2.53898E-19-5.84453E-20
 -1       589 4.58798E-05-2.20657E-05-9.57663E-06-3.14441E-05-1.66892E-18 2.39403E-18
 -1       590 1.19324E-04-5.84487E-05-2.59330E-05-3.24133E-05 6.28816E-19 2.18627E-19
 -1       591 1.04809E-04-5.29831E-05-2.19002E-05 4.68012E-05-1.46134E-18-1.90902E-18
 -1       592 9.13533E-05-1.58938E-05-3.23637E-05-7.69619E-06-5.66181E-19-1.83389E-18
 -1       593 9.55681E-05-2.58459E-05-2.98589E-05 4.92502E-06 1.31310E-18 1.53429E-18
 -1       594 9.27629E-05-1.79254E-05-3.20948E-05-8.88285E-06-9.37775E-19-1.49230E-18
 -1       595 1.26217E-04-4.17071E-06-5.29316E-05-1.34235E-06 1.16689E-18-1.64548E-18
 -1       596 9.51853E-05-2.63902E-05-2.94711E-05 3.20105E-06 1.20716E-18 9.53218E-19
 -1       597 1.42297E-04-5.72403E-05-3.66321E-05-1.09768E-05-7.98527E-19-1.56611E-18
 -1       598 9.15462E-05-1.68429E-05-3.20214E-05 2.43747E-06 1.16346E-18-1.17046E-18
 -1       599 9.12881E-05-1.64414E-05-3.20825E-05 8.40012E-07 7.85289E-19-1.47675E-18
 -1       600 9.28834E-05-1.89903E-05-3.16749E-05 5.26262E-06 1.61594E-18-6.46513E-19
 -1       601 9.39818E-05-2.08955E-05-3.13298E-05 6.19720E-06 1.57020E-18-9.32282E-20
 -1       602 9.55021E-05-2.42105E-05-3.05413E-05 6.24939E-06 1.49800E-18 7.37582E-19
 -1       603 9.50375E-05-2.36728E-05-3.05863E-05-4.71841E-06-7.38880E-19-9.22098E-19
 -1       604 9.41980E-05-2.12074E-05-3.12792E-05-6.73455E-06-9.00429E-19-1.22347E-18
 -1       605 9.68875E-05-3.00229E-05-2.86555E-05 9.71319E-07 1.95697E-18 3.33682E-18
 -1       606 9.54206E-05-2.57074E-05-2.98756E-05-2.42648E-06-6.15420E-19-1.04013E-18
 -1       607 9.54771E-05-2.69435E-05-2.93709E-05-8.57496E-07-6.09142E-19-8.65572E-19
 -1       608 9.54215E-05-2.77026E-05-2.90222E-05 1.46890E-07-6.67600E-19-7.01085E-19
 -1       609 9.53458E-05-2.81737E-05-2.87880E-05 7.37980E-07-7.62536E-19-9.56121E-19
 -1       610 9.52820E-05-2.84635E-05-2.86365E-05 1.04372E-06-6.19419E-19-9.64587E-19
 -1       611 9.52377E-05-2.86356E-05-2.85438E-05 1.16110E-06-3.13801E-19-9.20264E-19
 -1       612 9.52115E-05-2.87296E-05-2.84923E-05 1.16072E-06-1.16010E-19-7.20649E-19
 -1       613 9.51993E-05-2.87712E-05-2.84693E-05 1.09300E-06 5.02698E-21-4.83498E-19
 -1       614 9.51970E-05-2.87772E-05-2.84657E-05 9.93468E-07-2.96288E-19-8.46100E-19
 -1       615 9.52012E-05-2.87589E-05-2.84754E-05 8.87013E-07-8.15227E-20-1.07819E-18
 -1       616 9.52089E-05-2.87226E-05-2.84942E-05 7.91206E-07-6.09487E-19-3.76427E-19
 -1       617 9.52174E-05-2.86714E-05-2.85197E-05 7.18976E-07-4.91128E-20-1.92215E-19
 -1       618 9.52234E-05-2.86045E-05-2.85510E-05 6.80807E-07-4.28062E-19-2.02887E-20
 -1       619 9.52221E-05-2.85169E-05-2.85879E-05 6.86647E-07-7.47465E-19 5.37809E-20
 -1       620 9.52050E-05-2.83987E-05-2.86312E-05 7.47638E-07-1.61617E-20-1.31262E-21
 -1       621 9.51578E-05-2.82324E-05-2.86822E-05 8.77784E-07 2.49226E-19-1.38420E-19
 -1       622 9.50561E-05-2.79905E-05-2.87422E-05 1.09545E-06 3.97972E-19-2.44786E-19
 -1       623 9.48587E-05-2.76304E-05-2.88118E-05 1.42482E-06-6.59037E-20-7.63654E-19
 -1       624 9.44705E-05-2.70529E-05-2.88926E-05 1.92332E-06-2.06256E-19-1.69235E-18
 -1       625 9.38061E-05-2.62106E-05-2.89686E-05 2.57940E-06 8.31762E-19-1.48179E-18
 -1       626 9.26695E-05-2.49495E-05-2.90215E-05 3.44385E-06 4.56094E-19-1.97064E-18
 -1       627 9.07714E-05-2.30921E-05-2.90036E-05 4.53161E-06-1.83068E-19-2.23630E-18
 -1       628 8.76847E-05-2.04409E-05-2.88164E-05 5.82020E-06 4.98597E-19-2.98973E-18
 -1       629 8.28103E-05-1.68445E-05-2.82657E-05 7.23299E-06-8.89674E-20-3.10510E-18
 -1       630 7.53743E-05-1.23707E-05-2.69767E-05 8.66775E-06-3.88053E-20-1.68993E-18
 -1       631 6.44598E-05-7.64964E-06-2.42267E-05 1.01997E-05 5.80582E-20-1.28440E-18
 -1       632 4.87279E-05-4.15258E-06-1.86529E-05 1.25637E-05 5.90266E-19-1.61315E-18
 -1       633 6.49334E-05-9.33919E-06-2.36013E-05-2.01009E-05-6.97975E-19-2.19170E-19
 -1       634 9.51912E-05-2.82998E-05-2.86677E-05-9.22336E-07 7.23601E-19 7.48953E-20
 -1       635 7.45983E-05-1.19500E-05-2.67930E-05-1.49249E-05-7.44573E-19-1.56765E-18
 -1       636 8.24178E-05-1.61305E-05-2.83944E-05-1.17152E-05-2.18663E-19-7.40756E-19
 -1       637 8.76223E-05-1.98450E-05-2.90410E-05-9.07716E-06 2.54607E-19 1.62462E-19
 -1       638 9.08977E-05-2.26528E-05-2.92435E-05-6.90462E-06 2.57766E-20 6.17720E-19
 -1       639 9.28208E-05-2.45425E-05-2.92594E-05-5.15538E-06-7.45645E-19 1.20673E-19
 -1       640 9.32616E-05-2.51090E-05-2.92056E-05-4.05052E-06 2.06857E-19 1.18379E-19
 -1       641 9.53609E-05-2.73686E-05-2.91389E-05 3.23882E-07 7.53308E-19 8.92243E-20
 -1       642 9.52684E-05-2.79430E-05-2.88535E-05-4.76091E-07 5.57050E-19 1.39070E-19
 -1       643 9.54184E-05-2.64348E-05-2.95625E-05 1.63342E-06 1.04840E-18 7.85289E-20
 -1       644 9.51409E-05-2.85182E-05-2.85526E-05-1.12998E-06 6.14840E-19-1.00235E-20
 -1       645 9.51149E-05-2.86458E-05-2.84869E-05-1.18426E-06 1.96982E-19 4.48229E-20
 -1       646 9.51074E-05-2.87129E-05-2.84549E-05-1.14600E-06 2.50479E-19-4.27561E-20
 -1       647 9.51122E-05-2.87395E-05-2.84456E-05-1.05788E-06 1.63556E-19 2.05436E-21
 -1       648 9.51247E-05-2.87395E-05-2.84509E-05-9.49251E-07-1.07589E-19-9.16795E-21
 -1       649 9.51418E-05-2.87228E-05-2.84654E-05-8.39746E-07 5.26326E-19 9.57757E-20
 -1       650 9.51620E-05-2.86969E-05-2.84851E-05-7.41845E-07 9.64418E-19 3.48682E-19
 -1       651 9.51854E-05-2.86681E-05-2.85075E-05-6.62654E-07 4.54315E-19-5.82034E-19
 -1       652 9.52134E-05-2.86425E-05-2.85304E-05-6.04947E-07 9.19423E-20-3.61309E-19
 -1       653 9.52495E-05-2.86272E-05-2.85524E-05-5.67545E-07-2.32831E-19 1.64490E-19
 -1       654 9.52993E-05-2.86311E-05-2.85721E-05-5.45054E-07-1.04481E-20 1.78891E-20
 -1       655 9.53713E-05-2.86661E-05-2.85880E-05-5.26973E-07 8.64608E-20 9.79381E-19
 -1       656 9.54776E-05-2.87481E-05-2.85984E-05-4.96222E-07-5.14723E-19 7.76640E-19
 -1       657 9.56337E-05-2.88963E-05-2.86019E-05-4.27244E-07-4.50916E-19 8.86910E-19
 -1       658 9.58580E-05-2.91321E-05-2.85971E-05-2.84062E-07-1.39289E-19 8.46561E-19
 -1       659 9.61690E-05-2.94742E-05-2.85839E-05-1.90946E-08 1.04872E-18 3.60061E-19
 -1       660 9.65789E-05-2.99303E-05-2.85643E-05 4.25751E-07 8.74984E-19 6.80359E-19
 -1       661 9.70827E-05-3.04819E-05-2.85439E-05 1.11320E-06 4.67476E-19 5.52233E-19
 -1       662 9.76422E-05-3.10662E-05-2.85336E-05 2.09616E-06 1.46488E-20 3.11802E-19
 -1       663 9.81687E-05-3.15560E-05-2.85494E-05 3.39056E-06-6.24006E-19 8.17724E-19
 -1       664 9.85114E-05-3.17527E-05-2.86118E-05 4.93318E-06-2.69146E-18 1.18763E-19
 -1       665 9.84724E-05-3.14119E-05-2.87406E-05 6.53058E-06-1.97292E-18-5.96846E-19
 -1       666 9.78678E-05-3.03261E-05-2.89462E-05 7.82434E-06 2.97817E-19-7.73033E-19
 -1       667 9.66392E-05-2.84626E-05-2.92172E-05 8.32182E-06 1.13280E-18-1.64581E-19
 -1       668 9.49778E-05-2.61072E-05-2.95138E-05 7.53759E-06 3.02346E-19 8.87512E-20
 -1       669 9.33590E-05-2.38906E-05-2.97699E-05 5.25249E-06 4.98930E-19 1.76540E-18
 -1       670 9.23844E-05-2.25822E-05-2.99136E-05 1.74862E-06-7.09928E-21 1.83538E-18
 -1       671 9.24666E-05-2.27012E-05-2.98981E-05-2.17616E-06 2.74968E-19 9.12483E-20
 -1       672 9.35669E-05-2.41991E-05-2.97273E-05-5.52817E-06 9.98191E-20 1.84247E-19
 -1       673 9.52232E-05-2.64929E-05-2.94540E-05-7.57727E-06-5.86824E-19 1.08857E-18
 -1       674 9.68350E-05-2.88117E-05-2.91517E-05-8.12440E-06-1.63448E-18 6.25423E-19
 -1       675 9.79619E-05-3.05658E-05-2.88838E-05-7.44851E-06-2.87688E-19 1.25424E-18
 -1       676 9.84527E-05-3.15186E-05-2.86866E-05-6.05472E-06 3.09080E-19 1.52856E-18
 -1       677 9.83911E-05-3.17357E-05-2.85676E-05-4.42936E-06 2.35642E-18-2.65510E-19
 -1       678 9.79690E-05-3.14372E-05-2.85147E-05-2.91320E-06 1.69713E-18-7.96692E-19
 -1       679 9.73798E-05-3.08635E-05-2.85078E-05-1.68320E-06 1.28878E-18-1.96436E-18
 -1       680 9.67572E-05-3.01984E-05-2.85261E-05-8.06135E-07 3.02187E-19-3.51063E-18
 -1       681 9.62470E-05-2.96200E-05-2.85552E-05-2.36447E-07 1.19901E-18-3.13328E-18
 -1       682 9.64477E-05-2.94334E-05-2.87204E-05 2.97794E-06 3.70281E-19-5.17390E-19
 -1       683 4.55966E-05-1.49653E-05-1.25859E-05 3.43603E-05-2.82906E-18 1.55976E-18
 -1       684 1.38919E-04-3.90392E-05-4.31369E-05 9.20063E-06-5.11952E-19-7.83876E-19
 -1       685 9.66338E-05-2.98862E-05-2.86075E-05 2.80048E-07 1.58762E-18-2.61865E-18
 -1       686 9.54646E-05-2.84588E-05-2.87170E-05 3.66561E-06 6.12092E-19-1.28588E-18
 -1       687 9.69053E-05-2.99390E-05-2.86993E-05 1.98069E-06 9.33024E-19 1.58811E-18
 -1       688 9.40550E-05-2.70903E-05-2.86996E-05 3.73351E-06 2.61610E-19-8.30706E-19
 -1       689 9.25432E-05-2.55956E-05-2.86923E-05 2.97178E-06 6.74736E-19 1.85465E-19
 -1       690 9.13312E-05-2.43030E-05-2.87275E-05 1.33221E-06 3.33687E-19-2.61287E-18
 -1       691 9.09659E-05-2.36776E-05-2.88389E-05-9.13998E-07-6.03840E-19 1.53798E-18
 -1       692 9.17576E-05-2.40582E-05-2.90142E-05-2.77916E-06-4.50532E-20 1.13796E-18
 -1       693 3.14161E-05-4.46743E-06-1.08975E-05 1.05414E-05-1.10004E-18 1.92425E-18
 -1       694 1.41157E-04-3.67371E-05-4.51421E-05-9.54351E-06 1.93415E-18-3.38546E-18
 -1       695 1.29785E-04-1.46566E-05-4.99064E-05 1.14064E-05 7.16537E-19-8.18922E-19
 -1       696 8.18547E-05-3.66415E-05-1.89654E-05 4.46443E-05-1.73840E-18 3.08452E-19
 -1       697 9.20726E-05-1.76709E-05-3.18925E-05 3.94532E-06 1.46684E-18-8.89496E-19
 -1       698 5.95005E-05-1.63501E-05-1.79205E-05-2.99415E-05 4.03664E-19 8.68579E-19
 -1       699 9.20326E-05-1.76145E-05-3.18992E-05-3.89293E-06-4.17120E-20-1.64723E-18
 -1       700 1.19493E-04-5.64607E-05-2.68585E-05-3.51598E-05-5.42630E-22-1.15278E-18
 -1       701 9.02824E-05-4.27783E-05-2.00651E-05-4.55927E-05 1.13484E-18-2.78523E-18
 -1       702 3.34032E-05-4.14738E-06-1.19698E-05-1.23560E-05-3.36881E-19-2.20525E-18
 -1       703 5.17538E-05-1.77194E-05-1.40370E-05-3.72938E-05 2.40849E-19-3.57448E-18
 -1       704 1.22854E-04-5.60695E-05-2.85735E-05 2.79994E-05-4.29864E-19-5.24764E-18
 -1       705 1.40829E-04-5.38871E-05-3.74799E-05 4.89510E-06 8.50873E-19-4.27377E-18
 -1       706 1.31578E-04-1.82877E-05-4.90655E-05-1.26235E-05 2.78102E-18-1.16295E-18
 -1       707 9.28548E-05-1.89337E-05-3.16829E-05-5.22001E-06-4.45846E-19-1.62271E-18
 -1       708 9.12813E-05-1.64320E-05-3.20837E-05-7.82628E-07 5.89442E-19-1.51283E-18
 -1       709 9.53215E-05-2.48907E-05-3.01785E-05 3.61790E-06 1.08924E-18 8.92569E-20
 -1       710 1.19362E-04-9.88909E-06-4.73151E-05-8.16268E-06 3.12404E-18 1.59846E-18
 -1       711 4.18286E-05-5.44907E-06-1.50053E-05-1.40993E-05-1.23607E-19-4.52527E-19
 -1       712 1.27440E-04-2.76129E-05-4.30417E-05 1.36104E-05 3.40759E-19 1.07600E-19
 -1       713 1.19948E-04-7.99975E-06-4.84254E-05 6.28176E-06 2.78171E-19 2.49065E-18
 -1       714 1.30188E-04-5.55299E-05-3.20258E-05 1.34464E-05-2.44705E-19-3.46753E-18
 -1       715 7.47626E-05-2.87170E-05-1.94709E-05-3.94649E-05-2.26542E-19-2.71951E-18
 -1       716 1.05723E-04-4.69757E-05-2.50252E-05 3.44543E-05-1.32050E-18-3.32734E-18
 -1       717 9.15239E-05-1.68118E-05-3.20250E-05-2.37752E-06 2.14055E-19-1.54928E-18
 -1       718 1.31186E-04-5.74850E-05-3.16204E-05-1.86216E-05-3.12459E-19-1.29892E-18
 -1       719 9.46288E-05-2.27119E-05-3.08240E-05 3.90269E-06 1.20430E-18-3.53290E-19
 -1       720 9.05802E-05-2.43731E-05-2.83739E-05 3.73350E-06-1.36726E-19 1.45110E-19
 -1       721 9.34670E-05-1.99293E-05-3.15162E-05-6.09087E-06-6.88124E-19-1.55515E-18
 -1       722 9.49190E-05-2.34323E-05-3.06389E-05-3.50819E-06-7.31122E-19-1.33546E-18
 -1       723 9.55728E-05-2.55089E-05-3.00278E-05-1.79562E-06-4.61269E-19-1.17426E-18
 -1       724 9.58659E-05-2.68793E-05-2.95656E-05-5.71472E-07-3.88567E-19-9.15503E-19
 -1       725 9.59578E-05-2.77666E-05-2.92248E-05 2.33066E-07-6.56673E-19-6.10560E-19
 -1       726 9.59460E-05-2.83263E-05-2.89799E-05 7.14335E-07-7.55247E-19-5.76941E-19
 -1       727 9.58847E-05-2.86649E-05-2.88085E-05 9.64138E-07-4.45626E-19-6.38021E-19
 -1       728 9.58032E-05-2.88540E-05-2.86925E-05 1.05767E-06-1.11643E-19-5.87263E-19
 -1       729 9.57168E-05-2.89423E-05-2.86177E-05 1.05274E-06 5.20239E-20-7.72569E-19
 -1       730 9.56333E-05-2.89628E-05-2.85731E-05 9.92102E-07-1.57458E-19-6.51343E-19
 -1       731 9.55559E-05-2.89379E-05-2.85506E-05 9.06547E-07-3.64409E-19-3.56682E-19
 -1       732 9.54849E-05-2.88819E-05-2.85442E-05 8.17909E-07 1.39204E-20-1.16813E-18
 -1       733 9.54183E-05-2.88026E-05-2.85496E-05 7.41647E-07-3.62726E-19-7.16546E-19
 -1       734 9.53520E-05-2.87026E-05-2.85640E-05 6.88953E-07-1.96474E-19-5.11259E-19
 -1       735 9.52785E-05-2.85788E-05-2.85856E-05 6.68380E-07-2.51734E-19-4.89407E-19
 -1       736 9.51865E-05-2.84223E-05-2.86132E-05 6.87025E-07-2.74415E-19 7.98316E-20
 -1       737 9.50577E-05-2.82170E-05-2.86460E-05 7.51191E-07-4.27314E-20-2.14362E-20
 -1       738 9.48634E-05-2.79367E-05-2.86828E-05 8.66300E-07 4.34213E-20-2.03604E-19
 -1       739 9.45595E-05-2.75429E-05-2.87215E-05 1.03623E-06 1.76238E-19-1.19369E-18
 -1       740 9.40449E-05-2.69434E-05-2.87577E-05 1.27078E-06-3.05814E-19-8.60193E-19
 -1       741 9.32543E-05-2.61095E-05-2.87763E-05 1.53330E-06 2.72779E-19-4.27722E-19
 -1       742 9.20080E-05-2.49109E-05-2.87559E-05 1.79576E-06 1.20109E-20-1.67269E-18
 -1       743 9.00650E-05-2.32111E-05-2.86518E-05 1.97458E-06-1.21274E-19-1.79682E-18
 -1       744 8.70855E-05-2.08629E-05-2.83816E-05 1.91170E-06-4.52706E-19-1.99026E-18
 -1       745 8.26039E-05-1.77483E-05-2.77953E-05 1.33705E-06 3.51075E-19-1.46403E-18
 -1       746 7.59972E-05-1.38620E-05-2.66207E-05-1.59172E-07 5.68196E-19-1.59343E-18
 -1       747 6.64820E-05-9.51739E-06-2.43618E-05-3.12030E-06-3.54290E-20-1.90739E-18
 -1       748 5.29521E-05-5.54747E-06-2.00773E-05-8.00080E-06 5.70695E-19-1.65991E-18
 -1       749 9.52776E-05-2.45505E-05-3.03097E-05 2.75467E-06 1.18278E-18-1.92483E-19
 -1       750 9.58311E-05-2.84809E-05-2.88644E-05-8.73024E-07 6.13699E-19 8.44996E-21
 -1       751 4.70420E-05-3.65906E-06-1.82499E-05 6.29116E-07-1.03989E-18-4.44216E-19
 -1       752 1.34236E-04-4.93943E-05-3.64603E-05 1.04543E-06-1.44739E-18-4.70633E-19
 -1       753 8.02477E-05-1.58404E-05-2.76134E-05-4.27324E-06 2.07743E-18-1.84752E-18
 -1       754 8.58585E-05-1.94927E-05-2.84412E-05-4.20507E-06 6.78340E-19 4.82803E-19
 -1       755 8.95325E-05-2.22443E-05-2.88358E-05-3.73096E-06 3.45281E-19 1.24989E-18
 -1       756 9.56793E-05-2.88698E-05-2.86327E-05-1.08746E-06 3.33071E-19 4.84069E-19
 -1       757 9.56010E-05-2.89244E-05-2.85757E-05-1.05038E-06 1.77498E-19 3.01572E-19
 -1       758 9.55285E-05-2.89263E-05-2.85438E-05-9.71435E-07 3.72334E-19-5.30857E-20
 -1       759 9.54638E-05-2.88950E-05-2.85295E-05-8.76666E-07 2.70043E-19-5.08235E-19
 -1       760 9.54075E-05-2.88442E-05-2.85272E-05-7.83741E-07 5.19738E-19-4.03699E-19
 -1       761 9.53605E-05-2.87845E-05-2.85326E-05-7.04088E-07 7.37285E-19 3.15357E-19
 -1       762 9.53238E-05-2.87246E-05-2.85425E-05-6.44427E-07-1.00324E-19 3.91058E-19
 -1       763 9.53006E-05-2.86736E-05-2.85545E-05-6.07685E-07 8.74524E-20 2.23759E-19
 -1       764 9.52964E-05-2.86418E-05-2.85662E-05-5.93317E-07-4.78776E-19 4.87187E-19
 -1       765 9.53209E-05-2.86435E-05-2.85760E-05-5.96978E-07-4.68735E-19 1.04405E-18
 -1       766 9.53893E-05-2.86975E-05-2.85822E-05-6.09498E-07-1.88019E-19 1.26269E-18
 -1       767 9.55243E-05-2.88292E-05-2.85836E-05-6.15072E-07-5.38693E-19 1.05880E-18
 -1       768 9.57564E-05-2.90698E-05-2.85800E-05-5.88625E-07 9.14391E-21 6.85371E-19
 -1       769 9.61237E-05-2.94538E-05-2.85729E-05-4.92482E-07 7.18966E-19-3.11930E-19
 -1       770 9.66672E-05-3.00116E-05-2.85668E-05-2.72937E-07 1.26053E-19 4.16389E-19
 -1       771 9.74211E-05-3.07554E-05-2.85712E-05 1.41698E-07 5.13888E-19 1.32537E-18
 -1       772 9.83936E-05-3.16552E-05-2.86025E-05 8.38013E-07-2.33641E-19 1.59040E-18
 -1       773 9.95373E-05-3.26063E-05-2.86852E-05 1.90272E-06-3.80891E-19 2.13284E-18
 -1       774 1.00715E-04-3.33958E-05-2.88517E-05 3.38681E-06-1.12380E-18 2.15878E-18
 -1       775 1.01675E-04-3.36891E-05-2.91371E-05 5.23927E-06-1.49246E-18 3.16014E-19
 -1       776 1.02070E-04-3.30782E-05-2.95674E-05 7.21266E-06-9.08678E-19-2.20820E-19
 -1       777 1.01578E-04-3.12465E-05-3.01416E-05 8.78926E-06-7.95011E-19 9.18366E-19
 -1       778 1.00109E-04-2.82238E-05-3.08062E-05 9.22640E-06 7.17247E-19 1.40247E-18
 -1       779 9.80472E-05-2.46628E-05-3.14482E-05 7.82455E-06-4.16117E-19 1.71103E-18
 -1       780 9.62349E-05-2.17623E-05-3.19150E-05 4.41379E-06 1.19844E-18 1.03189E-18
 -1       781 9.55877E-05-2.07593E-05-3.20713E-05-2.92950E-07 1.59393E-18-9.42628E-19
 -1       782 9.64640E-05-2.21253E-05-3.18611E-05-4.88143E-06 5.88879E-19-2.54221E-18
 -1       783 9.83852E-05-2.52256E-05-3.13529E-05-8.00075E-06-9.74754E-19-2.10602E-18
 -1       784 1.00414E-04-2.87901E-05-3.06949E-05-9.07895E-06-1.59125E-18-7.30548E-19
 -1       785 1.01754E-04-3.16680E-05-3.00364E-05-8.39363E-06-1.31306E-18-7.46335E-19
 -1       786 1.02099E-04-3.33060E-05-2.94826E-05-6.68137E-06-2.02376E-19-1.49005E-18
 -1       787 1.01585E-04-3.37354E-05-2.90786E-05-4.67086E-06 1.08272E-18 5.45922E-19
 -1       788 1.00548E-04-3.33011E-05-2.88204E-05-2.84560E-06 2.36958E-18 1.35569E-18
 -1       789 9.93208E-05-3.24044E-05-2.86791E-05-1.42348E-06 2.75821E-18-1.23404E-19
 -1       790 9.81557E-05-3.13758E-05-2.86197E-05-4.46963E-07 1.67835E-18 2.53716E-19
 -1       791 9.73262E-05-3.05850E-05-2.86055E-05 1.56455E-08 1.01907E-18-1.13746E-18
 -1       792 9.28794E-05-2.65470E-05-2.84276E-05 5.05922E-06-6.79492E-19 3.46194E-19
 -1       793 8.90457E-05-2.26813E-05-2.84413E-05 1.14656E-06 1.53813E-18-7.83112E-19
 -1       794 1.27844E-04-2.87849E-05-4.27178E-05-1.33689E-05 1.65036E-18 1.17693E-18
 -1       795 1.33684E-04-4.45407E-05-3.83876E-05-6.21417E-06 7.78165E-19-1.04063E-18
 -1       796 9.51922E-05-2.86177E-05-2.85322E-05 5.15564E-06 1.49920E-18-3.56690E-18
 -1       797 5.97453E-05-6.32106E-06-2.27352E-05-3.66016E-06-2.18661E-18-1.16724E-18
 -1       798 7.19829E-05-1.13706E-05-2.59740E-05-3.56411E-06-7.37861E-19-1.95915E-18
 -1       799 9.57591E-05-2.87352E-05-2.87246E-05-1.04550E-06 1.98491E-19 4.60989E-19
 -1       800 1.06484E-04-4.76287E-05-2.50525E-05-3.50406E-05-6.01790E-20-2.31412E-20
 -1       801 9.69327E-05-3.01359E-05-2.86276E-05 4.28519E-06 1.09428E-18 1.98343E-18
 -1       802 9.57074E-05-2.62647E-05-2.97614E-05 1.20829E-06 1.06079E-18-1.36925E-19
 -1       803 9.31974E-05-1.97705E-05-3.14699E-05 1.23270E-06 7.80577E-19-1.01379E-18
 -1       804 6.76657E-05-2.16908E-05-1.94482E-05 3.34948E-05-1.68138E-18 3.09641E-18
 -1       805 5.63574E-05-1.28481E-05-1.83348E-05-2.63655E-05 2.04122E-19-3.00866E-18
 -1       806 5.07847E-05-8.97249E-06-1.75722E-05 2.05778E-05-1.49609E-18 3.41460E-21
 -1       807 9.30850E-05-1.95689E-05-3.15081E-05 2.08242E-08 6.21660E-19-1.29818E-18
 -1       808 1.12857E-04-8.45426E-06-4.49828E-05-1.18454E-06 5.79159E-19 5.39441E-18
 -1       809 9.58767E-05-2.80490E-05-2.90691E-05-5.01161E-07 5.72492E-19-2.81436E-19
 -1       810 1.17792E-04-1.87727E-05-4.26738E-05-1.20952E-05 2.88640E-18 1.84475E-18
 -1       811 1.28219E-04-4.01985E-05-3.78385E-05 9.22300E-06-1.32458E-18-1.15151E-18
 -1       812 9.58599E-05-2.73548E-05-2.93595E-05 1.58328E-07 6.59444E-19-3.42836E-19
 -1       813 9.80343E-05-3.11191E-05-2.86758E-05 1.48774E-06 1.44828E-18 2.86147E-18
 -1       814 1.18546E-04-1.75420E-05-4.35407E-05 1.19538E-05 1.85970E-18 2.31472E-18
 -1       815 9.40042E-05-2.13301E-05-3.11483E-05 3.29662E-06 1.14583E-18-7.52671E-19
 -1       816 9.78648E-05-3.09441E-05-2.86788E-05 2.93445E-06 9.34943E-19 1.42794E-19
 -1       817 8.87881E-05-2.20764E-05-2.85888E-05-1.26794E-06 1.24665E-18 1.25149E-18
 -1       818 1.19138E-04-5.22349E-05-2.86483E-05-2.31934E-05-1.28937E-18-5.42670E-19
 -1       819 1.28849E-04-4.99381E-05-3.38369E-05 1.77160E-06 4.20136E-19-7.47808E-19
 -1       820 9.39823E-05-2.12840E-05-3.11585E-05-3.26857E-06-3.05220E-19-1.11756E-18
 -1       821 1.18044E-04-5.16904E-05-2.83878E-05 2.36437E-05-6.77481E-19-4.83478E-18
 -1       822 9.35046E-05-2.03482E-05-3.13543E-05 2.35080E-06 1.08808E-18-8.42954E-19
 -1       823 9.34797E-05-2.03112E-05-3.13600E-05-2.31418E-06 6.28463E-20-1.45112E-18
 -1       824 8.88970E-05-3.37359E-05-2.35297E-05 3.23805E-05-1.38571E-18-2.12004E-18
 -1       825 9.54007E-05-2.45865E-05-3.03475E-05 1.87305E-06 8.87620E-19-5.57098E-19
 -1       826 9.90299E-05-3.22160E-05-2.86373E-05 4.33420E-06 1.79044E-18 8.68072E-20
 -1       827 9.48158E-05-2.31017E-05-3.07332E-05 2.57973E-06 9.34684E-19-7.14371E-19
 -1       828 9.49918E-05-2.35131E-05-3.06314E-05-2.38587E-06-3.24952E-19-9.91985E-19
 -1       829 9.58021E-05-2.56080E-05-3.00850E-05-1.17081E-06-2.02481E-19-8.67199E-19
 -1       830 9.61900E-05-2.69836E-05-2.96597E-05-2.77215E-07-1.93342E-19-7.93383E-19
 -1       831 9.63562E-05-2.79125E-05-2.93330E-05 3.05960E-07-4.34418E-19-5.13976E-19
 -1       832 9.63742E-05-2.85009E-05-2.90886E-05 6.54793E-07-4.31467E-19 9.08053E-20
 -1       833 9.63074E-05-2.88509E-05-2.89099E-05 8.32050E-07-3.84584E-19 2.77887E-19
 -1       834 9.61954E-05-2.90350E-05-2.87830E-05 8.92578E-07-2.24987E-19 1.43834E-19
 -1       835 9.60632E-05-2.91059E-05-2.86960E-05 8.80106E-07-5.92220E-20-3.97348E-19
 -1       836 9.59255E-05-2.91002E-05-2.86394E-05 8.27491E-07-2.36362E-19-5.69662E-19
 -1       837 9.57899E-05-2.90430E-05-2.86058E-05 7.58533E-07-6.29211E-19-5.44723E-19
 -1       838 9.56589E-05-2.89500E-05-2.85895E-05 6.89964E-07-5.66166E-21-6.61963E-19
 -1       839 9.55302E-05-2.88294E-05-2.85861E-05 6.33179E-07 1.86733E-19-6.32598E-19
 -1       840 9.53977E-05-2.86826E-05-2.85922E-05 5.95522E-07-4.37731E-19-5.15803E-19
 -1       841 9.52505E-05-2.85048E-05-2.86053E-05 5.81018E-07 5.04655E-20-1.00745E-18
 -1       842 9.50715E-05-2.82841E-05-2.86232E-05 5.90374E-07-6.16515E-19-7.02406E-19
 -1       843 9.48349E-05-2.80007E-05-2.86432E-05 6.20000E-07-1.89763E-19-1.27743E-18
 -1       844 9.45032E-05-2.76256E-05-2.86619E-05 6.60185E-07 1.71145E-19-9.13162E-19
 -1       845 9.39908E-05-2.70869E-05-2.86731E-05 6.89044E-07 6.72109E-20-8.38121E-19
 -1       846 9.32609E-05-2.63773E-05-2.86645E-05 6.60578E-07 5.87269E-19-4.22474E-19
 -1       847 9.21814E-05-2.54078E-05-2.86174E-05 5.02845E-07 4.12442E-19 3.40307E-19
 -1       848 9.05963E-05-2.41022E-05-2.84977E-05 8.69212E-08 1.58184E-19 9.92800E-19
 -1       849 8.83054E-05-2.23962E-05-2.82473E-05-7.97773E-07-6.17086E-19 1.03493E-18
 -1       850 8.50696E-05-2.02779E-05-2.77684E-05-2.48274E-06 1.96169E-19 3.76823E-19
 -1       851 8.06275E-05-1.78587E-05-2.68987E-05-5.46646E-06 2.13313E-19-2.10653E-19
 -1       852 7.47697E-05-1.55188E-05-2.53703E-05-1.04386E-05-6.81086E-19-7.48932E-19
 -1       853 6.69386E-05-1.34140E-05-2.28382E-05-1.70113E-05 1.30810E-20-2.88012E-18
 -1       854 8.50817E-05-1.95933E-05-2.80665E-05-4.55597E-07 1.68955E-18-1.08650E-21
 -1       855 9.58130E-05-2.90608E-05-2.86081E-05-8.18863E-07 5.65426E-19 4.49142E-19
 -1       856 9.59431E-05-2.90855E-05-2.86533E-05-8.85616E-07 4.30535E-19 1.85512E-19
 -1       857 9.60738E-05-2.90507E-05-2.87242E-05-9.22480E-07 5.35412E-19 4.79741E-20
 -1       858 9.56900E-05-2.89991E-05-2.85818E-05-7.43192E-07 3.50664E-19 2.98116E-19
 -1       859 9.55773E-05-2.89170E-05-2.85687E-05-6.73174E-07 3.63207E-19-1.18331E-19
 -1       860 9.54775E-05-2.88269E-05-2.85646E-05-6.18717E-07 2.70417E-19 9.89598E-20
 -1       861 9.53930E-05-2.87396E-05-2.85658E-05-5.86373E-07-3.76171E-19 4.58843E-19
 -1       862 9.53286E-05-2.86666E-05-2.85694E-05-5.80192E-07-5.23728E-19 8.21732E-19
 -1       863 9.52926E-05-2.86222E-05-2.85730E-05-6.02067E-07-8.78293E-19 7.81791E-19
 -1       864 9.52998E-05-2.86257E-05-2.85746E-05-6.51451E-07-7.41541E-19 1.09473E-18
 -1       865 9.53736E-05-2.87040E-05-2.85727E-05-7.24238E-07-5.97145E-19 1.81130E-18
 -1       866 9.55490E-05-2.88933E-05-2.85667E-05-8.10461E-07-1.00232E-19 1.14243E-18
 -1       867 9.58747E-05-2.92388E-05-2.85582E-05-8.90329E-07 4.53817E-19 1.30048E-18
 -1       868 9.64126E-05-2.97919E-05-2.85517E-05-9.28195E-07 2.36139E-19 1.67369E-18
 -1       869 9.72333E-05-3.05996E-05-2.85574E-05-8.64441E-07 4.14051E-19 1.51080E-18
 -1       870 9.84015E-05-3.16843E-05-2.85932E-05-6.06589E-07-3.67737E-19 2.02047E-18
 -1       871 9.99467E-05-3.30071E-05-2.86887E-05-2.47222E-08-3.55992E-19 1.79050E-18
 -1       872 1.01815E-04-3.44144E-05-2.88864E-05 1.03661E-06-1.01808E-18 1.05691E-18
 -1       873 1.03805E-04-3.55775E-05-2.92412E-05 2.71131E-06-3.18452E-19 1.96814E-18
 -1       874 1.05512E-04-3.59563E-05-2.98105E-05 5.00105E-06-9.95842E-19 1.63262E-18
 -1       875 1.06356E-04-3.48819E-05-3.06300E-05 7.58316E-06-1.12121E-18 1.39742E-18
 -1       876 1.05791E-04-3.18693E-05-3.16834E-05 9.68300E-06-5.49110E-19 1.16376E-18
 -1       877 1.03752E-04-2.71357E-05-3.28384E-05 1.00428E-05-8.85327E-20 1.67681E-18
 -1       878 1.01019E-04-2.20267E-05-3.38514E-05 7.67838E-06 1.09618E-18-2.32446E-19
 -1       879 9.91096E-05-1.87472E-05-3.44407E-05 2.64842E-06 3.29289E-18-6.71416E-19
 -1       880 9.92664E-05-1.90191E-05-3.44018E-05-3.39055E-06 1.40947E-18-6.40396E-19
 -1       881 1.01441E-04-2.27604E-05-3.37234E-05-8.07643E-06-5.25738E-19-4.88678E-19
 -1       882 1.04196E-04-2.79796E-05-3.26655E-05-9.99166E-06-1.86797E-18-1.11215E-18
 -1       883 1.06072E-04-3.25428E-05-3.15141E-05-9.25430E-06-8.76011E-19-1.15282E-18
 -1       884 1.06426E-04-3.52730E-05-3.04934E-05-6.98605E-06-4.99882E-20-2.03185E-18
 -1       885 1.05420E-04-3.60772E-05-2.97179E-05-4.36788E-06-1.17471E-18-9.18214E-19
 -1       886 1.03636E-04-3.55108E-05-2.91966E-05-2.12542E-06 3.96743E-19 3.34090E-19
 -1       887 1.01622E-04-3.42229E-05-2.88857E-05-5.31085E-07 2.41759E-18 1.75254E-18
 -1       888 9.97565E-05-3.27250E-05-2.87267E-05 4.56217E-07 2.53808E-18 1.87432E-18
 -1       889 9.08658E-05-2.54687E-05-2.80242E-05 6.85924E-06-1.19284E-19 9.95216E-19
 -1       890 5.94237E-05-8.76379E-06-2.15514E-05 1.14198E-05-3.03971E-18 1.00671E-18
 -1       891 9.14143E-05-3.51394E-05-2.39968E-05-3.17261E-05-6.54322E-19-5.92791E-20
 -1       892 7.12303E-05-1.25993E-05-2.50823E-05 6.44177E-06-7.39094E-19-2.96501E-19
 -1       893 1.23152E-04-3.53686E-05-3.77365E-05-1.11476E-05 8.96975E-19 7.96705E-19
 -1       894 9.94930E-05-3.25114E-05-2.87099E-05 2.23661E-06 1.57490E-18 1.75133E-18
 -1       895 8.75469E-05-2.23588E-05-2.79336E-05 4.50116E-06 3.82184E-19 1.59635E-18
 -1       896 9.44781E-05-2.85694E-05-2.82452E-05 7.24496E-06 1.17668E-18-3.95881E-18
 -1       897 7.98216E-05-1.65231E-05-2.71105E-05 1.38918E-06 2.59993E-18 3.34219E-19
 -1       898 9.31826E-05-1.97510E-05-3.14726E-05-1.18703E-06 3.88944E-19-1.20612E-18
 -1       899 7.58147E-05-1.45441E-05-2.62243E-05 3.56731E-06 1.12422E-18-8.74727E-19
 -1       900 9.73554E-05-3.09064E-05-2.84748E-05 6.18045E-06-3.42615E-19-6.15717E-19
 -1       901 1.27943E-04-5.17420E-05-3.26914E-05-6.88114E-06-1.21254E-18 5.13236E-19
 -1       902 1.10740E-04-1.26503E-05-4.22247E-05 6.54118E-06 2.12677E-18 1.74836E-18
 -1       903 9.63157E-05-2.82023E-05-2.91914E-05-5.05516E-07 5.34878E-19-3.96850E-19
 -1       904 1.11275E-04-1.38848E-05-4.19402E-05-7.30959E-06 6.79896E-19 6.00186E-18
 -1       905 1.26486E-04-4.62198E-05-3.44589E-05 2.66379E-06-1.23879E-18-1.58195E-18
 -1       906 9.59836E-05-2.63237E-05-2.98552E-05 7.65986E-07 8.03086E-19-2.18351E-19
 -1       907 1.15774E-04-2.67223E-05-3.82451E-05-1.26220E-05 6.37657E-19 9.08658E-19
 -1       908 1.22789E-04-4.24619E-05-3.44300E-05-6.14674E-06-4.92829E-19-5.98460E-19
 -1       909 8.59174E-05-2.07207E-05-2.79415E-05 2.32050E-06 1.79313E-18 6.50516E-19
 -1       910 1.04722E-04-4.29537E-05-2.64390E-05-2.65829E-05-1.16716E-18 6.15101E-19
 -1       911 9.61940E-05-2.89245E-05-2.88298E-05-9.00029E-07 3.70104E-19 1.12138E-19
 -1       912 1.23398E-04-5.13146E-05-3.08909E-05 1.17183E-05-1.25838E-18-2.33744E-18
 -1       913 9.46783E-05-2.26510E-05-3.08692E-05-1.80358E-06 7.78307E-21-1.14761E-18
 -1       914 1.17953E-04-2.82255E-05-3.85324E-05 1.29890E-05 1.08189E-18 9.01088E-19
 -1       915 1.02844E-04-4.19884E-05-2.60238E-05 2.77372E-05-1.45727E-18-3.98277E-18
 -1       916 6.85643E-05-1.69636E-05-2.19739E-05 2.34193E-05-1.65547E-18 3.19019E-18
 -1       917 9.45309E-05-2.22578E-05-3.09742E-05 4.30248E-07 4.99335E-19-1.08032E-18
 -1       918 9.47048E-05-2.26260E-05-3.08898E-05 1.23489E-06 7.17920E-19-8.07854E-19
 -1       919 7.57641E-05-2.26424E-05-2.26689E-05-2.76707E-05-1.79829E-19-1.71617E-18
 -1       920 9.62849E-05-2.86625E-05-2.89810E-05-7.78280E-07 1.98614E-19-1.71117E-19
 -1       921 8.76401E-05-2.36797E-05-2.74297E-05 9.09161E-06-1.02301E-18 7.74409E-19
 -1       922 8.43366E-05-2.62869E-05-2.48592E-05 2.29868E-05-1.53410E-18-6.81332E-20
 -1       923 9.60693E-05-2.59000E-05-3.00716E-05-6.29183E-07-1.51342E-19-6.76671E-19
 -1       924 9.64787E-05-2.72334E-05-2.96768E-05-5.15590E-08-1.27868E-19-6.05041E-19
 -1       925 9.66549E-05-2.81295E-05-2.93681E-05 3.25498E-07-7.73942E-20-1.26564E-19
 -1       926 9.66692E-05-2.86949E-05-2.91318E-05 5.45454E-07-1.28403E-19-8.22488E-20
 -1       927 9.65830E-05-2.90208E-05-2.89552E-05 6.51214E-07-2.14104E-19-3.21399E-20
 -1       928 9.64405E-05-2.91782E-05-2.88267E-05 6.80391E-07-5.48080E-19-2.35702E-19
 -1       929 9.62706E-05-2.92198E-05-2.87361E-05 6.62552E-07-3.18113E-19-4.44655E-19
 -1       930 9.60913E-05-2.91830E-05-2.86750E-05 6.19960E-07-6.01236E-19-4.47239E-19
 -1       931 9.59118E-05-2.90934E-05-2.86364E-05 5.68453E-07-3.03656E-19 1.09766E-19
 -1       932 9.57348E-05-2.89665E-05-2.86150E-05 5.18547E-07 9.83028E-20 2.19989E-19
 -1       933 9.55576E-05-2.88101E-05-2.86061E-05 4.76285E-07-3.71540E-19-2.74272E-19
 -1       934 9.53723E-05-2.86248E-05-2.86061E-05 4.43590E-07-3.66508E-19 7.38136E-20
 -1       935 9.51658E-05-2.84052E-05-2.86117E-05 4.17905E-07-1.82054E-19-2.06612E-19
 -1       936 9.49187E-05-2.81396E-05-2.86196E-05 3.90860E-07-1.74739E-19 7.35611E-20
 -1       937 9.46038E-05-2.78101E-05-2.86259E-05 3.46097E-07-3.94248E-20 6.69625E-19
 -1       938 9.41588E-05-2.73687E-05-2.86243E-05 2.46251E-07 2.52925E-19 7.63461E-19
 -1       939 9.35732E-05-2.68263E-05-2.86058E-05 4.76599E-08 7.40614E-19 8.04818E-19
 -1       940 9.27660E-05-2.61346E-05-2.85563E-05-3.34965E-07 9.65393E-19 1.00576E-18
 -1       941 9.16622E-05-2.52719E-05-2.84530E-05-1.03298E-06 5.80359E-19 6.23142E-19
 -1       942 9.01852E-05-2.42453E-05-2.82599E-05-2.24570E-06-2.21645E-19 5.92829E-19
 -1       943 8.82810E-05-2.31289E-05-2.79224E-05-4.26254E-06-3.06562E-19 7.95031E-19
 -1       944 8.59771E-05-2.21396E-05-2.73589E-05-7.48444E-06-2.75165E-19 5.82505E-20
 -1       945 8.35117E-05-2.17548E-05-2.64616E-05-1.24368E-05-5.49674E-19-8.77864E-19
 -1       946 9.61522E-05-2.91956E-05-2.86957E-05-6.74708E-07 1.85223E-19 6.29823E-19
 -1       947 9.62463E-05-2.74692E-05-2.94765E-05-1.51440E-08 5.51400E-19-2.86104E-20
 -1       948 9.58131E-05-2.90505E-05-2.86125E-05-5.70732E-07 4.74548E-19 6.84005E-19
 -1       949 9.59793E-05-2.91417E-05-2.86447E-05-6.23579E-07 6.30560E-19 3.95373E-19
 -1       950 9.63234E-05-2.91885E-05-2.87721E-05-7.08727E-07 2.46134E-19 2.89328E-19
 -1       951 9.56581E-05-2.89394E-05-2.85937E-05-5.27485E-07 3.54667E-19 1.19027E-18
 -1       952 9.55175E-05-2.88215E-05-2.85840E-05-5.02513E-07-3.06030E-19 1.30486E-18
 -1       953 9.53944E-05-2.87087E-05-2.85796E-05-5.03047E-07-7.23781E-19 1.60428E-18
 -1       954 9.52947E-05-2.86142E-05-2.85774E-05-5.35793E-07-7.21124E-19 1.64450E-18
 -1       955 9.52291E-05-2.85549E-05-2.85746E-05-6.07486E-07-7.81534E-19 7.55860E-19
 -1       956 9.52168E-05-2.85553E-05-2.85692E-05-7.24809E-07-8.09357E-19 1.17659E-19
 -1       957 9.52893E-05-2.86499E-05-2.85597E-05-8.93360E-07-2.10509E-19-4.08481E-20
 -1       958 9.54944E-05-2.88865E-05-2.85463E-05-1.11474E-06 1.58158E-19 3.61337E-19
 -1       959 9.59012E-05-2.93273E-05-2.85317E-05-1.38072E-06 3.60410E-19 1.80850E-19
 -1       960 9.66014E-05-3.00463E-05-2.85236E-05-1.66306E-06-4.18935E-19 8.64948E-20
 -1       961 9.77059E-05-3.11180E-05-2.85377E-05-1.89775E-06-8.07115E-19 1.87745E-18
 -1       962 9.93291E-05-3.25913E-05-2.86020E-05-1.96306E-06-5.14563E-20 1.75033E-18
 -1       963 1.01546E-04-3.44341E-05-2.87628E-05-1.65968E-06-8.26208E-20 1.38624E-18
 -1       964 1.04321E-04-3.64491E-05-2.90891E-05-7.11607E-07-8.80842E-19 4.41669E-19
 -1       965 1.07384E-04-3.81539E-05-2.96722E-05 1.18114E-06-7.32513E-19 8.96048E-19
 -1       966 1.10133E-04-3.87055E-05-3.06137E-05 4.15728E-06-1.34075E-18 1.99615E-18
 -1       967 1.11512E-04-3.69908E-05-3.19361E-05 7.67535E-06-2.50457E-19 2.05987E-18
 -1       968 1.10694E-04-3.19733E-05-3.37318E-05 1.07473E-05-4.48262E-19 1.77360E-18
 -1       969 1.07623E-04-2.46558E-05-3.55931E-05 1.10395E-05 1.43459E-18 2.15549E-18
 -1       970 1.04238E-04-1.80669E-05-3.69404E-05 6.75705E-06 2.31145E-18 1.10574E-18
 -1       971 1.02637E-04-1.54641E-05-3.73885E-05-5.98444E-07 3.13652E-18 1.50245E-18
 -1       972 1.04448E-04-1.88133E-05-3.67186E-05-7.67323E-06 5.30430E-20 1.26228E-18
 -1       973 1.08272E-04-2.59760E-05-3.52937E-05-1.10409E-05 2.80808E-19 1.39722E-18
 -1       974 1.11139E-04-3.31021E-05-3.34511E-05-1.02445E-05-1.73088E-18 1.37595E-19
 -1       975 1.11608E-04-3.75161E-05-3.17568E-05-7.03080E-06-2.60178E-20 7.81677E-19
 -1       976 1.09956E-04-3.88774E-05-3.04605E-05-3.41644E-06-9.81217E-19 7.59649E-19
 -1       977 1.07142E-04-3.80834E-05-2.95962E-05-5.72840E-07-1.18757E-18-8.50326E-19
 -1       978 1.04125E-04-3.62696E-05-2.90789E-05 1.21390E-06 9.99047E-19 8.19788E-19
 -1       979 1.01563E-04-3.43121E-05-2.88246E-05 2.00522E-06 2.85671E-18 1.64235E-18
 -1       980 9.66328E-05-2.84027E-05-2.92415E-05-4.61353E-07 1.20215E-19-4.68327E-20
 -1       981 9.45261E-05-2.22502E-05-3.09751E-05-3.99240E-07 2.54812E-19-1.17498E-18
 -1       982 1.19322E-04-3.72219E-05-3.52353E-05 9.88909E-06-8.04061E-19-7.42068E-19
 -1       983 9.30176E-05-2.81752E-05-2.77847E-05 1.01949E-05 2.73487E-19-2.97818E-18
 -1       984 9.46967E-05-2.27170E-05-3.08446E-05 1.93881E-06 7.95441E-19-6.78231E-19
 -1       985 9.45263E-05-2.22924E-05-3.09545E-05-1.10621E-06 2.39529E-19-1.05074E-18
 -1       986 7.65439E-05-1.78321E-05-2.51168E-05 1.43744E-05-1.33248E-18 5.50683E-18
 -1       987 1.18153E-04-4.84749E-05-2.98496E-05-1.31856E-05-8.82166E-19-7.90594E-19
 -1       988 8.15649E-05-1.84784E-05-2.70393E-05 5.33528E-06 2.57556E-18 3.59208E-19
 -1       989 1.01729E-04-3.47539E-05-2.87020E-05 5.29350E-06 1.27380E-18-1.38141E-18
 -1       990 9.42617E-05-3.32089E-05-2.61368E-05 2.24764E-05-2.53559E-19-4.08794E-18
 -1       991 8.06120E-05-2.20283E-05-2.50700E-05-1.90712E-05-1.56196E-18-5.95056E-19
 -1       992 1.20752E-04-4.73988E-05-3.14440E-05-4.63962E-06-8.42713E-19-2.57959E-18
 -1       993 9.65933E-05-2.88460E-05-2.90345E-05-6.34169E-07 1.09035E-19-1.33938E-20
 -1       994 9.55599E-05-2.43376E-05-3.05235E-05 1.23593E-08 1.75048E-19-9.44623E-19
 -1       995 7.87447E-05-1.80701E-05-2.60195E-05 1.03225E-05-1.76181E-18 5.09277E-18
 -1       996 1.17930E-04-3.51348E-05-3.55266E-05-1.06193E-05-4.69086E-20 4.46798E-19
 -1       997 9.64782E-05-2.90873E-05-2.88818E-05-7.04601E-07 2.07484E-19-5.13940E-20
 -1       998 1.12831E-04-4.65599E-05-2.83782E-05 1.91843E-05-1.04939E-18-4.26587E-18
 -1       999 1.22380E-04-4.68835E-05-3.23830E-05 1.15067E-06-2.09869E-18-3.65234E-19
 -1      1000 9.76186E-05-3.17479E-05-2.82245E-05 8.91025E-06 8.66644E-19-3.71841E-18
 -1      1001 8.45967E-05-2.10489E-05-2.72246E-05 7.77490E-06 5.63581E-19 4.75940E-18
 -1      1002 9.45018E-05-3.38788E-05-2.59533E-05-2.37817E-05-9.61279E-19 1.06371E-18
 -1      1003 1.09026E-04-1.86736E-05-3.88011E-05 9.75578E-06 2.39617E-18 1.54633E-18
 -1      1004 9.56086E-05-2.44936E-05-3.04795E-05 4.92730E-07 5.85995E-19-7.29968E-19
 -1      1005 9.65494E-05-2.76810E-05-2.95144E-05-1.41274E-07 6.30442E-19-3.96828E-19
 -1      1006 9.53521E-05-2.42152E-05-3.04880E-05 1.42933E-06 7.10191E-19-5.75216E-19
 -1      1007 9.61341E-05-2.60499E-05-3.00356E-05 5.79605E-07 4.57580E-19-5.19591E-19
 -1      1008 1.10553E-04-2.05596E-05-3.86540E-05-1.07034E-05-4.62103E-19 2.80619E-18
 -1      1009 9.58454E-05-2.90502E-05-2.86265E-05-3.76969E-07-7.57109E-20 5.61088E-19
 -1      1010 9.67186E-05-2.75719E-05-2.96341E-05 7.31338E-08 1.71695E-19-8.31271E-19
 -1      1011 9.68625E-05-2.83883E-05-2.93460E-05 2.68340E-07-2.79420E-19-6.27714E-19
 -1      1012 9.68458E-05-2.88909E-05-2.91236E-05 3.78639E-07-4.54884E-19-5.26811E-19
 -1      1013 9.67291E-05-2.91644E-05-2.89563E-05 4.27203E-07-4.29621E-19-5.62113E-19
 -1      1014 9.65563E-05-2.92783E-05-2.88334E-05 4.34322E-07-3.60561E-19-2.88962E-19
 -1      1015 9.63565E-05-2.92827E-05-2.87459E-05 4.16884E-07-3.38122E-19-1.14554E-19
 -1      1016 9.61476E-05-2.92135E-05-2.86860E-05 3.86967E-07-1.38781E-20 4.78141E-19
 -1      1017 9.59383E-05-2.90946E-05-2.86473E-05 3.52468E-07-1.96399E-19-4.93549E-20
 -1      1018 9.57310E-05-2.89407E-05-2.86244E-05 3.17460E-07-3.51535E-19-1.25387E-19
 -1      1019 9.55221E-05-2.87590E-05-2.86127E-05 2.82188E-07-1.82011E-19-4.16701E-19
 -1      1020 9.53035E-05-2.85507E-05-2.86084E-05 2.42497E-07-1.66986E-19-1.78845E-19
 -1      1021 9.50630E-05-2.83121E-05-2.86076E-05 1.88499E-07 2.72277E-19 5.96409E-19
 -1      1022 9.47839E-05-2.80360E-05-2.86063E-05 1.02515E-07 8.39783E-20 7.82000E-19
 -1      1023 9.44262E-05-2.76954E-05-2.85989E-05-5.59309E-08-9.70035E-20 1.69129E-19
 -1      1024 9.39987E-05-2.73139E-05-2.85792E-05-3.22050E-07 1.23582E-19 1.31780E-19
 -1      1025 9.34623E-05-2.68749E-05-2.85375E-05-7.74619E-07 4.47990E-19-1.69249E-19
 -1      1026 9.27999E-05-2.63936E-05-2.84598E-05-1.52335E-06 7.60735E-19-5.77000E-19
 -1      1027 9.20175E-05-2.59216E-05-2.83266E-05-2.72310E-06-1.22046E-19-8.18882E-19
 -1      1028 9.11771E-05-2.55797E-05-2.81123E-05-4.58597E-06-4.73441E-19-6.08313E-19
 -1      1029 9.04437E-05-2.56034E-05-2.77870E-05-7.37872E-06-4.25639E-19-4.24918E-19
 -1      1030 9.01973E-05-2.64320E-05-2.73248E-05-1.13423E-05-6.31447E-19-3.22717E-19
 -1      1031 9.64460E-05-2.92799E-05-2.87855E-05-4.62649E-07 1.17907E-19-4.08849E-19
 -1      1032 9.56600E-05-2.89123E-05-2.86062E-05-3.61922E-07-1.63394E-19 1.36547E-18
 -1      1033 9.04316E-05-2.73701E-05-2.70259E-05 1.43749E-05 4.72288E-19-2.38149E-18
 -1      1034 9.54878E-05-2.87680E-05-2.85942E-05-3.67859E-07-4.22571E-19 1.31296E-18
 -1      1035 9.53312E-05-2.86287E-05-2.85868E-05-4.03875E-07-3.89931E-19 1.14909E-18
 -1      1036 9.51958E-05-2.85075E-05-2.85807E-05-4.81124E-07-2.76373E-19 7.28367E-19
 -1      1037 9.50929E-05-2.84229E-05-2.85728E-05-6.13864E-07 1.89637E-20-2.62060E-19
 -1      1038 9.50438E-05-2.84021E-05-2.85607E-05-8.19897E-07-7.95775E-19-1.03877E-18
 -1      1039 9.50855E-05-2.84861E-05-2.85426E-05-1.12000E-06-7.72918E-19-1.22547E-18
 -1      1040 9.52775E-05-2.87343E-05-2.85184E-05-1.53471E-06 3.48398E-19-8.83809E-19
 -1      1041 9.57096E-05-2.92291E-05-2.84915E-05-2.07660E-06-3.66935E-20-1.33493E-19
 -1      1042 9.65098E-05-3.00763E-05-2.84713E-05-2.73475E-06-1.30748E-18-3.61638E-19
 -1      1043 9.78457E-05-3.13961E-05-2.84781E-05-3.44957E-06-6.88476E-19-1.29781E-18
 -1      1044 9.99139E-05-3.32940E-05-2.85509E-05-4.06558E-06-1.27262E-19-6.39872E-19
 -1      1045 1.02898E-04-3.57914E-05-2.87593E-05-4.28372E-06-4.21422E-19 6.67499E-19
 -1      1046 1.06831E-04-3.86626E-05-2.92160E-05-3.62820E-06-4.35885E-19-1.79723E-19
 -1      1047 1.11449E-04-4.12628E-05-3.00735E-05-1.52592E-06-1.61961E-18-1.33652E-18
 -1      1048 1.15759E-04-4.23184E-05-3.14683E-05 2.41641E-06-1.13783E-18-1.55670E-18
 -1      1049 1.15376E-04-4.23927E-05-3.12787E-05-1.57624E-06-1.11180E-18 3.73169E-19
 -1      1050 1.11002E-04-4.11286E-05-2.99421E-05 2.16882E-06-1.76169E-20 2.05242E-19
 -1      1051 1.06510E-04-3.84138E-05-2.91821E-05 4.05528E-06 4.88287E-19-4.41205E-19
 -1      1052 9.63435E-05-2.63479E-05-2.99982E-05-2.44097E-07-3.14884E-20-7.25389E-19
 -1      1053 1.07183E-04-4.16101E-05-2.80868E-05-1.69704E-05-9.87215E-19-2.28628E-18
 -1      1054 9.55186E-05-2.42759E-05-3.05327E-05-4.30604E-07 1.33155E-19-1.25522E-18
 -1      1055 1.03151E-04-3.89532E-05-2.75312E-05 1.85443E-05-8.10620E-19-4.11100E-18
 -1      1056 9.03549E-05-2.80976E-05-2.66711E-05-1.64528E-05-4.05832E-19 4.26066E-19
 -1      1057 1.16611E-04-3.96826E-05-3.29860E-05-6.82829E-06-1.43842E-18-2.42096E-19
 -1      1058 9.75489E-05-3.27065E-05-2.78073E-05 1.27785E-05 2.23399E-18-4.51704E-18
 -1      1059 9.60416E-05-2.91693E-05-2.86596E-05-4.04776E-07 1.68302E-19 8.54822E-20
 -1      1060 9.66311E-05-2.92167E-05-2.88919E-05-4.69401E-07 1.02299E-19-2.41347E-19
 -1      1061 9.62446E-05-2.92535E-05-2.87105E-05-4.36744E-07 3.07217E-19-3.57705E-19
 -1      1062 1.13969E-04-4.43657E-05-2.98290E-05-7.65140E-06-5.79066E-19-1.28930E-18
 -1      1063 1.03661E-04-3.69865E-05-2.85803E-05 9.15285E-06 1.23238E-18-1.09083E-19
 -1      1064 9.68431E-05-2.86289E-05-2.92347E-05-3.52395E-07 7.39910E-20-4.73657E-20
 -1      1065 1.17412E-04-4.69675E-05-3.02090E-05 9.34741E-06-3.17543E-19-1.96378E-18
 -1      1066 9.67809E-05-2.79663E-05-2.94921E-05-1.78419E-07 1.59285E-19-2.10950E-19
 -1      1067 9.62694E-05-2.60006E-05-3.01161E-05 1.05968E-07 2.60879E-19-5.27809E-19
 -1      1068 9.62080E-05-2.58460E-05-3.01544E-05-7.87624E-08 1.31018E-19-1.06788E-18
 -1      1069 9.96858E-05-3.49630E-05-2.77404E-05-1.42926E-05 5.49815E-20-2.71235E-18
 -1      1070 9.66605E-05-3.16569E-05-2.78653E-05-1.08806E-05-3.11839E-19-2.34516E-18
 -1      1071 9.69726E-05-2.86538E-05-2.92797E-05 1.25265E-07 3.51058E-20-8.77791E-19
 -1      1072 9.69093E-05-2.90628E-05-2.90771E-05 1.58702E-07 3.72740E-20-4.09448E-19
 -1      1073 9.67583E-05-2.92670E-05-2.89248E-05 1.70777E-07-2.78045E-19 1.70409E-20
 -1      1074 9.65599E-05-2.93292E-05-2.88132E-05 1.69485E-07-2.53682E-19 1.67204E-19
 -1      1075 9.63404E-05-2.92951E-05-2.87337E-05 1.59953E-07-1.02743E-19 5.73995E-19
 -1      1076 9.61152E-05-2.91968E-05-2.86793E-05 1.45274E-07-9.02680E-20 2.93512E-19
 -1      1077 9.58918E-05-2.90561E-05-2.86439E-05 1.26311E-07-4.53565E-19-1.27130E-19
 -1      1078 9.56714E-05-2.88864E-05-2.86222E-05 1.01341E-07-5.43307E-19 1.08917E-19
 -1      1079 9.54512E-05-2.86951E-05-2.86098E-05 6.53158E-08-1.08274E-19 1.45071E-19
 -1      1080 9.52249E-05-2.84854E-05-2.86026E-05 8.59548E-09 5.45727E-19 7.96151E-20
 -1      1081 9.49846E-05-2.82588E-05-2.85968E-05-8.48812E-08 2.99275E-19-1.06058E-19
 -1      1082 9.47087E-05-2.80050E-05-2.85874E-05-2.50908E-07-3.15741E-19-1.98625E-19
 -1      1083 9.44173E-05-2.77539E-05-2.85702E-05-5.14925E-07 5.56823E-19-1.57893E-19
 -1      1084 9.41000E-05-2.75103E-05-2.85387E-05-9.39715E-07 4.20915E-19 7.35292E-20
 -1      1085 9.37745E-05-2.73096E-05-2.84853E-05-1.60567E-06-2.84744E-19-4.39510E-19
 -1      1086 9.34896E-05-2.72213E-05-2.84011E-05-2.61814E-06-1.52828E-19-1.27716E-18
 -1      1087 9.33481E-05-2.73696E-05-2.82769E-05-4.10393E-06-1.87810E-19-1.26078E-18
 -1      1088 9.35545E-05-2.79772E-05-2.81069E-05-6.19351E-06 4.79586E-20-1.00204E-18
 -1      1089 9.45833E-05-2.93469E-05-2.79644E-05-8.40980E-06-4.65475E-19-1.29448E-18
 -1      1090 9.53987E-05-2.86684E-05-2.85987E-05-2.22619E-07-1.64428E-19 6.75305E-19
 -1      1091 9.67757E-05-2.90197E-05-2.90384E-05-4.39926E-07 2.95018E-19-1.45261E-19
 -1      1092 9.52089E-05-2.84978E-05-2.85904E-05-2.92499E-07-3.21874E-19 2.01515E-19
 -1      1093 9.55968E-05-2.88395E-05-2.86103E-05-1.87898E-07-1.63826E-19 5.20676E-19
 -1      1094 9.50299E-05-2.83388E-05-2.85818E-05-4.14817E-07 1.59278E-19-2.86660E-20
 -1      1095 9.48705E-05-2.82083E-05-2.85694E-05-6.13877E-07 2.03227E-19 3.50698E-19
 -1      1096 9.47495E-05-2.81330E-05-2.85498E-05-9.22573E-07 3.46258E-19-5.52887E-19
 -1      1097 9.47046E-05-2.81575E-05-2.85199E-05-1.38291E-06-3.39315E-19-1.73672E-18
 -1      1098 9.48016E-05-2.83516E-05-2.84782E-05-2.04372E-06-6.25912E-20-7.53326E-19
 -1      1099 9.51493E-05-2.88205E-05-2.84262E-05-2.95224E-06-3.02572E-19-6.94913E-19
 -1      1100 9.59187E-05-2.97143E-05-2.83726E-05-4.13309E-06-3.34036E-19-8.25568E-19
 -1      1101 9.73433E-05-3.12157E-05-2.83377E-05-5.55843E-06-6.38398E-19-1.60229E-18
 -1      1102 9.97442E-05-3.35382E-05-2.83698E-05-7.06216E-06-8.99543E-19-8.88931E-19
 -1      1103 1.03527E-04-3.68698E-05-2.85720E-05-8.23631E-06-1.73580E-19-1.13363E-18
 -1      1104 1.14776E-04-4.45961E-05-3.00515E-05 6.62853E-06 4.93165E-20-1.36179E-18
 -1      1105 9.67228E-05-2.72603E-05-2.97698E-05-2.89087E-09-1.77632E-20-1.07882E-18
 -1      1106 1.08928E-04-4.10713E-05-2.90727E-05 8.94246E-06-6.52305E-19 5.78302E-19
 -1      1107 9.69211E-05-2.80874E-05-2.95007E-05 5.95791E-08 4.13837E-20-1.28492E-18
 -1      1108 9.65403E-05-2.69237E-05-2.98356E-05 1.12274E-07 2.44897E-19-6.67777E-19
 -1      1109 9.99195E-05-3.54251E-05-2.76499E-05 1.56357E-05 4.31189E-19-5.43337E-18
 -1      1110 9.58031E-05-2.90022E-05-2.86289E-05-1.76210E-07-4.95657E-19 2.15147E-19
 -1      1111 1.07979E-04-4.04952E-05-2.89297E-05-9.20138E-06 4.87424E-19-1.26806E-18
 -1      1112 9.60177E-05-2.91466E-05-2.86590E-05-1.78833E-07-2.96590E-19-2.33610E-20
 -1      1113 9.66679E-05-2.93019E-05-2.88711E-05-2.07514E-07 7.75893E-20-3.92194E-19
 -1      1114 9.69370E-05-2.82886E-05-2.94205E-05-1.16996E-07 1.26146E-19-2.61158E-19
 -1      1115 9.69483E-05-2.88496E-05-2.91851E-05-1.75718E-07 3.50742E-19-5.67125E-19
 -1      1116 9.67481E-05-2.73772E-05-2.97296E-05-1.00531E-08-1.77101E-19-2.47504E-19
 -1      1117 9.64595E-05-2.93205E-05-2.87738E-05-2.00652E-07 1.19907E-19-1.29519E-19
 -1      1118 9.62385E-05-2.92593E-05-2.87054E-05-1.88992E-07 1.49893E-20-4.80402E-19
 -1      1119 9.68421E-05-2.91632E-05-2.90051E-05-2.02221E-07 2.50353E-19-4.77994E-19
 -1      1120 1.16855E-04 2.57572E-10-4.18555E-05-4.14633E-05-2.50298E-19 5.28972E-18
 -1      1121 8.86513E-05 7.19277E-11-3.72516E-05-2.41645E-05-1.12761E-19-2.31664E-19
 -1      1122 8.40775E-05 4.14392E-11-3.57673E-05-1.78753E-05-7.03037E-20-2.32620E-18
 -1      1123 8.23353E-05 3.20352E-11-3.50730E-05-1.38347E-05-4.13723E-20-3.13529E-18
 -1      1124 8.15336E-05 2.73346E-11-3.47385E-05-1.05298E-05-1.42407E-20-3.47897E-18
 -1      1125 8.11289E-05 2.46002E-11-3.45730E-05-7.63746E-06-7.95417E-21-3.54584E-18
 -1      1126 8.09194E-05 2.29438E-11-3.44896E-05-4.97753E-06-2.54441E-21-3.50325E-18
 -1      1127 8.08173E-05 2.20484E-11-3.44502E-05-2.43096E-06 1.05648E-20-3.30424E-18
 -1      1128 8.07882E-05 2.17775E-11-3.44392E-05 5.25518E-08 2.25580E-20-3.11125E-18
 -1      1129 8.08217E-05 2.20926E-11-3.44517E-05 2.53859E-06 3.39905E-20-2.92745E-18
 -1      1130 8.09284E-05 2.30443E-11-3.44925E-05 5.09352E-06 4.01150E-20-2.62445E-18
 -1      1131 8.11445E-05 2.47617E-11-3.45773E-05 7.76977E-06 5.40910E-20-2.17880E-18
 -1      1132 8.15538E-05 2.76339E-11-3.47448E-05 1.06896E-05 6.37128E-20-1.50347E-18
 -1      1133 8.23605E-05 3.25088E-11-3.50827E-05 1.40390E-05 7.88535E-20-4.85085E-19
 -1      1134 8.40757E-05 4.19180E-11-3.57868E-05 1.81275E-05 9.04208E-20 1.34125E-18
 -1      1135 8.83478E-05 6.67485E-11-3.73222E-05 2.40077E-05 8.06799E-20 4.46929E-18
 -1      1136 1.06620E-04 1.63932E-10-4.06350E-05 3.61897E-05 1.08208E-19 1.01938E-17
 -1      1137 1.30222E-04-2.57571E-05-4.02740E-05-2.61046E-05-9.27078E-19 8.63635E-18
 -1      1138 9.74600E-05-2.88635E-05-3.15786E-05-6.80330E-07-3.19146E-19 6.50542E-18
 -1      1139 9.01637E-05-2.70279E-05-2.78944E-05 3.87109E-07-1.24964E-19 3.71851E-18
 -1      1140 8.82545E-05-2.65740E-05-2.66452E-05 2.50916E-07-1.13234E-19 1.73591E-18
 -1      1141 8.78979E-05-2.64479E-05-2.63894E-05 1.65902E-07-5.58893E-20 4.10573E-19
 -1      1142 8.82590E-05-2.65251E-05-2.64750E-05 1.18074E-07-5.02512E-20-1.34016E-19
 -1      1143 8.89476E-05-2.67102E-05-2.66785E-05 8.74982E-08-1.36146E-20-5.11648E-19
 -1      1144 8.97651E-05-2.69429E-05-2.69219E-05 6.62959E-08 4.83251E-20-9.81354E-19
 -1      1145 9.06013E-05-2.71866E-05-2.71712E-05 5.06136E-08-2.74470E-20-1.61509E-18
 -1      1146 9.13945E-05-2.74203E-05-2.74083E-05 3.85426E-08-7.92912E-20-2.59950E-18
 -1      1147 9.21117E-05-2.76331E-05-2.76235E-05 2.90634E-08-3.86000E-20-4.06946E-18
 -1      1148 9.27387E-05-2.78199E-05-2.78121E-05 2.15648E-08 6.64699E-20-3.59386E-18
 -1      1149 9.32730E-05-2.79796E-05-2.79734E-05 1.56307E-08 3.97091E-20-4.08747E-18
 -1      1150 9.37201E-05-2.81137E-05-2.81087E-05 1.09471E-08 3.99189E-20-3.88284E-18
 -1      1151 9.40901E-05-2.82250E-05-2.82211E-05 7.26135E-09-5.37951E-20-4.10722E-18
 -1      1152 9.43965E-05-2.83175E-05-2.83144E-05 4.36352E-09-4.87100E-20-4.75132E-18
 -1      1153 9.46552E-05-2.83959E-05-2.83936E-05 2.07997E-09-7.72380E-21-4.61205E-18
 -1      1154 9.48845E-05-2.84658E-05-2.84641E-05 2.75132E-10-1.62996E-19-4.72559E-18
 -1      1155 9.51063E-05-2.85339E-05-2.85328E-05-1.13601E-09-5.99848E-20-5.14485E-18
 -1      1156 9.53482E-05-2.86085E-05-2.86082E-05-2.15688E-09 4.82135E-20-4.65809E-18
 -1      1157 9.56477E-05-2.87012E-05-2.87022E-05-2.64183E-09-1.87931E-20-4.81733E-18
 -1      1158 9.60588E-05-2.88285E-05-2.88320E-05-2.15738E-09-8.09140E-20-3.62349E-18
 -1      1159 9.66633E-05-2.90157E-05-2.90239E-05 2.66737E-10-2.09045E-20-3.40870E-18
 -1      1160 9.75900E-05-2.93030E-05-2.93192E-05 6.27110E-09-5.87778E-20-3.26858E-18
 -1      1161 9.90913E-05-2.97630E-05-2.98006E-05 1.91068E-08-4.48266E-20-2.54515E-18
 -1      1162 1.01495E-04-3.04998E-05-3.05734E-05 5.68463E-08-1.20355E-19-3.09123E-18
 -1      1163 1.05264E-04-3.16466E-05-3.17901E-05 1.26310E-07 3.14931E-19-3.71376E-18
 -1      1164 1.11269E-04-3.34617E-05-3.37250E-05 2.64839E-07 1.26486E-19-4.32998E-18
 -1      1165 1.20710E-04-3.63014E-05-3.67270E-05 5.26740E-07-7.12566E-20-4.17958E-18
 -1      1166 1.35068E-04-4.06170E-05-4.11296E-05 9.75079E-07 7.25404E-20-3.44594E-18
 -1      1167 1.55346E-04-4.67502E-05-4.68856E-05 1.57849E-06 7.27290E-20-3.09612E-18
 -1      1168 1.79547E-04-5.41363E-05-5.28361E-05 1.86503E-06 2.50993E-19-1.74722E-18
 -1      1169 1.97370E-04-5.95285E-05-5.60896E-05 1.96351E-07-6.04040E-20-1.66590E-18
 -1      1170 1.88833E-04-5.64156E-05-5.35602E-05-4.96409E-06-8.70194E-20-1.19559E-18
 -1      1171 1.45562E-04-4.17540E-05-4.62189E-05-9.84466E-06-4.98955E-19-1.80333E-18
 -1      1172 9.25170E-05-2.48288E-05-3.85560E-05-6.92956E-06-5.56924E-19-7.09390E-18
 -1      1173 7.90066E-05-2.04539E-05-3.69308E-05 2.87748E-06-4.36434E-19-1.40739E-17
 -1      1174 1.18890E-04-3.33280E-05-4.21495E-05 7.24796E-06-9.63500E-20-1.73701E-17
 -1      1175 1.68373E-04-4.97326E-05-4.96353E-05 5.42026E-06 5.91639E-19-1.31214E-17
 -1      1176 1.95686E-04-5.90216E-05-5.50481E-05 2.04553E-06-4.10017E-19-6.53486E-18
 -1      1177 1.93008E-04-5.86479E-05-5.53755E-05-5.09187E-07 4.96308E-20-5.49206E-18
 -1      1178 1.71138E-04-5.16547E-05-5.08561E-05-1.22954E-06 2.89323E-19-3.05694E-18
 -1      1179 1.47554E-04-4.43064E-05-4.47133E-05-1.00381E-06-8.81642E-20-2.97224E-18
 -1      1180 1.29072E-04-3.86911E-05-3.92995E-05-6.42200E-07 4.22127E-20-1.11078E-18
 -1      1181 1.16265E-04-3.48577E-05-3.53181E-05-3.72163E-07-1.48737E-19-3.90694E-20
 -1      1182 1.07834E-04-3.23465E-05-3.26312E-05-2.08470E-07 1.47543E-19-2.57694E-18
 -1      1183 1.02373E-04-3.07186E-05-3.08832E-05-1.18170E-07-2.58428E-19-3.11311E-18
 -1      1184 9.88477E-05-2.96639E-05-2.97649E-05-7.02350E-08 3.85304E-19 2.62474E-19
 -1      1185 9.66251E-05-2.89958E-05-2.90731E-05-4.05846E-08-3.32160E-19-9.86433E-19
 -1      1186 9.54060E-05-2.86274E-05-2.86887E-05-6.25829E-09 2.92551E-19-4.27719E-18
 -1      1187 9.51480E-05-2.86022E-05-2.84957E-05 7.71448E-08 5.59853E-19-4.74438E-18
 -1      1188 1.31056E-04-3.77386E-05-3.86604E-05 1.21738E-05-1.67792E-19 1.46139E-17
 -1      1189 9.65617E-05-2.81920E-05-3.13305E-05 8.01622E-07 5.69100E-20 1.27578E-17
 -1      1190 9.03746E-05-2.69354E-05-2.78716E-05 1.19557E-07 2.21618E-20 1.08750E-17
 -1      1191 8.83409E-05-2.65068E-05-2.66788E-05 7.25338E-09-2.38327E-20 9.71528E-18
 -1      1192 8.79408E-05-2.64162E-05-2.64163E-05-2.71541E-08 2.05554E-20 8.83609E-18
 -1      1193 8.82820E-05-2.65097E-05-2.64913E-05-3.48946E-08 5.86041E-20 7.45521E-18
 -1      1194 8.89619E-05-2.67041E-05-2.66891E-05-3.56460E-08 1.07075E-19 6.58331E-18
 -1      1195 8.97752E-05-2.69418E-05-2.69297E-05-3.36447E-08-3.93469E-20 6.48281E-18
 -1      1196 9.06097E-05-2.71884E-05-2.71777E-05-3.04476E-08 6.82941E-21 5.68353E-18
 -1      1197 9.14029E-05-2.74240E-05-2.74141E-05-2.66974E-08 9.04183E-20 4.99665E-18
 -1      1198 9.21218E-05-2.76383E-05-2.76292E-05-2.27803E-08 9.05325E-20 4.46694E-18
 -1      1199 9.27522E-05-2.78265E-05-2.78184E-05-1.89504E-08 3.37132E-20 4.22634E-18
 -1      1200 9.32920E-05-2.79879E-05-2.79810E-05-1.53723E-08 9.09237E-20 3.69546E-18
 -1      1201 9.37469E-05-2.81241E-05-2.81183E-05-1.21495E-08-7.47976E-20 2.94542E-18
 -1      1202 9.41269E-05-2.82380E-05-2.82334E-05-9.34830E-09-6.99482E-20 3.00668E-18
 -1      1203 9.44451E-05-2.83335E-05-2.83300E-05-7.01907E-09 5.17992E-20 2.14714E-18
 -1      1204 9.47154E-05-2.84146E-05-2.84123E-05-5.21584E-09 5.38746E-20 2.20166E-18
 -1      1205 9.49512E-05-2.84854E-05-2.84841E-05-4.01376E-09 1.43613E-20 2.67988E-18
 -1      1206 9.51648E-05-2.85493E-05-2.85491E-05-3.52282E-09-3.70631E-20 2.93111E-18
 -1      1207 9.53650E-05-2.86090E-05-2.86097E-05-3.89376E-09-2.07501E-20 2.62664E-18
 -1      1208 9.55554E-05-2.86654E-05-2.86667E-05-5.30867E-09 9.73724E-20 2.51466E-18
 -1      1209 9.57315E-05-2.87170E-05-2.87184E-05-7.94474E-09 1.13872E-19 2.40449E-18
 -1      1210 9.58760E-05-2.87585E-05-2.87590E-05-1.18955E-08-8.89055E-20 1.89526E-18
 -1      1211 9.59543E-05-2.87795E-05-2.87777E-05-1.70331E-08 4.24313E-19-4.12484E-19
 -1      1212 9.59093E-05-2.87628E-05-2.87565E-05-2.28048E-08-4.47033E-20 3.69593E-20
 -1      1213 9.56568E-05-2.86836E-05-2.86701E-05-2.79835E-08-5.67239E-20 2.62617E-18
 -1      1214 9.50862E-05-2.85092E-05-2.84857E-05-3.04544E-08 5.25524E-20 4.90720E-19
 -1      1215 9.40682E-05-2.82020E-05-2.81662E-05-2.72043E-08-1.06657E-20-3.94903E-19
 -1      1216 9.24757E-05-2.77249E-05-2.76767E-05-1.47681E-08-1.03642E-19-2.35316E-19
 -1      1217 9.02208E-05-2.70527E-05-2.69960E-05 9.62044E-09-1.01663E-19 2.78859E-19
 -1      1218 8.73048E-05-2.61863E-05-2.61300E-05 4.61926E-08-2.71340E-20-8.36524E-19
 -1      1219 8.38706E-05-2.51675E-05-2.51256E-05 9.06752E-08-1.60097E-19 1.20295E-18
 -1      1220 8.02338E-05-2.40886E-05-2.40769E-05 1.33480E-07-8.36886E-20 2.66731E-18
 -1      1221 7.68642E-05-2.30869E-05-2.31178E-05 1.61455E-07-1.84963E-19 4.07243E-18
 -1      1222 7.43003E-05-2.23211E-05-2.23965E-05 1.62620E-07 1.85123E-19 2.55668E-18
 -1      1223 7.30089E-05-2.19303E-05-2.20385E-05 1.32033E-07-1.70439E-19 1.50898E-18
 -1      1224 7.32393E-05-2.19910E-05-2.21092E-05 7.53079E-08 9.86413E-20-1.19524E-18
 -1      1225 7.49380E-05-2.24906E-05-2.25927E-05 6.99617E-09-5.56196E-21-5.88820E-20
 -1      1226 7.77665E-05-2.33306E-05-2.33971E-05-5.55341E-08 4.26883E-20 1.61561E-18
 -1      1227 8.12136E-05-2.43595E-05-2.43832E-05-9.90347E-08 1.13322E-19 1.12081E-18
 -1      1228 8.47475E-05-2.54175E-05-2.54036E-05-1.18309E-07-2.10943E-19 1.18055E-18
 -1      1229 8.79427E-05-2.63760E-05-2.63373E-05-1.15850E-07-1.49457E-19 1.64162E-18
 -1      1230 9.05439E-05-2.71575E-05-2.71083E-05-9.86549E-08 1.97853E-19 2.86191E-19
 -1      1231 9.24662E-05-2.77357E-05-2.76877E-05-7.46130E-08-1.58459E-19-1.54060E-18
 -1      1232 9.37551E-05-2.81238E-05-2.80843E-05-5.01371E-08-1.80832E-19 5.52983E-19
 -1      1233 9.45320E-05-2.83580E-05-2.83301E-05-2.93814E-08 3.40240E-19 8.19746E-19
 -1      1234 9.49469E-05-2.84833E-05-2.84667E-05-1.45334E-08 2.56225E-19-1.34187E-18
 -1      1235 9.51417E-05-2.85419E-05-2.85340E-05-6.34698E-09-1.50484E-20-2.29707E-18
 -1      1236 9.52228E-05-2.85657E-05-2.85629E-05-2.97553E-09 3.06899E-19-2.35926E-18
 -1      1237 9.52420E-05-2.85723E-05-2.85747E-05 2.21136E-09 9.58357E-20-2.52108E-18
 -1      1238 9.52348E-05-2.85663E-05-2.85741E-05 9.31993E-10-2.56200E-18-9.25917E-20
 -1      1239 9.52453E-05-2.85982E-05-2.85601E-05-4.90484E-09-3.26384E-18-6.73419E-19
 -1      1240 9.52639E-05-2.86708E-05-2.85443E-05-1.21506E-08-1.14986E-18-2.12107E-19
 -1      1241 9.52680E-05-2.87009E-05-2.85462E-05-1.12572E-08-5.13987E-18-6.87482E-19
 -1      1242 9.52264E-05-2.85719E-05-2.85951E-05-1.66031E-09-2.46202E-18-6.38173E-19
 -1      1243 9.51099E-05-2.81882E-05-2.87148E-05 1.40091E-08-3.64522E-20-9.06072E-19
 -1      1244 9.49081E-05-2.75073E-05-2.89155E-05 3.09914E-08-1.95688E-19 8.74123E-19
 -1      1245 9.46307E-05-2.65634E-05-2.91854E-05 4.52232E-08 3.21105E-19-5.76609E-19
 -1      1246 9.43210E-05-2.55020E-05-2.94821E-05 5.00124E-08 1.23968E-18-1.31008E-19
 -1      1247 9.40453E-05-2.45496E-05-2.97422E-05 4.02161E-08 5.07101E-19-1.36618E-19
 -1      1248 9.38795E-05-2.39704E-05-2.98942E-05 1.40247E-08 2.70784E-19-1.93625E-18
 -1      1249 9.38878E-05-2.39833E-05-2.98824E-05-2.48178E-08-3.97602E-18-1.25345E-18
 -1      1250 9.40894E-05-2.46675E-05-2.96907E-05-6.32697E-08-5.67445E-18-8.70459E-20
 -1      1251 9.44506E-05-2.59062E-05-2.93570E-05-8.75249E-08-3.05617E-18 3.88371E-19
 -1      1252 9.48635E-05-2.73250E-05-2.89808E-05-6.93902E-08-2.67411E-20 3.82281E-19
 -1      1253 9.51826E-05-2.84041E-05-2.86787E-05 1.81138E-08 8.35944E-18 6.27277E-19
 -1      1254 9.52101E-05-2.86679E-05-2.84911E-05 8.30563E-08 5.97934E-18-7.69063E-19
 -1      1255 3.70254E-05-1.14715E-04 2.02698E-05-1.36317E-05 1.96935E-18 8.71597E-19
 -1      1256 1.63723E-05-5.75647E-05 7.93891E-06-2.06980E-05 1.10606E-17 5.01444E-18
 -1      1257 1.06158E-05 4.26603E-06-1.13077E-05 1.44738E-05 1.48502E-17 9.30720E-18
 -1      1258 4.77476E-05 3.28300E-05-3.37740E-05 7.38377E-05 1.11063E-17 1.06946E-17
 -1      1259 1.36894E-04 9.82898E-06-5.60768E-05 1.20794E-04 3.64817E-18 4.00477E-18
 -1      1260 2.46730E-04-4.67002E-05-7.39110E-05 1.15091E-04-8.25434E-19-2.03288E-18
 -1      1261 3.23116E-04-9.28472E-05-8.38286E-05 5.12405E-05-1.43149E-19-3.96030E-18
 -1      1262 3.24972E-04-9.37459E-05-8.41814E-05-4.28643E-05 1.39220E-18-9.32499E-18
 -1      1263 2.47278E-04-4.73038E-05-7.38111E-05-1.14978E-04 4.82512E-18-1.37016E-17
 -1      1264 1.34348E-04 1.14273E-05-5.55768E-05-1.19462E-04 7.12439E-18-1.11198E-17
 -1      1265 4.62366E-05 3.30797E-05-3.30604E-05-7.19891E-05 8.23994E-18-8.08069E-18
 -1      1266 9.23496E-06 5.14043E-06-1.11012E-05-1.30807E-05 7.29973E-18-4.48589E-18
 -1      1267 1.51133E-05-5.38692E-05 7.03178E-06 2.00049E-05 4.88569E-18-1.36669E-18
 -1      1268 3.49338E-05-1.10496E-04 1.95151E-05 1.51842E-05 3.57448E-18-8.34486E-19
 -1      1269 4.12487E-05-1.30543E-04 2.37966E-05-1.54929E-05-2.97044E-18-6.78420E-19
 -1      1270 2.61795E-05-1.03367E-04 1.87004E-05-4.19464E-05-5.58449E-18-1.92001E-18
 -1      1271 6.09832E-06-4.41502E-05 3.86954E-06-3.27206E-05-7.82489E-18-4.72814E-18
 -1      1272 2.03282E-05 5.29063E-06-1.88425E-05 1.98440E-05-8.64990E-18-8.89046E-18
 -1      1273 1.05965E-04 6.61464E-06-4.65506E-05 8.97995E-05-7.31328E-18-1.06184E-17
 -1      1274 2.60456E-04-5.03871E-05-7.41195E-05 1.16903E-04-2.01679E-18-6.34936E-18
 -1      1275 3.93608E-04-1.14393E-04-9.19006E-05 6.10596E-05-7.61059E-19-1.50094E-18
 -1      1276 4.12006E-04-1.25871E-04-9.36955E-05-4.23295E-05-1.60312E-18 8.53894E-18
 -1      1277 3.08464E-04-7.30522E-05-8.13556E-05-1.14650E-04-4.64767E-18 1.45622E-17
 -1      1278 1.57156E-04-8.40045E-06-5.76831E-05-1.10340E-04-5.31767E-18 1.13824E-17
 -1      1279 4.82592E-05 1.38421E-05-3.12207E-05-5.27507E-05-2.24125E-18 2.33103E-18
 -1      1280 7.85311E-06-1.20735E-05-8.45905E-06 5.91045E-06-2.28868E-18 1.99730E-18
 -1      1281 6.97207E-06-5.98627E-05 8.99389E-06 4.09522E-05 1.32899E-18-2.13876E-19
 -1      1282 2.76143E-05-1.07932E-04 1.97774E-05 4.09853E-05 6.60940E-18-1.73917E-18
 -1      1283 4.08438E-05-1.30499E-04 2.39143E-05 1.71793E-05 3.62244E-18-1.57511E-18
 -1      1284 1.04445E-04-2.20201E-05-3.78926E-05-1.72739E-05-3.56177E-19 3.88873E-18
 -1      1285 9.03208E-05-6.68212E-06-3.60176E-05-2.04683E-05-7.84723E-19-1.20559E-18
 -1      1286 9.26580E-05-6.74112E-06-3.72225E-05-2.57569E-05-1.08844E-18-7.66035E-20
 -1      1287 8.59010E-05-4.09325E-06-3.51302E-05-1.64299E-05-7.36601E-19-2.68859E-18
 -1      1288 8.71552E-05-4.08852E-06-3.55999E-05-1.88495E-05-8.28292E-19-2.11454E-18
 -1      1289 9.21351E-05-1.04638E-05-3.50939E-05-1.90296E-05-1.33609E-18-1.01295E-18
 -1      1290 8.41001E-05-3.19220E-06-3.46868E-05-1.28165E-05-4.45301E-19-3.27241E-18
 -1      1291 8.47071E-05-3.16103E-06-3.49111E-05-1.46324E-05-5.86332E-19-3.00580E-18
 -1      1292 8.78677E-05-7.39156E-06-3.45742E-05-1.54144E-05-1.10220E-18-2.16406E-18
 -1      1293 8.31851E-05-2.72738E-06-3.44696E-05-9.68278E-06-2.38559E-19-3.53599E-18
 -1      1294 8.35015E-05-2.71091E-06-3.45792E-05-1.12301E-05-2.96726E-19-3.44373E-18
 -1      1295 8.58685E-05-5.98514E-06-3.43047E-05-1.19535E-05-6.20246E-19-2.75243E-18
 -1      1296 8.26912E-05-2.45642E-06-3.43631E-05-6.91289E-06-5.34789E-20-3.57428E-18
 -1      1297 8.28612E-05-2.44793E-06-3.44176E-05-8.28343E-06-1.16745E-19-3.56011E-18
 -1      1298 8.48186E-05-5.21552E-06-3.41724E-05-8.94112E-06-2.93934E-19-2.93558E-18
 -1      1299 8.24152E-05-2.29093E-06-3.43100E-05-4.29351E-06 7.51676E-20-3.43951E-18
 -1      1300 8.25066E-05-2.28698E-06-3.43374E-05-5.59444E-06 4.06576E-20-3.52663E-18
 -1      1301 8.42318E-05-4.76001E-06-3.41089E-05-6.21493E-06-2.46401E-20-2.97054E-18
 -1      1302 8.22823E-05-2.20144E-06-3.42876E-05-1.78930E-06 2.73201E-19-3.27204E-18
 -1      1303 8.23215E-05-2.19987E-06-3.42987E-05-3.03998E-06 1.99892E-19-3.35215E-18
 -1      1304 8.39087E-05-4.49618E-06-3.40797E-05-3.64348E-06 2.15075E-19-2.78679E-18
 -1      1305 8.22562E-05-2.17387E-06-3.42849E-05 6.69698E-07 4.19236E-19-3.11319E-18
 -1      1306 8.22548E-05-2.17392E-06-3.42845E-05-5.65792E-07 3.84357E-19-3.22399E-18
 -1      1307 8.37669E-05-4.37636E-06-3.40686E-05-1.17008E-06 5.43243E-19-2.72905E-18
 -1      1308 8.23301E-05-2.20419E-06-3.43002E-05 3.14750E-06 5.73766E-19-2.85598E-18
 -1      1309 8.22881E-05-2.20581E-06-3.42884E-05 1.89423E-06 5.22949E-19-3.00102E-18
 -1      1310 8.37719E-05-4.38057E-06-3.40690E-05 1.27340E-06 7.54997E-19-2.51031E-18
 -1      1311 8.25240E-05-2.29737E-06-3.43400E-05 5.71117E-06 7.16788E-19-2.56658E-18
 -1      1312 8.24291E-05-2.30075E-06-3.43120E-05 4.40429E-06 6.83671E-19-2.74706E-18
 -1      1313 8.39243E-05-4.50973E-06-3.40807E-05 3.75104E-06 1.03599E-18-2.29631E-18
 -1      1314 8.28842E-05-2.46318E-06-3.44205E-05 8.39249E-06 8.57250E-19-2.08976E-18
 -1      1315 8.27112E-05-2.47191E-06-3.43654E-05 7.01295E-06 8.07083E-19-2.36611E-18
 -1      1316 8.42576E-05-4.78319E-06-3.41100E-05 6.30903E-06 1.24405E-18-1.96337E-18
 -1      1317 8.35431E-05-2.74028E-06-3.45842E-05 1.13919E-05 1.06577E-18-1.36965E-18
 -1      1318 8.32212E-05-2.75743E-06-3.44733E-05 9.82736E-06 9.63262E-19-1.78568E-18
 -1      1319 8.48609E-05-5.25631E-06-3.41734E-05 9.05181E-06 1.49127E-18-1.45428E-18
 -1      1320 8.47694E-05-3.20557E-06-3.49190E-05 1.48397E-05 1.17753E-18-2.13664E-19
 -1      1321 8.41540E-05-3.24034E-06-3.46921E-05 1.29992E-05 1.09818E-18-9.03784E-19
 -1      1322 8.59454E-05-6.06180E-06-3.43063E-05 1.21181E-05 1.73138E-18-6.86970E-19
 -1      1323 8.72539E-05-4.08942E-06-3.56206E-05 1.90904E-05 1.21840E-18 1.69168E-18
 -1      1324 8.59747E-05-4.15470E-06-3.51373E-05 1.66933E-05 1.12981E-18 5.39719E-19
 -1      1325 8.79906E-05-7.51929E-06-3.45753E-05 1.56485E-05 1.86453E-18 5.92844E-19
 -1      1326 9.34703E-05-6.79393E-06-3.71187E-05 2.50928E-05 9.04525E-19 5.03228E-18
 -1      1327 9.01345E-05-6.43714E-06-3.60404E-05 2.11448E-05 9.14796E-19 3.05313E-18
 -1      1328 9.23586E-05-1.06960E-05-3.50791E-05 1.96759E-05 1.68650E-18 2.67917E-18
 -1      1329 1.23631E-04-2.49246E-05-3.90169E-05 2.83650E-05 3.08532E-19 1.05028E-17
 -1      1330 1.00086E-04-1.44249E-05-3.73563E-05 2.40481E-05 3.70895E-19 6.79606E-18
 -1      1331 1.01689E-04-1.93458E-05-3.54049E-05 2.13973E-05 1.41946E-18 5.63531E-18
 -1      1332 1.02610E-04-2.78067E-05-3.47601E-05 7.32705E-06 6.82920E-19 1.03522E-17
 -1      1333 1.05154E-04-3.02328E-05-3.35271E-05-7.95887E-06-9.07913E-19 4.30335E-18
 -1      1334 9.82680E-05-2.78452E-05-3.07641E-05-4.98795E-06-8.45762E-19 3.25160E-18
 -1      1335 9.55103E-05-2.78513E-05-2.92568E-05-2.48864E-06-6.97770E-19 2.81127E-18
 -1      1336 9.32793E-05-2.75608E-05-2.82178E-05-2.04181E-06-6.62433E-19 1.78936E-18
 -1      1337 9.94919E-05-2.80537E-05-3.09848E-05-7.88555E-06-1.49385E-18 1.34612E-18
 -1      1338 9.15906E-05-2.72033E-05-2.75837E-05-8.36760E-07-5.36847E-19 1.50788E-18
 -1      1339 9.08755E-05-2.71084E-05-2.72819E-05-7.26580E-07-4.25786E-19 8.12913E-19
 -1      1340 9.47268E-05-2.77725E-05-2.88189E-05-3.11799E-06-1.12502E-18 7.67637E-19
 -1      1341 9.01265E-05-2.69259E-05-2.70391E-05-1.72387E-07-2.89917E-19 4.21664E-19
 -1      1342 9.00554E-05-2.69531E-05-2.70047E-05-1.14310E-07-3.03512E-19-6.63597E-20
 -1      1343 9.25297E-05-2.75028E-05-2.78987E-05-1.05037E-06-7.68067E-19 2.35038E-19
 -1      1344 8.97974E-05-2.68861E-05-2.69309E-05 1.56072E-07-1.40512E-19-1.82959E-19
 -1      1345 9.00135E-05-2.69766E-05-2.69931E-05 1.84793E-07-1.91224E-19-3.34379E-19
 -1      1346 9.15737E-05-2.73598E-05-2.75327E-05-6.68430E-08-4.54145E-19-2.45825E-19
 -1      1347 9.00190E-05-2.69802E-05-2.70001E-05 3.16100E-07-1.02777E-19-4.58543E-19
 -1      1348 9.03632E-05-2.71004E-05-2.70997E-05 3.27879E-07-6.28839E-20-5.54271E-19
 -1      1349 9.13236E-05-2.73486E-05-2.74257E-05 4.20849E-07-3.39369E-19-3.91045E-19
 -1      1350 9.05070E-05-2.71427E-05-2.71475E-05 3.82688E-07-1.64828E-19-6.28088E-19
 -1      1351 9.08968E-05-2.72716E-05-2.72601E-05 3.84434E-07-2.28548E-19-9.26409E-19
 -1      1352 9.14599E-05-2.74233E-05-2.74490E-05 6.49631E-07-2.75157E-19-6.66337E-19
 -1      1353 9.11071E-05-2.73325E-05-2.73272E-05 3.95305E-07-2.39231E-19-1.06941E-18
 -1      1354 9.14968E-05-2.74579E-05-2.74401E-05 3.91188E-07-2.88687E-19-1.44526E-18
 -1      1355 9.17965E-05-2.75433E-05-2.75391E-05 7.32744E-07-5.54078E-19-8.68703E-19
 -1      1356 9.17307E-05-2.75254E-05-2.75139E-05 3.76986E-07-3.16949E-19-1.58214E-18
 -1      1357 9.20950E-05-2.76405E-05-2.76199E-05 3.69691E-07-4.31759E-19-2.08245E-18
 -1      1358 9.22229E-05-2.76818E-05-2.76605E-05 7.31904E-07-5.87190E-19-1.24474E-18
 -1      1359 9.23274E-05-2.77074E-05-2.76928E-05 3.42121E-07-4.13573E-19-2.11180E-18
 -1      1360 9.26535E-05-2.78092E-05-2.77881E-05 3.33414E-07-4.46107E-20-2.41985E-18
 -1      1361 9.26728E-05-2.78219E-05-2.77920E-05 6.84014E-07-5.34620E-19-1.00176E-18
 -1      1362 9.28703E-05-2.78714E-05-2.78559E-05 2.99994E-07 1.58227E-19-2.81913E-18
 -1      1363 9.31533E-05-2.79589E-05-2.79388E-05 2.91037E-07-1.28362E-19-2.88360E-18
 -1      1364 9.31075E-05-2.79540E-05-2.79211E-05 6.12373E-07-1.99583E-19-1.54557E-18
 -1      1365 9.33476E-05-2.80145E-05-2.79996E-05 2.56649E-07-2.81197E-19-2.92493E-18
 -1      1366 9.35877E-05-2.80881E-05-2.80701E-05 2.48194E-07-9.20013E-20-3.14114E-18
 -1      1367 9.35064E-05-2.80732E-05-2.80407E-05 5.32056E-07-1.88507E-19-2.27073E-18
 -1      1368 9.37576E-05-2.81367E-05-2.81232E-05 2.16011E-07 8.55538E-20-3.09109E-18
 -1      1369 9.39582E-05-2.81976E-05-2.81823E-05 2.08538E-07-3.55725E-20-3.02922E-18
 -1      1370 9.38603E-05-2.81774E-05-2.81478E-05 4.52879E-07-5.39454E-20-2.33864E-18
 -1      1371 9.41049E-05-2.82395E-05-2.82280E-05 1.80648E-07-1.71390E-20-3.06741E-18
 -1      1372 9.42716E-05-2.82896E-05-2.82774E-05 1.74470E-07-2.12011E-19-3.34645E-18
 -1      1373 9.41685E-05-2.82670E-05-2.82416E-05 3.81271E-07-1.67299E-19-2.33349E-18
 -1      1374 9.43985E-05-2.83258E-05-2.83169E-05 1.52348E-07-3.27072E-19-3.18646E-18
 -1      1375 9.45384E-05-2.83674E-05-2.83584E-05 1.47694E-07-1.58003E-19-3.43819E-18
 -1      1376 9.44351E-05-2.83436E-05-2.83235E-05 3.21588E-07-3.11139E-19-1.99402E-18
 -1      1377 9.46508E-05-2.83993E-05-2.83934E-05 1.32598E-07 4.19962E-20-3.46135E-18
 -1      1378 9.47722E-05-2.84350E-05-2.84296E-05 1.29699E-07-1.66150E-19-3.26778E-18
 -1      1379 9.46687E-05-2.84097E-05-2.83957E-05 2.77163E-07-2.10130E-19-2.08055E-18
 -1      1380 9.48769E-05-2.84646E-05-2.84622E-05 1.23071E-07-1.91701E-19-3.30757E-18
 -1      1381 9.49897E-05-2.84973E-05-2.84959E-05 1.22242E-07-3.59811E-19-3.41491E-18
 -1      1382 9.48806E-05-2.84686E-05-2.84619E-05 2.51260E-07-1.75880E-19-2.06222E-18
 -1      1383 9.50955E-05-2.85269E-05-2.85289E-05 1.26168E-07-6.29713E-20-3.41453E-18
 -1      1384 9.52120E-05-2.85602E-05-2.85639E-05 1.27924E-07 2.77294E-19-3.48990E-18
 -1      1385 9.50860E-05-2.85245E-05-2.85266E-05 2.48106E-07-1.85841E-19-2.36137E-18
 -1      1386 9.53301E-05-2.85929E-05-2.86008E-05 1.45753E-07 1.57373E-19-3.55971E-18
 -1      1387 9.54664E-05-2.86314E-05-2.86418E-05 1.50969E-07-1.55036E-19-3.50586E-18
 -1      1388 9.53041E-05-2.85825E-05-2.85962E-05 2.74166E-07 1.65822E-19-2.13070E-18
 -1      1389 9.56124E-05-2.86714E-05-2.86878E-05 1.88218E-07 7.86016E-20-3.69138E-18
 -1      1390 9.57912E-05-2.87215E-05-2.87415E-05 1.98367E-07 2.58775E-20-3.68778E-18
 -1      1391 9.55604E-05-2.86489E-05-2.86788E-05 3.39939E-07-9.82215E-20-2.41906E-18
 -1      1392 9.59867E-05-2.87743E-05-2.88036E-05 2.64108E-07 1.32073E-19-2.83959E-18
 -1      1393 9.62416E-05-2.88455E-05-2.88802E-05 2.81657E-07 1.65850E-19-2.60829E-18
 -1      1394 9.58901E-05-2.87322E-05-2.87861E-05 4.62640E-07 4.72774E-19-2.37782E-18
 -1      1395 9.65183E-05-2.89192E-05-2.89688E-05 3.90691E-07 4.45230E-20-2.69384E-18
 -1      1396 9.69009E-05-2.90262E-05-2.90839E-05 4.19767E-07-5.42192E-20-2.74660E-18
 -1      1397 9.63433E-05-2.88440E-05-2.89349E-05 6.70343E-07 1.25785E-19-1.71979E-18
 -1      1398 9.73051E-05-2.91312E-05-2.92146E-05 5.96051E-07 2.59672E-19-2.69557E-18
 -1      1399 9.78980E-05-2.92989E-05-2.93923E-05 6.42865E-07 3.68079E-19-2.19879E-18
 -1      1400 9.69931E-05-2.90011E-05-2.91498E-05 1.00814E-06 3.39695E-19-1.82840E-18
 -1      1401 9.85339E-05-2.94618E-05-2.96003E-05 9.38178E-07 2.90420E-19-2.08230E-18
 -1      1402 9.95231E-05-2.97400E-05-2.98988E-05 1.02294E-06-2.88898E-19-2.15710E-18
 -1      1403 9.79770E-05-2.92327E-05-2.94782E-05 1.56530E-06 5.59892E-19-2.01847E-18
 -1      1404 1.00444E-04-2.99720E-05-3.02035E-05 1.47887E-06-4.23851E-19-1.84656E-18
 -1      1405 1.01951E-04-3.03978E-05-3.06584E-05 1.60435E-06 1.51602E-19-1.97868E-18
 -1      1406 9.94492E-05-2.95734E-05-2.99722E-05 2.45819E-06-7.18655E-20-1.86773E-18
 -1      1407 1.03325E-04-3.07397E-05-3.11196E-05 2.31464E-06-8.42202E-20-2.64793E-18
 -1      1408 1.05712E-04-3.14185E-05-3.18414E-05 2.51594E-06-1.95671E-19-3.18020E-18
 -1      1409 1.01596E-04-3.00586E-05-3.06984E-05 3.82854E-06-5.28727E-19-1.77621E-18
 -1      1410 1.07746E-04-3.19174E-05-3.25326E-05 3.59787E-06-3.63893E-20-3.55178E-18
 -1      1411 1.11488E-04-3.29985E-05-3.36622E-05 3.91299E-06 5.09609E-20-3.27082E-18
 -1      1412 1.04773E-04-3.07728E-05-3.17757E-05 5.93134E-06-3.42095E-19-2.67958E-18
 -1      1413 1.14433E-04-3.37203E-05-3.46697E-05 5.48070E-06 2.33728E-20-2.99791E-18
 -1      1414 1.20154E-04-3.54214E-05-3.63749E-05 5.95059E-06 8.65032E-20-2.93682E-18
 -1      1415 1.09401E-04-3.18360E-05-3.33355E-05 9.03959E-06 2.78277E-19-2.18003E-18
 -1      1416 1.24259E-04-3.64642E-05-3.77608E-05 7.99160E-06 1.10167E-19-2.90786E-18
 -1      1417 1.32540E-04-3.90600E-05-4.01430E-05 8.61368E-06-1.45226E-19-3.01671E-18
 -1      1418 1.15977E-04-3.34763E-05-3.54835E-05 1.32919E-05-7.37183E-21-2.54052E-18
 -1      1419 1.37939E-04-4.05991E-05-4.18491E-05 1.06357E-05-1.17016E-19-2.76959E-18
 -1      1420 1.48623E-04-4.42740E-05-4.46888E-05 1.12069E-05 4.45486E-20-2.46772E-18
 -1      1421 1.24974E-04-3.61797E-05-3.81744E-05 1.81755E-05-5.40778E-20-2.65550E-18
 -1      1422 1.55143E-04-4.66258E-05-4.63949E-05 1.15345E-05 5.79781E-19-2.26105E-18
 -1      1423 1.65694E-04-5.08903E-05-4.87760E-05 1.13049E-05 4.29763E-19-1.79190E-18
 -1      1424 1.36672E-04-4.09311E-05-4.10206E-05 2.13549E-05 6.54293E-19-2.25864E-18
 -1      1425 1.72667E-04-5.43457E-05-4.99696E-05 6.62463E-06 4.47763E-19-1.14079E-18
 -1      1426 1.76277E-04-5.68838E-05-5.03337E-05 3.96378E-06 2.90426E-19-1.16636E-18
 -1      1427 1.50778E-04-4.89206E-05-4.33513E-05 1.72056E-05 8.45180E-19-1.80447E-18
 -1      1428 1.81319E-04-5.96164E-05-5.09648E-05-6.95421E-06-7.83505E-20-9.33007E-19
 -1      1429 1.70623E-04-5.63397E-05-4.88197E-05-1.11625E-05-6.44857E-19-1.36415E-18
 -1      1430 1.64726E-04-5.84743E-05-4.51946E-05-1.99223E-07 3.58454E-19-8.71557E-19
 -1      1431 1.72993E-04-5.56115E-05-5.00339E-05-2.26311E-05-7.22837E-19-1.05794E-18
 -1      1432 1.49900E-04-4.50258E-05-4.70914E-05-2.43174E-05-9.95687E-19-1.94055E-18
 -1      1433 1.74996E-04-6.22548E-05-4.86114E-05-2.51261E-05-7.10767E-19-1.82165E-19
 -1      1434 1.48503E-04-3.95887E-05-4.92229E-05-2.12907E-05-1.65298E-18-2.80749E-18
 -1      1435 1.30659E-04-2.98545E-05-4.75860E-05-1.50571E-05-2.67408E-18-5.16012E-18
 -1      1436 1.76859E-04-5.07287E-05-5.48303E-05-3.68896E-05-2.80749E-18 1.43572E-19
 -1      1437 1.32389E-04-3.53538E-05-4.55311E-05 2.14365E-05-5.28549E-19-1.09017E-17
 -1      1438 1.55043E-04-4.62637E-05-4.83011E-05 2.20960E-05 1.16361E-18-1.06125E-17
 -1      1439 1.58950E-04-4.94106E-05-4.79062E-05 1.85635E-05 2.08328E-18-1.01572E-17
 -1      1440 1.76602E-04-5.67702E-05-5.06475E-05 1.57669E-05 2.16983E-18-7.27940E-18
 -1      1441 1.69745E-04-5.33485E-05-5.05136E-05 3.48257E-05 2.58303E-18-5.16151E-18
 -1      1442 1.77362E-04-5.69013E-05-5.06396E-05 4.96733E-06 1.21925E-18-6.97870E-18
 -1      1443 1.83192E-04-5.83891E-05-5.19926E-05 1.49697E-06 6.40039E-19-5.14318E-18
 -1      1444 1.72436E-04-5.85508E-05-4.83310E-05 1.72185E-05 2.58824E-18-6.06375E-18
 -1      1445 1.77672E-04-5.55738E-05-5.13114E-05-6.46511E-06-1.72054E-20-4.15697E-18
 -1      1446 1.70352E-04-5.19581E-05-5.00566E-05-7.98589E-06 9.59556E-19-3.61535E-18
 -1      1447 1.65492E-04-5.45384E-05-4.69156E-05-5.80073E-06 1.20797E-18-3.57718E-18
 -1      1448 1.62784E-04-4.93737E-05-4.83313E-05-9.70029E-06 8.09314E-19-3.66437E-18
 -1      1449 1.51199E-04-4.49362E-05-4.55534E-05-9.70089E-06 3.60591E-19-2.08254E-18
 -1      1450 1.51441E-04-4.67073E-05-4.46345E-05-1.70591E-05 9.77185E-19-3.00474E-18
 -1      1451 1.44136E-04-4.29470E-05-4.34734E-05-8.48395E-06 1.98477E-19-1.97973E-18
 -1      1452 1.33829E-04-3.94761E-05-4.06551E-05-8.02518E-06 4.77521E-19-2.01933E-18
 -1      1453 1.36658E-04-4.04903E-05-4.12712E-05-1.74645E-05 3.95717E-19-2.44517E-18
 -1      1454 1.28182E-04-3.79896E-05-3.88173E-05-6.21499E-06 4.88195E-19-1.85416E-18
 -1      1455 1.20600E-04-3.56320E-05-3.66051E-05-5.75007E-06 2.22942E-20-8.11140E-19
 -1      1456 1.24102E-04-3.63341E-05-3.77602E-05-1.37568E-05 3.86154E-19-8.65482E-19
 -1      1457 1.16455E-04-3.45492E-05-3.52143E-05-4.22391E-06 4.19268E-19-8.72497E-19
 -1      1458 1.11317E-04-3.30249E-05-3.36716E-05-3.87301E-06 2.93351E-20-8.56827E-19
 -1      1459 1.14552E-04-3.36111E-05-3.48157E-05-9.70017E-06 4.33932E-19-8.69294E-19
 -1      1460 1.08412E-04-3.22544E-05-3.26971E-05-2.78684E-06-1.36266E-19-1.82716E-18
 -1      1461 1.05045E-04-3.12801E-05-3.16769E-05-2.54847E-06-6.97889E-19-2.30181E-18
 -1      1462 1.07718E-04-3.17938E-05-3.26252E-05-6.51390E-06-7.16180E-19-2.14073E-18
 -1      1463 1.03057E-04-3.07413E-05-3.10182E-05-1.82383E-06-2.39181E-19-2.67231E-18
 -1      1464 1.00872E-04-3.01151E-05-3.03574E-05-1.66744E-06-5.49711E-20-2.76199E-18
 -1      1465 1.02984E-04-3.05598E-05-3.10935E-05-4.29457E-06-9.64201E-19-1.90587E-18
 -1      1466 9.95329E-05-2.97426E-05-2.99213E-05-1.18480E-06 9.15970E-19-2.06029E-18
 -1      1467 9.81288E-05-2.93396E-05-2.95012E-05-1.07893E-06 2.89414E-19-4.89942E-19
 -1      1468 9.97627E-05-2.97128E-05-3.00569E-05-2.80890E-06 5.96463E-19-1.41446E-18
 -1      1469 9.72513E-05-2.90851E-05-2.92230E-05-7.30683E-07-3.06940E-19-8.25933E-19
 -1      1470 9.64057E-05-2.88420E-05-2.89726E-05-6.47843E-07 1.21017E-19-1.84973E-18
 -1      1471 9.76097E-05-2.91281E-05-2.93758E-05-1.78407E-06-1.09022E-20-2.29727E-18
 -1      1472 9.58787E-05-2.86832E-05-2.88103E-05-3.54125E-07-4.65251E-19-3.15222E-18
 -1      1473 9.55074E-05-2.85746E-05-2.86842E-05-2.72618E-07-5.41499E-19-4.04344E-18
 -1      1474 9.62351E-05-2.87350E-05-2.89521E-05-9.90562E-07-1.35482E-18-1.62329E-18
 -1      1475 9.53049E-05-2.85049E-05-2.86315E-05-9.97936E-08 6.24281E-20-4.07857E-18
 -1      1476 9.52675E-05-2.85416E-05-2.85500E-05-5.85921E-08 1.81316E-18-2.06907E-18
 -1      1477 9.52853E-05-2.85038E-05-2.86280E-05-9.17184E-08 4.67772E-18-8.13498E-19
 -1      1478 9.55473E-05-2.85094E-05-2.87425E-05-4.29854E-07 7.30479E-20-3.35152E-18
 -1      1479 9.65840E-05-2.83648E-05-2.97736E-05 2.99347E-06 6.03696E-19 8.85404E-18
 -1      1480 1.02545E-04-2.94014E-05-3.21582E-05 4.46361E-06 5.95835E-19 9.79551E-18
 -1      1481 1.02334E-04-2.67189E-05-3.27082E-05 1.27839E-05 1.10527E-18 6.99130E-18
 -1      1482 9.20289E-05-2.74221E-05-2.77621E-05 1.14701E-06 4.90273E-19 7.62261E-18
 -1      1483 9.39873E-05-2.75865E-05-2.86767E-05 1.47944E-06 4.18831E-19 8.27864E-18
 -1      1484 9.64980E-05-2.80392E-05-2.95358E-05 4.87885E-06 9.29063E-19 5.91047E-18
 -1      1485 9.02041E-05-2.70004E-05-2.70658E-05 3.25335E-07 3.53074E-19 6.77232E-18
 -1      1486 9.08284E-05-2.70290E-05-2.73367E-05 4.95012E-07 3.03152E-19 7.15219E-18
 -1      1487 9.30463E-05-2.75959E-05-2.81045E-05 1.84013E-06 6.82616E-19 4.99326E-18
 -1      1488 8.96915E-05-2.68837E-05-2.68922E-05-5.56653E-08 4.17508E-19 5.95738E-18
 -1      1489 8.97398E-05-2.68334E-05-2.69192E-05 3.73112E-08 3.62636E-19 6.46469E-18
 -1      1490 9.15049E-05-2.73471E-05-2.75207E-05 4.73432E-07 6.36870E-19 4.18935E-18
 -1      1491 8.98289E-05-2.69412E-05-2.69348E-05-2.43754E-07 3.16860E-19 5.10521E-18
 -1      1492 8.96039E-05-2.68385E-05-2.68693E-05-1.92691E-07 2.51915E-19 5.64829E-18
 -1      1493 9.09698E-05-2.72520E-05-2.73242E-05-1.74070E-07 5.71913E-19 3.78178E-18
 -1      1494 9.02865E-05-2.70870E-05-2.70739E-05-3.27131E-07 2.60399E-19 4.54886E-18
 -1      1495 8.99386E-05-2.69605E-05-2.69719E-05-2.99880E-07 2.57249E-19 4.86881E-18
 -1      1496 9.09917E-05-2.72874E-05-2.73133E-05-4.83111E-07 4.75966E-19 3.30311E-18
 -1      1497 9.08858E-05-2.72717E-05-2.72545E-05-3.52101E-07 1.40812E-19 4.30600E-18
 -1      1498 9.04951E-05-2.71399E-05-2.71403E-05-3.39398E-07 1.07852E-19 4.42696E-18
 -1      1499 9.13001E-05-2.73947E-05-2.73955E-05-6.16166E-07 2.28342E-19 2.74824E-18
 -1      1500 9.15250E-05-2.74661E-05-2.74469E-05-3.43628E-07 2.46070E-19 3.67324E-18
 -1      1501 9.11357E-05-2.73397E-05-2.73330E-05-3.39908E-07 2.79096E-19 4.13385E-18
 -1      1502 9.17454E-05-2.75361E-05-2.75225E-05-6.49952E-07 3.92872E-19 2.47761E-18
 -1      1503 9.21457E-05-2.76534E-05-2.76339E-05-3.16811E-07 1.35568E-19 3.53582E-18
 -1      1504 9.17822E-05-2.75383E-05-2.75274E-05-3.18496E-07 9.54754E-20 3.72816E-18
 -1      1505 9.22386E-05-2.76879E-05-2.76667E-05-6.27287E-07 2.45533E-19 2.47444E-18
 -1      1506 9.27162E-05-2.78245E-05-2.78061E-05-2.81241E-07 1.65585E-19 3.46373E-18
 -1      1507 9.23907E-05-2.77233E-05-2.77105E-05-2.85942E-07 1.96652E-19 3.60694E-18
 -1      1508 9.27279E-05-2.78359E-05-2.78115E-05-5.74278E-07 1.69658E-19 2.49128E-18
 -1      1509 9.32221E-05-2.79756E-05-2.79590E-05-2.43113E-07 2.95094E-19 2.87274E-18
 -1      1510 9.29390E-05-2.78888E-05-2.78757E-05-2.49219E-07 2.03707E-19 3.16937E-18
 -1      1511 9.31843E-05-2.79723E-05-2.79478E-05-5.07551E-07 3.55826E-19 2.36097E-18
 -1      1512 9.36596E-05-2.81058E-05-2.80916E-05-2.06396E-07 3.18325E-19 2.33586E-18
 -1      1513 9.34185E-05-2.80327E-05-2.80204E-05-2.12818E-07 2.90422E-19 2.77399E-18
 -1      1514 9.35937E-05-2.80936E-05-2.80708E-05-4.37824E-07 4.65203E-19 1.74182E-18
 -1      1515 9.40325E-05-2.82163E-05-2.82046E-05-1.73544E-07 6.72217E-20 1.99083E-18
 -1      1516 9.38296E-05-2.81554E-05-2.81447E-05-1.79558E-07 1.11281E-19 2.16206E-18
 -1      1517 9.39519E-05-2.81989E-05-2.81790E-05-3.71916E-07 3.28504E-19 1.72522E-18
 -1      1518 9.43484E-05-2.83098E-05-2.83006E-05-1.45958E-07 4.58281E-19 1.64662E-18
 -1      1519 9.41782E-05-2.82589E-05-2.82502E-05-1.51099E-07 1.22875E-19 1.86149E-18
 -1      1520 9.42610E-05-2.82892E-05-2.82727E-05-3.13972E-07 1.74906E-19 1.02406E-18
 -1      1521 9.46175E-05-2.83892E-05-2.83824E-05-1.24269E-07-1.82777E-19 1.27850E-18
 -1      1522 9.44737E-05-2.83463E-05-2.83397E-05-1.28262E-07 2.39260E-19 1.77384E-18
 -1      1523 9.45267E-05-2.83664E-05-2.83537E-05-2.66246E-07 2.89663E-19 1.04081E-18
 -1      1524 9.48508E-05-2.84579E-05-2.84533E-05-1.08489E-07-2.22104E-19 1.74027E-18
 -1      1525 9.47267E-05-2.84209E-05-2.84164E-05-1.11216E-07-3.13227E-19 1.39576E-18
 -1      1526 9.47568E-05-2.84331E-05-2.84239E-05-2.29556E-07-3.08532E-19 8.36171E-19
 -1      1527 9.50587E-05-2.85193E-05-2.85165E-05-9.80241E-08-5.94655E-20 2.15737E-18
 -1      1528 9.49482E-05-2.84861E-05-2.84836E-05-9.95217E-08-5.78877E-20 2.01243E-18
 -1      1529 9.49598E-05-2.84919E-05-2.84860E-05-2.03475E-07-2.69524E-19 1.28597E-18
 -1      1530 9.52498E-05-2.85760E-05-2.85744E-05-9.15676E-08 1.18105E-19 1.65991E-18
 -1      1531 9.51479E-05-2.85451E-05-2.85441E-05-9.20610E-08 1.47361E-19 2.04777E-18
 -1      1532 9.51433E-05-2.85453E-05-2.85419E-05-1.86267E-07-2.78322E-20 1.33895E-18
 -1      1533 9.54291E-05-2.86297E-05-2.86284E-05-8.68544E-08 3.12614E-19 1.52561E-18
 -1      1534 9.53329E-05-2.86002E-05-2.85999E-05-8.68311E-08-3.61412E-20 1.65822E-18
 -1      1535 9.53127E-05-2.85954E-05-2.85932E-05-1.74575E-07 2.59844E-19 9.01858E-19
 -1      1536 9.55954E-05-2.86803E-05-2.86780E-05-8.02954E-08 1.87332E-19 1.31205E-18
 -1      1537 9.55056E-05-2.86525E-05-2.86516E-05-8.06192E-08 1.97235E-20 1.68819E-18
 -1      1538 9.54695E-05-2.86431E-05-2.86400E-05-1.62861E-07-8.99042E-22 4.78896E-19
 -1      1539 9.57387E-05-2.87252E-05-2.87201E-05-6.65347E-08 9.57819E-20 1.20075E-18
 -1      1540 9.56610E-05-2.87012E-05-2.86975E-05-6.85933E-08 1.97966E-19 1.35003E-18
 -1      1541 9.56089E-05-2.86875E-05-2.86804E-05-1.42666E-07 1.60521E-19 1.92929E-19
 -1      1542 9.58360E-05-2.87578E-05-2.87473E-05-3.80429E-08 6.10530E-19 3.58637E-19
 -1      1543 9.57838E-05-2.87421E-05-2.87327E-05-4.39033E-08 1.67158E-19 1.13099E-18
 -1      1544 9.57170E-05-2.87252E-05-2.87098E-05-1.01828E-07 4.71672E-19 2.39939E-19
 -1      1545 9.58470E-05-2.87666E-05-2.87473E-05 1.50293E-08 9.59488E-21-3.83014E-19
 -1      1546 9.58436E-05-2.87669E-05-2.87477E-05 2.51648E-09 5.05744E-19 2.83833E-19
 -1      1547 9.57677E-05-2.87493E-05-2.87197E-05-2.39735E-08 7.53459E-19 4.08524E-20
 -1      1548 9.57107E-05-2.87334E-05-2.87016E-05 1.04364E-07-9.02370E-19 1.30087E-18
 -1      1549 9.57914E-05-2.87616E-05-2.87276E-05 8.16176E-08-8.16067E-19-2.53251E-19
 -1      1550 9.57189E-05-2.87479E-05-2.86971E-05 1.11161E-07-4.86086E-19 6.96162E-19
 -1      1551 9.53434E-05-2.86329E-05-2.85852E-05 2.41822E-07 5.09052E-19 1.23853E-18
 -1      1552 9.55568E-05-2.87052E-05-2.86509E-05 2.04909E-07 3.54309E-19 1.55860E-18
 -1      1553 9.55111E-05-2.87030E-05-2.86239E-05 3.25753E-07-6.06969E-20 7.28328E-19
 -1      1554 9.46429E-05-2.84333E-05-2.83680E-05 4.36059E-07-2.04064E-19 3.17472E-19
 -1      1555 9.50480E-05-2.85693E-05-2.84907E-05 3.81589E-07 2.13336E-19 7.23980E-19
 -1      1556 9.50675E-05-2.85904E-05-2.84776E-05 6.39242E-07 5.82845E-19 4.31703E-19
 -1      1557 9.35005E-05-2.80996E-05-2.80190E-05 6.87077E-07 1.39582E-19-3.14282E-19
 -1      1558 9.41597E-05-2.83200E-05-2.82162E-05 6.13777E-07 2.15851E-19-3.77658E-20
 -1      1559 9.43006E-05-2.83805E-05-2.82339E-05 1.06018E-06 3.59847E-19 1.57952E-19
 -1      1560 9.18256E-05-2.76010E-05-2.75135E-05 9.79276E-07-1.72158E-19 3.84341E-20
 -1      1561 9.27899E-05-2.79222E-05-2.77991E-05 8.90156E-07-6.02482E-19-1.77427E-19
 -1      1562 9.31264E-05-2.80424E-05-2.78708E-05 1.57473E-06-4.39706E-19 5.68905E-19
 -1      1563 8.95818E-05-2.69220E-05-2.68440E-05 1.27511E-06-2.58742E-20 3.31203E-19
 -1      1564 9.08695E-05-2.73491E-05-2.72218E-05 1.17965E-06-9.96323E-20 4.43104E-20
 -1      1565 9.14887E-05-2.75510E-05-2.73766E-05 2.13422E-06-3.78900E-19 5.73474E-19
 -1      1566 8.68310E-05-2.60770E-05-2.60320E-05 1.51351E-06-7.48577E-19 1.28110E-18
 -1      1567 8.84025E-05-2.65951E-05-2.64888E-05 1.42864E-06-3.22694E-19 5.27225E-19
 -1      1568 8.93921E-05-2.68993E-05-2.67582E-05 2.64726E-06-5.32653E-19 1.52762E-18
 -1      1569 8.37686E-05-2.51237E-05-2.51372E-05 1.61806E-06-5.04535E-19 2.41055E-18
 -1      1570 8.55068E-05-2.56913E-05-2.56379E-05 1.56624E-06-4.59652E-19 1.45334E-18
 -1      1571 8.69360E-05-2.61120E-05-2.60493E-05 2.98512E-06-7.93052E-19 2.18699E-18
 -1      1572 8.07308E-05-2.41672E-05-2.42574E-05 1.51804E-06-3.78791E-20 2.56112E-18
 -1      1573 8.24393E-05-2.47164E-05-2.47452E-05 1.52139E-06-1.33595E-19 2.17334E-18
 -1      1574 8.43354E-05-2.52563E-05-2.53137E-05 3.00790E-06-3.34774E-19 1.91529E-18
 -1      1575 7.81516E-05-2.33482E-05-2.35154E-05 1.17823E-06 2.43941E-19 3.01096E-18
 -1      1576 7.95816E-05-2.37945E-05-2.39201E-05 1.24960E-06-2.98328E-19 2.53631E-18
 -1      1577 8.19105E-05-2.44419E-05-2.46401E-05 2.61155E-06-1.62498E-19 1.63423E-18
 -1      1578 7.64668E-05-2.28114E-05-2.30317E-05 6.24923E-07-2.21254E-20 1.87670E-18
 -1      1579 7.73738E-05-2.30744E-05-2.32858E-05 7.59834E-07 7.40581E-19 2.97465E-18
 -1      1580 8.00320E-05-2.38024E-05-2.41261E-05 1.78121E-06 4.23364E-19 1.72749E-18
 -1      1581 7.59898E-05-2.26619E-05-2.28918E-05-4.91077E-08 6.87824E-19 1.17775E-18
 -1      1582 7.62042E-05-2.26900E-05-2.29493E-05 1.25540E-07 9.47982E-20 1.84975E-18
 -1      1583 7.90287E-05-2.34601E-05-2.38552E-05 6.22980E-07 6.41588E-19 1.81407E-18
 -1      1584 7.68086E-05-2.29294E-05-2.31202E-05-7.09624E-07 6.64193E-20-7.51345E-19
 -1      1585 7.62910E-05-2.27172E-05-2.29712E-05-5.31459E-07 4.98380E-19 4.98165E-19
 -1      1586 7.90874E-05-2.34856E-05-2.38734E-05-6.51690E-07 9.84517E-19 1.42860E-18
 -1      1587 7.87555E-05-2.35564E-05-2.36717E-05-1.22700E-06-6.42982E-19 1.26372E-18
 -1      1588 7.76108E-05-2.31473E-05-2.33457E-05-1.08096E-06-1.10167E-18-2.45878E-19
 -1      1589 8.01906E-05-2.38713E-05-2.41757E-05-1.79131E-06-1.33356E-18 6.76875E-19
 -1      1590 8.14632E-05-2.44190E-05-2.44468E-05-1.51985E-06 1.87070E-19 1.76655E-18
 -1      1591 7.99055E-05-2.38905E-05-2.40029E-05-1.42889E-06 4.15360E-20 2.18847E-18
 -1      1592 8.21219E-05-2.45347E-05-2.47073E-05-2.59003E-06-8.47281E-19 1.68376E-18
 -1      1593 8.44811E-05-2.53683E-05-2.53204E-05-1.57461E-06 6.14570E-19 1.77512E-18
 -1      1594 8.27671E-05-2.48072E-05-2.48301E-05-1.54371E-06 2.93189E-19 2.14823E-18
 -1      1595 8.45374E-05-2.53478E-05-2.53799E-05-2.95025E-06 1.86638E-19 2.79873E-18
 -1      1596 8.73960E-05-2.62718E-05-2.61749E-05-1.43575E-06 1.33492E-19 1.87321E-18
 -1      1597 8.57572E-05-2.57518E-05-2.57033E-05-1.45468E-06 3.03867E-19 1.80251E-18
 -1      1598 8.70676E-05-2.61783E-05-2.60957E-05-2.89484E-06 3.97530E-19 2.34448E-18
 -1      1599 8.99143E-05-2.70396E-05-2.69232E-05-1.17810E-06-3.62035E-19 9.40842E-19
 -1      1600 8.85121E-05-2.66079E-05-2.65167E-05-1.22870E-06-5.54575E-19 1.10912E-18
 -1      1601 8.94061E-05-2.69231E-05-2.67700E-05-2.53340E-06 1.31480E-19 1.98097E-18
 -1      1602 9.18889E-05-2.76303E-05-2.75186E-05-8.77944E-07 3.14405E-19 3.71702E-19
 -1      1603 9.08009E-05-2.73059E-05-2.72006E-05-9.41500E-07 5.78514E-19 1.48088E-18
 -1      1604 9.13575E-05-2.75230E-05-2.73449E-05-2.00884E-06-1.71752E-19 1.44548E-18
 -1      1605 9.33006E-05-2.80435E-05-2.79512E-05-5.94270E-07-2.73554E-19 9.55463E-19
 -1      1606 9.25322E-05-2.78224E-05-2.77244E-05-6.56177E-07-3.53984E-19 2.47539E-19
 -1      1607 9.28431E-05-2.79610E-05-2.77932E-05-1.45133E-06 1.73063E-19 2.71535E-18
 -1      1608 9.42182E-05-2.83046E-05-2.82379E-05-3.62445E-07 3.83889E-19 5.58196E-19
 -1      1609 9.37262E-05-2.81693E-05-2.80909E-05-4.13700E-07 1.70474E-19 2.02299E-19
 -1      1610 9.38773E-05-2.82505E-05-2.81141E-05-9.53288E-07 3.65845E-20 2.88305E-19
 -1      1611 9.47556E-05-2.84516E-05-2.84100E-05-1.96399E-07 1.65230E-19 7.21314E-19
 -1      1612 9.44730E-05-2.83784E-05-2.83242E-05-2.33037E-07 4.79368E-19 9.08291E-19
 -1      1613 9.45324E-05-2.84215E-05-2.83245E-05-5.64335E-07 4.62736E-19 1.72982E-19
 -1      1614 9.50363E-05-2.85240E-05-2.85027E-05-9.37378E-08 5.47024E-19-6.44928E-19
 -1      1615 9.48923E-05-2.84897E-05-2.84581E-05-1.15738E-07 6.46386E-19 5.03196E-19
 -1      1616 9.49067E-05-2.85096E-05-2.84503E-05-2.97800E-07 8.97410E-19 1.23702E-18
 -1      1617 9.51674E-05-2.85561E-05-2.85470E-05-4.06514E-08-1.19006E-19-1.76530E-18
 -1      1618 9.51022E-05-2.85417E-05-2.85266E-05-5.11883E-08 1.98824E-19-1.19686E-18
 -1      1619 9.50983E-05-2.85492E-05-2.85181E-05-1.40129E-07 5.69282E-19-2.37256E-19
 -1      1620 9.52222E-05-2.85706E-05-2.85653E-05-1.43873E-08 3.60731E-19-1.75918E-18
 -1      1621 9.51981E-05-2.85657E-05-2.85574E-05-1.91406E-08 1.93294E-19-1.71650E-18
 -1      1622 9.51889E-05-2.85667E-05-2.85506E-05-5.83259E-08 5.92480E-19-1.47574E-18
 -1      1623 9.52354E-05-2.85744E-05-2.85690E-05-2.10790E-09-6.94808E-19-5.98421E-19
 -1      1624 9.52475E-05-2.86181E-05-2.85536E-05-3.52034E-08-1.19662E-18 5.31456E-19
 -1      1625 9.52353E-05-2.85910E-05-2.85613E-05-2.77153E-08-1.27557E-18 3.85008E-19
 -1      1626 9.52728E-05-2.86611E-05-2.85464E-05-2.79373E-08-1.51866E-18-6.49496E-19
 -1      1627 9.52591E-05-2.86375E-05-2.85510E-05-2.96416E-08-1.18839E-18 3.24758E-19
 -1      1628 9.52595E-05-2.86320E-05-2.85534E-05-5.68809E-08-5.39084E-19 1.13048E-19
 -1      1629 9.52804E-05-2.86297E-05-2.85642E-05 3.40233E-08-3.43853E-18-1.17760E-18
 -1      1630 9.52807E-05-2.86559E-05-2.85532E-05 1.74449E-08-1.82644E-18-1.24993E-18
 -1      1631 9.52858E-05-2.86550E-05-2.85600E-05-3.14733E-09-8.74310E-19-1.40719E-18
 -1      1632 9.52332E-05-2.84319E-05-2.86300E-05 1.52142E-07-2.00576E-19 8.97884E-19
 -1      1633 9.52670E-05-2.85603E-05-2.85898E-05 1.24628E-07-3.59731E-18 1.33006E-18
 -1      1634 9.52944E-05-2.85919E-05-2.85942E-05 1.62078E-07-1.11477E-18-1.61087E-19
 -1      1635 9.51108E-05-2.80136E-05-2.87578E-05 3.02028E-07-8.27191E-19-7.56988E-19
 -1      1636 9.51896E-05-2.82722E-05-2.86811E-05 2.70255E-07 2.66398E-19-1.98087E-18
 -1      1637 9.52461E-05-2.83732E-05-2.86700E-05 4.15978E-07-8.25732E-19-2.33071E-19
 -1      1638 9.49023E-05-2.73491E-05-2.89536E-05 4.50554E-07 9.55361E-19 1.13181E-18
 -1      1639 9.50300E-05-2.77469E-05-2.88384E-05 4.21658E-07-2.73261E-19 1.20928E-18
 -1      1640 9.51213E-05-2.79550E-05-2.87960E-05 7.05783E-07 8.85781E-19-2.73313E-19
 -1      1641 9.46264E-05-2.65044E-05-2.91970E-05 5.46277E-07 5.02645E-19-1.54598E-18
 -1      1642 9.47885E-05-2.69932E-05-2.90575E-05 5.31721E-07 1.66974E-18 5.88010E-19
 -1      1643 9.49126E-05-2.73337E-05-2.89701E-05 9.52987E-07 1.42458E-18 7.41945E-19
 -1      1644 9.43274E-05-2.56176E-05-2.94476E-05 5.40877E-07 2.57052E-18 6.93887E-19
 -1      1645 9.44944E-05-2.61084E-05-2.93092E-05 5.50114E-07 1.71260E-18 8.67556E-19
 -1      1646 9.46404E-05-2.65756E-05-2.91722E-05 1.06095E-06 2.61861E-18-1.72387E-19
 -1      1647 9.40717E-05-2.48848E-05-2.96500E-05 4.03218E-07 9.02815E-19-1.21313E-18
 -1      1648 9.42027E-05-2.52587E-05-2.95460E-05 4.41043E-07 1.30159E-18-9.02183E-19
 -1      1649 9.43496E-05-2.58068E-05-2.93685E-05 9.49517E-07 2.29310E-18-7.30038E-19
 -1      1650 9.39329E-05-2.45133E-05-2.97478E-05 1.36774E-07-1.10560E-18-3.20632E-18
 -1      1651 9.39863E-05-2.46526E-05-2.97103E-05 1.99746E-07 1.04973E-18-1.28501E-18
 -1      1652 9.41062E-05-2.51965E-05-2.95168E-05 5.84852E-07 7.46296E-19-1.74016E-18
 -1      1653 9.39675E-05-2.46468E-05-2.97045E-05-2.02040E-07-2.50351E-18-3.20284E-21
 -1      1654 9.39152E-05-2.44825E-05-2.97510E-05-1.29850E-07-1.01167E-18-2.79046E-18
 -1      1655 9.39838E-05-2.49157E-05-2.95782E-05 1.43672E-08 3.75094E-19-2.94643E-18
 -1      1656 9.41925E-05-2.53113E-05-2.95178E-05-5.30340E-07-1.97603E-18 3.09868E-19
 -1      1657 9.40322E-05-2.48465E-05-2.96457E-05-4.67585E-07-2.94276E-18 1.57589E-18
 -1      1658 9.40343E-05-2.50717E-05-2.95325E-05-6.34988E-07-4.35825E-20 7.87474E-19
 -1      1659 9.45637E-05-2.63594E-05-2.92330E-05-7.21278E-07-4.51250E-19 1.65494E-18
 -1      1660 9.43335E-05-2.57115E-05-2.94085E-05-6.97536E-07-1.76571E-18 7.20473E-19
 -1      1661 9.42765E-05-2.56756E-05-2.93846E-05-1.17112E-06 1.08766E-18 6.75883E-19
 -1      1662 9.49753E-05-2.74766E-05-2.89363E-05-6.71229E-07 1.84866E-18 2.00910E-18
 -1      1663 9.47466E-05-2.68549E-05-2.91034E-05-7.11649E-07-6.09248E-19 1.01860E-18
 -1      1664 9.46581E-05-2.65884E-05-2.91713E-05-1.37085E-06 3.32100E-19 2.18875E-18
 -1      1665 9.52322E-05-2.82376E-05-2.87142E-05-3.65382E-07 5.10723E-18 1.09991E-18
 -1      1666 9.50961E-05-2.78602E-05-2.88327E-05-4.54243E-07 2.74368E-18 2.52428E-18
 -1      1667 9.50474E-05-2.74914E-05-2.89610E-05-1.09999E-06 1.29446E-18 3.22592E-18
 -1      1668 9.52960E-05-2.81674E-05-2.87727E-05-5.44753E-07 1.85123E-18 3.99390E-19
 -1      1669 2.16549E-05-6.94366E-05 1.47662E-05-1.65911E-06 3.58803E-18 1.86337E-18
 -1      1670 2.68077E-05-8.65827E-05 1.86348E-05 7.20114E-06 3.10734E-18-1.48019E-19
 -1      1671 2.26008E-05-3.27249E-05 9.70181E-07 1.30796E-05 8.61009E-18 6.44444E-18
 -1      1672 2.65913E-05-6.03221E-05 8.76531E-06 5.78233E-06 4.87722E-18 4.76620E-18
 -1      1673 4.83164E-05-7.78593E-06-1.81083E-05 4.40891E-05 9.26993E-18 5.68698E-18
 -1      1674 3.80697E-05-2.78882E-05-7.92252E-06 2.32176E-05 8.94890E-18 5.35791E-18
 -1      1675 9.36720E-05 1.84505E-06-3.89915E-05 7.54263E-05 6.24433E-18 4.17248E-18
 -1      1676 6.30236E-05-7.31251E-07-2.80760E-05 5.12589E-05 9.47915E-18 5.44049E-18
 -1      1677 1.68706E-04-1.91742E-05-5.95579E-05 9.07468E-05 2.23744E-18-1.42302E-19
 -1      1678 1.18944E-04-6.76721E-07-4.93060E-05 8.11182E-05 5.61159E-18 3.43557E-18
 -1      1679 2.39663E-04-5.17090E-05-7.44556E-05 6.76115E-05-9.54765E-20-2.48689E-18
 -1      1680 1.96129E-04-2.84179E-05-6.77153E-05 8.45161E-05 3.82435E-19-6.72544E-19
 -1      1681 2.73279E-04-6.84558E-05-8.14337E-05 1.40187E-05 1.54795E-19-4.41685E-18
 -1      1682 2.54698E-04-5.73446E-05-7.87757E-05 5.05738E-05-1.04609E-19-2.68721E-18
 -1      1683 2.53232E-04-5.65758E-05-7.87553E-05-4.52411E-05 3.14419E-18-8.51607E-18
 -1      1684 2.70272E-04-6.65255E-05-8.11894E-05-6.20942E-06 1.62567E-18-6.26254E-18
 -1      1685 1.93372E-04-2.67922E-05-6.74055E-05-8.51765E-05 4.74741E-18-1.00492E-17
 -1      1686 2.41090E-04-5.23200E-05-7.47331E-05-6.64677E-05 3.51299E-18-9.69599E-18
 -1      1687 1.20048E-04-3.61509E-06-4.87526E-05-7.73533E-05 5.34901E-18-8.19166E-18
 -1      1688 1.66739E-04-2.01621E-05-5.86452E-05-8.69608E-05 4.85011E-18-9.43086E-18
 -1      1689 6.05293E-05-6.87987E-07-2.72555E-05-4.98782E-05 5.62176E-18-5.35579E-18
 -1      1690 9.20689E-05 1.84224E-06-3.85967E-05-7.49734E-05 5.80387E-18-6.84996E-18
 -1      1691 3.34500E-05-2.42099E-05-7.80919E-06-2.08710E-05 4.16232E-18-3.29030E-18
 -1      1692 4.21351E-05-4.28662E-06-1.72864E-05-4.10415E-05 5.43626E-18-4.18095E-18
 -1      1693 2.62161E-05-5.81962E-05 8.07202E-06-5.13772E-06 3.97936E-18-7.32260E-19
 -1      1694 2.24438E-05-3.13889E-05 4.21421E-07-1.25030E-05 4.02849E-18-1.62419E-18
 -1      1695 2.63146E-05-8.32588E-05 1.77829E-05-7.34703E-06 1.91853E-19-2.03436E-18
 -1      1696 2.12597E-05-6.55020E-05 1.36536E-05-1.23929E-07 2.82231E-18-1.98492E-18
 -1      1697 2.35768E-05-8.52089E-05 1.94473E-05-1.61184E-05-2.64613E-18-1.20025E-18
 -1      1698 2.52255E-05-8.63786E-05 1.95754E-05-4.40170E-06-2.84603E-19-1.36161E-18
 -1      1699 1.87321E-05-6.37246E-05 1.24430E-05-1.78263E-05-4.39949E-18-2.54756E-18
 -1      1700 2.55906E-05-8.37083E-05 1.73002E-05-1.42033E-05-3.18061E-18-1.46452E-18
 -1      1701 2.76317E-05-3.12925E-05-3.91179E-06 4.08910E-06-4.95599E-18-4.06999E-18
 -1      1702 2.64229E-05-5.68783E-05 5.43478E-06-1.07157E-05-4.22669E-18-2.58154E-18
 -1      1703 7.21549E-05-1.56837E-05-2.66922E-05 4.22753E-05-5.89366E-18-7.27178E-18
 -1      1704 4.75421E-05-2.82541E-05-1.44271E-05 1.45267E-05-4.86875E-18-5.18892E-18
 -1      1705 1.62250E-04-3.20705E-05-5.31619E-05 7.18243E-05-5.03646E-18-5.97328E-18
 -1      1706 1.04085E-04-1.91965E-05-3.91172E-05 4.87297E-05-6.24179E-18-7.29804E-18
 -1      1707 2.66240E-04-6.97279E-05-7.56403E-05 5.01125E-05-1.64091E-18-3.33562E-18
 -1      1708 1.99454E-04-4.20978E-05-6.42566E-05 5.76233E-05-3.78200E-18-5.14657E-18
 -1      1709 3.17770E-04-8.50349E-05-8.70537E-05 6.47702E-06-2.43098E-18 2.21330E-18
 -1      1710 2.83726E-04-6.92304E-05-8.24799E-05 4.16940E-05-2.14426E-18-1.58734E-18
 -1      1711 3.11627E-04-7.99909E-05-8.66227E-05-4.11071E-05-3.36526E-18 7.21841E-18
 -1      1712 3.31140E-04-9.02188E-05-8.93450E-05-5.45532E-07-2.64232E-18 3.24890E-18
 -1      1713 2.37330E-04-5.20395E-05-7.28444E-05-6.75122E-05-3.40888E-18 8.04173E-18
 -1      1714 2.96256E-04-7.82781E-05-8.15723E-05-5.19112E-05-2.26422E-18 8.14676E-18
 -1      1715 1.40450E-04-2.60943E-05-4.94027E-05-5.80363E-05-5.91229E-19 5.02291E-18
 -1      1716 2.05206E-04-4.56825E-05-6.26696E-05-7.29420E-05-2.18873E-18 8.00616E-18
 -1      1717 7.18856E-05-2.10196E-05-2.62400E-05-3.24704E-05-1.75675E-18 1.71270E-18
 -1      1718 1.05542E-04-1.84196E-05-3.77922E-05-5.74720E-05-1.04439E-18 3.92684E-18
 -1      1719 4.08682E-05-3.97886E-05-6.39377E-06-5.97966E-06-1.67713E-19 1.34212E-18
 -1      1720 5.23288E-05-2.31292E-05-1.62887E-05-2.59312E-05-1.56701E-18 3.66765E-19
 -1      1721 2.71604E-05-6.12759E-05 7.49802E-06 1.09103E-05 2.15485E-18 5.16690E-19
 -1      1722 2.52229E-05-3.95784E-05 5.89967E-07 2.38835E-06 2.59192E-19 2.01170E-18
 -1      1723 5.94609E-05-5.15686E-05-7.44153E-06-2.51962E-05 1.76183E-19 1.95559E-18
 -1      1724 2.55621E-05-8.36220E-05 1.75462E-05 1.36329E-05 3.76252E-18-4.57398E-20
 -1      1725 1.92778E-05-6.77973E-05 1.39515E-05 1.77563E-05 2.51061E-18 4.32252E-19
 -1      1726 2.53915E-05-8.70691E-05 1.96974E-05 5.36861E-06 1.71609E-18-1.55621E-18
 -1      1727 2.35156E-05-8.46738E-05 1.93546E-05 1.59411E-05 3.32545E-18-1.88190E-18
 -1      1728 1.20075E-04-2.69988E-05-4.54915E-05 4.99712E-06-2.14299E-18-7.45505E-18
 -1      1729 1.28021E-04-3.11700E-05-4.61246E-05 1.05275E-05-1.60343E-18-1.02084E-17
 -1      1730 1.22004E-05-5.76479E-05 1.45666E-05 1.11823E-05 2.35814E-18-7.00920E-19
 -1      1731 8.89485E-05-3.49436E-05-2.37967E-05 4.97092E-05 5.64547E-18 1.96342E-18
 -1      1732 1.67874E-04-3.53601E-05-5.77189E-05-1.03413E-05-4.14284E-18-1.84193E-18
 -1      1733 9.52301E-05-2.85777E-05-2.85640E-05-1.59337E-08-8.88549E-19-1.71021E-19
 -1      1734 9.52214E-05-2.85895E-05-2.85571E-05-4.49889E-08 2.70657E-19-2.02029E-19
 -1      1735 2.27383E-05-4.98886E-05 7.82884E-06 2.51750E-05 3.03026E-18 5.31683E-18
 -1      1736 5.13983E-05-4.12228E-05-6.30848E-06 4.15942E-05 4.22161E-18 5.13201E-18
 -1      1737 1.31552E-04-2.74095E-05-4.31547E-05 5.56837E-05 4.79336E-18-2.70204E-19
 -1      1738 1.80351E-04-2.94925E-05-6.08632E-05 5.16607E-05 2.35920E-18-1.90667E-18
 -1      1739 2.16587E-04-3.47806E-05-7.27706E-05 3.07141E-05 7.11931E-19-3.89212E-18
 -1      1740 2.24409E-04-3.33513E-05-7.66090E-05 1.87534E-06 1.99053E-18-5.79852E-18
 -1      1741 2.14101E-04-3.27413E-05-7.26720E-05-2.81319E-05 3.54504E-18-6.60262E-18
 -1      1742 1.79685E-04-3.07534E-05-6.03110E-05-4.76583E-05 3.60635E-18-8.34666E-18
 -1      1743 1.31948E-04-2.89530E-05-4.24873E-05-5.36839E-05 3.44192E-18-6.99310E-18
 -1      1744 8.43153E-05-3.12362E-05-2.33030E-05-4.98901E-05 3.31698E-18-3.71339E-18
 -1      1745 4.79523E-05-3.94115E-05-6.04929E-06-3.87025E-05 2.52416E-18-2.76599E-18
 -1      1746 2.34568E-05-4.87963E-05 7.03674E-06-2.57333E-05 1.67120E-18-2.25290E-18
 -1      1747 1.23268E-05-5.60194E-05 1.40090E-05-1.30958E-05-2.23828E-19-2.86890E-18
 -1      1748 1.38013E-05-5.78952E-05 1.36011E-05-1.64571E-06-1.84399E-18-1.99222E-18
 -1      1749 3.14185E-05-5.47757E-05 4.81560E-06 1.12469E-05-1.88804E-18-2.11726E-18
 -1      1750 6.90100E-05-5.00683E-05-1.19869E-05 2.55433E-05-1.94479E-18-3.58718E-18
 -1      1751 1.28479E-04-5.22067E-05-3.38511E-05 3.36079E-05-3.28564E-18-3.78200E-18
 -1      1752 1.97938E-04-5.83090E-05-5.63411E-05 2.03659E-05-4.19281E-18-3.13148E-18
 -1      1753 2.36913E-04-5.20938E-05-7.23787E-05-4.75849E-06-2.91337E-18-8.32633E-19
 -1      1754 2.56432E-04-4.60307E-05-8.04354E-05-3.84761E-06-4.21992E-18 1.50221E-18
 -1      1755 2.59301E-04-5.41797E-05-7.80468E-05-9.93543E-06-3.10522E-18 4.04712E-18
 -1      1756 2.19071E-04-5.80211E-05-6.38548E-05-1.95291E-05-5.31513E-20 3.05609E-18
 -1      1757 1.58954E-04-5.57890E-05-4.37290E-05-3.10673E-05 9.86793E-19 3.51603E-18
 -1      1758 1.00509E-04-5.25869E-05-2.31963E-05-3.12465E-05-6.76779E-19 8.82608E-19
 -1      1759 1.33720E-05-5.75162E-05 1.37168E-05 1.75666E-06 8.83667E-19-9.55453E-19
 -1      1760 1.61406E-04-4.00369E-05-5.38816E-05 2.75828E-05-1.83679E-18-5.33673E-18
 -1      1761 1.06056E-04-2.31725E-05-3.56050E-05-1.68512E-05-1.12602E-18 3.10819E-18
 -1      1762 2.92234E-05-5.47784E-05 5.96073E-06-1.03541E-05 1.02576E-18 1.84981E-18
 -1      1763 8.91298E-05-1.05602E-05-3.37962E-05-1.33373E-05-1.05650E-18-1.79298E-18
 -1      1764 9.04591E-05-1.16288E-05-3.39363E-05-1.51109E-05-1.36822E-18-1.46272E-18
 -1      1765 9.24975E-05-1.38753E-05-3.38551E-05-1.59994E-05-1.44128E-18-1.03650E-18
 -1      1766 9.42128E-05-1.58261E-05-3.40987E-05-1.76601E-05-1.63529E-18-3.96094E-19
 -1      1767 9.34473E-05-1.63671E-05-3.30453E-05-1.37475E-05-1.49308E-18-1.10702E-18
 -1      1768 8.62088E-05-7.67177E-06-3.37302E-05-7.86186E-06-2.67856E-19-2.39956E-18
 -1      1769 8.66110E-05-7.97020E-06-3.37640E-05-9.25090E-06-4.40295E-19-2.37783E-18
 -1      1770 8.55919E-05-7.03465E-06-3.37269E-05-5.31910E-06 4.00132E-20-2.37808E-18
 -1      1771 8.58264E-05-7.21335E-06-3.37421E-05-6.62358E-06-9.48329E-20-2.41763E-18
 -1      1772 8.75909E-05-9.86561E-06-3.33437E-05-6.92741E-06-2.19514E-19-2.30703E-18
 -1      1773 8.52566E-05-6.67571E-06-3.37299E-05-2.88801E-06 3.64179E-19-2.17780E-18
 -1      1774 8.53776E-05-6.77047E-06-3.37359E-05-4.12747E-06 1.96444E-19-2.26851E-18
 -1      1775 8.69555E-05-9.15325E-06-3.33764E-05-4.53631E-06 1.47397E-19-2.22387E-18
 -1      1776 8.51256E-05-6.52744E-06-3.37333E-05-5.17270E-07 6.93519E-19-2.12644E-18
 -1      1777 8.51613E-05-6.55599E-06-3.37347E-05-1.72661E-06 5.60708E-19-2.19331E-18
 -1      1778 8.66231E-05-8.77394E-06-3.33963E-05-2.21661E-06 4.77179E-19-2.07977E-18
 -1      1779 8.51711E-05-6.56496E-06-3.37349E-05 1.84470E-06 9.95144E-19-1.94447E-18
 -1      1780 8.51293E-05-6.53197E-06-3.37332E-05 6.34380E-07 8.30539E-19-2.06462E-18
 -1      1781 8.65247E-05-8.66028E-06-3.34028E-05 6.54557E-08 8.14647E-19-2.01053E-18
 -1      1782 8.54028E-05-6.79550E-06-3.37360E-05 4.24995E-06 1.25153E-18-1.75761E-18
 -1      1783 8.52745E-05-6.69465E-06-3.37298E-05 3.00740E-06 1.15072E-18-1.89735E-18
 -1      1784 8.66407E-05-8.79347E-06-3.33956E-05 2.34863E-06 1.13388E-18-1.83912E-18
 -1      1785 8.58607E-05-7.24923E-06-3.37416E-05 6.71083E-06 1.54160E-18-1.36000E-18
 -1      1786 8.56222E-05-7.06689E-06-3.37266E-05 5.42372E-06 1.39623E-18-1.58054E-18
 -1      1787 8.69897E-05-9.19098E-06-3.33748E-05 4.65123E-06 1.38307E-18-1.56673E-18
 -1      1788 8.66745E-05-8.03919E-06-3.37625E-05 9.37292E-06 1.85826E-18-8.62835E-19
 -1      1789 8.62538E-05-7.72301E-06-3.37286E-05 7.95211E-06 1.66697E-18-1.15763E-18
 -1      1790 8.76434E-05-9.92476E-06-3.33407E-05 7.02634E-06 1.74617E-18-1.14371E-18
 -1      1791 8.80837E-05-9.38430E-06-3.38179E-05 1.22517E-05 2.04074E-18-7.85888E-20
 -1      1792 8.73463E-05-8.82787E-06-3.37459E-05 1.06590E-05 1.91543E-18-5.39534E-19
 -1      1793 8.87646E-05-1.11602E-05-3.32903E-05 9.50210E-06 1.98725E-18-5.56752E-19
 -1      1794 9.06475E-05-1.18476E-05-3.39281E-05 1.53240E-05 2.12352E-18 1.13169E-18
 -1      1795 8.92745E-05-1.07481E-05-3.37884E-05 1.34984E-05 2.04627E-18 3.69280E-19
 -1      1796 9.06591E-05-1.32250E-05-3.32082E-05 1.19552E-05 2.16326E-18 2.03407E-19
 -1      1797 9.58918E-05-1.70840E-05-3.39945E-05 1.76726E-05 1.86052E-18 3.24186E-18
 -1      1798 9.28478E-05-1.43274E-05-3.38273E-05 1.61743E-05 1.95930E-18 1.98629E-18
 -1      1799 9.38880E-05-1.68604E-05-3.30142E-05 1.38543E-05 2.10225E-18 1.55558E-18
 -1      1800 1.01923E-04-2.50981E-05-3.33613E-05 1.44131E-05 1.41031E-18 5.64230E-18
 -1      1801 9.80720E-05-1.95803E-05-3.36276E-05 1.69689E-05 1.60058E-18 4.11150E-18
 -1      1802 9.74137E-05-2.18795E-05-3.24203E-05 1.32781E-05 1.87467E-18 3.19548E-18
 -1      1803 9.87856E-05-2.61488E-05-3.13445E-05 9.42853E-06 1.40160E-18 5.17546E-18
 -1      1804 1.00161E-04-1.95659E-05-3.42191E-05-1.88669E-05-1.45594E-18 9.12996E-19
 -1      1805 9.53919E-05-2.73103E-05-2.91953E-05 4.10050E-06 1.05329E-18 4.28416E-18
 -1      1806 9.77335E-05-2.73940E-05-3.01961E-05 6.39331E-06 1.14897E-18 4.74299E-18
 -1      1807 9.75868E-05-2.56155E-05-3.08257E-05 8.71793E-06 1.45372E-18 3.54841E-18
 -1      1808 3.08277E-05-4.40008E-05 3.80424E-06-1.88451E-05 7.36919E-19 7.44542E-19
 -1      1809 4.59804E-05-4.40907E-05-2.02383E-06-2.73044E-05 1.01009E-18 1.20109E-18
 -1      1810 9.98209E-05-2.25442E-05-3.28373E-05-1.44664E-05-1.53752E-18 3.95088E-19
 -1      1811 9.69640E-05-2.69792E-05-2.98786E-05-5.70167E-06-1.26060E-18 3.33663E-19
 -1      1812 9.51581E-05-2.70360E-05-2.91681E-05-3.89439E-06-1.09184E-18 5.15830E-20
 -1      1813 9.43397E-05-2.72378E-05-2.86609E-05-2.41867E-06-1.00765E-18 7.03236E-20
 -1      1814 9.35688E-05-2.73183E-05-2.83562E-05-1.56539E-06-7.87648E-19-2.18296E-19
 -1      1815 9.55116E-05-2.65477E-05-2.95768E-05-4.46894E-06-1.20998E-18-3.16473E-19
 -1      1816 9.30444E-05-2.73689E-05-2.80877E-05-7.38449E-07-5.70470E-19-1.96379E-19
 -1      1817 9.27438E-05-2.74325E-05-2.79660E-05-3.00097E-07-4.36497E-19-3.91096E-19
 -1      1818 9.43029E-05-2.72230E-05-2.87691E-05-1.82549E-06-8.20166E-19-2.74167E-19
 -1      1819 9.24687E-05-2.74601E-05-2.78301E-05 1.55255E-07-4.36899E-19-4.83960E-19
 -1      1820 9.24382E-05-2.75365E-05-2.78005E-05 3.79299E-07-3.15841E-19-5.92433E-19
 -1      1821 9.36028E-05-2.75291E-05-2.83337E-05-3.58982E-07-5.48901E-19-4.87856E-19
 -1      1822 9.23353E-05-2.75680E-05-2.77424E-05 6.19017E-07-3.85872E-19-6.92706E-19
 -1      1823 9.24510E-05-2.76533E-05-2.77618E-05 7.22926E-07-5.07245E-19-1.01434E-18
 -1      1824 9.32827E-05-2.77142E-05-2.81131E-05 4.43440E-07-4.61086E-19-8.44417E-19
 -1      1825 9.24568E-05-2.76914E-05-2.77501E-05 8.33988E-07-5.50617E-19-9.19453E-19
 -1      1826 9.26453E-05-2.77783E-05-2.77950E-05 8.67669E-07-4.87399E-19-1.02430E-18
 -1      1827 9.32201E-05-2.78573E-05-2.80209E-05 8.54758E-07-5.45575E-19-1.03861E-18
 -1      1828 9.27146E-05-2.78198E-05-2.78101E-05 9.01217E-07-5.16283E-19-9.33461E-19
 -1      1829 9.29318E-05-2.79027E-05-2.78666E-05 8.93853E-07-4.56607E-19-9.21006E-19
 -1      1830 9.33159E-05-2.79809E-05-2.80058E-05 1.03044E-06-4.59504E-19-8.93255E-19
 -1      1831 9.30338E-05-2.79444E-05-2.78961E-05 8.81677E-07-4.55980E-19-9.14951E-19
 -1      1832 9.32534E-05-2.80198E-05-2.79557E-05 8.51501E-07-4.24722E-19-8.28378E-19
 -1      1833 9.34996E-05-2.80902E-05-2.80354E-05 1.06438E-06-4.51629E-19-8.04374E-19
 -1      1834 9.33686E-05-2.80590E-05-2.79917E-05 8.14126E-07-6.61302E-19-9.62929E-19
 -1      1835 9.35757E-05-2.81253E-05-2.80494E-05 7.72936E-07-3.86656E-19-1.40638E-18
 -1      1836 9.37239E-05-2.81857E-05-2.80891E-05 1.01610E-06-6.71775E-19-9.99816E-19
 -1      1837 9.36917E-05-2.81607E-05-2.80873E-05 7.23881E-07-1.25559E-19-1.69891E-18
 -1      1838 9.38788E-05-2.82174E-05-2.81404E-05 6.79411E-07-3.39891E-20-1.67119E-18
 -1      1839 9.39586E-05-2.82675E-05-2.81537E-05 9.24452E-07-4.85155E-19-1.05559E-18
 -1      1840 9.39890E-05-2.82484E-05-2.81772E-05 6.27652E-07-4.22611E-20-1.67747E-18
 -1      1841 9.41536E-05-2.82960E-05-2.82247E-05 5.85001E-07-1.23232E-19-1.74518E-18
 -1      1842 9.41860E-05-2.83360E-05-2.82213E-05 8.15211E-07-2.28560E-21-1.12793E-18
 -1      1843 9.42548E-05-2.83226E-05-2.82593E-05 5.36547E-07-2.06569E-19-1.67558E-18
 -1      1844 9.43978E-05-2.83620E-05-2.83011E-05 4.99125E-07-1.74676E-19-1.52805E-18
 -1      1845 9.43971E-05-2.83923E-05-2.82873E-05 7.05590E-07-1.78336E-19-1.04405E-18
 -1      1846 9.44897E-05-2.83846E-05-2.83331E-05 4.58130E-07-9.74909E-20-1.39423E-18
 -1      1847 9.46142E-05-2.84172E-05-2.83699E-05 4.28367E-07 3.62590E-20-8.97906E-19
 -1      1848 9.45889E-05-2.84379E-05-2.83499E-05 6.07297E-07 1.18636E-20-6.30355E-19
 -1      1849 9.46983E-05-2.84364E-05-2.83998E-05 3.97995E-07-3.49703E-19-1.10036E-18
 -1      1850 9.48092E-05-2.84637E-05-2.84331E-05 3.77943E-07-2.75846E-19-1.13244E-18
 -1      1851 9.47626E-05-2.84743E-05-2.84089E-05 5.28772E-07-4.01981E-19-1.05239E-18
 -1      1852 9.48884E-05-2.84803E-05-2.84619E-05 3.61131E-07-2.30870E-19-1.26667E-18
 -1      1853 9.49923E-05-2.85041E-05-2.84936E-05 3.53037E-07-1.33527E-19-1.35162E-18
 -1      1854 9.49230E-05-2.85030E-05-2.84656E-05 4.77016E-07-3.88309E-19-9.53785E-19
 -1      1855 9.50710E-05-2.85189E-05-2.85231E-05 3.53273E-07-2.37603E-19-1.50241E-18
 -1      1856 9.51763E-05-2.85410E-05-2.85557E-05 3.60237E-07-2.15574E-19-1.48278E-18
 -1      1857 9.50771E-05-2.85253E-05-2.85225E-05 4.59326E-07-3.47678E-19-6.90122E-19
 -1      1858 9.52599E-05-2.85545E-05-2.85882E-05 3.82472E-07 1.09843E-19-1.63020E-18
 -1      1859 9.53778E-05-2.85770E-05-2.86251E-05 4.09303E-07 3.66773E-20-1.56925E-18
 -1      1860 9.52343E-05-2.85416E-05-2.85833E-05 4.85162E-07-1.12961E-19-5.59688E-19
 -1      1861 9.54731E-05-2.85897E-05-2.86638E-05 4.61158E-07-1.62961E-19-1.51615E-18
 -1      1862 9.56186E-05-2.86150E-05-2.87097E-05 5.15589E-07 1.75997E-19-1.30345E-18
 -1      1863 9.54064E-05-2.85513E-05-2.86534E-05 5.68476E-07 1.79825E-19-9.39976E-19
 -1      1864 9.57342E-05-2.86265E-05-2.87591E-05 6.09059E-07 4.40102E-19-1.28806E-18
 -1      1865 9.59283E-05-2.86576E-05-2.88206E-05 7.03567E-07 5.42099E-19-1.26381E-18
 -1      1866 9.56081E-05-2.85522E-05-2.87401E-05 7.30870E-07 1.76843E-19-4.91147E-19
 -1      1867 9.60744E-05-2.86667E-05-2.88867E-05 8.57510E-07 6.18566E-19-1.33706E-18
 -1      1868 9.63472E-05-2.87073E-05-2.89735E-05 1.01206E-06 5.56985E-19-9.73765E-19
 -1      1869 9.58569E-05-2.85385E-05-2.88532E-05 1.00611E-06 8.27555E-19-9.55641E-19
 -1      1870 9.65360E-05-2.87103E-05-2.90648E-05 1.25602E-06 1.06319E-19-1.19812E-18
 -1      1871 9.69329E-05-2.87659E-05-2.91907E-05 1.50154E-06 1.13880E-19-1.20797E-18
 -1      1872 9.61734E-05-2.84993E-05-2.90063E-05 1.44649E-06 5.51457E-19-7.64493E-19
 -1      1873 9.71918E-05-2.87561E-05-2.93255E-05 1.90113E-06 1.47662E-19-1.43874E-18
 -1      1874 9.78073E-05-2.88357E-05-2.95232E-05 2.31513E-06 3.53921E-19-1.92054E-18
 -1      1875 9.65927E-05-2.84135E-05-2.92236E-05 2.15456E-06-7.67061E-20-7.11645E-19
 -1      1876 9.81223E-05-2.87997E-05-2.97050E-05 2.90715E-06 2.49511E-19-2.27671E-18
 -1      1877 9.90014E-05-2.89114E-05-2.99860E-05 3.52339E-06-1.83948E-19-1.94820E-18
 -1      1878 9.71296E-05-2.82432E-05-2.95252E-05 3.24752E-06 1.74120E-19-1.98821E-18
 -1      1879 9.93866E-05-2.88282E-05-3.02365E-05 4.41815E-06-2.92461E-19-1.45328E-18
 -1      1880 1.00685E-04-2.89906E-05-3.06512E-05 5.36087E-06-2.94523E-19-1.68071E-18
 -1      1881 9.77806E-05-2.79459E-05-2.99288E-05 4.86675E-06 3.59625E-20-2.10085E-18
 -1      1882 1.01126E-04-2.88330E-05-3.09862E-05 6.68654E-06-3.14435E-19-1.13927E-18
 -1      1883 1.03023E-04-2.90864E-05-3.15871E-05 8.09205E-06 2.05180E-19-1.15839E-18
 -1      1884 9.85478E-05-2.74527E-05-3.04631E-05 7.26682E-06-6.22106E-20-2.00741E-19
 -1      1885 1.03485E-04-2.88364E-05-3.20094E-05 9.99250E-06-1.67693E-19-9.82356E-19
 -1      1886 1.06203E-04-2.92754E-05-3.28473E-05 1.19806E-05-1.63451E-19-1.03341E-18
 -1      1887 9.93881E-05-2.67150E-05-3.11295E-05 1.07238E-05 1.01201E-19 7.14186E-20
 -1      1888 1.06656E-04-2.89931E-05-3.33198E-05 1.45535E-05-2.68430E-19-1.69810E-18
 -1      1889 1.10448E-04-2.98632E-05-3.44033E-05 1.70778E-05-8.83032E-20-1.43341E-18
 -1      1890 1.00248E-04-2.58227E-05-3.18650E-05 1.54711E-05-4.33926E-19-3.15636E-19
 -1      1891 1.11027E-04-2.98851E-05-3.48047E-05 2.02039E-05 3.26293E-19-1.41552E-18
 -1      1892 1.16154E-04-3.17943E-05-3.60182E-05 2.26745E-05 6.07230E-19-9.37070E-19
 -1      1893 1.01233E-04-2.53539E-05-3.24653E-05 2.14695E-05 2.37037E-19-1.08054E-19
 -1      1894 1.17654E-04-3.31668E-05-3.61201E-05 2.56092E-05 4.47498E-19-1.01938E-18
 -1      1895 1.24356E-04-3.73087E-05-3.71516E-05 2.62124E-05 6.86679E-19-8.45961E-19
 -1      1896 1.03189E-04-2.71456E-05-3.25124E-05 2.79016E-05 3.91078E-19-1.59679E-19
 -1      1897 1.29124E-04-4.21572E-05-3.68378E-05 2.67833E-05 1.47368E-18-1.20971E-18
 -1      1898 1.37546E-04-4.95204E-05-3.74782E-05 2.20672E-05 1.11067E-18-4.42151E-19
 -1      1899 1.09009E-04-3.52198E-05-3.15597E-05 3.23371E-05 9.18607E-19-3.55013E-19
 -1      1900 1.47762E-04-5.81950E-05-3.76878E-05 1.74126E-05 4.35798E-19-4.24364E-19
 -1      1901 1.56133E-04-6.47714E-05-3.88128E-05 6.44759E-06-1.13714E-19-7.93140E-19
 -1      1902 1.22682E-04-5.17654E-05-3.04783E-05 2.97758E-05 7.35225E-19-9.98969E-19
 -1      1903 1.22626E-05-3.70772E-05 9.31825E-06 1.78864E-05 2.28911E-18 1.70762E-18
 -1      1904 9.75584E-06-3.72645E-05 1.03520E-05 9.22007E-06 1.01784E-18-4.57398E-20
 -1      1905 1.71329E-04-6.49095E-05-4.57936E-05 1.64973E-05 1.80159E-18-2.56950E-18
 -1      1906 1.70425E-04-6.56570E-05-4.43947E-05 4.07210E-06 2.32447E-18-2.33040E-18
 -1      1907 1.53859E-04-5.85701E-05-4.07593E-05-1.00110E-05 1.53472E-18-2.80593E-18
 -1      1908 1.46881E-04-5.19869E-05-4.00950E-05-1.88624E-05 7.69053E-19-2.61281E-18
 -1      1909 1.38367E-04-4.50122E-05-3.98808E-05-2.26894E-05 1.74171E-19-2.22980E-18
 -1      1910 1.30579E-04-3.96024E-05-3.87455E-05-2.46708E-05 9.82029E-19-2.69891E-18
 -1      1911 1.24982E-04-4.60422E-05-3.37438E-05-2.85129E-05 1.12486E-18-1.13614E-18
 -1      1912 1.26619E-04-3.66840E-05-3.84568E-05-2.33327E-05 1.30616E-18-2.41738E-18
 -1      1913 1.19787E-04-3.35782E-05-3.69274E-05-2.18210E-05 5.53308E-19-1.62244E-18
 -1      1914 1.12995E-04-3.34035E-05-3.40812E-05-2.96194E-05 1.27137E-18-7.40320E-19
 -1      1915 1.17747E-04-3.27593E-05-3.63317E-05-1.88982E-05 4.32576E-19-6.48695E-19
 -1      1916 1.12386E-04-3.10884E-05-3.48689E-05-1.65606E-05 9.51688E-19 8.78003E-20
 -1      1917 1.07294E-04-2.84137E-05-3.37937E-05-2.46750E-05 9.88312E-19-3.22127E-19
 -1      1918 1.10993E-04-3.09783E-05-3.41913E-05-1.37465E-05 1.15316E-19-4.98823E-19
 -1      1919 1.07056E-04-3.00342E-05-3.30238E-05-1.17003E-05-1.04529E-18-1.83668E-18
 -1      1920 1.04093E-04-2.73289E-05-3.28966E-05-1.85059E-05 9.30545E-20-6.09344E-19
 -1      1921 1.05937E-04-3.00649E-05-3.24218E-05-9.49963E-06-6.76038E-19-1.84667E-18
 -1      1922 1.03157E-04-2.94854E-05-3.15722E-05-7.99465E-06-9.35118E-19-1.92737E-18
 -1      1923 1.01786E-04-2.74920E-05-3.18424E-05-1.31374E-05-1.07247E-18-1.36501E-18
 -1      1924 1.02242E-04-2.94991E-05-3.10975E-05-6.41886E-06-7.66618E-19-1.09188E-18
 -1      1925 1.00322E-04-2.91158E-05-3.05077E-05-5.38642E-06-5.86411E-19-3.94092E-19
 -1      1926 9.99265E-05-2.78410E-05-3.08977E-05-9.07040E-06-3.14507E-19-5.33944E-19
 -1      1927 9.95937E-05-2.90892E-05-3.01581E-05-4.29378E-06-6.75952E-19-3.09434E-19
 -1      1928 9.82887E-05-2.88191E-05-2.97609E-05-3.59010E-06-3.12641E-20-9.62673E-19
 -1      1929 9.84169E-05-2.80775E-05-3.01506E-05-6.17591E-06-4.30706E-19 2.83007E-19
 -1      1930 9.77248E-05-2.87576E-05-2.95167E-05-2.81877E-06 5.66212E-19-8.27726E-19
 -1      1931 9.68597E-05-2.85587E-05-2.92599E-05-2.30538E-06-8.80633E-19-9.12655E-19
 -1      1932 9.72194E-05-2.81610E-05-2.96028E-05-4.13816E-06-4.84854E-19 6.45175E-19
 -1      1933 9.64245E-05-2.84695E-05-2.90981E-05-1.71598E-06-2.09514E-18-3.63337E-19
 -1      1934 9.58811E-05-2.83237E-05-2.89417E-05-1.28952E-06-1.56631E-18-1.18318E-18
 -1      1935 9.62820E-05-2.81101E-05-2.92260E-05-2.64190E-06-1.37693E-18 9.55371E-19
 -1      1936 9.55118E-05-2.82196E-05-2.88314E-05-7.80675E-07 1.26500E-19-1.11407E-19
 -1      1937 9.27557E-05-2.73570E-05-2.79939E-05 7.85805E-07 8.09641E-19 2.91027E-18
 -1      1938 9.32289E-05-2.73114E-05-2.81897E-05 1.36639E-06 7.77940E-19 3.23574E-18
 -1      1939 9.22217E-05-2.74281E-05-2.77470E-05-8.81860E-08 7.01815E-19 2.48649E-18
 -1      1940 9.23480E-05-2.73689E-05-2.78058E-05 2.00994E-07 8.51546E-19 2.70240E-18
 -1      1941 9.36780E-05-2.74261E-05-2.84102E-05 9.51257E-07 9.94245E-19 1.70503E-18
 -1      1942 9.21184E-05-2.75231E-05-2.76707E-05-5.48422E-07 5.78145E-19 2.07953E-18
 -1      1943 9.20398E-05-2.74437E-05-2.76619E-05-4.05084E-07 5.81060E-19 2.33532E-18
 -1      1944 9.31499E-05-2.76024E-05-2.81062E-05-1.07081E-07 8.60820E-19 1.39465E-18
 -1      1945 9.22705E-05-2.76422E-05-2.76899E-05-7.65036E-07 2.92601E-19 1.78611E-18
 -1      1946 9.20853E-05-2.75532E-05-2.76461E-05-7.04162E-07 4.10894E-19 1.93718E-18
 -1      1947 9.29795E-05-2.77383E-05-2.79708E-05-6.68901E-07 5.98905E-19 1.33447E-18
 -1      1948 9.25583E-05-2.77715E-05-2.77609E-05-8.37489E-07 4.38345E-19 1.56273E-18
 -1      1949 9.23261E-05-2.76818E-05-2.77005E-05-8.24972E-07 2.48002E-19 1.60137E-18
 -1      1950 9.30285E-05-2.78610E-05-2.79356E-05-9.36316E-07 4.71480E-19 9.91789E-19
 -1      1951 9.29059E-05-2.78999E-05-2.78568E-05-8.25394E-07 4.23082E-20 1.71485E-18
 -1      1952 9.26621E-05-2.78152E-05-2.77908E-05-8.40738E-07 3.65979E-19 1.70228E-18
 -1      1953 9.32038E-05-2.79760E-05-2.79587E-05-1.02737E-06 3.65139E-19 9.58278E-19
 -1      1954 9.32663E-05-2.80199E-05-2.79611E-05-7.66321E-07 1.46715E-19 1.67228E-18
 -1      1955 9.30312E-05-2.79434E-05-2.78959E-05-7.96487E-07 6.98550E-20 1.68453E-18
 -1      1956 9.34424E-05-2.80818E-05-2.80137E-05-1.01429E-06 1.10670E-19 9.63692E-19
 -1      1957 9.36121E-05-2.81276E-05-2.80640E-05-6.84643E-07 5.72881E-19 1.32212E-18
 -1      1958 9.33967E-05-2.80607E-05-2.80033E-05-7.21138E-07 4.63791E-19 1.58909E-18
 -1      1959 9.37036E-05-2.81763E-05-2.80839E-05-9.43289E-07 4.66059E-19 7.69661E-19
 -1      1960 9.39290E-05-2.82215E-05-2.81601E-05-5.96260E-07 3.33734E-19 1.10702E-18
 -1      1961 9.37379E-05-2.81644E-05-2.81055E-05-6.33553E-07 5.21594E-19 1.37725E-18
 -1      1962 9.39625E-05-2.82584E-05-2.81589E-05-8.44524E-07 4.31791E-19 6.99083E-19
 -1      1963 9.42113E-05-2.83018E-05-2.82468E-05-5.11384E-07 3.33589E-19 9.70913E-19
 -1      1964 9.40451E-05-2.82537E-05-2.81989E-05-5.45956E-07 4.68781E-19 1.09130E-18
 -1      1965 9.42052E-05-2.83281E-05-2.82327E-05-7.37742E-07 5.02240E-19 7.33779E-19
 -1      1966 9.44589E-05-2.83699E-05-2.83239E-05-4.36285E-07 2.24674E-19 8.89626E-19
 -1      1967 9.43158E-05-2.83296E-05-2.82822E-05-4.66027E-07 1.47761E-19 1.11561E-18
 -1      1968 9.44254E-05-2.83865E-05-2.83018E-05-6.35608E-07 3.61309E-19 7.15291E-19
 -1      1969 9.46754E-05-2.84278E-05-2.83918E-05-3.74396E-07 1.54985E-20 7.73904E-19
 -1      1970 9.45519E-05-2.83938E-05-2.83556E-05-3.98233E-07 4.18802E-19 1.07090E-18
 -1      1971 9.46218E-05-2.84353E-05-2.83651E-05-5.45835E-07 2.05472E-19 1.01963E-18
 -1      1972 9.48662E-05-2.84781E-05-2.84520E-05-3.26948E-07-2.03287E-19 4.89306E-19
 -1      1973 9.47583E-05-2.84488E-05-2.84202E-05-3.44634E-07-1.54426E-19 5.55512E-19
 -1      1974 9.47964E-05-2.84765E-05-2.84223E-05-4.72505E-07 7.17174E-20 1.82978E-19
 -1      1975 9.50373E-05-2.85234E-05-2.85059E-05-2.93217E-07-5.05835E-19 6.85704E-19
 -1      1976 9.49411E-05-2.84970E-05-2.84775E-05-3.05294E-07-4.66276E-19 5.26212E-19
 -1      1977 9.49527E-05-2.85127E-05-2.84739E-05-4.16797E-07-2.24583E-19 1.42096E-20
 -1      1978 9.51941E-05-2.85662E-05-2.85549E-05-2.70401E-07 3.33612E-19 3.21685E-19
 -1      1979 9.51063E-05-2.85414E-05-2.85290E-05-2.78302E-07 4.48067E-20 4.08719E-19
 -1      1980 9.50954E-05-2.85466E-05-2.85206E-05-3.77218E-07-1.06740E-19 1.05899E-19
 -1      1981 9.53402E-05-2.86090E-05-2.85994E-05-2.53142E-07 3.72111E-19 1.77577E-19
 -1      1982 9.52589E-05-2.85844E-05-2.85758E-05-2.59451E-07 5.13062E-19 4.92243E-19
 -1      1983 9.52284E-05-2.85812E-05-2.85629E-05-3.49357E-07 4.36607E-19-4.94435E-19
 -1      1984 9.54754E-05-2.86534E-05-2.86390E-05-2.32729E-07 1.04539E-20 2.94394E-19
 -1      1985 9.54014E-05-2.86284E-05-2.86179E-05-2.41569E-07-4.53925E-20 4.06216E-19
 -1      1986 9.53547E-05-2.86197E-05-2.86005E-05-3.25194E-07 2.87112E-19-4.87855E-19
 -1      1987 9.55944E-05-2.87003E-05-2.86710E-05-1.96088E-07 2.00783E-19 7.25670E-19
 -1      1988 9.55321E-05-2.86750E-05-2.86541E-05-2.13580E-07 2.21673E-19 7.39505E-19
 -1      1989 9.54747E-05-2.86652E-05-2.86323E-05-2.92043E-07 1.14130E-21 4.81283E-19
 -1      1990 9.56840E-05-2.87482E-05-2.86905E-05-1.24803E-07 6.76097E-19 4.58475E-19
 -1      1991 9.56431E-05-2.87243E-05-2.86808E-05-1.59482E-07 4.51847E-19 5.23535E-19
 -1      1992 9.55846E-05-2.87204E-05-2.86554E-05-2.31310E-07 5.91564E-19 8.78930E-19
 -1      1993 9.57202E-05-2.87929E-05-2.86893E-05 5.30701E-09 3.61673E-19 1.21898E-18
 -1      1994 9.57175E-05-2.87741E-05-2.86919E-05-5.76053E-08 7.33244E-19 8.45986E-19
 -1      1995 9.56747E-05-2.87868E-05-2.86650E-05-1.17477E-07 4.57176E-19 1.27015E-18
 -1      1996 9.56664E-05-2.88250E-05-2.86556E-05 2.23248E-07-7.44292E-19 7.72312E-19
 -1      1997 9.57269E-05-2.88183E-05-2.86777E-05 1.19155E-07-1.53521E-19 1.06911E-18
 -1      1998 9.57270E-05-2.88628E-05-2.86539E-05 8.19680E-08-1.59805E-19 1.37970E-18
 -1      1999 9.54711E-05-2.88285E-05-2.85740E-05 5.59337E-07 5.37225E-19 7.54209E-19
 -1      2000 9.56285E-05-2.88449E-05-2.86251E-05 4.01102E-07-5.98452E-19 5.13734E-19
 -1      2001 9.57125E-05-2.89415E-05-2.86125E-05 4.04470E-07-4.13192E-19 7.11390E-19
 -1      2002 9.50692E-05-2.87785E-05-2.84267E-05 1.03775E-06 8.04387E-19 8.60348E-19
 -1      2003 9.53647E-05-2.88339E-05-2.85178E-05 8.16149E-07 1.52768E-18 8.84945E-19
 -1      2004 9.55892E-05-2.90071E-05-2.85297E-05 8.86674E-07 6.82964E-19 5.16676E-19
 -1      2005 9.43873E-05-2.86407E-05-2.81963E-05 1.66416E-06 2.91755E-19 1.02655E-19
 -1      2006 9.48642E-05-2.87552E-05-2.83381E-05 1.37963E-06 2.09388E-19 1.43691E-19
 -1      2007 9.53015E-05-2.90312E-05-2.83937E-05 1.55337E-06 1.28859E-18 4.71490E-19
 -1      2008 9.33560E-05-2.83731E-05-2.78696E-05 2.40920E-06-9.04272E-19 3.97121E-19
 -1      2009 9.40508E-05-2.85691E-05-2.80700E-05 2.07931E-06-1.00941E-19 3.29057E-19
 -1      2010 9.47824E-05-2.89702E-05-2.81949E-05 2.40035E-06-3.62260E-19 1.07980E-19
 -1      2011 9.19309E-05-2.79348E-05-2.74442E-05 3.19165E-06-8.70217E-19 1.38933E-18
 -1      2012 9.28587E-05-2.82307E-05-2.77044E-05 2.85786E-06-1.11358E-18 4.97951E-19
 -1      2013 9.39640E-05-2.87673E-05-2.79291E-05 3.37294E-06-1.30883E-18 6.40149E-19
 -1      2014 9.01220E-05-2.73007E-05-2.69342E-05 3.87019E-06-1.00219E-18 2.62012E-18
 -1      2015 9.12595E-05-2.77020E-05-2.72447E-05 3.59956E-06-8.04769E-19 2.00900E-18
 -1      2016 9.27957E-05-2.83631E-05-2.76011E-05 4.34670E-06-1.02703E-18 1.91615E-18
 -1      2017 8.80238E-05-2.64848E-05-2.63745E-05 4.25593E-06-5.77471E-19 2.29446E-18
 -1      2018 8.92945E-05-2.69724E-05-2.67126E-05 4.13239E-06-8.45207E-19 2.53991E-18
 -1      2019 9.12748E-05-2.77188E-05-2.72277E-05 5.12270E-06-7.48024E-19 2.84510E-18
 -1      2020 8.58355E-05-2.55608E-05-2.58208E-05 4.15591E-06 8.32508E-20 1.75194E-18
 -1      2021 8.71056E-05-2.60826E-05-2.61509E-05 4.25778E-06 6.40172E-20 2.03675E-18
 -1      2022 8.94812E-05-2.68484E-05-2.68382E-05 5.45329E-06-2.39818E-19 2.04335E-18
 -1      2023 8.38502E-05-2.46685E-05-2.53420E-05 3.44455E-06-1.22264E-19 2.00968E-18
 -1      2024 8.49442E-05-2.51418E-05-2.56205E-05 3.81210E-06 1.82177E-19 1.79312E-18
 -1      2025 8.76025E-05-2.58476E-05-2.64718E-05 5.10827E-06 1.47495E-20 2.12880E-18
 -1      2026 8.24014E-05-2.39881E-05-2.50065E-05 2.13783E-06 5.72141E-19 1.52199E-18
 -1      2027 8.31392E-05-2.43179E-05-2.51913E-05 2.74447E-06 1.98695E-19 1.62090E-18
 -1      2028 8.59237E-05-2.48964E-05-2.61715E-05 3.97118E-06 5.00964E-19 1.87547E-18
 -1      2029 8.17703E-05-2.36833E-05-2.48663E-05 4.27400E-07 9.65125E-19 1.45882E-18
 -1      2030 8.20175E-05-2.37939E-05-2.49269E-05 1.17314E-06 5.70278E-19 1.67097E-18
 -1      2031 8.47657E-05-2.42171E-05-2.59758E-05 2.12554E-06 4.74454E-19 1.42176E-18
 -1      2032 8.20891E-05-2.38344E-05-2.49430E-05-1.35962E-06 8.75620E-20 2.22886E-18
 -1      2033 8.18004E-05-2.36995E-05-2.48695E-05-6.21793E-07 1.27018E-18 2.08709E-18
 -1      2034 8.43813E-05-2.39929E-05-2.59106E-05-1.25355E-07 8.48677E-19 2.02810E-18
 -1      2035 8.32890E-05-2.44016E-05-2.52216E-05-2.86855E-06-1.56072E-18 1.37304E-18
 -1      2036 8.25238E-05-2.40558E-05-2.50278E-05-2.28232E-06-9.07377E-19 2.00767E-18
 -1      2037 8.48566E-05-2.42873E-05-2.59842E-05-2.33847E-06-2.48674E-19 2.26921E-18
 -1      2038 8.51243E-05-2.52421E-05-2.56556E-05-3.83977E-06-9.04221E-19 1.60784E-18
 -1      2039 8.40263E-05-2.47659E-05-2.53746E-05-3.49716E-06-1.55257E-18 1.28332E-18
 -1      2040 8.60743E-05-2.50141E-05-2.61850E-05-4.08350E-06-1.15962E-18 7.65853E-19
 -1      2041 8.72590E-05-2.61705E-05-2.61787E-05-4.18243E-06-4.08098E-20 2.36997E-18
 -1      2042 8.60112E-05-2.56589E-05-2.58539E-05-4.10157E-06-5.84792E-20 2.10751E-18
 -1      2043 8.77627E-05-2.59773E-05-2.64845E-05-5.08851E-06-6.81678E-19 4.34892E-19
 -1      2044 8.93706E-05-2.70245E-05-2.67217E-05-3.97064E-06 3.82831E-19 2.12927E-18
 -1      2045 8.81452E-05-2.65572E-05-2.63958E-05-4.10566E-06 4.84595E-19 2.31986E-18
 -1      2046 8.95992E-05-2.69558E-05-2.68429E-05-5.30496E-06 4.23556E-19 1.27474E-18
 -1      2047 9.12231E-05-2.77049E-05-2.72260E-05-3.38132E-06 1.57621E-19 2.59437E-18
 -1      2048 9.01468E-05-2.73294E-05-2.69328E-05-3.65216E-06 1.87069E-19 2.41618E-18
 -1      2049 9.13098E-05-2.77797E-05-2.72174E-05-4.87533E-06 1.75133E-19 2.01001E-18
 -1      2050 9.26931E-05-2.81799E-05-2.76531E-05-2.61679E-06 1.35375E-19 2.36966E-18
 -1      2051 9.18337E-05-2.79114E-05-2.74127E-05-2.94040E-06-2.67120E-19 2.24870E-18
 -1      2052 9.27240E-05-2.83660E-05-2.75702E-05-4.04223E-06-1.38587E-19 3.27456E-18
 -1      2053 9.37562E-05-2.84666E-05-2.79855E-05-1.84705E-06 6.44387E-19 1.17688E-18
 -1      2054 9.31286E-05-2.82968E-05-2.78047E-05-2.15806E-06 9.36028E-19 2.73918E-18
 -1      2055 9.37779E-05-2.87108E-05-2.78748E-05-3.05454E-06 5.78550E-19 1.32550E-18
 -1      2056 9.44554E-05-2.86070E-05-2.82241E-05-1.18426E-06 1.03329E-18 9.90722E-20
 -1      2057 9.40365E-05-2.85152E-05-2.80992E-05-1.44239E-06 4.83775E-19 4.23636E-19
 -1      2058 9.44870E-05-2.88587E-05-2.81173E-05-2.10691E-06 8.33595E-19 9.50825E-19
 -1      2059 9.48683E-05-2.86494E-05-2.83818E-05-6.82217E-07-4.66423E-19 1.19099E-18
 -1      2060 9.46146E-05-2.86113E-05-2.83028E-05-8.70619E-07 5.44628E-19 3.22236E-19
 -1      2061 9.49115E-05-2.88720E-05-2.82960E-05-1.31878E-06 5.30353E-19 9.11047E-19
 -1      2062 9.50822E-05-2.86382E-05-2.84772E-05-3.49182E-07 1.27849E-18 1.30946E-18
 -1      2063 9.49435E-05-2.86303E-05-2.84318E-05-4.68806E-07 5.47654E-19 1.03331E-18
 -1      2064 9.51276E-05-2.88097E-05-2.84176E-05-7.40218E-07 7.89544E-21 9.06236E-19
 -1      2065 9.51772E-05-2.86108E-05-2.85286E-05-1.61982E-07 7.98153E-19-1.29101E-19
 -1      2066 9.51082E-05-2.86125E-05-2.85056E-05-2.24861E-07 1.09850E-18 5.56750E-19
 -1      2067 9.52116E-05-2.87214E-05-2.84930E-05-3.71301E-07 1.96122E-18 7.21626E-19
 -1      2068 9.52117E-05-2.85935E-05-2.85515E-05-7.27897E-08 3.63948E-19-4.43260E-19
 -1      2069 9.51786E-05-2.85928E-05-2.85408E-05-1.03842E-07 8.90046E-19-9.71056E-20
 -1      2070 9.52295E-05-2.86583E-05-2.85314E-05-1.82007E-07 1.19535E-18 8.43910E-19
 -1      2071 9.52269E-05-2.86126E-05-2.85498E-05-8.98090E-08 1.70218E-19 7.46455E-19
 -1      2072 9.54271E-05-2.86359E-05-2.86160E-05 2.92290E-07-5.35834E-19-1.57961E-19
 -1      2073 9.54146E-05-2.87035E-05-2.85889E-05 1.63239E-07-3.06202E-19-1.61072E-18
 -1      2074 9.53729E-05-2.86948E-05-2.85687E-05 3.18730E-08 4.18931E-19-1.73931E-18
 -1      2075 9.53332E-05-2.87003E-05-2.85580E-05-3.88842E-08 3.24936E-19-1.05580E-18
 -1      2076 9.54846E-05-2.87984E-05-2.85849E-05 1.27998E-07 6.12962E-21-1.92190E-18
 -1      2077 9.52577E-05-2.86362E-05-2.85489E-05-8.81787E-08 4.43893E-19 7.60879E-20
 -1      2078 9.54029E-05-2.84210E-05-2.86984E-05 6.55059E-07-4.53450E-19-1.45883E-18
 -1      2079 9.54359E-05-2.85768E-05-2.86501E-05 4.88932E-07-1.29211E-18 1.67137E-18
 -1      2080 9.55696E-05-2.87592E-05-2.86399E-05 4.96349E-07-4.57068E-19 3.74990E-20
 -1      2081 9.52644E-05-2.80038E-05-2.88210E-05 1.05363E-06 1.69947E-18 1.04431E-18
 -1      2082 9.53576E-05-2.82644E-05-2.87486E-05 8.84845E-07 6.88836E-19 2.03018E-19
 -1      2083 9.55470E-05-2.85493E-05-2.87215E-05 9.79466E-07 1.54518E-19 4.69666E-19
 -1      2084 9.50012E-05-2.73943E-05-2.89749E-05 1.36680E-06 1.94392E-18 1.59803E-18
 -1      2085 9.51541E-05-2.77421E-05-2.88845E-05 1.25132E-06 9.01876E-19 1.67581E-18
 -1      2086 9.53711E-05-2.81243E-05-2.88281E-05 1.46608E-06 1.65601E-18 8.29603E-19
 -1      2087 9.46363E-05-2.66580E-05-2.91410E-05 1.46915E-06 1.56825E-18-1.67395E-19
 -1      2088 9.48303E-05-2.70453E-05-2.90453E-05 1.46106E-06 1.35917E-18-2.58236E-19
 -1      2089 9.50332E-05-2.74941E-05-2.89508E-05 1.80311E-06 9.14341E-19 9.10224E-19
 -1      2090 9.42327E-05-2.59185E-05-2.92915E-05 1.26068E-06 8.45393E-19-2.07988E-18
 -1      2091 9.44293E-05-2.62706E-05-2.92083E-05 1.39705E-06 9.91487E-19-1.64771E-19
 -1      2092 9.45676E-05-2.67268E-05-2.90754E-05 1.83819E-06-4.48990E-19-4.68860E-19
 -1      2093 9.38889E-05-2.53400E-05-2.93960E-05 7.10613E-07 2.84341E-19-1.72234E-18
 -1      2094 9.40352E-05-2.55696E-05-2.93443E-05 9.92580E-07 4.91251E-19-2.34242E-18
 -1      2095 9.40632E-05-2.59541E-05-2.91837E-05 1.46424E-06-8.33545E-19-2.37781E-18
 -1      2096 9.37192E-05-2.50880E-05-2.94304E-05-8.91968E-08 9.23034E-20-2.11387E-18
 -1      2097 9.37609E-05-2.51222E-05-2.94241E-05 2.81194E-07-5.90791E-19-1.63916E-18
 -1      2098 9.36559E-05-2.53567E-05-2.92586E-05 6.82774E-07-4.06121E-19-2.58521E-18
 -1      2099 9.38077E-05-2.52622E-05-2.93877E-05-9.75589E-07 1.40456E-18 1.40213E-18
 -1      2100 9.37114E-05-2.50695E-05-2.94304E-05-6.00741E-07 8.94826E-19 2.31070E-19
 -1      2101 9.34892E-05-2.51044E-05-2.92905E-05-3.78813E-07 4.28225E-19-3.75379E-19
 -1      2102 9.41889E-05-2.58747E-05-2.92781E-05-1.66087E-06 2.27291E-18 2.47416E-18
 -1      2103 9.39538E-05-2.54832E-05-2.93602E-05-1.41541E-06 1.62734E-18 4.23729E-19
 -1      2104 9.36733E-05-2.53175E-05-2.92777E-05-1.46349E-06 1.66755E-18 1.40273E-18
 -1      2105 9.47806E-05-2.68008E-05-2.91293E-05-1.85216E-06 1.24141E-18 1.15314E-18
 -1      2106 9.44811E-05-2.63100E-05-2.92300E-05-1.86559E-06 1.17432E-18 1.81188E-18
 -1      2107 9.42358E-05-2.60073E-05-2.92263E-05-2.21656E-06 1.31352E-18 1.07461E-18
 -1      2108 9.36635E-05-2.73483E-05-2.83761E-05 2.02182E-06 9.17264E-19 3.57605E-18
 -1      2109 9.47590E-05-2.73492E-05-2.88298E-05 3.12461E-06 9.43105E-19 3.97530E-18
 -1      2110 9.54960E-05-2.68483E-05-2.94218E-05 4.52973E-06 1.13741E-18 3.03150E-18
 -1      2111 9.44321E-05-2.71792E-05-2.88360E-05 2.49205E-06 1.14069E-18 2.48984E-18
 -1      2112 6.89743E-05-4.02443E-05-1.24907E-05 5.14314E-05 1.93208E-18 2.25962E-18
 -1      2113 5.05556E-05-4.18659E-05-4.72803E-06 4.36057E-05 5.89111E-19 5.18654E-18
 -1      2114 1.50055E-04-3.88662E-05-4.66392E-05 4.19816E-05 3.08384E-18-3.43599E-18
 -1      2115 1.27962E-04-4.13814E-05-3.75507E-05 4.09282E-05 2.78123E-18-2.48901E-18
 -1      2116 2.06468E-04-4.31786E-05-6.82591E-05-1.59282E-05-4.52485E-18 2.67451E-19
 -1      2117 1.93163E-04-3.61335E-05-6.68952E-05 7.11942E-07-4.27921E-18-1.68856E-18
 -1      2118 5.97100E-05-5.01016E-05-6.07363E-06-2.79931E-05 1.43826E-18 1.85225E-18
 -1      2119 7.68701E-05-5.10847E-05-1.22798E-05-3.44599E-05 5.58195E-19 1.75563E-18
 -1      2120 6.07368E-05-4.45420E-05-7.48622E-06-3.49531E-05 1.15112E-18 1.77136E-18
 -1      2121 8.72653E-05-8.72867E-06-3.37494E-05-1.05253E-05-6.25034E-19-2.26962E-18
 -1      2122 8.79802E-05-9.26433E-06-3.38215E-05-1.21047E-05-8.63603E-19-2.05673E-18
 -1      2123 9.04748E-05-1.30303E-05-3.32190E-05-1.18143E-05-1.03862E-18-1.78901E-18
 -1      2124 8.86728E-05-1.10570E-05-3.32968E-05-9.39070E-06-5.67175E-19-2.17114E-18
 -1      2125 1.78736E-04-5.47457E-05-5.35400E-05 3.08223E-05 2.19572E-18-2.64147E-18
 -1      2126 1.82570E-04-6.45700E-05-5.08607E-05 2.70969E-05 2.49684E-18-2.33527E-18
 -1      2127 1.81100E-04-3.34857E-05-6.18572E-05 3.04371E-05 1.48421E-18-4.04119E-18
 -1      2128 1.60763E-04-3.29331E-05-5.44902E-05 3.50083E-05 2.94963E-18-3.66088E-18
 -1      2129 1.96021E-04-2.81412E-05-7.08627E-05 1.15197E-05 8.21198E-19-6.02643E-18
 -1      2130 1.87131E-04-2.82660E-05-6.70147E-05 2.15777E-05 1.05350E-18-5.03053E-18
 -1      2131 1.88007E-04-2.01896E-05-7.13943E-05-3.24443E-06 2.76302E-18-6.93296E-18
 -1      2132 1.92194E-04-2.24759E-05-7.16364E-05 4.94796E-06 2.08963E-18-6.15793E-18
 -1      2133 1.82881E-04-2.73298E-05-6.59373E-05-1.82312E-05 3.14546E-18-6.37858E-18
 -1      2134 1.87817E-04-2.42838E-05-6.95218E-05-7.17467E-06 2.96504E-18-6.69431E-18
 -1      2135 1.59819E-04-3.39071E-05-5.39557E-05-2.80441E-05 3.23617E-18-5.98641E-18
 -1      2136 1.79714E-04-3.34761E-05-6.15738E-05-2.55263E-05 3.20761E-18-5.62091E-18
 -1      2137 1.66981E-04-2.60949E-05-5.94219E-05-3.89692E-06 2.31282E-18-4.27328E-18
 -1      2138 1.26298E-04-4.19430E-05-3.65594E-05-4.13783E-05 2.18746E-18-5.53155E-18
 -1      2139 1.48333E-04-4.09572E-05-4.55103E-05-4.00853E-05 2.11102E-18-6.38028E-18
 -1      2140 8.66268E-05-4.30115E-05-1.96130E-05-4.66982E-05 2.28529E-18-3.60984E-18
 -1      2141 1.07526E-04-4.05439E-05-2.85170E-05-5.10032E-05 2.81808E-18-4.21484E-18
 -1      2142 5.07818E-05-4.17840E-05-4.98185E-06-4.31314E-05 2.10869E-18-1.96220E-18
 -1      2143 6.69675E-05-3.88181E-05-1.22387E-05-4.99857E-05 2.04558E-18-3.04842E-18
 -1      2144 2.31210E-05-3.75303E-05 4.97665E-06-3.06775E-05 2.82062E-19-2.88796E-18
 -1      2145 3.33810E-05-3.50170E-05 1.52058E-07-3.95656E-05 1.39083E-18-1.90540E-18
 -1      2146 9.75709E-06-3.74393E-05 1.04110E-05-1.03221E-05-4.68515E-19-2.98537E-18
 -1      2147 1.22898E-05-3.57462E-05 8.84840E-06-1.94001E-05 3.89423E-19-3.28014E-18
 -1      2148 1.95140E-05-3.73089E-05 6.41814E-06 1.23392E-05-7.05790E-19-1.02110E-18
 -1      2149 1.28720E-05-3.55547E-05 8.47781E-06 3.10680E-06-2.04453E-19-1.60174E-18
 -1      2150 4.98226E-05-4.49431E-05-3.30646E-06 2.85875E-05-9.52489E-19-1.48983E-18
 -1      2151 3.34574E-05-4.47977E-05 3.00642E-06 1.98872E-05-9.23266E-19-1.16552E-18
 -1      2152 9.79626E-05-5.44591E-05-1.97406E-05 3.41371E-05-5.47183E-19-1.68009E-18
 -1      2153 7.16293E-05-5.33297E-05-1.02088E-05 2.79136E-05-3.82012E-19-1.85871E-18
 -1      2154 1.58551E-04-6.49088E-05-4.03791E-05 2.41758E-05-1.36415E-18-8.99549E-19
 -1      2155 1.25685E-04-6.11233E-05-2.94609E-05 2.36456E-05-8.74985E-19-1.47087E-18
 -1      2156 2.01339E-04-6.42506E-05-5.75896E-05-8.41058E-06-2.64370E-18-1.43233E-18
 -1      2157 1.77404E-04-6.38737E-05-4.88028E-05 5.72817E-06-2.56926E-18-1.05964E-18
 -1      2158 1.97814E-04-4.81386E-05-6.33344E-05-1.78362E-05-3.20136E-18-1.18034E-18
 -1      2159 2.04926E-04-4.03251E-05-6.87862E-05 8.64294E-06-4.00308E-18-6.17911E-19
 -1      2160 1.88977E-04-6.40346E-05-5.38859E-05 3.47296E-06 1.64054E-18 1.01559E-18
 -1      2161 2.10339E-04-6.13346E-05-6.22580E-05 6.40817E-06 6.44592E-19 7.94517E-19
 -1      2162 1.06272E-04-6.00254E-05-2.15535E-05-2.82268E-05 3.59989E-19 7.79694E-19
 -1      2163 1.31089E-04-6.13729E-05-3.04282E-05-2.98444E-05-5.37019E-19 8.95737E-19
 -1      2164 1.34692E-05-3.85300E-05 9.18377E-06-4.76589E-06 2.62051E-19-1.40015E-18
 -1      2165 1.99734E-05-3.99994E-05 7.21887E-06-1.20698E-05 9.37665E-19-9.44442E-20
 -1      2166 3.21079E-05-3.32878E-05-3.69935E-07-2.45114E-05 1.34466E-18 2.81215E-19
 -1      2167 1.13858E-04-4.35321E-05-2.97210E-05 4.95125E-05 3.20517E-18-2.51908E-18
 -1      2168 9.47004E-05-4.69233E-05-2.10084E-05 4.65446E-05 3.29242E-18-1.38702E-18
 -1      2169 3.03934E-05-3.44651E-05 1.14785E-06 3.80056E-05 1.03253E-18 5.46336E-18
 -1      2170 2.06918E-05-3.90172E-05 6.37767E-06 2.76497E-05 1.29850E-18 2.96123E-18
 -1      2171 1.43638E-04-6.86641E-05-3.27278E-05 1.99078E-05 4.58668E-19 3.69518E-19
 -1      2172 1.68966E-04-7.08148E-05-4.16571E-05-1.79499E-06 4.37704E-19-4.33681E-19
 -1      2173 1.78690E-04-6.91653E-05-4.69338E-05 1.44605E-05 1.75720E-18-1.13947E-18
 -1      2174 9.42142E-05-5.06734E-05-1.85698E-05 5.03486E-05 3.87094E-19-3.81430E-19
 -1      2175 9.71939E-05-2.43155E-05-3.13063E-05-1.00013E-05-1.47783E-18 9.92617E-20
 -1      2176 9.63519E-05-2.31096E-05-3.14562E-05-1.03808E-05-1.52713E-18-4.79288E-19
 -1      2177 1.30395E-05-2.62033E-05 4.86262E-06-5.40660E-07 3.36007E-19 4.03611E-19
 -1      2178 1.81840E-05-2.61369E-05 2.87063E-06 2.79398E-05 1.07107E-18 1.93632E-18
 -1      2179 1.74917E-04-6.87670E-05-4.54667E-05-1.11184E-05 2.08582E-19 1.69407E-20
 -1      2180 1.96794E-04-6.24853E-05-5.71114E-05-2.05979E-05-1.86813E-18-7.97905E-19
 -1      2181 1.50740E-04-6.41342E-05-3.71278E-05-1.18707E-05 1.66548E-18-1.73854E-19
 -1      2182 9.55212E-05-2.79500E-05-2.89680E-05-1.41892E-06-5.05526E-19 2.83126E-18
 -1      2183 9.53250E-05-2.87019E-05-2.85516E-05-8.65625E-08 1.41921E-18-4.81987E-19
 -1      2184 2.22585E-04-4.91722E-05-7.16322E-05 1.26338E-05-2.21414E-18 1.42259E-18
 -1      2185 1.76067E-04-3.79049E-05-5.91671E-05 2.08583E-05-2.36237E-18-3.44848E-18
 -1      2186 9.52629E-05-2.75662E-05-2.90053E-05-1.60031E-06-2.03835E-19 2.31056E-18
 -1      2187 9.50429E-05-2.71697E-05-2.90939E-05-1.85653E-06 4.63155E-19 1.84643E-18
 -1      2188 9.48907E-05-2.68433E-05-2.91598E-05-2.41448E-06-2.22357E-19 8.28996E-20
 -1      2189 9.56050E-05-2.76432E-05-2.91107E-05-2.21612E-06-1.38726E-18 1.36289E-18
 -1      2190 4.76996E-05-3.58372E-05-5.17409E-06 4.73577E-05-5.33207E-19 3.94760E-18
 -1      2191 1.57967E-04-4.34271E-05-4.84330E-05 2.19282E-05 2.26859E-18-4.62480E-18
 -1      2192 1.33700E-04-5.44152E-05-3.38268E-05 3.64499E-05 1.46134E-18-5.05636E-18
 -1      2193 1.04829E-04-6.06829E-05-1.95150E-05-3.28558E-05 1.48527E-18 1.50031E-18
 -1      2194 1.28950E-04-6.74273E-05-2.67856E-05 2.66622E-05 3.83282E-19 4.23516E-20
 -1      2195 7.42777E-05-5.11515E-05-1.08692E-05 3.49181E-05 4.27752E-19-9.97593E-19
 -1      2196 3.30910E-05-3.19437E-05-1.20196E-06 2.43629E-05 3.30343E-20-1.56532E-18
 -1      2197 1.28046E-05-2.38503E-05 4.07773E-06-8.52068E-07 5.98641E-19-1.92615E-18
 -1      2198 2.01479E-05-2.65356E-05 2.23465E-06-3.05683E-05 4.71797E-19-3.29072E-18
 -1      2199 5.06928E-05-3.72574E-05-5.98896E-06-4.81958E-05 1.08463E-18-2.35666E-18
 -1      2200 8.97992E-05-4.86971E-05-1.76976E-05-5.09151E-05 1.60725E-18-3.13926E-18
 -1      2201 1.57026E-04-4.45315E-05-4.77972E-05-1.94511E-05 1.06758E-18-3.91499E-18
 -1      2202 1.68198E-04-1.31570E-05-6.56630E-05-1.16472E-07 2.81638E-18-6.10806E-18
 -1      2203 1.71723E-04-1.40796E-05-6.64865E-05 1.88391E-06 1.48824E-18-7.26341E-18
 -1      2204 1.81661E-04-5.02392E-05-5.69671E-05 3.20086E-05 1.17568E-18-3.18357E-18
 -1      2205 1.72938E-04-2.79182E-05-6.08607E-05 1.04342E-05 2.07692E-18-5.81996E-18
 -1      2206 1.29085E-04-5.26438E-05-3.23345E-05-3.98197E-05 9.62653E-19-5.02079E-18
 -1      2207 2.13750E-04-5.37742E-05-6.70105E-05 1.25443E-05-2.32087E-19 1.07150E-18
 -1      2208 1.50018E-04-6.40211E-05-3.82466E-05-1.77127E-05 9.39360E-19 2.04558E-18
 -1      2209 1.79521E-04-6.58741E-05-4.81866E-05-1.32492E-05 1.37050E-18 1.58480E-18
 -1      2210 1.55384E-04-7.18962E-05-3.58810E-05-1.37286E-05 1.39337E-18 7.00073E-19
 -1      2211 8.81315E-05-1.11796E-05-3.30188E-05-3.65964E-06 2.56114E-19-2.01028E-18
 -1      2212 8.83659E-05-1.14500E-05-3.30011E-05-4.80050E-06 8.37487E-20-2.16609E-18
 -1      2213 8.87179E-05-1.19334E-05-3.29530E-05-5.81841E-06-4.68490E-20-2.18261E-18
 -1      2214 8.91235E-05-1.24043E-05-3.29252E-05-6.98967E-06-3.07207E-19-2.11886E-18
 -1      2215 8.98858E-05-1.38188E-05-3.25995E-05-4.90141E-06 2.04202E-20-1.99976E-18
 -1      2216 8.77855E-05-1.07209E-05-3.30617E-05 6.15505E-07 9.34777E-19-1.86431E-18
 -1      2217 8.77811E-05-1.07160E-05-3.30620E-05-4.95209E-07 7.03302E-19-1.90628E-18
 -1      2218 8.79667E-05-1.09459E-05-3.30433E-05 2.75682E-06 1.22101E-18-1.69735E-18
 -1      2219 8.78517E-05-1.08127E-05-3.30526E-05 1.63779E-06 1.01821E-18-1.81440E-18
 -1      2220 8.91027E-05-1.27665E-05-3.27187E-05 1.04943E-06 9.31906E-19-1.70768E-18
 -1      2221 8.84018E-05-1.14935E-05-3.29982E-05 4.88538E-06 1.50709E-18-1.42670E-18
 -1      2222 8.81618E-05-1.12164E-05-3.30163E-05 3.76244E-06 1.30390E-18-1.57767E-18
 -1      2223 8.93688E-05-1.31225E-05-3.26788E-05 3.01963E-06 1.22397E-18-1.50517E-18
 -1      2224 8.91828E-05-1.24774E-05-3.29196E-05 7.07215E-06 1.86464E-18-9.41517E-19
 -1      2225 8.87638E-05-1.19900E-05-3.29487E-05 5.90041E-06 1.66022E-18-1.21949E-18
 -1      2226 8.99269E-05-1.38707E-05-3.25945E-05 4.97271E-06 1.54385E-18-1.18316E-18
 -1      2227 9.04549E-05-1.40883E-05-3.27927E-05 9.21989E-06 2.03772E-18-4.07615E-19
 -1      2228 8.97734E-05-1.32775E-05-3.28380E-05 8.04221E-06 1.89304E-18-7.33716E-19
 -1      2229 9.08650E-05-1.51319E-05-3.24499E-05 6.86661E-06 1.80213E-18-7.60884E-19
 -1      2230 9.24535E-05-1.66876E-05-3.25727E-05 1.10553E-05 2.14336E-18 4.03519E-19
 -1      2231 9.13582E-05-1.53113E-05-3.26555E-05 1.00373E-05 2.09145E-18-3.23395E-20
 -1      2232 9.22921E-05-1.70896E-05-3.22090E-05 8.52529E-06 1.88371E-18-1.13430E-19
 -1      2233 9.54999E-05-2.08225E-05-3.20986E-05 1.17017E-05 1.88362E-18 1.80230E-18
 -1      2234 9.38098E-05-1.84805E-05-3.23222E-05 1.14681E-05 1.99891E-18 9.60403E-19
 -1      2235 9.43374E-05-2.00424E-05-3.17910E-05 9.48194E-06 1.89140E-18 7.08073E-19
 -1      2236 9.75134E-05-2.45971E-05-3.13129E-05 9.84446E-06 1.61251E-18 2.99282E-18
 -1      2237 9.62764E-05-2.22296E-05-3.17312E-05 1.10899E-05 1.79490E-18 2.31706E-18
 -1      2238 9.58123E-05-2.31980E-05-3.11188E-05 8.79075E-06 1.68566E-18 1.69238E-18
 -1      2239 9.63220E-05-2.56714E-05-3.02854E-05 6.87807E-06 1.48400E-18 2.64535E-18
 -1      2240 9.59153E-05-2.50958E-05-3.03046E-05-6.18951E-06-1.19374E-18-5.91087E-19
 -1      2241 9.52548E-05-2.58494E-05-2.97611E-05-4.27470E-06-1.06593E-18-6.24210E-19
 -1      2242 1.45861E-05-1.52018E-05 6.07491E-07 6.25055E-06-7.73712E-19 1.08886E-18
 -1      2243 1.96552E-05-1.76763E-05-5.79438E-07-1.12901E-05-2.38546E-19-1.37219E-19
 -1      2244 9.50721E-05-2.00225E-05-3.22125E-05-1.17691E-05-1.42812E-18-9.58113E-19
 -1      2245 9.54674E-05-2.33558E-05-3.09274E-05-7.96731E-06-1.34770E-18-7.93913E-19
 -1      2246 9.50498E-05-2.25585E-05-3.10537E-05-7.62111E-06-1.17171E-18-9.08674E-19
 -1      2247 9.32402E-05-1.77091E-05-3.23979E-05-1.13011E-05-1.25023E-18-1.27606E-18
 -1      2248 9.51422E-05-2.65375E-05-2.93447E-05-2.93653E-06-9.37080E-19-4.28295E-19
 -1      2249 9.46714E-05-2.69074E-05-2.90419E-05-1.87360E-06-6.69604E-19-4.97255E-19
 -1      2250 9.53383E-05-2.53653E-05-2.99963E-05-4.28519E-06-1.05352E-18-7.84070E-19
 -1      2251 9.44766E-05-2.72377E-05-2.87784E-05-1.02196E-06-5.66587E-19-4.12297E-19
 -1      2252 9.42191E-05-2.74514E-05-2.86123E-05-4.19844E-07-5.37493E-19-6.12604E-19
 -1      2253 9.50346E-05-2.66979E-05-2.93005E-05-1.91453E-06-6.92231E-19-5.09284E-19
 -1      2254 9.40708E-05-2.76318E-05-2.84513E-05 8.84608E-08-5.21699E-19-5.82318E-19
 -1      2255 9.39733E-05-2.77753E-05-2.83680E-05 4.18885E-07-3.98121E-19-5.54217E-19
 -1      2256 9.47312E-05-2.74267E-05-2.88577E-05-4.34917E-07-5.91034E-19-4.70881E-19
 -1      2257 9.38891E-05-2.78848E-05-2.82749E-05 7.02445E-07-4.78470E-19-7.69027E-19
 -1      2258 9.38959E-05-2.79919E-05-2.82424E-05 8.67457E-07-5.64273E-19-7.61501E-19
 -1      2259 9.45308E-05-2.78547E-05-2.85859E-05 4.37111E-07-5.91493E-19-5.89879E-19
 -1      2260 9.38652E-05-2.80639E-05-2.81940E-05 1.00596E-06-6.10684E-19-9.77987E-19
 -1      2261 9.39338E-05-2.81479E-05-2.81922E-05 1.06943E-06-4.38441E-19-9.90943E-19
 -1      2262 9.44393E-05-2.81236E-05-2.84286E-05 9.10369E-07-6.37448E-19-9.57090E-19
 -1      2263 9.39405E-05-2.81975E-05-2.81728E-05 1.11625E-06-3.01332E-19-1.07744E-18
 -1      2264 9.40414E-05-2.82643E-05-2.81888E-05 1.11848E-06-4.25150E-19-1.04047E-18
 -1      2265 9.44314E-05-2.83000E-05-2.83471E-05 1.12658E-06-4.06559E-19-1.41242E-18
 -1      2266 9.40712E-05-2.82990E-05-2.81876E-05 1.10963E-06-6.58859E-19-8.53058E-19
 -1      2267 9.41850E-05-2.83521E-05-2.82130E-05 1.07693E-06-7.83980E-19-9.09814E-19
 -1      2268 9.44786E-05-2.84175E-05-2.83152E-05 1.18168E-06-4.92620E-19-1.23212E-18
 -1      2269 9.42276E-05-2.83762E-05-2.82229E-05 1.03687E-06-6.62946E-19-7.46609E-19
 -1      2270 9.43423E-05-2.84178E-05-2.82525E-05 9.86728E-07-1.65104E-19-6.19275E-19
 -1      2271 9.45579E-05-2.84952E-05-2.83146E-05 1.14087E-06-7.01393E-19-7.16150E-19
 -1      2272 9.43904E-05-2.84340E-05-2.82686E-05 9.32109E-07 7.23212E-20-7.18689E-19
 -1      2273 9.44993E-05-2.84660E-05-2.82993E-05 8.76248E-07 3.54234E-20-6.28191E-19
 -1      2274 9.46528E-05-2.85447E-05-2.83331E-05 1.04864E-06-3.84300E-20-3.66443E-19
 -1      2275 9.45486E-05-2.84762E-05-2.83186E-05 8.18416E-07-2.06117E-20-6.63452E-19
 -1      2276 9.46487E-05-2.85002E-05-2.83486E-05 7.64780E-07 1.60585E-19-2.42411E-19
 -1      2277 9.47523E-05-2.85736E-05-2.83629E-05 9.35419E-07 6.56313E-20-1.64425E-19
 -1      2278 9.46967E-05-2.85057E-05-2.83695E-05 7.11550E-07-8.34695E-20-3.96541E-19
 -1      2279 9.47876E-05-2.85231E-05-2.83982E-05 6.65681E-07-2.53880E-19-6.51411E-19
 -1      2280 9.48503E-05-2.85871E-05-2.83988E-05 8.22085E-07-1.26481E-19-4.28264E-19
 -1      2281 9.48334E-05-2.85246E-05-2.84199E-05 6.22676E-07-6.67472E-19-9.24559E-19
 -1      2282 9.49165E-05-2.85366E-05-2.84474E-05 5.88790E-07-9.14071E-19-9.04011E-19
 -1      2283 9.49438E-05-2.85887E-05-2.84381E-05 7.23326E-07-7.53342E-19-9.80909E-19
 -1      2284 9.49602E-05-2.85344E-05-2.84699E-05 5.60524E-07-6.28630E-19-4.34406E-19
 -1      2285 9.50385E-05-2.85416E-05-2.84971E-05 5.42449E-07-1.89537E-19-3.80425E-19
 -1      2286 9.50323E-05-2.85798E-05-2.84798E-05 6.50197E-07-4.41000E-19-3.79075E-19
 -1      2287 9.50805E-05-2.85352E-05-2.85210E-05 5.33310E-07-3.31451E-19-2.99445E-19
 -1      2288 9.51580E-05-2.85379E-05-2.85493E-05 5.35412E-07-3.38996E-19-1.98470E-19
 -1      2289 9.51163E-05-2.85603E-05-2.85242E-05 6.12325E-07-3.87245E-19-2.09791E-19
 -1      2290 9.51991E-05-2.85259E-05-2.85757E-05 5.50655E-07-6.19432E-20-2.49287E-19
 -1      2291 9.52811E-05-2.85234E-05-2.86073E-05 5.78895E-07 2.21878E-20-2.26760E-19
 -1      2292 9.51971E-05-2.85279E-05-2.85728E-05 6.19965E-07-2.27315E-19 1.80301E-19
 -1      2293 9.53212E-05-2.85029E-05-2.86380E-05 6.25782E-07-7.34130E-20-3.52638E-19
 -1      2294 9.54142E-05-2.84936E-05-2.86757E-05 6.89064E-07 1.31155E-19-5.25134E-19
 -1      2295 9.52753E-05-2.84767E-05-2.86283E-05 6.86202E-07-7.71691E-20-2.76336E-19
 -1      2296 9.54519E-05-2.84592E-05-2.87130E-05 7.78286E-07 2.28893E-19-4.11303E-19
 -1      2297 9.55638E-05-2.84395E-05-2.87608E-05 8.90295E-07 2.66218E-19-4.89970E-19
 -1      2298 9.53495E-05-2.83964E-05-2.86945E-05 8.29517E-07 2.08179E-19-2.68403E-19
 -1      2299 9.55946E-05-2.83823E-05-2.88078E-05 1.03783E-06 4.49848E-19-6.34900E-19
 -1      2300 9.57347E-05-2.83457E-05-2.88710E-05 1.21959E-06 8.22773E-19-8.98269E-19
 -1      2301 9.54137E-05-2.82694E-05-2.87761E-05 1.07702E-06 4.22680E-19-3.96273E-19
 -1      2302 9.57480E-05-2.82509E-05-2.89313E-05 1.44934E-06 6.83366E-19-1.05070E-18
 -1      2303 9.59283E-05-2.81868E-05-2.90170E-05 1.73228E-06 5.75730E-19-9.02358E-19
 -1      2304 9.54530E-05-2.80663E-05-2.88789E-05 1.46854E-06 6.03121E-19-1.07606E-18
 -1      2305 9.59015E-05-2.80210E-05-2.90982E-05 2.09766E-06 1.68892E-19-1.38648E-18
 -1      2306 9.61398E-05-2.79033E-05-2.92223E-05 2.55957E-06-2.60297E-20-1.52015E-18
 -1      2307 9.54352E-05-2.77326E-05-2.90127E-05 2.08121E-06 3.89242E-19-1.94726E-18
 -1      2308 9.60293E-05-2.76410E-05-2.93202E-05 3.08101E-06 9.03695E-20-1.52486E-18
 -1      2309 9.63151E-05-2.74553E-05-2.94815E-05 3.74506E-06 5.53384E-20-1.80250E-18
 -1      2310 9.52956E-05-2.71919E-05-2.91793E-05 2.98974E-06-7.99884E-22-2.17311E-18
 -1      2311 9.60528E-05-2.70351E-05-2.95973E-05 4.50201E-06 2.48540E-19-1.59055E-18
 -1      2312 9.63916E-05-2.67383E-05-2.98107E-05 5.48249E-06 6.34299E-19-1.07790E-18
 -1      2313 9.49311E-05-2.63593E-05-2.93714E-05 4.27816E-06 3.61534E-19-9.43675E-19
 -1      2314 9.58563E-05-2.60845E-05-2.99324E-05 6.56042E-06 6.45873E-19-1.09255E-18
 -1      2315 9.62277E-05-2.56369E-05-3.02008E-05 7.97341E-06 4.59112E-19-3.59751E-19
 -1      2316 9.41566E-05-2.50798E-05-2.95731E-05 6.10044E-06 9.43423E-19-8.23696E-19
 -1      2317 9.52386E-05-2.46703E-05-3.02917E-05 9.47210E-06 3.60154E-20-4.16069E-19
 -1      2318 9.56037E-05-2.40641E-05-3.05960E-05 1.14310E-05-1.96373E-19-3.93281E-19
 -1      2319 9.26838E-05-2.31927E-05-2.97265E-05 8.61147E-06 4.96737E-19-1.31081E-18
 -1      2320 9.39293E-05-2.27647E-05-3.05689E-05 1.34545E-05-5.11525E-19-5.56463E-19
 -1      2321 9.42695E-05-2.21316E-05-3.08381E-05 1.60014E-05-9.97911E-21-9.29384E-19
 -1      2322 9.01099E-05-2.06069E-05-2.96938E-05 1.19629E-05-6.24588E-19-1.11182E-18
 -1      2323 9.17232E-05-2.07160E-05-3.05082E-05 1.86511E-05-2.30662E-19-2.92925E-19
 -1      2324 9.22225E-05-2.06025E-05-3.05713E-05 2.16133E-05-1.94248E-19-8.36505E-19
 -1      2325 8.59979E-05-1.75499E-05-2.91810E-05 1.62859E-05-2.87493E-19-1.11026E-18
 -1      2326 8.89730E-05-1.99186E-05-2.95966E-05 2.50115E-05 1.30589E-19-8.20034E-19
 -1      2327 9.04749E-05-2.18918E-05-2.91636E-05 2.78208E-05 2.09164E-19-8.13866E-19
 -1      2328 8.01890E-05-1.51430E-05-2.76210E-05 2.17412E-05-6.36135E-20-1.13822E-18
 -1      2329 8.77730E-05-2.38446E-05-2.70867E-05 3.16641E-05 5.59942E-19-2.65810E-19
 -1      2330 9.20458E-05-3.08197E-05-2.58469E-05 3.33390E-05 7.38401E-19-8.54127E-19
 -1      2331 7.39155E-05-1.68738E-05-2.41103E-05 2.85318E-05 2.14193E-19-1.43254E-19
 -1      2332 9.53382E-05-2.87476E-05-2.85421E-05-1.43995E-07 1.69799E-18-9.83669E-20
 -1      2333 1.00961E-04-2.99058E-05-3.02274E-05-3.13596E-05 1.17161E-18-8.23131E-19
 -1      2334 9.69707E-05-2.51029E-05-3.06115E-05-2.95182E-05 9.80414E-19-7.01449E-19
 -1      2335 9.82849E-05-2.42073E-05-3.16088E-05-2.59923E-05 6.80201E-19-3.61802E-19
 -1      2336 9.62578E-05-2.29193E-05-3.14423E-05-2.30512E-05 4.93082E-20-5.31017E-19
 -1      2337 8.60817E-05-1.99380E-05-2.81804E-05-2.79634E-05 1.14041E-18-2.06794E-18
 -1      2338 9.80172E-05-2.37129E-05-3.17424E-05-1.98385E-05-8.10968E-19-1.23791E-18
 -1      2339 9.67135E-05-2.37290E-05-3.13297E-05-1.69833E-05-1.41104E-18-2.04567E-18
 -1      2340 8.92010E-05-1.93435E-05-2.98117E-05-2.14064E-05-8.84807E-19-2.36426E-18
 -1      2341 9.79943E-05-2.48042E-05-3.12818E-05-1.44272E-05-8.84342E-19-1.73849E-18
 -1      2342 9.69748E-05-2.51211E-05-3.08361E-05-1.21177E-05-2.56122E-19-2.03992E-18
 -1      2343 9.21091E-05-2.12958E-05-3.02654E-05-1.58655E-05-9.83329E-19-1.97103E-18
 -1      2344 9.77106E-05-2.59967E-05-3.06632E-05-1.02004E-05-5.47541E-19-1.20183E-18
 -1      2345 9.68728E-05-2.62824E-05-3.02793E-05-8.49246E-06-6.11981E-19-1.07689E-18
 -1      2346 9.39905E-05-2.34776E-05-3.01689E-05-1.14765E-05 2.12824E-19-1.52257E-18
 -1      2347 9.72138E-05-2.68733E-05-3.00906E-05-7.10322E-06-3.36567E-19-6.81029E-19
 -1      2348 9.65360E-05-2.70504E-05-2.97941E-05-5.88548E-06 2.02117E-19-5.76921E-19
 -1      2349 9.49770E-05-2.51785E-05-2.98842E-05-8.17182E-06-3.85814E-19-6.25297E-19
 -1      2350 9.66287E-05-2.73866E-05-2.96340E-05-4.88792E-06 1.91707E-20-3.52702E-20
 -1      2351 9.60996E-05-2.74593E-05-2.94229E-05-4.00285E-06-7.81434E-19 3.12046E-20
 -1      2352 9.53658E-05-2.63037E-05-2.95835E-05-5.75338E-06-4.85754E-20-1.18582E-18
 -1      2353 9.61176E-05-2.76130E-05-2.93287E-05-3.40636E-06-6.03183E-19 1.42213E-20
 -1      2354 9.57085E-05-2.75964E-05-2.91835E-05-2.72238E-06-1.06036E-18 1.13112E-18
 -1      2355 9.53349E-05-2.71923E-05-2.92005E-05-2.91479E-06-4.70532E-19 1.31253E-19
 -1      2356 9.54191E-05-2.69221E-05-2.93619E-05-4.10784E-06-6.53600E-19-4.61573E-19
 -1      2357 9.37160E-05-2.78519E-05-2.82239E-05-6.65869E-07 5.65864E-19 1.00757E-18
 -1      2358 9.37478E-05-2.77370E-05-2.82726E-05-4.34564E-07 6.77057E-19 1.02442E-18
 -1      2359 9.38743E-05-2.76138E-05-2.83928E-05-5.10328E-08 7.87187E-19 1.04139E-18
 -1      2360 9.40486E-05-2.74589E-05-2.85071E-05 3.89532E-07 9.71784E-19 1.15638E-18
 -1      2361 9.44572E-05-2.76588E-05-2.86401E-05-5.31044E-08 8.10392E-19 7.44678E-19
 -1      2362 9.42478E-05-2.72371E-05-2.87128E-05 1.05439E-06 1.08526E-18 1.06795E-18
 -1      2363 9.46066E-05-2.69935E-05-2.89383E-05 1.85742E-06 1.06980E-18 1.24058E-18
 -1      2364 9.47449E-05-2.71472E-05-2.89854E-05 1.09572E-06 1.02302E-18 7.69486E-19
 -1      2365 9.37147E-05-2.80234E-05-2.81508E-05-9.73046E-07 5.48395E-19 7.82320E-19
 -1      2366 9.36599E-05-2.79315E-05-2.81598E-05-8.68388E-07 5.91110E-19 9.91942E-19
 -1      2367 9.43044E-05-2.79707E-05-2.84379E-05-7.06081E-07 6.38362E-19 5.67603E-19
 -1      2368 9.38121E-05-2.81547E-05-2.81370E-05-1.08822E-06 3.10838E-19 7.34111E-19
 -1      2369 9.37098E-05-2.80793E-05-2.81229E-05-1.06046E-06 3.90563E-19 6.94145E-19
 -1      2370 9.42642E-05-2.81747E-05-2.83304E-05-1.03697E-06 5.56693E-19 6.35706E-19
 -1      2371 9.39639E-05-2.82575E-05-2.81585E-05-1.08689E-06 1.02077E-19 5.33540E-19
 -1      2372 9.38400E-05-2.81955E-05-2.81319E-05-1.10432E-06 1.54570E-19 5.96752E-19
 -1      2373 9.43011E-05-2.83138E-05-2.82844E-05-1.16361E-06 3.37673E-19 3.03977E-19
 -1      2374 9.41394E-05-2.83380E-05-2.81996E-05-1.01926E-06 4.74775E-19 4.26700E-19
 -1      2375 9.40103E-05-2.82877E-05-2.81673E-05-1.06112E-06 3.46642E-19 5.56529E-19
 -1      2376 9.43844E-05-2.84099E-05-2.82773E-05-1.16527E-06 2.67813E-19 1.48497E-19
 -1      2377 9.43190E-05-2.84005E-05-2.82501E-05-9.18929E-07 2.17335E-19 7.48126E-19
 -1      2378 9.41944E-05-2.83602E-05-2.82161E-05-9.71503E-07 4.47203E-19 6.88695E-19
 -1      2379 9.44915E-05-2.84757E-05-2.82939E-05-1.09556E-06 2.23909E-19 3.17030E-19
 -1      2380 9.44913E-05-2.84484E-05-2.83035E-05-8.08193E-07 4.87751E-19 8.07400E-19
 -1      2381 9.43763E-05-2.84165E-05-2.82704E-05-8.62491E-07 4.94646E-19 7.68699E-19
 -1      2382 9.46070E-05-2.85195E-05-2.83239E-05-9.90677E-07 2.87370E-19 4.22070E-19
 -1      2383 9.46506E-05-2.84846E-05-2.83563E-05-7.01510E-07 2.03416E-19 8.66977E-19
 -1      2384 9.45470E-05-2.84596E-05-2.83253E-05-7.51824E-07 3.15040E-19 1.01150E-18
 -1      2385 9.47215E-05-2.85472E-05-2.83606E-05-8.74764E-07 4.03019E-19 1.09638E-18
 -1      2386 9.47952E-05-2.85123E-05-2.84065E-05-6.07732E-07 2.22095E-19 7.42422E-19
 -1      2387 9.47030E-05-2.84924E-05-2.83780E-05-6.50705E-07 1.85445E-19 7.55892E-19
 -1      2388 9.48302E-05-2.85636E-05-2.83999E-05-7.63483E-07 3.53628E-19 1.01958E-18
 -1      2389 9.49263E-05-2.85343E-05-2.84532E-05-5.31537E-07 2.68229E-19 2.31706E-19
 -1      2390 9.48440E-05-2.85179E-05-2.84273E-05-5.65598E-07 2.98741E-19 3.64324E-19
 -1      2391 9.49313E-05-2.85726E-05-2.84393E-05-6.66366E-07 5.84309E-19 7.41866E-19
 -1      2392 9.50464E-05-2.85538E-05-2.84963E-05-4.74211E-07-2.27351E-19 1.37638E-19
 -1      2393 9.49720E-05-2.85392E-05-2.84728E-05-4.99296E-07 6.89939E-20 2.50895E-19
 -1      2394 9.50254E-05-2.85781E-05-2.84772E-05-5.88302E-07 2.79317E-19 4.53013E-19
 -1      2395 9.51589E-05-2.85744E-05-2.85358E-05-4.33863E-07 3.18137E-19-5.85456E-19
 -1      2396 9.50903E-05-2.85596E-05-2.85145E-05-4.51402E-07 4.89710E-20-2.94963E-19
 -1      2397 9.51145E-05-2.85839E-05-2.85130E-05-5.30329E-07 1.14372E-19-4.30512E-20
 -1      2398 9.52674E-05-2.86003E-05-2.85715E-05-4.05110E-07 3.48116E-19-3.24747E-19
 -1      2399 9.52029E-05-2.85830E-05-2.85523E-05-4.18259E-07 2.29559E-19-4.31724E-19
 -1      2400 9.52020E-05-2.85948E-05-2.85459E-05-4.89787E-07 4.08678E-19-2.04855E-19
 -1      2401 9.53748E-05-2.86362E-05-2.86027E-05-3.78266E-07 1.38169E-19-1.87361E-19
 -1      2402 9.53134E-05-2.86142E-05-2.85860E-05-3.92359E-07 1.98196E-19-2.00791E-19
 -1      2403 9.52919E-05-2.86164E-05-2.85753E-05-4.59893E-07 4.80415E-20 3.83281E-19
 -1      2404 9.54827E-05-2.86880E-05-2.86277E-05-3.38139E-07-2.19338E-19-5.45824E-20
 -1      2405 9.54252E-05-2.86586E-05-2.86145E-05-3.61301E-07 9.50579E-20-4.04582E-19
 -1      2406 9.53889E-05-2.86561E-05-2.85999E-05-4.28773E-07 2.34224E-19 1.27951E-19
 -1      2407 9.55900E-05-2.87619E-05-2.86434E-05-2.62653E-07 3.14041E-19 1.01224E-18
 -1      2408 9.55395E-05-2.87228E-05-2.86355E-05-3.06430E-07 6.62087E-20 6.70221E-19
 -1      2409 9.54977E-05-2.87228E-05-2.86180E-05-3.78083E-07-2.77391E-19-1.35354E-19
 -1      2410 9.56913E-05-2.88632E-05-2.86455E-05-1.21781E-07 1.58755E-19 1.74920E-18
 -1      2411 9.56547E-05-2.88130E-05-2.86457E-05-2.01505E-07 4.80824E-19 1.38135E-18
 -1      2412 9.56221E-05-2.88266E-05-2.86269E-05-2.81501E-07-4.36359E-20 9.52122E-19
 -1      2413 9.57753E-05-2.89945E-05-2.86280E-05 1.22352E-07-1.74211E-19 1.56848E-18
 -1      2414 9.57639E-05-2.89341E-05-2.86401E-05-1.20583E-08 2.72439E-19 1.62413E-18
 -1      2415 9.57642E-05-2.89774E-05-2.86230E-05-1.03680E-07 2.55944E-19 2.12396E-18
 -1      2416 9.58210E-05-2.91517E-05-2.85836E-05 5.12853E-07-1.89330E-19 2.69879E-19
 -1      2417 9.58523E-05-2.90862E-05-2.86124E-05 3.03453E-07-2.36516E-19 7.46360E-19
 -1      2418 9.59205E-05-2.91809E-05-2.86025E-05 1.99334E-07 1.51906E-19 1.43368E-18
 -1      2419 9.57950E-05-2.93176E-05-2.85049E-05 1.09112E-06 6.89801E-19-1.55675E-21
 -1      2420 9.58934E-05-2.92595E-05-2.85555E-05 7.89040E-07-3.12281E-20-4.54396E-19
 -1      2421 9.60790E-05-2.94332E-05-2.85616E-05 6.76589E-07 2.69000E-19 2.35171E-19
 -1      2422 9.56481E-05-2.94558E-05-2.83859E-05 1.88363E-06 7.41662E-19 3.55934E-19
 -1      2423 9.58445E-05-2.94276E-05-2.84628E-05 1.48110E-06 1.41517E-18 2.77050E-19
 -1      2424 9.62118E-05-2.97116E-05-2.84980E-05 1.37348E-06 5.94676E-19 2.84115E-19
 -1      2425 9.53153E-05-2.95044E-05-2.82238E-05 2.88153E-06-8.41963E-19 6.44660E-19
 -1      2426 9.56442E-05-2.95402E-05-2.83299E-05 2.39110E-06-3.31964E-19-7.04402E-20
 -1      2427 9.62689E-05-2.99647E-05-2.84120E-05 2.31546E-06 1.23417E-19 1.13351E-18
 -1      2428 9.47212E-05-2.93769E-05-2.80221E-05 4.01489E-06-1.66549E-18 6.53473E-19
 -1      2429 9.52140E-05-2.95202E-05-2.81564E-05 3.48130E-06-1.41033E-18 5.12519E-19
 -1      2430 9.61737E-05-3.01048E-05-2.83085E-05 3.48315E-06-1.12195E-18 2.36710E-19
 -1      2431 9.37983E-05-2.89775E-05-2.77916E-05 5.12938E-06-1.46757E-18 2.16397E-18
 -1      2432 9.44711E-05-2.92703E-05-2.79483E-05 4.63794E-06-1.85517E-18 1.52085E-18
 -1      2433 9.58266E-05-3.00111E-05-2.81969E-05 4.78146E-06-2.39447E-18 1.05156E-18
 -1      2434 9.25203E-05-2.82364E-05-2.75506E-05 5.98099E-06-7.39203E-19 2.86863E-18
 -1      2435 9.33564E-05-2.86996E-05-2.77189E-05 5.65462E-06-4.39615E-19 2.84596E-18
 -1      2436 9.51277E-05-2.95550E-05-2.80908E-05 6.01312E-06-1.27523E-18 2.52581E-18
 -1      2437 9.09466E-05-2.71629E-05-2.73225E-05 6.26936E-06 7.00310E-20 1.97279E-18
 -1      2438 9.18804E-05-2.77706E-05-2.74867E-05 6.24561E-06-6.01675E-20 2.24367E-18
 -1      2439 9.40222E-05-2.86536E-05-2.80043E-05 6.87727E-06 1.47509E-19 2.55023E-18
 -1      2440 8.92598E-05-2.58942E-05-2.71305E-05 5.72354E-06 3.47034E-19 1.22465E-18
 -1      2441 9.01709E-05-2.65559E-05-2.72731E-05 6.10890E-06 6.93210E-20 1.33184E-18
 -1      2442 9.25642E-05-2.73427E-05-2.79468E-05 7.01929E-06 3.94646E-19 1.31769E-18
 -1      2443 8.77614E-05-2.47006E-05-2.69930E-05 4.22675E-06 8.63519E-19 1.26205E-18
 -1      2444 8.84920E-05-2.52700E-05-2.70977E-05 5.04045E-06 6.29269E-19 1.35316E-18
 -1      2445 9.09653E-05-2.58329E-05-2.79190E-05 6.14623E-06 8.25085E-19 7.15149E-19
 -1      2446 8.67983E-05-2.39126E-05-2.69202E-05 1.92361E-06 4.44649E-19 5.74970E-19
 -1      2447 8.71969E-05-2.42334E-05-2.69749E-05 3.06051E-06 6.12069E-19 8.31213E-19
 -1      2448 8.95795E-05-2.44927E-05-2.79116E-05 4.18203E-06 7.81505E-19 2.90179E-19
 -1      2449 8.66313E-05-2.37820E-05-2.69149E-05-7.69012E-07 4.25826E-19 1.33136E-18
 -1      2450 8.66076E-05-2.37560E-05-2.69135E-05 4.75427E-07 6.86507E-19 7.71066E-19
 -1      2451 8.87923E-05-2.37268E-05-2.79104E-05 1.38019E-06 4.51608E-19 3.56589E-19
 -1      2452 8.73130E-05-2.43550E-05-2.69750E-05-3.28770E-06-2.16311E-19 1.09842E-18
 -1      2453 8.68752E-05-2.39913E-05-2.69182E-05-2.19121E-06 9.30347E-20 1.43066E-18
 -1      2454 8.88481E-05-2.37928E-05-2.79053E-05-1.70303E-06-1.62467E-19 7.11179E-19
 -1      2455 8.86579E-05-2.54459E-05-2.70952E-05-5.13240E-06-1.01248E-18-1.80927E-19
 -1      2456 8.79095E-05-2.48559E-05-2.69902E-05-4.38579E-06-4.23500E-20 1.15321E-19
 -1      2457 8.97246E-05-2.46672E-05-2.78972E-05-4.40100E-06 3.85042E-19 8.50894E-19
 -1      2458 9.03287E-05-2.67330E-05-2.72658E-05-6.04014E-06-5.62106E-19 3.51390E-19
 -1      2459 8.94264E-05-2.60761E-05-2.71254E-05-5.72857E-06-1.59021E-18 1.04978E-19
 -1      2460 9.11444E-05-2.60582E-05-2.78973E-05-6.19540E-06-1.21240E-18 3.66745E-19
 -1      2461 9.19786E-05-2.79049E-05-2.74714E-05-6.03243E-06-3.33631E-19 1.62243E-18
 -1      2462 9.10772E-05-2.73217E-05-2.73124E-05-6.11925E-06 3.31245E-19 1.44010E-18
 -1      2463 9.27156E-05-2.75544E-05-2.79195E-05-6.88598E-06-7.83150E-19 1.55062E-18
 -1      2464 9.33617E-05-2.87662E-05-2.76923E-05-5.33968E-06-3.43994E-19 2.02676E-18
 -1      2465 9.25741E-05-2.83382E-05-2.75319E-05-5.70830E-06-4.26017E-19 1.58775E-18
 -1      2466 9.40993E-05-2.88040E-05-2.79721E-05-6.59282E-06-9.33217E-19 1.73999E-18
 -1      2467 9.43701E-05-2.92627E-05-2.79078E-05-4.27274E-06 4.52771E-19 1.33086E-18
 -1      2468 9.37533E-05-2.90075E-05-2.77608E-05-4.78275E-06 5.43414E-19 1.83189E-18
 -1      2469 9.51071E-05-2.96216E-05-2.80534E-05-5.63189E-06 2.73999E-19 1.08872E-18
 -1      2470 9.50082E-05-2.94429E-05-2.81005E-05-3.11435E-06 9.06563E-19-3.54377E-19
 -1      2471 9.45717E-05-2.93350E-05-2.79767E-05-3.64449E-06 8.09318E-19 3.74740E-19
 -1      2472 9.57050E-05-2.99918E-05-2.81533E-05-4.36168E-06 1.21468E-18 2.63108E-19
 -1      2473 9.53438E-05-2.94015E-05-2.82596E-05-2.06367E-06 7.62720E-19-3.95064E-19
 -1      2474 9.50663E-05-2.93972E-05-2.81632E-05-2.53162E-06 9.07259E-19-8.66732E-19
 -1      2475 9.59587E-05-3.00080E-05-2.82582E-05-3.07618E-06 1.23265E-18-1.58004E-18
 -1      2476 9.54648E-05-2.92363E-05-2.83809E-05-1.22884E-06-1.14866E-19-2.68435E-19
 -1      2477 9.53103E-05-2.92911E-05-2.83116E-05-1.59227E-06 2.36062E-19-4.92840E-19
 -1      2478 9.59719E-05-2.98000E-05-2.83557E-05-1.96406E-06 7.69050E-20-1.85354E-18
 -1      2479 9.54540E-05-2.90257E-05-2.84660E-05-6.42135E-07 5.64065E-19-8.47485E-20
 -1      2480 9.53848E-05-2.91047E-05-2.84202E-05-8.91252E-07 5.43144E-19 6.28329E-19
 -1      2481 9.58459E-05-2.94883E-05-2.84370E-05-1.11539E-06 2.61931E-19-1.14334E-18
 -1      2482 9.53838E-05-2.88315E-05-2.85200E-05-2.85559E-07 2.17136E-18-8.50143E-19
 -1      2483 9.53590E-05-2.89036E-05-2.84925E-05-4.31999E-07 1.08127E-18-9.76357E-19
 -1      2484 9.56628E-05-2.91631E-05-2.84978E-05-5.44998E-07 1.69802E-18-1.73077E-18
 -1      2485 9.58214E-05-2.87591E-05-2.87344E-05 1.26961E-06 1.07288E-18 1.20022E-18
 -1      2486 9.58661E-05-2.89160E-05-2.86890E-05 9.91992E-07 1.01622E-19 1.99620E-18
 -1      2487 9.58407E-05-2.89558E-05-2.86555E-05 6.65653E-07-4.07840E-19 1.23713E-18
 -1      2488 9.57966E-05-2.90109E-05-2.86219E-05 4.27762E-07-1.96789E-19-1.18769E-18
 -1      2489 9.61080E-05-2.92356E-05-2.86677E-05 9.27830E-07 5.28277E-19 2.57175E-18
 -1      2490 9.56914E-05-2.89498E-05-2.85937E-05 1.78457E-07-1.06548E-19-2.92216E-18
 -1      2491 9.56023E-05-2.89320E-05-2.85720E-05 2.83286E-08 8.52263E-19-2.63347E-18
 -1      2492 9.59365E-05-2.92058E-05-2.86061E-05 3.07319E-07 6.38960E-19-2.56128E-18
 -1      2493 1.83390E-04-6.86828E-05-4.82696E-05 9.37001E-06 1.40713E-18 3.54483E-19
 -1      2494 1.60743E-04-2.35743E-05-5.92754E-05-9.60071E-07 2.09937E-18-5.93389E-18
 -1      2495 1.58520E-04-3.14582E-05-5.47934E-05 2.82731E-06 3.11242E-18-5.08601E-18
 -1      2496 9.55806E-05-2.83183E-05-2.88257E-05 1.85359E-06 1.22461E-18 1.52215E-18
 -1      2497 9.57350E-05-2.85837E-05-2.87717E-05 1.61132E-06 1.07139E-18 8.20698E-19
 -1      2498 9.60451E-05-2.90224E-05-2.87342E-05 1.64859E-06 7.51804E-19 1.67924E-18
 -1      2499 9.51015E-05-2.76359E-05-2.89204E-05 2.23294E-06-3.76630E-19-3.51683E-19
 -1      2500 9.53632E-05-2.79911E-05-2.88631E-05 2.11133E-06 1.91500E-19 1.62783E-18
 -1      2501 9.56905E-05-2.85127E-05-2.88006E-05 2.30539E-06-3.88128E-19 6.09772E-20
 -1      2502 9.44374E-05-2.67847E-05-2.90085E-05 2.22638E-06-1.04264E-18-3.58219E-19
 -1      2503 9.47687E-05-2.71795E-05-2.89551E-05 2.30150E-06-9.09857E-19-4.86622E-19
 -1      2504 9.50362E-05-2.77108E-05-2.88612E-05 2.67618E-06-8.68663E-19-9.55396E-19
 -1      2505 9.37229E-05-2.59131E-05-2.90813E-05 1.71312E-06-1.17163E-18-2.80272E-18
 -1      2506 9.40482E-05-2.62684E-05-2.90390E-05 2.02371E-06-1.29381E-18-9.12853E-19
 -1      2507 9.41726E-05-2.67098E-05-2.89141E-05 2.55675E-06-1.61428E-18-4.35028E-19
 -1      2508 9.31676E-05-2.52377E-05-2.91334E-05 7.20954E-07 4.66432E-19-1.97364E-18
 -1      2509 9.33833E-05-2.54578E-05-2.91076E-05 1.22706E-06 4.45147E-19-1.80618E-18
 -1      2510 9.32975E-05-2.57054E-05-2.89615E-05 1.83809E-06 4.31550E-20-8.19673E-19
 -1      2511 9.29711E-05-2.49483E-05-2.91678E-05-6.06829E-07 1.05833E-18 1.02899E-18
 -1      2512 9.29867E-05-2.49621E-05-2.91592E-05 7.75937E-09 3.97978E-19-1.87327E-18
 -1      2513 9.26753E-05-2.49455E-05-2.90117E-05 5.61010E-07 5.40207E-19-1.81511E-18
 -1      2514 9.33083E-05-2.52125E-05-2.91880E-05-1.91160E-06 1.29554E-18 1.75746E-18
 -1      2515 9.30615E-05-2.49756E-05-2.91952E-05-1.37291E-06 5.53392E-19 1.55881E-18
 -1      2516 9.25672E-05-2.46836E-05-2.90732E-05-1.03891E-06 4.53517E-19 8.48907E-19
 -1      2517 9.41753E-05-2.60272E-05-2.91960E-05-2.78244E-06-5.72103E-20 5.50636E-19
 -1      2518 9.36887E-05-2.55704E-05-2.92166E-05-2.49432E-06 2.24398E-19 1.66329E-18
 -1      2519 9.31439E-05-2.50854E-05-2.91495E-05-2.51700E-06 6.34732E-19 1.70667E-18
 -1      2520 1.93763E-04-5.58875E-05-5.76110E-05 2.64835E-05 1.47045E-18-8.68632E-19
 -1      2521 1.17747E-04-6.13382E-05-2.42881E-05 2.92231E-05 8.24163E-19-9.02937E-19
 -1      2522 1.58444E-04-4.14318E-05-5.03893E-05 9.81256E-06 2.41023E-18-4.97335E-18
 -1      2523 1.49541E-04-4.84694E-05-4.35601E-05 1.53283E-05 2.54078E-18-5.16711E-18
 -1      2524 1.52509E-04-3.66642E-05-4.97034E-05-2.28626E-06 2.59266E-18-5.00300E-18
 -1      2525 2.50858E-05-2.00043E-05-1.98123E-06 3.36914E-05 1.86135E-19 2.33061E-18
 -1      2526 1.73543E-05-1.78052E-05 5.47004E-07 2.06363E-05-2.15676E-19 1.65468E-18
 -1      2527 1.75112E-04-7.20040E-05-4.42424E-05-1.16282E-06-5.44219E-20 2.15993E-19
 -1      2528 1.52265E-04-1.20279E-05-6.05486E-05 4.11672E-06 2.26370E-18-3.97078E-18
 -1      2529 1.50471E-04-7.21629E-06-6.20401E-05 2.14783E-06 1.84611E-18-4.77377E-18
 -1      2530 6.14278E-05-3.61443E-05-1.05072E-05-3.53456E-05-1.78089E-19 1.64981E-18
 -1      2531 7.61077E-05-4.33059E-05-1.39667E-05-3.86223E-05 4.69680E-19 2.97796E-18
 -1      2532 1.14253E-04-4.67731E-05-2.86257E-05-3.15159E-05 1.58332E-18-1.47998E-18
 -1      2533 1.05672E-04-3.63173E-05-2.91596E-05-3.34370E-05 1.14429E-18-7.83135E-19
 -1      2534 6.03502E-05-3.57848E-05-1.05806E-05 5.15577E-05-1.49290E-18 1.91726E-18
 -1      2535 4.23706E-05-2.82198E-05-5.51504E-06 4.34210E-05-7.31625E-19 3.45822E-18
 -1      2536 8.78376E-05-1.07955E-05-3.30538E-05-1.51762E-06 5.44116E-19-1.95333E-18
 -1      2537 8.79431E-05-1.09176E-05-3.30451E-05-2.63601E-06 3.55600E-19-1.98333E-18
 -1      2538 8.93419E-05-1.30894E-05-3.26817E-05-2.92865E-06 3.08844E-19-1.86710E-18
 -1      2539 8.90930E-05-1.27545E-05-3.27198E-05-9.40409E-07 5.27161E-19-1.78237E-18
 -1      2540 9.55163E-05-2.88989E-05-2.85466E-05-1.58498E-07 1.27181E-18-1.62699E-18
 -1      2541 1.42955E-04-5.67956E-05-3.71581E-05 2.61166E-05 2.29567E-18-5.35473E-18
 -1      2542 1.29687E-04-5.81164E-05-3.05409E-05 3.29777E-05 1.38373E-18-4.27434E-18
 -1      2543 1.22573E-04-5.65177E-05-2.82788E-05-3.90525E-05 9.07596E-19-3.97745E-18
 -1      2544 1.37705E-04-5.65185E-05-3.51648E-05-3.04129E-05 6.53274E-20-3.58316E-18
 -1      2545 1.51872E-04-8.56823E-06-6.21667E-05-3.63584E-06 1.78893E-18-5.64558E-18
 -1      2546 1.58324E-04-1.50815E-05-6.16032E-05-2.91098E-06 1.64515E-18-5.78164E-18
 -1      2547 1.47781E-04-1.76329E-05-5.59038E-05-7.49018E-06 2.34543E-18-3.86385E-18
 -1      2548 1.55474E-04-3.02298E-05-5.39312E-05 1.80111E-06 1.14138E-18-3.35785E-18
 -1      2549 1.55039E-04-2.22726E-05-5.76171E-05 3.82323E-06 1.49819E-18-3.89148E-18
 -1      2550 1.11913E-04-5.27184E-05-2.49760E-05 3.25081E-05 5.13725E-19-1.13804E-18
 -1      2551 9.41372E-05-5.12244E-05-1.84958E-05 3.76462E-05 9.63923E-19-8.27975E-19
 -1      2552 6.97405E-05-3.95957E-05-1.26030E-05 3.63512E-05 4.20975E-19-7.36707E-19
 -1      2553 1.02110E-04-4.10751E-05-2.54246E-05 3.50631E-05 8.19610E-19-1.49935E-18
 -1      2554 1.48571E-04-5.02639E-05-4.22146E-05-1.68383E-05-4.60018E-19-2.67408E-18
 -1      2555 1.56365E-04-4.16145E-05-4.95486E-05-7.52972E-06 8.71438E-19-2.64740E-18
 -1      2556 8.57713E-05-4.76513E-05-1.61289E-05-5.06789E-05 1.00140E-18-3.00257E-18
 -1      2557 1.05324E-04-5.27812E-05-2.25865E-05-4.90150E-05 1.18161E-18-3.62160E-18
 -1      2558 4.79419E-05-3.03358E-05-7.00565E-06-4.63173E-05 9.51006E-19-2.12097E-18
 -1      2559 6.55241E-05-3.84187E-05-1.14462E-05-5.26888E-05 1.21613E-18-2.13082E-18
 -1      2560 1.87811E-05-1.69421E-05-3.68500E-07-2.19090E-05 3.08108E-20-3.21703E-18
 -1      2561 2.82997E-05-1.93960E-05-3.53621E-06-3.57669E-05 1.73854E-19-2.20144E-18
 -1      2562 1.98700E-05-1.37729E-05-2.15233E-06 8.81949E-06 6.11558E-19-1.63011E-18
 -1      2563 1.58235E-05-1.41151E-05-3.09211E-07-8.39948E-06 8.70909E-19-3.22550E-18
 -1      2564 2.44103E-05-9.49030E-06-5.72363E-06-1.35823E-05 4.98849E-19-2.46974E-18
 -1      2565 5.07389E-05-3.04039E-05-8.36640E-06 3.39165E-05 2.19805E-19-7.12778E-19
 -1      2566 3.34449E-05-2.02284E-05-5.11849E-06 2.33171E-05 5.82229E-19-1.13884E-18
 -1      2567 6.96488E-05-3.22468E-05-1.57234E-05 3.60206E-05 3.77988E-19 8.04681E-21
 -1      2568 3.26070E-05-2.38953E-05-3.46156E-06-2.38260E-05-7.13625E-20 6.87791E-19
 -1      2569 4.66123E-05-2.97910E-05-6.83505E-06-3.26312E-05-1.35949E-19 1.45880E-18
 -1      2570 6.10537E-05-2.99948E-05-1.30763E-05-3.55313E-05-1.59793E-18 1.80439E-18
 -1      2571 9.73907E-05-5.35158E-05-1.88037E-05-3.49368E-05 1.17441E-18 1.55261E-18
 -1      2572 1.26932E-04-6.44939E-05-2.70763E-05-2.95543E-05 9.05478E-19-3.20126E-19
 -1      2573 1.10280E-04-5.48038E-05-2.39407E-05 4.67538E-05 1.01856E-19-3.10739E-18
 -1      2574 8.78052E-05-4.75692E-05-1.67033E-05 4.96863E-05-1.53122E-18-3.96147E-19
 -1      2575 1.85910E-04-6.45291E-05-5.12548E-05-2.52128E-05-9.01137E-19 6.14099E-20
 -1      2576 1.71593E-04-7.41977E-05-4.20012E-05 2.13075E-07 2.42781E-18 9.08231E-19
 -1      2577 9.07951E-05-1.50472E-05-3.24594E-05-6.79959E-06-3.76284E-19-1.88806E-18
 -1      2578 8.97021E-05-1.31814E-05-3.28467E-05-7.96124E-06-4.44499E-19-2.03477E-18
 -1      2579 9.03592E-05-1.39630E-05-3.28019E-05-9.13457E-06-7.13791E-19-1.95649E-18
 -1      2580 9.59664E-05-2.62501E-05-2.98461E-05 5.39160E-06 1.23325E-18 2.40133E-18
 -1      2581 9.59099E-05-2.51633E-05-3.02958E-05 6.48186E-06 1.42880E-18 1.82993E-18
 -1      2582 9.53030E-05-2.64880E-05-2.94642E-05 4.09927E-06 1.24144E-18 2.16246E-18
 -1      2583 2.16356E-05-1.11568E-05-3.90415E-06 1.16614E-05-1.68713E-18 1.32751E-18
 -1      2584 3.24540E-05-1.59033E-05-6.64286E-06-1.84349E-05-1.10326E-18 1.23519E-18
 -1      2585 9.11375E-05-1.50083E-05-3.26801E-05-9.81651E-06-8.37466E-19-1.77099E-18
 -1      2586 9.21628E-05-1.62807E-05-3.25988E-05-1.08473E-05-1.11343E-18-1.55684E-18
 -1      2587 9.36403E-05-1.92091E-05-3.18945E-05-9.19223E-06-1.13263E-18-1.30836E-18
 -1      2588 9.20645E-05-1.68196E-05-3.22387E-05-8.30156E-06-7.70514E-19-1.70280E-18
 -1      2589 1.50189E-04-3.73188E-05-4.85287E-05 2.52471E-06 1.97041E-19-2.31664E-18
 -1      2590 7.79027E-05-2.93852E-05-2.05352E-05 3.58702E-05 2.19593E-19-9.66676E-19
 -1      2591 8.81754E-05-2.83569E-05-2.54476E-05-3.45453E-05 7.37130E-19-1.11459E-18
 -1      2592 9.56848E-05-2.90867E-05-2.85502E-05-1.48692E-07 1.46408E-18-2.42908E-18
 -1      2593 1.23325E-04-5.81736E-05-2.77440E-05 3.54500E-05 3.41566E-19-2.97721E-18
 -1      2594 1.43771E-04-1.55043E-05-5.53092E-05 8.13890E-06 1.48633E-18-2.51050E-18
 -1      2595 9.49302E-05-2.67832E-05-2.92168E-05-2.92653E-06-5.13315E-20-3.19294E-19
 -1      2596 1.43694E-04-6.27312E-06-5.93478E-05-9.08106E-07 1.45605E-18-4.68681E-18
 -1      2597 1.34153E-04-6.28798E-06-5.53566E-05-3.99554E-06 1.40819E-18-3.18220E-18
 -1      2598 1.32346E-04-4.95722E-06-5.51784E-05 1.84329E-06 8.62915E-19-2.46774E-18
 -1      2599 9.45215E-05-2.62582E-05-2.92367E-05-3.39476E-06-5.61647E-20 5.21399E-19
 -1      2600 1.28039E-04-5.69258E-05-2.98220E-05-2.79162E-05 9.57571E-19-7.60993E-19
 -1      2601 1.04886E-04-4.71362E-05-2.47213E-05-3.52290E-05 1.10453E-18-5.57983E-20
 -1      2602 9.47223E-05-2.68503E-05-2.90588E-05 2.43204E-06 1.13413E-18 1.46602E-18
 -1      2603 9.50697E-05-2.66666E-05-2.92742E-05 3.31394E-06 1.17977E-18 1.84672E-18
 -1      2604 9.53202E-05-2.61402E-05-2.96596E-05 4.04087E-06 1.24110E-18 1.23099E-18
 -1      2605 9.50286E-05-2.66043E-05-2.93437E-05 2.52327E-06 1.21651E-18 7.71531E-19
 -1      2606 3.92242E-05-2.11897E-05-7.14833E-06 3.85164E-05-9.60747E-19 2.34522E-18
 -1      2607 1.52808E-04-7.01376E-05-3.54501E-05-1.05621E-05 1.89460E-18-3.51942E-19
 -1      2608 1.45233E-04-6.66447E-05-3.36996E-05-1.60689E-05 1.42746E-18 7.30566E-20
 -1      2609 3.48987E-05-1.37896E-05-8.55064E-06 1.75316E-05 3.01755E-20-1.66378E-18
 -1      2610 8.06484E-05-4.14779E-05-1.62419E-05 4.88971E-05-2.16883E-18-4.00964E-19
 -1      2611 1.46422E-04-5.45607E-05-3.95372E-05 1.26192E-05 1.82139E-18-5.50254E-18
 -1      2612 1.38292E-04-5.83232E-05-3.40781E-05-2.16911E-05-8.20563E-20-1.75627E-18
 -1      2613 1.44513E-04-5.58331E-05-3.80150E-05-1.94639E-05-1.72054E-19-2.41786E-18
 -1      2614 1.45517E-04-5.30816E-05-4.02538E-05-7.74244E-06-8.23369E-19-1.86273E-18
 -1      2615 4.40155E-05-2.25876E-05-8.58867E-06-4.03459E-05 4.53798E-19-2.71432E-18
 -1      2616 8.26229E-05-4.37518E-05-1.63075E-05-5.03036E-05 6.57298E-19-3.00294E-18
 -1      2617 1.18648E-04-5.70654E-05-2.60665E-05-4.06859E-05 8.37080E-19-3.42858E-18
 -1      2618 9.05550E-05-1.51695E-05-3.23303E-05 3.19337E-06 1.25689E-18-1.27226E-18
 -1      2619 9.03642E-05-1.48976E-05-3.23630E-05 2.26026E-06 1.11655E-18-1.42425E-18
 -1      2620 9.02299E-05-1.46950E-05-3.23920E-05 1.42228E-06 9.26827E-19-1.59441E-18
 -1      2621 9.01649E-05-1.46027E-05-3.24030E-05 4.65622E-07 8.15873E-19-1.62263E-18
 -1      2622 9.14152E-05-1.65896E-05-3.20553E-05 1.64086E-06 9.55950E-19-1.36133E-18
 -1      2623 9.21403E-05-1.75502E-05-3.20060E-05 6.47002E-06 1.76649E-18-5.87940E-19
 -1      2624 9.16127E-05-1.67516E-05-3.21058E-05 5.63235E-06 1.67254E-18-8.43582E-19
 -1      2625 9.35096E-05-1.97263E-05-3.16798E-05 7.63641E-06 1.82305E-18 2.22809E-20
 -1      2626 9.27717E-05-1.85187E-05-3.18397E-05 7.00381E-06 1.69557E-18-2.47486E-19
 -1      2627 9.34285E-05-1.98454E-05-3.15081E-05 5.73886E-06 1.60474E-18-3.58661E-19
 -1      2628 9.59037E-05-2.43851E-05-3.06430E-05 7.14191E-06 1.53901E-18 1.39726E-18
 -1      2629 9.53374E-05-2.30633E-05-3.10000E-05 7.83807E-06 1.66623E-18 1.01888E-18
 -1      2630 9.55178E-05-2.49986E-05-3.02008E-05 5.56138E-06 1.46441E-18 1.11466E-18
 -1      2631 9.52465E-05-2.39879E-05-3.05186E-05-5.29686E-06-8.55631E-19-8.82499E-19
 -1      2632 9.51677E-05-2.50048E-05-3.00900E-05-3.79747E-06-7.81773E-19-8.19782E-19
 -1      2633 9.43390E-05-2.09696E-05-3.14681E-05-8.01273E-06-1.03945E-18-1.16667E-18
 -1      2634 9.48021E-05-2.27894E-05-3.08734E-05-6.31137E-06-9.82538E-19-1.04192E-18
 -1      2635 9.46112E-05-2.24301E-05-3.09325E-05-5.71241E-06-8.57417E-19-1.03508E-18
 -1      2636 9.35114E-05-1.95885E-05-3.16827E-05-7.83232E-06-8.90766E-19-1.31128E-18
 -1      2637 9.65160E-05-2.95816E-05-2.86772E-05 1.13642E-06 1.34543E-18 4.47905E-18
 -1      2638 9.64655E-05-2.96212E-05-2.86457E-05 7.77301E-07 1.52206E-18 1.36689E-18
 -1      2639 9.53645E-05-2.59027E-05-2.97389E-05-2.69700E-06-7.35804E-19-7.61455E-19
 -1      2640 9.51972E-05-2.64909E-05-2.94575E-05-1.71562E-06-5.12448E-19-7.40351E-19
 -1      2641 9.52058E-05-2.46902E-05-3.02208E-05-3.53145E-06-7.27245E-19-9.75080E-19
 -1      2642 9.52200E-05-2.70054E-05-2.92115E-05-9.74369E-07-5.46495E-19-5.86094E-19
 -1      2643 9.50858E-05-2.73595E-05-2.90318E-05-3.68897E-07-5.87981E-19-8.12451E-19
 -1      2644 9.54178E-05-2.63286E-05-2.96154E-05-1.61339E-06-5.79406E-19-9.09095E-19
 -1      2645 9.50527E-05-2.76651E-05-2.88644E-05 9.85878E-08-6.18068E-19-6.97602E-19
 -1      2646 9.49754E-05-2.78894E-05-2.87540E-05 4.50171E-07-6.19120E-19-7.90994E-19
 -1      2647 9.54181E-05-2.73237E-05-2.91907E-05-3.34202E-07-6.72734E-19-7.85865E-19
 -1      2648 9.49335E-05-2.80745E-05-2.86436E-05 7.20344E-07-6.54692E-19-9.46178E-19
 -1      2649 9.49060E-05-2.82213E-05-2.85801E-05 9.04344E-07-6.82682E-19-1.07378E-18
 -1      2650 9.53575E-05-2.79379E-05-2.89008E-05 4.57092E-07-7.42568E-19-8.46924E-19
 -1      2651 9.48712E-05-2.83328E-05-2.85103E-05 1.03946E-06-6.17839E-19-1.12180E-18
 -1      2652 9.48791E-05-2.84298E-05-2.84782E-05 1.11544E-06-4.42819E-19-1.25933E-18
 -1      2653 9.52937E-05-2.83182E-05-2.87092E-05 9.00645E-07-7.06159E-19-9.43805E-19
 -1      2654 9.48551E-05-2.84947E-05-2.84369E-05 1.16215E-06-2.61661E-19-1.23197E-18
 -1      2655 9.48853E-05-2.85580E-05-2.84253E-05 1.17104E-06-3.28301E-19-1.01115E-18
 -1      2656 9.52450E-05-2.85491E-05-2.85880E-05 1.10868E-06-4.49794E-19-1.03968E-18
 -1      2657 9.48710E-05-2.85924E-05-2.84038E-05 1.16308E-06-3.30902E-19-8.92436E-19
 -1      2658 9.49134E-05-2.86322E-05-2.84053E-05 1.13303E-06-3.74014E-19-6.35247E-19
 -1      2659 9.52140E-05-2.86822E-05-2.85166E-05 1.16467E-06-2.02007E-19-7.94067E-19
 -1      2660 9.49066E-05-2.86463E-05-2.83971E-05 1.09432E-06-2.86787E-19-3.96342E-19
 -1      2661 9.49543E-05-2.86694E-05-2.84067E-05 1.04471E-06 9.82508E-20-5.70744E-19
 -1      2662 9.51981E-05-2.87501E-05-2.84798E-05 1.12885E-06-8.70872E-20-4.96771E-19
 -1      2663 9.49527E-05-2.86699E-05-2.84076E-05 9.92055E-07-3.28775E-20-6.22177E-19
 -1      2664 9.50014E-05-2.86808E-05-2.84219E-05 9.36229E-07-1.51083E-19-5.72777E-19
 -1      2665 9.51932E-05-2.87740E-05-2.84668E-05 1.04398E-06-7.23098E-20-6.25296E-19
 -1      2666 9.50033E-05-2.86721E-05-2.84288E-05 8.81337E-07-1.53274E-19-6.67108E-19
 -1      2667 9.50507E-05-2.86739E-05-2.84459E-05 8.28583E-07-3.19585E-19-7.59607E-19
 -1      2668 9.51957E-05-2.87679E-05-2.84701E-05 9.40118E-07-2.66996E-19-1.09823E-18
 -1      2669 9.50546E-05-2.86583E-05-2.84569E-05 7.79696E-07-5.88711E-19-6.66161E-19
 -1      2670 9.50996E-05-2.86529E-05-2.84757E-05 7.36716E-07-6.26235E-19-6.27098E-19
 -1      2671 9.52027E-05-2.87406E-05-2.84844E-05 8.38366E-07-3.50434E-19-7.09579E-19
 -1      2672 9.51041E-05-2.86315E-05-2.84898E-05 6.99907E-07-3.57974E-19-3.42988E-19
 -1      2673 9.51469E-05-2.86196E-05-2.85101E-05 6.72025E-07-2.42299E-19-9.80335E-20
 -1      2674 9.52116E-05-2.86969E-05-2.85067E-05 7.53872E-07-3.28468E-19-3.24930E-19
 -1      2675 9.51503E-05-2.85918E-05-2.85267E-05 6.52268E-07-4.90892E-19 5.67433E-20
 -1      2676 9.51913E-05-2.85728E-05-2.85489E-05 6.44486E-07-4.63450E-19-7.91752E-20
 -1      2677 9.52193E-05-2.86379E-05-2.85351E-05 6.98257E-07-2.22928E-19-1.59086E-19
 -1      2678 9.51911E-05-2.85364E-05-2.85682E-05 6.46603E-07-5.94575E-19 7.57708E-20
 -1      2679 9.52308E-05-2.85080E-05-2.85931E-05 6.64638E-07-3.46581E-19-4.19367E-20
 -1      2680 9.52221E-05-2.85607E-05-2.85692E-05 6.81662E-07-5.01911E-19 7.16277E-20
 -1      2681 9.52228E-05-2.84584E-05-2.86156E-05 6.94192E-07-1.33027E-20-2.79264E-19
 -1      2682 9.52610E-05-2.84163E-05-2.86447E-05 7.45596E-07-3.12539E-21-1.74812E-19
 -1      2683 9.52135E-05-2.84579E-05-2.86093E-05 7.14557E-07-4.08032E-19-5.64824E-20
 -1      2684 9.52380E-05-2.83456E-05-2.86713E-05 8.09791E-07 3.58521E-19-1.93489E-19
 -1      2685 9.52729E-05-2.82822E-05-2.87065E-05 9.05274E-07 5.44255E-19-2.29811E-19
 -1      2686 9.51826E-05-2.83158E-05-2.86563E-05 8.09443E-07 7.63575E-20 1.79467E-20
 -1      2687 9.52226E-05-2.81775E-05-2.87380E-05 1.01387E-06 3.40851E-19-2.00576E-19
 -1      2688 9.52489E-05-2.80803E-05-2.87816E-05 1.16886E-06 5.77294E-19-4.85538E-19
 -1      2689 9.51105E-05-2.81120E-05-2.87118E-05 9.82465E-07 3.41528E-19-3.55071E-19
 -1      2690 9.51505E-05-2.79221E-05-2.88187E-05 1.33521E-06 4.36457E-19-8.50497E-19
 -1      2691 9.51582E-05-2.77713E-05-2.88734E-05 1.57154E-06 2.39491E-19-1.01902E-18
 -1      2692 9.49650E-05-2.78109E-05-2.87766E-05 1.25485E-06 2.19117E-19-5.30427E-19
 -1      2693 9.49658E-05-2.75144E-05-2.89178E-05 1.82611E-06 1.39039E-19-1.46864E-18
 -1      2694 9.49245E-05-2.72639E-05-2.89891E-05 2.19753E-06 1.92733E-22-2.15101E-18
 -1      2695 9.46825E-05-2.73458E-05-2.88521E-05 1.66669E-06-1.48325E-19-1.19345E-18
 -1      2696 9.45908E-05-2.68825E-05-2.90333E-05 2.54072E-06 3.55031E-19-2.03332E-18
 -1      2697 9.44646E-05-2.65106E-05-2.91144E-05 3.05161E-06 5.71947E-19-1.63112E-18
 -1      2698 9.41708E-05-2.66343E-05-2.89312E-05 2.24304E-06 2.69798E-19-1.72463E-18
 -1      2699 9.38938E-05-2.59299E-05-2.91509E-05 3.51661E-06 4.73135E-19-1.59733E-18
 -1      2700 9.36058E-05-2.53628E-05-2.92385E-05 4.23350E-06 4.19695E-19-1.13468E-18
 -1      2701 9.32993E-05-2.55860E-05-2.89973E-05 3.00178E-06 7.87704E-19-1.76112E-18
 -1      2702 9.26504E-05-2.44941E-05-2.92455E-05 4.84251E-06 2.17480E-19-1.15761E-18
 -1      2703 9.20777E-05-2.36518E-05-2.93200E-05 5.82031E-06 6.07774E-19-1.71390E-18
 -1      2704 9.18297E-05-2.40306E-05-2.90181E-05 3.97762E-06 1.48899E-19-2.25806E-18
 -1      2705 9.05213E-05-2.23931E-05-2.92513E-05 6.58704E-06 9.41045E-19-2.00974E-18
 -1      2706 8.94787E-05-2.11993E-05-2.92647E-05 7.87284E-06 2.45176E-20-2.00191E-18
 -1      2707 8.94159E-05-2.17821E-05-2.89220E-05 5.16789E-06 1.91717E-19-2.43689E-18
 -1      2708 8.70193E-05-1.94705E-05-2.90273E-05 8.79880E-06-5.71456E-19-1.75307E-18
 -1      2709 8.52658E-05-1.79171E-05-2.88750E-05 1.04152E-05-4.72615E-19-1.64084E-18
 -1      2710 8.55615E-05-1.86671E-05-2.85652E-05 6.52376E-06 2.79737E-19-3.08410E-18
 -1      2711 8.15173E-05-1.57563E-05-2.82867E-05 1.15082E-05-3.82837E-19-1.56178E-18
 -1      2712 7.88354E-05-1.40650E-05-2.77578E-05 1.34510E-05-4.78838E-20-1.37757E-18
 -1      2713 7.96020E-05-1.46448E-05-2.76681E-05 7.95396E-06-2.28294E-19-2.48659E-18
 -1      2714 7.33634E-05-1.18350E-05-2.64669E-05 1.48183E-05 2.02163E-20-1.25713E-18
 -1      2715 6.98354E-05-1.08397E-05-2.51723E-05 1.71263E-05 2.11305E-19-9.26786E-19
 -1      2716 7.07305E-05-1.00750E-05-2.56934E-05 9.41743E-06 6.07746E-20-1.41518E-18
 -1      2717 6.21029E-05-9.25272E-06-2.25104E-05 1.93610E-05 5.43504E-19-6.08276E-19
 -1      2718 5.88525E-05-1.18553E-05-1.98082E-05 2.24116E-05 1.70968E-19-5.56924E-19
 -1      2719 5.80108E-05-6.23350E-06-2.16202E-05 1.11670E-05 4.85337E-19-1.39887E-18
 -1      2720 7.45647E-05-1.54603E-05-2.50917E-05-2.55386E-05 1.11455E-18-1.30176E-18
 -1      2721 7.59730E-05-1.39936E-05-2.65065E-05-2.24919E-05 3.35372E-19-1.13717E-18
 -1      2722 9.47497E-05-2.82946E-05-2.84808E-05-1.03237E-06 5.91065E-19 3.54101E-19
 -1      2723 9.47526E-05-2.81790E-05-2.85233E-05-9.07502E-07 6.30227E-19 4.56257E-19
 -1      2724 8.06873E-05-1.52330E-05-2.79608E-05-1.95079E-05-1.96806E-19-1.89847E-18
 -1      2725 8.24664E-05-1.60803E-05-2.85273E-05-1.69172E-05-1.00135E-18-1.39866E-18
 -1      2726 8.63644E-05-1.80601E-05-2.92432E-05-1.48933E-05-1.01975E-18-1.24630E-18
 -1      2727 8.76769E-05-1.93444E-05-2.93608E-05-1.27121E-05-3.30279E-19-8.06981E-19
 -1      2728 7.90035E-05-1.40545E-05-2.76500E-05-1.32905E-05-4.38479E-19-1.36595E-18
 -1      2729 9.02792E-05-2.10999E-05-2.96283E-05-1.11617E-05 9.72831E-20-6.34415E-19
 -1      2730 9.10447E-05-2.22021E-05-2.95581E-05-9.42599E-06 3.41397E-19-7.24413E-19
 -1      2731 8.53537E-05-1.80123E-05-2.87459E-05-1.03840E-05 6.56053E-20-1.69893E-19
 -1      2732 9.26837E-05-2.35150E-05-2.96228E-05-8.21398E-06-1.99840E-19 3.45269E-20
 -1      2733 9.30458E-05-2.43003E-05-2.94978E-05-6.89398E-06-1.10199E-19 8.18032E-20
 -1      2734 8.94570E-05-2.12652E-05-2.91554E-05-7.97424E-06 3.73444E-19 7.06280E-19
 -1      2735 9.40250E-05-2.51837E-05-2.94834E-05-5.94678E-06-3.63162E-19-3.75024E-19
 -1      2736 9.41418E-05-2.56639E-05-2.93641E-05-4.98130E-06-2.39083E-19-5.90023E-19
 -1      2737 9.19769E-05-2.36176E-05-2.92578E-05-6.01111E-06-4.28674E-19 4.48980E-19
 -1      2738 9.43663E-05-2.58707E-05-2.93271E-05-4.44147E-06 1.20595E-19-5.32388E-19
 -1      2739 9.43952E-05-2.61279E-05-2.92568E-05-3.82770E-06-1.11001E-19-5.73655E-19
 -1      2740 9.34345E-05-2.53537E-05-2.91988E-05-3.59015E-06 2.40309E-20 1.56429E-18
 -1      2741 9.30229E-05-2.48040E-05-2.92272E-05-4.57434E-06-1.70970E-19-3.61978E-19
 -1      2742 9.48976E-05-2.76449E-05-2.88261E-05-7.77216E-08 6.92941E-19 4.23984E-19
 -1      2743 9.50142E-05-2.73788E-05-2.89656E-05 3.91809E-07 8.72860E-19 4.72227E-19
 -1      2744 9.47948E-05-2.80424E-05-2.86095E-05-7.06761E-07 5.23808E-19 3.58780E-19
 -1      2745 9.48462E-05-2.78696E-05-2.86907E-05-4.46045E-07 5.88622E-19 3.47506E-19
 -1      2746 9.52833E-05-2.76558E-05-2.89910E-05-9.41734E-08 6.82424E-19 1.66631E-19
 -1      2747 9.52052E-05-2.81210E-05-2.87569E-05-7.11555E-07 5.93730E-19 1.87927E-19
 -1      2748 9.50511E-05-2.70029E-05-2.91701E-05 1.00306E-06 1.00447E-18 4.41291E-19
 -1      2749 9.52418E-05-2.65846E-05-2.93962E-05 1.78725E-06 1.04114E-18 3.93488E-19
 -1      2750 9.53541E-05-2.69038E-05-2.93436E-05 9.50531E-07 8.93120E-19 5.41419E-20
 -1      2751 9.47505E-05-2.84547E-05-2.84119E-05-1.16007E-06 4.61912E-19 1.03436E-19
 -1      2752 9.47220E-05-2.83768E-05-2.84291E-05-1.12113E-06 5.22849E-19 2.88874E-19
 -1      2753 9.51479E-05-2.84084E-05-2.86076E-05-1.03422E-06 7.51696E-19-3.98359E-20
 -1      2754 9.47823E-05-2.85536E-05-2.83829E-05-1.16459E-06 1.45193E-19 1.93721E-19
 -1      2755 9.47360E-05-2.85018E-05-2.83839E-05-1.17748E-06 2.28081E-19 2.07898E-19
 -1      2756 9.51151E-05-2.85815E-05-2.85180E-05-1.16214E-06 3.04419E-19 1.62297E-20
 -1      2757 9.48322E-05-2.86108E-05-2.83796E-05-1.09803E-06 1.32273E-19 2.53608E-19
 -1      2758 9.47776E-05-2.85776E-05-2.83708E-05-1.13950E-06 1.73246E-19 3.31668E-20
 -1      2759 9.51025E-05-2.86789E-05-2.84697E-05-1.16800E-06 2.82980E-19-1.42646E-20
 -1      2760 9.48907E-05-2.86394E-05-2.83923E-05-9.96286E-07 1.85775E-19 3.66361E-19
 -1      2761 9.48340E-05-2.86195E-05-2.83781E-05-1.05058E-06 1.77785E-19 1.56954E-19
 -1      2762 9.51041E-05-2.87259E-05-2.84494E-05-1.10333E-06 2.24895E-19-2.88054E-20
 -1      2763 9.49517E-05-2.86486E-05-2.84145E-05-8.83621E-07 1.24944E-19 7.76590E-19
 -1      2764 9.48966E-05-2.86381E-05-2.83975E-05-9.40272E-07 5.33660E-20 4.37196E-19
 -1      2765 9.51148E-05-2.87393E-05-2.84477E-05-1.00395E-06-1.94583E-20-6.72775E-20
 -1      2766 9.50120E-05-2.86453E-05-2.84418E-05-7.75888E-07 5.79282E-19 7.20566E-19
 -1      2767 9.49602E-05-2.86411E-05-2.84238E-05-8.28208E-07 4.15751E-19 8.79220E-19
 -1      2768 9.51311E-05-2.87310E-05-2.84579E-05-8.94221E-07 2.26748E-19 4.17420E-20
 -1      2769 9.50704E-05-2.86350E-05-2.84712E-05-6.82771E-07 6.45316E-19 6.29389E-19
 -1      2770 9.50222E-05-2.86345E-05-2.84532E-05-7.26863E-07 9.35278E-19 8.36235E-19
 -1      2771 9.51507E-05-2.87097E-05-2.84751E-05-7.90114E-07 7.58901E-19 3.55440E-19
 -1      2772 9.51275E-05-2.86228E-05-2.85010E-05-6.09212E-07 3.85498E-19-4.71938E-20
 -1      2773 9.50822E-05-2.86235E-05-2.84836E-05-6.43370E-07 4.98622E-19 1.79135E-19
 -1      2774 9.51730E-05-2.86824E-05-2.84962E-05-7.01363E-07 6.99601E-19-2.96779E-21
 -1      2775 9.51852E-05-2.86138E-05-2.85298E-05-5.56169E-07 3.75395E-19-3.20188E-19
 -1      2776 9.51416E-05-2.86129E-05-2.85135E-05-5.80607E-07 2.16250E-19 1.29317E-20
 -1      2777 9.51989E-05-2.86553E-05-2.85189E-05-6.32878E-07 2.53391E-19-6.87058E-19
 -1      2778 9.52472E-05-2.86139E-05-2.85565E-05-5.20725E-07-2.45540E-19 2.37733E-19
 -1      2779 9.52034E-05-2.86083E-05-2.85416E-05-5.37628E-07 2.18802E-19-1.54688E-20
 -1      2780 9.52310E-05-2.86348E-05-2.85415E-05-5.85455E-07-8.11460E-21 3.12034E-20
 -1      2781 9.53184E-05-2.86311E-05-2.85800E-05-4.95607E-07 9.36549E-20 4.91673E-19
 -1      2782 9.52722E-05-2.86168E-05-2.85671E-05-5.09459E-07-2.63681E-19 1.29384E-19
 -1      2783 9.52737E-05-2.86291E-05-2.85624E-05-5.55831E-07-1.99316E-19-7.84106E-20
 -1      2784 9.54054E-05-2.86754E-05-2.85988E-05-4.68127E-07-5.88668E-20 7.18072E-19
 -1      2785 9.53544E-05-2.86474E-05-2.85886E-05-4.86297E-07 3.00371E-19 8.05969E-19
 -1      2786 9.53342E-05-2.86485E-05-2.85802E-05-5.36110E-07 5.83244E-20 5.48292E-19
 -1      2787 9.55163E-05-2.87598E-05-2.86111E-05-4.18689E-07-1.48637E-19 4.69154E-19
 -1      2788 9.54583E-05-2.87120E-05-2.86047E-05-4.52180E-07-2.74796E-19 7.32745E-19
 -1      2789 9.54227E-05-2.87070E-05-2.85935E-05-5.12579E-07-1.61308E-19 1.05813E-18
 -1      2790 9.56607E-05-2.88993E-05-2.86145E-05-3.19118E-07-3.42975E-19 1.23517E-18
 -1      2791 9.55939E-05-2.88250E-05-2.86133E-05-3.83284E-07-6.95131E-20 7.43103E-19
 -1      2792 9.55529E-05-2.88221E-05-2.86005E-05-4.64006E-07-4.95531E-19 5.52706E-19
 -1      2793 9.58477E-05-2.91089E-05-2.86066E-05-1.31402E-07-7.41492E-20 2.07249E-18
 -1      2794 9.57720E-05-2.90022E-05-2.86124E-05-2.46264E-07-1.23842E-19 1.53375E-18
 -1      2795 9.57418E-05-2.90141E-05-2.85998E-05-3.59707E-07-4.34363E-19 6.46169E-19
 -1      2796 9.60829E-05-2.93994E-05-2.85854E-05 1.92114E-07 7.37911E-19 1.04882E-18
 -1      2797 9.60019E-05-2.92578E-05-2.85997E-05 2.58109E-09 5.03343E-19 1.60759E-18
 -1      2798 9.60079E-05-2.93031E-05-2.85907E-05-1.57932E-07 5.15338E-19 7.46609E-19
 -1      2799 9.63631E-05-2.97681E-05-2.85504E-05 7.05354E-07 6.51113E-19 2.59082E-19
 -1      2800 9.62861E-05-2.95972E-05-2.85743E-05 4.15892E-07 7.92180E-19 9.34915E-19
 -1      2801 9.63670E-05-2.97023E-05-2.85742E-05 1.94263E-07 1.11660E-18 3.12603E-19
 -1      2802 9.66666E-05-3.01875E-05-2.85039E-05 1.45949E-06 4.90562E-19 5.51059E-19
 -1      2803 9.66127E-05-3.00069E-05-2.85373E-05 1.04939E-06 5.75144E-19 2.95272E-19
 -1      2804 9.68234E-05-3.02064E-05-2.85539E-05 7.57659E-07 6.47579E-19 6.95571E-19
 -1      2805 9.69429E-05-3.05896E-05-2.84525E-05 2.48533E-06 9.30177E-20 4.78374E-19
 -1      2806 9.69438E-05-3.04400E-05-2.84931E-05 1.94853E-06 3.03306E-19 6.93690E-19
 -1      2807 9.73566E-05-3.07748E-05-2.85380E-05 1.59092E-06 1.40607E-19 2.78518E-19
 -1      2808 9.71023E-05-3.08547E-05-2.84078E-05 3.76497E-06-1.49652E-18 1.62590E-19
 -1      2809 9.72035E-05-3.08012E-05-2.84512E-05 3.12470E-06-2.92648E-19 5.47077E-19
 -1      2810 9.79044E-05-3.13122E-05-2.85399E-05 2.72997E-06-3.06401E-20 5.51679E-19
 -1      2811 9.70172E-05-3.08135E-05-2.83860E-05 5.19459E-06-2.65836E-18 4.82006E-19
 -1      2812 9.72720E-05-3.09406E-05-2.84251E-05 4.51999E-06-2.48888E-18 3.36561E-19
 -1      2813 9.83479E-05-3.16555E-05-2.85783E-05 4.15338E-06-1.75009E-18 4.48177E-19
 -1      2814 9.65464E-05-3.02821E-05-2.84039E-05 6.54899E-06-1.22580E-18 1.18875E-18
 -1      2815 9.69985E-05-3.06707E-05-2.84310E-05 5.96674E-06-2.03699E-18 6.67364E-19
 -1      2816 9.85114E-05-3.15827E-05-2.86735E-05 5.73537E-06-2.43705E-18-3.02551E-19
 -1      2817 9.55942E-05-2.91399E-05-2.84723E-05 7.47487E-06 4.92016E-19 6.37403E-19
 -1      2818 9.62488E-05-2.98246E-05-2.84817E-05 7.16184E-06 1.12120E-19 1.42312E-18
 -1      2819 9.81997E-05-3.08675E-05-2.88409E-05 7.20094E-06-8.18793E-19-7.03525E-19
 -1      2820 9.41968E-05-2.74390E-05-2.85874E-05 7.54842E-06 1.03478E-18 1.30503E-19
 -1      2821 9.49893E-05-2.83563E-05-2.85788E-05 7.69209E-06 9.00120E-19 7.78486E-19
 -1      2822 9.72849E-05-2.93909E-05-2.90804E-05 8.12149E-06 5.66762E-19-8.73179E-19
 -1      2823 9.25965E-05-2.54910E-05-2.87261E-05 6.42334E-06 6.64454E-19-2.80710E-19
 -1      2824 9.33792E-05-2.64515E-05-2.87064E-05 7.14466E-06 6.91367E-19-2.22023E-19
 -1      2825 9.58268E-05-2.72811E-05-2.93661E-05 7.99827E-06 7.68242E-19 1.05014E-19
 -1      2826 9.12256E-05-2.38368E-05-2.88484E-05 4.03699E-06 5.39232E-19 1.05941E-18
 -1      2827 9.18000E-05-2.45641E-05-2.88298E-05 5.30404E-06 8.28481E-19 6.43509E-19
 -1      2828 9.41612E-05-2.49980E-05-2.96449E-05 6.46484E-06 4.21071E-19 8.70503E-19
 -1      2829 9.05524E-05-2.30464E-05-2.89120E-05 7.53299E-07-1.62758E-19 1.38871E-18
 -1      2830 9.07461E-05-2.32906E-05-2.89066E-05 2.34334E-06 2.58688E-19 1.34148E-18
 -1      2831 9.28383E-05-2.32399E-05-2.98467E-05 3.54383E-06 5.99898E-20 2.09170E-18
 -1      2832 9.08406E-05-2.34250E-05-2.88929E-05-2.69772E-06 3.60328E-19 3.91199E-19
 -1      2833 9.05926E-05-2.30958E-05-2.89053E-05-1.13759E-06 1.21662E-20 7.19206E-19
 -1      2834 9.23824E-05-2.26479E-05-2.99115E-05-2.17748E-07 1.56338E-19 1.01627E-18
 -1      2835 9.19889E-05-2.48313E-05-2.87988E-05-5.50927E-06 1.70465E-19 5.96944E-19
 -1      2836 9.13818E-05-2.40503E-05-2.88228E-05-4.31997E-06 3.55564E-19 3.19598E-19
 -1      2837 9.29867E-05-2.34533E-05-2.98174E-05-3.90140E-06 3.56602E-19-3.26839E-19
 -1      2838 9.35877E-05-2.67607E-05-2.86641E-05-7.14028E-06-1.26047E-18 6.12118E-19
 -1      2839 9.28038E-05-2.57907E-05-2.86874E-05-6.51629E-06-5.33292E-19 9.42603E-19
 -1      2840 9.43920E-05-2.53444E-05-2.95933E-05-6.62424E-06-2.05733E-19 9.09685E-19
 -1      2841 9.51460E-05-2.86220E-05-2.85316E-05-7.48431E-06-1.52977E-18 1.38037E-18
 -1      2842 9.43809E-05-2.77330E-05-2.85422E-05-7.42981E-06-1.41338E-18 5.74195E-19
 -1      2843 9.60506E-05-2.76484E-05-2.93031E-05-7.91753E-06-1.14272E-18 6.69515E-19
 -1      2844 9.63104E-05-2.99950E-05-2.84338E-05-6.80285E-06-2.02479E-19 9.71962E-19
 -1      2845 9.57007E-05-2.93595E-05-2.84258E-05-7.17946E-06-5.91870E-19 1.67788E-18
 -1      2846 9.74306E-05-2.96856E-05-2.90161E-05-7.83126E-06-9.45331E-19 8.03143E-19
 -1      2847 9.69527E-05-3.07304E-05-2.83845E-05-5.52463E-06 2.29726E-19 1.20594E-18
 -1      2848 9.65518E-05-3.03960E-05-2.83589E-05-6.13966E-06 5.66073E-20 1.01752E-18
 -1      2849 9.82360E-05-3.10411E-05-2.87825E-05-6.77148E-06-1.68950E-19 1.24208E-18
 -1      2850 9.71271E-05-3.08979E-05-2.83803E-05-4.05824E-06 1.97543E-18-1.94067E-19
 -1      2851 9.69217E-05-3.08204E-05-2.83430E-05-4.73717E-06 1.31776E-18 2.21785E-19
 -1      2852 9.84398E-05-3.16277E-05-2.86243E-05-5.24266E-06 1.35263E-18 5.71914E-19
 -1      2853 9.69753E-05-3.06723E-05-2.84078E-05-2.69365E-06 1.91153E-18-1.41691E-18
 -1      2854 9.69180E-05-3.07682E-05-2.83664E-05-3.31509E-06 1.67548E-18-5.47867E-19
 -1      2855 9.81865E-05-3.15877E-05-2.85389E-05-3.66082E-06 1.94889E-18-4.22411E-19
 -1      2856 9.66450E-05-3.02366E-05-2.84514E-05-1.58723E-06 3.59689E-19-2.06070E-18
 -1      2857 9.66829E-05-3.04241E-05-2.84122E-05-2.08595E-06 1.32255E-18-1.38239E-18
 -1      2858 9.76722E-05-3.11512E-05-2.85098E-05-2.28392E-06 1.62016E-18-1.27007E-18
 -1      2859 9.62537E-05-2.97402E-05-2.84975E-05-7.92357E-07 7.64352E-19-2.06730E-18
 -1      2860 9.63400E-05-2.99531E-05-2.84650E-05-1.14858E-06-8.21560E-20-2.94343E-18
 -1      2861 9.70652E-05-3.05335E-05-2.85163E-05-1.22814E-06 8.67275E-19-3.02691E-18
 -1      2862 9.58997E-05-2.92967E-05-2.85375E-05-2.95000E-07 1.69310E-18-2.51526E-18
 -1      2863 9.60043E-05-2.94962E-05-2.85144E-05-5.14827E-07 1.61912E-18-1.72850E-18
 -1      2864 9.65067E-05-2.99084E-05-2.85408E-05-5.08276E-07 6.00971E-19-2.81899E-18
 -1      2865 9.60275E-05-2.93586E-05-2.85672E-05-7.61166E-08 1.40780E-18-3.51641E-18
 -1      2866 9.59139E-05-2.87821E-05-2.87736E-05 2.78071E-06-4.22009E-19-8.85551E-19
 -1      2867 9.62160E-05-2.91143E-05-2.87465E-05 2.47709E-06 6.66301E-19-1.44091E-19
 -1      2868 4.87761E-05-2.17997E-05-1.14795E-05 4.15915E-05-2.25607E-18 2.09471E-18
 -1      2869 3.55937E-05-1.40098E-05-8.48072E-06 3.03726E-05-1.67511E-18 2.60357E-18
 -1      2870 1.45342E-04-4.34268E-05-4.38498E-05 3.34428E-06-5.08643E-19-1.83870E-18
 -1      2871 1.41848E-04-3.26004E-05-4.74930E-05 9.14335E-06 1.64007E-19-1.12190E-18
 -1      2872 9.63593E-05-2.95513E-05-2.86220E-05 4.39424E-07 1.47329E-18-1.38382E-18
 -1      2873 9.62031E-05-2.94841E-05-2.85921E-05 1.64522E-07 1.66853E-18-3.18145E-18
 -1      2874 9.64306E-05-2.97632E-05-2.85811E-05 1.85933E-08 1.04919E-18-3.33957E-18
 -1      2875 9.67784E-05-2.99767E-05-2.86324E-05 6.16878E-07 2.02431E-18-1.02755E-19
 -1      2876 9.50068E-05-2.78362E-05-2.87996E-05 3.19737E-06-4.39374E-19-7.39800E-19
 -1      2877 9.54867E-05-2.82986E-05-2.87779E-05 3.09600E-06-8.81664E-20-1.09657E-18
 -1      2878 9.59540E-05-2.89774E-05-2.87191E-05 3.34232E-06 8.74092E-20-9.04456E-19
 -1      2879 9.64183E-05-2.93656E-05-2.87321E-05 2.00806E-06 9.26896E-19 3.40774E-19
 -1      2880 9.65239E-05-2.95439E-05-2.87010E-05 1.61805E-06 1.16906E-18 2.46178E-18
 -1      2881 9.68900E-05-3.00026E-05-2.86777E-05 1.46706E-06 1.07936E-18 3.55596E-18
 -1      2882 9.66754E-05-2.97177E-05-2.87106E-05 2.48637E-06 9.68010E-19 5.28713E-20
 -1      2883 9.38258E-05-2.66363E-05-2.88160E-05 3.01274E-06-6.85061E-19-5.48921E-19
 -1      2884 9.43994E-05-2.71580E-05-2.87979E-05 3.21227E-06-4.35555E-19-3.20972E-19
 -1      2885 9.47570E-05-2.77973E-05-2.87080E-05 3.73525E-06 6.34518E-19-1.05726E-18
 -1      2886 9.26670E-05-2.54385E-05-2.88371E-05 2.11353E-06 8.68250E-19-7.08657E-19
 -1      2887 9.31786E-05-2.58961E-05-2.88182E-05 2.63140E-06-1.46618E-19-1.28359E-20
 -1      2888 9.32973E-05-2.63474E-05-2.86948E-05 3.39374E-06 1.79283E-19 3.19876E-19
 -1      2889 9.18691E-05-2.45258E-05-2.88848E-05 5.31695E-07 2.28425E-19-1.99560E-18
 -1      2890 9.21510E-05-2.47990E-05-2.88572E-05 1.31966E-06 1.92701E-19-2.39065E-18
 -1      2891 9.19365E-05-2.49279E-05-2.87076E-05 2.18942E-06 3.06830E-19-9.83086E-19
 -1      2892 9.18357E-05-2.42495E-05-2.89782E-05-1.40331E-06-3.95281E-19 6.79400E-19
 -1      2893 9.17193E-05-2.42125E-05-2.89358E-05-5.37829E-07 1.70692E-19 7.35481E-19
 -1      2894 9.11335E-05-2.39360E-05-2.87790E-05 2.28123E-07 3.42448E-19-9.71001E-19
 -1      2895 9.27309E-05-2.48105E-05-2.91116E-05-2.95339E-06 2.69005E-19 1.02295E-18
 -1      2896 9.22124E-05-2.44433E-05-2.90591E-05-2.29653E-06 8.53623E-19-1.96456E-19
 -1      2897 9.13762E-05-2.38264E-05-2.89274E-05-1.87452E-06-4.41899E-19 1.50714E-18
 -1      2898 9.24577E-05-2.45434E-05-2.91037E-05-3.40750E-06-2.32999E-19 1.00330E-18
 -1      2899 2.72352E-05-8.52317E-06-7.46961E-06 1.89256E-05-6.46604E-19 2.61670E-18
 -1      2900 2.57005E-05-6.33482E-06-7.69306E-06 3.17419E-06-1.63375E-18 1.38553E-18
 -1      2901 1.45135E-04-3.19856E-05-4.91984E-05-7.91222E-06 2.67249E-18-3.97640E-18
 -1      2902 1.46541E-04-4.10210E-05-4.54478E-05-3.83970E-06 1.48337E-18-4.25761E-18
 -1      2903 1.38153E-04-1.96500E-05-5.12483E-05 1.06893E-05 1.17060E-18-1.53408E-18
 -1      2904 1.34167E-04-1.06671E-05-5.36581E-05 8.38048E-06 8.57621E-19-1.75188E-18
 -1      2905 9.75295E-05-4.78567E-05-2.10805E-05-3.59084E-05 7.26119E-19 1.41126E-18
 -1      2906 9.15820E-05-4.44116E-05-2.02215E-05 4.57064E-05-2.04442E-18-1.07827E-18
 -1      2907 7.01025E-05-3.31097E-05-1.50027E-05 4.65081E-05-1.98587E-18 6.04464E-19
 -1      2908 9.11742E-05-1.60851E-05-3.22089E-05 4.91469E-06 1.62883E-18-9.64623E-19
 -1      2909 9.08307E-05-1.55862E-05-3.22693E-05 3.99320E-06 1.43185E-18-1.11766E-18
 -1      2910 9.18077E-05-1.71969E-05-3.19610E-05 3.19616E-06 1.29867E-18-1.04181E-18
 -1      2911 9.24767E-05-1.82572E-05-3.17891E-05 4.61429E-06 1.49494E-18-7.73100E-19
 -1      2912 7.60105E-05-2.66459E-05-2.07094E-05-3.39349E-05 3.48448E-19-4.18752E-19
 -1      2913 7.21080E-05-1.83444E-05-2.25610E-05-3.04651E-05 5.41307E-19-4.76138E-19
 -1      2914 6.05188E-05-1.93156E-05-1.68694E-05 3.09659E-05-1.78936E-20 1.28114E-19
 -1      2915 9.07945E-05-1.55378E-05-3.22744E-05-3.92981E-06 8.87518E-20-1.82722E-18
 -1      2916 9.11303E-05-1.60244E-05-3.22156E-05-4.85396E-06-1.29688E-19-1.81660E-18
 -1      2917 1.11513E-04-5.45084E-05-2.40465E-05-4.14630E-05 3.35531E-19-2.49777E-18
 -1      2918 1.25289E-04-5.83972E-05-2.88730E-05-3.35429E-05 1.65013E-19-1.90704E-18
 -1      2919 7.70648E-05-3.78312E-05-1.63468E-05-4.80913E-05 1.06610E-18-2.69928E-18
 -1      2920 9.53195E-05-4.77922E-05-2.03062E-05-4.77574E-05 9.26866E-19-3.24917E-18
 -1      2921 1.05845E-04-5.03922E-05-2.33935E-05-4.08407E-05 4.73386E-19-1.98624E-18
 -1      2922 2.76454E-05-5.09485E-06-9.10166E-06-5.29982E-06 1.42083E-19-2.57625E-18
 -1      2923 2.98692E-05-7.93916E-06-8.86322E-06-2.03677E-05-3.55913E-19-2.19466E-18
 -1      2924 3.96691E-05-1.48189E-05-1.00060E-05-3.27130E-05-2.02441E-19-3.10988E-18
 -1      2925 5.65151E-05-2.52413E-05-1.29983E-05-4.38764E-05 6.02876E-19-3.24922E-18
 -1      2926 1.30431E-04-5.86909E-05-3.09084E-05 2.58859E-05 3.47601E-19-4.58316E-18
 -1      2927 1.14725E-04-5.45949E-05-2.55161E-05 3.66489E-05-5.24684E-19-2.98237E-18
 -1      2928 1.46159E-04-5.09588E-05-4.12488E-05 4.69460E-06 1.42767E-18-4.71924E-18
 -1      2929 1.40010E-04-5.65167E-05-3.57980E-05 1.34613E-05 1.13802E-18-5.86369E-18
 -1      2930 1.42007E-04-4.60514E-05-4.13577E-05-2.56553E-06 1.04638E-18-4.07592E-18
 -1      2931 1.36157E-04-1.36929E-05-5.32718E-05-9.71259E-06 2.06930E-18-2.29705E-18
 -1      2932 1.40951E-04-2.21991E-05-5.13699E-05-1.06281E-05 2.63681E-18-3.14122E-18
 -1      2933 8.50201E-05-3.60157E-05-2.02596E-05-3.72327E-05 6.23416E-19 8.27339E-19
 -1      2934 4.75130E-05-1.08198E-05-1.52168E-05 2.20128E-05 1.01856E-19-8.80067E-19
 -1      2935 6.63835E-05-2.57029E-05-1.70622E-05-3.44233E-05-5.09596E-19 7.76729E-19
 -1      2936 9.15595E-05-1.66747E-05-3.21148E-05-5.58137E-06-3.05787E-19-1.77429E-18
 -1      2937 9.20783E-05-1.74495E-05-3.20155E-05-6.40271E-06-4.72452E-19-1.73330E-18
 -1      2938 9.24286E-05-1.81831E-05-3.17980E-05-4.57465E-06-2.65454E-19-1.58285E-18
 -1      2939 9.12832E-05-1.63869E-05-3.20863E-05 2.86351E-08 6.98960E-19-1.43538E-18
 -1      2940 9.01608E-05-1.45977E-05-3.24036E-05-3.82763E-07 6.47132E-19-1.62228E-18
 -1      2941 9.02175E-05-1.46781E-05-3.23937E-05-1.34001E-06 5.10398E-19-1.65674E-18
 -1      2942 9.44874E-05-2.13999E-05-3.13175E-05 7.86138E-06 1.73075E-18 4.96408E-19
 -1      2943 5.35166E-05-1.89262E-05-1.39243E-05-2.96744E-05-6.77626E-19 1.71799E-18
 -1      2944 6.21157E-05-1.25431E-05-2.09761E-05-2.51107E-05 1.96618E-19 8.26863E-19
 -1      2945 9.53225E-05-2.56669E-05-2.98591E-05 2.58650E-06 1.07428E-18 1.37866E-19
 -1      2946 9.52079E-05-2.58906E-05-2.97021E-05 2.75911E-06 1.12083E-18 3.71854E-19
 -1      2947 1.22586E-04-6.92219E-06-5.01300E-05-5.12426E-06 2.25163E-18 5.38620E-19
 -1      2948 1.30396E-04-9.76127E-06-5.22183E-05-7.81937E-06 2.46254E-18-1.53578E-18
 -1      2949 1.25621E-04-1.38404E-05-4.82488E-05-1.01461E-05 3.12862E-18 1.50084E-19
 -1      2950 3.66206E-05-5.21871E-06-1.28212E-05-2.54525E-06-1.02011E-18 2.05829E-19
 -1      2951 3.19221E-05-6.73197E-06-9.89068E-06-8.85704E-06-8.15137E-19 1.24302E-19
 -1      2952 1.41861E-04-4.83643E-05-4.01876E-05-6.70784E-07-8.69426E-19-1.33773E-18
 -1      2953 6.38081E-05-2.60550E-05-1.56176E-05 4.06886E-05-2.37932E-18 1.36415E-18
 -1      2954 3.83788E-05-9.72677E-06-1.15805E-05 2.25953E-05-1.39760E-18 1.82663E-18
 -1      2955 1.32884E-04-3.28001E-05-4.31050E-05 1.11673E-05-1.02015E-19-3.67665E-19
 -1      2956 1.36421E-04-2.70367E-05-4.73204E-05 1.17746E-05 7.24531E-19-1.04820E-18
 -1      2957 1.28455E-04-2.11956E-05-4.63747E-05 1.29140E-05 7.10025E-19-3.10120E-19
 -1      2958 1.29314E-04-7.69594E-06-5.26802E-05 6.04338E-06 7.09390E-19-5.73653E-19
 -1      2959 1.23021E-04-5.89875E-06-5.07458E-05 2.79352E-06 6.53062E-19 6.52864E-19
 -1      2960 1.25080E-04-1.11626E-05-4.92537E-05 8.64118E-06 5.65077E-19 1.20173E-19
 -1      2961 1.37046E-04-2.74192E-05-4.72916E-05-1.12709E-05 2.43617E-18-2.15427E-18
 -1      2962 9.52359E-05-2.55589E-05-2.98383E-05 3.45371E-06 1.20473E-18 5.12179E-19
 -1      2963 3.67881E-05-4.90471E-06-1.27540E-05 6.63689E-06 2.05313E-19-2.25883E-18
 -1      2964 1.34716E-04-5.81986E-05-3.28455E-05 1.75428E-05 2.45110E-20-4.82565E-18
 -1      2965 1.26898E-04-5.59575E-05-3.03667E-05 2.09468E-05-4.10414E-19-5.13960E-18
 -1      2966 1.35172E-04-5.47496E-05-3.46118E-05 9.03679E-06 7.17397E-19-3.42297E-18
 -1      2967 7.00159E-05-3.12010E-05-1.61516E-05-4.44994E-05 2.13982E-19-2.96340E-18
 -1      2968 8.17700E-05-3.57663E-05-1.96919E-05-4.25715E-05 5.47077E-19-2.61151E-18
 -1      2969 6.32209E-05-2.30770E-05-1.68612E-05-3.85350E-05-6.21510E-20-3.03322E-18
 -1      2970 1.05745E-04-4.99913E-05-2.35981E-05 4.01600E-05-1.08367E-18-1.54880E-18
 -1      2971 9.40090E-05-4.19628E-05-2.21499E-05 3.98502E-05-1.33079E-18-1.03592E-18
 -1      2972 1.14380E-04-5.16943E-05-2.67320E-05 3.09588E-05-9.92220E-19-4.22260E-18
 -1      2973 9.47492E-05-2.24154E-05-3.09688E-05 6.33380E-06 1.52337E-18 3.15940E-19
 -1      2974 4.22542E-05-1.10434E-05-1.27414E-05-2.53920E-05-8.24798E-20-2.92099E-18
 -1      2975 7.05298E-05-1.08260E-05-2.52853E-05-1.74161E-05-9.48545E-19-8.02577E-19
 -1      2976 9.03427E-05-1.48691E-05-3.23660E-05-2.17617E-06 3.69967E-19-1.68438E-18
 -1      2977 9.05278E-05-1.51330E-05-3.23340E-05-3.12648E-06 1.79023E-19-1.74687E-18
 -1      2978 9.17771E-05-1.71543E-05-3.19661E-05-3.14012E-06 4.70647E-20-1.61805E-18
 -1      2979 9.14011E-05-1.65702E-05-3.20577E-05-1.58204E-06 4.27909E-19-1.57237E-18
 -1      2980 1.32799E-04-5.89094E-05-3.14759E-05-2.47823E-05-1.29702E-19-1.38792E-18
 -1      2981 1.35596E-04-5.73232E-05-3.39880E-05-1.48496E-05-5.30812E-19-1.39011E-18
 -1      2982 1.25664E-04-5.69210E-05-2.93210E-05-2.71839E-05-4.19281E-20-1.52351E-18
 -1      2983 4.09414E-05-4.36740E-06-1.53145E-05 1.24790E-06 1.64589E-19-1.97645E-18
 -1      2984 4.26358E-05-1.30068E-05-1.21928E-05-2.26075E-05-9.64559E-19 1.70952E-18
 -1      2985 5.08300E-05-1.15565E-05-1.63859E-05-2.23511E-05 5.83870E-19 9.55453E-19
 -1      2986 9.42666E-05-2.18634E-05-3.10651E-05 4.99445E-06 1.39037E-18-2.69762E-19
 -1      2987 9.38131E-05-2.09178E-05-3.12460E-05 4.60536E-06 1.40383E-18-4.77588E-19
 -1      2988 9.53851E-05-2.53549E-05-2.99893E-05 4.67259E-06 1.31513E-18 8.53559E-19
 -1      2989 9.08911E-05-2.43509E-05-2.85507E-05 2.50167E-06 8.69594E-20-1.01559E-18
 -1      2990 9.16400E-05-2.49923E-05-2.85378E-05 3.33196E-06 5.96775E-19-2.91535E-19
 -1      2991 9.24344E-05-1.79638E-05-3.19375E-05-6.91508E-06-5.72226E-19-1.68235E-18
 -1      2992 9.30727E-05-1.89449E-05-3.17983E-05-7.42496E-06-7.97657E-19-1.46885E-18
 -1      2993 9.38225E-05-2.05022E-05-3.14025E-05-6.42442E-06-8.31945E-19-1.37285E-18
 -1      2994 9.31917E-05-1.93884E-05-3.16017E-05-5.66223E-06-4.96912E-19-1.63944E-18
 -1      2995 9.49760E-05-2.34957E-05-3.06141E-05-4.12225E-06-7.91985E-19-1.15094E-18
 -1      2996 9.51656E-05-2.45963E-05-3.02611E-05-2.96712E-06-6.97162E-19-1.28756E-18
 -1      2997 9.55021E-05-2.55649E-05-2.99566E-05-2.13351E-06-5.83082E-19-1.13758E-18
 -1      2998 9.55360E-05-2.62650E-05-2.97006E-05-1.32659E-06-5.06140E-19-1.11241E-18
 -1      2999 9.52352E-05-2.44694E-05-3.03273E-05-2.62179E-06-5.98826E-19-1.23627E-18
 -1      3000 9.56808E-05-2.68750E-05-2.94735E-05-7.35989E-07-5.42981E-19-8.46176E-19
 -1      3001 9.56560E-05-2.73225E-05-2.92939E-05-2.09731E-07-5.69694E-19-7.80972E-19
 -1      3002 9.57052E-05-2.61951E-05-2.97911E-05-1.16272E-06-3.78862E-19-1.02083E-18
 -1      3003 9.56999E-05-2.77077E-05-2.91283E-05 1.72170E-07-6.81346E-19-6.23338E-19
 -1      3004 9.56631E-05-2.79936E-05-2.90058E-05 4.88847E-07-7.27274E-19-7.77755E-19
 -1      3005 9.58946E-05-2.73234E-05-2.93906E-05-1.53113E-07-5.54119E-19-7.82217E-19
 -1      3006 9.56551E-05-2.82311E-05-2.88881E-05 7.12340E-07-6.98067E-19-6.46784E-19
 -1      3007 9.56233E-05-2.84112E-05-2.88074E-05 8.82308E-07-6.49943E-19-7.45373E-19
 -1      3008 9.59354E-05-2.80467E-05-2.90988E-05 4.85462E-07-6.99985E-19-5.38269E-19
 -1      3009 9.55909E-05-2.85516E-05-2.87260E-05 9.93702E-07-5.83816E-19-7.23265E-19
 -1      3010 9.55684E-05-2.86610E-05-2.86752E-05 1.06558E-06-5.17056E-19-7.82582E-19
 -1      3011 9.59010E-05-2.84955E-05-2.88915E-05 8.47321E-07-6.26326E-19-6.98537E-19
 -1      3012 9.55264E-05-2.87369E-05-2.86210E-05 1.10209E-06-2.93246E-19-6.72331E-19
 -1      3013 9.55127E-05-2.87984E-05-2.85915E-05 1.11178E-06-9.66431E-20-6.21127E-19
 -1      3014 9.58321E-05-2.87593E-05-2.87485E-05 1.01616E-06-3.20633E-19-6.21283E-19
 -1      3015 9.54687E-05-2.88315E-05-2.85572E-05 1.10169E-06-5.50508E-20-6.97978E-19
 -1      3016 9.54620E-05-2.88604E-05-2.85426E-05 1.07510E-06 3.20697E-20-6.22476E-19
 -1      3017 9.57506E-05-2.88980E-05-2.86536E-05 1.05835E-06-2.55708E-20-6.86959E-19
 -1      3018 9.54197E-05-2.88649E-05-2.85229E-05 1.03920E-06-6.28746E-20-6.36606E-19
 -1      3019 9.54180E-05-2.88715E-05-2.85187E-05 9.94705E-07-1.84100E-19-7.32922E-19
 -1      3020 9.56677E-05-2.89524E-05-2.85943E-05 1.02403E-06-7.51924E-20-6.73235E-19
 -1      3021 9.53789E-05-2.88572E-05-2.85095E-05 9.47892E-07-3.69367E-19-6.23403E-19
 -1      3022 9.53805E-05-2.88484E-05-2.85124E-05 8.98459E-07-1.08169E-19-7.30817E-19
 -1      3023 9.55890E-05-2.89502E-05-2.85610E-05 9.49851E-07-2.35462E-19-4.46396E-19
 -1      3024 9.53448E-05-2.88212E-05-2.85108E-05 8.51243E-07 6.83402E-20-1.18986E-18
 -1      3025 9.53482E-05-2.88011E-05-2.85187E-05 8.06052E-07-3.15797E-19-6.72582E-19
 -1      3026 9.55162E-05-2.89098E-05-2.85468E-05 8.61989E-07-1.68813E-19-6.94601E-19
 -1      3027 9.53149E-05-2.87644E-05-2.85227E-05 7.65871E-07-4.77343E-19-5.22519E-19
 -1      3028 9.53187E-05-2.87351E-05-2.85343E-05 7.31663E-07-1.01908E-19-4.74497E-19
 -1      3029 9.54487E-05-2.88422E-05-2.85464E-05 7.78994E-07-2.41454E-19-1.12466E-18
 -1      3030 9.52856E-05-2.86895E-05-2.85425E-05 7.03935E-07-2.14008E-20-4.17836E-19
 -1      3031 9.52881E-05-2.86509E-05-2.85572E-05 6.86098E-07-2.17232E-19-4.63219E-19
 -1      3032 9.53833E-05-2.87526E-05-2.85565E-05 7.14111E-07-1.94784E-19-4.46638E-19
 -1      3033 9.52514E-05-2.85947E-05-2.85689E-05 6.75059E-07-4.93467E-19-2.79157E-19
 -1      3034 9.52501E-05-2.85445E-05-2.85864E-05 6.78549E-07-6.53065E-19-2.64249E-19
 -1      3035 9.53145E-05-2.86407E-05-2.85745E-05 6.77152E-07-2.68945E-19-6.11175E-19
 -1      3036 9.52042E-05-2.84733E-05-2.86011E-05 6.87889E-07-4.38574E-19 1.04362E-19
 -1      3037 9.51947E-05-2.84063E-05-2.86218E-05 7.18032E-07-8.17412E-20 5.21465E-20
 -1      3038 9.52333E-05-2.85007E-05-2.85992E-05 6.75901E-07-2.17856E-19-2.69486E-19
 -1      3039 9.51303E-05-2.83122E-05-2.86393E-05 7.51317E-07-2.16032E-20 8.85503E-20
 -1      3040 9.51054E-05-2.82196E-05-2.86636E-05 8.14514E-07-7.92698E-20-4.43114E-20
 -1      3041 9.51250E-05-2.83200E-05-2.86294E-05 7.17039E-07-1.90602E-19-1.49546E-19
 -1      3042 9.50080E-05-2.80898E-05-2.86833E-05 8.75320E-07 5.05305E-20-7.53046E-20
 -1      3043 9.49550E-05-2.79574E-05-2.87117E-05 9.79575E-07 4.02215E-19-3.43508E-19
 -1      3044 9.49669E-05-2.80775E-05-2.86643E-05 8.06468E-07 2.71319E-20 9.93160E-21
 -1      3045 9.48020E-05-2.77726E-05-2.87328E-05 1.07122E-06 1.99214E-19-3.01702E-19
 -1      3046 9.47005E-05-2.75789E-05-2.87652E-05 1.22647E-06-1.02269E-19-7.80617E-19
 -1      3047 9.47230E-05-2.77403E-05-2.87022E-05 9.48782E-07 9.24071E-20-6.88325E-19
 -1      3048 9.44426E-05-2.72943E-05-2.87864E-05 1.35749E-06-3.91813E-19-7.48218E-19
 -1      3049 9.42415E-05-2.69890E-05-2.88227E-05 1.58822E-06-3.34417E-19-1.28325E-18
 -1      3050 9.43249E-05-2.72465E-05-2.87402E-05 1.15131E-06-1.73648E-19-1.16319E-18
 -1      3051 9.38420E-05-2.65864E-05-2.88363E-05 1.74442E-06-1.00779E-20-8.54275E-19
 -1      3052 9.35021E-05-2.61512E-05-2.88683E-05 2.03871E-06 5.63903E-19-8.86079E-19
 -1      3053 9.36863E-05-2.65285E-05-2.87683E-05 1.40065E-06 6.70170E-20-5.47367E-19
 -1      3054 9.28724E-05-2.55634E-05-2.88645E-05 2.21412E-06 3.94034E-19-1.54005E-18
 -1      3055 9.22912E-05-2.49228E-05-2.88818E-05 2.58696E-06 2.51777E-20-2.06105E-18
 -1      3056 9.26939E-05-2.55148E-05-2.87690E-05 1.66542E-06 2.54884E-19-1.18785E-18
 -1      3057 9.13077E-05-2.40756E-05-2.88391E-05 2.75277E-06 1.66283E-19-1.98528E-18
 -1      3058 9.03392E-05-2.31489E-05-2.88163E-05 3.19462E-06-1.19893E-19-2.37690E-18
 -1      3059 9.11393E-05-2.40682E-05-2.87097E-05 1.89075E-06-1.53487E-19-1.75542E-18
 -1      3060 8.88282E-05-2.19584E-05-2.86944E-05 3.29251E-06-6.37597E-19-2.22189E-18
 -1      3061 8.72559E-05-2.06583E-05-2.85805E-05 3.76561E-06-1.41413E-19-2.88664E-18
 -1      3062 8.87407E-05-2.20481E-05-2.85277E-05 1.95761E-06-3.38215E-19-1.91481E-18
 -1      3063 8.49784E-05-1.90511E-05-2.83048E-05 3.69314E-06 2.96797E-19-2.42728E-18
 -1      3064 8.24973E-05-1.73146E-05-2.80010E-05 4.11828E-06 2.65360E-19-2.74973E-18
 -1      3065 8.51072E-05-1.93231E-05-2.81085E-05 1.65399E-06-7.32882E-22-1.66242E-18
 -1      3066 7.91313E-05-1.52749E-05-2.74347E-05 3.72240E-06 4.53484E-19-2.57690E-18
 -1      3067 7.53426E-05-1.31370E-05-2.67518E-05 3.98600E-06 4.34448E-19-1.70111E-18
 -1      3068 7.97149E-05-1.58352E-05-2.72443E-05 6.41084E-07 6.04202E-19-1.58629E-18
 -1      3069 7.04492E-05-1.07999E-05-2.56400E-05 3.09487E-06-9.10494E-20-1.51422E-18
 -1      3070 6.48823E-05-8.54284E-06-2.42161E-05 3.11857E-06-7.80991E-20-1.52643E-18
 -1      3071 7.18591E-05-1.17176E-05-2.55549E-05-1.55745E-06 1.53735E-19-1.76062E-18
 -1      3072 5.78736E-05-6.38711E-06-2.20724E-05 1.64613E-06 1.19299E-19-1.30792E-18
 -1      3073 5.02790E-05-5.02240E-06-1.92418E-05 1.35722E-06 5.10099E-19-1.72376E-18
 -1      3074 6.06725E-05-7.61876E-06-2.23381E-05-5.46257E-06 2.99155E-19-1.58477E-18
 -1      3075 9.53627E-05-2.55394E-05-2.99361E-05 2.18638E-06 1.11602E-18-6.81538E-20
 -1      3076 9.52852E-05-2.46962E-05-3.02482E-05 3.19791E-06 1.08766E-18-5.40436E-20
 -1      3077 9.54945E-05-2.85133E-05-2.87075E-05-1.00477E-06 5.89038E-19-5.85979E-20
 -1      3078 9.55201E-05-2.83744E-05-2.87700E-05-8.85254E-07 6.81721E-19-1.01342E-19
 -1      3079 4.00079E-05-4.13500E-06-1.47412E-05 5.66087E-06-1.22327E-18 1.02067E-19
 -1      3080 4.38877E-05-4.56704E-06-1.66230E-05-6.66799E-06-2.42794E-19-1.05604E-18
 -1      3081 1.38627E-04-5.29261E-05-3.66605E-05-4.49484E-06-1.55915E-18-8.99867E-19
 -1      3082 1.36259E-04-4.45810E-05-3.96579E-05 5.00807E-06-1.20631E-18-9.20407E-19
 -1      3083 8.10423E-05-1.59244E-05-2.79547E-05-7.80907E-06 7.50587E-19-9.06993E-19
 -1      3084 8.37059E-05-1.77702E-05-2.83264E-05-6.79212E-06 8.44601E-19-5.93433E-19
 -1      3085 8.65574E-05-1.96452E-05-2.87052E-05-6.50916E-06 7.65999E-19 7.81871E-19
 -1      3086 8.82348E-05-2.10588E-05-2.88399E-05-5.60317E-06 4.69437E-19 6.19077E-19
 -1      3087 8.33564E-05-1.76797E-05-2.80525E-05-4.28782E-06 1.61737E-18-1.16074E-18
 -1      3088 9.01068E-05-2.24207E-05-2.90183E-05-5.24303E-06-2.28770E-19 5.98672E-19
 -1      3089 9.10965E-05-2.33879E-05-2.90489E-05-4.46420E-06-1.21025E-19 6.21896E-19
 -1      3090 8.78717E-05-2.08879E-05-2.86459E-05-3.98347E-06 6.96618E-20 1.40605E-18
 -1      3091 9.22123E-05-2.42637E-05-2.91187E-05-3.93939E-06-7.47556E-19 9.51999E-19
 -1      3092 9.53979E-05-2.87966E-05-2.85428E-05-1.11902E-06 2.79713E-19 1.66974E-19
 -1      3093 9.54023E-05-2.87515E-05-2.85623E-05-1.12970E-06 3.25123E-19 1.28596E-19
 -1      3094 9.53598E-05-2.88346E-05-2.85098E-05-1.05601E-06 9.74591E-20 1.90112E-19
 -1      3095 9.53580E-05-2.88152E-05-2.85173E-05-1.09410E-06 1.93404E-19 1.43168E-19
 -1      3096 9.56318E-05-2.88969E-05-2.86029E-05-1.07137E-06 2.40005E-19 5.29839E-19
 -1      3097 9.53288E-05-2.88338E-05-2.84966E-05-9.61892E-07 1.61830E-19-2.33617E-20
 -1      3098 9.53231E-05-2.88315E-05-2.84963E-05-1.01207E-06 3.14631E-19 1.62439E-19
 -1      3099 9.55585E-05-2.89252E-05-2.85589E-05-1.01204E-06 2.96037E-19 2.32111E-19
 -1      3100 9.53043E-05-2.88086E-05-2.84968E-05-8.59490E-07 3.79058E-19-3.52579E-19
 -1      3101 9.52961E-05-2.88172E-05-2.84914E-05-9.11452E-07 1.20109E-19-1.57498E-19
 -1      3102 9.54915E-05-2.89105E-05-2.85360E-05-9.24284E-07 3.02770E-19-3.02475E-19
 -1      3103 9.52858E-05-2.87695E-05-2.85056E-05-7.63873E-07 7.31435E-19-1.78410E-19
 -1      3104 9.52760E-05-2.87844E-05-2.84972E-05-8.10976E-07 6.24037E-19-2.99853E-19
 -1      3105 9.54323E-05-2.88694E-05-2.85279E-05-8.29840E-07 4.10011E-19-4.02503E-19
 -1      3106 9.52736E-05-2.87249E-05-2.85196E-05-6.84300E-07 5.94737E-19 3.01701E-20
 -1      3107 9.52622E-05-2.87421E-05-2.85095E-05-7.22675E-07 9.53284E-19 1.95453E-19
 -1      3108 9.53816E-05-2.88142E-05-2.85296E-05-7.43179E-07 6.02855E-19-6.09449E-20
 -1      3109 9.52691E-05-2.86821E-05-2.85360E-05-6.25511E-07-1.56633E-19 1.10110E-19
 -1      3110 9.52553E-05-2.86979E-05-2.85255E-05-6.53509E-07 1.15000E-19-9.31241E-20
 -1      3111 9.53403E-05-2.87545E-05-2.85374E-05-6.73323E-07 3.63030E-19 5.06201E-19
 -1      3112 9.52756E-05-2.86491E-05-2.85531E-05-5.88382E-07-9.19927E-20 2.96993E-19
 -1      3113 9.52576E-05-2.86595E-05-2.85428E-05-6.06348E-07-8.81366E-20 5.99161E-20
 -1      3114 9.53107E-05-2.86990E-05-2.85484E-05-6.25070E-07-7.22025E-20 1.80671E-19
 -1      3115 9.52986E-05-2.86357E-05-2.85688E-05-5.69948E-07-4.44450E-20 1.49907E-19
 -1      3116 9.52736E-05-2.86356E-05-2.85597E-05-5.80317E-07-2.09090E-19 2.41079E-19
 -1      3117 9.52968E-05-2.86576E-05-2.85604E-05-5.99609E-07-1.95002E-19 4.78252E-19
 -1      3118 9.53473E-05-2.86550E-05-2.85816E-05-5.62802E-07-2.58204E-19 7.57322E-19
 -1      3119 9.53109E-05-2.86376E-05-2.85743E-05-5.70501E-07-1.35025E-19 4.20425E-19
 -1      3120 9.53064E-05-2.86425E-05-2.85712E-05-5.94524E-07-4.34411E-19 6.84112E-19
 -1      3121 9.54355E-05-2.87246E-05-2.85900E-05-5.53840E-07-4.48586E-19 8.68536E-19
 -1      3122 9.53817E-05-2.86810E-05-2.85853E-05-5.66983E-07-3.47348E-20 9.22786E-19
 -1      3123 9.53517E-05-2.86702E-05-2.85793E-05-6.03114E-07-3.68581E-19 1.15349E-18
 -1      3124 9.55821E-05-2.88669E-05-2.85925E-05-5.22403E-07-5.36018E-19 6.18658E-19
 -1      3125 9.55030E-05-2.87860E-05-2.85912E-05-5.53214E-07-5.20882E-19 6.75539E-19
 -1      3126 9.54514E-05-2.87630E-05-2.85831E-05-6.12987E-07-2.34409E-19 1.31691E-18
 -1      3127 9.58119E-05-2.91083E-05-2.85884E-05-4.37967E-07-1.86109E-19 2.74605E-19
 -1      3128 9.56982E-05-2.89777E-05-2.85910E-05-5.03761E-07-2.00632E-19 9.23169E-19
 -1      3129 9.56320E-05-2.89491E-05-2.85820E-05-6.03833E-07-3.31088E-19 7.07099E-19
 -1      3130 9.61528E-05-2.94756E-05-2.85786E-05-2.57856E-07 8.45322E-19-1.72542E-19
 -1      3131 9.59954E-05-2.92840E-05-2.85849E-05-3.81729E-07 4.12354E-19 2.76739E-19
 -1      3132 9.59276E-05-2.92614E-05-2.85764E-05-5.44434E-07 3.26892E-19 2.13704E-19
 -1      3133 9.66313E-05-2.99876E-05-2.85664E-05 7.39786E-08 5.65855E-19 4.75166E-19
 -1      3134 9.64241E-05-2.97295E-05-2.85750E-05-1.36550E-07 8.50408E-19 1.56382E-19
 -1      3135 9.63780E-05-2.97324E-05-2.85695E-05-3.89251E-07 4.76005E-19-2.99470E-19
 -1      3136 9.72612E-05-3.06405E-05-2.85595E-05 6.25043E-07 4.52658E-19 1.09902E-18
 -1      3137 9.70072E-05-3.03242E-05-2.85671E-05 2.96284E-07 5.75634E-19 1.17895E-18
 -1      3138 9.70215E-05-3.03835E-05-2.85680E-05-7.56417E-08 2.72227E-19 1.06930E-18
 -1      3139 9.80267E-05-3.13860E-05-2.85715E-05 1.46554E-06-1.55388E-19 1.12615E-18
 -1      3140 9.77456E-05-3.10452E-05-2.85719E-05 9.90504E-07 3.06720E-19 1.15090E-18
 -1      3141 9.78806E-05-3.12060E-05-2.85850E-05 4.75779E-07 2.21210E-19 1.38630E-18
 -1      3142 9.88584E-05-3.21052E-05-2.86231E-05 2.64723E-06-3.59828E-19 1.53236E-18
 -1      3143 9.85956E-05-3.18106E-05-2.86071E-05 2.01427E-06-1.72988E-19 1.41560E-18
 -1      3144 9.89384E-05-3.21324E-05-2.86408E-05 1.35259E-06-2.68866E-19 1.92632E-18
 -1      3145 9.96115E-05-3.25877E-05-2.87405E-05 4.16402E-06-1.91115E-18 1.07222E-18
 -1      3146 9.94433E-05-3.24544E-05-2.86966E-05 3.39868E-06-9.42828E-19 1.50076E-18
 -1      3147 1.00106E-04-3.30038E-05-2.87641E-05 2.62572E-06-8.02043E-19 1.96061E-18
 -1      3148 1.00062E-04-3.25391E-05-2.89510E-05 5.89248E-06-2.01489E-18-6.97699E-20
 -1      3149 1.00087E-04-3.27151E-05-2.88680E-05 5.08425E-06-2.14786E-18 4.42588E-19
 -1      3150 1.01191E-04-3.35457E-05-2.89889E-05 4.29891E-06-1.27328E-18 1.15369E-18
 -1      3151 9.99469E-05-3.16510E-05-2.92721E-05 7.52580E-06-2.88116E-19-6.51856E-19
 -1      3152 1.00258E-04-3.22702E-05-2.91442E-05 6.85045E-06-1.36836E-18-6.41549E-19
 -1      3153 1.01892E-04-3.33856E-05-2.93466E-05 6.22818E-06-1.31836E-18 2.62776E-19
 -1      3154 9.90832E-05-2.97571E-05-2.96966E-05 8.55573E-06-3.89219E-20 4.64012E-19
 -1      3155 9.97047E-05-3.08557E-05-2.95302E-05 8.26403E-06-2.86965E-19 1.20070E-20
 -1      3156 1.01868E-04-3.21604E-05-2.98503E-05 8.03291E-06-7.57741E-19 4.97260E-20
 -1      3157 9.75243E-05-2.70369E-05-3.01760E-05 8.36463E-06 4.56111E-19 1.25733E-18
 -1      3158 9.83592E-05-2.84567E-05-2.99947E-05 8.71881E-06 9.24969E-19 9.42005E-19
 -1      3159 1.00899E-04-2.97298E-05-3.04735E-05 9.07919E-06-7.98568E-20 1.19528E-18
 -1      3160 9.57000E-05-2.41585E-05-3.06199E-05 6.50316E-06-4.79802E-20 1.51302E-18
 -1      3161 9.65099E-05-2.55160E-05-3.04633E-05 7.63387E-06-1.95766E-19 1.31670E-18
 -1      3162 9.91199E-05-2.64374E-05-3.11319E-05 8.62338E-06 1.71559E-19 1.48766E-18
 -1      3163 9.43227E-05-2.21167E-05-3.09164E-05 3.04216E-06 5.21388E-19 1.16052E-18
 -1      3164 9.48088E-05-2.29262E-05-3.08281E-05 4.81716E-06 6.20170E-19 1.38575E-18
 -1      3165 9.71502E-05-2.32112E-05-3.16915E-05 6.20834E-06 2.42397E-19 1.49769E-18
 -1      3166 9.40458E-05-2.17651E-05-3.09768E-05-1.25095E-06 8.17609E-19-6.14484E-19
 -1      3167 9.40040E-05-2.16913E-05-3.09856E-05 7.48561E-07 9.44186E-19 2.49261E-19
 -1      3168 9.58927E-05-2.12659E-05-3.20062E-05 2.09291E-06 1.30967E-18 3.13165E-19
 -1      3169 9.50249E-05-2.32696E-05-3.07789E-05-5.18252E-06 1.42697E-19-1.05232E-18
 -1      3170 9.44762E-05-2.23441E-05-3.08829E-05-3.48838E-06 5.42161E-19-1.27968E-18
 -1      3171 9.60103E-05-2.14506E-05-3.19793E-05-2.63079E-06 1.31421E-18-1.94065E-18
 -1      3172 9.67993E-05-2.59908E-05-3.03857E-05-7.73900E-06-4.31269E-19-5.02370E-19
 -1      3173 9.59703E-05-2.45888E-05-3.05520E-05-6.73085E-06-4.05274E-19-9.37656E-19
 -1      3174 9.74383E-05-2.36730E-05-3.16162E-05-6.53424E-06-3.10319E-19-2.26099E-18
 -1      3175 9.86089E-05-2.89091E-05-2.99069E-05-8.54677E-06-1.53903E-18 3.46476E-19
 -1      3176 9.77981E-05-2.75148E-05-3.00908E-05-8.31377E-06-9.61906E-19 3.68461E-19
 -1      3177 9.94452E-05-2.70012E-05-3.10278E-05-8.63641E-06-1.24968E-18-1.48341E-18
 -1      3178 9.98403E-05-3.11794E-05-2.94472E-05-7.88121E-06-9.71283E-19 7.07430E-19
 -1      3179 9.92692E-05-3.01487E-05-2.96110E-05-8.26063E-06-1.35357E-18 4.82979E-19
 -1      3180 1.01140E-04-3.02239E-05-3.03645E-05-8.80172E-06-1.46560E-18-3.20057E-19
 -1      3181 1.00264E-04-3.24313E-05-2.90757E-05-6.35017E-06-1.27375E-19 9.25061E-19
 -1      3182 1.00010E-04-3.18916E-05-2.91980E-05-7.07298E-06-6.17941E-19 7.04896E-19
 -1      3183 1.01968E-04-3.24858E-05-2.97549E-05-7.56443E-06-7.05307E-19-1.47687E-18
 -1      3184 9.99833E-05-3.27254E-05-2.88174E-05-4.55059E-06 1.70012E-18 5.88596E-19
 -1      3185 1.00008E-04-3.26210E-05-2.88939E-05-5.37010E-06 9.56037E-19 8.59075E-19
 -1      3186 1.01858E-04-3.35231E-05-2.92747E-05-5.67461E-06 5.86010E-19-1.00642E-18
 -1      3187 9.92605E-05-3.23452E-05-2.86643E-05-2.89063E-06 1.69396E-18 7.52466E-19
 -1      3188 9.94689E-05-3.25356E-05-2.87020E-05-3.64121E-06 2.13757E-18 9.07167E-19
 -1      3189 1.01059E-04-3.35215E-05-2.89440E-05-3.74196E-06 1.35406E-18 1.52951E-18
 -1      3190 9.83579E-05-3.16077E-05-2.85917E-05-1.56924E-06 2.08653E-18-1.19610E-18
 -1      3191 9.86518E-05-3.19483E-05-2.86020E-05-2.16875E-06 2.23616E-18-3.42700E-19
 -1      3192 9.99141E-05-3.28560E-05-2.87455E-05-2.11379E-06 2.95587E-18 6.47515E-19
 -1      3193 9.74567E-05-3.07569E-05-2.85716E-05-6.50765E-07 1.13326E-18-1.57369E-18
 -1      3194 9.77660E-05-3.11370E-05-2.85662E-05-1.06315E-06 1.42950E-18-1.34589E-18
 -1      3195 9.86994E-05-3.18826E-05-2.86461E-05-9.11367E-07 1.80872E-18 3.25909E-21
 -1      3196 9.67697E-05-3.00775E-05-2.85786E-05-1.19575E-07 8.52936E-19-2.62049E-18
 -1      3197 9.70408E-05-3.04092E-05-2.85661E-05-3.95157E-07 5.26830E-19-2.42127E-18
 -1      3198 9.77375E-05-3.10032E-05-2.86115E-05-2.06715E-07 1.41016E-18-1.06468E-19
 -1      3199 9.69639E-05-3.02216E-05-2.86054E-05 1.57974E-07 1.20104E-18-2.07704E-18
 -1      3200 9.26342E-05-2.60685E-05-2.85573E-05 3.99681E-06-9.22480E-20 3.65255E-19
 -1      3201 9.35429E-05-2.68115E-05-2.85687E-05 4.36125E-06-4.94254E-19-4.52556E-19
 -1      3202 9.17289E-05-2.54702E-05-2.83973E-05 4.45775E-06-1.26591E-19 3.89119E-19
 -1      3203 8.99704E-05-2.32107E-05-2.86429E-05 1.00692E-07 9.56293E-19 2.01460E-19
 -1      3204 9.02392E-05-2.35126E-05-2.85846E-05 1.25788E-06 1.32643E-18-1.73723E-18
 -1      3205 8.97966E-05-2.34962E-05-2.84000E-05 2.49111E-06 3.69220E-19-6.18923E-19
 -1      3206 9.53032E-05-2.45482E-05-3.03492E-05 4.83494E-06 1.28938E-18 3.34746E-19
 -1      3207 1.29402E-04-2.36755E-05-4.58221E-05-1.27985E-05 2.47736E-18-8.16857E-20
 -1      3208 1.34502E-04-3.22942E-05-4.39874E-05-1.18144E-05 1.81043E-18-1.14000E-18
 -1      3209 1.37160E-04-4.11632E-05-4.16051E-05-7.45147E-06 1.21930E-18-2.40256E-18
 -1      3210 1.37381E-04-4.87511E-05-3.80730E-05-9.49717E-07 4.24708E-19-2.25237E-18
 -1      3211 1.31495E-04-3.70538E-05-4.06550E-05-1.01004E-05 7.65797E-19-3.59804E-19
 -1      3212 9.45555E-05-2.78390E-05-2.86116E-05 4.44108E-06 6.81723E-19-2.10242E-18
 -1      3213 9.53861E-05-2.85234E-05-2.86287E-05 4.37483E-06 1.12826E-18-2.01151E-18
 -1      3214 9.40298E-05-2.76175E-05-2.84784E-05 5.16007E-06 4.30106E-19-1.73435E-18
 -1      3215 6.15822E-05-7.81572E-06-2.29811E-05-1.16763E-05-1.68655E-18-9.99181E-19
 -1      3216 6.66280E-05-9.00324E-06-2.47659E-05-9.71547E-06-1.53382E-18-1.62924E-18
 -1      3217 7.28935E-05-1.15254E-05-2.63154E-05-8.92962E-06-1.06440E-18-1.93548E-18
 -1      3218 7.68402E-05-1.36367E-05-2.71771E-05-7.90577E-06-4.67276E-19-1.99639E-18
 -1      3219 7.66213E-05-1.36507E-05-2.68442E-05-3.97148E-06 7.92085E-19-2.21731E-18
 -1      3220 5.42927E-05-7.18921E-06-1.95574E-05-1.67847E-05-8.48356E-19-2.91485E-19
 -1      3221 4.45146E-05-4.84095E-06-1.63043E-05-1.01681E-05 1.23587E-19-1.96310E-18
 -1      3222 9.54434E-05-2.86993E-05-2.86047E-05-1.11765E-06 2.37971E-19 1.30753E-19
 -1      3223 9.54569E-05-2.86163E-05-2.86418E-05-1.07883E-06 3.67988E-19 1.78430E-19
 -1      3224 9.57815E-05-2.86079E-05-2.87921E-05-9.66100E-07 3.55734E-19 2.71375E-19
 -1      3225 9.57084E-05-2.88023E-05-2.86768E-05-1.07077E-06 3.44698E-19 4.48885E-19
 -1      3226 9.94002E-05-4.53163E-05-2.26815E-05-4.00428E-05 4.04246E-19-1.70529E-18
 -1      3227 1.12083E-04-5.19884E-05-2.58551E-05-3.51847E-05 1.31555E-19-6.28604E-19
 -1      3228 9.61539E-05-2.92760E-05-2.86683E-05 3.98493E-06 9.94903E-19-3.49310E-19
 -1      3229 9.67169E-05-2.97649E-05-2.86763E-05 3.60590E-06 4.15668E-19 1.12963E-18
 -1      3230 9.60579E-05-2.94236E-05-2.85806E-05 4.75430E-06 1.53973E-18-9.54794E-19
 -1      3231 9.47477E-05-2.29706E-05-3.07493E-05 4.94587E-06 1.29461E-18 3.73058E-21
 -1      3232 9.55477E-05-2.68537E-05-2.94506E-05 7.63178E-07 8.87243E-19-1.56303E-19
 -1      3233 9.55711E-05-2.63070E-05-2.96675E-05 1.44312E-06 1.04993E-18-4.86827E-20
 -1      3234 9.54906E-05-2.54290E-05-3.00269E-05 1.94905E-06 1.12162E-18-6.80519E-20
 -1      3235 9.23655E-05-1.83346E-05-3.17429E-05 1.81065E-06 1.00856E-18-1.04610E-18
 -1      3236 9.22471E-05-1.81330E-05-3.17749E-05 1.05719E-06 7.34104E-19-1.26154E-18
 -1      3237 7.36478E-05-2.88658E-05-1.90692E-05 3.90435E-05-1.74738E-18 1.85251E-18
 -1      3238 5.74444E-05-1.83231E-05-1.62077E-05 3.39699E-05-2.41251E-18 1.82663E-18
 -1      3239 4.46571E-05-8.37180E-06-1.52018E-05-2.03472E-05-8.15269E-20-2.73030E-18
 -1      3240 5.42072E-05-1.52661E-05-1.62078E-05-3.19328E-05 2.42887E-19-3.39681E-18
 -1      3241 6.51721E-05-2.06648E-05-1.87396E-05-3.27722E-05-1.35763E-19-2.65238E-18
 -1      3242 5.41680E-05-9.01407E-06-1.91378E-05-1.67334E-05 4.62528E-19-2.52638E-18
 -1      3243 4.77569E-05-1.17661E-05-1.51428E-05 2.73313E-05-1.97465E-18-3.54695E-20
 -1      3244 4.10500E-05-6.59012E-06-1.43544E-05 1.57631E-05-1.15144E-18 9.54500E-19
 -1      3245 4.88091E-05-6.34064E-06-1.78013E-05 1.05226E-05-1.41617E-18 6.16905E-19
 -1      3246 5.97179E-05-1.56171E-05-1.84498E-05 2.72863E-05-1.38286E-18 1.30432E-18
 -1      3247 5.54766E-05-6.51880E-06-2.07762E-05-1.04932E-05-1.33490E-18-4.14411E-19
 -1      3248 9.21868E-05-1.80324E-05-3.17934E-05 4.08386E-07 6.93682E-19-1.36985E-18
 -1      3249 9.21835E-05-1.80277E-05-3.17940E-05-3.59199E-07 6.04767E-19-1.40043E-18
 -1      3250 9.31393E-05-1.96152E-05-3.14927E-05 6.27477E-07 6.41677E-19-1.24579E-18
 -1      3251 9.50020E-05-2.37645E-05-3.05125E-05 3.80705E-06 1.13495E-18-1.31008E-19
 -1      3252 9.42617E-05-2.18387E-05-3.10571E-05-5.42954E-06-7.89284E-19-1.27348E-18
 -1      3253 9.49396E-05-2.35927E-05-3.05674E-05 3.35389E-06 1.18475E-18-2.59965E-19
 -1      3254 1.19800E-04-6.89367E-06-4.88823E-05-1.28518E-06 1.10866E-18 2.36021E-18
 -1      3255 1.16237E-04-8.91281E-06-4.62840E-05-4.32975E-06 1.68374E-18 3.75378E-18
 -1      3256 1.16461E-04-7.94691E-06-4.68090E-05 2.30810E-06 3.78624E-19 4.20208E-18
 -1      3257 9.58372E-05-2.82648E-05-2.89635E-05-6.97214E-07 6.89706E-19-2.02997E-19
 -1      3258 9.55448E-05-2.81946E-05-2.88675E-05-7.15297E-07 6.72530E-19-1.05420E-19
 -1      3259 9.55830E-05-2.79723E-05-2.89660E-05-4.71847E-07 5.61838E-19-7.24513E-20
 -1      3260 1.18494E-04-1.42401E-05-4.50170E-05-1.02481E-05 3.03688E-18 1.68147E-18
 -1      3261 1.24746E-04-1.87668E-05-4.57417E-05-1.23466E-05 3.12555E-18 4.55280E-19
 -1      3262 1.22900E-04-2.36098E-05-4.27632E-05-1.25699E-05 2.49430E-18 1.46993E-18
 -1      3263 1.30903E-04-4.44852E-05-3.71611E-05 4.90741E-06-1.11414E-18-9.52991E-19
 -1      3264 1.33507E-04-4.00041E-05-4.02905E-05 8.95180E-06-9.50689E-19-6.23787E-19
 -1      3265 1.27993E-04-3.40361E-05-4.04429E-05 1.16746E-05-6.49304E-19-5.88291E-19
 -1      3266 9.07189E-05-2.31807E-05-2.89245E-05-3.23310E-06 2.01095E-19 1.21025E-18
 -1      3267 9.55769E-05-2.76769E-05-2.91061E-05-1.62124E-07 6.01755E-19-1.75465E-19
 -1      3268 9.56216E-05-2.73285E-05-2.92545E-05 2.62331E-07 7.02980E-19-1.85362E-19
 -1      3269 9.57647E-05-2.68110E-05-2.95550E-05 6.63225E-07 8.91602E-19-2.32001E-19
 -1      3270 9.58490E-05-2.77017E-05-2.92101E-05-1.85702E-07 5.40535E-19-3.47918E-19
 -1      3271 6.66384E-05-8.96778E-06-2.44827E-05-3.50046E-06-1.74277E-18-9.25003E-19
 -1      3272 9.74632E-05-3.05057E-05-2.86857E-05 1.74300E-06 1.05395E-18 3.00064E-18
 -1      3273 9.74328E-05-3.05555E-05-2.86654E-05 1.21745E-06 1.52221E-18 3.05504E-18
 -1      3274 1.24364E-04-1.66431E-05-4.66068E-05 1.18267E-05 1.28251E-18 5.56342E-19
 -1      3275 1.19242E-04-1.26950E-05-4.60145E-05 9.42959E-06 1.09797E-18 2.25716E-18
 -1      3276 1.23109E-04-2.23532E-05-4.33966E-05 1.24130E-05 1.12174E-18 1.11673E-18
 -1      3277 9.34279E-05-2.02038E-05-3.14054E-05 4.24764E-06 1.39367E-18-6.95413E-19
 -1      3278 9.30717E-05-1.95490E-05-3.15189E-05 3.64675E-06 1.28742E-18-7.97111E-19
 -1      3279 9.43196E-05-2.19741E-05-3.09919E-05 3.61373E-06 1.20187E-18-5.60271E-19
 -1      3280 9.71373E-05-3.01685E-05-2.86966E-05 2.97005E-06 8.62369E-19-7.40558E-20
 -1      3281 9.73888E-05-3.04257E-05-2.86900E-05 2.44070E-06 7.88996E-19 1.21279E-18
 -1      3282 9.79466E-05-3.10595E-05-2.86790E-05 2.20112E-06 1.11864E-18 1.85441E-18
 -1      3283 9.02821E-05-2.31028E-05-2.88121E-05-2.06571E-06 6.62908E-19 2.33024E-18
 -1      3284 8.99132E-05-2.29126E-05-2.87131E-05-1.08502E-06 4.22474E-19 2.44777E-18
 -1      3285 8.88873E-05-2.23480E-05-2.85074E-05-2.83613E-08 1.48609E-18 2.53029E-19
 -1      3286 8.91556E-05-2.21565E-05-2.87078E-05-2.46230E-06 1.06721E-18 1.51489E-18
 -1      3287 1.12756E-04-4.98872E-05-2.69046E-05-2.91674E-05-4.35348E-19 5.86967E-20
 -1      3288 1.19693E-04-5.41696E-05-2.78397E-05-2.86321E-05-4.44242E-19-8.16308E-19
 -1      3289 1.24328E-04-5.48120E-05-3.00308E-05-2.10299E-05-8.76891E-19-1.66057E-18
 -1      3290 1.34707E-04-5.21862E-05-3.55318E-05 3.34452E-06 8.51946E-19-1.97679E-18
 -1      3291 1.29504E-04-5.24412E-05-3.30042E-05 7.69877E-06 2.15236E-19-1.70321E-18
 -1      3292 1.31291E-04-4.73835E-05-3.60117E-05-2.32254E-06 1.10266E-18-4.13961E-19
 -1      3293 9.30398E-05-1.94988E-05-3.15269E-05-3.60682E-06-1.26766E-19-1.33818E-18
 -1      3294 9.34083E-05-2.01589E-05-3.14154E-05-4.22315E-06-4.18088E-19-1.35667E-18
 -1      3295 1.24250E-04-5.36836E-05-3.01893E-05 1.85298E-05-4.98227E-19-4.12849E-18
 -1      3296 1.20609E-04-5.39964E-05-2.84695E-05 2.58784E-05-8.16871E-19-5.25501E-18
 -1      3297 1.11765E-04-4.94050E-05-2.67177E-05 2.90962E-05-1.28545E-18-4.72235E-18
 -1      3298 9.71397E-05-3.03092E-05-2.86319E-05 4.97794E-07 1.89159E-18 1.03937E-18
 -1      3299 5.40431E-05-4.94434E-06-2.05498E-05-1.57092E-06-1.73146E-18-1.08304E-18
 -1      3300 1.33619E-04-5.38418E-05-3.41985E-05-8.72254E-06-8.15865E-19-4.03585E-19
 -1      3301 9.27812E-05-1.90449E-05-3.16196E-05 3.12385E-06 1.31357E-18-8.75492E-19
 -1      3302 9.25427E-05-1.86316E-05-3.16869E-05 2.41924E-06 1.13088E-18-9.76016E-19
 -1      3303 9.33526E-05-2.00072E-05-3.14161E-05 1.79874E-06 9.25456E-19-8.69497E-19
 -1      3304 9.37563E-05-2.07894E-05-3.12564E-05 2.83055E-06 1.12023E-18-8.04737E-19
 -1      3305 9.25196E-05-1.85978E-05-3.16914E-05-2.37037E-06 1.30658E-19-1.47335E-18
 -1      3306 9.27507E-05-1.89996E-05-3.16256E-05-3.08108E-06-1.11007E-20-1.57798E-18
 -1      3307 9.37308E-05-2.07488E-05-3.12638E-05-2.79638E-06-1.44541E-19-1.33374E-18
 -1      3308 9.42009E-05-2.17376E-05-3.10655E-05-4.76160E-06-7.84732E-19-1.44539E-18
 -1      3309 9.73965E-05-3.05804E-05-2.86546E-05 3.62055E-06 1.23270E-18 1.42441E-18
 -1      3310 9.10010E-05-3.86388E-05-2.21557E-05-3.80520E-05-1.26896E-19-1.41126E-18
 -1      3311 9.68568E-05-4.02651E-05-2.41939E-05 3.33288E-05-1.40135E-18-3.14945E-18
 -1      3312 8.62718E-05-3.53218E-05-2.14444E-05 3.80312E-05-1.18810E-18-2.20917E-19
 -1      3313 7.82158E-05-2.78260E-05-2.15062E-05 3.34720E-05-1.47177E-18 1.40877E-18
 -1      3314 9.77276E-05-3.08760E-05-2.86454E-05 7.19323E-07 1.38978E-18 1.03801E-18
 -1      3315 9.55576E-05-2.54582E-05-3.00554E-05 1.53721E-06 9.78092E-19-2.44566E-19
 -1      3316 9.53279E-05-2.45436E-05-3.03315E-05 2.31767E-06 1.01165E-18-3.40901E-19
 -1      3317 9.79276E-05-3.11176E-05-2.86289E-05 4.30341E-06 1.36601E-18 1.52830E-18
 -1      3318 9.84440E-05-3.15555E-05-2.86607E-05 3.60799E-06 1.76378E-18-2.61266E-20
 -1      3319 9.50350E-05-2.38018E-05-3.05287E-05 2.68105E-06 1.12646E-18-4.71287E-19
 -1      3320 9.46965E-05-2.29026E-05-3.07800E-05 3.22471E-06 1.10470E-18-5.01163E-19
 -1      3321 9.44148E-05-2.22184E-05-3.09394E-05 2.95460E-06 9.95945E-19-6.41536E-19
 -1      3322 9.51086E-05-2.38413E-05-3.05398E-05 2.24089E-06 9.33596E-19-7.04326E-19
 -1      3323 9.49349E-05-2.34422E-05-3.06399E-05-2.94631E-06-4.96125E-19-1.18071E-18
 -1      3324 9.52797E-05-2.45421E-05-3.03308E-05-2.08316E-06-3.77747E-19-1.09964E-18
 -1      3325 9.56892E-05-2.55202E-05-3.00606E-05-1.49729E-06-3.29947E-19-9.95217E-19
 -1      3326 9.58272E-05-2.62570E-05-2.98271E-05-8.72721E-07-2.54744E-19-9.49833E-19
 -1      3327 9.54089E-05-2.45963E-05-3.03527E-05-1.74949E-06-2.56702E-19-8.97540E-19
 -1      3328 9.60329E-05-2.69049E-05-2.96166E-05-4.36759E-07-2.39492E-19-9.05396E-19
 -1      3329 9.60807E-05-2.73989E-05-2.94426E-05-2.23794E-08-4.08896E-19-7.01831E-19
 -1      3330 9.59777E-05-2.62775E-05-2.98685E-05-7.05319E-07-1.75254E-19-8.67787E-19
 -1      3331 9.61627E-05-2.78191E-05-2.92825E-05 2.57661E-07-5.83427E-19-6.26857E-19
 -1      3332 9.61581E-05-2.81371E-05-2.91564E-05 5.11541E-07-6.46971E-19-5.18579E-19
 -1      3333 9.62650E-05-2.74493E-05-2.94926E-05 2.59033E-08-3.64421E-19-6.67271E-19
 -1      3334 9.61662E-05-2.83989E-05-2.90375E-05 6.74533E-07-6.58177E-19-3.26658E-19
 -1      3335 9.61360E-05-2.85955E-05-2.89482E-05 8.11659E-07-3.63484E-19-2.73437E-19
 -1      3336 9.63548E-05-2.82071E-05-2.92077E-05 4.89019E-07-4.62252E-19-1.72962E-19
 -1      3337 9.61017E-05-2.87479E-05-2.88620E-05 8.90111E-07-3.79021E-19-1.37438E-19
 -1      3338 9.60609E-05-2.88608E-05-2.88008E-05 9.47387E-07-2.79708E-19-1.33719E-19
 -1      3339 9.63303E-05-2.86760E-05-2.89968E-05 7.49475E-07-3.49973E-19 2.47393E-19
 -1      3340 9.60042E-05-2.89383E-05-2.87400E-05 9.68997E-07-1.93310E-19-2.20722E-19
 -1      3341 9.59608E-05-2.89938E-05-2.86999E-05 9.75240E-07-6.44501E-20-3.71443E-19
 -1      3342 9.62418E-05-2.89430E-05-2.88445E-05 8.66232E-07-3.77577E-19 2.09460E-19
 -1      3343 9.58941E-05-2.90206E-05-2.86586E-05 9.61862E-07 9.02754E-21-5.12936E-19
 -1      3344 9.58520E-05-2.90371E-05-2.86341E-05 9.38570E-07-7.19494E-20-5.12002E-19
 -1      3345 9.61209E-05-2.90704E-05-2.87380E-05 8.88644E-07-9.55509E-20-9.81798E-20
 -1      3346 9.57827E-05-2.90300E-05-2.86077E-05 9.06512E-07-2.31838E-19-5.54849E-19
 -1      3347 9.57436E-05-2.90200E-05-2.85946E-05 8.69275E-07-3.53181E-19-5.29465E-19
 -1      3348 9.59873E-05-2.91029E-05-2.86665E-05 8.54918E-07-9.23282E-20-4.73047E-19
 -1      3349 9.56755E-05-2.89904E-05-2.85793E-05 8.30284E-07-6.11232E-19-5.55318E-19
 -1      3350 9.56396E-05-2.89622E-05-2.85746E-05 7.90211E-07-3.53251E-19-8.48518E-19
 -1      3351 9.58520E-05-2.90715E-05-2.86218E-05 7.93293E-07-4.93771E-19-5.78830E-19
 -1      3352 9.55738E-05-2.89169E-05-2.85677E-05 7.52521E-07-4.95068E-20-9.86118E-19
 -1      3353 9.55401E-05-2.88752E-05-2.85692E-05 7.17484E-07-2.02944E-19-8.36496E-19
 -1      3354 9.57201E-05-2.89965E-05-2.85970E-05 7.23949E-07-3.49903E-19-5.72005E-19
 -1      3355 9.54756E-05-2.88176E-05-2.85685E-05 6.86720E-07-1.05042E-19-5.12986E-19
 -1      3356 9.54419E-05-2.87642E-05-2.85747E-05 6.62368E-07-1.35533E-19-3.30404E-19
 -1      3357 9.55916E-05-2.88897E-05-2.85873E-05 6.60883E-07 2.22687E-19-8.02715E-19
 -1      3358 9.53755E-05-2.86946E-05-2.85787E-05 6.42231E-07-4.21891E-19-5.29074E-19
 -1      3359 9.53381E-05-2.86285E-05-2.85886E-05 6.32760E-07-1.49374E-19-4.79089E-19
 -1      3360 9.54625E-05-2.87561E-05-2.85888E-05 6.13421E-07-2.11141E-19-4.80538E-19
 -1      3361 9.52643E-05-2.85441E-05-2.85960E-05 6.25443E-07 4.50569E-20-5.38385E-19
 -1      3362 9.52174E-05-2.84611E-05-2.86089E-05 6.34114E-07-3.04836E-19-1.95488E-19
 -1      3363 9.53245E-05-2.85939E-05-2.85985E-05 5.87227E-07-1.12648E-19-8.60368E-19
 -1      3364 9.51275E-05-2.83556E-05-2.86187E-05 6.40395E-07-5.55654E-19-3.05999E-19
 -1      3365 9.50619E-05-2.82479E-05-2.86341E-05 6.69751E-07-4.20311E-19-4.41351E-19
 -1      3366 9.51637E-05-2.83947E-05-2.86141E-05 5.84683E-07-3.46239E-19-7.67193E-19
 -1      3367 9.49429E-05-2.81110E-05-2.86452E-05 6.88638E-07-9.46503E-20-6.60274E-19
 -1      3368 9.48441E-05-2.79663E-05-2.86623E-05 7.40298E-07-2.66632E-20-8.63376E-19
 -1      3369 9.49593E-05-2.81429E-05-2.86332E-05 6.04423E-07-3.97850E-19-9.83442E-19
 -1      3370 9.46768E-05-2.77826E-05-2.86730E-05 7.68039E-07-2.16300E-19-5.18930E-19
 -1      3371 9.45226E-05-2.75824E-05-2.86905E-05 8.42085E-07 1.53056E-19-1.15928E-18
 -1      3372 9.46800E-05-2.78136E-05-2.86528E-05 6.39750E-07 2.23690E-21-1.10158E-18
 -1      3373 9.42649E-05-2.73149E-05-2.86982E-05 8.71577E-07 2.89584E-19-1.26141E-18
 -1      3374 9.40029E-05-2.70151E-05-2.87134E-05 9.68525E-07-6.13221E-20-7.90730E-19
 -1      3375 9.42672E-05-2.73584E-05-2.86683E-05 6.75978E-07 1.99447E-19-7.12994E-19
 -1      3376 9.36333E-05-2.66558E-05-2.87119E-05 9.78725E-07 2.83829E-19-7.11741E-19
 -1      3377 9.32334E-05-2.62474E-05-2.87173E-05 1.07739E-06 4.04243E-19-3.96369E-19
 -1      3378 9.36568E-05-2.67333E-05-2.86702E-05 6.77930E-07 3.22814E-19-7.04288E-19
 -1      3379 9.26868E-05-2.57474E-05-2.86976E-05 1.03863E-06 1.19372E-19-5.05190E-19
 -1      3380 9.20563E-05-2.51706E-05-2.86819E-05 1.11642E-06 2.95321E-19-6.27137E-19
 -1      3381 9.27706E-05-2.58953E-05-2.86436E-05 5.89008E-07 3.72017E-19-9.52234E-20
 -1      3382 9.12523E-05-2.44830E-05-2.86269E-05 9.73102E-07 2.32673E-19-1.97024E-19
 -1      3383 9.02710E-05-2.36805E-05-2.85675E-05 9.76953E-07-1.62113E-19-1.60195E-19
 -1      3384 9.14650E-05-2.47590E-05-2.85623E-05 3.09001E-07 5.83911E-19 5.95062E-19
 -1      3385 8.91064E-05-2.27595E-05-2.84481E-05 6.36936E-07-6.37894E-19-3.48322E-19
 -1      3386 8.76043E-05-2.16740E-05-2.83037E-05 4.71302E-07-3.60655E-19-3.86331E-19
 -1      3387 8.95654E-05-2.32547E-05-2.83807E-05-3.30097E-07-5.14472E-19 1.00689E-18
 -1      3388 8.59544E-05-2.04935E-05-2.80699E-05-2.12039E-07 1.09433E-19-6.00939E-19
 -1      3389 8.36990E-05-1.90885E-05-2.77664E-05-7.06052E-07 3.09192E-19-5.44449E-19
 -1      3390 8.68561E-05-2.13446E-05-2.80217E-05-1.59707E-06-8.96515E-20 7.69648E-19
 -1      3391 8.14245E-05-1.76786E-05-2.73339E-05-1.95314E-06 1.29781E-19-6.52179E-19
 -1      3392 7.81063E-05-1.59774E-05-2.67383E-05-3.01784E-06 2.10958E-19-1.17520E-18
 -1      3393 8.30925E-05-1.90790E-05-2.73566E-05-3.90408E-06 1.81807E-19 3.72048E-19
 -1      3394 7.50759E-05-1.44965E-05-2.59644E-05-5.12862E-06-2.33126E-19-1.09792E-18
 -1      3395 7.03579E-05-1.26850E-05-2.48383E-05-7.10722E-06-1.78525E-19-1.58140E-18
 -1      3396 7.80315E-05-1.66903E-05-2.61712E-05-7.84024E-06-1.80269E-19-6.26042E-19
 -1      3397 6.62843E-05-1.12547E-05-2.35416E-05-9.79314E-06-1.14889E-19-2.46011E-18
 -1      3398 5.96290E-05-9.66333E-06-2.14466E-05-1.29334E-05 4.51885E-19-2.12293E-18
 -1      3399 6.23679E-05-1.32154E-05-2.07078E-05-2.15922E-05 3.18855E-19-2.99161E-18
 -1      3400 7.13266E-05-1.44920E-05-2.41538E-05-1.36039E-05-4.26104E-19-1.93362E-18
 -1      3401 8.54064E-05-1.95568E-05-2.82426E-05-2.24524E-06 7.72277E-19-1.10271E-20
 -1      3402 8.72803E-05-2.09411E-05-2.84644E-05-2.19468E-06 9.30762E-19 1.15505E-18
 -1      3403 8.70555E-05-2.08545E-05-2.83351E-05-9.08135E-07 1.42480E-18 2.24144E-19
 -1      3404 9.56409E-05-2.89783E-05-2.85684E-05-8.49755E-07 4.60412E-19-1.97854E-19
 -1      3405 9.56737E-05-2.89926E-05-2.85773E-05-8.92451E-07 5.07964E-19-8.31670E-20
 -1      3406 9.57391E-05-2.90079E-05-2.85980E-05-9.30760E-07 2.91987E-19 2.00106E-20
 -1      3407 9.57757E-05-2.90023E-05-2.86162E-05-9.64114E-07 3.43971E-19 1.16076E-19
 -1      3408 9.58718E-05-2.90730E-05-2.86297E-05-8.52995E-07 4.70147E-19 3.90401E-19
 -1      3409 9.58416E-05-2.89916E-05-2.86494E-05-9.88865E-07 3.63288E-19 1.52995E-19
 -1      3410 9.58811E-05-2.89552E-05-2.86805E-05-9.99580E-07 4.34056E-19 3.36017E-19
 -1      3411 9.60008E-05-2.90680E-05-2.86874E-05-9.05848E-07 4.98024E-19-1.11685E-20
 -1      3412 9.55506E-05-2.89211E-05-2.85541E-05-7.65208E-07 4.08183E-19-1.74731E-19
 -1      3413 9.55791E-05-2.89473E-05-2.85567E-05-8.08144E-07 3.47010E-19-2.51916E-19
 -1      3414 9.57465E-05-2.90299E-05-2.85943E-05-7.81052E-07 4.40430E-19 4.22782E-19
 -1      3415 9.54703E-05-2.88496E-05-2.85503E-05-6.90149E-07 3.29892E-19-8.12564E-20
 -1      3416 9.54942E-05-2.88816E-05-2.85487E-05-7.27355E-07 3.80382E-19-2.72837E-19
 -1      3417 9.56297E-05-2.89580E-05-2.85748E-05-7.07707E-07 4.53470E-19 1.38001E-19
 -1      3418 9.54018E-05-2.87742E-05-2.85532E-05-6.32919E-07 3.49682E-20 2.94941E-19
 -1      3419 9.54203E-05-2.88072E-05-2.85491E-05-6.60780E-07 4.24158E-19 5.23356E-20
 -1      3420 9.55244E-05-2.88718E-05-2.85663E-05-6.45134E-07 2.57913E-19-1.48711E-19
 -1      3421 9.53478E-05-2.87049E-05-2.85598E-05-5.98289E-07-6.45408E-20 2.62086E-19
 -1      3422 9.53596E-05-2.87339E-05-2.85546E-05-6.15060E-07-1.95951E-19 2.99990E-19
 -1      3423 9.54328E-05-2.87831E-05-2.85650E-05-6.01516E-07-9.30860E-20 3.94663E-19
 -1      3424 9.53136E-05-2.86526E-05-2.85675E-05-5.88054E-07-8.08551E-19 6.48455E-19
 -1      3425 9.53157E-05-2.86719E-05-2.85623E-05-5.93664E-07-2.66644E-19 3.45261E-19
 -1      3426 9.53585E-05-2.87030E-05-2.85675E-05-5.82128E-07-4.17418E-19 6.66851E-19
 -1      3427 9.53084E-05-2.86316E-05-2.85742E-05-6.01045E-07-6.80229E-19 9.82812E-19
 -1      3428 9.52958E-05-2.86336E-05-2.85699E-05-5.97207E-07-7.36200E-19 5.76531E-19
 -1      3429 9.53080E-05-2.86442E-05-2.85713E-05-5.89938E-07-6.50472E-19 9.44155E-19
 -1      3430 9.53471E-05-2.86611E-05-2.85781E-05-6.32477E-07-4.48843E-19 1.14414E-18
 -1      3431 9.53123E-05-2.86357E-05-2.85755E-05-6.23136E-07-4.93757E-19 1.33204E-18
 -1      3432 9.52925E-05-2.86236E-05-2.85739E-05-6.25643E-07-7.91017E-19 9.14468E-19
 -1      3433 9.54530E-05-2.87675E-05-2.85779E-05-6.72479E-07-4.80926E-19 1.68052E-18
 -1      3434 9.53845E-05-2.87009E-05-2.85776E-05-6.64656E-07-2.10705E-19 1.42955E-18
 -1      3435 9.53308E-05-2.86644E-05-2.85738E-05-6.86982E-07-8.09771E-19 1.44682E-18
 -1      3436 9.56590E-05-2.89847E-05-2.85732E-05-7.03610E-07-1.53940E-19 1.16680E-18
 -1      3437 9.55414E-05-2.88598E-05-2.85754E-05-7.08670E-07-4.63269E-19 1.28480E-18
 -1      3438 9.54519E-05-2.87981E-05-2.85698E-05-7.67043E-07-2.65994E-19 1.34334E-18
 -1      3439 9.60086E-05-2.93529E-05-2.85656E-05-6.97162E-07 5.92607E-19 6.63828E-19
 -1      3440 9.58227E-05-2.91503E-05-2.85693E-05-7.32511E-07 4.58210E-19 8.62751E-19
 -1      3441 9.56971E-05-2.90654E-05-2.85624E-05-8.51154E-07 2.08849E-19 1.05173E-18
 -1      3442 9.65531E-05-2.99135E-05-2.85598E-05-6.08359E-07 1.52841E-19 1.28289E-18
 -1      3443 9.62783E-05-2.96149E-05-2.85626E-05-6.99327E-07 6.48010E-19 8.62028E-19
 -1      3444 9.61214E-05-2.95146E-05-2.85545E-05-9.11907E-07 3.67503E-19 1.42136E-18
 -1      3445 9.73445E-05-3.06961E-05-2.85655E-05-3.71210E-07 3.14193E-19 1.43426E-18
 -1      3446 9.69640E-05-3.02919E-05-2.85624E-05-5.52454E-07 2.11034E-21 1.13659E-18
 -1      3447 9.67914E-05-3.01951E-05-2.85534E-05-9.02075E-07 3.35556E-19 1.46568E-18
 -1      3448 9.84179E-05-3.16964E-05-2.86003E-05 1.04552E-07-3.65015E-19 2.02989E-18
 -1      3449 9.79282E-05-3.11986E-05-2.85825E-05-2.10288E-07 1.93277E-19 1.59497E-18
 -1      3450 9.77755E-05-3.11418E-05-2.85731E-05-7.46049E-07 1.52155E-20 1.77990E-18
 -1      3451 9.97628E-05-3.28407E-05-2.86913E-05 9.28376E-07-5.16228E-19 2.13523E-18
 -1      3452 9.91885E-05-3.23013E-05-2.86457E-05 4.34010E-07-5.72529E-19 1.72835E-18
 -1      3453 9.91232E-05-3.23467E-05-2.86371E-05-3.32733E-07-2.93556E-19 2.08868E-18
 -1      3454 1.01281E-04-3.39410E-05-2.88762E-05 2.20481E-06-9.45367E-19 1.89243E-18
 -1      3455 1.00692E-04-3.34737E-05-2.87852E-05 1.49872E-06-6.76024E-19 1.83489E-18
 -1      3456 1.00827E-04-3.37135E-05-2.87817E-05 4.81428E-07-7.26763E-19 1.21041E-18
 -1      3457 1.02743E-04-3.46573E-05-2.92000E-05 3.97613E-06-8.18968E-19 1.19612E-18
 -1      3458 1.02268E-04-3.44513E-05-2.90441E-05 3.07182E-06-7.27842E-19 2.22071E-18
 -1      3459 1.02765E-04-3.50012E-05-2.90557E-05 1.84399E-06-6.79386E-19 1.28032E-18
 -1      3460 1.03776E-04-3.45059E-05-2.97043E-05 6.11839E-06-1.17388E-18 1.08808E-18
 -1      3461 1.03588E-04-3.48068E-05-2.94681E-05 5.12354E-06-1.11499E-18 1.04208E-18
 -1      3462 1.04641E-04-3.57740E-05-2.95161E-05 3.82955E-06-5.93205E-19 1.77393E-18
 -1      3463 1.03931E-04-3.29916E-05-3.04055E-05 8.20152E-06-9.31729E-19 1.19388E-18
 -1      3464 1.04190E-04-3.40088E-05-3.00879E-05 7.36875E-06-1.00183E-18 7.85855E-19
 -1      3465 1.05959E-04-3.54210E-05-3.02111E-05 6.28976E-06-1.14733E-18 1.57951E-18
 -1      3466 1.02907E-04-2.99013E-05-3.12667E-05 9.45940E-06 2.84285E-19 1.12268E-18
 -1      3467 1.03655E-04-3.16589E-05-3.08943E-05 9.16362E-06-3.45453E-19 1.29090E-18
 -1      3468 1.06149E-04-3.33727E-05-3.11504E-05 8.67934E-06-7.62300E-19 1.33241E-18
 -1      3469 1.00859E-04-2.57114E-05-3.21616E-05 8.91780E-06-2.87185E-19 1.59797E-18
 -1      3470 1.01901E-04-2.78389E-05-3.17986E-05 9.54710E-06 1.47182E-19 1.31912E-18
 -1      3471 1.04863E-04-2.95020E-05-3.22643E-05 9.96700E-06-3.47268E-19 1.30403E-18
 -1      3472 9.86143E-05-2.17532E-05-3.28919E-05 6.00773E-06 1.28636E-18 3.56936E-19
 -1      3473 9.95233E-05-2.35209E-05-3.26251E-05 7.68603E-06 3.15550E-19 8.09558E-19
 -1      3474 1.02451E-04-2.45699E-05-3.33576E-05 9.00726E-06 5.25617E-19 7.08665E-19
 -1      3475 9.73619E-05-1.97425E-05-3.32497E-05 1.14841E-06 2.13590E-18-5.25500E-19
 -1      3476 9.76807E-05-2.03593E-05-3.31595E-05 3.52333E-06 2.40698E-18 6.79525E-20
 -1      3477 1.00090E-04-2.03787E-05-3.41682E-05 5.27519E-06 2.15247E-18-6.03835E-19
 -1      3478 9.78828E-05-2.07039E-05-3.31103E-05-4.12070E-06 1.02535E-18-1.83073E-18
 -1      3479 9.74377E-05-1.98634E-05-3.32307E-05-1.80169E-06 1.64604E-18-8.99754E-19
 -1      3480 9.92010E-05-1.88820E-05-3.44460E-05-3.67893E-07 2.33085E-18-6.26840E-19
 -1      3481 9.99057E-05-2.41783E-05-3.25130E-05-7.96860E-06-7.77110E-19-1.56800E-18
 -1      3482 9.89425E-05-2.22962E-05-3.28029E-05-6.44044E-06 1.80441E-19-1.74235E-18
 -1      3483 1.00403E-04-2.08990E-05-3.40834E-05-5.85403E-06 3.80758E-19-4.30934E-19
 -1      3484 1.02276E-04-2.85415E-05-3.16572E-05-9.44746E-06-1.73352E-18-1.14187E-18
 -1      3485 1.01252E-04-2.64191E-05-3.20286E-05-8.98220E-06-1.54461E-18-1.31454E-18
 -1      3486 1.02900E-04-2.53622E-05-3.32059E-05-9.18329E-06-1.12639E-18-8.12591E-19
 -1      3487 1.03884E-04-3.21949E-05-3.07584E-05-8.75998E-06-1.15596E-18-1.32006E-18
 -1      3488 1.03200E-04-3.05316E-05-3.11260E-05-9.17583E-06-1.40390E-18-1.33047E-18
 -1      3489 1.05228E-04-3.02532E-05-3.20910E-05-9.72165E-06-1.72620E-18-1.37507E-18
 -1      3490 1.04243E-04-3.43096E-05-2.99783E-05-6.80899E-06-1.76346E-19-2.18483E-18
 -1      3491 1.04057E-04-3.34072E-05-3.02841E-05-7.70540E-06-5.48334E-19-1.85258E-18
 -1      3492 1.06317E-04-3.39084E-05-3.09972E-05-8.15798E-06 7.48971E-21-1.18849E-18
 -1      3493 1.03499E-04-3.48853E-05-2.93936E-05-4.52685E-06 1.36450E-19-4.27532E-19
 -1      3494 1.03747E-04-3.46878E-05-2.96148E-05-5.53388E-06-4.06931E-19-1.59880E-18
 -1      3495 1.05941E-04-3.56799E-05-3.00957E-05-5.66785E-06-8.01164E-19-1.80466E-18
 -1      3496 1.02100E-04-3.43666E-05-2.90070E-05-2.51060E-06 1.36141E-18 3.97530E-19
 -1      3497 1.02615E-04-3.46499E-05-2.91476E-05-3.39894E-06 5.31326E-19 6.84663E-19
 -1      3498 1.04503E-04-3.58003E-05-2.94474E-05-3.21971E-06-4.95474E-19 7.01019E-20
 -1      3499 1.00488E-04-3.32776E-05-2.87823E-05-1.00118E-06 2.74172E-18 7.55390E-19
 -1      3500 1.01103E-04-3.38018E-05-2.88594E-05-1.68062E-06 2.66595E-18 1.35831E-18
 -1      3501 1.02582E-04-3.48737E-05-2.90331E-05-1.29800E-06 1.30252E-18 5.96584E-19
 -1      3502 9.89824E-05-3.20290E-05-2.86741E-05-1.96825E-09 1.69320E-18 1.07755E-18
 -1      3503 9.95634E-05-3.26072E-05-2.87069E-05-4.71175E-07 2.14561E-18 1.28967E-18
 -1      3504 1.00644E-04-3.34751E-05-2.88007E-05-1.89522E-08 2.74613E-18 2.50450E-18
 -1      3505 9.81525E-05-3.13031E-05-2.86516E-05 5.31336E-07 1.78439E-18 1.16029E-18
 -1      3506 9.06083E-05-2.49132E-05-2.81959E-05 5.26605E-06-3.95918E-19 9.05246E-19
 -1      3507 9.19864E-05-2.59971E-05-2.82344E-05 5.90622E-06-3.66123E-19 5.96923E-19
 -1      3508 5.27529E-05-6.21320E-06-1.98879E-05 6.29805E-06-2.35889E-18 7.04308E-19
 -1      3509 5.92253E-05-7.44497E-06-2.20568E-05 3.49618E-06-2.74295E-18 1.63213E-19
 -1      3510 5.52870E-05-8.90008E-06-1.95846E-05 1.59525E-05-2.21400E-18 3.51254E-19
 -1      3511 8.34921E-05-3.19024E-05-2.18450E-05-3.54237E-05-3.92600E-19-1.78449E-18
 -1      3512 9.82619E-05-4.13731E-05-2.44003E-05-3.36391E-05-3.92626E-19-6.80803E-20
 -1      3513 6.53539E-05-9.50088E-06-2.39402E-05 1.93253E-06-1.49446E-18-6.88386E-19
 -1      3514 7.12396E-05-1.18678E-05-2.54810E-05 1.33140E-06-4.46502E-19-1.09917E-18
 -1      3515 6.58998E-05-1.07699E-05-2.34331E-05 9.00065E-06-2.00309E-18 4.22663E-19
 -1      3516 1.25335E-04-3.23311E-05-4.01359E-05-1.21067E-05 1.27952E-18 1.27741E-18
 -1      3517 1.28370E-04-3.95646E-05-3.81497E-05-8.93312E-06 1.13730E-18-7.38904E-20
 -1      3518 9.86864E-05-3.16984E-05-2.86929E-05 2.57783E-06 8.51712E-19 1.02590E-18
 -1      3519 9.87490E-05-3.17770E-05-2.86910E-05 1.86190E-06 1.45193E-18 2.51198E-18
 -1      3520 9.93403E-05-3.24235E-05-2.86802E-05 3.26090E-06 1.89112E-18 9.39820E-19
 -1      3521 8.82144E-05-2.25214E-05-2.81902E-05 2.79026E-06 8.76982E-19 8.51537E-19
 -1      3522 8.91650E-05-2.33782E-05-2.81593E-05 4.12936E-06 1.23850E-20 8.98533E-19
 -1      3523 8.92098E-05-2.39433E-05-2.79690E-05 5.78435E-06-2.35372E-19 7.78252E-19
 -1      3524 9.39362E-05-2.12608E-05-3.11563E-05-4.39596E-06-6.07123E-19-1.44978E-18
 -1      3525 9.35737E-05-2.75343E-05-2.83305E-05 6.14930E-06 2.56033E-19-1.30946E-18
 -1      3526 9.49188E-05-2.85679E-05-2.83952E-05 6.14527E-06 1.39992E-18-4.00232E-18
 -1      3527 9.26625E-05-2.70716E-05-2.81314E-05 7.13620E-06 8.54064E-19-9.93369E-19
 -1      3528 7.98514E-05-1.61727E-05-2.73366E-05-1.35118E-06 2.86637E-18-8.73946E-19
 -1      3529 8.27193E-05-1.79412E-05-2.78023E-05-1.58523E-06 1.59811E-18 1.00916E-19
 -1      3530 8.26098E-05-1.80495E-05-2.76126E-05 3.76802E-07 1.82095E-18 5.32324E-20
 -1      3531 9.22393E-05-1.81208E-05-3.17768E-05-1.00755E-06 5.26729E-19-1.40671E-18
 -1      3532 9.23502E-05-1.83106E-05-3.17461E-05-1.76191E-06 2.93785E-19-1.35282E-18
 -1      3533 9.33289E-05-1.99792E-05-3.14204E-05-1.75472E-06 2.19616E-19-1.28332E-18
 -1      3534 7.36143E-05-1.29551E-05-2.60661E-05 1.82644E-07 3.23436E-19-1.58339E-18
 -1      3535 7.77753E-05-1.50799E-05-2.69181E-05-4.95786E-07 1.68071E-18-1.09725E-18
 -1      3536 7.79779E-05-1.55625E-05-2.66753E-05 2.49163E-06 1.86646E-18-1.61574E-19
 -1      3537 7.38200E-05-1.36141E-05-2.56428E-05 4.98355E-06 1.28297E-19-1.01029E-18
 -1      3538 9.62093E-05-2.97321E-05-2.84990E-05 5.67325E-06 5.02195E-19-2.50987E-18
 -1      3539 9.71950E-05-3.04993E-05-2.85566E-05 5.17388E-06 3.09635E-19 6.43589E-19
 -1      3540 9.81594E-05-3.15863E-05-2.85562E-05 5.24234E-06 3.26504E-19-2.08953E-19
 -1      3541 9.59023E-05-2.98074E-05-2.83616E-05 6.76715E-06 3.92761E-19-2.55750E-18
 -1      3542 1.29980E-04-5.43061E-05-3.22629E-05-1.23847E-05-4.56873E-19-4.34925E-19
 -1      3543 1.30740E-04-5.06550E-05-3.45214E-05-3.06893E-06-1.17832E-18 1.20729E-19
 -1      3544 1.24291E-04-5.25573E-05-3.07348E-05-1.51371E-05-1.15911E-18-3.30515E-19
 -1      3545 1.15496E-04-1.08120E-05-4.52548E-05 6.29428E-06 1.28331E-18 2.96472E-18
 -1      3546 1.11924E-04-1.03386E-05-4.37022E-05 3.15877E-06 1.21835E-18 3.21035E-18
 -1      3547 1.14742E-04-1.49207E-05-4.29758E-05 9.05902E-06 2.07597E-18 2.21670E-18
 -1      3548 9.60807E-05-2.83576E-05-2.90276E-05-6.91289E-07 5.64973E-19-9.78135E-20
 -1      3549 9.61032E-05-2.81072E-05-2.91339E-05-4.91791E-07 5.45941E-19-2.24469E-19
 -1      3550 1.12097E-04-1.09266E-05-4.34978E-05-4.27532E-06 5.37231E-19 6.58043E-18
 -1      3551 1.15516E-04-1.21651E-05-4.45978E-05-7.47460E-06 1.81064E-18 3.61315E-18
 -1      3552 1.14515E-04-1.60245E-05-4.23995E-05-9.50717E-06 2.01017E-18 3.60534E-18
 -1      3553 1.30270E-04-4.77208E-05-3.54258E-05 1.78068E-06-1.29360E-18-9.59794E-19
 -1      3554 1.27325E-04-4.29882E-05-3.61612E-05 6.03725E-06-1.35521E-18-1.17528E-18
 -1      3555 1.27081E-04-4.89328E-05-3.36106E-05-2.21608E-06-1.46971E-18-5.21759E-19
 -1      3556 9.31335E-05-1.96084E-05-3.14941E-05-5.84109E-07 5.58471E-19-1.27419E-18
 -1      3557 9.59206E-05-2.68581E-05-2.96082E-05 4.54341E-07 7.52136E-19-1.55758E-19
 -1      3558 9.58484E-05-2.62571E-05-2.98125E-05 1.00151E-06 9.44570E-19-1.81900E-19
 -1      3559 9.56970E-05-2.54860E-05-3.00950E-05 1.29523E-06 8.91935E-19-4.25265E-19
 -1      3560 1.16634E-04-2.27866E-05-4.04050E-05-1.23806E-05 1.37807E-18 1.51359E-18
 -1      3561 1.21552E-04-2.76369E-05-4.04041E-05-1.30314E-05 1.06303E-18 1.37119E-18
 -1      3562 1.19587E-04-3.10204E-05-3.80430E-05-1.18536E-05 6.19710E-19 4.76853E-19
 -1      3563 9.88670E-05-3.19205E-05-2.86962E-05 1.01108E-06 1.90369E-18 1.87753E-18
 -1      3564 9.44512E-05-2.23041E-05-3.09089E-05-3.42683E-06-5.14240E-19-1.26002E-18
 -1      3565 1.23133E-04-3.90575E-05-3.60372E-05-8.80398E-06 2.77800E-19 2.91796E-19
 -1      3566 1.28067E-04-4.37410E-05-3.62761E-05-5.99944E-06 2.73506E-19-2.32974E-19
 -1      3567 1.25666E-04-4.58736E-05-3.42001E-05-2.22596E-06-5.55204E-20-4.99862E-19
 -1      3568 8.72880E-05-2.13940E-05-2.82690E-05 4.72356E-07 1.50816E-18 2.67293E-19
 -1      3569 8.75822E-05-2.17145E-05-2.81983E-05 1.69123E-06 1.48783E-18 4.32924E-19
 -1      3570 8.66844E-05-2.15719E-05-2.79296E-05 3.48282E-06 1.06473E-18 1.31548E-18
 -1      3571 8.54380E-05-2.01817E-05-2.79917E-05 1.04415E-06 2.29329E-18 2.58180E-19
 -1      3572 1.05862E-04-4.50597E-05-2.57687E-05-3.03709E-05-6.59706E-19 5.32890E-19
 -1      3573 1.11348E-04-4.75324E-05-2.74473E-05-2.51197E-05-1.20824E-18 2.07133E-19
 -1      3574 9.77480E-05-3.89832E-05-2.51989E-05-2.95153E-05-8.59831E-19 5.07783E-19
 -1      3575 9.44853E-05-2.23792E-05-3.08950E-05-2.85271E-06-2.92079E-19-1.03569E-18
 -1      3576 9.61248E-05-2.89875E-05-2.87753E-05-9.14511E-07 4.66173E-19 1.43049E-19
 -1      3577 9.59419E-05-2.89042E-05-2.87307E-05-9.96273E-07 3.92661E-19 2.67254E-19
 -1      3578 9.59820E-05-2.88215E-05-2.87798E-05-9.65525E-07 3.10918E-19 3.45074E-19
 -1      3579 9.96313E-05-3.26462E-05-2.87199E-05 1.36805E-06 2.38009E-18 1.05627E-18
 -1      3580 1.26508E-04-5.33044E-05-3.14528E-05 1.28050E-05-9.82704E-19-2.20450E-18
 -1      3581 1.20729E-04-5.14943E-05-2.96974E-05 1.75896E-05-6.71810E-19-3.67205E-18
 -1      3582 1.26399E-04-5.06915E-05-3.23831E-05 6.67982E-06-9.62352E-19-1.39056E-18
 -1      3583 9.40750E-05-2.14822E-05-3.11137E-05-2.07424E-06 4.57347E-20-1.26185E-18
 -1      3584 9.42960E-05-2.19551E-05-3.10142E-05-2.50666E-06-2.33127E-19-1.14995E-18
 -1      3585 9.48306E-05-2.30318E-05-3.07553E-05-2.12464E-06-2.42438E-19-1.08541E-18
 -1      3586 1.23039E-04-3.39654E-05-3.82866E-05 1.10595E-05-4.76509E-19-2.18071E-19
 -1      3587 1.22732E-04-2.81998E-05-4.07364E-05 1.31257E-05 5.10099E-19 4.58298E-19
 -1      3588 1.10316E-04-4.68262E-05-2.71216E-05 2.58459E-05-1.26091E-18-4.12257E-18
 -1      3589 1.04273E-04-4.42421E-05-2.54989E-05 3.09780E-05-1.69917E-18-4.00390E-18
 -1      3590 9.58476E-05-3.80779E-05-2.47702E-05 3.02673E-05-1.52776E-18-4.07163E-18
 -1      3591 6.79601E-05-1.93085E-05-2.06962E-05 2.83963E-05-1.48065E-18 2.94376E-18
 -1      3592 5.98444E-05-1.30696E-05-1.98599E-05 2.20260E-05-1.62960E-18 9.89123E-19
 -1      3593 6.41092E-05-1.28717E-05-2.17249E-05 1.73331E-05-2.28404E-18 1.87279E-18
 -1      3594 9.38609E-05-2.10421E-05-3.12199E-05 8.06295E-07 6.85518E-19-1.07468E-18
 -1      3595 9.38104E-05-2.09403E-05-3.12394E-05 2.47367E-07 5.28333E-19-1.22174E-18
 -1      3596 9.40779E-05-2.15021E-05-3.11192E-05 1.74817E-06 8.51062E-19-8.20832E-19
 -1      3597 9.39426E-05-2.12078E-05-3.11788E-05 1.24552E-06 7.37343E-19-8.70353E-19
 -1      3598 9.46008E-05-2.23680E-05-3.09365E-05 8.34367E-07 6.32537E-19-8.58799E-19
 -1      3599 1.18246E-04-2.29602E-05-4.09713E-05 1.26130E-05 1.55251E-18 1.50708E-18
 -1      3600 6.61188E-05-1.79733E-05-2.05734E-05-2.71500E-05 4.34329E-19-2.28095E-18
 -1      3601 7.48810E-05-2.53139E-05-2.11009E-05-3.34028E-05 8.20828E-20-2.18699E-18
 -1      3602 8.37133E-05-2.89462E-05-2.32905E-05-2.97172E-05-5.94677E-19-8.18154E-19
 -1      3603 7.11954E-05-1.78633E-05-2.26950E-05-2.20495E-05 2.14008E-20-2.43617E-18
 -1      3604 7.81595E-05-2.51374E-05-2.25578E-05 2.85645E-05-1.46823E-18 1.49193E-18
 -1      3605 9.60283E-05-2.87098E-05-2.88523E-05-9.14327E-07 1.76342E-19 2.79055E-19
 -1      3606 9.60642E-05-2.85589E-05-2.89258E-05-8.16266E-07 4.11619E-19 1.46474E-20
 -1      3607 9.62290E-05-2.87935E-05-2.89032E-05-8.44374E-07 3.05921E-19 3.41357E-21
 -1      3608 9.62893E-05-2.84328E-05-2.90834E-05-6.49587E-07 3.84610E-19-3.56155E-19
 -1      3609 8.73997E-05-2.29607E-05-2.76605E-05 6.71641E-06-4.29821E-19 9.06550E-19
 -1      3610 8.93246E-05-2.44996E-05-2.77200E-05 7.97060E-06-5.28827E-19 6.02154E-19
 -1      3611 9.52738E-05-2.41904E-05-3.04752E-05-1.52950E-06-9.83708E-20-9.92454E-19
 -1      3612 8.61647E-05-2.97463E-05-2.41533E-05 2.75721E-05-1.57467E-18-1.43499E-18
 -1      3613 7.62924E-05-2.16938E-05-2.34262E-05 2.33682E-05-1.49557E-18 2.42862E-18
 -1      3614 9.59353E-05-2.57296E-05-3.00795E-05-8.97602E-07-1.20153E-19-7.15713E-19
 -1      3615 9.61256E-05-2.64588E-05-2.98668E-05-4.49958E-07-1.64316E-19-7.13540E-19
 -1      3616 9.63349E-05-2.70903E-05-2.96712E-05-1.71643E-07-2.47772E-19-6.26975E-19
 -1      3617 9.64208E-05-2.75888E-05-2.95055E-05 1.26040E-07-2.82333E-19-6.02424E-19
 -1      3618 9.62717E-05-2.65633E-05-2.98704E-05-3.30780E-07-1.78973E-19-6.36840E-19
 -1      3619 9.65088E-05-2.80066E-05-2.93534E-05 3.07859E-07-1.65218E-19-3.12228E-19
 -1      3620 9.65191E-05-2.83276E-05-2.92285E-05 4.90722E-07-2.63215E-19-9.42268E-20
 -1      3621 9.65620E-05-2.76819E-05-2.95192E-05 1.44276E-07-8.81059E-20-3.94168E-19
 -1      3622 9.65258E-05-2.85875E-05-2.91127E-05 5.92958E-07-2.52825E-19-2.56098E-20
 -1      3623 9.64930E-05-2.87817E-05-2.90209E-05 6.90542E-07-2.08575E-19 9.66749E-21
 -1      3624 9.66551E-05-2.84128E-05-2.92472E-05 4.41135E-07-1.52785E-19-4.55202E-20
 -1      3625 9.64496E-05-2.89288E-05-2.89347E-05 7.35498E-07-2.90013E-19 1.31208E-19
 -1      3626 9.63938E-05-2.90338E-05-2.88690E-05 7.74337E-07-2.15327E-19 8.48199E-20
 -1      3627 9.66181E-05-2.88581E-05-2.90412E-05 6.02315E-07-1.53705E-19 5.92411E-21
 -1      3628 9.63221E-05-2.91023E-05-2.88066E-05 7.81436E-07-3.23027E-19 4.76327E-20
 -1      3629 9.62559E-05-2.91455E-05-2.87612E-05 7.82903E-07-3.05667E-19-2.82821E-19
 -1      3630 9.65036E-05-2.90996E-05-2.88891E-05 6.68356E-07-3.82081E-19-1.33059E-19
 -1      3631 9.61706E-05-2.91605E-05-2.87175E-05 7.67323E-07-2.25879E-19-4.09692E-19
 -1      3632 9.61015E-05-2.91617E-05-2.86876E-05 7.47624E-07-2.02439E-19-4.45574E-19
 -1      3633 9.63480E-05-2.91990E-05-2.87799E-05 6.72926E-07-4.71246E-19-3.69184E-19
 -1      3634 9.60116E-05-2.91407E-05-2.86583E-05 7.20670E-07-3.24765E-19-5.95550E-19
 -1      3635 9.59434E-05-2.91135E-05-2.86402E-05 6.91619E-07-4.80268E-19-3.65355E-19
 -1      3636 9.61743E-05-2.92014E-05-2.87044E-05 6.41912E-07-4.39020E-19-4.77542E-19
 -1      3637 9.58534E-05-2.90683E-05-2.86221E-05 6.61291E-07-5.03367E-19-2.16186E-19
 -1      3638 9.57875E-05-2.90214E-05-2.86128E-05 6.31219E-07-2.86795E-19-1.29990E-19
 -1      3639 9.59961E-05-2.91382E-05-2.86548E-05 5.94312E-07-4.43121E-19-2.00052E-19
 -1      3640 9.56987E-05-2.89590E-05-2.86030E-05 6.02832E-07 7.88796E-20-1.14752E-19
 -1      3641 9.56339E-05-2.88971E-05-2.86003E-05 5.77389E-07 1.92951E-19-2.06023E-19
 -1      3642 9.58192E-05-2.90300E-05-2.86251E-05 5.43259E-07-6.22147E-20 2.18782E-19
 -1      3643 9.55450E-05-2.88208E-05-2.85967E-05 5.54055E-07-1.35705E-19-4.00454E-19
 -1      3644 9.54782E-05-2.87453E-05-2.85989E-05 5.36796E-07-5.78091E-19-3.15195E-19
 -1      3645 9.56437E-05-2.88884E-05-2.86101E-05 4.97001E-07-1.33211E-19-1.12182E-20
 -1      3646 9.53851E-05-2.86548E-05-2.85996E-05 5.19652E-07-4.77098E-19-2.72552E-19
 -1      3647 9.53108E-05-2.85637E-05-2.86054E-05 5.12333E-07-1.10647E-19-6.59652E-19
 -1      3648 9.54642E-05-2.87176E-05-2.86058E-05 4.59519E-07-4.90053E-19-2.02774E-19
 -1      3649 9.52071E-05-2.84558E-05-2.86090E-05 5.00439E-07 2.30085E-20-6.90895E-19
 -1      3650 9.51166E-05-2.83440E-05-2.86170E-05 5.02937E-07-3.22319E-19-5.04371E-19
 -1      3651 9.52705E-05-2.85152E-05-2.86087E-05 4.30525E-07-1.70286E-19 1.41962E-20
 -1      3652 9.49923E-05-2.82118E-05-2.86218E-05 4.92699E-07-3.28426E-19-4.02296E-19
 -1      3653 9.48728E-05-2.80704E-05-2.86308E-05 5.02405E-07-2.82078E-19-3.52877E-19
 -1      3654 9.50466E-05-2.82727E-05-2.86157E-05 4.04643E-07-2.34848E-19-3.52191E-19
 -1      3655 9.47140E-05-2.79039E-05-2.86350E-05 4.86340E-07-6.05957E-20-4.82202E-19
 -1      3656 9.45466E-05-2.77200E-05-2.86430E-05 4.97126E-07 3.85019E-19-2.42994E-19
 -1      3657 9.47694E-05-2.79752E-05-2.86230E-05 3.69468E-07-9.17228E-20 3.29045E-19
 -1      3658 9.43224E-05-2.74926E-05-2.86437E-05 4.59736E-07 3.60451E-19-2.52931E-19
 -1      3659 9.40636E-05-2.72333E-05-2.86473E-05 4.57049E-07 1.05170E-19 4.97029E-20
 -1      3660 9.43960E-05-2.75905E-05-2.86258E-05 2.99434E-07 9.29974E-20 8.84368E-19
 -1      3661 9.37669E-05-2.69469E-05-2.86397E-05 3.76773E-07 2.99710E-19-4.34739E-20
 -1      3662 9.33998E-05-2.66129E-05-2.86331E-05 3.37238E-07 6.82525E-19 3.60753E-19
 -1      3663 9.38876E-05-2.70981E-05-2.86162E-05 1.52239E-07 4.65447E-19 7.12685E-19
 -1      3664 9.29910E-05-2.62383E-05-2.86104E-05 1.75506E-07 7.48414E-19 3.74112E-19
 -1      3665 9.24482E-05-2.57916E-05-2.85839E-05 5.73264E-08 7.39838E-19 8.58488E-19
 -1      3666 9.32021E-05-2.64817E-05-2.85831E-05-1.33841E-07 8.70393E-19 1.04325E-18
 -1      3667 9.18879E-05-2.53092E-05-2.85344E-05-2.46844E-07 7.50753E-19 6.34596E-19
 -1      3668 9.10924E-05-2.47221E-05-2.84713E-05-5.13768E-07 5.15767E-19 7.46169E-19
 -1      3669 9.22606E-05-2.57047E-05-2.85080E-05-6.67386E-07 7.76323E-19 5.53705E-19
 -1      3670 9.03411E-05-2.41232E-05-2.83765E-05-1.05382E-06-1.07480E-19 7.70379E-19
 -1      3671 8.91942E-05-2.33781E-05-2.82484E-05-1.58227E-06-2.95206E-19 8.35433E-19
 -1      3672 9.09878E-05-2.47601E-05-2.83618E-05-1.61238E-06 1.00928E-19 7.79786E-19
 -1      3673 8.82225E-05-2.26828E-05-2.80794E-05-2.49523E-06-4.75189E-19 9.93030E-19
 -1      3674 8.66079E-05-2.17937E-05-2.78393E-05-3.45894E-06-2.43412E-19 8.05001E-19
 -1      3675 8.93167E-05-2.36875E-05-2.80995E-05-3.21225E-06-2.94634E-19 5.94321E-19
 -1      3676 8.54258E-05-2.10875E-05-2.75523E-05-4.93810E-06 8.48075E-20 1.63317E-19
 -1      3677 8.32182E-05-2.01351E-05-2.71233E-05-6.59365E-06 2.85898E-19 1.64763E-19
 -1      3678 8.72289E-05-2.26316E-05-2.76531E-05-5.81030E-06-2.26396E-19 2.64722E-19
 -1      3679 8.19229E-05-1.96266E-05-2.66555E-05-8.90501E-06-1.75040E-20-6.89541E-19
 -1      3680 7.90356E-05-1.88180E-05-2.59157E-05-1.15970E-05-6.08585E-19-8.15309E-19
 -1      3681 8.48389E-05-2.19294E-05-2.69256E-05-9.86655E-06-5.09707E-19-1.23290E-19
 -1      3682 9.59858E-05-2.91294E-05-2.86517E-05-7.49245E-07 2.95042E-19 7.49826E-19
 -1      3683 9.60511E-05-2.91388E-05-2.86758E-05-7.76629E-07 4.22593E-19 5.38075E-19
 -1      3684 9.60635E-05-2.77737E-05-2.92731E-05-2.58732E-07 4.90276E-19-1.61769E-19
 -1      3685 9.60595E-05-2.73829E-05-2.94222E-05 8.85510E-08 6.02976E-19-1.17058E-19
 -1      3686 9.62631E-05-2.78277E-05-2.93307E-05-2.73000E-07 5.29112E-19-2.38419E-19
 -1      3687 9.56973E-05-2.89830E-05-2.85904E-05-6.23934E-07 5.18069E-19 4.49454E-19
 -1      3688 9.57539E-05-2.90254E-05-2.85979E-05-6.55119E-07 3.82741E-19 5.17227E-19
 -1      3689 9.58372E-05-2.90704E-05-2.86130E-05-6.85623E-07 5.10688E-19 6.16547E-19
 -1      3690 9.58991E-05-2.91008E-05-2.86275E-05-7.18605E-07 6.18225E-19 5.95586E-19
 -1      3691 9.60596E-05-2.91686E-05-2.86692E-05-6.49502E-07 3.66754E-19 5.04679E-19
 -1      3692 9.58911E-05-2.90961E-05-2.86279E-05-5.96967E-07 4.59243E-19 4.68734E-19
 -1      3693 9.61371E-05-2.91398E-05-2.87125E-05-7.99751E-07 3.93750E-19 2.93715E-19
 -1      3694 9.62026E-05-2.91160E-05-2.87498E-05-8.11014E-07 4.96136E-19 1.10815E-19
 -1      3695 9.62306E-05-2.91920E-05-2.87326E-05-6.92829E-07 2.12463E-19 5.25520E-19
 -1      3696 9.55694E-05-2.88818E-05-2.85790E-05-5.74848E-07 2.96730E-19 4.99971E-19
 -1      3697 9.56196E-05-2.89294E-05-2.85818E-05-5.99118E-07 4.25199E-19 4.21480E-19
 -1      3698 9.57315E-05-2.89949E-05-2.86026E-05-5.48513E-07 4.68803E-19 9.94903E-19
 -1      3699 9.54566E-05-2.87787E-05-2.85747E-05-5.46034E-07-4.53670E-19 7.60312E-19
 -1      3700 9.54990E-05-2.88259E-05-2.85747E-05-5.59886E-07-8.70162E-21 5.38332E-19
 -1      3701 9.55846E-05-2.88804E-05-2.85886E-05-5.14082E-07 4.34378E-20 1.23393E-18
 -1      3702 9.53628E-05-2.86855E-05-2.85743E-05-5.43198E-07-5.24332E-19 1.15149E-18
 -1      3703 9.53951E-05-2.87263E-05-2.85730E-05-5.44292E-07-5.61295E-19 8.91257E-19
 -1      3704 9.54533E-05-2.87650E-05-2.85816E-05-5.01579E-07-5.54373E-19 1.40227E-18
 -1      3705 9.52952E-05-2.86158E-05-2.85750E-05-5.70723E-07-8.55022E-19 1.36231E-18
 -1      3706 9.53131E-05-2.86428E-05-2.85736E-05-5.57659E-07-5.07920E-19 1.34925E-18
 -1      3707 9.53420E-05-2.86612E-05-2.85784E-05-5.17938E-07-6.67764E-19 1.65794E-18
 -1      3708 9.52668E-05-2.85879E-05-2.85744E-05-6.31810E-07-8.83749E-19 9.57891E-19
 -1      3709 9.52628E-05-2.85912E-05-2.85740E-05-6.04200E-07-9.01005E-19 8.93382E-19
 -1      3710 9.52588E-05-2.85843E-05-2.85760E-05-5.69866E-07-6.92114E-19 1.14308E-18
 -1      3711 9.52989E-05-2.86274E-05-2.85707E-05-7.27890E-07-9.11351E-19 1.14654E-18
 -1      3712 9.52612E-05-2.85932E-05-2.85721E-05-6.86821E-07-9.74814E-19 7.61121E-19
 -1      3713 9.52182E-05-2.85547E-05-2.85720E-05-6.64085E-07-9.38663E-19 5.70011E-19
 -1      3714 9.54252E-05-2.87702E-05-2.85630E-05-8.56936E-07-7.64433E-20 6.08318E-19
 -1      3715 9.53361E-05-2.86794E-05-2.85664E-05-8.06015E-07-4.43833E-19 7.15336E-19
 -1      3716 9.52453E-05-2.86020E-05-2.85646E-05-8.06803E-07-4.58742E-19-1.82135E-19
 -1      3717 9.56942E-05-2.90631E-05-2.85521E-05-1.01000E-06 1.42735E-19 8.94171E-19
 -1      3718 9.55292E-05-2.88914E-05-2.85568E-05-9.57254E-07 2.20600E-19 6.47328E-19
 -1      3719 9.53789E-05-2.87673E-05-2.85530E-05-1.00178E-06 1.76701E-19 2.01848E-19
 -1      3720 9.61716E-05-2.95635E-05-2.85418E-05-1.16523E-06 2.24479E-19 6.50982E-19
 -1      3721 9.58994E-05-2.92823E-05-2.85454E-05-1.12610E-06 4.77010E-19 7.60780E-19
 -1      3722 9.56769E-05-2.91057E-05-2.85387E-05-1.24603E-06 1.34024E-19 2.88089E-19
 -1      3723 9.69385E-05-3.03331E-05-2.85410E-05-1.27857E-06 2.20183E-19 7.75253E-19
 -1      3724 9.65238E-05-2.99141E-05-2.85385E-05-1.28018E-06-1.92692E-19 5.63716E-19
 -1      3725 9.62190E-05-2.96854E-05-2.85268E-05-1.52186E-06-5.84672E-20-7.27815E-20
 -1      3726 9.80822E-05-3.14212E-05-2.85667E-05-1.27128E-06-6.42204E-19 1.68278E-18
 -1      3727 9.74927E-05-3.08463E-05-2.85489E-05-1.35737E-06 1.29435E-19 1.61676E-18
 -1      3728 9.71062E-05-3.05807E-05-2.85288E-05-1.78396E-06-5.84563E-19 1.03213E-18
 -1      3729 9.96729E-05-3.28328E-05-2.86479E-05-1.01629E-06 2.79641E-20 1.96866E-18
 -1      3730 9.88944E-05-3.21136E-05-2.85995E-05-1.25100E-06-2.79571E-19 1.66077E-18
 -1      3731 9.84521E-05-3.18538E-05-2.85662E-05-1.94072E-06-5.30912E-19 1.76877E-18
 -1      3732 1.01718E-04-3.44729E-05-2.88294E-05-3.34041E-07-7.53802E-19 9.02478E-19
 -1      3733 1.00779E-04-3.36809E-05-2.87281E-05-7.98170E-07-1.23534E-19 1.29548E-18
 -1      3734 1.00355E-04-3.35137E-05-2.86762E-05-1.83235E-06 1.05333E-19 1.65311E-18
 -1      3735 1.04094E-04-3.60712E-05-2.91735E-05 9.82671E-07-5.75682E-19 9.85422E-19
 -1      3736 1.03098E-04-3.53755E-05-2.89900E-05 2.12241E-07-1.06520E-18 7.05485E-19
 -1      3737 1.02840E-04-3.54448E-05-2.89163E-05-1.22100E-06-4.65530E-19 7.88925E-19
 -1      3738 1.06458E-04-3.71014E-05-2.97551E-05 3.08692E-06-7.87738E-19 1.25522E-18
 -1      3739 1.05613E-04-3.68038E-05-2.94571E-05 1.98835E-06-4.58800E-19 1.33414E-18
 -1      3740 1.05770E-04-3.73125E-05-2.93670E-05 1.85539E-07-8.59640E-19 4.58125E-19
 -1      3741 1.08217E-04-3.67701E-05-3.06428E-05 5.89475E-06-1.13166E-18 1.58358E-18
 -1      3742 1.07809E-04-3.72860E-05-3.02073E-05 4.58641E-06-8.99935E-19 1.70317E-18
 -1      3743 1.08712E-04-3.84449E-05-3.01260E-05 2.60610E-06-9.97362E-19 1.42192E-18
 -1      3744 1.08627E-04-3.43136E-05-3.18530E-05 8.72102E-06-7.35559E-19 1.76429E-18
 -1      3745 1.08892E-04-3.59373E-05-3.12858E-05 7.59373E-06-7.56890E-19 1.50097E-18
 -1      3746 1.10817E-04-3.77692E-05-3.12776E-05 5.94108E-06-7.96811E-19 1.98265E-18
 -1      3747 1.07103E-04-2.93307E-05-3.33122E-05 1.03619E-05-1.25586E-19 1.82007E-18
 -1      3748 1.08183E-04-3.20796E-05-3.26754E-05 1.01190E-05-9.40633E-19 1.24111E-18
 -1      3749 1.11295E-04-3.46785E-05-3.28015E-05 9.28734E-06-4.10910E-19 1.82311E-18
 -1      3750 1.04250E-04-2.31126E-05-3.47216E-05 9.22700E-06 1.31651E-18 1.05725E-18
 -1      3751 1.05694E-04-2.61946E-05-3.41548E-05 1.03384E-05 9.40938E-19 1.59403E-18
 -1      3752 1.09310E-04-2.83591E-05-3.46924E-05 1.10435E-05 6.46961E-19 2.05642E-18
 -1      3753 1.01609E-04-1.81832E-05-3.57080E-05 4.71933E-06 3.04367E-18 5.90251E-19
 -1      3754 1.02605E-04-2.02298E-05-3.53721E-05 7.16990E-06 1.69100E-18 9.80953E-19
 -1      3755 1.06029E-04-2.13859E-05-3.62937E-05 8.96803E-06 1.71678E-18 1.70910E-18
 -1      3756 1.01022E-04-1.72757E-05-3.59177E-05-1.86130E-06 1.81639E-18 2.30362E-19
 -1      3757 1.00897E-04-1.71426E-05-3.59359E-05 1.04847E-06 3.33103E-18 2.86975E-19
 -1      3758 1.03456E-04-1.65349E-05-3.72498E-05 3.21449E-06 2.94702E-18 1.31323E-18
 -1      3759 1.03074E-04-2.10697E-05-3.52329E-05-7.75404E-06-6.01540E-19 6.04292E-19
 -1      3760 1.01821E-04-1.87193E-05-3.56222E-05-5.54388E-06 4.39418E-19 3.71662E-19
 -1      3761 1.03600E-04-1.69820E-05-3.71016E-05-4.06945E-06 1.61819E-18 1.33386E-18
 -1      3762 1.06220E-04-2.72340E-05-3.39397E-05-1.03488E-05-8.54835E-19 1.23237E-19
 -1      3763 1.04783E-04-2.41085E-05-3.45288E-05-9.50878E-06-3.00492E-19 5.45681E-19
 -1      3764 1.06667E-04-2.24381E-05-3.60795E-05-9.40432E-06-3.10424E-20 1.34018E-18
 -1      3765 1.08553E-04-3.29519E-05-3.24541E-05-9.65283E-06-1.43008E-18-6.94202E-19
 -1      3766 1.07562E-04-3.03191E-05-3.30858E-05-1.01354E-05-2.01507E-18-8.25254E-19
 -1      3767 1.09850E-04-2.95110E-05-3.43899E-05-1.07931E-05-7.59206E-19 7.17275E-19
 -1      3768 1.08985E-04-3.64147E-05-3.11111E-05-6.97380E-06 5.60349E-20-3.72535E-19
 -1      3769 1.08784E-04-3.49398E-05-3.16612E-05-8.16887E-06-9.97175E-20 4.54304E-20
 -1      3770 1.11493E-04-3.53675E-05-3.25888E-05-8.68080E-06-7.22225E-19 3.91773E-19
 -1      3771 1.07686E-04-3.74332E-05-3.00862E-05-3.91196E-06-1.29807E-18-3.21751E-19
 -1      3772 1.08176E-04-3.70808E-05-3.04966E-05-5.21659E-06-4.75329E-19-9.09165E-19
 -1      3773 1.10800E-04-3.82050E-05-3.10900E-05-5.20112E-06-3.41990E-19 5.69228E-19
 -1      3774 1.05413E-04-3.67381E-05-2.93976E-05-1.39535E-06-2.08304E-19 3.48872E-20
 -1      3775 1.06297E-04-3.71322E-05-2.96697E-05-2.46393E-06-1.48972E-18-9.15853E-19
 -1      3776 1.08500E-04-3.84931E-05-3.00122E-05-1.94146E-06-1.41198E-18 2.04367E-20
 -1      3777 1.02895E-04-3.51767E-05-2.89854E-05 2.64458E-07 1.24822E-18 1.25186E-18
 -1      3778 1.03892E-04-3.59253E-05-2.91456E-05-4.43476E-07 8.76985E-19 5.34705E-19
 -1      3779 1.05522E-04-3.71673E-05-2.93248E-05 3.76046E-07 1.10245E-20 1.47533E-19
 -1      3780 1.00663E-04-3.34623E-05-2.87775E-05 1.16835E-06 3.01865E-18 1.99254E-18
 -1      3781 1.01625E-04-3.43109E-05-2.88590E-05 7.54097E-07 2.47514E-18 1.63021E-18
 -1      3782 1.02775E-04-3.53396E-05-2.89435E-05 1.64240E-06 1.76892E-18 1.40615E-18
 -1      3783 1.00461E-04-3.33962E-05-2.87612E-05 2.13773E-06 2.55438E-18 1.84653E-18
 -1      3784 9.64637E-05-2.85439E-05-2.91114E-05-6.21035E-07 1.49170E-19-2.23826E-19
 -1      3785 9.64781E-05-2.82892E-05-2.92193E-05-4.75498E-07 3.78009E-19-3.28935E-19
 -1      3786 9.45284E-05-2.22050E-05-3.09787E-05 1.46136E-08 3.62760E-19-1.17986E-18
 -1      3787 9.38095E-05-2.09363E-05-3.12401E-05-2.13423E-07 5.24579E-19-1.20783E-18
 -1      3788 9.38520E-05-2.10257E-05-3.12217E-05-7.70844E-07 3.42136E-19-1.16204E-18
 -1      3789 1.23775E-04-3.87761E-05-3.65401E-05 9.48205E-06-1.23696E-18-1.10623E-18
 -1      3790 1.18715E-04-3.26375E-05-3.69101E-05 1.15194E-05-1.36491E-19 2.99373E-19
 -1      3791 9.17834E-05-2.67934E-05-2.78947E-05 8.52506E-06 3.88421E-20-6.05441E-19
 -1      3792 9.38880E-05-2.83422E-05-2.80260E-05 8.64469E-06 1.06067E-18-3.51949E-18
 -1      3793 9.02351E-05-2.59707E-05-2.75780E-05 9.84029E-06-6.55279E-19-1.16877E-18
 -1      3794 9.43328E-05-2.20354E-05-3.09949E-05 2.58322E-06 9.41432E-19-8.25275E-19
 -1      3795 9.41183E-05-2.15624E-05-3.10979E-05 2.15313E-06 9.55102E-19-7.76274E-19
 -1      3796 9.47003E-05-2.26570E-05-3.08713E-05 1.58925E-06 7.67472E-19-6.33984E-19
 -1      3797 9.47413E-05-2.28766E-05-3.07903E-05 2.25134E-06 7.67347E-19-7.21184E-19
 -1      3798 1.00385E-04-3.32982E-05-2.87296E-05 3.22004E-06 2.47879E-18 7.52054E-19
 -1      3799 9.38690E-05-2.10559E-05-3.12118E-05-1.16868E-06 3.11492E-19-1.09504E-18
 -1      3800 9.39951E-05-2.13279E-05-3.11552E-05-1.69060E-06 1.88121E-19-1.25100E-18
 -1      3801 9.45699E-05-2.24269E-05-3.09160E-05-1.43173E-06 1.88523E-19-1.13062E-18
 -1      3802 9.45314E-05-2.22341E-05-3.09674E-05-7.55273E-07 2.05042E-19-1.03882E-18
 -1      3803 6.80276E-05-1.33503E-05-2.34122E-05 1.33276E-05-2.30133E-18 2.65256E-18
 -1      3804 7.37126E-05-1.51747E-05-2.50378E-05 1.02797E-05-1.14257E-18 2.88127E-18
 -1      3805 7.27373E-05-1.73636E-05-2.36167E-05 1.88402E-05-1.73357E-18 3.72268E-18
 -1      3806 1.19051E-04-5.01136E-05-2.93194E-05-1.79630E-05-1.37684E-18-6.39245E-19
 -1      3807 1.22625E-04-5.01595E-05-3.11760E-05-1.01922E-05-1.34322E-18-2.02894E-19
 -1      3808 8.06509E-05-1.75342E-05-2.70583E-05 3.44862E-06 2.26638E-18-1.05982E-19
 -1      3809 8.32282E-05-1.89518E-05-2.75601E-05 2.29650E-06 1.73602E-18-6.08424E-20
 -1      3810 8.38891E-05-1.95744E-05-2.75103E-05 3.71764E-06 1.73821E-18 4.77779E-19
 -1      3811 9.54158E-05-2.43350E-05-3.04593E-05-1.20653E-06 4.40890E-21-8.89855E-19
 -1      3812 1.00279E-04-3.34273E-05-2.86618E-05 4.83474E-06 1.57072E-18-1.40828E-18
 -1      3813 1.01736E-04-3.45276E-05-2.87781E-05 3.56458E-06 2.02804E-18-4.16918E-19
 -1      3814 9.17951E-05-3.32640E-05-2.49280E-05 2.68925E-05-9.50474E-19-4.18914E-18
 -1      3815 8.95728E-05-3.00052E-05-2.54993E-05 2.30131E-05-9.88444E-19-2.80687E-18
 -1      3816 9.80615E-05-3.73622E-05-2.60508E-05 2.50484E-05-9.36180E-19-4.59167E-18
 -1      3817 8.22193E-05-2.19212E-05-2.57916E-05-1.56365E-05-9.71279E-19-9.57183E-19
 -1      3818 7.75189E-05-1.85990E-05-2.51818E-05-1.46989E-05-1.31513E-18-7.76613E-19
 -1      3819 7.36852E-05-1.79608E-05-2.39684E-05-1.82946E-05-9.70912E-19-1.74943E-18
 -1      3820 9.61011E-05-2.69009E-05-2.96623E-05 3.49998E-07 6.97979E-19-6.32395E-21
 -1      3821 1.24291E-04-4.94364E-05-3.20272E-05-5.75952E-06-1.54304E-18-1.07324E-18
 -1      3822 1.23747E-04-4.69947E-05-3.28979E-05-9.29855E-07-8.76158E-19-2.36734E-18
 -1      3823 1.19342E-04-4.80179E-05-3.06500E-05-9.08946E-06-8.69534E-19-1.39304E-18
 -1      3824 1.22874E-04-4.15682E-05-3.49033E-05 6.33659E-06-1.00521E-18-1.24928E-18
 -1      3825 9.64436E-05-2.87450E-05-2.90102E-05-6.99280E-07 1.08546E-19-1.34009E-19
 -1      3826 9.66051E-05-2.86246E-05-2.91355E-05-5.52915E-07 5.21525E-20-4.11648E-20
 -1      3827 9.63985E-05-2.88931E-05-2.89321E-05-7.69234E-07 2.05287E-19 1.80186E-20
 -1      3828 9.50447E-05-2.33215E-05-3.07472E-05 1.98433E-07 3.34175E-19-1.07015E-18
 -1      3829 9.50433E-05-2.33151E-05-3.07476E-05-1.75743E-07 1.56291E-19-1.11384E-18
 -1      3830 7.77288E-05-1.79319E-05-2.55426E-05 1.20842E-05-1.62747E-18 6.12014E-18
 -1      3831 7.49128E-05-1.54496E-05-2.55181E-05 8.47201E-06-1.12319E-18 2.52451E-18
 -1      3832 7.72256E-05-1.63020E-05-2.60913E-05 6.95874E-06-5.94644E-20 1.30125E-18
 -1      3833 1.20670E-04-3.54908E-05-3.66092E-05-1.07733E-05 5.00279E-20-2.39571E-19
 -1      3834 1.20361E-04-3.87881E-05-3.50058E-05-8.23579E-06-3.41143E-19-4.15185E-19
 -1      3835 1.16938E-04-3.08697E-05-3.69142E-05-1.17523E-05 5.79807E-19 5.65262E-20
 -1      3836 9.63928E-05-2.91380E-05-2.88253E-05-7.08806E-07 3.05564E-19 4.16071E-20
 -1      3837 9.62804E-05-2.90739E-05-2.88029E-05-8.16052E-07 4.13433E-19 3.40031E-20
 -1      3838 9.63405E-05-2.89999E-05-2.88578E-05-7.96560E-07 2.86534E-19 5.35140E-20
 -1      3839 1.06287E-04-1.36482E-05-3.97631E-05 2.70836E-06 2.65766E-18 1.67899E-18
 -1      3840 1.07505E-04-1.23903E-05-4.09514E-05-1.11099E-06 1.86975E-18 3.10915E-18
 -1      3841 1.12088E-04-4.63300E-05-2.82057E-05-2.00781E-05-9.12241E-19-1.91916E-19
 -1      3842 9.94970E-05-3.28321E-05-2.85720E-05 5.85772E-06 7.28342E-19-9.23076E-19
 -1      3843 1.15298E-04-4.89817E-05-2.83656E-05 2.15198E-05-5.90713E-19-4.57375E-18
 -1      3844 1.07854E-04-4.44636E-05-2.72169E-05 2.36731E-05-7.96476E-19-3.23778E-18
 -1      3845 1.18197E-04-4.90342E-05-2.95754E-05 1.55510E-05-9.98023E-19-4.04872E-18
 -1      3846 1.25369E-04-4.83553E-05-3.31225E-05 1.58822E-06-9.81150E-19-7.31264E-19
 -1      3847 1.22922E-04-4.89929E-05-3.17056E-05 6.30644E-06-1.51503E-18-1.04744E-18
 -1      3848 1.22827E-04-4.46197E-05-3.34541E-05-2.69872E-06-1.35910E-18-1.04816E-18
 -1      3849 7.99606E-05-2.17423E-05-2.49114E-05 1.86768E-05-1.28705E-18 2.86322E-18
 -1      3850 9.53144E-05-3.00691E-05-2.80064E-05 9.61485E-06 7.12290E-19-3.84271E-18
 -1      3851 9.59249E-05-3.01011E-05-2.82275E-05 8.05486E-06 8.65878E-19-4.58598E-18
 -1      3852 9.75566E-05-3.12710E-05-2.83587E-05 7.47823E-06 5.20100E-19-1.68198E-18
 -1      3853 8.50918E-05-2.07882E-05-2.75627E-05 4.95240E-06 1.37603E-18 2.64998E-18
 -1      3854 8.61266E-05-2.16410E-05-2.75727E-05 6.02324E-06 4.53399E-19 3.13077E-18
 -1      3855 8.62614E-05-2.24881E-05-2.73364E-05 8.45142E-06-4.74299E-19 2.63837E-18
 -1      3856 8.30369E-05-1.97963E-05-2.71108E-05 6.65909E-06 2.51536E-18 2.21412E-18
 -1      3857 9.33142E-05-3.44905E-05-2.50208E-05-2.75463E-05-8.06567E-19 1.15155E-18
 -1      3858 9.89429E-05-3.82060E-05-2.61446E-05-2.51181E-05-1.10785E-18 1.04951E-18
 -1      3859 1.13596E-04-2.34014E-05-3.87560E-05 1.13681E-05 2.11576E-18 1.32621E-18
 -1      3860 1.13776E-04-1.82708E-05-4.11139E-05 1.08434E-05 2.05675E-18 1.94002E-18
 -1      3861 9.51521E-05-2.35992E-05-3.06821E-05 8.46747E-07 6.76668E-19-8.09223E-19
 -1      3862 9.50753E-05-2.33962E-05-3.07257E-05 4.80370E-07 5.10179E-19-8.55502E-19
 -1      3863 9.55779E-05-2.43621E-05-3.05065E-05 2.49999E-07 3.82435E-19-7.94473E-19
 -1      3864 7.87471E-05-1.66086E-05-2.66347E-05 4.56047E-06 2.03230E-18 4.18467E-19
 -1      3865 9.65837E-05-2.80400E-05-2.93756E-05-3.08053E-07 4.42664E-19-1.35125E-19
 -1      3866 9.64363E-05-2.79570E-05-2.93539E-05-3.24734E-07 6.05192E-19-4.49052E-19
 -1      3867 9.64032E-05-2.75579E-05-2.94981E-05-7.25197E-08 5.97035E-19-2.52652E-19
 -1      3868 9.53824E-05-2.43739E-05-3.04200E-05 1.65457E-06 7.94017E-19-6.82081E-19
 -1      3869 9.50617E-05-2.36497E-05-3.06092E-05 1.97505E-06 8.25481E-19-7.44212E-19
 -1      3870 9.50056E-05-2.34431E-05-3.06671E-05 1.69821E-06 7.53370E-19-5.43946E-19
 -1      3871 1.09937E-04-1.57120E-05-4.04952E-05 8.33091E-06 2.14591E-18 1.33942E-18
 -1      3872 1.13500E-04-3.05439E-05-3.55933E-05 1.09421E-05 1.27280E-19 1.37756E-18
 -1      3873 1.12695E-04-2.62711E-05-3.70796E-05 1.20536E-05 1.44276E-18 1.43743E-18
 -1      3874 8.54193E-05-2.86239E-05-2.43465E-05-2.61491E-05-8.06197E-19-2.12129E-19
 -1      3875 9.56974E-05-2.53276E-05-3.01692E-05 1.11581E-06 7.15852E-19-5.02981E-19
 -1      3876 9.60563E-05-2.61271E-05-2.99523E-05 6.94693E-07 6.15544E-19-4.04583E-19
 -1      3877 9.57402E-05-2.51780E-05-3.02563E-05 9.82676E-07 6.20554E-19-5.11775E-19
 -1      3878 1.10809E-04-1.70975E-05-4.03080E-05-9.28670E-06 2.65505E-19 4.32789E-18
 -1      3879 1.14204E-04-1.98518E-05-4.06262E-05-1.14119E-05 1.21933E-18 2.18775E-18
 -1      3880 9.57538E-05-2.89937E-05-2.86101E-05-4.54235E-07 1.43757E-19 9.04537E-19
 -1      3881 9.58315E-05-2.90512E-05-2.86201E-05-4.72108E-07 3.10922E-19 6.86098E-19
 -1      3882 9.65959E-05-2.73922E-05-2.96572E-05 3.13463E-09 8.16334E-20-6.95160E-19
 -1      3883 9.66893E-05-2.78612E-05-2.95013E-05 1.98249E-07 3.38561E-20-4.56521E-19
 -1      3884 9.67601E-05-2.82507E-05-2.93590E-05 2.91057E-07-1.55862E-19-3.94553E-19
 -1      3885 9.67691E-05-2.85495E-05-2.92392E-05 4.08004E-07-1.99452E-19-2.99133E-19
 -1      3886 9.67894E-05-2.79852E-05-2.94866E-05 1.74008E-07-6.67366E-20-7.20553E-19
 -1      3887 9.67607E-05-2.87865E-05-2.91296E-05 4.56919E-07-2.22090E-19-3.86614E-19
 -1      3888 9.67181E-05-2.89610E-05-2.90398E-05 5.16961E-07-2.52737E-19-3.05762E-19
 -1      3889 9.68490E-05-2.86418E-05-2.92320E-05 3.27048E-07-3.93433E-19-6.50267E-19
 -1      3890 9.66597E-05-2.90882E-05-2.89574E-05 5.34473E-07-3.72918E-19-5.36690E-19
 -1      3891 9.65886E-05-2.91746E-05-2.88917E-05 5.56349E-07-4.82141E-19-5.16373E-19
 -1      3892 9.67802E-05-2.90278E-05-2.90379E-05 4.05195E-07-4.34449E-19-4.65190E-19
 -1      3893 9.65020E-05-2.92255E-05-2.88314E-05 5.53189E-07-4.49708E-19-4.62943E-19
 -1      3894 9.64170E-05-2.92509E-05-2.87849E-05 5.51166E-07-2.93776E-19-5.16809E-19
 -1      3895 9.66351E-05-2.92214E-05-2.88932E-05 4.32109E-07-3.70980E-19-4.65742E-19
 -1      3896 9.63169E-05-2.92498E-05-2.87421E-05 5.36226E-07-3.12636E-19-3.38854E-19
 -1      3897 9.62271E-05-2.92338E-05-2.87105E-05 5.21034E-07-5.46188E-19-3.15693E-19
 -1      3898 9.64492E-05-2.92806E-05-2.87883E-05 4.26331E-07-3.29966E-19-1.43229E-19
 -1      3899 9.61223E-05-2.91977E-05-2.86814E-05 5.00682E-07-4.67844E-19 1.21381E-19
 -1      3900 9.60323E-05-2.91536E-05-2.86613E-05 4.79995E-07-1.02870E-19 2.63582E-19
 -1      3901 9.62457E-05-2.92481E-05-2.87149E-05 4.02229E-07-2.07129E-19 2.11202E-19
 -1      3902 9.59274E-05-2.90940E-05-2.86426E-05 4.58391E-07-1.16460E-19 1.80671E-19
 -1      3903 9.58385E-05-2.90304E-05-2.86311E-05 4.37300E-07-4.85099E-20 8.31394E-20
 -1      3904 9.60378E-05-2.91541E-05-2.86659E-05 3.69766E-07 3.37980E-21 2.11731E-19
 -1      3905 9.57345E-05-2.89539E-05-2.86203E-05 4.16640E-07-2.11963E-19 6.03627E-20
 -1      3906 9.56454E-05-2.88751E-05-2.86151E-05 3.98010E-07-3.07251E-19-1.45586E-19
 -1      3907 9.58309E-05-2.90177E-05-2.86353E-05 3.34917E-07-3.24173E-19-9.94019E-20
 -1      3908 9.55405E-05-2.87847E-05-2.86099E-05 3.78586E-07-2.18851E-19-3.45219E-19
 -1      3909 9.54473E-05-2.86919E-05-2.86092E-05 3.63171E-07-2.55899E-19-6.96755E-20
 -1      3910 9.56244E-05-2.88500E-05-2.86182E-05 2.99849E-07-2.91763E-19-2.98084E-19
 -1      3911 9.53375E-05-2.85874E-05-2.86076E-05 3.43141E-07-1.88606E-19 4.06454E-20
 -1      3912 9.52336E-05-2.84786E-05-2.86098E-05 3.29341E-07-2.00097E-19-4.71597E-20
 -1      3913 9.54126E-05-2.86550E-05-2.86103E-05 2.62646E-07-1.24525E-19-3.23359E-19
 -1      3914 9.51127E-05-2.83573E-05-2.86100E-05 3.04126E-07 1.75057E-21 1.71418E-19
 -1      3915 9.49883E-05-2.82277E-05-2.86132E-05 2.87264E-07 4.77779E-20 2.83497E-19
 -1      3916 9.51853E-05-2.84316E-05-2.86079E-05 2.16360E-07 5.35747E-20 1.60222E-19
 -1      3917 9.48477E-05-2.80847E-05-2.86132E-05 2.48336E-07 1.61281E-20 5.85270E-19
 -1      3918 9.46892E-05-2.79272E-05-2.86155E-05 2.19506E-07-1.01396E-19 7.61192E-19
 -1      3919 9.49282E-05-2.81743E-05-2.86071E-05 1.47221E-07 1.64634E-19 8.22687E-19
 -1      3920 9.45091E-05-2.77462E-05-2.86127E-05 1.48890E-07-2.05352E-19 8.02053E-19
 -1      3921 9.42854E-05-2.75399E-05-2.86107E-05 8.69219E-08 1.31803E-19 7.13800E-19
 -1      3922 9.46137E-05-2.78660E-05-2.86031E-05 2.72545E-08-6.82792E-20 5.00044E-19
 -1      3923 9.40692E-05-2.73301E-05-2.86018E-05-3.37432E-08 2.09637E-19 6.53039E-19
 -1      3924 9.37756E-05-2.70834E-05-2.85913E-05-1.49627E-07 5.16393E-19 4.73837E-19
 -1      3925 9.42249E-05-2.75049E-05-2.85899E-05-1.83115E-07 3.40143E-20 7.98837E-20
 -1      3926 9.35042E-05-2.68320E-05-2.85714E-05-3.57577E-07 7.11892E-19 6.99675E-20
 -1      3927 9.31000E-05-2.65267E-05-2.85453E-05-5.73301E-07 8.15900E-19 4.11948E-19
 -1      3928 9.37479E-05-2.70948E-05-2.85597E-05-5.38402E-07 3.37216E-19-3.25531E-20
 -1      3929 9.27642E-05-2.62345E-05-2.85072E-05-9.21774E-07 9.10477E-19-1.51117E-19
 -1      3930 9.22128E-05-2.58675E-05-2.84545E-05-1.30460E-06 6.70280E-19-2.85159E-20
 -1      3931 9.31534E-05-2.66344E-05-2.85007E-05-1.13340E-06 6.09991E-19-4.19756E-19
 -1      3932 9.18153E-05-2.55513E-05-2.83877E-05-1.86977E-06 1.21494E-19-6.78377E-20
 -1      3933 9.10801E-05-2.51368E-05-2.82913E-05-2.52029E-06-1.77671E-19-1.15790E-19
 -1      3934 9.24344E-05-2.61570E-05-2.83962E-05-2.09973E-06 2.67974E-19-5.90606E-19
 -1      3935 9.06502E-05-2.48450E-05-2.81819E-05-3.40802E-06-3.08105E-19-3.50573E-20
 -1      3936 8.97076E-05-2.44308E-05-2.80164E-05-4.47037E-06-2.77067E-19 1.86910E-19
 -1      3937 9.16213E-05-2.57484E-05-2.82236E-05-3.61951E-06-1.67785E-19-7.24318E-19
 -1      3938 8.93213E-05-2.42665E-05-2.78461E-05-5.81051E-06-3.48844E-19 2.50038E-19
 -1      3939 8.81928E-05-2.39735E-05-2.75740E-05-7.47379E-06-4.74604E-19-1.19148E-19
 -1      3940 9.08123E-05-2.55775E-05-2.79548E-05-5.93432E-06-5.34149E-19-3.10054E-19
 -1      3941 8.80277E-05-2.41457E-05-2.73225E-05-9.42357E-06-7.11970E-19 1.42391E-19
 -1      3942 8.68408E-05-2.42169E-05-2.68973E-05-1.19080E-05-7.44292E-19-2.79526E-19
 -1      3943 9.02586E-05-2.59920E-05-2.75594E-05-9.29919E-06-4.64826E-19-4.07513E-19
 -1      3944 9.63026E-05-2.92392E-05-2.87407E-05-5.71365E-07 6.83782E-20 3.36048E-20
 -1      3945 9.63882E-05-2.92320E-05-2.87801E-05-5.81795E-07 7.76295E-20-1.12210E-19
 -1      3946 9.62018E-05-2.67827E-05-2.97566E-05 2.92065E-07 4.77307E-19-2.75383E-19
 -1      3947 9.55903E-05-2.88652E-05-2.85950E-05-4.33982E-07-2.18040E-19 1.54869E-18
 -1      3948 9.56609E-05-2.89272E-05-2.86004E-05-4.43576E-07 2.93344E-20 1.30637E-18
 -1      3949 9.57488E-05-2.89812E-05-2.86159E-05-3.68724E-07-1.57340E-19 8.06145E-19
 -1      3950 1.13340E-04-2.37596E-05-3.84738E-05-1.14259E-05 2.19236E-19 2.01434E-18
 -1      3951 8.88143E-05-2.54487E-05-2.72174E-05 1.17636E-05-7.51807E-19-2.17704E-19
 -1      3952 9.19558E-05-2.77512E-05-2.74134E-05 1.21623E-05 1.21661E-19-2.67872E-18
 -1      3953 9.54424E-05-2.87361E-05-2.85868E-05-4.37089E-07-6.85457E-19 1.53604E-18
 -1      3954 9.55041E-05-2.87967E-05-2.85894E-05-4.34585E-07-3.75349E-19 1.45731E-18
 -1      3955 9.55709E-05-2.88400E-05-2.85999E-05-3.63819E-07-2.25326E-19 1.43979E-18
 -1      3956 9.53142E-05-2.86185E-05-2.85820E-05-4.71548E-07-5.21825E-19 1.22403E-18
 -1      3957 9.53642E-05-2.86713E-05-2.85834E-05-4.53255E-07-4.41168E-19 1.47260E-18
 -1      3958 9.54072E-05-2.86982E-05-2.85904E-05-3.84378E-07-3.80064E-19 1.16422E-18
 -1      3959 9.52140E-05-2.85275E-05-2.85775E-05-5.46432E-07-4.23628E-19 6.93309E-19
 -1      3960 9.52467E-05-2.85642E-05-2.85791E-05-5.08453E-07-5.14310E-19 1.08509E-18
 -1      3961 9.52614E-05-2.85678E-05-2.85837E-05-4.40477E-07-4.57226E-19 8.23130E-19
 -1      3962 9.51574E-05-2.84846E-05-2.85708E-05-6.72350E-07-4.21276E-19-2.87436E-19
 -1      3963 9.51630E-05-2.84932E-05-2.85738E-05-6.10540E-07-4.10454E-19 1.72600E-19
 -1      3964 9.51415E-05-2.84649E-05-2.85769E-05-5.44790E-07-6.08278E-20 2.94273E-19
 -1      3965 9.51709E-05-2.85207E-05-2.85600E-05-8.61237E-07-5.88407E-19-4.88610E-19
 -1      3966 9.51336E-05-2.84839E-05-2.85650E-05-7.71532E-07-6.15300E-19-5.42823E-19
 -1      3967 9.50637E-05-2.84119E-05-2.85669E-05-7.13301E-07-2.62452E-19-5.40785E-19
 -1      3968 9.52975E-05-2.86806E-05-2.85442E-05-1.12453E-06-3.92234E-19 2.21728E-20
 -1      3969 9.51931E-05-2.85740E-05-2.85513E-05-1.00428E-06-6.01859E-19-4.23108E-19
 -1      3970 9.50563E-05-2.84432E-05-2.85518E-05-9.65377E-07-8.59367E-19-1.57704E-18
 -1      3971 9.56018E-05-2.90259E-05-2.85248E-05-1.46868E-06 2.07126E-19-1.13897E-19
 -1      3972 9.53955E-05-2.88166E-05-2.85328E-05-1.31931E-06 1.92638E-19-1.42469E-19
 -1      3973 9.51665E-05-2.86088E-05-2.85306E-05-1.32186E-06-2.22265E-19-9.07530E-19
 -1      3974 9.61753E-05-2.96360E-05-2.85074E-05-1.88606E-06-2.56211E-19 2.35606E-19
 -1      3975 9.58207E-05-2.92830E-05-2.85125E-05-1.71808E-06 4.04777E-20 8.88162E-20
 -1      3976 9.54679E-05-2.89798E-05-2.85047E-05-1.79975E-06 1.83797E-19-6.32931E-19
 -1      3977 9.71377E-05-3.06028E-05-2.85046E-05-2.33912E-06-1.31309E-18 6.45400E-19
 -1      3978 9.65790E-05-3.00618E-05-2.84992E-05-2.18007E-06-9.67990E-19 1.31250E-19
 -1      3979 9.60678E-05-2.96503E-05-2.84804E-05-2.40076E-06-5.95367E-19-4.27652E-20
 -1      3980 9.86303E-05-3.20140E-05-2.85407E-05-2.73657E-06-3.93945E-19 3.41737E-19
 -1      3981 9.78096E-05-3.12481E-05-2.85108E-05-2.64212E-06-6.70320E-19 5.28511E-19
 -1      3982 9.71131E-05-3.07334E-05-2.84723E-05-3.09064E-06-9.51882E-19-9.57269E-19
 -1      3983 1.00786E-04-3.39075E-05-2.86588E-05-2.90030E-06-1.39370E-19 8.90679E-19
 -1      3984 9.96666E-05-3.29166E-05-2.85810E-05-2.96568E-06-8.84839E-20 4.85170E-19
 -1      3985 9.87860E-05-3.23426E-05-2.85096E-05-3.76471E-06-4.02677E-19-1.27217E-18
 -1      3986 1.03674E-04-3.61903E-05-2.89288E-05-2.53808E-06-3.40334E-19 7.27890E-19
 -1      3987 1.02273E-04-3.50583E-05-2.87673E-05-2.90426E-06-1.60330E-19 1.16345E-18
 -1      3988 1.01278E-04-3.45417E-05-2.86460E-05-4.20054E-06-4.38798E-19 1.35466E-19
 -1      3989 1.07163E-04-3.85101E-05-2.94509E-05-1.27717E-06-4.93402E-19 7.68509E-20
 -1      3990 1.05618E-04-3.74656E-05-2.91577E-05-2.09820E-06-5.85729E-19 3.57534E-19
 -1      3991 1.04692E-04-3.72202E-05-2.89713E-05-4.00141E-06-2.63503E-19 6.89510E-19
 -1      3992 1.10779E-04-4.00562E-05-3.03567E-05 1.26744E-06-1.86269E-18 2.67773E-19
 -1      3993 1.09425E-04-3.95734E-05-2.98748E-05-8.50732E-08-1.12145E-18-1.09668E-19
 -1      3994 1.08973E-04-4.00178E-05-2.96189E-05-2.66781E-06-9.00821E-19-1.14843E-18
 -1      3995 1.13581E-04-3.95503E-05-3.17342E-05 5.08805E-06-5.81311E-19 8.52466E-19
 -1      3996 1.12930E-04-4.03782E-05-3.10633E-05 3.35702E-06-1.46170E-18 5.44649E-19
 -1      3997 1.13422E-04-4.18051E-05-3.07654E-05 3.16716E-07-1.69555E-18-1.73216E-18
 -1      3998 1.14773E-04-3.43194E-05-3.45206E-05 1.03304E-05-5.47594E-19 7.26155E-19
 -1      3999 1.06635E-04-1.82606E-05-3.78555E-05 8.19033E-06 2.14925E-18 1.06533E-18
 -1      4000 1.08251E-04-2.17382E-05-3.71648E-05 1.02821E-05 1.95232E-18 1.69986E-18
 -1      4001 1.09358E-04-2.34104E-05-3.69268E-05-1.07520E-05-7.36257E-20 1.69124E-18
 -1      4002 1.07519E-04-1.93952E-05-3.77257E-05-9.03592E-06-2.85979E-19 2.19508E-18
 -1      4003 1.14444E-04-3.41484E-05-3.44743E-05-1.04152E-05-7.43007E-19 9.52766E-19
 -1      4004 1.13069E-04-3.02885E-05-3.55039E-05-1.10025E-05 2.29758E-19 1.77888E-18
 -1      4005 1.12659E-04-4.05505E-05-3.08672E-05-2.54484E-06-8.48663E-19 9.65732E-19
 -1      4006 1.13503E-04-3.99692E-05-3.15512E-05-4.36486E-06-4.13356E-19 8.42583E-19
 -1      4007 1.09104E-04-3.94972E-05-2.97743E-05 7.21973E-07-2.80064E-19-6.27598E-19
 -1      4008 1.10509E-04-4.00988E-05-3.02164E-05-6.13656E-07-3.13210E-19 8.11609E-19
 -1      4009 1.13074E-04-4.17786E-05-3.05796E-05 3.92219E-07-4.14498E-19 4.25863E-19
 -1      4010 1.05401E-04-3.72807E-05-2.91356E-05 2.59531E-06 7.02257E-19-6.75576E-19
 -1      4011 1.06890E-04-3.83616E-05-2.93968E-05 1.77448E-06-2.59440E-19-1.04386E-18
 -1      4012 1.08591E-04-3.97603E-05-2.95414E-05 3.16961E-06 1.59754E-19-4.49581E-20
 -1      4013 1.03015E-04-3.56031E-05-2.88932E-05 3.29568E-06 1.33041E-18-4.50755E-19
 -1      4014 8.01822E-05-1.83030E-05-2.65359E-05 7.81129E-06 4.70692E-19 2.85991E-18
 -1      4015 9.61930E-05-2.61155E-05-3.00381E-05-4.52332E-07-9.95964E-20-6.60717E-19
 -1      4016 9.64053E-05-2.67983E-05-2.98377E-05-1.46011E-07 1.32117E-20-5.96729E-19
 -1      4017 9.65298E-05-2.69633E-05-2.98122E-05-7.76301E-08 8.39966E-20-7.82901E-19
 -1      4018 1.06425E-04-4.21197E-05-2.73394E-05-2.15522E-05-1.04879E-18-1.10961E-18
 -1      4019 1.12285E-04-4.51147E-05-2.89003E-05-1.52727E-05-5.78098E-19-1.46418E-18
 -1      4020 1.08277E-04-1.38487E-05-4.06009E-05-4.90668E-06 8.27882E-19 3.65802E-18
 -1      4021 8.77889E-05-2.67203E-05-2.60248E-05 1.83824E-05-5.73148E-19-1.07176E-18
 -1      4022 8.37475E-05-2.29836E-05-2.60829E-05 1.48272E-05-4.01623E-19 1.55571E-18
 -1      4023 1.03927E-04-3.65332E-05-2.89199E-05 4.72132E-06 5.38464E-19-8.47594E-19
 -1      4024 9.97788E-05-3.34308E-05-2.84713E-05 7.18361E-06 1.31417E-18-1.77888E-18
 -1      4025 1.11965E-04-2.63962E-05-3.67536E-05-1.17104E-05 6.74417E-19 1.35749E-18
 -1      4026 1.20883E-04-4.43939E-05-3.28484E-05 2.33827E-06-8.56225E-19-1.86846E-18
 -1      4027 1.17786E-04-4.02425E-05-3.32110E-05 6.03867E-06-5.28285E-19-1.37386E-18
 -1      4028 1.01214E-04-3.80705E-05-2.70375E-05-2.05567E-05-1.15967E-18-6.60821E-19
 -1      4029 7.85042E-05-2.23642E-05-2.39120E-05-2.32167E-05-1.19810E-18-1.06099E-18
 -1      4030 8.72998E-05-2.77727E-05-2.54223E-05-2.17193E-05-1.08161E-18-2.26919E-19
 -1      4031 9.55376E-05-2.42690E-05-3.05296E-05-2.05945E-07 6.32344E-20-1.09198E-18
 -1      4032 9.50220E-05-2.32877E-05-3.07508E-05-4.32975E-07 1.25584E-19-1.26501E-18
 -1      4033 9.50153E-05-2.32823E-05-3.07418E-05-7.56416E-07 2.34921E-19-1.11627E-18
 -1      4034 1.15315E-04-3.73368E-05-3.34484E-05 8.50054E-06-3.16813E-19 4.09888E-19
 -1      4035 1.07575E-04-4.24301E-05-2.79205E-05 1.88507E-05-1.20214E-18-3.64348E-18
 -1      4036 1.03220E-04-4.03221E-05-2.68368E-05 2.28525E-05-1.21332E-18-3.78830E-18
 -1      4037 9.89955E-05-3.63216E-05-2.68220E-05 2.06609E-05-5.31389E-19-3.51834E-18
 -1      4038 8.69246E-05-2.47908E-05-2.65385E-05-1.44413E-05-5.62882E-19-3.78529E-19
 -1      4039 8.54484E-05-2.51654E-05-2.58749E-05-1.77333E-05-8.53013E-19-4.04921E-20
 -1      4040 9.01725E-05-2.72782E-05-2.70023E-05-1.38031E-05-4.93667E-19-1.28643E-19
 -1      4041 1.13878E-04-3.64029E-05-3.32407E-05-8.48728E-06-1.49908E-18 3.52293E-19
 -1      4042 1.17313E-04-3.74577E-05-3.41994E-05-8.69088E-06-9.94508E-19 6.55756E-20
 -1      4043 1.19568E-04-4.10334E-05-3.37188E-05-6.43599E-06-1.00784E-18-7.24523E-19
 -1      4044 1.14090E-04-3.86233E-05-3.23600E-05-6.85445E-06-8.64844E-19 2.23785E-19
 -1      4045 9.40121E-05-3.01946E-05-2.73919E-05 1.36769E-05 1.69031E-18-4.26447E-18
 -1      4046 9.50651E-05-3.02848E-05-2.77820E-05 1.14691E-05 1.43576E-18-3.95107E-18
 -1      4047 9.77316E-05-3.21450E-05-2.80269E-05 1.07764E-05 1.29460E-18-3.72693E-18
 -1      4048 9.59386E-05-2.91098E-05-2.86424E-05-3.90486E-07-1.84219E-20 2.81467E-19
 -1      4049 9.59298E-05-2.91095E-05-2.86360E-05-4.90046E-07 2.90751E-19 2.88466E-19
 -1      4050 9.60132E-05-2.91556E-05-2.86529E-05-5.11753E-07 3.93752E-19 1.51585E-19
 -1      4051 1.19596E-04-4.32120E-05-3.27705E-05-3.07972E-06-1.54578E-18-3.71217E-19
 -1      4052 9.65311E-05-2.92484E-05-2.88372E-05-4.67103E-07 1.06440E-19-4.14197E-19
 -1      4053 9.64810E-05-2.92055E-05-2.88321E-05-5.91685E-07 1.16239E-19-6.76564E-20
 -1      4054 9.65583E-05-2.91482E-05-2.88884E-05-5.82410E-07 1.45943E-19-2.03089E-19
 -1      4055 9.62016E-05-2.92236E-05-2.87041E-05-5.52574E-07 2.89308E-19-4.97411E-21
 -1      4056 9.63384E-05-2.92667E-05-2.87468E-05-4.50157E-07 1.93486E-19-4.18140E-19
 -1      4057 9.61150E-05-2.91979E-05-2.86776E-05-5.32706E-07 4.43357E-19-1.07334E-19
 -1      4058 9.63432E-05-2.68827E-05-2.97674E-05 2.00058E-07 4.65104E-19-4.32598E-19
 -1      4059 1.16131E-04-4.61340E-05-2.98368E-05-1.02165E-05-5.36844E-19-9.28696E-19
 -1      4060 1.17082E-04-4.58975E-05-3.06071E-05-6.29463E-06-8.03043E-19-2.01151E-18
 -1      4061 9.65274E-05-2.89668E-05-2.89561E-05-6.72893E-07 2.03399E-19-6.40750E-21
 -1      4062 1.18262E-04-4.45745E-05-3.15089E-05-9.06667E-07-8.71491E-19-2.23830E-18
 -1      4063 8.27689E-05-2.10573E-05-2.63886E-05 1.16312E-05-1.03606E-18 3.78436E-18
 -1      4064 1.07366E-04-1.55868E-05-3.94663E-05 6.50476E-06 2.01358E-18 8.00840E-19
 -1      4065 1.07633E-04-1.66238E-05-3.91901E-05-7.63475E-06 3.92553E-19 3.44106E-18
 -1      4066 1.16069E-04-4.10099E-05-3.21270E-05-4.25740E-06-1.10154E-18 1.11363E-20
 -1      4067 1.00425E-04-3.42750E-05-2.83711E-05 9.09313E-06 1.07343E-18-2.09130E-18
 -1      4068 1.02746E-04-3.57588E-05-2.86472E-05 7.10919E-06 7.75899E-19-2.33841E-19
 -1      4069 1.05158E-04-3.78303E-05-2.88887E-05 6.69971E-06 9.58132E-19 1.72946E-19
 -1      4070 1.00806E-04-3.50039E-05-2.82041E-05 1.10218E-05 1.83854E-18-2.44621E-18
 -1      4071 9.57949E-05-2.50758E-05-3.03096E-05-5.52374E-07-5.75201E-22-9.17955E-19
 -1      4072 9.59398E-05-2.53157E-05-3.02625E-05-3.62996E-07 3.14691E-20-9.82414E-19
 -1      4073 9.67217E-05-2.87444E-05-2.91350E-05-4.94651E-07 5.84885E-20-7.53552E-20
 -1      4074 9.67406E-05-2.85072E-05-2.92403E-05-4.01340E-07 3.10454E-20-1.52670E-19
 -1      4075 9.50915E-05-2.34479E-05-3.07049E-05-1.07235E-06 2.38058E-19-1.12398E-18
 -1      4076 1.20413E-04-4.91645E-05-3.05498E-05 1.05453E-05-6.26037E-19-2.32235E-18
 -1      4077 1.15441E-04-4.69930E-05-2.93444E-05 1.42337E-05-8.97954E-19-3.27274E-18
 -1      4078 1.20090E-04-4.71988E-05-3.12769E-05 5.33277E-06-1.08239E-18-8.73145E-19
 -1      4079 9.54615E-05-2.43992E-05-3.04551E-05 9.29057E-07 6.49542E-19-7.19851E-19
 -1      4080 9.58811E-05-2.52412E-05-3.02636E-05 5.62158E-07 5.66210E-19-6.61301E-19
 -1      4081 8.18253E-05-1.96466E-05-2.66645E-05 8.97971E-06-8.60676E-19 5.30794E-18
 -1      4082 9.19593E-05-3.07535E-05-2.62842E-05-2.00402E-05-6.71833E-19 4.71394E-19
 -1      4083 1.10685E-04-4.32038E-05-2.89622E-05-1.24238E-05-4.84648E-19-1.33196E-18
 -1      4084 9.68075E-05-2.82983E-05-2.93606E-05-2.70584E-07 9.47149E-20-1.86789E-19
 -1      4085 9.67088E-05-2.81939E-05-2.93673E-05-3.21004E-07 1.38380E-19-1.62626E-19
 -1      4086 9.66640E-05-2.78111E-05-2.95063E-05-1.52035E-07 3.91296E-19-2.94035E-19
 -1      4087 9.59290E-05-2.52658E-05-3.02956E-05 2.81925E-07 4.45635E-19-6.32740E-19
 -1      4088 9.59176E-05-2.51868E-05-3.03184E-05 8.08413E-08 2.44606E-19-7.69356E-19
 -1      4089 9.62391E-05-2.58963E-05-3.01378E-05 1.09277E-08 2.12552E-19-7.21788E-19
 -1      4090 9.58895E-05-2.51209E-05-3.03366E-05-4.30898E-08 1.95909E-19-9.10461E-19
 -1      4091 9.58653E-05-2.50907E-05-3.03403E-05-2.35659E-07 6.34476E-20-1.23401E-18
 -1      4092 9.74311E-05-3.43308E-05-2.69372E-05-1.86233E-05-6.00116E-19-7.26523E-19
 -1      4093 1.02867E-04-3.81677E-05-2.78767E-05-1.57004E-05-7.48441E-19-2.46919E-18
 -1      4094 9.53758E-05-3.16869E-05-2.72128E-05-1.54986E-05-1.93600E-19-9.57721E-19
 -1      4095 9.36265E-05-2.90704E-05-2.75952E-05-1.11770E-05-2.75419E-19-1.38673E-18
 -1      4096 9.37723E-05-2.99473E-05-2.73169E-05-1.35716E-05-2.84892E-19-8.75417E-19
 -1      4097 9.78894E-05-3.33452E-05-2.77895E-05-1.25521E-05-4.60359E-20-2.58928E-18
 -1      4098 9.18130E-05-2.99875E-05-2.65635E-05 1.82249E-05 4.51849E-19-2.97764E-18
 -1      4099 9.69193E-05-2.85186E-05-2.93138E-05 1.93737E-07-2.06180E-19-7.16898E-19
 -1      4100 9.69096E-05-2.87756E-05-2.92013E-05 2.55532E-07-3.39138E-19-7.09542E-19
 -1      4101 9.68790E-05-2.89732E-05-2.91010E-05 2.64267E-07-2.61470E-19-4.03573E-19
 -1      4102 9.68202E-05-2.91153E-05-2.90165E-05 2.96857E-07-1.96936E-19-3.61544E-19
 -1      4103 9.69320E-05-2.88592E-05-2.91753E-05 1.45049E-07 4.32591E-20-7.20974E-19
 -1      4104 9.67455E-05-2.92130E-05-2.89412E-05 2.94401E-07-3.72331E-19-1.40711E-19
 -1      4105 9.66587E-05-2.92733E-05-2.88790E-05 3.06404E-07-3.19103E-19-2.65219E-20
 -1      4106 9.68232E-05-2.91652E-05-2.89985E-05 1.66730E-07-1.53748E-19-1.11554E-19
 -1      4107 9.65600E-05-2.93017E-05-2.88238E-05 2.97602E-07-2.88494E-19 1.44653E-19
 -1      4108 9.64597E-05-2.93059E-05-2.87794E-05 2.96701E-07-3.00563E-19 2.58690E-19
 -1      4109 9.66484E-05-2.92984E-05-2.88670E-05 1.71590E-07-1.88550E-19-4.42215E-20
 -1      4110 9.63502E-05-2.92874E-05-2.87402E-05 2.84637E-07-2.49955E-19 2.17469E-19
 -1      4111 9.62453E-05-2.92538E-05-2.87097E-05 2.76467E-07 1.54772E-20 5.04549E-19
 -1      4112 9.64402E-05-2.93123E-05-2.87719E-05 1.65775E-07-2.57373E-19 3.92573E-19
 -1      4113 9.61329E-05-2.92041E-05-2.86830E-05 2.62992E-07-7.40446E-20 3.07846E-19
 -1      4114 9.60278E-05-2.91451E-05-2.86632E-05 2.51259E-07-1.84602E-19 5.29538E-20
 -1      4115 9.62192E-05-2.92461E-05-2.87053E-05 1.53407E-07-8.73856E-20 6.27763E-19
 -1      4116 9.59162E-05-2.90745E-05-2.86459E-05 2.36990E-07-3.04701E-19-9.00423E-20
 -1      4117 9.58120E-05-2.89980E-05-2.86340E-05 2.23578E-07-3.40819E-19-5.79343E-20
 -1      4118 9.59966E-05-2.91266E-05-2.86607E-05 1.36476E-07-2.16981E-19-9.01779E-20
 -1      4119 9.57019E-05-2.89127E-05-2.86235E-05 2.07779E-07-4.53555E-19-7.72477E-20
 -1      4120 9.55968E-05-2.88228E-05-2.86173E-05 1.92685E-07-3.56820E-19-1.68254E-19
 -1      4121 9.57767E-05-2.89715E-05-2.86324E-05 1.14577E-07-5.47765E-19 2.22994E-20
 -1      4122 9.54868E-05-2.87258E-05-2.86115E-05 1.72952E-07-7.73876E-20-2.21462E-19
 -1      4123 9.53767E-05-2.86238E-05-2.86089E-05 1.53962E-07-7.74331E-20-2.25692E-20
 -1      4124 9.55585E-05-2.87910E-05-2.86156E-05 8.43704E-08-3.29018E-19 1.39813E-20
 -1      4125 9.52637E-05-2.85159E-05-2.86057E-05 1.25622E-07 1.28612E-19-2.12045E-19
 -1      4126 9.51423E-05-2.84010E-05-2.86048E-05 9.76120E-08 4.32941E-19 1.90950E-19
 -1      4127 9.53375E-05-2.85907E-05-2.86060E-05 3.85905E-08 1.27172E-19 1.49824E-19
 -1      4128 9.50223E-05-2.82815E-05-2.86024E-05 5.27256E-08 2.06358E-19 1.38875E-19
 -1      4129 9.48812E-05-2.81519E-05-2.86012E-05 6.83148E-09 2.02096E-19 1.18664E-19
 -1      4130 9.51064E-05-2.83727E-05-2.85998E-05-3.56221E-08 5.12899E-19 1.22537E-19
 -1      4131 9.47434E-05-2.80131E-05-2.85971E-05-7.15487E-08-1.86210E-19 1.89169E-19
 -1      4132 9.45628E-05-2.78577E-05-2.85927E-05-1.56959E-07-3.01484E-19-2.67358E-20
 -1      4133 9.48503E-05-2.81327E-05-2.85925E-05-1.63211E-07 2.50563E-21-1.98270E-19
 -1      4134 9.44172E-05-2.77130E-05-2.85846E-05-2.82539E-07 1.83441E-19-2.09211E-19
 -1      4135 9.42013E-05-2.75454E-05-2.85741E-05-4.23245E-07 3.44142E-19-2.13393E-19
 -1      4136 9.45679E-05-2.78808E-05-2.85794E-05-3.76294E-07 3.99393E-20-2.75947E-20
 -1      4137 9.40430E-05-2.73936E-05-2.85588E-05-6.26804E-07 2.52816E-19 1.79152E-19
 -1      4138 9.37720E-05-2.72100E-05-2.85374E-05-8.63350E-07 2.83694E-19 1.81955E-19
 -1      4139 9.42636E-05-2.76338E-05-2.85553E-05-7.16965E-07 5.97928E-19-1.07978E-19
 -1      4140 9.36099E-05-2.70638E-05-2.85107E-05-1.18549E-06 4.58152E-20-1.00545E-19
 -1      4141 9.32758E-05-2.68768E-05-2.84718E-05-1.57171E-06 2.43193E-19-3.64994E-19
 -1      4142 9.39396E-05-2.74118E-05-2.85132E-05-1.25741E-06 5.00656E-20 1.16112E-20
 -1      4143 9.31343E-05-2.67656E-05-2.84287E-05-2.06659E-06 2.01506E-19-8.53165E-19
 -1      4144 9.27410E-05-2.66063E-05-2.83633E-05-2.67754E-06-1.87038E-19-1.09935E-18
 -1      4145 9.36266E-05-2.72670E-05-2.84446E-05-2.09024E-06-2.13489E-19-1.11074E-18
 -1      4146 9.26724E-05-2.65872E-05-2.82981E-05-3.41191E-06-9.39166E-20-1.15756E-18
 -1      4147 9.22539E-05-2.65204E-05-2.81947E-05-4.34725E-06-2.16951E-19-1.35897E-18
 -1      4148 9.33962E-05-2.72960E-05-2.83405E-05-3.33181E-06-2.33183E-19-1.02898E-18
 -1      4149 9.23649E-05-2.67052E-05-2.81033E-05-5.39162E-06-3.78999E-19-1.17023E-18
 -1      4150 9.20270E-05-2.68405E-05-2.79501E-05-6.78517E-06-3.09117E-19-8.55241E-19
 -1      4151 9.33893E-05-2.76655E-05-2.81928E-05-5.10882E-06 4.83446E-20-1.39099E-18
 -1      4152 9.25804E-05-2.74330E-05-2.78692E-05-7.92645E-06-3.09692E-19-9.63740E-19
 -1      4153 9.25168E-05-2.79425E-05-2.76623E-05-9.84089E-06-2.18670E-19-8.59000E-19
 -1      4154 9.54040E-05-3.05167E-05-2.79046E-05-9.63167E-06-2.73526E-19-1.71651E-18
 -1      4155 9.39490E-05-2.86718E-05-2.80318E-05-7.27484E-06-3.42802E-19-1.12933E-18
 -1      4156 9.53659E-05-2.86454E-05-2.85927E-05-3.14452E-07-3.36654E-19 9.40755E-19
 -1      4157 9.54438E-05-2.87203E-05-2.85966E-05-2.94447E-07-1.61481E-19 1.07028E-18
 -1      4158 9.66308E-05-2.90581E-05-2.89603E-05-5.74488E-07 1.71743E-19-1.02400E-19
 -1      4159 9.66879E-05-2.89268E-05-2.90383E-05-5.31898E-07 2.08956E-19-1.41543E-19
 -1      4160 9.68027E-05-2.88246E-05-2.91342E-05-3.99104E-07 1.75962E-19-9.14815E-20
 -1      4161 9.66959E-05-2.91184E-05-2.89632E-05-4.56553E-07 2.74135E-19-1.46316E-19
 -1      4162 9.52035E-05-2.84985E-05-2.85855E-05-3.87865E-07-2.87115E-19 5.08846E-19
 -1      4163 9.52705E-05-2.85664E-05-2.85887E-05-3.47770E-07-4.32378E-19 8.86509E-19
 -1      4164 9.53021E-05-2.85830E-05-2.85945E-05-2.55228E-07-4.49993E-19 4.56146E-19
 -1      4165 9.55432E-05-2.88014E-05-2.86022E-05-2.79444E-07-1.67203E-19 9.34988E-19
 -1      4166 9.56292E-05-2.88771E-05-2.86084E-05-2.73588E-07-3.01314E-20 1.01605E-18
 -1      4167 9.54947E-05-2.87539E-05-2.86042E-05-2.03689E-07-7.04610E-20 5.68288E-19
 -1      4168 9.50630E-05-2.83750E-05-2.85773E-05-5.15774E-07 9.28154E-20 2.37403E-19
 -1      4169 9.51131E-05-2.84275E-05-2.85813E-05-4.47702E-07 1.09252E-19 3.18219E-19
 -1      4170 9.51183E-05-2.84181E-05-2.85862E-05-3.50122E-07 6.29498E-20-1.68119E-19
 -1      4171 9.49597E-05-2.82970E-05-2.85650E-05-7.19051E-07-2.62595E-19-1.68891E-19
 -1      4172 9.49820E-05-2.83214E-05-2.85712E-05-6.13119E-07 1.06371E-19 1.92002E-19
 -1      4173 9.49487E-05-2.82738E-05-2.85759E-05-5.09253E-07 7.95630E-20 2.56242E-19
 -1      4174 9.49219E-05-2.82984E-05-2.85460E-05-1.02507E-06-2.55791E-19-1.24266E-18
 -1      4175 9.48975E-05-2.82749E-05-2.85554E-05-8.69374E-07-4.37536E-19-8.36449E-19
 -1      4176 9.48061E-05-2.81708E-05-2.85600E-05-7.60958E-07 3.30895E-19 8.75019E-20
 -1      4177 9.49985E-05-2.84315E-05-2.85188E-05-1.46550E-06-7.22303E-20-1.51097E-18
 -1      4178 9.48971E-05-2.83305E-05-2.85315E-05-1.24728E-06-3.84057E-19-1.63636E-18
 -1      4179 9.47180E-05-2.81454E-05-2.85352E-05-1.14267E-06-2.17259E-21-1.22972E-18
 -1      4180 9.52680E-05-2.87730E-05-2.84842E-05-2.07166E-06 5.22695E-21-5.25259E-19
 -1      4181 9.50438E-05-2.85518E-05-2.84989E-05-1.78079E-06 2.83471E-19-9.68646E-19
 -1      4182 9.47339E-05-2.82548E-05-2.84993E-05-1.69999E-06-1.93740E-19-1.26584E-18
 -1      4183 9.58490E-05-2.94300E-05-2.84475E-05-2.86248E-06-8.49017E-19-4.67651E-19
 -1      4184 9.54375E-05-2.90312E-05-2.84599E-05-2.49869E-06-1.82032E-19-6.75792E-19
 -1      4185 9.49384E-05-2.85862E-05-2.84518E-05-2.48151E-06-7.85025E-20-7.72511E-19
 -1      4186 9.69106E-05-3.05393E-05-2.84232E-05-3.81989E-06-6.16743E-19-1.17348E-18
 -1      4187 9.62276E-05-2.98936E-05-2.84237E-05-3.40619E-06-7.68072E-19-6.37983E-19
 -1      4188 9.54670E-05-2.92672E-05-2.83977E-05-3.52502E-06-4.93373E-19-6.19453E-19
 -1      4189 9.86731E-05-3.22581E-05-2.84420E-05-4.84288E-06-2.56160E-19-1.45105E-18
 -1      4190 9.76222E-05-3.12959E-05-2.84115E-05-4.45378E-06-6.15987E-19-1.66542E-18
 -1      4191 9.65256E-05-3.04651E-05-2.83519E-05-4.83168E-06-3.86472E-19-1.19380E-18
 -1      4192 1.01397E-04-3.47061E-05-2.85640E-05-5.71035E-06-8.54903E-19-2.06593E-19
 -1      4193 9.98774E-05-3.33824E-05-2.84682E-05-5.48385E-06-5.51800E-19-6.83863E-19
 -1      4194 9.83817E-05-3.23638E-05-2.83474E-05-6.30913E-06-9.22229E-19-1.29465E-18
 -1      4195 1.05332E-04-3.78522E-05-2.88997E-05-5.94678E-06-1.97534E-19-2.10357E-19
 -1      4196 1.03282E-04-3.62543E-05-2.86765E-05-6.14835E-06-3.59460E-19-2.03490E-19
 -1      4197 1.01390E-04-3.51665E-05-2.84550E-05-7.68331E-06-6.41129E-19-9.46781E-19
 -1      4198 1.15198E-04-4.35363E-05-3.07131E-05-2.52324E-06-1.21285E-18-1.96944E-18
 -1      4199 1.12958E-04-4.26924E-05-2.99861E-05-4.38538E-06-1.03210E-18-1.27115E-18
 -1      4200 9.62759E-05-2.60736E-05-3.00804E-05-1.65704E-07-1.14427E-20-1.03013E-18
 -1      4201 1.13020E-04-4.27722E-05-3.00285E-05 4.26440E-06-9.44773E-20-9.09287E-20
 -1      4202 1.15228E-04-4.37248E-05-3.06916E-05 2.60824E-06-5.02418E-19-2.92767E-19
 -1      4203 9.65403E-05-2.68102E-05-2.98865E-05-9.97324E-08-1.74137E-20-1.03628E-18
 -1      4204 9.67132E-05-2.73996E-05-2.97060E-05 4.39031E-08 9.54865E-20-1.08531E-18
 -1      4205 9.64703E-05-2.65643E-05-2.99591E-05-4.20127E-08 5.71527E-20-1.01482E-18
 -1      4206 1.07750E-04-3.95550E-05-2.91404E-05 6.31413E-06 1.14763E-20 5.72207E-19
 -1      4207 1.10041E-04-4.11962E-05-2.95155E-05 5.60530E-06-5.75486E-19 6.21201E-19
 -1      4208 1.11577E-04-4.28292E-05-2.95101E-05 7.93853E-06-4.41785E-19-3.07067E-19
 -1      4209 1.06010E-04-3.90373E-05-2.88018E-05 9.12281E-06 3.57005E-19 6.50025E-19
 -1      4210 9.68255E-05-2.78323E-05-2.95691E-05 7.15485E-08 9.22331E-20-1.10863E-18
 -1      4211 9.68900E-05-2.82345E-05-2.94249E-05 1.69005E-07-1.33735E-19-1.01284E-18
 -1      4212 9.69363E-05-2.83644E-05-2.93881E-05 9.42951E-08 5.66834E-20-1.11924E-18
 -1      4213 9.68132E-05-2.76686E-05-2.96332E-05 3.02051E-08-4.67578E-20-1.16839E-18
 -1      4214 9.63287E-05-2.64954E-05-2.99364E-05 3.28429E-07 3.88959E-19-6.03935E-19
 -1      4215 9.60985E-05-2.57290E-05-3.01513E-05 3.20350E-07 4.01703E-19-7.16074E-19
 -1      4216 9.64139E-05-2.64492E-05-2.99782E-05 1.27987E-07 2.02109E-19-6.07578E-19
 -1      4217 9.65324E-05-2.72978E-05-2.96761E-05-2.06858E-08 4.52865E-19-5.51143E-19
 -1      4218 9.50516E-05-2.33971E-05-3.06930E-05 1.37818E-06 7.26328E-19-6.31695E-19
 -1      4219 9.71835E-05-3.42512E-05-2.69231E-05 1.88442E-05 3.86948E-19-4.49231E-18
 -1      4220 9.49808E-05-3.13264E-05-2.72688E-05 1.51781E-05 8.44585E-19-3.99536E-18
 -1      4221 9.85980E-05-3.40607E-05-2.77157E-05 1.42071E-05 1.24488E-18-4.72776E-18
 -1      4222 1.01351E-04-3.73176E-05-2.75879E-05 1.70993E-05 4.80145E-20-5.34060E-18
 -1      4223 9.57326E-05-2.89554E-05-2.86175E-05-2.71105E-07-3.58956E-19 6.53439E-19
 -1      4224 9.58253E-05-2.90267E-05-2.86279E-05-2.74645E-07-3.83312E-19 3.28693E-19
 -1      4225 9.56953E-05-2.89209E-05-2.86191E-05-1.80985E-07-3.12479E-19 5.08100E-19
 -1      4226 1.18823E-04-4.45456E-05-3.18186E-05-2.61753E-07-1.95610E-18-3.49403E-19
 -1      4227 1.07793E-04-4.09098E-05-2.85439E-05-1.27820E-05-9.90102E-20-1.91363E-18
 -1      4228 1.10623E-04-4.24657E-05-2.93557E-05-8.61466E-06 3.95640E-20-9.66987E-19
 -1      4229 1.09933E-04-4.10558E-05-2.95149E-05-5.39964E-06-5.66758E-19-9.36172E-19
 -1      4230 1.03976E-04-3.78161E-05-2.83080E-05-1.19548E-05 4.73103E-19-2.35223E-18
 -1      4231 9.66484E-05-2.74330E-05-2.96614E-05-4.34626E-08 2.28699E-19-3.61554E-19
 -1      4232 9.59329E-05-2.90970E-05-2.86426E-05-2.80465E-07-2.46824E-19 2.45886E-19
 -1      4233 9.60310E-05-2.91578E-05-2.86596E-05-2.89184E-07 9.37731E-21 7.74611E-20
 -1      4234 9.59041E-05-2.90745E-05-2.86432E-05-1.76782E-07-4.40225E-19 1.15100E-19
 -1      4235 9.65589E-05-2.92914E-05-2.88281E-05-3.38860E-07 1.19367E-19-3.78195E-19
 -1      4236 9.66510E-05-2.92569E-05-2.88821E-05-3.33907E-07 3.99160E-20-2.82628E-19
 -1      4237 9.61371E-05-2.92114E-05-2.86841E-05-4.20750E-07 2.67490E-19-1.03303E-19
 -1      4238 9.68911E-05-2.84637E-05-2.93276E-05-2.37301E-07 1.39851E-19-1.18838E-19
 -1      4239 9.68575E-05-2.81235E-05-2.94573E-05-1.43214E-07 1.55887E-19-2.39382E-19
 -1      4240 9.68636E-05-2.89377E-05-2.91115E-05-3.11081E-07 3.01313E-19-3.60987E-19
 -1      4241 9.68958E-05-2.87349E-05-2.92107E-05-2.59043E-07 2.07197E-19-1.99293E-19
 -1      4242 9.69361E-05-2.85713E-05-2.92997E-05-1.47572E-07 2.36995E-19-4.39487E-19
 -1      4243 1.07527E-04-3.94574E-05-2.90965E-05-6.24349E-06-2.60653E-19-5.82845E-19
 -1      4244 1.05489E-04-3.87157E-05-2.87326E-05-8.76224E-06 2.26455E-19-1.32745E-18
 -1      4245 1.11013E-04-4.36452E-05-2.88055E-05 1.35495E-05-1.27956E-18-2.57203E-18
 -1      4246 1.06457E-04-4.02111E-05-2.83728E-05 1.36809E-05-5.75842E-19-2.35310E-18
 -1      4247 9.66364E-05-2.71459E-05-2.97856E-05 5.38209E-08 1.09834E-22-4.85548E-19
 -1      4248 9.65045E-05-2.66856E-05-2.99199E-05 5.67543E-08 2.34318E-20-4.02753E-19
 -1      4249 9.63539E-05-2.92867E-05-2.87420E-05-3.22212E-07 1.44451E-19-9.20439E-20
 -1      4250 9.64544E-05-2.92986E-05-2.87801E-05-3.27670E-07 1.60654E-19-1.62065E-19
 -1      4251 9.65535E-05-2.93118E-05-2.88206E-05-2.03914E-07 1.06074E-19-2.78488E-19
 -1      4252 9.65022E-05-2.66466E-05-2.99418E-05 2.51833E-08 9.49293E-20-6.74086E-19
 -1      4253 8.07443E-05-1.95487E-05-2.62484E-05 1.07222E-05-1.10631E-18 5.95764E-18
 -1      4254 1.18469E-04-4.58551E-05-3.11249E-05 4.17714E-06-9.41279E-19-9.15118E-19
 -1      4255 9.67291E-05-2.72983E-05-2.97517E-05-1.52164E-08-1.25919E-19-6.20179E-19
 -1      4256 9.69695E-05-2.87500E-05-2.92360E-05-2.80731E-08 2.96758E-19-6.29532E-19
 -1      4257 9.69402E-05-2.89592E-05-2.91342E-05-7.79261E-09 2.35658E-19-4.83790E-19
 -1      4258 9.61417E-05-2.92134E-05-2.86823E-05-2.99963E-07 8.84909E-20-1.54999E-19
 -1      4259 9.62431E-05-2.92555E-05-2.87083E-05-3.09554E-07 1.32380E-19-2.66035E-19
 -1      4260 9.61202E-05-2.92031E-05-2.86811E-05-1.83399E-07-9.57760E-20-2.11733E-19
 -1      4261 1.01786E-04-3.59310E-05-2.81739E-05-1.11805E-05 2.32413E-20-2.23569E-18
 -1      4262 9.50059E-05-2.82927E-05-2.85892E-05-2.53039E-07 2.08780E-19-6.66346E-21
 -1      4263 9.50982E-05-2.83836E-05-2.85934E-05-1.92788E-07 1.27119E-19 4.12555E-20
 -1      4264 9.67238E-05-2.92851E-05-2.89006E-05-2.24146E-08-8.69011E-20-2.71754E-19
 -1      4265 9.66253E-05-2.93185E-05-2.88442E-05-1.64876E-08-5.35456E-20-2.89444E-19
 -1      4266 9.65198E-05-2.93259E-05-2.87956E-05-1.93357E-08-5.02568E-20-1.49587E-19
 -1      4267 9.64101E-05-2.93105E-05-2.87554E-05-1.77759E-08 3.17665E-20 1.09038E-19
 -1      4268 9.62984E-05-2.92783E-05-2.87212E-05-1.78330E-08-1.50784E-20 5.91191E-20
 -1      4269 9.61855E-05-2.92305E-05-2.86936E-05-1.96115E-08 1.62646E-20 3.74733E-20
 -1      4270 9.60738E-05-2.91725E-05-2.86704E-05-1.96136E-08-2.14033E-19 5.25714E-20
 -1      4271 9.59616E-05-2.91037E-05-2.86524E-05-2.46343E-08-4.61679E-19-1.80940E-19
 -1      4272 9.58530E-05-2.90294E-05-2.86373E-05-2.73528E-08-4.69598E-19 2.48267E-20
 -1      4273 9.57424E-05-2.89466E-05-2.86262E-05-3.66982E-08-3.74914E-19 2.24640E-19
 -1      4274 9.56377E-05-2.88622E-05-2.86169E-05-4.53916E-08-3.63138E-19 3.52295E-19
 -1      4275 9.55275E-05-2.87700E-05-2.86103E-05-6.17354E-08-2.43635E-19 3.33853E-19
 -1      4276 9.54267E-05-2.86797E-05-2.86046E-05-8.07283E-08-1.03852E-19 5.25713E-19
 -1      4277 9.53140E-05-2.85805E-05-2.86007E-05-1.08996E-07 1.10690E-19 3.76013E-19
 -1      4278 9.52168E-05-2.84879E-05-2.85967E-05-1.44391E-07 9.30151E-20 1.86939E-19
 -1      4279 9.48716E-05-2.81801E-05-2.85842E-05-3.39507E-07-6.11404E-20-3.04473E-19
 -1      4280 9.47883E-05-2.80982E-05-2.85780E-05-4.37945E-07-4.43835E-20-1.02431E-19
 -1      4281 9.46484E-05-2.79933E-05-2.85693E-05-5.74146E-07 3.49888E-19 7.53452E-20
 -1      4282 9.45833E-05-2.79320E-05-2.85593E-05-7.27480E-07 6.26132E-19-2.62306E-19
 -1      4283 9.44344E-05-2.78399E-05-2.85438E-05-9.44467E-07 6.07694E-19-4.97144E-19
 -1      4284 9.44064E-05-2.78193E-05-2.85283E-05-1.17540E-06 4.75442E-20-8.57256E-19
 -1      4285 9.42592E-05-2.77602E-05-2.85028E-05-1.51117E-06-3.50486E-19-9.71134E-19
 -1      4286 9.43017E-05-2.78140E-05-2.84805E-05-1.84694E-06-3.67880E-19-7.22936E-19
 -1      4287 9.41826E-05-2.78240E-05-2.84412E-05-2.35010E-06-1.37189E-19-1.02603E-18
 -1      4288 9.43513E-05-2.80055E-05-2.84122E-05-2.81931E-06-5.90082E-20-7.77861E-19
 -1      4289 9.43143E-05-2.81451E-05-2.83559E-05-3.54579E-06-2.76565E-19-5.50509E-19
 -1      4290 9.46971E-05-2.85349E-05-2.83235E-05-4.17060E-06-2.71219E-19-8.53563E-19
 -1      4291 9.48407E-05-2.89034E-05-2.82495E-05-5.16794E-06 4.02368E-20-5.75925E-19
 -1      4292 9.67385E-05-2.91916E-05-2.89483E-05-3.39556E-07 2.08055E-19-2.78591E-19
 -1      4293 9.68099E-05-2.90880E-05-2.90224E-05-3.16143E-07 3.59503E-19-2.24079E-19
 -1      4294 9.68857E-05-2.90074E-05-2.90924E-05-1.89244E-07 2.93456E-19-5.27712E-19
 -1      4295 9.67446E-05-2.92333E-05-2.89359E-05-2.04885E-07 1.55577E-19-4.18736E-19
 -1      4296 1.04791E-04-3.84973E-05-2.83711E-05 1.25430E-05-6.94402E-20-2.47752E-18
 -1      4297 9.55502E-05-2.96063E-05-2.82212E-05-5.95883E-06-2.28782E-19-8.73965E-19
 -1      4298 9.72747E-05-3.14493E-05-2.81618E-05-7.84808E-06-7.97517E-19-1.26220E-18
 -1      4299 9.60883E-05-3.03240E-05-2.81620E-05-6.97610E-06-8.93554E-19-1.41042E-18
 -1      4300 1.00215E-04-3.42710E-05-2.82019E-05-9.71217E-06-3.88140E-19-1.99218E-18
 -1      4301 9.83360E-05-3.26232E-05-2.81251E-05-8.94422E-06-6.49136E-19-1.83156E-18
 -1      4302 9.67661E-05-2.76740E-05-2.96123E-05-9.34349E-08 9.52741E-21-2.75925E-19
 -1      4303 1.02092E-04-3.62384E-05-2.81559E-05 1.22809E-05 8.15911E-19-2.82881E-18
 -1      4304 1.15990E-04-4.56312E-05-3.01087E-05 7.92664E-06-1.24348E-19-2.11181E-18
 -1      4305 9.68415E-05-2.78395E-05-2.95715E-05-6.19810E-08-3.01290E-20-2.38591E-19
 -1      4306 9.68426E-05-2.77417E-05-2.96162E-05 1.20417E-08-5.78200E-20-6.66305E-19
 -1      4307 9.68120E-05-2.92181E-05-2.89676E-05-1.37416E-08-5.90873E-20-3.85626E-19
 -1      4308 9.69317E-05-2.81791E-05-2.94639E-05-3.35288E-08 7.78526E-20-7.50790E-19
 -1      4309 9.63398E-05-2.92903E-05-2.87382E-05-1.94486E-07 7.19731E-20-2.82135E-19
 -1      4310 9.68860E-05-2.91126E-05-2.90443E-05-2.58325E-08 1.21045E-19-4.87856E-19
 -1      4311 9.69648E-05-2.84730E-05-2.93538E-05 1.01742E-09 1.51177E-19-5.63183E-19
 -1      4312 1.12645E-04-4.36817E-05-2.95810E-05 9.20810E-06-5.80661E-19-9.85622E-19
 -3
    1PSTEP                         4           1           1          
  100CL  101 1.000000000        4312                     0    1           1
 -4  ERROR       1    1
 -5  STR(%)      1    1    0    0
 -1         1 2.11725E+01
 -1         2 2.38709E+01
 -1         3 4.26033E-03
 -1         4 9.74195E-02
 -1         5 1.40391E+01
 -1         6 1.31432E+01
 -1         7 1.31432E+01
 -1         8 3.66348E+00
 -1         9 1.82666E+00
 -1        10 1.29011E+00
 -1        11 1.04368E+00
 -1        12 8.99871E-01
 -1        13 8.08720E-01
 -1        14 7.53705E-01
 -1        15 7.55671E-01
 -1        16 8.13020E-01
 -1        17 9.00703E-01
 -1        18 1.05280E+00
 -1        19 1.30641E+00
 -1        20 1.83135E+00
 -1        21 3.50833E+00
 -1        22 8.64152E+00
 -1        23 1.31432E+01
 -1        24 4.31819E+00
 -1        25 3.34122E+00
 -1        26 2.11148E+00
 -1        27 1.36270E+00
 -1        28 1.01469E+00
 -1        29 7.75961E-01
 -1        30 5.96390E-01
 -1        31 4.56412E-01
 -1        32 3.48668E-01
 -1        33 2.70011E-01
 -1        34 2.06864E-01
 -1        35 1.57174E-01
 -1        36 1.18980E-01
 -1        37 9.05176E-02
 -1        38 7.04244E-02
 -1        39 5.94152E-02
 -1        40 5.80548E-02
 -1        41 7.13611E-02
 -1        42 9.68237E-02
 -1        43 1.40206E-01
 -1        44 2.10632E-01
 -1        45 3.21984E-01
 -1        46 5.21739E-01
 -1        47 7.73382E-01
 -1        48 1.15945E+00
 -1        49 1.67859E+00
 -1        50 2.31974E+00
 -1        51 3.46202E+00
 -1        52 4.82150E+00
 -1        53 6.45791E+00
 -1        54 6.68039E+00
 -1        55 6.68039E+00
 -1        56 7.96420E+00
 -1        57 1.83139E+01
 -1        58 1.84402E+01
 -1        59 1.84402E+01
 -1        60 1.21342E+01
 -1        61 4.83614E+00
 -1        62 5.85332E+00
 -1        63 5.85332E+00
 -1        64 5.30884E+00
 -1        65 4.04759E+00
 -1        66 2.94504E+00
 -1        67 2.16379E+00
 -1        68 1.57973E+00
 -1        69 1.10945E+00
 -1        70 7.59599E-01
 -1        71 4.88901E-01
 -1        72 3.07509E-01
 -1        73 1.40391E+01
 -1        74 3.39597E+00
 -1        75 2.41771E+00
 -1        76 1.66765E+00
 -1        77 1.14773E+00
 -1        78 9.07272E-01
 -1        79 7.32686E-01
 -1        80 5.89420E-01
 -1        81 4.70228E-01
 -1        82 3.71197E-01
 -1        83 2.96657E-01
 -1        84 2.35265E-01
 -1        85 1.84607E-01
 -1        86 1.43786E-01
 -1        87 1.11637E-01
 -1        88 8.68651E-02
 -1        89 6.80932E-02
 -1        90 5.52178E-02
 -1        91 5.04549E-02
 -1        92 4.77659E-02
 -1        93 4.59082E-02
 -1        94 5.73388E-02
 -1        95 7.58362E-02
 -1        96 1.24162E-01
 -1        97 1.92158E-01
 -1        98 2.69156E-01
 -1        99 3.53358E-01
 -1       100 5.11030E-01
 -1       101 6.81489E-01
 -1       102 8.37123E-01
 -1       103 9.36063E-01
 -1       104 1.30160E+00
 -1       105 1.71384E+00
 -1       106 2.02323E+00
 -1       107 2.14423E+00
 -1       108 2.32349E+00
 -1       109 2.38497E+00
 -1       110 2.38497E+00
 -1       111 2.19013E+00
 -1       112 1.82042E+00
 -1       113 1.41353E+00
 -1       114 1.04046E+00
 -1       115 7.09508E-01
 -1       116 4.46328E-01
 -1       117 2.83039E-01
 -1       118 1.69684E-01
 -1       119 9.17743E-02
 -1       120 4.53009E-02
 -1       121 2.13414E-02
 -1       122 8.36768E-03
 -1       123 8.05721E-03
 -1       124 2.33886E-02
 -1       125 3.70628E-02
 -1       126 4.36136E-02
 -1       127 4.36136E-02
 -1       128 3.93012E-02
 -1       129 2.09250E-02
 -1       130 5.34848E-02
 -1       131 8.51492E-02
 -1       132 9.76186E-02
 -1       133 9.76186E-02
 -1       134 8.15605E-02
 -1       135 5.18685E-02
 -1       136 8.13429E-02
 -1       137 8.13429E-02
 -1       138 2.38709E+01
 -1       139 4.12236E+01
 -1       140 4.12236E+01
 -1       141 1.55715E+01
 -1       142 1.18351E+01
 -1       143 1.21677E+01
 -1       144 1.27002E+01
 -1       145 1.27002E+01
 -1       146 1.20317E+01
 -1       147 1.66855E+01
 -1       148 4.20853E+01
 -1       149 4.20853E+01
 -1       150 2.45990E+01
 -1       151 2.45990E+01
 -1       152 2.47003E+01
 -1       153 2.47003E+01
 -1       154 3.89189E+01
 -1       155 3.89189E+01
 -1       156 1.70477E+01
 -1       157 1.56024E+01
 -1       158 1.56024E+01
 -1       159 1.39360E+01
 -1       160 1.42231E+01
 -1       161 4.66988E+01
 -1       162 4.66988E+01
 -1       163 2.65865E+01
 -1       164 2.46785E+01
 -1       165 6.07757E+00
 -1       166 2.30063E+00
 -1       167 1.50587E+00
 -1       168 1.15823E+00
 -1       169 9.71990E-01
 -1       170 8.64283E-01
 -1       171 7.95882E-01
 -1       172 7.55671E-01
 -1       173 7.99315E-01
 -1       174 8.67070E-01
 -1       175 9.80983E-01
 -1       176 1.17163E+00
 -1       177 1.52723E+00
 -1       178 2.25921E+00
 -1       179 3.93314E+00
 -1       180 1.40391E+01
 -1       181 4.31819E+00
 -1       182 3.34122E+00
 -1       183 2.11148E+00
 -1       184 1.44731E+00
 -1       185 1.02560E+00
 -1       186 7.75961E-01
 -1       187 5.96390E-01
 -1       188 4.68736E-01
 -1       189 3.68826E-01
 -1       190 2.90259E-01
 -1       191 2.33531E-01
 -1       192 1.85384E-01
 -1       193 1.45633E-01
 -1       194 1.13625E-01
 -1       195 8.84718E-02
 -1       196 6.91773E-02
 -1       197 5.46735E-02
 -1       198 6.28755E-02
 -1       199 8.13712E-02
 -1       200 1.12588E-01
 -1       201 1.62452E-01
 -1       202 2.39786E-01
 -1       203 3.91946E-01
 -1       204 6.51706E-01
 -1       205 1.05746E+00
 -1       206 1.67395E+00
 -1       207 2.55176E+00
 -1       208 3.67414E+00
 -1       209 4.86417E+00
 -1       210 5.70929E+00
 -1       211 6.45791E+00
 -1       212 8.15273E+00
 -1       213 9.24504E+00
 -1       214 8.27977E+00
 -1       215 1.83139E+01
 -1       216 1.21342E+01
 -1       217 5.12265E+00
 -1       218 7.33830E+00
 -1       219 6.71626E+00
 -1       220 5.88290E+00
 -1       221 5.18349E+00
 -1       222 4.16926E+00
 -1       223 3.01322E+00
 -1       224 2.01016E+00
 -1       225 1.25568E+00
 -1       226 7.79037E-01
 -1       227 5.26235E-01
 -1       228 3.27019E-01
 -1       229 1.43438E-01
 -1       230 3.39597E+00
 -1       231 2.41771E+00
 -1       232 1.66765E+00
 -1       233 1.14773E+00
 -1       234 9.07272E-01
 -1       235 7.32686E-01
 -1       236 5.89420E-01
 -1       237 4.70228E-01
 -1       238 3.71197E-01
 -1       239 2.96657E-01
 -1       240 2.35265E-01
 -1       241 1.86239E-01
 -1       242 1.46982E-01
 -1       243 1.15137E-01
 -1       244 8.98255E-02
 -1       245 7.00156E-02
 -1       246 5.52178E-02
 -1       247 5.04549E-02
 -1       248 4.77659E-02
 -1       249 4.59082E-02
 -1       250 4.90239E-02
 -1       251 5.73388E-02
 -1       252 8.41001E-02
 -1       253 1.26877E-01
 -1       254 1.92158E-01
 -1       255 2.83432E-01
 -1       256 4.63352E-01
 -1       257 6.90953E-01
 -1       258 9.54700E-01
 -1       259 1.22941E+00
 -1       260 1.54830E+00
 -1       261 1.80936E+00
 -1       262 1.94857E+00
 -1       263 2.02323E+00
 -1       264 2.14423E+00
 -1       265 2.32349E+00
 -1       266 2.38497E+00
 -1       267 2.19013E+00
 -1       268 1.82042E+00
 -1       269 1.41353E+00
 -1       270 1.06519E+00
 -1       271 7.65641E-01
 -1       272 5.12333E-01
 -1       273 3.17498E-01
 -1       274 1.80401E-01
 -1       275 9.31678E-02
 -1       276 4.82337E-02
 -1       277 2.21373E-02
 -1       278 2.32208E-02
 -1       279 4.54816E-02
 -1       280 6.80834E-02
 -1       281 8.23515E-02
 -1       282 8.47354E-02
 -1       283 8.47354E-02
 -1       284 7.26956E-02
 -1       285 7.90779E-02
 -1       286 1.47747E-01
 -1       287 1.84991E-01
 -1       288 1.89993E-01
 -1       289 1.89993E-01
 -1       290 1.50410E-01
 -1       291 1.19343E-01
 -1       292 1.93000E-01
 -1       293 2.77297E+01
 -1       294 3.66964E+01
 -1       295 4.12236E+01
 -1       296 1.55715E+01
 -1       297 1.10586E+01
 -1       298 1.18351E+01
 -1       299 1.21677E+01
 -1       300 1.27002E+01
 -1       301 1.20317E+01
 -1       302 1.11860E+01
 -1       303 1.66855E+01
 -1       304 4.20853E+01
 -1       305 3.67686E+01
 -1       306 2.71016E+01
 -1       307 3.03467E+01
 -1       308 3.03467E+01
 -1       309 3.59843E+01
 -1       310 3.89189E+01
 -1       311 1.70477E+01
 -1       312 1.45020E+01
 -1       313 1.58446E+01
 -1       314 1.58446E+01
 -1       315 1.33907E+01
 -1       316 1.42231E+01
 -1       317 2.18309E+01
 -1       318 4.66988E+01
 -1       319 3.69934E+01
 -1       320 2.73145E+01
 -1       321 2.77297E+01
 -1       322 1.84402E+01
 -1       323 1.07039E+00
 -1       324 2.47912E+00
 -1       325 7.88863E-01
 -1       326 6.95029E-01
 -1       327 6.31827E-01
 -1       328 5.87511E-01
 -1       329 5.90727E-01
 -1       330 6.34457E-01
 -1       331 7.01197E-01
 -1       332 7.96430E-01
 -1       333 9.30562E-01
 -1       334 1.14475E+00
 -1       335 1.32949E+00
 -1       336 2.19655E+00
 -1       337 1.91276E+00
 -1       338 2.67854E+01
 -1       339 1.72957E+00
 -1       340 1.26744E+00
 -1       341 9.06894E-01
 -1       342 6.55810E-01
 -1       343 5.39016E-01
 -1       344 4.41984E-01
 -1       345 3.56508E-01
 -1       346 2.90512E-01
 -1       347 2.35199E-01
 -1       348 1.87653E-01
 -1       349 1.50935E-01
 -1       350 1.21083E-01
 -1       351 9.57010E-02
 -1       352 7.43766E-02
 -1       353 5.63280E-02
 -1       354 5.32497E-02
 -1       355 6.28755E-02
 -1       356 8.13712E-02
 -1       357 1.31589E-01
 -1       358 2.13098E-01
 -1       359 3.46011E-01
 -1       360 5.51028E-01
 -1       361 8.64675E-01
 -1       362 1.34294E+00
 -1       363 2.05598E+00
 -1       364 3.08263E+00
 -1       365 4.48579E+00
 -1       366 6.26171E+00
 -1       367 8.46664E+00
 -1       368 1.01215E+01
 -1       369 1.08266E+01
 -1       370 4.19341E+01
 -1       371 9.33189E+00
 -1       372 8.89173E+00
 -1       373 6.71626E+00
 -1       374 5.96644E+00
 -1       375 4.63080E+00
 -1       376 3.36658E+00
 -1       377 2.31000E+00
 -1       378 1.51472E+00
 -1       379 9.53489E-01
 -1       380 5.76092E-01
 -1       381 3.27019E-01
 -1       382 1.13419E+00
 -1       383 8.14601E-01
 -1       384 6.31311E-01
 -1       385 5.17174E-01
 -1       386 4.17472E-01
 -1       387 3.35858E-01
 -1       388 2.71303E-01
 -1       389 2.16419E-01
 -1       390 1.72850E-01
 -1       391 1.38461E-01
 -1       392 1.08876E-01
 -1       393 8.38970E-02
 -1       394 6.30484E-02
 -1       395 4.96254E-02
 -1       396 4.48444E-02
 -1       397 4.15393E-02
 -1       398 3.87780E-02
 -1       399 4.43002E-02
 -1       400 4.90239E-02
 -1       401 4.72503E-02
 -1       402 6.84527E-02
 -1       403 1.43285E-01
 -1       404 2.50950E-01
 -1       405 3.94493E-01
 -1       406 5.71978E-01
 -1       407 7.74239E-01
 -1       408 1.01862E+00
 -1       409 1.28221E+00
 -1       410 1.54830E+00
 -1       411 1.80936E+00
 -1       412 1.94857E+00
 -1       413 1.93487E+00
 -1       414 1.93506E+00
 -1       415 1.93234E+00
 -1       416 1.77922E+00
 -1       417 1.51087E+00
 -1       418 1.25170E+00
 -1       419 9.88903E-01
 -1       420 7.60624E-01
 -1       421 5.65145E-01
 -1       422 3.95805E-01
 -1       423 2.60158E-01
 -1       424 1.58843E-01
 -1       425 8.57116E-02
 -1       426 5.99042E-02
 -1       427 1.18922E-01
 -1       428 9.11465E-02
 -1       429 1.22557E-01
 -1       430 1.33770E-01
 -1       431 1.33770E-01
 -1       432 1.17561E-01
 -1       433 1.78107E-01
 -1       434 2.59391E-01
 -1       435 2.79845E-01
 -1       436 3.01179E-01
 -1       437 3.01179E-01
 -1       438 2.68892E-01
 -1       439 1.35809E+00
 -1       440 2.33180E+01
 -1       441 8.11783E+00
 -1       442 2.26018E+01
 -1       443 9.12901E-01
 -1       444 8.91788E+00
 -1       445 8.24334E+00
 -1       446 9.72353E+00
 -1       447 1.10753E+01
 -1       448 1.02036E+01
 -1       449 8.55668E+00
 -1       450 8.00453E+00
 -1       451 1.46066E+01
 -1       452 2.47082E+01
 -1       453 2.84566E+01
 -1       454 4.71502E+01
 -1       455 4.71502E+01
 -1       456 2.71407E+01
 -1       457 2.46422E+01
 -1       458 1.41532E+01
 -1       459 6.81566E+00
 -1       460 1.62483E+01
 -1       461 4.19341E+01
 -1       462 1.33142E+01
 -1       463 2.44074E+01
 -1       464 1.18369E+01
 -1       465 2.43847E-01
 -1       466 1.03328E+01
 -1       467 4.86567E-01
 -1       468 5.11093E-01
 -1       469 4.31475E-01
 -1       470 4.57424E-01
 -1       471 4.87121E-01
 -1       472 5.11046E-01
 -1       473 5.11046E-01
 -1       474 5.03883E-01
 -1       475 6.39305E-01
 -1       476 1.31572E+00
 -1       477 8.03208E-01
 -1       478 4.19341E+01
 -1       479 8.77464E-01
 -1       480 7.01953E-01
 -1       481 5.88458E-01
 -1       482 4.76006E-01
 -1       483 3.77128E-01
 -1       484 3.23016E-01
 -1       485 2.72903E-01
 -1       486 2.25464E-01
 -1       487 1.85910E-01
 -1       488 1.51799E-01
 -1       489 1.21839E-01
 -1       490 9.61744E-02
 -1       491 7.44437E-02
 -1       492 5.63280E-02
 -1       493 4.24821E-02
 -1       494 4.74332E-02
 -1       495 5.93912E-02
 -1       496 9.98169E-02
 -1       497 1.57585E-01
 -1       498 2.45492E-01
 -1       499 3.72635E-01
 -1       500 5.68940E-01
 -1       501 9.07713E-01
 -1       502 1.46086E+00
 -1       503 2.33905E+00
 -1       504 3.79316E+00
 -1       505 6.02626E+00
 -1       506 9.99620E+00
 -1       507 1.06786E+01
 -1       508 8.42874E+00
 -1       509 6.13562E+00
 -1       510 4.15536E+00
 -1       511 2.64651E+00
 -1       512 1.64926E+00
 -1       513 1.04594E+00
 -1       514 6.53687E-01
 -1       515 4.70139E-01
 -1       516 4.43790E-01
 -1       517 5.61634E-01
 -1       518 6.91389E-01
 -1       519 3.66870E-01
 -1       520 3.11963E-01
 -1       521 2.58781E-01
 -1       522 2.12265E-01
 -1       523 1.73863E-01
 -1       524 1.39597E-01
 -1       525 1.09901E-01
 -1       526 8.57232E-02
 -1       527 6.60367E-02
 -1       528 4.90502E-02
 -1       529 3.61820E-02
 -1       530 3.35492E-02
 -1       531 3.14773E-02
 -1       532 2.92747E-02
 -1       533 3.33954E-02
 -1       534 4.59338E-02
 -1       535 6.16750E-02
 -1       536 1.08630E-01
 -1       537 1.83512E-01
 -1       538 2.89044E-01
 -1       539 4.30485E-01
 -1       540 6.23245E-01
 -1       541 8.47496E-01
 -1       542 1.06850E+00
 -1       543 1.24524E+00
 -1       544 1.39618E+00
 -1       545 1.49559E+00
 -1       546 1.49615E+00
 -1       547 1.42625E+00
 -1       548 1.49952E+00
 -1       549 1.48757E+00
 -1       550 1.37725E+00
 -1       551 1.23270E+00
 -1       552 1.05050E+00
 -1       553 8.30675E-01
 -1       554 6.12405E-01
 -1       555 4.32776E-01
 -1       556 3.07172E-01
 -1       557 2.07310E-01
 -1       558 1.43600E-01
 -1       559 1.89826E-01
 -1       560 1.77580E-01
 -1       561 1.77580E-01
 -1       562 6.54762E+00
 -1       563 2.07035E-01
 -1       564 2.07035E-01
 -1       565 2.34614E-01
 -1       566 3.11057E-01
 -1       567 4.09188E-01
 -1       568 4.36169E-01
 -1       569 4.36169E-01
 -1       570 4.58920E-01
 -1       571 3.88875E+00
 -1       572 2.44074E+01
 -1       573 7.51280E+00
 -1       574 1.68302E+01
 -1       575 9.89756E+00
 -1       576 1.85922E+01
 -1       577 4.57395E-01
 -1       578 7.85309E+00
 -1       579 7.67044E+00
 -1       580 8.05143E+00
 -1       581 5.84405E+00
 -1       582 1.66466E+01
 -1       583 3.44661E+00
 -1       584 1.15389E+01
 -1       585 1.77224E+01
 -1       586 2.84566E+01
 -1       587 4.71502E+01
 -1       588 2.71407E+01
 -1       589 2.67854E+01
 -1       590 1.42840E+01
 -1       591 1.36735E+01
 -1       592 5.11093E-01
 -1       593 7.47188E-01
 -1       594 4.63065E-01
 -1       595 7.26833E+00
 -1       596 6.30006E-01
 -1       597 3.97582E+00
 -1       598 3.58417E-01
 -1       599 3.42676E-01
 -1       600 3.61384E-01
 -1       601 3.43326E-01
 -1       602 5.93555E-01
 -1       603 4.03202E-01
 -1       604 3.69895E-01
 -1       605 2.49505E-01
 -1       606 3.96911E-01
 -1       607 3.83633E-01
 -1       608 3.42560E-01
 -1       609 2.92688E-01
 -1       610 2.42679E-01
 -1       611 2.11195E-01
 -1       612 1.78170E-01
 -1       613 1.46459E-01
 -1       614 1.17799E-01
 -1       615 9.41302E-02
 -1       616 7.36272E-02
 -1       617 5.57480E-02
 -1       618 3.96119E-02
 -1       619 2.90503E-02
 -1       620 3.33433E-02
 -1       621 6.21822E-02
 -1       622 1.09831E-01
 -1       623 1.87724E-01
 -1       624 3.04968E-01
 -1       625 4.87363E-01
 -1       626 7.71009E-01
 -1       627 1.21449E+00
 -1       628 1.91683E+00
 -1       629 3.05510E+00
 -1       630 4.94888E+00
 -1       631 8.19740E+00
 -1       632 1.78386E+01
 -1       633 1.04248E+01
 -1       634 2.77027E-01
 -1       635 6.25318E+00
 -1       636 3.93684E+00
 -1       637 2.39965E+00
 -1       638 1.45469E+00
 -1       639 8.64021E-01
 -1       640 5.53632E-01
 -1       641 3.86676E-01
 -1       642 3.32772E-01
 -1       643 4.28954E-01
 -1       644 2.35795E-01
 -1       645 2.00424E-01
 -1       646 1.65688E-01
 -1       647 1.34635E-01
 -1       648 1.08610E-01
 -1       649 8.57300E-02
 -1       650 6.60367E-02
 -1       651 4.90502E-02
 -1       652 3.46661E-02
 -1       653 2.40973E-02
 -1       654 2.40620E-02
 -1       655 2.47013E-02
 -1       656 3.33954E-02
 -1       657 4.59338E-02
 -1       658 6.94136E-02
 -1       659 1.06882E-01
 -1       660 1.83512E-01
 -1       661 2.88503E-01
 -1       662 4.20247E-01
 -1       663 5.69332E-01
 -1       664 7.20300E-01
 -1       665 8.93433E-01
 -1       666 1.09073E+00
 -1       667 1.21194E+00
 -1       668 1.27009E+00
 -1       669 1.30886E+00
 -1       670 1.23470E+00
 -1       671 1.24792E+00
 -1       672 1.31681E+00
 -1       673 1.27173E+00
 -1       674 1.20981E+00
 -1       675 1.07774E+00
 -1       676 8.78214E-01
 -1       677 7.21447E-01
 -1       678 5.76675E-01
 -1       679 4.32776E-01
 -1       680 3.07172E-01
 -1       681 2.16062E-01
 -1       682 3.16956E-01
 -1       683 1.53323E+01
 -1       684 3.03937E+00
 -1       685 2.16062E-01
 -1       686 3.39092E-01
 -1       687 2.96331E-01
 -1       688 3.96385E-01
 -1       689 5.15762E-01
 -1       690 6.00272E-01
 -1       691 7.35365E-01
 -1       692 7.35365E-01
 -1       693 1.73097E+01
 -1       694 2.99107E+00
 -1       695 4.36812E+00
 -1       696 1.26799E+01
 -1       697 3.61384E-01
 -1       698 1.01097E+01
 -1       699 3.60648E-01
 -1       700 6.83448E+00
 -1       701 9.76626E+00
 -1       702 1.78386E+01
 -1       703 1.53343E+01
 -1       704 5.81802E+00
 -1       705 3.34994E+00
 -1       706 5.06846E+00
 -1       707 3.60648E-01
 -1       708 3.42276E-01
 -1       709 4.15575E-01
 -1       710 5.94677E+00
 -1       711 1.73097E+01
 -1       712 4.23618E+00
 -1       713 5.29265E+00
 -1       714 3.77108E+00
 -1       715 8.46638E+00
 -1       716 6.64578E+00
 -1       717 3.57651E-01
 -1       718 4.05329E+00
 -1       719 2.41608E-01
 -1       720 8.15963E-01
 -1       721 2.67244E-01
 -1       722 2.54934E-01
 -1       723 2.32615E-01
 -1       724 2.54632E-01
 -1       725 2.47711E-01
 -1       726 2.25631E-01
 -1       727 1.96871E-01
 -1       728 1.70127E-01
 -1       729 1.48328E-01
 -1       730 1.25235E-01
 -1       731 1.02684E-01
 -1       732 8.16183E-02
 -1       733 6.23594E-02
 -1       734 4.47939E-02
 -1       735 2.84988E-02
 -1       736 3.13313E-02
 -1       737 5.08362E-02
 -1       738 8.92546E-02
 -1       739 1.50135E-01
 -1       740 2.28195E-01
 -1       741 3.45583E-01
 -1       742 5.15969E-01
 -1       743 7.62665E-01
 -1       744 1.16060E+00
 -1       745 1.91255E+00
 -1       746 3.12693E+00
 -1       747 5.07316E+00
 -1       748 9.94933E+00
 -1       749 2.26907E-01
 -1       750 2.19643E-01
 -1       751 1.05874E+01
 -1       752 3.01528E+00
 -1       753 2.73924E+00
 -1       754 1.97421E+00
 -1       755 1.25049E+00
 -1       756 1.64745E-01
 -1       757 1.40684E-01
 -1       758 1.16632E-01
 -1       759 9.39323E-02
 -1       760 7.32012E-02
 -1       761 5.45752E-02
 -1       762 3.78949E-02
 -1       763 2.28518E-02
 -1       764 1.46011E-02
 -1       765 1.79081E-02
 -1       766 2.67406E-02
 -1       767 4.43254E-02
 -1       768 6.94136E-02
 -1       769 1.06713E-01
 -1       770 1.61495E-01
 -1       771 2.52030E-01
 -1       772 3.85669E-01
 -1       773 5.47300E-01
 -1       774 7.20300E-01
 -1       775 8.74631E-01
 -1       776 1.04122E+00
 -1       777 1.13828E+00
 -1       778 1.25326E+00
 -1       779 1.41767E+00
 -1       780 1.44710E+00
 -1       781 1.30311E+00
 -1       782 1.45922E+00
 -1       783 1.40156E+00
 -1       784 1.24211E+00
 -1       785 1.12594E+00
 -1       786 1.03374E+00
 -1       787 8.75046E-01
 -1       788 7.20490E-01
 -1       789 5.52147E-01
 -1       790 3.95551E-01
 -1       791 2.90221E-01
 -1       792 6.33081E-01
 -1       793 8.16822E-01
 -1       794 2.93557E+00
 -1       795 2.67880E+00
 -1       796 5.60530E-01
 -1       797 6.57838E+00
 -1       798 4.68664E+00
 -1       799 1.87174E-01
 -1       800 7.94045E+00
 -1       801 4.93715E-01
 -1       802 2.67904E-01
 -1       803 2.88577E-01
 -1       804 8.98840E+00
 -1       805 1.19227E+01
 -1       806 1.06367E+01
 -1       807 2.81435E-01
 -1       808 4.08376E+00
 -1       809 2.48864E-01
 -1       810 3.73226E+00
 -1       811 2.61607E+00
 -1       812 2.68500E-01
 -1       813 3.60251E-01
 -1       814 3.44724E+00
 -1       815 2.79590E-01
 -1       816 4.34330E-01
 -1       817 1.06698E+00
 -1       818 3.64079E+00
 -1       819 2.93226E+00
 -1       820 2.82172E-01
 -1       821 4.19632E+00
 -1       822 2.88577E-01
 -1       823 2.88355E-01
 -1       824 6.27240E+00
 -1       825 1.22917E-01
 -1       826 8.77346E-01
 -1       827 1.25352E-01
 -1       828 1.43024E-01
 -1       829 1.42905E-01
 -1       830 1.73831E-01
 -1       831 1.81655E-01
 -1       832 1.74055E-01
 -1       833 1.57872E-01
 -1       834 1.37596E-01
 -1       835 1.21091E-01
 -1       836 1.03892E-01
 -1       837 8.62666E-02
 -1       838 6.92639E-02
 -1       839 5.34110E-02
 -1       840 3.88890E-02
 -1       841 3.82607E-02
 -1       842 4.37285E-02
 -1       843 6.29238E-02
 -1       844 1.02007E-01
 -1       845 1.45755E-01
 -1       846 2.30944E-01
 -1       847 3.62516E-01
 -1       848 5.61488E-01
 -1       849 8.52670E-01
 -1       850 1.25426E+00
 -1       851 2.18576E+00
 -1       852 3.49963E+00
 -1       853 5.94349E+00
 -1       854 1.55634E+00
 -1       855 9.83960E-02
 -1       856 1.16686E-01
 -1       857 1.33824E-01
 -1       858 8.03347E-02
 -1       859 6.32240E-02
 -1       860 4.73055E-02
 -1       861 3.24822E-02
 -1       862 2.07604E-02
 -1       863 1.60555E-02
 -1       864 2.53161E-02
 -1       865 4.05968E-02
 -1       866 6.08487E-02
 -1       867 1.01197E-01
 -1       868 1.61495E-01
 -1       869 2.40551E-01
 -1       870 3.34920E-01
 -1       871 4.74178E-01
 -1       872 6.51534E-01
 -1       873 8.62694E-01
 -1       874 1.04122E+00
 -1       875 1.23363E+00
 -1       876 1.31875E+00
 -1       877 1.41767E+00
 -1       878 1.68665E+00
 -1       879 1.73436E+00
 -1       880 1.78660E+00
 -1       881 1.67049E+00
 -1       882 1.40156E+00
 -1       883 1.34120E+00
 -1       884 1.23840E+00
 -1       885 1.03374E+00
 -1       886 8.53036E-01
 -1       887 6.46662E-01
 -1       888 4.62105E-01
 -1       889 9.71313E-01
 -1       890 6.48012E+00
 -1       891 5.65450E+00
 -1       892 5.10349E+00
 -1       893 2.22134E+00
 -1       894 4.14628E-01
 -1       895 9.71313E-01
 -1       896 9.00574E-01
 -1       897 1.97421E+00
 -1       898 2.88355E-01
 -1       899 2.50375E+00
 -1       900 8.77346E-01
 -1       901 2.99593E+00
 -1       902 3.57658E+00
 -1       903 1.87302E-01
 -1       904 3.29538E+00
 -1       905 2.53611E+00
 -1       906 1.73680E-01
 -1       907 2.88152E+00
 -1       908 2.67880E+00
 -1       909 1.17429E+00
 -1       910 3.91676E+00
 -1       911 1.53156E-01
 -1       912 2.74729E+00
 -1       913 1.73364E-01
 -1       914 2.42331E+00
 -1       915 4.31792E+00
 -1       916 6.19425E+00
 -1       917 2.16319E-01
 -1       918 2.16319E-01
 -1       919 6.02162E+00
 -1       920 1.73225E-01
 -1       921 2.81868E+00
 -1       922 5.04391E+00
 -1       923 1.39154E-01
 -1       924 1.23052E-01
 -1       925 1.35207E-01
 -1       926 1.34217E-01
 -1       927 1.24964E-01
 -1       928 1.11118E-01
 -1       929 9.62324E-02
 -1       930 8.32244E-02
 -1       931 6.96538E-02
 -1       932 5.65145E-02
 -1       933 4.44308E-02
 -1       934 4.23359E-02
 -1       935 4.42667E-02
 -1       936 5.86699E-02
 -1       937 8.80584E-02
 -1       938 1.23407E-01
 -1       939 1.80932E-01
 -1       940 2.62846E-01
 -1       941 3.73677E-01
 -1       942 6.28147E-01
 -1       943 1.02137E+00
 -1       944 1.56349E+00
 -1       945 2.33581E+00
 -1       946 9.40558E-02
 -1       947 1.90468E-01
 -1       948 6.58139E-02
 -1       949 8.00331E-02
 -1       950 1.07422E-01
 -1       951 5.19996E-02
 -1       952 3.87358E-02
 -1       953 3.27381E-02
 -1       954 2.82446E-02
 -1       955 3.13297E-02
 -1       956 4.26286E-02
 -1       957 6.55724E-02
 -1       958 9.84755E-02
 -1       959 1.39937E-01
 -1       960 2.15080E-01
 -1       961 3.31086E-01
 -1       962 4.74178E-01
 -1       963 6.28458E-01
 -1       964 8.59599E-01
 -1       965 1.10493E+00
 -1       966 1.23363E+00
 -1       967 2.06096E+00
 -1       968 1.64206E+00
 -1       969 2.42331E+00
 -1       970 2.19909E+00
 -1       971 3.57658E+00
 -1       972 3.29538E+00
 -1       973 1.92473E+00
 -1       974 1.58580E+00
 -1       975 1.34120E+00
 -1       976 1.23840E+00
 -1       977 1.05850E+00
 -1       978 1.06074E+00
 -1       979 5.77294E-01
 -1       980 1.42193E-01
 -1       981 2.12536E-01
 -1       982 2.16386E+00
 -1       983 1.40607E+00
 -1       984 1.80978E-01
 -1       985 2.02988E-01
 -1       986 5.10349E+00
 -1       987 3.30336E+00
 -1       988 1.69313E+00
 -1       989 1.26544E+00
 -1       990 2.37954E+00
 -1       991 3.91963E+00
 -1       992 2.53611E+00
 -1       993 1.35904E-01
 -1       994 1.55218E-01
 -1       995 2.31488E+00
 -1       996 1.71740E+00
 -1       997 1.23246E-01
 -1       998 3.36884E+00
 -1       999 1.82815E+00
 -1      1000 1.26544E+00
 -1      1001 2.81868E+00
 -1      1002 4.47086E+00
 -1      1003 2.76197E+00
 -1      1004 1.69150E-01
 -1      1005 1.38103E-01
 -1      1006 1.03452E-01
 -1      1007 1.69150E-01
 -1      1008 2.28886E+00
 -1      1009 5.13391E-02
 -1      1010 8.94304E-02
 -1      1011 1.01245E-01
 -1      1012 1.02368E-01
 -1      1013 9.66123E-02
 -1      1014 8.68637E-02
 -1      1015 7.51667E-02
 -1      1016 6.35219E-02
 -1      1017 5.36261E-02
 -1      1018 4.74398E-02
 -1      1019 4.40225E-02
 -1      1020 4.56676E-02
 -1      1021 5.40748E-02
 -1      1022 7.33841E-02
 -1      1023 9.35820E-02
 -1      1024 1.25488E-01
 -1      1025 1.96486E-01
 -1      1026 3.11663E-01
 -1      1027 4.79523E-01
 -1      1028 7.14183E-01
 -1      1029 1.05175E+00
 -1      1030 1.58795E+00
 -1      1031 8.53063E-02
 -1      1032 4.53975E-02
 -1      1033 3.68302E+00
 -1      1034 4.19479E-02
 -1      1035 3.96013E-02
 -1      1036 3.92078E-02
 -1      1037 4.91624E-02
 -1      1038 6.85686E-02
 -1      1039 9.75283E-02
 -1      1040 1.53777E-01
 -1      1041 2.29913E-01
 -1      1042 3.23228E-01
 -1      1043 4.35869E-01
 -1      1044 6.26447E-01
 -1      1045 8.59599E-01
 -1      1046 1.10493E+00
 -1      1047 1.38562E+00
 -1      1048 2.53611E+00
 -1      1049 1.82815E+00
 -1      1050 1.38718E+00
 -1      1051 1.13122E+00
 -1      1052 1.01309E-01
 -1      1053 3.06600E+00
 -1      1054 1.53287E-01
 -1      1055 2.21181E+00
 -1      1056 3.11684E+00
 -1      1057 1.58580E+00
 -1      1058 1.96219E+00
 -1      1059 6.21192E-02
 -1      1060 9.67181E-02
 -1      1061 7.26820E-02
 -1      1062 2.55053E+00
 -1      1063 1.34107E+00
 -1      1064 1.07932E-01
 -1      1065 2.34521E+00
 -1      1066 1.01119E-01
 -1      1067 1.09598E-01
 -1      1068 1.01309E-01
 -1      1069 2.18550E+00
 -1      1070 1.51173E+00
 -1      1071 7.42791E-02
 -1      1072 7.53732E-02
 -1      1073 7.14429E-02
 -1      1074 6.76683E-02
 -1      1075 6.32166E-02
 -1      1076 5.76698E-02
 -1      1077 5.22595E-02
 -1      1078 4.78622E-02
 -1      1079 4.50978E-02
 -1      1080 4.67296E-02
 -1      1081 6.11561E-02
 -1      1082 9.03123E-02
 -1      1083 1.35855E-01
 -1      1084 2.04336E-01
 -1      1085 3.01984E-01
 -1      1086 4.31989E-01
 -1      1087 6.01061E-01
 -1      1088 8.87051E-01
 -1      1089 1.17842E+00
 -1      1090 4.43935E-02
 -1      1091 1.05100E-01
 -1      1092 4.67296E-02
 -1      1093 4.53975E-02
 -1      1094 6.11561E-02
 -1      1095 9.03123E-02
 -1      1096 1.35855E-01
 -1      1097 2.04336E-01
 -1      1098 3.01984E-01
 -1      1099 4.31989E-01
 -1      1100 6.16054E-01
 -1      1101 8.87051E-01
 -1      1102 1.17842E+00
 -1      1103 1.50828E+00
 -1      1104 1.82815E+00
 -1      1105 5.58721E-02
 -1      1106 2.11168E+00
 -1      1107 6.41704E-02
 -1      1108 1.09598E-01
 -1      1109 2.07902E+00
 -1      1110 5.00017E-02
 -1      1111 1.97504E+00
 -1      1112 5.54810E-02
 -1      1113 7.27348E-02
 -1      1114 7.46526E-02
 -1      1115 8.01243E-02
 -1      1116 6.18615E-02
 -1      1117 6.62528E-02
 -1      1118 6.12271E-02
 -1      1119 7.85547E-02
 -1      1120 1.31432E+01
 -1      1121 8.40332E+00
 -1      1122 2.74507E+00
 -1      1123 1.55839E+00
 -1      1124 1.16690E+00
 -1      1125 9.71776E-01
 -1      1126 8.54295E-01
 -1      1127 7.81213E-01
 -1      1128 7.54688E-01
 -1      1129 7.84346E-01
 -1      1130 8.56861E-01
 -1      1131 9.76753E-01
 -1      1132 1.17961E+00
 -1      1133 1.56888E+00
 -1      1134 2.66984E+00
 -1      1135 6.07493E+00
 -1      1136 1.13403E+01
 -1      1137 1.31432E+01
 -1      1138 8.73067E+00
 -1      1139 3.82970E+00
 -1      1140 2.72635E+00
 -1      1141 1.73709E+00
 -1      1142 1.18869E+00
 -1      1143 8.95327E-01
 -1      1144 6.86176E-01
 -1      1145 5.26401E-01
 -1      1146 4.02540E-01
 -1      1147 3.09339E-01
 -1      1148 2.38437E-01
 -1      1149 1.82019E-01
 -1      1150 1.38077E-01
 -1      1151 1.04749E-01
 -1      1152 8.04710E-02
 -1      1153 6.49198E-02
 -1      1154 5.87350E-02
 -1      1155 6.47079E-02
 -1      1156 8.40924E-02
 -1      1157 1.18515E-01
 -1      1158 1.75419E-01
 -1      1159 2.66308E-01
 -1      1160 4.21862E-01
 -1      1161 6.47561E-01
 -1      1162 9.66415E-01
 -1      1163 1.41902E+00
 -1      1164 1.99916E+00
 -1      1165 2.89088E+00
 -1      1166 4.14176E+00
 -1      1167 5.63970E+00
 -1      1168 6.56915E+00
 -1      1169 6.68039E+00
 -1      1170 7.32229E+00
 -1      1171 1.31391E+01
 -1      1172 1.83770E+01
 -1      1173 1.84402E+01
 -1      1174 1.52872E+01
 -1      1175 8.48518E+00
 -1      1176 5.34473E+00
 -1      1177 5.85332E+00
 -1      1178 5.58108E+00
 -1      1179 4.67822E+00
 -1      1180 3.49632E+00
 -1      1181 2.55441E+00
 -1      1182 1.87176E+00
 -1      1183 1.34459E+00
 -1      1184 9.34524E-01
 -1      1185 6.24250E-01
 -1      1186 3.98205E-01
 -1      1187 2.02464E-01
 -1      1188 1.40391E+01
 -1      1189 8.71751E+00
 -1      1190 2.90684E+00
 -1      1191 2.04268E+00
 -1      1192 1.40769E+00
 -1      1193 1.02750E+00
 -1      1194 8.19979E-01
 -1      1195 6.61053E-01
 -1      1196 5.29824E-01
 -1      1197 4.20712E-01
 -1      1198 3.33927E-01
 -1      1199 2.65961E-01
 -1      1200 2.09936E-01
 -1      1201 1.64196E-01
 -1      1202 1.27711E-01
 -1      1203 9.92510E-02
 -1      1204 7.74792E-02
 -1      1205 6.16555E-02
 -1      1206 5.28363E-02
 -1      1207 4.91104E-02
 -1      1208 4.68370E-02
 -1      1209 5.16235E-02
 -1      1210 6.65875E-02
 -1      1211 9.99989E-02
 -1      1212 1.58160E-01
 -1      1213 2.30657E-01
 -1      1214 3.11257E-01
 -1      1215 4.32194E-01
 -1      1216 5.96260E-01
 -1      1217 7.59306E-01
 -1      1218 8.86593E-01
 -1      1219 1.11883E+00
 -1      1220 1.50772E+00
 -1      1221 1.86854E+00
 -1      1222 2.08373E+00
 -1      1223 2.23386E+00
 -1      1224 2.35423E+00
 -1      1225 2.38497E+00
 -1      1226 2.28755E+00
 -1      1227 2.00527E+00
 -1      1228 1.61697E+00
 -1      1229 1.22699E+00
 -1      1230 8.74983E-01
 -1      1231 5.77918E-01
 -1      1232 3.64684E-01
 -1      1233 2.26361E-01
 -1      1234 1.30729E-01
 -1      1235 6.85376E-02
 -1      1236 3.33212E-02
 -1      1237 1.28009E-02
 -1      1238 6.31401E-03
 -1      1239 8.21245E-03
 -1      1240 1.57229E-02
 -1      1241 3.02257E-02
 -1      1242 4.03382E-02
 -1      1243 4.36136E-02
 -1      1244 4.14574E-02
 -1      1245 3.01131E-02
 -1      1246 3.72049E-02
 -1      1247 6.93170E-02
 -1      1248 9.13839E-02
 -1      1249 9.76186E-02
 -1      1250 8.95896E-02
 -1      1251 6.67145E-02
 -1      1252 6.66057E-02
 -1      1253 8.13429E-02
 -1      1254 8.93812E-02
 -1      1255 2.38709E+01
 -1      1256 3.25473E+01
 -1      1257 4.12236E+01
 -1      1258 2.83976E+01
 -1      1259 1.37033E+01
 -1      1260 1.20014E+01
 -1      1261 1.24340E+01
 -1      1262 1.27002E+01
 -1      1263 1.23660E+01
 -1      1264 1.43586E+01
 -1      1265 2.93854E+01
 -1      1266 4.20853E+01
 -1      1267 3.33422E+01
 -1      1268 2.45990E+01
 -1      1269 2.46497E+01
 -1      1270 2.47003E+01
 -1      1271 3.18096E+01
 -1      1272 3.89189E+01
 -1      1273 2.79833E+01
 -1      1274 1.63250E+01
 -1      1275 1.56024E+01
 -1      1276 1.47692E+01
 -1      1277 1.40796E+01
 -1      1278 1.76978E+01
 -1      1279 3.39357E+01
 -1      1280 4.66988E+01
 -1      1281 3.66427E+01
 -1      1282 2.56325E+01
 -1      1283 2.42747E+01
 -1      1284 1.31432E+01
 -1      1285 4.87053E+00
 -1      1286 9.61036E+00
 -1      1287 2.06365E+00
 -1      1288 2.98206E+00
 -1      1289 4.18910E+00
 -1      1290 1.39799E+00
 -1      1291 1.66626E+00
 -1      1292 1.90325E+00
 -1      1293 1.10095E+00
 -1      1294 1.22417E+00
 -1      1295 1.33205E+00
 -1      1296 9.35931E-01
 -1      1297 1.00784E+00
 -1      1298 1.06511E+00
 -1      1299 8.36502E-01
 -1      1300 8.82077E-01
 -1      1301 9.18137E-01
 -1      1302 7.74793E-01
 -1      1303 8.02301E-01
 -1      1304 8.30083E-01
 -1      1305 7.55671E-01
 -1      1306 7.54688E-01
 -1      1307 7.75776E-01
 -1      1308 8.06168E-01
 -1      1309 7.77493E-01
 -1      1310 7.77493E-01
 -1      1311 8.83886E-01
 -1      1312 8.40045E-01
 -1      1313 8.33193E-01
 -1      1314 1.01689E+00
 -1      1315 9.40843E-01
 -1      1316 9.24027E-01
 -1      1317 1.23902E+00
 -1      1318 1.11222E+00
 -1      1319 1.07631E+00
 -1      1320 1.67929E+00
 -1      1321 1.41682E+00
 -1      1322 1.34943E+00
 -1      1323 2.88377E+00
 -1      1324 2.04528E+00
 -1      1325 1.89322E+00
 -1      1326 6.28733E+00
 -1      1327 3.72074E+00
 -1      1328 3.09617E+00
 -1      1329 1.40391E+01
 -1      1330 1.13403E+01
 -1      1331 8.98610E+00
 -1      1332 1.40391E+01
 -1      1333 8.73067E+00
 -1      1334 4.31819E+00
 -1      1335 3.82970E+00
 -1      1336 3.34122E+00
 -1      1337 3.82970E+00
 -1      1338 2.72635E+00
 -1      1339 2.11148E+00
 -1      1340 2.72635E+00
 -1      1341 1.77939E+00
 -1      1342 1.40500E+00
 -1      1343 1.77939E+00
 -1      1344 1.19415E+00
 -1      1345 1.02015E+00
 -1      1346 1.23645E+00
 -1      1347 8.95327E-01
 -1      1348 7.75961E-01
 -1      1349 9.00779E-01
 -1      1350 6.86176E-01
 -1      1351 5.96390E-01
 -1      1352 6.86176E-01
 -1      1353 5.32563E-01
 -1      1354 4.62574E-01
 -1      1355 5.32563E-01
 -1      1356 4.12619E-01
 -1      1357 3.58747E-01
 -1      1358 4.18781E-01
 -1      1359 3.19463E-01
 -1      1360 2.80135E-01
 -1      1361 3.29542E-01
 -1      1362 2.51771E-01
 -1      1363 2.20197E-01
 -1      1364 2.61895E-01
 -1      1365 1.96124E-01
 -1      1366 1.71279E-01
 -1      1367 2.09457E-01
 -1      1368 1.51403E-01
 -1      1369 1.32307E-01
 -1      1370 1.65509E-01
 -1      1371 1.16302E-01
 -1      1372 1.02071E-01
 -1      1373 1.29629E-01
 -1      1374 8.94947E-02
 -1      1375 7.94481E-02
 -1      1376 1.01048E-01
 -1      1377 6.98009E-02
 -1      1378 6.42962E-02
 -1      1379 7.88246E-02
 -1      1380 5.70443E-02
 -1      1381 5.63642E-02
 -1      1382 6.19254E-02
 -1      1383 6.04652E-02
 -1      1384 6.71183E-02
 -1      1385 5.87745E-02
 -1      1386 7.63661E-02
 -1      1387 8.90975E-02
 -1      1388 7.21233E-02
 -1      1389 1.04706E-01
 -1      1390 1.26397E-01
 -1      1391 9.69795E-02
 -1      1392 1.51329E-01
 -1      1393 1.86542E-01
 -1      1394 1.37520E-01
 -1      1395 2.25209E-01
 -1      1396 2.80885E-01
 -1      1397 2.01119E-01
 -1      1398 3.56965E-01
 -1      1399 4.56843E-01
 -1      1400 3.15866E-01
 -1      1401 5.86723E-01
 -1      1402 7.12544E-01
 -1      1403 5.21826E-01
 -1      1404 9.15420E-01
 -1      1405 1.10845E+00
 -1      1406 8.54582E-01
 -1      1407 1.41670E+00
 -1      1408 1.67627E+00
 -1      1409 1.36570E+00
 -1      1410 2.11518E+00
 -1      1411 2.43575E+00
 -1      1412 2.11286E+00
 -1      1413 2.99694E+00
 -1      1414 3.56808E+00
 -1      1415 3.11295E+00
 -1      1416 4.16310E+00
 -1      1417 4.84284E+00
 -1      1418 4.26916E+00
 -1      1419 5.26539E+00
 -1      1420 6.08360E+00
 -1      1421 5.28673E+00
 -1      1422 6.45791E+00
 -1      1423 6.56915E+00
 -1      1424 6.08360E+00
 -1      1425 7.41656E+00
 -1      1426 7.41656E+00
 -1      1427 7.30532E+00
 -1      1428 7.96271E+00
 -1      1429 8.60462E+00
 -1      1430 8.69889E+00
 -1      1431 8.12199E+00
 -1      1432 1.32968E+01
 -1      1433 8.76241E+00
 -1      1434 1.83139E+01
 -1      1435 1.83770E+01
 -1      1436 1.32968E+01
 -1      1437 1.52872E+01
 -1      1438 1.21342E+01
 -1      1439 8.62844E+00
 -1      1440 4.97940E+00
 -1      1441 8.62844E+00
 -1      1442 6.08722E+00
 -1      1443 6.59581E+00
 -1      1444 6.23047E+00
 -1      1445 6.28479E+00
 -1      1446 6.28479E+00
 -1      1447 7.02728E+00
 -1      1448 5.86811E+00
 -1      1449 5.59587E+00
 -1      1450 6.29958E+00
 -1      1451 5.24617E+00
 -1      1452 4.61554E+00
 -1      1453 5.53320E+00
 -1      1454 4.10842E+00
 -1      1455 3.55715E+00
 -1      1456 4.67638E+00
 -1      1457 2.97913E+00
 -1      1458 2.58850E+00
 -1      1459 3.59124E+00
 -1      1460 2.08698E+00
 -1      1461 1.79494E+00
 -1      1462 2.51169E+00
 -1      1463 1.41770E+00
 -1      1464 1.18256E+00
 -1      1465 1.63292E+00
 -1      1466 9.44243E-01
 -1      1467 7.69318E-01
 -1      1468 1.01736E+00
 -1      1469 6.42917E-01
 -1      1470 5.07568E-01
 -1      1471 6.52636E-01
 -1      1472 4.07960E-01
 -1      1473 3.17264E-01
 -1      1474 4.26627E-01
 -1      1475 2.25473E-01
 -1      1476 1.20429E-01
 -1      1477 1.12390E-01
 -1      1478 2.35229E-01
 -1      1479 3.39597E+00
 -1      1480 8.71751E+00
 -1      1481 8.71751E+00
 -1      1482 2.41771E+00
 -1      1483 2.90684E+00
 -1      1484 2.90684E+00
 -1      1485 1.66765E+00
 -1      1486 2.04268E+00
 -1      1487 2.04268E+00
 -1      1488 1.14773E+00
 -1      1489 1.40769E+00
 -1      1490 1.40769E+00
 -1      1491 9.07272E-01
 -1      1492 1.02750E+00
 -1      1493 1.02750E+00
 -1      1494 7.32686E-01
 -1      1495 8.19979E-01
 -1      1496 8.19979E-01
 -1      1497 5.89420E-01
 -1      1498 6.61053E-01
 -1      1499 6.61053E-01
 -1      1500 4.70228E-01
 -1      1501 5.29824E-01
 -1      1502 5.29824E-01
 -1      1503 3.71197E-01
 -1      1504 4.20712E-01
 -1      1505 4.20712E-01
 -1      1506 2.96657E-01
 -1      1507 3.33927E-01
 -1      1508 3.33927E-01
 -1      1509 2.35265E-01
 -1      1510 2.65961E-01
 -1      1511 2.65961E-01
 -1      1512 1.85423E-01
 -1      1513 2.10752E-01
 -1      1514 2.10752E-01
 -1      1515 1.45384E-01
 -1      1516 1.65795E-01
 -1      1517 1.66611E-01
 -1      1518 1.13387E-01
 -1      1519 1.29461E-01
 -1      1520 1.31060E-01
 -1      1521 8.83453E-02
 -1      1522 1.00731E-01
 -1      1523 1.02481E-01
 -1      1524 6.90544E-02
 -1      1525 7.84404E-02
 -1      1526 7.99205E-02
 -1      1527 5.52178E-02
 -1      1528 6.16555E-02
 -1      1529 6.26167E-02
 -1      1530 5.04549E-02
 -1      1531 5.28363E-02
 -1      1532 5.28363E-02
 -1      1533 4.77659E-02
 -1      1534 4.91104E-02
 -1      1535 4.91104E-02
 -1      1536 4.59082E-02
 -1      1537 4.68370E-02
 -1      1538 4.68370E-02
 -1      1539 5.31813E-02
 -1      1540 4.74660E-02
 -1      1541 4.74660E-02
 -1      1542 6.65875E-02
 -1      1543 5.73388E-02
 -1      1544 5.31813E-02
 -1      1545 1.04131E-01
 -1      1546 7.99681E-02
 -1      1547 7.07194E-02
 -1      1548 1.59517E-01
 -1      1549 1.25519E-01
 -1      1550 1.05488E-01
 -1      1551 2.30657E-01
 -1      1552 1.92158E-01
 -1      1553 1.59517E-01
 -1      1554 3.18395E-01
 -1      1555 2.76294E-01
 -1      1556 2.37795E-01
 -1      1557 4.87191E-01
 -1      1558 4.08355E-01
 -1      1559 3.73392E-01
 -1      1560 6.86221E-01
 -1      1561 6.00992E-01
 -1      1562 5.77153E-01
 -1      1563 8.95911E-01
 -1      1564 8.18095E-01
 -1      1565 8.22827E-01
 -1      1566 1.08273E+00
 -1      1567 1.03326E+00
 -1      1568 1.09205E+00
 -1      1569 1.42495E+00
 -1      1570 1.24218E+00
 -1      1571 1.38885E+00
 -1      1572 1.76160E+00
 -1      1573 1.55548E+00
 -1      1574 1.67883E+00
 -1      1575 1.98590E+00
 -1      1576 1.83120E+00
 -1      1577 1.87896E+00
 -1      1578 2.08373E+00
 -1      1579 2.02323E+00
 -1      1580 1.98590E+00
 -1      1581 2.23386E+00
 -1      1582 2.14423E+00
 -1      1583 2.08373E+00
 -1      1584 2.35423E+00
 -1      1585 2.32349E+00
 -1      1586 2.23386E+00
 -1      1587 2.38497E+00
 -1      1588 2.38497E+00
 -1      1589 2.35423E+00
 -1      1590 2.19013E+00
 -1      1591 2.28755E+00
 -1      1592 2.28755E+00
 -1      1593 1.82042E+00
 -1      1594 2.00527E+00
 -1      1595 2.00527E+00
 -1      1596 1.41353E+00
 -1      1597 1.61697E+00
 -1      1598 1.61697E+00
 -1      1599 1.05282E+00
 -1      1600 1.23936E+00
 -1      1601 1.23936E+00
 -1      1602 7.37574E-01
 -1      1603 9.03049E-01
 -1      1604 9.15416E-01
 -1      1605 4.79331E-01
 -1      1606 6.10920E-01
 -1      1607 6.38987E-01
 -1      1608 3.00269E-01
 -1      1609 3.81913E-01
 -1      1610 4.14916E-01
 -1      1611 1.75042E-01
 -1      1612 2.31720E-01
 -1      1613 2.48949E-01
 -1      1614 9.24710E-02
 -1      1615 1.31426E-01
 -1      1616 1.36784E-01
 -1      1617 4.67673E-02
 -1      1618 7.00040E-02
 -1      1619 7.07007E-02
 -1      1620 2.17394E-02
 -1      1621 3.37191E-02
 -1      1622 3.51855E-02
 -1      1623 1.48545E-02
 -1      1624 1.56390E-02
 -1      1625 1.57942E-02
 -1      1626 3.44351E-02
 -1      1627 2.67694E-02
 -1      1628 3.43512E-02
 -1      1629 5.25731E-02
 -1      1630 4.57360E-02
 -1      1631 5.67825E-02
 -1      1632 6.29825E-02
 -1      1633 5.97071E-02
 -1      1634 7.52175E-02
 -1      1635 6.41745E-02
 -1      1636 6.41745E-02
 -1      1637 8.35435E-02
 -1      1638 6.20183E-02
 -1      1639 6.41745E-02
 -1      1640 8.47354E-02
 -1      1641 4.68103E-02
 -1      1642 5.59984E-02
 -1      1643 7.87155E-02
 -1      1644 6.62814E-02
 -1      1645 5.00015E-02
 -1      1646 7.58868E-02
 -1      1647 1.16448E-01
 -1      1648 1.00616E-01
 -1      1649 1.13412E-01
 -1      1650 1.41305E-01
 -1      1651 1.35070E-01
 -1      1652 1.66369E-01
 -1      1653 1.43806E-01
 -1      1654 1.43806E-01
 -1      1655 1.87492E-01
 -1      1656 1.35776E-01
 -1      1657 1.43806E-01
 -1      1658 1.89993E-01
 -1      1659 1.01139E-01
 -1      1660 1.15985E-01
 -1      1661 1.70201E-01
 -1      1662 1.00343E-01
 -1      1663 8.56058E-02
 -1      1664 1.34877E-01
 -1      1665 1.37172E-01
 -1      1666 1.37172E-01
 -1      1667 1.56172E-01
 -1      1668 1.68219E-01
 -1      1669 2.58003E+01
 -1      1670 2.58003E+01
 -1      1671 3.89600E+01
 -1      1672 3.02836E+01
 -1      1673 4.12236E+01
 -1      1674 4.12236E+01
 -1      1675 1.55715E+01
 -1      1676 2.83976E+01
 -1      1677 1.14468E+01
 -1      1678 1.33151E+01
 -1      1679 1.20014E+01
 -1      1680 1.18351E+01
 -1      1681 1.24340E+01
 -1      1682 1.21677E+01
 -1      1683 1.27002E+01
 -1      1684 1.27002E+01
 -1      1685 1.20317E+01
 -1      1686 1.23660E+01
 -1      1687 1.39358E+01
 -1      1688 1.16088E+01
 -1      1689 2.93854E+01
 -1      1690 1.66855E+01
 -1      1691 4.20853E+01
 -1      1692 4.20853E+01
 -1      1693 3.06838E+01
 -1      1694 3.94270E+01
 -1      1695 2.58503E+01
 -1      1696 2.58503E+01
 -1      1697 2.75235E+01
 -1      1698 2.74729E+01
 -1      1699 2.75235E+01
 -1      1700 2.75235E+01
 -1      1701 3.74516E+01
 -1      1702 3.03423E+01
 -1      1703 3.89189E+01
 -1      1704 3.89189E+01
 -1      1705 1.70477E+01
 -1      1706 2.79833E+01
 -1      1707 1.50522E+01
 -1      1708 1.57749E+01
 -1      1709 1.57235E+01
 -1      1710 1.57235E+01
 -1      1711 1.48903E+01
 -1      1712 1.57235E+01
 -1      1713 1.38069E+01
 -1      1714 1.36634E+01
 -1      1715 1.76978E+01
 -1      1716 1.42231E+01
 -1      1717 3.42649E+01
 -1      1718 2.15017E+01
 -1      1719 4.66988E+01
 -1      1720 4.66988E+01
 -1      1721 3.17900E+01
 -1      1722 4.18461E+01
 -1      1723 4.18461E+01
 -1      1724 2.59965E+01
 -1      1725 2.69505E+01
 -1      1726 2.58003E+01
 -1      1727 2.62041E+01
 -1      1728 1.84402E+01
 -1      1729 1.84402E+01
 -1      1730 2.77297E+01
 -1      1731 2.83976E+01
 -1      1732 1.83770E+01
 -1      1733 1.52525E-02
 -1      1734 2.26790E-02
 -1      1735 3.22131E+01
 -1      1736 3.89600E+01
 -1      1737 1.33151E+01
 -1      1738 1.14468E+01
 -1      1739 1.20014E+01
 -1      1740 1.24340E+01
 -1      1741 1.23660E+01
 -1      1742 1.16088E+01
 -1      1743 1.39358E+01
 -1      1744 2.93854E+01
 -1      1745 3.94270E+01
 -1      1746 3.19351E+01
 -1      1747 2.87242E+01
 -1      1748 3.03467E+01
 -1      1749 3.31655E+01
 -1      1750 3.74516E+01
 -1      1751 2.79833E+01
 -1      1752 1.57749E+01
 -1      1753 1.51733E+01
 -1      1754 1.58446E+01
 -1      1755 1.46176E+01
 -1      1756 1.38069E+01
 -1      1757 1.80270E+01
 -1      1758 3.42649E+01
 -1      1759 2.75221E+01
 -1      1760 1.52872E+01
 -1      1761 9.61036E+00
 -1      1762 3.21540E+01
 -1      1763 1.28813E+00
 -1      1764 1.68551E+00
 -1      1765 2.38988E+00
 -1      1766 4.27835E+00
 -1      1767 1.77476E+00
 -1      1768 8.80427E-01
 -1      1769 9.73545E-01
 -1      1770 7.79656E-01
 -1      1771 8.33509E-01
 -1      1772 7.41946E-01
 -1      1773 7.13854E-01
 -1      1774 7.48055E-01
 -1      1775 6.63428E-01
 -1      1776 6.71591E-01
 -1      1777 6.91696E-01
 -1      1778 6.09669E-01
 -1      1779 6.95021E-01
 -1      1780 6.73199E-01
 -1      1781 5.89119E-01
 -1      1782 7.50764E-01
 -1      1783 7.16886E-01
 -1      1784 6.12592E-01
 -1      1785 8.41090E-01
 -1      1786 7.84134E-01
 -1      1787 6.67827E-01
 -1      1788 9.84032E-01
 -1      1789 8.88706E-01
 -1      1790 7.48813E-01
 -1      1791 1.22890E+00
 -1      1792 1.05110E+00
 -1      1793 8.63496E-01
 -1      1794 1.70198E+00
 -1      1795 1.33599E+00
 -1      1796 1.03766E+00
 -1      1797 2.63131E+00
 -1      1798 1.79435E+00
 -1      1799 1.23712E+00
 -1      1800 8.11780E+00
 -1      1801 3.06484E+00
 -1      1802 1.76302E+00
 -1      1803 2.79626E+00
 -1      1804 5.19788E+00
 -1      1805 2.16523E+00
 -1      1806 2.65436E+00
 -1      1807 2.05465E+00
 -1      1808 2.70499E+01
 -1      1809 3.18894E+01
 -1      1810 3.39866E+00
 -1      1811 2.53540E+00
 -1      1812 1.92053E+00
 -1      1813 1.68946E+00
 -1      1814 1.35737E+00
 -1      1815 1.49851E+00
 -1      1816 1.17710E+00
 -1      1817 9.66246E-01
 -1      1818 1.08717E+00
 -1      1819 8.40704E-01
 -1      1820 7.15885E-01
 -1      1821 7.81352E-01
 -1      1822 6.57488E-01
 -1      1823 5.67703E-01
 -1      1824 5.97413E-01
 -1      1825 5.19187E-01
 -1      1826 4.55360E-01
 -1      1827 4.90500E-01
 -1      1828 4.12622E-01
 -1      1829 3.62667E-01
 -1      1830 3.99246E-01
 -1      1831 3.29669E-01
 -1      1832 2.90385E-01
 -1      1833 3.23510E-01
 -1      1834 2.62729E-01
 -1      1835 2.34365E-01
 -1      1836 2.62855E-01
 -1      1837 2.10592E-01
 -1      1838 1.86519E-01
 -1      1839 2.11426E-01
 -1      1840 1.68159E-01
 -1      1841 1.48284E-01
 -1      1842 1.69294E-01
 -1      1843 1.33358E-01
 -1      1844 1.17354E-01
 -1      1845 1.36009E-01
 -1      1846 1.04663E-01
 -1      1847 9.20864E-02
 -1      1848 1.08392E-01
 -1      1849 8.14242E-02
 -1      1850 7.17769E-02
 -1      1851 8.50388E-02
 -1      1852 6.27526E-02
 -1      1853 5.55007E-02
 -1      1854 6.53523E-02
 -1      1855 5.39616E-02
 -1      1856 5.80626E-02
 -1      1857 5.47888E-02
 -1      1858 6.28755E-02
 -1      1859 7.21233E-02
 -1      1860 5.80626E-02
 -1      1861 8.13712E-02
 -1      1862 9.69795E-02
 -1      1863 7.21233E-02
 -1      1864 1.22088E-01
 -1      1865 1.47021E-01
 -1      1866 1.06480E-01
 -1      1867 1.87775E-01
 -1      1868 2.26442E-01
 -1      1869 1.72344E-01
 -1      1870 2.92899E-01
 -1      1871 3.68979E-01
 -1      1872 2.79554E-01
 -1      1873 4.71487E-01
 -1      1874 6.01367E-01
 -1      1875 4.48519E-01
 -1      1876 7.58191E-01
 -1      1877 9.61066E-01
 -1      1878 7.07851E-01
 -1      1879 1.20020E+00
 -1      1880 1.50845E+00
 -1      1881 1.10381E+00
 -1      1882 1.86496E+00
 -1      1883 2.30387E+00
 -1      1884 1.69946E+00
 -1      1885 2.81720E+00
 -1      1886 3.37839E+00
 -1      1887 2.56930E+00
 -1      1888 4.07997E+00
 -1      1889 4.67498E+00
 -1      1890 3.78421E+00
 -1      1891 5.56294E+00
 -1      1892 5.98550E+00
 -1      1893 5.37375E+00
 -1      1894 7.08796E+00
 -1      1895 7.46227E+00
 -1      1896 7.36417E+00
 -1      1897 8.28970E+00
 -1      1898 9.13711E+00
 -1      1899 9.29407E+00
 -1      1900 9.48968E+00
 -1      1901 1.00358E+01
 -1      1902 1.04741E+01
 -1      1903 3.48319E+01
 -1      1904 3.48319E+01
 -1      1905 7.22727E+00
 -1      1906 8.33509E+00
 -1      1907 8.11502E+00
 -1      1908 7.80400E+00
 -1      1909 6.71626E+00
 -1      1910 6.29958E+00
 -1      1911 7.80400E+00
 -1      1912 5.92467E+00
 -1      1913 5.57497E+00
 -1      1914 6.34135E+00
 -1      1915 4.90715E+00
 -1      1916 4.40003E+00
 -1      1917 5.29862E+00
 -1      1918 3.76792E+00
 -1      1919 3.18990E+00
 -1      1920 3.99869E+00
 -1      1921 2.66161E+00
 -1      1922 2.16008E+00
 -1      1923 2.83829E+00
 -1      1924 1.76244E+00
 -1      1925 1.38520E+00
 -1      1926 1.91236E+00
 -1      1927 1.10458E+00
 -1      1928 8.66263E-01
 -1      1929 1.23410E+00
 -1      1930 6.77565E-01
 -1      1931 5.51164E-01
 -1      1932 7.64791E-01
 -1      1933 4.26627E-01
 -1      1934 3.27019E-01
 -1      1935 4.51556E-01
 -1      1936 2.60010E-01
 -1      1937 1.14096E+00
 -1      1938 1.40092E+00
 -1      1939 8.60937E-01
 -1      1940 9.81168E-01
 -1      1941 9.74396E-01
 -1      1942 6.81999E-01
 -1      1943 7.69292E-01
 -1      1944 7.22956E-01
 -1      1945 5.53297E-01
 -1      1946 6.24930E-01
 -1      1947 5.74243E-01
 -1      1948 4.43850E-01
 -1      1949 5.03446E-01
 -1      1950 4.67323E-01
 -1      1951 3.53527E-01
 -1      1952 4.03043E-01
 -1      1953 3.76665E-01
 -1      1954 2.83980E-01
 -1      1955 3.21250E-01
 -1      1956 3.03580E-01
 -1      1957 2.25842E-01
 -1      1958 2.56538E-01
 -1      1959 2.43861E-01
 -1      1960 1.79545E-01
 -1      1961 2.04057E-01
 -1      1962 1.94634E-01
 -1      1963 1.42722E-01
 -1      1964 1.62350E-01
 -1      1965 1.55656E-01
 -1      1966 1.12006E-01
 -1      1967 1.27929E-01
 -1      1968 1.23669E-01
 -1      1969 8.68613E-02
 -1      1970 9.95169E-02
 -1      1971 9.63866E-02
 -1      1972 6.65320E-02
 -1      1973 7.64370E-02
 -1      1974 7.34727E-02
 -1      1975 5.24216E-02
 -1      1976 5.98205E-02
 -1      1977 5.63369E-02
 -1      1978 4.76496E-02
 -1      1979 5.00311E-02
 -1      1980 4.72349E-02
 -1      1981 4.46526E-02
 -1      1982 4.59971E-02
 -1      1983 4.31918E-02
 -1      1984 4.23431E-02
 -1      1985 4.32719E-02
 -1      1986 4.01586E-02
 -1      1987 4.66621E-02
 -1      1988 4.51042E-02
 -1      1989 4.15391E-02
 -1      1990 5.31813E-02
 -1      1991 4.90239E-02
 -1      1992 4.66621E-02
 -1      1993 6.56752E-02
 -1      1994 5.22946E-02
 -1      1995 4.81371E-02
 -1      1996 9.76647E-02
 -1      1997 7.62764E-02
 -1      1998 5.78515E-02
 -1      1999 1.67721E-01
 -1      2000 1.35081E-01
 -1      2001 1.05869E-01
 -1      2002 2.67191E-01
 -1      2003 2.21554E-01
 -1      2004 1.97117E-01
 -1      2005 4.28922E-01
 -1      2006 3.38962E-01
 -1      2007 3.22721E-01
 -1      2008 6.31466E-01
 -1      2009 5.17665E-01
 -1      2010 4.83235E-01
 -1      2011 8.64470E-01
 -1      2012 7.32596E-01
 -1      2013 6.73109E-01
 -1      2014 1.12401E+00
 -1      2015 9.86660E-01
 -1      2016 8.96430E-01
 -1      2017 1.41525E+00
 -1      2018 1.25581E+00
 -1      2019 1.15041E+00
 -1      2020 1.67883E+00
 -1      2021 1.54830E+00
 -1      2022 1.41525E+00
 -1      2023 1.87896E+00
 -1      2024 1.80936E+00
 -1      2025 1.67883E+00
 -1      2026 1.98590E+00
 -1      2027 1.94857E+00
 -1      2028 1.87896E+00
 -1      2029 2.03955E+00
 -1      2030 1.97905E+00
 -1      2031 1.94172E+00
 -1      2032 2.12928E+00
 -1      2033 2.03965E+00
 -1      2034 1.93496E+00
 -1      2035 2.15866E+00
 -1      2036 2.12792E+00
 -1      2037 1.93370E+00
 -1      2038 1.98467E+00
 -1      2039 2.08209E+00
 -1      2040 1.85578E+00
 -1      2041 1.66564E+00
 -1      2042 1.85050E+00
 -1      2043 1.64504E+00
 -1      2044 1.33261E+00
 -1      2045 1.53606E+00
 -1      2046 1.38128E+00
 -1      2047 1.02705E+00
 -1      2048 1.20121E+00
 -1      2049 1.12030E+00
 -1      2050 7.63132E-01
 -1      2051 9.12907E-01
 -1      2052 8.74763E-01
 -1      2053 5.38739E-01
 -1      2054 6.65393E-01
 -1      2055 6.62884E-01
 -1      2056 3.56652E-01
 -1      2057 4.54069E-01
 -1      2058 4.80475E-01
 -1      2059 2.20279E-01
 -1      2060 2.88828E-01
 -1      2061 3.27981E-01
 -1      2062 1.26006E-01
 -1      2063 1.69622E-01
 -1      2064 2.09501E-01
 -1      2065 6.69726E-02
 -1      2066 8.94397E-02
 -1      2067 1.22277E-01
 -1      2068 4.10208E-02
 -1      2069 5.40690E-02
 -1      2070 7.28079E-02
 -1      2071 4.15625E-02
 -1      2072 1.00637E-01
 -1      2073 9.35027E-02
 -1      2074 7.96149E-02
 -1      2075 6.83140E-02
 -1      2076 1.05034E-01
 -1      2077 5.26929E-02
 -1      2078 1.03646E-01
 -1      2079 1.02454E-01
 -1      2080 1.20739E-01
 -1      2081 1.09253E-01
 -1      2082 1.09253E-01
 -1      2083 1.28164E-01
 -1      2084 1.03233E-01
 -1      2085 1.09253E-01
 -1      2086 1.33770E-01
 -1      2087 9.83197E-02
 -1      2088 9.51285E-02
 -1      2089 1.25666E-01
 -1      2090 1.62927E-01
 -1      2091 1.28592E-01
 -1      2092 1.47834E-01
 -1      2093 2.22191E-01
 -1      2094 2.03569E-01
 -1      2095 2.18749E-01
 -1      2096 2.34919E-01
 -1      2097 2.32418E-01
 -1      2098 2.69618E-01
 -1      2099 2.45586E-01
 -1      2100 2.45586E-01
 -1      2101 2.90512E-01
 -1      2102 2.25795E-01
 -1      2103 2.45586E-01
 -1      2104 3.01179E-01
 -1      2105 1.94118E-01
 -1      2106 2.09651E-01
 -1      2107 2.85036E-01
 -1      2108 1.51287E+00
 -1      2109 1.88790E+00
 -1      2110 1.63542E+00
 -1      2111 1.24614E+00
 -1      2112 3.22708E+01
 -1      2113 3.00072E+01
 -1      2114 9.58823E+00
 -1      2115 1.18447E+01
 -1      2116 1.70793E+01
 -1      2117 1.71424E+01
 -1      2118 2.97976E+01
 -1      2119 3.46503E+01
 -1      2120 2.46936E+01
 -1      2121 1.03556E+00
 -1      2122 1.20939E+00
 -1      2123 9.91644E-01
 -1      2124 8.50882E-01
 -1      2125 1.05261E+01
 -1      2126 7.02027E+00
 -1      2127 1.00392E+01
 -1      2128 9.65098E+00
 -1      2129 1.09456E+01
 -1      2130 1.07793E+01
 -1      2131 1.18878E+01
 -1      2132 1.16215E+01
 -1      2133 1.11176E+01
 -1      2134 1.14519E+01
 -1      2135 9.87134E+00
 -1      2136 1.02942E+01
 -1      2137 9.38014E+00
 -1      2138 1.23450E+01
 -1      2139 9.59526E+00
 -1      2140 2.83460E+01
 -1      2141 1.56461E+01
 -1      2142 3.07384E+01
 -1      2143 3.33968E+01
 -1      2144 2.77791E+01
 -1      2145 3.26126E+01
 -1      2146 3.87484E+01
 -1      2147 3.71259E+01
 -1      2148 3.87484E+01
 -1      2149 3.87484E+01
 -1      2150 3.15625E+01
 -1      2151 2.87437E+01
 -1      2152 3.17805E+01
 -1      2153 3.03132E+01
 -1      2154 1.56005E+01
 -1      2155 2.65360E+01
 -1      2156 1.06588E+01
 -1      2157 1.19317E+01
 -1      2158 1.64080E+01
 -1      2159 1.71424E+01
 -1      2160 1.15705E+01
 -1      2161 1.11543E+01
 -1      2162 3.14736E+01
 -1      2163 1.90396E+01
 -1      2164 3.48319E+01
 -1      2165 3.46243E+01
 -1      2166 3.43598E+01
 -1      2167 1.44429E+01
 -1      2168 2.72689E+01
 -1      2169 3.05519E+01
 -1      2170 2.60685E+01
 -1      2171 1.24899E+01
 -1      2172 1.16991E+01
 -1      2173 9.12489E+00
 -1      2174 1.83161E+01
 -1      2175 2.91017E+00
 -1      2176 2.10435E+00
 -1      2177 4.19341E+01
 -1      2178 3.31708E+01
 -1      2179 1.12165E+01
 -1      2180 1.13909E+01
 -1      2181 9.11181E+00
 -1      2182 2.60010E-01
 -1      2183 7.55254E-02
 -1      2184 1.38408E+01
 -1      2185 1.51386E+01
 -1      2186 2.18424E-01
 -1      2187 1.81595E-01
 -1      2188 2.56370E-01
 -1      2189 2.85433E-01
 -1      2190 2.38627E+01
 -1      2191 8.18058E+00
 -1      2192 1.07160E+01
 -1      2193 1.94251E+01
 -1      2194 1.93977E+01
 -1      2195 2.58914E+01
 -1      2196 3.71454E+01
 -1      2197 4.71502E+01
 -1      2198 3.78034E+01
 -1      2199 2.65824E+01
 -1      2200 1.96574E+01
 -1      2201 8.28060E+00
 -1      2202 1.06395E+01
 -1      2203 1.03994E+01
 -1      2204 1.19856E+01
 -1      2205 8.98344E+00
 -1      2206 1.13056E+01
 -1      2207 1.26138E+01
 -1      2208 1.60818E+01
 -1      2209 1.22779E+01
 -1      2210 1.32905E+01
 -1      2211 5.59197E-01
 -1      2212 5.90798E-01
 -1      2213 6.03061E-01
 -1      2214 6.49978E-01
 -1      2215 4.98830E-01
 -1      2216 5.11101E-01
 -1      2217 5.09493E-01
 -1      2218 5.45940E-01
 -1      2219 5.24075E-01
 -1      2220 4.44450E-01
 -1      2221 5.94159E-01
 -1      2222 5.60789E-01
 -1      2223 4.72273E-01
 -1      2224 6.53738E-01
 -1      2225 6.06122E-01
 -1      2226 4.99084E-01
 -1      2227 7.20804E-01
 -1      2228 6.53738E-01
 -1      2229 5.11046E-01
 -1      2230 8.24318E-01
 -1      2231 7.17222E-01
 -1      2232 5.07464E-01
 -1      2233 9.84396E-01
 -1      2234 8.92029E-01
 -1      2235 5.71594E-01
 -1      2236 1.75613E+00
 -1      2237 1.32260E+00
 -1      2238 9.77513E-01
 -1      2239 1.61424E+00
 -1      2240 1.26639E+00
 -1      2241 1.03533E+00
 -1      2242 4.19341E+01
 -1      2243 4.19341E+01
 -1      2244 1.67829E+00
 -1      2245 1.30352E+00
 -1      2246 8.40336E-01
 -1      2247 9.73925E-01
 -1      2248 9.84698E-01
 -1      2249 8.04423E-01
 -1      2250 7.52580E-01
 -1      2251 7.47676E-01
 -1      2252 6.22134E-01
 -1      2253 6.45205E-01
 -1      2254 5.65908E-01
 -1      2255 5.07511E-01
 -1      2256 5.32232E-01
 -1      2257 4.58072E-01
 -1      2258 4.09556E-01
 -1      2259 4.26567E-01
 -1      2260 3.82500E-01
 -1      2261 3.39762E-01
 -1      2262 3.50072E-01
 -1      2263 3.14706E-01
 -1      2264 2.81707E-01
 -1      2265 2.97960E-01
 -1      2266 2.57988E-01
 -1      2267 2.30331E-01
 -1      2268 2.49184E-01
 -1      2269 2.10554E-01
 -1      2270 1.86781E-01
 -1      2271 2.05687E-01
 -1      2272 1.69726E-01
 -1      2273 1.51367E-01
 -1      2274 1.68854E-01
 -1      2275 1.36387E-01
 -1      2276 1.21461E-01
 -1      2277 1.36819E-01
 -1      2278 1.08629E-01
 -1      2279 9.59377E-02
 -1      2280 1.09007E-01
 -1      2281 8.50723E-02
 -1      2282 7.44101E-02
 -1      2283 8.53091E-02
 -1      2284 6.53523E-02
 -1      2285 5.63280E-02
 -1      2286 6.53858E-02
 -1      2287 4.94050E-02
 -1      2288 4.78659E-02
 -1      2289 4.94050E-02
 -1      2290 5.03414E-02
 -1      2291 5.51543E-02
 -1      2292 4.49576E-02
 -1      2293 6.11334E-02
 -1      2294 7.03812E-02
 -1      2295 5.34122E-02
 -1      2296 9.05941E-02
 -1      2297 1.15703E-01
 -1      2298 7.96041E-02
 -1      2299 1.44587E-01
 -1      2300 1.85342E-01
 -1      2301 1.28701E-01
 -1      2302 2.29295E-01
 -1      2303 2.95751E-01
 -1      2304 2.01539E-01
 -1      2305 3.59323E-01
 -1      2306 4.61831E-01
 -1      2307 3.09063E-01
 -1      2308 5.59984E-01
 -1      2309 7.16808E-01
 -1      2310 4.70787E-01
 -1      2311 8.86194E-01
 -1      2312 1.12533E+00
 -1      2313 7.38327E-01
 -1      2314 1.40190E+00
 -1      2315 1.75842E+00
 -1      2316 1.18429E+00
 -1      2317 2.19751E+00
 -1      2318 2.71084E+00
 -1      2319 1.89996E+00
 -1      2320 3.43789E+00
 -1      2321 4.13948E+00
 -1      2322 3.06611E+00
 -1      2323 5.25602E+00
 -1      2324 6.14398E+00
 -1      2325 4.90971E+00
 -1      2326 8.12896E+00
 -1      2327 9.23142E+00
 -1      2328 8.01123E+00
 -1      2329 9.57261E+00
 -1      2330 1.04000E+01
 -1      2331 1.03374E+01
 -1      2332 8.84290E-02
 -1      2333 7.57250E+00
 -1      2334 7.19759E+00
 -1      2335 6.05103E+00
 -1      2336 5.38321E+00
 -1      2337 7.28218E+00
 -1      2338 4.39308E+00
 -1      2339 3.76097E+00
 -1      2340 5.14549E+00
 -1      2341 3.00654E+00
 -1      2342 2.47825E+00
 -1      2343 3.40094E+00
 -1      2344 1.97963E+00
 -1      2345 1.58199E+00
 -1      2346 2.14788E+00
 -1      2347 1.28033E+00
 -1      2348 9.99714E-01
 -1      2349 1.34760E+00
 -1      2350 8.03588E-01
 -1      2351 6.14890E-01
 -1      2352 8.49813E-01
 -1      2353 5.23115E-01
 -1      2354 3.98579E-01
 -1      2355 3.56993E-01
 -1      2356 5.61913E-01
 -1      2357 4.80482E-01
 -1      2358 5.37551E-01
 -1      2359 5.96472E-01
 -1      2360 6.88117E-01
 -1      2361 5.02712E-01
 -1      2362 7.52995E-01
 -1      2363 9.12790E-01
 -1      2364 6.26511E-01
 -1      2365 3.92171E-01
 -1      2366 4.42022E-01
 -1      2367 4.05330E-01
 -1      2368 3.23910E-01
 -1      2369 3.64717E-01
 -1      2370 3.39417E-01
 -1      2371 2.65042E-01
 -1      2372 2.97319E-01
 -1      2373 2.85372E-01
 -1      2374 2.14342E-01
 -1      2375 2.41784E-01
 -1      2376 2.35523E-01
 -1      2377 1.73357E-01
 -1      2378 1.95141E-01
 -1      2379 1.93064E-01
 -1      2380 1.39029E-01
 -1      2381 1.56224E-01
 -1      2382 1.56730E-01
 -1      2383 1.09388E-01
 -1      2384 1.24181E-01
 -1      2385 1.24749E-01
 -1      2386 8.48101E-02
 -1      2387 9.72997E-02
 -1      2388 9.78120E-02
 -1      2389 6.45426E-02
 -1      2390 7.49669E-02
 -1      2391 7.58799E-02
 -1      2392 4.93378E-02
 -1      2393 5.60493E-02
 -1      2394 5.75434E-02
 -1      2395 4.05132E-02
 -1      2396 4.29037E-02
 -1      2397 4.26161E-02
 -1      2398 3.75442E-02
 -1      2399 3.91968E-02
 -1      2400 3.48656E-02
 -1      2401 3.51277E-02
 -1      2402 3.65083E-02
 -1      2403 3.25132E-02
 -1      2404 3.67875E-02
 -1      2405 3.40264E-02
 -1      2406 3.03760E-02
 -1      2407 4.12096E-02
 -1      2408 3.88478E-02
 -1      2409 3.13351E-02
 -1      2410 4.65921E-02
 -1      2411 4.74789E-02
 -1      2412 3.96646E-02
 -1      2413 6.50638E-02
 -1      2414 5.44627E-02
 -1      2415 5.38044E-02
 -1      2416 1.25957E-01
 -1      2417 8.85411E-02
 -1      2418 8.51523E-02
 -1      2419 2.17231E-01
 -1      2420 1.63398E-01
 -1      2421 1.46071E-01
 -1      2422 3.41768E-01
 -1      2423 2.69997E-01
 -1      2424 2.36278E-01
 -1      2425 5.01232E-01
 -1      2426 4.12489E-01
 -1      2427 3.59764E-01
 -1      2428 6.98742E-01
 -1      2429 5.97612E-01
 -1      2430 5.26865E-01
 -1      2431 9.33058E-01
 -1      2432 8.10868E-01
 -1      2433 7.35371E-01
 -1      2434 1.17535E+00
 -1      2435 1.04356E+00
 -1      2436 9.57998E-01
 -1      2437 1.39677E+00
 -1      2438 1.26373E+00
 -1      2439 1.15687E+00
 -1      2440 1.60277E+00
 -1      2441 1.47224E+00
 -1      2442 1.32071E+00
 -1      2443 1.72208E+00
 -1      2444 1.65248E+00
 -1      2445 1.44589E+00
 -1      2446 1.71551E+00
 -1      2447 1.72236E+00
 -1      2448 1.49587E+00
 -1      2449 1.68065E+00
 -1      2450 1.68056E+00
 -1      2451 1.46120E+00
 -1      2452 1.71593E+00
 -1      2453 1.71729E+00
 -1      2454 1.46289E+00
 -1      2455 1.63340E+00
 -1      2456 1.70996E+00
 -1      2457 1.49355E+00
 -1      2458 1.44406E+00
 -1      2459 1.57824E+00
 -1      2460 1.43241E+00
 -1      2461 1.24220E+00
 -1      2462 1.37179E+00
 -1      2463 1.30498E+00
 -1      2464 1.01970E+00
 -1      2465 1.15110E+00
 -1      2466 1.14160E+00
 -1      2467 7.95649E-01
 -1      2468 9.09789E-01
 -1      2469 9.40589E-01
 -1      2470 5.88775E-01
 -1      2471 6.86514E-01
 -1      2472 7.21540E-01
 -1      2473 4.14290E-01
 -1      2474 4.98960E-01
 -1      2475 5.22590E-01
 -1      2476 2.83665E-01
 -1      2477 3.51489E-01
 -1      2478 3.69974E-01
 -1      2479 1.83077E-01
 -1      2480 2.33734E-01
 -1      2481 2.57241E-01
 -1      2482 1.14656E-01
 -1      2483 1.51221E-01
 -1      2484 1.75455E-01
 -1      2485 1.61798E-01
 -1      2486 1.56192E-01
 -1      2487 1.50068E-01
 -1      2488 1.48251E-01
 -1      2489 1.83703E-01
 -1      2490 1.48251E-01
 -1      2491 1.34363E-01
 -1      2492 1.77580E-01
 -1      2493 9.62531E+00
 -1      2494 8.13557E+00
 -1      2495 7.39548E+00
 -1      2496 1.70403E-01
 -1      2497 1.70403E-01
 -1      2498 1.98431E-01
 -1      2499 1.62298E-01
 -1      2500 1.70403E-01
 -1      2501 2.07035E-01
 -1      2502 2.06361E-01
 -1      2503 1.76088E-01
 -1      2504 2.20825E-01
 -1      2505 2.85224E-01
 -1      2506 2.44582E-01
 -1      2507 2.72836E-01
 -1      2508 3.44516E-01
 -1      2509 3.34289E-01
 -1      2510 3.60122E-01
 -1      2511 3.68674E-01
 -1      2512 3.58007E-01
 -1      2513 4.22679E-01
 -1      2514 3.68674E-01
 -1      2515 3.68674E-01
 -1      2516 4.36169E-01
 -1      2517 3.63906E-01
 -1      2518 3.80050E-01
 -1      2519 4.47545E-01
 -1      2520 1.03774E+01
 -1      2521 1.77344E+01
 -1      2522 6.06605E+00
 -1      2523 6.00329E+00
 -1      2524 5.21818E+00
 -1      2525 2.44074E+01
 -1      2526 3.31708E+01
 -1      2527 1.04844E+01
 -1      2528 8.85820E+00
 -1      2529 9.29407E+00
 -1      2530 2.18078E+01
 -1      2531 1.97160E+01
 -1      2532 9.39465E+00
 -1      2533 8.30691E+00
 -1      2534 2.09551E+01
 -1      2535 2.14998E+01
 -1      2536 5.22453E-01
 -1      2537 5.44611E-01
 -1      2538 4.71981E-01
 -1      2539 4.44435E-01
 -1      2540 1.17373E-01
 -1      2541 7.98546E+00
 -1      2542 1.05836E+01
 -1      2543 1.11385E+01
 -1      2544 7.83748E+00
 -1      2545 9.56338E+00
 -1      2546 8.88748E+00
 -1      2547 7.29952E+00
 -1      2548 7.20036E+00
 -1      2549 8.02382E+00
 -1      2550 1.37366E+01
 -1      2551 2.06444E+01
 -1      2552 2.18937E+01
 -1      2553 1.33841E+01
 -1      2554 5.72557E+00
 -1      2555 6.00164E+00
 -1      2556 1.81236E+01
 -1      2557 1.30728E+01
 -1      2558 2.30895E+01
 -1      2559 2.12153E+01
 -1      2560 3.78034E+01
 -1      2561 2.84566E+01
 -1      2562 4.71502E+01
 -1      2563 4.71502E+01
 -1      2564 3.78034E+01
 -1      2565 2.71407E+01
 -1      2566 3.71454E+01
 -1      2567 2.18937E+01
 -1      2568 3.43598E+01
 -1      2569 2.67854E+01
 -1      2570 2.18078E+01
 -1      2571 1.84429E+01
 -1      2572 1.52662E+01
 -1      2573 1.34939E+01
 -1      2574 1.84957E+01
 -1      2575 7.54772E+00
 -1      2576 9.83232E+00
 -1      2577 5.11093E-01
 -1      2578 6.49978E-01
 -1      2579 7.11997E-01
 -1      2580 1.32997E+00
 -1      2581 1.03145E+00
 -1      2582 1.05264E+00
 -1      2583 3.31708E+01
 -1      2584 3.43598E+01
 -1      2585 6.87983E-01
 -1      2586 7.66726E-01
 -1      2587 6.70265E-01
 -1      2588 4.87079E-01
 -1      2589 4.64533E+00
 -1      2590 1.36626E+01
 -1      2591 9.16315E+00
 -1      2592 1.60590E-01
 -1      2593 1.07633E+01
 -1      2594 6.67842E+00
 -1      2595 3.69515E-01
 -1      2596 9.17183E+00
 -1      2597 7.65988E+00
 -1      2598 7.39056E+00
 -1      2599 4.64529E-01
 -1      2600 1.15879E+01
 -1      2601 1.20908E+01
 -1      2602 8.82099E-01
 -1      2603 9.94050E-01
 -1      2604 6.88597E-01
 -1      2605 6.60697E-01
 -1      2606 2.14998E+01
 -1      2607 1.27901E+01
 -1      2608 1.18079E+01
 -1      2609 3.71454E+01
 -1      2610 1.61329E+01
 -1      2611 5.87092E+00
 -1      2612 5.82313E+00
 -1      2613 5.99017E+00
 -1      2614 3.71121E+00
 -1      2615 2.30895E+01
 -1      2616 1.46307E+01
 -1      2617 9.60469E+00
 -1      2618 4.22769E-01
 -1      2619 4.07920E-01
 -1      2620 4.00050E-01
 -1      2621 3.87076E-01
 -1      2622 3.50547E-01
 -1      2623 4.36215E-01
 -1      2624 4.36215E-01
 -1      2625 4.23604E-01
 -1      2626 4.27186E-01
 -1      2627 3.52355E-01
 -1      2628 9.54637E-01
 -1      2629 6.16430E-01
 -1      2630 6.70371E-01
 -1      2631 6.03205E-01
 -1      2632 5.52577E-01
 -1      2633 6.23679E-01
 -1      2634 5.86551E-01
 -1      2635 3.86548E-01
 -1      2636 4.16480E-01
 -1      2637 2.19665E-01
 -1      2638 2.13542E-01
 -1      2639 5.49432E-01
 -1      2640 4.92684E-01
 -1      2641 4.00056E-01
 -1      2642 4.86045E-01
 -1      2643 4.29819E-01
 -1      2644 3.90272E-01
 -1      2645 4.09283E-01
 -1      2646 3.59844E-01
 -1      2647 3.63096E-01
 -1      2648 3.34908E-01
 -1      2649 3.07852E-01
 -1      2650 3.17624E-01
 -1      2651 2.82848E-01
 -1      2652 2.57791E-01
 -1      2653 2.67683E-01
 -1      2654 2.42049E-01
 -1      2655 2.18330E-01
 -1      2656 2.26937E-01
 -1      2657 2.01817E-01
 -1      2658 1.82040E-01
 -1      2659 1.94683E-01
 -1      2660 1.66184E-01
 -1      2661 1.49129E-01
 -1      2662 1.62315E-01
 -1      2663 1.34799E-01
 -1      2664 1.19819E-01
 -1      2665 1.32129E-01
 -1      2666 1.07985E-01
 -1      2667 9.51523E-02
 -1      2668 1.05965E-01
 -1      2669 8.49008E-02
 -1      2670 7.40354E-02
 -1      2671 8.38787E-02
 -1      2672 6.50958E-02
 -1      2673 5.60380E-02
 -1      2674 6.46876E-02
 -1      2675 4.79699E-02
 -1      2676 4.10470E-02
 -1      2677 4.76799E-02
 -1      2678 3.57662E-02
 -1      2679 3.82417E-02
 -1      2680 3.43311E-02
 -1      2681 4.03882E-02
 -1      2682 4.63673E-02
 -1      2683 3.11968E-02
 -1      2684 6.07867E-02
 -1      2685 8.09996E-02
 -1      2686 4.77628E-02
 -1      2687 1.04824E-01
 -1      2688 1.33708E-01
 -1      2689 8.60064E-02
 -1      2690 1.72655E-01
 -1      2691 2.16608E-01
 -1      2692 1.48777E-01
 -1      2693 2.75230E-01
 -1      2694 3.38801E-01
 -1      2695 2.46346E-01
 -1      2696 4.29999E-01
 -1      2697 5.28151E-01
 -1      2698 3.96165E-01
 -1      2699 6.69975E-01
 -1      2700 8.39361E-01
 -1      2701 6.29186E-01
 -1      2702 1.06110E+00
 -1      2703 1.33768E+00
 -1      2704 9.92749E-01
 -1      2705 1.68885E+00
 -1      2706 2.12794E+00
 -1      2707 1.56566E+00
 -1      2708 2.69708E+00
 -1      2709 3.42413E+00
 -1      2710 2.48597E+00
 -1      2711 4.37102E+00
 -1      2712 5.48757E+00
 -1      2713 4.00199E+00
 -1      2714 7.11183E+00
 -1      2715 9.09680E+00
 -1      2716 6.57314E+00
 -1      2717 1.39174E+01
 -1      2718 1.42586E+01
 -1      2719 1.30180E+01
 -1      2720 9.42678E+00
 -1      2721 8.28022E+00
 -1      2722 2.94495E-01
 -1      2723 3.21949E-01
 -1      2724 6.19440E+00
 -1      2725 5.20427E+00
 -1      2726 4.04610E+00
 -1      2727 3.29168E+00
 -1      2728 5.09501E+00
 -1      2729 2.52308E+00
 -1      2730 2.02446E+00
 -1      2731 3.16825E+00
 -1      2732 1.55198E+00
 -1      2733 1.25032E+00
 -1      2734 1.92717E+00
 -1      2735 9.54980E-01
 -1      2736 7.58854E-01
 -1      2737 1.15936E+00
 -1      2738 6.03659E-01
 -1      2739 5.11885E-01
 -1      2740 5.06276E-01
 -1      2741 7.08826E-01
 -1      2742 4.15233E-01
 -1      2743 4.74155E-01
 -1      2744 3.49821E-01
 -1      2745 3.88281E-01
 -1      2746 3.59724E-01
 -1      2747 3.04899E-01
 -1      2748 4.95294E-01
 -1      2749 5.60172E-01
 -1      2750 4.07815E-01
 -1      2751 2.47288E-01
 -1      2752 2.73879E-01
 -1      2753 2.56411E-01
 -1      2754 2.06344E-01
 -1      2755 2.29602E-01
 -1      2756 2.18110E-01
 -1      2757 1.69776E-01
 -1      2758 1.88976E-01
 -1      2759 1.83056E-01
 -1      2760 1.37116E-01
 -1      2761 1.54249E-01
 -1      2762 1.50161E-01
 -1      2763 1.09256E-01
 -1      2764 1.24104E-01
 -1      2765 1.21623E-01
 -1      2766 8.57266E-02
 -1      2767 9.78154E-02
 -1      2768 9.71702E-02
 -1      2769 6.60367E-02
 -1      2770 7.58799E-02
 -1      2771 7.58833E-02
 -1      2772 4.90502E-02
 -1      2773 5.75434E-02
 -1      2774 5.75434E-02
 -1      2775 3.54240E-02
 -1      2776 4.18581E-02
 -1      2777 4.18581E-02
 -1      2778 2.88232E-02
 -1      2779 3.01396E-02
 -1      2780 2.93817E-02
 -1      2781 2.77697E-02
 -1      2782 2.88056E-02
 -1      2783 2.40797E-02
 -1      2784 2.69880E-02
 -1      2785 2.80893E-02
 -1      2786 2.43816E-02
 -1      2787 3.33954E-02
 -1      2788 3.13351E-02
 -1      2789 2.90483E-02
 -1      2790 4.59338E-02
 -1      2791 3.96646E-02
 -1      2792 3.96646E-02
 -1      2793 6.55443E-02
 -1      2794 5.76737E-02
 -1      2795 5.76737E-02
 -1      2796 1.07756E-01
 -1      2797 8.42784E-02
 -1      2798 8.81477E-02
 -1      2799 1.83512E-01
 -1      2800 1.46071E-01
 -1      2801 1.45197E-01
 -1      2802 2.88773E-01
 -1      2803 2.36008E-01
 -1      2804 2.36008E-01
 -1      2805 4.25366E-01
 -1      2806 3.54645E-01
 -1      2807 3.54375E-01
 -1      2808 5.96289E-01
 -1      2809 4.99909E-01
 -1      2810 4.94789E-01
 -1      2811 7.83898E-01
 -1      2812 6.71773E-01
 -1      2813 6.44816E-01
 -1      2814 9.80967E-01
 -1      2815 8.70464E-01
 -1      2816 8.06866E-01
 -1      2817 1.16799E+00
 -1      2818 1.07962E+00
 -1      2819 9.92083E-01
 -1      2820 1.30406E+00
 -1      2821 1.22859E+00
 -1      2822 1.15134E+00
 -1      2823 1.38284E+00
 -1      2824 1.33314E+00
 -1      2825 1.24102E+00
 -1      2826 1.40251E+00
 -1      2827 1.40222E+00
 -1      2828 1.28948E+00
 -1      2829 1.33047E+00
 -1      2830 1.36543E+00
 -1      2831 1.27178E+00
 -1      2832 1.37372E+00
 -1      2833 1.33708E+00
 -1      2834 1.24131E+00
 -1      2835 1.40219E+00
 -1      2836 1.40817E+00
 -1      2837 1.28236E+00
 -1      2838 1.32449E+00
 -1      2839 1.37965E+00
 -1      2840 1.29427E+00
 -1      2841 1.22126E+00
 -1      2842 1.29353E+00
 -1      2843 1.24077E+00
 -1      2844 1.06412E+00
 -1      2845 1.15522E+00
 -1      2846 1.14378E+00
 -1      2847 8.54444E-01
 -1      2848 9.64358E-01
 -1      2849 9.77979E-01
 -1      2850 6.66926E-01
 -1      2851 7.76061E-01
 -1      2852 7.99831E-01
 -1      2853 5.04725E-01
 -1      2854 5.94540E-01
 -1      2855 6.49061E-01
 -1      2856 3.69974E-01
 -1      2857 4.32776E-01
 -1      2858 5.04725E-01
 -1      2859 2.57241E-01
 -1      2860 3.07172E-01
 -1      2861 3.69974E-01
 -1      2862 1.79831E-01
 -1      2863 2.11686E-01
 -1      2864 2.61617E-01
 -1      2865 1.96821E-01
 -1      2866 2.61996E-01
 -1      2867 2.61996E-01
 -1      2868 1.69623E+01
 -1      2869 1.98699E+01
 -1      2870 3.24299E+00
 -1      2871 4.44171E+00
 -1      2872 1.96821E-01
 -1      2873 1.96821E-01
 -1      2874 2.16062E-01
 -1      2875 2.32783E-01
 -1      2876 2.86853E-01
 -1      2877 2.73064E-01
 -1      2878 3.28024E-01
 -1      2879 2.51683E-01
 -1      2880 2.43079E-01
 -1      2881 2.72918E-01
 -1      2882 3.06644E-01
 -1      2883 3.53721E-01
 -1      2884 3.15500E-01
 -1      2885 3.67738E-01
 -1      2886 4.62475E-01
 -1      2887 4.13409E-01
 -1      2888 4.56073E-01
 -1      2889 5.18221E-01
 -1      2890 5.04730E-01
 -1      2891 5.58017E-01
 -1      2892 5.85767E-01
 -1      2893 5.85767E-01
 -1      2894 6.67818E-01
 -1      2895 5.97142E-01
 -1      2896 5.85767E-01
 -1      2897 7.35365E-01
 -1      2898 6.44498E-01
 -1      2899 2.08585E+01
 -1      2900 2.96219E+01
 -1      2901 4.76934E+00
 -1      2902 3.43991E+00
 -1      2903 5.10608E+00
 -1      2904 5.94046E+00
 -1      2905 1.55571E+01
 -1      2906 1.31767E+01
 -1      2907 1.56361E+01
 -1      2908 4.36215E-01
 -1      2909 4.24253E-01
 -1      2910 3.59901E-01
 -1      2911 3.61384E-01
 -1      2912 1.00036E+01
 -1      2913 9.26920E+00
 -1      2914 1.89096E+01
 -1      2915 4.23607E-01
 -1      2916 4.35870E-01
 -1      2917 9.18671E+00
 -1      2918 7.25246E+00
 -1      2919 1.37443E+01
 -1      2920 1.06526E+01
 -1      2921 8.30037E+00
 -1      2922 3.24944E+01
 -1      2923 2.31476E+01
 -1      2924 2.18955E+01
 -1      2925 1.65283E+01
 -1      2926 6.83555E+00
 -1      2927 9.74577E+00
 -1      2928 3.61934E+00
 -1      2929 5.60151E+00
 -1      2930 3.17050E+00
 -1      2931 6.55994E+00
 -1      2932 5.80804E+00
 -1      2933 1.33639E+01
 -1      2934 2.24897E+01
 -1      2935 1.34699E+01
 -1      2936 4.35870E-01
 -1      2937 4.35870E-01
 -1      2938 3.60648E-01
 -1      2939 3.42476E-01
 -1      2940 3.86876E-01
 -1      2941 3.99836E-01
 -1      2942 5.48719E-01
 -1      2943 1.84475E+01
 -1      2944 1.02672E+01
 -1      2945 4.22265E-01
 -1      2946 5.53482E-01
 -1      2947 6.60755E+00
 -1      2948 6.99910E+00
 -1      2949 5.50762E+00
 -1      2950 1.73097E+01
 -1      2951 2.96219E+01
 -1      2952 3.50759E+00
 -1      2953 1.40061E+01
 -1      2954 1.63210E+01
 -1      2955 3.63778E+00
 -1      2956 5.04011E+00
 -1      2957 4.30215E+00
 -1      2958 6.40272E+00
 -1      2959 6.28049E+00
 -1      2960 4.83039E+00
 -1      2961 4.02976E+00
 -1      2962 5.22790E-01
 -1      2963 3.24944E+01
 -1      2964 5.81209E+00
 -1      2965 4.79455E+00
 -1      2966 3.56051E+00
 -1      2967 1.30944E+01
 -1      2968 9.11632E+00
 -1      2969 1.19003E+01
 -1      2970 1.01597E+01
 -1      2971 9.66284E+00
 -1      2972 6.23190E+00
 -1      2973 4.68440E-01
 -1      2974 1.65865E+01
 -1      2975 8.33900E+00
 -1      2976 4.07523E-01
 -1      2977 4.22109E-01
 -1      2978 3.59149E-01
 -1      2979 3.49963E-01
 -1      2980 5.86187E+00
 -1      2981 4.01455E+00
 -1      2982 5.44389E+00
 -1      2983 1.78386E+01
 -1      2984 2.20475E+01
 -1      2985 1.37097E+01
 -1      2986 2.92467E-01
 -1      2987 3.01496E-01
 -1      2988 6.11780E-01
 -1      2989 7.08117E-01
 -1      2990 6.65862E-01
 -1      2991 3.89168E-01
 -1      2992 3.65155E-01
 -1      2993 3.18570E-01
 -1      2994 3.13946E-01
 -1      2995 3.29068E-01
 -1      2996 3.25922E-01
 -1      2997 3.14763E-01
 -1      2998 3.08124E-01
 -1      2999 2.43774E-01
 -1      3000 3.19133E-01
 -1      3001 2.98596E-01
 -1      3002 2.43623E-01
 -1      3003 2.95135E-01
 -1      3004 2.70200E-01
 -1      3005 2.51172E-01
 -1      3006 2.59159E-01
 -1      3007 2.34155E-01
 -1      3008 2.36671E-01
 -1      3009 2.19775E-01
 -1      3010 2.04033E-01
 -1      3011 2.11251E-01
 -1      3012 1.90661E-01
 -1      3013 1.74149E-01
 -1      3014 1.83499E-01
 -1      3015 1.63249E-01
 -1      3016 1.47393E-01
 -1      3017 1.59227E-01
 -1      3018 1.35847E-01
 -1      3019 1.21517E-01
 -1      3020 1.36781E-01
 -1      3021 1.10242E-01
 -1      3022 9.84073E-02
 -1      3023 1.13960E-01
 -1      3024 8.78743E-02
 -1      3025 7.76227E-02
 -1      3026 9.21513E-02
 -1      3027 6.79933E-02
 -1      3028 5.90537E-02
 -1      3029 7.19888E-02
 -1      3030 5.02709E-02
 -1      3031 4.22029E-02
 -1      3032 5.35767E-02
 -1      3033 3.40554E-02
 -1      3034 2.87745E-02
 -1      3035 3.66464E-02
 -1      3036 3.01908E-02
 -1      3037 3.23373E-02
 -1      3038 2.99150E-02
 -1      3039 4.20897E-02
 -1      3040 5.65092E-02
 -1      3041 4.10837E-02
 -1      3042 7.57184E-02
 -1      3043 9.95427E-02
 -1      3044 7.00454E-02
 -1      3045 1.29983E-01
 -1      3046 1.68929E-01
 -1      3047 1.19695E-01
 -1      3048 2.07959E-01
 -1      3049 2.66582E-01
 -1      3050 1.89165E-01
 -1      3051 3.25276E-01
 -1      3052 4.16473E-01
 -1      3053 2.86889E-01
 -1      3054 5.01666E-01
 -1      3055 6.43489E-01
 -1      3056 4.30776E-01
 -1      3057 7.66837E-01
 -1      3058 9.88577E-01
 -1      3059 6.39317E-01
 -1      3060 1.18755E+00
 -1      3061 1.53872E+00
 -1      3062 9.61634E-01
 -1      3063 1.91469E+00
 -1      3064 2.48383E+00
 -1      3065 1.53658E+00
 -1      3066 3.09102E+00
 -1      3067 4.03791E+00
 -1      3068 2.51974E+00
 -1      3069 5.01102E+00
 -1      3070 6.63528E+00
 -1      3071 4.10005E+00
 -1      3072 9.07336E+00
 -1      3073 1.38940E+01
 -1      3074 7.51124E+00
 -1      3075 3.27931E-01
 -1      3076 3.21241E-01
 -1      3077 2.27719E-01
 -1      3078 2.48335E-01
 -1      3079 1.39485E+01
 -1      3080 1.39485E+01
 -1      3081 3.49555E+00
 -1      3082 3.02733E+00
 -1      3083 3.33804E+00
 -1      3084 2.56944E+00
 -1      3085 2.18693E+00
 -1      3086 1.71445E+00
 -1      3087 2.35672E+00
 -1      3088 1.35259E+00
 -1      3089 1.05725E+00
 -1      3090 1.61235E+00
 -1      3091 7.99693E-01
 -1      3092 1.65217E-01
 -1      3093 1.82585E-01
 -1      3094 1.37660E-01
 -1      3095 1.53186E-01
 -1      3096 1.52715E-01
 -1      3097 1.12621E-01
 -1      3098 1.25633E-01
 -1      3099 1.28658E-01
 -1      3100 8.98312E-02
 -1      3101 1.01271E-01
 -1      3102 1.05282E-01
 -1      3103 6.96189E-02
 -1      3104 7.94656E-02
 -1      3105 8.35667E-02
 -1      3106 5.18127E-02
 -1      3107 6.03059E-02
 -1      3108 6.38882E-02
 -1      3109 3.62805E-02
 -1      3110 4.34725E-02
 -1      3111 4.62351E-02
 -1      3112 2.34745E-02
 -1      3113 2.87589E-02
 -1      3114 3.03734E-02
 -1      3115 1.93316E-02
 -1      3116 1.93492E-02
 -1      3117 1.87264E-02
 -1      3118 2.13047E-02
 -1      3119 2.09851E-02
 -1      3120 1.62546E-02
 -1      3121 3.00680E-02
 -1      3122 2.57209E-02
 -1      3123 2.23244E-02
 -1      3124 4.51296E-02
 -1      3125 3.88604E-02
 -1      3126 3.55330E-02
 -1      3127 6.94136E-02
 -1      3128 5.76737E-02
 -1      3129 5.68695E-02
 -1      3130 1.06797E-01
 -1      3131 8.80634E-02
 -1      3132 8.80634E-02
 -1      3133 1.72504E-01
 -1      3134 1.34188E-01
 -1      3135 1.34104E-01
 -1      3136 2.70267E-01
 -1      3137 2.17771E-01
 -1      3138 2.06763E-01
 -1      3139 4.02958E-01
 -1      3140 3.37086E-01
 -1      3141 3.18849E-01
 -1      3142 5.58316E-01
 -1      3143 4.83774E-01
 -1      3144 4.66485E-01
 -1      3145 7.20300E-01
 -1      3146 6.44816E-01
 -1      3147 6.33800E-01
 -1      3148 8.84032E-01
 -1      3149 7.97466E-01
 -1      3150 7.97466E-01
 -1      3151 1.06598E+00
 -1      3152 9.67328E-01
 -1      3153 9.57927E-01
 -1      3154 1.17511E+00
 -1      3155 1.11451E+00
 -1      3156 1.08975E+00
 -1      3157 1.26168E+00
 -1      3158 1.23260E+00
 -1      3159 1.19577E+00
 -1      3160 1.36327E+00
 -1      3161 1.34388E+00
 -1      3162 1.33547E+00
 -1      3163 1.34090E+00
 -1      3164 1.37798E+00
 -1      3165 1.43239E+00
 -1      3166 1.27551E+00
 -1      3167 1.26891E+00
 -1      3168 1.37511E+00
 -1      3169 1.38801E+00
 -1      3170 1.35357E+00
 -1      3171 1.38117E+00
 -1      3172 1.33664E+00
 -1      3173 1.35918E+00
 -1      3174 1.43039E+00
 -1      3175 1.22596E+00
 -1      3176 1.25692E+00
 -1      3177 1.32183E+00
 -1      3178 1.10184E+00
 -1      3179 1.16788E+00
 -1      3180 1.18402E+00
 -1      3181 9.55976E-01
 -1      3182 1.05574E+00
 -1      3183 1.07984E+00
 -1      3184 7.98247E-01
 -1      3185 8.76630E-01
 -1      3186 9.54392E-01
 -1      3187 6.48582E-01
 -1      3188 7.20968E-01
 -1      3189 7.97768E-01
 -1      3190 4.92462E-01
 -1      3191 5.64411E-01
 -1      3192 6.36319E-01
 -1      3193 3.51362E-01
 -1      3194 4.14163E-01
 -1      3195 4.73849E-01
 -1      3196 2.53142E-01
 -1      3197 2.98697E-01
 -1      3198 3.42886E-01
 -1      3199 2.53142E-01
 -1      3200 5.74421E-01
 -1      3201 5.14733E-01
 -1      3202 7.24522E-01
 -1      3203 7.76093E-01
 -1      3204 7.08547E-01
 -1      3205 8.16392E-01
 -1      3206 5.04565E-01
 -1      3207 4.00201E+00
 -1      3208 2.96332E+00
 -1      3209 2.83493E+00
 -1      3210 3.01437E+00
 -1      3211 2.80718E+00
 -1      3212 4.78457E-01
 -1      3213 4.49811E-01
 -1      3214 5.96805E-01
 -1      3215 8.50160E+00
 -1      3216 6.41578E+00
 -1      3217 5.46991E+00
 -1      3218 4.31174E+00
 -1      3219 3.71294E+00
 -1      3220 1.38673E+01
 -1      3221 1.38940E+01
 -1      3222 1.93799E-01
 -1      3223 2.11485E-01
 -1      3224 2.03408E-01
 -1      3225 1.75960E-01
 -1      3226 8.85335E+00
 -1      3227 7.38746E+00
 -1      3228 4.16403E-01
 -1      3229 4.05335E-01
 -1      3230 5.27122E-01
 -1      3231 3.79451E-01
 -1      3232 3.27290E-01
 -1      3233 3.48429E-01
 -1      3234 2.47405E-01
 -1      3235 3.23497E-01
 -1      3236 3.15626E-01
 -1      3237 1.08342E+01
 -1      3238 1.21604E+01
 -1      3239 1.48807E+01
 -1      3240 1.36285E+01
 -1      3241 1.01946E+01
 -1      3242 1.09360E+01
 -1      3243 1.29845E+01
 -1      3244 1.39732E+01
 -1      3245 1.06121E+01
 -1      3246 9.81257E+00
 -1      3247 1.05061E+01
 -1      3248 3.12055E-01
 -1      3249 3.11856E-01
 -1      3250 2.85006E-01
 -1      3251 3.28592E-01
 -1      3252 3.35223E-01
 -1      3253 2.34258E-01
 -1      3254 5.67604E+00
 -1      3255 5.01527E+00
 -1      3256 4.68820E+00
 -1      3257 2.34254E-01
 -1      3258 2.62946E-01
 -1      3259 2.90818E-01
 -1      3260 4.83951E+00
 -1      3261 4.40036E+00
 -1      3262 3.33391E+00
 -1      3263 2.81567E+00
 -1      3264 2.82772E+00
 -1      3265 3.42613E+00
 -1      3266 9.92926E-01
 -1      3267 3.00636E-01
 -1      3268 3.27588E-01
 -1      3269 2.68202E-01
 -1      3270 2.58682E-01
 -1      3271 5.63251E+00
 -1      3272 3.28291E-01
 -1      3273 3.04878E-01
 -1      3274 3.90768E+00
 -1      3275 4.36994E+00
 -1      3276 3.84171E+00
 -1      3277 3.20487E-01
 -1      3278 3.20487E-01
 -1      3279 2.60599E-01
 -1      3280 3.75643E-01
 -1      3281 3.65330E-01
 -1      3282 3.97290E-01
 -1      3283 9.01171E-01
 -1      3284 9.01171E-01
 -1      3285 9.41899E-01
 -1      3286 1.15873E+00
 -1      3287 5.79062E+00
 -1      3288 5.23764E+00
 -1      3289 3.84704E+00
 -1      3290 3.14110E+00
 -1      3291 3.35167E+00
 -1      3292 2.80553E+00
 -1      3293 3.21410E-01
 -1      3294 3.21410E-01
 -1      3295 3.98370E+00
 -1      3296 5.00717E+00
 -1      3297 5.42105E+00
 -1      3298 2.69863E-01
 -1      3299 8.58289E+00
 -1      3300 3.53429E+00
 -1      3301 3.24980E-01
 -1      3302 3.23497E-01
 -1      3303 2.88577E-01
 -1      3304 2.84084E-01
 -1      3305 3.23003E-01
 -1      3306 3.24502E-01
 -1      3307 2.85263E-01
 -1      3308 2.61089E-01
 -1      3309 4.64022E-01
 -1      3310 8.20342E+00
 -1      3311 6.45909E+00
 -1      3312 9.47615E+00
 -1      3313 7.63040E+00
 -1      3314 3.25236E-01
 -1      3315 1.95410E-01
 -1      3316 1.74912E-01
 -1      3317 6.85530E-01
 -1      3318 6.55838E-01
 -1      3319 1.76129E-01
 -1      3320 1.83480E-01
 -1      3321 2.02471E-01
 -1      3322 1.24134E-01
 -1      3323 1.98979E-01
 -1      3324 1.87819E-01
 -1      3325 1.87760E-01
 -1      3326 1.98769E-01
 -1      3327 1.42965E-01
 -1      3328 2.14231E-01
 -1      3329 2.10771E-01
 -1      3330 1.58368E-01
 -1      3331 2.14683E-01
 -1      3332 2.03643E-01
 -1      3333 1.77743E-01
 -1      3334 1.99843E-01
 -1      3335 1.85463E-01
 -1      3336 1.77855E-01
 -1      3337 1.77372E-01
 -1      3338 1.64000E-01
 -1      3339 1.65964E-01
 -1      3340 1.53861E-01
 -1      3341 1.42962E-01
 -1      3342 1.47734E-01
 -1      3343 1.34709E-01
 -1      3344 1.23163E-01
 -1      3345 1.29343E-01
 -1      3346 1.14564E-01
 -1      3347 1.03288E-01
 -1      3348 1.12492E-01
 -1      3349 9.44754E-02
 -1      3350 8.39424E-02
 -1      3351 9.50793E-02
 -1      3352 7.54411E-02
 -1      3353 6.58116E-02
 -1      3354 7.77652E-02
 -1      3355 5.78852E-02
 -1      3356 4.91025E-02
 -1      3357 6.13375E-02
 -1      3358 4.18414E-02
 -1      3359 3.36939E-02
 -1      3360 4.61500E-02
 -1      3361 3.33797E-02
 -1      3362 3.47960E-02
 -1      3363 3.85748E-02
 -1      3364 3.75299E-02
 -1      3365 4.72823E-02
 -1      3366 4.09946E-02
 -1      3367 5.68800E-02
 -1      3368 7.60892E-02
 -1      3369 5.33261E-02
 -1      3370 9.56308E-02
 -1      3371 1.26071E-01
 -1      3372 8.24654E-02
 -1      3373 1.47945E-01
 -1      3374 1.86975E-01
 -1      3375 1.23881E-01
 -1      3376 2.29570E-01
 -1      3377 2.88264E-01
 -1      3378 1.88350E-01
 -1      3379 3.54050E-01
 -1      3380 4.39242E-01
 -1      3381 2.96730E-01
 -1      3382 5.38728E-01
 -1      3383 6.62077E-01
 -1      3384 4.62002E-01
 -1      3385 8.07667E-01
 -1      3386 1.00664E+00
 -1      3387 7.07079E-01
 -1      3388 1.20743E+00
 -1      3389 1.58341E+00
 -1      3390 1.05347E+00
 -1      3391 2.04916E+00
 -1      3392 2.65635E+00
 -1      3393 1.72001E+00
 -1      3394 3.31328E+00
 -1      3395 4.28639E+00
 -1      3396 2.84269E+00
 -1      3397 5.50833E+00
 -1      3398 7.94641E+00
 -1      3399 8.93311E+00
 -1      3400 4.72156E+00
 -1      3401 1.76528E+00
 -1      3402 1.40341E+00
 -1      3403 1.31166E+00
 -1      3404 9.61641E-02
 -1      3405 1.07514E-01
 -1      3406 1.16659E-01
 -1      3407 1.28685E-01
 -1      3408 1.07541E-01
 -1      3409 1.37254E-01
 -1      3410 1.49285E-01
 -1      3411 1.25255E-01
 -1      3412 7.67680E-02
 -1      3413 8.71335E-02
 -1      3414 8.93653E-02
 -1      3415 5.88996E-02
 -1      3416 6.82126E-02
 -1      3417 7.17794E-02
 -1      3418 4.26002E-02
 -1      3419 5.09403E-02
 -1      3420 5.52648E-02
 -1      3421 2.76670E-02
 -1      3422 3.51886E-02
 -1      3423 3.98939E-02
 -1      3424 1.76808E-02
 -1      3425 2.18061E-02
 -1      3426 2.66213E-02
 -1      3427 1.69818E-02
 -1      3428 1.53283E-02
 -1      3429 1.84079E-02
 -1      3430 2.60283E-02
 -1      3431 2.16121E-02
 -1      3432 2.06858E-02
 -1      3433 4.24611E-02
 -1      3434 3.36687E-02
 -1      3435 3.29564E-02
 -1      3436 6.51311E-02
 -1      3437 5.25871E-02
 -1      3438 5.07227E-02
 -1      3439 1.03955E-01
 -1      3440 8.53052E-02
 -1      3441 8.10228E-02
 -1      3442 1.61495E-01
 -1      3443 1.34104E-01
 -1      3444 1.31346E-01
 -1      3445 2.46291E-01
 -1      3446 2.01023E-01
 -1      3447 2.01023E-01
 -1      3448 3.60294E-01
 -1      3449 2.93475E-01
 -1      3450 2.87736E-01
 -1      3451 5.10739E-01
 -1      3452 4.29924E-01
 -1      3453 4.04549E-01
 -1      3454 6.85917E-01
 -1      3455 5.99417E-01
 -1      3456 5.62856E-01
 -1      3457 8.68663E-01
 -1      3458 7.91497E-01
 -1      3459 7.57114E-01
 -1      3460 1.04122E+00
 -1      3461 9.57927E-01
 -1      3462 9.51958E-01
 -1      3463 1.18595E+00
 -1      3464 1.13742E+00
 -1      3465 1.13742E+00
 -1      3466 1.28601E+00
 -1      3467 1.22852E+00
 -1      3468 1.27619E+00
 -1      3469 1.41767E+00
 -1      3470 1.33547E+00
 -1      3471 1.36821E+00
 -1      3472 1.56688E+00
 -1      3473 1.55216E+00
 -1      3474 1.55216E+00
 -1      3475 1.51874E+00
 -1      3476 1.59073E+00
 -1      3477 1.71050E+00
 -1      3478 1.62291E+00
 -1      3479 1.54485E+00
 -1      3480 1.76048E+00
 -1      3481 1.53602E+00
 -1      3482 1.56485E+00
 -1      3483 1.72854E+00
 -1      3484 1.32183E+00
 -1      3485 1.40156E+00
 -1      3486 1.53602E+00
 -1      3487 1.23357E+00
 -1      3488 1.29166E+00
 -1      3489 1.37138E+00
 -1      3490 1.13607E+00
 -1      3491 1.18217E+00
 -1      3492 1.28980E+00
 -1      3493 9.54392E-01
 -1      3494 1.03374E+00
 -1      3495 1.13607E+00
 -1      3496 7.86763E-01
 -1      3497 8.64041E-01
 -1      3498 9.43387E-01
 -1      3499 5.99405E-01
 -1      3500 6.83576E-01
 -1      3501 7.49849E-01
 -1      3502 4.28828E-01
 -1      3503 5.07126E-01
 -1      3504 5.54384E-01
 -1      3505 3.77901E-01
 -1      3506 8.93638E-01
 -1      3507 8.02197E-01
 -1      3508 8.53376E+00
 -1      3509 6.52925E+00
 -1      3510 8.55843E+00
 -1      3511 7.06044E+00
 -1      3512 6.79748E+00
 -1      3513 5.84093E+00
 -1      3514 4.89507E+00
 -1      3515 5.79180E+00
 -1      3516 2.57845E+00
 -1      3517 2.45007E+00
 -1      3518 4.24479E-01
 -1      3519 3.87439E-01
 -1      3520 6.45987E-01
 -1      3521 8.94067E-01
 -1      3522 8.93638E-01
 -1      3523 9.71313E-01
 -1      3524 3.07791E-01
 -1      3525 7.66827E-01
 -1      3526 7.30552E-01
 -1      3527 9.35943E-01
 -1      3528 2.35672E+00
 -1      3529 1.97421E+00
 -1      3530 1.76528E+00
 -1      3531 3.15316E-01
 -1      3532 3.23003E-01
 -1      3533 2.88355E-01
 -1      3534 3.59520E+00
 -1      3535 2.62149E+00
 -1      3536 2.23898E+00
 -1      3537 3.80362E+00
 -1      3538 7.18938E-01
 -1      3539 6.85530E-01
 -1      3540 8.77346E-01
 -1      3541 8.88960E-01
 -1      3542 3.52461E+00
 -1      3543 3.00560E+00
 -1      3544 3.31836E+00
 -1      3545 4.43461E+00
 -1      3546 3.83017E+00
 -1      3547 3.51191E+00
 -1      3548 2.03472E-01
 -1      3549 2.18083E-01
 -1      3550 3.68957E+00
 -1      3551 4.62108E+00
 -1      3552 3.51382E+00
 -1      3553 2.77570E+00
 -1      3554 2.57609E+00
 -1      3555 2.76602E+00
 -1      3556 2.84895E-01
 -1      3557 2.21090E-01
 -1      3558 2.20792E-01
 -1      3559 1.48298E-01
 -1      3560 3.30689E+00
 -1      3561 2.90854E+00
 -1      3562 2.55143E+00
 -1      3563 4.11178E-01
 -1      3564 2.68553E-01
 -1      3565 2.45007E+00
 -1      3566 2.67880E+00
 -1      3567 2.80553E+00
 -1      3568 1.12063E+00
 -1      3569 9.95554E-01
 -1      3570 1.07280E+00
 -1      3571 1.36531E+00
 -1      3572 5.92860E+00
 -1      3573 3.77877E+00
 -1      3574 4.78563E+00
 -1      3575 2.12598E-01
 -1      3576 1.43490E-01
 -1      3577 1.58951E-01
 -1      3578 1.70165E-01
 -1      3579 4.38367E-01
 -1      3580 3.25918E+00
 -1      3581 3.47181E+00
 -1      3582 2.83978E+00
 -1      3583 2.30860E-01
 -1      3584 2.27768E-01
 -1      3585 1.58194E-01
 -1      3586 2.51969E+00
 -1      3587 3.32974E+00
 -1      3588 4.25712E+00
 -1      3589 5.48185E+00
 -1      3590 5.29516E+00
 -1      3591 7.59132E+00
 -1      3592 8.41550E+00
 -1      3593 6.33718E+00
 -1      3594 2.52448E-01
 -1      3595 2.48877E-01
 -1      3596 2.52448E-01
 -1      3597 2.52448E-01
 -1      3598 2.16319E-01
 -1      3599 2.93527E+00
 -1      3600 8.97218E+00
 -1      3601 7.24400E+00
 -1      3602 5.83806E+00
 -1      3603 5.98256E+00
 -1      3604 6.23333E+00
 -1      3605 1.80199E-01
 -1      3606 1.96434E-01
 -1      3607 1.63191E-01
 -1      3608 1.80263E-01
 -1      3609 1.89499E+00
 -1      3610 1.89499E+00
 -1      3611 1.58135E-01
 -1      3612 5.65815E+00
 -1      3613 5.61908E+00
 -1      3614 1.41030E-01
 -1      3615 1.56492E-01
 -1      3616 1.48442E-01
 -1      3617 1.52354E-01
 -1      3618 1.31103E-01
 -1      3619 1.58431E-01
 -1      3620 1.54631E-01
 -1      3621 1.29130E-01
 -1      3622 1.54136E-01
 -1      3623 1.46044E-01
 -1      3624 1.34712E-01
 -1      3625 1.41418E-01
 -1      3626 1.31280E-01
 -1      3627 1.29590E-01
 -1      3628 1.24357E-01
 -1      3629 1.16105E-01
 -1      3630 1.18041E-01
 -1      3631 1.08662E-01
 -1      3632 1.00062E-01
 -1      3633 1.03675E-01
 -1      3634 9.35583E-02
 -1      3635 8.47455E-02
 -1      3636 8.97284E-02
 -1      3637 7.79602E-02
 -1      3638 6.94588E-02
 -1      3639 7.64391E-02
 -1      3640 6.28892E-02
 -1      3641 5.49627E-02
 -1      3642 6.30841E-02
 -1      3643 4.89209E-02
 -1      3644 4.16599E-02
 -1      3645 5.04726E-02
 -1      3646 4.06124E-02
 -1      3647 4.02983E-02
 -1      3648 4.33833E-02
 -1      3649 4.12637E-02
 -1      3650 4.39976E-02
 -1      3651 4.33013E-02
 -1      3652 5.11992E-02
 -1      3653 6.07969E-02
 -1      3654 5.14683E-02
 -1      3655 7.54911E-02
 -1      3656 9.50327E-02
 -1      3657 7.33642E-02
 -1      3658 1.12707E-01
 -1      3659 1.34581E-01
 -1      3660 1.05732E-01
 -1      3661 1.63344E-01
 -1      3662 2.05938E-01
 -1      3663 1.52169E-01
 -1      3664 2.46895E-01
 -1      3665 3.12681E-01
 -1      3666 2.21889E-01
 -1      3667 3.68097E-01
 -1      3668 4.67583E-01
 -1      3669 3.18262E-01
 -1      3670 5.94818E-01
 -1      3671 7.40409E-01
 -1      3672 5.00912E-01
 -1      3673 9.37018E-01
 -1      3674 1.13781E+00
 -1      3675 8.24757E-01
 -1      3676 1.40888E+00
 -1      3677 1.87463E+00
 -1      3678 1.29243E+00
 -1      3679 2.26079E+00
 -1      3680 2.91772E+00
 -1      3681 1.94965E+00
 -1      3682 9.62259E-02
 -1      3683 1.05371E-01
 -1      3684 2.19666E-01
 -1      3685 2.29484E-01
 -1      3686 1.88885E-01
 -1      3687 6.45190E-02
 -1      3688 7.30743E-02
 -1      3689 8.01839E-02
 -1      3690 8.92145E-02
 -1      3691 8.70445E-02
 -1      3692 7.29235E-02
 -1      3693 1.12054E-01
 -1      3694 1.20623E-01
 -1      3695 1.00739E-01
 -1      3696 4.96526E-02
 -1      3697 5.76118E-02
 -1      3698 5.89068E-02
 -1      3699 3.56090E-02
 -1      3700 4.30206E-02
 -1      3701 4.53677E-02
 -1      3702 2.67492E-02
 -1      3703 3.26102E-02
 -1      3704 3.57369E-02
 -1      3705 2.21500E-02
 -1      3706 2.45025E-02
 -1      3707 3.04913E-02
 -1      3708 2.83229E-02
 -1      3709 2.36926E-02
 -1      3710 2.97871E-02
 -1      3711 4.16127E-02
 -1      3712 3.39723E-02
 -1      3713 3.69791E-02
 -1      3714 6.32105E-02
 -1      3715 5.30846E-02
 -1      3716 5.41005E-02
 -1      3717 9.98362E-02
 -1      3718 7.96621E-02
 -1      3719 8.20239E-02
 -1      3720 1.50716E-01
 -1      3721 1.20567E-01
 -1      3722 1.19206E-01
 -1      3723 2.27816E-01
 -1      3724 1.88288E-01
 -1      3725 1.77508E-01
 -1      3726 3.33003E-01
 -1      3727 2.85819E-01
 -1      3728 2.73083E-01
 -1      3729 4.74178E-01
 -1      3730 4.04549E-01
 -1      3731 4.02632E-01
 -1      3732 6.39996E-01
 -1      3733 5.51318E-01
 -1      3734 5.51318E-01
 -1      3735 8.61147E-01
 -1      3736 7.55567E-01
 -1      3737 7.44029E-01
 -1      3738 1.07308E+00
 -1      3739 9.83811E-01
 -1      3740 9.82264E-01
 -1      3741 1.23363E+00
 -1      3742 1.13742E+00
 -1      3743 1.16928E+00
 -1      3744 1.68986E+00
 -1      3745 1.64729E+00
 -1      3746 1.64729E+00
 -1      3747 1.52987E+00
 -1      3748 1.48041E+00
 -1      3749 1.85151E+00
 -1      3750 2.05498E+00
 -1      3751 1.92049E+00
 -1      3752 2.03268E+00
 -1      3753 1.96672E+00
 -1      3754 1.94287E+00
 -1      3755 2.31120E+00
 -1      3756 2.68159E+00
 -1      3757 2.65547E+00
 -1      3758 2.88783E+00
 -1      3759 2.48294E+00
 -1      3760 2.54099E+00
 -1      3761 3.43598E+00
 -1      3762 1.66314E+00
 -1      3763 1.79761E+00
 -1      3764 2.61006E+00
 -1      3765 1.46350E+00
 -1      3766 1.49368E+00
 -1      3767 1.75526E+00
 -1      3768 1.28980E+00
 -1      3769 1.34120E+00
 -1      3770 1.46350E+00
 -1      3771 1.13607E+00
 -1      3772 1.23840E+00
 -1      3773 1.28980E+00
 -1      3774 9.55767E-01
 -1      3775 1.04612E+00
 -1      3776 1.14845E+00
 -1      3777 8.53699E-01
 -1      3778 9.56886E-01
 -1      3779 1.05962E+00
 -1      3780 5.19700E-01
 -1      3781 6.11978E-01
 -1      3782 8.19015E-01
 -1      3783 4.95961E-01
 -1      3784 1.57709E-01
 -1      3785 1.64747E-01
 -1      3786 2.14428E-01
 -1      3787 2.46986E-01
 -1      3788 2.50446E-01
 -1      3789 2.38997E+00
 -1      3790 2.29359E+00
 -1      3791 1.18869E+00
 -1      3792 1.15332E+00
 -1      3793 2.11237E+00
 -1      3794 2.30284E-01
 -1      3795 2.34777E-01
 -1      3796 1.98648E-01
 -1      3797 1.53165E-01
 -1      3798 7.27320E-01
 -1      3799 2.45672E-01
 -1      3800 2.45672E-01
 -1      3801 1.88176E-01
 -1      3802 2.07762E-01
 -1      3803 5.79180E+00
 -1      3804 5.10349E+00
 -1      3805 5.64887E+00
 -1      3806 3.47207E+00
 -1      3807 3.14964E+00
 -1      3808 1.83367E+00
 -1      3809 1.62473E+00
 -1      3810 1.43371E+00
 -1      3811 1.56259E-01
 -1      3812 1.07140E+00
 -1      3813 9.21369E-01
 -1      3814 4.32597E+00
 -1      3815 3.71172E+00
 -1      3816 3.34873E+00
 -1      3817 3.12772E+00
 -1      3818 3.70963E+00
 -1      3819 4.93156E+00
 -1      3820 1.82074E-01
 -1      3821 2.76602E+00
 -1      3822 2.53611E+00
 -1      3823 2.91974E+00
 -1      3824 2.34999E+00
 -1      3825 1.54565E-01
 -1      3826 1.39049E-01
 -1      3827 1.44530E-01
 -1      3828 1.85768E-01
 -1      3829 1.83877E-01
 -1      3830 3.70919E+00
 -1      3831 3.70919E+00
 -1      3832 2.40932E+00
 -1      3833 1.96937E+00
 -1      3834 2.19810E+00
 -1      3835 2.29946E+00
 -1      3836 1.15334E-01
 -1      3837 1.28535E-01
 -1      3838 1.38201E-01
 -1      3839 3.57658E+00
 -1      3840 3.83017E+00
 -1      3841 3.61006E+00
 -1      3842 1.07140E+00
 -1      3843 3.78258E+00
 -1      3844 3.84338E+00
 -1      3845 3.05807E+00
 -1      3846 2.38021E+00
 -1      3847 2.28772E+00
 -1      3848 2.25348E+00
 -1      3849 5.07370E+00
 -1      3850 1.33576E+00
 -1      3851 1.08301E+00
 -1      3852 1.07140E+00
 -1      3853 1.99648E+00
 -1      3854 1.89499E+00
 -1      3855 2.81868E+00
 -1      3856 2.25590E+00
 -1      3857 5.06268E+00
 -1      3858 4.19381E+00
 -1      3859 2.59264E+00
 -1      3860 3.10460E+00
 -1      3861 1.92734E-01
 -1      3862 1.92734E-01
 -1      3863 1.62184E-01
 -1      3864 2.09844E+00
 -1      3865 1.40148E-01
 -1      3866 1.62702E-01
 -1      3867 1.64285E-01
 -1      3868 1.13184E-01
 -1      3869 1.14402E-01
 -1      3870 1.42215E-01
 -1      3871 3.16927E+00
 -1      3872 2.29359E+00
 -1      3873 2.42331E+00
 -1      3874 5.24624E+00
 -1      3875 1.38566E-01
 -1      3876 1.71415E-01
 -1      3877 1.36301E-01
 -1      3878 2.79212E+00
 -1      3879 3.01056E+00
 -1      3880 5.16694E-02
 -1      3881 5.85765E-02
 -1      3882 1.06241E-01
 -1      3883 1.12319E-01
 -1      3884 1.18226E-01
 -1      3885 1.17731E-01
 -1      3886 9.53375E-02
 -1      3887 1.18292E-01
 -1      3888 1.13666E-01
 -1      3889 1.01806E-01
 -1      3890 1.10788E-01
 -1      3891 1.03865E-01
 -1      3892 9.94901E-02
 -1      3893 9.89909E-02
 -1      3894 9.15480E-02
 -1      3895 9.17380E-02
 -1      3896 8.56996E-02
 -1      3897 7.91956E-02
 -1      3898 8.10152E-02
 -1      3899 7.33732E-02
 -1      3900 6.65879E-02
 -1      3901 6.93443E-02
 -1      3902 6.16400E-02
 -1      3903 5.50703E-02
 -1      3904 5.85740E-02
 -1      3905 5.19771E-02
 -1      3906 4.59353E-02
 -1      3907 5.05330E-02
 -1      3908 4.42267E-02
 -1      3909 4.31792E-02
 -1      3910 4.57312E-02
 -1      3911 4.40017E-02
 -1      3912 4.49672E-02
 -1      3913 4.48451E-02
 -1      3914 4.91708E-02
 -1      3915 5.63724E-02
 -1      3916 4.98712E-02
 -1      3917 6.60270E-02
 -1      3918 8.07213E-02
 -1      3919 6.37295E-02
 -1      3920 9.08202E-02
 -1      3921 1.08494E-01
 -1      3922 8.34831E-02
 -1      3923 1.24447E-01
 -1      3924 1.53210E-01
 -1      3925 1.09535E-01
 -1      3926 1.88709E-01
 -1      3927 2.29666E-01
 -1      3928 1.60987E-01
 -1      3929 2.87255E-01
 -1      3930 3.42670E-01
 -1      3931 2.54075E-01
 -1      3932 4.26600E-01
 -1      3933 5.53836E-01
 -1      3934 3.95593E-01
 -1      3935 6.71165E-01
 -1      3936 8.67774E-01
 -1      3937 5.96853E-01
 -1      3938 1.03656E+00
 -1      3939 1.30762E+00
 -1      3940 8.82966E-01
 -1      3941 1.57572E+00
 -1      3942 1.96188E+00
 -1      3943 1.31985E+00
 -1      3944 8.96811E-02
 -1      3945 9.63639E-02
 -1      3946 1.79809E-01
 -1      3947 4.20666E-02
 -1      3948 4.86986E-02
 -1      3949 4.83683E-02
 -1      3950 2.58519E+00
 -1      3951 3.25085E+00
 -1      3952 2.54454E+00
 -1      3953 3.73430E-02
 -1      3954 4.03418E-02
 -1      3955 4.36727E-02
 -1      3956 3.39229E-02
 -1      3957 3.61697E-02
 -1      3958 4.07746E-02
 -1      3959 3.52687E-02
 -1      3960 3.37262E-02
 -1      3961 3.94046E-02
 -1      3962 4.58955E-02
 -1      3963 4.02460E-02
 -1      3964 4.41851E-02
 -1      3965 6.70705E-02
 -1      3966 5.55986E-02
 -1      3967 5.88655E-02
 -1      3968 9.80019E-02
 -1      3969 8.15503E-02
 -1      3970 8.30485E-02
 -1      3971 1.46857E-01
 -1      3972 1.26126E-01
 -1      3973 1.25653E-01
 -1      3974 2.22496E-01
 -1      3975 1.84925E-01
 -1      3976 1.91845E-01
 -1      3977 3.27157E-01
 -1      3978 2.69154E-01
 -1      3979 2.76570E-01
 -1      3980 4.55024E-01
 -1      3981 3.83477E-01
 -1      3982 3.79549E-01
 -1      3983 6.27452E-01
 -1      3984 5.50313E-01
 -1      3985 5.31158E-01
 -1      3986 8.59599E-01
 -1      3987 7.44029E-01
 -1      3988 7.43023E-01
 -1      3989 1.10493E+00
 -1      3990 9.82264E-01
 -1      3991 9.82264E-01
 -1      3992 1.30962E+00
 -1      3993 1.24528E+00
 -1      3994 1.24528E+00
 -1      3995 2.29854E+00
 -1      3996 1.88487E+00
 -1      3997 1.96087E+00
 -1      3998 1.90296E+00
 -1      3999 2.48053E+00
 -1      4000 2.59264E+00
 -1      4001 2.10679E+00
 -1      4002 2.79212E+00
 -1      4003 1.65160E+00
 -1      4004 1.82106E+00
 -1      4005 1.53328E+00
 -1      4006 1.58468E+00
 -1      4007 1.22284E+00
 -1      4008 1.31279E+00
 -1      4009 1.60767E+00
 -1      4010 1.09598E+00
 -1      4011 1.09486E+00
 -1      4012 1.25920E+00
 -1      4013 1.16309E+00
 -1      4014 2.00401E+00
 -1      4015 1.20231E-01
 -1      4016 1.12181E-01
 -1      4017 9.53696E-02
 -1      4018 3.49138E+00
 -1      4019 3.18468E+00
 -1      4020 3.68957E+00
 -1      4021 4.36346E+00
 -1      4022 4.39325E+00
 -1      4023 1.19833E+00
 -1      4024 1.26544E+00
 -1      4025 2.40312E+00
 -1      4026 2.53611E+00
 -1      4027 2.34999E+00
 -1      4028 3.76843E+00
 -1      4029 4.97062E+00
 -1      4030 4.19524E+00
 -1      4031 1.54253E-01
 -1      4032 1.82912E-01
 -1      4033 1.78138E-01
 -1      4034 2.11241E+00
 -1      4035 2.79033E+00
 -1      4036 3.26486E+00
 -1      4037 2.29568E+00
 -1      4038 2.72633E+00
 -1      4039 3.51823E+00
 -1      4040 2.35240E+00
 -1      4041 1.58580E+00
 -1      4042 1.65160E+00
 -1      4043 2.13230E+00
 -1      4044 1.46350E+00
 -1      4045 2.82260E+00
 -1      4046 1.68413E+00
 -1      4047 1.61382E+00
 -1      4048 5.67291E-02
 -1      4049 6.39666E-02
 -1      4050 7.10762E-02
 -1      4051 1.70698E+00
 -1      4052 9.10122E-02
 -1      4053 1.02070E-01
 -1      4054 1.09982E-01
 -1      4055 8.33689E-02
 -1      4056 7.89942E-02
 -1      4057 7.63576E-02
 -1      4058 1.53626E-01
 -1      4059 2.92694E+00
 -1      4060 2.54332E+00
 -1      4061 1.29575E-01
 -1      4062 2.53611E+00
 -1      4063 3.96108E+00
 -1      4064 2.88783E+00
 -1      4065 3.29538E+00
 -1      4066 1.70698E+00
 -1      4067 1.30326E+00
 -1      4068 1.30326E+00
 -1      4069 1.23615E+00
 -1      4070 1.65163E+00
 -1      4071 1.46221E-01
 -1      4072 1.27298E-01
 -1      4073 1.21918E-01
 -1      4074 1.25063E-01
 -1      4075 1.63326E-01
 -1      4076 2.54625E+00
 -1      4077 2.85703E+00
 -1      4078 2.08668E+00
 -1      4079 1.92734E-01
 -1      4080 1.69150E-01
 -1      4081 2.56678E+00
 -1      4082 3.79385E+00
 -1      4083 2.80826E+00
 -1      4084 1.04526E-01
 -1      4085 1.21656E-01
 -1      4086 1.19611E-01
 -1      4087 1.39374E-01
 -1      4088 1.32408E-01
 -1      4089 1.05454E-01
 -1      4090 1.28263E-01
 -1      4091 1.27298E-01
 -1      4092 3.32818E+00
 -1      4093 2.62575E+00
 -1      4094 2.65117E+00
 -1      4095 1.54984E+00
 -1      4096 2.31429E+00
 -1      4097 1.84862E+00
 -1      4098 3.03128E+00
 -1      4099 8.77619E-02
 -1      4100 8.83236E-02
 -1      4101 8.88706E-02
 -1      4102 8.59928E-02
 -1      4103 7.48262E-02
 -1      4104 8.40276E-02
 -1      4105 7.91533E-02
 -1      4106 7.34081E-02
 -1      4107 7.72660E-02
 -1      4108 7.14175E-02
 -1      4109 6.95556E-02
 -1      4110 6.91917E-02
 -1      4111 6.33693E-02
 -1      4112 6.54425E-02
 -1      4113 6.05959E-02
 -1      4114 5.56480E-02
 -1      4115 6.04432E-02
 -1      4116 5.29428E-02
 -1      4117 4.98497E-02
 -1      4118 5.49647E-02
 -1      4119 4.76510E-02
 -1      4120 4.59424E-02
 -1      4121 5.00609E-02
 -1      4122 4.45602E-02
 -1      4123 4.53827E-02
 -1      4124 4.64800E-02
 -1      4125 4.61986E-02
 -1      4126 5.04022E-02
 -1      4127 4.59137E-02
 -1      4128 5.76155E-02
 -1      4129 6.72701E-02
 -1      4130 5.39428E-02
 -1      4131 8.18482E-02
 -1      4132 9.19471E-02
 -1      4133 7.57342E-02
 -1      4134 1.14718E-01
 -1      4135 1.30672E-01
 -1      4136 1.13084E-01
 -1      4137 1.64912E-01
 -1      4138 2.00411E-01
 -1      4139 1.70095E-01
 -1      4140 2.49235E-01
 -1      4141 3.06824E-01
 -1      4142 2.53160E-01
 -1      4143 3.71826E-01
 -1      4144 4.55756E-01
 -1      4145 3.66987E-01
 -1      4146 5.40292E-01
 -1      4147 6.57622E-01
 -1      4148 5.16525E-01
 -1      4149 8.00617E-01
 -1      4150 9.69400E-01
 -1      4151 7.44056E-01
 -1      4152 1.11508E+00
 -1      4153 1.38319E+00
 -1      4154 1.34508E+00
 -1      4155 1.03274E+00
 -1      4156 4.19974E-02
 -1      4157 4.31707E-02
 -1      4158 1.14173E-01
 -1      4159 1.20502E-01
 -1      4160 1.06516E-01
 -1      4161 1.00909E-01
 -1      4162 4.29687E-02
 -1      4163 4.31654E-02
 -1      4164 4.55615E-02
 -1      4165 4.36727E-02
 -1      4166 4.53975E-02
 -1      4167 4.48955E-02
 -1      4168 5.51592E-02
 -1      4169 5.01819E-02
 -1      4170 5.39428E-02
 -1      4171 7.94404E-02
 -1      4172 6.97373E-02
 -1      4173 7.57342E-02
 -1      4174 1.16692E-01
 -1      4175 1.02212E-01
 -1      4176 1.13084E-01
 -1      4177 1.79057E-01
 -1      4178 1.50932E-01
 -1      4179 1.70095E-01
 -1      4180 2.65949E-01
 -1      4181 2.27881E-01
 -1      4182 2.53160E-01
 -1      4183 3.77609E-01
 -1      4184 3.30951E-01
 -1      4185 3.66987E-01
 -1      4186 5.25962E-01
 -1      4187 4.69641E-01
 -1      4188 5.24022E-01
 -1      4189 7.56749E-01
 -1      4190 6.61460E-01
 -1      4191 7.51553E-01
 -1      4192 1.01901E+00
 -1      4193 9.02433E-01
 -1      4194 1.03274E+00
 -1      4195 1.30660E+00
 -1      4196 1.18394E+00
 -1      4197 1.34335E+00
 -1      4198 2.54332E+00
 -1      4199 1.96807E+00
 -1      4200 1.01309E-01
 -1      4201 1.60767E+00
 -1      4202 1.82815E+00
 -1      4203 7.85904E-02
 -1      4204 7.26513E-02
 -1      4205 7.85904E-02
 -1      4206 1.62145E+00
 -1      4207 1.74943E+00
 -1      4208 1.96992E+00
 -1      4209 1.72638E+00
 -1      4210 7.68004E-02
 -1      4211 8.27075E-02
 -1      4212 6.92248E-02
 -1      4213 6.00212E-02
 -1      4214 1.39374E-01
 -1      4215 1.39374E-01
 -1      4216 1.09598E-01
 -1      4217 1.23850E-01
 -1      4218 1.59885E-01
 -1      4219 2.22928E+00
 -1      4220 2.88102E+00
 -1      4221 2.02061E+00
 -1      4222 2.14541E+00
 -1      4223 4.76996E-02
 -1      4224 5.06704E-02
 -1      4225 4.76996E-02
 -1      4226 1.82815E+00
 -1      4227 2.52052E+00
 -1      4228 2.26278E+00
 -1      4229 1.68033E+00
 -1      4230 2.08027E+00
 -1      4231 1.05359E-01
 -1      4232 5.34100E-02
 -1      4233 5.88001E-02
 -1      4234 5.27414E-02
 -1      4235 7.90205E-02
 -1      4236 8.47264E-02
 -1      4237 6.74006E-02
 -1      4238 9.12924E-02
 -1      4239 8.78860E-02
 -1      4240 9.26121E-02
 -1      4241 9.40282E-02
 -1      4242 7.73885E-02
 -1      4243 1.53998E+00
 -1      4244 1.74166E+00
 -1      4245 2.74026E+00
 -1      4246 2.16175E+00
 -1      4247 8.57299E-02
 -1      4248 8.57299E-02
 -1      4249 6.94674E-02
 -1      4250 7.57796E-02
 -1      4251 6.94938E-02
 -1      4252 8.27352E-02
 -1      4253 3.96108E+00
 -1      4254 1.82815E+00
 -1      4255 5.88668E-02
 -1      4256 7.72017E-02
 -1      4257 7.77488E-02
 -1      4258 6.16731E-02
 -1      4259 6.69545E-02
 -1      4260 5.83540E-02
 -1      4261 1.84689E+00
 -1      4262 6.11561E-02
 -1      4263 5.39428E-02
 -1      4264 7.20888E-02
 -1      4265 7.02015E-02
 -1      4266 6.69606E-02
 -1      4267 6.47347E-02
 -1      4268 6.22219E-02
 -1      4269 5.94485E-02
 -1      4270 5.65754E-02
 -1      4271 5.38703E-02
 -1      4272 5.11306E-02
 -1      4273 4.89320E-02
 -1      4274 4.66299E-02
 -1      4275 4.52477E-02
 -1      4276 4.47456E-02
 -1      4277 4.55615E-02
 -1      4278 4.67296E-02
 -1      4279 7.57342E-02
 -1      4280 9.03123E-02
 -1      4281 1.13084E-01
 -1      4282 1.35855E-01
 -1      4283 1.70095E-01
 -1      4284 2.04336E-01
 -1      4285 2.53160E-01
 -1      4286 3.01984E-01
 -1      4287 3.66987E-01
 -1      4288 4.31989E-01
 -1      4289 5.16525E-01
 -1      4290 6.08557E-01
 -1      4291 7.51553E-01
 -1      4292 8.76364E-02
 -1      4293 9.18273E-02
 -1      4294 7.93395E-02
 -1      4295 7.56448E-02
 -1      4296 2.09535E+00
 -1      4297 8.87051E-01
 -1      4298 1.17842E+00
 -1      4299 1.03274E+00
 -1      4300 1.51001E+00
 -1      4301 1.34508E+00
 -1      4302 8.14904E-02
 -1      4303 1.71005E+00
 -1      4304 2.08668E+00
 -1      4305 6.82571E-02
 -1      4306 6.30159E-02
 -1      4307 7.49988E-02
 -1      4308 6.94115E-02
 -1      4309 6.37400E-02
 -1      4310 7.69640E-02
 -1      4311 7.44659E-02
 -1      4312 2.22845E+00
 -3
 9999
