    1C
    1UUSER                                                              
    1UDATE              27.october.2022                                 
    1UTIME              00:37:33                                        
    1UHOST                                                              
    1UPGM               CalculiX                                        
    1UVERSION           Version 2.17                             
    1UCOMPILETIME       Thu Jul 23 21:43:50 CEST 2020                    
    1UDIR                                                               
    1UDBN                                                               
    1UMAT    1SOLIDMATERIAL                                             
    2C                          4392                                     1
 -1         1 5.72727E+01 3.89527E+01 0.00000E+00
 -1         2 5.84692E+01 3.50388E+01 0.00000E+00
 -1         3 1.50000E+02 0.00000E+00 0.00000E+00
 -1         4 1.50000E+02 5.00000E+01 0.00000E+00
 -1         5 0.00000E+00 0.00000E+00 0.00000E+00
 -1         6 0.00000E+00 5.00000E+01 0.00000E+00
 -1         7 0.00000E+00 4.70500E+01 0.00000E+00
 -1         8 0.00000E+00 4.41000E+01 0.00000E+00
 -1         9 0.00000E+00 4.11500E+01 0.00000E+00
 -1        10 0.00000E+00 3.82000E+01 0.00000E+00
 -1        11 0.00000E+00 3.52500E+01 0.00000E+00
 -1        12 0.00000E+00 3.23500E+01 0.00000E+00
 -1        13 0.00000E+00 2.94000E+01 0.00000E+00
 -1        14 0.00000E+00 2.64500E+01 0.00000E+00
 -1        15 0.00000E+00 2.35000E+01 0.00000E+00
 -1        16 0.00000E+00 2.05500E+01 0.00000E+00
 -1        17 0.00000E+00 1.76000E+01 0.00000E+00
 -1        18 0.00000E+00 1.47000E+01 0.00000E+00
 -1        19 0.00000E+00 1.17500E+01 0.00000E+00
 -1        20 0.00000E+00 8.80000E+00 0.00000E+00
 -1        21 0.00000E+00 5.85000E+00 0.00000E+00
 -1        22 0.00000E+00 2.90000E+00 0.00000E+00
 -1        23 3.00000E+00 5.00000E+01 0.00000E+00
 -1        24 6.00000E+00 5.00000E+01 0.00000E+00
 -1        25 9.00000E+00 5.00000E+01 0.00000E+00
 -1        26 1.20000E+01 5.00000E+01 0.00000E+00
 -1        27 1.50000E+01 5.00000E+01 0.00000E+00
 -1        28 1.80000E+01 5.00000E+01 0.00000E+00
 -1        29 2.08500E+01 5.00000E+01 0.00000E+00
 -1        30 2.38500E+01 5.00000E+01 0.00000E+00
 -1        31 2.68500E+01 5.00000E+01 0.00000E+00
 -1        32 2.98500E+01 5.00000E+01 0.00000E+00
 -1        33 3.28500E+01 5.00000E+01 0.00000E+00
 -1        34 3.58500E+01 5.00000E+01 0.00000E+00
 -1        35 3.87000E+01 5.00000E+01 0.00000E+00
 -1        36 4.17000E+01 5.00000E+01 0.00000E+00
 -1        37 4.47000E+01 5.00000E+01 0.00000E+00
 -1        38 4.77000E+01 5.00000E+01 0.00000E+00
 -1        39 5.01000E+01 5.00000E+01 0.00000E+00
 -1        40 5.26500E+01 5.00000E+01 0.00000E+00
 -1        41 5.53500E+01 5.00000E+01 0.00000E+00
 -1        42 5.79000E+01 5.00000E+01 0.00000E+00
 -1        43 6.07500E+01 5.00000E+01 0.00000E+00
 -1        44 6.37500E+01 5.00000E+01 0.00000E+00
 -1        45 6.67500E+01 5.00000E+01 0.00000E+00
 -1        46 6.97500E+01 5.00000E+01 0.00000E+00
 -1        47 7.27500E+01 5.00000E+01 0.00000E+00
 -1        48 7.56000E+01 5.00000E+01 0.00000E+00
 -1        49 7.86000E+01 5.00000E+01 0.00000E+00
 -1        50 8.16000E+01 5.00000E+01 0.00000E+00
 -1        51 8.46000E+01 5.00000E+01 0.00000E+00
 -1        52 8.76000E+01 5.00000E+01 0.00000E+00
 -1        53 9.06000E+01 5.00000E+01 0.00000E+00
 -1        54 9.36000E+01 5.00000E+01 0.00000E+00
 -1        55 9.64500E+01 5.00000E+01 0.00000E+00
 -1        56 9.94500E+01 5.00000E+01 0.00000E+00
 -1        57 1.02450E+02 5.00000E+01 0.00000E+00
 -1        58 1.05450E+02 5.00000E+01 0.00000E+00
 -1        59 1.08450E+02 5.00000E+01 0.00000E+00
 -1        60 1.11450E+02 5.00000E+01 0.00000E+00
 -1        61 1.14300E+02 5.00000E+01 0.00000E+00
 -1        62 1.17300E+02 5.00000E+01 0.00000E+00
 -1        63 1.20300E+02 5.00000E+01 0.00000E+00
 -1        64 1.23300E+02 5.00000E+01 0.00000E+00
 -1        65 1.26300E+02 5.00000E+01 0.00000E+00
 -1        66 1.29300E+02 5.00000E+01 0.00000E+00
 -1        67 1.32150E+02 5.00000E+01 0.00000E+00
 -1        68 1.35150E+02 5.00000E+01 0.00000E+00
 -1        69 1.38150E+02 5.00000E+01 0.00000E+00
 -1        70 1.41150E+02 5.00000E+01 0.00000E+00
 -1        71 1.44150E+02 5.00000E+01 0.00000E+00
 -1        72 1.47150E+02 5.00000E+01 0.00000E+00
 -1        73 3.15000E+00 0.00000E+00 0.00000E+00
 -1        74 6.15000E+00 0.00000E+00 0.00000E+00
 -1        75 9.15000E+00 0.00000E+00 0.00000E+00
 -1        76 1.21500E+01 0.00000E+00 0.00000E+00
 -1        77 1.51500E+01 0.00000E+00 0.00000E+00
 -1        78 1.81500E+01 0.00000E+00 0.00000E+00
 -1        79 2.11500E+01 0.00000E+00 0.00000E+00
 -1        80 2.41500E+01 0.00000E+00 0.00000E+00
 -1        81 2.71500E+01 0.00000E+00 0.00000E+00
 -1        82 3.01500E+01 0.00000E+00 0.00000E+00
 -1        83 3.31500E+01 0.00000E+00 0.00000E+00
 -1        84 3.61500E+01 0.00000E+00 0.00000E+00
 -1        85 3.91500E+01 0.00000E+00 0.00000E+00
 -1        86 4.21500E+01 0.00000E+00 0.00000E+00
 -1        87 4.51500E+01 0.00000E+00 0.00000E+00
 -1        88 4.81500E+01 0.00000E+00 0.00000E+00
 -1        89 5.11500E+01 0.00000E+00 0.00000E+00
 -1        90 5.41500E+01 0.00000E+00 0.00000E+00
 -1        91 5.71500E+01 0.00000E+00 0.00000E+00
 -1        92 6.01500E+01 0.00000E+00 0.00000E+00
 -1        93 6.31500E+01 0.00000E+00 0.00000E+00
 -1        94 6.61500E+01 0.00000E+00 0.00000E+00
 -1        95 6.91500E+01 0.00000E+00 0.00000E+00
 -1        96 7.21500E+01 0.00000E+00 0.00000E+00
 -1        97 7.51500E+01 0.00000E+00 0.00000E+00
 -1        98 7.81500E+01 0.00000E+00 0.00000E+00
 -1        99 8.11500E+01 0.00000E+00 0.00000E+00
 -1       100 8.41500E+01 0.00000E+00 0.00000E+00
 -1       101 8.71500E+01 0.00000E+00 0.00000E+00
 -1       102 9.01500E+01 0.00000E+00 0.00000E+00
 -1       103 9.31500E+01 0.00000E+00 0.00000E+00
 -1       104 9.61500E+01 0.00000E+00 0.00000E+00
 -1       105 9.91500E+01 0.00000E+00 0.00000E+00
 -1       106 1.02150E+02 0.00000E+00 0.00000E+00
 -1       107 1.05150E+02 0.00000E+00 0.00000E+00
 -1       108 1.08150E+02 0.00000E+00 0.00000E+00
 -1       109 1.11150E+02 0.00000E+00 0.00000E+00
 -1       110 1.14150E+02 0.00000E+00 0.00000E+00
 -1       111 1.17150E+02 0.00000E+00 0.00000E+00
 -1       112 1.20150E+02 0.00000E+00 0.00000E+00
 -1       113 1.23150E+02 0.00000E+00 0.00000E+00
 -1       114 1.26150E+02 0.00000E+00 0.00000E+00
 -1       115 1.29150E+02 0.00000E+00 0.00000E+00
 -1       116 1.32150E+02 0.00000E+00 0.00000E+00
 -1       117 1.35150E+02 0.00000E+00 0.00000E+00
 -1       118 1.38150E+02 0.00000E+00 0.00000E+00
 -1       119 1.41150E+02 0.00000E+00 0.00000E+00
 -1       120 1.44150E+02 0.00000E+00 0.00000E+00
 -1       121 1.47150E+02 0.00000E+00 0.00000E+00
 -1       122 1.50000E+02 2.95000E+00 0.00000E+00
 -1       123 1.50000E+02 5.90000E+00 0.00000E+00
 -1       124 1.50000E+02 8.85000E+00 0.00000E+00
 -1       125 1.50000E+02 1.18000E+01 0.00000E+00
 -1       126 1.50000E+02 1.47500E+01 0.00000E+00
 -1       127 1.50000E+02 1.76500E+01 0.00000E+00
 -1       128 1.50000E+02 2.06000E+01 0.00000E+00
 -1       129 1.50000E+02 2.35500E+01 0.00000E+00
 -1       130 1.50000E+02 2.65000E+01 0.00000E+00
 -1       131 1.50000E+02 2.94500E+01 0.00000E+00
 -1       132 1.50000E+02 3.24000E+01 0.00000E+00
 -1       133 1.50000E+02 3.53000E+01 0.00000E+00
 -1       134 1.50000E+02 3.82500E+01 0.00000E+00
 -1       135 1.50000E+02 4.12000E+01 0.00000E+00
 -1       136 1.50000E+02 4.41500E+01 0.00000E+00
 -1       137 1.50000E+02 4.71000E+01 0.00000E+00
 -1       138 5.82798E+01 3.34216E+01 0.00000E+00
 -1       139 5.77654E+01 3.19797E+01 0.00000E+00
 -1       140 5.70190E+01 3.07727E+01 0.00000E+00
 -1       141 5.60374E+01 2.97349E+01 0.00000E+00
 -1       142 5.47342E+01 2.88469E+01 0.00000E+00
 -1       143 5.33678E+01 2.83012E+01 0.00000E+00
 -1       144 5.17941E+01 2.80463E+01 0.00000E+00
 -1       145 5.03267E+01 2.81326E+01 0.00000E+00
 -1       146 4.88685E+01 2.85398E+01 0.00000E+00
 -1       147 4.75713E+01 2.92244E+01 0.00000E+00
 -1       148 4.64599E+01 3.01492E+01 0.00000E+00
 -1       149 4.54569E+01 3.14538E+01 0.00000E+00
 -1       150 4.48139E+01 3.28692E+01 0.00000E+00
 -1       151 4.45041E+01 3.43404E+01 0.00000E+00
 -1       152 4.45304E+01 3.59630E+01 0.00000E+00
 -1       153 4.49017E+01 3.74613E+01 0.00000E+00
 -1       154 4.55462E+01 3.87695E+01 0.00000E+00
 -1       155 4.65617E+01 4.00304E+01 0.00000E+00
 -1       156 4.78081E+01 4.10051E+01 0.00000E+00
 -1       157 4.91505E+01 4.16436E+01 0.00000E+00
 -1       158 5.05458E+01 4.19776E+01 0.00000E+00
 -1       159 5.21118E+01 4.20092E+01 0.00000E+00
 -1       160 5.35740E+01 4.17148E+01 0.00000E+00
 -1       161 5.49491E+01 4.11125E+01 0.00000E+00
 -1       162 5.62645E+01 4.01382E+01 0.00000E+00
 -1       163 5.79367E+01 3.77166E+01 0.00000E+00
 -1       164 5.83341E+01 3.64072E+01 0.00000E+00
 -1       165 2.59800E+00 4.55750E+01 0.00000E+00
 -1       166 2.59800E+00 4.26250E+01 0.00000E+00
 -1       167 2.59800E+00 3.96750E+01 0.00000E+00
 -1       168 2.59800E+00 3.67250E+01 0.00000E+00
 -1       169 2.59800E+00 3.38250E+01 0.00000E+00
 -1       170 2.59800E+00 3.08750E+01 0.00000E+00
 -1       171 2.59800E+00 2.79250E+01 0.00000E+00
 -1       172 2.59800E+00 2.49750E+01 0.00000E+00
 -1       173 2.59800E+00 2.20250E+01 0.00000E+00
 -1       174 2.59800E+00 1.90750E+01 0.00000E+00
 -1       175 2.59800E+00 1.61750E+01 0.00000E+00
 -1       176 2.59800E+00 1.32250E+01 0.00000E+00
 -1       177 2.59800E+00 1.02750E+01 0.00000E+00
 -1       178 2.59800E+00 7.32500E+00 0.00000E+00
 -1       179 2.59800E+00 4.37500E+00 0.00000E+00
 -1       180 2.87400E+00 2.18750E+00 0.00000E+00
 -1       181 4.50000E+00 4.74020E+01 0.00000E+00
 -1       182 7.50000E+00 4.74020E+01 0.00000E+00
 -1       183 1.05000E+01 4.74020E+01 0.00000E+00
 -1       184 1.35000E+01 4.74020E+01 0.00000E+00
 -1       185 1.65000E+01 4.74020E+01 0.00000E+00
 -1       186 1.93500E+01 4.74020E+01 0.00000E+00
 -1       187 2.23500E+01 4.74020E+01 0.00000E+00
 -1       188 2.53500E+01 4.74020E+01 0.00000E+00
 -1       189 2.83500E+01 4.74020E+01 0.00000E+00
 -1       190 3.13500E+01 4.74020E+01 0.00000E+00
 -1       191 3.43500E+01 4.74020E+01 0.00000E+00
 -1       192 3.72000E+01 4.74020E+01 0.00000E+00
 -1       193 4.02000E+01 4.74020E+01 0.00000E+00
 -1       194 4.32000E+01 4.74020E+01 0.00000E+00
 -1       195 4.62000E+01 4.74020E+01 0.00000E+00
 -1       196 4.86000E+01 4.74020E+01 0.00000E+00
 -1       197 5.11500E+01 4.74020E+01 0.00000E+00
 -1       198 5.38500E+01 4.74020E+01 0.00000E+00
 -1       199 5.64000E+01 4.74020E+01 0.00000E+00
 -1       200 5.92500E+01 4.74020E+01 0.00000E+00
 -1       201 6.22500E+01 4.74020E+01 0.00000E+00
 -1       202 6.52500E+01 4.74020E+01 0.00000E+00
 -1       203 6.82500E+01 4.74020E+01 0.00000E+00
 -1       204 7.12500E+01 4.74020E+01 0.00000E+00
 -1       205 7.41000E+01 4.74020E+01 0.00000E+00
 -1       206 7.71000E+01 4.74020E+01 0.00000E+00
 -1       207 8.01000E+01 4.74020E+01 0.00000E+00
 -1       208 8.31000E+01 4.74020E+01 0.00000E+00
 -1       209 8.61000E+01 4.74020E+01 0.00000E+00
 -1       210 8.91000E+01 4.74020E+01 0.00000E+00
 -1       211 9.21000E+01 4.74020E+01 0.00000E+00
 -1       212 9.49500E+01 4.74020E+01 0.00000E+00
 -1       213 9.79500E+01 4.74020E+01 0.00000E+00
 -1       214 1.00950E+02 4.74020E+01 0.00000E+00
 -1       215 1.03950E+02 4.74020E+01 0.00000E+00
 -1       216 1.06950E+02 4.74020E+01 0.00000E+00
 -1       217 1.09950E+02 4.74020E+01 0.00000E+00
 -1       218 1.12800E+02 4.74020E+01 0.00000E+00
 -1       219 1.15800E+02 4.74020E+01 0.00000E+00
 -1       220 1.18800E+02 4.74020E+01 0.00000E+00
 -1       221 1.21800E+02 4.74020E+01 0.00000E+00
 -1       222 1.24800E+02 4.74020E+01 0.00000E+00
 -1       223 1.27800E+02 4.74020E+01 0.00000E+00
 -1       224 1.30650E+02 4.74020E+01 0.00000E+00
 -1       225 1.33650E+02 4.74020E+01 0.00000E+00
 -1       226 1.36650E+02 4.74020E+01 0.00000E+00
 -1       227 1.39650E+02 4.74020E+01 0.00000E+00
 -1       228 1.42650E+02 4.74020E+01 0.00000E+00
 -1       229 1.45650E+02 4.74020E+01 0.00000E+00
 -1       230 5.87400E+00 2.18750E+00 0.00000E+00
 -1       231 8.87400E+00 2.18750E+00 0.00000E+00
 -1       232 1.18740E+01 2.18750E+00 0.00000E+00
 -1       233 1.48740E+01 2.18750E+00 0.00000E+00
 -1       234 1.78740E+01 2.18750E+00 0.00000E+00
 -1       235 2.08740E+01 2.18750E+00 0.00000E+00
 -1       236 2.38740E+01 2.18750E+00 0.00000E+00
 -1       237 2.68740E+01 2.18750E+00 0.00000E+00
 -1       238 2.98740E+01 2.18750E+00 0.00000E+00
 -1       239 3.28740E+01 2.18750E+00 0.00000E+00
 -1       240 3.58740E+01 2.18750E+00 0.00000E+00
 -1       241 3.88740E+01 2.18750E+00 0.00000E+00
 -1       242 4.18740E+01 2.18750E+00 0.00000E+00
 -1       243 4.48740E+01 2.18750E+00 0.00000E+00
 -1       244 4.78740E+01 2.18750E+00 0.00000E+00
 -1       245 5.08740E+01 2.18750E+00 0.00000E+00
 -1       246 5.38740E+01 2.18750E+00 0.00000E+00
 -1       247 5.68740E+01 2.18750E+00 0.00000E+00
 -1       248 5.98740E+01 2.18750E+00 0.00000E+00
 -1       249 6.28740E+01 2.18750E+00 0.00000E+00
 -1       250 6.58740E+01 2.18750E+00 0.00000E+00
 -1       251 6.88740E+01 2.18750E+00 0.00000E+00
 -1       252 7.18740E+01 2.18750E+00 0.00000E+00
 -1       253 7.48740E+01 2.18750E+00 0.00000E+00
 -1       254 7.78740E+01 2.18750E+00 0.00000E+00
 -1       255 8.08740E+01 2.18750E+00 0.00000E+00
 -1       256 8.38740E+01 2.18750E+00 0.00000E+00
 -1       257 8.68740E+01 2.18750E+00 0.00000E+00
 -1       258 8.98740E+01 2.18750E+00 0.00000E+00
 -1       259 9.28740E+01 2.18750E+00 0.00000E+00
 -1       260 9.58740E+01 2.18750E+00 0.00000E+00
 -1       261 9.88740E+01 2.18750E+00 0.00000E+00
 -1       262 1.01874E+02 2.18750E+00 0.00000E+00
 -1       263 1.04874E+02 2.18750E+00 0.00000E+00
 -1       264 1.07874E+02 2.18750E+00 0.00000E+00
 -1       265 1.10874E+02 2.18750E+00 0.00000E+00
 -1       266 1.13874E+02 2.18750E+00 0.00000E+00
 -1       267 1.16874E+02 2.18750E+00 0.00000E+00
 -1       268 1.19874E+02 2.18750E+00 0.00000E+00
 -1       269 1.22874E+02 2.18750E+00 0.00000E+00
 -1       270 1.25874E+02 2.18750E+00 0.00000E+00
 -1       271 1.28874E+02 2.18750E+00 0.00000E+00
 -1       272 1.31874E+02 2.18750E+00 0.00000E+00
 -1       273 1.34874E+02 2.18750E+00 0.00000E+00
 -1       274 1.37874E+02 2.18750E+00 0.00000E+00
 -1       275 1.40874E+02 2.18750E+00 0.00000E+00
 -1       276 1.43874E+02 2.18750E+00 0.00000E+00
 -1       277 1.46874E+02 2.18750E+00 0.00000E+00
 -1       278 1.47402E+02 4.42500E+00 0.00000E+00
 -1       279 1.47402E+02 7.37500E+00 0.00000E+00
 -1       280 1.47402E+02 1.03250E+01 0.00000E+00
 -1       281 1.47402E+02 1.32750E+01 0.00000E+00
 -1       282 1.47402E+02 1.61750E+01 0.00000E+00
 -1       283 1.47402E+02 1.91250E+01 0.00000E+00
 -1       284 1.47402E+02 2.20750E+01 0.00000E+00
 -1       285 1.47402E+02 2.50250E+01 0.00000E+00
 -1       286 1.47402E+02 2.79750E+01 0.00000E+00
 -1       287 1.47402E+02 3.09250E+01 0.00000E+00
 -1       288 1.47402E+02 3.38250E+01 0.00000E+00
 -1       289 1.47402E+02 3.67750E+01 0.00000E+00
 -1       290 1.47402E+02 3.97250E+01 0.00000E+00
 -1       291 1.47402E+02 4.26750E+01 0.00000E+00
 -1       292 5.98981E+01 3.40518E+01 0.00000E+00
 -1       293 5.93223E+01 3.22369E+01 0.00000E+00
 -1       294 5.84234E+01 3.07386E+01 0.00000E+00
 -1       295 5.74090E+01 2.94207E+01 0.00000E+00
 -1       296 5.61629E+01 2.81505E+01 0.00000E+00
 -1       297 5.45317E+01 2.73703E+01 0.00000E+00
 -1       298 5.28015E+01 2.68115E+01 0.00000E+00
 -1       299 5.09892E+01 2.68792E+01 0.00000E+00
 -1       300 4.92490E+01 2.70878E+01 0.00000E+00
 -1       301 4.76540E+01 2.78099E+01 0.00000E+00
 -1       302 4.62401E+01 2.87549E+01 0.00000E+00
 -1       303 4.47316E+01 2.98582E+01 0.00000E+00
 -1       304 4.38027E+01 3.15561E+01 0.00000E+00
 -1       305 4.34726E+01 3.33550E+01 0.00000E+00
 -1       306 4.30537E+01 3.51755E+01 0.00000E+00
 -1       307 4.34579E+01 3.70239E+01 0.00000E+00
 -1       308 4.41364E+01 3.86512E+01 0.00000E+00
 -1       309 4.49792E+01 4.02656E+01 0.00000E+00
 -1       310 4.62317E+01 4.17369E+01 0.00000E+00
 -1       311 4.79585E+01 4.24192E+01 0.00000E+00
 -1       312 4.95659E+01 4.29897E+01 0.00000E+00
 -1       313 5.12976E+01 4.35406E+01 0.00000E+00
 -1       314 5.30987E+01 4.31327E+01 0.00000E+00
 -1       315 5.47480E+01 4.25242E+01 0.00000E+00
 -1       316 5.65199E+01 4.18581E+01 0.00000E+00
 -1       317 5.77458E+01 4.03764E+01 0.00000E+00
 -1       318 5.87347E+01 3.89417E+01 0.00000E+00
 -1       319 5.92827E+01 3.74101E+01 0.00000E+00
 -1       320 5.96781E+01 3.58490E+01 0.00000E+00
 -1       321 1.47402E+02 4.56250E+01 0.00000E+00
 -1       322 5.19600E+00 4.11500E+01 0.00000E+00
 -1       323 5.19600E+00 4.41000E+01 0.00000E+00
 -1       324 5.19600E+00 3.52750E+01 0.00000E+00
 -1       325 5.19600E+00 3.23250E+01 0.00000E+00
 -1       326 5.19600E+00 2.93750E+01 0.00000E+00
 -1       327 5.19600E+00 2.64250E+01 0.00000E+00
 -1       328 5.19600E+00 2.34750E+01 0.00000E+00
 -1       329 5.19600E+00 2.05250E+01 0.00000E+00
 -1       330 5.19600E+00 1.76250E+01 0.00000E+00
 -1       331 5.19600E+00 1.46750E+01 0.00000E+00
 -1       332 5.19600E+00 1.17250E+01 0.00000E+00
 -1       333 5.19600E+00 8.77500E+00 0.00000E+00
 -1       334 5.19600E+00 5.82500E+00 0.00000E+00
 -1       335 5.53500E+00 4.00625E+00 0.00000E+00
 -1       336 8.53500E+00 4.00625E+00 0.00000E+00
 -1       337 9.00000E+00 4.48040E+01 0.00000E+00
 -1       338 1.20000E+01 4.48040E+01 0.00000E+00
 -1       339 1.50000E+01 4.48040E+01 0.00000E+00
 -1       340 1.78500E+01 4.48040E+01 0.00000E+00
 -1       341 2.08500E+01 4.48040E+01 0.00000E+00
 -1       342 2.38500E+01 4.48040E+01 0.00000E+00
 -1       343 2.68500E+01 4.48040E+01 0.00000E+00
 -1       344 2.98500E+01 4.48040E+01 0.00000E+00
 -1       345 3.28500E+01 4.48040E+01 0.00000E+00
 -1       346 3.57000E+01 4.48040E+01 0.00000E+00
 -1       347 3.87000E+01 4.48040E+01 0.00000E+00
 -1       348 4.17000E+01 4.48040E+01 0.00000E+00
 -1       349 4.47000E+01 4.48040E+01 0.00000E+00
 -1       350 4.98750E+01 4.53518E+01 0.00000E+00
 -1       351 5.25000E+01 4.55193E+01 0.00000E+00
 -1       352 5.51250E+01 4.51976E+01 0.00000E+00
 -1       353 5.79750E+01 4.51976E+01 0.00000E+00
 -1       354 6.09750E+01 4.51976E+01 0.00000E+00
 -1       355 6.39750E+01 4.51976E+01 0.00000E+00
 -1       356 6.69750E+01 4.51976E+01 0.00000E+00
 -1       357 6.99750E+01 4.51976E+01 0.00000E+00
 -1       358 7.28250E+01 4.51976E+01 0.00000E+00
 -1       359 7.58250E+01 4.51976E+01 0.00000E+00
 -1       360 7.88250E+01 4.51976E+01 0.00000E+00
 -1       361 8.18250E+01 4.51976E+01 0.00000E+00
 -1       362 8.48250E+01 4.51976E+01 0.00000E+00
 -1       363 8.78250E+01 4.51976E+01 0.00000E+00
 -1       364 9.08250E+01 4.51976E+01 0.00000E+00
 -1       365 9.36750E+01 4.51976E+01 0.00000E+00
 -1       366 9.66750E+01 4.51976E+01 0.00000E+00
 -1       367 9.96750E+01 4.51976E+01 0.00000E+00
 -1       368 1.02675E+02 4.51976E+01 0.00000E+00
 -1       369 1.05675E+02 4.51976E+01 0.00000E+00
 -1       370 1.08675E+02 4.51976E+01 0.00000E+00
 -1       371 1.11525E+02 4.51976E+01 0.00000E+00
 -1       372 1.14525E+02 4.51976E+01 0.00000E+00
 -1       373 1.17525E+02 4.51976E+01 0.00000E+00
 -1       374 1.20525E+02 4.51976E+01 0.00000E+00
 -1       375 1.23525E+02 4.51976E+01 0.00000E+00
 -1       376 1.26525E+02 4.51976E+01 0.00000E+00
 -1       377 1.29375E+02 4.51976E+01 0.00000E+00
 -1       378 1.32375E+02 4.51976E+01 0.00000E+00
 -1       379 1.35375E+02 4.51976E+01 0.00000E+00
 -1       380 1.38375E+02 4.51976E+01 0.00000E+00
 -1       381 1.41375E+02 4.51976E+01 0.00000E+00
 -1       382 1.44375E+02 4.51976E+01 0.00000E+00
 -1       383 1.15350E+01 4.00625E+00 0.00000E+00
 -1       384 6.01999E+01 3.06916E+01 0.00000E+00
 -1       385 1.45350E+01 4.00625E+00 0.00000E+00
 -1       386 1.75350E+01 4.00625E+00 0.00000E+00
 -1       387 2.05350E+01 4.00625E+00 0.00000E+00
 -1       388 2.35350E+01 4.00625E+00 0.00000E+00
 -1       389 2.65350E+01 4.00625E+00 0.00000E+00
 -1       390 2.95350E+01 4.00625E+00 0.00000E+00
 -1       391 3.25350E+01 4.00625E+00 0.00000E+00
 -1       392 3.55350E+01 4.00625E+00 0.00000E+00
 -1       393 3.85350E+01 4.00625E+00 0.00000E+00
 -1       394 4.15350E+01 4.00625E+00 0.00000E+00
 -1       395 4.45350E+01 4.00625E+00 0.00000E+00
 -1       396 4.75350E+01 4.00625E+00 0.00000E+00
 -1       397 5.05350E+01 4.00625E+00 0.00000E+00
 -1       398 5.35350E+01 4.00625E+00 0.00000E+00
 -1       399 5.65350E+01 4.00625E+00 0.00000E+00
 -1       400 5.95350E+01 4.00625E+00 0.00000E+00
 -1       401 6.25350E+01 4.00625E+00 0.00000E+00
 -1       402 6.55350E+01 4.00625E+00 0.00000E+00
 -1       403 6.85350E+01 4.00625E+00 0.00000E+00
 -1       404 7.15350E+01 4.00625E+00 0.00000E+00
 -1       405 7.45350E+01 4.00625E+00 0.00000E+00
 -1       406 7.75350E+01 4.00625E+00 0.00000E+00
 -1       407 8.05350E+01 4.00625E+00 0.00000E+00
 -1       408 8.35350E+01 4.00625E+00 0.00000E+00
 -1       409 8.65350E+01 4.00625E+00 0.00000E+00
 -1       410 8.95350E+01 4.00625E+00 0.00000E+00
 -1       411 9.25350E+01 4.00625E+00 0.00000E+00
 -1       412 9.55350E+01 4.00625E+00 0.00000E+00
 -1       413 9.85350E+01 4.00625E+00 0.00000E+00
 -1       414 1.01535E+02 4.00625E+00 0.00000E+00
 -1       415 1.04535E+02 4.00625E+00 0.00000E+00
 -1       416 1.07535E+02 4.00625E+00 0.00000E+00
 -1       417 1.10535E+02 4.00625E+00 0.00000E+00
 -1       418 1.13535E+02 4.00625E+00 0.00000E+00
 -1       419 1.16535E+02 4.00625E+00 0.00000E+00
 -1       420 1.19535E+02 4.00625E+00 0.00000E+00
 -1       421 1.22535E+02 4.00625E+00 0.00000E+00
 -1       422 1.25535E+02 4.00625E+00 0.00000E+00
 -1       423 1.28535E+02 4.00625E+00 0.00000E+00
 -1       424 1.31535E+02 4.00625E+00 0.00000E+00
 -1       425 1.34535E+02 4.00625E+00 0.00000E+00
 -1       426 1.37535E+02 4.00625E+00 0.00000E+00
 -1       427 1.40535E+02 4.00625E+00 0.00000E+00
 -1       428 1.43535E+02 4.00625E+00 0.00000E+00
 -1       429 1.45469E+02 4.21562E+00 0.00000E+00
 -1       430 1.44804E+02 1.18000E+01 0.00000E+00
 -1       431 1.44804E+02 8.85000E+00 0.00000E+00
 -1       432 1.45136E+02 6.53281E+00 0.00000E+00
 -1       433 1.44804E+02 1.47000E+01 0.00000E+00
 -1       434 1.44804E+02 1.76500E+01 0.00000E+00
 -1       435 1.44804E+02 2.06000E+01 0.00000E+00
 -1       436 1.44804E+02 2.35500E+01 0.00000E+00
 -1       437 1.44804E+02 2.65000E+01 0.00000E+00
 -1       438 1.44804E+02 2.94500E+01 0.00000E+00
 -1       439 1.44804E+02 3.23500E+01 0.00000E+00
 -1       440 1.44804E+02 3.53000E+01 0.00000E+00
 -1       441 1.44804E+02 3.82500E+01 0.00000E+00
 -1       442 1.44804E+02 4.12000E+01 0.00000E+00
 -1       443 5.91856E+01 2.93737E+01 0.00000E+00
 -1       444 6.13108E+01 3.51368E+01 0.00000E+00
 -1       445 5.19600E+00 3.82125E+01 0.00000E+00
 -1       446 5.77710E+01 2.78192E+01 0.00000E+00
 -1       447 5.60151E+01 2.63643E+01 0.00000E+00
 -1       448 5.40907E+01 2.57777E+01 0.00000E+00
 -1       449 5.18314E+01 2.51314E+01 0.00000E+00
 -1       450 5.00912E+01 2.53400E+01 0.00000E+00
 -1       451 4.78133E+01 2.60390E+01 0.00000E+00
 -1       452 4.62268E+01 2.72047E+01 0.00000E+00
 -1       453 4.45723E+01 2.80574E+01 0.00000E+00
 -1       454 4.30565E+01 3.00448E+01 0.00000E+00
 -1       455 4.20331E+01 3.21611E+01 0.00000E+00
 -1       456 4.16142E+01 3.39816E+01 0.00000E+00
 -1       457 4.19896E+01 3.63766E+01 0.00000E+00
 -1       458 4.25234E+01 3.83686E+01 0.00000E+00
 -1       459 4.33345E+01 4.00970E+01 0.00000E+00
 -1       460 4.41718E+01 4.22216E+01 0.00000E+00
 -1       461 4.65880E+01 4.33614E+01 0.00000E+00
 -1       462 4.83007E+01 4.40049E+01 0.00000E+00
 -1       463 5.24845E+01 4.46008E+01 0.00000E+00
 -1       464 5.44301E+01 4.42017E+01 0.00000E+00
 -1       465 5.82502E+01 4.20418E+01 0.00000E+00
 -1       466 5.95034E+01 4.05296E+01 0.00000E+00
 -1       467 6.02953E+01 3.86362E+01 0.00000E+00
 -1       468 6.07238E+01 3.69445E+01 0.00000E+00
 -1       469 6.08457E+01 3.27523E+01 0.00000E+00
 -1       470 4.72256E+01 4.50778E+01 0.00000E+00
 -1       471 6.22584E+01 3.38373E+01 0.00000E+00
 -1       472 4.28972E+01 2.82440E+01 0.00000E+00
 -1       473 5.72054E+01 4.36421E+01 0.00000E+00
 -1       474 5.62032E+01 4.37055E+01 0.00000E+00
 -1       475 7.79400E+00 3.08500E+01 0.00000E+00
 -1       476 7.79400E+00 3.38000E+01 0.00000E+00
 -1       477 7.79400E+00 2.49500E+01 0.00000E+00
 -1       478 7.79400E+00 2.20000E+01 0.00000E+00
 -1       479 7.79400E+00 1.91000E+01 0.00000E+00
 -1       480 7.79400E+00 1.61500E+01 0.00000E+00
 -1       481 7.79400E+00 1.32000E+01 0.00000E+00
 -1       482 7.79400E+00 1.02500E+01 0.00000E+00
 -1       483 7.79400E+00 7.30000E+00 0.00000E+00
 -1       484 8.16450E+00 5.65312E+00 0.00000E+00
 -1       485 1.05000E+01 4.22060E+01 0.00000E+00
 -1       486 5.96229E+01 2.75550E+01 0.00000E+00
 -1       487 6.21594E+01 3.12090E+01 0.00000E+00
 -1       488 1.35000E+01 4.22060E+01 0.00000E+00
 -1       489 1.63500E+01 4.22060E+01 0.00000E+00
 -1       490 1.93500E+01 4.22060E+01 0.00000E+00
 -1       491 2.23500E+01 4.22060E+01 0.00000E+00
 -1       492 2.53500E+01 4.22060E+01 0.00000E+00
 -1       493 2.83500E+01 4.22060E+01 0.00000E+00
 -1       494 3.13500E+01 4.22060E+01 0.00000E+00
 -1       495 3.42000E+01 4.22060E+01 0.00000E+00
 -1       496 3.72000E+01 4.22060E+01 0.00000E+00
 -1       497 4.02000E+01 4.22060E+01 0.00000E+00
 -1       498 6.23170E+01 3.64627E+01 0.00000E+00
 -1       499 1.11645E+01 5.65312E+00 0.00000E+00
 -1       500 6.24750E+01 4.29933E+01 0.00000E+00
 -1       501 6.54750E+01 4.29933E+01 0.00000E+00
 -1       502 6.84750E+01 4.29933E+01 0.00000E+00
 -1       503 7.13250E+01 4.29933E+01 0.00000E+00
 -1       504 7.43250E+01 4.29933E+01 0.00000E+00
 -1       505 7.73250E+01 4.29933E+01 0.00000E+00
 -1       506 8.03250E+01 4.29933E+01 0.00000E+00
 -1       507 8.33250E+01 4.29933E+01 0.00000E+00
 -1       508 8.63250E+01 4.29933E+01 0.00000E+00
 -1       509 8.93250E+01 4.29933E+01 0.00000E+00
 -1       510 9.21750E+01 4.29933E+01 0.00000E+00
 -1       511 9.51750E+01 4.29933E+01 0.00000E+00
 -1       512 9.81750E+01 4.29933E+01 0.00000E+00
 -1       513 1.01175E+02 4.29933E+01 0.00000E+00
 -1       514 1.04175E+02 4.29933E+01 0.00000E+00
 -1       515 1.07175E+02 4.29933E+01 0.00000E+00
 -1       516 1.10025E+02 4.29933E+01 0.00000E+00
 -1       517 1.13025E+02 4.29933E+01 0.00000E+00
 -1       518 1.16025E+02 4.29933E+01 0.00000E+00
 -1       519 1.19025E+02 4.29933E+01 0.00000E+00
 -1       520 1.22025E+02 4.29933E+01 0.00000E+00
 -1       521 1.25025E+02 4.29933E+01 0.00000E+00
 -1       522 1.27875E+02 4.29933E+01 0.00000E+00
 -1       523 1.30875E+02 4.29933E+01 0.00000E+00
 -1       524 1.33875E+02 4.29933E+01 0.00000E+00
 -1       525 1.36875E+02 4.29933E+01 0.00000E+00
 -1       526 1.39875E+02 4.29933E+01 0.00000E+00
 -1       527 1.42339E+02 4.20966E+01 0.00000E+00
 -1       528 1.60350E+01 6.60425E+00 0.00000E+00
 -1       529 1.35997E+01 6.12869E+00 0.00000E+00
 -1       530 2.20350E+01 6.60425E+00 0.00000E+00
 -1       531 2.50350E+01 6.60425E+00 0.00000E+00
 -1       532 2.80350E+01 6.60425E+00 0.00000E+00
 -1       533 3.10350E+01 6.60425E+00 0.00000E+00
 -1       534 3.40350E+01 6.60425E+00 0.00000E+00
 -1       535 3.70350E+01 6.60425E+00 0.00000E+00
 -1       536 4.00350E+01 6.60425E+00 0.00000E+00
 -1       537 4.30350E+01 6.60425E+00 0.00000E+00
 -1       538 4.60350E+01 6.60425E+00 0.00000E+00
 -1       539 4.90350E+01 6.60425E+00 0.00000E+00
 -1       540 5.20350E+01 6.60425E+00 0.00000E+00
 -1       541 5.50350E+01 6.60425E+00 0.00000E+00
 -1       542 5.80350E+01 6.60425E+00 0.00000E+00
 -1       543 6.10350E+01 6.60425E+00 0.00000E+00
 -1       544 6.40350E+01 6.60425E+00 0.00000E+00
 -1       545 6.70350E+01 6.60425E+00 0.00000E+00
 -1       546 7.00350E+01 6.60425E+00 0.00000E+00
 -1       547 7.30350E+01 6.60425E+00 0.00000E+00
 -1       548 7.60350E+01 6.60425E+00 0.00000E+00
 -1       549 7.90350E+01 6.60425E+00 0.00000E+00
 -1       550 8.20350E+01 6.60425E+00 0.00000E+00
 -1       551 8.50350E+01 6.60425E+00 0.00000E+00
 -1       552 8.80350E+01 6.60425E+00 0.00000E+00
 -1       553 9.10350E+01 6.60425E+00 0.00000E+00
 -1       554 9.40350E+01 6.60425E+00 0.00000E+00
 -1       555 9.70350E+01 6.60425E+00 0.00000E+00
 -1       556 1.00035E+02 6.60425E+00 0.00000E+00
 -1       557 1.03035E+02 6.60425E+00 0.00000E+00
 -1       558 1.06035E+02 6.60425E+00 0.00000E+00
 -1       559 1.09035E+02 6.60425E+00 0.00000E+00
 -1       560 1.12035E+02 6.60425E+00 0.00000E+00
 -1       561 1.15035E+02 6.60425E+00 0.00000E+00
 -1       562 1.18035E+02 6.60425E+00 0.00000E+00
 -1       563 1.21035E+02 6.60425E+00 0.00000E+00
 -1       564 1.24035E+02 6.60425E+00 0.00000E+00
 -1       565 1.27035E+02 6.60425E+00 0.00000E+00
 -1       566 1.30035E+02 6.60425E+00 0.00000E+00
 -1       567 1.33035E+02 6.60425E+00 0.00000E+00
 -1       568 1.36035E+02 6.60425E+00 0.00000E+00
 -1       569 1.39035E+02 6.60425E+00 0.00000E+00
 -1       570 1.42035E+02 6.60425E+00 0.00000E+00
 -1       571 1.42206E+02 1.61750E+01 0.00000E+00
 -1       572 1.42206E+02 1.91250E+01 0.00000E+00
 -1       573 1.42206E+02 1.03250E+01 0.00000E+00
 -1       574 1.42206E+02 1.32500E+01 0.00000E+00
 -1       575 1.42206E+02 2.20750E+01 0.00000E+00
 -1       576 1.42206E+02 2.50250E+01 0.00000E+00
 -1       577 1.42206E+02 2.79750E+01 0.00000E+00
 -1       578 1.42206E+02 3.08750E+01 0.00000E+00
 -1       579 1.42206E+02 3.38250E+01 0.00000E+00
 -1       580 1.42206E+02 3.67750E+01 0.00000E+00
 -1       581 1.42273E+02 3.94358E+01 0.00000E+00
 -1       582 6.06372E+01 2.88728E+01 0.00000E+00
 -1       583 4.60045E+01 2.52397E+01 0.00000E+00
 -1       584 7.84800E+00 4.16780E+01 0.00000E+00
 -1       585 4.12270E+01 3.04657E+01 0.00000E+00
 -1       586 5.34097E+01 2.38861E+01 0.00000E+00
 -1       587 1.90350E+01 6.60425E+00 0.00000E+00
 -1       588 4.84491E+01 2.40499E+01 0.00000E+00
 -1       589 7.79400E+00 2.79000E+01 0.00000E+00
 -1       590 5.53341E+01 2.44728E+01 0.00000E+00
 -1       591 5.07671E+01 2.36160E+01 0.00000E+00
 -1       592 4.08427E+01 3.77515E+01 0.00000E+00
 -1       593 5.78269E+01 2.59646E+01 0.00000E+00
 -1       594 4.43500E+01 2.60925E+01 0.00000E+00
 -1       595 4.02339E+01 3.27056E+01 0.00000E+00
 -1       596 4.01074E+01 3.54447E+01 0.00000E+00
 -1       597 4.16038E+01 3.98546E+01 0.00000E+00
 -1       598 4.23134E+01 4.17268E+01 0.00000E+00
 -1       599 6.01670E+01 4.23549E+01 0.00000E+00
 -1       600 6.11600E+01 4.01102E+01 0.00000E+00
 -1       601 6.18885E+01 3.81543E+01 0.00000E+00
 -1       602 7.79400E+00 3.67375E+01 0.00000E+00
 -1       603 6.32646E+01 3.51632E+01 0.00000E+00
 -1       604 6.25968E+01 2.93903E+01 0.00000E+00
 -1       605 7.82100E+00 3.92077E+01 0.00000E+00
 -1       606 5.71459E+01 2.40731E+01 0.00000E+00
 -1       607 4.10677E+01 2.86649E+01 0.00000E+00
 -1       608 1.03920E+01 2.05500E+01 0.00000E+00
 -1       609 1.03920E+01 2.35000E+01 0.00000E+00
 -1       610 1.03920E+01 1.46750E+01 0.00000E+00
 -1       611 1.03920E+01 1.17250E+01 0.00000E+00
 -1       612 1.03920E+01 8.77500E+00 0.00000E+00
 -1       613 1.07782E+01 7.21406E+00 0.00000E+00
 -1       614 1.49250E+01 3.96080E+01 0.00000E+00
 -1       615 1.79250E+01 3.96080E+01 0.00000E+00
 -1       616 2.09250E+01 3.96080E+01 0.00000E+00
 -1       617 2.39250E+01 3.96080E+01 0.00000E+00
 -1       618 2.69250E+01 3.96080E+01 0.00000E+00
 -1       619 2.99250E+01 3.96080E+01 0.00000E+00
 -1       620 3.27750E+01 3.96080E+01 0.00000E+00
 -1       621 3.57750E+01 3.96080E+01 0.00000E+00
 -1       622 6.69750E+01 4.03953E+01 0.00000E+00
 -1       623 6.98250E+01 4.03953E+01 0.00000E+00
 -1       624 7.28250E+01 4.03953E+01 0.00000E+00
 -1       625 7.58250E+01 4.03953E+01 0.00000E+00
 -1       626 7.88250E+01 4.03953E+01 0.00000E+00
 -1       627 8.18250E+01 4.03953E+01 0.00000E+00
 -1       628 8.48250E+01 4.03953E+01 0.00000E+00
 -1       629 8.78250E+01 4.03953E+01 0.00000E+00
 -1       630 9.06750E+01 4.03953E+01 0.00000E+00
 -1       631 9.36750E+01 4.03953E+01 0.00000E+00
 -1       632 9.66750E+01 4.03953E+01 0.00000E+00
 -1       633 9.96750E+01 4.03953E+01 0.00000E+00
 -1       634 1.02675E+02 4.03953E+01 0.00000E+00
 -1       635 1.05675E+02 4.03953E+01 0.00000E+00
 -1       636 1.08525E+02 4.03953E+01 0.00000E+00
 -1       637 1.11525E+02 4.03953E+01 0.00000E+00
 -1       638 1.14525E+02 4.03953E+01 0.00000E+00
 -1       639 1.17525E+02 4.03953E+01 0.00000E+00
 -1       640 1.20525E+02 4.03953E+01 0.00000E+00
 -1       641 1.23525E+02 4.03953E+01 0.00000E+00
 -1       642 1.26375E+02 4.03953E+01 0.00000E+00
 -1       643 1.29375E+02 4.03953E+01 0.00000E+00
 -1       644 1.32375E+02 4.03953E+01 0.00000E+00
 -1       645 1.35375E+02 4.03953E+01 0.00000E+00
 -1       646 1.38375E+02 4.03953E+01 0.00000E+00
 -1       647 1.40324E+02 3.99156E+01 0.00000E+00
 -1       648 2.95350E+01 9.20225E+00 0.00000E+00
 -1       649 2.35350E+01 9.20225E+00 0.00000E+00
 -1       650 3.25350E+01 9.20225E+00 0.00000E+00
 -1       651 3.55350E+01 9.20225E+00 0.00000E+00
 -1       652 3.85350E+01 9.20225E+00 0.00000E+00
 -1       653 4.15350E+01 9.20225E+00 0.00000E+00
 -1       654 4.45350E+01 9.20225E+00 0.00000E+00
 -1       655 4.75350E+01 9.20225E+00 0.00000E+00
 -1       656 5.05350E+01 9.20225E+00 0.00000E+00
 -1       657 5.35350E+01 9.20225E+00 0.00000E+00
 -1       658 5.65350E+01 9.20225E+00 0.00000E+00
 -1       659 5.95350E+01 9.20225E+00 0.00000E+00
 -1       660 6.25350E+01 9.20225E+00 0.00000E+00
 -1       661 6.55350E+01 9.20225E+00 0.00000E+00
 -1       662 6.85350E+01 9.20225E+00 0.00000E+00
 -1       663 7.15350E+01 9.20225E+00 0.00000E+00
 -1       664 7.45350E+01 9.20225E+00 0.00000E+00
 -1       665 7.75350E+01 9.20225E+00 0.00000E+00
 -1       666 8.05350E+01 9.20225E+00 0.00000E+00
 -1       667 8.35350E+01 9.20225E+00 0.00000E+00
 -1       668 8.65350E+01 9.20225E+00 0.00000E+00
 -1       669 8.95350E+01 9.20225E+00 0.00000E+00
 -1       670 9.25350E+01 9.20225E+00 0.00000E+00
 -1       671 9.55350E+01 9.20225E+00 0.00000E+00
 -1       672 9.85350E+01 9.20225E+00 0.00000E+00
 -1       673 1.01535E+02 9.20225E+00 0.00000E+00
 -1       674 1.04535E+02 9.20225E+00 0.00000E+00
 -1       675 1.07535E+02 9.20225E+00 0.00000E+00
 -1       676 1.10535E+02 9.20225E+00 0.00000E+00
 -1       677 1.13535E+02 9.20225E+00 0.00000E+00
 -1       678 1.16535E+02 9.20225E+00 0.00000E+00
 -1       679 1.19535E+02 9.20225E+00 0.00000E+00
 -1       680 1.22535E+02 9.20225E+00 0.00000E+00
 -1       681 1.25535E+02 9.20225E+00 0.00000E+00
 -1       682 1.28535E+02 9.20225E+00 0.00000E+00
 -1       683 1.31535E+02 9.20225E+00 0.00000E+00
 -1       684 1.34535E+02 9.20225E+00 0.00000E+00
 -1       685 1.37535E+02 9.20225E+00 0.00000E+00
 -1       686 1.39870E+02 9.76363E+00 0.00000E+00
 -1       687 4.20633E+01 2.61147E+01 0.00000E+00
 -1       688 1.39608E+02 2.35500E+01 0.00000E+00
 -1       689 1.39608E+02 1.76500E+01 0.00000E+00
 -1       690 1.39608E+02 2.65000E+01 0.00000E+00
 -1       691 1.39608E+02 2.06000E+01 0.00000E+00
 -1       692 1.39608E+02 2.94000E+01 0.00000E+00
 -1       693 1.39608E+02 3.23500E+01 0.00000E+00
 -1       694 1.39608E+02 3.53000E+01 0.00000E+00
 -1       695 6.16220E+01 2.70656E+01 0.00000E+00
 -1       696 1.04730E+01 3.97357E+01 0.00000E+00
 -1       697 4.92926E+01 2.21471E+01 0.00000E+00
 -1       698 5.22969E+01 2.17114E+01 0.00000E+00
 -1       699 6.39148E+01 3.77675E+01 0.00000E+00
 -1       700 6.31862E+01 3.97234E+01 0.00000E+00
 -1       701 2.65350E+01 9.20225E+00 0.00000E+00
 -1       702 1.26990E+01 3.96719E+01 0.00000E+00
 -1       703 3.92391E+01 3.09244E+01 0.00000E+00
 -1       704 5.99730E+01 2.53503E+01 0.00000E+00
 -1       705 6.40768E+01 3.24528E+01 0.00000E+00
 -1       706 1.03920E+01 1.76125E+01 0.00000E+00
 -1       707 1.03920E+01 3.23250E+01 0.00000E+00
 -1       708 4.64029E+01 2.29520E+01 0.00000E+00
 -1       709 4.47483E+01 2.38047E+01 0.00000E+00
 -1       710 3.82900E+01 3.39883E+01 0.00000E+00
 -1       711 3.90006E+01 3.70680E+01 0.00000E+00
 -1       712 3.96105E+01 3.93868E+01 0.00000E+00
 -1       713 5.48232E+01 2.26992E+01 0.00000E+00
 -1       714 1.03920E+01 2.93750E+01 0.00000E+00
 -1       715 3.72952E+01 3.22071E+01 0.00000E+00
 -1       716 2.05350E+01 9.20225E+00 0.00000E+00
 -1       717 6.45142E+01 3.06340E+01 0.00000E+00
 -1       718 5.92920E+01 2.34587E+01 0.00000E+00
 -1       719 1.43194E+01 8.91630E+00 0.00000E+00
 -1       720 1.39870E+02 1.26886E+01 0.00000E+00
 -1       721 6.48623E+01 3.64681E+01 0.00000E+00
 -1       722 1.39966E+02 3.76078E+01 0.00000E+00
 -1       723 3.90798E+01 2.91236E+01 0.00000E+00
 -1       724 5.66350E+01 2.22995E+01 0.00000E+00
 -1       725 1.39739E+02 1.51693E+01 0.00000E+00
 -1       726 4.24616E+01 2.38269E+01 0.00000E+00
 -1       727 1.75350E+01 9.20225E+00 0.00000E+00
 -1       728 1.03920E+01 2.64375E+01 0.00000E+00
 -1       729 1.03920E+01 3.52625E+01 0.00000E+00
 -1       730 3.71831E+01 3.56117E+01 0.00000E+00
 -1       731 1.29900E+01 1.02500E+01 0.00000E+00
 -1       732 1.29900E+01 1.32000E+01 0.00000E+00
 -1       733 1.64250E+01 3.70100E+01 0.00000E+00
 -1       734 1.94250E+01 3.70100E+01 0.00000E+00
 -1       735 2.24250E+01 3.70100E+01 0.00000E+00
 -1       736 2.54250E+01 3.70100E+01 0.00000E+00
 -1       737 2.84250E+01 3.70100E+01 0.00000E+00
 -1       738 3.12750E+01 3.70100E+01 0.00000E+00
 -1       739 3.42750E+01 3.70100E+01 0.00000E+00
 -1       740 1.04325E+01 3.74991E+01 0.00000E+00
 -1       741 7.13250E+01 3.77973E+01 0.00000E+00
 -1       742 7.43250E+01 3.77973E+01 0.00000E+00
 -1       743 7.73250E+01 3.77973E+01 0.00000E+00
 -1       744 8.03250E+01 3.77973E+01 0.00000E+00
 -1       745 8.33250E+01 3.77973E+01 0.00000E+00
 -1       746 8.63250E+01 3.77973E+01 0.00000E+00
 -1       747 8.91750E+01 3.77973E+01 0.00000E+00
 -1       748 9.21750E+01 3.77973E+01 0.00000E+00
 -1       749 9.51750E+01 3.77973E+01 0.00000E+00
 -1       750 9.81750E+01 3.77973E+01 0.00000E+00
 -1       751 1.01175E+02 3.77973E+01 0.00000E+00
 -1       752 1.04175E+02 3.77973E+01 0.00000E+00
 -1       753 1.07025E+02 3.77973E+01 0.00000E+00
 -1       754 1.10025E+02 3.77973E+01 0.00000E+00
 -1       755 1.13025E+02 3.77973E+01 0.00000E+00
 -1       756 1.16025E+02 3.77973E+01 0.00000E+00
 -1       757 1.19025E+02 3.77973E+01 0.00000E+00
 -1       758 1.22025E+02 3.77973E+01 0.00000E+00
 -1       759 1.24875E+02 3.77973E+01 0.00000E+00
 -1       760 1.27875E+02 3.77973E+01 0.00000E+00
 -1       761 1.30875E+02 3.77973E+01 0.00000E+00
 -1       762 1.33875E+02 3.77973E+01 0.00000E+00
 -1       763 1.36875E+02 3.77973E+01 0.00000E+00
 -1       764 3.96556E+01 2.66442E+01 0.00000E+00
 -1       765 3.10350E+01 1.18003E+01 0.00000E+00
 -1       766 4.00350E+01 1.18003E+01 0.00000E+00
 -1       767 4.30350E+01 1.18003E+01 0.00000E+00
 -1       768 4.60350E+01 1.18003E+01 0.00000E+00
 -1       769 4.90350E+01 1.18003E+01 0.00000E+00
 -1       770 5.20350E+01 1.18003E+01 0.00000E+00
 -1       771 5.50350E+01 1.18003E+01 0.00000E+00
 -1       772 5.80350E+01 1.18003E+01 0.00000E+00
 -1       773 6.10350E+01 1.18003E+01 0.00000E+00
 -1       774 6.40350E+01 1.18003E+01 0.00000E+00
 -1       775 6.70350E+01 1.18003E+01 0.00000E+00
 -1       776 7.00350E+01 1.18003E+01 0.00000E+00
 -1       777 7.30350E+01 1.18003E+01 0.00000E+00
 -1       778 7.60350E+01 1.18003E+01 0.00000E+00
 -1       779 7.90350E+01 1.18003E+01 0.00000E+00
 -1       780 8.20350E+01 1.18003E+01 0.00000E+00
 -1       781 8.50350E+01 1.18003E+01 0.00000E+00
 -1       782 8.80350E+01 1.18003E+01 0.00000E+00
 -1       783 9.10350E+01 1.18003E+01 0.00000E+00
 -1       784 9.40350E+01 1.18003E+01 0.00000E+00
 -1       785 9.70350E+01 1.18003E+01 0.00000E+00
 -1       786 1.00035E+02 1.18003E+01 0.00000E+00
 -1       787 1.03035E+02 1.18003E+01 0.00000E+00
 -1       788 1.06035E+02 1.18003E+01 0.00000E+00
 -1       789 1.09035E+02 1.18003E+01 0.00000E+00
 -1       790 1.12035E+02 1.18003E+01 0.00000E+00
 -1       791 1.15035E+02 1.18003E+01 0.00000E+00
 -1       792 1.18035E+02 1.18003E+01 0.00000E+00
 -1       793 1.21035E+02 1.18003E+01 0.00000E+00
 -1       794 1.24035E+02 1.18003E+01 0.00000E+00
 -1       795 1.27035E+02 1.18003E+01 0.00000E+00
 -1       796 1.30035E+02 1.18003E+01 0.00000E+00
 -1       797 1.33035E+02 1.18003E+01 0.00000E+00
 -1       798 1.36035E+02 1.18003E+01 0.00000E+00
 -1       799 1.37953E+02 1.22444E+01 0.00000E+00
 -1       800 1.37010E+02 2.79500E+01 0.00000E+00
 -1       801 1.37010E+02 3.09000E+01 0.00000E+00
 -1       802 1.37010E+02 2.50000E+01 0.00000E+00
 -1       803 3.40350E+01 1.18003E+01 0.00000E+00
 -1       804 6.56745E+01 3.37576E+01 0.00000E+00
 -1       805 6.38456E+01 2.74999E+01 0.00000E+00
 -1       806 2.50350E+01 1.18003E+01 0.00000E+00
 -1       807 2.80350E+01 1.18003E+01 0.00000E+00
 -1       808 5.05246E+01 2.00661E+01 0.00000E+00
 -1       809 4.45596E+01 2.14069E+01 0.00000E+00
 -1       810 6.20340E+01 2.50193E+01 0.00000E+00
 -1       811 1.37010E+02 3.38500E+01 0.00000E+00
 -1       812 5.43677E+01 2.01398E+01 0.00000E+00
 -1       813 3.70350E+01 1.18003E+01 0.00000E+00
 -1       814 4.74493E+01 2.06020E+01 0.00000E+00
 -1       815 6.84750E+01 3.77973E+01 0.00000E+00
 -1       816 1.29900E+01 2.20250E+01 0.00000E+00
 -1       817 3.61884E+01 3.38305E+01 0.00000E+00
 -1       818 1.29900E+01 1.61375E+01 0.00000E+00
 -1       819 2.20350E+01 1.18003E+01 0.00000E+00
 -1       820 1.41990E+01 3.70739E+01 0.00000E+00
 -1       821 5.87811E+01 2.16851E+01 0.00000E+00
 -1       822 4.00540E+01 2.43565E+01 0.00000E+00
 -1       823 5.25953E+01 1.84944E+01 0.00000E+00
 -1       824 1.37010E+02 2.20500E+01 0.00000E+00
 -1       825 1.37010E+02 1.91000E+01 0.00000E+00
 -1       826 3.71360E+01 3.04064E+01 0.00000E+00
 -1       827 6.61119E+01 3.19389E+01 0.00000E+00
 -1       828 6.13530E+01 2.31277E+01 0.00000E+00
 -1       829 1.29900E+01 3.37938E+01 0.00000E+00
 -1       830 1.37141E+02 1.66193E+01 0.00000E+00
 -1       831 1.29900E+01 3.08438E+01 0.00000E+00
 -1       832 1.90350E+01 1.18003E+01 0.00000E+00
 -1       833 1.29900E+01 2.49625E+01 0.00000E+00
 -1       834 1.29900E+01 1.90812E+01 0.00000E+00
 -1       835 1.56971E+01 1.16471E+01 0.00000E+00
 -1       836 4.75350E+01 1.43982E+01 0.00000E+00
 -1       837 4.45350E+01 1.43982E+01 0.00000E+00
 -1       838 1.79250E+01 3.44120E+01 0.00000E+00
 -1       839 2.09250E+01 3.44120E+01 0.00000E+00
 -1       840 2.39250E+01 3.44120E+01 0.00000E+00
 -1       841 2.69250E+01 3.44120E+01 0.00000E+00
 -1       842 2.97750E+01 3.44120E+01 0.00000E+00
 -1       843 3.27750E+01 3.44120E+01 0.00000E+00
 -1       844 7.58250E+01 3.51993E+01 0.00000E+00
 -1       845 7.88250E+01 3.51993E+01 0.00000E+00
 -1       846 8.18250E+01 3.51993E+01 0.00000E+00
 -1       847 8.48250E+01 3.51993E+01 0.00000E+00
 -1       848 8.76750E+01 3.51993E+01 0.00000E+00
 -1       849 9.06750E+01 3.51993E+01 0.00000E+00
 -1       850 9.36750E+01 3.51993E+01 0.00000E+00
 -1       851 9.66750E+01 3.51993E+01 0.00000E+00
 -1       852 9.96750E+01 3.51993E+01 0.00000E+00
 -1       853 1.02675E+02 3.51993E+01 0.00000E+00
 -1       854 1.05525E+02 3.51993E+01 0.00000E+00
 -1       855 1.08525E+02 3.51993E+01 0.00000E+00
 -1       856 1.11525E+02 3.51993E+01 0.00000E+00
 -1       857 1.14525E+02 3.51993E+01 0.00000E+00
 -1       858 1.17525E+02 3.51993E+01 0.00000E+00
 -1       859 1.20525E+02 3.51993E+01 0.00000E+00
 -1       860 1.23375E+02 3.51993E+01 0.00000E+00
 -1       861 1.26375E+02 3.51993E+01 0.00000E+00
 -1       862 1.29375E+02 3.51993E+01 0.00000E+00
 -1       863 1.32375E+02 3.51993E+01 0.00000E+00
 -1       864 1.34693E+02 3.45246E+01 0.00000E+00
 -1       865 4.15350E+01 1.43982E+01 0.00000E+00
 -1       866 5.05350E+01 1.43982E+01 0.00000E+00
 -1       867 5.35350E+01 1.43982E+01 0.00000E+00
 -1       868 5.65350E+01 1.43982E+01 0.00000E+00
 -1       869 5.95350E+01 1.43982E+01 0.00000E+00
 -1       870 6.25350E+01 1.43982E+01 0.00000E+00
 -1       871 6.55350E+01 1.43982E+01 0.00000E+00
 -1       872 6.85350E+01 1.43982E+01 0.00000E+00
 -1       873 7.15350E+01 1.43982E+01 0.00000E+00
 -1       874 7.45350E+01 1.43982E+01 0.00000E+00
 -1       875 7.75350E+01 1.43982E+01 0.00000E+00
 -1       876 8.05350E+01 1.43982E+01 0.00000E+00
 -1       877 8.35350E+01 1.43982E+01 0.00000E+00
 -1       878 8.65350E+01 1.43982E+01 0.00000E+00
 -1       879 8.95350E+01 1.43982E+01 0.00000E+00
 -1       880 9.25350E+01 1.43982E+01 0.00000E+00
 -1       881 9.55350E+01 1.43982E+01 0.00000E+00
 -1       882 9.85350E+01 1.43982E+01 0.00000E+00
 -1       883 1.01535E+02 1.43982E+01 0.00000E+00
 -1       884 1.04535E+02 1.43982E+01 0.00000E+00
 -1       885 1.07535E+02 1.43982E+01 0.00000E+00
 -1       886 1.10535E+02 1.43982E+01 0.00000E+00
 -1       887 1.13535E+02 1.43982E+01 0.00000E+00
 -1       888 1.16535E+02 1.43982E+01 0.00000E+00
 -1       889 1.19535E+02 1.43982E+01 0.00000E+00
 -1       890 1.22535E+02 1.43982E+01 0.00000E+00
 -1       891 1.25535E+02 1.43982E+01 0.00000E+00
 -1       892 1.28535E+02 1.43982E+01 0.00000E+00
 -1       893 1.31535E+02 1.43982E+01 0.00000E+00
 -1       894 1.34535E+02 1.43982E+01 0.00000E+00
 -1       895 1.34412E+02 2.94250E+01 0.00000E+00
 -1       896 1.34412E+02 2.64750E+01 0.00000E+00
 -1       897 4.53194E+01 1.85451E+01 0.00000E+00
 -1       898 5.67998E+01 1.98564E+01 0.00000E+00
 -1       899 7.28250E+01 3.51993E+01 0.00000E+00
 -1       900 6.61850E+01 2.86393E+01 0.00000E+00
 -1       901 1.72469E+01 1.43189E+01 0.00000E+00
 -1       902 3.72074E+01 2.73822E+01 0.00000E+00
 -1       903 2.95350E+01 1.43982E+01 0.00000E+00
 -1       904 2.65350E+01 1.43982E+01 0.00000E+00
 -1       905 1.29900E+01 2.79063E+01 0.00000E+00
 -1       906 3.25350E+01 1.43982E+01 0.00000E+00
 -1       907 6.99750E+01 3.51993E+01 0.00000E+00
 -1       908 4.17082E+01 2.10544E+01 0.00000E+00
 -1       909 1.34552E+02 3.19748E+01 0.00000E+00
 -1       910 4.83947E+01 1.80092E+01 0.00000E+00
 -1       911 1.37547E+02 1.44319E+01 0.00000E+00
 -1       912 6.45955E+01 2.50504E+01 0.00000E+00
 -1       913 1.51185E+01 1.52282E+01 0.00000E+00
 -1       914 2.35350E+01 1.43982E+01 0.00000E+00
 -1       915 1.56990E+01 3.44759E+01 0.00000E+00
 -1       916 6.72195E+01 3.56975E+01 0.00000E+00
 -1       917 3.76058E+01 2.50945E+01 0.00000E+00
 -1       918 3.85350E+01 1.43982E+01 0.00000E+00
 -1       919 6.08420E+01 2.13541E+01 0.00000E+00
 -1       920 3.47710E+01 3.16750E+01 0.00000E+00
 -1       921 1.34412E+02 2.35250E+01 0.00000E+00
 -1       922 1.34412E+02 2.05750E+01 0.00000E+00
 -1       923 4.24681E+01 1.81926E+01 0.00000E+00
 -1       924 6.69349E+01 2.61897E+01 0.00000E+00
 -1       925 5.51044E+01 1.75689E+01 0.00000E+00
 -1       926 1.55880E+01 2.05531E+01 0.00000E+00
 -1       927 1.34543E+02 1.80943E+01 0.00000E+00
 -1       928 2.05350E+01 1.43982E+01 0.00000E+00
 -1       929 1.55880E+01 2.34906E+01 0.00000E+00
 -1       930 6.76569E+01 3.38787E+01 0.00000E+00
 -1       931 1.56990E+01 3.15259E+01 0.00000E+00
 -1       932 3.55350E+01 1.43982E+01 0.00000E+00
 -1       933 6.39145E+01 2.31588E+01 0.00000E+00
 -1       934 5.91811E+01 1.92642E+01 0.00000E+00
 -1       935 6.85198E+01 3.03416E+01 0.00000E+00
 -1       936 2.24250E+01 3.18140E+01 0.00000E+00
 -1       937 2.54250E+01 3.18140E+01 0.00000E+00
 -1       938 2.82750E+01 3.18140E+01 0.00000E+00
 -1       939 3.12750E+01 3.18140E+01 0.00000E+00
 -1       940 8.03250E+01 3.26013E+01 0.00000E+00
 -1       941 8.33250E+01 3.26013E+01 0.00000E+00
 -1       942 8.61750E+01 3.26013E+01 0.00000E+00
 -1       943 8.91750E+01 3.26013E+01 0.00000E+00
 -1       944 9.21750E+01 3.26013E+01 0.00000E+00
 -1       945 9.51750E+01 3.26013E+01 0.00000E+00
 -1       946 9.81750E+01 3.26013E+01 0.00000E+00
 -1       947 1.01175E+02 3.26013E+01 0.00000E+00
 -1       948 1.04025E+02 3.26013E+01 0.00000E+00
 -1       949 1.07025E+02 3.26013E+01 0.00000E+00
 -1       950 1.10025E+02 3.26013E+01 0.00000E+00
 -1       951 1.13025E+02 3.26013E+01 0.00000E+00
 -1       952 1.16025E+02 3.26013E+01 0.00000E+00
 -1       953 1.19025E+02 3.26013E+01 0.00000E+00
 -1       954 1.21875E+02 3.26013E+01 0.00000E+00
 -1       955 1.24875E+02 3.26013E+01 0.00000E+00
 -1       956 1.27875E+02 3.26013E+01 0.00000E+00
 -1       957 1.30875E+02 3.26013E+01 0.00000E+00
 -1       958 1.32714E+02 3.22881E+01 0.00000E+00
 -1       959 1.31814E+02 2.79500E+01 0.00000E+00
 -1       960 1.88283E+01 1.69558E+01 0.00000E+00
 -1       961 3.50635E+01 2.93816E+01 0.00000E+00
 -1       962 6.10350E+01 1.69963E+01 0.00000E+00
 -1       963 6.40350E+01 1.69963E+01 0.00000E+00
 -1       964 6.70350E+01 1.69963E+01 0.00000E+00
 -1       965 7.00350E+01 1.69963E+01 0.00000E+00
 -1       966 7.30350E+01 1.69963E+01 0.00000E+00
 -1       967 7.60350E+01 1.69963E+01 0.00000E+00
 -1       968 7.90350E+01 1.69963E+01 0.00000E+00
 -1       969 8.20350E+01 1.69963E+01 0.00000E+00
 -1       970 8.50350E+01 1.69963E+01 0.00000E+00
 -1       971 8.80350E+01 1.69963E+01 0.00000E+00
 -1       972 9.10350E+01 1.69963E+01 0.00000E+00
 -1       973 9.40350E+01 1.69963E+01 0.00000E+00
 -1       974 9.70350E+01 1.69963E+01 0.00000E+00
 -1       975 1.00035E+02 1.69963E+01 0.00000E+00
 -1       976 1.03035E+02 1.69963E+01 0.00000E+00
 -1       977 1.06035E+02 1.69963E+01 0.00000E+00
 -1       978 1.09035E+02 1.69963E+01 0.00000E+00
 -1       979 1.12035E+02 1.69963E+01 0.00000E+00
 -1       980 1.15035E+02 1.69963E+01 0.00000E+00
 -1       981 1.18035E+02 1.69963E+01 0.00000E+00
 -1       982 1.21035E+02 1.69963E+01 0.00000E+00
 -1       983 1.24035E+02 1.69963E+01 0.00000E+00
 -1       984 1.27035E+02 1.69963E+01 0.00000E+00
 -1       985 1.30035E+02 1.69963E+01 0.00000E+00
 -1       986 7.14000E+01 3.26013E+01 0.00000E+00
 -1       987 7.44000E+01 3.26013E+01 0.00000E+00
 -1       988 5.78580E+01 1.68312E+01 0.00000E+00
 -1       989 3.85985E+01 2.15620E+01 0.00000E+00
 -1       990 3.10350E+01 1.69963E+01 0.00000E+00
 -1       991 1.56990E+01 2.85884E+01 0.00000E+00
 -1       992 2.80350E+01 1.69963E+01 0.00000E+00
 -1       993 1.53532E+01 1.78907E+01 0.00000E+00
 -1       994 7.73625E+01 3.26013E+01 0.00000E+00
 -1       995 1.56435E+01 2.60395E+01 0.00000E+00
 -1       996 1.94250E+01 3.18140E+01 0.00000E+00
 -1       997 2.50350E+01 1.69963E+01 0.00000E+00
 -1       998 3.15675E+01 2.95206E+01 0.00000E+00
 -1       999 6.92697E+01 2.78921E+01 0.00000E+00
 -1      1000 4.01216E+01 1.77263E+01 0.00000E+00
 -1      1001 3.50566E+01 2.58291E+01 0.00000E+00
 -1      1002 1.31814E+02 2.50000E+01 0.00000E+00
 -1      1003 2.18283E+01 1.69558E+01 0.00000E+00
 -1      1004 1.33035E+02 1.69963E+01 0.00000E+00
 -1      1005 3.40350E+01 1.69963E+01 0.00000E+00
 -1      1006 1.31814E+02 2.20500E+01 0.00000E+00
 -1      1007 6.68830E+01 2.33248E+01 0.00000E+00
 -1      1008 1.31945E+02 1.95693E+01 0.00000E+00
 -1      1009 1.81860E+01 2.20219E+01 0.00000E+00
 -1      1010 6.34036E+01 2.13852E+01 0.00000E+00
 -1      1011 1.32264E+02 3.01190E+01 0.00000E+00
 -1      1012 1.79512E+01 1.93594E+01 0.00000E+00
 -1      1013 2.39250E+01 2.92160E+01 0.00000E+00
 -1      1014 2.67750E+01 2.92160E+01 0.00000E+00
 -1      1015 2.91713E+01 2.93683E+01 0.00000E+00
 -1      1016 8.18250E+01 3.00033E+01 0.00000E+00
 -1      1017 3.56011E+01 2.26253E+01 0.00000E+00
 -1      1018 8.46750E+01 3.00033E+01 0.00000E+00
 -1      1019 8.76750E+01 3.00033E+01 0.00000E+00
 -1      1020 9.06750E+01 3.00033E+01 0.00000E+00
 -1      1021 9.36750E+01 3.00033E+01 0.00000E+00
 -1      1022 9.66750E+01 3.00033E+01 0.00000E+00
 -1      1023 9.96750E+01 3.00033E+01 0.00000E+00
 -1      1024 1.02525E+02 3.00033E+01 0.00000E+00
 -1      1025 1.05525E+02 3.00033E+01 0.00000E+00
 -1      1026 1.08525E+02 3.00033E+01 0.00000E+00
 -1      1027 1.11525E+02 3.00033E+01 0.00000E+00
 -1      1028 1.14525E+02 3.00033E+01 0.00000E+00
 -1      1029 1.17525E+02 3.00033E+01 0.00000E+00
 -1      1030 1.20375E+02 3.00033E+01 0.00000E+00
 -1      1031 1.23375E+02 3.00033E+01 0.00000E+00
 -1      1032 1.26375E+02 3.00033E+01 0.00000E+00
 -1      1033 7.15350E+01 1.95942E+01 0.00000E+00
 -1      1034 7.45350E+01 1.95942E+01 0.00000E+00
 -1      1035 7.75350E+01 1.95942E+01 0.00000E+00
 -1      1036 8.05350E+01 1.95942E+01 0.00000E+00
 -1      1037 8.35350E+01 1.95942E+01 0.00000E+00
 -1      1038 8.65350E+01 1.95942E+01 0.00000E+00
 -1      1039 8.95350E+01 1.95942E+01 0.00000E+00
 -1      1040 9.25350E+01 1.95942E+01 0.00000E+00
 -1      1041 9.55350E+01 1.95942E+01 0.00000E+00
 -1      1042 9.85350E+01 1.95942E+01 0.00000E+00
 -1      1043 1.01535E+02 1.95942E+01 0.00000E+00
 -1      1044 1.04535E+02 1.95942E+01 0.00000E+00
 -1      1045 1.07535E+02 1.95942E+01 0.00000E+00
 -1      1046 1.10535E+02 1.95942E+01 0.00000E+00
 -1      1047 1.13535E+02 1.95942E+01 0.00000E+00
 -1      1048 1.16535E+02 1.95942E+01 0.00000E+00
 -1      1049 1.19535E+02 1.95942E+01 0.00000E+00
 -1      1050 1.22535E+02 1.95942E+01 0.00000E+00
 -1      1051 1.25535E+02 1.95942E+01 0.00000E+00
 -1      1052 1.28535E+02 1.95942E+01 0.00000E+00
 -1      1053 1.82415E+01 2.45707E+01 0.00000E+00
 -1      1054 7.29000E+01 3.00033E+01 0.00000E+00
 -1      1055 3.15606E+01 2.59681E+01 0.00000E+00
 -1      1056 2.95350E+01 1.95942E+01 0.00000E+00
 -1      1057 1.94250E+01 2.88765E+01 0.00000E+00
 -1      1058 3.71216E+01 1.77263E+01 0.00000E+00
 -1      1059 6.85350E+01 1.95942E+01 0.00000E+00
 -1      1060 6.59693E+01 2.04897E+01 0.00000E+00
 -1      1061 2.16750E+01 2.90462E+01 0.00000E+00
 -1      1062 6.95065E+01 2.47103E+01 0.00000E+00
 -1      1063 7.88625E+01 3.00033E+01 0.00000E+00
 -1      1064 7.58625E+01 3.00033E+01 0.00000E+00
 -1      1065 3.21051E+01 2.27643E+01 0.00000E+00
 -1      1066 1.29216E+02 2.64750E+01 0.00000E+00
 -1      1067 2.09512E+01 1.93594E+01 0.00000E+00
 -1      1068 1.29375E+02 3.00033E+01 0.00000E+00
 -1      1069 2.65350E+01 1.95942E+01 0.00000E+00
 -1      1070 2.08111E+01 2.32398E+01 0.00000E+00
 -1      1071 3.25350E+01 1.95942E+01 0.00000E+00
 -1      1072 1.29216E+02 2.35250E+01 0.00000E+00
 -1      1073 1.88333E+01 2.67236E+01 0.00000E+00
 -1      1074 6.90208E+01 2.21523E+01 0.00000E+00
 -1      1075 8.32500E+01 2.74053E+01 0.00000E+00
 -1      1076 2.34775E+01 2.13933E+01 0.00000E+00
 -1      1077 2.37431E+01 1.94768E+01 0.00000E+00
 -1      1078 8.62500E+01 2.74053E+01 0.00000E+00
 -1      1079 8.92500E+01 2.74053E+01 0.00000E+00
 -1      1080 9.22500E+01 2.74053E+01 0.00000E+00
 -1      1081 9.52500E+01 2.74053E+01 0.00000E+00
 -1      1082 9.82500E+01 2.74053E+01 0.00000E+00
 -1      1083 1.01100E+02 2.74053E+01 0.00000E+00
 -1      1084 1.04100E+02 2.74053E+01 0.00000E+00
 -1      1085 1.07100E+02 2.74053E+01 0.00000E+00
 -1      1086 1.10100E+02 2.74053E+01 0.00000E+00
 -1      1087 1.13100E+02 2.74053E+01 0.00000E+00
 -1      1088 1.16100E+02 2.74053E+01 0.00000E+00
 -1      1089 1.18950E+02 2.74053E+01 0.00000E+00
 -1      1090 1.21950E+02 2.74053E+01 0.00000E+00
 -1      1091 1.24950E+02 2.74053E+01 0.00000E+00
 -1      1092 7.60350E+01 2.21922E+01 0.00000E+00
 -1      1093 7.30350E+01 2.21922E+01 0.00000E+00
 -1      1094 8.20350E+01 2.21922E+01 0.00000E+00
 -1      1095 8.50350E+01 2.21922E+01 0.00000E+00
 -1      1096 8.80350E+01 2.21922E+01 0.00000E+00
 -1      1097 9.10350E+01 2.21922E+01 0.00000E+00
 -1      1098 9.40350E+01 2.21922E+01 0.00000E+00
 -1      1099 9.70350E+01 2.21922E+01 0.00000E+00
 -1      1100 1.00035E+02 2.21922E+01 0.00000E+00
 -1      1101 1.03035E+02 2.21922E+01 0.00000E+00
 -1      1102 1.06035E+02 2.21922E+01 0.00000E+00
 -1      1103 1.09035E+02 2.21922E+01 0.00000E+00
 -1      1104 1.12035E+02 2.21922E+01 0.00000E+00
 -1      1105 1.15035E+02 2.21922E+01 0.00000E+00
 -1      1106 1.18035E+02 2.21922E+01 0.00000E+00
 -1      1107 1.21035E+02 2.21922E+01 0.00000E+00
 -1      1108 1.24035E+02 2.21922E+01 0.00000E+00
 -1      1109 1.26626E+02 2.28586E+01 0.00000E+00
 -1      1110 2.14029E+01 2.53926E+01 0.00000E+00
 -1      1111 2.53500E+01 2.66180E+01 0.00000E+00
 -1      1112 7.90350E+01 2.21922E+01 0.00000E+00
 -1      1113 7.23909E+01 2.67019E+01 0.00000E+00
 -1      1114 7.53534E+01 2.67019E+01 0.00000E+00
 -1      1115 2.40692E+01 2.35462E+01 0.00000E+00
 -1      1116 2.77463E+01 2.67703E+01 0.00000E+00
 -1      1117 2.92716E+01 2.39309E+01 0.00000E+00
 -1      1118 2.15389E+01 2.72194E+01 0.00000E+00
 -1      1119 2.80350E+01 2.21922E+01 0.00000E+00
 -1      1120 8.02875E+01 2.74053E+01 0.00000E+00
 -1      1121 7.19051E+01 2.41439E+01 0.00000E+00
 -1      1122 1.26618E+02 2.50000E+01 0.00000E+00
 -1      1123 2.34445E+01 2.69187E+01 0.00000E+00
 -1      1124 7.78204E+01 2.70536E+01 0.00000E+00
 -1      1125 2.53021E+01 2.15702E+01 0.00000E+00
 -1      1126 8.95350E+01 2.47903E+01 0.00000E+00
 -1      1127 8.47500E+01 2.48073E+01 0.00000E+00
 -1      1128 1.24027E+02 2.43336E+01 0.00000E+00
 -1      1129 9.37500E+01 2.48073E+01 0.00000E+00
 -1      1130 9.67500E+01 2.48073E+01 0.00000E+00
 -1      1131 9.96000E+01 2.48073E+01 0.00000E+00
 -1      1132 1.02600E+02 2.48073E+01 0.00000E+00
 -1      1133 1.05600E+02 2.48073E+01 0.00000E+00
 -1      1134 1.08600E+02 2.48073E+01 0.00000E+00
 -1      1135 1.11600E+02 2.48073E+01 0.00000E+00
 -1      1136 1.14600E+02 2.48073E+01 0.00000E+00
 -1      1137 1.17450E+02 2.48073E+01 0.00000E+00
 -1      1138 1.20450E+02 2.48073E+01 0.00000E+00
 -1      1139 8.05350E+01 2.47903E+01 0.00000E+00
 -1      1140 0.00000E+00 4.85250E+01 0.00000E+00
 -1      1141 0.00000E+00 4.55750E+01 0.00000E+00
 -1      1142 0.00000E+00 4.26250E+01 0.00000E+00
 -1      1143 0.00000E+00 3.96750E+01 0.00000E+00
 -1      1144 0.00000E+00 3.67250E+01 0.00000E+00
 -1      1145 0.00000E+00 3.38000E+01 0.00000E+00
 -1      1146 0.00000E+00 3.08750E+01 0.00000E+00
 -1      1147 0.00000E+00 2.79250E+01 0.00000E+00
 -1      1148 0.00000E+00 2.49750E+01 0.00000E+00
 -1      1149 0.00000E+00 2.20250E+01 0.00000E+00
 -1      1150 0.00000E+00 1.90750E+01 0.00000E+00
 -1      1151 0.00000E+00 1.61500E+01 0.00000E+00
 -1      1152 0.00000E+00 1.32250E+01 0.00000E+00
 -1      1153 0.00000E+00 1.02750E+01 0.00000E+00
 -1      1154 0.00000E+00 7.32500E+00 0.00000E+00
 -1      1155 0.00000E+00 4.37500E+00 0.00000E+00
 -1      1156 0.00000E+00 1.45000E+00 0.00000E+00
 -1      1157 1.50000E+00 5.00000E+01 0.00000E+00
 -1      1158 4.50000E+00 5.00000E+01 0.00000E+00
 -1      1159 7.50000E+00 5.00000E+01 0.00000E+00
 -1      1160 1.05000E+01 5.00000E+01 0.00000E+00
 -1      1161 1.35000E+01 5.00000E+01 0.00000E+00
 -1      1162 1.65000E+01 5.00000E+01 0.00000E+00
 -1      1163 1.94250E+01 5.00000E+01 0.00000E+00
 -1      1164 2.23500E+01 5.00000E+01 0.00000E+00
 -1      1165 2.53500E+01 5.00000E+01 0.00000E+00
 -1      1166 2.83500E+01 5.00000E+01 0.00000E+00
 -1      1167 3.13500E+01 5.00000E+01 0.00000E+00
 -1      1168 3.43500E+01 5.00000E+01 0.00000E+00
 -1      1169 3.72750E+01 5.00000E+01 0.00000E+00
 -1      1170 4.02000E+01 5.00000E+01 0.00000E+00
 -1      1171 4.32000E+01 5.00000E+01 0.00000E+00
 -1      1172 4.62000E+01 5.00000E+01 0.00000E+00
 -1      1173 4.89000E+01 5.00000E+01 0.00000E+00
 -1      1174 5.13750E+01 5.00000E+01 0.00000E+00
 -1      1175 5.40000E+01 5.00000E+01 0.00000E+00
 -1      1176 5.66250E+01 5.00000E+01 0.00000E+00
 -1      1177 5.93250E+01 5.00000E+01 0.00000E+00
 -1      1178 6.22500E+01 5.00000E+01 0.00000E+00
 -1      1179 6.52500E+01 5.00000E+01 0.00000E+00
 -1      1180 6.82500E+01 5.00000E+01 0.00000E+00
 -1      1181 7.12500E+01 5.00000E+01 0.00000E+00
 -1      1182 7.41750E+01 5.00000E+01 0.00000E+00
 -1      1183 7.71000E+01 5.00000E+01 0.00000E+00
 -1      1184 8.01000E+01 5.00000E+01 0.00000E+00
 -1      1185 8.31000E+01 5.00000E+01 0.00000E+00
 -1      1186 8.61000E+01 5.00000E+01 0.00000E+00
 -1      1187 8.91000E+01 5.00000E+01 0.00000E+00
 -1      1188 9.21000E+01 5.00000E+01 0.00000E+00
 -1      1189 9.50250E+01 5.00000E+01 0.00000E+00
 -1      1190 9.79500E+01 5.00000E+01 0.00000E+00
 -1      1191 1.00950E+02 5.00000E+01 0.00000E+00
 -1      1192 1.03950E+02 5.00000E+01 0.00000E+00
 -1      1193 1.06950E+02 5.00000E+01 0.00000E+00
 -1      1194 1.09950E+02 5.00000E+01 0.00000E+00
 -1      1195 1.12875E+02 5.00000E+01 0.00000E+00
 -1      1196 1.15800E+02 5.00000E+01 0.00000E+00
 -1      1197 1.18800E+02 5.00000E+01 0.00000E+00
 -1      1198 1.21800E+02 5.00000E+01 0.00000E+00
 -1      1199 1.24800E+02 5.00000E+01 0.00000E+00
 -1      1200 1.27800E+02 5.00000E+01 0.00000E+00
 -1      1201 1.30725E+02 5.00000E+01 0.00000E+00
 -1      1202 1.33650E+02 5.00000E+01 0.00000E+00
 -1      1203 1.36650E+02 5.00000E+01 0.00000E+00
 -1      1204 1.39650E+02 5.00000E+01 0.00000E+00
 -1      1205 1.42650E+02 5.00000E+01 0.00000E+00
 -1      1206 1.45650E+02 5.00000E+01 0.00000E+00
 -1      1207 1.48575E+02 5.00000E+01 0.00000E+00
 -1      1208 1.57500E+00 0.00000E+00 0.00000E+00
 -1      1209 4.65000E+00 0.00000E+00 0.00000E+00
 -1      1210 7.65000E+00 0.00000E+00 0.00000E+00
 -1      1211 1.06500E+01 0.00000E+00 0.00000E+00
 -1      1212 1.36500E+01 0.00000E+00 0.00000E+00
 -1      1213 1.66500E+01 0.00000E+00 0.00000E+00
 -1      1214 1.96500E+01 0.00000E+00 0.00000E+00
 -1      1215 2.26500E+01 0.00000E+00 0.00000E+00
 -1      1216 2.56500E+01 0.00000E+00 0.00000E+00
 -1      1217 2.86500E+01 0.00000E+00 0.00000E+00
 -1      1218 3.16500E+01 0.00000E+00 0.00000E+00
 -1      1219 3.46500E+01 0.00000E+00 0.00000E+00
 -1      1220 3.76500E+01 0.00000E+00 0.00000E+00
 -1      1221 4.06500E+01 0.00000E+00 0.00000E+00
 -1      1222 4.36500E+01 0.00000E+00 0.00000E+00
 -1      1223 4.66500E+01 0.00000E+00 0.00000E+00
 -1      1224 4.96500E+01 0.00000E+00 0.00000E+00
 -1      1225 5.26500E+01 0.00000E+00 0.00000E+00
 -1      1226 5.56500E+01 0.00000E+00 0.00000E+00
 -1      1227 5.86500E+01 0.00000E+00 0.00000E+00
 -1      1228 6.16500E+01 0.00000E+00 0.00000E+00
 -1      1229 6.46500E+01 0.00000E+00 0.00000E+00
 -1      1230 6.76500E+01 0.00000E+00 0.00000E+00
 -1      1231 7.06500E+01 0.00000E+00 0.00000E+00
 -1      1232 7.36500E+01 0.00000E+00 0.00000E+00
 -1      1233 7.66500E+01 0.00000E+00 0.00000E+00
 -1      1234 7.96500E+01 0.00000E+00 0.00000E+00
 -1      1235 8.26500E+01 0.00000E+00 0.00000E+00
 -1      1236 8.56500E+01 0.00000E+00 0.00000E+00
 -1      1237 8.86500E+01 0.00000E+00 0.00000E+00
 -1      1238 9.16500E+01 0.00000E+00 0.00000E+00
 -1      1239 9.46500E+01 0.00000E+00 0.00000E+00
 -1      1240 9.76500E+01 0.00000E+00 0.00000E+00
 -1      1241 1.00650E+02 0.00000E+00 0.00000E+00
 -1      1242 1.03650E+02 0.00000E+00 0.00000E+00
 -1      1243 1.06650E+02 0.00000E+00 0.00000E+00
 -1      1244 1.09650E+02 0.00000E+00 0.00000E+00
 -1      1245 1.12650E+02 0.00000E+00 0.00000E+00
 -1      1246 1.15650E+02 0.00000E+00 0.00000E+00
 -1      1247 1.18650E+02 0.00000E+00 0.00000E+00
 -1      1248 1.21650E+02 0.00000E+00 0.00000E+00
 -1      1249 1.24650E+02 0.00000E+00 0.00000E+00
 -1      1250 1.27650E+02 0.00000E+00 0.00000E+00
 -1      1251 1.30650E+02 0.00000E+00 0.00000E+00
 -1      1252 1.33650E+02 0.00000E+00 0.00000E+00
 -1      1253 1.36650E+02 0.00000E+00 0.00000E+00
 -1      1254 1.39650E+02 0.00000E+00 0.00000E+00
 -1      1255 1.42650E+02 0.00000E+00 0.00000E+00
 -1      1256 1.45650E+02 0.00000E+00 0.00000E+00
 -1      1257 1.48575E+02 0.00000E+00 0.00000E+00
 -1      1258 1.50000E+02 1.47500E+00 0.00000E+00
 -1      1259 1.50000E+02 4.42500E+00 0.00000E+00
 -1      1260 1.50000E+02 7.37500E+00 0.00000E+00
 -1      1261 1.50000E+02 1.03250E+01 0.00000E+00
 -1      1262 1.50000E+02 1.32750E+01 0.00000E+00
 -1      1263 1.50000E+02 1.62000E+01 0.00000E+00
 -1      1264 1.50000E+02 1.91250E+01 0.00000E+00
 -1      1265 1.50000E+02 2.20750E+01 0.00000E+00
 -1      1266 1.50000E+02 2.50250E+01 0.00000E+00
 -1      1267 1.50000E+02 2.79750E+01 0.00000E+00
 -1      1268 1.50000E+02 3.09250E+01 0.00000E+00
 -1      1269 1.50000E+02 3.38500E+01 0.00000E+00
 -1      1270 1.50000E+02 3.67750E+01 0.00000E+00
 -1      1271 1.50000E+02 3.97250E+01 0.00000E+00
 -1      1272 1.50000E+02 4.26750E+01 0.00000E+00
 -1      1273 1.50000E+02 4.56250E+01 0.00000E+00
 -1      1274 1.50000E+02 4.85500E+01 0.00000E+00
 -1      1275 5.84217E+01 3.42246E+01 0.00000E+00
 -1      1276 5.80621E+01 3.26865E+01 0.00000E+00
 -1      1277 5.74228E+01 3.13572E+01 0.00000E+00
 -1      1278 5.65548E+01 3.02287E+01 0.00000E+00
 -1      1279 5.54109E+01 2.92541E+01 0.00000E+00
 -1      1280 5.40654E+01 2.85380E+01 0.00000E+00
 -1      1281 5.25882E+01 2.81288E+01 0.00000E+00
 -1      1282 5.10581E+01 2.80508E+01 0.00000E+00
 -1      1283 4.95866E+01 2.82967E+01 0.00000E+00
 -1      1284 4.82020E+01 2.88480E+01 0.00000E+00
 -1      1285 4.69917E+01 2.96580E+01 0.00000E+00
 -1      1286 4.59199E+01 3.07719E+01 0.00000E+00
 -1      1287 4.50960E+01 3.21436E+01 0.00000E+00
 -1      1288 4.46194E+01 3.35965E+01 0.00000E+00
 -1      1289 4.44701E+01 3.51525E+01 0.00000E+00
 -1      1290 4.46747E+01 3.67224E+01 0.00000E+00
 -1      1291 4.51898E+01 3.81322E+01 0.00000E+00
 -1      1292 4.60174E+01 3.94295E+01 0.00000E+00
 -1      1293 4.71573E+01 4.05531E+01 0.00000E+00
 -1      1294 4.84623E+01 4.13601E+01 0.00000E+00
 -1      1295 4.98396E+01 4.18464E+01 0.00000E+00
 -1      1296 5.13279E+01 4.20373E+01 0.00000E+00
 -1      1297 5.28508E+01 4.19011E+01 0.00000E+00
 -1      1298 5.42778E+01 4.14506E+01 0.00000E+00
 -1      1299 5.56354E+01 4.06639E+01 0.00000E+00
 -1      1300 5.68017E+01 3.95735E+01 0.00000E+00
 -1      1301 5.76358E+01 3.83513E+01 0.00000E+00
 -1      1302 5.81675E+01 3.70716E+01 0.00000E+00
 -1      1303 5.84353E+01 3.57263E+01 0.00000E+00
 -1      1304 1.50000E+00 4.85250E+01 0.00000E+00
 -1      1305 1.29900E+00 4.48375E+01 0.00000E+00
 -1      1306 1.29900E+00 4.63125E+01 0.00000E+00
 -1      1307 1.29900E+00 4.18875E+01 0.00000E+00
 -1      1308 1.29900E+00 4.33625E+01 0.00000E+00
 -1      1309 2.59800E+00 4.41000E+01 0.00000E+00
 -1      1310 1.29900E+00 3.89375E+01 0.00000E+00
 -1      1311 1.29900E+00 4.04125E+01 0.00000E+00
 -1      1312 2.59800E+00 4.11500E+01 0.00000E+00
 -1      1313 1.29900E+00 3.59875E+01 0.00000E+00
 -1      1314 1.29900E+00 3.74625E+01 0.00000E+00
 -1      1315 2.59800E+00 3.82000E+01 0.00000E+00
 -1      1316 1.29900E+00 3.30875E+01 0.00000E+00
 -1      1317 1.29900E+00 3.45375E+01 0.00000E+00
 -1      1318 2.59800E+00 3.52750E+01 0.00000E+00
 -1      1319 1.29900E+00 3.01375E+01 0.00000E+00
 -1      1320 1.29900E+00 3.16125E+01 0.00000E+00
 -1      1321 2.59800E+00 3.23500E+01 0.00000E+00
 -1      1322 1.29900E+00 2.71875E+01 0.00000E+00
 -1      1323 1.29900E+00 2.86625E+01 0.00000E+00
 -1      1324 2.59800E+00 2.94000E+01 0.00000E+00
 -1      1325 1.29900E+00 2.42375E+01 0.00000E+00
 -1      1326 1.29900E+00 2.57125E+01 0.00000E+00
 -1      1327 2.59800E+00 2.64500E+01 0.00000E+00
 -1      1328 1.29900E+00 2.12875E+01 0.00000E+00
 -1      1329 1.29900E+00 2.27625E+01 0.00000E+00
 -1      1330 2.59800E+00 2.35000E+01 0.00000E+00
 -1      1331 1.29900E+00 1.83375E+01 0.00000E+00
 -1      1332 1.29900E+00 1.98125E+01 0.00000E+00
 -1      1333 2.59800E+00 2.05500E+01 0.00000E+00
 -1      1334 1.29900E+00 1.54375E+01 0.00000E+00
 -1      1335 1.29900E+00 1.68875E+01 0.00000E+00
 -1      1336 2.59800E+00 1.76250E+01 0.00000E+00
 -1      1337 1.29900E+00 1.24875E+01 0.00000E+00
 -1      1338 1.29900E+00 1.39625E+01 0.00000E+00
 -1      1339 2.59800E+00 1.47000E+01 0.00000E+00
 -1      1340 1.29900E+00 9.53750E+00 0.00000E+00
 -1      1341 1.29900E+00 1.10125E+01 0.00000E+00
 -1      1342 2.59800E+00 1.17500E+01 0.00000E+00
 -1      1343 1.29900E+00 6.58750E+00 0.00000E+00
 -1      1344 1.29900E+00 8.06250E+00 0.00000E+00
 -1      1345 2.59800E+00 8.80000E+00 0.00000E+00
 -1      1346 1.29900E+00 3.63750E+00 0.00000E+00
 -1      1347 1.29900E+00 5.11250E+00 0.00000E+00
 -1      1348 2.59800E+00 5.85000E+00 0.00000E+00
 -1      1349 1.43700E+00 1.09375E+00 0.00000E+00
 -1      1350 1.43700E+00 2.54375E+00 0.00000E+00
 -1      1351 2.73600E+00 3.28125E+00 0.00000E+00
 -1      1352 3.01200E+00 1.09375E+00 0.00000E+00
 -1      1353 3.75000E+00 4.87010E+01 0.00000E+00
 -1      1354 5.25000E+00 4.87010E+01 0.00000E+00
 -1      1355 6.75000E+00 4.87010E+01 0.00000E+00
 -1      1356 8.25000E+00 4.87010E+01 0.00000E+00
 -1      1357 6.00000E+00 4.74020E+01 0.00000E+00
 -1      1358 9.75000E+00 4.87010E+01 0.00000E+00
 -1      1359 1.12500E+01 4.87010E+01 0.00000E+00
 -1      1360 9.00000E+00 4.74020E+01 0.00000E+00
 -1      1361 1.27500E+01 4.87010E+01 0.00000E+00
 -1      1362 1.42500E+01 4.87010E+01 0.00000E+00
 -1      1363 1.20000E+01 4.74020E+01 0.00000E+00
 -1      1364 1.57500E+01 4.87010E+01 0.00000E+00
 -1      1365 1.72500E+01 4.87010E+01 0.00000E+00
 -1      1366 1.50000E+01 4.74020E+01 0.00000E+00
 -1      1367 1.86750E+01 4.87010E+01 0.00000E+00
 -1      1368 2.01000E+01 4.87010E+01 0.00000E+00
 -1      1369 1.79250E+01 4.74020E+01 0.00000E+00
 -1      1370 2.16000E+01 4.87010E+01 0.00000E+00
 -1      1371 2.31000E+01 4.87010E+01 0.00000E+00
 -1      1372 2.08500E+01 4.74020E+01 0.00000E+00
 -1      1373 2.46000E+01 4.87010E+01 0.00000E+00
 -1      1374 2.61000E+01 4.87010E+01 0.00000E+00
 -1      1375 2.38500E+01 4.74020E+01 0.00000E+00
 -1      1376 2.76000E+01 4.87010E+01 0.00000E+00
 -1      1377 2.91000E+01 4.87010E+01 0.00000E+00
 -1      1378 2.68500E+01 4.74020E+01 0.00000E+00
 -1      1379 3.06000E+01 4.87010E+01 0.00000E+00
 -1      1380 3.21000E+01 4.87010E+01 0.00000E+00
 -1      1381 2.98500E+01 4.74020E+01 0.00000E+00
 -1      1382 3.36000E+01 4.87010E+01 0.00000E+00
 -1      1383 3.51000E+01 4.87010E+01 0.00000E+00
 -1      1384 3.28500E+01 4.74020E+01 0.00000E+00
 -1      1385 3.65250E+01 4.87010E+01 0.00000E+00
 -1      1386 3.79500E+01 4.87010E+01 0.00000E+00
 -1      1387 3.57750E+01 4.74020E+01 0.00000E+00
 -1      1388 3.94500E+01 4.87010E+01 0.00000E+00
 -1      1389 4.09500E+01 4.87010E+01 0.00000E+00
 -1      1390 3.87000E+01 4.74020E+01 0.00000E+00
 -1      1391 4.24500E+01 4.87010E+01 0.00000E+00
 -1      1392 4.39500E+01 4.87010E+01 0.00000E+00
 -1      1393 4.17000E+01 4.74020E+01 0.00000E+00
 -1      1394 4.54500E+01 4.87010E+01 0.00000E+00
 -1      1395 4.69500E+01 4.87010E+01 0.00000E+00
 -1      1396 4.47000E+01 4.74020E+01 0.00000E+00
 -1      1397 4.81500E+01 4.87010E+01 0.00000E+00
 -1      1398 4.93500E+01 4.87010E+01 0.00000E+00
 -1      1399 4.74000E+01 4.74020E+01 0.00000E+00
 -1      1400 5.06250E+01 4.87010E+01 0.00000E+00
 -1      1401 5.19000E+01 4.87010E+01 0.00000E+00
 -1      1402 4.98750E+01 4.74020E+01 0.00000E+00
 -1      1403 5.32500E+01 4.87010E+01 0.00000E+00
 -1      1404 5.46000E+01 4.87010E+01 0.00000E+00
 -1      1405 5.25000E+01 4.74020E+01 0.00000E+00
 -1      1406 5.58750E+01 4.87010E+01 0.00000E+00
 -1      1407 5.71500E+01 4.87010E+01 0.00000E+00
 -1      1408 5.51250E+01 4.74020E+01 0.00000E+00
 -1      1409 5.85750E+01 4.87010E+01 0.00000E+00
 -1      1410 6.00000E+01 4.87010E+01 0.00000E+00
 -1      1411 5.78250E+01 4.74020E+01 0.00000E+00
 -1      1412 6.15000E+01 4.87010E+01 0.00000E+00
 -1      1413 6.30000E+01 4.87010E+01 0.00000E+00
 -1      1414 6.07500E+01 4.74020E+01 0.00000E+00
 -1      1415 6.45000E+01 4.87010E+01 0.00000E+00
 -1      1416 6.60000E+01 4.87010E+01 0.00000E+00
 -1      1417 6.37500E+01 4.74020E+01 0.00000E+00
 -1      1418 6.75000E+01 4.87010E+01 0.00000E+00
 -1      1419 6.90000E+01 4.87010E+01 0.00000E+00
 -1      1420 6.67500E+01 4.74020E+01 0.00000E+00
 -1      1421 7.05000E+01 4.87010E+01 0.00000E+00
 -1      1422 7.20000E+01 4.87010E+01 0.00000E+00
 -1      1423 6.97500E+01 4.74020E+01 0.00000E+00
 -1      1424 7.34250E+01 4.87010E+01 0.00000E+00
 -1      1425 7.48500E+01 4.87010E+01 0.00000E+00
 -1      1426 7.26750E+01 4.74020E+01 0.00000E+00
 -1      1427 7.63500E+01 4.87010E+01 0.00000E+00
 -1      1428 7.78500E+01 4.87010E+01 0.00000E+00
 -1      1429 7.56000E+01 4.74020E+01 0.00000E+00
 -1      1430 7.93500E+01 4.87010E+01 0.00000E+00
 -1      1431 8.08500E+01 4.87010E+01 0.00000E+00
 -1      1432 7.86000E+01 4.74020E+01 0.00000E+00
 -1      1433 8.23500E+01 4.87010E+01 0.00000E+00
 -1      1434 8.38500E+01 4.87010E+01 0.00000E+00
 -1      1435 8.16000E+01 4.74020E+01 0.00000E+00
 -1      1436 8.53500E+01 4.87010E+01 0.00000E+00
 -1      1437 8.68500E+01 4.87010E+01 0.00000E+00
 -1      1438 8.46000E+01 4.74020E+01 0.00000E+00
 -1      1439 8.83500E+01 4.87010E+01 0.00000E+00
 -1      1440 8.98500E+01 4.87010E+01 0.00000E+00
 -1      1441 8.76000E+01 4.74020E+01 0.00000E+00
 -1      1442 9.13500E+01 4.87010E+01 0.00000E+00
 -1      1443 9.28500E+01 4.87010E+01 0.00000E+00
 -1      1444 9.06000E+01 4.74020E+01 0.00000E+00
 -1      1445 9.42750E+01 4.87010E+01 0.00000E+00
 -1      1446 9.57000E+01 4.87010E+01 0.00000E+00
 -1      1447 9.35250E+01 4.74020E+01 0.00000E+00
 -1      1448 9.72000E+01 4.87010E+01 0.00000E+00
 -1      1449 9.87000E+01 4.87010E+01 0.00000E+00
 -1      1450 9.64500E+01 4.74020E+01 0.00000E+00
 -1      1451 1.00200E+02 4.87010E+01 0.00000E+00
 -1      1452 1.01700E+02 4.87010E+01 0.00000E+00
 -1      1453 9.94500E+01 4.74020E+01 0.00000E+00
 -1      1454 1.03200E+02 4.87010E+01 0.00000E+00
 -1      1455 1.04700E+02 4.87010E+01 0.00000E+00
 -1      1456 1.02450E+02 4.74020E+01 0.00000E+00
 -1      1457 1.06200E+02 4.87010E+01 0.00000E+00
 -1      1458 1.07700E+02 4.87010E+01 0.00000E+00
 -1      1459 1.05450E+02 4.74020E+01 0.00000E+00
 -1      1460 1.09200E+02 4.87010E+01 0.00000E+00
 -1      1461 1.10700E+02 4.87010E+01 0.00000E+00
 -1      1462 1.08450E+02 4.74020E+01 0.00000E+00
 -1      1463 1.12125E+02 4.87010E+01 0.00000E+00
 -1      1464 1.13550E+02 4.87010E+01 0.00000E+00
 -1      1465 1.11375E+02 4.74020E+01 0.00000E+00
 -1      1466 1.15050E+02 4.87010E+01 0.00000E+00
 -1      1467 1.16550E+02 4.87010E+01 0.00000E+00
 -1      1468 1.14300E+02 4.74020E+01 0.00000E+00
 -1      1469 1.18050E+02 4.87010E+01 0.00000E+00
 -1      1470 1.19550E+02 4.87010E+01 0.00000E+00
 -1      1471 1.17300E+02 4.74020E+01 0.00000E+00
 -1      1472 1.21050E+02 4.87010E+01 0.00000E+00
 -1      1473 1.22550E+02 4.87010E+01 0.00000E+00
 -1      1474 1.20300E+02 4.74020E+01 0.00000E+00
 -1      1475 1.24050E+02 4.87010E+01 0.00000E+00
 -1      1476 1.25550E+02 4.87010E+01 0.00000E+00
 -1      1477 1.23300E+02 4.74020E+01 0.00000E+00
 -1      1478 1.27050E+02 4.87010E+01 0.00000E+00
 -1      1479 1.28550E+02 4.87010E+01 0.00000E+00
 -1      1480 1.26300E+02 4.74020E+01 0.00000E+00
 -1      1481 1.29975E+02 4.87010E+01 0.00000E+00
 -1      1482 1.31400E+02 4.87010E+01 0.00000E+00
 -1      1483 1.29225E+02 4.74020E+01 0.00000E+00
 -1      1484 1.32900E+02 4.87010E+01 0.00000E+00
 -1      1485 1.34400E+02 4.87010E+01 0.00000E+00
 -1      1486 1.32150E+02 4.74020E+01 0.00000E+00
 -1      1487 1.35900E+02 4.87010E+01 0.00000E+00
 -1      1488 1.37400E+02 4.87010E+01 0.00000E+00
 -1      1489 1.35150E+02 4.74020E+01 0.00000E+00
 -1      1490 1.38900E+02 4.87010E+01 0.00000E+00
 -1      1491 1.40400E+02 4.87010E+01 0.00000E+00
 -1      1492 1.38150E+02 4.74020E+01 0.00000E+00
 -1      1493 1.41900E+02 4.87010E+01 0.00000E+00
 -1      1494 1.43400E+02 4.87010E+01 0.00000E+00
 -1      1495 1.41150E+02 4.74020E+01 0.00000E+00
 -1      1496 1.44900E+02 4.87010E+01 0.00000E+00
 -1      1497 1.46400E+02 4.87010E+01 0.00000E+00
 -1      1498 1.44150E+02 4.74020E+01 0.00000E+00
 -1      1499 1.48575E+02 4.85500E+01 0.00000E+00
 -1      1500 6.01200E+00 1.09375E+00 0.00000E+00
 -1      1501 4.51200E+00 1.09375E+00 0.00000E+00
 -1      1502 4.37400E+00 2.18750E+00 0.00000E+00
 -1      1503 9.01200E+00 1.09375E+00 0.00000E+00
 -1      1504 7.51200E+00 1.09375E+00 0.00000E+00
 -1      1505 7.37400E+00 2.18750E+00 0.00000E+00
 -1      1506 1.20120E+01 1.09375E+00 0.00000E+00
 -1      1507 1.05120E+01 1.09375E+00 0.00000E+00
 -1      1508 1.03740E+01 2.18750E+00 0.00000E+00
 -1      1509 1.50120E+01 1.09375E+00 0.00000E+00
 -1      1510 1.35120E+01 1.09375E+00 0.00000E+00
 -1      1511 1.33740E+01 2.18750E+00 0.00000E+00
 -1      1512 1.80120E+01 1.09375E+00 0.00000E+00
 -1      1513 1.65120E+01 1.09375E+00 0.00000E+00
 -1      1514 1.63740E+01 2.18750E+00 0.00000E+00
 -1      1515 2.10120E+01 1.09375E+00 0.00000E+00
 -1      1516 1.95120E+01 1.09375E+00 0.00000E+00
 -1      1517 1.93740E+01 2.18750E+00 0.00000E+00
 -1      1518 2.40120E+01 1.09375E+00 0.00000E+00
 -1      1519 2.25120E+01 1.09375E+00 0.00000E+00
 -1      1520 2.23740E+01 2.18750E+00 0.00000E+00
 -1      1521 2.70120E+01 1.09375E+00 0.00000E+00
 -1      1522 2.55120E+01 1.09375E+00 0.00000E+00
 -1      1523 2.53740E+01 2.18750E+00 0.00000E+00
 -1      1524 3.00120E+01 1.09375E+00 0.00000E+00
 -1      1525 2.85120E+01 1.09375E+00 0.00000E+00
 -1      1526 2.83740E+01 2.18750E+00 0.00000E+00
 -1      1527 3.30120E+01 1.09375E+00 0.00000E+00
 -1      1528 3.15120E+01 1.09375E+00 0.00000E+00
 -1      1529 3.13740E+01 2.18750E+00 0.00000E+00
 -1      1530 3.60120E+01 1.09375E+00 0.00000E+00
 -1      1531 3.45120E+01 1.09375E+00 0.00000E+00
 -1      1532 3.43740E+01 2.18750E+00 0.00000E+00
 -1      1533 3.90120E+01 1.09375E+00 0.00000E+00
 -1      1534 3.75120E+01 1.09375E+00 0.00000E+00
 -1      1535 3.73740E+01 2.18750E+00 0.00000E+00
 -1      1536 4.20120E+01 1.09375E+00 0.00000E+00
 -1      1537 4.05120E+01 1.09375E+00 0.00000E+00
 -1      1538 4.03740E+01 2.18750E+00 0.00000E+00
 -1      1539 4.50120E+01 1.09375E+00 0.00000E+00
 -1      1540 4.35120E+01 1.09375E+00 0.00000E+00
 -1      1541 4.33740E+01 2.18750E+00 0.00000E+00
 -1      1542 4.80120E+01 1.09375E+00 0.00000E+00
 -1      1543 4.65120E+01 1.09375E+00 0.00000E+00
 -1      1544 4.63740E+01 2.18750E+00 0.00000E+00
 -1      1545 5.10120E+01 1.09375E+00 0.00000E+00
 -1      1546 4.95120E+01 1.09375E+00 0.00000E+00
 -1      1547 4.93740E+01 2.18750E+00 0.00000E+00
 -1      1548 5.40120E+01 1.09375E+00 0.00000E+00
 -1      1549 5.25120E+01 1.09375E+00 0.00000E+00
 -1      1550 5.23740E+01 2.18750E+00 0.00000E+00
 -1      1551 5.70120E+01 1.09375E+00 0.00000E+00
 -1      1552 5.55120E+01 1.09375E+00 0.00000E+00
 -1      1553 5.53740E+01 2.18750E+00 0.00000E+00
 -1      1554 6.00120E+01 1.09375E+00 0.00000E+00
 -1      1555 5.85120E+01 1.09375E+00 0.00000E+00
 -1      1556 5.83740E+01 2.18750E+00 0.00000E+00
 -1      1557 6.30120E+01 1.09375E+00 0.00000E+00
 -1      1558 6.15120E+01 1.09375E+00 0.00000E+00
 -1      1559 6.13740E+01 2.18750E+00 0.00000E+00
 -1      1560 6.60120E+01 1.09375E+00 0.00000E+00
 -1      1561 6.45120E+01 1.09375E+00 0.00000E+00
 -1      1562 6.43740E+01 2.18750E+00 0.00000E+00
 -1      1563 6.90120E+01 1.09375E+00 0.00000E+00
 -1      1564 6.75120E+01 1.09375E+00 0.00000E+00
 -1      1565 6.73740E+01 2.18750E+00 0.00000E+00
 -1      1566 7.20120E+01 1.09375E+00 0.00000E+00
 -1      1567 7.05120E+01 1.09375E+00 0.00000E+00
 -1      1568 7.03740E+01 2.18750E+00 0.00000E+00
 -1      1569 7.50120E+01 1.09375E+00 0.00000E+00
 -1      1570 7.35120E+01 1.09375E+00 0.00000E+00
 -1      1571 7.33740E+01 2.18750E+00 0.00000E+00
 -1      1572 7.80120E+01 1.09375E+00 0.00000E+00
 -1      1573 7.65120E+01 1.09375E+00 0.00000E+00
 -1      1574 7.63740E+01 2.18750E+00 0.00000E+00
 -1      1575 8.10120E+01 1.09375E+00 0.00000E+00
 -1      1576 7.95120E+01 1.09375E+00 0.00000E+00
 -1      1577 7.93740E+01 2.18750E+00 0.00000E+00
 -1      1578 8.40120E+01 1.09375E+00 0.00000E+00
 -1      1579 8.25120E+01 1.09375E+00 0.00000E+00
 -1      1580 8.23740E+01 2.18750E+00 0.00000E+00
 -1      1581 8.70120E+01 1.09375E+00 0.00000E+00
 -1      1582 8.55120E+01 1.09375E+00 0.00000E+00
 -1      1583 8.53740E+01 2.18750E+00 0.00000E+00
 -1      1584 9.00120E+01 1.09375E+00 0.00000E+00
 -1      1585 8.85120E+01 1.09375E+00 0.00000E+00
 -1      1586 8.83740E+01 2.18750E+00 0.00000E+00
 -1      1587 9.30120E+01 1.09375E+00 0.00000E+00
 -1      1588 9.15120E+01 1.09375E+00 0.00000E+00
 -1      1589 9.13740E+01 2.18750E+00 0.00000E+00
 -1      1590 9.60120E+01 1.09375E+00 0.00000E+00
 -1      1591 9.45120E+01 1.09375E+00 0.00000E+00
 -1      1592 9.43740E+01 2.18750E+00 0.00000E+00
 -1      1593 9.90120E+01 1.09375E+00 0.00000E+00
 -1      1594 9.75120E+01 1.09375E+00 0.00000E+00
 -1      1595 9.73740E+01 2.18750E+00 0.00000E+00
 -1      1596 1.02012E+02 1.09375E+00 0.00000E+00
 -1      1597 1.00512E+02 1.09375E+00 0.00000E+00
 -1      1598 1.00374E+02 2.18750E+00 0.00000E+00
 -1      1599 1.05012E+02 1.09375E+00 0.00000E+00
 -1      1600 1.03512E+02 1.09375E+00 0.00000E+00
 -1      1601 1.03374E+02 2.18750E+00 0.00000E+00
 -1      1602 1.08012E+02 1.09375E+00 0.00000E+00
 -1      1603 1.06512E+02 1.09375E+00 0.00000E+00
 -1      1604 1.06374E+02 2.18750E+00 0.00000E+00
 -1      1605 1.11012E+02 1.09375E+00 0.00000E+00
 -1      1606 1.09512E+02 1.09375E+00 0.00000E+00
 -1      1607 1.09374E+02 2.18750E+00 0.00000E+00
 -1      1608 1.14012E+02 1.09375E+00 0.00000E+00
 -1      1609 1.12512E+02 1.09375E+00 0.00000E+00
 -1      1610 1.12374E+02 2.18750E+00 0.00000E+00
 -1      1611 1.17012E+02 1.09375E+00 0.00000E+00
 -1      1612 1.15512E+02 1.09375E+00 0.00000E+00
 -1      1613 1.15374E+02 2.18750E+00 0.00000E+00
 -1      1614 1.20012E+02 1.09375E+00 0.00000E+00
 -1      1615 1.18512E+02 1.09375E+00 0.00000E+00
 -1      1616 1.18374E+02 2.18750E+00 0.00000E+00
 -1      1617 1.23012E+02 1.09375E+00 0.00000E+00
 -1      1618 1.21512E+02 1.09375E+00 0.00000E+00
 -1      1619 1.21374E+02 2.18750E+00 0.00000E+00
 -1      1620 1.26012E+02 1.09375E+00 0.00000E+00
 -1      1621 1.24512E+02 1.09375E+00 0.00000E+00
 -1      1622 1.24374E+02 2.18750E+00 0.00000E+00
 -1      1623 1.29012E+02 1.09375E+00 0.00000E+00
 -1      1624 1.27512E+02 1.09375E+00 0.00000E+00
 -1      1625 1.27374E+02 2.18750E+00 0.00000E+00
 -1      1626 1.32012E+02 1.09375E+00 0.00000E+00
 -1      1627 1.30512E+02 1.09375E+00 0.00000E+00
 -1      1628 1.30374E+02 2.18750E+00 0.00000E+00
 -1      1629 1.35012E+02 1.09375E+00 0.00000E+00
 -1      1630 1.33512E+02 1.09375E+00 0.00000E+00
 -1      1631 1.33374E+02 2.18750E+00 0.00000E+00
 -1      1632 1.38012E+02 1.09375E+00 0.00000E+00
 -1      1633 1.36512E+02 1.09375E+00 0.00000E+00
 -1      1634 1.36374E+02 2.18750E+00 0.00000E+00
 -1      1635 1.41012E+02 1.09375E+00 0.00000E+00
 -1      1636 1.39512E+02 1.09375E+00 0.00000E+00
 -1      1637 1.39374E+02 2.18750E+00 0.00000E+00
 -1      1638 1.44012E+02 1.09375E+00 0.00000E+00
 -1      1639 1.42512E+02 1.09375E+00 0.00000E+00
 -1      1640 1.42374E+02 2.18750E+00 0.00000E+00
 -1      1641 1.47012E+02 1.09375E+00 0.00000E+00
 -1      1642 1.45512E+02 1.09375E+00 0.00000E+00
 -1      1643 1.45374E+02 2.18750E+00 0.00000E+00
 -1      1644 1.48575E+02 1.47500E+00 0.00000E+00
 -1      1645 1.48701E+02 5.16250E+00 0.00000E+00
 -1      1646 1.48701E+02 3.68750E+00 0.00000E+00
 -1      1647 1.48701E+02 8.11250E+00 0.00000E+00
 -1      1648 1.48701E+02 6.63750E+00 0.00000E+00
 -1      1649 1.47402E+02 5.90000E+00 0.00000E+00
 -1      1650 1.48701E+02 1.10625E+01 0.00000E+00
 -1      1651 1.48701E+02 9.58750E+00 0.00000E+00
 -1      1652 1.47402E+02 8.85000E+00 0.00000E+00
 -1      1653 1.48701E+02 1.40125E+01 0.00000E+00
 -1      1654 1.48701E+02 1.25375E+01 0.00000E+00
 -1      1655 1.47402E+02 1.18000E+01 0.00000E+00
 -1      1656 1.48701E+02 1.69125E+01 0.00000E+00
 -1      1657 1.48701E+02 1.54625E+01 0.00000E+00
 -1      1658 1.47402E+02 1.47250E+01 0.00000E+00
 -1      1659 1.48701E+02 1.98625E+01 0.00000E+00
 -1      1660 1.48701E+02 1.83875E+01 0.00000E+00
 -1      1661 1.47402E+02 1.76500E+01 0.00000E+00
 -1      1662 1.48701E+02 2.28125E+01 0.00000E+00
 -1      1663 1.48701E+02 2.13375E+01 0.00000E+00
 -1      1664 1.47402E+02 2.06000E+01 0.00000E+00
 -1      1665 1.48701E+02 2.57625E+01 0.00000E+00
 -1      1666 1.48701E+02 2.42875E+01 0.00000E+00
 -1      1667 1.47402E+02 2.35500E+01 0.00000E+00
 -1      1668 1.48701E+02 2.87125E+01 0.00000E+00
 -1      1669 1.48701E+02 2.72375E+01 0.00000E+00
 -1      1670 1.47402E+02 2.65000E+01 0.00000E+00
 -1      1671 1.48701E+02 3.16625E+01 0.00000E+00
 -1      1672 1.48701E+02 3.01875E+01 0.00000E+00
 -1      1673 1.47402E+02 2.94500E+01 0.00000E+00
 -1      1674 1.48701E+02 3.45625E+01 0.00000E+00
 -1      1675 1.48701E+02 3.31125E+01 0.00000E+00
 -1      1676 1.47402E+02 3.23750E+01 0.00000E+00
 -1      1677 1.48701E+02 3.75125E+01 0.00000E+00
 -1      1678 1.48701E+02 3.60375E+01 0.00000E+00
 -1      1679 1.47402E+02 3.53000E+01 0.00000E+00
 -1      1680 1.48701E+02 4.04625E+01 0.00000E+00
 -1      1681 1.48701E+02 3.89875E+01 0.00000E+00
 -1      1682 1.47402E+02 3.82500E+01 0.00000E+00
 -1      1683 1.48701E+02 4.34125E+01 0.00000E+00
 -1      1684 1.48701E+02 4.19375E+01 0.00000E+00
 -1      1685 1.47402E+02 4.12000E+01 0.00000E+00
 -1      1686 5.90890E+01 3.37367E+01 0.00000E+00
 -1      1687 5.91837E+01 3.45453E+01 0.00000E+00
 -1      1688 5.85438E+01 3.21083E+01 0.00000E+00
 -1      1689 5.88010E+01 3.28293E+01 0.00000E+00
 -1      1690 5.77212E+01 3.07556E+01 0.00000E+00
 -1      1691 5.80944E+01 3.13591E+01 0.00000E+00
 -1      1692 5.67232E+01 2.95778E+01 0.00000E+00
 -1      1693 5.72140E+01 3.00967E+01 0.00000E+00
 -1      1694 5.54486E+01 2.84987E+01 0.00000E+00
 -1      1695 5.61002E+01 2.89427E+01 0.00000E+00
 -1      1696 5.39498E+01 2.78357E+01 0.00000E+00
 -1      1697 5.46330E+01 2.81086E+01 0.00000E+00
 -1      1698 5.22978E+01 2.74289E+01 0.00000E+00
 -1      1699 5.30847E+01 2.75563E+01 0.00000E+00
 -1      1700 5.06580E+01 2.75059E+01 0.00000E+00
 -1      1701 5.13917E+01 2.74627E+01 0.00000E+00
 -1      1702 4.90588E+01 2.78138E+01 0.00000E+00
 -1      1703 4.97879E+01 2.76102E+01 0.00000E+00
 -1      1704 4.76127E+01 2.85171E+01 0.00000E+00
 -1      1705 4.82613E+01 2.81748E+01 0.00000E+00
 -1      1706 4.63500E+01 2.94520E+01 0.00000E+00
 -1      1707 4.69057E+01 2.89896E+01 0.00000E+00
 -1      1708 4.50942E+01 3.06560E+01 0.00000E+00
 -1      1709 4.55958E+01 3.00037E+01 0.00000E+00
 -1      1710 4.43083E+01 3.22126E+01 0.00000E+00
 -1      1711 4.46298E+01 3.15049E+01 0.00000E+00
 -1      1712 4.39883E+01 3.38477E+01 0.00000E+00
 -1      1713 4.41432E+01 3.31121E+01 0.00000E+00
 -1      1714 4.37921E+01 3.55693E+01 0.00000E+00
 -1      1715 4.37789E+01 3.47580E+01 0.00000E+00
 -1      1716 4.41798E+01 3.72426E+01 0.00000E+00
 -1      1717 4.39942E+01 3.64935E+01 0.00000E+00
 -1      1718 4.48413E+01 3.87104E+01 0.00000E+00
 -1      1719 4.45190E+01 3.80563E+01 0.00000E+00
 -1      1720 4.57705E+01 4.01480E+01 0.00000E+00
 -1      1721 4.52627E+01 3.95176E+01 0.00000E+00
 -1      1722 4.70199E+01 4.13710E+01 0.00000E+00
 -1      1723 4.63967E+01 4.08836E+01 0.00000E+00
 -1      1724 4.85545E+01 4.20314E+01 0.00000E+00
 -1      1725 4.78833E+01 4.17121E+01 0.00000E+00
 -1      1726 5.00559E+01 4.24836E+01 0.00000E+00
 -1      1727 4.93582E+01 4.23167E+01 0.00000E+00
 -1      1728 5.17047E+01 4.27749E+01 0.00000E+00
 -1      1729 5.09217E+01 4.27591E+01 0.00000E+00
 -1      1730 5.33364E+01 4.24237E+01 0.00000E+00
 -1      1731 5.26053E+01 4.25709E+01 0.00000E+00
 -1      1732 5.48485E+01 4.18183E+01 0.00000E+00
 -1      1733 5.41610E+01 4.21195E+01 0.00000E+00
 -1      1734 5.63922E+01 4.09982E+01 0.00000E+00
 -1      1735 5.57345E+01 4.14853E+01 0.00000E+00
 -1      1736 5.75093E+01 3.96645E+01 0.00000E+00
 -1      1737 5.70052E+01 4.02573E+01 0.00000E+00
 -1      1738 5.83357E+01 3.83291E+01 0.00000E+00
 -1      1739 5.80037E+01 3.89472E+01 0.00000E+00
 -1      1740 5.88084E+01 3.69086E+01 0.00000E+00
 -1      1741 5.86097E+01 3.75634E+01 0.00000E+00
 -1      1742 5.90737E+01 3.54439E+01 0.00000E+00
 -1      1743 5.90061E+01 3.61281E+01 0.00000E+00
 -1      1744 1.47825E+02 4.72510E+01 0.00000E+00
 -1      1745 5.88728E+01 3.14877E+01 0.00000E+00
 -1      1746 1.48437E+02 2.56875E+00 0.00000E+00
 -1      1747 1.47138E+02 3.30625E+00 0.00000E+00
 -1      1748 5.97881E+01 3.49504E+01 0.00000E+00
 -1      1749 5.96102E+01 3.31443E+01 0.00000E+00
 -1      1750 1.48701E+02 4.63625E+01 0.00000E+00
 -1      1751 1.48701E+02 4.48875E+01 0.00000E+00
 -1      1752 1.47402E+02 4.41500E+01 0.00000E+00
 -1      1753 5.79162E+01 3.00796E+01 0.00000E+00
 -1      1754 5.67860E+01 2.87856E+01 0.00000E+00
 -1      1755 5.53473E+01 2.77604E+01 0.00000E+00
 -1      1756 5.36666E+01 2.70909E+01 0.00000E+00
 -1      1757 5.18954E+01 2.68453E+01 0.00000E+00
 -1      1758 5.01191E+01 2.69835E+01 0.00000E+00
 -1      1759 4.84515E+01 2.74488E+01 0.00000E+00
 -1      1760 4.69471E+01 2.82824E+01 0.00000E+00
 -1      1761 4.54859E+01 2.93065E+01 0.00000E+00
 -1      1762 4.42671E+01 3.07071E+01 0.00000E+00
 -1      1763 4.36376E+01 3.24555E+01 0.00000E+00
 -1      1764 4.32631E+01 3.42652E+01 0.00000E+00
 -1      1765 4.32558E+01 3.60997E+01 0.00000E+00
 -1      1766 4.37972E+01 3.78376E+01 0.00000E+00
 -1      1767 4.45578E+01 3.94584E+01 0.00000E+00
 -1      1768 4.56054E+01 4.10012E+01 0.00000E+00
 -1      1769 4.70951E+01 4.20780E+01 0.00000E+00
 -1      1770 4.87622E+01 4.27044E+01 0.00000E+00
 -1      1771 5.04318E+01 4.32652E+01 0.00000E+00
 -1      1772 5.21982E+01 4.33367E+01 0.00000E+00
 -1      1773 5.39234E+01 4.28284E+01 0.00000E+00
 -1      1774 5.56339E+01 4.21912E+01 0.00000E+00
 -1      1775 5.71328E+01 4.11173E+01 0.00000E+00
 -1      1776 5.82403E+01 3.96590E+01 0.00000E+00
 -1      1777 5.90087E+01 3.81759E+01 0.00000E+00
 -1      1778 5.94804E+01 3.66295E+01 0.00000E+00
 -1      1779 2.79900E+00 4.77875E+01 0.00000E+00
 -1      1780 3.89700E+00 4.04125E+01 0.00000E+00
 -1      1781 3.89700E+00 4.18875E+01 0.00000E+00
 -1      1782 3.89700E+00 4.33625E+01 0.00000E+00
 -1      1783 3.89700E+00 4.48375E+01 0.00000E+00
 -1      1784 5.19600E+00 4.26250E+01 0.00000E+00
 -1      1785 3.89700E+00 3.45500E+01 0.00000E+00
 -1      1786 3.89700E+00 3.60000E+01 0.00000E+00
 -1      1787 3.89700E+00 3.16000E+01 0.00000E+00
 -1      1788 3.89700E+00 3.30750E+01 0.00000E+00
 -1      1789 5.19600E+00 3.38000E+01 0.00000E+00
 -1      1790 3.89700E+00 2.86500E+01 0.00000E+00
 -1      1791 3.89700E+00 3.01250E+01 0.00000E+00
 -1      1792 5.19600E+00 3.08500E+01 0.00000E+00
 -1      1793 3.89700E+00 2.57000E+01 0.00000E+00
 -1      1794 3.89700E+00 2.71750E+01 0.00000E+00
 -1      1795 5.19600E+00 2.79000E+01 0.00000E+00
 -1      1796 3.89700E+00 2.27500E+01 0.00000E+00
 -1      1797 3.89700E+00 2.42250E+01 0.00000E+00
 -1      1798 5.19600E+00 2.49500E+01 0.00000E+00
 -1      1799 3.89700E+00 1.98000E+01 0.00000E+00
 -1      1800 3.89700E+00 2.12750E+01 0.00000E+00
 -1      1801 5.19600E+00 2.20000E+01 0.00000E+00
 -1      1802 3.89700E+00 1.69000E+01 0.00000E+00
 -1      1803 3.89700E+00 1.83500E+01 0.00000E+00
 -1      1804 5.19600E+00 1.90750E+01 0.00000E+00
 -1      1805 3.89700E+00 1.39500E+01 0.00000E+00
 -1      1806 3.89700E+00 1.54250E+01 0.00000E+00
 -1      1807 5.19600E+00 1.61500E+01 0.00000E+00
 -1      1808 3.89700E+00 1.10000E+01 0.00000E+00
 -1      1809 3.89700E+00 1.24750E+01 0.00000E+00
 -1      1810 5.19600E+00 1.32000E+01 0.00000E+00
 -1      1811 3.89700E+00 8.05000E+00 0.00000E+00
 -1      1812 3.89700E+00 9.52500E+00 0.00000E+00
 -1      1813 5.19600E+00 1.02500E+01 0.00000E+00
 -1      1814 3.89700E+00 5.10000E+00 0.00000E+00
 -1      1815 3.89700E+00 6.57500E+00 0.00000E+00
 -1      1816 5.19600E+00 7.30000E+00 0.00000E+00
 -1      1817 4.20450E+00 3.09687E+00 0.00000E+00
 -1      1818 4.06650E+00 4.19063E+00 0.00000E+00
 -1      1819 5.36550E+00 4.91563E+00 0.00000E+00
 -1      1820 5.70450E+00 3.09687E+00 0.00000E+00
 -1      1821 3.54900E+00 4.64885E+01 0.00000E+00
 -1      1822 8.70450E+00 3.09687E+00 0.00000E+00
 -1      1823 7.20450E+00 3.09687E+00 0.00000E+00
 -1      1824 7.03500E+00 4.00625E+00 0.00000E+00
 -1      1825 8.25000E+00 4.61030E+01 0.00000E+00
 -1      1826 9.75000E+00 4.61030E+01 0.00000E+00
 -1      1827 1.12500E+01 4.61030E+01 0.00000E+00
 -1      1828 1.27500E+01 4.61030E+01 0.00000E+00
 -1      1829 1.05000E+01 4.48040E+01 0.00000E+00
 -1      1830 1.42500E+01 4.61030E+01 0.00000E+00
 -1      1831 1.57500E+01 4.61030E+01 0.00000E+00
 -1      1832 1.35000E+01 4.48040E+01 0.00000E+00
 -1      1833 1.71750E+01 4.61030E+01 0.00000E+00
 -1      1834 1.86000E+01 4.61030E+01 0.00000E+00
 -1      1835 1.64250E+01 4.48040E+01 0.00000E+00
 -1      1836 2.01000E+01 4.61030E+01 0.00000E+00
 -1      1837 2.16000E+01 4.61030E+01 0.00000E+00
 -1      1838 1.93500E+01 4.48040E+01 0.00000E+00
 -1      1839 2.31000E+01 4.61030E+01 0.00000E+00
 -1      1840 2.46000E+01 4.61030E+01 0.00000E+00
 -1      1841 2.23500E+01 4.48040E+01 0.00000E+00
 -1      1842 2.61000E+01 4.61030E+01 0.00000E+00
 -1      1843 2.76000E+01 4.61030E+01 0.00000E+00
 -1      1844 2.53500E+01 4.48040E+01 0.00000E+00
 -1      1845 2.91000E+01 4.61030E+01 0.00000E+00
 -1      1846 3.06000E+01 4.61030E+01 0.00000E+00
 -1      1847 2.83500E+01 4.48040E+01 0.00000E+00
 -1      1848 3.21000E+01 4.61030E+01 0.00000E+00
 -1      1849 3.36000E+01 4.61030E+01 0.00000E+00
 -1      1850 3.13500E+01 4.48040E+01 0.00000E+00
 -1      1851 3.50250E+01 4.61030E+01 0.00000E+00
 -1      1852 3.64500E+01 4.61030E+01 0.00000E+00
 -1      1853 3.42750E+01 4.48040E+01 0.00000E+00
 -1      1854 3.79500E+01 4.61030E+01 0.00000E+00
 -1      1855 3.94500E+01 4.61030E+01 0.00000E+00
 -1      1856 3.72000E+01 4.48040E+01 0.00000E+00
 -1      1857 4.09500E+01 4.61030E+01 0.00000E+00
 -1      1858 4.24500E+01 4.61030E+01 0.00000E+00
 -1      1859 4.02000E+01 4.48040E+01 0.00000E+00
 -1      1860 4.39500E+01 4.61030E+01 0.00000E+00
 -1      1861 4.54500E+01 4.61030E+01 0.00000E+00
 -1      1862 4.32000E+01 4.48040E+01 0.00000E+00
 -1      1863 4.92375E+01 4.63769E+01 0.00000E+00
 -1      1864 5.05125E+01 4.63769E+01 0.00000E+00
 -1      1865 5.18250E+01 4.64607E+01 0.00000E+00
 -1      1866 5.31750E+01 4.64607E+01 0.00000E+00
 -1      1867 5.44875E+01 4.62998E+01 0.00000E+00
 -1      1868 5.57625E+01 4.62998E+01 0.00000E+00
 -1      1869 5.71875E+01 4.62998E+01 0.00000E+00
 -1      1870 5.86125E+01 4.62998E+01 0.00000E+00
 -1      1871 5.65500E+01 4.51976E+01 0.00000E+00
 -1      1872 6.01125E+01 4.62998E+01 0.00000E+00
 -1      1873 6.16125E+01 4.62998E+01 0.00000E+00
 -1      1874 5.94750E+01 4.51976E+01 0.00000E+00
 -1      1875 6.31125E+01 4.62998E+01 0.00000E+00
 -1      1876 6.46125E+01 4.62998E+01 0.00000E+00
 -1      1877 6.24750E+01 4.51976E+01 0.00000E+00
 -1      1878 6.61125E+01 4.62998E+01 0.00000E+00
 -1      1879 6.76125E+01 4.62998E+01 0.00000E+00
 -1      1880 6.54750E+01 4.51976E+01 0.00000E+00
 -1      1881 6.91125E+01 4.62998E+01 0.00000E+00
 -1      1882 7.06125E+01 4.62998E+01 0.00000E+00
 -1      1883 6.84750E+01 4.51976E+01 0.00000E+00
 -1      1884 7.20375E+01 4.62998E+01 0.00000E+00
 -1      1885 7.34625E+01 4.62998E+01 0.00000E+00
 -1      1886 7.14000E+01 4.51976E+01 0.00000E+00
 -1      1887 7.49625E+01 4.62998E+01 0.00000E+00
 -1      1888 7.64625E+01 4.62998E+01 0.00000E+00
 -1      1889 7.43250E+01 4.51976E+01 0.00000E+00
 -1      1890 7.79625E+01 4.62998E+01 0.00000E+00
 -1      1891 7.94625E+01 4.62998E+01 0.00000E+00
 -1      1892 7.73250E+01 4.51976E+01 0.00000E+00
 -1      1893 8.09625E+01 4.62998E+01 0.00000E+00
 -1      1894 8.24625E+01 4.62998E+01 0.00000E+00
 -1      1895 8.03250E+01 4.51976E+01 0.00000E+00
 -1      1896 8.39625E+01 4.62998E+01 0.00000E+00
 -1      1897 8.54625E+01 4.62998E+01 0.00000E+00
 -1      1898 8.33250E+01 4.51976E+01 0.00000E+00
 -1      1899 8.69625E+01 4.62998E+01 0.00000E+00
 -1      1900 8.84625E+01 4.62998E+01 0.00000E+00
 -1      1901 8.63250E+01 4.51976E+01 0.00000E+00
 -1      1902 8.99625E+01 4.62998E+01 0.00000E+00
 -1      1903 9.14625E+01 4.62998E+01 0.00000E+00
 -1      1904 8.93250E+01 4.51976E+01 0.00000E+00
 -1      1905 9.28875E+01 4.62998E+01 0.00000E+00
 -1      1906 9.43125E+01 4.62998E+01 0.00000E+00
 -1      1907 9.22500E+01 4.51976E+01 0.00000E+00
 -1      1908 9.58125E+01 4.62998E+01 0.00000E+00
 -1      1909 9.73125E+01 4.62998E+01 0.00000E+00
 -1      1910 9.51750E+01 4.51976E+01 0.00000E+00
 -1      1911 9.88125E+01 4.62998E+01 0.00000E+00
 -1      1912 1.00313E+02 4.62998E+01 0.00000E+00
 -1      1913 9.81750E+01 4.51976E+01 0.00000E+00
 -1      1914 1.01813E+02 4.62998E+01 0.00000E+00
 -1      1915 1.03313E+02 4.62998E+01 0.00000E+00
 -1      1916 1.01175E+02 4.51976E+01 0.00000E+00
 -1      1917 1.04813E+02 4.62998E+01 0.00000E+00
 -1      1918 1.06313E+02 4.62998E+01 0.00000E+00
 -1      1919 1.04175E+02 4.51976E+01 0.00000E+00
 -1      1920 1.07813E+02 4.62998E+01 0.00000E+00
 -1      1921 1.09313E+02 4.62998E+01 0.00000E+00
 -1      1922 1.07175E+02 4.51976E+01 0.00000E+00
 -1      1923 1.10738E+02 4.62998E+01 0.00000E+00
 -1      1924 1.12162E+02 4.62998E+01 0.00000E+00
 -1      1925 1.10100E+02 4.51976E+01 0.00000E+00
 -1      1926 1.13662E+02 4.62998E+01 0.00000E+00
 -1      1927 1.15162E+02 4.62998E+01 0.00000E+00
 -1      1928 1.13025E+02 4.51976E+01 0.00000E+00
 -1      1929 1.16662E+02 4.62998E+01 0.00000E+00
 -1      1930 1.18162E+02 4.62998E+01 0.00000E+00
 -1      1931 1.16025E+02 4.51976E+01 0.00000E+00
 -1      1932 1.19662E+02 4.62998E+01 0.00000E+00
 -1      1933 1.21162E+02 4.62998E+01 0.00000E+00
 -1      1934 1.19025E+02 4.51976E+01 0.00000E+00
 -1      1935 1.22662E+02 4.62998E+01 0.00000E+00
 -1      1936 1.24162E+02 4.62998E+01 0.00000E+00
 -1      1937 1.22025E+02 4.51976E+01 0.00000E+00
 -1      1938 1.25662E+02 4.62998E+01 0.00000E+00
 -1      1939 1.27162E+02 4.62998E+01 0.00000E+00
 -1      1940 1.25025E+02 4.51976E+01 0.00000E+00
 -1      1941 1.28587E+02 4.62998E+01 0.00000E+00
 -1      1942 1.30012E+02 4.62998E+01 0.00000E+00
 -1      1943 1.27950E+02 4.51976E+01 0.00000E+00
 -1      1944 1.31512E+02 4.62998E+01 0.00000E+00
 -1      1945 1.33012E+02 4.62998E+01 0.00000E+00
 -1      1946 1.30875E+02 4.51976E+01 0.00000E+00
 -1      1947 1.34512E+02 4.62998E+01 0.00000E+00
 -1      1948 1.36012E+02 4.62998E+01 0.00000E+00
 -1      1949 1.33875E+02 4.51976E+01 0.00000E+00
 -1      1950 1.37512E+02 4.62998E+01 0.00000E+00
 -1      1951 1.39012E+02 4.62998E+01 0.00000E+00
 -1      1952 1.36875E+02 4.51976E+01 0.00000E+00
 -1      1953 1.40512E+02 4.62998E+01 0.00000E+00
 -1      1954 1.42012E+02 4.62998E+01 0.00000E+00
 -1      1955 1.39875E+02 4.51976E+01 0.00000E+00
 -1      1956 1.43512E+02 4.62998E+01 0.00000E+00
 -1      1957 1.45012E+02 4.62998E+01 0.00000E+00
 -1      1958 1.42875E+02 4.51976E+01 0.00000E+00
 -1      1959 1.17045E+01 3.09687E+00 0.00000E+00
 -1      1960 1.02045E+01 3.09687E+00 0.00000E+00
 -1      1961 1.00350E+01 4.00625E+00 0.00000E+00
 -1      1962 5.93116E+01 3.07151E+01 0.00000E+00
 -1      1963 5.97611E+01 3.14643E+01 0.00000E+00
 -1      1964 1.47045E+01 3.09687E+00 0.00000E+00
 -1      1965 1.32045E+01 3.09687E+00 0.00000E+00
 -1      1966 1.30350E+01 4.00625E+00 0.00000E+00
 -1      1967 1.77045E+01 3.09687E+00 0.00000E+00
 -1      1968 1.62045E+01 3.09687E+00 0.00000E+00
 -1      1969 1.60350E+01 4.00625E+00 0.00000E+00
 -1      1970 2.07045E+01 3.09687E+00 0.00000E+00
 -1      1971 1.92045E+01 3.09687E+00 0.00000E+00
 -1      1972 1.90350E+01 4.00625E+00 0.00000E+00
 -1      1973 2.37045E+01 3.09687E+00 0.00000E+00
 -1      1974 2.22045E+01 3.09687E+00 0.00000E+00
 -1      1975 2.20350E+01 4.00625E+00 0.00000E+00
 -1      1976 2.67045E+01 3.09687E+00 0.00000E+00
 -1      1977 2.52045E+01 3.09687E+00 0.00000E+00
 -1      1978 2.50350E+01 4.00625E+00 0.00000E+00
 -1      1979 2.97045E+01 3.09687E+00 0.00000E+00
 -1      1980 2.82045E+01 3.09687E+00 0.00000E+00
 -1      1981 2.80350E+01 4.00625E+00 0.00000E+00
 -1      1982 3.27045E+01 3.09687E+00 0.00000E+00
 -1      1983 3.12045E+01 3.09687E+00 0.00000E+00
 -1      1984 3.10350E+01 4.00625E+00 0.00000E+00
 -1      1985 3.57045E+01 3.09687E+00 0.00000E+00
 -1      1986 3.42045E+01 3.09687E+00 0.00000E+00
 -1      1987 3.40350E+01 4.00625E+00 0.00000E+00
 -1      1988 3.87045E+01 3.09687E+00 0.00000E+00
 -1      1989 3.72045E+01 3.09687E+00 0.00000E+00
 -1      1990 3.70350E+01 4.00625E+00 0.00000E+00
 -1      1991 4.17045E+01 3.09687E+00 0.00000E+00
 -1      1992 4.02045E+01 3.09687E+00 0.00000E+00
 -1      1993 4.00350E+01 4.00625E+00 0.00000E+00
 -1      1994 4.47045E+01 3.09687E+00 0.00000E+00
 -1      1995 4.32045E+01 3.09687E+00 0.00000E+00
 -1      1996 4.30350E+01 4.00625E+00 0.00000E+00
 -1      1997 4.77045E+01 3.09687E+00 0.00000E+00
 -1      1998 4.62045E+01 3.09687E+00 0.00000E+00
 -1      1999 4.60350E+01 4.00625E+00 0.00000E+00
 -1      2000 5.07045E+01 3.09687E+00 0.00000E+00
 -1      2001 4.92045E+01 3.09687E+00 0.00000E+00
 -1      2002 4.90350E+01 4.00625E+00 0.00000E+00
 -1      2003 5.37045E+01 3.09687E+00 0.00000E+00
 -1      2004 5.22045E+01 3.09687E+00 0.00000E+00
 -1      2005 5.20350E+01 4.00625E+00 0.00000E+00
 -1      2006 5.67045E+01 3.09687E+00 0.00000E+00
 -1      2007 5.52045E+01 3.09687E+00 0.00000E+00
 -1      2008 5.50350E+01 4.00625E+00 0.00000E+00
 -1      2009 5.97045E+01 3.09687E+00 0.00000E+00
 -1      2010 5.82045E+01 3.09687E+00 0.00000E+00
 -1      2011 5.80350E+01 4.00625E+00 0.00000E+00
 -1      2012 6.27045E+01 3.09687E+00 0.00000E+00
 -1      2013 6.12045E+01 3.09687E+00 0.00000E+00
 -1      2014 6.10350E+01 4.00625E+00 0.00000E+00
 -1      2015 6.57045E+01 3.09687E+00 0.00000E+00
 -1      2016 6.42045E+01 3.09687E+00 0.00000E+00
 -1      2017 6.40350E+01 4.00625E+00 0.00000E+00
 -1      2018 6.87045E+01 3.09687E+00 0.00000E+00
 -1      2019 6.72045E+01 3.09687E+00 0.00000E+00
 -1      2020 6.70350E+01 4.00625E+00 0.00000E+00
 -1      2021 7.17045E+01 3.09687E+00 0.00000E+00
 -1      2022 7.02045E+01 3.09687E+00 0.00000E+00
 -1      2023 7.00350E+01 4.00625E+00 0.00000E+00
 -1      2024 7.47045E+01 3.09687E+00 0.00000E+00
 -1      2025 7.32045E+01 3.09687E+00 0.00000E+00
 -1      2026 7.30350E+01 4.00625E+00 0.00000E+00
 -1      2027 7.77045E+01 3.09687E+00 0.00000E+00
 -1      2028 7.62045E+01 3.09687E+00 0.00000E+00
 -1      2029 7.60350E+01 4.00625E+00 0.00000E+00
 -1      2030 8.07045E+01 3.09687E+00 0.00000E+00
 -1      2031 7.92045E+01 3.09687E+00 0.00000E+00
 -1      2032 7.90350E+01 4.00625E+00 0.00000E+00
 -1      2033 8.37045E+01 3.09687E+00 0.00000E+00
 -1      2034 8.22045E+01 3.09687E+00 0.00000E+00
 -1      2035 8.20350E+01 4.00625E+00 0.00000E+00
 -1      2036 8.67045E+01 3.09687E+00 0.00000E+00
 -1      2037 8.52045E+01 3.09687E+00 0.00000E+00
 -1      2038 8.50350E+01 4.00625E+00 0.00000E+00
 -1      2039 8.97045E+01 3.09687E+00 0.00000E+00
 -1      2040 8.82045E+01 3.09687E+00 0.00000E+00
 -1      2041 8.80350E+01 4.00625E+00 0.00000E+00
 -1      2042 9.27045E+01 3.09687E+00 0.00000E+00
 -1      2043 9.12045E+01 3.09687E+00 0.00000E+00
 -1      2044 9.10350E+01 4.00625E+00 0.00000E+00
 -1      2045 9.57045E+01 3.09687E+00 0.00000E+00
 -1      2046 9.42045E+01 3.09687E+00 0.00000E+00
 -1      2047 9.40350E+01 4.00625E+00 0.00000E+00
 -1      2048 9.87045E+01 3.09687E+00 0.00000E+00
 -1      2049 9.72045E+01 3.09687E+00 0.00000E+00
 -1      2050 9.70350E+01 4.00625E+00 0.00000E+00
 -1      2051 1.01704E+02 3.09687E+00 0.00000E+00
 -1      2052 1.00204E+02 3.09687E+00 0.00000E+00
 -1      2053 1.00035E+02 4.00625E+00 0.00000E+00
 -1      2054 1.04704E+02 3.09687E+00 0.00000E+00
 -1      2055 1.03204E+02 3.09687E+00 0.00000E+00
 -1      2056 1.03035E+02 4.00625E+00 0.00000E+00
 -1      2057 1.07704E+02 3.09687E+00 0.00000E+00
 -1      2058 1.06204E+02 3.09687E+00 0.00000E+00
 -1      2059 1.06035E+02 4.00625E+00 0.00000E+00
 -1      2060 1.10704E+02 3.09687E+00 0.00000E+00
 -1      2061 1.09204E+02 3.09687E+00 0.00000E+00
 -1      2062 1.09035E+02 4.00625E+00 0.00000E+00
 -1      2063 1.13704E+02 3.09687E+00 0.00000E+00
 -1      2064 1.12204E+02 3.09687E+00 0.00000E+00
 -1      2065 1.12035E+02 4.00625E+00 0.00000E+00
 -1      2066 1.16704E+02 3.09687E+00 0.00000E+00
 -1      2067 1.15204E+02 3.09687E+00 0.00000E+00
 -1      2068 1.15035E+02 4.00625E+00 0.00000E+00
 -1      2069 1.19704E+02 3.09687E+00 0.00000E+00
 -1      2070 1.18204E+02 3.09687E+00 0.00000E+00
 -1      2071 1.18035E+02 4.00625E+00 0.00000E+00
 -1      2072 1.22704E+02 3.09687E+00 0.00000E+00
 -1      2073 1.21204E+02 3.09687E+00 0.00000E+00
 -1      2074 1.21035E+02 4.00625E+00 0.00000E+00
 -1      2075 1.25704E+02 3.09687E+00 0.00000E+00
 -1      2076 1.24204E+02 3.09687E+00 0.00000E+00
 -1      2077 1.24035E+02 4.00625E+00 0.00000E+00
 -1      2078 1.28704E+02 3.09687E+00 0.00000E+00
 -1      2079 1.27204E+02 3.09687E+00 0.00000E+00
 -1      2080 1.27035E+02 4.00625E+00 0.00000E+00
 -1      2081 1.31704E+02 3.09687E+00 0.00000E+00
 -1      2082 1.30204E+02 3.09687E+00 0.00000E+00
 -1      2083 1.30035E+02 4.00625E+00 0.00000E+00
 -1      2084 1.34704E+02 3.09687E+00 0.00000E+00
 -1      2085 1.33204E+02 3.09687E+00 0.00000E+00
 -1      2086 1.33035E+02 4.00625E+00 0.00000E+00
 -1      2087 1.37704E+02 3.09687E+00 0.00000E+00
 -1      2088 1.36204E+02 3.09687E+00 0.00000E+00
 -1      2089 1.36035E+02 4.00625E+00 0.00000E+00
 -1      2090 1.40704E+02 3.09687E+00 0.00000E+00
 -1      2091 1.39204E+02 3.09687E+00 0.00000E+00
 -1      2092 1.39035E+02 4.00625E+00 0.00000E+00
 -1      2093 1.43704E+02 3.09687E+00 0.00000E+00
 -1      2094 1.42204E+02 3.09687E+00 0.00000E+00
 -1      2095 1.42035E+02 4.00625E+00 0.00000E+00
 -1      2096 1.46171E+02 3.20156E+00 0.00000E+00
 -1      2097 1.44671E+02 3.20156E+00 0.00000E+00
 -1      2098 1.44502E+02 4.11094E+00 0.00000E+00
 -1      2099 1.46435E+02 4.32031E+00 0.00000E+00
 -1      2100 1.46103E+02 1.25375E+01 0.00000E+00
 -1      2101 1.46103E+02 1.10625E+01 0.00000E+00
 -1      2102 1.46103E+02 9.58750E+00 0.00000E+00
 -1      2103 1.46103E+02 8.11250E+00 0.00000E+00
 -1      2104 1.44804E+02 1.03250E+01 0.00000E+00
 -1      2105 1.46269E+02 6.95391E+00 0.00000E+00
 -1      2106 1.46269E+02 5.47891E+00 0.00000E+00
 -1      2107 1.45302E+02 5.37422E+00 0.00000E+00
 -1      2108 1.44970E+02 7.69141E+00 0.00000E+00
 -1      2109 1.46103E+02 1.54375E+01 0.00000E+00
 -1      2110 1.46103E+02 1.39875E+01 0.00000E+00
 -1      2111 1.44804E+02 1.32500E+01 0.00000E+00
 -1      2112 1.46103E+02 1.83875E+01 0.00000E+00
 -1      2113 1.46103E+02 1.69125E+01 0.00000E+00
 -1      2114 1.44804E+02 1.61750E+01 0.00000E+00
 -1      2115 1.46103E+02 2.13375E+01 0.00000E+00
 -1      2116 1.46103E+02 1.98625E+01 0.00000E+00
 -1      2117 1.44804E+02 1.91250E+01 0.00000E+00
 -1      2118 1.46103E+02 2.42875E+01 0.00000E+00
 -1      2119 1.46103E+02 2.28125E+01 0.00000E+00
 -1      2120 1.44804E+02 2.20750E+01 0.00000E+00
 -1      2121 1.46103E+02 2.72375E+01 0.00000E+00
 -1      2122 1.46103E+02 2.57625E+01 0.00000E+00
 -1      2123 1.44804E+02 2.50250E+01 0.00000E+00
 -1      2124 1.46103E+02 3.01875E+01 0.00000E+00
 -1      2125 1.46103E+02 2.87125E+01 0.00000E+00
 -1      2126 1.44804E+02 2.79750E+01 0.00000E+00
 -1      2127 1.46103E+02 3.30875E+01 0.00000E+00
 -1      2128 1.46103E+02 3.16375E+01 0.00000E+00
 -1      2129 1.44804E+02 3.09000E+01 0.00000E+00
 -1      2130 1.46103E+02 3.60375E+01 0.00000E+00
 -1      2131 1.46103E+02 3.45625E+01 0.00000E+00
 -1      2132 1.44804E+02 3.38250E+01 0.00000E+00
 -1      2133 1.46103E+02 3.89875E+01 0.00000E+00
 -1      2134 1.46103E+02 3.75125E+01 0.00000E+00
 -1      2135 1.44804E+02 3.67750E+01 0.00000E+00
 -1      2136 1.46103E+02 4.19375E+01 0.00000E+00
 -1      2137 1.46103E+02 4.04625E+01 0.00000E+00
 -1      2138 1.44804E+02 3.97250E+01 0.00000E+00
 -1      2139 5.82973E+01 2.93972E+01 0.00000E+00
 -1      2140 5.88045E+01 3.00561E+01 0.00000E+00
 -1      2141 5.96927E+01 3.00327E+01 0.00000E+00
 -1      2142 1.46526E+02 4.65135E+01 0.00000E+00
 -1      2143 4.84800E+00 4.57510E+01 0.00000E+00
 -1      2144 6.06045E+01 3.45943E+01 0.00000E+00
 -1      2145 6.04945E+01 3.54929E+01 0.00000E+00
 -1      2146 3.89700E+00 3.74688E+01 0.00000E+00
 -1      2147 3.89700E+00 3.89437E+01 0.00000E+00
 -1      2148 5.19600E+00 3.96813E+01 0.00000E+00
 -1      2149 5.19600E+00 3.67438E+01 0.00000E+00
 -1      2150 5.69670E+01 2.79849E+01 0.00000E+00
 -1      2151 5.75900E+01 2.86199E+01 0.00000E+00
 -1      2152 5.52734E+01 2.68673E+01 0.00000E+00
 -1      2153 5.60890E+01 2.72574E+01 0.00000E+00
 -1      2154 5.34461E+01 2.62946E+01 0.00000E+00
 -1      2155 5.43112E+01 2.65740E+01 0.00000E+00
 -1      2156 5.14103E+01 2.60053E+01 0.00000E+00
 -1      2157 5.23165E+01 2.59715E+01 0.00000E+00
 -1      2158 4.96701E+01 2.62139E+01 0.00000E+00
 -1      2159 5.05402E+01 2.61096E+01 0.00000E+00
 -1      2160 5.09613E+01 2.52357E+01 0.00000E+00
 -1      2161 4.77337E+01 2.69244E+01 0.00000E+00
 -1      2162 4.85312E+01 2.65634E+01 0.00000E+00
 -1      2163 4.62335E+01 2.79798E+01 0.00000E+00
 -1      2164 4.69404E+01 2.75073E+01 0.00000E+00
 -1      2165 4.46519E+01 2.89578E+01 0.00000E+00
 -1      2166 4.54062E+01 2.84061E+01 0.00000E+00
 -1      2167 4.34296E+01 3.08004E+01 0.00000E+00
 -1      2168 4.38940E+01 2.99515E+01 0.00000E+00
 -1      2169 4.27528E+01 3.27580E+01 0.00000E+00
 -1      2170 4.29179E+01 3.18586E+01 0.00000E+00
 -1      2171 4.23340E+01 3.45786E+01 0.00000E+00
 -1      2172 4.25434E+01 3.36683E+01 0.00000E+00
 -1      2173 4.18236E+01 3.30714E+01 0.00000E+00
 -1      2174 4.27238E+01 3.67003E+01 0.00000E+00
 -1      2175 4.25216E+01 3.57761E+01 0.00000E+00
 -1      2176 4.33299E+01 3.85099E+01 0.00000E+00
 -1      2177 4.29907E+01 3.76962E+01 0.00000E+00
 -1      2178 4.41568E+01 4.01813E+01 0.00000E+00
 -1      2179 4.37354E+01 3.93741E+01 0.00000E+00
 -1      2180 4.52017E+01 4.19792E+01 0.00000E+00
 -1      2181 4.45755E+01 4.12436E+01 0.00000E+00
 -1      2182 4.72733E+01 4.28903E+01 0.00000E+00
 -1      2183 4.64098E+01 4.25491E+01 0.00000E+00
 -1      2184 4.89333E+01 4.34973E+01 0.00000E+00
 -1      2185 4.81296E+01 4.32120E+01 0.00000E+00
 -1      2186 5.05863E+01 4.44462E+01 0.00000E+00
 -1      2187 4.97205E+01 4.41707E+01 0.00000E+00
 -1      2188 5.27916E+01 4.38668E+01 0.00000E+00
 -1      2189 5.18910E+01 4.40707E+01 0.00000E+00
 -1      2190 5.45890E+01 4.33629E+01 0.00000E+00
 -1      2191 5.37644E+01 4.36672E+01 0.00000E+00
 -1      2192 5.79980E+01 4.12091E+01 0.00000E+00
 -1      2193 5.73850E+01 4.19500E+01 0.00000E+00
 -1      2194 5.91190E+01 3.97356E+01 0.00000E+00
 -1      2195 5.86246E+01 4.04530E+01 0.00000E+00
 -1      2196 5.97890E+01 3.80231E+01 0.00000E+00
 -1      2197 5.95150E+01 3.87889E+01 0.00000E+00
 -1      2198 6.02010E+01 3.63968E+01 0.00000E+00
 -1      2199 6.00033E+01 3.71773E+01 0.00000E+00
 -1      2200 6.00840E+01 3.24946E+01 0.00000E+00
 -1      2201 6.03719E+01 3.34020E+01 0.00000E+00
 -1      2202 1.45889E+02 4.54113E+01 0.00000E+00
 -1      2203 6.10173E+01 3.60406E+01 0.00000E+00
 -1      2204 4.59628E+01 4.49409E+01 0.00000E+00
 -1      2205 4.67128E+01 4.62399E+01 0.00000E+00
 -1      2206 5.11875E+01 4.54355E+01 0.00000E+00
 -1      2207 6.05228E+01 3.17220E+01 0.00000E+00
 -1      2208 6.34800E+00 4.57510E+01 0.00000E+00
 -1      2209 7.09800E+00 4.44520E+01 0.00000E+00
 -1      2210 5.84783E+01 2.85965E+01 0.00000E+00
 -1      2211 4.79128E+01 4.62399E+01 0.00000E+00
 -1      2212 4.85503E+01 4.52148E+01 0.00000E+00
 -1      2213 5.38125E+01 4.53585E+01 0.00000E+00
 -1      2214 4.89523E+01 2.56895E+01 0.00000E+00
 -1      2215 5.29611E+01 2.54546E+01 0.00000E+00
 -1      2216 1.45889E+02 4.39363E+01 0.00000E+00
 -1      2217 6.10783E+01 3.39445E+01 0.00000E+00
 -1      2218 6.17846E+01 3.44870E+01 0.00000E+00
 -1      2219 6.15521E+01 3.32948E+01 0.00000E+00
 -1      2220 6.05096E+01 3.77904E+01 0.00000E+00
 -1      2221 5.98993E+01 3.95829E+01 0.00000E+00
 -1      2222 5.88768E+01 4.12857E+01 0.00000E+00
 -1      2223 5.34573E+01 4.44013E+01 0.00000E+00
 -1      2224 4.74443E+01 4.36832E+01 0.00000E+00
 -1      2225 4.53799E+01 4.27915E+01 0.00000E+00
 -1      2226 4.37532E+01 4.11593E+01 0.00000E+00
 -1      2227 4.29290E+01 3.92328E+01 0.00000E+00
 -1      2228 4.18019E+01 3.51791E+01 0.00000E+00
 -1      2229 4.25448E+01 3.11029E+01 0.00000E+00
 -1      2230 4.38144E+01 2.90511E+01 0.00000E+00
 -1      2231 4.37347E+01 2.81507E+01 0.00000E+00
 -1      2232 4.29768E+01 2.91444E+01 0.00000E+00
 -1      2233 4.53996E+01 2.76311E+01 0.00000E+00
 -1      2234 5.68931E+01 2.70918E+01 0.00000E+00
 -1      2235 5.50529E+01 2.60710E+01 0.00000E+00
 -1      2236 1.44589E+02 4.31988E+01 0.00000E+00
 -1      2237 4.70201E+01 2.66219E+01 0.00000E+00
 -1      2238 4.22565E+01 3.73726E+01 0.00000E+00
 -1      2239 5.77278E+01 4.28419E+01 0.00000E+00
 -1      2240 5.68626E+01 4.27501E+01 0.00000E+00
 -1      2241 5.63615E+01 4.27818E+01 0.00000E+00
 -1      2242 5.54756E+01 4.31149E+01 0.00000E+00
 -1      2243 5.67043E+01 4.36738E+01 0.00000E+00
 -1      2244 5.53166E+01 4.39536E+01 0.00000E+00
 -1      2245 6.49500E+00 3.01125E+01 0.00000E+00
 -1      2246 6.49500E+00 3.15875E+01 0.00000E+00
 -1      2247 6.49500E+00 3.30625E+01 0.00000E+00
 -1      2248 6.49500E+00 3.45375E+01 0.00000E+00
 -1      2249 7.79400E+00 3.23250E+01 0.00000E+00
 -1      2250 6.49500E+00 2.42125E+01 0.00000E+00
 -1      2251 6.49500E+00 2.56875E+01 0.00000E+00
 -1      2252 6.49500E+00 2.12625E+01 0.00000E+00
 -1      2253 6.49500E+00 2.27375E+01 0.00000E+00
 -1      2254 7.79400E+00 2.34750E+01 0.00000E+00
 -1      2255 6.49500E+00 1.83625E+01 0.00000E+00
 -1      2256 6.49500E+00 1.98125E+01 0.00000E+00
 -1      2257 7.79400E+00 2.05500E+01 0.00000E+00
 -1      2258 6.49500E+00 1.54125E+01 0.00000E+00
 -1      2259 6.49500E+00 1.68875E+01 0.00000E+00
 -1      2260 7.79400E+00 1.76250E+01 0.00000E+00
 -1      2261 6.49500E+00 1.24625E+01 0.00000E+00
 -1      2262 6.49500E+00 1.39375E+01 0.00000E+00
 -1      2263 7.79400E+00 1.46750E+01 0.00000E+00
 -1      2264 6.49500E+00 9.51250E+00 0.00000E+00
 -1      2265 6.49500E+00 1.09875E+01 0.00000E+00
 -1      2266 7.79400E+00 1.17250E+01 0.00000E+00
 -1      2267 6.49500E+00 6.56250E+00 0.00000E+00
 -1      2268 6.49500E+00 8.03750E+00 0.00000E+00
 -1      2269 7.79400E+00 8.77500E+00 0.00000E+00
 -1      2270 6.84975E+00 4.82969E+00 0.00000E+00
 -1      2271 6.68025E+00 5.73906E+00 0.00000E+00
 -1      2272 7.97925E+00 6.47656E+00 0.00000E+00
 -1      2273 8.34975E+00 4.82969E+00 0.00000E+00
 -1      2274 9.75000E+00 4.35050E+01 0.00000E+00
 -1      2275 1.12500E+01 4.35050E+01 0.00000E+00
 -1      2276 5.86970E+01 2.76871E+01 0.00000E+00
 -1      2277 5.94042E+01 2.84643E+01 0.00000E+00
 -1      2278 6.11796E+01 3.09503E+01 0.00000E+00
 -1      2279 6.15026E+01 3.19807E+01 0.00000E+00
 -1      2280 1.27500E+01 4.35050E+01 0.00000E+00
 -1      2281 1.42500E+01 4.35050E+01 0.00000E+00
 -1      2282 1.20000E+01 4.22060E+01 0.00000E+00
 -1      2283 1.56750E+01 4.35050E+01 0.00000E+00
 -1      2284 1.71000E+01 4.35050E+01 0.00000E+00
 -1      2285 1.49250E+01 4.22060E+01 0.00000E+00
 -1      2286 1.86000E+01 4.35050E+01 0.00000E+00
 -1      2287 2.01000E+01 4.35050E+01 0.00000E+00
 -1      2288 1.78500E+01 4.22060E+01 0.00000E+00
 -1      2289 2.16000E+01 4.35050E+01 0.00000E+00
 -1      2290 2.31000E+01 4.35050E+01 0.00000E+00
 -1      2291 2.08500E+01 4.22060E+01 0.00000E+00
 -1      2292 2.46000E+01 4.35050E+01 0.00000E+00
 -1      2293 2.61000E+01 4.35050E+01 0.00000E+00
 -1      2294 2.38500E+01 4.22060E+01 0.00000E+00
 -1      2295 2.76000E+01 4.35050E+01 0.00000E+00
 -1      2296 2.91000E+01 4.35050E+01 0.00000E+00
 -1      2297 2.68500E+01 4.22060E+01 0.00000E+00
 -1      2298 3.06000E+01 4.35050E+01 0.00000E+00
 -1      2299 3.21000E+01 4.35050E+01 0.00000E+00
 -1      2300 2.98500E+01 4.22060E+01 0.00000E+00
 -1      2301 3.35250E+01 4.35050E+01 0.00000E+00
 -1      2302 3.49500E+01 4.35050E+01 0.00000E+00
 -1      2303 3.27750E+01 4.22060E+01 0.00000E+00
 -1      2304 3.64500E+01 4.35050E+01 0.00000E+00
 -1      2305 3.79500E+01 4.35050E+01 0.00000E+00
 -1      2306 3.57000E+01 4.22060E+01 0.00000E+00
 -1      2307 3.94500E+01 4.35050E+01 0.00000E+00
 -1      2308 4.09500E+01 4.35050E+01 0.00000E+00
 -1      2309 3.87000E+01 4.22060E+01 0.00000E+00
 -1      2310 6.18139E+01 3.57997E+01 0.00000E+00
 -1      2311 6.15204E+01 3.67036E+01 0.00000E+00
 -1      2312 1.13497E+01 4.82969E+00 0.00000E+00
 -1      2313 9.84975E+00 4.82969E+00 0.00000E+00
 -1      2314 9.66450E+00 5.65312E+00 0.00000E+00
 -1      2315 6.17250E+01 4.40955E+01 0.00000E+00
 -1      2316 6.32250E+01 4.40955E+01 0.00000E+00
 -1      2317 6.47250E+01 4.40955E+01 0.00000E+00
 -1      2318 6.62250E+01 4.40955E+01 0.00000E+00
 -1      2319 6.39750E+01 4.29933E+01 0.00000E+00
 -1      2320 6.77250E+01 4.40955E+01 0.00000E+00
 -1      2321 6.92250E+01 4.40955E+01 0.00000E+00
 -1      2322 6.69750E+01 4.29933E+01 0.00000E+00
 -1      2323 7.06500E+01 4.40955E+01 0.00000E+00
 -1      2324 7.20750E+01 4.40955E+01 0.00000E+00
 -1      2325 6.99000E+01 4.29933E+01 0.00000E+00
 -1      2326 7.35750E+01 4.40955E+01 0.00000E+00
 -1      2327 7.50750E+01 4.40955E+01 0.00000E+00
 -1      2328 7.28250E+01 4.29933E+01 0.00000E+00
 -1      2329 7.65750E+01 4.40955E+01 0.00000E+00
 -1      2330 7.80750E+01 4.40955E+01 0.00000E+00
 -1      2331 7.58250E+01 4.29933E+01 0.00000E+00
 -1      2332 7.95750E+01 4.40955E+01 0.00000E+00
 -1      2333 8.10750E+01 4.40955E+01 0.00000E+00
 -1      2334 7.88250E+01 4.29933E+01 0.00000E+00
 -1      2335 8.25750E+01 4.40955E+01 0.00000E+00
 -1      2336 8.40750E+01 4.40955E+01 0.00000E+00
 -1      2337 8.18250E+01 4.29933E+01 0.00000E+00
 -1      2338 8.55750E+01 4.40955E+01 0.00000E+00
 -1      2339 8.70750E+01 4.40955E+01 0.00000E+00
 -1      2340 8.48250E+01 4.29933E+01 0.00000E+00
 -1      2341 8.85750E+01 4.40955E+01 0.00000E+00
 -1      2342 9.00750E+01 4.40955E+01 0.00000E+00
 -1      2343 8.78250E+01 4.29933E+01 0.00000E+00
 -1      2344 9.15000E+01 4.40955E+01 0.00000E+00
 -1      2345 9.29250E+01 4.40955E+01 0.00000E+00
 -1      2346 9.07500E+01 4.29933E+01 0.00000E+00
 -1      2347 9.44250E+01 4.40955E+01 0.00000E+00
 -1      2348 9.59250E+01 4.40955E+01 0.00000E+00
 -1      2349 9.36750E+01 4.29933E+01 0.00000E+00
 -1      2350 9.74250E+01 4.40955E+01 0.00000E+00
 -1      2351 9.89250E+01 4.40955E+01 0.00000E+00
 -1      2352 9.66750E+01 4.29933E+01 0.00000E+00
 -1      2353 1.00425E+02 4.40955E+01 0.00000E+00
 -1      2354 1.01925E+02 4.40955E+01 0.00000E+00
 -1      2355 9.96750E+01 4.29933E+01 0.00000E+00
 -1      2356 1.03425E+02 4.40955E+01 0.00000E+00
 -1      2357 1.04925E+02 4.40955E+01 0.00000E+00
 -1      2358 1.02675E+02 4.29933E+01 0.00000E+00
 -1      2359 1.06425E+02 4.40955E+01 0.00000E+00
 -1      2360 1.07925E+02 4.40955E+01 0.00000E+00
 -1      2361 1.05675E+02 4.29933E+01 0.00000E+00
 -1      2362 1.09350E+02 4.40955E+01 0.00000E+00
 -1      2363 1.10775E+02 4.40955E+01 0.00000E+00
 -1      2364 1.08600E+02 4.29933E+01 0.00000E+00
 -1      2365 1.12275E+02 4.40955E+01 0.00000E+00
 -1      2366 1.13775E+02 4.40955E+01 0.00000E+00
 -1      2367 1.11525E+02 4.29933E+01 0.00000E+00
 -1      2368 1.15275E+02 4.40955E+01 0.00000E+00
 -1      2369 1.16775E+02 4.40955E+01 0.00000E+00
 -1      2370 1.14525E+02 4.29933E+01 0.00000E+00
 -1      2371 1.18275E+02 4.40955E+01 0.00000E+00
 -1      2372 1.19775E+02 4.40955E+01 0.00000E+00
 -1      2373 1.17525E+02 4.29933E+01 0.00000E+00
 -1      2374 1.21275E+02 4.40955E+01 0.00000E+00
 -1      2375 1.22775E+02 4.40955E+01 0.00000E+00
 -1      2376 1.20525E+02 4.29933E+01 0.00000E+00
 -1      2377 1.24275E+02 4.40955E+01 0.00000E+00
 -1      2378 1.25775E+02 4.40955E+01 0.00000E+00
 -1      2379 1.23525E+02 4.29933E+01 0.00000E+00
 -1      2380 1.27200E+02 4.40955E+01 0.00000E+00
 -1      2381 1.28625E+02 4.40955E+01 0.00000E+00
 -1      2382 1.26450E+02 4.29933E+01 0.00000E+00
 -1      2383 1.30125E+02 4.40955E+01 0.00000E+00
 -1      2384 1.31625E+02 4.40955E+01 0.00000E+00
 -1      2385 1.29375E+02 4.29933E+01 0.00000E+00
 -1      2386 1.33125E+02 4.40955E+01 0.00000E+00
 -1      2387 1.34625E+02 4.40955E+01 0.00000E+00
 -1      2388 1.32375E+02 4.29933E+01 0.00000E+00
 -1      2389 1.36125E+02 4.40955E+01 0.00000E+00
 -1      2390 1.37625E+02 4.40955E+01 0.00000E+00
 -1      2391 1.35375E+02 4.29933E+01 0.00000E+00
 -1      2392 1.39125E+02 4.40955E+01 0.00000E+00
 -1      2393 1.40625E+02 4.40955E+01 0.00000E+00
 -1      2394 1.38375E+02 4.29933E+01 0.00000E+00
 -1      2395 1.41857E+02 4.36471E+01 0.00000E+00
 -1      2396 1.43357E+02 4.36471E+01 0.00000E+00
 -1      2397 1.43572E+02 4.16483E+01 0.00000E+00
 -1      2398 1.41107E+02 4.25450E+01 0.00000E+00
 -1      2399 1.67850E+01 5.30525E+00 0.00000E+00
 -1      2400 1.52850E+01 5.30525E+00 0.00000E+00
 -1      2401 1.40674E+01 5.06747E+00 0.00000E+00
 -1      2402 1.25674E+01 5.06747E+00 0.00000E+00
 -1      2403 1.23821E+01 5.89091E+00 0.00000E+00
 -1      2404 1.48174E+01 6.36647E+00 0.00000E+00
 -1      2405 2.27850E+01 5.30525E+00 0.00000E+00
 -1      2406 2.12850E+01 5.30525E+00 0.00000E+00
 -1      2407 2.57850E+01 5.30525E+00 0.00000E+00
 -1      2408 2.42850E+01 5.30525E+00 0.00000E+00
 -1      2409 2.35350E+01 6.60425E+00 0.00000E+00
 -1      2410 2.87850E+01 5.30525E+00 0.00000E+00
 -1      2411 2.72850E+01 5.30525E+00 0.00000E+00
 -1      2412 2.65350E+01 6.60425E+00 0.00000E+00
 -1      2413 3.17850E+01 5.30525E+00 0.00000E+00
 -1      2414 3.02850E+01 5.30525E+00 0.00000E+00
 -1      2415 2.95350E+01 6.60425E+00 0.00000E+00
 -1      2416 3.47850E+01 5.30525E+00 0.00000E+00
 -1      2417 3.32850E+01 5.30525E+00 0.00000E+00
 -1      2418 3.25350E+01 6.60425E+00 0.00000E+00
 -1      2419 3.77850E+01 5.30525E+00 0.00000E+00
 -1      2420 3.62850E+01 5.30525E+00 0.00000E+00
 -1      2421 3.55350E+01 6.60425E+00 0.00000E+00
 -1      2422 4.07850E+01 5.30525E+00 0.00000E+00
 -1      2423 3.92850E+01 5.30525E+00 0.00000E+00
 -1      2424 3.85350E+01 6.60425E+00 0.00000E+00
 -1      2425 4.37850E+01 5.30525E+00 0.00000E+00
 -1      2426 4.22850E+01 5.30525E+00 0.00000E+00
 -1      2427 4.15350E+01 6.60425E+00 0.00000E+00
 -1      2428 4.67850E+01 5.30525E+00 0.00000E+00
 -1      2429 4.52850E+01 5.30525E+00 0.00000E+00
 -1      2430 4.45350E+01 6.60425E+00 0.00000E+00
 -1      2431 4.97850E+01 5.30525E+00 0.00000E+00
 -1      2432 4.82850E+01 5.30525E+00 0.00000E+00
 -1      2433 4.75350E+01 6.60425E+00 0.00000E+00
 -1      2434 5.27850E+01 5.30525E+00 0.00000E+00
 -1      2435 5.12850E+01 5.30525E+00 0.00000E+00
 -1      2436 5.05350E+01 6.60425E+00 0.00000E+00
 -1      2437 5.57850E+01 5.30525E+00 0.00000E+00
 -1      2438 5.42850E+01 5.30525E+00 0.00000E+00
 -1      2439 5.35350E+01 6.60425E+00 0.00000E+00
 -1      2440 5.87850E+01 5.30525E+00 0.00000E+00
 -1      2441 5.72850E+01 5.30525E+00 0.00000E+00
 -1      2442 5.65350E+01 6.60425E+00 0.00000E+00
 -1      2443 6.17850E+01 5.30525E+00 0.00000E+00
 -1      2444 6.02850E+01 5.30525E+00 0.00000E+00
 -1      2445 5.95350E+01 6.60425E+00 0.00000E+00
 -1      2446 6.47850E+01 5.30525E+00 0.00000E+00
 -1      2447 6.32850E+01 5.30525E+00 0.00000E+00
 -1      2448 6.25350E+01 6.60425E+00 0.00000E+00
 -1      2449 6.77850E+01 5.30525E+00 0.00000E+00
 -1      2450 6.62850E+01 5.30525E+00 0.00000E+00
 -1      2451 6.55350E+01 6.60425E+00 0.00000E+00
 -1      2452 7.07850E+01 5.30525E+00 0.00000E+00
 -1      2453 6.92850E+01 5.30525E+00 0.00000E+00
 -1      2454 6.85350E+01 6.60425E+00 0.00000E+00
 -1      2455 7.37850E+01 5.30525E+00 0.00000E+00
 -1      2456 7.22850E+01 5.30525E+00 0.00000E+00
 -1      2457 7.15350E+01 6.60425E+00 0.00000E+00
 -1      2458 7.67850E+01 5.30525E+00 0.00000E+00
 -1      2459 7.52850E+01 5.30525E+00 0.00000E+00
 -1      2460 7.45350E+01 6.60425E+00 0.00000E+00
 -1      2461 7.97850E+01 5.30525E+00 0.00000E+00
 -1      2462 7.82850E+01 5.30525E+00 0.00000E+00
 -1      2463 7.75350E+01 6.60425E+00 0.00000E+00
 -1      2464 8.27850E+01 5.30525E+00 0.00000E+00
 -1      2465 8.12850E+01 5.30525E+00 0.00000E+00
 -1      2466 8.05350E+01 6.60425E+00 0.00000E+00
 -1      2467 8.57850E+01 5.30525E+00 0.00000E+00
 -1      2468 8.42850E+01 5.30525E+00 0.00000E+00
 -1      2469 8.35350E+01 6.60425E+00 0.00000E+00
 -1      2470 8.87850E+01 5.30525E+00 0.00000E+00
 -1      2471 8.72850E+01 5.30525E+00 0.00000E+00
 -1      2472 8.65350E+01 6.60425E+00 0.00000E+00
 -1      2473 9.17850E+01 5.30525E+00 0.00000E+00
 -1      2474 9.02850E+01 5.30525E+00 0.00000E+00
 -1      2475 8.95350E+01 6.60425E+00 0.00000E+00
 -1      2476 9.47850E+01 5.30525E+00 0.00000E+00
 -1      2477 9.32850E+01 5.30525E+00 0.00000E+00
 -1      2478 9.25350E+01 6.60425E+00 0.00000E+00
 -1      2479 9.77850E+01 5.30525E+00 0.00000E+00
 -1      2480 9.62850E+01 5.30525E+00 0.00000E+00
 -1      2481 9.55350E+01 6.60425E+00 0.00000E+00
 -1      2482 1.00785E+02 5.30525E+00 0.00000E+00
 -1      2483 9.92850E+01 5.30525E+00 0.00000E+00
 -1      2484 9.85350E+01 6.60425E+00 0.00000E+00
 -1      2485 1.03785E+02 5.30525E+00 0.00000E+00
 -1      2486 1.02285E+02 5.30525E+00 0.00000E+00
 -1      2487 1.01535E+02 6.60425E+00 0.00000E+00
 -1      2488 1.06785E+02 5.30525E+00 0.00000E+00
 -1      2489 1.05285E+02 5.30525E+00 0.00000E+00
 -1      2490 1.04535E+02 6.60425E+00 0.00000E+00
 -1      2491 1.09785E+02 5.30525E+00 0.00000E+00
 -1      2492 1.08285E+02 5.30525E+00 0.00000E+00
 -1      2493 1.07535E+02 6.60425E+00 0.00000E+00
 -1      2494 1.12785E+02 5.30525E+00 0.00000E+00
 -1      2495 1.11285E+02 5.30525E+00 0.00000E+00
 -1      2496 1.10535E+02 6.60425E+00 0.00000E+00
 -1      2497 1.15785E+02 5.30525E+00 0.00000E+00
 -1      2498 1.14285E+02 5.30525E+00 0.00000E+00
 -1      2499 1.13535E+02 6.60425E+00 0.00000E+00
 -1      2500 1.18785E+02 5.30525E+00 0.00000E+00
 -1      2501 1.17285E+02 5.30525E+00 0.00000E+00
 -1      2502 1.16535E+02 6.60425E+00 0.00000E+00
 -1      2503 1.21785E+02 5.30525E+00 0.00000E+00
 -1      2504 1.20285E+02 5.30525E+00 0.00000E+00
 -1      2505 1.19535E+02 6.60425E+00 0.00000E+00
 -1      2506 1.24785E+02 5.30525E+00 0.00000E+00
 -1      2507 1.23285E+02 5.30525E+00 0.00000E+00
 -1      2508 1.22535E+02 6.60425E+00 0.00000E+00
 -1      2509 1.27785E+02 5.30525E+00 0.00000E+00
 -1      2510 1.26285E+02 5.30525E+00 0.00000E+00
 -1      2511 1.25535E+02 6.60425E+00 0.00000E+00
 -1      2512 1.30785E+02 5.30525E+00 0.00000E+00
 -1      2513 1.29285E+02 5.30525E+00 0.00000E+00
 -1      2514 1.28535E+02 6.60425E+00 0.00000E+00
 -1      2515 1.33785E+02 5.30525E+00 0.00000E+00
 -1      2516 1.32285E+02 5.30525E+00 0.00000E+00
 -1      2517 1.31535E+02 6.60425E+00 0.00000E+00
 -1      2518 1.36785E+02 5.30525E+00 0.00000E+00
 -1      2519 1.35285E+02 5.30525E+00 0.00000E+00
 -1      2520 1.34535E+02 6.60425E+00 0.00000E+00
 -1      2521 1.39785E+02 5.30525E+00 0.00000E+00
 -1      2522 1.38285E+02 5.30525E+00 0.00000E+00
 -1      2523 1.37535E+02 6.60425E+00 0.00000E+00
 -1      2524 1.42785E+02 5.30525E+00 0.00000E+00
 -1      2525 1.41285E+02 5.30525E+00 0.00000E+00
 -1      2526 1.40535E+02 6.60425E+00 0.00000E+00
 -1      2527 1.44336E+02 5.26953E+00 0.00000E+00
 -1      2528 1.43505E+02 1.69125E+01 0.00000E+00
 -1      2529 1.43505E+02 1.54375E+01 0.00000E+00
 -1      2530 1.43505E+02 1.98625E+01 0.00000E+00
 -1      2531 1.43505E+02 1.83875E+01 0.00000E+00
 -1      2532 1.42206E+02 1.76500E+01 0.00000E+00
 -1      2533 1.43505E+02 1.10625E+01 0.00000E+00
 -1      2534 1.43505E+02 9.58750E+00 0.00000E+00
 -1      2535 1.43505E+02 1.39750E+01 0.00000E+00
 -1      2536 1.43505E+02 1.25250E+01 0.00000E+00
 -1      2537 1.42206E+02 1.17875E+01 0.00000E+00
 -1      2538 1.42206E+02 1.47125E+01 0.00000E+00
 -1      2539 1.43505E+02 2.28125E+01 0.00000E+00
 -1      2540 1.43505E+02 2.13375E+01 0.00000E+00
 -1      2541 1.42206E+02 2.06000E+01 0.00000E+00
 -1      2542 1.43505E+02 2.57625E+01 0.00000E+00
 -1      2543 1.43505E+02 2.42875E+01 0.00000E+00
 -1      2544 1.42206E+02 2.35500E+01 0.00000E+00
 -1      2545 1.43505E+02 2.87125E+01 0.00000E+00
 -1      2546 1.43505E+02 2.72375E+01 0.00000E+00
 -1      2547 1.42206E+02 2.65000E+01 0.00000E+00
 -1      2548 1.43505E+02 3.16125E+01 0.00000E+00
 -1      2549 1.43505E+02 3.01625E+01 0.00000E+00
 -1      2550 1.42206E+02 2.94250E+01 0.00000E+00
 -1      2551 1.43505E+02 3.45625E+01 0.00000E+00
 -1      2552 1.43505E+02 3.30875E+01 0.00000E+00
 -1      2553 1.42206E+02 3.23500E+01 0.00000E+00
 -1      2554 1.43505E+02 3.75125E+01 0.00000E+00
 -1      2555 1.43505E+02 3.60375E+01 0.00000E+00
 -1      2556 1.42206E+02 3.53000E+01 0.00000E+00
 -1      2557 1.43538E+02 4.03179E+01 0.00000E+00
 -1      2558 1.43538E+02 3.88429E+01 0.00000E+00
 -1      2559 1.42239E+02 3.81054E+01 0.00000E+00
 -1      2560 1.42306E+02 4.07662E+01 0.00000E+00
 -1      2561 5.99114E+01 2.91233E+01 0.00000E+00
 -1      2562 6.04185E+01 2.97822E+01 0.00000E+00
 -1      2563 6.01301E+01 2.82139E+01 0.00000E+00
 -1      2564 4.61157E+01 2.62222E+01 0.00000E+00
 -1      2565 4.69089E+01 2.56394E+01 0.00000E+00
 -1      2566 6.52200E+00 4.28890E+01 0.00000E+00
 -1      2567 8.42400E+00 4.32410E+01 0.00000E+00
 -1      2568 9.17400E+00 4.19420E+01 0.00000E+00
 -1      2569 6.52200E+00 4.14140E+01 0.00000E+00
 -1      2570 5.11797E+01 4.49763E+01 0.00000E+00
 -1      2571 4.90878E+01 4.46783E+01 0.00000E+00
 -1      2572 4.16301E+01 3.13134E+01 0.00000E+00
 -1      2573 4.21418E+01 3.02552E+01 0.00000E+00
 -1      2574 5.26206E+01 2.45088E+01 0.00000E+00
 -1      2575 5.37502E+01 2.48319E+01 0.00000E+00
 -1      2576 1.97850E+01 5.30525E+00 0.00000E+00
 -1      2577 1.82850E+01 5.30525E+00 0.00000E+00
 -1      2578 1.75350E+01 6.60425E+00 0.00000E+00
 -1      2579 2.05350E+01 6.60425E+00 0.00000E+00
 -1      2580 4.81312E+01 2.50444E+01 0.00000E+00
 -1      2581 4.92702E+01 2.46950E+01 0.00000E+00
 -1      2582 6.49500E+00 2.71625E+01 0.00000E+00
 -1      2583 6.49500E+00 2.86375E+01 0.00000E+00
 -1      2584 7.79400E+00 2.93750E+01 0.00000E+00
 -1      2585 7.79400E+00 2.64250E+01 0.00000E+00
 -1      2586 5.47124E+01 2.51252E+01 0.00000E+00
 -1      2587 5.56746E+01 2.54186E+01 0.00000E+00
 -1      2588 5.43719E+01 2.41795E+01 0.00000E+00
 -1      2589 5.04292E+01 2.44780E+01 0.00000E+00
 -1      2590 5.12993E+01 2.43737E+01 0.00000E+00
 -1      2591 4.16831E+01 3.80601E+01 0.00000E+00
 -1      2592 4.14161E+01 3.70641E+01 0.00000E+00
 -1      2593 5.69210E+01 2.61645E+01 0.00000E+00
 -1      2594 5.77990E+01 2.68919E+01 0.00000E+00
 -1      2595 4.44611E+01 2.70749E+01 0.00000E+00
 -1      2596 4.52884E+01 2.66486E+01 0.00000E+00
 -1      2597 4.51772E+01 2.56661E+01 0.00000E+00
 -1      2598 4.09240E+01 3.33436E+01 0.00000E+00
 -1      2599 4.11335E+01 3.24333E+01 0.00000E+00
 -1      2600 5.56641E+01 4.44516E+01 0.00000E+00
 -1      2601 5.47775E+01 4.46997E+01 0.00000E+00
 -1      2602 4.10485E+01 3.59107E+01 0.00000E+00
 -1      2603 4.08608E+01 3.47132E+01 0.00000E+00
 -1      2604 4.24692E+01 3.99758E+01 0.00000E+00
 -1      2605 4.20636E+01 3.91116E+01 0.00000E+00
 -1      2606 4.32426E+01 4.19742E+01 0.00000E+00
 -1      2607 4.28239E+01 4.09119E+01 0.00000E+00
 -1      2608 4.77631E+01 4.45414E+01 0.00000E+00
 -1      2609 4.69068E+01 4.42196E+01 0.00000E+00
 -1      2610 5.98352E+01 4.14423E+01 0.00000E+00
 -1      2611 5.92086E+01 4.21984E+01 0.00000E+00
 -1      2612 6.07277E+01 3.93732E+01 0.00000E+00
 -1      2613 6.03317E+01 4.03199E+01 0.00000E+00
 -1      2614 6.13062E+01 3.75494E+01 0.00000E+00
 -1      2615 6.10919E+01 3.83953E+01 0.00000E+00
 -1      2616 6.21028E+01 3.73085E+01 0.00000E+00
 -1      2617 4.56440E+01 4.40827E+01 0.00000E+00
 -1      2618 5.70891E+01 4.44516E+01 0.00000E+00
 -1      2619 4.44359E+01 4.35128E+01 0.00000E+00
 -1      2620 4.29359E+01 4.35128E+01 0.00000E+00
 -1      2621 7.79400E+00 3.52687E+01 0.00000E+00
 -1      2622 6.49500E+00 3.60062E+01 0.00000E+00
 -1      2623 6.49500E+00 3.74750E+01 0.00000E+00
 -1      2624 4.96081E+01 2.38329E+01 0.00000E+00
 -1      2625 5.87249E+01 2.67598E+01 0.00000E+00
 -1      2626 4.72268E+01 2.46448E+01 0.00000E+00
 -1      2627 6.22089E+01 3.25232E+01 0.00000E+00
 -1      2628 5.34650E+01 4.48605E+01 0.00000E+00
 -1      2629 6.22877E+01 3.51500E+01 0.00000E+00
 -1      2630 6.27908E+01 3.58130E+01 0.00000E+00
 -1      2631 6.27615E+01 3.45003E+01 0.00000E+00
 -1      2632 6.05710E+01 4.37763E+01 0.00000E+00
 -1      2633 6.13210E+01 4.26741E+01 0.00000E+00
 -1      2634 5.90710E+01 4.37763E+01 0.00000E+00
 -1      2635 6.16170E+01 2.91315E+01 0.00000E+00
 -1      2636 6.13983E+01 3.00409E+01 0.00000E+00
 -1      2637 6.23781E+01 3.02996E+01 0.00000E+00
 -1      2638 1.43586E+02 6.56853E+00 0.00000E+00
 -1      2639 4.36236E+01 2.71682E+01 0.00000E+00
 -1      2640 1.43419E+02 7.72713E+00 0.00000E+00
 -1      2641 4.07304E+01 3.15856E+01 0.00000E+00
 -1      2642 5.81126E+01 4.36197E+01 0.00000E+00
 -1      2643 6.50850E+00 3.87101E+01 0.00000E+00
 -1      2644 6.50850E+00 4.01789E+01 0.00000E+00
 -1      2645 7.83450E+00 4.04429E+01 0.00000E+00
 -1      2646 7.80750E+00 3.79726E+01 0.00000E+00
 -1      2647 5.65805E+01 2.52187E+01 0.00000E+00
 -1      2648 5.74864E+01 2.50188E+01 0.00000E+00
 -1      2649 5.62400E+01 2.42729E+01 0.00000E+00
 -1      2650 5.20884E+01 2.37511E+01 0.00000E+00
 -1      2651 4.19586E+01 4.07907E+01 0.00000E+00
 -1      2652 4.04751E+01 3.65981E+01 0.00000E+00
 -1      2653 4.20621E+01 2.93549E+01 0.00000E+00
 -1      2654 4.19825E+01 2.84545E+01 0.00000E+00
 -1      2655 4.11474E+01 2.95653E+01 0.00000E+00
 -1      2656 4.12232E+01 3.88031E+01 0.00000E+00
 -1      2657 4.01707E+01 3.40751E+01 0.00000E+00
 -1      2658 1.42120E+02 8.46463E+00 0.00000E+00
 -1      2659 4.20067E+01 4.32654E+01 0.00000E+00
 -1      2660 6.15243E+01 3.91323E+01 0.00000E+00
 -1      2661 6.06635E+01 4.12326E+01 0.00000E+00
 -1      2662 4.12567E+01 4.19664E+01 0.00000E+00
 -1      2663 5.75902E+01 4.44199E+01 0.00000E+00
 -1      2664 9.09300E+00 1.98250E+01 0.00000E+00
 -1      2665 9.09300E+00 2.12750E+01 0.00000E+00
 -1      2666 9.09300E+00 2.27500E+01 0.00000E+00
 -1      2667 9.09300E+00 2.42250E+01 0.00000E+00
 -1      2668 1.03920E+01 2.20250E+01 0.00000E+00
 -1      2669 9.09300E+00 1.39375E+01 0.00000E+00
 -1      2670 9.09300E+00 1.54125E+01 0.00000E+00
 -1      2671 9.09300E+00 1.09875E+01 0.00000E+00
 -1      2672 9.09300E+00 1.24625E+01 0.00000E+00
 -1      2673 1.03920E+01 1.32000E+01 0.00000E+00
 -1      2674 9.09300E+00 8.03750E+00 0.00000E+00
 -1      2675 9.09300E+00 9.51250E+00 0.00000E+00
 -1      2676 1.03920E+01 1.02500E+01 0.00000E+00
 -1      2677 9.47138E+00 6.43359E+00 0.00000E+00
 -1      2678 9.28613E+00 7.25703E+00 0.00000E+00
 -1      2679 1.05851E+01 7.99453E+00 0.00000E+00
 -1      2680 1.09714E+01 6.43359E+00 0.00000E+00
 -1      2681 1.42125E+01 4.09070E+01 0.00000E+00
 -1      2682 1.56375E+01 4.09070E+01 0.00000E+00
 -1      2683 1.71375E+01 4.09070E+01 0.00000E+00
 -1      2684 1.86375E+01 4.09070E+01 0.00000E+00
 -1      2685 1.64250E+01 3.96080E+01 0.00000E+00
 -1      2686 2.01375E+01 4.09070E+01 0.00000E+00
 -1      2687 2.16375E+01 4.09070E+01 0.00000E+00
 -1      2688 1.94250E+01 3.96080E+01 0.00000E+00
 -1      2689 2.31375E+01 4.09070E+01 0.00000E+00
 -1      2690 2.46375E+01 4.09070E+01 0.00000E+00
 -1      2691 2.24250E+01 3.96080E+01 0.00000E+00
 -1      2692 2.61375E+01 4.09070E+01 0.00000E+00
 -1      2693 2.76375E+01 4.09070E+01 0.00000E+00
 -1      2694 2.54250E+01 3.96080E+01 0.00000E+00
 -1      2695 2.91375E+01 4.09070E+01 0.00000E+00
 -1      2696 3.06375E+01 4.09070E+01 0.00000E+00
 -1      2697 2.84250E+01 3.96080E+01 0.00000E+00
 -1      2698 3.20625E+01 4.09070E+01 0.00000E+00
 -1      2699 3.34875E+01 4.09070E+01 0.00000E+00
 -1      2700 3.13500E+01 3.96080E+01 0.00000E+00
 -1      2701 3.49875E+01 4.09070E+01 0.00000E+00
 -1      2702 3.64875E+01 4.09070E+01 0.00000E+00
 -1      2703 3.42750E+01 3.96080E+01 0.00000E+00
 -1      2704 6.62250E+01 4.16943E+01 0.00000E+00
 -1      2705 6.77250E+01 4.16943E+01 0.00000E+00
 -1      2706 6.91500E+01 4.16943E+01 0.00000E+00
 -1      2707 7.05750E+01 4.16943E+01 0.00000E+00
 -1      2708 6.84000E+01 4.03953E+01 0.00000E+00
 -1      2709 7.20750E+01 4.16943E+01 0.00000E+00
 -1      2710 7.35750E+01 4.16943E+01 0.00000E+00
 -1      2711 7.13250E+01 4.03953E+01 0.00000E+00
 -1      2712 7.50750E+01 4.16943E+01 0.00000E+00
 -1      2713 7.65750E+01 4.16943E+01 0.00000E+00
 -1      2714 7.43250E+01 4.03953E+01 0.00000E+00
 -1      2715 7.80750E+01 4.16943E+01 0.00000E+00
 -1      2716 7.95750E+01 4.16943E+01 0.00000E+00
 -1      2717 7.73250E+01 4.03953E+01 0.00000E+00
 -1      2718 8.10750E+01 4.16943E+01 0.00000E+00
 -1      2719 8.25750E+01 4.16943E+01 0.00000E+00
 -1      2720 8.03250E+01 4.03953E+01 0.00000E+00
 -1      2721 8.40750E+01 4.16943E+01 0.00000E+00
 -1      2722 8.55750E+01 4.16943E+01 0.00000E+00
 -1      2723 8.33250E+01 4.03953E+01 0.00000E+00
 -1      2724 8.70750E+01 4.16943E+01 0.00000E+00
 -1      2725 8.85750E+01 4.16943E+01 0.00000E+00
 -1      2726 8.63250E+01 4.03953E+01 0.00000E+00
 -1      2727 9.00000E+01 4.16943E+01 0.00000E+00
 -1      2728 9.14250E+01 4.16943E+01 0.00000E+00
 -1      2729 8.92500E+01 4.03953E+01 0.00000E+00
 -1      2730 9.29250E+01 4.16943E+01 0.00000E+00
 -1      2731 9.44250E+01 4.16943E+01 0.00000E+00
 -1      2732 9.21750E+01 4.03953E+01 0.00000E+00
 -1      2733 9.59250E+01 4.16943E+01 0.00000E+00
 -1      2734 9.74250E+01 4.16943E+01 0.00000E+00
 -1      2735 9.51750E+01 4.03953E+01 0.00000E+00
 -1      2736 9.89250E+01 4.16943E+01 0.00000E+00
 -1      2737 1.00425E+02 4.16943E+01 0.00000E+00
 -1      2738 9.81750E+01 4.03953E+01 0.00000E+00
 -1      2739 1.01925E+02 4.16943E+01 0.00000E+00
 -1      2740 1.03425E+02 4.16943E+01 0.00000E+00
 -1      2741 1.01175E+02 4.03953E+01 0.00000E+00
 -1      2742 1.04925E+02 4.16943E+01 0.00000E+00
 -1      2743 1.06425E+02 4.16943E+01 0.00000E+00
 -1      2744 1.04175E+02 4.03953E+01 0.00000E+00
 -1      2745 1.07850E+02 4.16943E+01 0.00000E+00
 -1      2746 1.09275E+02 4.16943E+01 0.00000E+00
 -1      2747 1.07100E+02 4.03953E+01 0.00000E+00
 -1      2748 1.10775E+02 4.16943E+01 0.00000E+00
 -1      2749 1.12275E+02 4.16943E+01 0.00000E+00
 -1      2750 1.10025E+02 4.03953E+01 0.00000E+00
 -1      2751 1.13775E+02 4.16943E+01 0.00000E+00
 -1      2752 1.15275E+02 4.16943E+01 0.00000E+00
 -1      2753 1.13025E+02 4.03953E+01 0.00000E+00
 -1      2754 1.16775E+02 4.16943E+01 0.00000E+00
 -1      2755 1.18275E+02 4.16943E+01 0.00000E+00
 -1      2756 1.16025E+02 4.03953E+01 0.00000E+00
 -1      2757 1.19775E+02 4.16943E+01 0.00000E+00
 -1      2758 1.21275E+02 4.16943E+01 0.00000E+00
 -1      2759 1.19025E+02 4.03953E+01 0.00000E+00
 -1      2760 1.22775E+02 4.16943E+01 0.00000E+00
 -1      2761 1.24275E+02 4.16943E+01 0.00000E+00
 -1      2762 1.22025E+02 4.03953E+01 0.00000E+00
 -1      2763 1.25700E+02 4.16943E+01 0.00000E+00
 -1      2764 1.27125E+02 4.16943E+01 0.00000E+00
 -1      2765 1.24950E+02 4.03953E+01 0.00000E+00
 -1      2766 1.28625E+02 4.16943E+01 0.00000E+00
 -1      2767 1.30125E+02 4.16943E+01 0.00000E+00
 -1      2768 1.27875E+02 4.03953E+01 0.00000E+00
 -1      2769 1.31625E+02 4.16943E+01 0.00000E+00
 -1      2770 1.33125E+02 4.16943E+01 0.00000E+00
 -1      2771 1.30875E+02 4.03953E+01 0.00000E+00
 -1      2772 1.34625E+02 4.16943E+01 0.00000E+00
 -1      2773 1.36125E+02 4.16943E+01 0.00000E+00
 -1      2774 1.33875E+02 4.03953E+01 0.00000E+00
 -1      2775 1.37625E+02 4.16943E+01 0.00000E+00
 -1      2776 1.39125E+02 4.16943E+01 0.00000E+00
 -1      2777 1.36875E+02 4.03953E+01 0.00000E+00
 -1      2778 1.40099E+02 4.14544E+01 0.00000E+00
 -1      2779 1.41332E+02 4.10061E+01 0.00000E+00
 -1      2780 1.41298E+02 3.96757E+01 0.00000E+00
 -1      2781 1.39349E+02 4.01554E+01 0.00000E+00
 -1      2782 3.02850E+01 7.90325E+00 0.00000E+00
 -1      2783 2.87850E+01 7.90325E+00 0.00000E+00
 -1      2784 2.42850E+01 7.90325E+00 0.00000E+00
 -1      2785 2.27850E+01 7.90325E+00 0.00000E+00
 -1      2786 3.32850E+01 7.90325E+00 0.00000E+00
 -1      2787 3.17850E+01 7.90325E+00 0.00000E+00
 -1      2788 3.10350E+01 9.20225E+00 0.00000E+00
 -1      2789 3.62850E+01 7.90325E+00 0.00000E+00
 -1      2790 3.47850E+01 7.90325E+00 0.00000E+00
 -1      2791 3.40350E+01 9.20225E+00 0.00000E+00
 -1      2792 3.92850E+01 7.90325E+00 0.00000E+00
 -1      2793 3.77850E+01 7.90325E+00 0.00000E+00
 -1      2794 3.70350E+01 9.20225E+00 0.00000E+00
 -1      2795 4.22850E+01 7.90325E+00 0.00000E+00
 -1      2796 4.07850E+01 7.90325E+00 0.00000E+00
 -1      2797 4.00350E+01 9.20225E+00 0.00000E+00
 -1      2798 4.52850E+01 7.90325E+00 0.00000E+00
 -1      2799 4.37850E+01 7.90325E+00 0.00000E+00
 -1      2800 4.30350E+01 9.20225E+00 0.00000E+00
 -1      2801 4.82850E+01 7.90325E+00 0.00000E+00
 -1      2802 4.67850E+01 7.90325E+00 0.00000E+00
 -1      2803 4.60350E+01 9.20225E+00 0.00000E+00
 -1      2804 5.12850E+01 7.90325E+00 0.00000E+00
 -1      2805 4.97850E+01 7.90325E+00 0.00000E+00
 -1      2806 4.90350E+01 9.20225E+00 0.00000E+00
 -1      2807 5.42850E+01 7.90325E+00 0.00000E+00
 -1      2808 5.27850E+01 7.90325E+00 0.00000E+00
 -1      2809 5.20350E+01 9.20225E+00 0.00000E+00
 -1      2810 5.72850E+01 7.90325E+00 0.00000E+00
 -1      2811 5.57850E+01 7.90325E+00 0.00000E+00
 -1      2812 5.50350E+01 9.20225E+00 0.00000E+00
 -1      2813 6.02850E+01 7.90325E+00 0.00000E+00
 -1      2814 5.87850E+01 7.90325E+00 0.00000E+00
 -1      2815 5.80350E+01 9.20225E+00 0.00000E+00
 -1      2816 6.32850E+01 7.90325E+00 0.00000E+00
 -1      2817 6.17850E+01 7.90325E+00 0.00000E+00
 -1      2818 6.10350E+01 9.20225E+00 0.00000E+00
 -1      2819 6.62850E+01 7.90325E+00 0.00000E+00
 -1      2820 6.47850E+01 7.90325E+00 0.00000E+00
 -1      2821 6.40350E+01 9.20225E+00 0.00000E+00
 -1      2822 6.92850E+01 7.90325E+00 0.00000E+00
 -1      2823 6.77850E+01 7.90325E+00 0.00000E+00
 -1      2824 6.70350E+01 9.20225E+00 0.00000E+00
 -1      2825 7.22850E+01 7.90325E+00 0.00000E+00
 -1      2826 7.07850E+01 7.90325E+00 0.00000E+00
 -1      2827 7.00350E+01 9.20225E+00 0.00000E+00
 -1      2828 7.52850E+01 7.90325E+00 0.00000E+00
 -1      2829 7.37850E+01 7.90325E+00 0.00000E+00
 -1      2830 7.30350E+01 9.20225E+00 0.00000E+00
 -1      2831 7.82850E+01 7.90325E+00 0.00000E+00
 -1      2832 7.67850E+01 7.90325E+00 0.00000E+00
 -1      2833 7.60350E+01 9.20225E+00 0.00000E+00
 -1      2834 8.12850E+01 7.90325E+00 0.00000E+00
 -1      2835 7.97850E+01 7.90325E+00 0.00000E+00
 -1      2836 7.90350E+01 9.20225E+00 0.00000E+00
 -1      2837 8.42850E+01 7.90325E+00 0.00000E+00
 -1      2838 8.27850E+01 7.90325E+00 0.00000E+00
 -1      2839 8.20350E+01 9.20225E+00 0.00000E+00
 -1      2840 8.72850E+01 7.90325E+00 0.00000E+00
 -1      2841 8.57850E+01 7.90325E+00 0.00000E+00
 -1      2842 8.50350E+01 9.20225E+00 0.00000E+00
 -1      2843 9.02850E+01 7.90325E+00 0.00000E+00
 -1      2844 8.87850E+01 7.90325E+00 0.00000E+00
 -1      2845 8.80350E+01 9.20225E+00 0.00000E+00
 -1      2846 9.32850E+01 7.90325E+00 0.00000E+00
 -1      2847 9.17850E+01 7.90325E+00 0.00000E+00
 -1      2848 9.10350E+01 9.20225E+00 0.00000E+00
 -1      2849 9.62850E+01 7.90325E+00 0.00000E+00
 -1      2850 9.47850E+01 7.90325E+00 0.00000E+00
 -1      2851 9.40350E+01 9.20225E+00 0.00000E+00
 -1      2852 9.92850E+01 7.90325E+00 0.00000E+00
 -1      2853 9.77850E+01 7.90325E+00 0.00000E+00
 -1      2854 9.70350E+01 9.20225E+00 0.00000E+00
 -1      2855 1.02285E+02 7.90325E+00 0.00000E+00
 -1      2856 1.00785E+02 7.90325E+00 0.00000E+00
 -1      2857 1.00035E+02 9.20225E+00 0.00000E+00
 -1      2858 1.05285E+02 7.90325E+00 0.00000E+00
 -1      2859 1.03785E+02 7.90325E+00 0.00000E+00
 -1      2860 1.03035E+02 9.20225E+00 0.00000E+00
 -1      2861 1.08285E+02 7.90325E+00 0.00000E+00
 -1      2862 1.06785E+02 7.90325E+00 0.00000E+00
 -1      2863 1.06035E+02 9.20225E+00 0.00000E+00
 -1      2864 1.11285E+02 7.90325E+00 0.00000E+00
 -1      2865 1.09785E+02 7.90325E+00 0.00000E+00
 -1      2866 1.09035E+02 9.20225E+00 0.00000E+00
 -1      2867 1.14285E+02 7.90325E+00 0.00000E+00
 -1      2868 1.12785E+02 7.90325E+00 0.00000E+00
 -1      2869 1.12035E+02 9.20225E+00 0.00000E+00
 -1      2870 1.17285E+02 7.90325E+00 0.00000E+00
 -1      2871 1.15785E+02 7.90325E+00 0.00000E+00
 -1      2872 1.15035E+02 9.20225E+00 0.00000E+00
 -1      2873 1.20285E+02 7.90325E+00 0.00000E+00
 -1      2874 1.18785E+02 7.90325E+00 0.00000E+00
 -1      2875 1.18035E+02 9.20225E+00 0.00000E+00
 -1      2876 1.23285E+02 7.90325E+00 0.00000E+00
 -1      2877 1.21785E+02 7.90325E+00 0.00000E+00
 -1      2878 1.21035E+02 9.20225E+00 0.00000E+00
 -1      2879 1.26285E+02 7.90325E+00 0.00000E+00
 -1      2880 1.24785E+02 7.90325E+00 0.00000E+00
 -1      2881 1.24035E+02 9.20225E+00 0.00000E+00
 -1      2882 1.29285E+02 7.90325E+00 0.00000E+00
 -1      2883 1.27785E+02 7.90325E+00 0.00000E+00
 -1      2884 1.27035E+02 9.20225E+00 0.00000E+00
 -1      2885 1.32285E+02 7.90325E+00 0.00000E+00
 -1      2886 1.30785E+02 7.90325E+00 0.00000E+00
 -1      2887 1.30035E+02 9.20225E+00 0.00000E+00
 -1      2888 1.35285E+02 7.90325E+00 0.00000E+00
 -1      2889 1.33785E+02 7.90325E+00 0.00000E+00
 -1      2890 1.33035E+02 9.20225E+00 0.00000E+00
 -1      2891 1.38285E+02 7.90325E+00 0.00000E+00
 -1      2892 1.36785E+02 7.90325E+00 0.00000E+00
 -1      2893 1.36035E+02 9.20225E+00 0.00000E+00
 -1      2894 1.40953E+02 8.18394E+00 0.00000E+00
 -1      2895 1.39453E+02 8.18394E+00 0.00000E+00
 -1      2896 1.38703E+02 9.48294E+00 0.00000E+00
 -1      2897 1.41038E+02 1.00443E+01 0.00000E+00
 -1      2898 4.24802E+01 2.71793E+01 0.00000E+00
 -1      2899 4.32066E+01 2.61036E+01 0.00000E+00
 -1      2900 1.40907E+02 2.42875E+01 0.00000E+00
 -1      2901 1.40907E+02 2.28125E+01 0.00000E+00
 -1      2902 1.40907E+02 1.83875E+01 0.00000E+00
 -1      2903 1.40907E+02 1.69125E+01 0.00000E+00
 -1      2904 1.40907E+02 2.72375E+01 0.00000E+00
 -1      2905 1.40907E+02 2.57625E+01 0.00000E+00
 -1      2906 1.39608E+02 2.50250E+01 0.00000E+00
 -1      2907 1.40907E+02 2.13375E+01 0.00000E+00
 -1      2908 1.40907E+02 1.98625E+01 0.00000E+00
 -1      2909 1.39608E+02 1.91250E+01 0.00000E+00
 -1      2910 1.39608E+02 2.20750E+01 0.00000E+00
 -1      2911 1.40907E+02 3.01375E+01 0.00000E+00
 -1      2912 1.40907E+02 2.86875E+01 0.00000E+00
 -1      2913 1.39608E+02 2.79500E+01 0.00000E+00
 -1      2914 1.40907E+02 3.30875E+01 0.00000E+00
 -1      2915 1.40907E+02 3.16125E+01 0.00000E+00
 -1      2916 1.39608E+02 3.08750E+01 0.00000E+00
 -1      2917 1.40907E+02 3.60375E+01 0.00000E+00
 -1      2918 1.40907E+02 3.45625E+01 0.00000E+00
 -1      2919 1.39608E+02 3.38250E+01 0.00000E+00
 -1      2920 6.06225E+01 2.73103E+01 0.00000E+00
 -1      2921 6.11296E+01 2.79692E+01 0.00000E+00
 -1      2922 9.16050E+00 4.07069E+01 0.00000E+00
 -1      2923 1.04865E+01 4.09709E+01 0.00000E+00
 -1      2924 9.14700E+00 3.94717E+01 0.00000E+00
 -1      2925 4.88709E+01 2.30985E+01 0.00000E+00
 -1      2926 5.00299E+01 2.28815E+01 0.00000E+00
 -1      2927 5.24922E+01 4.50601E+01 0.00000E+00
 -1      2928 5.15320E+01 2.26637E+01 0.00000E+00
 -1      2929 5.28533E+01 2.27988E+01 0.00000E+00
 -1      2930 6.31159E+01 3.71151E+01 0.00000E+00
 -1      2931 6.29016E+01 3.79609E+01 0.00000E+00
 -1      2932 6.25374E+01 3.89389E+01 0.00000E+00
 -1      2933 6.21731E+01 3.99168E+01 0.00000E+00
 -1      2934 6.35505E+01 3.87454E+01 0.00000E+00
 -1      2935 4.09019E+01 4.10303E+01 0.00000E+00
 -1      2936 6.28306E+01 4.13583E+01 0.00000E+00
 -1      2937 6.43306E+01 4.13583E+01 0.00000E+00
 -1      2938 2.72850E+01 7.90325E+00 0.00000E+00
 -1      2939 2.57850E+01 7.90325E+00 0.00000E+00
 -1      2940 2.50350E+01 9.20225E+00 0.00000E+00
 -1      2941 1.15995E+01 4.09389E+01 0.00000E+00
 -1      2942 1.30995E+01 4.09389E+01 0.00000E+00
 -1      2943 1.38120E+01 3.96399E+01 0.00000E+00
 -1      2944 1.15860E+01 3.97038E+01 0.00000E+00
 -1      2945 3.97365E+01 3.18150E+01 0.00000E+00
 -1      2946 4.02331E+01 3.06950E+01 0.00000E+00
 -1      2947 5.89000E+01 2.56575E+01 0.00000E+00
 -1      2948 5.97980E+01 2.64526E+01 0.00000E+00
 -1      2949 6.31181E+01 3.18309E+01 0.00000E+00
 -1      2950 6.31676E+01 3.31451E+01 0.00000E+00
 -1      2951 9.09300E+00 1.68813E+01 0.00000E+00
 -1      2952 9.09300E+00 1.83563E+01 0.00000E+00
 -1      2953 1.03920E+01 1.90812E+01 0.00000E+00
 -1      2954 1.03920E+01 1.61437E+01 0.00000E+00
 -1      2955 9.09300E+00 3.15875E+01 0.00000E+00
 -1      2956 9.09300E+00 3.30625E+01 0.00000E+00
 -1      2957 4.62037E+01 2.40959E+01 0.00000E+00
 -1      2958 4.74260E+01 2.35009E+01 0.00000E+00
 -1      2959 4.45491E+01 2.49486E+01 0.00000E+00
 -1      2960 4.53764E+01 2.45222E+01 0.00000E+00
 -1      2961 4.55756E+01 2.33783E+01 0.00000E+00
 -1      2962 3.91987E+01 3.47165E+01 0.00000E+00
 -1      2963 3.92619E+01 3.33469E+01 0.00000E+00
 -1      2964 3.99216E+01 3.74098E+01 0.00000E+00
 -1      2965 3.95540E+01 3.62564E+01 0.00000E+00
 -1      2966 4.06072E+01 3.96207E+01 0.00000E+00
 -1      2967 4.02266E+01 3.85692E+01 0.00000E+00
 -1      2968 5.41165E+01 2.32927E+01 0.00000E+00
 -1      2969 5.50786E+01 2.35860E+01 0.00000E+00
 -1      2970 6.18175E+01 4.15518E+01 0.00000E+00
 -1      2971 3.99053E+01 4.07964E+01 0.00000E+00
 -1      2972 9.09300E+00 3.01125E+01 0.00000E+00
 -1      2973 1.03920E+01 3.08500E+01 0.00000E+00
 -1      2974 9.09300E+00 2.86375E+01 0.00000E+00
 -1      2975 3.87646E+01 3.24564E+01 0.00000E+00
 -1      2976 3.82672E+01 3.15658E+01 0.00000E+00
 -1      2977 3.77926E+01 3.30977E+01 0.00000E+00
 -1      2978 2.12850E+01 7.90325E+00 0.00000E+00
 -1      2979 1.97850E+01 7.90325E+00 0.00000E+00
 -1      2980 2.20350E+01 9.20225E+00 0.00000E+00
 -1      2981 6.36707E+01 3.38080E+01 0.00000E+00
 -1      2982 3.76928E+01 3.94974E+01 0.00000E+00
 -1      2983 3.84053E+01 4.07964E+01 0.00000E+00
 -1      2984 6.50806E+01 4.00593E+01 0.00000E+00
 -1      2985 6.35555E+01 3.00121E+01 0.00000E+00
 -1      2986 6.33368E+01 3.09215E+01 0.00000E+00
 -1      2987 6.42955E+01 3.15434E+01 0.00000E+00
 -1      2988 5.82190E+01 2.37659E+01 0.00000E+00
 -1      2989 5.85595E+01 2.47117E+01 0.00000E+00
 -1      2990 5.96325E+01 2.44045E+01 0.00000E+00
 -1      2991 2.80350E+01 9.20225E+00 0.00000E+00
 -1      2992 6.21094E+01 2.82279E+01 0.00000E+00
 -1      2993 1.51772E+01 7.76028E+00 0.00000E+00
 -1      2994 1.39596E+01 7.52250E+00 0.00000E+00
 -1      2995 4.15655E+01 2.73898E+01 0.00000E+00
 -1      2996 1.41038E+02 1.15068E+01 0.00000E+00
 -1      2997 1.39870E+02 1.12261E+01 0.00000E+00
 -1      2998 1.41038E+02 1.29693E+01 0.00000E+00
 -1      2999 6.35897E+01 3.64654E+01 0.00000E+00
 -1      3000 6.43885E+01 3.71178E+01 0.00000E+00
 -1      3001 6.40635E+01 3.58157E+01 0.00000E+00
 -1      3002 6.07975E+01 2.62079E+01 0.00000E+00
 -1      3003 1.41119E+02 3.85218E+01 0.00000E+00
 -1      3004 1.41086E+02 3.71914E+01 0.00000E+00
 -1      3005 1.39787E+02 3.64539E+01 0.00000E+00
 -1      3006 1.40145E+02 3.87617E+01 0.00000E+00
 -1      3007 3.91595E+01 3.00240E+01 0.00000E+00
 -1      3008 4.01534E+01 2.97947E+01 0.00000E+00
 -1      3009 4.00738E+01 2.88943E+01 0.00000E+00
 -1      3010 5.59846E+01 2.33861E+01 0.00000E+00
 -1      3011 5.68905E+01 2.31863E+01 0.00000E+00
 -1      3012 5.57291E+01 2.24993E+01 0.00000E+00
 -1      3013 4.78477E+01 2.25495E+01 0.00000E+00
 -1      3014 5.07948E+01 2.19293E+01 0.00000E+00
 -1      3015 5.35601E+01 2.22053E+01 0.00000E+00
 -1      3016 3.93055E+01 3.82274E+01 0.00000E+00
 -1      3017 1.40973E+02 1.56722E+01 0.00000E+00
 -1      3018 1.40973E+02 1.42097E+01 0.00000E+00
 -1      3019 1.39805E+02 1.39290E+01 0.00000E+00
 -1      3020 1.39674E+02 1.64097E+01 0.00000E+00
 -1      3021 4.34058E+01 2.49597E+01 0.00000E+00
 -1      3022 4.36050E+01 2.38158E+01 0.00000E+00
 -1      3023 4.22625E+01 2.49708E+01 0.00000E+00
 -1      3024 1.82850E+01 7.90325E+00 0.00000E+00
 -1      3025 1.67850E+01 7.90325E+00 0.00000E+00
 -1      3026 1.90350E+01 9.20225E+00 0.00000E+00
 -1      3027 9.09300E+00 2.56938E+01 0.00000E+00
 -1      3028 9.09300E+00 2.71688E+01 0.00000E+00
 -1      3029 1.03920E+01 2.79063E+01 0.00000E+00
 -1      3030 1.03920E+01 2.49688E+01 0.00000E+00
 -1      3031 9.09300E+00 3.45313E+01 0.00000E+00
 -1      3032 9.09300E+00 3.60000E+01 0.00000E+00
 -1      3033 1.03920E+01 3.37938E+01 0.00000E+00
 -1      3034 3.86453E+01 3.55282E+01 0.00000E+00
 -1      3035 3.77365E+01 3.48000E+01 0.00000E+00
 -1      3036 3.80918E+01 3.63399E+01 0.00000E+00
 -1      3037 1.59272E+01 9.05928E+00 0.00000E+00
 -1      3038 1.16910E+01 9.51250E+00 0.00000E+00
 -1      3039 1.16910E+01 1.09875E+01 0.00000E+00
 -1      3040 1.16910E+01 1.24625E+01 0.00000E+00
 -1      3041 1.16910E+01 1.39375E+01 0.00000E+00
 -1      3042 1.29900E+01 1.17250E+01 0.00000E+00
 -1      3043 1.21890E+01 6.67137E+00 0.00000E+00
 -1      3044 1.56750E+01 3.83090E+01 0.00000E+00
 -1      3045 1.71750E+01 3.83090E+01 0.00000E+00
 -1      3046 3.73878E+01 3.83380E+01 0.00000E+00
 -1      3047 6.54449E+01 3.90814E+01 0.00000E+00
 -1      3048 1.86750E+01 3.83090E+01 0.00000E+00
 -1      3049 2.01750E+01 3.83090E+01 0.00000E+00
 -1      3050 1.79250E+01 3.70100E+01 0.00000E+00
 -1      3051 2.16750E+01 3.83090E+01 0.00000E+00
 -1      3052 2.31750E+01 3.83090E+01 0.00000E+00
 -1      3053 2.09250E+01 3.70100E+01 0.00000E+00
 -1      3054 2.46750E+01 3.83090E+01 0.00000E+00
 -1      3055 2.61750E+01 3.83090E+01 0.00000E+00
 -1      3056 2.39250E+01 3.70100E+01 0.00000E+00
 -1      3057 2.76750E+01 3.83090E+01 0.00000E+00
 -1      3058 2.91750E+01 3.83090E+01 0.00000E+00
 -1      3059 2.69250E+01 3.70100E+01 0.00000E+00
 -1      3060 3.06000E+01 3.83090E+01 0.00000E+00
 -1      3061 3.20250E+01 3.83090E+01 0.00000E+00
 -1      3062 2.98500E+01 3.70100E+01 0.00000E+00
 -1      3063 3.35250E+01 3.83090E+01 0.00000E+00
 -1      3064 3.50250E+01 3.83090E+01 0.00000E+00
 -1      3065 3.27750E+01 3.70100E+01 0.00000E+00
 -1      3066 9.11325E+00 3.71183E+01 0.00000E+00
 -1      3067 9.12675E+00 3.83534E+01 0.00000E+00
 -1      3068 1.04528E+01 3.86174E+01 0.00000E+00
 -1      3069 1.04122E+01 3.63808E+01 0.00000E+00
 -1      3070 1.25488E+01 8.06518E+00 0.00000E+00
 -1      3071 7.05750E+01 3.90963E+01 0.00000E+00
 -1      3072 7.20750E+01 3.90963E+01 0.00000E+00
 -1      3073 7.35750E+01 3.90963E+01 0.00000E+00
 -1      3074 7.50750E+01 3.90963E+01 0.00000E+00
 -1      3075 7.28250E+01 3.77973E+01 0.00000E+00
 -1      3076 7.65750E+01 3.90963E+01 0.00000E+00
 -1      3077 7.80750E+01 3.90963E+01 0.00000E+00
 -1      3078 7.58250E+01 3.77973E+01 0.00000E+00
 -1      3079 7.95750E+01 3.90963E+01 0.00000E+00
 -1      3080 8.10750E+01 3.90963E+01 0.00000E+00
 -1      3081 7.88250E+01 3.77973E+01 0.00000E+00
 -1      3082 8.25750E+01 3.90963E+01 0.00000E+00
 -1      3083 8.40750E+01 3.90963E+01 0.00000E+00
 -1      3084 8.18250E+01 3.77973E+01 0.00000E+00
 -1      3085 8.55750E+01 3.90963E+01 0.00000E+00
 -1      3086 8.70750E+01 3.90963E+01 0.00000E+00
 -1      3087 8.48250E+01 3.77973E+01 0.00000E+00
 -1      3088 8.85000E+01 3.90963E+01 0.00000E+00
 -1      3089 8.99250E+01 3.90963E+01 0.00000E+00
 -1      3090 8.77500E+01 3.77973E+01 0.00000E+00
 -1      3091 9.14250E+01 3.90963E+01 0.00000E+00
 -1      3092 9.29250E+01 3.90963E+01 0.00000E+00
 -1      3093 9.06750E+01 3.77973E+01 0.00000E+00
 -1      3094 9.44250E+01 3.90963E+01 0.00000E+00
 -1      3095 9.59250E+01 3.90963E+01 0.00000E+00
 -1      3096 9.36750E+01 3.77973E+01 0.00000E+00
 -1      3097 9.74250E+01 3.90963E+01 0.00000E+00
 -1      3098 9.89250E+01 3.90963E+01 0.00000E+00
 -1      3099 9.66750E+01 3.77973E+01 0.00000E+00
 -1      3100 1.00425E+02 3.90963E+01 0.00000E+00
 -1      3101 1.01925E+02 3.90963E+01 0.00000E+00
 -1      3102 9.96750E+01 3.77973E+01 0.00000E+00
 -1      3103 1.03425E+02 3.90963E+01 0.00000E+00
 -1      3104 1.04925E+02 3.90963E+01 0.00000E+00
 -1      3105 1.02675E+02 3.77973E+01 0.00000E+00
 -1      3106 1.06350E+02 3.90963E+01 0.00000E+00
 -1      3107 1.07775E+02 3.90963E+01 0.00000E+00
 -1      3108 1.05600E+02 3.77973E+01 0.00000E+00
 -1      3109 1.09275E+02 3.90963E+01 0.00000E+00
 -1      3110 1.10775E+02 3.90963E+01 0.00000E+00
 -1      3111 1.08525E+02 3.77973E+01 0.00000E+00
 -1      3112 1.12275E+02 3.90963E+01 0.00000E+00
 -1      3113 1.13775E+02 3.90963E+01 0.00000E+00
 -1      3114 1.11525E+02 3.77973E+01 0.00000E+00
 -1      3115 1.15275E+02 3.90963E+01 0.00000E+00
 -1      3116 1.16775E+02 3.90963E+01 0.00000E+00
 -1      3117 1.14525E+02 3.77973E+01 0.00000E+00
 -1      3118 1.18275E+02 3.90963E+01 0.00000E+00
 -1      3119 1.19775E+02 3.90963E+01 0.00000E+00
 -1      3120 1.17525E+02 3.77973E+01 0.00000E+00
 -1      3121 1.21275E+02 3.90963E+01 0.00000E+00
 -1      3122 1.22775E+02 3.90963E+01 0.00000E+00
 -1      3123 1.20525E+02 3.77973E+01 0.00000E+00
 -1      3124 1.24200E+02 3.90963E+01 0.00000E+00
 -1      3125 1.25625E+02 3.90963E+01 0.00000E+00
 -1      3126 1.23450E+02 3.77973E+01 0.00000E+00
 -1      3127 1.27125E+02 3.90963E+01 0.00000E+00
 -1      3128 1.28625E+02 3.90963E+01 0.00000E+00
 -1      3129 1.26375E+02 3.77973E+01 0.00000E+00
 -1      3130 1.30125E+02 3.90963E+01 0.00000E+00
 -1      3131 1.31625E+02 3.90963E+01 0.00000E+00
 -1      3132 1.29375E+02 3.77973E+01 0.00000E+00
 -1      3133 1.33125E+02 3.90963E+01 0.00000E+00
 -1      3134 1.34625E+02 3.90963E+01 0.00000E+00
 -1      3135 1.32375E+02 3.77973E+01 0.00000E+00
 -1      3136 1.36125E+02 3.90963E+01 0.00000E+00
 -1      3137 1.37625E+02 3.90963E+01 0.00000E+00
 -1      3138 1.35375E+02 3.77973E+01 0.00000E+00
 -1      3139 4.03617E+01 2.76546E+01 0.00000E+00
 -1      3140 4.08595E+01 2.63795E+01 0.00000E+00
 -1      3141 3.17850E+01 1.05013E+01 0.00000E+00
 -1      3142 3.02850E+01 1.05013E+01 0.00000E+00
 -1      3143 4.07850E+01 1.05013E+01 0.00000E+00
 -1      3144 3.92850E+01 1.05013E+01 0.00000E+00
 -1      3145 4.37850E+01 1.05013E+01 0.00000E+00
 -1      3146 4.22850E+01 1.05013E+01 0.00000E+00
 -1      3147 4.15350E+01 1.18003E+01 0.00000E+00
 -1      3148 4.67850E+01 1.05013E+01 0.00000E+00
 -1      3149 4.52850E+01 1.05013E+01 0.00000E+00
 -1      3150 4.45350E+01 1.18003E+01 0.00000E+00
 -1      3151 4.97850E+01 1.05013E+01 0.00000E+00
 -1      3152 4.82850E+01 1.05013E+01 0.00000E+00
 -1      3153 4.75350E+01 1.18003E+01 0.00000E+00
 -1      3154 5.27850E+01 1.05013E+01 0.00000E+00
 -1      3155 5.12850E+01 1.05013E+01 0.00000E+00
 -1      3156 5.05350E+01 1.18003E+01 0.00000E+00
 -1      3157 5.57850E+01 1.05013E+01 0.00000E+00
 -1      3158 5.42850E+01 1.05013E+01 0.00000E+00
 -1      3159 5.35350E+01 1.18003E+01 0.00000E+00
 -1      3160 5.87850E+01 1.05013E+01 0.00000E+00
 -1      3161 5.72850E+01 1.05013E+01 0.00000E+00
 -1      3162 5.65350E+01 1.18003E+01 0.00000E+00
 -1      3163 6.17850E+01 1.05013E+01 0.00000E+00
 -1      3164 6.02850E+01 1.05013E+01 0.00000E+00
 -1      3165 5.95350E+01 1.18003E+01 0.00000E+00
 -1      3166 6.47850E+01 1.05013E+01 0.00000E+00
 -1      3167 6.32850E+01 1.05013E+01 0.00000E+00
 -1      3168 6.25350E+01 1.18003E+01 0.00000E+00
 -1      3169 6.77850E+01 1.05013E+01 0.00000E+00
 -1      3170 6.62850E+01 1.05013E+01 0.00000E+00
 -1      3171 6.55350E+01 1.18003E+01 0.00000E+00
 -1      3172 7.07850E+01 1.05013E+01 0.00000E+00
 -1      3173 6.92850E+01 1.05013E+01 0.00000E+00
 -1      3174 6.85350E+01 1.18003E+01 0.00000E+00
 -1      3175 7.37850E+01 1.05013E+01 0.00000E+00
 -1      3176 7.22850E+01 1.05013E+01 0.00000E+00
 -1      3177 7.15350E+01 1.18003E+01 0.00000E+00
 -1      3178 7.67850E+01 1.05013E+01 0.00000E+00
 -1      3179 7.52850E+01 1.05013E+01 0.00000E+00
 -1      3180 7.45350E+01 1.18003E+01 0.00000E+00
 -1      3181 7.97850E+01 1.05013E+01 0.00000E+00
 -1      3182 7.82850E+01 1.05013E+01 0.00000E+00
 -1      3183 7.75350E+01 1.18003E+01 0.00000E+00
 -1      3184 8.27850E+01 1.05013E+01 0.00000E+00
 -1      3185 8.12850E+01 1.05013E+01 0.00000E+00
 -1      3186 8.05350E+01 1.18003E+01 0.00000E+00
 -1      3187 8.57850E+01 1.05013E+01 0.00000E+00
 -1      3188 8.42850E+01 1.05013E+01 0.00000E+00
 -1      3189 8.35350E+01 1.18003E+01 0.00000E+00
 -1      3190 8.87850E+01 1.05013E+01 0.00000E+00
 -1      3191 8.72850E+01 1.05013E+01 0.00000E+00
 -1      3192 8.65350E+01 1.18003E+01 0.00000E+00
 -1      3193 9.17850E+01 1.05013E+01 0.00000E+00
 -1      3194 9.02850E+01 1.05013E+01 0.00000E+00
 -1      3195 8.95350E+01 1.18003E+01 0.00000E+00
 -1      3196 9.47850E+01 1.05013E+01 0.00000E+00
 -1      3197 9.32850E+01 1.05013E+01 0.00000E+00
 -1      3198 9.25350E+01 1.18003E+01 0.00000E+00
 -1      3199 9.77850E+01 1.05013E+01 0.00000E+00
 -1      3200 9.62850E+01 1.05013E+01 0.00000E+00
 -1      3201 9.55350E+01 1.18003E+01 0.00000E+00
 -1      3202 1.00785E+02 1.05013E+01 0.00000E+00
 -1      3203 9.92850E+01 1.05013E+01 0.00000E+00
 -1      3204 9.85350E+01 1.18003E+01 0.00000E+00
 -1      3205 1.03785E+02 1.05013E+01 0.00000E+00
 -1      3206 1.02285E+02 1.05013E+01 0.00000E+00
 -1      3207 1.01535E+02 1.18003E+01 0.00000E+00
 -1      3208 1.06785E+02 1.05013E+01 0.00000E+00
 -1      3209 1.05285E+02 1.05013E+01 0.00000E+00
 -1      3210 1.04535E+02 1.18003E+01 0.00000E+00
 -1      3211 1.09785E+02 1.05013E+01 0.00000E+00
 -1      3212 1.08285E+02 1.05013E+01 0.00000E+00
 -1      3213 1.07535E+02 1.18003E+01 0.00000E+00
 -1      3214 1.12785E+02 1.05013E+01 0.00000E+00
 -1      3215 1.11285E+02 1.05013E+01 0.00000E+00
 -1      3216 1.10535E+02 1.18003E+01 0.00000E+00
 -1      3217 1.15785E+02 1.05013E+01 0.00000E+00
 -1      3218 1.14285E+02 1.05013E+01 0.00000E+00
 -1      3219 1.13535E+02 1.18003E+01 0.00000E+00
 -1      3220 1.18785E+02 1.05013E+01 0.00000E+00
 -1      3221 1.17285E+02 1.05013E+01 0.00000E+00
 -1      3222 1.16535E+02 1.18003E+01 0.00000E+00
 -1      3223 1.21785E+02 1.05013E+01 0.00000E+00
 -1      3224 1.20285E+02 1.05013E+01 0.00000E+00
 -1      3225 1.19535E+02 1.18003E+01 0.00000E+00
 -1      3226 1.24785E+02 1.05013E+01 0.00000E+00
 -1      3227 1.23285E+02 1.05013E+01 0.00000E+00
 -1      3228 1.22535E+02 1.18003E+01 0.00000E+00
 -1      3229 1.27785E+02 1.05013E+01 0.00000E+00
 -1      3230 1.26285E+02 1.05013E+01 0.00000E+00
 -1      3231 1.25535E+02 1.18003E+01 0.00000E+00
 -1      3232 1.30785E+02 1.05013E+01 0.00000E+00
 -1      3233 1.29285E+02 1.05013E+01 0.00000E+00
 -1      3234 1.28535E+02 1.18003E+01 0.00000E+00
 -1      3235 1.33785E+02 1.05013E+01 0.00000E+00
 -1      3236 1.32285E+02 1.05013E+01 0.00000E+00
 -1      3237 1.31535E+02 1.18003E+01 0.00000E+00
 -1      3238 1.36785E+02 1.05013E+01 0.00000E+00
 -1      3239 1.35285E+02 1.05013E+01 0.00000E+00
 -1      3240 1.34535E+02 1.18003E+01 0.00000E+00
 -1      3241 1.38912E+02 1.10040E+01 0.00000E+00
 -1      3242 1.37744E+02 1.07233E+01 0.00000E+00
 -1      3243 1.36994E+02 1.20223E+01 0.00000E+00
 -1      3244 1.38912E+02 1.24665E+01 0.00000E+00
 -1      3245 1.38309E+02 2.86750E+01 0.00000E+00
 -1      3246 1.38309E+02 2.72250E+01 0.00000E+00
 -1      3247 1.38309E+02 3.16250E+01 0.00000E+00
 -1      3248 1.38309E+02 3.01500E+01 0.00000E+00
 -1      3249 1.37010E+02 2.94250E+01 0.00000E+00
 -1      3250 1.38309E+02 2.57500E+01 0.00000E+00
 -1      3251 1.38309E+02 2.42750E+01 0.00000E+00
 -1      3252 1.37010E+02 2.64750E+01 0.00000E+00
 -1      3253 3.47850E+01 1.05013E+01 0.00000E+00
 -1      3254 3.32850E+01 1.05013E+01 0.00000E+00
 -1      3255 3.25350E+01 1.18003E+01 0.00000E+00
 -1      3256 6.48757E+01 3.31052E+01 0.00000E+00
 -1      3257 6.44696E+01 3.44604E+01 0.00000E+00
 -1      3258 6.52684E+01 3.51129E+01 0.00000E+00
 -1      3259 6.27338E+01 2.72827E+01 0.00000E+00
 -1      3260 6.32212E+01 2.84451E+01 0.00000E+00
 -1      3261 2.57850E+01 1.05013E+01 0.00000E+00
 -1      3262 2.42850E+01 1.05013E+01 0.00000E+00
 -1      3263 2.87850E+01 1.05013E+01 0.00000E+00
 -1      3264 2.72850E+01 1.05013E+01 0.00000E+00
 -1      3265 2.95350E+01 1.18003E+01 0.00000E+00
 -1      3266 4.99086E+01 2.11066E+01 0.00000E+00
 -1      3267 5.14108E+01 2.08888E+01 0.00000E+00
 -1      3268 4.46540E+01 2.26058E+01 0.00000E+00
 -1      3269 4.54812E+01 2.21795E+01 0.00000E+00
 -1      3270 6.10035E+01 2.51848E+01 0.00000E+00
 -1      3271 6.18280E+01 2.60424E+01 0.00000E+00
 -1      3272 1.38309E+02 3.45750E+01 0.00000E+00
 -1      3273 1.38309E+02 3.31000E+01 0.00000E+00
 -1      3274 1.37010E+02 3.23750E+01 0.00000E+00
 -1      3275 5.33323E+01 2.09256E+01 0.00000E+00
 -1      3276 5.45954E+01 2.14195E+01 0.00000E+00
 -1      3277 3.77850E+01 1.05013E+01 0.00000E+00
 -1      3278 3.62850E+01 1.05013E+01 0.00000E+00
 -1      3279 3.55350E+01 1.18003E+01 0.00000E+00
 -1      3280 3.85350E+01 1.18003E+01 0.00000E+00
 -1      3281 4.69261E+01 2.17770E+01 0.00000E+00
 -1      3282 4.83709E+01 2.13746E+01 0.00000E+00
 -1      3283 4.60044E+01 2.10045E+01 0.00000E+00
 -1      3284 6.77250E+01 3.90963E+01 0.00000E+00
 -1      3285 6.91500E+01 3.90963E+01 0.00000E+00
 -1      3286 6.99000E+01 3.77973E+01 0.00000E+00
 -1      3287 6.61949E+01 3.77824E+01 0.00000E+00
 -1      3288 1.16910E+01 2.12875E+01 0.00000E+00
 -1      3289 1.16910E+01 2.27625E+01 0.00000E+00
 -1      3290 3.66378E+01 3.70390E+01 0.00000E+00
 -1      3291 3.72392E+01 3.39094E+01 0.00000E+00
 -1      3292 3.67418E+01 3.30188E+01 0.00000E+00
 -1      3293 3.66857E+01 3.47211E+01 0.00000E+00
 -1      3294 1.36547E+01 9.58315E+00 0.00000E+00
 -1      3295 1.18841E+01 8.73203E+00 0.00000E+00
 -1      3296 1.29900E+01 1.46687E+01 0.00000E+00
 -1      3297 1.16910E+01 1.54063E+01 0.00000E+00
 -1      3298 1.16910E+01 1.68750E+01 0.00000E+00
 -1      3299 2.27850E+01 1.05013E+01 0.00000E+00
 -1      3300 2.12850E+01 1.05013E+01 0.00000E+00
 -1      3301 2.35350E+01 1.18003E+01 0.00000E+00
 -1      3302 1.45620E+01 3.83409E+01 0.00000E+00
 -1      3303 1.53120E+01 3.70419E+01 0.00000E+00
 -1      3304 1.34490E+01 3.83729E+01 0.00000E+00
 -1      3305 5.79635E+01 2.28791E+01 0.00000E+00
 -1      3306 5.90366E+01 2.25719E+01 0.00000E+00
 -1      3307 5.77081E+01 2.19923E+01 0.00000E+00
 -1      3308 3.93677E+01 2.78839E+01 0.00000E+00
 -1      3309 3.98548E+01 2.55004E+01 0.00000E+00
 -1      3310 4.10586E+01 2.52356E+01 0.00000E+00
 -1      3311 4.12578E+01 2.40917E+01 0.00000E+00
 -1      3312 1.39170E+02 3.90015E+01 0.00000E+00
 -1      3313 5.15600E+01 1.92802E+01 0.00000E+00
 -1      3314 5.24461E+01 2.01029E+01 0.00000E+00
 -1      3315 5.34815E+01 1.93171E+01 0.00000E+00
 -1      3316 4.89869E+01 2.03341E+01 0.00000E+00
 -1      3317 1.37010E+02 2.35250E+01 0.00000E+00
 -1      3318 1.38309E+02 2.28000E+01 0.00000E+00
 -1      3319 1.38309E+02 2.13250E+01 0.00000E+00
 -1      3320 5.55013E+01 2.12196E+01 0.00000E+00
 -1      3321 1.38420E+02 3.77025E+01 0.00000E+00
 -1      3322 6.41799E+01 2.90670E+01 0.00000E+00
 -1      3323 1.38309E+02 1.98500E+01 0.00000E+00
 -1      3324 1.38309E+02 1.83750E+01 0.00000E+00
 -1      3325 1.37010E+02 2.05750E+01 0.00000E+00
 -1      3326 3.81875E+01 3.06654E+01 0.00000E+00
 -1      3327 3.81079E+01 2.97650E+01 0.00000E+00
 -1      3328 3.72156E+01 3.13068E+01 0.00000E+00
 -1      3329 6.50943E+01 3.21958E+01 0.00000E+00
 -1      3330 6.58932E+01 3.28483E+01 0.00000E+00
 -1      3331 6.53130E+01 3.12864E+01 0.00000E+00
 -1      3332 6.29398E+01 2.62596E+01 0.00000E+00
 -1      3333 6.06630E+01 2.42390E+01 0.00000E+00
 -1      3334 6.16935E+01 2.40735E+01 0.00000E+00
 -1      3335 6.03225E+01 2.32932E+01 0.00000E+00
 -1      3336 4.35106E+01 2.26169E+01 0.00000E+00
 -1      3337 1.16910E+01 3.30594E+01 0.00000E+00
 -1      3338 1.16910E+01 3.45281E+01 0.00000E+00
 -1      3339 1.38375E+02 1.71347E+01 0.00000E+00
 -1      3340 1.38440E+02 1.58943E+01 0.00000E+00
 -1      3341 1.37076E+02 1.78597E+01 0.00000E+00
 -1      3342 1.16910E+01 3.01094E+01 0.00000E+00
 -1      3343 1.16910E+01 3.15844E+01 0.00000E+00
 -1      3344 1.29900E+01 3.23187E+01 0.00000E+00
 -1      3345 1.97850E+01 1.05013E+01 0.00000E+00
 -1      3346 1.82850E+01 1.05013E+01 0.00000E+00
 -1      3347 2.05350E+01 1.18003E+01 0.00000E+00
 -1      3348 2.65350E+01 1.18003E+01 0.00000E+00
 -1      3349 1.15658E+01 3.85855E+01 0.00000E+00
 -1      3350 1.16910E+01 2.42313E+01 0.00000E+00
 -1      3351 1.16910E+01 2.57000E+01 0.00000E+00
 -1      3352 1.29900E+01 2.34937E+01 0.00000E+00
 -1      3353 1.38242E+02 3.65486E+01 0.00000E+00
 -1      3354 1.16910E+01 1.83469E+01 0.00000E+00
 -1      3355 1.16910E+01 1.98156E+01 0.00000E+00
 -1      3356 1.29900E+01 2.05531E+01 0.00000E+00
 -1      3357 1.29900E+01 1.76094E+01 0.00000E+00
 -1      3358 1.66160E+01 1.04247E+01 0.00000E+00
 -1      3359 1.50083E+01 1.02817E+01 0.00000E+00
 -1      3360 1.36943E+02 3.58236E+01 0.00000E+00
 -1      3361 1.73660E+01 1.17237E+01 0.00000E+00
 -1      3362 1.43435E+01 1.09485E+01 0.00000E+00
 -1      3363 4.82850E+01 1.30992E+01 0.00000E+00
 -1      3364 4.67850E+01 1.30992E+01 0.00000E+00
 -1      3365 4.52850E+01 1.30992E+01 0.00000E+00
 -1      3366 4.37850E+01 1.30992E+01 0.00000E+00
 -1      3367 4.60350E+01 1.43982E+01 0.00000E+00
 -1      3368 1.71750E+01 3.57110E+01 0.00000E+00
 -1      3369 1.86750E+01 3.57110E+01 0.00000E+00
 -1      3370 2.01750E+01 3.57110E+01 0.00000E+00
 -1      3371 2.16750E+01 3.57110E+01 0.00000E+00
 -1      3372 1.94250E+01 3.44120E+01 0.00000E+00
 -1      3373 2.31750E+01 3.57110E+01 0.00000E+00
 -1      3374 2.46750E+01 3.57110E+01 0.00000E+00
 -1      3375 2.24250E+01 3.44120E+01 0.00000E+00
 -1      3376 2.61750E+01 3.57110E+01 0.00000E+00
 -1      3377 2.76750E+01 3.57110E+01 0.00000E+00
 -1      3378 2.54250E+01 3.44120E+01 0.00000E+00
 -1      3379 2.91000E+01 3.57110E+01 0.00000E+00
 -1      3380 3.05250E+01 3.57110E+01 0.00000E+00
 -1      3381 2.83500E+01 3.44120E+01 0.00000E+00
 -1      3382 3.20250E+01 3.57110E+01 0.00000E+00
 -1      3383 3.35250E+01 3.57110E+01 0.00000E+00
 -1      3384 3.12750E+01 3.44120E+01 0.00000E+00
 -1      3385 7.50750E+01 3.64983E+01 0.00000E+00
 -1      3386 7.65750E+01 3.64983E+01 0.00000E+00
 -1      3387 7.80750E+01 3.64983E+01 0.00000E+00
 -1      3388 7.95750E+01 3.64983E+01 0.00000E+00
 -1      3389 7.73250E+01 3.51993E+01 0.00000E+00
 -1      3390 8.10750E+01 3.64983E+01 0.00000E+00
 -1      3391 8.25750E+01 3.64983E+01 0.00000E+00
 -1      3392 8.03250E+01 3.51993E+01 0.00000E+00
 -1      3393 8.40750E+01 3.64983E+01 0.00000E+00
 -1      3394 8.55750E+01 3.64983E+01 0.00000E+00
 -1      3395 8.33250E+01 3.51993E+01 0.00000E+00
 -1      3396 8.70000E+01 3.64983E+01 0.00000E+00
 -1      3397 8.84250E+01 3.64983E+01 0.00000E+00
 -1      3398 8.62500E+01 3.51993E+01 0.00000E+00
 -1      3399 8.99250E+01 3.64983E+01 0.00000E+00
 -1      3400 9.14250E+01 3.64983E+01 0.00000E+00
 -1      3401 8.91750E+01 3.51993E+01 0.00000E+00
 -1      3402 9.29250E+01 3.64983E+01 0.00000E+00
 -1      3403 9.44250E+01 3.64983E+01 0.00000E+00
 -1      3404 9.21750E+01 3.51993E+01 0.00000E+00
 -1      3405 9.59250E+01 3.64983E+01 0.00000E+00
 -1      3406 9.74250E+01 3.64983E+01 0.00000E+00
 -1      3407 9.51750E+01 3.51993E+01 0.00000E+00
 -1      3408 9.89250E+01 3.64983E+01 0.00000E+00
 -1      3409 1.00425E+02 3.64983E+01 0.00000E+00
 -1      3410 9.81750E+01 3.51993E+01 0.00000E+00
 -1      3411 1.01925E+02 3.64983E+01 0.00000E+00
 -1      3412 1.03425E+02 3.64983E+01 0.00000E+00
 -1      3413 1.01175E+02 3.51993E+01 0.00000E+00
 -1      3414 1.04850E+02 3.64983E+01 0.00000E+00
 -1      3415 1.06275E+02 3.64983E+01 0.00000E+00
 -1      3416 1.04100E+02 3.51993E+01 0.00000E+00
 -1      3417 1.07775E+02 3.64983E+01 0.00000E+00
 -1      3418 1.09275E+02 3.64983E+01 0.00000E+00
 -1      3419 1.07025E+02 3.51993E+01 0.00000E+00
 -1      3420 1.10775E+02 3.64983E+01 0.00000E+00
 -1      3421 1.12275E+02 3.64983E+01 0.00000E+00
 -1      3422 1.10025E+02 3.51993E+01 0.00000E+00
 -1      3423 1.13775E+02 3.64983E+01 0.00000E+00
 -1      3424 1.15275E+02 3.64983E+01 0.00000E+00
 -1      3425 1.13025E+02 3.51993E+01 0.00000E+00
 -1      3426 1.16775E+02 3.64983E+01 0.00000E+00
 -1      3427 1.18275E+02 3.64983E+01 0.00000E+00
 -1      3428 1.16025E+02 3.51993E+01 0.00000E+00
 -1      3429 1.19775E+02 3.64983E+01 0.00000E+00
 -1      3430 1.21275E+02 3.64983E+01 0.00000E+00
 -1      3431 1.19025E+02 3.51993E+01 0.00000E+00
 -1      3432 1.22700E+02 3.64983E+01 0.00000E+00
 -1      3433 1.24125E+02 3.64983E+01 0.00000E+00
 -1      3434 1.21950E+02 3.51993E+01 0.00000E+00
 -1      3435 1.25625E+02 3.64983E+01 0.00000E+00
 -1      3436 1.27125E+02 3.64983E+01 0.00000E+00
 -1      3437 1.24875E+02 3.51993E+01 0.00000E+00
 -1      3438 1.28625E+02 3.64983E+01 0.00000E+00
 -1      3439 1.30125E+02 3.64983E+01 0.00000E+00
 -1      3440 1.27875E+02 3.51993E+01 0.00000E+00
 -1      3441 1.31625E+02 3.64983E+01 0.00000E+00
 -1      3442 1.33125E+02 3.64983E+01 0.00000E+00
 -1      3443 1.30875E+02 3.51993E+01 0.00000E+00
 -1      3444 1.34284E+02 3.61610E+01 0.00000E+00
 -1      3445 1.35784E+02 3.61610E+01 0.00000E+00
 -1      3446 1.35851E+02 3.41873E+01 0.00000E+00
 -1      3447 1.33534E+02 3.48620E+01 0.00000E+00
 -1      3448 4.22850E+01 1.30992E+01 0.00000E+00
 -1      3449 4.07850E+01 1.30992E+01 0.00000E+00
 -1      3450 4.30350E+01 1.43982E+01 0.00000E+00
 -1      3451 5.12850E+01 1.30992E+01 0.00000E+00
 -1      3452 4.97850E+01 1.30992E+01 0.00000E+00
 -1      3453 4.90350E+01 1.43982E+01 0.00000E+00
 -1      3454 5.42850E+01 1.30992E+01 0.00000E+00
 -1      3455 5.27850E+01 1.30992E+01 0.00000E+00
 -1      3456 5.20350E+01 1.43982E+01 0.00000E+00
 -1      3457 5.72850E+01 1.30992E+01 0.00000E+00
 -1      3458 5.57850E+01 1.30992E+01 0.00000E+00
 -1      3459 5.50350E+01 1.43982E+01 0.00000E+00
 -1      3460 6.02850E+01 1.30992E+01 0.00000E+00
 -1      3461 5.87850E+01 1.30992E+01 0.00000E+00
 -1      3462 5.80350E+01 1.43982E+01 0.00000E+00
 -1      3463 6.32850E+01 1.30992E+01 0.00000E+00
 -1      3464 6.17850E+01 1.30992E+01 0.00000E+00
 -1      3465 6.10350E+01 1.43982E+01 0.00000E+00
 -1      3466 6.62850E+01 1.30992E+01 0.00000E+00
 -1      3467 6.47850E+01 1.30992E+01 0.00000E+00
 -1      3468 6.40350E+01 1.43982E+01 0.00000E+00
 -1      3469 6.92850E+01 1.30992E+01 0.00000E+00
 -1      3470 6.77850E+01 1.30992E+01 0.00000E+00
 -1      3471 6.70350E+01 1.43982E+01 0.00000E+00
 -1      3472 7.22850E+01 1.30992E+01 0.00000E+00
 -1      3473 7.07850E+01 1.30992E+01 0.00000E+00
 -1      3474 7.00350E+01 1.43982E+01 0.00000E+00
 -1      3475 7.52850E+01 1.30992E+01 0.00000E+00
 -1      3476 7.37850E+01 1.30992E+01 0.00000E+00
 -1      3477 7.30350E+01 1.43982E+01 0.00000E+00
 -1      3478 7.82850E+01 1.30992E+01 0.00000E+00
 -1      3479 7.67850E+01 1.30992E+01 0.00000E+00
 -1      3480 7.60350E+01 1.43982E+01 0.00000E+00
 -1      3481 8.12850E+01 1.30992E+01 0.00000E+00
 -1      3482 7.97850E+01 1.30992E+01 0.00000E+00
 -1      3483 7.90350E+01 1.43982E+01 0.00000E+00
 -1      3484 8.42850E+01 1.30992E+01 0.00000E+00
 -1      3485 8.27850E+01 1.30992E+01 0.00000E+00
 -1      3486 8.20350E+01 1.43982E+01 0.00000E+00
 -1      3487 8.72850E+01 1.30992E+01 0.00000E+00
 -1      3488 8.57850E+01 1.30992E+01 0.00000E+00
 -1      3489 8.50350E+01 1.43982E+01 0.00000E+00
 -1      3490 9.02850E+01 1.30992E+01 0.00000E+00
 -1      3491 8.87850E+01 1.30992E+01 0.00000E+00
 -1      3492 8.80350E+01 1.43982E+01 0.00000E+00
 -1      3493 9.32850E+01 1.30992E+01 0.00000E+00
 -1      3494 9.17850E+01 1.30992E+01 0.00000E+00
 -1      3495 9.10350E+01 1.43982E+01 0.00000E+00
 -1      3496 9.62850E+01 1.30992E+01 0.00000E+00
 -1      3497 9.47850E+01 1.30992E+01 0.00000E+00
 -1      3498 9.40350E+01 1.43982E+01 0.00000E+00
 -1      3499 9.92850E+01 1.30992E+01 0.00000E+00
 -1      3500 9.77850E+01 1.30992E+01 0.00000E+00
 -1      3501 9.70350E+01 1.43982E+01 0.00000E+00
 -1      3502 1.02285E+02 1.30992E+01 0.00000E+00
 -1      3503 1.00785E+02 1.30992E+01 0.00000E+00
 -1      3504 1.00035E+02 1.43982E+01 0.00000E+00
 -1      3505 1.05285E+02 1.30992E+01 0.00000E+00
 -1      3506 1.03785E+02 1.30992E+01 0.00000E+00
 -1      3507 1.03035E+02 1.43982E+01 0.00000E+00
 -1      3508 1.08285E+02 1.30992E+01 0.00000E+00
 -1      3509 1.06785E+02 1.30992E+01 0.00000E+00
 -1      3510 1.06035E+02 1.43982E+01 0.00000E+00
 -1      3511 1.11285E+02 1.30992E+01 0.00000E+00
 -1      3512 1.09785E+02 1.30992E+01 0.00000E+00
 -1      3513 1.09035E+02 1.43982E+01 0.00000E+00
 -1      3514 1.14285E+02 1.30992E+01 0.00000E+00
 -1      3515 1.12785E+02 1.30992E+01 0.00000E+00
 -1      3516 1.12035E+02 1.43982E+01 0.00000E+00
 -1      3517 1.17285E+02 1.30992E+01 0.00000E+00
 -1      3518 1.15785E+02 1.30992E+01 0.00000E+00
 -1      3519 1.15035E+02 1.43982E+01 0.00000E+00
 -1      3520 1.20285E+02 1.30992E+01 0.00000E+00
 -1      3521 1.18785E+02 1.30992E+01 0.00000E+00
 -1      3522 1.18035E+02 1.43982E+01 0.00000E+00
 -1      3523 1.23285E+02 1.30992E+01 0.00000E+00
 -1      3524 1.21785E+02 1.30992E+01 0.00000E+00
 -1      3525 1.21035E+02 1.43982E+01 0.00000E+00
 -1      3526 1.26285E+02 1.30992E+01 0.00000E+00
 -1      3527 1.24785E+02 1.30992E+01 0.00000E+00
 -1      3528 1.24035E+02 1.43982E+01 0.00000E+00
 -1      3529 1.29285E+02 1.30992E+01 0.00000E+00
 -1      3530 1.27785E+02 1.30992E+01 0.00000E+00
 -1      3531 1.27035E+02 1.43982E+01 0.00000E+00
 -1      3532 1.32285E+02 1.30992E+01 0.00000E+00
 -1      3533 1.30785E+02 1.30992E+01 0.00000E+00
 -1      3534 1.30035E+02 1.43982E+01 0.00000E+00
 -1      3535 1.35285E+02 1.30992E+01 0.00000E+00
 -1      3536 1.33785E+02 1.30992E+01 0.00000E+00
 -1      3537 1.33035E+02 1.43982E+01 0.00000E+00
 -1      3538 1.35711E+02 3.01625E+01 0.00000E+00
 -1      3539 1.35711E+02 2.86875E+01 0.00000E+00
 -1      3540 1.35711E+02 2.72125E+01 0.00000E+00
 -1      3541 1.35711E+02 2.57375E+01 0.00000E+00
 -1      3542 1.34412E+02 2.79500E+01 0.00000E+00
 -1      3543 4.49395E+01 1.99760E+01 0.00000E+00
 -1      3544 4.63844E+01 1.95736E+01 0.00000E+00
 -1      3545 5.55838E+01 1.99981E+01 0.00000E+00
 -1      3546 5.67174E+01 2.10779E+01 0.00000E+00
 -1      3547 7.20750E+01 3.64983E+01 0.00000E+00
 -1      3548 7.35750E+01 3.64983E+01 0.00000E+00
 -1      3549 7.43250E+01 3.51993E+01 0.00000E+00
 -1      3550 6.50153E+01 2.80696E+01 0.00000E+00
 -1      3551 6.53496E+01 2.96366E+01 0.00000E+00
 -1      3552 1.81410E+01 1.30596E+01 0.00000E+00
 -1      3553 1.64720E+01 1.29830E+01 0.00000E+00
 -1      3554 1.43435E+01 1.24235E+01 0.00000E+00
 -1      3555 1.35945E+01 3.54338E+01 0.00000E+00
 -1      3556 1.22955E+01 3.61682E+01 0.00000E+00
 -1      3557 3.81436E+01 2.82529E+01 0.00000E+00
 -1      3558 3.84315E+01 2.70132E+01 0.00000E+00
 -1      3559 3.02850E+01 1.30992E+01 0.00000E+00
 -1      3560 2.87850E+01 1.30992E+01 0.00000E+00
 -1      3561 1.23158E+01 3.72865E+01 0.00000E+00
 -1      3562 2.72850E+01 1.30992E+01 0.00000E+00
 -1      3563 2.57850E+01 1.30992E+01 0.00000E+00
 -1      3564 2.80350E+01 1.43982E+01 0.00000E+00
 -1      3565 1.16910E+01 2.71719E+01 0.00000E+00
 -1      3566 1.16910E+01 2.86406E+01 0.00000E+00
 -1      3567 1.29900E+01 2.93750E+01 0.00000E+00
 -1      3568 3.32850E+01 1.30992E+01 0.00000E+00
 -1      3569 3.17850E+01 1.30992E+01 0.00000E+00
 -1      3570 3.10350E+01 1.43982E+01 0.00000E+00
 -1      3571 6.92250E+01 3.64983E+01 0.00000E+00
 -1      3572 7.06500E+01 3.64983E+01 0.00000E+00
 -1      3573 7.14000E+01 3.51993E+01 0.00000E+00
 -1      3574 4.20849E+01 2.24407E+01 0.00000E+00
 -1      3575 4.31339E+01 2.12307E+01 0.00000E+00
 -1      3576 1.35781E+02 3.29124E+01 0.00000E+00
 -1      3577 1.35781E+02 3.14374E+01 0.00000E+00
 -1      3578 1.34482E+02 3.06999E+01 0.00000E+00
 -1      3579 1.34622E+02 3.32497E+01 0.00000E+00
 -1      3580 4.79220E+01 1.93056E+01 0.00000E+00
 -1      3581 4.94597E+01 1.90376E+01 0.00000E+00
 -1      3582 4.68571E+01 1.82772E+01 0.00000E+00
 -1      3583 1.38643E+02 1.48006E+01 0.00000E+00
 -1      3584 1.38709E+02 1.35603E+01 0.00000E+00
 -1      3585 1.37750E+02 1.33382E+01 0.00000E+00
 -1      3586 1.37344E+02 1.55256E+01 0.00000E+00
 -1      3587 6.33147E+01 2.50348E+01 0.00000E+00
 -1      3588 6.42206E+01 2.62752E+01 0.00000E+00
 -1      3589 1.54078E+01 1.34376E+01 0.00000E+00
 -1      3590 1.40542E+01 1.42141E+01 0.00000E+00
 -1      3591 1.40542E+01 1.56829E+01 0.00000E+00
 -1      3592 1.61827E+01 1.47736E+01 0.00000E+00
 -1      3593 5.04950E+01 1.82518E+01 0.00000E+00
 -1      3594 2.42850E+01 1.30992E+01 0.00000E+00
 -1      3595 2.27850E+01 1.30992E+01 0.00000E+00
 -1      3596 2.50350E+01 1.43982E+01 0.00000E+00
 -1      3597 5.77905E+01 2.07707E+01 0.00000E+00
 -1      3598 1.60620E+01 3.57429E+01 0.00000E+00
 -1      3599 1.68120E+01 3.44439E+01 0.00000E+00
 -1      3600 1.49490E+01 3.57749E+01 0.00000E+00
 -1      3601 3.44817E+01 3.41212E+01 0.00000E+00
 -1      3602 3.52317E+01 3.54202E+01 0.00000E+00
 -1      3603 6.61485E+01 3.02891E+01 0.00000E+00
 -1      3604 6.64470E+01 3.47276E+01 0.00000E+00
 -1      3605 6.60409E+01 3.60828E+01 0.00000E+00
 -1      3606 3.86307E+01 2.58694E+01 0.00000E+00
 -1      3607 3.88299E+01 2.47255E+01 0.00000E+00
 -1      3608 3.74066E+01 2.62383E+01 0.00000E+00
 -1      3609 4.00350E+01 1.43982E+01 0.00000E+00
 -1      3610 3.92850E+01 1.30992E+01 0.00000E+00
 -1      3611 3.77850E+01 1.30992E+01 0.00000E+00
 -1      3612 4.08811E+01 2.27055E+01 0.00000E+00
 -1      3613 5.98116E+01 2.15196E+01 0.00000E+00
 -1      3614 6.00670E+01 2.24064E+01 0.00000E+00
 -1      3615 6.10975E+01 2.22409E+01 0.00000E+00
 -1      3616 3.54797E+01 3.27528E+01 0.00000E+00
 -1      3617 3.60331E+01 3.19411E+01 0.00000E+00
 -1      3618 1.35711E+02 2.42625E+01 0.00000E+00
 -1      3619 1.35711E+02 2.27875E+01 0.00000E+00
 -1      3620 1.34412E+02 2.50000E+01 0.00000E+00
 -1      3621 1.36791E+02 1.31161E+01 0.00000E+00
 -1      3622 1.35711E+02 2.13125E+01 0.00000E+00
 -1      3623 1.35711E+02 1.98375E+01 0.00000E+00
 -1      3624 1.34412E+02 2.20500E+01 0.00000E+00
 -1      3625 3.59535E+01 3.10407E+01 0.00000E+00
 -1      3626 1.36041E+02 1.44151E+01 0.00000E+00
 -1      3627 4.35138E+01 1.97998E+01 0.00000E+00
 -1      3628 4.38937E+01 1.83689E+01 0.00000E+00
 -1      3629 4.20881E+01 1.96235E+01 0.00000E+00
 -1      3630 6.53903E+01 2.68448E+01 0.00000E+00
 -1      3631 6.65600E+01 2.74145E+01 0.00000E+00
 -1      3632 6.57652E+01 2.56201E+01 0.00000E+00
 -1      3633 5.38499E+01 1.80316E+01 0.00000E+00
 -1      3634 5.47361E+01 1.88543E+01 0.00000E+00
 -1      3635 1.42890E+01 1.98172E+01 0.00000E+00
 -1      3636 1.42890E+01 2.12891E+01 0.00000E+00
 -1      3637 3.71717E+01 2.88943E+01 0.00000E+00
 -1      3638 1.35777E+02 1.85972E+01 0.00000E+00
 -1      3639 1.35842E+02 1.73568E+01 0.00000E+00
 -1      3640 1.34478E+02 1.93347E+01 0.00000E+00
 -1      3641 1.43445E+01 3.41348E+01 0.00000E+00
 -1      3642 2.12850E+01 1.30992E+01 0.00000E+00
 -1      3643 1.97850E+01 1.30992E+01 0.00000E+00
 -1      3644 2.20350E+01 1.43982E+01 0.00000E+00
 -1      3645 1.88910E+01 1.43586E+01 0.00000E+00
 -1      3646 1.42890E+01 2.27578E+01 0.00000E+00
 -1      3647 1.42890E+01 2.42266E+01 0.00000E+00
 -1      3648 1.55880E+01 2.20219E+01 0.00000E+00
 -1      3649 5.59521E+01 1.87126E+01 0.00000E+00
 -1      3650 3.57290E+01 3.63108E+01 0.00000E+00
 -1      3651 6.68844E+01 3.29088E+01 0.00000E+00
 -1      3652 6.66657E+01 3.38182E+01 0.00000E+00
 -1      3653 6.74382E+01 3.47881E+01 0.00000E+00
 -1      3654 1.29900E+01 2.64344E+01 0.00000E+00
 -1      3655 1.43445E+01 3.11848E+01 0.00000E+00
 -1      3656 1.43445E+01 3.26598E+01 0.00000E+00
 -1      3657 1.56990E+01 3.30009E+01 0.00000E+00
 -1      3658 3.47850E+01 1.30992E+01 0.00000E+00
 -1      3659 3.40350E+01 1.43982E+01 0.00000E+00
 -1      3660 3.62850E+01 1.30992E+01 0.00000E+00
 -1      3661 6.78473E+01 3.67474E+01 0.00000E+00
 -1      3662 6.85973E+01 3.54484E+01 0.00000E+00
 -1      3663 6.26337E+01 2.31433E+01 0.00000E+00
 -1      3664 6.29742E+01 2.40891E+01 0.00000E+00
 -1      3665 6.42550E+01 2.41046E+01 0.00000E+00
 -1      3666 5.30652E+01 1.64463E+01 0.00000E+00
 -1      3667 5.15652E+01 1.64463E+01 0.00000E+00
 -1      3668 4.94649E+01 1.62037E+01 0.00000E+00
 -1      3669 4.79649E+01 1.62037E+01 0.00000E+00
 -1      3670 5.79905E+01 1.95603E+01 0.00000E+00
 -1      3671 5.89811E+01 2.04746E+01 0.00000E+00
 -1      3672 3.37730E+01 3.30435E+01 0.00000E+00
 -1      3673 6.73524E+01 2.94904E+01 0.00000E+00
 -1      3674 6.73158E+01 3.11402E+01 0.00000E+00
 -1      3675 2.16750E+01 3.31130E+01 0.00000E+00
 -1      3676 2.31750E+01 3.31130E+01 0.00000E+00
 -1      3677 2.46750E+01 3.31130E+01 0.00000E+00
 -1      3678 2.61750E+01 3.31130E+01 0.00000E+00
 -1      3679 2.39250E+01 3.18140E+01 0.00000E+00
 -1      3680 2.76000E+01 3.31130E+01 0.00000E+00
 -1      3681 2.90250E+01 3.31130E+01 0.00000E+00
 -1      3682 2.68500E+01 3.18140E+01 0.00000E+00
 -1      3683 3.05250E+01 3.31130E+01 0.00000E+00
 -1      3684 3.20250E+01 3.31130E+01 0.00000E+00
 -1      3685 2.97750E+01 3.18140E+01 0.00000E+00
 -1      3686 6.55671E+01 3.67325E+01 0.00000E+00
 -1      3687 7.95750E+01 3.39003E+01 0.00000E+00
 -1      3688 8.10750E+01 3.39003E+01 0.00000E+00
 -1      3689 8.25750E+01 3.39003E+01 0.00000E+00
 -1      3690 8.40750E+01 3.39003E+01 0.00000E+00
 -1      3691 8.18250E+01 3.26013E+01 0.00000E+00
 -1      3692 8.55000E+01 3.39003E+01 0.00000E+00
 -1      3693 8.69250E+01 3.39003E+01 0.00000E+00
 -1      3694 8.47500E+01 3.26013E+01 0.00000E+00
 -1      3695 8.84250E+01 3.39003E+01 0.00000E+00
 -1      3696 8.99250E+01 3.39003E+01 0.00000E+00
 -1      3697 8.76750E+01 3.26013E+01 0.00000E+00
 -1      3698 9.14250E+01 3.39003E+01 0.00000E+00
 -1      3699 9.29250E+01 3.39003E+01 0.00000E+00
 -1      3700 9.06750E+01 3.26013E+01 0.00000E+00
 -1      3701 9.44250E+01 3.39003E+01 0.00000E+00
 -1      3702 9.59250E+01 3.39003E+01 0.00000E+00
 -1      3703 9.36750E+01 3.26013E+01 0.00000E+00
 -1      3704 9.74250E+01 3.39003E+01 0.00000E+00
 -1      3705 9.89250E+01 3.39003E+01 0.00000E+00
 -1      3706 9.66750E+01 3.26013E+01 0.00000E+00
 -1      3707 1.00425E+02 3.39003E+01 0.00000E+00
 -1      3708 1.01925E+02 3.39003E+01 0.00000E+00
 -1      3709 9.96750E+01 3.26013E+01 0.00000E+00
 -1      3710 1.03350E+02 3.39003E+01 0.00000E+00
 -1      3711 1.04775E+02 3.39003E+01 0.00000E+00
 -1      3712 1.02600E+02 3.26013E+01 0.00000E+00
 -1      3713 1.06275E+02 3.39003E+01 0.00000E+00
 -1      3714 1.07775E+02 3.39003E+01 0.00000E+00
 -1      3715 1.05525E+02 3.26013E+01 0.00000E+00
 -1      3716 1.09275E+02 3.39003E+01 0.00000E+00
 -1      3717 1.10775E+02 3.39003E+01 0.00000E+00
 -1      3718 1.08525E+02 3.26013E+01 0.00000E+00
 -1      3719 1.12275E+02 3.39003E+01 0.00000E+00
 -1      3720 1.13775E+02 3.39003E+01 0.00000E+00
 -1      3721 1.11525E+02 3.26013E+01 0.00000E+00
 -1      3722 1.15275E+02 3.39003E+01 0.00000E+00
 -1      3723 1.16775E+02 3.39003E+01 0.00000E+00
 -1      3724 1.14525E+02 3.26013E+01 0.00000E+00
 -1      3725 1.18275E+02 3.39003E+01 0.00000E+00
 -1      3726 1.19775E+02 3.39003E+01 0.00000E+00
 -1      3727 1.17525E+02 3.26013E+01 0.00000E+00
 -1      3728 1.21200E+02 3.39003E+01 0.00000E+00
 -1      3729 1.22625E+02 3.39003E+01 0.00000E+00
 -1      3730 1.20450E+02 3.26013E+01 0.00000E+00
 -1      3731 1.24125E+02 3.39003E+01 0.00000E+00
 -1      3732 1.25625E+02 3.39003E+01 0.00000E+00
 -1      3733 1.23375E+02 3.26013E+01 0.00000E+00
 -1      3734 1.27125E+02 3.39003E+01 0.00000E+00
 -1      3735 1.28625E+02 3.39003E+01 0.00000E+00
 -1      3736 1.26375E+02 3.26013E+01 0.00000E+00
 -1      3737 1.30125E+02 3.39003E+01 0.00000E+00
 -1      3738 1.31625E+02 3.39003E+01 0.00000E+00
 -1      3739 1.29375E+02 3.26013E+01 0.00000E+00
 -1      3740 1.32544E+02 3.37437E+01 0.00000E+00
 -1      3741 1.33703E+02 3.34064E+01 0.00000E+00
 -1      3742 1.33633E+02 3.21314E+01 0.00000E+00
 -1      3743 1.31794E+02 3.24447E+01 0.00000E+00
 -1      3744 1.33113E+02 2.86875E+01 0.00000E+00
 -1      3745 1.33113E+02 2.72125E+01 0.00000E+00
 -1      3746 1.96817E+01 1.56770E+01 0.00000E+00
 -1      3747 1.80376E+01 1.56374E+01 0.00000E+00
 -1      3748 3.49172E+01 3.05283E+01 0.00000E+00
 -1      3749 3.60997E+01 2.98940E+01 0.00000E+00
 -1      3750 5.58197E+01 1.59836E+01 0.00000E+00
 -1      3751 5.43197E+01 1.59836E+01 0.00000E+00
 -1      3752 6.17850E+01 1.56973E+01 0.00000E+00
 -1      3753 6.02850E+01 1.56973E+01 0.00000E+00
 -1      3754 6.47850E+01 1.56973E+01 0.00000E+00
 -1      3755 6.32850E+01 1.56973E+01 0.00000E+00
 -1      3756 6.25350E+01 1.69963E+01 0.00000E+00
 -1      3757 6.77850E+01 1.56973E+01 0.00000E+00
 -1      3758 6.62850E+01 1.56973E+01 0.00000E+00
 -1      3759 6.55350E+01 1.69963E+01 0.00000E+00
 -1      3760 7.07850E+01 1.56973E+01 0.00000E+00
 -1      3761 6.92850E+01 1.56973E+01 0.00000E+00
 -1      3762 6.85350E+01 1.69963E+01 0.00000E+00
 -1      3763 7.37850E+01 1.56973E+01 0.00000E+00
 -1      3764 7.22850E+01 1.56973E+01 0.00000E+00
 -1      3765 7.15350E+01 1.69963E+01 0.00000E+00
 -1      3766 7.67850E+01 1.56973E+01 0.00000E+00
 -1      3767 7.52850E+01 1.56973E+01 0.00000E+00
 -1      3768 7.45350E+01 1.69963E+01 0.00000E+00
 -1      3769 7.97850E+01 1.56973E+01 0.00000E+00
 -1      3770 7.82850E+01 1.56973E+01 0.00000E+00
 -1      3771 7.75350E+01 1.69963E+01 0.00000E+00
 -1      3772 8.27850E+01 1.56973E+01 0.00000E+00
 -1      3773 8.12850E+01 1.56973E+01 0.00000E+00
 -1      3774 8.05350E+01 1.69963E+01 0.00000E+00
 -1      3775 8.57850E+01 1.56973E+01 0.00000E+00
 -1      3776 8.42850E+01 1.56973E+01 0.00000E+00
 -1      3777 8.35350E+01 1.69963E+01 0.00000E+00
 -1      3778 8.87850E+01 1.56973E+01 0.00000E+00
 -1      3779 8.72850E+01 1.56973E+01 0.00000E+00
 -1      3780 8.65350E+01 1.69963E+01 0.00000E+00
 -1      3781 9.17850E+01 1.56973E+01 0.00000E+00
 -1      3782 9.02850E+01 1.56973E+01 0.00000E+00
 -1      3783 8.95350E+01 1.69963E+01 0.00000E+00
 -1      3784 9.47850E+01 1.56973E+01 0.00000E+00
 -1      3785 9.32850E+01 1.56973E+01 0.00000E+00
 -1      3786 9.25350E+01 1.69963E+01 0.00000E+00
 -1      3787 9.77850E+01 1.56973E+01 0.00000E+00
 -1      3788 9.62850E+01 1.56973E+01 0.00000E+00
 -1      3789 9.55350E+01 1.69963E+01 0.00000E+00
 -1      3790 1.00785E+02 1.56973E+01 0.00000E+00
 -1      3791 9.92850E+01 1.56973E+01 0.00000E+00
 -1      3792 9.85350E+01 1.69963E+01 0.00000E+00
 -1      3793 1.03785E+02 1.56973E+01 0.00000E+00
 -1      3794 1.02285E+02 1.56973E+01 0.00000E+00
 -1      3795 1.01535E+02 1.69963E+01 0.00000E+00
 -1      3796 1.06785E+02 1.56973E+01 0.00000E+00
 -1      3797 1.05285E+02 1.56973E+01 0.00000E+00
 -1      3798 1.04535E+02 1.69963E+01 0.00000E+00
 -1      3799 1.09785E+02 1.56973E+01 0.00000E+00
 -1      3800 1.08285E+02 1.56973E+01 0.00000E+00
 -1      3801 1.07535E+02 1.69963E+01 0.00000E+00
 -1      3802 1.12785E+02 1.56973E+01 0.00000E+00
 -1      3803 1.11285E+02 1.56973E+01 0.00000E+00
 -1      3804 1.10535E+02 1.69963E+01 0.00000E+00
 -1      3805 1.15785E+02 1.56973E+01 0.00000E+00
 -1      3806 1.14285E+02 1.56973E+01 0.00000E+00
 -1      3807 1.13535E+02 1.69963E+01 0.00000E+00
 -1      3808 1.18785E+02 1.56973E+01 0.00000E+00
 -1      3809 1.17285E+02 1.56973E+01 0.00000E+00
 -1      3810 1.16535E+02 1.69963E+01 0.00000E+00
 -1      3811 1.21785E+02 1.56973E+01 0.00000E+00
 -1      3812 1.20285E+02 1.56973E+01 0.00000E+00
 -1      3813 1.19535E+02 1.69963E+01 0.00000E+00
 -1      3814 1.24785E+02 1.56973E+01 0.00000E+00
 -1      3815 1.23285E+02 1.56973E+01 0.00000E+00
 -1      3816 1.22535E+02 1.69963E+01 0.00000E+00
 -1      3817 1.27785E+02 1.56973E+01 0.00000E+00
 -1      3818 1.26285E+02 1.56973E+01 0.00000E+00
 -1      3819 1.25535E+02 1.69963E+01 0.00000E+00
 -1      3820 1.30785E+02 1.56973E+01 0.00000E+00
 -1      3821 1.29285E+02 1.56973E+01 0.00000E+00
 -1      3822 1.28535E+02 1.69963E+01 0.00000E+00
 -1      3823 4.64272E+01 1.64717E+01 0.00000E+00
 -1      3824 7.06875E+01 3.39003E+01 0.00000E+00
 -1      3825 7.21125E+01 3.39003E+01 0.00000E+00
 -1      3826 1.68120E+01 3.29689E+01 0.00000E+00
 -1      3827 7.36125E+01 3.39003E+01 0.00000E+00
 -1      3828 7.51125E+01 3.39003E+01 0.00000E+00
 -1      3829 7.29000E+01 3.26013E+01 0.00000E+00
 -1      3830 5.64812E+01 1.72000E+01 0.00000E+00
 -1      3831 5.73289E+01 1.83438E+01 0.00000E+00
 -1      3832 5.85196E+01 1.80477E+01 0.00000E+00
 -1      3833 5.71965E+01 1.56147E+01 0.00000E+00
 -1      3834 3.61355E+01 2.83819E+01 0.00000E+00
 -1      3835 3.93263E+01 2.29592E+01 0.00000E+00
 -1      3836 4.01534E+01 2.13082E+01 0.00000E+00
 -1      3837 1.35838E+02 1.55088E+01 0.00000E+00
 -1      3838 3.17850E+01 1.56973E+01 0.00000E+00
 -1      3839 3.02850E+01 1.56973E+01 0.00000E+00
 -1      3840 1.43445E+01 2.82473E+01 0.00000E+00
 -1      3841 1.43445E+01 2.97161E+01 0.00000E+00
 -1      3842 1.56990E+01 3.00571E+01 0.00000E+00
 -1      3843 6.88159E+01 3.45390E+01 0.00000E+00
 -1      3844 4.49272E+01 1.64717E+01 0.00000E+00
 -1      3845 1.34539E+02 1.62463E+01 0.00000E+00
 -1      3846 2.87850E+01 1.56973E+01 0.00000E+00
 -1      3847 2.72850E+01 1.56973E+01 0.00000E+00
 -1      3848 2.95350E+01 1.69963E+01 0.00000E+00
 -1      3849 1.41716E+01 1.70141E+01 0.00000E+00
 -1      3850 1.41716E+01 1.84860E+01 0.00000E+00
 -1      3851 1.54706E+01 1.92219E+01 0.00000E+00
 -1      3852 1.52359E+01 1.65594E+01 0.00000E+00
 -1      3853 7.65938E+01 3.39003E+01 0.00000E+00
 -1      3854 7.80938E+01 3.39003E+01 0.00000E+00
 -1      3855 7.88438E+01 3.26013E+01 0.00000E+00
 -1      3856 7.58812E+01 3.26013E+01 0.00000E+00
 -1      3857 1.43167E+01 2.55010E+01 0.00000E+00
 -1      3858 1.43167E+01 2.69729E+01 0.00000E+00
 -1      3859 1.56713E+01 2.73139E+01 0.00000E+00
 -1      3860 1.56158E+01 2.47651E+01 0.00000E+00
 -1      3861 3.30230E+01 3.17445E+01 0.00000E+00
 -1      3862 4.35015E+01 1.62954E+01 0.00000E+00
 -1      3863 4.20015E+01 1.62954E+01 0.00000E+00
 -1      3864 1.86750E+01 3.31130E+01 0.00000E+00
 -1      3865 2.01750E+01 3.31130E+01 0.00000E+00
 -1      3866 2.09250E+01 3.18140E+01 0.00000E+00
 -1      3867 2.57850E+01 1.56973E+01 0.00000E+00
 -1      3868 2.42850E+01 1.56973E+01 0.00000E+00
 -1      3869 2.65350E+01 1.69963E+01 0.00000E+00
 -1      3870 6.00116E+01 2.03092E+01 0.00000E+00
 -1      3871 3.31693E+01 3.05978E+01 0.00000E+00
 -1      3872 3.33155E+01 2.94511E+01 0.00000E+00
 -1      3873 3.14213E+01 3.06673E+01 0.00000E+00
 -1      3874 6.77273E+01 2.82657E+01 0.00000E+00
 -1      3875 6.88947E+01 2.91169E+01 0.00000E+00
 -1      3876 6.81023E+01 2.70409E+01 0.00000E+00
 -1      3877 4.12948E+01 1.79595E+01 0.00000E+00
 -1      3878 4.08283E+01 1.60623E+01 0.00000E+00
 -1      3879 3.93283E+01 1.60623E+01 0.00000E+00
 -1      3880 4.09149E+01 1.93904E+01 0.00000E+00
 -1      3881 3.61320E+01 2.66057E+01 0.00000E+00
 -1      3882 3.63312E+01 2.54618E+01 0.00000E+00
 -1      3883 3.81022E+01 2.33282E+01 0.00000E+00
 -1      3884 3.50600E+01 2.76054E+01 0.00000E+00
 -1      3885 1.33113E+02 2.57375E+01 0.00000E+00
 -1      3886 1.33113E+02 2.42625E+01 0.00000E+00
 -1      3887 1.31814E+02 2.64750E+01 0.00000E+00
 -1      3888 2.11817E+01 1.56770E+01 0.00000E+00
 -1      3889 2.03283E+01 1.69558E+01 0.00000E+00
 -1      3890 2.26817E+01 1.56770E+01 0.00000E+00
 -1      3891 1.69734E+01 1.60920E+01 0.00000E+00
 -1      3892 3.93601E+01 1.96441E+01 0.00000E+00
 -1      3893 6.80883E+01 3.21102E+01 0.00000E+00
 -1      3894 5.94465E+01 1.69137E+01 0.00000E+00
 -1      3895 5.86965E+01 1.56147E+01 0.00000E+00
 -1      3896 1.33785E+02 1.56973E+01 0.00000E+00
 -1      3897 1.32285E+02 1.56973E+01 0.00000E+00
 -1      3898 3.47850E+01 1.56973E+01 0.00000E+00
 -1      3899 3.32850E+01 1.56973E+01 0.00000E+00
 -1      3900 3.25350E+01 1.69963E+01 0.00000E+00
 -1      3901 6.95284E+01 3.32400E+01 0.00000E+00
 -1      3902 1.33113E+02 2.27875E+01 0.00000E+00
 -1      3903 1.33113E+02 2.13125E+01 0.00000E+00
 -1      3904 1.31814E+02 2.35250E+01 0.00000E+00
 -1      3905 1.75620E+01 3.16699E+01 0.00000E+00
 -1      3906 6.57393E+01 2.41876E+01 0.00000E+00
 -1      3907 6.69090E+01 2.47573E+01 0.00000E+00
 -1      3908 1.33179E+02 2.00722E+01 0.00000E+00
 -1      3909 1.33244E+02 1.88318E+01 0.00000E+00
 -1      3910 1.31880E+02 2.08097E+01 0.00000E+00
 -1      3911 3.70350E+01 1.43982E+01 0.00000E+00
 -1      3912 1.31535E+02 1.69963E+01 0.00000E+00
 -1      3913 1.68870E+01 2.12875E+01 0.00000E+00
 -1      3914 1.68870E+01 2.27563E+01 0.00000E+00
 -1      3915 6.23783E+01 2.22565E+01 0.00000E+00
 -1      3916 6.36590E+01 2.22720E+01 0.00000E+00
 -1      3917 6.21228E+01 2.13697E+01 0.00000E+00
 -1      3918 6.53988E+01 2.32418E+01 0.00000E+00
 -1      3919 1.33408E+02 3.10469E+01 0.00000E+00
 -1      3920 1.33338E+02 2.97720E+01 0.00000E+00
 -1      3921 1.32039E+02 2.90345E+01 0.00000E+00
 -1      3922 1.32489E+02 3.12035E+01 0.00000E+00
 -1      3923 1.66522E+01 1.86250E+01 0.00000E+00
 -1      3924 1.67696E+01 1.99563E+01 0.00000E+00
 -1      3925 1.80686E+01 2.06906E+01 0.00000E+00
 -1      3926 2.31750E+01 3.05150E+01 0.00000E+00
 -1      3927 2.46750E+01 3.05150E+01 0.00000E+00
 -1      3928 6.99599E+01 3.14715E+01 0.00000E+00
 -1      3929 2.61000E+01 3.05150E+01 0.00000E+00
 -1      3930 2.75250E+01 3.05150E+01 0.00000E+00
 -1      3931 2.53500E+01 2.92160E+01 0.00000E+00
 -1      3932 2.87231E+01 3.05912E+01 0.00000E+00
 -1      3933 3.02231E+01 3.05912E+01 0.00000E+00
 -1      3934 3.03694E+01 2.94445E+01 0.00000E+00
 -1      3935 2.79731E+01 2.92922E+01 0.00000E+00
 -1      3936 8.10750E+01 3.13023E+01 0.00000E+00
 -1      3937 8.25750E+01 3.13023E+01 0.00000E+00
 -1      3938 3.66034E+01 2.38599E+01 0.00000E+00
 -1      3939 3.70998E+01 2.20936E+01 0.00000E+00
 -1      3940 8.40000E+01 3.13023E+01 0.00000E+00
 -1      3941 8.54250E+01 3.13023E+01 0.00000E+00
 -1      3942 8.32500E+01 3.00033E+01 0.00000E+00
 -1      3943 8.69250E+01 3.13023E+01 0.00000E+00
 -1      3944 8.84250E+01 3.13023E+01 0.00000E+00
 -1      3945 8.61750E+01 3.00033E+01 0.00000E+00
 -1      3946 8.99250E+01 3.13023E+01 0.00000E+00
 -1      3947 9.14250E+01 3.13023E+01 0.00000E+00
 -1      3948 8.91750E+01 3.00033E+01 0.00000E+00
 -1      3949 9.29250E+01 3.13023E+01 0.00000E+00
 -1      3950 9.44250E+01 3.13023E+01 0.00000E+00
 -1      3951 9.21750E+01 3.00033E+01 0.00000E+00
 -1      3952 9.59250E+01 3.13023E+01 0.00000E+00
 -1      3953 9.74250E+01 3.13023E+01 0.00000E+00
 -1      3954 9.51750E+01 3.00033E+01 0.00000E+00
 -1      3955 9.89250E+01 3.13023E+01 0.00000E+00
 -1      3956 1.00425E+02 3.13023E+01 0.00000E+00
 -1      3957 9.81750E+01 3.00033E+01 0.00000E+00
 -1      3958 1.01850E+02 3.13023E+01 0.00000E+00
 -1      3959 1.03275E+02 3.13023E+01 0.00000E+00
 -1      3960 1.01100E+02 3.00033E+01 0.00000E+00
 -1      3961 1.04775E+02 3.13023E+01 0.00000E+00
 -1      3962 1.06275E+02 3.13023E+01 0.00000E+00
 -1      3963 1.04025E+02 3.00033E+01 0.00000E+00
 -1      3964 1.07775E+02 3.13023E+01 0.00000E+00
 -1      3965 1.09275E+02 3.13023E+01 0.00000E+00
 -1      3966 1.07025E+02 3.00033E+01 0.00000E+00
 -1      3967 1.10775E+02 3.13023E+01 0.00000E+00
 -1      3968 1.12275E+02 3.13023E+01 0.00000E+00
 -1      3969 1.10025E+02 3.00033E+01 0.00000E+00
 -1      3970 1.13775E+02 3.13023E+01 0.00000E+00
 -1      3971 1.15275E+02 3.13023E+01 0.00000E+00
 -1      3972 1.13025E+02 3.00033E+01 0.00000E+00
 -1      3973 1.16775E+02 3.13023E+01 0.00000E+00
 -1      3974 1.18275E+02 3.13023E+01 0.00000E+00
 -1      3975 1.16025E+02 3.00033E+01 0.00000E+00
 -1      3976 1.19700E+02 3.13023E+01 0.00000E+00
 -1      3977 1.21125E+02 3.13023E+01 0.00000E+00
 -1      3978 1.18950E+02 3.00033E+01 0.00000E+00
 -1      3979 1.22625E+02 3.13023E+01 0.00000E+00
 -1      3980 1.24125E+02 3.13023E+01 0.00000E+00
 -1      3981 1.21875E+02 3.00033E+01 0.00000E+00
 -1      3982 1.25625E+02 3.13023E+01 0.00000E+00
 -1      3983 1.27125E+02 3.13023E+01 0.00000E+00
 -1      3984 1.24875E+02 3.00033E+01 0.00000E+00
 -1      3985 6.01080E+01 1.81302E+01 0.00000E+00
 -1      3986 6.37193E+01 1.91907E+01 0.00000E+00
 -1      3987 6.22193E+01 1.91907E+01 0.00000E+00
 -1      3988 7.22850E+01 1.82952E+01 0.00000E+00
 -1      3989 7.07850E+01 1.82952E+01 0.00000E+00
 -1      3990 7.52850E+01 1.82952E+01 0.00000E+00
 -1      3991 7.37850E+01 1.82952E+01 0.00000E+00
 -1      3992 7.30350E+01 1.95942E+01 0.00000E+00
 -1      3993 7.82850E+01 1.82952E+01 0.00000E+00
 -1      3994 7.67850E+01 1.82952E+01 0.00000E+00
 -1      3995 7.60350E+01 1.95942E+01 0.00000E+00
 -1      3996 8.12850E+01 1.82952E+01 0.00000E+00
 -1      3997 7.97850E+01 1.82952E+01 0.00000E+00
 -1      3998 7.90350E+01 1.95942E+01 0.00000E+00
 -1      3999 8.42850E+01 1.82952E+01 0.00000E+00
 -1      4000 8.27850E+01 1.82952E+01 0.00000E+00
 -1      4001 8.20350E+01 1.95942E+01 0.00000E+00
 -1      4002 8.72850E+01 1.82952E+01 0.00000E+00
 -1      4003 8.57850E+01 1.82952E+01 0.00000E+00
 -1      4004 8.50350E+01 1.95942E+01 0.00000E+00
 -1      4005 9.02850E+01 1.82952E+01 0.00000E+00
 -1      4006 8.87850E+01 1.82952E+01 0.00000E+00
 -1      4007 8.80350E+01 1.95942E+01 0.00000E+00
 -1      4008 9.32850E+01 1.82952E+01 0.00000E+00
 -1      4009 9.17850E+01 1.82952E+01 0.00000E+00
 -1      4010 9.10350E+01 1.95942E+01 0.00000E+00
 -1      4011 9.62850E+01 1.82952E+01 0.00000E+00
 -1      4012 9.47850E+01 1.82952E+01 0.00000E+00
 -1      4013 9.40350E+01 1.95942E+01 0.00000E+00
 -1      4014 9.92850E+01 1.82952E+01 0.00000E+00
 -1      4015 9.77850E+01 1.82952E+01 0.00000E+00
 -1      4016 9.70350E+01 1.95942E+01 0.00000E+00
 -1      4017 1.02285E+02 1.82952E+01 0.00000E+00
 -1      4018 1.00785E+02 1.82952E+01 0.00000E+00
 -1      4019 1.00035E+02 1.95942E+01 0.00000E+00
 -1      4020 1.05285E+02 1.82952E+01 0.00000E+00
 -1      4021 1.03785E+02 1.82952E+01 0.00000E+00
 -1      4022 1.03035E+02 1.95942E+01 0.00000E+00
 -1      4023 1.08285E+02 1.82952E+01 0.00000E+00
 -1      4024 1.06785E+02 1.82952E+01 0.00000E+00
 -1      4025 1.06035E+02 1.95942E+01 0.00000E+00
 -1      4026 1.11285E+02 1.82952E+01 0.00000E+00
 -1      4027 1.09785E+02 1.82952E+01 0.00000E+00
 -1      4028 1.09035E+02 1.95942E+01 0.00000E+00
 -1      4029 1.14285E+02 1.82952E+01 0.00000E+00
 -1      4030 1.12785E+02 1.82952E+01 0.00000E+00
 -1      4031 1.12035E+02 1.95942E+01 0.00000E+00
 -1      4032 1.17285E+02 1.82952E+01 0.00000E+00
 -1      4033 1.15785E+02 1.82952E+01 0.00000E+00
 -1      4034 1.15035E+02 1.95942E+01 0.00000E+00
 -1      4035 1.20285E+02 1.82952E+01 0.00000E+00
 -1      4036 1.18785E+02 1.82952E+01 0.00000E+00
 -1      4037 1.18035E+02 1.95942E+01 0.00000E+00
 -1      4038 1.23285E+02 1.82952E+01 0.00000E+00
 -1      4039 1.21785E+02 1.82952E+01 0.00000E+00
 -1      4040 1.21035E+02 1.95942E+01 0.00000E+00
 -1      4041 1.26285E+02 1.82952E+01 0.00000E+00
 -1      4042 1.24785E+02 1.82952E+01 0.00000E+00
 -1      4043 1.24035E+02 1.95942E+01 0.00000E+00
 -1      4044 1.29285E+02 1.82952E+01 0.00000E+00
 -1      4045 1.27785E+02 1.82952E+01 0.00000E+00
 -1      4046 1.27035E+02 1.95942E+01 0.00000E+00
 -1      4047 1.82138E+01 2.32963E+01 0.00000E+00
 -1      4048 1.69147E+01 2.40307E+01 0.00000E+00
 -1      4049 1.69425E+01 2.53051E+01 0.00000E+00
 -1      4050 3.53288E+01 2.42272E+01 0.00000E+00
 -1      4051 7.21500E+01 3.13023E+01 0.00000E+00
 -1      4052 7.36500E+01 3.13023E+01 0.00000E+00
 -1      4053 3.33121E+01 2.76749E+01 0.00000E+00
 -1      4054 3.33086E+01 2.58986E+01 0.00000E+00
 -1      4055 3.15641E+01 2.77444E+01 0.00000E+00
 -1      4056 3.02850E+01 1.82952E+01 0.00000E+00
 -1      4057 2.87850E+01 1.82952E+01 0.00000E+00
 -1      4058 1.70908E+01 1.74233E+01 0.00000E+00
 -1      4059 1.75620E+01 2.87324E+01 0.00000E+00
 -1      4060 1.75620E+01 3.02012E+01 0.00000E+00
 -1      4061 1.94250E+01 3.03452E+01 0.00000E+00
 -1      4062 3.86216E+01 1.77263E+01 0.00000E+00
 -1      4063 3.78283E+01 1.60623E+01 0.00000E+00
 -1      4064 3.63283E+01 1.60623E+01 0.00000E+00
 -1      4065 6.92850E+01 1.82952E+01 0.00000E+00
 -1      4066 6.77850E+01 1.82952E+01 0.00000E+00
 -1      4067 7.00350E+01 1.95942E+01 0.00000E+00
 -1      4068 6.65021E+01 1.87430E+01 0.00000E+00
 -1      4069 6.50021E+01 1.87430E+01 0.00000E+00
 -1      4070 6.46864E+01 2.09375E+01 0.00000E+00
 -1      4071 6.72521E+01 2.00420E+01 0.00000E+00
 -1      4072 1.33789E+02 1.75453E+01 0.00000E+00
 -1      4073 1.32490E+02 1.82828E+01 0.00000E+00
 -1      4074 1.30990E+02 1.82828E+01 0.00000E+00
 -1      4075 2.05500E+01 3.04301E+01 0.00000E+00
 -1      4076 2.20500E+01 3.04301E+01 0.00000E+00
 -1      4077 2.28000E+01 2.91311E+01 0.00000E+00
 -1      4078 2.05500E+01 2.89614E+01 0.00000E+00
 -1      4079 3.78601E+01 1.96441E+01 0.00000E+00
 -1      4080 6.81948E+01 2.40175E+01 0.00000E+00
 -1      4081 6.82207E+01 2.54500E+01 0.00000E+00
 -1      4082 7.07099E+01 3.01725E+01 0.00000E+00
 -1      4083 1.83898E+01 1.81576E+01 0.00000E+00
 -1      4084 7.95938E+01 3.13023E+01 0.00000E+00
 -1      4085 8.03438E+01 3.00033E+01 0.00000E+00
 -1      4086 7.81125E+01 3.13023E+01 0.00000E+00
 -1      4087 6.93881E+01 2.63012E+01 0.00000E+00
 -1      4088 7.10848E+01 2.89477E+01 0.00000E+00
 -1      4089 7.43812E+01 3.00033E+01 0.00000E+00
 -1      4090 7.51312E+01 3.13023E+01 0.00000E+00
 -1      4091 7.66125E+01 3.13023E+01 0.00000E+00
 -1      4092 3.63613E+01 2.01758E+01 0.00000E+00
 -1      4093 3.35808E+01 2.42967E+01 0.00000E+00
 -1      4094 3.38531E+01 2.26948E+01 0.00000E+00
 -1      4095 3.18329E+01 2.43662E+01 0.00000E+00
 -1      4096 1.30515E+02 2.72125E+01 0.00000E+00
 -1      4097 1.30515E+02 2.57375E+01 0.00000E+00
 -1      4098 2.34317E+01 1.69760E+01 0.00000E+00
 -1      4099 2.13898E+01 1.81576E+01 0.00000E+00
 -1      4100 1.98898E+01 1.81576E+01 0.00000E+00
 -1      4101 1.94512E+01 1.93594E+01 0.00000E+00
 -1      4102 1.28625E+02 3.13023E+01 0.00000E+00
 -1      4103 1.30125E+02 3.13023E+01 0.00000E+00
 -1      4104 1.31569E+02 3.13602E+01 0.00000E+00
 -1      4105 2.80350E+01 1.95942E+01 0.00000E+00
 -1      4106 2.72850E+01 1.82952E+01 0.00000E+00
 -1      4107 2.57850E+01 1.82952E+01 0.00000E+00
 -1      4108 3.55783E+01 1.73613E+01 0.00000E+00
 -1      4109 1.30240E+02 1.95818E+01 0.00000E+00
 -1      4110 1.94986E+01 2.26308E+01 0.00000E+00
 -1      4111 1.95263E+01 2.39053E+01 0.00000E+00
 -1      4112 3.32850E+01 1.82952E+01 0.00000E+00
 -1      4113 3.17850E+01 1.82952E+01 0.00000E+00
 -1      4114 3.10350E+01 1.95942E+01 0.00000E+00
 -1      4115 1.30515E+02 2.42625E+01 0.00000E+00
 -1      4116 1.30515E+02 2.27875E+01 0.00000E+00
 -1      4117 1.29216E+02 2.50000E+01 0.00000E+00
 -1      4118 1.30174E+02 2.08221E+01 0.00000E+00
 -1      4119 1.30819E+02 3.00612E+01 0.00000E+00
 -1      4120 1.30594E+02 2.89766E+01 0.00000E+00
 -1      4121 1.28876E+02 2.15596E+01 0.00000E+00
 -1      4122 6.12923E+01 2.03247E+01 0.00000E+00
 -1      4123 6.49419E+01 2.18243E+01 0.00000E+00
 -1      4124 1.95686E+01 2.06906E+01 0.00000E+00
 -1      4125 6.64262E+01 2.19073E+01 0.00000E+00
 -1      4126 1.29296E+02 2.82391E+01 0.00000E+00
 -1      4127 1.72384E+01 2.63816E+01 0.00000E+00
 -1      4128 1.72661E+01 2.76560E+01 0.00000E+00
 -1      4129 1.91291E+01 2.78001E+01 0.00000E+00
 -1      4130 1.85374E+01 2.56472E+01 0.00000E+00
 -1      4131 6.74950E+01 2.13210E+01 0.00000E+00
 -1      4132 6.79519E+01 2.27385E+01 0.00000E+00
 -1      4133 6.92636E+01 2.34313E+01 0.00000E+00
 -1      4134 6.87779E+01 2.08733E+01 0.00000E+00
 -1      4135 1.27875E+02 3.00033E+01 0.00000E+00
 -1      4136 2.08812E+01 2.12996E+01 0.00000E+00
 -1      4137 8.25375E+01 2.87043E+01 0.00000E+00
 -1      4138 8.39625E+01 2.87043E+01 0.00000E+00
 -1      4139 2.22144E+01 2.03764E+01 0.00000E+00
 -1      4140 2.21443E+01 2.23165E+01 0.00000E+00
 -1      4141 2.43891E+01 1.82365E+01 0.00000E+00
 -1      4142 2.27857E+01 1.82163E+01 0.00000E+00
 -1      4143 2.23472E+01 1.94181E+01 0.00000E+00
 -1      4144 2.51391E+01 1.95355E+01 0.00000E+00
 -1      4145 8.54625E+01 2.87043E+01 0.00000E+00
 -1      4146 8.69625E+01 2.87043E+01 0.00000E+00
 -1      4147 8.47500E+01 2.74053E+01 0.00000E+00
 -1      4148 8.84625E+01 2.87043E+01 0.00000E+00
 -1      4149 8.99625E+01 2.87043E+01 0.00000E+00
 -1      4150 8.77500E+01 2.74053E+01 0.00000E+00
 -1      4151 9.14625E+01 2.87043E+01 0.00000E+00
 -1      4152 9.29625E+01 2.87043E+01 0.00000E+00
 -1      4153 9.07500E+01 2.74053E+01 0.00000E+00
 -1      4154 9.44625E+01 2.87043E+01 0.00000E+00
 -1      4155 9.59625E+01 2.87043E+01 0.00000E+00
 -1      4156 9.37500E+01 2.74053E+01 0.00000E+00
 -1      4157 9.74625E+01 2.87043E+01 0.00000E+00
 -1      4158 9.89625E+01 2.87043E+01 0.00000E+00
 -1      4159 9.67500E+01 2.74053E+01 0.00000E+00
 -1      4160 1.00387E+02 2.87043E+01 0.00000E+00
 -1      4161 1.01813E+02 2.87043E+01 0.00000E+00
 -1      4162 9.96750E+01 2.74053E+01 0.00000E+00
 -1      4163 1.03313E+02 2.87043E+01 0.00000E+00
 -1      4164 1.04813E+02 2.87043E+01 0.00000E+00
 -1      4165 1.02600E+02 2.74053E+01 0.00000E+00
 -1      4166 1.06313E+02 2.87043E+01 0.00000E+00
 -1      4167 1.07813E+02 2.87043E+01 0.00000E+00
 -1      4168 1.05600E+02 2.74053E+01 0.00000E+00
 -1      4169 1.09313E+02 2.87043E+01 0.00000E+00
 -1      4170 1.10813E+02 2.87043E+01 0.00000E+00
 -1      4171 1.08600E+02 2.74053E+01 0.00000E+00
 -1      4172 1.12313E+02 2.87043E+01 0.00000E+00
 -1      4173 1.13813E+02 2.87043E+01 0.00000E+00
 -1      4174 1.11600E+02 2.74053E+01 0.00000E+00
 -1      4175 1.15313E+02 2.87043E+01 0.00000E+00
 -1      4176 1.16813E+02 2.87043E+01 0.00000E+00
 -1      4177 1.14600E+02 2.74053E+01 0.00000E+00
 -1      4178 1.18238E+02 2.87043E+01 0.00000E+00
 -1      4179 1.19662E+02 2.87043E+01 0.00000E+00
 -1      4180 1.17525E+02 2.74053E+01 0.00000E+00
 -1      4181 1.21162E+02 2.87043E+01 0.00000E+00
 -1      4182 1.22662E+02 2.87043E+01 0.00000E+00
 -1      4183 1.20450E+02 2.74053E+01 0.00000E+00
 -1      4184 1.24162E+02 2.87043E+01 0.00000E+00
 -1      4185 1.25662E+02 2.87043E+01 0.00000E+00
 -1      4186 1.23450E+02 2.74053E+01 0.00000E+00
 -1      4187 7.67850E+01 2.08932E+01 0.00000E+00
 -1      4188 7.52850E+01 2.08932E+01 0.00000E+00
 -1      4189 1.27796E+02 2.82391E+01 0.00000E+00
 -1      4190 7.37850E+01 2.08932E+01 0.00000E+00
 -1      4191 7.22850E+01 2.08932E+01 0.00000E+00
 -1      4192 7.45350E+01 2.21922E+01 0.00000E+00
 -1      4193 8.27850E+01 2.08932E+01 0.00000E+00
 -1      4194 8.12850E+01 2.08932E+01 0.00000E+00
 -1      4195 8.57850E+01 2.08932E+01 0.00000E+00
 -1      4196 8.42850E+01 2.08932E+01 0.00000E+00
 -1      4197 8.35350E+01 2.21922E+01 0.00000E+00
 -1      4198 8.87850E+01 2.08932E+01 0.00000E+00
 -1      4199 8.72850E+01 2.08932E+01 0.00000E+00
 -1      4200 8.65350E+01 2.21922E+01 0.00000E+00
 -1      4201 9.17850E+01 2.08932E+01 0.00000E+00
 -1      4202 9.02850E+01 2.08932E+01 0.00000E+00
 -1      4203 8.95350E+01 2.21922E+01 0.00000E+00
 -1      4204 9.47850E+01 2.08932E+01 0.00000E+00
 -1      4205 9.32850E+01 2.08932E+01 0.00000E+00
 -1      4206 9.25350E+01 2.21922E+01 0.00000E+00
 -1      4207 9.77850E+01 2.08932E+01 0.00000E+00
 -1      4208 9.62850E+01 2.08932E+01 0.00000E+00
 -1      4209 9.55350E+01 2.21922E+01 0.00000E+00
 -1      4210 1.00785E+02 2.08932E+01 0.00000E+00
 -1      4211 9.92850E+01 2.08932E+01 0.00000E+00
 -1      4212 9.85350E+01 2.21922E+01 0.00000E+00
 -1      4213 1.03785E+02 2.08932E+01 0.00000E+00
 -1      4214 1.02285E+02 2.08932E+01 0.00000E+00
 -1      4215 1.01535E+02 2.21922E+01 0.00000E+00
 -1      4216 1.06785E+02 2.08932E+01 0.00000E+00
 -1      4217 1.05285E+02 2.08932E+01 0.00000E+00
 -1      4218 1.04535E+02 2.21922E+01 0.00000E+00
 -1      4219 1.09785E+02 2.08932E+01 0.00000E+00
 -1      4220 1.08285E+02 2.08932E+01 0.00000E+00
 -1      4221 1.07535E+02 2.21922E+01 0.00000E+00
 -1      4222 1.12785E+02 2.08932E+01 0.00000E+00
 -1      4223 1.11285E+02 2.08932E+01 0.00000E+00
 -1      4224 1.10535E+02 2.21922E+01 0.00000E+00
 -1      4225 1.15785E+02 2.08932E+01 0.00000E+00
 -1      4226 1.14285E+02 2.08932E+01 0.00000E+00
 -1      4227 1.13535E+02 2.21922E+01 0.00000E+00
 -1      4228 1.18785E+02 2.08932E+01 0.00000E+00
 -1      4229 1.17285E+02 2.08932E+01 0.00000E+00
 -1      4230 1.16535E+02 2.21922E+01 0.00000E+00
 -1      4231 1.21785E+02 2.08932E+01 0.00000E+00
 -1      4232 1.20285E+02 2.08932E+01 0.00000E+00
 -1      4233 1.19535E+02 2.21922E+01 0.00000E+00
 -1      4234 1.24785E+02 2.08932E+01 0.00000E+00
 -1      4235 1.23285E+02 2.08932E+01 0.00000E+00
 -1      4236 1.22535E+02 2.21922E+01 0.00000E+00
 -1      4237 1.27580E+02 2.12264E+01 0.00000E+00
 -1      4238 1.26080E+02 2.12264E+01 0.00000E+00
 -1      4239 1.25330E+02 2.25254E+01 0.00000E+00
 -1      4240 1.27921E+02 2.31918E+01 0.00000E+00
 -1      4241 3.03659E+01 2.76682E+01 0.00000E+00
 -1      4242 2.11070E+01 2.43162E+01 0.00000E+00
 -1      4243 1.98222E+01 2.49817E+01 0.00000E+00
 -1      4244 2.01181E+01 2.60581E+01 0.00000E+00
 -1      4245 2.46375E+01 2.79170E+01 0.00000E+00
 -1      4246 2.60625E+01 2.79170E+01 0.00000E+00
 -1      4247 7.97850E+01 2.08932E+01 0.00000E+00
 -1      4248 7.82850E+01 2.08932E+01 0.00000E+00
 -1      4249 8.05350E+01 2.21922E+01 0.00000E+00
 -1      4250 7.08303E+01 2.72970E+01 0.00000E+00
 -1      4251 7.26454E+01 2.83526E+01 0.00000E+00
 -1      4252 7.02779E+01 2.08733E+01 0.00000E+00
 -1      4253 7.09487E+01 2.57061E+01 0.00000E+00
 -1      4254 1.27083E+02 2.69401E+01 0.00000E+00
 -1      4255 7.41267E+01 2.83526E+01 0.00000E+00
 -1      4256 7.56079E+01 2.83526E+01 0.00000E+00
 -1      4257 7.38721E+01 2.67019E+01 0.00000E+00
 -1      4258 2.37734E+01 2.24698E+01 0.00000E+00
 -1      4259 2.24402E+01 2.33930E+01 0.00000E+00
 -1      4260 2.27361E+01 2.44694E+01 0.00000E+00
 -1      4261 2.72606E+01 2.79932E+01 0.00000E+00
 -1      4262 2.84588E+01 2.80693E+01 0.00000E+00
 -1      4263 2.65481E+01 2.66942E+01 0.00000E+00
 -1      4264 3.04161E+01 2.49495E+01 0.00000E+00
 -1      4265 3.06883E+01 2.33476E+01 0.00000E+00
 -1      4266 2.36103E+01 2.04351E+01 0.00000E+00
 -1      4267 2.01861E+01 2.69715E+01 0.00000E+00
 -1      4268 2.04820E+01 2.80480E+01 0.00000E+00
 -1      4269 2.16070E+01 2.81328E+01 0.00000E+00
 -1      4270 2.14709E+01 2.63060E+01 0.00000E+00
 -1      4271 7.75350E+01 2.21922E+01 0.00000E+00
 -1      4272 2.96534E+01 2.63692E+01 0.00000E+00
 -1      4273 2.87850E+01 2.08932E+01 0.00000E+00
 -1      4274 2.72850E+01 2.08932E+01 0.00000E+00
 -1      4275 8.10563E+01 2.87043E+01 0.00000E+00
 -1      4276 8.17688E+01 2.74053E+01 0.00000E+00
 -1      4277 7.95750E+01 2.87043E+01 0.00000E+00
 -1      4278 7.04629E+01 2.31481E+01 0.00000E+00
 -1      4279 7.07058E+01 2.44271E+01 0.00000E+00
 -1      4280 7.21480E+01 2.54229E+01 0.00000E+00
 -1      4281 3.23200E+01 2.11793E+01 0.00000E+00
 -1      4282 3.08200E+01 2.11793E+01 0.00000E+00
 -1      4283 1.27917E+02 2.57375E+01 0.00000E+00
 -1      4284 1.27917E+02 2.42625E+01 0.00000E+00
 -1      4285 3.48180E+01 1.98108E+01 0.00000E+00
 -1      4286 2.85089E+01 2.53506E+01 0.00000E+00
 -1      4287 7.73625E+01 3.00033E+01 0.00000E+00
 -1      4288 1.25784E+02 2.62026E+01 0.00000E+00
 -1      4289 2.25597E+01 2.79825E+01 0.00000E+00
 -1      4290 2.36847E+01 2.80674E+01 0.00000E+00
 -1      4291 2.43972E+01 2.67684E+01 0.00000E+00
 -1      4292 2.24917E+01 2.70691E+01 0.00000E+00
 -1      4293 1.26622E+02 2.39293E+01 0.00000E+00
 -1      4294 3.40680E+01 2.11098E+01 0.00000E+00
 -1      4295 7.68415E+01 2.85284E+01 0.00000E+00
 -1      4296 7.83415E+01 2.85284E+01 0.00000E+00
 -1      4297 7.90540E+01 2.72294E+01 0.00000E+00
 -1      4298 7.65869E+01 2.68777E+01 0.00000E+00
 -1      4299 2.45226E+01 2.05235E+01 0.00000E+00
 -1      4300 2.43898E+01 2.14818E+01 0.00000E+00
 -1      4301 2.46857E+01 2.25582E+01 0.00000E+00
 -1      4302 2.59186E+01 2.05822E+01 0.00000E+00
 -1      4303 9.02850E+01 2.34912E+01 0.00000E+00
 -1      4304 8.87850E+01 2.34912E+01 0.00000E+00
 -1      4305 8.40000E+01 2.61063E+01 0.00000E+00
 -1      4306 8.55000E+01 2.61063E+01 0.00000E+00
 -1      4307 1.25323E+02 2.46668E+01 0.00000E+00
 -1      4308 1.25326E+02 2.35961E+01 0.00000E+00
 -1      4309 1.24031E+02 2.32629E+01 0.00000E+00
 -1      4310 8.78925E+01 2.60978E+01 0.00000E+00
 -1      4311 8.93925E+01 2.60978E+01 0.00000E+00
 -1      4312 9.08925E+01 2.60978E+01 0.00000E+00
 -1      4313 9.30000E+01 2.61063E+01 0.00000E+00
 -1      4314 9.45000E+01 2.61063E+01 0.00000E+00
 -1      4315 9.60000E+01 2.61063E+01 0.00000E+00
 -1      4316 9.75000E+01 2.61063E+01 0.00000E+00
 -1      4317 9.52500E+01 2.48073E+01 0.00000E+00
 -1      4318 9.89250E+01 2.61063E+01 0.00000E+00
 -1      4319 1.00350E+02 2.61063E+01 0.00000E+00
 -1      4320 9.81750E+01 2.48073E+01 0.00000E+00
 -1      4321 1.01850E+02 2.61063E+01 0.00000E+00
 -1      4322 1.03350E+02 2.61063E+01 0.00000E+00
 -1      4323 1.01100E+02 2.48073E+01 0.00000E+00
 -1      4324 1.04850E+02 2.61063E+01 0.00000E+00
 -1      4325 1.06350E+02 2.61063E+01 0.00000E+00
 -1      4326 1.04100E+02 2.48073E+01 0.00000E+00
 -1      4327 1.07850E+02 2.61063E+01 0.00000E+00
 -1      4328 1.09350E+02 2.61063E+01 0.00000E+00
 -1      4329 1.07100E+02 2.48073E+01 0.00000E+00
 -1      4330 1.10850E+02 2.61063E+01 0.00000E+00
 -1      4331 1.12350E+02 2.61063E+01 0.00000E+00
 -1      4332 1.10100E+02 2.48073E+01 0.00000E+00
 -1      4333 1.13850E+02 2.61063E+01 0.00000E+00
 -1      4334 1.15350E+02 2.61063E+01 0.00000E+00
 -1      4335 1.13100E+02 2.48073E+01 0.00000E+00
 -1      4336 1.16775E+02 2.61063E+01 0.00000E+00
 -1      4337 1.18200E+02 2.61063E+01 0.00000E+00
 -1      4338 1.16025E+02 2.48073E+01 0.00000E+00
 -1      4339 1.19700E+02 2.61063E+01 0.00000E+00
 -1      4340 1.21200E+02 2.61063E+01 0.00000E+00
 -1      4341 1.18950E+02 2.48073E+01 0.00000E+00
 -1      4342 1.22989E+02 2.58695E+01 0.00000E+00
 -1      4343 1.24489E+02 2.58695E+01 0.00000E+00
 -1      4344 3.00700E+01 2.24783E+01 0.00000E+00
 -1      4345 7.56942E+01 2.44471E+01 0.00000E+00
 -1      4346 7.41942E+01 2.44471E+01 0.00000E+00
 -1      4347 8.63925E+01 2.34998E+01 0.00000E+00
 -1      4348 8.48925E+01 2.34998E+01 0.00000E+00
 -1      4349 8.33925E+01 2.34998E+01 0.00000E+00
 -1      4350 9.38925E+01 2.34998E+01 0.00000E+00
 -1      4351 9.23925E+01 2.34998E+01 0.00000E+00
 -1      4352 9.68925E+01 2.34998E+01 0.00000E+00
 -1      4353 9.53925E+01 2.34998E+01 0.00000E+00
 -1      4354 9.98175E+01 2.34998E+01 0.00000E+00
 -1      4355 9.83175E+01 2.34998E+01 0.00000E+00
 -1      4356 1.02817E+02 2.34998E+01 0.00000E+00
 -1      4357 1.01317E+02 2.34998E+01 0.00000E+00
 -1      4358 1.05817E+02 2.34998E+01 0.00000E+00
 -1      4359 1.04317E+02 2.34998E+01 0.00000E+00
 -1      4360 1.08817E+02 2.34998E+01 0.00000E+00
 -1      4361 1.07317E+02 2.34998E+01 0.00000E+00
 -1      4362 1.11817E+02 2.34998E+01 0.00000E+00
 -1      4363 1.10317E+02 2.34998E+01 0.00000E+00
 -1      4364 1.14817E+02 2.34998E+01 0.00000E+00
 -1      4365 1.13317E+02 2.34998E+01 0.00000E+00
 -1      4366 1.17743E+02 2.34998E+01 0.00000E+00
 -1      4367 1.16243E+02 2.34998E+01 0.00000E+00
 -1      4368 1.20743E+02 2.34998E+01 0.00000E+00
 -1      4369 1.19243E+02 2.34998E+01 0.00000E+00
 -1      4370 1.22531E+02 2.32629E+01 0.00000E+00
 -1      4371 8.12850E+01 2.34912E+01 0.00000E+00
 -1      4372 7.97850E+01 2.34912E+01 0.00000E+00
 -1      4373 2.66686E+01 2.18812E+01 0.00000E+00
 -1      4374 2.59078E+01 2.51583E+01 0.00000E+00
 -1      4375 2.66704E+01 2.37386E+01 0.00000E+00
 -1      4376 7.84277E+01 2.46229E+01 0.00000E+00
 -1      4377 7.69277E+01 2.46229E+01 0.00000E+00
 -1      4378 7.10279E+01 2.21723E+01 0.00000E+00
 -1      4379 9.16425E+01 2.47988E+01 0.00000E+00
 -1      4380 8.18925E+01 2.60978E+01 0.00000E+00
 -1      4381 8.26425E+01 2.47988E+01 0.00000E+00
 -1      4382 2.24237E+01 2.61557E+01 0.00000E+00
 -1      4383 8.71425E+01 2.47988E+01 0.00000E+00
 -1      4384 2.86533E+01 2.30616E+01 0.00000E+00
 -1      4385 8.04112E+01 2.60978E+01 0.00000E+00
 -1      4386 1.22239E+02 2.45705E+01 0.00000E+00
 -1      4387 7.24701E+01 2.31681E+01 0.00000E+00
 -1      4388 2.37569E+01 2.52325E+01 0.00000E+00
 -1      4389 2.47096E+01 2.50821E+01 0.00000E+00
 -1      4390 7.91777E+01 2.59219E+01 0.00000E+00
 -1      4391 2.60521E+01 2.28692E+01 0.00000E+00
 -1      4392 7.36292E+01 2.54229E+01 0.00000E+00
 -3
    3C                          2114                                     1
 -1       165    8    0    1
 -2         6         7        23      1140      1304      1157
 -1       166    8    0    1
 -2         7         8       165      1141      1305      1306
 -1       167    8    0    1
 -2         8         9       166      1142      1307      1308
 -1       168    8    0    1
 -2         8       166       165      1308      1309      1305
 -1       169    8    0    1
 -2         9        10       167      1143      1310      1311
 -1       170    8    0    1
 -2         9       167       166      1311      1312      1307
 -1       171    8    0    1
 -2        10        11       168      1144      1313      1314
 -1       172    8    0    1
 -2        10       168       167      1314      1315      1310
 -1       173    8    0    1
 -2        11        12       169      1145      1316      1317
 -1       174    8    0    1
 -2        11       169       168      1317      1318      1313
 -1       175    8    0    1
 -2        12        13       170      1146      1319      1320
 -1       176    8    0    1
 -2        12       170       169      1320      1321      1316
 -1       177    8    0    1
 -2        13        14       171      1147      1322      1323
 -1       178    8    0    1
 -2        13       171       170      1323      1324      1319
 -1       179    8    0    1
 -2        14        15       172      1148      1325      1326
 -1       180    8    0    1
 -2        14       172       171      1326      1327      1322
 -1       181    8    0    1
 -2        15        16       173      1149      1328      1329
 -1       182    8    0    1
 -2        15       173       172      1329      1330      1325
 -1       183    8    0    1
 -2        16        17       174      1150      1331      1332
 -1       184    8    0    1
 -2        16       174       173      1332      1333      1328
 -1       185    8    0    1
 -2        17        18       175      1151      1334      1335
 -1       186    8    0    1
 -2        17       175       174      1335      1336      1331
 -1       187    8    0    1
 -2        18        19       176      1152      1337      1338
 -1       188    8    0    1
 -2        18       176       175      1338      1339      1334
 -1       189    8    0    1
 -2        19        20       177      1153      1340      1341
 -1       190    8    0    1
 -2        19       177       176      1341      1342      1337
 -1       191    8    0    1
 -2        20        21       178      1154      1343      1344
 -1       192    8    0    1
 -2        20       178       177      1344      1345      1340
 -1       193    8    0    1
 -2        21        22       179      1155      1346      1347
 -1       194    8    0    1
 -2        21       179       178      1347      1348      1343
 -1       195    8    0    1
 -2        22         5       180      1156      1349      1350
 -1       196    8    0    1
 -2       179        22       180      1346      1350      1351
 -1       197    8    0    1
 -2         5        73       180      1208      1352      1349
 -1       198    8    0    1
 -2        24        23       181      1158      1353      1354
 -1       199    8    0    1
 -2        25        24       182      1159      1355      1356
 -1       200    8    0    1
 -2        24       181       182      1354      1357      1355
 -1       201    8    0    1
 -2        26        25       183      1160      1358      1359
 -1       202    8    0    1
 -2        25       182       183      1356      1360      1358
 -1       203    8    0    1
 -2        27        26       184      1161      1361      1362
 -1       204    8    0    1
 -2        26       183       184      1359      1363      1361
 -1       205    8    0    1
 -2        28        27       185      1162      1364      1365
 -1       206    8    0    1
 -2        27       184       185      1362      1366      1364
 -1       207    8    0    1
 -2        29        28       186      1163      1367      1368
 -1       208    8    0    1
 -2        28       185       186      1365      1369      1367
 -1       209    8    0    1
 -2        30        29       187      1164      1370      1371
 -1       210    8    0    1
 -2        29       186       187      1368      1372      1370
 -1       211    8    0    1
 -2        31        30       188      1165      1373      1374
 -1       212    8    0    1
 -2        30       187       188      1371      1375      1373
 -1       213    8    0    1
 -2        32        31       189      1166      1376      1377
 -1       214    8    0    1
 -2        31       188       189      1374      1378      1376
 -1       215    8    0    1
 -2        33        32       190      1167      1379      1380
 -1       216    8    0    1
 -2        32       189       190      1377      1381      1379
 -1       217    8    0    1
 -2        34        33       191      1168      1382      1383
 -1       218    8    0    1
 -2        33       190       191      1380      1384      1382
 -1       219    8    0    1
 -2        35        34       192      1169      1385      1386
 -1       220    8    0    1
 -2        34       191       192      1383      1387      1385
 -1       221    8    0    1
 -2        36        35       193      1170      1388      1389
 -1       222    8    0    1
 -2        35       192       193      1386      1390      1388
 -1       223    8    0    1
 -2        37        36       194      1171      1391      1392
 -1       224    8    0    1
 -2        36       193       194      1389      1393      1391
 -1       225    8    0    1
 -2        38        37       195      1172      1394      1395
 -1       226    8    0    1
 -2        37       194       195      1392      1396      1394
 -1       227    8    0    1
 -2        39        38       196      1173      1397      1398
 -1       228    8    0    1
 -2        38       195       196      1395      1399      1397
 -1       229    8    0    1
 -2        40        39       197      1174      1400      1401
 -1       230    8    0    1
 -2        39       196       197      1398      1402      1400
 -1       231    8    0    1
 -2        41        40       198      1175      1403      1404
 -1       232    8    0    1
 -2        40       197       198      1401      1405      1403
 -1       233    8    0    1
 -2        42        41       199      1176      1406      1407
 -1       234    8    0    1
 -2        41       198       199      1404      1408      1406
 -1       235    8    0    1
 -2        43        42       200      1177      1409      1410
 -1       236    8    0    1
 -2        42       199       200      1407      1411      1409
 -1       237    8    0    1
 -2        44        43       201      1178      1412      1413
 -1       238    8    0    1
 -2        43       200       201      1410      1414      1412
 -1       239    8    0    1
 -2        45        44       202      1179      1415      1416
 -1       240    8    0    1
 -2        44       201       202      1413      1417      1415
 -1       241    8    0    1
 -2        46        45       203      1180      1418      1419
 -1       242    8    0    1
 -2        45       202       203      1416      1420      1418
 -1       243    8    0    1
 -2        47        46       204      1181      1421      1422
 -1       244    8    0    1
 -2        46       203       204      1419      1423      1421
 -1       245    8    0    1
 -2        48        47       205      1182      1424      1425
 -1       246    8    0    1
 -2        47       204       205      1422      1426      1424
 -1       247    8    0    1
 -2        49        48       206      1183      1427      1428
 -1       248    8    0    1
 -2        48       205       206      1425      1429      1427
 -1       249    8    0    1
 -2        50        49       207      1184      1430      1431
 -1       250    8    0    1
 -2        49       206       207      1428      1432      1430
 -1       251    8    0    1
 -2        51        50       208      1185      1433      1434
 -1       252    8    0    1
 -2        50       207       208      1431      1435      1433
 -1       253    8    0    1
 -2        52        51       209      1186      1436      1437
 -1       254    8    0    1
 -2        51       208       209      1434      1438      1436
 -1       255    8    0    1
 -2        53        52       210      1187      1439      1440
 -1       256    8    0    1
 -2        52       209       210      1437      1441      1439
 -1       257    8    0    1
 -2        54        53       211      1188      1442      1443
 -1       258    8    0    1
 -2        53       210       211      1440      1444      1442
 -1       259    8    0    1
 -2        55        54       212      1189      1445      1446
 -1       260    8    0    1
 -2        54       211       212      1443      1447      1445
 -1       261    8    0    1
 -2        56        55       213      1190      1448      1449
 -1       262    8    0    1
 -2        55       212       213      1446      1450      1448
 -1       263    8    0    1
 -2        57        56       214      1191      1451      1452
 -1       264    8    0    1
 -2        56       213       214      1449      1453      1451
 -1       265    8    0    1
 -2        58        57       215      1192      1454      1455
 -1       266    8    0    1
 -2        57       214       215      1452      1456      1454
 -1       267    8    0    1
 -2        59        58       216      1193      1457      1458
 -1       268    8    0    1
 -2        58       215       216      1455      1459      1457
 -1       269    8    0    1
 -2        60        59       217      1194      1460      1461
 -1       270    8    0    1
 -2        59       216       217      1458      1462      1460
 -1       271    8    0    1
 -2        61        60       218      1195      1463      1464
 -1       272    8    0    1
 -2        60       217       218      1461      1465      1463
 -1       273    8    0    1
 -2        62        61       219      1196      1466      1467
 -1       274    8    0    1
 -2        61       218       219      1464      1468      1466
 -1       275    8    0    1
 -2        63        62       220      1197      1469      1470
 -1       276    8    0    1
 -2        62       219       220      1467      1471      1469
 -1       277    8    0    1
 -2        64        63       221      1198      1472      1473
 -1       278    8    0    1
 -2        63       220       221      1470      1474      1472
 -1       279    8    0    1
 -2        65        64       222      1199      1475      1476
 -1       280    8    0    1
 -2        64       221       222      1473      1477      1475
 -1       281    8    0    1
 -2        66        65       223      1200      1478      1479
 -1       282    8    0    1
 -2        65       222       223      1476      1480      1478
 -1       283    8    0    1
 -2        67        66       224      1201      1481      1482
 -1       284    8    0    1
 -2        66       223       224      1479      1483      1481
 -1       285    8    0    1
 -2        68        67       225      1202      1484      1485
 -1       286    8    0    1
 -2        67       224       225      1482      1486      1484
 -1       287    8    0    1
 -2        69        68       226      1203      1487      1488
 -1       288    8    0    1
 -2        68       225       226      1485      1489      1487
 -1       289    8    0    1
 -2        70        69       227      1204      1490      1491
 -1       290    8    0    1
 -2        69       226       227      1488      1492      1490
 -1       291    8    0    1
 -2        71        70       228      1205      1493      1494
 -1       292    8    0    1
 -2        70       227       228      1491      1495      1493
 -1       293    8    0    1
 -2        72        71       229      1206      1496      1497
 -1       294    8    0    1
 -2        71       228       229      1494      1498      1496
 -1       295    8    0    1
 -2         4        72       137      1207      1499      1274
 -1       296    8    0    1
 -2        73        74       230      1209      1500      1501
 -1       297    8    0    1
 -2        73       230       180      1501      1502      1352
 -1       298    8    0    1
 -2        74        75       231      1210      1503      1504
 -1       299    8    0    1
 -2        74       231       230      1504      1505      1500
 -1       300    8    0    1
 -2        75        76       232      1211      1506      1507
 -1       301    8    0    1
 -2        75       232       231      1507      1508      1503
 -1       302    8    0    1
 -2        76        77       233      1212      1509      1510
 -1       303    8    0    1
 -2        76       233       232      1510      1511      1506
 -1       304    8    0    1
 -2        77        78       234      1213      1512      1513
 -1       305    8    0    1
 -2        77       234       233      1513      1514      1509
 -1       306    8    0    1
 -2        78        79       235      1214      1515      1516
 -1       307    8    0    1
 -2        78       235       234      1516      1517      1512
 -1       308    8    0    1
 -2        79        80       236      1215      1518      1519
 -1       309    8    0    1
 -2        79       236       235      1519      1520      1515
 -1       310    8    0    1
 -2        80        81       237      1216      1521      1522
 -1       311    8    0    1
 -2        80       237       236      1522      1523      1518
 -1       312    8    0    1
 -2        81        82       238      1217      1524      1525
 -1       313    8    0    1
 -2        81       238       237      1525      1526      1521
 -1       314    8    0    1
 -2        82        83       239      1218      1527      1528
 -1       315    8    0    1
 -2        82       239       238      1528      1529      1524
 -1       316    8    0    1
 -2        83        84       240      1219      1530      1531
 -1       317    8    0    1
 -2        83       240       239      1531      1532      1527
 -1       318    8    0    1
 -2        84        85       241      1220      1533      1534
 -1       319    8    0    1
 -2        84       241       240      1534      1535      1530
 -1       320    8    0    1
 -2        85        86       242      1221      1536      1537
 -1       321    8    0    1
 -2        85       242       241      1537      1538      1533
 -1       322    8    0    1
 -2        86        87       243      1222      1539      1540
 -1       323    8    0    1
 -2        86       243       242      1540      1541      1536
 -1       324    8    0    1
 -2        87        88       244      1223      1542      1543
 -1       325    8    0    1
 -2        87       244       243      1543      1544      1539
 -1       326    8    0    1
 -2        88        89       245      1224      1545      1546
 -1       327    8    0    1
 -2        88       245       244      1546      1547      1542
 -1       328    8    0    1
 -2        89        90       246      1225      1548      1549
 -1       329    8    0    1
 -2        89       246       245      1549      1550      1545
 -1       330    8    0    1
 -2        90        91       247      1226      1551      1552
 -1       331    8    0    1
 -2        90       247       246      1552      1553      1548
 -1       332    8    0    1
 -2        91        92       248      1227      1554      1555
 -1       333    8    0    1
 -2        91       248       247      1555      1556      1551
 -1       334    8    0    1
 -2        92        93       249      1228      1557      1558
 -1       335    8    0    1
 -2        92       249       248      1558      1559      1554
 -1       336    8    0    1
 -2        93        94       250      1229      1560      1561
 -1       337    8    0    1
 -2        93       250       249      1561      1562      1557
 -1       338    8    0    1
 -2        94        95       251      1230      1563      1564
 -1       339    8    0    1
 -2        94       251       250      1564      1565      1560
 -1       340    8    0    1
 -2        95        96       252      1231      1566      1567
 -1       341    8    0    1
 -2        95       252       251      1567      1568      1563
 -1       342    8    0    1
 -2        96        97       253      1232      1569      1570
 -1       343    8    0    1
 -2        96       253       252      1570      1571      1566
 -1       344    8    0    1
 -2        97        98       254      1233      1572      1573
 -1       345    8    0    1
 -2        97       254       253      1573      1574      1569
 -1       346    8    0    1
 -2        98        99       255      1234      1575      1576
 -1       347    8    0    1
 -2        98       255       254      1576      1577      1572
 -1       348    8    0    1
 -2        99       100       256      1235      1578      1579
 -1       349    8    0    1
 -2        99       256       255      1579      1580      1575
 -1       350    8    0    1
 -2       100       101       257      1236      1581      1582
 -1       351    8    0    1
 -2       100       257       256      1582      1583      1578
 -1       352    8    0    1
 -2       101       102       258      1237      1584      1585
 -1       353    8    0    1
 -2       101       258       257      1585      1586      1581
 -1       354    8    0    1
 -2       102       103       259      1238      1587      1588
 -1       355    8    0    1
 -2       102       259       258      1588      1589      1584
 -1       356    8    0    1
 -2       103       104       260      1239      1590      1591
 -1       357    8    0    1
 -2       103       260       259      1591      1592      1587
 -1       358    8    0    1
 -2       104       105       261      1240      1593      1594
 -1       359    8    0    1
 -2       104       261       260      1594      1595      1590
 -1       360    8    0    1
 -2       105       106       262      1241      1596      1597
 -1       361    8    0    1
 -2       105       262       261      1597      1598      1593
 -1       362    8    0    1
 -2       106       107       263      1242      1599      1600
 -1       363    8    0    1
 -2       106       263       262      1600      1601      1596
 -1       364    8    0    1
 -2       107       108       264      1243      1602      1603
 -1       365    8    0    1
 -2       107       264       263      1603      1604      1599
 -1       366    8    0    1
 -2       108       109       265      1244      1605      1606
 -1       367    8    0    1
 -2       108       265       264      1606      1607      1602
 -1       368    8    0    1
 -2       109       110       266      1245      1608      1609
 -1       369    8    0    1
 -2       109       266       265      1609      1610      1605
 -1       370    8    0    1
 -2       110       111       267      1246      1611      1612
 -1       371    8    0    1
 -2       110       267       266      1612      1613      1608
 -1       372    8    0    1
 -2       111       112       268      1247      1614      1615
 -1       373    8    0    1
 -2       111       268       267      1615      1616      1611
 -1       374    8    0    1
 -2       112       113       269      1248      1617      1618
 -1       375    8    0    1
 -2       112       269       268      1618      1619      1614
 -1       376    8    0    1
 -2       113       114       270      1249      1620      1621
 -1       377    8    0    1
 -2       113       270       269      1621      1622      1617
 -1       378    8    0    1
 -2       114       115       271      1250      1623      1624
 -1       379    8    0    1
 -2       114       271       270      1624      1625      1620
 -1       380    8    0    1
 -2       115       116       272      1251      1626      1627
 -1       381    8    0    1
 -2       115       272       271      1627      1628      1623
 -1       382    8    0    1
 -2       116       117       273      1252      1629      1630
 -1       383    8    0    1
 -2       116       273       272      1630      1631      1626
 -1       384    8    0    1
 -2       117       118       274      1253      1632      1633
 -1       385    8    0    1
 -2       117       274       273      1633      1634      1629
 -1       386    8    0    1
 -2       118       119       275      1254      1635      1636
 -1       387    8    0    1
 -2       118       275       274      1636      1637      1632
 -1       388    8    0    1
 -2       119       120       276      1255      1638      1639
 -1       389    8    0    1
 -2       119       276       275      1639      1640      1635
 -1       390    8    0    1
 -2       120       121       277      1256      1641      1642
 -1       391    8    0    1
 -2       120       277       276      1642      1643      1638
 -1       392    8    0    1
 -2       121         3       122      1257      1258      1644
 -1       393    8    0    1
 -2       122       123       278      1259      1645      1646
 -1       394    8    0    1
 -2       123       124       279      1260      1647      1648
 -1       395    8    0    1
 -2       123       279       278      1648      1649      1645
 -1       396    8    0    1
 -2       124       125       280      1261      1650      1651
 -1       397    8    0    1
 -2       124       280       279      1651      1652      1647
 -1       398    8    0    1
 -2       125       126       281      1262      1653      1654
 -1       399    8    0    1
 -2       125       281       280      1654      1655      1650
 -1       400    8    0    1
 -2       126       127       282      1263      1656      1657
 -1       401    8    0    1
 -2       126       282       281      1657      1658      1653
 -1       402    8    0    1
 -2       127       128       283      1264      1659      1660
 -1       403    8    0    1
 -2       127       283       282      1660      1661      1656
 -1       404    8    0    1
 -2       128       129       284      1265      1662      1663
 -1       405    8    0    1
 -2       128       284       283      1663      1664      1659
 -1       406    8    0    1
 -2       129       130       285      1266      1665      1666
 -1       407    8    0    1
 -2       129       285       284      1666      1667      1662
 -1       408    8    0    1
 -2       130       131       286      1267      1668      1669
 -1       409    8    0    1
 -2       130       286       285      1669      1670      1665
 -1       410    8    0    1
 -2       131       132       287      1268      1671      1672
 -1       411    8    0    1
 -2       131       287       286      1672      1673      1668
 -1       412    8    0    1
 -2       132       133       288      1269      1674      1675
 -1       413    8    0    1
 -2       132       288       287      1675      1676      1671
 -1       414    8    0    1
 -2       133       134       289      1270      1677      1678
 -1       415    8    0    1
 -2       133       289       288      1678      1679      1674
 -1       416    8    0    1
 -2       134       135       290      1271      1680      1681
 -1       417    8    0    1
 -2       134       290       289      1681      1682      1677
 -1       418    8    0    1
 -2       135       136       291      1272      1683      1684
 -1       419    8    0    1
 -2       135       291       290      1684      1685      1680
 -1       420    8    0    1
 -2         2       138       292      1275      1686      1687
 -1       421    8    0    1
 -2       138       139       293      1276      1688      1689
 -1       422    8    0    1
 -2       139       140       294      1277      1690      1691
 -1       423    8    0    1
 -2       140       141       295      1278      1692      1693
 -1       424    8    0    1
 -2       141       142       296      1279      1694      1695
 -1       425    8    0    1
 -2       142       143       297      1280      1696      1697
 -1       426    8    0    1
 -2       143       144       298      1281      1698      1699
 -1       427    8    0    1
 -2       144       145       299      1282      1700      1701
 -1       428    8    0    1
 -2       145       146       300      1283      1702      1703
 -1       429    8    0    1
 -2       146       147       301      1284      1704      1705
 -1       430    8    0    1
 -2       147       148       302      1285      1706      1707
 -1       431    8    0    1
 -2       148       149       303      1286      1708      1709
 -1       432    8    0    1
 -2       149       150       304      1287      1710      1711
 -1       433    8    0    1
 -2       150       151       305      1288      1712      1713
 -1       434    8    0    1
 -2       151       152       306      1289      1714      1715
 -1       435    8    0    1
 -2       152       153       307      1290      1716      1717
 -1       436    8    0    1
 -2       153       154       308      1291      1718      1719
 -1       437    8    0    1
 -2       154       155       309      1292      1720      1721
 -1       438    8    0    1
 -2       155       156       310      1293      1722      1723
 -1       439    8    0    1
 -2       156       157       311      1294      1724      1725
 -1       440    8    0    1
 -2       157       158       312      1295      1726      1727
 -1       441    8    0    1
 -2       158       159       313      1296      1728      1729
 -1       442    8    0    1
 -2       159       160       314      1297      1730      1731
 -1       443    8    0    1
 -2       160       161       315      1298      1732      1733
 -1       444    8    0    1
 -2       161       162       316      1299      1734      1735
 -1       445    8    0    1
 -2       162         1       317      1300      1736      1737
 -1       446    8    0    1
 -2         1       163       318      1301      1738      1739
 -1       447    8    0    1
 -2       163       164       319      1302      1740      1741
 -1       448    8    0    1
 -2       164         2       320      1303      1742      1743
 -1       449    8    0    1
 -2       137        72       229      1499      1497      1744
 -1       450    8    0    1
 -2       293       139       294      1688      1691      1745
 -1       451    8    0    1
 -2       121       122       277      1644      1746      1641
 -1       452    8    0    1
 -2       122       278       277      1646      1747      1746
 -1       453    8    0    1
 -2         2       292       320      1687      1748      1742
 -1       454    8    0    1
 -2       292       138       293      1686      1689      1749
 -1       455    8    0    1
 -2       136       137       321      1273      1750      1751
 -1       456    8    0    1
 -2       136       321       291      1751      1752      1683
 -1       457    8    0    1
 -2       140       295       294      1693      1753      1690
 -1       458    8    0    1
 -2       141       296       295      1695      1754      1692
 -1       459    8    0    1
 -2       142       297       296      1697      1755      1694
 -1       460    8    0    1
 -2       143       298       297      1699      1756      1696
 -1       461    8    0    1
 -2       144       299       298      1701      1757      1698
 -1       462    8    0    1
 -2       145       300       299      1703      1758      1700
 -1       463    8    0    1
 -2       146       301       300      1705      1759      1702
 -1       464    8    0    1
 -2       147       302       301      1707      1760      1704
 -1       465    8    0    1
 -2       148       303       302      1709      1761      1706
 -1       466    8    0    1
 -2       149       304       303      1711      1762      1708
 -1       467    8    0    1
 -2       150       305       304      1713      1763      1710
 -1       468    8    0    1
 -2       151       306       305      1715      1764      1712
 -1       469    8    0    1
 -2       152       307       306      1717      1765      1714
 -1       470    8    0    1
 -2       153       308       307      1719      1766      1716
 -1       471    8    0    1
 -2       154       309       308      1721      1767      1718
 -1       472    8    0    1
 -2       155       310       309      1723      1768      1720
 -1       473    8    0    1
 -2       156       311       310      1725      1769      1722
 -1       474    8    0    1
 -2       157       312       311      1727      1770      1724
 -1       475    8    0    1
 -2       158       313       312      1729      1771      1726
 -1       476    8    0    1
 -2       159       314       313      1731      1772      1728
 -1       477    8    0    1
 -2       160       315       314      1733      1773      1730
 -1       478    8    0    1
 -2       161       316       315      1735      1774      1732
 -1       479    8    0    1
 -2       162       317       316      1737      1775      1734
 -1       480    8    0    1
 -2         1       318       317      1739      1776      1736
 -1       481    8    0    1
 -2       163       319       318      1741      1777      1738
 -1       482    8    0    1
 -2       164       320       319      1743      1778      1740
 -1       483    8    0    1
 -2        23         7       165      1304      1306      1779
 -1       484    8    0    1
 -2       166       167       322      1312      1780      1781
 -1       485    8    0    1
 -2       165       166       323      1309      1782      1783
 -1       486    8    0    1
 -2       166       322       323      1781      1784      1782
 -1       487    8    0    1
 -2       168       169       324      1318      1785      1786
 -1       488    8    0    1
 -2       169       170       325      1321      1787      1788
 -1       489    8    0    1
 -2       169       325       324      1788      1789      1785
 -1       490    8    0    1
 -2       170       171       326      1324      1790      1791
 -1       491    8    0    1
 -2       170       326       325      1791      1792      1787
 -1       492    8    0    1
 -2       171       172       327      1327      1793      1794
 -1       493    8    0    1
 -2       171       327       326      1794      1795      1790
 -1       494    8    0    1
 -2       172       173       328      1330      1796      1797
 -1       495    8    0    1
 -2       172       328       327      1797      1798      1793
 -1       496    8    0    1
 -2       173       174       329      1333      1799      1800
 -1       497    8    0    1
 -2       173       329       328      1800      1801      1796
 -1       498    8    0    1
 -2       174       175       330      1336      1802      1803
 -1       499    8    0    1
 -2       174       330       329      1803      1804      1799
 -1       500    8    0    1
 -2       175       176       331      1339      1805      1806
 -1       501    8    0    1
 -2       175       331       330      1806      1807      1802
 -1       502    8    0    1
 -2       176       177       332      1342      1808      1809
 -1       503    8    0    1
 -2       176       332       331      1809      1810      1805
 -1       504    8    0    1
 -2       177       178       333      1345      1811      1812
 -1       505    8    0    1
 -2       177       333       332      1812      1813      1808
 -1       506    8    0    1
 -2       178       179       334      1348      1814      1815
 -1       507    8    0    1
 -2       178       334       333      1815      1816      1811
 -1       508    8    0    1
 -2       179       180       335      1351      1817      1818
 -1       509    8    0    1
 -2       334       179       335      1814      1818      1819
 -1       510    8    0    1
 -2       180       230       335      1502      1820      1817
 -1       511    8    0    1
 -2       181        23       165      1353      1779      1821
 -1       512    8    0    1
 -2       230       231       336      1505      1822      1823
 -1       513    8    0    1
 -2       230       336       335      1823      1824      1820
 -1       514    8    0    1
 -2       183       182       337      1360      1825      1826
 -1       515    8    0    1
 -2       184       183       338      1363      1827      1828
 -1       516    8    0    1
 -2       183       337       338      1826      1829      1827
 -1       517    8    0    1
 -2       185       184       339      1366      1830      1831
 -1       518    8    0    1
 -2       184       338       339      1828      1832      1830
 -1       519    8    0    1
 -2       186       185       340      1369      1833      1834
 -1       520    8    0    1
 -2       185       339       340      1831      1835      1833
 -1       521    8    0    1
 -2       187       186       341      1372      1836      1837
 -1       522    8    0    1
 -2       186       340       341      1834      1838      1836
 -1       523    8    0    1
 -2       188       187       342      1375      1839      1840
 -1       524    8    0    1
 -2       187       341       342      1837      1841      1839
 -1       525    8    0    1
 -2       189       188       343      1378      1842      1843
 -1       526    8    0    1
 -2       188       342       343      1840      1844      1842
 -1       527    8    0    1
 -2       190       189       344      1381      1845      1846
 -1       528    8    0    1
 -2       189       343       344      1843      1847      1845
 -1       529    8    0    1
 -2       191       190       345      1384      1848      1849
 -1       530    8    0    1
 -2       190       344       345      1846      1850      1848
 -1       531    8    0    1
 -2       192       191       346      1387      1851      1852
 -1       532    8    0    1
 -2       191       345       346      1849      1853      1851
 -1       533    8    0    1
 -2       193       192       347      1390      1854      1855
 -1       534    8    0    1
 -2       192       346       347      1852      1856      1854
 -1       535    8    0    1
 -2       194       193       348      1393      1857      1858
 -1       536    8    0    1
 -2       193       347       348      1855      1859      1857
 -1       537    8    0    1
 -2       195       194       349      1396      1860      1861
 -1       538    8    0    1
 -2       194       348       349      1858      1862      1860
 -1       539    8    0    1
 -2       197       196       350      1402      1863      1864
 -1       540    8    0    1
 -2       198       197       351      1405      1865      1866
 -1       541    8    0    1
 -2       199       198       352      1408      1867      1868
 -1       542    8    0    1
 -2       200       199       353      1411      1869      1870
 -1       543    8    0    1
 -2       199       352       353      1868      1871      1869
 -1       544    8    0    1
 -2       201       200       354      1414      1872      1873
 -1       545    8    0    1
 -2       200       353       354      1870      1874      1872
 -1       546    8    0    1
 -2       202       201       355      1417      1875      1876
 -1       547    8    0    1
 -2       201       354       355      1873      1877      1875
 -1       548    8    0    1
 -2       203       202       356      1420      1878      1879
 -1       549    8    0    1
 -2       202       355       356      1876      1880      1878
 -1       550    8    0    1
 -2       204       203       357      1423      1881      1882
 -1       551    8    0    1
 -2       203       356       357      1879      1883      1881
 -1       552    8    0    1
 -2       205       204       358      1426      1884      1885
 -1       553    8    0    1
 -2       204       357       358      1882      1886      1884
 -1       554    8    0    1
 -2       206       205       359      1429      1887      1888
 -1       555    8    0    1
 -2       205       358       359      1885      1889      1887
 -1       556    8    0    1
 -2       207       206       360      1432      1890      1891
 -1       557    8    0    1
 -2       206       359       360      1888      1892      1890
 -1       558    8    0    1
 -2       208       207       361      1435      1893      1894
 -1       559    8    0    1
 -2       207       360       361      1891      1895      1893
 -1       560    8    0    1
 -2       209       208       362      1438      1896      1897
 -1       561    8    0    1
 -2       208       361       362      1894      1898      1896
 -1       562    8    0    1
 -2       210       209       363      1441      1899      1900
 -1       563    8    0    1
 -2       209       362       363      1897      1901      1899
 -1       564    8    0    1
 -2       211       210       364      1444      1902      1903
 -1       565    8    0    1
 -2       210       363       364      1900      1904      1902
 -1       566    8    0    1
 -2       212       211       365      1447      1905      1906
 -1       567    8    0    1
 -2       211       364       365      1903      1907      1905
 -1       568    8    0    1
 -2       213       212       366      1450      1908      1909
 -1       569    8    0    1
 -2       212       365       366      1906      1910      1908
 -1       570    8    0    1
 -2       214       213       367      1453      1911      1912
 -1       571    8    0    1
 -2       213       366       367      1909      1913      1911
 -1       572    8    0    1
 -2       215       214       368      1456      1914      1915
 -1       573    8    0    1
 -2       214       367       368      1912      1916      1914
 -1       574    8    0    1
 -2       216       215       369      1459      1917      1918
 -1       575    8    0    1
 -2       215       368       369      1915      1919      1917
 -1       576    8    0    1
 -2       217       216       370      1462      1920      1921
 -1       577    8    0    1
 -2       216       369       370      1918      1922      1920
 -1       578    8    0    1
 -2       218       217       371      1465      1923      1924
 -1       579    8    0    1
 -2       217       370       371      1921      1925      1923
 -1       580    8    0    1
 -2       219       218       372      1468      1926      1927
 -1       581    8    0    1
 -2       218       371       372      1924      1928      1926
 -1       582    8    0    1
 -2       220       219       373      1471      1929      1930
 -1       583    8    0    1
 -2       219       372       373      1927      1931      1929
 -1       584    8    0    1
 -2       221       220       374      1474      1932      1933
 -1       585    8    0    1
 -2       220       373       374      1930      1934      1932
 -1       586    8    0    1
 -2       222       221       375      1477      1935      1936
 -1       587    8    0    1
 -2       221       374       375      1933      1937      1935
 -1       588    8    0    1
 -2       223       222       376      1480      1938      1939
 -1       589    8    0    1
 -2       222       375       376      1936      1940      1938
 -1       590    8    0    1
 -2       224       223       377      1483      1941      1942
 -1       591    8    0    1
 -2       223       376       377      1939      1943      1941
 -1       592    8    0    1
 -2       225       224       378      1486      1944      1945
 -1       593    8    0    1
 -2       224       377       378      1942      1946      1944
 -1       594    8    0    1
 -2       226       225       379      1489      1947      1948
 -1       595    8    0    1
 -2       225       378       379      1945      1949      1947
 -1       596    8    0    1
 -2       227       226       380      1492      1950      1951
 -1       597    8    0    1
 -2       226       379       380      1948      1952      1950
 -1       598    8    0    1
 -2       228       227       381      1495      1953      1954
 -1       599    8    0    1
 -2       227       380       381      1951      1955      1953
 -1       600    8    0    1
 -2       229       228       382      1498      1956      1957
 -1       601    8    0    1
 -2       228       381       382      1954      1958      1956
 -1       602    8    0    1
 -2       231       232       383      1508      1959      1960
 -1       603    8    0    1
 -2       231       383       336      1960      1961      1822
 -1       604    8    0    1
 -2       293       294       384      1745      1962      1963
 -1       605    8    0    1
 -2       232       233       385      1511      1964      1965
 -1       606    8    0    1
 -2       232       385       383      1965      1966      1959
 -1       607    8    0    1
 -2       233       234       386      1514      1967      1968
 -1       608    8    0    1
 -2       233       386       385      1968      1969      1964
 -1       609    8    0    1
 -2       234       235       387      1517      1970      1971
 -1       610    8    0    1
 -2       234       387       386      1971      1972      1967
 -1       611    8    0    1
 -2       235       236       388      1520      1973      1974
 -1       612    8    0    1
 -2       235       388       387      1974      1975      1970
 -1       613    8    0    1
 -2       236       237       389      1523      1976      1977
 -1       614    8    0    1
 -2       236       389       388      1977      1978      1973
 -1       615    8    0    1
 -2       237       238       390      1526      1979      1980
 -1       616    8    0    1
 -2       237       390       389      1980      1981      1976
 -1       617    8    0    1
 -2       238       239       391      1529      1982      1983
 -1       618    8    0    1
 -2       238       391       390      1983      1984      1979
 -1       619    8    0    1
 -2       239       240       392      1532      1985      1986
 -1       620    8    0    1
 -2       239       392       391      1986      1987      1982
 -1       621    8    0    1
 -2       240       241       393      1535      1988      1989
 -1       622    8    0    1
 -2       240       393       392      1989      1990      1985
 -1       623    8    0    1
 -2       241       242       394      1538      1991      1992
 -1       624    8    0    1
 -2       241       394       393      1992      1993      1988
 -1       625    8    0    1
 -2       242       243       395      1541      1994      1995
 -1       626    8    0    1
 -2       242       395       394      1995      1996      1991
 -1       627    8    0    1
 -2       243       244       396      1544      1997      1998
 -1       628    8    0    1
 -2       243       396       395      1998      1999      1994
 -1       629    8    0    1
 -2       244       245       397      1547      2000      2001
 -1       630    8    0    1
 -2       244       397       396      2001      2002      1997
 -1       631    8    0    1
 -2       245       246       398      1550      2003      2004
 -1       632    8    0    1
 -2       245       398       397      2004      2005      2000
 -1       633    8    0    1
 -2       246       247       399      1553      2006      2007
 -1       634    8    0    1
 -2       246       399       398      2007      2008      2003
 -1       635    8    0    1
 -2       247       248       400      1556      2009      2010
 -1       636    8    0    1
 -2       247       400       399      2010      2011      2006
 -1       637    8    0    1
 -2       248       249       401      1559      2012      2013
 -1       638    8    0    1
 -2       248       401       400      2013      2014      2009
 -1       639    8    0    1
 -2       249       250       402      1562      2015      2016
 -1       640    8    0    1
 -2       249       402       401      2016      2017      2012
 -1       641    8    0    1
 -2       250       251       403      1565      2018      2019
 -1       642    8    0    1
 -2       250       403       402      2019      2020      2015
 -1       643    8    0    1
 -2       251       252       404      1568      2021      2022
 -1       644    8    0    1
 -2       251       404       403      2022      2023      2018
 -1       645    8    0    1
 -2       252       253       405      1571      2024      2025
 -1       646    8    0    1
 -2       252       405       404      2025      2026      2021
 -1       647    8    0    1
 -2       253       254       406      1574      2027      2028
 -1       648    8    0    1
 -2       253       406       405      2028      2029      2024
 -1       649    8    0    1
 -2       254       255       407      1577      2030      2031
 -1       650    8    0    1
 -2       254       407       406      2031      2032      2027
 -1       651    8    0    1
 -2       255       256       408      1580      2033      2034
 -1       652    8    0    1
 -2       255       408       407      2034      2035      2030
 -1       653    8    0    1
 -2       256       257       409      1583      2036      2037
 -1       654    8    0    1
 -2       256       409       408      2037      2038      2033
 -1       655    8    0    1
 -2       257       258       410      1586      2039      2040
 -1       656    8    0    1
 -2       257       410       409      2040      2041      2036
 -1       657    8    0    1
 -2       258       259       411      1589      2042      2043
 -1       658    8    0    1
 -2       258       411       410      2043      2044      2039
 -1       659    8    0    1
 -2       259       260       412      1592      2045      2046
 -1       660    8    0    1
 -2       259       412       411      2046      2047      2042
 -1       661    8    0    1
 -2       260       261       413      1595      2048      2049
 -1       662    8    0    1
 -2       260       413       412      2049      2050      2045
 -1       663    8    0    1
 -2       261       262       414      1598      2051      2052
 -1       664    8    0    1
 -2       261       414       413      2052      2053      2048
 -1       665    8    0    1
 -2       262       263       415      1601      2054      2055
 -1       666    8    0    1
 -2       262       415       414      2055      2056      2051
 -1       667    8    0    1
 -2       263       264       416      1604      2057      2058
 -1       668    8    0    1
 -2       263       416       415      2058      2059      2054
 -1       669    8    0    1
 -2       264       265       417      1607      2060      2061
 -1       670    8    0    1
 -2       264       417       416      2061      2062      2057
 -1       671    8    0    1
 -2       265       266       418      1610      2063      2064
 -1       672    8    0    1
 -2       265       418       417      2064      2065      2060
 -1       673    8    0    1
 -2       266       267       419      1613      2066      2067
 -1       674    8    0    1
 -2       266       419       418      2067      2068      2063
 -1       675    8    0    1
 -2       267       268       420      1616      2069      2070
 -1       676    8    0    1
 -2       267       420       419      2070      2071      2066
 -1       677    8    0    1
 -2       268       269       421      1619      2072      2073
 -1       678    8    0    1
 -2       268       421       420      2073      2074      2069
 -1       679    8    0    1
 -2       269       270       422      1622      2075      2076
 -1       680    8    0    1
 -2       269       422       421      2076      2077      2072
 -1       681    8    0    1
 -2       270       271       423      1625      2078      2079
 -1       682    8    0    1
 -2       270       423       422      2079      2080      2075
 -1       683    8    0    1
 -2       271       272       424      1628      2081      2082
 -1       684    8    0    1
 -2       271       424       423      2082      2083      2078
 -1       685    8    0    1
 -2       272       273       425      1631      2084      2085
 -1       686    8    0    1
 -2       272       425       424      2085      2086      2081
 -1       687    8    0    1
 -2       273       274       426      1634      2087      2088
 -1       688    8    0    1
 -2       273       426       425      2088      2089      2084
 -1       689    8    0    1
 -2       274       275       427      1637      2090      2091
 -1       690    8    0    1
 -2       274       427       426      2091      2092      2087
 -1       691    8    0    1
 -2       275       276       428      1640      2093      2094
 -1       692    8    0    1
 -2       275       428       427      2094      2095      2090
 -1       693    8    0    1
 -2       276       277       429      1643      2096      2097
 -1       694    8    0    1
 -2       428       276       429      2093      2097      2098
 -1       695    8    0    1
 -2       277       278       429      1747      2099      2096
 -1       696    8    0    1
 -2       280       281       430      1655      2100      2101
 -1       697    8    0    1
 -2       279       280       431      1652      2102      2103
 -1       698    8    0    1
 -2       280       430       431      2101      2104      2102
 -1       699    8    0    1
 -2       278       279       432      1649      2105      2106
 -1       700    8    0    1
 -2       429       278       432      2099      2106      2107
 -1       701    8    0    1
 -2       279       431       432      2103      2108      2105
 -1       702    8    0    1
 -2       281       282       433      1658      2109      2110
 -1       703    8    0    1
 -2       281       433       430      2110      2111      2100
 -1       704    8    0    1
 -2       282       283       434      1661      2112      2113
 -1       705    8    0    1
 -2       282       434       433      2113      2114      2109
 -1       706    8    0    1
 -2       283       284       435      1664      2115      2116
 -1       707    8    0    1
 -2       283       435       434      2116      2117      2112
 -1       708    8    0    1
 -2       284       285       436      1667      2118      2119
 -1       709    8    0    1
 -2       284       436       435      2119      2120      2115
 -1       710    8    0    1
 -2       285       286       437      1670      2121      2122
 -1       711    8    0    1
 -2       285       437       436      2122      2123      2118
 -1       712    8    0    1
 -2       286       287       438      1673      2124      2125
 -1       713    8    0    1
 -2       286       438       437      2125      2126      2121
 -1       714    8    0    1
 -2       287       288       439      1676      2127      2128
 -1       715    8    0    1
 -2       287       439       438      2128      2129      2124
 -1       716    8    0    1
 -2       288       289       440      1679      2130      2131
 -1       717    8    0    1
 -2       288       440       439      2131      2132      2127
 -1       718    8    0    1
 -2       289       290       441      1682      2133      2134
 -1       719    8    0    1
 -2       289       441       440      2134      2135      2130
 -1       720    8    0    1
 -2       290       291       442      1685      2136      2137
 -1       721    8    0    1
 -2       290       442       441      2137      2138      2133
 -1       722    8    0    1
 -2       294       295       443      1753      2139      2140
 -1       723    8    0    1
 -2       294       443       384      2140      2141      1962
 -1       724    8    0    1
 -2       321       137       229      1750      1744      2142
 -1       725    8    0    1
 -2       181       165       323      1821      1783      2143
 -1       726    8    0    1
 -2       320       292       444      1748      2144      2145
 -1       727    8    0    1
 -2       167       168       445      1315      2146      2147
 -1       728    8    0    1
 -2       322       167       445      1780      2147      2148
 -1       729    8    0    1
 -2       168       324       445      1786      2149      2146
 -1       730    8    0    1
 -2       295       296       446      1754      2150      2151
 -1       731    8    0    1
 -2       296       297       447      1755      2152      2153
 -1       732    8    0    1
 -2       297       298       448      1756      2154      2155
 -1       733    8    0    1
 -2       298       299       449      1757      2156      2157
 -1       734    8    0    1
 -2       299       300       450      1758      2158      2159
 -1       735    8    0    1
 -2       299       450       449      2159      2160      2156
 -1       736    8    0    1
 -2       300       301       451      1759      2161      2162
 -1       737    8    0    1
 -2       301       302       452      1760      2163      2164
 -1       738    8    0    1
 -2       302       303       453      1761      2165      2166
 -1       739    8    0    1
 -2       303       304       454      1762      2167      2168
 -1       740    8    0    1
 -2       304       305       455      1763      2169      2170
 -1       741    8    0    1
 -2       305       306       456      1764      2171      2172
 -1       742    8    0    1
 -2       305       456       455      2172      2173      2169
 -1       743    8    0    1
 -2       306       307       457      1765      2174      2175
 -1       744    8    0    1
 -2       307       308       458      1766      2176      2177
 -1       745    8    0    1
 -2       308       309       459      1767      2178      2179
 -1       746    8    0    1
 -2       309       310       460      1768      2180      2181
 -1       747    8    0    1
 -2       310       311       461      1769      2182      2183
 -1       748    8    0    1
 -2       311       312       462      1770      2184      2185
 -1       749    8    0    1
 -2       312       313       350      1771      2186      2187
 -1       750    8    0    1
 -2       313       314       463      1772      2188      2189
 -1       751    8    0    1
 -2       314       315       464      1773      2190      2191
 -1       752    8    0    1
 -2       316       317       465      1775      2192      2193
 -1       753    8    0    1
 -2       317       318       466      1776      2194      2195
 -1       754    8    0    1
 -2       318       319       467      1777      2196      2197
 -1       755    8    0    1
 -2       319       320       468      1778      2198      2199
 -1       756    8    0    1
 -2       292       293       469      1749      2200      2201
 -1       757    8    0    1
 -2       321       229       382      2142      1957      2202
 -1       758    8    0    1
 -2       320       444       468      2145      2203      2198
 -1       759    8    0    1
 -2       195       349       470      1861      2204      2205
 -1       760    8    0    1
 -2       351       197       350      1865      1864      2206
 -1       761    8    0    1
 -2       293       384       469      1963      2207      2200
 -1       762    8    0    1
 -2       337       182       323      1825      2208      2209
 -1       763    8    0    1
 -2       182       181       323      1357      2143      2208
 -1       764    8    0    1
 -2       295       446       443      2151      2210      2139
 -1       765    8    0    1
 -2       350       196       470      1863      2211      2212
 -1       766    8    0    1
 -2       196       195       470      1399      2205      2211
 -1       767    8    0    1
 -2       198       351       352      1866      2213      1867
 -1       768    8    0    1
 -2       300       451       450      2162      2214      2158
 -1       769    8    0    1
 -2       448       298       449      2154      2157      2215
 -1       770    8    0    1
 -2       291       321       382      1752      2202      2216
 -1       771    8    0    1
 -2       444       292       471      2144      2217      2218
 -1       772    8    0    1
 -2       292       469       471      2201      2219      2217
 -1       773    8    0    1
 -2       467       319       468      2196      2199      2220
 -1       774    8    0    1
 -2       466       318       467      2194      2197      2221
 -1       775    8    0    1
 -2       465       317       466      2192      2195      2222
 -1       776    8    0    1
 -2       463       314       464      2188      2191      2223
 -1       777    8    0    1
 -2       461       311       462      2182      2185      2224
 -1       778    8    0    1
 -2       460       310       461      2180      2183      2225
 -1       779    8    0    1
 -2       459       309       460      2178      2181      2226
 -1       780    8    0    1
 -2       458       308       459      2176      2179      2227
 -1       781    8    0    1
 -2       456       306       457      2171      2175      2228
 -1       782    8    0    1
 -2       454       304       455      2167      2170      2229
 -1       783    8    0    1
 -2       453       303       472      2165      2230      2231
 -1       784    8    0    1
 -2       303       454       472      2168      2232      2230
 -1       785    8    0    1
 -2       452       302       453      2163      2166      2233
 -1       786    8    0    1
 -2       446       296       447      2150      2153      2234
 -1       787    8    0    1
 -2       447       297       448      2152      2155      2235
 -1       788    8    0    1
 -2       291       382       442      2216      2236      2136
 -1       789    8    0    1
 -2       451       301       452      2161      2164      2237
 -1       790    8    0    1
 -2       457       307       458      2174      2177      2238
 -1       791    8    0    1
 -2       316       465       473      2193      2239      2240
 -1       792    8    0    1
 -2       315       316       474      1774      2241      2242
 -1       793    8    0    1
 -2       474       316       473      2241      2240      2243
 -1       794    8    0    1
 -2       315       474       464      2242      2244      2190
 -1       795    8    0    1
 -2       325       326       475      1792      2245      2246
 -1       796    8    0    1
 -2       324       325       476      1789      2247      2248
 -1       797    8    0    1
 -2       325       475       476      2246      2249      2247
 -1       798    8    0    1
 -2       327       328       477      1798      2250      2251
 -1       799    8    0    1
 -2       328       329       478      1801      2252      2253
 -1       800    8    0    1
 -2       328       478       477      2253      2254      2250
 -1       801    8    0    1
 -2       329       330       479      1804      2255      2256
 -1       802    8    0    1
 -2       329       479       478      2256      2257      2252
 -1       803    8    0    1
 -2       330       331       480      1807      2258      2259
 -1       804    8    0    1
 -2       330       480       479      2259      2260      2255
 -1       805    8    0    1
 -2       331       332       481      1810      2261      2262
 -1       806    8    0    1
 -2       331       481       480      2262      2263      2258
 -1       807    8    0    1
 -2       332       333       482      1813      2264      2265
 -1       808    8    0    1
 -2       332       482       481      2265      2266      2261
 -1       809    8    0    1
 -2       333       334       483      1816      2267      2268
 -1       810    8    0    1
 -2       333       483       482      2268      2269      2264
 -1       811    8    0    1
 -2       334       335       484      1819      2270      2271
 -1       812    8    0    1
 -2       483       334       484      2267      2271      2272
 -1       813    8    0    1
 -2       335       336       484      1824      2273      2270
 -1       814    8    0    1
 -2       338       337       485      1829      2274      2275
 -1       815    8    0    1
 -2       443       446       486      2210      2276      2277
 -1       816    8    0    1
 -2       469       384       487      2207      2278      2279
 -1       817    8    0    1
 -2       339       338       488      1832      2280      2281
 -1       818    8    0    1
 -2       338       485       488      2275      2282      2280
 -1       819    8    0    1
 -2       340       339       489      1835      2283      2284
 -1       820    8    0    1
 -2       339       488       489      2281      2285      2283
 -1       821    8    0    1
 -2       341       340       490      1838      2286      2287
 -1       822    8    0    1
 -2       340       489       490      2284      2288      2286
 -1       823    8    0    1
 -2       342       341       491      1841      2289      2290
 -1       824    8    0    1
 -2       341       490       491      2287      2291      2289
 -1       825    8    0    1
 -2       343       342       492      1844      2292      2293
 -1       826    8    0    1
 -2       342       491       492      2290      2294      2292
 -1       827    8    0    1
 -2       344       343       493      1847      2295      2296
 -1       828    8    0    1
 -2       343       492       493      2293      2297      2295
 -1       829    8    0    1
 -2       345       344       494      1850      2298      2299
 -1       830    8    0    1
 -2       344       493       494      2296      2300      2298
 -1       831    8    0    1
 -2       346       345       495      1853      2301      2302
 -1       832    8    0    1
 -2       345       494       495      2299      2303      2301
 -1       833    8    0    1
 -2       347       346       496      1856      2304      2305
 -1       834    8    0    1
 -2       346       495       496      2302      2306      2304
 -1       835    8    0    1
 -2       348       347       497      1859      2307      2308
 -1       836    8    0    1
 -2       347       496       497      2305      2309      2307
 -1       837    8    0    1
 -2       468       444       498      2203      2310      2311
 -1       838    8    0    1
 -2       336       383       499      1961      2312      2313
 -1       839    8    0    1
 -2       336       499       484      2313      2314      2273
 -1       840    8    0    1
 -2       355       354       500      1877      2315      2316
 -1       841    8    0    1
 -2       356       355       501      1880      2317      2318
 -1       842    8    0    1
 -2       355       500       501      2316      2319      2317
 -1       843    8    0    1
 -2       357       356       502      1883      2320      2321
 -1       844    8    0    1
 -2       356       501       502      2318      2322      2320
 -1       845    8    0    1
 -2       358       357       503      1886      2323      2324
 -1       846    8    0    1
 -2       357       502       503      2321      2325      2323
 -1       847    8    0    1
 -2       359       358       504      1889      2326      2327
 -1       848    8    0    1
 -2       358       503       504      2324      2328      2326
 -1       849    8    0    1
 -2       360       359       505      1892      2329      2330
 -1       850    8    0    1
 -2       359       504       505      2327      2331      2329
 -1       851    8    0    1
 -2       361       360       506      1895      2332      2333
 -1       852    8    0    1
 -2       360       505       506      2330      2334      2332
 -1       853    8    0    1
 -2       362       361       507      1898      2335      2336
 -1       854    8    0    1
 -2       361       506       507      2333      2337      2335
 -1       855    8    0    1
 -2       363       362       508      1901      2338      2339
 -1       856    8    0    1
 -2       362       507       508      2336      2340      2338
 -1       857    8    0    1
 -2       364       363       509      1904      2341      2342
 -1       858    8    0    1
 -2       363       508       509      2339      2343      2341
 -1       859    8    0    1
 -2       365       364       510      1907      2344      2345
 -1       860    8    0    1
 -2       364       509       510      2342      2346      2344
 -1       861    8    0    1
 -2       366       365       511      1910      2347      2348
 -1       862    8    0    1
 -2       365       510       511      2345      2349      2347
 -1       863    8    0    1
 -2       367       366       512      1913      2350      2351
 -1       864    8    0    1
 -2       366       511       512      2348      2352      2350
 -1       865    8    0    1
 -2       368       367       513      1916      2353      2354
 -1       866    8    0    1
 -2       367       512       513      2351      2355      2353
 -1       867    8    0    1
 -2       369       368       514      1919      2356      2357
 -1       868    8    0    1
 -2       368       513       514      2354      2358      2356
 -1       869    8    0    1
 -2       370       369       515      1922      2359      2360
 -1       870    8    0    1
 -2       369       514       515      2357      2361      2359
 -1       871    8    0    1
 -2       371       370       516      1925      2362      2363
 -1       872    8    0    1
 -2       370       515       516      2360      2364      2362
 -1       873    8    0    1
 -2       372       371       517      1928      2365      2366
 -1       874    8    0    1
 -2       371       516       517      2363      2367      2365
 -1       875    8    0    1
 -2       373       372       518      1931      2368      2369
 -1       876    8    0    1
 -2       372       517       518      2366      2370      2368
 -1       877    8    0    1
 -2       374       373       519      1934      2371      2372
 -1       878    8    0    1
 -2       373       518       519      2369      2373      2371
 -1       879    8    0    1
 -2       375       374       520      1937      2374      2375
 -1       880    8    0    1
 -2       374       519       520      2372      2376      2374
 -1       881    8    0    1
 -2       376       375       521      1940      2377      2378
 -1       882    8    0    1
 -2       375       520       521      2375      2379      2377
 -1       883    8    0    1
 -2       377       376       522      1943      2380      2381
 -1       884    8    0    1
 -2       376       521       522      2378      2382      2380
 -1       885    8    0    1
 -2       378       377       523      1946      2383      2384
 -1       886    8    0    1
 -2       377       522       523      2381      2385      2383
 -1       887    8    0    1
 -2       379       378       524      1949      2386      2387
 -1       888    8    0    1
 -2       378       523       524      2384      2388      2386
 -1       889    8    0    1
 -2       380       379       525      1952      2389      2390
 -1       890    8    0    1
 -2       379       524       525      2387      2391      2389
 -1       891    8    0    1
 -2       381       380       526      1955      2392      2393
 -1       892    8    0    1
 -2       380       525       526      2390      2394      2392
 -1       893    8    0    1
 -2       382       381       527      1958      2395      2396
 -1       894    8    0    1
 -2       442       382       527      2236      2396      2397
 -1       895    8    0    1
 -2       381       526       527      2393      2398      2395
 -1       896    8    0    1
 -2       385       386       528      1969      2399      2400
 -1       897    8    0    1
 -2       383       385       529      1966      2401      2402
 -1       898    8    0    1
 -2       499       383       529      2312      2402      2403
 -1       899    8    0    1
 -2       385       528       529      2400      2404      2401
 -1       900    8    0    1
 -2       387       388       530      1975      2405      2406
 -1       901    8    0    1
 -2       388       389       531      1978      2407      2408
 -1       902    8    0    1
 -2       388       531       530      2408      2409      2405
 -1       903    8    0    1
 -2       389       390       532      1981      2410      2411
 -1       904    8    0    1
 -2       389       532       531      2411      2412      2407
 -1       905    8    0    1
 -2       390       391       533      1984      2413      2414
 -1       906    8    0    1
 -2       390       533       532      2414      2415      2410
 -1       907    8    0    1
 -2       391       392       534      1987      2416      2417
 -1       908    8    0    1
 -2       391       534       533      2417      2418      2413
 -1       909    8    0    1
 -2       392       393       535      1990      2419      2420
 -1       910    8    0    1
 -2       392       535       534      2420      2421      2416
 -1       911    8    0    1
 -2       393       394       536      1993      2422      2423
 -1       912    8    0    1
 -2       393       536       535      2423      2424      2419
 -1       913    8    0    1
 -2       394       395       537      1996      2425      2426
 -1       914    8    0    1
 -2       394       537       536      2426      2427      2422
 -1       915    8    0    1
 -2       395       396       538      1999      2428      2429
 -1       916    8    0    1
 -2       395       538       537      2429      2430      2425
 -1       917    8    0    1
 -2       396       397       539      2002      2431      2432
 -1       918    8    0    1
 -2       396       539       538      2432      2433      2428
 -1       919    8    0    1
 -2       397       398       540      2005      2434      2435
 -1       920    8    0    1
 -2       397       540       539      2435      2436      2431
 -1       921    8    0    1
 -2       398       399       541      2008      2437      2438
 -1       922    8    0    1
 -2       398       541       540      2438      2439      2434
 -1       923    8    0    1
 -2       399       400       542      2011      2440      2441
 -1       924    8    0    1
 -2       399       542       541      2441      2442      2437
 -1       925    8    0    1
 -2       400       401       543      2014      2443      2444
 -1       926    8    0    1
 -2       400       543       542      2444      2445      2440
 -1       927    8    0    1
 -2       401       402       544      2017      2446      2447
 -1       928    8    0    1
 -2       401       544       543      2447      2448      2443
 -1       929    8    0    1
 -2       402       403       545      2020      2449      2450
 -1       930    8    0    1
 -2       402       545       544      2450      2451      2446
 -1       931    8    0    1
 -2       403       404       546      2023      2452      2453
 -1       932    8    0    1
 -2       403       546       545      2453      2454      2449
 -1       933    8    0    1
 -2       404       405       547      2026      2455      2456
 -1       934    8    0    1
 -2       404       547       546      2456      2457      2452
 -1       935    8    0    1
 -2       405       406       548      2029      2458      2459
 -1       936    8    0    1
 -2       405       548       547      2459      2460      2455
 -1       937    8    0    1
 -2       406       407       549      2032      2461      2462
 -1       938    8    0    1
 -2       406       549       548      2462      2463      2458
 -1       939    8    0    1
 -2       407       408       550      2035      2464      2465
 -1       940    8    0    1
 -2       407       550       549      2465      2466      2461
 -1       941    8    0    1
 -2       408       409       551      2038      2467      2468
 -1       942    8    0    1
 -2       408       551       550      2468      2469      2464
 -1       943    8    0    1
 -2       409       410       552      2041      2470      2471
 -1       944    8    0    1
 -2       409       552       551      2471      2472      2467
 -1       945    8    0    1
 -2       410       411       553      2044      2473      2474
 -1       946    8    0    1
 -2       410       553       552      2474      2475      2470
 -1       947    8    0    1
 -2       411       412       554      2047      2476      2477
 -1       948    8    0    1
 -2       411       554       553      2477      2478      2473
 -1       949    8    0    1
 -2       412       413       555      2050      2479      2480
 -1       950    8    0    1
 -2       412       555       554      2480      2481      2476
 -1       951    8    0    1
 -2       413       414       556      2053      2482      2483
 -1       952    8    0    1
 -2       413       556       555      2483      2484      2479
 -1       953    8    0    1
 -2       414       415       557      2056      2485      2486
 -1       954    8    0    1
 -2       414       557       556      2486      2487      2482
 -1       955    8    0    1
 -2       415       416       558      2059      2488      2489
 -1       956    8    0    1
 -2       415       558       557      2489      2490      2485
 -1       957    8    0    1
 -2       416       417       559      2062      2491      2492
 -1       958    8    0    1
 -2       416       559       558      2492      2493      2488
 -1       959    8    0    1
 -2       417       418       560      2065      2494      2495
 -1       960    8    0    1
 -2       417       560       559      2495      2496      2491
 -1       961    8    0    1
 -2       418       419       561      2068      2497      2498
 -1       962    8    0    1
 -2       418       561       560      2498      2499      2494
 -1       963    8    0    1
 -2       419       420       562      2071      2500      2501
 -1       964    8    0    1
 -2       419       562       561      2501      2502      2497
 -1       965    8    0    1
 -2       420       421       563      2074      2503      2504
 -1       966    8    0    1
 -2       420       563       562      2504      2505      2500
 -1       967    8    0    1
 -2       421       422       564      2077      2506      2507
 -1       968    8    0    1
 -2       421       564       563      2507      2508      2503
 -1       969    8    0    1
 -2       422       423       565      2080      2509      2510
 -1       970    8    0    1
 -2       422       565       564      2510      2511      2506
 -1       971    8    0    1
 -2       423       424       566      2083      2512      2513
 -1       972    8    0    1
 -2       423       566       565      2513      2514      2509
 -1       973    8    0    1
 -2       424       425       567      2086      2515      2516
 -1       974    8    0    1
 -2       424       567       566      2516      2517      2512
 -1       975    8    0    1
 -2       425       426       568      2089      2518      2519
 -1       976    8    0    1
 -2       425       568       567      2519      2520      2515
 -1       977    8    0    1
 -2       426       427       569      2092      2521      2522
 -1       978    8    0    1
 -2       426       569       568      2522      2523      2518
 -1       979    8    0    1
 -2       427       428       570      2095      2524      2525
 -1       980    8    0    1
 -2       427       570       569      2525      2526      2521
 -1       981    8    0    1
 -2       428       429       432      2098      2107      2527
 -1       982    8    0    1
 -2       433       434       571      2114      2528      2529
 -1       983    8    0    1
 -2       434       435       572      2117      2530      2531
 -1       984    8    0    1
 -2       434       572       571      2531      2532      2528
 -1       985    8    0    1
 -2       431       430       573      2104      2533      2534
 -1       986    8    0    1
 -2       430       433       574      2111      2535      2536
 -1       987    8    0    1
 -2       573       430       574      2533      2536      2537
 -1       988    8    0    1
 -2       433       571       574      2529      2538      2535
 -1       989    8    0    1
 -2       435       436       575      2120      2539      2540
 -1       990    8    0    1
 -2       435       575       572      2540      2541      2530
 -1       991    8    0    1
 -2       436       437       576      2123      2542      2543
 -1       992    8    0    1
 -2       436       576       575      2543      2544      2539
 -1       993    8    0    1
 -2       437       438       577      2126      2545      2546
 -1       994    8    0    1
 -2       437       577       576      2546      2547      2542
 -1       995    8    0    1
 -2       438       439       578      2129      2548      2549
 -1       996    8    0    1
 -2       438       578       577      2549      2550      2545
 -1       997    8    0    1
 -2       439       440       579      2132      2551      2552
 -1       998    8    0    1
 -2       439       579       578      2552      2553      2548
 -1       999    8    0    1
 -2       440       441       580      2135      2554      2555
 -1      1000    8    0    1
 -2       440       580       579      2555      2556      2551
 -1      1001    8    0    1
 -2       441       442       581      2138      2557      2558
 -1      1002    8    0    1
 -2       580       441       581      2554      2558      2559
 -1      1003    8    0    1
 -2       442       527       581      2397      2560      2557
 -1      1004    8    0    1
 -2       384       443       582      2141      2561      2562
 -1      1005    8    0    1
 -2       443       486       582      2277      2563      2561
 -1      1006    8    0    1
 -2       451       452       583      2237      2564      2565
 -1      1007    8    0    1
 -2       337       323       584      2209      2566      2567
 -1      1008    8    0    1
 -2       485       337       584      2274      2567      2568
 -1      1009    8    0    1
 -2       323       322       584      1784      2569      2566
 -1      1010    8    0    1
 -2       350       313       463      2186      2189      2570
 -1      1011    8    0    1
 -2       462       312       350      2184      2187      2571
 -1      1012    8    0    1
 -2       454       455       585      2229      2572      2573
 -1      1013    8    0    1
 -2       448       449       586      2215      2574      2575
 -1      1014    8    0    1
 -2       386       387       587      1972      2576      2577
 -1      1015    8    0    1
 -2       528       386       587      2399      2577      2578
 -1      1016    8    0    1
 -2       387       530       587      2406      2579      2576
 -1      1017    8    0    1
 -2       450       451       588      2214      2580      2581
 -1      1018    8    0    1
 -2       326       327       589      1795      2582      2583
 -1      1019    8    0    1
 -2       475       326       589      2245      2583      2584
 -1      1020    8    0    1
 -2       327       477       589      2251      2585      2582
 -1      1021    8    0    1
 -2       447       448       590      2235      2586      2587
 -1      1022    8    0    1
 -2       448       586       590      2575      2588      2586
 -1      1023    8    0    1
 -2       449       450       591      2160      2589      2590
 -1      1024    8    0    1
 -2       457       458       592      2238      2591      2592
 -1      1025    8    0    1
 -2       446       447       593      2234      2593      2594
 -1      1026    8    0    1
 -2       452       453       594      2233      2595      2596
 -1      1027    8    0    1
 -2       452       594       583      2596      2597      2564
 -1      1028    8    0    1
 -2       455       456       595      2173      2598      2599
 -1      1029    8    0    1
 -2       464       474       352      2244      2600      2601
 -1      1030    8    0    1
 -2       456       457       596      2228      2602      2603
 -1      1031    8    0    1
 -2       458       459       597      2227      2604      2605
 -1      1032    8    0    1
 -2       459       460       598      2226      2606      2607
 -1      1033    8    0    1
 -2       462       350       470      2571      2212      2608
 -1      1034    8    0    1
 -2       461       462       470      2224      2608      2609
 -1      1035    8    0    1
 -2       465       466       599      2222      2610      2611
 -1      1036    8    0    1
 -2       466       467       600      2221      2612      2613
 -1      1037    8    0    1
 -2       467       468       601      2220      2614      2615
 -1      1038    8    0    1
 -2       468       498       601      2311      2616      2614
 -1      1039    8    0    1
 -2       461       470       349      2609      2204      2617
 -1      1040    8    0    1
 -2       352       474       353      2600      2618      1871
 -1      1041    8    0    1
 -2       461       349       460      2617      2619      2225
 -1      1042    8    0    1
 -2       460       349       348      2619      1862      2620
 -1      1043    8    0    1
 -2       324       476       602      2248      2621      2622
 -1      1044    8    0    1
 -2       324       602       445      2622      2623      2149
 -1      1045    8    0    1
 -2       450       588       591      2581      2624      2589
 -1      1046    8    0    1
 -2       486       446       593      2276      2594      2625
 -1      1047    8    0    1
 -2       451       583       588      2565      2626      2580
 -1      1048    8    0    1
 -2       469       487       471      2279      2627      2219
 -1      1049    8    0    1
 -2       352       351       464      2213      2628      2601
 -1      1050    8    0    1
 -2       498       444       603      2310      2629      2630
 -1      1051    8    0    1
 -2       444       471       603      2218      2631      2629
 -1      1052    8    0    1
 -2       500       354       599      2315      2632      2633
 -1      1053    8    0    1
 -2       354       353       599      1874      2634      2632
 -1      1054    8    0    1
 -2       384       582       604      2562      2635      2636
 -1      1055    8    0    1
 -2       384       604       487      2636      2637      2278
 -1      1056    8    0    1
 -2       428       432       570      2527      2638      2524
 -1      1057    8    0    1
 -2       594       453       472      2595      2231      2639
 -1      1058    8    0    1
 -2       432       431       570      2108      2640      2638
 -1      1059    8    0    1
 -2       455       595       585      2599      2641      2572
 -1      1060    8    0    1
 -2       599       353       465      2634      2642      2611
 -1      1061    8    0    1
 -2       322       445       605      2148      2643      2644
 -1      1062    8    0    1
 -2       584       322       605      2569      2644      2645
 -1      1063    8    0    1
 -2       445       602       605      2623      2646      2643
 -1      1064    8    0    1
 -2       593       447       606      2593      2647      2648
 -1      1065    8    0    1
 -2       447       590       606      2587      2649      2647
 -1      1066    8    0    1
 -2       586       449       591      2574      2590      2650
 -1      1067    8    0    1
 -2       597       459       598      2604      2607      2651
 -1      1068    8    0    1
 -2       596       457       592      2602      2592      2652
 -1      1069    8    0    1
 -2       472       454       607      2232      2653      2654
 -1      1070    8    0    1
 -2       454       585       607      2573      2655      2653
 -1      1071    8    0    1
 -2       592       458       597      2591      2605      2656
 -1      1072    8    0    1
 -2       595       456       596      2598      2603      2657
 -1      1073    8    0    1
 -2       570       431       573      2640      2534      2658
 -1      1074    8    0    1
 -2       460       348       598      2620      2659      2606
 -1      1075    8    0    1
 -2       600       467       601      2612      2615      2660
 -1      1076    8    0    1
 -2       599       466       600      2610      2613      2661
 -1      1077    8    0    1
 -2       348       497       598      2308      2662      2659
 -1      1078    8    0    1
 -2       353       474       473      2618      2243      2663
 -1      1079    8    0    1
 -2       478       479       608      2257      2664      2665
 -1      1080    8    0    1
 -2       477       478       609      2254      2666      2667
 -1      1081    8    0    1
 -2       478       608       609      2665      2668      2666
 -1      1082    8    0    1
 -2       480       481       610      2263      2669      2670
 -1      1083    8    0    1
 -2       481       482       611      2266      2671      2672
 -1      1084    8    0    1
 -2       481       611       610      2672      2673      2669
 -1      1085    8    0    1
 -2       482       483       612      2269      2674      2675
 -1      1086    8    0    1
 -2       482       612       611      2675      2676      2671
 -1      1087    8    0    1
 -2       483       484       613      2272      2677      2678
 -1      1088    8    0    1
 -2       612       483       613      2674      2678      2679
 -1      1089    8    0    1
 -2       484       499       613      2314      2680      2677
 -1      1090    8    0    1
 -2       489       488       614      2285      2681      2682
 -1      1091    8    0    1
 -2       490       489       615      2288      2683      2684
 -1      1092    8    0    1
 -2       489       614       615      2682      2685      2683
 -1      1093    8    0    1
 -2       491       490       616      2291      2686      2687
 -1      1094    8    0    1
 -2       490       615       616      2684      2688      2686
 -1      1095    8    0    1
 -2       492       491       617      2294      2689      2690
 -1      1096    8    0    1
 -2       491       616       617      2687      2691      2689
 -1      1097    8    0    1
 -2       493       492       618      2297      2692      2693
 -1      1098    8    0    1
 -2       492       617       618      2690      2694      2692
 -1      1099    8    0    1
 -2       494       493       619      2300      2695      2696
 -1      1100    8    0    1
 -2       493       618       619      2693      2697      2695
 -1      1101    8    0    1
 -2       495       494       620      2303      2698      2699
 -1      1102    8    0    1
 -2       494       619       620      2696      2700      2698
 -1      1103    8    0    1
 -2       496       495       621      2306      2701      2702
 -1      1104    8    0    1
 -2       495       620       621      2699      2703      2701
 -1      1105    8    0    1
 -2       502       501       622      2322      2704      2705
 -1      1106    8    0    1
 -2       503       502       623      2325      2706      2707
 -1      1107    8    0    1
 -2       502       622       623      2705      2708      2706
 -1      1108    8    0    1
 -2       504       503       624      2328      2709      2710
 -1      1109    8    0    1
 -2       503       623       624      2707      2711      2709
 -1      1110    8    0    1
 -2       505       504       625      2331      2712      2713
 -1      1111    8    0    1
 -2       504       624       625      2710      2714      2712
 -1      1112    8    0    1
 -2       506       505       626      2334      2715      2716
 -1      1113    8    0    1
 -2       505       625       626      2713      2717      2715
 -1      1114    8    0    1
 -2       507       506       627      2337      2718      2719
 -1      1115    8    0    1
 -2       506       626       627      2716      2720      2718
 -1      1116    8    0    1
 -2       508       507       628      2340      2721      2722
 -1      1117    8    0    1
 -2       507       627       628      2719      2723      2721
 -1      1118    8    0    1
 -2       509       508       629      2343      2724      2725
 -1      1119    8    0    1
 -2       508       628       629      2722      2726      2724
 -1      1120    8    0    1
 -2       510       509       630      2346      2727      2728
 -1      1121    8    0    1
 -2       509       629       630      2725      2729      2727
 -1      1122    8    0    1
 -2       511       510       631      2349      2730      2731
 -1      1123    8    0    1
 -2       510       630       631      2728      2732      2730
 -1      1124    8    0    1
 -2       512       511       632      2352      2733      2734
 -1      1125    8    0    1
 -2       511       631       632      2731      2735      2733
 -1      1126    8    0    1
 -2       513       512       633      2355      2736      2737
 -1      1127    8    0    1
 -2       512       632       633      2734      2738      2736
 -1      1128    8    0    1
 -2       514       513       634      2358      2739      2740
 -1      1129    8    0    1
 -2       513       633       634      2737      2741      2739
 -1      1130    8    0    1
 -2       515       514       635      2361      2742      2743
 -1      1131    8    0    1
 -2       514       634       635      2740      2744      2742
 -1      1132    8    0    1
 -2       516       515       636      2364      2745      2746
 -1      1133    8    0    1
 -2       515       635       636      2743      2747      2745
 -1      1134    8    0    1
 -2       517       516       637      2367      2748      2749
 -1      1135    8    0    1
 -2       516       636       637      2746      2750      2748
 -1      1136    8    0    1
 -2       518       517       638      2370      2751      2752
 -1      1137    8    0    1
 -2       517       637       638      2749      2753      2751
 -1      1138    8    0    1
 -2       519       518       639      2373      2754      2755
 -1      1139    8    0    1
 -2       518       638       639      2752      2756      2754
 -1      1140    8    0    1
 -2       520       519       640      2376      2757      2758
 -1      1141    8    0    1
 -2       519       639       640      2755      2759      2757
 -1      1142    8    0    1
 -2       521       520       641      2379      2760      2761
 -1      1143    8    0    1
 -2       520       640       641      2758      2762      2760
 -1      1144    8    0    1
 -2       522       521       642      2382      2763      2764
 -1      1145    8    0    1
 -2       521       641       642      2761      2765      2763
 -1      1146    8    0    1
 -2       523       522       643      2385      2766      2767
 -1      1147    8    0    1
 -2       522       642       643      2764      2768      2766
 -1      1148    8    0    1
 -2       524       523       644      2388      2769      2770
 -1      1149    8    0    1
 -2       523       643       644      2767      2771      2769
 -1      1150    8    0    1
 -2       525       524       645      2391      2772      2773
 -1      1151    8    0    1
 -2       524       644       645      2770      2774      2772
 -1      1152    8    0    1
 -2       526       525       646      2394      2775      2776
 -1      1153    8    0    1
 -2       525       645       646      2773      2777      2775
 -1      1154    8    0    1
 -2       527       526       647      2398      2778      2779
 -1      1155    8    0    1
 -2       581       527       647      2560      2779      2780
 -1      1156    8    0    1
 -2       526       646       647      2776      2781      2778
 -1      1157    8    0    1
 -2       532       533       648      2415      2782      2783
 -1      1158    8    0    1
 -2       530       531       649      2409      2784      2785
 -1      1159    8    0    1
 -2       533       534       650      2418      2786      2787
 -1      1160    8    0    1
 -2       533       650       648      2787      2788      2782
 -1      1161    8    0    1
 -2       534       535       651      2421      2789      2790
 -1      1162    8    0    1
 -2       534       651       650      2790      2791      2786
 -1      1163    8    0    1
 -2       535       536       652      2424      2792      2793
 -1      1164    8    0    1
 -2       535       652       651      2793      2794      2789
 -1      1165    8    0    1
 -2       536       537       653      2427      2795      2796
 -1      1166    8    0    1
 -2       536       653       652      2796      2797      2792
 -1      1167    8    0    1
 -2       537       538       654      2430      2798      2799
 -1      1168    8    0    1
 -2       537       654       653      2799      2800      2795
 -1      1169    8    0    1
 -2       538       539       655      2433      2801      2802
 -1      1170    8    0    1
 -2       538       655       654      2802      2803      2798
 -1      1171    8    0    1
 -2       539       540       656      2436      2804      2805
 -1      1172    8    0    1
 -2       539       656       655      2805      2806      2801
 -1      1173    8    0    1
 -2       540       541       657      2439      2807      2808
 -1      1174    8    0    1
 -2       540       657       656      2808      2809      2804
 -1      1175    8    0    1
 -2       541       542       658      2442      2810      2811
 -1      1176    8    0    1
 -2       541       658       657      2811      2812      2807
 -1      1177    8    0    1
 -2       542       543       659      2445      2813      2814
 -1      1178    8    0    1
 -2       542       659       658      2814      2815      2810
 -1      1179    8    0    1
 -2       543       544       660      2448      2816      2817
 -1      1180    8    0    1
 -2       543       660       659      2817      2818      2813
 -1      1181    8    0    1
 -2       544       545       661      2451      2819      2820
 -1      1182    8    0    1
 -2       544       661       660      2820      2821      2816
 -1      1183    8    0    1
 -2       545       546       662      2454      2822      2823
 -1      1184    8    0    1
 -2       545       662       661      2823      2824      2819
 -1      1185    8    0    1
 -2       546       547       663      2457      2825      2826
 -1      1186    8    0    1
 -2       546       663       662      2826      2827      2822
 -1      1187    8    0    1
 -2       547       548       664      2460      2828      2829
 -1      1188    8    0    1
 -2       547       664       663      2829      2830      2825
 -1      1189    8    0    1
 -2       548       549       665      2463      2831      2832
 -1      1190    8    0    1
 -2       548       665       664      2832      2833      2828
 -1      1191    8    0    1
 -2       549       550       666      2466      2834      2835
 -1      1192    8    0    1
 -2       549       666       665      2835      2836      2831
 -1      1193    8    0    1
 -2       550       551       667      2469      2837      2838
 -1      1194    8    0    1
 -2       550       667       666      2838      2839      2834
 -1      1195    8    0    1
 -2       551       552       668      2472      2840      2841
 -1      1196    8    0    1
 -2       551       668       667      2841      2842      2837
 -1      1197    8    0    1
 -2       552       553       669      2475      2843      2844
 -1      1198    8    0    1
 -2       552       669       668      2844      2845      2840
 -1      1199    8    0    1
 -2       553       554       670      2478      2846      2847
 -1      1200    8    0    1
 -2       553       670       669      2847      2848      2843
 -1      1201    8    0    1
 -2       554       555       671      2481      2849      2850
 -1      1202    8    0    1
 -2       554       671       670      2850      2851      2846
 -1      1203    8    0    1
 -2       555       556       672      2484      2852      2853
 -1      1204    8    0    1
 -2       555       672       671      2853      2854      2849
 -1      1205    8    0    1
 -2       556       557       673      2487      2855      2856
 -1      1206    8    0    1
 -2       556       673       672      2856      2857      2852
 -1      1207    8    0    1
 -2       557       558       674      2490      2858      2859
 -1      1208    8    0    1
 -2       557       674       673      2859      2860      2855
 -1      1209    8    0    1
 -2       558       559       675      2493      2861      2862
 -1      1210    8    0    1
 -2       558       675       674      2862      2863      2858
 -1      1211    8    0    1
 -2       559       560       676      2496      2864      2865
 -1      1212    8    0    1
 -2       559       676       675      2865      2866      2861
 -1      1213    8    0    1
 -2       560       561       677      2499      2867      2868
 -1      1214    8    0    1
 -2       560       677       676      2868      2869      2864
 -1      1215    8    0    1
 -2       561       562       678      2502      2870      2871
 -1      1216    8    0    1
 -2       561       678       677      2871      2872      2867
 -1      1217    8    0    1
 -2       562       563       679      2505      2873      2874
 -1      1218    8    0    1
 -2       562       679       678      2874      2875      2870
 -1      1219    8    0    1
 -2       563       564       680      2508      2876      2877
 -1      1220    8    0    1
 -2       563       680       679      2877      2878      2873
 -1      1221    8    0    1
 -2       564       565       681      2511      2879      2880
 -1      1222    8    0    1
 -2       564       681       680      2880      2881      2876
 -1      1223    8    0    1
 -2       565       566       682      2514      2882      2883
 -1      1224    8    0    1
 -2       565       682       681      2883      2884      2879
 -1      1225    8    0    1
 -2       566       567       683      2517      2885      2886
 -1      1226    8    0    1
 -2       566       683       682      2886      2887      2882
 -1      1227    8    0    1
 -2       567       568       684      2520      2888      2889
 -1      1228    8    0    1
 -2       567       684       683      2889      2890      2885
 -1      1229    8    0    1
 -2       568       569       685      2523      2891      2892
 -1      1230    8    0    1
 -2       568       685       684      2892      2893      2888
 -1      1231    8    0    1
 -2       569       570       686      2526      2894      2895
 -1      1232    8    0    1
 -2       685       569       686      2891      2895      2896
 -1      1233    8    0    1
 -2       570       573       686      2658      2897      2894
 -1      1234    8    0    1
 -2       594       472       687      2639      2898      2899
 -1      1235    8    0    1
 -2       575       576       688      2544      2900      2901
 -1      1236    8    0    1
 -2       353       473       465      2663      2239      2642
 -1      1237    8    0    1
 -2       571       572       689      2532      2902      2903
 -1      1238    8    0    1
 -2       576       577       690      2547      2904      2905
 -1      1239    8    0    1
 -2       576       690       688      2905      2906      2900
 -1      1240    8    0    1
 -2       572       575       691      2541      2907      2908
 -1      1241    8    0    1
 -2       689       572       691      2902      2908      2909
 -1      1242    8    0    1
 -2       575       688       691      2901      2910      2907
 -1      1243    8    0    1
 -2       577       578       692      2550      2911      2912
 -1      1244    8    0    1
 -2       577       692       690      2912      2913      2904
 -1      1245    8    0    1
 -2       578       579       693      2553      2914      2915
 -1      1246    8    0    1
 -2       578       693       692      2915      2916      2911
 -1      1247    8    0    1
 -2       579       580       694      2556      2917      2918
 -1      1248    8    0    1
 -2       579       694       693      2918      2919      2914
 -1      1249    8    0    1
 -2       582       486       695      2563      2920      2921
 -1      1250    8    0    1
 -2       485       584       696      2568      2922      2923
 -1      1251    8    0    1
 -2       584       605       696      2645      2924      2922
 -1      1252    8    0    1
 -2       591       588       697      2624      2925      2926
 -1      1253    8    0    1
 -2       464       351       463      2628      2927      2223
 -1      1254    8    0    1
 -2       586       591       698      2650      2928      2929
 -1      1255    8    0    1
 -2       601       498       699      2616      2930      2931
 -1      1256    8    0    1
 -2       600       601       700      2660      2932      2933
 -1      1257    8    0    1
 -2       601       699       700      2931      2934      2932
 -1      1258    8    0    1
 -2       597       598       497      2651      2662      2935
 -1      1259    8    0    1
 -2       501       500       700      2319      2936      2937
 -1      1260    8    0    1
 -2       531       532       701      2412      2938      2939
 -1      1261    8    0    1
 -2       531       701       649      2939      2940      2784
 -1      1262    8    0    1
 -2       488       485       702      2282      2941      2942
 -1      1263    8    0    1
 -2       614       488       702      2681      2942      2943
 -1      1264    8    0    1
 -2       485       696       702      2923      2944      2941
 -1      1265    8    0    1
 -2       585       595       703      2641      2945      2946
 -1      1266    8    0    1
 -2       486       593       704      2625      2947      2948
 -1      1267    8    0    1
 -2       471       487       705      2627      2949      2950
 -1      1268    8    0    1
 -2       479       480       706      2260      2951      2952
 -1      1269    8    0    1
 -2       608       479       706      2664      2952      2953
 -1      1270    8    0    1
 -2       480       610       706      2670      2954      2951
 -1      1271    8    0    1
 -2       476       475       707      2249      2955      2956
 -1      1272    8    0    1
 -2       588       583       708      2626      2957      2958
 -1      1273    8    0    1
 -2       583       594       709      2597      2959      2960
 -1      1274    8    0    1
 -2       583       709       708      2960      2961      2957
 -1      1275    8    0    1
 -2       595       596       710      2657      2962      2963
 -1      1276    8    0    1
 -2       596       592       711      2652      2964      2965
 -1      1277    8    0    1
 -2       592       597       712      2656      2966      2967
 -1      1278    8    0    1
 -2       590       586       713      2588      2968      2969
 -1      1279    8    0    1
 -2       599       600       500      2661      2970      2633
 -1      1280    8    0    1
 -2       597       497       712      2935      2971      2966
 -1      1281    8    0    1
 -2       500       600       700      2970      2933      2936
 -1      1282    8    0    1
 -2       707       475       714      2955      2972      2973
 -1      1283    8    0    1
 -2       475       589       714      2584      2974      2972
 -1      1284    8    0    1
 -2       703       595       715      2945      2975      2976
 -1      1285    8    0    1
 -2       595       710       715      2963      2977      2975
 -1      1286    8    0    1
 -2       587       530       716      2579      2978      2979
 -1      1287    8    0    1
 -2       530       649       716      2785      2980      2978
 -1      1288    8    0    1
 -2       351       350       463      2206      2570      2927
 -1      1289    8    0    1
 -2       603       471       705      2631      2950      2981
 -1      1290    8    0    1
 -2       496       621       712      2702      2982      2983
 -1      1291    8    0    1
 -2       622       501       700      2704      2937      2984
 -1      1292    8    0    1
 -2       497       496       712      2309      2983      2971
 -1      1293    8    0    1
 -2       487       604       717      2637      2985      2986
 -1      1294    8    0    1
 -2       487       717       705      2986      2987      2949
 -1      1295    8    0    1
 -2       593       606       718      2648      2988      2989
 -1      1296    8    0    1
 -2       593       718       704      2989      2990      2947
 -1      1297    8    0    1
 -2       532       648       701      2783      2991      2938
 -1      1298    8    0    1
 -2       604       582       695      2635      2921      2992
 -1      1299    8    0    1
 -2       529       528       719      2404      2993      2994
 -1      1300    8    0    1
 -2       687       472       607      2898      2654      2995
 -1      1301    8    0    1
 -2       686       573       720      2897      2996      2997
 -1      1302    8    0    1
 -2       573       574       720      2537      2998      2996
 -1      1303    8    0    1
 -2       699       498       721      2930      2999      3000
 -1      1304    8    0    1
 -2       498       603       721      2630      3001      2999
 -1      1305    8    0    1
 -2       695       486       704      2920      2948      3002
 -1      1306    8    0    1
 -2       580       581       722      2559      3003      3004
 -1      1307    8    0    1
 -2       694       580       722      2917      3004      3005
 -1      1308    8    0    1
 -2       581       647       722      2780      3006      3003
 -1      1309    8    0    1
 -2       585       703       723      2946      3007      3008
 -1      1310    8    0    1
 -2       585       723       607      3008      3009      2655
 -1      1311    8    0    1
 -2       606       590       724      2649      3010      3011
 -1      1312    8    0    1
 -2       590       713       724      2969      3012      3010
 -1      1313    8    0    1
 -2       697       588       708      2925      2958      3013
 -1      1314    8    0    1
 -2       698       591       697      2928      2926      3014
 -1      1315    8    0    1
 -2       713       586       698      2968      2929      3015
 -1      1316    8    0    1
 -2       711       592       712      2964      2967      3016
 -1      1317    8    0    1
 -2       574       571       725      2538      3017      3018
 -1      1318    8    0    1
 -2       720       574       725      2998      3018      3019
 -1      1319    8    0    1
 -2       571       689       725      2903      3020      3017
 -1      1320    8    0    1
 -2       709       594       726      2959      3021      3022
 -1      1321    8    0    1
 -2       594       687       726      2899      3023      3021
 -1      1322    8    0    1
 -2       528       587       727      2578      3024      3025
 -1      1323    8    0    1
 -2       587       716       727      2979      3026      3024
 -1      1324    8    0    1
 -2       589       477       728      2585      3027      3028
 -1      1325    8    0    1
 -2       714       589       728      2974      3028      3029
 -1      1326    8    0    1
 -2       477       609       728      2667      3030      3027
 -1      1327    8    0    1
 -2       602       476       729      2621      3031      3032
 -1      1328    8    0    1
 -2       476       707       729      2956      3033      3031
 -1      1329    8    0    1
 -2       710       596       730      2962      3034      3035
 -1      1330    8    0    1
 -2       596       711       730      2965      3036      3034
 -1      1331    8    0    1
 -2       528       727       719      3025      3037      2993
 -1      1332    8    0    1
 -2       611       612       731      2676      3038      3039
 -1      1333    8    0    1
 -2       610       611       732      2673      3040      3041
 -1      1334    8    0    1
 -2       611       731       732      3039      3042      3040
 -1      1335    8    0    1
 -2       613       499       529      2680      2403      3043
 -1      1336    8    0    1
 -2       615       614       733      2685      3044      3045
 -1      1337    8    0    1
 -2       712       621       711      2982      3046      3016
 -1      1338    8    0    1
 -2       622       700       699      2984      2934      3047
 -1      1339    8    0    1
 -2       616       615       734      2688      3048      3049
 -1      1340    8    0    1
 -2       615       733       734      3045      3050      3048
 -1      1341    8    0    1
 -2       617       616       735      2691      3051      3052
 -1      1342    8    0    1
 -2       616       734       735      3049      3053      3051
 -1      1343    8    0    1
 -2       618       617       736      2694      3054      3055
 -1      1344    8    0    1
 -2       617       735       736      3052      3056      3054
 -1      1345    8    0    1
 -2       619       618       737      2697      3057      3058
 -1      1346    8    0    1
 -2       618       736       737      3055      3059      3057
 -1      1347    8    0    1
 -2       620       619       738      2700      3060      3061
 -1      1348    8    0    1
 -2       619       737       738      3058      3062      3060
 -1      1349    8    0    1
 -2       621       620       739      2703      3063      3064
 -1      1350    8    0    1
 -2       620       738       739      3061      3065      3063
 -1      1351    8    0    1
 -2       605       602       740      2646      3066      3067
 -1      1352    8    0    1
 -2       696       605       740      2924      3067      3068
 -1      1353    8    0    1
 -2       602       729       740      3032      3069      3066
 -1      1354    8    0    1
 -2       613       529       719      3043      2994      3070
 -1      1355    8    0    1
 -2       624       623       741      2711      3071      3072
 -1      1356    8    0    1
 -2       625       624       742      2714      3073      3074
 -1      1357    8    0    1
 -2       624       741       742      3072      3075      3073
 -1      1358    8    0    1
 -2       626       625       743      2717      3076      3077
 -1      1359    8    0    1
 -2       625       742       743      3074      3078      3076
 -1      1360    8    0    1
 -2       627       626       744      2720      3079      3080
 -1      1361    8    0    1
 -2       626       743       744      3077      3081      3079
 -1      1362    8    0    1
 -2       628       627       745      2723      3082      3083
 -1      1363    8    0    1
 -2       627       744       745      3080      3084      3082
 -1      1364    8    0    1
 -2       629       628       746      2726      3085      3086
 -1      1365    8    0    1
 -2       628       745       746      3083      3087      3085
 -1      1366    8    0    1
 -2       630       629       747      2729      3088      3089
 -1      1367    8    0    1
 -2       629       746       747      3086      3090      3088
 -1      1368    8    0    1
 -2       631       630       748      2732      3091      3092
 -1      1369    8    0    1
 -2       630       747       748      3089      3093      3091
 -1      1370    8    0    1
 -2       632       631       749      2735      3094      3095
 -1      1371    8    0    1
 -2       631       748       749      3092      3096      3094
 -1      1372    8    0    1
 -2       633       632       750      2738      3097      3098
 -1      1373    8    0    1
 -2       632       749       750      3095      3099      3097
 -1      1374    8    0    1
 -2       634       633       751      2741      3100      3101
 -1      1375    8    0    1
 -2       633       750       751      3098      3102      3100
 -1      1376    8    0    1
 -2       635       634       752      2744      3103      3104
 -1      1377    8    0    1
 -2       634       751       752      3101      3105      3103
 -1      1378    8    0    1
 -2       636       635       753      2747      3106      3107
 -1      1379    8    0    1
 -2       635       752       753      3104      3108      3106
 -1      1380    8    0    1
 -2       637       636       754      2750      3109      3110
 -1      1381    8    0    1
 -2       636       753       754      3107      3111      3109
 -1      1382    8    0    1
 -2       638       637       755      2753      3112      3113
 -1      1383    8    0    1
 -2       637       754       755      3110      3114      3112
 -1      1384    8    0    1
 -2       639       638       756      2756      3115      3116
 -1      1385    8    0    1
 -2       638       755       756      3113      3117      3115
 -1      1386    8    0    1
 -2       640       639       757      2759      3118      3119
 -1      1387    8    0    1
 -2       639       756       757      3116      3120      3118
 -1      1388    8    0    1
 -2       641       640       758      2762      3121      3122
 -1      1389    8    0    1
 -2       640       757       758      3119      3123      3121
 -1      1390    8    0    1
 -2       642       641       759      2765      3124      3125
 -1      1391    8    0    1
 -2       641       758       759      3122      3126      3124
 -1      1392    8    0    1
 -2       643       642       760      2768      3127      3128
 -1      1393    8    0    1
 -2       642       759       760      3125      3129      3127
 -1      1394    8    0    1
 -2       644       643       761      2771      3130      3131
 -1      1395    8    0    1
 -2       643       760       761      3128      3132      3130
 -1      1396    8    0    1
 -2       645       644       762      2774      3133      3134
 -1      1397    8    0    1
 -2       644       761       762      3131      3135      3133
 -1      1398    8    0    1
 -2       646       645       763      2777      3136      3137
 -1      1399    8    0    1
 -2       645       762       763      3134      3138      3136
 -1      1400    8    0    1
 -2       687       607       764      2995      3139      3140
 -1      1401    8    0    1
 -2       648       650       765      2788      3141      3142
 -1      1402    8    0    1
 -2       652       653       766      2797      3143      3144
 -1      1403    8    0    1
 -2       653       654       767      2800      3145      3146
 -1      1404    8    0    1
 -2       653       767       766      3146      3147      3143
 -1      1405    8    0    1
 -2       654       655       768      2803      3148      3149
 -1      1406    8    0    1
 -2       654       768       767      3149      3150      3145
 -1      1407    8    0    1
 -2       655       656       769      2806      3151      3152
 -1      1408    8    0    1
 -2       655       769       768      3152      3153      3148
 -1      1409    8    0    1
 -2       656       657       770      2809      3154      3155
 -1      1410    8    0    1
 -2       656       770       769      3155      3156      3151
 -1      1411    8    0    1
 -2       657       658       771      2812      3157      3158
 -1      1412    8    0    1
 -2       657       771       770      3158      3159      3154
 -1      1413    8    0    1
 -2       658       659       772      2815      3160      3161
 -1      1414    8    0    1
 -2       658       772       771      3161      3162      3157
 -1      1415    8    0    1
 -2       659       660       773      2818      3163      3164
 -1      1416    8    0    1
 -2       659       773       772      3164      3165      3160
 -1      1417    8    0    1
 -2       660       661       774      2821      3166      3167
 -1      1418    8    0    1
 -2       660       774       773      3167      3168      3163
 -1      1419    8    0    1
 -2       661       662       775      2824      3169      3170
 -1      1420    8    0    1
 -2       661       775       774      3170      3171      3166
 -1      1421    8    0    1
 -2       662       663       776      2827      3172      3173
 -1      1422    8    0    1
 -2       662       776       775      3173      3174      3169
 -1      1423    8    0    1
 -2       663       664       777      2830      3175      3176
 -1      1424    8    0    1
 -2       663       777       776      3176      3177      3172
 -1      1425    8    0    1
 -2       664       665       778      2833      3178      3179
 -1      1426    8    0    1
 -2       664       778       777      3179      3180      3175
 -1      1427    8    0    1
 -2       665       666       779      2836      3181      3182
 -1      1428    8    0    1
 -2       665       779       778      3182      3183      3178
 -1      1429    8    0    1
 -2       666       667       780      2839      3184      3185
 -1      1430    8    0    1
 -2       666       780       779      3185      3186      3181
 -1      1431    8    0    1
 -2       667       668       781      2842      3187      3188
 -1      1432    8    0    1
 -2       667       781       780      3188      3189      3184
 -1      1433    8    0    1
 -2       668       669       782      2845      3190      3191
 -1      1434    8    0    1
 -2       668       782       781      3191      3192      3187
 -1      1435    8    0    1
 -2       669       670       783      2848      3193      3194
 -1      1436    8    0    1
 -2       669       783       782      3194      3195      3190
 -1      1437    8    0    1
 -2       670       671       784      2851      3196      3197
 -1      1438    8    0    1
 -2       670       784       783      3197      3198      3193
 -1      1439    8    0    1
 -2       671       672       785      2854      3199      3200
 -1      1440    8    0    1
 -2       671       785       784      3200      3201      3196
 -1      1441    8    0    1
 -2       672       673       786      2857      3202      3203
 -1      1442    8    0    1
 -2       672       786       785      3203      3204      3199
 -1      1443    8    0    1
 -2       673       674       787      2860      3205      3206
 -1      1444    8    0    1
 -2       673       787       786      3206      3207      3202
 -1      1445    8    0    1
 -2       674       675       788      2863      3208      3209
 -1      1446    8    0    1
 -2       674       788       787      3209      3210      3205
 -1      1447    8    0    1
 -2       675       676       789      2866      3211      3212
 -1      1448    8    0    1
 -2       675       789       788      3212      3213      3208
 -1      1449    8    0    1
 -2       676       677       790      2869      3214      3215
 -1      1450    8    0    1
 -2       676       790       789      3215      3216      3211
 -1      1451    8    0    1
 -2       677       678       791      2872      3217      3218
 -1      1452    8    0    1
 -2       677       791       790      3218      3219      3214
 -1      1453    8    0    1
 -2       678       679       792      2875      3220      3221
 -1      1454    8    0    1
 -2       678       792       791      3221      3222      3217
 -1      1455    8    0    1
 -2       679       680       793      2878      3223      3224
 -1      1456    8    0    1
 -2       679       793       792      3224      3225      3220
 -1      1457    8    0    1
 -2       680       681       794      2881      3226      3227
 -1      1458    8    0    1
 -2       680       794       793      3227      3228      3223
 -1      1459    8    0    1
 -2       681       682       795      2884      3229      3230
 -1      1460    8    0    1
 -2       681       795       794      3230      3231      3226
 -1      1461    8    0    1
 -2       682       683       796      2887      3232      3233
 -1      1462    8    0    1
 -2       682       796       795      3233      3234      3229
 -1      1463    8    0    1
 -2       683       684       797      2890      3235      3236
 -1      1464    8    0    1
 -2       683       797       796      3236      3237      3232
 -1      1465    8    0    1
 -2       684       685       798      2893      3238      3239
 -1      1466    8    0    1
 -2       684       798       797      3239      3240      3235
 -1      1467    8    0    1
 -2       685       686       799      2896      3241      3242
 -1      1468    8    0    1
 -2       798       685       799      3238      3242      3243
 -1      1469    8    0    1
 -2       686       720       799      2997      3244      3241
 -1      1470    8    0    1
 -2       690       692       800      2913      3245      3246
 -1      1471    8    0    1
 -2       692       693       801      2916      3247      3248
 -1      1472    8    0    1
 -2       692       801       800      3248      3249      3245
 -1      1473    8    0    1
 -2       688       690       802      2906      3250      3251
 -1      1474    8    0    1
 -2       690       800       802      3246      3252      3250
 -1      1475    8    0    1
 -2       650       651       803      2791      3253      3254
 -1      1476    8    0    1
 -2       650       803       765      3254      3255      3141
 -1      1477    8    0    1
 -2       603       705       804      2981      3256      3257
 -1      1478    8    0    1
 -2       603       804       721      3257      3258      3001
 -1      1479    8    0    1
 -2       604       695       805      2992      3259      3260
 -1      1480    8    0    1
 -2       649       701       806      2940      3261      3262
 -1      1481    8    0    1
 -2       701       648       807      2991      3263      3264
 -1      1482    8    0    1
 -2       648       765       807      3142      3265      3263
 -1      1483    8    0    1
 -2       698       697       808      3014      3266      3267
 -1      1484    8    0    1
 -2       708       709       809      2961      3268      3269
 -1      1485    8    0    1
 -2       695       704       810      3002      3270      3271
 -1      1486    8    0    1
 -2       693       694       811      2919      3272      3273
 -1      1487    8    0    1
 -2       693       811       801      3273      3274      3247
 -1      1488    8    0    1
 -2       713       698       812      3015      3275      3276
 -1      1489    8    0    1
 -2       651       652       813      2794      3277      3278
 -1      1490    8    0    1
 -2       803       651       813      3253      3278      3279
 -1      1491    8    0    1
 -2       652       766       813      3144      3280      3277
 -1      1492    8    0    1
 -2       697       708       814      3013      3281      3282
 -1      1493    8    0    1
 -2       708       809       814      3269      3283      3281
 -1      1494    8    0    1
 -2       623       622       815      2708      3284      3285
 -1      1495    8    0    1
 -2       623       815       741      3285      3286      3071
 -1      1496    8    0    1
 -2       622       699       815      3047      3287      3284
 -1      1497    8    0    1
 -2       609       608       816      2668      3288      3289
 -1      1498    8    0    1
 -2       711       621       739      3046      3064      3290
 -1      1499    8    0    1
 -2       715       710       817      2977      3291      3292
 -1      1500    8    0    1
 -2       710       730       817      3035      3293      3291
 -1      1501    8    0    1
 -2       613       719       731      3070      3294      3295
 -1      1502    8    0    1
 -2       610       732       818      3041      3296      3297
 -1      1503    8    0    1
 -2       610       818       706      3297      3298      2954
 -1      1504    8    0    1
 -2       716       649       819      2980      3299      3300
 -1      1505    8    0    1
 -2       649       806       819      3262      3301      3299
 -1      1506    8    0    1
 -2       733       614       820      3044      3302      3303
 -1      1507    8    0    1
 -2       614       702       820      2943      3304      3302
 -1      1508    8    0    1
 -2       718       606       821      2988      3305      3306
 -1      1509    8    0    1
 -2       606       724       821      3011      3307      3305
 -1      1510    8    0    1
 -2       607       723       764      3009      3308      3139
 -1      1511    8    0    1
 -2       687       764       822      3140      3309      3310
 -1      1512    8    0    1
 -2       687       822       726      3310      3311      3023
 -1      1513    8    0    1
 -2       647       646       722      2781      3312      3006
 -1      1514    8    0    1
 -2       698       808       823      3267      3313      3314
 -1      1515    8    0    1
 -2       698       823       812      3314      3315      3275
 -1      1516    8    0    1
 -2       697       814       808      3282      3316      3266
 -1      1517    8    0    1
 -2       688       802       824      3251      3317      3318
 -1      1518    8    0    1
 -2       688       824       691      3318      3319      2910
 -1      1519    8    0    1
 -2       713       812       724      3276      3320      3012
 -1      1520    8    0    1
 -2       722       646       763      3312      3137      3321
 -1      1521    8    0    1
 -2       604       805       717      3260      3322      2985
 -1      1522    8    0    1
 -2       689       691       825      2909      3323      3324
 -1      1523    8    0    1
 -2       691       824       825      3319      3325      3323
 -1      1524    8    0    1
 -2       723       703       826      3007      3326      3327
 -1      1525    8    0    1
 -2       703       715       826      2976      3328      3326
 -1      1526    8    0    1
 -2       804       705       827      3256      3329      3330
 -1      1527    8    0    1
 -2       705       717       827      2987      3331      3329
 -1      1528    8    0    1
 -2       805       695       810      3259      3271      3332
 -1      1529    8    0    1
 -2       810       704       828      3270      3333      3334
 -1      1530    8    0    1
 -2       704       718       828      2990      3335      3333
 -1      1531    8    0    1
 -2       809       709       726      3268      3022      3336
 -1      1532    8    0    1
 -2       729       707       829      3033      3337      3338
 -1      1533    8    0    1
 -2       725       689       830      3020      3339      3340
 -1      1534    8    0    1
 -2       689       825       830      3324      3341      3339
 -1      1535    8    0    1
 -2       707       714       831      2973      3342      3343
 -1      1536    8    0    1
 -2       707       831       829      3343      3344      3337
 -1      1537    8    0    1
 -2       727       716       832      3026      3345      3346
 -1      1538    8    0    1
 -2       716       819       832      3300      3347      3345
 -1      1539    8    0    1
 -2       701       807       806      3264      3348      3261
 -1      1540    8    0    1
 -2       702       696       740      2944      3068      3349
 -1      1541    8    0    1
 -2       728       609       833      3030      3350      3351
 -1      1542    8    0    1
 -2       609       816       833      3289      3352      3350
 -1      1543    8    0    1
 -2       694       722       763      3005      3321      3353
 -1      1544    8    0    1
 -2       608       706       834      2953      3354      3355
 -1      1545    8    0    1
 -2       816       608       834      3288      3355      3356
 -1      1546    8    0    1
 -2       706       818       834      3298      3357      3354
 -1      1547    8    0    1
 -2       719       727       835      3037      3358      3359
 -1      1548    8    0    1
 -2       694       763       811      3353      3360      3272
 -1      1549    8    0    1
 -2       835       727       832      3358      3346      3361
 -1      1550    8    0    1
 -2       731       719       835      3294      3359      3362
 -1      1551    8    0    1
 -2       768       769       836      3153      3363      3364
 -1      1552    8    0    1
 -2       767       768       837      3150      3365      3366
 -1      1553    8    0    1
 -2       768       836       837      3364      3367      3365
 -1      1554    8    0    1
 -2       734       733       838      3050      3368      3369
 -1      1555    8    0    1
 -2       735       734       839      3053      3370      3371
 -1      1556    8    0    1
 -2       734       838       839      3369      3372      3370
 -1      1557    8    0    1
 -2       736       735       840      3056      3373      3374
 -1      1558    8    0    1
 -2       735       839       840      3371      3375      3373
 -1      1559    8    0    1
 -2       737       736       841      3059      3376      3377
 -1      1560    8    0    1
 -2       736       840       841      3374      3378      3376
 -1      1561    8    0    1
 -2       738       737       842      3062      3379      3380
 -1      1562    8    0    1
 -2       737       841       842      3377      3381      3379
 -1      1563    8    0    1
 -2       739       738       843      3065      3382      3383
 -1      1564    8    0    1
 -2       738       842       843      3380      3384      3382
 -1      1565    8    0    1
 -2       743       742       844      3078      3385      3386
 -1      1566    8    0    1
 -2       744       743       845      3081      3387      3388
 -1      1567    8    0    1
 -2       743       844       845      3386      3389      3387
 -1      1568    8    0    1
 -2       745       744       846      3084      3390      3391
 -1      1569    8    0    1
 -2       744       845       846      3388      3392      3390
 -1      1570    8    0    1
 -2       746       745       847      3087      3393      3394
 -1      1571    8    0    1
 -2       745       846       847      3391      3395      3393
 -1      1572    8    0    1
 -2       747       746       848      3090      3396      3397
 -1      1573    8    0    1
 -2       746       847       848      3394      3398      3396
 -1      1574    8    0    1
 -2       748       747       849      3093      3399      3400
 -1      1575    8    0    1
 -2       747       848       849      3397      3401      3399
 -1      1576    8    0    1
 -2       749       748       850      3096      3402      3403
 -1      1577    8    0    1
 -2       748       849       850      3400      3404      3402
 -1      1578    8    0    1
 -2       750       749       851      3099      3405      3406
 -1      1579    8    0    1
 -2       749       850       851      3403      3407      3405
 -1      1580    8    0    1
 -2       751       750       852      3102      3408      3409
 -1      1581    8    0    1
 -2       750       851       852      3406      3410      3408
 -1      1582    8    0    1
 -2       752       751       853      3105      3411      3412
 -1      1583    8    0    1
 -2       751       852       853      3409      3413      3411
 -1      1584    8    0    1
 -2       753       752       854      3108      3414      3415
 -1      1585    8    0    1
 -2       752       853       854      3412      3416      3414
 -1      1586    8    0    1
 -2       754       753       855      3111      3417      3418
 -1      1587    8    0    1
 -2       753       854       855      3415      3419      3417
 -1      1588    8    0    1
 -2       755       754       856      3114      3420      3421
 -1      1589    8    0    1
 -2       754       855       856      3418      3422      3420
 -1      1590    8    0    1
 -2       756       755       857      3117      3423      3424
 -1      1591    8    0    1
 -2       755       856       857      3421      3425      3423
 -1      1592    8    0    1
 -2       757       756       858      3120      3426      3427
 -1      1593    8    0    1
 -2       756       857       858      3424      3428      3426
 -1      1594    8    0    1
 -2       758       757       859      3123      3429      3430
 -1      1595    8    0    1
 -2       757       858       859      3427      3431      3429
 -1      1596    8    0    1
 -2       759       758       860      3126      3432      3433
 -1      1597    8    0    1
 -2       758       859       860      3430      3434      3432
 -1      1598    8    0    1
 -2       760       759       861      3129      3435      3436
 -1      1599    8    0    1
 -2       759       860       861      3433      3437      3435
 -1      1600    8    0    1
 -2       761       760       862      3132      3438      3439
 -1      1601    8    0    1
 -2       760       861       862      3436      3440      3438
 -1      1602    8    0    1
 -2       762       761       863      3135      3441      3442
 -1      1603    8    0    1
 -2       761       862       863      3439      3443      3441
 -1      1604    8    0    1
 -2       763       762       864      3138      3444      3445
 -1      1605    8    0    1
 -2       811       763       864      3360      3445      3446
 -1      1606    8    0    1
 -2       762       863       864      3442      3447      3444
 -1      1607    8    0    1
 -2       766       767       865      3147      3448      3449
 -1      1608    8    0    1
 -2       767       837       865      3366      3450      3448
 -1      1609    8    0    1
 -2       769       770       866      3156      3451      3452
 -1      1610    8    0    1
 -2       769       866       836      3452      3453      3363
 -1      1611    8    0    1
 -2       770       771       867      3159      3454      3455
 -1      1612    8    0    1
 -2       770       867       866      3455      3456      3451
 -1      1613    8    0    1
 -2       771       772       868      3162      3457      3458
 -1      1614    8    0    1
 -2       771       868       867      3458      3459      3454
 -1      1615    8    0    1
 -2       772       773       869      3165      3460      3461
 -1      1616    8    0    1
 -2       772       869       868      3461      3462      3457
 -1      1617    8    0    1
 -2       773       774       870      3168      3463      3464
 -1      1618    8    0    1
 -2       773       870       869      3464      3465      3460
 -1      1619    8    0    1
 -2       774       775       871      3171      3466      3467
 -1      1620    8    0    1
 -2       774       871       870      3467      3468      3463
 -1      1621    8    0    1
 -2       775       776       872      3174      3469      3470
 -1      1622    8    0    1
 -2       775       872       871      3470      3471      3466
 -1      1623    8    0    1
 -2       776       777       873      3177      3472      3473
 -1      1624    8    0    1
 -2       776       873       872      3473      3474      3469
 -1      1625    8    0    1
 -2       777       778       874      3180      3475      3476
 -1      1626    8    0    1
 -2       777       874       873      3476      3477      3472
 -1      1627    8    0    1
 -2       778       779       875      3183      3478      3479
 -1      1628    8    0    1
 -2       778       875       874      3479      3480      3475
 -1      1629    8    0    1
 -2       779       780       876      3186      3481      3482
 -1      1630    8    0    1
 -2       779       876       875      3482      3483      3478
 -1      1631    8    0    1
 -2       780       781       877      3189      3484      3485
 -1      1632    8    0    1
 -2       780       877       876      3485      3486      3481
 -1      1633    8    0    1
 -2       781       782       878      3192      3487      3488
 -1      1634    8    0    1
 -2       781       878       877      3488      3489      3484
 -1      1635    8    0    1
 -2       782       783       879      3195      3490      3491
 -1      1636    8    0    1
 -2       782       879       878      3491      3492      3487
 -1      1637    8    0    1
 -2       783       784       880      3198      3493      3494
 -1      1638    8    0    1
 -2       783       880       879      3494      3495      3490
 -1      1639    8    0    1
 -2       784       785       881      3201      3496      3497
 -1      1640    8    0    1
 -2       784       881       880      3497      3498      3493
 -1      1641    8    0    1
 -2       785       786       882      3204      3499      3500
 -1      1642    8    0    1
 -2       785       882       881      3500      3501      3496
 -1      1643    8    0    1
 -2       786       787       883      3207      3502      3503
 -1      1644    8    0    1
 -2       786       883       882      3503      3504      3499
 -1      1645    8    0    1
 -2       787       788       884      3210      3505      3506
 -1      1646    8    0    1
 -2       787       884       883      3506      3507      3502
 -1      1647    8    0    1
 -2       788       789       885      3213      3508      3509
 -1      1648    8    0    1
 -2       788       885       884      3509      3510      3505
 -1      1649    8    0    1
 -2       789       790       886      3216      3511      3512
 -1      1650    8    0    1
 -2       789       886       885      3512      3513      3508
 -1      1651    8    0    1
 -2       790       791       887      3219      3514      3515
 -1      1652    8    0    1
 -2       790       887       886      3515      3516      3511
 -1      1653    8    0    1
 -2       791       792       888      3222      3517      3518
 -1      1654    8    0    1
 -2       791       888       887      3518      3519      3514
 -1      1655    8    0    1
 -2       792       793       889      3225      3520      3521
 -1      1656    8    0    1
 -2       792       889       888      3521      3522      3517
 -1      1657    8    0    1
 -2       793       794       890      3228      3523      3524
 -1      1658    8    0    1
 -2       793       890       889      3524      3525      3520
 -1      1659    8    0    1
 -2       794       795       891      3231      3526      3527
 -1      1660    8    0    1
 -2       794       891       890      3527      3528      3523
 -1      1661    8    0    1
 -2       795       796       892      3234      3529      3530
 -1      1662    8    0    1
 -2       795       892       891      3530      3531      3526
 -1      1663    8    0    1
 -2       796       797       893      3237      3532      3533
 -1      1664    8    0    1
 -2       796       893       892      3533      3534      3529
 -1      1665    8    0    1
 -2       797       798       894      3240      3535      3536
 -1      1666    8    0    1
 -2       797       894       893      3536      3537      3532
 -1      1667    8    0    1
 -2       800       801       895      3249      3538      3539
 -1      1668    8    0    1
 -2       802       800       896      3252      3540      3541
 -1      1669    8    0    1
 -2       800       895       896      3539      3542      3540
 -1      1670    8    0    1
 -2       814       809       897      3283      3543      3544
 -1      1671    8    0    1
 -2       724       812       898      3320      3545      3546
 -1      1672    8    0    1
 -2       742       741       899      3075      3547      3548
 -1      1673    8    0    1
 -2       742       899       844      3548      3549      3385
 -1      1674    8    0    1
 -2       717       805       900      3322      3550      3551
 -1      1675    8    0    1
 -2       835       832       901      3361      3552      3553
 -1      1676    8    0    1
 -2       731       835       732      3362      3554      3042
 -1      1677    8    0    1
 -2       729       829       820      3338      3555      3556
 -1      1678    8    0    1
 -2       764       723       902      3308      3557      3558
 -1      1679    8    0    1
 -2       807       765       903      3265      3559      3560
 -1      1680    8    0    1
 -2       702       740       820      3349      3561      3304
 -1      1681    8    0    1
 -2       806       807       904      3348      3562      3563
 -1      1682    8    0    1
 -2       807       903       904      3560      3564      3562
 -1      1683    8    0    1
 -2       714       728       905      3029      3565      3566
 -1      1684    8    0    1
 -2       714       905       831      3566      3567      3342
 -1      1685    8    0    1
 -2       765       803       906      3255      3568      3569
 -1      1686    8    0    1
 -2       765       906       903      3569      3570      3559
 -1      1687    8    0    1
 -2       741       815       907      3286      3571      3572
 -1      1688    8    0    1
 -2       741       907       899      3572      3573      3547
 -1      1689    8    0    1
 -2       809       726       908      3336      3574      3575
 -1      1690    8    0    1
 -2       801       811       909      3274      3576      3577
 -1      1691    8    0    1
 -2       895       801       909      3538      3577      3578
 -1      1692    8    0    1
 -2       811       864       909      3446      3579      3576
 -1      1693    8    0    1
 -2       808       814       910      3316      3580      3581
 -1      1694    8    0    1
 -2       814       897       910      3544      3582      3580
 -1      1695    8    0    1
 -2       720       725       911      3019      3583      3584
 -1      1696    8    0    1
 -2       799       720       911      3244      3584      3585
 -1      1697    8    0    1
 -2       725       830       911      3340      3586      3583
 -1      1698    8    0    1
 -2       612       613       731      2679      3295      3038
 -1      1699    8    0    1
 -2       805       810       912      3332      3587      3588
 -1      1700    8    0    1
 -2       732       835       913      3554      3589      3590
 -1      1701    8    0    1
 -2       818       732       913      3296      3590      3591
 -1      1702    8    0    1
 -2       835       901       913      3553      3592      3589
 -1      1703    8    0    1
 -2       808       910       823      3581      3593      3313
 -1      1704    8    0    1
 -2       819       806       914      3301      3594      3595
 -1      1705    8    0    1
 -2       806       904       914      3563      3596      3594
 -1      1706    8    0    1
 -2       821       724       898      3307      3546      3597
 -1      1707    8    0    1
 -2       838       733       915      3368      3598      3599
 -1      1708    8    0    1
 -2       733       820       915      3303      3600      3598
 -1      1709    8    0    1
 -2       739       843       817      3383      3601      3602
 -1      1710    8    0    1
 -2       717       900       827      3551      3603      3331
 -1      1711    8    0    1
 -2       740       729       820      3069      3556      3561
 -1      1712    8    0    1
 -2       721       804       916      3258      3604      3605
 -1      1713    8    0    1
 -2       822       764       917      3309      3606      3607
 -1      1714    8    0    1
 -2       764       902       917      3558      3608      3606
 -1      1715    8    0    1
 -2       766       865       918      3449      3609      3610
 -1      1716    8    0    1
 -2       766       918       813      3610      3611      3280
 -1      1717    8    0    1
 -2       726       822       908      3311      3612      3574
 -1      1718    8    0    1
 -2       718       821       919      3306      3613      3614
 -1      1719    8    0    1
 -2       718       919       828      3614      3615      3335
 -1      1720    8    0    1
 -2       715       817       920      3292      3616      3617
 -1      1721    8    0    1
 -2       824       802       921      3317      3618      3619
 -1      1722    8    0    1
 -2       802       896       921      3541      3620      3618
 -1      1723    8    0    1
 -2       798       799       911      3243      3585      3621
 -1      1724    8    0    1
 -2       825       824       922      3325      3622      3623
 -1      1725    8    0    1
 -2       824       921       922      3619      3624      3622
 -1      1726    8    0    1
 -2       826       715       920      3328      3617      3625
 -1      1727    8    0    1
 -2       798       911       894      3621      3626      3535
 -1      1728    8    0    1
 -2       897       809       923      3543      3627      3628
 -1      1729    8    0    1
 -2       809       908       923      3575      3629      3627
 -1      1730    8    0    1
 -2       900       805       924      3550      3630      3631
 -1      1731    8    0    1
 -2       805       912       924      3588      3632      3630
 -1      1732    8    0    1
 -2       812       823       925      3315      3633      3634
 -1      1733    8    0    1
 -2       816       834       926      3356      3635      3636
 -1      1734    8    0    1
 -2       902       723       826      3557      3327      3637
 -1      1735    8    0    1
 -2       830       825       927      3341      3638      3639
 -1      1736    8    0    1
 -2       825       922       927      3623      3640      3638
 -1      1737    8    0    1
 -2       820       829       915      3555      3641      3600
 -1      1738    8    0    1
 -2       832       819       928      3347      3642      3643
 -1      1739    8    0    1
 -2       819       914       928      3595      3644      3642
 -1      1740    8    0    1
 -2       901       832       928      3552      3643      3645
 -1      1741    8    0    1
 -2       833       816       929      3352      3646      3647
 -1      1742    8    0    1
 -2       816       926       929      3636      3648      3646
 -1      1743    8    0    1
 -2       898       812       925      3545      3634      3649
 -1      1744    8    0    1
 -2       730       711       739      3036      3290      3650
 -1      1745    8    0    1
 -2       804       827       930      3330      3651      3652
 -1      1746    8    0    1
 -2       804       930       916      3652      3653      3604
 -1      1747    8    0    1
 -2       905       728       833      3565      3351      3654
 -1      1748    8    0    1
 -2       829       831       931      3344      3655      3656
 -1      1749    8    0    1
 -2       829       931       915      3656      3657      3641
 -1      1750    8    0    1
 -2       906       803       932      3568      3658      3659
 -1      1751    8    0    1
 -2       803       813       932      3279      3660      3658
 -1      1752    8    0    1
 -2       907       815       916      3571      3661      3662
 -1      1753    8    0    1
 -2       810       828       933      3334      3663      3664
 -1      1754    8    0    1
 -2       810       933       912      3664      3665      3587
 -1      1755    8    0    1
 -2       730       739       817      3650      3602      3293
 -1      1756    8    0    1
 -2       866       867       823      3456      3666      3667
 -1      1757    8    0    1
 -2       836       866       910      3453      3668      3669
 -1      1758    8    0    1
 -2       821       898       934      3597      3670      3671
 -1      1759    8    0    1
 -2       866       823       910      3667      3593      3668
 -1      1760    8    0    1
 -2       817       843       920      3601      3672      3616
 -1      1761    8    0    1
 -2       827       900       935      3603      3673      3674
 -1      1762    8    0    1
 -2       840       839       936      3375      3675      3676
 -1      1763    8    0    1
 -2       841       840       937      3378      3677      3678
 -1      1764    8    0    1
 -2       840       936       937      3676      3679      3677
 -1      1765    8    0    1
 -2       842       841       938      3381      3680      3681
 -1      1766    8    0    1
 -2       841       937       938      3678      3682      3680
 -1      1767    8    0    1
 -2       843       842       939      3384      3683      3684
 -1      1768    8    0    1
 -2       842       938       939      3681      3685      3683
 -1      1769    8    0    1
 -2       815       699       916      3287      3686      3661
 -1      1770    8    0    1
 -2       846       845       940      3392      3687      3688
 -1      1771    8    0    1
 -2       847       846       941      3395      3689      3690
 -1      1772    8    0    1
 -2       846       940       941      3688      3691      3689
 -1      1773    8    0    1
 -2       848       847       942      3398      3692      3693
 -1      1774    8    0    1
 -2       847       941       942      3690      3694      3692
 -1      1775    8    0    1
 -2       849       848       943      3401      3695      3696
 -1      1776    8    0    1
 -2       848       942       943      3693      3697      3695
 -1      1777    8    0    1
 -2       850       849       944      3404      3698      3699
 -1      1778    8    0    1
 -2       849       943       944      3696      3700      3698
 -1      1779    8    0    1
 -2       851       850       945      3407      3701      3702
 -1      1780    8    0    1
 -2       850       944       945      3699      3703      3701
 -1      1781    8    0    1
 -2       852       851       946      3410      3704      3705
 -1      1782    8    0    1
 -2       851       945       946      3702      3706      3704
 -1      1783    8    0    1
 -2       853       852       947      3413      3707      3708
 -1      1784    8    0    1
 -2       852       946       947      3705      3709      3707
 -1      1785    8    0    1
 -2       854       853       948      3416      3710      3711
 -1      1786    8    0    1
 -2       853       947       948      3708      3712      3710
 -1      1787    8    0    1
 -2       855       854       949      3419      3713      3714
 -1      1788    8    0    1
 -2       854       948       949      3711      3715      3713
 -1      1789    8    0    1
 -2       856       855       950      3422      3716      3717
 -1      1790    8    0    1
 -2       855       949       950      3714      3718      3716
 -1      1791    8    0    1
 -2       857       856       951      3425      3719      3720
 -1      1792    8    0    1
 -2       856       950       951      3717      3721      3719
 -1      1793    8    0    1
 -2       858       857       952      3428      3722      3723
 -1      1794    8    0    1
 -2       857       951       952      3720      3724      3722
 -1      1795    8    0    1
 -2       859       858       953      3431      3725      3726
 -1      1796    8    0    1
 -2       858       952       953      3723      3727      3725
 -1      1797    8    0    1
 -2       860       859       954      3434      3728      3729
 -1      1798    8    0    1
 -2       859       953       954      3726      3730      3728
 -1      1799    8    0    1
 -2       861       860       955      3437      3731      3732
 -1      1800    8    0    1
 -2       860       954       955      3729      3733      3731
 -1      1801    8    0    1
 -2       862       861       956      3440      3734      3735
 -1      1802    8    0    1
 -2       861       955       956      3732      3736      3734
 -1      1803    8    0    1
 -2       863       862       957      3443      3737      3738
 -1      1804    8    0    1
 -2       862       956       957      3735      3739      3737
 -1      1805    8    0    1
 -2       864       863       958      3447      3740      3741
 -1      1806    8    0    1
 -2       909       864       958      3579      3741      3742
 -1      1807    8    0    1
 -2       863       957       958      3738      3743      3740
 -1      1808    8    0    1
 -2       896       895       959      3542      3744      3745
 -1      1809    8    0    1
 -2       901       928       960      3645      3746      3747
 -1      1810    8    0    1
 -2       826       920       961      3625      3748      3749
 -1      1811    8    0    1
 -2       867       868       925      3459      3750      3751
 -1      1812    8    0    1
 -2       869       870       962      3465      3752      3753
 -1      1813    8    0    1
 -2       870       871       963      3468      3754      3755
 -1      1814    8    0    1
 -2       870       963       962      3755      3756      3752
 -1      1815    8    0    1
 -2       871       872       964      3471      3757      3758
 -1      1816    8    0    1
 -2       871       964       963      3758      3759      3754
 -1      1817    8    0    1
 -2       872       873       965      3474      3760      3761
 -1      1818    8    0    1
 -2       872       965       964      3761      3762      3757
 -1      1819    8    0    1
 -2       873       874       966      3477      3763      3764
 -1      1820    8    0    1
 -2       873       966       965      3764      3765      3760
 -1      1821    8    0    1
 -2       874       875       967      3480      3766      3767
 -1      1822    8    0    1
 -2       874       967       966      3767      3768      3763
 -1      1823    8    0    1
 -2       875       876       968      3483      3769      3770
 -1      1824    8    0    1
 -2       875       968       967      3770      3771      3766
 -1      1825    8    0    1
 -2       876       877       969      3486      3772      3773
 -1      1826    8    0    1
 -2       876       969       968      3773      3774      3769
 -1      1827    8    0    1
 -2       877       878       970      3489      3775      3776
 -1      1828    8    0    1
 -2       877       970       969      3776      3777      3772
 -1      1829    8    0    1
 -2       878       879       971      3492      3778      3779
 -1      1830    8    0    1
 -2       878       971       970      3779      3780      3775
 -1      1831    8    0    1
 -2       879       880       972      3495      3781      3782
 -1      1832    8    0    1
 -2       879       972       971      3782      3783      3778
 -1      1833    8    0    1
 -2       880       881       973      3498      3784      3785
 -1      1834    8    0    1
 -2       880       973       972      3785      3786      3781
 -1      1835    8    0    1
 -2       881       882       974      3501      3787      3788
 -1      1836    8    0    1
 -2       881       974       973      3788      3789      3784
 -1      1837    8    0    1
 -2       882       883       975      3504      3790      3791
 -1      1838    8    0    1
 -2       882       975       974      3791      3792      3787
 -1      1839    8    0    1
 -2       883       884       976      3507      3793      3794
 -1      1840    8    0    1
 -2       883       976       975      3794      3795      3790
 -1      1841    8    0    1
 -2       884       885       977      3510      3796      3797
 -1      1842    8    0    1
 -2       884       977       976      3797      3798      3793
 -1      1843    8    0    1
 -2       885       886       978      3513      3799      3800
 -1      1844    8    0    1
 -2       885       978       977      3800      3801      3796
 -1      1845    8    0    1
 -2       886       887       979      3516      3802      3803
 -1      1846    8    0    1
 -2       886       979       978      3803      3804      3799
 -1      1847    8    0    1
 -2       887       888       980      3519      3805      3806
 -1      1848    8    0    1
 -2       887       980       979      3806      3807      3802
 -1      1849    8    0    1
 -2       888       889       981      3522      3808      3809
 -1      1850    8    0    1
 -2       888       981       980      3809      3810      3805
 -1      1851    8    0    1
 -2       889       890       982      3525      3811      3812
 -1      1852    8    0    1
 -2       889       982       981      3812      3813      3808
 -1      1853    8    0    1
 -2       890       891       983      3528      3814      3815
 -1      1854    8    0    1
 -2       890       983       982      3815      3816      3811
 -1      1855    8    0    1
 -2       891       892       984      3531      3817      3818
 -1      1856    8    0    1
 -2       891       984       983      3818      3819      3814
 -1      1857    8    0    1
 -2       892       893       985      3534      3820      3821
 -1      1858    8    0    1
 -2       892       985       984      3821      3822      3817
 -1      1859    8    0    1
 -2       910       897       836      3582      3823      3669
 -1      1860    8    0    1
 -2       899       907       986      3573      3824      3825
 -1      1861    8    0    1
 -2       838       915       931      3599      3657      3826
 -1      1862    8    0    1
 -2       844       899       987      3549      3827      3828
 -1      1863    8    0    1
 -2       899       986       987      3825      3829      3827
 -1      1864    8    0    1
 -2       925       823       867      3633      3666      3751
 -1      1865    8    0    1
 -2       898       925       988      3649      3830      3831
 -1      1866    8    0    1
 -2       934       898       988      3670      3831      3832
 -1      1867    8    0    1
 -2       925       868       988      3750      3833      3830
 -1      1868    8    0    1
 -2       902       826       961      3637      3749      3834
 -1      1869    8    0    1
 -2       908       822       989      3612      3835      3836
 -1      1870    8    0    1
 -2       894       911       830      3626      3586      3837
 -1      1871    8    0    1
 -2       903       906       990      3570      3838      3839
 -1      1872    8    0    1
 -2       831       905       991      3567      3840      3841
 -1      1873    8    0    1
 -2       831       991       931      3841      3842      3655
 -1      1874    8    0    1
 -2       907       916       930      3662      3653      3843
 -1      1875    8    0    1
 -2       836       897       837      3823      3844      3367
 -1      1876    8    0    1
 -2       894       830       927      3837      3639      3845
 -1      1877    8    0    1
 -2       904       903       992      3564      3846      3847
 -1      1878    8    0    1
 -2       903       990       992      3839      3848      3846
 -1      1879    8    0    1
 -2       834       818       993      3357      3849      3850
 -1      1880    8    0    1
 -2       926       834       993      3635      3850      3851
 -1      1881    8    0    1
 -2       818       913       993      3591      3852      3849
 -1      1882    8    0    1
 -2       845       844       994      3389      3853      3854
 -1      1883    8    0    1
 -2       940       845       994      3687      3854      3855
 -1      1884    8    0    1
 -2       844       987       994      3828      3856      3853
 -1      1885    8    0    1
 -2       905       833       995      3654      3857      3858
 -1      1886    8    0    1
 -2       991       905       995      3840      3858      3859
 -1      1887    8    0    1
 -2       833       929       995      3647      3860      3857
 -1      1888    8    0    1
 -2       920       843       939      3672      3684      3861
 -1      1889    8    0    1
 -2       865       837       923      3450      3862      3863
 -1      1890    8    0    1
 -2       839       838       996      3372      3864      3865
 -1      1891    8    0    1
 -2       839       996       936      3865      3866      3675
 -1      1892    8    0    1
 -2       837       897       923      3844      3628      3862
 -1      1893    8    0    1
 -2       914       904       997      3596      3867      3868
 -1      1894    8    0    1
 -2       904       992       997      3847      3869      3867
 -1      1895    8    0    1
 -2       821       934       919      3671      3870      3613
 -1      1896    8    0    1
 -2       961       920       998      3748      3871      3872
 -1      1897    8    0    1
 -2       920       939       998      3861      3873      3871
 -1      1898    8    0    1
 -2       935       900       999      3673      3874      3875
 -1      1899    8    0    1
 -2       900       924       999      3631      3876      3874
 -1      1900    8    0    1
 -2       865       923      1000      3863      3877      3878
 -1      1901    8    0    1
 -2       918       865      1000      3609      3878      3879
 -1      1902    8    0    1
 -2       923       908      1000      3629      3880      3877
 -1      1903    8    0    1
 -2       917       902      1001      3608      3881      3882
 -1      1904    8    0    1
 -2       822       917       989      3607      3883      3835
 -1      1905    8    0    1
 -2      1001       902       961      3881      3834      3884
 -1      1906    8    0    1
 -2       921       896      1002      3620      3885      3886
 -1      1907    8    0    1
 -2       896       959      1002      3745      3887      3885
 -1      1908    8    0    1
 -2       960       928      1003      3746      3888      3889
 -1      1909    8    0    1
 -2       928       914      1003      3644      3890      3888
 -1      1910    8    0    1
 -2       901       960       913      3747      3891      3592
 -1      1911    8    0    1
 -2       908       989      1000      3836      3892      3880
 -1      1912    8    0    1
 -2       827       935       930      3674      3893      3651
 -1      1913    8    0    1
 -2       869       962       988      3753      3894      3895
 -1      1914    8    0    1
 -2       868       869       988      3462      3895      3833
 -1      1915    8    0    1
 -2       893       894      1004      3537      3896      3897
 -1      1916    8    0    1
 -2       906       932      1005      3659      3898      3899
 -1      1917    8    0    1
 -2       906      1005       990      3899      3900      3838
 -1      1918    8    0    1
 -2       986       907       930      3824      3843      3901
 -1      1919    8    0    1
 -2       922       921      1006      3624      3902      3903
 -1      1920    8    0    1
 -2       921      1002      1006      3886      3904      3902
 -1      1921    8    0    1
 -2       838       931       996      3826      3905      3864
 -1      1922    8    0    1
 -2       924       912      1007      3632      3906      3907
 -1      1923    8    0    1
 -2       927       922      1008      3640      3908      3909
 -1      1924    8    0    1
 -2       922      1006      1008      3903      3910      3908
 -1      1925    8    0    1
 -2       813       918       932      3611      3911      3660
 -1      1926    8    0    1
 -2       893      1004       985      3897      3912      3820
 -1      1927    8    0    1
 -2       929       926      1009      3648      3913      3914
 -1      1928    8    0    1
 -2       933       828      1010      3663      3915      3916
 -1      1929    8    0    1
 -2       828       919      1010      3615      3917      3915
 -1      1930    8    0    1
 -2       912       933      1007      3665      3918      3906
 -1      1931    8    0    1
 -2       895       909      1011      3578      3919      3920
 -1      1932    8    0    1
 -2       959       895      1011      3744      3920      3921
 -1      1933    8    0    1
 -2       909       958      1011      3742      3922      3919
 -1      1934    8    0    1
 -2       926       993      1012      3851      3923      3924
 -1      1935    8    0    1
 -2       926      1012      1009      3924      3925      3913
 -1      1936    8    0    1
 -2       937       936      1013      3679      3926      3927
 -1      1937    8    0    1
 -2       930       935       986      3893      3928      3901
 -1      1938    8    0    1
 -2       916       699       721      3686      3000      3605
 -1      1939    8    0    1
 -2       938       937      1014      3682      3929      3930
 -1      1940    8    0    1
 -2       937      1013      1014      3927      3931      3929
 -1      1941    8    0    1
 -2       939       938      1015      3685      3932      3933
 -1      1942    8    0    1
 -2       998       939      1015      3873      3933      3934
 -1      1943    8    0    1
 -2       938      1014      1015      3930      3935      3932
 -1      1944    8    0    1
 -2       941       940      1016      3691      3936      3937
 -1      1945    8    0    1
 -2       989       917      1017      3883      3938      3939
 -1      1946    8    0    1
 -2       942       941      1018      3694      3940      3941
 -1      1947    8    0    1
 -2       941      1016      1018      3937      3942      3940
 -1      1948    8    0    1
 -2       943       942      1019      3697      3943      3944
 -1      1949    8    0    1
 -2       942      1018      1019      3941      3945      3943
 -1      1950    8    0    1
 -2       944       943      1020      3700      3946      3947
 -1      1951    8    0    1
 -2       943      1019      1020      3944      3948      3946
 -1      1952    8    0    1
 -2       945       944      1021      3703      3949      3950
 -1      1953    8    0    1
 -2       944      1020      1021      3947      3951      3949
 -1      1954    8    0    1
 -2       946       945      1022      3706      3952      3953
 -1      1955    8    0    1
 -2       945      1021      1022      3950      3954      3952
 -1      1956    8    0    1
 -2       947       946      1023      3709      3955      3956
 -1      1957    8    0    1
 -2       946      1022      1023      3953      3957      3955
 -1      1958    8    0    1
 -2       948       947      1024      3712      3958      3959
 -1      1959    8    0    1
 -2       947      1023      1024      3956      3960      3958
 -1      1960    8    0    1
 -2       949       948      1025      3715      3961      3962
 -1      1961    8    0    1
 -2       948      1024      1025      3959      3963      3961
 -1      1962    8    0    1
 -2       950       949      1026      3718      3964      3965
 -1      1963    8    0    1
 -2       949      1025      1026      3962      3966      3964
 -1      1964    8    0    1
 -2       951       950      1027      3721      3967      3968
 -1      1965    8    0    1
 -2       950      1026      1027      3965      3969      3967
 -1      1966    8    0    1
 -2       952       951      1028      3724      3970      3971
 -1      1967    8    0    1
 -2       951      1027      1028      3968      3972      3970
 -1      1968    8    0    1
 -2       953       952      1029      3727      3973      3974
 -1      1969    8    0    1
 -2       952      1028      1029      3971      3975      3973
 -1      1970    8    0    1
 -2       954       953      1030      3730      3976      3977
 -1      1971    8    0    1
 -2       953      1029      1030      3974      3978      3976
 -1      1972    8    0    1
 -2       955       954      1031      3733      3979      3980
 -1      1973    8    0    1
 -2       954      1030      1031      3977      3981      3979
 -1      1974    8    0    1
 -2       956       955      1032      3736      3982      3983
 -1      1975    8    0    1
 -2       955      1031      1032      3980      3984      3982
 -1      1976    8    0    1
 -2       988       962       934      3894      3985      3832
 -1      1977    8    0    1
 -2       962       963      1010      3756      3986      3987
 -1      1978    8    0    1
 -2       965       966      1033      3765      3988      3989
 -1      1979    8    0    1
 -2       966       967      1034      3768      3990      3991
 -1      1980    8    0    1
 -2       966      1034      1033      3991      3992      3988
 -1      1981    8    0    1
 -2       967       968      1035      3771      3993      3994
 -1      1982    8    0    1
 -2       967      1035      1034      3994      3995      3990
 -1      1983    8    0    1
 -2       968       969      1036      3774      3996      3997
 -1      1984    8    0    1
 -2       968      1036      1035      3997      3998      3993
 -1      1985    8    0    1
 -2       969       970      1037      3777      3999      4000
 -1      1986    8    0    1
 -2       969      1037      1036      4000      4001      3996
 -1      1987    8    0    1
 -2       970       971      1038      3780      4002      4003
 -1      1988    8    0    1
 -2       970      1038      1037      4003      4004      3999
 -1      1989    8    0    1
 -2       971       972      1039      3783      4005      4006
 -1      1990    8    0    1
 -2       971      1039      1038      4006      4007      4002
 -1      1991    8    0    1
 -2       972       973      1040      3786      4008      4009
 -1      1992    8    0    1
 -2       972      1040      1039      4009      4010      4005
 -1      1993    8    0    1
 -2       973       974      1041      3789      4011      4012
 -1      1994    8    0    1
 -2       973      1041      1040      4012      4013      4008
 -1      1995    8    0    1
 -2       974       975      1042      3792      4014      4015
 -1      1996    8    0    1
 -2       974      1042      1041      4015      4016      4011
 -1      1997    8    0    1
 -2       975       976      1043      3795      4017      4018
 -1      1998    8    0    1
 -2       975      1043      1042      4018      4019      4014
 -1      1999    8    0    1
 -2       976       977      1044      3798      4020      4021
 -1      2000    8    0    1
 -2       976      1044      1043      4021      4022      4017
 -1      2001    8    0    1
 -2       977       978      1045      3801      4023      4024
 -1      2002    8    0    1
 -2       977      1045      1044      4024      4025      4020
 -1      2003    8    0    1
 -2       978       979      1046      3804      4026      4027
 -1      2004    8    0    1
 -2       978      1046      1045      4027      4028      4023
 -1      2005    8    0    1
 -2       979       980      1047      3807      4029      4030
 -1      2006    8    0    1
 -2       979      1047      1046      4030      4031      4026
 -1      2007    8    0    1
 -2       980       981      1048      3810      4032      4033
 -1      2008    8    0    1
 -2       980      1048      1047      4033      4034      4029
 -1      2009    8    0    1
 -2       981       982      1049      3813      4035      4036
 -1      2010    8    0    1
 -2       981      1049      1048      4036      4037      4032
 -1      2011    8    0    1
 -2       982       983      1050      3816      4038      4039
 -1      2012    8    0    1
 -2       982      1050      1049      4039      4040      4035
 -1      2013    8    0    1
 -2       983       984      1051      3819      4041      4042
 -1      2014    8    0    1
 -2       983      1051      1050      4042      4043      4038
 -1      2015    8    0    1
 -2       984       985      1052      3822      4044      4045
 -1      2016    8    0    1
 -2       984      1052      1051      4045      4046      4041
 -1      2017    8    0    1
 -2       929      1009      1053      3914      4047      4048
 -1      2018    8    0    1
 -2       929      1053       995      4048      4049      3860
 -1      2019    8    0    1
 -2       917      1001      1017      3882      4050      3938
 -1      2020    8    0    1
 -2       987       986      1054      3829      4051      4052
 -1      2021    8    0    1
 -2      1001       961      1055      3884      4053      4054
 -1      2022    8    0    1
 -2       961       998      1055      3872      4055      4053
 -1      2023    8    0    1
 -2       992       990      1056      3848      4056      4057
 -1      2024    8    0    1
 -2       913       960       993      3891      4058      3852
 -1      2025    8    0    1
 -2       931       991      1057      3842      4059      4060
 -1      2026    8    0    1
 -2       931      1057       996      4060      4061      3905
 -1      2027    8    0    1
 -2       918      1000      1058      3879      4062      4063
 -1      2028    8    0    1
 -2       918      1058       932      4063      4064      3911
 -1      2029    8    0    1
 -2       964       965      1059      3762      4065      4066
 -1      2030    8    0    1
 -2       965      1033      1059      3989      4067      4065
 -1      2031    8    0    1
 -2       963       964      1060      3759      4068      4069
 -1      2032    8    0    1
 -2      1010       963      1060      3986      4069      4070
 -1      2033    8    0    1
 -2       964      1059      1060      4066      4071      4068
 -1      2034    8    0    1
 -2      1004       894       927      3896      3845      4072
 -1      2035    8    0    1
 -2      1004       927      1008      4072      3909      4073
 -1      2036    8    0    1
 -2       985      1004      1008      3912      4073      4074
 -1      2037    8    0    1
 -2       936       996      1061      3866      4075      4076
 -1      2038    8    0    1
 -2      1013       936      1061      3926      4076      4077
 -1      2039    8    0    1
 -2       996      1057      1061      4061      4078      4075
 -1      2040    8    0    1
 -2      1000       989      1058      3892      4079      4062
 -1      2041    8    0    1
 -2       924      1007      1062      3907      4080      4081
 -1      2042    8    0    1
 -2       986       935      1054      3928      4082      4051
 -1      2043    8    0    1
 -2       993       960      1012      4058      4083      3923
 -1      2044    8    0    1
 -2      1016       940      1063      3936      4084      4085
 -1      2045    8    0    1
 -2       940       994      1063      3855      4086      4084
 -1      2046    8    0    1
 -2       999       924      1062      3876      4081      4087
 -1      2047    8    0    1
 -2       935       999      1054      3875      4088      4082
 -1      2048    8    0    1
 -2       987      1054      1064      4052      4089      4090
 -1      2049    8    0    1
 -2       987      1064       994      4090      4091      3856
 -1      2050    8    0    1
 -2       989      1017      1058      3939      4092      4079
 -1      2051    8    0    1
 -2      1017      1001      1065      4050      4093      4094
 -1      2052    8    0    1
 -2      1001      1055      1065      4054      4095      4093
 -1      2053    8    0    1
 -2      1002       959      1066      3887      4096      4097
 -1      2054    8    0    1
 -2      1003       914       997      3890      3868      4098
 -1      2055    8    0    1
 -2       960      1003      1067      3889      4099      4100
 -1      2056    8    0    1
 -2       960      1067      1012      4100      4101      4083
 -1      2057    8    0    1
 -2       957       956      1068      3739      4102      4103
 -1      2058    8    0    1
 -2       958       957      1011      3743      4104      3922
 -1      2059    8    0    1
 -2       992      1056      1069      4057      4105      4106
 -1      2060    8    0    1
 -2       992      1069       997      4106      4107      3869
 -1      2061    8    0    1
 -2      1005       932      1058      3898      4064      4108
 -1      2062    8    0    1
 -2      1052       985      1008      4044      4074      4109
 -1      2063    8    0    1
 -2      1053      1009      1070      4047      4110      4111
 -1      2064    8    0    1
 -2       990      1005      1071      3900      4112      4113
 -1      2065    8    0    1
 -2       990      1071      1056      4113      4114      4056
 -1      2066    8    0    1
 -2      1006      1002      1072      3904      4115      4116
 -1      2067    8    0    1
 -2      1002      1066      1072      4097      4117      4115
 -1      2068    8    0    1
 -2      1008      1006      1052      3910      4118      4109
 -1      2069    8    0    1
 -2       959      1011      1068      3921      4119      4120
 -1      2070    8    0    1
 -2       957      1068      1011      4103      4119      4104
 -1      2071    8    0    1
 -2      1052      1006      1072      4118      4116      4121
 -1      2072    8    0    1
 -2       934       962      1010      3985      3987      4122
 -1      2073    8    0    1
 -2       933      1010      1060      3916      4070      4123
 -1      2074    8    0    1
 -2      1009      1012      1067      3925      4101      4124
 -1      2075    8    0    1
 -2      1007       933      1060      3918      4123      4125
 -1      2076    8    0    1
 -2       959      1068      1066      4120      4126      4096
 -1      2077    8    0    1
 -2       991       995      1073      3859      4127      4128
 -1      2078    8    0    1
 -2      1057       991      1073      4059      4128      4129
 -1      2079    8    0    1
 -2       995      1053      1073      4049      4130      4127
 -1      2080    8    0    1
 -2      1007      1060      1074      4125      4131      4132
 -1      2081    8    0    1
 -2      1062      1007      1074      4080      4132      4133
 -1      2082    8    0    1
 -2      1060      1059      1074      4071      4134      4131
 -1      2083    8    0    1
 -2      1068       956      1032      4102      3983      4135
 -1      2084    8    0    1
 -2      1009      1067      1070      4124      4136      4110
 -1      2085    8    0    1
 -2      1018      1016      1075      3942      4137      4138
 -1      2086    8    0    1
 -2      1070      1067      1076      4136      4139      4140
 -1      2087    8    0    1
 -2      1003       997      1077      4098      4141      4142
 -1      2088    8    0    1
 -2      1067      1003      1077      4099      4142      4143
 -1      2089    8    0    1
 -2       997      1069      1077      4107      4144      4141
 -1      2090    8    0    1
 -2      1019      1018      1078      3945      4145      4146
 -1      2091    8    0    1
 -2      1018      1075      1078      4138      4147      4145
 -1      2092    8    0    1
 -2      1020      1019      1079      3948      4148      4149
 -1      2093    8    0    1
 -2      1019      1078      1079      4146      4150      4148
 -1      2094    8    0    1
 -2      1021      1020      1080      3951      4151      4152
 -1      2095    8    0    1
 -2      1020      1079      1080      4149      4153      4151
 -1      2096    8    0    1
 -2      1022      1021      1081      3954      4154      4155
 -1      2097    8    0    1
 -2      1021      1080      1081      4152      4156      4154
 -1      2098    8    0    1
 -2      1023      1022      1082      3957      4157      4158
 -1      2099    8    0    1
 -2      1022      1081      1082      4155      4159      4157
 -1      2100    8    0    1
 -2      1024      1023      1083      3960      4160      4161
 -1      2101    8    0    1
 -2      1023      1082      1083      4158      4162      4160
 -1      2102    8    0    1
 -2      1025      1024      1084      3963      4163      4164
 -1      2103    8    0    1
 -2      1024      1083      1084      4161      4165      4163
 -1      2104    8    0    1
 -2      1026      1025      1085      3966      4166      4167
 -1      2105    8    0    1
 -2      1025      1084      1085      4164      4168      4166
 -1      2106    8    0    1
 -2      1027      1026      1086      3969      4169      4170
 -1      2107    8    0    1
 -2      1026      1085      1086      4167      4171      4169
 -1      2108    8    0    1
 -2      1028      1027      1087      3972      4172      4173
 -1      2109    8    0    1
 -2      1027      1086      1087      4170      4174      4172
 -1      2110    8    0    1
 -2      1029      1028      1088      3975      4175      4176
 -1      2111    8    0    1
 -2      1028      1087      1088      4173      4177      4175
 -1      2112    8    0    1
 -2      1030      1029      1089      3978      4178      4179
 -1      2113    8    0    1
 -2      1029      1088      1089      4176      4180      4178
 -1      2114    8    0    1
 -2      1031      1030      1090      3981      4181      4182
 -1      2115    8    0    1
 -2      1030      1089      1090      4179      4183      4181
 -1      2116    8    0    1
 -2      1032      1031      1091      3984      4184      4185
 -1      2117    8    0    1
 -2      1031      1090      1091      4182      4186      4184
 -1      2118    8    0    1
 -2      1034      1035      1092      3995      4187      4188
 -1      2119    8    0    1
 -2      1066      1068      1032      4126      4135      4189
 -1      2120    8    0    1
 -2      1033      1034      1093      3992      4190      4191
 -1      2121    8    0    1
 -2      1034      1092      1093      4188      4192      4190
 -1      2122    8    0    1
 -2      1036      1037      1094      4001      4193      4194
 -1      2123    8    0    1
 -2      1037      1038      1095      4004      4195      4196
 -1      2124    8    0    1
 -2      1037      1095      1094      4196      4197      4193
 -1      2125    8    0    1
 -2      1038      1039      1096      4007      4198      4199
 -1      2126    8    0    1
 -2      1038      1096      1095      4199      4200      4195
 -1      2127    8    0    1
 -2      1039      1040      1097      4010      4201      4202
 -1      2128    8    0    1
 -2      1039      1097      1096      4202      4203      4198
 -1      2129    8    0    1
 -2      1040      1041      1098      4013      4204      4205
 -1      2130    8    0    1
 -2      1040      1098      1097      4205      4206      4201
 -1      2131    8    0    1
 -2      1041      1042      1099      4016      4207      4208
 -1      2132    8    0    1
 -2      1041      1099      1098      4208      4209      4204
 -1      2133    8    0    1
 -2      1042      1043      1100      4019      4210      4211
 -1      2134    8    0    1
 -2      1042      1100      1099      4211      4212      4207
 -1      2135    8    0    1
 -2      1043      1044      1101      4022      4213      4214
 -1      2136    8    0    1
 -2      1043      1101      1100      4214      4215      4210
 -1      2137    8    0    1
 -2      1044      1045      1102      4025      4216      4217
 -1      2138    8    0    1
 -2      1044      1102      1101      4217      4218      4213
 -1      2139    8    0    1
 -2      1045      1046      1103      4028      4219      4220
 -1      2140    8    0    1
 -2      1045      1103      1102      4220      4221      4216
 -1      2141    8    0    1
 -2      1046      1047      1104      4031      4222      4223
 -1      2142    8    0    1
 -2      1046      1104      1103      4223      4224      4219
 -1      2143    8    0    1
 -2      1047      1048      1105      4034      4225      4226
 -1      2144    8    0    1
 -2      1047      1105      1104      4226      4227      4222
 -1      2145    8    0    1
 -2      1048      1049      1106      4037      4228      4229
 -1      2146    8    0    1
 -2      1048      1106      1105      4229      4230      4225
 -1      2147    8    0    1
 -2      1049      1050      1107      4040      4231      4232
 -1      2148    8    0    1
 -2      1049      1107      1106      4232      4233      4228
 -1      2149    8    0    1
 -2      1050      1051      1108      4043      4234      4235
 -1      2150    8    0    1
 -2      1050      1108      1107      4235      4236      4231
 -1      2151    8    0    1
 -2      1051      1052      1109      4046      4237      4238
 -1      2152    8    0    1
 -2      1108      1051      1109      4234      4238      4239
 -1      2153    8    0    1
 -2      1052      1072      1109      4121      4240      4237
 -1      2154    8    0    1
 -2      1055       998      1015      4055      3934      4241
 -1      2155    8    0    1
 -2      1053      1070      1110      4111      4242      4243
 -1      2156    8    0    1
 -2      1053      1110      1073      4243      4244      4130
 -1      2157    8    0    1
 -2      1014      1013      1111      3931      4245      4246
 -1      2158    8    0    1
 -2      1035      1036      1112      3998      4247      4248
 -1      2159    8    0    1
 -2      1036      1094      1112      4194      4249      4247
 -1      2160    8    0    1
 -2      1054       999      1113      4088      4250      4251
 -1      2161    8    0    1
 -2      1059      1033      1074      4067      4252      4134
 -1      2162    8    0    1
 -2       999      1062      1113      4087      4253      4250
 -1      2163    8    0    1
 -2      1066      1032      1091      4189      4185      4254
 -1      2164    8    0    1
 -2      1064      1054      1114      4089      4255      4256
 -1      2165    8    0    1
 -2      1054      1113      1114      4251      4257      4255
 -1      2166    8    0    1
 -2      1070      1076      1115      4140      4258      4259
 -1      2167    8    0    1
 -2      1070      1115      1110      4259      4260      4242
 -1      2168    8    0    1
 -2      1015      1014      1116      3935      4261      4262
 -1      2169    8    0    1
 -2      1014      1111      1116      4246      4263      4261
 -1      2170    8    0    1
 -2      1065      1055      1117      4095      4264      4265
 -1      2171    8    0    1
 -2      1067      1077      1076      4143      4266      4139
 -1      2172    8    0    1
 -2      1057      1073      1118      4129      4267      4268
 -1      2173    8    0    1
 -2      1061      1057      1118      4078      4268      4269
 -1      2174    8    0    1
 -2      1073      1110      1118      4244      4270      4267
 -1      2175    8    0    1
 -2      1092      1035      1112      4187      4248      4271
 -1      2176    8    0    1
 -2      1055      1015      1116      4241      4262      4272
 -1      2177    8    0    1
 -2      1069      1056      1119      4105      4273      4274
 -1      2178    8    0    1
 -2      1075      1016      1120      4137      4275      4276
 -1      2179    8    0    1
 -2      1016      1063      1120      4085      4277      4275
 -1      2180    8    0    1
 -2      1062      1074      1121      4133      4278      4279
 -1      2181    8    0    1
 -2      1062      1121      1113      4279      4280      4253
 -1      2182    8    0    1
 -2      1056      1071      1065      4114      4281      4282
 -1      2183    8    0    1
 -2      1072      1066      1122      4117      4283      4284
 -1      2184    8    0    1
 -2      1005      1058      1017      4108      4092      4285
 -1      2185    8    0    1
 -2      1055      1116      1117      4272      4286      4264
 -1      2186    8    0    1
 -2      1063       994      1064      4086      4091      4287
 -1      2187    8    0    1
 -2      1066      1091      1122      4254      4288      4283
 -1      2188    8    0    1
 -2       919       934      1010      3870      4122      3917
 -1      2189    8    0    1
 -2      1013      1061      1123      4077      4289      4290
 -1      2190    8    0    1
 -2      1111      1013      1123      4245      4290      4291
 -1      2191    8    0    1
 -2      1061      1118      1123      4269      4292      4289
 -1      2192    8    0    1
 -2      1072      1122      1109      4284      4293      4240
 -1      2193    8    0    1
 -2      1005      1017      1071      4285      4294      4112
 -1      2194    8    0    1
 -2      1071      1017      1065      4294      4094      4281
 -1      2195    8    0    1
 -2      1063      1064      1124      4287      4295      4296
 -1      2196    8    0    1
 -2      1120      1063      1124      4277      4296      4297
 -1      2197    8    0    1
 -2      1064      1114      1124      4256      4298      4295
 -1      2198    8    0    1
 -2      1076      1077      1125      4266      4299      4300
 -1      2199    8    0    1
 -2      1115      1076      1125      4258      4300      4301
 -1      2200    8    0    1
 -2      1077      1069      1125      4144      4302      4299
 -1      2201    8    0    1
 -2      1096      1097      1126      4203      4303      4304
 -1      2202    8    0    1
 -2      1078      1075      1127      4147      4305      4306
 -1      2203    8    0    1
 -2      1109      1122      1128      4293      4307      4308
 -1      2204    8    0    1
 -2      1109      1128      1108      4308      4309      4239
 -1      2205    8    0    1
 -2      1079      1078      1126      4150      4310      4311
 -1      2206    8    0    1
 -2      1080      1079      1126      4153      4311      4312
 -1      2207    8    0    1
 -2      1081      1080      1129      4156      4313      4314
 -1      2208    8    0    1
 -2      1082      1081      1130      4159      4315      4316
 -1      2209    8    0    1
 -2      1081      1129      1130      4314      4317      4315
 -1      2210    8    0    1
 -2      1083      1082      1131      4162      4318      4319
 -1      2211    8    0    1
 -2      1082      1130      1131      4316      4320      4318
 -1      2212    8    0    1
 -2      1084      1083      1132      4165      4321      4322
 -1      2213    8    0    1
 -2      1083      1131      1132      4319      4323      4321
 -1      2214    8    0    1
 -2      1085      1084      1133      4168      4324      4325
 -1      2215    8    0    1
 -2      1084      1132      1133      4322      4326      4324
 -1      2216    8    0    1
 -2      1086      1085      1134      4171      4327      4328
 -1      2217    8    0    1
 -2      1085      1133      1134      4325      4329      4327
 -1      2218    8    0    1
 -2      1087      1086      1135      4174      4330      4331
 -1      2219    8    0    1
 -2      1086      1134      1135      4328      4332      4330
 -1      2220    8    0    1
 -2      1088      1087      1136      4177      4333      4334
 -1      2221    8    0    1
 -2      1087      1135      1136      4331      4335      4333
 -1      2222    8    0    1
 -2      1089      1088      1137      4180      4336      4337
 -1      2223    8    0    1
 -2      1088      1136      1137      4334      4338      4336
 -1      2224    8    0    1
 -2      1090      1089      1138      4183      4339      4340
 -1      2225    8    0    1
 -2      1089      1137      1138      4337      4341      4339
 -1      2226    8    0    1
 -2      1091      1090      1128      4186      4342      4343
 -1      2227    8    0    1
 -2      1119      1056      1065      4273      4282      4344
 -1      2228    8    0    1
 -2      1093      1092      1114      4192      4345      4346
 -1      2229    8    0    1
 -2      1095      1096      1127      4200      4347      4348
 -1      2230    8    0    1
 -2      1094      1095      1127      4197      4348      4349
 -1      2231    8    0    1
 -2      1097      1098      1129      4206      4350      4351
 -1      2232    8    0    1
 -2      1098      1099      1130      4209      4352      4353
 -1      2233    8    0    1
 -2      1099      1100      1131      4212      4354      4355
 -1      2234    8    0    1
 -2      1100      1101      1132      4215      4356      4357
 -1      2235    8    0    1
 -2      1101      1102      1133      4218      4358      4359
 -1      2236    8    0    1
 -2      1102      1103      1134      4221      4360      4361
 -1      2237    8    0    1
 -2      1103      1104      1135      4224      4362      4363
 -1      2238    8    0    1
 -2      1104      1105      1136      4227      4364      4365
 -1      2239    8    0    1
 -2      1105      1106      1137      4230      4366      4367
 -1      2240    8    0    1
 -2      1106      1107      1138      4233      4368      4369
 -1      2241    8    0    1
 -2      1107      1108      1128      4236      4309      4370
 -1      2242    8    0    1
 -2      1112      1094      1139      4249      4371      4372
 -1      2243    8    0    1
 -2      1069      1119      1125      4274      4373      4302
 -1      2244    8    0    1
 -2      1117      1116      1115      4286      4374      4375
 -1      2245    8    0    1
 -2      1092      1112      1124      4271      4376      4377
 -1      2246    8    0    1
 -2      1074      1033      1093      4252      4191      4378
 -1      2247    8    0    1
 -2      1122      1091      1128      4288      4343      4307
 -1      2248    8    0    1
 -2      1126      1097      1129      4303      4351      4379
 -1      2249    8    0    1
 -2      1127      1075      1139      4305      4380      4381
 -1      2250    8    0    1
 -2      1118      1110      1123      4270      4382      4292
 -1      2251    8    0    1
 -2      1078      1127      1126      4306      4383      4310
 -1      2252    8    0    1
 -2      1080      1126      1129      4312      4379      4313
 -1      2253    8    0    1
 -2      1119      1065      1117      4344      4265      4384
 -1      2254    8    0    1
 -2      1075      1120      1139      4276      4385      4380
 -1      2255    8    0    1
 -2      1127      1096      1126      4347      4304      4383
 -1      2256    8    0    1
 -2      1094      1127      1139      4349      4381      4371
 -1      2257    8    0    1
 -2      1129      1098      1130      4350      4353      4317
 -1      2258    8    0    1
 -2      1099      1131      1130      4355      4320      4352
 -1      2259    8    0    1
 -2      1100      1132      1131      4357      4323      4354
 -1      2260    8    0    1
 -2      1101      1133      1132      4359      4326      4356
 -1      2261    8    0    1
 -2      1102      1134      1133      4361      4329      4358
 -1      2262    8    0    1
 -2      1103      1135      1134      4363      4332      4360
 -1      2263    8    0    1
 -2      1104      1136      1135      4365      4335      4362
 -1      2264    8    0    1
 -2      1105      1137      1136      4367      4338      4364
 -1      2265    8    0    1
 -2      1106      1138      1137      4369      4341      4366
 -1      2266    8    0    1
 -2      1107      1128      1138      4370      4386      4368
 -1      2267    8    0    1
 -2      1074      1093      1121      4378      4387      4278
 -1      2268    8    0    1
 -2      1110      1115      1123      4260      4388      4382
 -1      2269    8    0    1
 -2      1116      1111      1115      4263      4389      4374
 -1      2270    8    0    1
 -2      1115      1111      1123      4389      4291      4388
 -1      2271    8    0    1
 -2      1112      1139      1124      4372      4390      4376
 -1      2272    8    0    1
 -2      1119      1117      1115      4384      4375      4391
 -1      2273    8    0    1
 -2      1090      1138      1128      4340      4386      4342
 -1      2274    8    0    1
 -2      1114      1113      1121      4257      4280      4392
 -1      2275    8    0    1
 -2      1114      1092      1124      4345      4377      4298
 -1      2276    8    0    1
 -2      1124      1139      1120      4390      4385      4297
 -1      2277    8    0    1
 -2      1125      1119      1115      4373      4391      4301
 -1      2278    8    0    1
 -2      1121      1093      1114      4387      4346      4392
 -3
    1PSTEP                         1           1           1          
  100CL  101 1.000000000        4392                     0    1           1
 -4  DISP        4    1
 -5  D1          1    2    1    0
 -5  D2          1    2    2    0
 -5  D3          1    2    3    0
 -5  ALL         1    2    0    0    1ALL
 -1         1 7.80591E-03-1.46028E-03-2.47569E-15
 -1         2 8.02244E-03-9.35209E-04-2.37353E-15
 -1         3 1.39996E-02-4.35495E-03-2.44103E-14
 -1         4 1.65783E-02-5.78477E-03-3.17033E-14
 -1         5 0.00000E+00 0.00000E+00 0.00000E+00
 -1         6 0.00000E+00 0.00000E+00 0.00000E+00
 -1         7 0.00000E+00 0.00000E+00 0.00000E+00
 -1         8 0.00000E+00 0.00000E+00 0.00000E+00
 -1         9 0.00000E+00 0.00000E+00 0.00000E+00
 -1        10 0.00000E+00 0.00000E+00 0.00000E+00
 -1        11 0.00000E+00 0.00000E+00 0.00000E+00
 -1        12 0.00000E+00 0.00000E+00 0.00000E+00
 -1        13 0.00000E+00 0.00000E+00 0.00000E+00
 -1        14 0.00000E+00 0.00000E+00 0.00000E+00
 -1        15 0.00000E+00 0.00000E+00 0.00000E+00
 -1        16 0.00000E+00 0.00000E+00 0.00000E+00
 -1        17 0.00000E+00 0.00000E+00 0.00000E+00
 -1        18 0.00000E+00 0.00000E+00 0.00000E+00
 -1        19 0.00000E+00 0.00000E+00 0.00000E+00
 -1        20 0.00000E+00 0.00000E+00 0.00000E+00
 -1        21 0.00000E+00 0.00000E+00 0.00000E+00
 -1        22 0.00000E+00 0.00000E+00 0.00000E+00
 -1        23 3.93573E-04-2.46149E-04-1.49450E-17
 -1        24 6.90140E-04-3.81562E-04-4.78032E-17
 -1        25 9.66090E-04-4.72465E-04-9.62839E-17
 -1        26 1.23927E-03-5.33986E-04-1.59662E-16
 -1        27 1.51544E-03-5.75643E-04-2.37098E-16
 -1        28 1.79846E-03-6.03292E-04-3.26968E-16
 -1        29 2.07694E-03-6.20887E-04-4.24455E-16
 -1        30 2.38418E-03-6.34730E-04-5.37076E-16
 -1        31 2.71119E-03-6.49487E-04-6.62712E-16
 -1        32 3.06494E-03-6.73623E-04-8.04905E-16
 -1        33 3.45374E-03-7.20506E-04-9.63131E-16
 -1        34 3.88491E-03-8.10930E-04-1.13235E-15
 -1        35 4.33399E-03-9.63248E-04-1.30444E-15
 -1        36 4.83007E-03-1.22077E-03-1.50384E-15
 -1        37 5.30189E-03-1.57819E-03-1.73329E-15
 -1        38 5.68466E-03-1.96247E-03-2.00572E-15
 -1        39 5.90995E-03-2.18572E-03-2.25886E-15
 -1        40 6.11389E-03-2.25434E-03-2.57205E-15
 -1        41 6.36993E-03-2.13725E-03-2.94966E-15
 -1        42 6.69592E-03-1.93697E-03-3.33600E-15
 -1        43 7.14123E-03-1.73167E-03-3.78945E-15
 -1        44 7.64298E-03-1.61135E-03-4.30306E-15
 -1        45 8.12629E-03-1.59509E-03-4.84560E-15
 -1        46 8.56919E-03-1.65600E-03-5.42148E-15
 -1        47 8.97074E-03-1.76513E-03-6.03556E-15
 -1        48 9.32063E-03-1.89433E-03-6.65142E-15
 -1        49 9.66405E-03-2.04462E-03-7.32752E-15
 -1        50 9.98918E-03-2.20220E-03-8.02867E-15
 -1        51 1.03016E-02-2.36293E-03-8.75102E-15
 -1        52 1.06053E-02-2.52466E-03-9.51954E-15
 -1        53 1.09030E-02-2.68630E-03-1.03409E-14
 -1        54 1.11967E-02-2.84734E-03-1.11989E-14
 -1        55 1.14730E-02-2.99959E-03-1.20209E-14
 -1        56 1.17620E-02-3.15905E-03-1.28897E-14
 -1        57 1.20497E-02-3.31771E-03-1.37734E-14
 -1        58 1.23365E-02-3.47566E-03-1.46805E-14
 -1        59 1.26228E-02-3.63298E-03-1.55991E-14
 -1        60 1.29087E-02-3.78977E-03-1.65399E-14
 -1        61 1.31800E-02-3.93831E-03-1.74679E-14
 -1        62 1.34656E-02-4.09430E-03-1.84737E-14
 -1        63 1.37510E-02-4.25000E-03-1.95128E-14
 -1        64 1.40365E-02-4.40545E-03-2.05929E-14
 -1        65 1.43219E-02-4.56072E-03-2.17093E-14
 -1        66 1.46074E-02-4.71584E-03-2.28660E-14
 -1        67 1.48787E-02-4.86311E-03-2.40048E-14
 -1        68 1.51642E-02-5.01806E-03-2.52487E-14
 -1        69 1.54499E-02-5.17297E-03-2.65315E-14
 -1        70 1.57355E-02-5.32784E-03-2.78355E-14
 -1        71 1.60212E-02-5.48272E-03-2.91332E-14
 -1        72 1.63069E-02-5.63761E-03-3.04417E-14
 -1        73 4.13002E-04 2.57035E-04 3.89838E-17
 -1        74 7.04685E-04 3.94122E-04 1.04866E-16
 -1        75 9.79814E-04 4.85830E-04 1.89671E-16
 -1        76 1.25070E-03 5.50747E-04 2.88008E-16
 -1        77 1.52213E-03 5.97742E-04 3.93684E-16
 -1        78 1.79616E-03 6.32672E-04 5.01925E-16
 -1        79 2.07347E-03 6.59834E-04 6.11192E-16
 -1        80 2.35379E-03 6.82515E-04 7.19666E-16
 -1        81 2.63606E-03 7.03133E-04 8.22293E-16
 -1        82 2.91844E-03 7.23133E-04 9.12421E-16
 -1        83 3.19845E-03 7.42725E-04 9.85245E-16
 -1        84 3.47322E-03 7.60566E-04 1.04212E-15
 -1        85 3.73994E-03 7.73538E-04 1.07694E-15
 -1        86 3.99662E-03 7.76829E-04 1.08379E-15
 -1        87 4.24278E-03 7.64499E-04 1.05381E-15
 -1        88 4.48001E-03 7.30583E-04 9.83415E-16
 -1        89 4.71197E-03 6.70505E-04 8.72705E-16
 -1        90 4.94371E-03 5.82338E-04 7.22668E-16
 -1        91 5.18048E-03 4.67389E-04 5.33577E-16
 -1        92 5.42644E-03 3.29851E-04 3.08449E-16
 -1        93 5.68384E-03 1.75688E-04 4.49029E-17
 -1        94 5.95286E-03 1.12489E-05-2.55729E-16
 -1        95 6.23203E-03-1.57908E-04-6.08742E-16
 -1        96 6.51894E-03-3.27666E-04-1.00663E-15
 -1        97 6.81095E-03-4.95480E-04-1.45444E-15
 -1        98 7.10570E-03-6.60158E-04-1.95741E-15
 -1        99 7.40134E-03-8.21468E-04-2.51424E-15
 -1       100 7.69662E-03-9.79758E-04-3.11537E-15
 -1       101 7.99082E-03-1.13565E-03-3.75958E-15
 -1       102 8.28359E-03-1.28981E-03-4.44389E-15
 -1       103 8.57488E-03-1.44287E-03-5.15499E-15
 -1       104 8.86480E-03-1.59531E-03-5.90537E-15
 -1       105 9.15353E-03-1.74752E-03-6.69219E-15
 -1       106 9.44130E-03-1.89976E-03-7.52002E-15
 -1       107 9.72833E-03-2.05217E-03-8.39887E-15
 -1       108 1.00148E-02-2.20485E-03-9.32731E-15
 -1       109 1.03009E-02-2.35783E-03-1.02991E-14
 -1       110 1.05867E-02-2.51111E-03-1.13019E-14
 -1       111 1.08723E-02-2.66467E-03-1.23268E-14
 -1       112 1.11579E-02-2.81847E-03-1.33829E-14
 -1       113 1.14434E-02-2.97248E-03-1.44632E-14
 -1       114 1.17289E-02-3.12667E-03-1.55694E-14
 -1       115 1.20144E-02-3.28099E-03-1.66856E-14
 -1       116 1.23000E-02-3.43541E-03-1.78137E-14
 -1       117 1.25855E-02-3.58990E-03-1.89260E-14
 -1       118 1.28711E-02-3.74444E-03-2.00112E-14
 -1       119 1.31568E-02-3.89901E-03-2.11091E-14
 -1       120 1.34425E-02-4.05358E-03-2.22235E-14
 -1       121 1.37282E-02-4.20813E-03-2.33487E-14
 -1       122 1.41516E-02-4.43923E-03-2.48249E-14
 -1       123 1.43035E-02-4.52352E-03-2.52550E-14
 -1       124 1.44555E-02-4.60784E-03-2.56790E-14
 -1       125 1.46074E-02-4.69218E-03-2.61156E-14
 -1       126 1.47594E-02-4.77655E-03-2.65569E-14
 -1       127 1.49088E-02-4.85951E-03-2.70188E-14
 -1       128 1.50608E-02-4.94392E-03-2.74896E-14
 -1       129 1.52129E-02-5.02835E-03-2.79553E-14
 -1       130 1.53651E-02-5.11278E-03-2.84188E-14
 -1       131 1.55172E-02-5.19721E-03-2.88578E-14
 -1       132 1.56695E-02-5.28162E-03-2.93038E-14
 -1       133 1.58192E-02-5.36459E-03-2.97691E-14
 -1       134 1.59715E-02-5.44896E-03-3.02147E-14
 -1       135 1.61239E-02-5.53330E-03-3.06222E-14
 -1       136 1.62762E-02-5.61762E-03-3.09799E-14
 -1       137 1.64286E-02-5.70191E-03-3.13442E-14
 -1       138 7.88533E-03-7.31775E-04-2.23394E-15
 -1       139 7.65316E-03-5.44961E-04-2.06067E-15
 -1       140 7.35867E-03-3.81774E-04-1.88174E-15
 -1       141 6.99668E-03-2.33323E-04-1.70294E-15
 -1       142 6.53892E-03-9.39431E-05-1.50547E-15
 -1       143 6.07308E-03 6.09056E-06-1.33396E-15
 -1       144 5.55107E-03 7.63352E-05-1.17328E-15
 -1       145 5.07104E-03 1.02184E-04-1.05149E-15
 -1       146 4.60235E-03 8.85982E-05-9.58801E-16
 -1       147 4.18923E-03 3.75537E-05-9.02158E-16
 -1       148 3.83928E-03-4.71331E-05-8.71346E-16
 -1       149 3.52784E-03-1.79822E-04-8.70905E-16
 -1       150 3.33188E-03-3.35003E-04-9.02642E-16
 -1       151 3.24326E-03-5.10850E-04-9.57462E-16
 -1       152 3.26471E-03-7.18585E-04-1.04118E-15
 -1       153 3.39954E-03-9.34963E-04-1.14011E-15
 -1       154 3.62784E-03-1.15078E-03-1.24943E-15
 -1       155 3.99128E-03-1.39463E-03-1.39215E-15
 -1       156 4.44529E-03-1.62316E-03-1.55334E-15
 -1       157 4.94691E-03-1.80593E-03-1.71350E-15
 -1       158 5.47702E-03-1.92598E-03-1.87152E-15
 -1       159 6.06219E-03-1.97144E-03-2.04597E-15
 -1       160 6.60101E-03-1.92844E-03-2.19857E-15
 -1       161 7.08354E-03-1.81630E-03-2.32271E-15
 -1       162 7.51007E-03-1.64576E-03-2.42357E-15
 -1       163 7.97270E-03-1.28520E-03-2.48020E-15
 -1       164 8.04276E-03-1.11089E-03-2.44768E-15
 -1       165 2.42535E-04-1.19440E-04-1.22786E-17
 -1       166 2.27292E-04-8.77573E-05-1.05337E-17
 -1       167 2.20612E-04-6.58585E-05-8.53470E-18
 -1       168 2.16602E-04-4.89414E-05-6.50860E-18
 -1       169 2.14014E-04-3.52487E-05-4.26905E-18
 -1       170 2.12370E-04-2.31439E-05-2.08709E-18
 -1       171 2.11558E-04-1.20123E-05 1.99900E-19
 -1       172 2.11471E-04-1.15373E-06 2.40896E-18
 -1       173 2.12015E-04 1.00123E-05 4.79759E-18
 -1       174 2.13122E-04 2.19887E-05 7.37935E-18
 -1       175 2.14763E-04 3.50303E-05 1.03304E-17
 -1       176 2.17154E-04 5.01762E-05 1.37626E-17
 -1       177 2.20773E-04 6.81529E-05 1.77030E-17
 -1       178 2.27072E-04 9.08235E-05 2.21957E-17
 -1       179 2.41062E-04 1.23154E-04 2.68340E-17
 -1       180 2.99030E-04 1.81154E-04 3.37221E-17
 -1       181 4.56875E-04-2.46064E-04-2.96766E-17
 -1       182 7.59944E-04-3.58108E-04-6.73561E-17
 -1       183 1.05077E-03-4.33449E-04-1.18612E-16
 -1       184 1.33782E-03-4.83865E-04-1.81963E-16
 -1       185 1.62588E-03-5.16635E-04-2.58138E-16
 -1       186 1.90377E-03-5.36185E-04-3.41632E-16
 -1       187 2.20382E-03-5.48829E-04-4.39627E-16
 -1       188 2.51489E-03-5.58156E-04-5.50338E-16
 -1       189 2.84076E-03-5.70746E-04-6.73557E-16
 -1       190 3.18573E-03-5.96884E-04-8.13064E-16
 -1       191 3.55422E-03-6.53257E-04-9.65645E-16
 -1       192 3.92934E-03-7.58252E-04-1.12197E-15
 -1       193 4.35082E-03-9.54873E-04-1.30266E-15
 -1       194 4.79254E-03-1.26560E-03-1.50650E-15
 -1       195 5.23566E-03-1.66800E-03-1.74733E-15
 -1       196 5.57368E-03-1.97435E-03-1.97336E-15
 -1       197 5.91413E-03-2.16558E-03-2.25095E-15
 -1       198 6.27232E-03-2.13945E-03-2.59159E-15
 -1       199 6.63000E-03-1.95321E-03-2.94967E-15
 -1       200 7.05152E-03-1.70791E-03-3.38157E-15
 -1       201 7.49831E-03-1.53219E-03-3.86860E-15
 -1       202 7.92743E-03-1.47377E-03-4.39119E-15
 -1       203 8.33057E-03-1.50989E-03-4.94261E-15
 -1       204 8.70750E-03-1.60702E-03-5.52799E-15
 -1       205 9.04442E-03-1.73179E-03-6.11605E-15
 -1       206 9.38115E-03-1.88122E-03-6.76784E-15
 -1       207 9.70371E-03-2.03970E-03-7.44681E-15
 -1       208 1.00157E-02-2.20195E-03-8.14912E-15
 -1       209 1.03201E-02-2.36530E-03-8.88894E-15
 -1       210 1.06188E-02-2.52842E-03-9.67175E-15
 -1       211 1.09136E-02-2.69074E-03-1.05003E-14
 -1       212 1.11910E-02-2.84401E-03-1.13128E-14
 -1       213 1.14810E-02-3.00434E-03-1.21819E-14
 -1       214 1.17695E-02-3.16371E-03-1.30591E-14
 -1       215 1.20571E-02-3.32222E-03-1.39475E-14
 -1       216 1.23439E-02-3.47999E-03-1.48564E-14
 -1       217 1.26303E-02-3.63714E-03-1.57848E-14
 -1       218 1.29020E-02-3.78593E-03-1.66985E-14
 -1       219 1.31878E-02-3.94214E-03-1.76905E-14
 -1       220 1.34735E-02-4.09800E-03-1.87190E-14
 -1       221 1.37591E-02-4.25357E-03-1.97853E-14
 -1       222 1.40447E-02-4.40893E-03-2.08852E-14
 -1       223 1.43303E-02-4.56411E-03-2.20290E-14
 -1       224 1.46016E-02-4.71142E-03-2.31478E-14
 -1       225 1.48872E-02-4.86640E-03-2.43646E-14
 -1       226 1.51729E-02-5.02131E-03-2.56128E-14
 -1       227 1.54585E-02-5.17619E-03-2.68915E-14
 -1       228 1.57442E-02-5.33106E-03-2.81872E-14
 -1       229 1.60299E-02-5.48593E-03-2.94803E-14
 -1       230 6.08359E-04 3.21218E-04 9.14084E-17
 -1       231 9.01252E-04 4.17695E-04 1.66506E-16
 -1       232 1.18528E-03 4.85227E-04 2.53981E-16
 -1       233 1.46610E-03 5.33523E-04 3.48625E-16
 -1       234 1.74662E-03 5.68955E-04 4.45953E-16
 -1       235 2.02820E-03 5.96153E-04 5.43287E-16
 -1       236 2.31120E-03 6.18672E-04 6.37541E-16
 -1       237 2.59522E-03 6.39178E-04 7.25341E-16
 -1       238 2.87920E-03 6.59364E-04 8.03069E-16
 -1       239 3.16158E-03 6.79688E-04 8.64926E-16
 -1       240 3.44045E-03 6.99016E-04 9.09100E-16
 -1       241 3.71393E-03 7.14339E-04 9.33034E-16
 -1       242 3.98065E-03 7.20777E-04 9.28077E-16
 -1       243 4.24020E-03 7.12106E-04 8.89625E-16
 -1       244 4.49357E-03 6.81877E-04 8.12650E-16
 -1       245 4.74316E-03 6.24955E-04 6.95492E-16
 -1       246 4.99234E-03 5.38946E-04 5.38530E-16
 -1       247 5.24472E-03 4.24941E-04 3.46294E-16
 -1       248 5.50323E-03 2.87214E-04 1.17294E-16
 -1       249 5.76955E-03 1.32040E-04-1.52510E-16
 -1       250 6.04396E-03-3.38336E-05-4.62859E-16
 -1       251 6.32557E-03-2.04484E-04-8.21476E-16
 -1       252 6.61280E-03-3.75541E-04-1.22286E-15
 -1       253 6.90384E-03-5.44335E-04-1.67225E-15
 -1       254 7.19700E-03-7.09647E-04-2.17954E-15
 -1       255 7.49094E-03-8.71287E-04-2.73597E-15
 -1       256 7.78469E-03-1.02967E-03-3.33697E-15
 -1       257 8.07767E-03-1.18549E-03-3.97911E-15
 -1       258 8.36957E-03-1.33949E-03-4.66582E-15
 -1       259 8.66030E-03-1.49234E-03-5.38180E-15
 -1       260 8.94991E-03-1.64456E-03-6.13307E-15
 -1       261 9.23855E-03-1.79656E-03-6.92477E-15
 -1       262 9.52635E-03-1.94861E-03-7.75863E-15
 -1       263 9.81349E-03-2.10087E-03-8.64166E-15
 -1       264 1.01001E-02-2.25342E-03-9.56680E-15
 -1       265 1.03864E-02-2.40631E-03-1.05274E-14
 -1       266 1.06724E-02-2.55951E-03-1.15199E-14
 -1       267 1.09582E-02-2.71302E-03-1.25478E-14
 -1       268 1.12439E-02-2.86678E-03-1.35977E-14
 -1       269 1.15295E-02-3.02077E-03-1.46772E-14
 -1       270 1.18151E-02-3.17494E-03-1.57790E-14
 -1       271 1.21007E-02-3.32925E-03-1.68930E-14
 -1       272 1.23863E-02-3.48367E-03-1.80096E-14
 -1       273 1.26719E-02-3.63816E-03-1.91196E-14
 -1       274 1.29575E-02-3.79271E-03-2.02159E-14
 -1       275 1.32432E-02-3.94728E-03-2.13172E-14
 -1       276 1.35289E-02-4.10185E-03-2.24302E-14
 -1       277 1.38146E-02-4.25641E-03-2.35549E-14
 -1       278 1.39801E-02-4.34755E-03-2.40695E-14
 -1       279 1.41321E-02-4.43185E-03-2.44935E-14
 -1       280 1.42840E-02-4.51617E-03-2.49228E-14
 -1       281 1.44359E-02-4.60051E-03-2.53592E-14
 -1       282 1.45853E-02-4.68344E-03-2.58030E-14
 -1       283 1.47373E-02-4.76781E-03-2.62634E-14
 -1       284 1.48894E-02-4.85219E-03-2.67172E-14
 -1       285 1.50415E-02-4.93658E-03-2.71690E-14
 -1       286 1.51937E-02-5.02096E-03-2.76111E-14
 -1       287 1.53459E-02-5.10535E-03-2.80422E-14
 -1       288 1.54956E-02-5.18829E-03-2.84651E-14
 -1       289 1.56479E-02-5.27265E-03-2.88871E-14
 -1       290 1.58003E-02-5.35699E-03-2.92883E-14
 -1       291 1.59526E-02-5.44131E-03-2.96668E-14
 -1       292 7.98562E-03-9.43023E-04-2.52212E-15
 -1       293 7.73575E-03-8.09127E-04-2.30616E-15
 -1       294 7.40333E-03-6.35407E-04-2.07484E-15
 -1       295 7.01555E-03-4.49969E-04-1.85283E-15
 -1       296 6.56111E-03-2.46161E-04-1.62241E-15
 -1       297 6.13039E-03-4.04485E-05-1.39479E-15
 -1       298 5.70363E-03 1.10882E-04-1.19072E-15
 -1       299 5.30631E-03 1.71191E-04-1.03596E-15
 -1       300 4.91925E-03 1.52427E-04-9.13596E-16
 -1       301 4.52655E-03 5.78088E-05-8.42262E-16
 -1       302 4.14979E-03-7.42627E-05-8.01049E-16
 -1       303 3.79251E-03-2.42863E-04-7.69784E-16
 -1       304 3.46420E-03-3.80471E-04-8.00304E-16
 -1       305 3.26461E-03-4.82261E-04-8.65940E-16
 -1       306 3.20663E-03-5.82431E-04-9.31233E-16
 -1       307 3.32001E-03-7.06121E-04-1.04005E-15
 -1       308 3.57018E-03-8.70595E-04-1.15869E-15
 -1       309 3.96171E-03-1.07615E-03-1.29417E-15
 -1       310 4.45992E-03-1.35958E-03-1.46238E-15
 -1       311 4.90860E-03-1.68117E-03-1.64527E-15
 -1       312 5.36492E-03-1.91916E-03-1.83064E-15
 -1       313 5.81943E-03-2.06447E-03-2.04680E-15
 -1       314 6.25202E-03-2.03017E-03-2.23256E-15
 -1       315 6.69042E-03-1.87623E-03-2.40019E-15
 -1       316 7.11602E-03-1.63944E-03-2.59418E-15
 -1       317 7.54744E-03-1.41988E-03-2.66219E-15
 -1       318 7.84801E-03-1.24750E-03-2.70380E-15
 -1       319 8.02308E-03-1.12827E-03-2.67340E-15
 -1       320 8.07462E-03-1.02978E-03-2.61989E-15
 -1       321 1.61050E-02-5.52561E-03-3.00283E-14
 -1       322 4.58520E-04-1.50995E-04-2.77183E-17
 -1       323 4.79284E-04-1.99489E-04-3.29801E-17
 -1       324 4.38150E-04-8.38020E-05-1.66052E-17
 -1       325 4.32955E-04-5.81397E-05-1.02965E-17
 -1       326 4.30031E-04-3.50955E-05-3.97089E-18
 -1       327 4.29049E-04-1.31791E-05 2.54788E-18
 -1       328 4.29739E-04 8.82364E-06 9.21233E-18
 -1       329 4.31883E-04 3.19333E-05 1.65138E-17
 -1       330 4.35316E-04 5.66373E-05 2.42387E-17
 -1       331 4.40330E-04 8.47901E-05 3.27226E-17
 -1       332 4.47593E-04 1.17375E-04 4.21348E-17
 -1       333 4.59047E-04 1.56695E-04 5.26651E-17
 -1       334 4.79822E-04 2.07162E-04 6.40221E-17
 -1       335 5.36228E-04 2.60125E-04 7.72359E-17
 -1       336 8.32144E-04 3.58269E-04 1.44500E-16
 -1       337 8.59459E-04-3.28753E-04-8.33989E-17
 -1       338 1.15178E-03-3.89174E-04-1.34983E-16
 -1       339 1.44242E-03-4.29272E-04-1.97579E-16
 -1       340 1.71885E-03-4.53471E-04-2.67584E-16
 -1       341 2.01190E-03-4.68630E-04-3.52034E-16
 -1       342 2.30867E-03-4.77568E-04-4.47145E-16
 -1       343 2.61059E-03-4.85544E-04-5.55281E-16
 -1       344 2.91930E-03-5.00052E-04-6.76281E-16
 -1       345 3.23716E-03-5.32765E-04-8.10844E-16
 -1       346 3.55185E-03-5.97559E-04-9.50808E-16
 -1       347 3.90521E-03-7.27619E-04-1.11285E-15
 -1       348 4.29593E-03-9.56982E-04-1.29242E-15
 -1       349 4.73888E-03-1.31451E-03-1.50093E-15
 -1       350 5.64033E-03-2.03428E-03-1.99650E-15
 -1       351 6.07632E-03-2.13002E-03-2.30599E-15
 -1       352 6.51503E-03-1.96604E-03-2.62902E-15
 -1       353 6.97651E-03-1.69221E-03-3.04171E-15
 -1       354 7.42700E-03-1.47429E-03-3.50867E-15
 -1       355 7.83021E-03-1.38453E-03-4.00917E-15
 -1       356 8.19726E-03-1.39996E-03-4.54066E-15
 -1       357 8.54068E-03-1.48422E-03-5.10513E-15
 -1       358 8.85300E-03-1.60200E-03-5.67210E-15
 -1       359 9.17168E-03-1.74777E-03-6.29952E-15
 -1       360 9.48259E-03-1.90489E-03-6.95977E-15
 -1       361 9.78746E-03-2.06704E-03-7.64623E-15
 -1       362 1.00876E-02-2.23089E-03-8.36167E-15
 -1       363 1.03840E-02-2.39475E-03-9.11962E-15
 -1       364 1.06775E-02-2.55786E-03-9.91985E-15
 -1       365 1.09544E-02-2.71185E-03-1.07140E-14
 -1       366 1.12442E-02-2.87284E-03-1.15753E-14
 -1       367 1.15328E-02-3.03278E-03-1.24448E-14
 -1       368 1.18205E-02-3.19177E-03-1.33285E-14
 -1       369 1.21075E-02-3.34993E-03-1.42273E-14
 -1       370 1.23940E-02-3.50738E-03-1.51470E-14
 -1       371 1.26659E-02-3.65642E-03-1.60463E-14
 -1       372 1.29520E-02-3.81282E-03-1.70247E-14
 -1       373 1.32378E-02-3.96883E-03-1.80417E-14
 -1       374 1.35236E-02-4.12453E-03-1.90946E-14
 -1       375 1.38092E-02-4.27997E-03-2.01865E-14
 -1       376 1.40949E-02-4.43522E-03-2.13159E-14
 -1       377 1.43663E-02-4.58258E-03-2.24208E-14
 -1       378 1.46519E-02-4.73758E-03-2.36171E-14
 -1       379 1.49376E-02-4.89251E-03-2.48452E-14
 -1       380 1.52233E-02-5.04740E-03-2.61043E-14
 -1       381 1.55089E-02-5.20226E-03-2.73860E-14
 -1       382 1.57946E-02-5.35713E-03-2.86696E-14
 -1       383 1.12203E-03 4.28044E-04 2.23193E-16
 -1       384 7.50996E-03-8.27533E-04-2.32351E-15
 -1       385 1.40831E-03 4.77911E-04 3.08960E-16
 -1       386 1.69325E-03 5.14201E-04 3.97191E-16
 -1       387 1.97825E-03 5.41707E-04 4.84848E-16
 -1       388 2.26400E-03 5.64180E-04 5.68722E-16
 -1       389 2.55053E-03 5.84490E-04 6.46561E-16
 -1       390 2.83731E-03 6.04570E-04 7.14604E-16
 -1       391 3.12333E-03 6.25160E-04 7.67100E-16
 -1       392 3.40720E-03 6.45424E-04 8.02123E-16
 -1       393 3.68740E-03 6.62603E-04 8.18115E-16
 -1       394 3.96261E-03 6.71914E-04 8.05904E-16
 -1       395 4.23221E-03 6.66974E-04 7.62665E-16
 -1       396 4.49668E-03 6.40886E-04 6.80804E-16
 -1       397 4.75775E-03 5.87881E-04 5.59133E-16
 -1       398 5.01814E-03 5.04960E-04 3.98604E-16
 -1       399 5.28085E-03 3.92858E-04 2.03955E-16
 -1       400 5.54833E-03 2.55842E-04-2.81791E-17
 -1       401 5.82194E-03 1.00454E-04-3.01283E-16
 -1       402 6.10181E-03-6.61717E-05-6.15895E-16
 -1       403 6.38708E-03-2.37762E-04-9.76229E-16
 -1       404 6.67642E-03-4.09703E-04-1.38064E-15
 -1       405 6.96834E-03-5.79198E-04-1.83208E-15
 -1       406 7.26154E-03-7.44989E-04-2.33762E-15
 -1       407 7.55503E-03-9.06902E-04-2.89243E-15
 -1       408 7.84811E-03-1.06539E-03-3.49173E-15
 -1       409 8.14037E-03-1.22120E-03-4.13285E-15
 -1       410 8.43164E-03-1.37511E-03-4.81912E-15
 -1       411 8.72186E-03-1.52781E-03-5.53828E-15
 -1       412 9.01112E-03-1.67989E-03-6.29149E-15
 -1       413 9.29952E-03-1.83174E-03-7.08333E-15
 -1       414 9.58720E-03-1.98364E-03-7.91783E-15
 -1       415 9.87430E-03-2.13578E-03-8.80132E-15
 -1       416 1.01609E-02-2.28823E-03-9.72351E-15
 -1       417 1.04473E-02-2.44102E-03-1.06791E-14
 -1       418 1.07333E-02-2.59416E-03-1.16666E-14
 -1       419 1.10192E-02-2.74762E-03-1.26894E-14
 -1       420 1.13050E-02-2.90134E-03-1.37368E-14
 -1       421 1.15907E-02-3.05530E-03-1.48117E-14
 -1       422 1.18763E-02-3.20945E-03-1.59094E-14
 -1       423 1.21620E-02-3.36375E-03-1.70221E-14
 -1       424 1.24476E-02-3.51816E-03-1.81343E-14
 -1       425 1.27333E-02-3.67265E-03-1.92427E-14
 -1       426 1.30189E-02-3.82720E-03-2.03456E-14
 -1       427 1.33046E-02-3.98177E-03-2.14493E-14
 -1       428 1.35903E-02-4.13635E-03-2.25621E-14
 -1       429 1.37852E-02-4.24195E-03-2.33161E-14
 -1       430 1.41125E-02-4.42447E-03-2.41652E-14
 -1       431 1.39606E-02-4.34015E-03-2.37353E-14
 -1       432 1.38729E-02-4.29105E-03-2.35248E-14
 -1       433 1.42619E-02-4.50737E-03-2.45970E-14
 -1       434 1.44139E-02-4.59171E-03-2.50383E-14
 -1       435 1.45659E-02-4.67606E-03-2.54822E-14
 -1       436 1.47180E-02-4.76041E-03-2.59239E-14
 -1       437 1.48701E-02-4.84476E-03-2.63600E-14
 -1       438 1.50223E-02-4.92912E-03-2.67877E-14
 -1       439 1.51720E-02-5.01204E-03-2.71945E-14
 -1       440 1.53243E-02-5.09638E-03-2.75992E-14
 -1       441 1.54767E-02-5.18071E-03-2.79859E-14
 -1       442 1.56290E-02-5.26503E-03-2.83644E-14
 -1       443 7.17929E-03-6.71113E-04-2.08710E-15
 -1       444 8.07669E-03-1.03436E-03-2.82111E-15
 -1       445 4.46178E-04-1.13847E-04-2.23041E-17
 -1       446 6.71548E-03-4.34158E-04-1.79541E-15
 -1       447 6.22133E-03-1.64966E-04-1.49322E-15
 -1       448 5.84255E-03 4.48361E-05-1.25292E-15
 -1       449 5.42867E-03 1.91637E-04-1.00690E-15
 -1       450 5.14839E-03 2.11205E-04-8.80257E-16
 -1       451 4.74769E-03 1.23532E-04-7.62526E-16
 -1       452 4.38899E-03-1.85208E-05-7.27208E-16
 -1       453 4.05313E-03-1.70828E-04-6.79720E-16
 -1       454 3.62216E-03-3.52139E-04-6.99146E-16
 -1       455 3.31892E-03-4.64202E-04-7.48133E-16
 -1       456 3.19744E-03-5.16304E-04-8.10473E-16
 -1       457 3.24011E-03-5.89084E-04-9.35606E-16
 -1       458 3.45771E-03-6.88257E-04-1.05489E-15
 -1       459 3.78881E-03-8.42658E-04-1.18322E-15
 -1       460 4.27502E-03-1.07140E-03-1.33875E-15
 -1       461 4.84562E-03-1.50972E-03-1.57833E-15
 -1       462 5.24425E-03-1.80557E-03-1.76440E-15
 -1       463 6.07411E-03-2.10515E-03-2.24886E-15
 -1       464 6.44596E-03-1.98373E-03-2.47081E-15
 -1       465 7.32774E-03-1.46036E-03-2.86315E-15
 -1       466 7.68194E-03-1.27071E-03-2.94499E-15
 -1       467 7.95597E-03-1.14317E-03-2.92653E-15
 -1       468 8.07716E-03-1.07528E-03-2.86591E-15
 -1       469 7.86167E-03-9.50116E-04-2.56928E-15
 -1       470 5.17831E-03-1.70141E-03-1.72262E-15
 -1       471 8.01421E-03-1.03726E-03-2.86753E-15
 -1       472 3.82662E-03-2.61327E-04-6.09328E-16
 -1       473 6.97788E-03-1.66934E-03-2.82079E-15
 -1       474 6.80197E-03-1.77992E-03-2.68017E-15
 -1       475 6.55884E-04-6.88712E-05-1.53584E-17
 -1       476 6.62752E-04-1.03963E-04-2.67730E-17
 -1       477 6.52688E-04-3.91804E-06 9.36141E-18
 -1       478 6.55373E-04 2.92740E-05 2.27276E-17
 -1       479 6.60322E-04 6.40957E-05 3.67816E-17
 -1       480 6.67690E-04 1.02944E-04 5.18418E-17
 -1       481 6.77967E-04 1.46621E-04 6.80981E-17
 -1       482 6.92769E-04 1.96976E-04 8.59840E-17
 -1       483 7.15674E-04 2.56625E-04 1.05110E-16
 -1       484 7.70500E-04 3.05297E-04 1.24016E-16
 -1       485 9.70621E-04-2.96541E-04-9.49083E-17
 -1       486 6.91178E-03-6.13976E-04-2.01337E-15
 -1       487 7.71658E-03-9.67766E-04-2.64777E-15
 -1       488 1.25938E-03-3.43159E-04-1.45280E-16
 -1       489 1.53310E-03-3.72977E-04-2.02244E-16
 -1       490 1.82031E-03-3.92897E-04-2.73534E-16
 -1       491 2.10639E-03-4.04998E-04-3.54985E-16
 -1       492 2.39090E-03-4.13673E-04-4.47250E-16
 -1       493 2.67310E-03-4.24415E-04-5.52289E-16
 -1       494 2.95245E-03-4.44802E-04-6.68909E-16
 -1       495 3.21613E-03-4.83154E-04-7.91966E-16
 -1       496 3.49750E-03-5.59595E-04-9.36114E-16
 -1       497 3.79817E-03-6.99245E-04-1.09458E-15
 -1       498 8.12067E-03-1.08015E-03-3.08120E-15
 -1       499 1.06163E-03 3.75783E-04 1.95248E-16
 -1       500 7.76638E-03-1.30094E-03-3.59695E-15
 -1       501 8.09487E-03-1.29752E-03-4.10595E-15
 -1       502 8.39725E-03-1.36742E-03-4.64673E-15
 -1       503 8.67626E-03-1.47476E-03-5.18958E-15
 -1       504 8.96810E-03-1.61280E-03-5.79267E-15
 -1       505 9.25997E-03-1.76511E-03-6.42884E-15
 -1       506 9.55193E-03-1.92462E-03-7.09478E-15
 -1       507 9.84358E-03-2.08725E-03-7.78873E-15
 -1       508 1.01346E-02-2.25075E-03-8.51948E-15
 -1       509 1.04248E-02-2.41398E-03-9.28869E-15
 -1       510 1.06996E-02-2.56828E-03-1.00586E-14
 -1       511 1.09882E-02-2.72972E-03-1.09044E-14
 -1       512 1.12761E-02-2.89011E-03-1.17694E-14
 -1       513 1.15634E-02-3.04952E-03-1.26435E-14
 -1       514 1.18503E-02-3.20805E-03-1.35336E-14
 -1       515 1.21368E-02-3.36583E-03-1.44425E-14
 -1       516 1.24087E-02-3.51512E-03-1.53288E-14
 -1       517 1.26948E-02-3.67175E-03-1.62898E-14
 -1       518 1.29807E-02-3.82794E-03-1.72883E-14
 -1       519 1.32665E-02-3.98378E-03-1.83288E-14
 -1       520 1.35523E-02-4.13933E-03-1.94045E-14
 -1       521 1.38380E-02-4.29467E-03-2.05151E-14
 -1       522 1.41095E-02-4.44208E-03-2.16078E-14
 -1       523 1.43951E-02-4.59713E-03-2.27895E-14
 -1       524 1.46808E-02-4.75209E-03-2.39946E-14
 -1       525 1.49665E-02-4.90699E-03-2.52329E-14
 -1       526 1.52522E-02-5.06185E-03-2.64953E-14
 -1       527 1.54406E-02-5.16344E-03-2.74310E-14
 -1       528 1.51882E-03 4.24475E-04 3.05694E-16
 -1       529 1.29019E-03 4.05316E-04 2.51247E-16
 -1       530 2.09686E-03 4.78057E-04 4.52997E-16
 -1       531 2.38710E-03 4.98068E-04 5.19533E-16
 -1       532 2.67849E-03 5.17203E-04 5.78354E-16
 -1       533 2.97075E-03 5.37074E-04 6.24307E-16
 -1       534 3.26313E-03 5.57984E-04 6.53178E-16
 -1       535 3.55441E-03 5.78451E-04 6.63359E-16
 -1       536 3.84303E-03 5.94785E-04 6.52107E-16
 -1       537 4.12754E-03 6.01037E-04 6.11399E-16
 -1       538 4.40722E-03 5.89660E-04 5.35531E-16
 -1       539 4.68268E-03 5.53092E-04 4.21826E-16
 -1       540 4.95595E-03 4.85908E-04 2.68963E-16
 -1       541 5.22993E-03 3.86673E-04 8.08815E-17
 -1       542 5.50732E-03 2.58492E-04-1.43348E-16
 -1       543 5.78971E-03 1.07938E-04-4.07199E-16
 -1       544 6.07718E-03-5.70075E-05-7.12876E-16
 -1       545 6.36873E-03-2.28943E-04-1.06094E-15
 -1       546 6.66283E-03-4.02253E-04-1.45441E-15
 -1       547 6.95801E-03-5.73433E-04-1.89232E-15
 -1       548 7.25315E-03-7.40808E-04-2.37864E-15
 -1       549 7.54754E-03-9.04003E-04-2.91427E-15
 -1       550 7.84080E-03-1.06341E-03-3.49818E-15
 -1       551 8.13284E-03-1.21980E-03-4.12404E-15
 -1       552 8.42368E-03-1.37400E-03-4.79514E-15
 -1       553 8.71345E-03-1.52678E-03-5.50684E-15
 -1       554 9.00229E-03-1.67877E-03-6.25108E-15
 -1       555 9.29037E-03-1.83045E-03-7.03219E-15
 -1       556 9.57783E-03-1.98213E-03-7.85373E-15
 -1       557 9.86480E-03-2.13402E-03-8.71714E-15
 -1       558 1.01514E-02-2.28623E-03-9.62256E-15
 -1       559 1.04377E-02-2.43881E-03-1.05661E-14
 -1       560 1.07238E-02-2.59175E-03-1.15396E-14
 -1       561 1.10098E-02-2.74504E-03-1.25430E-14
 -1       562 1.12956E-02-2.89863E-03-1.35776E-14
 -1       563 1.15814E-02-3.05248E-03-1.46394E-14
 -1       564 1.18671E-02-3.20655E-03-1.57262E-14
 -1       565 1.21528E-02-3.36078E-03-1.68289E-14
 -1       566 1.24385E-02-3.51515E-03-1.79381E-14
 -1       567 1.27242E-02-3.66961E-03-1.90474E-14
 -1       568 1.30098E-02-3.82414E-03-2.01555E-14
 -1       569 1.32955E-02-3.97870E-03-2.12623E-14
 -1       570 1.35812E-02-4.13329E-03-2.23772E-14
 -1       571 1.40904E-02-4.41562E-03-2.38292E-14
 -1       572 1.42424E-02-4.49994E-03-2.42572E-14
 -1       573 1.37891E-02-4.24843E-03-2.29759E-14
 -1       574 1.39398E-02-4.33202E-03-2.34017E-14
 -1       575 1.43945E-02-4.58427E-03-2.46845E-14
 -1       576 1.45466E-02-4.66860E-03-2.51123E-14
 -1       577 1.46988E-02-4.75292E-03-2.55315E-14
 -1       578 1.48484E-02-4.83582E-03-2.59315E-14
 -1       579 1.50007E-02-4.92014E-03-2.63266E-14
 -1       580 1.51530E-02-5.00446E-03-2.67060E-14
 -1       581 1.52968E-02-5.08396E-03-2.70717E-14
 -1       582 7.23761E-03-7.72853E-04-2.24992E-15
 -1       583 4.51918E-03 5.50414E-05-6.15576E-16
 -1       584 7.11125E-04-2.28839E-04-5.64835E-17
 -1       585 3.43173E-03-4.04811E-04-6.38675E-16
 -1       586 5.61005E-03 1.27399E-04-1.07238E-15
 -1       587 1.80760E-03 4.54619E-04 3.80758E-16
 -1       588 4.91538E-03 1.99482E-04-6.95082E-16
 -1       589 6.52701E-04-3.61325E-05-3.25599E-18
 -1       590 5.92151E-03-3.40018E-05-1.29677E-15
 -1       591 5.23666E-03 2.27980E-04-8.33690E-16
 -1       592 3.31988E-03-5.73244E-04-9.40302E-16
 -1       593 6.44037E-03-3.45850E-04-1.67555E-15
 -1       594 4.22386E-03-7.40537E-05-5.73485E-16
 -1       595 3.20867E-03-4.67337E-04-6.95167E-16
 -1       596 3.16328E-03-5.08419E-04-8.06936E-16
 -1       597 3.61496E-03-6.83170E-04-1.07234E-15
 -1       598 3.96290E-03-8.34668E-04-1.19701E-15
 -1       599 7.54231E-03-1.34315E-03-3.18197E-15
 -1       600 7.87066E-03-1.18553E-03-3.17353E-15
 -1       601 8.06110E-03-1.11077E-03-3.14212E-15
 -1       602 6.73899E-04-1.43423E-04-3.81741E-17
 -1       603 8.11916E-03-1.08463E-03-3.12987E-15
 -1       604 7.50034E-03-9.18669E-04-2.56891E-15
 -1       605 6.89867E-04-1.82568E-04-4.74372E-17
 -1       606 6.14708E-03-1.91325E-04-1.46403E-15
 -1       607 3.58767E-03-3.22142E-04-5.51029E-16
 -1       608 8.88899E-04 5.86745E-05 4.41372E-17
 -1       609 8.82857E-04 1.44678E-05 2.23820E-17
 -1       610 9.10650E-04 1.58154E-04 9.13711E-17
 -1       611 9.27560E-04 2.16293E-04 1.17778E-16
 -1       612 9.50962E-04 2.81718E-04 1.45646E-16
 -1       613 1.00450E-03 3.27427E-04 1.69518E-16
 -1       614 1.36127E-03-2.96564E-04-1.47672E-16
 -1       615 1.64339E-03-3.21096E-04-2.05541E-16
 -1       616 1.92235E-03-3.37671E-04-2.73595E-16
 -1       617 2.19621E-03-3.50018E-04-3.52064E-16
 -1       618 2.46253E-03-3.62500E-04-4.41294E-16
 -1       619 2.71827E-03-3.80392E-04-5.42379E-16
 -1       620 2.94841E-03-4.08272E-04-6.48888E-16
 -1       621 3.17522E-03-4.57222E-04-7.74524E-16
 -1       622 8.30494E-03-1.25770E-03-4.16765E-15
 -1       623 8.53368E-03-1.35622E-03-4.68489E-15
 -1       624 8.78509E-03-1.48430E-03-5.26181E-15
 -1       625 9.04746E-03-1.62804E-03-5.87186E-15
 -1       626 9.31844E-03-1.78122E-03-6.51343E-15
 -1       627 9.59548E-03-1.93960E-03-7.18594E-15
 -1       628 9.87646E-03-2.10047E-03-7.89385E-15
 -1       629 1.01599E-02-2.26219E-03-8.63643E-15
 -1       630 1.04304E-02-2.41574E-03-9.37552E-15
 -1       631 1.07159E-02-2.57684E-03-1.01959E-14
 -1       632 1.10018E-02-2.73716E-03-1.10465E-14
 -1       633 1.12879E-02-2.89664E-03-1.19154E-14
 -1       634 1.15740E-02-3.05533E-03-1.27972E-14
 -1       635 1.18600E-02-3.21328E-03-1.36990E-14
 -1       636 1.21317E-02-3.36273E-03-1.45729E-14
 -1       637 1.24176E-02-3.51952E-03-1.55210E-14
 -1       638 1.27035E-02-3.67585E-03-1.65015E-14
 -1       639 1.29893E-02-3.83180E-03-1.75241E-14
 -1       640 1.32751E-02-3.98745E-03-1.85862E-14
 -1       641 1.35608E-02-4.14286E-03-1.96803E-14
 -1       642 1.38323E-02-4.29033E-03-2.07531E-14
 -1       643 1.41180E-02-4.44542E-03-2.19219E-14
 -1       644 1.44037E-02-4.60041E-03-2.31116E-14
 -1       645 1.46894E-02-4.75532E-03-2.43258E-14
 -1       646 1.49752E-02-4.91019E-03-2.55603E-14
 -1       647 1.51360E-02-4.99708E-03-2.63147E-14
 -1       648 2.81190E-03 4.45668E-04 4.94721E-16
 -1       649 2.21966E-03 4.10787E-04 4.07718E-16
 -1       650 3.11156E-03 4.65137E-04 5.18730E-16
 -1       651 3.41275E-03 4.86488E-04 5.24805E-16
 -1       652 3.71390E-03 5.07696E-04 5.10968E-16
 -1       653 4.01279E-03 5.24011E-04 4.71777E-16
 -1       654 4.30730E-03 5.27828E-04 4.00745E-16
 -1       655 4.59649E-03 5.09763E-04 2.92924E-16
 -1       656 4.88146E-03 4.61163E-04 1.48681E-16
 -1       657 5.16528E-03 3.77227E-04-3.32172E-17
 -1       658 5.45160E-03 2.59114E-04-2.50410E-16
 -1       659 5.74289E-03 1.13430E-04-5.06062E-16
 -1       660 6.03946E-03-5.03939E-05-8.02479E-16
 -1       661 6.33982E-03-2.23180E-04-1.13956E-15
 -1       662 6.64171E-03-3.97962E-04-1.52115E-15
 -1       663 6.94311E-03-5.70500E-04-1.94719E-15
 -1       664 7.24268E-03-7.38858E-04-2.41618E-15
 -1       665 7.53983E-03-9.02655E-04-2.93668E-15
 -1       666 7.83453E-03-1.06237E-03-3.50258E-15
 -1       667 8.12704E-03-1.21885E-03-4.11455E-15
 -1       668 8.41774E-03-1.37300E-03-4.77029E-15
 -1       669 8.70705E-03-1.52566E-03-5.46986E-15
 -1       670 8.99531E-03-1.67747E-03-6.20784E-15
 -1       671 9.28281E-03-1.82894E-03-6.97753E-15
 -1       672 9.56976E-03-1.98041E-03-7.78678E-15
 -1       673 9.85632E-03-2.13209E-03-8.63433E-15
 -1       674 1.01426E-02-2.28410E-03-9.52140E-15
 -1       675 1.04287E-02-2.43650E-03-1.04485E-14
 -1       676 1.07147E-02-2.58928E-03-1.14088E-14
 -1       677 1.10006E-02-2.74243E-03-1.23974E-14
 -1       678 1.12864E-02-2.89590E-03-1.34198E-14
 -1       679 1.15721E-02-3.04966E-03-1.44693E-14
 -1       680 1.18579E-02-3.20365E-03-1.55422E-14
 -1       681 1.21436E-02-3.35782E-03-1.66374E-14
 -1       682 1.24293E-02-3.51214E-03-1.77436E-14
 -1       683 1.27150E-02-3.66657E-03-1.88526E-14
 -1       684 1.30007E-02-3.82108E-03-1.99612E-14
 -1       685 1.32864E-02-3.97564E-03-2.10758E-14
 -1       686 1.35378E-02-4.11203E-03-2.20225E-14
 -1       687 3.91458E-03-1.61123E-04-4.71669E-16
 -1       688 1.42231E-02-4.49245E-03-2.38778E-14
 -1       689 1.39190E-02-4.32386E-03-2.30491E-14
 -1       690 1.43752E-02-4.57675E-03-2.42889E-14
 -1       691 1.40710E-02-4.40816E-03-2.34645E-14
 -1       692 1.45248E-02-4.65963E-03-2.46828E-14
 -1       693 1.46771E-02-4.74393E-03-2.50720E-14
 -1       694 1.48294E-02-4.82823E-03-2.54493E-14
 -1       695 7.08475E-03-7.43515E-04-2.24511E-15
 -1       696 9.42064E-04-2.41267E-04-8.09865E-17
 -1       697 5.02559E-03 2.44265E-04-6.43095E-16
 -1       698 5.38395E-03 2.02569E-04-8.41016E-16
 -1       699 8.16356E-03-1.13131E-03-3.43934E-15
 -1       700 8.04887E-03-1.16365E-03-3.47152E-15
 -1       701 2.51457E-03 4.28031E-04 4.56903E-16
 -1       702 1.15172E-03-2.72629E-04-1.12154E-16
 -1       703 3.25892E-03-4.06142E-04-5.79154E-16
 -1       704 6.66602E-03-5.17484E-04-1.89311E-15
 -1       705 7.96018E-03-1.07085E-03-3.03796E-15
 -1       706 8.98114E-04 1.06118E-04 6.70647E-17
 -1       707 8.89333E-04-1.11298E-04-3.59108E-17
 -1       708 4.64907E-03 1.59265E-04-5.14142E-16
 -1       709 4.40281E-03 6.07320E-05-4.75470E-16
 -1       710 3.09550E-03-4.46819E-04-6.68660E-16
 -1       711 3.19674E-03-4.97166E-04-8.23638E-16
 -1       712 3.41972E-03-5.63687E-04-9.47505E-16
 -1       713 5.73984E-03 4.85872E-05-1.12943E-15
 -1       714 8.82331E-04-6.86245E-05-1.73032E-17
 -1       715 3.08286E-03-3.98980E-04-5.59248E-16
 -1       716 1.92685E-03 3.91623E-04 3.51600E-16
 -1       717 7.80059E-03-1.04298E-03-2.95436E-15
 -1       718 6.38982E-03-3.58952E-04-1.66702E-15
 -1       719 1.32770E-03 3.40441E-04 2.27435E-16
 -1       720 1.36884E-02-4.19561E-03-2.24421E-14
 -1       721 8.20736E-03-1.13950E-03-3.48970E-15
 -1       722 1.49827E-02-4.91265E-03-2.58830E-14
 -1       723 3.36639E-03-3.41005E-04-4.95650E-16
 -1       724 5.95341E-03-8.37902E-05-1.28479E-15
 -1       725 1.38037E-02-4.25973E-03-2.27485E-14
 -1       726 4.09195E-03-2.11004E-05-3.75442E-16
 -1       727 1.63564E-03 3.67660E-04 2.90868E-16
 -1       728 8.80446E-04-2.73944E-05 1.90413E-18
 -1       729 9.02094E-04-1.57283E-04-5.36511E-17
 -1       730 3.06212E-03-4.36825E-04-6.87552E-16
 -1       731 1.18674E-03 2.88647E-04 1.81299E-16
 -1       732 1.16335E-03 2.18772E-04 1.43664E-16
 -1       733 1.47062E-03-2.52251E-04-1.44944E-16
 -1       734 1.74530E-03-2.72786E-04-1.99537E-16
 -1       735 2.01432E-03-2.89367E-04-2.64020E-16
 -1       736 2.27446E-03-3.05631E-04-3.38369E-16
 -1       737 2.52164E-03-3.25790E-04-4.23967E-16
 -1       738 2.73966E-03-3.52721E-04-5.14766E-16
 -1       739 2.94500E-03-3.93831E-04-6.23125E-16
 -1       740 9.19924E-04-1.96958E-04-6.72104E-17
 -1       741 8.61714E-03-1.37639E-03-4.74067E-15
 -1       742 8.84825E-03-1.50797E-03-5.32481E-15
 -1       743 9.09655E-03-1.65110E-03-5.94011E-15
 -1       744 9.35713E-03-1.80193E-03-6.58853E-15
 -1       745 9.62627E-03-1.95747E-03-7.27187E-15
 -1       746 9.90125E-03-2.11561E-03-7.99122E-15
 -1       747 1.01661E-02-2.26695E-03-8.70730E-15
 -1       748 1.04474E-02-2.42657E-03-9.49580E-15
 -1       749 1.07304E-02-2.58602E-03-1.03266E-14
 -1       750 1.10144E-02-2.74502E-03-1.11829E-14
 -1       751 1.12991E-02-2.90346E-03-1.20619E-14
 -1       752 1.15843E-02-3.06130E-03-1.29580E-14
 -1       753 1.18554E-02-3.21074E-03-1.38224E-14
 -1       754 1.21409E-02-3.36755E-03-1.47565E-14
 -1       755 1.24266E-02-3.52393E-03-1.57241E-14
 -1       756 1.27122E-02-3.67993E-03-1.67277E-14
 -1       757 1.29980E-02-3.83563E-03-1.77713E-14
 -1       758 1.32837E-02-3.99109E-03-1.88515E-14
 -1       759 1.35551E-02-4.13859E-03-1.99056E-14
 -1       760 1.38409E-02-4.29372E-03-2.10526E-14
 -1       761 1.41266E-02-4.44873E-03-2.22294E-14
 -1       762 1.44124E-02-4.60366E-03-2.34277E-14
 -1       763 1.46981E-02-4.75853E-03-2.46385E-14
 -1       764 3.59093E-03-2.25869E-04-4.05864E-16
 -1       765 2.95020E-03 3.68582E-04 3.96784E-16
 -1       766 3.88385E-03 4.33926E-04 3.44410E-16
 -1       767 4.19416E-03 4.52314E-04 2.76915E-16
 -1       768 4.49867E-03 4.55001E-04 1.75929E-16
 -1       769 4.79650E-03 4.29426E-04 3.73372E-17
 -1       770 5.09023E-03 3.65390E-04-1.37606E-16
 -1       771 5.38485E-03 2.60010E-04-3.48344E-16
 -1       772 5.68472E-03 1.19325E-04-5.95888E-16
 -1       773 5.99115E-03-4.49274E-05-8.85166E-16
 -1       774 6.30219E-03-2.20378E-04-1.21362E-15
 -1       775 6.61435E-03-3.97773E-04-1.58413E-15
 -1       776 6.92445E-03-5.71886E-04-1.99558E-15
 -1       777 7.23058E-03-7.40729E-04-2.45242E-15
 -1       778 7.53211E-03-9.04259E-04-2.95474E-15
 -1       779 7.82930E-03-1.06333E-03-3.50752E-15
 -1       780 8.12289E-03-1.21908E-03-4.10624E-15
 -1       781 8.41373E-03-1.37255E-03-4.74750E-15
 -1       782 8.70260E-03-1.52464E-03-5.43242E-15
 -1       783 8.99014E-03-1.67601E-03-6.15998E-15
 -1       784 9.27684E-03-1.82714E-03-6.92131E-15
 -1       785 9.56303E-03-1.97835E-03-7.71525E-15
 -1       786 9.84892E-03-2.12983E-03-8.55306E-15
 -1       787 1.01347E-02-2.28168E-03-9.42461E-15
 -1       788 1.04204E-02-2.43395E-03-1.03343E-14
 -1       789 1.07060E-02-2.58662E-03-1.12784E-14
 -1       790 1.09917E-02-2.73968E-03-1.22543E-14
 -1       791 1.12774E-02-2.89308E-03-1.32623E-14
 -1       792 1.15631E-02-3.04677E-03-1.42984E-14
 -1       793 1.18488E-02-3.20070E-03-1.53567E-14
 -1       794 1.21345E-02-3.35483E-03-1.64396E-14
 -1       795 1.24202E-02-3.50912E-03-1.75407E-14
 -1       796 1.27059E-02-3.66353E-03-1.86527E-14
 -1       797 1.29916E-02-3.81802E-03-1.97673E-14
 -1       798 1.32774E-02-3.97258E-03-2.08847E-14
 -1       799 1.34829E-02-4.08409E-03-2.16628E-14
 -1       800 1.42026E-02-4.48417E-03-2.34568E-14
 -1       801 1.43548E-02-4.56844E-03-2.38429E-14
 -1       802 1.40504E-02-4.39990E-03-2.30649E-14
 -1       803 3.25891E-03 3.87665E-04 3.99081E-16
 -1       804 8.13655E-03-1.13692E-03-3.39788E-15
 -1       805 7.38131E-03-8.94625E-04-2.59375E-15
 -1       806 2.34590E-03 3.39031E-04 3.49100E-16
 -1       807 2.64586E-03 3.52906E-04 3.79101E-16
 -1       808 5.13579E-03 2.62044E-04-6.03738E-16
 -1       809 4.42626E-03 1.55820E-04-3.37438E-16
 -1       810 6.89614E-03-6.57305E-04-2.13549E-15
 -1       811 1.45071E-02-4.65272E-03-2.42154E-14
 -1       812 5.57561E-03 1.22985E-04-9.15162E-16
 -1       813 3.57093E-03 4.10272E-04 3.82398E-16
 -1       814 4.78563E-03 2.49075E-04-4.39956E-16
 -1       815 8.41924E-03-1.26599E-03-4.21744E-15
 -1       816 1.12008E-03 4.10595E-05 4.33850E-17
 -1       817 2.99632E-03-3.98069E-04-5.81696E-16
 -1       818 1.14508E-03 1.54840E-04 1.08383E-16
 -1       819 2.04971E-03 3.24645E-04 3.09713E-16
 -1       820 1.26548E-03-2.33912E-04-1.11771E-16
 -1       821 6.19320E-03-2.37465E-04-1.47393E-15
 -1       822 3.76165E-03-1.00584E-04-3.12880E-16
 -1       823 5.32515E-03 2.27793E-04-6.55109E-16
 -1       824 1.38983E-02-4.31563E-03-2.26675E-14
 -1       825 1.37462E-02-4.23136E-03-2.22612E-14
 -1       826 3.14046E-03-3.55877E-04-4.81803E-16
 -1       827 8.02718E-03-1.12442E-03-3.31434E-15
 -1       828 6.63180E-03-5.06722E-04-1.89217E-15
 -1       829 1.13004E-03-1.59324E-04-6.74543E-17
 -1       830 1.36309E-02-4.16726E-03-2.19699E-14
 -1       831 1.11750E-03-1.08357E-04-4.19857E-17
 -1       832 1.75660E-03 3.07118E-04 2.64437E-16
 -1       833 1.11366E-03-1.02173E-05 1.34610E-17
 -1       834 1.13072E-03 9.58016E-05 7.49218E-17
 -1       835 1.43478E-03 2.84557E-04 2.11003E-16
 -1       836 4.69912E-03 3.85647E-04-6.21146E-17
 -1       837 4.38480E-03 3.83077E-04 6.94974E-17
 -1       838 1.58198E-03-2.09748E-04-1.35386E-16
 -1       839 1.84990E-03-2.29056E-04-1.86225E-16
 -1       840 2.11040E-03-2.48379E-04-2.46033E-16
 -1       841 2.35967E-03-2.71304E-04-3.16360E-16
 -1       842 2.58177E-03-2.99923E-04-3.92505E-16
 -1       843 2.79406E-03-3.40913E-04-4.83371E-16
 -1       844 8.87437E-03-1.53417E-03-5.37919E-15
 -1       845 9.12084E-03-1.67480E-03-6.00158E-15
 -1       846 9.37915E-03-1.82264E-03-6.65954E-15
 -1       847 9.64591E-03-1.97522E-03-7.35748E-15
 -1       848 9.90485E-03-2.12281E-03-8.04966E-15
 -1       849 1.01815E-02-2.27973E-03-8.81332E-15
 -1       850 1.04611E-02-2.43737E-03-9.61581E-15
 -1       851 1.07427E-02-2.59519E-03-1.04586E-14
 -1       852 1.10257E-02-2.75287E-03-1.13247E-14
 -1       853 1.13096E-02-2.91024E-03-1.22151E-14
 -1       854 1.15799E-02-3.05940E-03-1.30736E-14
 -1       855 1.18648E-02-3.21604E-03-1.39989E-14
 -1       856 1.21501E-02-3.37232E-03-1.49521E-14
 -1       857 1.24355E-02-3.52828E-03-1.59400E-14
 -1       858 1.27211E-02-3.68396E-03-1.69618E-14
 -1       859 1.30067E-02-3.83941E-03-1.80237E-14
 -1       860 1.32781E-02-3.98692E-03-1.90669E-14
 -1       861 1.35638E-02-4.14205E-03-2.01937E-14
 -1       862 1.38496E-02-4.29707E-03-2.13492E-14
 -1       863 1.41353E-02-4.45200E-03-2.25302E-14
 -1       864 1.43212E-02-4.55238E-03-2.33701E-14
 -1       865 4.06195E-03 3.59207E-04 1.63186E-16
 -1       866 5.00553E-03 3.49514E-04-2.30400E-16
 -1       867 5.30929E-03 2.62887E-04-4.36368E-16
 -1       868 5.61771E-03 1.28963E-04-6.78795E-16
 -1       869 5.93476E-03-3.78636E-05-9.59983E-16
 -1       870 6.25833E-03-2.19426E-04-1.28255E-15
 -1       871 6.58318E-03-4.01992E-04-1.64357E-15
 -1       872 6.90429E-03-5.78746E-04-2.04276E-15
 -1       873 7.21873E-03-7.47851E-04-2.48473E-15
 -1       874 7.52576E-03-9.10153E-04-2.97364E-15
 -1       875 7.82607E-03-1.06738E-03-3.50948E-15
 -1       876 8.12098E-03-1.22125E-03-4.09504E-15
 -1       877 8.41194E-03-1.37312E-03-4.72449E-15
 -1       878 8.70023E-03-1.52397E-03-5.39573E-15
 -1       879 8.98683E-03-1.67446E-03-6.10689E-15
 -1       880 9.27247E-03-1.82500E-03-6.85803E-15
 -1       881 9.55763E-03-1.97584E-03-7.64515E-15
 -1       882 9.84262E-03-2.12710E-03-8.46625E-15
 -1       883 1.01276E-02-2.27882E-03-9.32925E-15
 -1       884 1.04127E-02-2.43101E-03-1.02243E-14
 -1       885 1.06979E-02-2.58365E-03-1.11516E-14
 -1       886 1.09832E-02-2.73668E-03-1.21116E-14
 -1       887 1.12687E-02-2.89007E-03-1.31050E-14
 -1       888 1.15542E-02-3.04374E-03-1.41252E-14
 -1       889 1.18398E-02-3.19766E-03-1.51715E-14
 -1       890 1.21254E-02-3.35178E-03-1.62436E-14
 -1       891 1.24111E-02-3.50606E-03-1.73363E-14
 -1       892 1.26968E-02-3.66046E-03-1.84460E-14
 -1       893 1.29826E-02-3.81495E-03-1.95659E-14
 -1       894 1.32683E-02-3.96950E-03-2.06871E-14
 -1       895 1.40312E-02-4.39226E-03-2.26279E-14
 -1       896 1.38790E-02-4.30802E-03-2.22468E-14
 -1       897 4.51798E-03 2.69627E-04-2.10810E-16
 -1       898 5.84972E-03-2.53527E-05-1.12492E-15
 -1       899 8.64440E-03-1.40381E-03-4.78984E-15
 -1       900 7.72311E-03-1.04035E-03-3.04008E-15
 -1       901 1.56194E-03 2.27639E-04 1.88282E-16
 -1       902 3.29471E-03-2.52832E-04-3.59159E-16
 -1       903 2.77911E-03 2.71535E-04 2.88110E-16
 -1       904 2.47391E-03 2.61814E-04 2.77146E-16
 -1       905 1.11242E-03-5.95190E-05-1.51788E-17
 -1       906 3.09122E-03 2.84810E-04 2.85755E-16
 -1       907 8.44746E-03-1.29233E-03-4.25925E-15
 -1       908 4.06979E-03 9.91109E-05-2.05057E-16
 -1       909 1.41762E-02-4.47231E-03-2.30026E-14
 -1       910 4.85829E-03 3.07764E-04-3.38725E-16
 -1       911 1.35569E-02-4.12567E-03-2.18190E-14
 -1       912 7.20255E-03-8.15370E-04-2.48932E-15
 -1       913 1.35154E-03 1.91046E-04 1.45984E-16
 -1       914 2.17456E-03 2.52934E-04 2.55448E-16
 -1       915 1.38078E-03-1.94926E-04-1.04778E-16
 -1       916 8.30151E-03-1.20285E-03-3.81936E-15
 -1       917 3.44368E-03-1.52802E-04-2.71267E-16
 -1       918 3.73530E-03 3.29749E-04 2.26896E-16
 -1       919 6.43248E-03-3.82332E-04-1.68608E-15
 -1       920 2.93709E-03-3.37947E-04-4.52970E-16
 -1       921 1.37269E-02-4.22379E-03-2.18652E-14
 -1       922 1.35748E-02-4.13956E-03-2.14750E-14
 -1       923 4.18318E-03 2.34554E-04-7.79982E-17
 -1       924 7.55796E-03-9.79625E-04-2.93566E-15
 -1       925 5.56971E-03 1.30945E-04-7.97627E-16
 -1       926 1.36476E-03 7.38518E-05 7.20690E-17
 -1       927 1.34595E-02-4.07548E-03-2.11916E-14
 -1       928 1.87990E-03 2.42244E-04 2.26266E-16
 -1       929 1.35301E-03 1.34241E-05 3.14114E-17
 -1       930 8.24744E-03-1.19890E-03-3.73728E-15
 -1       931 1.36370E-03-1.38809E-04-7.08526E-17
 -1       932 3.41044E-03 3.04000E-04 2.65853E-16
 -1       933 6.95107E-03-6.81963E-04-2.22958E-15
 -1       934 6.10569E-03-1.74325E-04-1.32801E-15
 -1       935 8.06032E-03-1.16935E-03-3.56706E-15
 -1       936 1.96306E-03-1.88408E-04-1.63715E-16
 -1       937 2.21965E-03-2.11931E-04-2.18568E-16
 -1       938 2.45357E-03-2.40464E-04-2.79755E-16
 -1       939 2.68619E-03-2.79948E-04-3.54693E-16
 -1       940 9.12839E-03-1.69493E-03-6.05866E-15
 -1       941 9.38939E-03-1.84068E-03-6.73034E-15
 -1       942 9.64372E-03-1.98341E-03-7.40193E-15
 -1       943 9.91642E-03-2.13658E-03-8.14223E-15
 -1       944 1.01929E-02-2.29155E-03-8.91744E-15
 -1       945 1.04721E-02-2.44749E-03-9.73405E-15
 -1       946 1.07532E-02-2.60388E-03-1.05902E-14
 -1       947 1.10357E-02-2.76036E-03-1.14690E-14
 -1       948 1.13051E-02-2.90895E-03-1.23208E-14
 -1       949 1.15893E-02-3.06517E-03-1.32391E-14
 -1       950 1.18740E-02-3.22117E-03-1.41829E-14
 -1       951 1.21591E-02-3.37695E-03-1.51541E-14
 -1       952 1.24444E-02-3.53251E-03-1.61613E-14
 -1       953 1.27299E-02-3.68789E-03-1.72050E-14
 -1       954 1.30012E-02-3.83536E-03-1.82270E-14
 -1       955 1.32868E-02-3.99046E-03-1.93387E-14
 -1       956 1.35725E-02-4.14546E-03-2.04751E-14
 -1       957 1.38583E-02-4.30038E-03-2.16340E-14
 -1       958 1.40172E-02-4.38636E-03-2.23179E-14
 -1       959 1.37077E-02-4.21610E-03-2.14353E-14
 -1       960 1.69365E-03 1.66588E-04 1.54485E-16
 -1       961 3.02140E-03-2.91393E-04-3.75646E-16
 -1       962 6.21135E-03-2.18229E-04-1.34282E-15
 -1       963 6.55182E-03-4.10136E-04-1.69725E-15
 -1       964 6.88646E-03-5.91945E-04-2.08789E-15
 -1       965 7.21057E-03-7.61496E-04-2.51808E-15
 -1       966 7.52356E-03-9.21509E-04-2.99215E-15
 -1       967 7.82683E-03-1.07541E-03-3.51233E-15
 -1       968 8.12262E-03-1.22597E-03-4.08327E-15
 -1       969 8.41317E-03-1.37506E-03-4.69842E-15
 -1       970 8.70035E-03-1.52381E-03-5.35532E-15
 -1       971 8.98555E-03-1.67285E-03-6.05426E-15
 -1       972 9.26974E-03-1.82247E-03-6.79218E-15
 -1       973 9.55355E-03-1.97277E-03-7.56713E-15
 -1       974 9.83736E-03-2.12375E-03-8.37963E-15
 -1       975 1.01214E-02-2.27537E-03-9.22838E-15
 -1       976 1.04057E-02-2.42756E-03-1.01111E-14
 -1       977 1.06903E-02-2.58023E-03-1.10226E-14
 -1       978 1.09751E-02-2.73333E-03-1.19707E-14
 -1       979 1.12602E-02-2.88677E-03-1.29486E-14
 -1       980 1.15455E-02-3.04050E-03-1.39545E-14
 -1       981 1.18310E-02-3.19447E-03-1.49876E-14
 -1       982 1.21165E-02-3.34862E-03-1.60470E-14
 -1       983 1.24021E-02-3.50292E-03-1.71300E-14
 -1       984 1.26878E-02-3.65734E-03-1.82337E-14
 -1       985 1.29735E-02-3.81184E-03-1.93513E-14
 -1       986 8.41876E-03-1.31094E-03-4.28031E-15
 -1       987 8.64274E-03-1.42930E-03-4.84496E-15
 -1       988 5.84629E-03-9.22880E-06-9.96480E-16
 -1       989 3.67857E-03 2.50858E-05-1.35640E-16
 -1       990 2.91102E-03 1.82916E-04 1.83705E-16
 -1       991 1.35654E-03-8.43881E-05-3.53348E-17
 -1       992 2.60098E-03 1.78299E-04 1.92253E-16
 -1       993 1.35693E-03 1.31218E-04 1.09240E-16
 -1       994 8.87965E-03-1.55759E-03-5.43408E-15
 -1       995 1.35220E-03-3.63091E-05-2.63935E-18
 -1       996 1.69895E-03-1.68415E-04-1.18381E-16
 -1       997 2.29921E-03 1.75853E-04 1.88129E-16
 -1       998 2.73534E-03-2.38387E-04-2.86219E-16
 -1       999 7.92313E-03-1.13254E-03-3.46425E-15
 -1      1000 3.91018E-03 2.17652E-04 1.72558E-17
 -1      1001 3.14823E-03-1.71793E-04-2.35553E-16
 -1      1002 1.35555E-02-4.13191E-03-2.10591E-14
 -1      1003 1.98397E-03 1.73402E-04 1.75288E-16
 -1      1004 1.32592E-02-3.96640E-03-2.04773E-14
 -1      1005 3.23075E-03 1.93391E-04 1.61102E-16
 -1      1006 1.34034E-02-4.04773E-03-2.06796E-14
 -1      1007 7.30346E-03-8.55189E-04-2.66406E-15
 -1      1008 1.32880E-02-3.98369E-03-2.04085E-14
 -1      1009 1.59935E-03 4.20791E-05 5.58466E-17
 -1      1010 6.75010E-03-5.62702E-04-2.00796E-15
 -1      1011 1.38624E-02-4.30122E-03-2.18796E-14
 -1      1012 1.59304E-03 1.04470E-04 1.03003E-16
 -1      1013 2.09088E-03-1.47328E-04-1.30551E-16
 -1      1014 2.33784E-03-1.72730E-04-1.76711E-16
 -1      1015 2.53970E-03-2.02732E-04-2.27530E-16
 -1      1016 9.12669E-03-1.71006E-03-6.11175E-15
 -1      1017 3.30700E-03-3.93812E-05-1.12432E-16
 -1      1018 9.37914E-03-1.84767E-03-6.75919E-15
 -1      1019 9.64964E-03-1.99661E-03-7.47988E-15
 -1      1020 9.92398E-03-2.14838E-03-8.22932E-15
 -1      1021 1.02013E-02-2.30195E-03-9.02207E-15
 -1      1022 1.04809E-02-2.45659E-03-9.85742E-15
 -1      1023 1.07622E-02-2.61181E-03-1.07243E-14
 -1      1024 1.10306E-02-2.75952E-03-1.15686E-14
 -1      1025 1.13140E-02-2.91508E-03-1.24753E-14
 -1      1026 1.15982E-02-3.07061E-03-1.34093E-14
 -1      1027 1.18829E-02-3.22605E-03-1.43694E-14
 -1      1028 1.21679E-02-3.38138E-03-1.53675E-14
 -1      1029 1.24532E-02-3.53660E-03-1.63922E-14
 -1      1030 1.27244E-02-3.68395E-03-1.73978E-14
 -1      1031 1.30100E-02-3.83898E-03-1.84895E-14
 -1      1032 1.32956E-02-3.99392E-03-1.96080E-14
 -1      1033 7.52990E-03-9.39273E-04-3.01439E-15
 -1      1034 7.83473E-03-1.08797E-03-3.52194E-15
 -1      1035 8.12988E-03-1.23350E-03-4.07401E-15
 -1      1036 8.41866E-03-1.37844E-03-4.67527E-15
 -1      1037 8.70362E-03-1.52411E-03-5.31877E-15
 -1      1038 8.98657E-03-1.67107E-03-6.00424E-15
 -1      1039 9.26870E-03-1.81939E-03-6.72859E-15
 -1      1040 9.55072E-03-1.96897E-03-7.49094E-15
 -1      1041 9.83304E-03-2.11963E-03-8.28984E-15
 -1      1042 1.01158E-02-2.27118E-03-9.12473E-15
 -1      1043 1.03992E-02-2.42344E-03-9.99578E-15
 -1      1044 1.06830E-02-2.57625E-03-1.08971E-14
 -1      1045 1.09673E-02-2.72951E-03-1.18277E-14
 -1      1046 1.12520E-02-2.88311E-03-1.27947E-14
 -1      1047 1.15370E-02-3.03698E-03-1.37865E-14
 -1      1048 1.18223E-02-3.19106E-03-1.48040E-14
 -1      1049 1.21077E-02-3.34530E-03-1.58544E-14
 -1      1050 1.23932E-02-3.49967E-03-1.69265E-14
 -1      1051 1.26789E-02-3.65413E-03-1.80224E-14
 -1      1052 1.29645E-02-3.80867E-03-1.91293E-14
 -1      1053 1.59284E-03-1.46190E-05 1.16179E-17
 -1      1054 8.37576E-03-1.32099E-03-4.30647E-15
 -1      1055 2.80728E-03-1.41524E-04-1.62915E-16
 -1      1056 2.72312E-03 8.79761E-05 9.43696E-17
 -1      1057 1.69193E-03-1.09996E-04-6.88096E-17
 -1      1058 3.56667E-03 1.84228E-04 8.35717E-17
 -1      1059 7.21181E-03-7.83084E-04-2.55130E-15
 -1      1060 6.98720E-03-6.78100E-04-2.27067E-15
 -1      1061 1.89269E-03-1.27472E-04-9.65787E-17
 -1      1062 7.68757E-03-1.03502E-03-3.19946E-15
 -1      1063 8.87001E-03-1.57264E-03-5.47492E-15
 -1      1064 8.61725E-03-1.44128E-03-4.86926E-15
 -1      1065 2.93251E-03-3.48798E-05-5.38272E-17
 -1      1066 1.33841E-02-4.03998E-03-2.02559E-14
 -1      1067 1.87884E-03 1.06399E-04 1.14861E-16
 -1      1068 1.35813E-02-4.14881E-03-2.07475E-14
 -1      1069 2.42077E-03 9.32131E-05 1.09122E-16
 -1      1070 1.83716E-03 7.75971E-06 2.97139E-17
 -1      1071 3.03663E-03 8.59398E-05 6.66107E-17
 -1      1072 1.32320E-02-3.95586E-03-1.98854E-14
 -1      1073 1.64059E-03-6.26085E-05-2.74744E-17
 -1      1074 7.44239E-03-9.13002E-04-2.87316E-15
 -1      1075 9.11450E-03-1.71691E-03-6.14459E-15
 -1      1076 2.10360E-03 4.72870E-05 6.58450E-17
 -1      1077 2.14758E-03 1.01198E-04 1.16091E-16
 -1      1078 9.38552E-03-1.86219E-03-6.84008E-15
 -1      1079 9.65955E-03-2.01085E-03-7.56909E-15
 -1      1080 9.93613E-03-2.16193E-03-8.33783E-15
 -1      1081 1.02149E-02-2.31464E-03-9.15250E-15
 -1      1082 1.04954E-02-2.46837E-03-1.00003E-14
 -1      1083 1.07631E-02-2.61500E-03-1.08338E-14
 -1      1084 1.10459E-02-2.76969E-03-1.17313E-14
 -1      1085 1.13296E-02-2.92457E-03-1.26559E-14
 -1      1086 1.16139E-02-3.07953E-03-1.36062E-14
 -1      1087 1.18987E-02-3.23450E-03-1.45937E-14
 -1      1088 1.21838E-02-3.38945E-03-1.56105E-14
 -1      1089 1.24548E-02-3.53663E-03-1.66008E-14
 -1      1090 1.27403E-02-3.69151E-03-1.76736E-14
 -1      1091 1.30259E-02-3.84636E-03-1.87721E-14
 -1      1092 8.14556E-03-1.24361E-03-4.07342E-15
 -1      1093 7.85407E-03-1.10497E-03-3.53418E-15
 -1      1094 8.71083E-03-1.52445E-03-5.28438E-15
 -1      1095 8.99018E-03-1.66873E-03-5.95750E-15
 -1      1096 9.26936E-03-1.81540E-03-6.66563E-15
 -1      1097 9.54902E-03-1.96419E-03-7.41425E-15
 -1      1098 9.82946E-03-2.11453E-03-8.19924E-15
 -1      1099 1.01108E-02-2.26607E-03-9.02127E-15
 -1      1100 1.03931E-02-2.41850E-03-9.88044E-15
 -1      1101 1.06761E-02-2.57158E-03-1.07686E-14
 -1      1102 1.09598E-02-2.72512E-03-1.16852E-14
 -1      1103 1.12440E-02-2.87899E-03-1.26322E-14
 -1      1104 1.15287E-02-3.03309E-03-1.36122E-14
 -1      1105 1.18137E-02-3.18737E-03-1.46208E-14
 -1      1106 1.20990E-02-3.34177E-03-1.56565E-14
 -1      1107 1.23844E-02-3.49627E-03-1.67204E-14
 -1      1108 1.26700E-02-3.65083E-03-1.78035E-14
 -1      1109 1.29510E-02-3.80331E-03-1.88381E-14
 -1      1110 1.87948E-03-4.56515E-05-1.85161E-17
 -1      1111 2.23087E-03-1.00028E-04-8.49574E-17
 -1      1112 8.43000E-03-1.38287E-03-4.65614E-15
 -1      1113 8.10789E-03-1.21972E-03-3.88507E-15
 -1      1114 8.37155E-03-1.34259E-03-4.42655E-15
 -1      1115 2.13980E-03-1.33874E-05 7.66734E-18
 -1      1116 2.44511E-03-1.25035E-04-1.22423E-16
 -1      1117 2.62915E-03-5.69839E-05-5.39899E-17
 -1      1118 1.88413E-03-8.75951E-05-5.79879E-17
 -1      1119 2.53566E-03 5.40744E-06 1.71948E-17
 -1      1120 8.85016E-03-1.57812E-03-5.49474E-15
 -1      1121 7.87951E-03-1.12040E-03-3.54020E-15
 -1      1122 1.30607E-02-3.86393E-03-1.90998E-14
 -1      1123 2.05709E-03-9.31396E-05-7.05240E-17
 -1      1124 8.61159E-03-1.45844E-03-4.94841E-15
 -1      1125 2.27744E-03 3.62329E-05 5.48877E-17
 -1      1126 9.54810E-03-1.95799E-03-7.33759E-15
 -1      1127 9.10863E-03-1.72380E-03-6.19237E-15
 -1      1128 1.27797E-02-3.71136E-03-1.80671E-14
 -1      1129 9.94029E-03-2.16985E-03-8.43342E-15
 -1      1130 1.02205E-02-2.32204E-03-9.26124E-15
 -1      1131 1.04880E-02-2.46748E-03-1.00757E-14
 -1      1132 1.07705E-02-2.62117E-03-1.09624E-14
 -1      1133 1.10538E-02-2.77527E-03-1.18755E-14
 -1      1134 1.13378E-02-2.92962E-03-1.28137E-14
 -1      1135 1.16224E-02-3.08413E-03-1.37845E-14
 -1      1136 1.19073E-02-3.23874E-03-1.47922E-14
 -1      1137 1.21782E-02-3.38566E-03-1.57735E-14
 -1      1138 1.24636E-02-3.54035E-03-1.68325E-14
 -1      1139 8.72235E-03-1.52381E-03-5.25650E-15
 -1      1140 0.00000E+00 0.00000E+00 0.00000E+00
 -1      1141 0.00000E+00 0.00000E+00 0.00000E+00
 -1      1142 0.00000E+00 0.00000E+00 0.00000E+00
 -1      1143 0.00000E+00 0.00000E+00 0.00000E+00
 -1      1144 0.00000E+00 0.00000E+00 0.00000E+00
 -1      1145 0.00000E+00 0.00000E+00 0.00000E+00
 -1      1146 0.00000E+00 0.00000E+00 0.00000E+00
 -1      1147 0.00000E+00 0.00000E+00 0.00000E+00
 -1      1148 0.00000E+00 0.00000E+00 0.00000E+00
 -1      1149 0.00000E+00 0.00000E+00 0.00000E+00
 -1      1150 0.00000E+00 0.00000E+00 0.00000E+00
 -1      1151 0.00000E+00 0.00000E+00 0.00000E+00
 -1      1152 0.00000E+00 0.00000E+00 0.00000E+00
 -1      1153 0.00000E+00 0.00000E+00 0.00000E+00
 -1      1154 0.00000E+00 0.00000E+00 0.00000E+00
 -1      1155 0.00000E+00 0.00000E+00 0.00000E+00
 -1      1156 0.00000E+00 0.00000E+00 0.00000E+00
 -1      1157 2.01693E-04-1.40691E-04-7.80626E-18
 -1      1158 5.36649E-04-3.20882E-04-3.38678E-17
 -1      1159 8.23474E-04-4.36419E-04-7.37529E-17
 -1      1160 1.10047E-03-5.11079E-04-1.29603E-16
 -1      1161 1.37675E-03-5.60641E-04-2.00049E-16
 -1      1162 1.65731E-03-5.93327E-04-2.83763E-16
 -1      1163 1.93885E-03-6.13931E-04-3.77655E-16
 -1      1164 2.23208E-03-6.27443E-04-4.82809E-16
 -1      1165 2.54960E-03-6.38591E-04-6.01488E-16
 -1      1166 2.89012E-03-6.53480E-04-7.35563E-16
 -1      1167 3.26104E-03-6.82493E-04-8.85956E-16
 -1      1168 3.67006E-03-7.42867E-04-1.04951E-15
 -1      1169 4.10967E-03-8.57587E-04-1.22126E-15
 -1      1170 4.58278E-03-1.06023E-03-1.40796E-15
 -1      1171 5.07189E-03-1.38237E-03-1.62420E-15
 -1      1172 5.50567E-03-1.78828E-03-1.87730E-15
 -1      1173 5.80443E-03-2.12094E-03-2.14141E-15
 -1      1174 6.01238E-03-2.28204E-03-2.42288E-15
 -1      1175 6.23323E-03-2.24594E-03-2.76722E-15
 -1      1176 6.52413E-03-2.05396E-03-3.15047E-15
 -1      1177 6.91257E-03-1.82035E-03-3.56983E-15
 -1      1178 7.39107E-03-1.63969E-03-4.05008E-15
 -1      1179 7.88507E-03-1.57116E-03-4.57669E-15
 -1      1180 8.34727E-03-1.60094E-03-5.13584E-15
 -1      1181 8.76847E-03-1.69416E-03-5.73510E-15
 -1      1182 9.14341E-03-1.81982E-03-6.34884E-15
 -1      1183 9.49046E-03-1.96350E-03-6.99356E-15
 -1      1184 9.82502E-03-2.12013E-03-7.68470E-15
 -1      1185 1.01441E-02-2.28088E-03-8.39500E-15
 -1      1186 1.04525E-02-2.44302E-03-9.14094E-15
 -1      1187 1.07535E-02-2.60520E-03-9.93587E-15
 -1      1188 1.10494E-02-2.76681E-03-1.07768E-14
 -1      1189 1.13345E-02-2.92358E-03-1.16144E-14
 -1      1190 1.16173E-02-3.07950E-03-1.24576E-14
 -1      1191 1.19057E-02-3.23858E-03-1.33335E-14
 -1      1192 1.21930E-02-3.39689E-03-1.42312E-14
 -1      1193 1.24796E-02-3.55451E-03-1.51460E-14
 -1      1194 1.27657E-02-3.71154E-03-1.60750E-14
 -1      1195 1.30443E-02-3.86418E-03-1.70067E-14
 -1      1196 1.33228E-02-4.01642E-03-1.79755E-14
 -1      1197 1.36083E-02-4.17225E-03-1.89962E-14
 -1      1198 1.38937E-02-4.32780E-03-2.00562E-14
 -1      1199 1.41792E-02-4.48315E-03-2.11593E-14
 -1      1200 1.44647E-02-4.63833E-03-2.22951E-14
 -1      1201 1.47431E-02-4.78951E-03-2.34394E-14
 -1      1202 1.50215E-02-4.94061E-03-2.46328E-14
 -1      1203 1.53071E-02-5.09553E-03-2.58921E-14
 -1      1204 1.55927E-02-5.25041E-03-2.71852E-14
 -1      1205 1.58783E-02-5.40528E-03-2.84898E-14
 -1      1206 1.61640E-02-5.56016E-03-2.97922E-14
 -1      1207 1.64426E-02-5.71118E-03-3.10785E-14
 -1      1208 2.27697E-04 1.58804E-04 1.87567E-17
 -1      1209 5.54200E-04 3.35182E-04 7.53249E-17
 -1      1210 8.38190E-04 4.48981E-04 1.49755E-16
 -1      1211 1.11296E-03 5.25707E-04 2.40069E-16
 -1      1212 1.38529E-03 5.79703E-04 3.41212E-16
 -1      1213 1.65865E-03 6.18981E-04 4.47532E-16
 -1      1214 1.93460E-03 6.48708E-04 5.55640E-16
 -1      1215 2.21351E-03 6.72656E-04 6.64358E-16
 -1      1216 2.49479E-03 6.93688E-04 7.69906E-16
 -1      1217 2.77703E-03 7.13800E-04 8.66535E-16
 -1      1218 3.05813E-03 7.33907E-04 9.46427E-16
 -1      1219 3.33544E-03 7.53510E-04 1.00991E-15
 -1      1220 3.60616E-03 7.70374E-04 1.05515E-15
 -1      1221 3.86789E-03 7.80396E-04 1.07566E-15
 -1      1222 4.11939E-03 7.77904E-04 1.06512E-15
 -1      1223 4.36121E-03 7.56534E-04 1.01247E-15
 -1      1224 4.59595E-03 7.10591E-04 9.21829E-16
 -1      1225 4.82795E-03 6.36538E-04 7.91874E-16
 -1      1226 5.06236E-03 5.34030E-04 6.22542E-16
 -1      1227 5.30386E-03 4.06046E-04 4.13786E-16
 -1      1228 5.55564E-03 2.58066E-04 1.70464E-16
 -1      1229 5.81890E-03 9.66633E-05-1.11917E-16
 -1      1230 6.09299E-03-7.18972E-05-4.37747E-16
 -1      1231 6.37595E-03-2.42626E-04-8.13938E-16
 -1      1232 6.66530E-03-4.12187E-04-1.23892E-15
 -1      1233 6.95856E-03-5.78796E-04-1.71415E-15
 -1      1234 7.25363E-03-7.41860E-04-2.24155E-15
 -1      1235 7.54900E-03-9.01555E-04-2.82055E-15
 -1      1236 7.84367E-03-1.05846E-03-3.44222E-15
 -1      1237 8.13711E-03-1.21328E-03-4.10558E-15
 -1      1238 8.42912E-03-1.36669E-03-4.80472E-15
 -1      1239 8.71972E-03-1.51929E-03-5.53554E-15
 -1      1240 9.00905E-03-1.67150E-03-6.30622E-15
 -1      1241 9.29732E-03-1.82364E-03-7.11112E-15
 -1      1242 9.58474E-03-1.97591E-03-7.96387E-15
 -1      1243 9.87150E-03-2.12842E-03-8.86446E-15
 -1      1244 1.01578E-02-2.28124E-03-9.81455E-15
 -1      1245 1.04438E-02-2.43437E-03-1.08070E-14
 -1      1246 1.07295E-02-2.58780E-03-1.18215E-14
 -1      1247 1.10151E-02-2.74149E-03-1.28587E-14
 -1      1248 1.13006E-02-2.89541E-03-1.39251E-14
 -1      1249 1.15861E-02-3.04952E-03-1.50166E-14
 -1      1250 1.18716E-02-3.20378E-03-1.61262E-14
 -1      1251 1.21572E-02-3.35816E-03-1.72465E-14
 -1      1252 1.24427E-02-3.51263E-03-1.83664E-14
 -1      1253 1.27283E-02-3.66716E-03-1.94695E-14
 -1      1254 1.30140E-02-3.82172E-03-2.05628E-14
 -1      1255 1.32996E-02-3.97629E-03-2.16679E-14
 -1      1256 1.35853E-02-4.13086E-03-2.27867E-14
 -1      1257 1.38639E-02-4.28154E-03-2.38825E-14
 -1      1258 1.40756E-02-4.39709E-03-2.46155E-14
 -1      1259 1.42276E-02-4.48138E-03-2.50371E-14
 -1      1260 1.43795E-02-4.56568E-03-2.54697E-14
 -1      1261 1.45314E-02-4.65001E-03-2.59009E-14
 -1      1262 1.46834E-02-4.73436E-03-2.63385E-14
 -1      1263 1.48341E-02-4.81803E-03-2.67836E-14
 -1      1264 1.49848E-02-4.90172E-03-2.72531E-14
 -1      1265 1.51368E-02-4.98614E-03-2.77233E-14
 -1      1266 1.52890E-02-5.07057E-03-2.81910E-14
 -1      1267 1.54411E-02-5.15499E-03-2.86377E-14
 -1      1268 1.55934E-02-5.23941E-03-2.90703E-14
 -1      1269 1.57443E-02-5.32311E-03-2.95346E-14
 -1      1270 1.58954E-02-5.40677E-03-2.99961E-14
 -1      1271 1.60477E-02-5.49113E-03-3.04234E-14
 -1      1272 1.62001E-02-5.57546E-03-3.08042E-14
 -1      1273 1.63524E-02-5.65976E-03-3.11574E-14
 -1      1274 1.65035E-02-5.74333E-03-3.15309E-14
 -1      1275 8.00992E-03-8.50700E-04-2.31779E-15
 -1      1276 7.80176E-03-6.76052E-04-2.15790E-15
 -1      1277 7.50859E-03-5.05543E-04-1.98024E-15
 -1      1278 7.15499E-03-3.37749E-04-1.80638E-15
 -1      1279 6.73074E-03-1.68882E-04-1.62115E-15
 -1      1280 6.26931E-03-2.11829E-05-1.44063E-15
 -1      1281 5.79276E-03 8.44654E-05-1.27735E-15
 -1      1282 5.31690E-03 1.36873E-04-1.13229E-15
 -1      1283 4.86421E-03 1.29984E-04-1.01611E-15
 -1      1284 4.43337E-03 7.29425E-05-9.35016E-16
 -1      1285 4.04552E-03-2.17655E-05-8.87745E-16
 -1      1286 3.69013E-03-1.49863E-04-8.67789E-16
 -1      1287 3.40686E-03-2.97594E-04-8.83820E-16
 -1      1288 3.23929E-03-4.47911E-04-9.29568E-16
 -1      1289 3.19315E-03-6.11803E-04-1.00098E-15
 -1      1290 3.27966E-03-7.95358E-04-1.09452E-15
 -1      1291 3.48562E-03-9.94305E-04-1.20214E-15
 -1      1292 3.81062E-03-1.22661E-03-1.33215E-15
 -1      1293 4.24705E-03-1.48808E-03-1.49188E-15
 -1      1294 4.73412E-03-1.73253E-03-1.65566E-15
 -1      1295 5.23890E-03-1.91746E-03-1.81230E-15
 -1      1296 5.77280E-03-2.01529E-03-1.97794E-15
 -1      1297 6.30983E-03-2.00591E-03-2.14298E-15
 -1      1298 6.80685E-03-1.89594E-03-2.27918E-15
 -1      1299 7.26947E-03-1.71473E-03-2.38801E-15
 -1      1300 7.65459E-03-1.50983E-03-2.46102E-15
 -1      1301 7.91313E-03-1.32439E-03-2.48278E-15
 -1      1302 8.05490E-03-1.16297E-03-2.46770E-15
 -1      1303 8.09092E-03-1.01236E-03-2.41891E-15
 -1      1304 1.59105E-04-1.02735E-04-8.68717E-18
 -1      1305 1.13643E-04-5.39396E-05-7.48099E-18
 -1      1306 1.18560E-04-6.48329E-05-7.80626E-18
 -1      1307 1.09367E-04-3.99189E-05-6.64074E-18
 -1      1308 1.11358E-04-4.62020E-05-7.08797E-18
 -1      1309 2.28712E-04-1.01090E-04-1.70220E-17
 -1      1310 1.07339E-04-2.99754E-05-5.36680E-18
 -1      1311 1.08428E-04-3.46405E-05-5.75982E-18
 -1      1312 2.20830E-04-7.53075E-05-1.46367E-17
 -1      1313 1.06023E-04-2.21332E-05-4.09286E-18
 -1      1314 1.06724E-04-2.58826E-05-4.51299E-18
 -1      1315 2.16490E-04-5.63667E-05-1.17365E-17
 -1      1316 1.05145E-04-1.56962E-05-2.76472E-18
 -1      1317 1.05597E-04-1.88211E-05-3.19840E-18
 -1      1318 2.13649E-04-4.13815E-05-8.70072E-18
 -1      1319 1.04593E-04-9.93301E-06-1.38236E-18
 -1      1320 1.04860E-04-1.27732E-05-1.80249E-18
 -1      1321 2.11763E-04-2.87255E-05-5.52943E-18
 -1      1322 1.04347E-04-4.55770E-06 1.08420E-19
 -1      1323 1.04447E-04-7.24979E-06-3.25261E-19
 -1      1324 2.10658E-04-1.73333E-05-2.16840E-18
 -1      1325 1.04377E-04 7.67546E-07 1.47723E-18
 -1      1326 1.04329E-04-1.93590E-06 1.08420E-18
 -1      1327 2.10259E-04-6.54177E-06 1.23328E-18
 -1      1328 1.04647E-04 6.32530E-06 3.15774E-18
 -1      1329 1.04470E-04 3.47665E-06 2.71051E-18
 -1      1330 2.10480E-04 4.29090E-06 4.77049E-18
 -1      1331 1.05133E-04 1.23599E-05 4.97378E-18
 -1      1332 1.04836E-04 9.24662E-06 4.47233E-18
 -1      1333 2.11240E-04 1.57029E-05 8.76849E-18
 -1      1334 1.05825E-04 1.89887E-05 6.88468E-18
 -1      1335 1.05402E-04 1.55516E-05 6.16640E-18
 -1      1336 2.12477E-04 2.80651E-05 1.28613E-17
 -1      1337 1.06821E-04 2.67332E-05 9.13440E-18
 -1      1338 1.06195E-04 2.26861E-05 8.36191E-18
 -1      1339 2.14233E-04 4.19705E-05 1.74557E-17
 -1      1340 1.08340E-04 3.59738E-05 1.14248E-17
 -1      1341 1.07337E-04 3.10891E-05 1.05439E-17
 -1      1342 2.16747E-04 5.82596E-05 2.24159E-17
 -1      1343 1.11081E-04 4.77984E-05 1.40675E-17
 -1      1344 1.09171E-04 4.14175E-05 1.30240E-17
 -1      1345 2.20659E-04 7.81137E-05 2.78640E-17
 -1      1346 1.17706E-04 6.56644E-05 1.64528E-17
 -1      1347 1.13037E-04 5.55269E-05 1.54228E-17
 -1      1348 2.28135E-04 1.04584E-04 3.34341E-17
 -1      1349 1.57802E-04 1.08203E-04 1.86483E-17
 -1      1350 1.36405E-04 8.41895E-05 1.83095E-17
 -1      1351 2.57836E-04 1.47789E-04 3.92752E-17
 -1      1352 3.35913E-04 2.16551E-04 4.45607E-17
 -1      1353 4.07645E-04-2.45857E-04-2.72812E-17
 -1      1354 5.62836E-04-3.18250E-04-4.25278E-17
 -1      1355 7.12643E-04-3.75722E-04-6.17995E-17
 -1      1356 8.58956E-04-4.21585E-04-8.47846E-17
 -1      1357 6.03078E-04-3.10302E-04-5.08220E-17
 -1      1358 1.00273E-03-4.58940E-04-1.11375E-16
 -1      1359 1.14506E-03-4.89032E-04-1.41515E-16
 -1      1360 9.02376E-04-4.03746E-04-9.46915E-17
 -1      1361 1.28689E-03-5.13694E-04-1.75017E-16
 -1      1362 1.42889E-03-5.33508E-04-2.12043E-16
 -1      1363 1.19330E-03-4.64984E-04-1.51978E-16
 -1      1364 1.57173E-03-5.49474E-04-2.52077E-16
 -1      1365 1.71588E-03-5.62101E-04-2.94605E-16
 -1      1366 1.48203E-03-5.04763E-04-2.21841E-16
 -1      1367 1.85452E-03-5.71523E-04-3.38298E-16
 -1      1368 1.99521E-03-5.78940E-04-3.84987E-16
 -1      1369 1.76583E-03-5.29023E-04-3.01706E-16
 -1      1370 2.14599E-03-5.84993E-04-4.36744E-16
 -1      1371 2.30003E-03-5.89940E-04-4.90818E-16
 -1      1372 2.05532E-03-5.43265E-04-3.92698E-16
 -1      1373 2.45788E-03-5.94242E-04-5.48267E-16
 -1      1374 2.62017E-03-5.98879E-04-6.08847E-16
 -1      1375 2.36145E-03-5.51677E-04-4.97039E-16
 -1      1376 2.78754E-03-6.04611E-04-6.73954E-16
 -1      1377 2.96069E-03-6.12859E-04-7.42746E-16
 -1      1378 2.68039E-03-5.59005E-04-6.14621E-16
 -1      1379 3.14032E-03-6.25094E-04-8.14846E-16
 -1      1380 3.32712E-03-6.43467E-04-8.89791E-16
 -1      1381 3.01599E-03-5.73099E-04-7.46351E-16
 -1      1382 3.52166E-03-6.70719E-04-9.68382E-16
 -1      1383 3.72429E-03-7.10127E-04-1.05149E-15
 -1      1384 3.37226E-03-6.07017E-04-8.91838E-16
 -1      1385 3.92438E-03-7.62757E-04-1.13300E-15
 -1      1386 4.13126E-03-8.34161E-04-1.21729E-15
 -1      1387 3.74314E-03-6.79859E-04-1.04682E-15
 -1      1388 4.35563E-03-9.34395E-04-1.31072E-15
 -1      1389 4.58398E-03-1.06435E-03-1.41015E-15
 -1      1390 4.13962E-03-8.22640E-04-1.21707E-15
 -1      1391 4.81398E-03-1.22599E-03-1.51620E-15
 -1      1392 5.03972E-03-1.41677E-03-1.63056E-15
 -1      1393 4.57185E-03-1.07881E-03-1.41024E-15
 -1      1394 5.25794E-03-1.62757E-03-1.75479E-15
 -1      1395 5.46181E-03-1.84075E-03-1.88936E-15
 -1      1396 5.01905E-03-1.45911E-03-1.63434E-15
 -1      1397 5.61353E-03-1.99909E-03-2.00497E-15
 -1      1398 5.75546E-03-2.12799E-03-2.12935E-15
 -1      1399 5.41258E-03-1.85089E-03-1.86980E-15
 -1      1400 5.89629E-03-2.22291E-03-2.27238E-15
 -1      1401 6.03540E-03-2.26187E-03-2.42464E-15
 -1      1402 5.74900E-03-2.13250E-03-2.12200E-15
 -1      1403 6.18331E-03-2.24315E-03-2.59703E-15
 -1      1404 6.34183E-03-2.17169E-03-2.78067E-15
 -1      1405 6.08961E-03-2.22143E-03-2.42960E-15
 -1      1406 6.50226E-03-2.06925E-03-2.96272E-15
 -1      1407 6.67509E-03-1.95195E-03-3.15164E-15
 -1      1408 6.44323E-03-2.08230E-03-2.77865E-15
 -1      1409 6.88132E-03-1.82011E-03-3.36883E-15
 -1      1410 7.09582E-03-1.70404E-03-3.59448E-15
 -1      1411 6.83519E-03-1.82752E-03-3.17208E-15
 -1      1412 7.32747E-03-1.60924E-03-3.84066E-15
 -1      1413 7.55874E-03-1.54645E-03-4.09292E-15
 -1      1414 7.27431E-03-1.58933E-03-3.63033E-15
 -1      1415 7.78714E-03-1.51497E-03-4.35424E-15
 -1      1416 8.00948E-03-1.51089E-03-4.62438E-15
 -1      1417 7.71341E-03-1.46753E-03-4.13431E-15
 -1      1418 8.22484E-03-1.52915E-03-4.90372E-15
 -1      1419 8.43229E-03-1.56530E-03-5.18963E-15
 -1      1420 8.12826E-03-1.46310E-03-4.67020E-15
 -1      1421 8.63196E-03-1.61479E-03-5.48514E-15
 -1      1422 8.82411E-03-1.67436E-03-5.79182E-15
 -1      1423 8.51700E-03-1.53860E-03-5.24046E-15
 -1      1424 9.00024E-03-1.73766E-03-6.08813E-15
 -1      1425 9.17073E-03-1.80565E-03-6.39008E-15
 -1      1426 8.87316E-03-1.65704E-03-5.82775E-15
 -1      1427 9.34475E-03-1.88088E-03-6.71655E-15
 -1      1428 9.51392E-03-1.95859E-03-7.05286E-15
 -1      1429 9.21036E-03-1.79884E-03-6.44546E-15
 -1      1430 9.67889E-03-2.03807E-03-7.39571E-15
 -1      1431 9.84028E-03-2.11854E-03-7.74364E-15
 -1      1432 9.54040E-03-1.95609E-03-7.10972E-15
 -1      1433 9.99861E-03-2.19974E-03-8.09990E-15
 -1      1434 1.01544E-02-2.28118E-03-8.46190E-15
 -1      1435 9.85814E-03-2.11846E-03-7.80409E-15
 -1      1436 1.03080E-02-2.36283E-03-8.83374E-15
 -1      1437 1.04597E-02-2.44439E-03-9.21629E-15
 -1      1438 1.01667E-02-2.28243E-03-8.52778E-15
 -1      1439 1.06099E-02-2.52588E-03-9.61046E-15
 -1      1440 1.07589E-02-2.60714E-03-1.00174E-14
 -1      1441 1.04686E-02-2.44633E-03-9.28893E-15
 -1      1442 1.09068E-02-2.68822E-03-1.04320E-14
 -1      1443 1.10537E-02-2.76903E-03-1.08540E-14
 -1      1444 1.07656E-02-2.60942E-03-1.00927E-14
 -1      1445 1.11927E-02-2.84558E-03-1.12622E-14
 -1      1446 1.13310E-02-2.92189E-03-1.16711E-14
 -1      1447 1.10518E-02-2.76740E-03-1.09110E-14
 -1      1448 1.14762E-02-3.00199E-03-1.21023E-14
 -1      1449 1.16209E-02-3.08183E-03-1.25381E-14
 -1      1450 1.13357E-02-2.92431E-03-1.17491E-14
 -1      1451 1.17652E-02-3.16146E-03-1.29776E-14
 -1      1452 1.19092E-02-3.24087E-03-1.34208E-14
 -1      1453 1.16250E-02-3.08421E-03-1.26203E-14
 -1      1454 1.20530E-02-3.32008E-03-1.38675E-14
 -1      1455 1.21965E-02-3.39909E-03-1.43190E-14
 -1      1456 1.19131E-02-3.24316E-03-1.35044E-14
 -1      1457 1.23399E-02-3.47794E-03-1.47741E-14
 -1      1458 1.24832E-02-3.55663E-03-1.52357E-14
 -1      1459 1.22004E-02-3.40129E-03-1.44044E-14
 -1      1460 1.26263E-02-3.63517E-03-1.57016E-14
 -1      1461 1.27694E-02-3.71358E-03-1.61716E-14
 -1      1462 1.24870E-02-3.55873E-03-1.53259E-14
 -1      1463 1.29052E-02-3.78795E-03-1.66286E-14
 -1      1464 1.30410E-02-3.86223E-03-1.70903E-14
 -1      1465 1.27661E-02-3.71167E-03-1.62472E-14
 -1      1466 1.31838E-02-3.94031E-03-1.75868E-14
 -1      1467 1.33267E-02-4.01831E-03-1.80933E-14
 -1      1468 1.30449E-02-3.86416E-03-1.71998E-14
 -1      1469 1.34695E-02-4.09623E-03-1.86073E-14
 -1      1470 1.36123E-02-4.17407E-03-1.91254E-14
 -1      1471 1.33306E-02-4.02017E-03-1.82122E-14
 -1      1472 1.37550E-02-4.25185E-03-1.96560E-14
 -1      1473 1.38978E-02-4.32957E-03-2.02005E-14
 -1      1474 1.36163E-02-4.17587E-03-1.92585E-14
 -1      1475 1.40406E-02-4.40724E-03-2.07505E-14
 -1      1476 1.41834E-02-4.48487E-03-2.13107E-14
 -1      1477 1.39019E-02-4.33132E-03-2.03420E-14
 -1      1478 1.43261E-02-4.56246E-03-2.18800E-14
 -1      1479 1.44689E-02-4.64001E-03-2.24580E-14
 -1      1480 1.41875E-02-4.48657E-03-2.14630E-14
 -1      1481 1.46045E-02-4.71367E-03-2.30185E-14
 -1      1482 1.47402E-02-4.78730E-03-2.35859E-14
 -1      1483 1.44660E-02-4.63781E-03-2.25938E-14
 -1      1484 1.48830E-02-4.86478E-03-2.41949E-14
 -1      1485 1.50258E-02-4.94225E-03-2.48149E-14
 -1      1486 1.47444E-02-4.78894E-03-2.37609E-14
 -1      1487 1.51686E-02-5.01970E-03-2.54437E-14
 -1      1488 1.53114E-02-5.09715E-03-2.60754E-14
 -1      1489 1.50301E-02-4.94388E-03-2.49916E-14
 -1      1490 1.54542E-02-5.17459E-03-2.67159E-14
 -1      1491 1.55970E-02-5.25202E-03-2.73645E-14
 -1      1492 1.53157E-02-5.09876E-03-2.62558E-14
 -1      1493 1.57399E-02-5.32945E-03-2.80127E-14
 -1      1494 1.58827E-02-5.40689E-03-2.86615E-14
 -1      1495 1.56014E-02-5.25363E-03-2.75393E-14
 -1      1496 1.60255E-02-5.48433E-03-2.93129E-14
 -1      1497 1.61684E-02-5.56177E-03-2.99652E-14
 -1      1498 1.58870E-02-5.40849E-03-2.88330E-14
 -1      1499 1.63677E-02-5.66975E-03-3.08996E-14
 -1      1500 6.46327E-04 3.62254E-04 1.03677E-16
 -1      1501 4.94786E-04 2.96712E-04 7.09746E-17
 -1      1502 4.47557E-04 2.58855E-04 6.69901E-17
 -1      1503 9.35964E-04 4.57074E-04 1.81794E-16
 -1      1504 7.92879E-04 4.14059E-04 1.40743E-16
 -1      1505 7.50613E-04 3.78081E-04 1.31568E-16
 -1      1506 1.21644E-03 5.22355E-04 2.72650E-16
 -1      1507 1.07679E-03 4.92598E-04 2.26002E-16
 -1      1508 1.04113E-03 4.58642E-04 2.11867E-16
 -1      1509 1.49402E-03 5.68852E-04 3.71353E-16
 -1      1510 1.35527E-03 5.47532E-04 3.21385E-16
 -1      1511 1.32483E-03 5.14768E-04 3.01937E-16
 -1      1512 1.77191E-03 6.03054E-04 4.73403E-16
 -1      1513 1.63277E-03 5.87218E-04 4.22215E-16
 -1      1514 1.60609E-03 5.55051E-04 3.97075E-16
 -1      1515 2.05146E-03 6.29481E-04 5.75766E-16
 -1      1516 1.91142E-03 6.17038E-04 5.24686E-16
 -1      1517 1.88737E-03 5.85093E-04 4.94030E-16
 -1      1518 2.33289E-03 6.51562E-04 6.76352E-16
 -1      1519 2.19195E-03 6.40918E-04 6.26384E-16
 -1      1520 2.16970E-03 6.08987E-04 5.89318E-16
 -1      1521 2.61554E-03 6.71873E-04 7.70800E-16
 -1      1522 2.47412E-03 6.61854E-04 7.24789E-16
 -1      1523 2.45314E-03 6.29863E-04 6.80499E-16
 -1      1524 2.89804E-03 6.92033E-04 8.53660E-16
 -1      1525 2.75691E-03 6.81965E-04 8.13938E-16
 -1      1526 2.73700E-03 6.49965E-04 7.63414E-16
 -1      1527 3.17846E-03 7.12425E-04 9.18970E-16
 -1      1528 3.03864E-03 7.02290E-04 8.88422E-16
 -1      1529 3.02001E-03 6.70458E-04 8.31664E-16
 -1      1530 3.45458E-03 7.31826E-04 9.68477E-16
 -1      1531 3.31721E-03 7.22451E-04 9.46305E-16
 -1      1532 3.30047E-03 6.91080E-04 8.83706E-16
 -1      1533 3.72425E-03 7.47116E-04 9.95935E-16
 -1      1534 3.59035E-03 7.40293E-04 9.85364E-16
 -1      1535 3.57654E-03 7.09771E-04 9.17154E-16
 -1      1536 3.98596E-03 7.53302E-04 9.95758E-16
 -1      1537 3.85617E-03 7.51732E-04 9.99418E-16
 -1      1538 3.84663E-03 7.22477E-04 9.25678E-16
 -1      1539 4.23936E-03 7.44070E-04 9.60725E-16
 -1      1540 4.11368E-03 7.51008E-04 9.83439E-16
 -1      1541 4.10985E-03 7.23379E-04 9.04157E-16
 -1      1542 4.48574E-03 7.12942E-04 8.85888E-16
 -1      1543 4.36330E-03 7.31558E-04 9.28362E-16
 -1      1544 4.36649E-03 7.05740E-04 8.45596E-16
 -1      1545 4.72791E-03 6.54835E-04 7.71606E-16
 -1      1546 4.60712E-03 6.87410E-04 8.33941E-16
 -1      1547 4.61823E-03 6.63333E-04 7.48289E-16
 -1      1548 4.96979E-03 5.67482E-04 6.20055E-16
 -1      1549 4.84861E-03 6.14749E-04 7.00462E-16
 -1      1550 4.86790E-03 5.92077E-04 6.11111E-16
 -1      1551 5.21549E-03 4.52134E-04 4.28490E-16
 -1      1552 5.09191E-03 5.13040E-04 5.29064E-16
 -1      1553 5.11895E-03 4.91247E-04 4.37123E-16
 -1      1554 5.46834E-03 3.13219E-04 1.99778E-16
 -1      1555 5.34084E-03 3.85221E-04 3.18633E-16
 -1      1556 5.37462E-03 3.63728E-04 2.25135E-16
 -1      1557 5.73027E-03 1.57116E-04-6.59601E-17
 -1      1558 5.59810E-03 2.36877E-04 7.21537E-17
 -1      1559 5.63717E-03 2.15185E-04-2.43945E-17
 -1      1560 6.00159E-03-9.38435E-06-3.74375E-16
 -1      1561 5.86478E-03 7.47734E-05-2.15187E-16
 -1      1562 5.90758E-03 5.25516E-05-3.15340E-16
 -1      1563 6.28129E-03-1.80377E-04-7.27107E-16
 -1      1564 6.14049E-03-9.46139E-05-5.44784E-16
 -1      1565 6.18553E-03-1.17509E-04-6.49166E-16
 -1      1566 6.56757E-03-3.51552E-04-1.12884E-15
 -1      1567 6.42374E-03-2.66126E-04-9.22426E-16
 -1      1568 6.46981E-03-2.89685E-04-1.02862E-15
 -1      1569 6.85836E-03-5.20314E-04-1.58338E-15
 -1      1570 6.71254E-03-4.36323E-04-1.34968E-15
 -1      1571 6.75877E-03-4.60437E-04-1.45726E-15
 -1      1572 7.15172E-03-6.85517E-04-2.08225E-15
 -1      1573 7.00484E-03-6.03380E-04-1.82585E-15
 -1      1574 7.05069E-03-6.27898E-04-1.93568E-15
 -1      1575 7.44608E-03-8.47026E-04-2.63830E-15
 -1      1576 7.29886E-03-7.66711E-04-2.35418E-15
 -1      1577 7.34409E-03-7.91480E-04-2.46453E-15
 -1      1578 7.74033E-03-1.00529E-03-3.23743E-15
 -1      1579 7.59328E-03-9.26524E-04-2.93262E-15
 -1      1580 7.63782E-03-9.51413E-04-3.04299E-15
 -1      1581 8.03378E-03-1.16103E-03-3.88176E-15
 -1      1582 7.88719E-03-1.08343E-03-3.55500E-15
 -1      1583 7.93110E-03-1.10834E-03-3.66464E-15
 -1      1584 8.32607E-03-1.31499E-03-4.56216E-15
 -1      1585 8.18008E-03-1.23819E-03-4.21654E-15
 -1      1586 8.22349E-03-1.26306E-03-4.32761E-15
 -1      1587 8.61710E-03-1.46782E-03-5.27853E-15
 -1      1588 8.47175E-03-1.39151E-03-4.91648E-15
 -1      1589 8.51479E-03-1.41629E-03-5.02765E-15
 -1      1590 8.90692E-03-1.62006E-03-6.03298E-15
 -1      1591 8.76216E-03-1.54399E-03-5.65116E-15
 -1      1592 8.80497E-03-1.56867E-03-5.76333E-15
 -1      1593 9.19568E-03-1.77209E-03-6.82147E-15
 -1      1594 9.05142E-03-1.69608E-03-6.42307E-15
 -1      1595 9.09410E-03-1.72066E-03-6.53774E-15
 -1      1596 9.48354E-03-1.92418E-03-7.65416E-15
 -1      1597 9.33971E-03-1.84812E-03-7.23053E-15
 -1      1598 9.38234E-03-1.87260E-03-7.34857E-15
 -1      1599 9.77069E-03-2.07648E-03-8.53068E-15
 -1      1600 9.62719E-03-2.00030E-03-8.08685E-15
 -1      1601 9.66983E-03-2.02470E-03-8.20500E-15
 -1      1602 1.00573E-02-2.22908E-03-9.45348E-15
 -1      1603 9.91405E-03-2.15274E-03-8.98739E-15
 -1      1604 9.95674E-03-2.17707E-03-9.10654E-15
 -1      1605 1.03435E-02-2.38201E-03-1.04222E-14
 -1      1606 1.02005E-02-2.30550E-03-9.93341E-15
 -1      1607 1.02432E-02-2.32977E-03-1.00506E-14
 -1      1608 1.06295E-02-2.53525E-03-1.14224E-14
 -1      1609 1.04865E-02-2.45859E-03-1.09177E-14
 -1      1610 1.05293E-02-2.48282E-03-1.10301E-14
 -1      1611 1.09152E-02-2.68878E-03-1.24455E-14
 -1      1612 1.07724E-02-2.61198E-03-1.19305E-14
 -1      1613 1.08152E-02-2.63618E-03-1.20389E-14
 -1      1614 1.12009E-02-2.84258E-03-1.34979E-14
 -1      1615 1.10580E-02-2.76565E-03-1.29695E-14
 -1      1616 1.11010E-02-2.78982E-03-1.30770E-14
 -1      1617 1.14864E-02-2.99658E-03-1.45773E-14
 -1      1618 1.13437E-02-2.91956E-03-1.40336E-14
 -1      1619 1.13867E-02-2.94371E-03-1.41418E-14
 -1      1620 1.17720E-02-3.15077E-03-1.56747E-14
 -1      1621 1.16292E-02-3.07366E-03-1.51236E-14
 -1      1622 1.16723E-02-3.09780E-03-1.52289E-14
 -1      1623 1.20576E-02-3.30509E-03-1.67881E-14
 -1      1624 1.19148E-02-3.22791E-03-1.62298E-14
 -1      1625 1.19579E-02-3.25205E-03-1.63348E-14
 -1      1626 1.23431E-02-3.45952E-03-1.79067E-14
 -1      1627 1.22003E-02-3.38229E-03-1.73489E-14
 -1      1628 1.22435E-02-3.40643E-03-1.74489E-14
 -1      1629 1.26287E-02-3.61402E-03-1.90177E-14
 -1      1630 1.24859E-02-3.53676E-03-1.84647E-14
 -1      1631 1.25291E-02-3.56089E-03-1.85635E-14
 -1      1632 1.29144E-02-3.76857E-03-2.01184E-14
 -1      1633 1.27715E-02-3.69129E-03-1.95679E-14
 -1      1634 1.28147E-02-3.71542E-03-1.96692E-14
 -1      1635 1.32000E-02-3.92314E-03-2.12187E-14
 -1      1636 1.30572E-02-3.84585E-03-2.06672E-14
 -1      1637 1.31004E-02-3.86999E-03-2.07704E-14
 -1      1638 1.34857E-02-4.07771E-03-2.23311E-14
 -1      1639 1.33428E-02-4.00043E-03-2.17727E-14
 -1      1640 1.33860E-02-4.02456E-03-2.18772E-14
 -1      1641 1.37714E-02-4.23228E-03-2.34499E-14
 -1      1642 1.36285E-02-4.15500E-03-2.28898E-14
 -1      1643 1.36717E-02-4.17914E-03-2.29936E-14
 -1      1644 1.39399E-02-4.32369E-03-2.40860E-14
 -1      1645 1.41418E-02-4.43554E-03-2.46606E-14
 -1      1646 1.40659E-02-4.39339E-03-2.44465E-14
 -1      1647 1.42938E-02-4.51985E-03-2.50896E-14
 -1      1648 1.42178E-02-4.47770E-03-2.48759E-14
 -1      1649 1.40561E-02-4.38970E-03-2.42827E-14
 -1      1650 1.44457E-02-4.60418E-03-2.55216E-14
 -1      1651 1.43697E-02-4.56201E-03-2.53038E-14
 -1      1652 1.42080E-02-4.47401E-03-2.47103E-14
 -1      1653 1.45976E-02-4.68853E-03-2.59628E-14
 -1      1654 1.45217E-02-4.64636E-03-2.57420E-14
 -1      1655 1.43600E-02-4.55834E-03-2.51439E-14
 -1      1656 1.47470E-02-4.77148E-03-2.64086E-14
 -1      1657 1.46723E-02-4.73000E-03-2.61835E-14
 -1      1658 1.45106E-02-4.64198E-03-2.55844E-14
 -1      1659 1.48991E-02-4.85587E-03-2.68714E-14
 -1      1660 1.48230E-02-4.81367E-03-2.66379E-14
 -1      1661 1.46613E-02-4.72562E-03-2.60313E-14
 -1      1662 1.50511E-02-4.94027E-03-2.73326E-14
 -1      1663 1.49751E-02-4.89807E-03-2.70988E-14
 -1      1664 1.48133E-02-4.81000E-03-2.64826E-14
 -1      1665 1.52033E-02-5.02467E-03-2.77879E-14
 -1      1666 1.51272E-02-4.98247E-03-2.75648E-14
 -1      1667 1.49654E-02-4.89438E-03-2.69361E-14
 -1      1668 1.53554E-02-5.10908E-03-2.82274E-14
 -1      1669 1.52793E-02-5.06688E-03-2.80116E-14
 -1      1670 1.51176E-02-4.97877E-03-2.73847E-14
 -1      1671 1.55077E-02-5.19347E-03-2.86668E-14
 -1      1672 1.54316E-02-5.15128E-03-2.84455E-14
 -1      1673 1.52698E-02-5.06315E-03-2.78204E-14
 -1      1674 1.56574E-02-5.27643E-03-2.91085E-14
 -1      1675 1.55825E-02-5.23495E-03-2.88874E-14
 -1      1676 1.54207E-02-5.14682E-03-2.82483E-14
 -1      1677 1.58097E-02-5.36079E-03-2.95447E-14
 -1      1678 1.57336E-02-5.31861E-03-2.93303E-14
 -1      1679 1.55718E-02-5.23047E-03-2.86749E-14
 -1      1680 1.59621E-02-5.44514E-03-2.99529E-14
 -1      1681 1.58859E-02-5.40297E-03-2.97541E-14
 -1      1682 1.57241E-02-5.31482E-03-2.90915E-14
 -1      1683 1.61144E-02-5.52946E-03-3.03265E-14
 -1      1684 1.60383E-02-5.48730E-03-3.01431E-14
 -1      1685 1.58764E-02-5.39915E-03-2.94840E-14
 -1      1686 7.97680E-03-8.87610E-04-2.38477E-15
 -1      1687 8.05827E-03-9.39866E-04-2.45482E-15
 -1      1688 7.70268E-03-7.43193E-04-2.18865E-15
 -1      1689 7.84233E-03-8.09416E-04-2.27735E-15
 -1      1690 7.35843E-03-5.66626E-04-1.98507E-15
 -1      1691 7.52558E-03-6.45545E-04-2.07380E-15
 -1      1692 6.96017E-03-3.76276E-04-1.79209E-15
 -1      1693 7.14937E-03-4.67121E-04-1.88127E-15
 -1      1694 6.49729E-03-1.68295E-04-1.57938E-15
 -1      1695 6.71048E-03-2.69938E-04-1.68028E-15
 -1      1696 6.06742E-03 1.86850E-05-1.38762E-15
 -1      1697 6.26154E-03-5.95692E-05-1.46961E-15
 -1      1698 5.63101E-03 1.48458E-04-1.20720E-15
 -1      1699 5.83017E-03 9.74460E-05-1.28871E-15
 -1      1700 5.22731E-03 1.85664E-04-1.06612E-15
 -1      1701 5.40986E-03 1.78214E-04-1.12795E-15
 -1      1702 4.82790E-03 1.43644E-04-9.49734E-16
 -1      1703 5.01314E-03 1.73999E-04-9.98767E-16
 -1      1704 4.42815E-03 3.73704E-05-8.80020E-16
 -1      1705 4.60920E-03 9.24165E-05-9.08426E-16
 -1      1706 4.04853E-03-1.00963E-04-8.40989E-16
 -1      1707 4.22123E-03-3.43851E-05-8.55774E-16
 -1      1708 3.68312E-03-2.73137E-04-8.23296E-16
 -1      1709 3.85713E-03-1.98436E-04-8.22151E-16
 -1      1710 3.37871E-03-4.07963E-04-8.52849E-16
 -1      1711 3.50190E-03-3.49316E-04-8.36443E-16
 -1      1712 3.20616E-03-5.13227E-04-9.14186E-16
 -1      1713 3.26720E-03-4.62831E-04-8.86068E-16
 -1      1714 3.18230E-03-6.24604E-04-9.89565E-16
 -1      1715 3.17245E-03-5.74234E-04-9.48487E-16
 -1      1716 3.32501E-03-7.61505E-04-1.09550E-15
 -1      1717 3.24046E-03-6.96668E-04-1.04682E-15
 -1      1718 3.59689E-03-9.39549E-04-1.21306E-15
 -1      1719 3.45724E-03-8.54078E-04-1.15782E-15
 -1      1720 4.01323E-03-1.17438E-03-1.35668E-15
 -1      1721 3.80716E-03-1.04974E-03-1.28452E-15
 -1      1722 4.51544E-03-1.46947E-03-1.52745E-15
 -1      1723 4.28840E-03-1.32533E-03-1.44723E-15
 -1      1724 4.97478E-03-1.77306E-03-1.70035E-15
 -1      1725 4.75343E-03-1.64520E-03-1.62197E-15
 -1      1726 5.43397E-03-1.98716E-03-1.87009E-15
 -1      1727 5.22622E-03-1.90069E-03-1.79219E-15
 -1      1728 5.90364E-03-2.09050E-03-2.06465E-15
 -1      1729 5.69505E-03-2.06465E-03-1.97677E-15
 -1      1730 6.35555E-03-2.02305E-03-2.23329E-15
 -1      1731 6.15114E-03-2.06927E-03-2.15556E-15
 -1      1732 6.80922E-03-1.84501E-03-2.37633E-15
 -1      1733 6.60195E-03-1.93783E-03-2.31315E-15
 -1      1734 7.24790E-03-1.59320E-03-2.52004E-15
 -1      1735 7.03752E-03-1.71124E-03-2.46741E-15
 -1      1736 7.66056E-03-1.37825E-03-2.57438E-15
 -1      1737 7.49072E-03-1.47610E-03-2.54795E-15
 -1      1738 7.93158E-03-1.21234E-03-2.59125E-15
 -1      1739 7.82267E-03-1.28096E-03-2.59117E-15
 -1      1740 8.08021E-03-1.09301E-03-2.56034E-15
 -1      1741 8.02708E-03-1.14560E-03-2.57549E-15
 -1      1742 8.10366E-03-9.91747E-04-2.49951E-15
 -1      1743 8.10871E-03-1.03572E-03-2.53588E-15
 -1      1744 1.62292E-02-5.59391E-03-3.04125E-14
 -1      1745 7.58491E-03-7.70174E-04-2.19413E-15
 -1      1746 1.39831E-02-4.34783E-03-2.41894E-14
 -1      1747 1.38974E-02-4.30198E-03-2.38103E-14
 -1      1748 8.08940E-03-9.86486E-04-2.57547E-15
 -1      1749 7.90626E-03-9.10191E-04-2.41913E-15
 -1      1750 1.62668E-02-5.61376E-03-3.06853E-14
 -1      1751 1.61906E-02-5.57161E-03-3.05047E-14
 -1      1752 1.60288E-02-5.48346E-03-2.98514E-14
 -1      1753 7.19527E-03-5.85215E-04-1.97114E-15
 -1      1754 6.75090E-03-3.71263E-04-1.75074E-15
 -1      1755 6.30379E-03-1.36022E-04-1.52442E-15
 -1      1756 5.88380E-03 6.89691E-05-1.31305E-15
 -1      1757 5.50262E-03 1.88968E-04-1.13543E-15
 -1      1758 5.13183E-03 2.04128E-04-9.91449E-16
 -1      1759 4.76384E-03 1.25107E-04-8.87853E-16
 -1      1760 4.38007E-03-1.58641E-05-8.27260E-16
 -1      1761 3.99563E-03-1.92697E-04-7.87957E-16
 -1      1762 3.62382E-03-3.58305E-04-7.86524E-16
 -1      1763 3.32892E-03-4.68649E-04-8.34378E-16
 -1      1764 3.17883E-03-5.51614E-04-9.00938E-16
 -1      1765 3.20379E-03-6.24438E-04-9.89402E-16
 -1      1766 3.40386E-03-7.43023E-04-1.10564E-15
 -1      1767 3.75362E-03-9.19552E-04-1.23596E-15
 -1      1768 4.23261E-03-1.17527E-03-1.39212E-15
 -1      1769 4.72193E-03-1.51404E-03-1.57179E-15
 -1      1770 5.17640E-03-1.83494E-03-1.75616E-15
 -1      1771 5.61978E-03-2.05557E-03-1.95446E-15
 -1      1772 6.01579E-03-2.11450E-03-2.15499E-15
 -1      1773 6.43072E-03-1.99320E-03-2.33101E-15
 -1      1774 6.86481E-03-1.75603E-03-2.50752E-15
 -1      1775 7.30666E-03-1.48949E-03-2.63555E-15
 -1      1776 7.70448E-03-1.27851E-03-2.68504E-15
 -1      1777 7.96993E-03-1.14074E-03-2.68794E-15
 -1      1778 8.10167E-03-1.05161E-03-2.64698E-15
 -1      1779 2.79397E-04-1.66534E-04-1.99629E-17
 -1      1780 3.34332E-04-1.06242E-04-2.08573E-17
 -1      1781 3.39257E-04-1.22458E-04-2.31748E-17
 -1      1782 3.45852E-04-1.41745E-04-2.51264E-17
 -1      1783 3.55674E-04-1.64289E-04-2.66849E-17
 -1      1784 4.62926E-04-1.74107E-04-3.44912E-17
 -1      1785 3.22897E-04-5.77063E-05-1.20753E-17
 -1      1786 3.24933E-04-6.78941E-05-1.45283E-17
 -1      1787 3.19963E-04-3.90148E-05-7.12863E-18
 -1      1788 3.21257E-04-4.80280E-05-9.66295E-18
 -1      1789 4.33137E-04-7.03874E-05-1.57209E-17
 -1      1790 3.18399E-04-2.20801E-05-1.99222E-18
 -1      1791 3.19027E-04-3.03817E-05-4.67562E-18
 -1      1792 4.29332E-04-4.62648E-05-8.67362E-18
 -1      1793 3.18029E-04-5.78881E-06 3.06287E-18
 -1      1794 3.18077E-04-1.38987E-05 5.01444E-19
 -1      1795 4.27513E-04-2.40124E-05-1.46367E-18
 -1      1796 3.18694E-04 1.07689E-05 8.59230E-18
 -1      1797 3.18241E-04 2.42109E-06 5.63785E-18
 -1      1798 4.27418E-04-2.25731E-06 5.96311E-18
 -1      1799 3.20262E-04 2.83656E-05 1.45690E-17
 -1      1800 3.19366E-04 1.94095E-05 1.14248E-17
 -1      1801 4.28804E-04 2.01274E-05 1.39591E-17
 -1      1802 3.22640E-04 4.73820E-05 2.09522E-17
 -1      1803 3.21334E-04 3.76398E-05 1.77403E-17
 -1      1804 4.31468E-04 4.39048E-05 2.26327E-17
 -1      1805 3.26053E-04 6.93031E-05 2.79182E-17
 -1      1806 3.24181E-04 5.79971E-05 2.41642E-17
 -1      1807 4.35403E-04 7.02019E-05 3.17400E-17
 -1      1808 3.31022E-04 9.50760E-05 3.54399E-17
 -1      1809 3.28255E-04 8.16785E-05 3.14825E-17
 -1      1810 4.40990E-04 1.00452E-04 4.15520E-17
 -1      1811 3.39112E-04 1.27074E-04 4.37340E-17
 -1      1812 3.34492E-04 1.10221E-04 3.92888E-17
 -1      1813 4.49257E-04 1.36280E-04 5.23670E-17
 -1      1814 3.55219E-04 1.70440E-04 5.18926E-17
 -1      1815 3.45609E-04 1.47088E-04 4.77998E-17
 -1      1816 4.63023E-04 1.81023E-04 6.38595E-17
 -1      1817 4.10640E-04 2.26670E-04 6.16911E-17
 -1      1818 3.81151E-04 1.95521E-04 5.68529E-17
 -1      1819 5.00212E-04 2.34085E-04 7.60432E-17
 -1      1820 5.62957E-04 2.92608E-04 8.96635E-17
 -1      1821 3.35813E-04-1.79168E-04-2.52077E-17
 -1      1822 8.61645E-04 3.91768E-04 1.59324E-16
 -1      1823 7.13278E-04 3.46671E-04 1.22718E-16
 -1      1824 6.79538E-04 3.16061E-04 1.13895E-16
 -1      1825 8.03004E-04-3.47499E-04-7.92823E-17
 -1      1826 9.51510E-04-3.84716E-04-1.03338E-16
 -1      1827 1.09807E-03-4.15178E-04-1.30457E-16
 -1      1828 1.24414E-03-4.39640E-04-1.60733E-16
 -1      1829 1.00354E-03-3.64776E-04-1.10873E-16
 -1      1830 1.38958E-03-4.59448E-04-1.93896E-16
 -1      1831 1.53524E-03-4.74977E-04-2.29973E-16
 -1      1832 1.29631E-03-4.13747E-04-1.67685E-16
 -1      1833 1.67392E-03-4.86590E-04-2.67202E-16
 -1      1834 1.81344E-03-4.95452E-04-3.06707E-16
 -1      1835 1.58070E-03-4.44257E-04-2.34391E-16
 -1      1836 1.96127E-03-5.02466E-04-3.51160E-16
 -1      1837 2.11073E-03-5.07492E-04-3.98309E-16
 -1      1838 1.86602E-03-4.62398E-04-3.12074E-16
 -1      1839 2.26171E-03-5.11191E-04-4.48399E-16
 -1      1840 2.41504E-03-5.14087E-04-5.01200E-16
 -1      1841 2.16138E-03-4.72319E-04-4.01995E-16
 -1      1842 2.57041E-03-5.17046E-04-5.57483E-16
 -1      1843 2.72887E-03-5.20831E-04-6.17724E-16
 -1      1844 2.46099E-03-4.77916E-04-5.03680E-16
 -1      1845 2.88995E-03-5.26828E-04-6.81136E-16
 -1      1846 3.05488E-03-5.36286E-04-7.47395E-16
 -1      1847 2.76624E-03-4.85118E-04-6.18375E-16
 -1      1848 3.22326E-03-5.51471E-04-8.17529E-16
 -1      1849 3.39629E-03-5.74661E-04-8.90482E-16
 -1      1850 3.07886E-03-5.03016E-04-7.46433E-16
 -1      1851 3.56526E-03-6.07092E-04-9.63571E-16
 -1      1852 3.73913E-03-6.53313E-04-1.04020E-15
 -1      1853 3.39392E-03-5.44777E-04-8.83720E-16
 -1      1854 3.92987E-03-7.20509E-04-1.12384E-15
 -1      1855 4.12680E-03-8.13403E-04-1.21273E-15
 -1      1856 3.72610E-03-6.32517E-04-1.03487E-15
 -1      1857 4.33594E-03-9.34319E-04-1.30720E-15
 -1      1858 4.55098E-03-1.09112E-03-1.40815E-15
 -1      1859 4.09884E-03-8.04552E-04-1.20737E-15
 -1      1860 4.78150E-03-1.27861E-03-1.51769E-15
 -1      1861 5.01230E-03-1.49555E-03-1.63576E-15
 -1      1862 4.52444E-03-1.10149E-03-1.40365E-15
 -1      1863 5.61092E-03-2.04329E-03-2.00043E-15
 -1      1864 5.79719E-03-2.15124E-03-2.13848E-15
 -1      1865 5.98014E-03-2.20043E-03-2.29507E-15
 -1      1866 6.17503E-03-2.17828E-03-2.46133E-15
 -1      1867 6.36512E-03-2.08956E-03-2.62461E-15
 -1      1868 6.55953E-03-1.97522E-03-2.80112E-15
 -1      1869 6.78154E-03-1.82932E-03-3.00568E-15
 -1      1870 7.00139E-03-1.69069E-03-3.21944E-15
 -1      1871 6.72683E-03-1.83435E-03-2.84167E-15
 -1      1872 7.23387E-03-1.57050E-03-3.45451E-15
 -1      1873 7.45301E-03-1.48152E-03-3.69760E-15
 -1      1874 7.19507E-03-1.55095E-03-3.28033E-15
 -1      1875 7.66685E-03-1.42921E-03-3.94854E-15
 -1      1876 7.86908E-03-1.40624E-03-4.20620E-15
 -1      1877 7.62976E-03-1.39124E-03-3.76293E-15
 -1      1878 8.06529E-03-1.41068E-03-4.47350E-15
 -1      1879 8.25359E-03-1.43577E-03-4.75038E-15
 -1      1880 8.01595E-03-1.36075E-03-4.27986E-15
 -1      1881 8.43644E-03-1.47748E-03-5.03407E-15
 -1      1882 8.61418E-03-1.53160E-03-5.32571E-15
 -1      1883 8.36958E-03-1.41957E-03-4.82862E-15
 -1      1884 8.77875E-03-1.59133E-03-5.60926E-15
 -1      1885 8.94011E-03-1.65722E-03-5.90124E-15
 -1      1886 8.69589E-03-1.52849E-03-5.39321E-15
 -1      1887 9.10617E-03-1.73104E-03-6.21780E-15
 -1      1888 9.26952E-03-1.80828E-03-6.53893E-15
 -1      1889 9.01090E-03-1.66537E-03-5.98940E-15
 -1      1890 9.42976E-03-1.88763E-03-6.86986E-15
 -1      1891 9.58790E-03-1.96845E-03-7.20921E-15
 -1      1892 9.32560E-03-1.82059E-03-6.63339E-15
 -1      1893 9.74362E-03-2.05009E-03-7.55414E-15
 -1      1894 9.89772E-03-2.13221E-03-7.90722E-15
 -1      1895 9.63366E-03-1.98262E-03-7.30727E-15
 -1      1896 1.00500E-02-2.21449E-03-8.26898E-15
 -1      1897 1.02010E-02-2.29677E-03-8.63819E-15
 -1      1898 9.93641E-03-2.14710E-03-8.01009E-15
 -1      1899 1.03507E-02-2.37893E-03-9.01839E-15
 -1      1900 1.04994E-02-2.46087E-03-9.40888E-15
 -1      1901 1.02349E-02-2.31185E-03-8.74962E-15
 -1      1902 1.06471E-02-2.54256E-03-9.80964E-15
 -1      1903 1.07941E-02-2.62394E-03-1.02186E-14
 -1      1904 1.05301E-02-2.47586E-03-9.52740E-15
 -1      1905 1.09331E-02-2.70100E-03-1.06146E-14
 -1      1906 1.10717E-02-2.77777E-03-1.10195E-14
 -1      1907 1.08155E-02-2.63469E-03-1.03232E-14
 -1      1908 1.12170E-02-2.85831E-03-1.14476E-14
 -1      1909 1.13619E-02-2.93856E-03-1.18790E-14
 -1      1910 1.10989E-02-2.79235E-03-1.11463E-14
 -1      1911 1.15064E-02-3.01856E-03-1.23148E-14
 -1      1912 1.16507E-02-3.09829E-03-1.27539E-14
 -1      1913 1.13882E-02-2.95291E-03-1.20101E-14
 -1      1914 1.17946E-02-3.17779E-03-1.31975E-14
 -1      1915 1.19384E-02-3.25707E-03-1.36431E-14
 -1      1916 1.16764E-02-3.11242E-03-1.28885E-14
 -1      1917 1.20820E-02-3.33615E-03-1.40947E-14
 -1      1918 1.22255E-02-3.41505E-03-1.45495E-14
 -1      1919 1.19638E-02-3.27100E-03-1.37833E-14
 -1      1920 1.23688E-02-3.49378E-03-1.50084E-14
 -1      1921 1.25120E-02-3.57235E-03-1.54760E-14
 -1      1922 1.22507E-02-3.42880E-03-1.46943E-14
 -1      1923 1.26480E-02-3.64686E-03-1.59260E-14
 -1      1924 1.27839E-02-3.72126E-03-1.63820E-14
 -1      1925 1.25299E-02-3.58203E-03-1.56046E-14
 -1      1926 1.29269E-02-3.79946E-03-1.68717E-14
 -1      1927 1.30698E-02-3.87756E-03-1.73696E-14
 -1      1928 1.28089E-02-3.73474E-03-1.65437E-14
 -1      1929 1.32127E-02-3.95556E-03-1.78762E-14
 -1      1930 1.33556E-02-4.03348E-03-1.83931E-14
 -1      1931 1.30948E-02-3.89093E-03-1.75418E-14
 -1      1932 1.34985E-02-4.11132E-03-1.89185E-14
 -1      1933 1.36413E-02-4.18910E-03-1.94520E-14
 -1      1934 1.33807E-02-4.04677E-03-1.85770E-14
 -1      1935 1.37842E-02-4.26682E-03-1.99952E-14
 -1      1936 1.39270E-02-4.34449E-03-2.05489E-14
 -1      1937 1.36664E-02-4.20232E-03-1.96494E-14
 -1      1938 1.40698E-02-4.42212E-03-2.11085E-14
 -1      1939 1.42126E-02-4.49970E-03-2.16800E-14
 -1      1940 1.39521E-02-4.35765E-03-2.07561E-14
 -1      1941 1.43483E-02-4.57338E-03-2.22346E-14
 -1      1942 1.44840E-02-4.64703E-03-2.27948E-14
 -1      1943 1.42306E-02-4.50894E-03-2.18732E-14
 -1      1944 1.46268E-02-4.72453E-03-2.33914E-14
 -1      1945 1.47696E-02-4.80201E-03-2.39970E-14
 -1      1946 1.45091E-02-4.66011E-03-2.30246E-14
 -1      1947 1.49124E-02-4.87948E-03-2.46143E-14
 -1      1948 1.50552E-02-4.95693E-03-2.52385E-14
 -1      1949 1.47948E-02-4.81507E-03-2.42370E-14
 -1      1950 1.51981E-02-5.03437E-03-2.58674E-14
 -1      1951 1.53409E-02-5.11180E-03-2.65012E-14
 -1      1952 1.50804E-02-4.96997E-03-2.54802E-14
 -1      1953 1.54837E-02-5.18923E-03-2.71401E-14
 -1      1954 1.56266E-02-5.26666E-03-2.77836E-14
 -1      1955 1.53661E-02-5.12484E-03-2.67466E-14
 -1      1956 1.57694E-02-5.34409E-03-2.84281E-14
 -1      1957 1.59123E-02-5.42153E-03-2.90754E-14
 -1      1958 1.56518E-02-5.27969E-03-2.80252E-14
 -1      1959 1.15146E-03 4.60222E-04 2.40734E-16
 -1      1960 1.00717E-03 4.29113E-04 1.98965E-16
 -1      1961 9.74554E-04 3.99509E-04 1.86036E-16
 -1      1962 7.44894E-03-7.90043E-04-2.20334E-15
 -1      1963 7.62914E-03-8.63950E-04-2.32086E-15
 -1      1964 1.43650E-03 5.08558E-04 3.29232E-16
 -1      1965 1.29423E-03 4.86489E-04 2.84427E-16
 -1      1966 1.26394E-03 4.58017E-04 2.67324E-16
 -1      1967 1.71993E-03 5.43667E-04 4.21185E-16
 -1      1968 1.57824E-03 5.27492E-04 3.74944E-16
 -1      1969 1.55020E-03 4.99735E-04 3.53504E-16
 -1      1970 2.00346E-03 5.70405E-04 5.12719E-16
 -1      1971 1.86161E-03 5.57880E-04 4.67223E-16
 -1      1972 1.83547E-03 5.30479E-04 4.40959E-16
 -1      1973 2.28779E-03 5.92470E-04 6.00838E-16
 -1      1974 2.14552E-03 5.81870E-04 5.57171E-16
 -1      1975 2.12096E-03 5.54560E-04 5.25960E-16
 -1      1976 2.57281E-03 6.12678E-04 6.83142E-16
 -1      1977 2.43026E-03 6.02708E-04 6.42823E-16
 -1      1978 2.40709E-03 5.75330E-04 6.06340E-16
 -1      1979 2.85779E-03 6.32892E-04 7.54659E-16
 -1      1980 2.71539E-03 6.22752E-04 7.20723E-16
 -1      1981 2.69369E-03 5.95264E-04 6.79090E-16
 -1      1982 3.14152E-03 6.53753E-04 8.10617E-16
 -1      1983 2.99994E-03 6.43295E-04 7.84922E-16
 -1      1984 2.98001E-03 6.15790E-04 7.38830E-16
 -1      1985 3.42247E-03 6.74284E-04 8.49513E-16
 -1      1986 3.28249E-03 6.64218E-04 8.32464E-16
 -1      1987 3.26491E-03 6.36942E-04 7.82347E-16
 -1      1988 3.69905E-03 6.91552E-04 8.67335E-16
 -1      1989 3.56144E-03 6.83595E-04 8.61412E-16
 -1      1990 3.54696E-03 6.56951E-04 8.06904E-16
 -1      1991 3.97001E-03 7.00596E-04 8.57157E-16
 -1      1992 3.83532E-03 6.97460E-04 8.65939E-16
 -1      1993 3.82473E-03 6.71957E-04 8.08002E-16
 -1      1994 4.23492E-03 6.94912E-04 8.14995E-16
 -1      1995 4.10322E-03 6.99984E-04 8.40528E-16
 -1      1996 4.09725E-03 6.76129E-04 7.79040E-16
 -1      1997 4.49448E-03 6.67599E-04 7.35604E-16
 -1      1998 4.36525E-03 6.84289E-04 7.80205E-16
 -1      1999 4.36439E-03 6.62440E-04 7.15858E-16
 -1      2000 4.75067E-03 6.13012E-04 6.14973E-16
 -1      2001 4.62278E-03 6.43892E-04 6.80567E-16
 -1      2002 4.62723E-03 6.24122E-04 6.14417E-16
 -1      2003 5.00636E-03 5.28359E-04 4.58780E-16
 -1      2004 4.87830E-03 5.74409E-04 5.41478E-16
 -1      2005 4.88801E-03 5.56458E-04 4.73322E-16
 -1      2006 5.26465E-03 4.14588E-04 2.64085E-16
 -1      2007 5.13492E-03 4.74871E-04 3.65905E-16
 -1      2008 5.14962E-03 4.58221E-04 2.96312E-16
 -1      2009 5.52810E-03 2.76122E-04 3.17129E-17
 -1      2010 5.39554E-03 3.48062E-04 1.52791E-16
 -1      2011 5.41481E-03 3.32099E-04 8.14507E-17
 -1      2012 5.79818E-03 1.19580E-04-2.39717E-16
 -1      2013 5.66223E-03 1.99690E-04-9.90012E-17
 -1      2014 5.68547E-03 1.83875E-04-1.71860E-16
 -1      2015 6.07511E-03-4.78900E-05-5.54353E-16
 -1      2016 5.93580E-03 3.68380E-05-3.91492E-16
 -1      2017 5.96231E-03 2.08022E-05-4.66559E-16
 -1      2018 6.35813E-03-2.20038E-04-9.11922E-16
 -1      2019 6.21595E-03-1.33654E-04-7.28015E-16
 -1      2020 6.24493E-03-1.50091E-04-8.04275E-16
 -1      2021 6.64589E-03-3.92301E-04-1.31590E-15
 -1      2022 6.50154E-03-3.06321E-04-1.10831E-15
 -1      2023 6.53222E-03-3.23191E-04-1.18678E-15
 -1      2024 6.93686E-03-5.61938E-04-1.77229E-15
 -1      2025 6.79110E-03-4.77520E-04-1.53687E-15
 -1      2026 6.82277E-03-4.94768E-04-1.61674E-15
 -1      2027 7.22960E-03-7.27752E-04-2.27245E-15
 -1      2028 7.08312E-03-6.45330E-04-2.01567E-15
 -1      2029 7.11522E-03-6.62862E-04-2.09408E-15
 -1      2030 7.52299E-03-8.89620E-04-2.82803E-15
 -1      2031 7.37630E-03-8.09149E-04-2.54424E-15
 -1      2032 7.40845E-03-8.26864E-04-2.62235E-15
 -1      2033 7.81618E-03-1.04804E-03-3.42569E-15
 -1      2034 7.66966E-03-9.69215E-04-3.12162E-15
 -1      2035 7.70162E-03-9.87026E-04-3.19905E-15
 -1      2036 8.10868E-03-1.20378E-03-4.07088E-15
 -1      2037 7.96255E-03-1.12620E-03-3.74345E-15
 -1      2038 7.99422E-03-1.14403E-03-3.82029E-15
 -1      2039 8.40021E-03-1.35763E-03-4.75156E-15
 -1      2040 8.25458E-03-1.28090E-03-4.40646E-15
 -1      2041 8.28593E-03-1.29871E-03-4.48389E-15
 -1      2042 8.69070E-03-1.51031E-03-5.46941E-15
 -1      2043 8.54559E-03-1.43408E-03-5.10590E-15
 -1      2044 8.57664E-03-1.45185E-03-5.18442E-15
 -1      2045 8.98017E-03-1.66237E-03-6.22554E-15
 -1      2046 8.83556E-03-1.58639E-03-5.84205E-15
 -1      2047 8.86638E-03-1.60409E-03-5.92100E-15
 -1      2048 9.26873E-03-1.81423E-03-7.01822E-15
 -1      2049 9.12456E-03-1.73831E-03-6.61809E-15
 -1      2050 9.15521E-03-1.75593E-03-6.69599E-15
 -1      2051 9.55653E-03-1.96615E-03-7.85270E-15
 -1      2052 9.41272E-03-1.89017E-03-7.43023E-15
 -1      2053 9.44326E-03-1.90772E-03-7.50965E-15
 -1      2054 9.84370E-03-2.11831E-03-8.73241E-15
 -1      2055 9.70018E-03-2.04220E-03-8.28671E-15
 -1      2056 9.73066E-03-2.05969E-03-8.36734E-15
 -1      2057 1.01304E-02-2.27079E-03-9.65239E-15
 -1      2058 9.98710E-03-2.19451E-03-9.18684E-15
 -1      2059 1.00176E-02-2.21194E-03-9.26692E-15
 -1      2060 1.04167E-02-2.42362E-03-1.06120E-14
 -1      2061 1.02736E-02-2.34716E-03-1.01277E-14
 -1      2062 1.03040E-02-2.36455E-03-1.02047E-14
 -1      2063 1.07028E-02-2.57679E-03-1.16040E-14
 -1      2064 1.05598E-02-2.50016E-03-1.11048E-14
 -1      2065 1.05902E-02-2.51751E-03-1.11785E-14
 -1      2066 1.09886E-02-2.73027E-03-1.26265E-14
 -1      2067 1.08457E-02-2.65349E-03-1.21114E-14
 -1      2068 1.08762E-02-2.67081E-03-1.21837E-14
 -1      2069 1.12744E-02-2.88402E-03-1.36754E-14
 -1      2070 1.11315E-02-2.80711E-03-1.31481E-14
 -1      2071 1.11621E-02-2.82440E-03-1.32189E-14
 -1      2072 1.15601E-02-3.03800E-03-1.47517E-14
 -1      2073 1.14172E-02-2.96098E-03-1.42107E-14
 -1      2074 1.14478E-02-2.97826E-03-1.42789E-14
 -1      2075 1.18457E-02-3.19216E-03-1.58460E-14
 -1      2076 1.17029E-02-3.11506E-03-1.52959E-14
 -1      2077 1.17335E-02-3.13232E-03-1.53635E-14
 -1      2078 1.21313E-02-3.34647E-03-1.69540E-14
 -1      2079 1.19885E-02-3.26930E-03-1.63987E-14
 -1      2080 1.20191E-02-3.28656E-03-1.64639E-14
 -1      2081 1.24170E-02-3.50089E-03-1.80691E-14
 -1      2082 1.22741E-02-3.42367E-03-1.75132E-14
 -1      2083 1.23048E-02-3.44092E-03-1.75753E-14
 -1      2084 1.27026E-02-3.65539E-03-1.91796E-14
 -1      2085 1.25598E-02-3.57814E-03-1.86262E-14
 -1      2086 1.25904E-02-3.59538E-03-1.86878E-14
 -1      2087 1.29882E-02-3.80994E-03-2.02829E-14
 -1      2088 1.28454E-02-3.73266E-03-1.97308E-14
 -1      2089 1.28761E-02-3.74991E-03-1.97956E-14
 -1      2090 1.32739E-02-3.96452E-03-2.13873E-14
 -1      2091 1.31311E-02-3.88723E-03-2.08340E-14
 -1      2092 1.31618E-02-3.90448E-03-2.08980E-14
 -1      2093 1.35596E-02-4.11910E-03-2.25017E-14
 -1      2094 1.34167E-02-4.04181E-03-2.19446E-14
 -1      2095 1.34474E-02-4.05906E-03-2.20091E-14
 -1      2096 1.37999E-02-4.24919E-03-2.34351E-14
 -1      2097 1.36570E-02-4.17190E-03-2.28760E-14
 -1      2098 1.36877E-02-4.18915E-03-2.29434E-14
 -1      2099 1.38827E-02-4.29475E-03-2.36935E-14
 -1      2100 1.42742E-02-4.51249E-03-2.47676E-14
 -1      2101 1.41983E-02-4.47033E-03-2.45474E-14
 -1      2102 1.41223E-02-4.42817E-03-2.43300E-14
 -1      2103 1.40463E-02-4.38601E-03-2.41169E-14
 -1      2104 1.40365E-02-4.38231E-03-2.39514E-14
 -1      2105 1.40025E-02-4.36145E-03-2.40120E-14
 -1      2106 1.39265E-02-4.31930E-03-2.37970E-14
 -1      2107 1.38291E-02-4.26650E-03-2.34214E-14
 -1      2108 1.39167E-02-4.31560E-03-2.36304E-14
 -1      2109 1.44236E-02-4.59540E-03-2.52024E-14
 -1      2110 1.43489E-02-4.55395E-03-2.49820E-14
 -1      2111 1.41872E-02-4.46592E-03-2.43829E-14
 -1      2112 1.45756E-02-4.67976E-03-2.56460E-14
 -1      2113 1.44996E-02-4.63758E-03-2.54245E-14
 -1      2114 1.43379E-02-4.54954E-03-2.48168E-14
 -1      2115 1.47276E-02-4.76412E-03-2.60939E-14
 -1      2116 1.46516E-02-4.72194E-03-2.58718E-14
 -1      2117 1.44899E-02-4.63388E-03-2.52581E-14
 -1      2118 1.48797E-02-4.84849E-03-2.65398E-14
 -1      2119 1.48037E-02-4.80630E-03-2.63146E-14
 -1      2120 1.46419E-02-4.71823E-03-2.56974E-14
 -1      2121 1.50319E-02-4.93286E-03-2.69798E-14
 -1      2122 1.49558E-02-4.89067E-03-2.67620E-14
 -1      2123 1.47940E-02-4.80259E-03-2.61354E-14
 -1      2124 1.51841E-02-5.01723E-03-2.74082E-14
 -1      2125 1.51080E-02-4.97504E-03-2.71954E-14
 -1      2126 1.49462E-02-4.88694E-03-2.65684E-14
 -1      2127 1.53338E-02-5.10016E-03-2.78227E-14
 -1      2128 1.52589E-02-5.05869E-03-2.76150E-14
 -1      2129 1.50972E-02-4.97058E-03-2.69849E-14
 -1      2130 1.54861E-02-5.18451E-03-2.82387E-14
 -1      2131 1.54099E-02-5.14233E-03-2.80331E-14
 -1      2132 1.52481E-02-5.05421E-03-2.73928E-14
 -1      2133 1.56385E-02-5.26884E-03-2.86369E-14
 -1      2134 1.55623E-02-5.22668E-03-2.84388E-14
 -1      2135 1.54005E-02-5.13855E-03-2.77941E-14
 -1      2136 1.57908E-02-5.35316E-03-2.90174E-14
 -1      2137 1.57146E-02-5.31101E-03-2.88298E-14
 -1      2138 1.55528E-02-5.22287E-03-2.81805E-14
 -1      2139 7.06876E-03-6.08704E-04-1.97841E-15
 -1      2140 7.26773E-03-7.04255E-04-2.08736E-15
 -1      2141 7.34240E-03-7.93071E-04-2.20960E-15
 -1      2142 1.60674E-02-5.50577E-03-2.97570E-14
 -1      2143 4.56712E-04-2.21481E-04-3.61446E-17
 -1      2144 8.07451E-03-1.00709E-03-2.67633E-15
 -1      2145 8.11746E-03-1.01948E-03-2.72419E-15
 -1      2146 3.27425E-04-7.93201E-05-1.66561E-17
 -1      2147 3.30527E-04-9.19013E-05-1.89193E-17
 -1      2148 4.48483E-04-1.31467E-04-2.85823E-17
 -1      2149 4.39275E-04-9.80384E-05-2.25107E-17
 -1      2150 6.59497E-03-3.61330E-04-1.72177E-15
 -1      2151 6.81441E-03-4.78859E-04-1.83856E-15
 -1      2152 6.13336E-03-9.16176E-05-1.46018E-15
 -1      2153 6.32742E-03-2.13126E-04-1.57315E-15
 -1      2154 5.75454E-03 1.12949E-04-1.24323E-15
 -1      2155 5.93121E-03 2.41342E-05-1.34306E-15
 -1      2156 5.38413E-03 2.26857E-04-1.04214E-15
 -1      2157 5.53556E-03 1.92460E-04-1.11933E-15
 -1      2158 5.08140E-03 2.16110E-04-9.13386E-16
 -1      2159 5.23222E-03 2.34405E-04-9.77544E-16
 -1      2160 5.29668E-03 2.42363E-04-9.59411E-16
 -1      2161 4.70146E-03 9.70086E-05-8.13016E-16
 -1      2162 4.86592E-03 1.61303E-04-8.49472E-16
 -1      2163 4.32799E-03-6.79423E-05-7.70773E-16
 -1      2164 4.50397E-03 1.52757E-05-7.90953E-16
 -1      2165 3.96061E-03-2.48092E-04-7.30305E-16
 -1      2166 4.14660E-03-1.57926E-04-7.45037E-16
 -1      2167 3.54788E-03-4.14122E-04-7.52531E-16
 -1      2168 3.72124E-03-3.49161E-04-7.37108E-16
 -1      2169 3.26737E-03-5.07034E-04-8.09983E-16
 -1      2170 3.37525E-03-4.75391E-04-7.76595E-16
 -1      2171 3.16004E-03-5.51101E-04-8.73969E-16
 -1      2172 3.19521E-03-5.35155E-04-8.41424E-16
 -1      2173 3.21816E-03-5.16317E-04-7.83669E-16
 -1      2174 3.24125E-03-6.13320E-04-9.91998E-16
 -1      2175 3.17838E-03-5.83870E-04-9.37726E-16
 -1      2176 3.49704E-03-7.20325E-04-1.11342E-15
 -1      2177 3.35791E-03-6.62493E-04-1.05425E-15
 -1      2178 3.88532E-03-8.97997E-04-1.24753E-15
 -1      2179 3.67871E-03-8.02634E-04-1.17953E-15
 -1      2180 4.40456E-03-1.17178E-03-1.41414E-15
 -1      2181 4.15889E-03-1.02134E-03-1.32986E-15
 -1      2182 4.92665E-03-1.59490E-03-1.63034E-15
 -1      2183 4.70980E-03-1.41467E-03-1.53890E-15
 -1      2184 5.33489E-03-1.90032E-03-1.81533E-15
 -1      2185 5.14127E-03-1.75891E-03-1.72459E-15
 -1      2186 5.72471E-03-2.10875E-03-2.03825E-15
 -1      2187 5.55425E-03-2.02524E-03-1.93124E-15
 -1      2188 6.12378E-03-2.11870E-03-2.25747E-15
 -1      2189 5.95433E-03-2.14362E-03-2.16315E-15
 -1      2190 6.50314E-03-1.95028E-03-2.45176E-15
 -1      2191 6.32242E-03-2.04844E-03-2.36573E-15
 -1      2192 7.39828E-03-1.38993E-03-2.76964E-15
 -1      2193 7.18551E-03-1.51079E-03-2.73574E-15
 -1      2194 7.75961E-03-1.20346E-03-2.82546E-15
 -1      2195 7.59698E-03-1.28246E-03-2.80564E-15
 -1      2196 8.01480E-03-1.09505E-03-2.80033E-15
 -1      2197 7.91542E-03-1.13524E-03-2.81577E-15
 -1      2198 8.11855E-03-1.03893E-03-2.74402E-15
 -1      2199 8.08465E-03-1.06032E-03-2.77035E-15
 -1      2200 7.82054E-03-9.26824E-04-2.44224E-15
 -1      2201 7.95788E-03-9.68662E-04-2.55237E-15
 -1      2202 1.59498E-02-5.44137E-03-2.93459E-14
 -1      2203 8.12778E-03-1.03893E-03-2.84669E-15
 -1      2204 4.97983E-03-1.50622E-03-1.62210E-15
 -1      2205 5.22314E-03-1.69607E-03-1.75092E-15
 -1      2206 5.86286E-03-2.15938E-03-2.16163E-15
 -1      2207 7.71335E-03-9.28306E-04-2.45052E-15
 -1      2208 6.07736E-04-2.78961E-04-5.26787E-17
 -1      2209 6.64340E-04-2.70824E-04-5.91703E-17
 -1      2210 6.92310E-03-5.86499E-04-1.94759E-15
 -1      2211 5.40754E-03-1.87085E-03-1.86148E-15
 -1      2212 5.43129E-03-1.91615E-03-1.87017E-15
 -1      2213 6.27599E-03-2.10495E-03-2.47792E-15
 -1      2214 4.97939E-03 2.02214E-04-8.32749E-16
 -1      2215 5.61242E-03 1.61549E-04-1.14375E-15
 -1      2216 1.58736E-02-5.39922E-03-2.91695E-14
 -1      2217 8.02862E-03-1.01245E-03-2.70030E-15
 -1      2218 8.08122E-03-1.04071E-03-2.84968E-15
 -1      2219 7.96992E-03-1.02049E-03-2.72245E-15
 -1      2220 8.05588E-03-1.07330E-03-2.89731E-15
 -1      2221 7.83860E-03-1.15635E-03-2.93669E-15
 -1      2222 7.49594E-03-1.31679E-03-2.90766E-15
 -1      2223 6.23433E-03-2.09673E-03-2.37275E-15
 -1      2224 5.08333E-03-1.67072E-03-1.68645E-15
 -1      2225 4.58309E-03-1.26155E-03-1.46782E-15
 -1      2226 4.04083E-03-9.10169E-04-1.26987E-15
 -1      2227 3.60043E-03-7.16300E-04-1.12503E-15
 -1      2228 3.15786E-03-5.48887E-04-8.76889E-16
 -1      2229 3.44785E-03-4.51819E-04-7.28045E-16
 -1      2230 3.84973E-03-3.04741E-04-6.93801E-16
 -1      2231 3.96188E-03-2.51758E-04-6.50047E-16
 -1      2232 3.74257E-03-3.44232E-04-6.60049E-16
 -1      2233 4.25500E-03-1.15602E-04-7.09177E-16
 -1      2234 6.42604E-03-3.06774E-04-1.65417E-15
 -1      2235 5.99636E-03-3.97672E-05-1.38618E-15
 -1      2236 1.57118E-02-5.31108E-03-2.85213E-14
 -1      2237 4.61374E-03 5.81951E-05-7.53466E-16
 -1      2238 3.30094E-03-6.06518E-04-1.00004E-15
 -1      2239 7.11913E-03-1.53741E-03-2.85132E-15
 -1      2240 6.98661E-03-1.62816E-03-2.71941E-15
 -1      2241 6.89728E-03-1.69382E-03-2.65086E-15
 -1      2242 6.69619E-03-1.83300E-03-2.55262E-15
 -1      2243 6.85628E-03-1.71576E-03-2.76236E-15
 -1      2244 6.58885E-03-1.89954E-03-2.58802E-15
 -1      2245 5.40051E-04-5.07006E-05-1.00153E-17
 -1      2246 5.41929E-04-6.49038E-05-1.47994E-17
 -1      2247 5.44545E-04-7.98190E-05-1.93666E-17
 -1      2248 5.47899E-04-9.55857E-05-2.41777E-17
 -1      2249 6.56655E-04-8.60181E-05-2.29173E-17
 -1      2250 5.38696E-04 3.83325E-06 1.04219E-17
 -1      2251 5.38197E-04-9.79846E-06 5.09575E-18
 -1      2252 5.41129E-04 3.21096E-05 2.16163E-17
 -1      2253 5.39689E-04 1.77782E-05 1.58700E-17
 -1      2254 6.51718E-04 1.24808E-05 1.64799E-17
 -1      2255 5.45236E-04 6.20856E-05 3.31766E-17
 -1      2256 5.42982E-04 4.67824E-05 2.70644E-17
 -1      2257 6.55500E-04 4.63787E-05 3.08456E-17
 -1      2258 5.51226E-04 9.59418E-05 4.55907E-17
 -1      2259 5.47995E-04 7.85409E-05 3.93023E-17
 -1      2260 6.61470E-04 8.31342E-05 4.61057E-17
 -1      2261 5.59657E-04 1.34654E-04 5.92652E-17
 -1      2262 5.55095E-04 1.14621E-04 5.22585E-17
 -1      2263 6.69905E-04 1.24388E-04 6.26262E-17
 -1      2264 5.72245E-04 1.80451E-04 7.39968E-17
 -1      2265 5.65322E-04 1.56544E-04 6.65158E-17
 -1      2266 6.81715E-04 1.71489E-04 8.05698E-17
 -1      2267 5.93174E-04 2.36824E-04 8.94060E-17
 -1      2268 5.81387E-04 2.07103E-04 8.16133E-17
 -1      2269 6.99279E-04 2.26756E-04 9.97059E-17
 -1      2270 6.48077E-04 2.88605E-04 1.05561E-16
 -1      2271 6.20022E-04 2.61076E-04 9.73749E-17
 -1      2272 7.38235E-04 2.82429E-04 1.18801E-16
 -1      2273 7.96265E-04 3.34284E-04 1.38344E-16
 -1      2274 9.11586E-04-3.15338E-04-9.27806E-17
 -1      2275 1.05800E-03-3.44433E-04-1.16904E-16
 -1      2276 6.78437E-03-5.55014E-04-1.91461E-15
 -1      2277 7.01399E-03-6.77471E-04-2.05986E-15
 -1      2278 7.62443E-03-9.39637E-04-2.48854E-15
 -1      2279 7.80300E-03-9.88387E-04-2.61468E-15
 -1      2280 1.20378E-03-3.68374E-04-1.43806E-16
 -1      2281 1.34948E-03-3.87615E-04-1.73391E-16
 -1      2282 1.11322E-03-3.23700E-04-1.21851E-16
 -1      2283 1.48749E-03-4.02320E-04-2.04060E-16
 -1      2284 1.62556E-03-4.13818E-04-2.37169E-16
 -1      2285 1.39540E-03-3.60838E-04-1.75912E-16
 -1      2286 1.77074E-03-4.23197E-04-2.74764E-16
 -1      2287 1.91618E-03-4.30050E-04-3.15205E-16
 -1      2288 1.67653E-03-3.84583E-04-2.39920E-16
 -1      2289 2.06162E-03-4.35115E-04-3.57949E-16
 -1      2290 2.20753E-03-4.38698E-04-4.03648E-16
 -1      2291 1.96361E-03-3.98933E-04-3.16438E-16
 -1      2292 2.35345E-03-4.41655E-04-4.52248E-16
 -1      2293 2.50000E-03-4.44374E-04-5.04018E-16
 -1      2294 2.24908E-03-4.07167E-04-4.03269E-16
 -1      2295 2.64652E-03-4.48031E-04-5.58689E-16
 -1      2296 2.79385E-03-4.53233E-04-6.16803E-16
 -1      2297 2.53223E-03-4.13964E-04-5.01904E-16
 -1      2298 2.94123E-03-4.61682E-04-6.78561E-16
 -1      2299 3.08989E-03-4.74517E-04-7.42800E-16
 -1      2300 2.81217E-03-4.25506E-04-6.13062E-16
 -1      2301 3.23184E-03-4.92825E-04-8.07324E-16
 -1      2302 3.37623E-03-5.19219E-04-8.75087E-16
 -1      2303 3.08195E-03-4.49689E-04-7.33924E-16
 -1      2304 3.53145E-03-5.58090E-04-9.49043E-16
 -1      2305 3.69267E-03-6.13820E-04-1.02753E-15
 -1      2306 3.35188E-03-4.98526E-04-8.66671E-16
 -1      2307 3.86315E-03-6.88316E-04-1.11037E-15
 -1      2308 4.04579E-03-7.92997E-04-1.19932E-15
 -1      2309 3.64101E-03-5.94951E-04-1.01830E-15
 -1      2310 8.13608E-03-1.05351E-03-2.95384E-15
 -1      2311 8.13058E-03-1.05493E-03-2.97475E-15
 -1      2312 1.08912E-03 4.04736E-04 2.11785E-16
 -1      2313 9.43061E-04 3.72518E-04 1.73906E-16
 -1      2314 9.13041E-04 3.45944E-04 1.62224E-16
 -1      2315 7.59501E-03-1.35472E-03-3.56314E-15
 -1      2316 7.78793E-03-1.31733E-03-3.81082E-15
 -1      2317 7.96882E-03-1.31170E-03-4.06700E-15
 -1      2318 8.13928E-03-1.32739E-03-4.33120E-15
 -1      2319 7.93589E-03-1.26284E-03-3.85779E-15
 -1      2320 8.30328E-03-1.36203E-03-4.60499E-15
 -1      2321 8.46290E-03-1.40974E-03-4.88579E-15
 -1      2322 8.25015E-03-1.30724E-03-4.38302E-15
 -1      2323 8.61156E-03-1.46473E-03-5.15745E-15
 -1      2324 8.75885E-03-1.52669E-03-5.43702E-15
 -1      2325 8.53849E-03-1.40470E-03-4.92416E-15
 -1      2326 8.91211E-03-1.59735E-03-5.74223E-15
 -1      2327 9.06471E-03-1.67227E-03-6.05433E-15
 -1      2328 8.82232E-03-1.53274E-03-5.49632E-15
 -1      2329 9.21605E-03-1.74996E-03-6.37366E-15
 -1      2330 9.36695E-03-1.82971E-03-6.70014E-15
 -1      2331 9.11334E-03-1.68196E-03-6.11594E-15
 -1      2332 9.51681E-03-1.91066E-03-7.03476E-15
 -1      2333 9.66624E-03-1.99244E-03-7.37791E-15
 -1      2334 9.40499E-03-1.84055E-03-6.76586E-15
 -1      2335 9.81481E-03-2.07460E-03-7.72672E-15
 -1      2336 9.96293E-03-2.15695E-03-8.08625E-15
 -1      2337 9.69681E-03-2.00335E-03-7.44654E-15
 -1      2338 1.01103E-02-2.23928E-03-8.45377E-15
 -1      2339 1.02573E-02-2.32146E-03-8.83099E-15
 -1      2340 9.98827E-03-2.16752E-03-8.16042E-15
 -1      2341 1.04037E-02-2.40345E-03-9.21927E-15
 -1      2342 1.05497E-02-2.48516E-03-9.61550E-15
 -1      2343 1.02790E-02-2.33156E-03-8.91290E-15
 -1      2344 1.06879E-02-2.56254E-03-1.00013E-14
 -1      2345 1.08259E-02-2.63963E-03-1.03947E-14
 -1      2346 1.05617E-02-2.49072E-03-9.68239E-15
 -1      2347 1.09708E-02-2.72050E-03-1.08156E-14
 -1      2348 1.11154E-02-2.80106E-03-1.12423E-14
 -1      2349 1.08435E-02-2.64884E-03-1.04869E-14
 -1      2350 1.12597E-02-2.88135E-03-1.16731E-14
 -1      2351 1.14039E-02-2.96135E-03-1.21079E-14
 -1      2352 1.11319E-02-2.80990E-03-1.13375E-14
 -1      2353 1.15478E-02-3.04112E-03-1.25473E-14
 -1      2354 1.16915E-02-3.12063E-03-1.29897E-14
 -1      2355 1.14195E-02-2.96988E-03-1.22069E-14
 -1      2356 1.18351E-02-3.19993E-03-1.34378E-14
 -1      2357 1.19786E-02-3.27902E-03-1.38901E-14
 -1      2358 1.17067E-02-3.12889E-03-1.30919E-14
 -1      2359 1.21219E-02-3.35792E-03-1.43445E-14
 -1      2360 1.22652E-02-3.43665E-03-1.48033E-14
 -1      2361 1.19934E-02-3.28706E-03-1.39952E-14
 -1      2362 1.24012E-02-3.51131E-03-1.52467E-14
 -1      2363 1.25372E-02-3.58583E-03-1.56981E-14
 -1      2364 1.22727E-02-3.44059E-03-1.48922E-14
 -1      2365 1.26803E-02-3.66415E-03-1.61816E-14
 -1      2366 1.28233E-02-3.74235E-03-1.66711E-14
 -1      2367 1.25517E-02-3.59355E-03-1.58185E-14
 -1      2368 1.29663E-02-3.82044E-03-1.71711E-14
 -1      2369 1.31092E-02-3.89844E-03-1.76799E-14
 -1      2370 1.28377E-02-3.74995E-03-1.68008E-14
 -1      2371 1.32521E-02-3.97636E-03-1.81970E-14
 -1      2372 1.33950E-02-4.05420E-03-1.87256E-14
 -1      2373 1.31236E-02-3.90594E-03-1.78205E-14
 -1      2374 1.35379E-02-4.13198E-03-1.92597E-14
 -1      2375 1.36808E-02-4.20969E-03-1.98057E-14
 -1      2376 1.34094E-02-4.06163E-03-1.88734E-14
 -1      2377 1.38236E-02-4.28736E-03-2.03626E-14
 -1      2378 1.39665E-02-4.36498E-03-2.09240E-14
 -1      2379 1.36952E-02-4.21706E-03-1.99664E-14
 -1      2380 1.41022E-02-4.43868E-03-2.14686E-14
 -1      2381 1.42379E-02-4.51236E-03-2.20254E-14
 -1      2382 1.39737E-02-4.36842E-03-2.10675E-14
 -1      2383 1.43807E-02-4.58988E-03-2.26126E-14
 -1      2384 1.45235E-02-4.66738E-03-2.32080E-14
 -1      2385 1.42523E-02-4.51964E-03-2.22012E-14
 -1      2386 1.46664E-02-4.74485E-03-2.38158E-14
 -1      2387 1.48092E-02-4.82231E-03-2.44294E-14
 -1      2388 1.45380E-02-4.67463E-03-2.33966E-14
 -1      2389 1.49521E-02-4.89976E-03-2.50487E-14
 -1      2390 1.50949E-02-4.97720E-03-2.56738E-14
 -1      2391 1.48237E-02-4.82955E-03-2.46181E-14
 -1      2392 1.52377E-02-5.05463E-03-2.63027E-14
 -1      2393 1.53806E-02-5.13206E-03-2.69365E-14
 -1      2394 1.51094E-02-4.98443E-03-2.58630E-14
 -1      2395 1.54748E-02-5.18286E-03-2.74095E-14
 -1      2396 1.56176E-02-5.26028E-03-2.80470E-14
 -1      2397 1.55348E-02-5.21424E-03-2.78980E-14
 -1      2398 1.53464E-02-5.11265E-03-2.69606E-14
 -1      2399 1.60552E-03 4.71352E-04 3.50035E-16
 -1      2400 1.46164E-03 4.53875E-04 3.09553E-16
 -1      2401 1.34783E-03 4.44063E-04 2.80415E-16
 -1      2402 1.20330E-03 4.20513E-04 2.40503E-16
 -1      2403 1.17393E-03 3.94509E-04 2.25379E-16
 -1      2404 1.40315E-03 4.18067E-04 2.79805E-16
 -1      2405 2.18072E-03 5.22269E-04 5.07122E-16
 -1      2406 2.03681E-03 5.11524E-04 4.69473E-16
 -1      2407 2.46916E-03 5.42256E-04 5.79045E-16
 -1      2408 2.32489E-03 5.32446E-04 5.43971E-16
 -1      2409 2.24156E-03 4.89243E-04 4.85194E-16
 -1      2410 2.75821E-03 5.61976E-04 6.40899E-16
 -1      2411 2.61369E-03 5.52060E-04 6.11300E-16
 -1      2412 2.53245E-03 5.08408E-04 5.47332E-16
 -1      2413 3.04728E-03 5.82666E-04 6.89431E-16
 -1      2414 2.90286E-03 5.72183E-04 6.67408E-16
 -1      2415 2.82436E-03 5.27863E-04 5.99225E-16
 -1      2416 3.33539E-03 6.04078E-04 7.20642E-16
 -1      2417 3.19160E-03 5.93366E-04 7.07225E-16
 -1      2418 3.11682E-03 5.48670E-04 6.36359E-16
 -1      2419 3.62118E-03 6.24037E-04 7.32921E-16
 -1      2420 3.47871E-03 6.14450E-04 7.29641E-16
 -1      2421 3.40885E-03 5.70323E-04 6.55631E-16
 -1      2422 3.90325E-03 6.38158E-04 7.19287E-16
 -1      2423 3.76279E-03 6.32171E-04 7.29600E-16
 -1      2424 3.69906E-03 5.90247E-04 6.54682E-16
 -1      2425 4.18058E-03 6.40032E-04 6.75038E-16
 -1      2426 4.04253E-03 6.41066E-04 7.01099E-16
 -1      2427 3.98585E-03 6.03494E-04 6.26682E-16
 -1      2428 4.45302E-03 6.22176E-04 5.95891E-16
 -1      2429 4.31731E-03 6.34019E-04 6.39991E-16
 -1      2430 4.26804E-03 6.02995E-04 5.67363E-16
 -1      2431 4.72174E-03 5.77728E-04 4.78147E-16
 -1      2432 4.58763E-03 6.03613E-04 5.42250E-16
 -1      2433 4.54548E-03 5.80729E-04 4.72075E-16
 -1      2434 4.98904E-03 5.02418E-04 3.23404E-16
 -1      2435 4.85528E-03 5.44046E-04 4.05004E-16
 -1      2436 4.81949E-03 5.29726E-04 3.39342E-16
 -1      2437 5.25781E-03 3.95982E-04 1.30795E-16
 -1      2438 5.12297E-03 4.52943E-04 2.31558E-16
 -1      2439 5.09271E-03 4.46277E-04 1.69108E-16
 -1      2440 5.53052E-03 2.62287E-04-9.91503E-17
 -1      2441 5.39349E-03 3.32183E-04 2.06947E-17
 -1      2442 5.36812E-03 3.31280E-04-3.80962E-17
 -1      2443 5.80854E-03 1.08082E-04-3.67585E-16
 -1      2444 5.66880E-03 1.87285E-04-2.28333E-16
 -1      2445 5.64795E-03 1.89932E-04-2.83153E-16
 -1      2446 6.09198E-03-5.89055E-05-6.80066E-16
 -1      2447 5.94963E-03 2.57377E-05-5.18411E-16
 -1      2448 5.93303E-03 2.99959E-05-5.68352E-16
 -1      2449 6.37995E-03-2.31716E-04-1.03311E-15
 -1      2450 6.23551E-03-1.44938E-04-8.50828E-16
 -1      2451 6.22279E-03-1.40421E-04-8.95944E-16
 -1      2452 6.67111E-03-4.05170E-04-1.43248E-15
 -1      2453 6.52527E-03-3.18597E-04-1.22675E-15
 -1      2454 6.51583E-03-3.14576E-04-1.26586E-15
 -1      2455 6.96410E-03-5.76098E-04-1.87972E-15
 -1      2456 6.81750E-03-4.91074E-04-1.64904E-15
 -1      2457 6.81062E-03-4.87850E-04-1.68177E-15
 -1      2458 7.25778E-03-7.43054E-04-2.37207E-15
 -1      2459 7.11095E-03-6.60115E-04-2.12028E-15
 -1      2460 7.10583E-03-6.57711E-04-2.14344E-15
 -1      2461 7.55132E-03-9.05803E-04-2.91791E-15
 -1      2462 7.40463E-03-8.24945E-04-2.63927E-15
 -1      2463 7.40056E-03-8.23243E-04-2.65539E-15
 -1      2464 7.84423E-03-1.06482E-03-3.50738E-15
 -1      2465 7.69790E-03-9.85742E-04-3.20750E-15
 -1      2466 7.69433E-03-9.84572E-04-3.21550E-15
 -1      2467 8.13622E-03-1.22090E-03-4.14405E-15
 -1      2468 7.99036E-03-1.14318E-03-3.81933E-15
 -1      2469 7.98691E-03-1.14237E-03-3.82039E-15
 -1      2470 8.42720E-03-1.37489E-03-4.81920E-15
 -1      2471 8.28184E-03-1.29811E-03-4.47698E-15
 -1      2472 8.27828E-03-1.29751E-03-4.46794E-15
 -1      2473 8.71719E-03-1.52756E-03-5.53377E-15
 -1      2474 8.57232E-03-1.45136E-03-5.17213E-15
 -1      2475 8.56854E-03-1.45083E-03-5.15905E-15
 -1      2476 9.00628E-03-1.67952E-03-6.28418E-15
 -1      2477 8.86184E-03-1.60360E-03-5.90326E-15
 -1      2478 8.85781E-03-1.60307E-03-5.88707E-15
 -1      2479 9.29457E-03-1.83121E-03-7.07201E-15
 -1      2480 9.15051E-03-1.75537E-03-6.67275E-15
 -1      2481 9.14626E-03-1.75478E-03-6.64956E-15
 -1      2482 9.58220E-03-1.98295E-03-7.90058E-15
 -1      2483 9.43846E-03-1.90706E-03-7.48129E-15
 -1      2484 9.43402E-03-1.90636E-03-7.45194E-15
 -1      2485 9.86930E-03-2.13492E-03-8.77151E-15
 -1      2486 9.72581E-03-2.05890E-03-8.33121E-15
 -1      2487 9.72124E-03-2.05808E-03-8.29457E-15
 -1      2488 1.01560E-02-2.28722E-03-9.68230E-15
 -1      2489 1.00127E-02-2.21102E-03-9.22210E-15
 -1      2490 1.00080E-02-2.21009E-03-9.17661E-15
 -1      2491 1.04423E-02-2.43989E-03-1.06297E-14
 -1      2492 1.02992E-02-2.36351E-03-1.01510E-14
 -1      2493 1.02945E-02-2.36246E-03-1.00986E-14
 -1      2494 1.07285E-02-2.59292E-03-1.16124E-14
 -1      2495 1.05854E-02-2.51636E-03-1.11167E-14
 -1      2496 1.05807E-02-2.51521E-03-1.10561E-14
 -1      2497 1.10144E-02-2.74629E-03-1.26245E-14
 -1      2498 1.08715E-02-2.66956E-03-1.21153E-14
 -1      2499 1.08667E-02-2.66832E-03-1.20456E-14
 -1      2500 1.13002E-02-2.89995E-03-1.36657E-14
 -1      2501 1.11573E-02-2.82308E-03-1.31418E-14
 -1      2502 1.11526E-02-2.82177E-03-1.30661E-14
 -1      2503 1.15860E-02-3.05386E-03-1.47330E-14
 -1      2504 1.14431E-02-2.97687E-03-1.41947E-14
 -1      2505 1.14385E-02-2.97549E-03-1.41136E-14
 -1      2506 1.18717E-02-3.20797E-03-1.58214E-14
 -1      2507 1.17289E-02-3.13089E-03-1.52755E-14
 -1      2508 1.17242E-02-3.12946E-03-1.51854E-14
 -1      2509 1.21574E-02-3.36224E-03-1.69216E-14
 -1      2510 1.20145E-02-3.28508E-03-1.63702E-14
 -1      2511 1.20099E-02-3.28362E-03-1.62782E-14
 -1      2512 1.24430E-02-3.51663E-03-1.80342E-14
 -1      2513 1.23002E-02-3.43942E-03-1.74778E-14
 -1      2514 1.22956E-02-3.43793E-03-1.73821E-14
 -1      2515 1.27287E-02-3.67111E-03-1.91457E-14
 -1      2516 1.25859E-02-3.59386E-03-1.85902E-14
 -1      2517 1.25813E-02-3.59235E-03-1.84936E-14
 -1      2518 1.30144E-02-3.82566E-03-2.02514E-14
 -1      2519 1.28715E-02-3.74838E-03-1.96983E-14
 -1      2520 1.28670E-02-3.74685E-03-1.96027E-14
 -1      2521 1.33001E-02-3.98023E-03-2.13594E-14
 -1      2522 1.31572E-02-3.90294E-03-2.08054E-14
 -1      2523 1.31527E-02-3.90141E-03-2.07117E-14
 -1      2524 1.35858E-02-4.13482E-03-2.24741E-14
 -1      2525 1.34429E-02-4.05753E-03-2.19144E-14
 -1      2526 1.34384E-02-4.05599E-03-2.18220E-14
 -1      2527 1.37316E-02-4.21370E-03-2.30465E-14
 -1      2528 1.42521E-02-4.50366E-03-2.44310E-14
 -1      2529 1.41762E-02-4.46150E-03-2.42154E-14
 -1      2530 1.44042E-02-4.58800E-03-2.48672E-14
 -1      2531 1.43281E-02-4.54583E-03-2.46501E-14
 -1      2532 1.41664E-02-4.45778E-03-2.40444E-14
 -1      2533 1.39508E-02-4.33645E-03-2.35727E-14
 -1      2534 1.38749E-02-4.29429E-03-2.33570E-14
 -1      2535 1.41008E-02-4.41969E-03-2.40004E-14
 -1      2536 1.40261E-02-4.37825E-03-2.37867E-14
 -1      2537 1.38644E-02-4.29022E-03-2.31900E-14
 -1      2538 1.40151E-02-4.37382E-03-2.36159E-14
 -1      2539 1.45562E-02-4.67234E-03-2.52987E-14
 -1      2540 1.44802E-02-4.63017E-03-2.50846E-14
 -1      2541 1.43184E-02-4.54211E-03-2.44723E-14
 -1      2542 1.47084E-02-4.75668E-03-2.57319E-14
 -1      2543 1.46323E-02-4.71451E-03-2.55144E-14
 -1      2544 1.44705E-02-4.62643E-03-2.48993E-14
 -1      2545 1.48605E-02-4.84102E-03-2.61517E-14
 -1      2546 1.47844E-02-4.79885E-03-2.59407E-14
 -1      2547 1.46227E-02-4.71076E-03-2.53193E-14
 -1      2548 1.50102E-02-4.92392E-03-2.65543E-14
 -1      2549 1.49354E-02-4.88247E-03-2.63554E-14
 -1      2550 1.47736E-02-4.79437E-03-2.57262E-14
 -1      2551 1.51625E-02-5.00826E-03-2.69607E-14
 -1      2552 1.50863E-02-4.96609E-03-2.67589E-14
 -1      2553 1.49245E-02-4.87798E-03-2.61282E-14
 -1      2554 1.53148E-02-5.09258E-03-2.73486E-14
 -1      2555 1.52387E-02-5.05042E-03-2.71565E-14
 -1      2556 1.50769E-02-4.96230E-03-2.65223E-14
 -1      2557 1.54629E-02-5.17449E-03-2.77177E-14
 -1      2558 1.53867E-02-5.13233E-03-2.75288E-14
 -1      2559 1.52249E-02-5.04421E-03-2.68919E-14
 -1      2560 1.53687E-02-5.12370E-03-2.72508E-14
 -1      2561 7.19119E-03-7.62824E-04-2.17477E-15
 -1      2562 7.36415E-03-8.38304E-04-2.29309E-15
 -1      2563 7.05976E-03-7.24774E-04-2.13946E-15
 -1      2564 4.50701E-03 1.28874E-05-6.80188E-16
 -1      2565 4.66605E-03 9.44722E-05-6.97549E-16
 -1      2566 5.91117E-04-2.19121E-04-4.84638E-17
 -1      2567 7.79198E-04-2.78457E-04-7.27229E-17
 -1      2568 8.37442E-04-2.65572E-04-7.76153E-17
 -1      2569 5.80083E-04-1.91468E-04-4.44387E-17
 -1      2570 5.84530E-03-2.14840E-03-2.13387E-15
 -1      2571 5.48380E-03-1.96473E-03-1.89500E-15
 -1      2572 3.36518E-03-4.67320E-04-6.97393E-16
 -1      2573 3.52334E-03-4.21805E-04-6.72158E-16
 -1      2574 5.51680E-03 1.93238E-04-1.05504E-15
 -1      2575 5.69157E-03 1.14233E-04-1.17842E-15
 -1      2576 1.89298E-03 4.99694E-04 4.30659E-16
 -1      2577 1.74927E-03 4.86530E-04 3.90611E-16
 -1      2578 1.66238E-03 4.42263E-04 3.43665E-16
 -1      2579 1.95167E-03 4.68195E-04 4.16672E-16
 -1      2580 4.87587E-03 1.81012E-04-7.42787E-16
 -1      2581 5.04614E-03 2.33494E-04-8.02093E-16
 -1      2582 5.38225E-04-2.33389E-05 6.77626E-20
 -1      2583 5.38824E-04-3.68867E-05-5.02799E-18
 -1      2584 6.51818E-04-5.23180E-05-1.04897E-17
 -1      2585 6.50336E-04-2.00506E-05 2.68340E-18
 -1      2586 5.85436E-03 2.42127E-05-1.29231E-15
 -1      2587 6.02384E-03-8.70215E-05-1.40930E-15
 -1      2588 5.74167E-03 7.37558E-05-1.19677E-15
 -1      2589 5.21112E-03 2.51824E-04-8.73948E-16
 -1      2590 5.32717E-03 2.43442E-04-9.36100E-16
 -1      2591 3.36247E-03-5.91123E-04-1.00224E-15
 -1      2592 3.24843E-03-5.61805E-04-9.43111E-16
 -1      2593 6.29703E-03-2.61014E-04-1.59620E-15
 -1      2594 6.53002E-03-4.06985E-04-1.74863E-15
 -1      2595 4.18123E-03-1.44966E-04-6.34773E-16
 -1      2596 4.34570E-03-6.47936E-05-6.56498E-16
 -1      2597 4.40264E-03-1.53242E-05-6.02640E-16
 -1      2598 3.17608E-03-5.07252E-04-7.56109E-16
 -1      2599 3.24065E-03-4.96476E-04-7.25389E-16
 -1      2600 6.61643E-03-1.88652E-03-2.66857E-15
 -1      2601 6.45102E-03-1.99729E-03-2.56411E-15
 -1      2602 3.16717E-03-5.33914E-04-8.74311E-16
 -1      2603 3.14150E-03-5.22057E-04-8.13180E-16
 -1      2604 3.69569E-03-7.11516E-04-1.13385E-15
 -1      2605 3.52445E-03-6.46018E-04-1.07113E-15
 -1      2606 4.12693E-03-9.06870E-04-1.27620E-15
 -1      2607 3.89072E-03-7.93039E-04-1.19861E-15
 -1      2608 5.24264E-03-1.77098E-03-1.76042E-15
 -1      2609 5.05805E-03-1.61139E-03-1.66688E-15
 -1      2610 7.59392E-03-1.26398E-03-3.06541E-15
 -1      2611 7.41663E-03-1.35745E-03-3.02601E-15
 -1      2612 7.92221E-03-1.12295E-03-3.05290E-15
 -1      2613 7.78123E-03-1.17648E-03-3.06112E-15
 -1      2614 8.09626E-03-1.06725E-03-3.00635E-15
 -1      2615 8.03155E-03-1.08530E-03-3.03643E-15
 -1      2616 8.12804E-03-1.07275E-03-3.11454E-15
 -1      2617 4.82675E-03-1.39676E-03-1.55416E-15
 -1      2618 6.85767E-03-1.72663E-03-2.87022E-15
 -1      2619 4.54497E-03-1.17052E-03-1.43211E-15
 -1      2620 4.32036E-03-9.78373E-04-1.32705E-15
 -1      2621 6.65336E-04-1.23140E-04-3.50062E-17
 -1      2622 5.52135E-04-1.12547E-04-2.88127E-17
 -1      2623 5.57246E-04-1.30929E-04-3.32172E-17
 -1      2624 5.09264E-03 2.49236E-04-7.76614E-16
 -1      2625 6.64716E-03-4.98833E-04-1.85248E-15
 -1      2626 4.75209E-03 1.47967E-04-6.65023E-16
 -1      2627 7.90326E-03-1.02687E-03-2.76243E-15
 -1      2628 6.22416E-03-2.11053E-03-2.40281E-15
 -1      2629 8.12509E-03-1.05928E-03-2.97920E-15
 -1      2630 8.15383E-03-1.07422E-03-3.10893E-15
 -1      2631 8.10010E-03-1.06847E-03-3.00262E-15
 -1      2632 7.45845E-03-1.38239E-03-3.35216E-15
 -1      2633 7.64801E-03-1.28272E-03-3.39349E-15
 -1      2634 7.23908E-03-1.48558E-03-3.11708E-15
 -1      2635 7.36966E-03-8.80550E-04-2.41362E-15
 -1      2636 7.49464E-03-9.13861E-04-2.45125E-15
 -1      2637 7.61318E-03-9.70551E-04-2.61390E-15
 -1      2638 1.37271E-02-4.21217E-03-2.29512E-14
 -1      2639 4.05230E-03-1.91660E-04-5.99279E-16
 -1      2640 1.37709E-02-4.23672E-03-2.30560E-14
 -1      2641 3.28964E-03-4.67628E-04-6.71274E-16
 -1      2642 7.10043E-03-1.55425E-03-2.96223E-15
 -1      2643 5.63716E-04-1.48176E-04-3.68629E-17
 -1      2644 5.71074E-04-1.70346E-04-4.09693E-17
 -1      2645 6.96502E-04-2.05573E-04-5.52808E-17
 -1      2646 6.78594E-04-1.62664E-04-4.58753E-17
 -1      2647 6.13947E-03-1.78319E-04-1.49402E-15
 -1      2648 6.25484E-03-2.68070E-04-1.58205E-15
 -1      2649 6.00933E-03-1.04030E-04-1.39359E-15
 -1      2650 5.41671E-03 2.20383E-04-9.62934E-16
 -1      2651 3.78162E-03-7.15478E-04-1.14180E-15
 -1      2652 3.19349E-03-5.22498E-04-8.77438E-16
 -1      2653 3.62198E-03-3.77514E-04-6.28980E-16
 -1      2654 3.71375E-03-3.25664E-04-5.85632E-16
 -1      2655 3.51113E-03-3.93404E-04-6.00126E-16
 -1      2656 3.43464E-03-5.90101E-04-1.01152E-15
 -1      2657 3.13491E-03-4.98295E-04-7.55436E-16
 -1      2658 1.36852E-02-4.19085E-03-2.26786E-14
 -1      2659 4.15361E-03-8.65690E-04-1.25463E-15
 -1      2660 7.99401E-03-1.10869E-03-3.16225E-15
 -1      2661 7.71240E-03-1.21903E-03-3.18149E-15
 -1      2662 3.88323E-03-7.27271E-04-1.15171E-15
 -1      2663 6.94484E-03-1.66847E-03-2.94132E-15
 -1      2664 7.72138E-04 6.30315E-05 4.23516E-17
 -1      2665 7.69089E-04 4.29917E-05 3.31088E-17
 -1      2666 7.66639E-04 2.33038E-05 2.41642E-17
 -1      2667 7.64929E-04 4.21290E-06 1.51382E-17
 -1      2668 8.83431E-04 3.62771E-05 3.35967E-17
 -1      2669 7.91595E-04 1.54915E-04 8.30634E-17
 -1      2670 7.85563E-04 1.29996E-04 7.23163E-17
 -1      2671 8.07193E-04 2.09898E-04 1.05588E-16
 -1      2672 7.98784E-04 1.81490E-04 9.39732E-17
 -1      2673 9.16062E-04 1.87121E-04 1.06645E-16
 -1      2674 8.29963E-04 2.73355E-04 1.29291E-16
 -1      2675 8.17516E-04 2.40439E-04 1.17256E-16
 -1      2676 9.35607E-04 2.49274E-04 1.34048E-16
 -1      2677 8.84020E-04 3.21203E-04 1.50813E-16
 -1      2678 8.56635E-04 2.96307E-04 1.39754E-16
 -1      2679 9.74593E-04 3.06035E-04 1.59920E-16
 -1      2680 1.03007E-03 3.53739E-04 1.84938E-16
 -1      2681 1.30893E-03-3.20796E-04-1.50514E-16
 -1      2682 1.44504E-03-3.35011E-04-1.77294E-16
 -1      2683 1.58777E-03-3.47129E-04-2.08479E-16
 -1      2684 1.73010E-03-3.56571E-04-2.41940E-16
 -1      2685 1.50141E-03-3.10432E-04-1.78771E-16
 -1      2686 1.87159E-03-3.64048E-04-2.77813E-16
 -1      2687 2.01241E-03-3.69761E-04-3.16506E-16
 -1      2688 1.78243E-03-3.29814E-04-2.41709E-16
 -1      2689 2.15203E-03-3.74542E-04-3.58017E-16
 -1      2690 2.29064E-03-3.78566E-04-4.02131E-16
 -1      2691 2.05903E-03-3.42734E-04-3.14852E-16
 -1      2692 2.42750E-03-3.82893E-04-4.49293E-16
 -1      2693 2.56293E-03-3.87690E-04-4.99099E-16
 -1      2694 2.32893E-03-3.53158E-04-3.98810E-16
 -1      2695 2.69594E-03-3.94375E-04-5.52089E-16
 -1      2696 2.82716E-03-4.03163E-04-6.08292E-16
 -1      2697 2.58916E-03-3.65739E-04-4.94234E-16
 -1      2698 2.94904E-03-4.15191E-04-6.64792E-16
 -1      2699 3.06948E-03-4.31019E-04-7.24017E-16
 -1      2700 2.83025E-03-3.85484E-04-5.98452E-16
 -1      2701 3.19336E-03-4.53902E-04-7.89489E-16
 -1      2702 3.31734E-03-4.84358E-04-8.58187E-16
 -1      2703 3.05585E-03-4.18527E-04-7.14814E-16
 -1      2704 8.21686E-03-1.25120E-03-4.14759E-15
 -1      2705 8.35104E-03-1.29466E-03-4.41674E-15
 -1      2706 8.47675E-03-1.34507E-03-4.67749E-15
 -1      2707 8.60392E-03-1.40235E-03-4.94441E-15
 -1      2708 8.42514E-03-1.29051E-03-4.43219E-15
 -1      2709 8.73824E-03-1.46821E-03-5.23596E-15
 -1      2710 8.87467E-03-1.53901E-03-5.53638E-15
 -1      2711 8.66198E-03-1.40913E-03-4.97893E-15
 -1      2712 9.01211E-03-1.61301E-03-5.84209E-15
 -1      2713 9.15137E-03-1.68985E-03-6.15710E-15
 -1      2714 8.91706E-03-1.54869E-03-5.57162E-15
 -1      2715 9.29146E-03-1.76833E-03-6.48101E-15
 -1      2716 9.43284E-03-1.84829E-03-6.81131E-15
 -1      2717 9.18282E-03-1.69971E-03-6.19715E-15
 -1      2718 9.57473E-03-1.92898E-03-7.15039E-15
 -1      2719 9.71742E-03-2.01031E-03-7.49712E-15
 -1      2720 9.45646E-03-1.85725E-03-6.85532E-15
 -1      2721 9.86037E-03-2.09185E-03-7.85186E-15
 -1      2722 1.00038E-02-2.17355E-03-8.21696E-15
 -1      2723 9.73537E-03-2.01806E-03-7.54541E-15
 -1      2724 1.01472E-02-2.25520E-03-8.59055E-15
 -1      2725 1.02909E-02-2.33675E-03-8.97417E-15
 -1      2726 1.00176E-02-2.18014E-03-8.27127E-15
 -1      2727 1.04274E-02-2.41404E-03-9.34719E-15
 -1      2728 1.05639E-02-2.49115E-03-9.72715E-15
 -1      2729 1.02947E-02-2.33827E-03-9.01337E-15
 -1      2730 1.07075E-02-2.57207E-03-1.01388E-14
 -1      2731 1.08512E-02-2.65274E-03-1.05567E-14
 -1      2732 1.05728E-02-2.49592E-03-9.79184E-15
 -1      2733 1.09948E-02-2.73316E-03-1.09793E-14
 -1      2734 1.11383E-02-2.81331E-03-1.14087E-14
 -1      2735 1.08586E-02-2.65683E-03-1.06241E-14
 -1      2736 1.12818E-02-2.89323E-03-1.18436E-14
 -1      2737 1.14252E-02-2.97290E-03-1.22828E-14
 -1      2738 1.11446E-02-2.81686E-03-1.14807E-14
 -1      2739 1.15685E-02-3.05236E-03-1.27239E-14
 -1      2740 1.17118E-02-3.13160E-03-1.31726E-14
 -1      2741 1.14307E-02-2.97601E-03-1.23580E-14
 -1      2742 1.18550E-02-3.21065E-03-1.36235E-14
 -1      2743 1.19981E-02-3.28952E-03-1.40784E-14
 -1      2744 1.17168E-02-3.13437E-03-1.32517E-14
 -1      2745 1.21341E-02-3.36430E-03-1.45166E-14
 -1      2746 1.22700E-02-3.43893E-03-1.49605E-14
 -1      2747 1.19957E-02-3.28808E-03-1.41420E-14
 -1      2748 1.24131E-02-3.51736E-03-1.54343E-14
 -1      2749 1.25561E-02-3.59566E-03-1.59180E-14
 -1      2750 1.22746E-02-3.44121E-03-1.50540E-14
 -1      2751 1.26990E-02-3.67384E-03-1.64099E-14
 -1      2752 1.28420E-02-3.75192E-03-1.69110E-14
 -1      2753 1.25605E-02-3.59777E-03-1.60200E-14
 -1      2754 1.29849E-02-3.82991E-03-1.74219E-14
 -1      2755 1.31279E-02-3.90782E-03-1.79419E-14
 -1      2756 1.28463E-02-3.75390E-03-1.70247E-14
 -1      2757 1.32708E-02-3.98565E-03-1.84689E-14
 -1      2758 1.34136E-02-4.06342E-03-1.90053E-14
 -1      2759 1.31321E-02-3.90969E-03-1.80646E-14
 -1      2760 1.35565E-02-4.14113E-03-1.95526E-14
 -1      2761 1.36994E-02-4.21879E-03-2.01084E-14
 -1      2762 1.34179E-02-4.06521E-03-1.91408E-14
 -1      2763 1.38351E-02-4.29253E-03-2.06482E-14
 -1      2764 1.39709E-02-4.36623E-03-2.11929E-14
 -1      2765 1.36965E-02-4.21664E-03-2.02258E-14
 -1      2766 1.41137E-02-4.44377E-03-2.17720E-14
 -1      2767 1.42566E-02-4.52129E-03-2.23606E-14
 -1      2768 1.39751E-02-4.36791E-03-2.13445E-14
 -1      2769 1.43994E-02-4.59879E-03-2.29543E-14
 -1      2770 1.45423E-02-4.67626E-03-2.35602E-14
 -1      2771 1.42609E-02-4.52294E-03-2.25197E-14
 -1      2772 1.46851E-02-4.75372E-03-2.41688E-14
 -1      2773 1.48280E-02-4.83116E-03-2.47828E-14
 -1      2774 1.45466E-02-4.67788E-03-2.37196E-14
 -1      2775 1.49708E-02-4.90860E-03-2.54040E-14
 -1      2776 1.51137E-02-4.98603E-03-2.60266E-14
 -1      2777 1.48323E-02-4.83277E-03-2.49439E-14
 -1      2778 1.51941E-02-5.02947E-03-2.64088E-14
 -1      2779 1.52883E-02-5.08026E-03-2.68732E-14
 -1      2780 1.52164E-02-5.04052E-03-2.66941E-14
 -1      2781 1.50556E-02-4.95364E-03-2.59407E-14
 -1      2782 2.89212E-03 4.92542E-04 5.54041E-16
 -1      2783 2.74441E-03 4.82800E-04 5.34905E-16
 -1      2784 2.30349E-03 4.55211E-04 4.60135E-16
 -1      2785 2.15737E-03 4.45824E-04 4.30442E-16
 -1      2786 3.18850E-03 5.13429E-04 5.79154E-16
 -1      2787 3.04027E-03 5.02757E-04 5.68515E-16
 -1      2788 2.96158E-03 4.56016E-04 5.04195E-16
 -1      2789 3.48511E-03 5.35400E-04 5.86892E-16
 -1      2790 3.33693E-03 5.24404E-04 5.85293E-16
 -1      2791 3.26242E-03 4.77016E-04 5.18696E-16
 -1      2792 3.78030E-03 5.55499E-04 5.72594E-16
 -1      2793 3.63305E-03 5.45975E-04 5.83152E-16
 -1      2794 3.56411E-03 4.99498E-04 5.14264E-16
 -1      2795 4.07217E-03 5.68152E-04 5.30229E-16
 -1      2796 3.92678E-03 5.63225E-04 5.55071E-16
 -1      2797 3.86468E-03 5.20102E-04 4.87173E-16
 -1      2798 4.35923E-03 5.65469E-04 4.55378E-16
 -1      2799 4.21632E-03 5.69307E-04 4.97324E-16
 -1      2800 4.16171E-03 5.32478E-04 4.30130E-16
 -1      2801 4.64134E-03 5.38693E-04 3.45088E-16
 -1      2802 4.50075E-03 5.55633E-04 4.05153E-16
 -1      2803 4.45343E-03 5.27666E-04 3.40412E-16
 -1      2804 4.92019E-03 4.80674E-04 1.97826E-16
 -1      2805 4.78088E-03 5.13909E-04 2.76051E-16
 -1      2806 4.73983E-03 4.95989E-04 2.15160E-16
 -1      2807 5.19889E-03 3.88393E-04 1.24277E-17
 -1      2808 5.05922E-03 4.38785E-04 1.09410E-16
 -1      2809 5.02321E-03 4.30142E-04 5.24889E-17
 -1      2810 5.48066E-03 2.64220E-04-2.10254E-16
 -1      2811 5.33913E-03 3.29929E-04-9.42172E-17
 -1      2812 5.30735E-03 3.28140E-04-1.48210E-16
 -1      2813 5.76748E-03 1.14942E-04-4.70801E-16
 -1      2814 5.62335E-03 1.92153E-04-3.35574E-16
 -1      2815 5.59566E-03 1.94201E-04-3.85380E-16
 -1      2816 6.05947E-03-5.05672E-05-7.71816E-16
 -1      2817 5.91289E-03 3.36391E-05-6.15773E-16
 -1      2818 5.88964E-03 3.69729E-05-6.61933E-16
 -1      2819 6.35530E-03-2.23925E-04-1.11586E-15
 -1      2820 6.20706E-03-1.36723E-04-9.38702E-16
 -1      2821 6.18852E-03-1.33629E-04-9.79468E-16
 -1      2822 6.65309E-03-3.98802E-04-1.50231E-15
 -1      2823 6.50413E-03-3.11468E-04-1.30359E-15
 -1      2824 6.49017E-03-3.09193E-04-1.33911E-15
 -1      2825 6.95112E-03-5.71302E-04-1.93512E-15
 -1      2826 6.80222E-03-4.85494E-04-1.71299E-15
 -1      2827 6.79226E-03-4.84039E-04-1.74261E-15
 -1      2828 7.24820E-03-7.39627E-04-2.41339E-15
 -1      2829 7.09988E-03-6.56026E-04-2.16838E-15
 -1      2830 7.09302E-03-6.55159E-04-2.19110E-15
 -1      2831 7.54373E-03-9.03417E-04-2.94074E-15
 -1      2832 7.39622E-03-8.22067E-04-2.67074E-15
 -1      2833 7.39150E-03-8.21536E-04-2.68603E-15
 -1      2834 7.83752E-03-1.06314E-03-3.51559E-15
 -1      2835 7.69087E-03-9.83738E-04-3.22276E-15
 -1      2836 7.68744E-03-9.83351E-04-3.22882E-15
 -1      2837 8.12967E-03-1.21964E-03-4.13482E-15
 -1      2838 7.98380E-03-1.14174E-03-3.81958E-15
 -1      2839 7.98100E-03-1.14137E-03-3.81959E-15
 -1      2840 8.42037E-03-1.37382E-03-4.79759E-15
 -1      2841 8.27519E-03-1.29697E-03-4.46118E-15
 -1      2842 8.27253E-03-1.29655E-03-4.45318E-15
 -1      2843 8.70988E-03-1.52650E-03-5.50096E-15
 -1      2844 8.56526E-03-1.45030E-03-5.14385E-15
 -1      2845 8.56247E-03-1.44980E-03-5.12994E-15
 -1      2846 8.99844E-03-1.67835E-03-6.24187E-15
 -1      2847 8.85426E-03-1.60249E-03-5.86796E-15
 -1      2848 8.85120E-03-1.60189E-03-5.84724E-15
 -1      2849 9.28626E-03-1.82986E-03-7.01786E-15
 -1      2850 9.14243E-03-1.75412E-03-6.62462E-15
 -1      2851 9.13903E-03-1.75341E-03-6.60064E-15
 -1      2852 9.57350E-03-1.98139E-03-7.83510E-15
 -1      2853 9.42994E-03-1.90561E-03-7.42131E-15
 -1      2854 9.42623E-03-1.90478E-03-7.39015E-15
 -1      2855 9.86032E-03-2.13313E-03-8.68915E-15
 -1      2856 9.71695E-03-2.05722E-03-8.25732E-15
 -1      2857 9.71298E-03-2.05629E-03-8.21976E-15
 -1      2858 1.01468E-02-2.28520E-03-9.58267E-15
 -1      2859 1.00036E-02-2.20912E-03-9.13095E-15
 -1      2860 9.99940E-03-2.20809E-03-9.08624E-15
 -1      2861 1.04331E-02-2.43766E-03-1.05140E-14
 -1      2862 1.02900E-02-2.36138E-03-1.00437E-14
 -1      2863 1.02856E-02-2.36026E-03-9.99031E-15
 -1      2864 1.07191E-02-2.59051E-03-1.14832E-14
 -1      2865 1.05761E-02-2.51404E-03-1.09955E-14
 -1      2866 1.05716E-02-2.51283E-03-1.09335E-14
 -1      2867 1.10051E-02-2.74372E-03-1.24798E-14
 -1      2868 1.08621E-02-2.66707E-03-1.19772E-14
 -1      2869 1.08576E-02-2.66579E-03-1.19090E-14
 -1      2870 1.12909E-02-2.89724E-03-1.35063E-14
 -1      2871 1.11480E-02-2.82044E-03-1.29891E-14
 -1      2872 1.11434E-02-2.81910E-03-1.29136E-14
 -1      2873 1.15767E-02-3.05105E-03-1.45598E-14
 -1      2874 1.14338E-02-2.97411E-03-1.40306E-14
 -1      2875 1.14292E-02-2.97272E-03-1.39471E-14
 -1      2876 1.18625E-02-3.20507E-03-1.56389E-14
 -1      2877 1.17196E-02-3.12803E-03-1.50969E-14
 -1      2878 1.17150E-02-3.12660E-03-1.50081E-14
 -1      2879 1.21482E-02-3.35928E-03-1.67326E-14
 -1      2880 1.20053E-02-3.28215E-03-1.61847E-14
 -1      2881 1.20007E-02-3.28069E-03-1.60894E-14
 -1      2882 1.24339E-02-3.51362E-03-1.78394E-14
 -1      2883 1.22910E-02-3.43644E-03-1.72845E-14
 -1      2884 1.22864E-02-3.43494E-03-1.71878E-14
 -1      2885 1.27196E-02-3.66807E-03-1.89499E-14
 -1      2886 1.25767E-02-3.59084E-03-1.83941E-14
 -1      2887 1.25722E-02-3.58933E-03-1.82955E-14
 -1      2888 1.30053E-02-3.82260E-03-2.00604E-14
 -1      2889 1.28624E-02-3.74533E-03-1.95062E-14
 -1      2890 1.28579E-02-3.74380E-03-1.94075E-14
 -1      2891 1.32910E-02-3.97717E-03-2.11727E-14
 -1      2892 1.31481E-02-3.89988E-03-2.06153E-14
 -1      2893 1.31436E-02-3.89835E-03-2.05205E-14
 -1      2894 1.35595E-02-4.12266E-03-2.22016E-14
 -1      2895 1.34166E-02-4.04536E-03-2.16449E-14
 -1      2896 1.34121E-02-4.04383E-03-2.15505E-14
 -1      2897 1.36634E-02-4.18022E-03-2.25018E-14
 -1      2898 3.89907E-03-2.35782E-04-5.48322E-16
 -1      2899 4.08746E-03-1.39453E-04-5.29064E-16
 -1      2900 1.43848E-02-4.58052E-03-2.44949E-14
 -1      2901 1.43088E-02-4.53836E-03-2.42869E-14
 -1      2902 1.40807E-02-4.41190E-03-2.36538E-14
 -1      2903 1.40047E-02-4.36974E-03-2.34417E-14
 -1      2904 1.45370E-02-4.66484E-03-2.49063E-14
 -1      2905 1.44609E-02-4.62268E-03-2.47025E-14
 -1      2906 1.42991E-02-4.53460E-03-2.40886E-14
 -1      2907 1.42327E-02-4.49621E-03-2.40752E-14
 -1      2908 1.41567E-02-4.45405E-03-2.38644E-14
 -1      2909 1.39950E-02-4.36600E-03-2.32609E-14
 -1      2910 1.41470E-02-4.45030E-03-2.36781E-14
 -1      2911 1.46866E-02-4.74772E-03-2.53005E-14
 -1      2912 1.46118E-02-4.70628E-03-2.51039E-14
 -1      2913 1.44500E-02-4.61819E-03-2.44888E-14
 -1      2914 1.48389E-02-4.83203E-03-2.56985E-14
 -1      2915 1.47627E-02-4.78988E-03-2.54998E-14
 -1      2916 1.46010E-02-4.70178E-03-2.48789E-14
 -1      2917 1.49912E-02-4.91635E-03-2.60801E-14
 -1      2918 1.49150E-02-4.87419E-03-2.58904E-14
 -1      2919 1.47532E-02-4.78608E-03-2.52646E-14
 -1      2920 6.98191E-03-7.06908E-04-2.13786E-15
 -1      2921 7.14187E-03-7.85420E-04-2.25627E-15
 -1      2922 8.24014E-04-2.38597E-04-7.20859E-17
 -1      2923 9.53133E-04-2.69367E-04-9.09781E-17
 -1      2924 8.12558E-04-2.13634E-04-6.61770E-17
 -1      2925 4.99392E-03 2.44916E-04-6.83942E-16
 -1      2926 5.13602E-03 2.61968E-04-7.51027E-16
 -1      2927 6.06329E-03-2.16328E-03-2.29322E-15
 -1      2928 5.31680E-03 2.44269E-04-8.51587E-16
 -1      2929 5.48032E-03 1.92086E-04-9.69223E-16
 -1      2930 8.16502E-03-1.09079E-03-3.26294E-15
 -1      2931 8.13408E-03-1.09434E-03-3.29513E-15
 -1      2932 8.06861E-03-1.10906E-03-3.31103E-15
 -1      2933 7.97390E-03-1.13497E-03-3.32616E-15
 -1      2934 8.13345E-03-1.12152E-03-3.46240E-15
 -1      2935 3.71262E-03-6.56770E-04-1.09088E-15
 -1      2936 7.92247E-03-1.19498E-03-3.54399E-15
 -1      2937 8.06165E-03-1.20348E-03-3.79370E-15
 -1      2938 2.59698E-03 4.73448E-04 5.11960E-16
 -1      2939 2.45007E-03 4.64341E-04 4.87200E-16
 -1      2940 2.36649E-03 4.20181E-04 4.30835E-16
 -1      2941 1.05922E-03-2.86999E-04-1.07092E-16
 -1      2942 1.20294E-03-3.08222E-04-1.31256E-16
 -1      2943 1.25494E-03-2.86264E-04-1.32368E-16
 -1      2944 1.04468E-03-2.58871E-04-9.89606E-17
 -1      2945 3.21799E-03-4.56290E-04-6.41238E-16
 -1      2946 3.33371E-03-4.34634E-04-6.12710E-16
 -1      2947 6.52905E-03-4.48150E-04-1.79502E-15
 -1      2948 6.75530E-03-5.84274E-04-1.96579E-15
 -1      2949 7.86206E-03-1.04487E-03-2.84804E-15
 -1      2950 8.00688E-03-1.06707E-03-2.96090E-15
 -1      2951 7.80350E-04 1.06540E-04 6.20841E-17
 -1      2952 7.75914E-04 8.42361E-05 5.20824E-17
 -1      2953 8.91028E-04 8.20720E-05 5.65682E-17
 -1      2954 9.01722E-04 1.31867E-04 8.09086E-17
 -1      2955 7.69555E-04-8.92275E-05-2.61428E-17
 -1      2956 7.73644E-04-1.09164E-04-3.38136E-17
 -1      2957 4.62261E-03 1.15735E-04-5.76606E-16
 -1      2958 4.80142E-03 1.92803E-04-6.16206E-16
 -1      2959 4.35088E-03-1.02660E-05-5.34647E-16
 -1      2960 4.49013E-03 5.53620E-05-5.54285E-16
 -1      2961 4.55036E-03 1.16521E-04-5.05076E-16
 -1      2962 3.10311E-03-4.77184E-04-7.40663E-16
 -1      2963 3.12450E-03-4.71345E-04-6.86425E-16
 -1      2964 3.23335E-03-5.12604E-04-8.86095E-16
 -1      2965 3.14971E-03-4.94857E-04-8.20561E-16
 -1      2966 3.50132E-03-5.85324E-04-1.01491E-15
 -1      2967 3.35294E-03-5.42703E-04-9.49815E-16
 -1      2968 5.66161E-03 1.08871E-04-1.11486E-15
 -1      2969 5.80216E-03 2.50918E-05-1.22783E-15
 -1      2970 7.80629E-03-1.20842E-03-3.39256E-15
 -1      2971 3.59184E-03-5.97258E-04-1.02643E-15
 -1      2972 7.66595E-04-7.00231E-05-1.81739E-17
 -1      2973 8.83049E-04-8.97489E-05-2.84061E-17
 -1      2974 7.64752E-04-5.13240E-05-1.00966E-17
 -1      2975 3.13478E-03-4.47721E-04-6.29549E-16
 -1      2976 3.15100E-03-4.19772E-04-5.74085E-16
 -1      2977 3.06910E-03-4.30746E-04-6.17907E-16
 -1      2978 2.01154E-03 4.35773E-04 3.99298E-16
 -1      2979 1.86603E-03 4.24778E-04 3.67341E-16
 -1      2980 2.07244E-03 4.02476E-04 3.79064E-16
 -1      2981 8.07797E-03-1.08582E-03-3.09140E-15
 -1      2982 3.28996E-03-4.82655E-04-8.63601E-16
 -1      2983 3.46415E-03-5.35936E-04-9.48392E-16
 -1      2984 8.18046E-03-1.18096E-03-3.82118E-15
 -1      2985 7.66426E-03-1.00604E-03-2.76677E-15
 -1      2986 7.76449E-03-1.02887E-03-2.80748E-15
 -1      2987 7.89621E-03-1.07316E-03-3.00632E-15
 -1      2988 6.24809E-03-2.78155E-04-1.57605E-15
 -1      2989 6.37887E-03-3.61314E-04-1.68490E-15
 -1      2990 6.50163E-03-4.43803E-04-1.79105E-15
 -1      2991 2.66281E-03 4.37364E-04 4.73918E-16
 -1      2992 7.28979E-03-8.58630E-04-2.41231E-15
 -1      2993 1.42156E-03 3.83981E-04 2.65819E-16
 -1      2994 1.30646E-03 3.74669E-04 2.41086E-16
 -1      2995 3.76455E-03-2.67357E-04-5.19590E-16
 -1      2996 1.37388E-02-4.22202E-03-2.27114E-14
 -1      2997 1.36131E-02-4.15382E-03-2.22337E-14
 -1      2998 1.38141E-02-4.26381E-03-2.29219E-14
 -1      2999 8.18319E-03-1.09661E-03-3.28925E-15
 -1      3000 8.21068E-03-1.12152E-03-3.47251E-15
 -1      3001 8.18839E-03-1.10691E-03-3.31462E-15
 -1      3002 6.85942E-03-6.50254E-04-2.07602E-15
 -1      3003 1.51397E-02-4.99831E-03-2.64751E-14
 -1      3004 1.50679E-02-4.95856E-03-2.63001E-14
 -1      3005 1.49060E-02-4.87044E-03-2.56705E-14
 -1      3006 1.50593E-02-4.95487E-03-2.61038E-14
 -1      3007 3.30506E-03-3.94420E-04-5.42975E-16
 -1      3008 3.40298E-03-3.99880E-04-5.70426E-16
 -1      3009 3.47306E-03-3.58288E-04-5.28359E-16
 -1      3010 5.91223E-03-5.01859E-05-1.30623E-15
 -1      3011 6.02245E-03-1.28530E-04-1.38702E-15
 -1      3012 5.82978E-03-3.66516E-06-1.21859E-15
 -1      3013 4.85893E-03 2.28359E-04-5.87380E-16
 -1      3014 5.21098E-03 2.60714E-04-7.49699E-16
 -1      3015 5.54601E-03 1.57223E-04-9.93346E-16
 -1      3016 3.27577E-03-5.06736E-04-8.90665E-16
 -1      3017 1.39470E-02-4.33768E-03-2.32891E-14
 -1      3018 1.38717E-02-4.29588E-03-2.30782E-14
 -1      3019 1.37460E-02-4.22767E-03-2.25978E-14
 -1      3020 1.38613E-02-4.29179E-03-2.29029E-14
 -1      3021 4.18805E-03-6.13669E-05-4.81643E-16
 -1      3022 4.26493E-03 1.31467E-05-4.32841E-16
 -1      3023 4.02773E-03-1.01323E-04-4.33450E-16
 -1      3024 1.72071E-03 4.12308E-04 3.34070E-16
 -1      3025 1.57553E-03 3.98059E-04 2.99972E-16
 -1      3026 1.78018E-03 3.81558E-04 3.21154E-16
 -1      3027 7.63993E-04-1.44238E-05 6.47811E-18
 -1      3028 7.63906E-04-3.29047E-05-1.97867E-18
 -1      3029 8.78758E-04-4.80113E-05-8.80914E-18
 -1      3030 8.79143E-04-6.64271E-06 1.17907E-17
 -1      3031 7.79008E-04-1.30104E-04-4.11997E-17
 -1      3032 7.85602E-04-1.52396E-04-4.86671E-17
 -1      3033 8.92775E-04-1.33907E-04-4.71899E-17
 -1      3034 3.09647E-03-4.67157E-04-7.50319E-16
 -1      3035 3.05380E-03-4.42237E-04-6.83156E-16
 -1      3036 3.10418E-03-4.56272E-04-7.59118E-16
 -1      3037 1.48015E-03 3.56997E-04 2.60181E-16
 -1      3038 1.06637E-03 2.88573E-04 1.66357E-16
 -1      3039 1.05392E-03 2.53541E-04 1.49837E-16
 -1      3040 1.04307E-03 2.20284E-04 1.33492E-16
 -1      3041 1.03375E-03 1.88661E-04 1.17677E-16
 -1      3042 1.17230E-03 2.54025E-04 1.63633E-16
 -1      3043 1.14520E-03 3.69925E-04 2.10742E-16
 -1      3044 1.41436E-03-2.74587E-04-1.50813E-16
 -1      3045 1.55418E-03-2.86347E-04-1.77836E-16
 -1      3046 3.18094E-03-4.59092E-04-8.05122E-16
 -1      3047 8.23619E-03-1.17340E-03-3.80562E-15
 -1      3048 1.69302E-03-2.96229E-04-2.07096E-16
 -1      3049 1.83080E-03-3.04408E-04-2.38755E-16
 -1      3050 1.60690E-03-2.63122E-04-1.74692E-16
 -1      3051 1.96695E-03-3.11636E-04-2.72812E-16
 -1      3052 2.10137E-03-3.18004E-04-3.09946E-16
 -1      3053 1.87901E-03-2.80674E-04-2.33659E-16
 -1      3054 2.23336E-03-3.24486E-04-3.49723E-16
 -1      3055 2.36276E-03-3.31066E-04-3.92237E-16
 -1      3056 2.14350E-03-2.95813E-04-3.03035E-16
 -1      3057 2.48867E-03-3.39027E-04-4.37164E-16
 -1      3058 2.61095E-03-3.48136E-04-4.85072E-16
 -1      3059 2.39655E-03-3.12475E-04-3.83198E-16
 -1      3060 2.72261E-03-3.59470E-04-5.33251E-16
 -1      3061 2.82997E-03-3.72801E-04-5.84832E-16
 -1      3062 2.62752E-03-3.34404E-04-4.71370E-16
 -1      3063 2.93651E-03-3.91393E-04-6.41658E-16
 -1      3064 3.03715E-03-4.12551E-04-7.01716E-16
 -1      3065 2.83679E-03-3.66440E-04-5.71232E-16
 -1      3066 7.93555E-04-1.70854E-04-5.42779E-17
 -1      3067 8.02493E-04-1.92477E-04-6.05391E-17
 -1      3068 9.28045E-04-2.19218E-04-7.70597E-17
 -1      3069 9.08243E-04-1.77011E-04-6.31006E-17
 -1      3070 1.16372E-03 3.39070E-04 2.01716E-16
 -1      3071 8.58948E-03-1.35618E-03-4.72325E-15
 -1      3072 8.70533E-03-1.42129E-03-5.01018E-15
 -1      3073 8.82524E-03-1.48951E-03-5.30415E-15
 -1      3074 8.94960E-03-1.56132E-03-5.60451E-15
 -1      3075 8.73523E-03-1.43545E-03-5.03756E-15
 -1      3076 9.07711E-03-1.63515E-03-5.91557E-15
 -1      3077 9.20781E-03-1.71127E-03-6.23504E-15
 -1      3078 8.97332E-03-1.57472E-03-5.63762E-15
 -1      3079 9.34075E-03-1.78860E-03-6.56166E-15
 -1      3080 9.47589E-03-1.86726E-03-6.89714E-15
 -1      3081 9.22694E-03-1.72315E-03-6.27062E-15
 -1      3082 9.61254E-03-1.94655E-03-7.24067E-15
 -1      3083 9.75065E-03-2.02651E-03-7.59287E-15
 -1      3084 9.49144E-03-1.87743E-03-6.93696E-15
 -1      3085 9.88974E-03-2.10672E-03-7.95322E-15
 -1      3086 1.00298E-02-2.18720E-03-8.32400E-15
 -1      3087 9.76337E-03-2.03505E-03-7.63861E-15
 -1      3088 1.01634E-02-2.26367E-03-8.68450E-15
 -1      3089 1.02975E-02-2.34017E-03-9.05244E-15
 -1      3090 1.00333E-02-2.19034E-03-8.35731E-15
 -1      3091 1.04391E-02-2.42059E-03-9.45008E-15
 -1      3092 1.05810E-02-2.50092E-03-9.85660E-15
 -1      3093 1.03064E-02-2.34618E-03-9.10970E-15
 -1      3094 1.07232E-02-2.58108E-03-1.02714E-14
 -1      3095 1.08656E-02-2.66108E-03-1.06910E-14
 -1      3096 1.05886E-02-2.50597E-03-9.91942E-15
 -1      3097 1.10081E-02-2.74088E-03-1.11199E-14
 -1      3098 1.11507E-02-2.82051E-03-1.15545E-14
 -1      3099 1.08721E-02-2.66536E-03-1.07608E-14
 -1      3100 1.12934E-02-2.89994E-03-1.19908E-14
 -1      3101 1.14362E-02-2.97919E-03-1.24345E-14
 -1      3102 1.11566E-02-2.82418E-03-1.16265E-14
 -1      3103 1.15790E-02-3.05827E-03-1.28815E-14
 -1      3104 1.17219E-02-3.13717E-03-1.33343E-14
 -1      3105 1.14415E-02-2.98238E-03-1.25121E-14
 -1      3106 1.18576E-02-3.21199E-03-1.37678E-14
 -1      3107 1.19933E-02-3.28667E-03-1.42061E-14
 -1      3108 1.17197E-02-3.13605E-03-1.33934E-14
 -1      3109 1.21362E-02-3.36516E-03-1.46744E-14
 -1      3110 1.22791E-02-3.44351E-03-1.51486E-14
 -1      3111 1.19981E-02-3.28920E-03-1.42946E-14
 -1      3112 1.24220E-02-3.52175E-03-1.56332E-14
 -1      3113 1.25649E-02-3.59988E-03-1.61271E-14
 -1      3114 1.22837E-02-3.44580E-03-1.52474E-14
 -1      3115 1.27078E-02-3.67792E-03-1.66276E-14
 -1      3116 1.28507E-02-3.75587E-03-1.71397E-14
 -1      3117 1.25693E-02-3.60199E-03-1.62337E-14
 -1      3118 1.29936E-02-3.83375E-03-1.76618E-14
 -1      3119 1.31365E-02-3.91155E-03-1.81899E-14
 -1      3120 1.28551E-02-3.75784E-03-1.72566E-14
 -1      3121 1.32793E-02-3.98930E-03-1.87272E-14
 -1      3122 1.34222E-02-4.06699E-03-1.92740E-14
 -1      3123 1.31408E-02-3.91341E-03-1.83166E-14
 -1      3124 1.35580E-02-4.14075E-03-1.98045E-14
 -1      3125 1.36937E-02-4.21448E-03-2.03443E-14
 -1      3126 1.34194E-02-4.06488E-03-1.93855E-14
 -1      3127 1.38366E-02-4.29205E-03-2.09165E-14
 -1      3128 1.39794E-02-4.36958E-03-2.14947E-14
 -1      3129 1.36980E-02-4.21619E-03-2.04871E-14
 -1      3130 1.41223E-02-4.44709E-03-2.20819E-14
 -1      3131 1.42652E-02-4.52458E-03-2.26746E-14
 -1      3132 1.39837E-02-4.37125E-03-2.16452E-14
 -1      3133 1.44080E-02-4.60205E-03-2.32715E-14
 -1      3134 1.45509E-02-4.67950E-03-2.38772E-14
 -1      3135 1.42695E-02-4.52621E-03-2.28278E-14
 -1      3136 1.46938E-02-4.75694E-03-2.44888E-14
 -1      3137 1.48366E-02-4.83437E-03-2.51005E-14
 -1      3138 1.45552E-02-4.68111E-03-2.40320E-14
 -1      3139 3.60335E-03-2.95473E-04-4.83703E-16
 -1      3140 3.75773E-03-2.16814E-04-4.44862E-16
 -1      3141 3.03245E-03 4.17947E-04 4.51340E-16
 -1      3142 2.88071E-03 4.08524E-04 4.43344E-16
 -1      3143 3.95193E-03 4.84089E-04 3.97685E-16
 -1      3144 3.79909E-03 4.73877E-04 4.22039E-16
 -1      3145 4.25434E-03 4.96790E-04 3.26860E-16
 -1      3146 4.10382E-03 4.92233E-04 3.66271E-16
 -1      3147 4.04169E-03 4.48071E-04 3.05135E-16
 -1      3148 4.55059E-03 4.90134E-04 2.22370E-16
 -1      3149 4.40322E-03 4.96686E-04 2.78884E-16
 -1      3150 4.34940E-03 4.61658E-04 2.21150E-16
 -1      3151 4.84095E-03 4.53173E-04 8.17488E-17
 -1      3152 4.69623E-03 4.76084E-04 1.56613E-16
 -1      3153 4.64988E-03 4.53019E-04 1.00749E-16
 -1      3154 5.12865E-03 3.78460E-04-9.59383E-17
 -1      3155 4.98469E-03 4.20749E-04-2.68340E-18
 -1      3156 4.94403E-03 4.09766E-04-5.50368E-17
 -1      3157 5.41829E-03 2.65560E-04-3.11735E-16
 -1      3158 5.27279E-03 3.26482E-04-1.99005E-16
 -1      3159 5.23627E-03 3.24666E-04-2.48174E-16
 -1      3160 5.71349E-03 1.21028E-04-5.65140E-16
 -1      3161 5.56500E-03 1.96525E-04-4.33776E-16
 -1      3162 5.53216E-03 1.99463E-04-4.79244E-16
 -1      3163 6.01493E-03-4.42299E-05-8.57821E-16
 -1      3164 5.86350E-03 4.01986E-05-7.06561E-16
 -1      3165 5.83501E-03 4.38789E-05-7.48818E-16
 -1      3166 6.32069E-03-2.19368E-04-1.19124E-15
 -1      3167 6.16749E-03-1.31192E-04-1.01855E-15
 -1      3168 6.14427E-03-1.28931E-04-1.05776E-15
 -1      3169 6.62781E-03-3.96291E-04-1.56670E-15
 -1      3170 6.47433E-03-3.07992E-04-1.37394E-15
 -1      3171 6.45675E-03-3.07583E-04-1.40731E-15
 -1      3172 6.93361E-03-5.70260E-04-1.98683E-15
 -1      3173 6.78107E-03-4.83807E-04-1.77107E-15
 -1      3174 6.76872E-03-4.84727E-04-1.79888E-15
 -1      3175 7.23647E-03-7.39342E-04-2.45093E-15
 -1      3176 7.08552E-03-6.55434E-04-2.21348E-15
 -1      3177 7.07742E-03-6.56913E-04-2.23404E-15
 -1      3178 7.53578E-03-9.03346E-04-2.96200E-15
 -1      3179 7.38661E-03-8.21931E-04-2.70014E-15
 -1      3180 7.38158E-03-8.23366E-04-2.71416E-15
 -1      3181 7.83169E-03-1.06296E-03-3.52118E-15
 -1      3182 7.68416E-03-9.83627E-04-3.23563E-15
 -1      3183 7.68106E-03-9.84688E-04-3.24166E-15
 -1      3184 8.12470E-03-1.21919E-03-4.12534E-15
 -1      3185 7.97854E-03-1.14142E-03-3.81733E-15
 -1      3186 7.97644E-03-1.14199E-03-3.81655E-15
 -1      3187 8.41545E-03-1.37305E-03-4.77493E-15
 -1      3188 8.27033E-03-1.29635E-03-4.44477E-15
 -1      3189 8.26858E-03-1.29645E-03-4.43632E-15
 -1      3190 8.70452E-03-1.52542E-03-5.46477E-15
 -1      3191 8.56016E-03-1.44938E-03-5.11441E-15
 -1      3192 8.55835E-03-1.44907E-03-5.09860E-15
 -1      3193 8.99243E-03-1.67699E-03-6.19550E-15
 -1      3194 8.84860E-03-1.60127E-03-5.82508E-15
 -1      3195 8.84647E-03-1.60066E-03-5.80323E-15
 -1      3196 9.27954E-03-1.82825E-03-6.96108E-15
 -1      3197 9.13607E-03-1.75263E-03-6.57418E-15
 -1      3198 9.13353E-03-1.75179E-03-6.54636E-15
 -1      3199 9.56614E-03-1.97954E-03-7.76586E-15
 -1      3200 9.42289E-03-1.90387E-03-7.35833E-15
 -1      3201 9.41992E-03-1.90287E-03-7.32557E-15
 -1      3202 9.85240E-03-2.13107E-03-8.60695E-15
 -1      3203 9.70930E-03-2.05527E-03-8.18129E-15
 -1      3204 9.70594E-03-2.05414E-03-8.14271E-15
 -1      3205 1.01385E-02-2.28297E-03-9.48381E-15
 -1      3206 9.99545E-03-2.20697E-03-9.04039E-15
 -1      3207 9.99175E-03-2.20576E-03-8.99567E-15
 -1      3208 1.04244E-02-2.43527E-03-1.03989E-14
 -1      3209 1.02814E-02-2.35907E-03-9.93854E-15
 -1      3210 1.02775E-02-2.35779E-03-9.88524E-15
 -1      3211 1.07102E-02-2.58797E-03-1.13535E-14
 -1      3212 1.05673E-02-2.51157E-03-1.08718E-14
 -1      3213 1.05631E-02-2.51024E-03-1.08127E-14
 -1      3214 1.09960E-02-2.74106E-03-1.23353E-14
 -1      3215 1.08531E-02-2.66447E-03-1.18404E-14
 -1      3216 1.08488E-02-2.66310E-03-1.17720E-14
 -1      3217 1.12818E-02-2.89449E-03-1.33470E-14
 -1      3218 1.11389E-02-2.81773E-03-1.28369E-14
 -1      3219 1.11345E-02-2.81633E-03-1.27618E-14
 -1      3220 1.15675E-02-3.04820E-03-1.43882E-14
 -1      3221 1.14247E-02-2.97131E-03-1.38646E-14
 -1      3222 1.14202E-02-2.96987E-03-1.37817E-14
 -1      3223 1.18533E-02-3.20216E-03-1.54556E-14
 -1      3224 1.17104E-02-3.12515E-03-1.49179E-14
 -1      3225 1.17059E-02-3.12369E-03-1.48289E-14
 -1      3226 1.21390E-02-3.35631E-03-1.65394E-14
 -1      3227 1.19961E-02-3.27921E-03-1.59959E-14
 -1      3228 1.19916E-02-3.27773E-03-1.59004E-14
 -1      3229 1.24247E-02-3.51062E-03-1.76428E-14
 -1      3230 1.22819E-02-3.43345E-03-1.70901E-14
 -1      3231 1.22773E-02-3.43194E-03-1.69911E-14
 -1      3232 1.27105E-02-3.66504E-03-1.87515E-14
 -1      3233 1.25676E-02-3.58781E-03-1.81952E-14
 -1      3234 1.25630E-02-3.58630E-03-1.80964E-14
 -1      3235 1.29962E-02-3.81954E-03-1.98664E-14
 -1      3236 1.28533E-02-3.74228E-03-1.93076E-14
 -1      3237 1.28488E-02-3.74075E-03-1.92088E-14
 -1      3238 1.32819E-02-3.97410E-03-2.09804E-14
 -1      3239 1.31390E-02-3.89682E-03-2.04238E-14
 -1      3240 1.31345E-02-3.89528E-03-2.03240E-14
 -1      3241 1.35103E-02-4.09805E-03-2.18437E-14
 -1      3242 1.33847E-02-4.02986E-03-2.13688E-14
 -1      3243 1.33801E-02-4.02832E-03-2.12716E-14
 -1      3244 1.35856E-02-4.13984E-03-2.20515E-14
 -1      3245 1.43637E-02-4.57190E-03-2.40679E-14
 -1      3246 1.42889E-02-4.53047E-03-2.38752E-14
 -1      3247 1.45159E-02-4.65619E-03-2.44566E-14
 -1      3248 1.44398E-02-4.61404E-03-2.42636E-14
 -1      3249 1.42787E-02-4.52631E-03-2.36530E-14
 -1      3250 1.42128E-02-4.48832E-03-2.36759E-14
 -1      3251 1.41367E-02-4.44618E-03-2.34772E-14
 -1      3252 1.41265E-02-4.44203E-03-2.32639E-14
 -1      3253 3.33821E-03 4.39125E-04 4.54660E-16
 -1      3254 3.18508E-03 4.28150E-04 4.55175E-16
 -1      3255 3.10467E-03 3.78384E-04 3.95110E-16
 -1      3256 8.07111E-03-1.11415E-03-3.22623E-15
 -1      3257 8.14773E-03-1.11147E-03-3.27044E-15
 -1      3258 8.20689E-03-1.13579E-03-3.45462E-15
 -1      3259 7.23139E-03-8.42322E-04-2.42478E-15
 -1      3260 7.43402E-03-9.27324E-04-2.58861E-15
 -1      3261 2.43041E-03 3.83886E-04 3.98417E-16
 -1      3262 2.28200E-03 3.76122E-04 3.78427E-16
 -1      3263 2.72971E-03 3.99841E-04 4.31933E-16
 -1      3264 2.57968E-03 3.91696E-04 4.16537E-16
 -1      3265 2.79762E-03 3.60851E-04 3.85610E-16
 -1      3266 5.09215E-03 2.74736E-04-6.36278E-16
 -1      3267 5.25613E-03 2.55521E-04-7.31538E-16
 -1      3268 4.43976E-03 1.12057E-04-4.17025E-16
 -1      3269 4.55466E-03 1.61307E-04-4.35226E-16
 -1      3270 6.76739E-03-6.03558E-04-2.02355E-15
 -1      3271 6.97235E-03-7.15850E-04-2.19991E-15
 -1      3272 1.46682E-02-4.74048E-03-2.48325E-14
 -1      3273 1.45921E-02-4.69833E-03-2.46462E-14
 -1      3274 1.44309E-02-4.61058E-03-2.40328E-14
 -1      3275 5.47608E-03 1.83643E-04-8.89940E-16
 -1      3276 5.63980E-03 1.02896E-04-1.03636E-15
 -1      3277 3.64554E-03 4.62438E-04 4.39075E-16
 -1      3278 3.49188E-03 4.50689E-04 4.49497E-16
 -1      3279 3.41580E-03 3.99965E-04 3.87263E-16
 -1      3280 3.72921E-03 4.24623E-04 3.59305E-16
 -1      3281 4.74177E-03 2.20170E-04-4.90236E-16
 -1      3282 4.91522E-03 2.62854E-04-5.52062E-16
 -1      3283 4.62346E-03 2.17186E-04-3.96086E-16
 -1      3284 8.38431E-03-1.24592E-03-4.20361E-15
 -1      3285 8.48485E-03-1.29936E-03-4.45954E-15
 -1      3286 8.52378E-03-1.31242E-03-4.48506E-15
 -1      3287 8.29585E-03-1.17899E-03-3.82759E-15
 -1      3288 1.00221E-03 5.13294E-05 4.51028E-17
 -1      3289 9.98576E-04 2.69162E-05 3.18484E-17
 -1      3290 3.06701E-03-4.29409E-04-7.23407E-16
 -1      3291 3.03163E-03-4.25118E-04-6.28058E-16
 -1      3292 3.01888E-03-4.05048E-04-5.75156E-16
 -1      3293 3.00790E-03-4.16487E-04-6.38195E-16
 -1      3294 1.25509E-03 3.15858E-04 2.04955E-16
 -1      3295 1.09251E-03 3.11148E-04 1.79341E-16
 -1      3296 1.15167E-03 1.86749E-04 1.26635E-16
 -1      3297 1.02556E-03 1.58699E-04 1.02294E-16
 -1      3298 1.01844E-03 1.30128E-04 8.73189E-17
 -1      3299 2.13426E-03 3.68086E-04 3.55713E-16
 -1      3300 1.98720E-03 3.59462E-04 3.31224E-16
 -1      3301 2.19681E-03 3.32570E-04 3.28676E-16
 -1      3302 1.31067E-03-2.65020E-04-1.32476E-16
 -1      3303 1.36649E-03-2.43927E-04-1.31094E-16
 -1      3304 1.20666E-03-2.54020E-04-1.15617E-16
 -1      3305 6.14642E-03-2.14523E-04-1.48243E-15
 -1      3306 6.26986E-03-2.95927E-04-1.58088E-15
 -1      3307 6.05753E-03-1.55946E-04-1.38950E-15
 -1      3308 3.47946E-03-3.04979E-04-4.57615E-16
 -1      3309 3.68809E-03-1.76485E-04-3.66718E-16
 -1      3310 3.85480E-03-1.45836E-04-3.98092E-16
 -1      3311 3.93676E-03-7.28224E-05-3.50360E-16
 -1      3312 1.49789E-02-4.91143E-03-2.57274E-14
 -1      3313 5.23320E-03 2.64827E-04-6.40181E-16
 -1      3314 5.35114E-03 2.30513E-04-7.62181E-16
 -1      3315 5.44197E-03 1.94395E-04-7.94734E-16
 -1      3316 4.97143E-03 2.82481E-04-5.28467E-16
 -1      3317 1.39743E-02-4.35776E-03-2.28680E-14
 -1      3318 1.40607E-02-4.40404E-03-2.32745E-14
 -1      3319 1.39846E-02-4.36189E-03-2.30703E-14
 -1      3320 5.74112E-03 4.25288E-05-1.10793E-15
 -1      3321 1.48404E-02-4.83560E-03-2.52617E-14
 -1      3322 7.60068E-03-9.92688E-04-2.78238E-15
 -1      3323 1.39086E-02-4.31975E-03-2.28644E-14
 -1      3324 1.38326E-02-4.27761E-03-2.26575E-14
 -1      3325 1.38222E-02-4.27349E-03-2.24662E-14
 -1      3326 3.19302E-03-3.96674E-04-5.33868E-16
 -1      3327 3.24018E-03-3.67569E-04-4.93759E-16
 -1      3328 3.09699E-03-3.89375E-04-5.25425E-16
 -1      3329 8.00516E-03-1.10833E-03-3.18566E-15
 -1      3330 8.10054E-03-1.13833E-03-3.36824E-15
 -1      3331 7.93075E-03-1.09771E-03-3.14292E-15
 -1      3332 7.13344E-03-7.96828E-04-2.36978E-15
 -1      3333 6.62589E-03-5.21548E-04-1.90666E-15
 -1      3334 6.74748E-03-5.90176E-04-2.02434E-15
 -1      3335 6.49693E-03-4.40020E-04-1.78990E-15
 -1      3336 4.28479E-03 7.11978E-05-3.66406E-16
 -1      3337 1.00673E-03-1.34959E-04-5.26516E-17
 -1      3338 1.01399E-03-1.59843E-04-6.34800E-17
 -1      3339 1.37749E-02-4.24555E-03-2.25096E-14
 -1      3340 1.37173E-02-4.21349E-03-2.23617E-14
 -1      3341 1.36886E-02-4.19930E-03-2.21164E-14
 -1      3342 9.97213E-04-8.78143E-05-2.99104E-17
 -1      3343 1.00112E-03-1.11040E-04-4.14301E-17
 -1      3344 1.12071E-03-1.33598E-04-5.72594E-17
 -1      3345 1.84067E-03 3.49843E-04 3.05460E-16
 -1      3346 1.69463E-03 3.38917E-04 2.78667E-16
 -1      3347 1.90191E-03 3.17134E-04 2.86853E-16
 -1      3348 2.49513E-03 3.46284E-04 3.62950E-16
 -1      3349 1.03210E-03-2.34828E-04-9.08155E-17
 -1      3350 9.95909E-04 3.30753E-06 1.87025E-17
 -1      3351 9.94325E-04-1.97536E-05 5.94956E-18
 -1      3352 1.11432E-03 1.50876E-05 2.74710E-17
 -1      3353 1.47637E-02-4.79339E-03-2.50476E-14
 -1      3354 1.01215E-03 1.02747E-04 7.30075E-17
 -1      3355 1.00678E-03 7.65717E-05 5.87367E-17
 -1      3356 1.12297E-03 6.80746E-05 5.88993E-17
 -1      3357 1.13548E-03 1.25053E-04 9.19268E-17
 -1      3358 1.53338E-03 3.26732E-04 2.49177E-16
 -1      3359 1.37914E-03 3.14179E-04 2.21015E-16
 -1      3360 1.46026E-02-4.70563E-03-2.44334E-14
 -1      3361 1.59402E-03 2.97955E-04 2.38131E-16
 -1      3362 1.30884E-03 2.89380E-04 1.98301E-16
 -1      3363 4.75175E-03 4.16979E-04-2.39202E-17
 -1      3364 4.60036E-03 4.26558E-04 4.82334E-17
 -1      3365 4.44711E-03 4.27473E-04 1.10833E-16
 -1      3366 4.29148E-03 4.22173E-04 1.64202E-16
 -1      3367 4.54659E-03 3.95051E-04-2.07354E-18
 -1      3368 1.52410E-03-2.30805E-04-1.44592E-16
 -1      3369 1.66030E-03-2.40821E-04-1.69786E-16
 -1      3370 1.79509E-03-2.50030E-04-1.96932E-16
 -1      3371 1.92819E-03-2.58535E-04-2.26544E-16
 -1      3372 1.71467E-03-2.19373E-04-1.62657E-16
 -1      3373 2.05903E-03-2.67161E-04-2.58745E-16
 -1      3374 2.18721E-03-2.75918E-04-2.93914E-16
 -1      3375 1.97891E-03-2.37913E-04-2.17342E-16
 -1      3376 2.31209E-03-2.85895E-04-3.31468E-16
 -1      3377 2.43305E-03-2.96878E-04-3.71353E-16
 -1      3378 2.23342E-03-2.58194E-04-2.82001E-16
 -1      3379 2.54366E-03-3.09612E-04-4.12309E-16
 -1      3380 2.64928E-03-3.23980E-04-4.55650E-16
 -1      3381 2.46794E-03-2.83327E-04-3.55835E-16
 -1      3382 2.75419E-03-3.42894E-04-5.04310E-16
 -1      3383 2.85130E-03-3.64254E-04-5.55999E-16
 -1      3384 2.68355E-03-3.17643E-04-4.39752E-16
 -1      3385 8.86862E-03-1.51813E-03-5.36139E-15
 -1      3386 8.98900E-03-1.58857E-03-5.66820E-15
 -1      3387 9.11320E-03-1.66082E-03-5.98270E-15
 -1      3388 9.24072E-03-1.73519E-03-6.30489E-15
 -1      3389 8.99846E-03-1.60149E-03-5.69649E-15
 -1      3390 9.37090E-03-1.81076E-03-6.63704E-15
 -1      3391 9.50341E-03-1.88765E-03-6.97764E-15
 -1      3392 9.25020E-03-1.74648E-03-6.33902E-15
 -1      3393 9.63775E-03-1.96526E-03-7.32563E-15
 -1      3394 9.77371E-03-2.04363E-03-7.68335E-15
 -1      3395 9.51242E-03-1.89733E-03-7.01616E-15
 -1      3396 9.90402E-03-2.11842E-03-8.03136E-15
 -1      3397 1.00353E-02-2.19357E-03-8.38885E-15
 -1      3398 9.77519E-03-2.04794E-03-7.70967E-15
 -1      3399 1.01744E-02-2.27282E-03-8.77303E-15
 -1      3400 1.03142E-02-2.35222E-03-9.16621E-15
 -1      3401 1.00429E-02-2.20054E-03-8.43862E-15
 -1      3402 1.04546E-02-2.43163E-03-9.57103E-15
 -1      3403 1.05954E-02-2.51105E-03-9.98148E-15
 -1      3404 1.03210E-02-2.35809E-03-9.22251E-15
 -1      3405 1.07367E-02-2.59039E-03-1.04014E-14
 -1      3406 1.08783E-02-2.66966E-03-1.08290E-14
 -1      3407 1.06017E-02-2.51601E-03-1.00446E-14
 -1      3408 1.10201E-02-2.74882E-03-1.12618E-14
 -1      3409 1.11622E-02-2.82786E-03-1.16988E-14
 -1      3410 1.08840E-02-2.67388E-03-1.08972E-14
 -1      3411 1.13044E-02-2.90678E-03-1.21425E-14
 -1      3412 1.14467E-02-2.98558E-03-1.25913E-14
 -1      3413 1.11675E-02-2.83149E-03-1.17746E-14
 -1      3414 1.15820E-02-3.06032E-03-1.30205E-14
 -1      3415 1.17175E-02-3.13495E-03-1.34544E-14
 -1      3416 1.14446E-02-2.98481E-03-1.26473E-14
 -1      3417 1.18601E-02-3.21339E-03-1.39182E-14
 -1      3418 1.20027E-02-3.29172E-03-1.43890E-14
 -1      3419 1.17223E-02-3.13774E-03-1.35414E-14
 -1      3420 1.21455E-02-3.36995E-03-1.48638E-14
 -1      3421 1.22882E-02-3.44808E-03-1.53498E-14
 -1      3422 1.20074E-02-3.29421E-03-1.44827E-14
 -1      3423 1.24310E-02-3.52612E-03-1.58436E-14
 -1      3424 1.25738E-02-3.60408E-03-1.63452E-14
 -1      3425 1.22927E-02-3.45034E-03-1.54533E-14
 -1      3426 1.27166E-02-3.68197E-03-1.68562E-14
 -1      3427 1.28594E-02-3.75979E-03-1.73785E-14
 -1      3428 1.25782E-02-3.60616E-03-1.64598E-14
 -1      3429 1.30023E-02-3.83755E-03-1.79072E-14
 -1      3430 1.31451E-02-3.91525E-03-1.84455E-14
 -1      3431 1.28638E-02-3.76172E-03-1.74985E-14
 -1      3432 1.32809E-02-3.98903E-03-1.89667E-14
 -1      3433 1.34166E-02-4.06276E-03-1.94972E-14
 -1      3434 1.31424E-02-3.91320E-03-1.85502E-14
 -1      3435 1.35595E-02-4.14034E-03-2.00606E-14
 -1      3436 1.37023E-02-4.21789E-03-2.06313E-14
 -1      3437 1.34209E-02-4.06452E-03-1.96351E-14
 -1      3438 1.38452E-02-4.29541E-03-2.12109E-14
 -1      3439 1.39881E-02-4.37291E-03-2.17945E-14
 -1      3440 1.37067E-02-4.21958E-03-2.07755E-14
 -1      3441 1.41309E-02-4.45038E-03-2.23847E-14
 -1      3442 1.42738E-02-4.52784E-03-2.29781E-14
 -1      3443 1.39924E-02-4.37456E-03-2.19419E-14
 -1      3444 1.43668E-02-4.57803E-03-2.34006E-14
 -1      3445 1.45096E-02-4.65546E-03-2.40047E-14
 -1      3446 1.44141E-02-4.60256E-03-2.37935E-14
 -1      3447 1.42282E-02-4.50220E-03-2.29499E-14
 -1      3448 4.13383E-03 4.12083E-04 2.09278E-16
 -1      3449 3.97481E-03 3.99657E-04 2.46588E-16
 -1      3450 4.22784E-03 3.77137E-04 1.10168E-16
 -1      3451 5.04953E-03 3.66205E-04-1.95333E-16
 -1      3452 4.90092E-03 3.97327E-04-1.05059E-16
 -1      3453 4.85515E-03 3.81831E-04-1.52249E-16
 -1      3454 5.34646E-03 2.68832E-04-4.04204E-16
 -1      3455 5.19728E-03 3.23335E-04-2.94700E-16
 -1      3456 5.15677E-03 3.21455E-04-3.38773E-16
 -1      3457 5.64939E-03 1.29566E-04-6.50982E-16
 -1      3458 5.49677E-03 2.03530E-04-5.22504E-16
 -1      3459 5.45988E-03 2.08995E-04-5.63744E-16
 -1      3460 5.96074E-03-3.76615E-05-9.37239E-16
 -1      3461 5.80406E-03 4.82604E-05-7.89069E-16
 -1      3462 5.77148E-03 5.42434E-05-8.26799E-16
 -1      3463 6.27820E-03-2.17361E-04-1.26154E-15
 -1      3464 6.11905E-03-1.26879E-04-1.09412E-15
 -1      3465 6.09229E-03-1.24207E-04-1.12933E-15
 -1      3466 6.59709E-03-3.98302E-04-1.62736E-15
 -1      3467 6.43787E-03-3.08233E-04-1.43929E-15
 -1      3468 6.41792E-03-3.09351E-04-1.47111E-15
 -1      3469 6.91311E-03-5.74378E-04-2.03463E-15
 -1      3470 6.75576E-03-4.87120E-04-1.82634E-15
 -1      3471 6.74232E-03-4.90788E-04-1.85197E-15
 -1      3472 7.22374E-03-7.43805E-04-2.48537E-15
 -1      3473 7.06924E-03-6.59893E-04-2.25438E-15
 -1      3474 7.06112E-03-6.64406E-04-2.27455E-15
 -1      3475 7.52828E-03-9.07049E-04-2.98158E-15
 -1      3476 7.37681E-03-8.26094E-04-2.72785E-15
 -1      3477 7.37244E-03-8.30227E-04-2.74043E-15
 -1      3478 7.82721E-03-1.06542E-03-3.52482E-15
 -1      3479 7.67842E-03-9.86720E-04-3.24624E-15
 -1      3480 7.67636E-03-9.89859E-04-3.25219E-15
 -1      3481 8.12157E-03-1.22035E-03-4.11571E-15
 -1      3482 7.97490E-03-1.14321E-03-3.81501E-15
 -1      3483 7.97401E-03-1.14519E-03-3.81303E-15
 -1      3484 8.41253E-03-1.37309E-03-4.75234E-15
 -1      3485 8.26741E-03-1.29692E-03-4.42883E-15
 -1      3486 8.26688E-03-1.29784E-03-4.42009E-15
 -1      3487 8.70115E-03-1.52458E-03-5.42642E-15
 -1      3488 8.55708E-03-1.44894E-03-5.08346E-15
 -1      3489 8.55640E-03-1.44901E-03-5.06898E-15
 -1      3490 8.98824E-03-1.67550E-03-6.14462E-15
 -1      3491 8.84484E-03-1.60007E-03-5.78168E-15
 -1      3492 8.84373E-03-1.59953E-03-5.75789E-15
 -1      3493 9.27443E-03-1.82630E-03-6.90172E-15
 -1      3494 9.13142E-03-1.75089E-03-6.51889E-15
 -1      3495 9.12976E-03-1.74993E-03-6.49044E-15
 -1      3496 9.56013E-03-1.97728E-03-7.69315E-15
 -1      3497 9.41732E-03-1.90176E-03-7.29165E-15
 -1      3498 9.41509E-03-1.90054E-03-7.25883E-15
 -1      3499 9.84559E-03-2.12861E-03-8.52290E-15
 -1      3500 9.70287E-03-2.05290E-03-8.10342E-15
 -1      3501 9.70012E-03-2.05152E-03-8.06251E-15
 -1      3502 1.01310E-02-2.28036E-03-9.38618E-15
 -1      3503 9.98829E-03-2.20443E-03-8.95016E-15
 -1      3504 9.98508E-03-2.20297E-03-8.90336E-15
 -1      3505 1.04164E-02-2.43256E-03-1.02880E-14
 -1      3506 1.02737E-02-2.35640E-03-9.83290E-15
 -1      3507 1.02701E-02-2.35490E-03-9.78051E-15
 -1      3508 1.07018E-02-2.58519E-03-1.12244E-14
 -1      3509 1.05591E-02-2.50882E-03-1.07517E-14
 -1      3510 1.05552E-02-2.50730E-03-1.06912E-14
 -1      3511 1.09874E-02-2.73821E-03-1.21929E-14
 -1      3512 1.08446E-02-2.66165E-03-1.17055E-14
 -1      3513 1.08405E-02-2.66012E-03-1.16371E-14
 -1      3514 1.12729E-02-2.89159E-03-1.31893E-14
 -1      3515 1.11301E-02-2.81486E-03-1.26876E-14
 -1      3516 1.11259E-02-2.81333E-03-1.26135E-14
 -1      3517 1.15586E-02-3.04526E-03-1.42162E-14
 -1      3518 1.14157E-02-2.96839E-03-1.36995E-14
 -1      3519 1.14114E-02-2.96686E-03-1.36176E-14
 -1      3520 1.18442E-02-3.19918E-03-1.52706E-14
 -1      3521 1.17014E-02-3.12219E-03-1.47404E-14
 -1      3522 1.16969E-02-3.12066E-03-1.46515E-14
 -1      3523 1.21299E-02-3.35330E-03-1.63466E-14
 -1      3524 1.19871E-02-3.27622E-03-1.58065E-14
 -1      3525 1.19826E-02-3.27469E-03-1.57122E-14
 -1      3526 1.24156E-02-3.50758E-03-1.74424E-14
 -1      3527 1.22728E-02-3.43043E-03-1.68916E-14
 -1      3528 1.22683E-02-3.42889E-03-1.67937E-14
 -1      3529 1.27014E-02-3.66199E-03-1.85492E-14
 -1      3530 1.25585E-02-3.58477E-03-1.79945E-14
 -1      3531 1.25540E-02-3.58323E-03-1.78924E-14
 -1      3532 1.29871E-02-3.81648E-03-1.96653E-14
 -1      3533 1.28442E-02-3.73922E-03-1.91058E-14
 -1      3534 1.28397E-02-3.73768E-03-1.90035E-14
 -1      3535 1.32728E-02-3.97103E-03-2.07848E-14
 -1      3536 1.31299E-02-3.89375E-03-2.02244E-14
 -1      3537 1.31254E-02-3.89221E-03-2.01236E-14
 -1      3538 1.41930E-02-4.48035E-03-2.32355E-14
 -1      3539 1.41169E-02-4.43822E-03-2.30461E-14
 -1      3540 1.40408E-02-4.39609E-03-2.28509E-14
 -1      3541 1.39647E-02-4.35396E-03-2.26579E-14
 -1      3542 1.39551E-02-4.35014E-03-2.24420E-14
 -1      3543 4.49081E-03 2.22943E-04-2.86473E-16
 -1      3544 4.66053E-03 2.66751E-04-3.34761E-16
 -1      3545 5.70274E-03 6.39678E-05-1.02891E-15
 -1      3546 5.88334E-03-4.49976E-05-1.21803E-15
 -1      3547 8.64264E-03-1.38600E-03-4.77575E-15
 -1      3548 8.75292E-03-1.45088E-03-5.06469E-15
 -1      3549 8.76146E-03-1.46523E-03-5.08996E-15
 -1      3550 7.56073E-03-9.86543E-04-2.82250E-15
 -1      3551 7.76313E-03-1.05566E-03-3.00777E-15
 -1      3552 1.65745E-03 2.67291E-04 2.23847E-16
 -1      3553 1.49665E-03 2.57493E-04 2.00726E-16
 -1      3554 1.29645E-03 2.52455E-04 1.76413E-16
 -1      3555 1.19388E-03-1.95583E-04-9.13576E-17
 -1      3556 1.08002E-03-1.96162E-04-8.21283E-17
 -1      3557 3.33431E-03-3.12187E-04-4.30903E-16
 -1      3558 3.43893E-03-2.58177E-04-3.87033E-16
 -1      3559 2.86605E-03 3.20116E-04 3.36726E-16
 -1      3560 2.71249E-03 3.13253E-04 3.31779E-16
 -1      3561 1.09066E-03-2.18113E-04-9.11272E-17
 -1      3562 2.56028E-03 3.07146E-04 3.23634E-16
 -1      3563 2.40947E-03 3.01396E-04 3.12291E-16
 -1      3564 2.62566E-03 2.66400E-04 2.80876E-16
 -1      3565 9.93931E-04-4.25178E-05-6.23416E-18
 -1      3566 9.94839E-04-6.51110E-05-1.81875E-17
 -1      3567 1.11202E-03-8.39498E-05-3.03983E-17
 -1      3568 3.17769E-03 3.37016E-04 3.35276E-16
 -1      3569 3.02120E-03 3.27928E-04 3.38420E-16
 -1      3570 2.93482E-03 2.77603E-04 2.84359E-16
 -1      3571 8.45201E-03-1.27355E-03-4.24946E-15
 -1      3572 8.54400E-03-1.32845E-03-4.50880E-15
 -1      3573 8.55034E-03-1.34393E-03-4.53055E-15
 -1      3574 4.10122E-03 3.70791E-05-2.99335E-16
 -1      3575 4.25904E-03 1.26016E-04-2.76797E-16
 -1      3576 1.43416E-02-4.56252E-03-2.36105E-14
 -1      3577 1.42655E-02-4.52039E-03-2.34252E-14
 -1      3578 1.41037E-02-4.43229E-03-2.28210E-14
 -1      3579 1.42487E-02-4.51235E-03-2.31888E-14
 -1      3580 4.83431E-03 2.93148E-04-4.01982E-16
 -1      3581 4.99900E-03 3.00627E-04-4.78743E-16
 -1      3582 4.69773E-03 3.04508E-04-2.81730E-16
 -1      3583 1.36803E-02-4.19270E-03-2.22847E-14
 -1      3584 1.36226E-02-4.16064E-03-2.21318E-14
 -1      3585 1.35199E-02-4.10488E-03-2.17410E-14
 -1      3586 1.35939E-02-4.14646E-03-2.18951E-14
 -1      3587 7.04507E-03-7.52141E-04-2.31999E-15
 -1      3588 7.28135E-03-8.67941E-04-2.55189E-15
 -1      3589 1.39058E-03 2.37309E-04 1.77226E-16
 -1      3590 1.25550E-03 2.06837E-04 1.46720E-16
 -1      3591 1.24592E-03 1.73325E-04 1.26703E-16
 -1      3592 1.45473E-03 2.09842E-04 1.66086E-16
 -1      3593 5.09311E-03 2.98178E-04-4.97513E-16
 -1      3594 2.25982E-03 2.95750E-04 2.98522E-16
 -1      3595 2.11129E-03 2.89816E-04 2.82977E-16
 -1      3596 2.32307E-03 2.57548E-04 2.65155E-16
 -1      3597 6.00210E-03-1.19697E-04-1.30659E-15
 -1      3598 1.42275E-03-2.23176E-04-1.27909E-16
 -1      3599 1.47971E-03-2.02613E-04-1.22799E-16
 -1      3600 1.32096E-03-2.14705E-04-1.12228E-16
 -1      3601 2.88786E-03-3.67301E-04-5.35237E-16
 -1      3602 2.94513E-03-3.92854E-04-6.08156E-16
 -1      3603 7.89005E-03-1.09859E-03-3.18907E-15
 -1      3604 8.24123E-03-1.17005E-03-3.61764E-15
 -1      3605 8.27101E-03-1.16262E-03-3.66239E-15
 -1      3606 3.52497E-03-2.01947E-04-3.42960E-16
 -1      3607 3.60503E-03-1.40196E-04-2.96990E-16
 -1      3608 3.37134E-03-2.15335E-04-3.20856E-16
 -1      3609 3.90188E-03 3.46900E-04 1.90427E-16
 -1      3610 3.81477E-03 3.85875E-04 2.76472E-16
 -1      3611 3.65465E-03 3.72235E-04 2.99660E-16
 -1      3612 3.93682E-03-4.33179E-06-2.68205E-16
 -1      3613 6.30059E-03-3.10806E-04-1.58880E-15
 -1      3614 6.39373E-03-3.73919E-04-1.68893E-15
 -1      3615 6.51632E-03-4.46271E-04-1.80032E-15
 -1      3616 2.95264E-03-3.72954E-04-5.19658E-16
 -1      3617 3.00174E-03-3.74684E-04-5.08653E-16
 -1      3618 1.38886E-02-4.31184E-03-2.24645E-14
 -1      3619 1.38126E-02-4.26971E-03-2.22687E-14
 -1      3620 1.38029E-02-4.26590E-03-2.20580E-14
 -1      3621 1.34171E-02-4.04912E-03-2.13512E-14
 -1      3622 1.37365E-02-4.22758E-03-2.20704E-14
 -1      3623 1.36605E-02-4.18546E-03-2.18694E-14
 -1      3624 1.36508E-02-4.18167E-03-2.16719E-14
 -1      3625 3.02421E-03-3.56690E-04-4.71181E-16
 -1      3626 1.34126E-02-4.04758E-03-2.12511E-14
 -1      3627 4.31681E-03 1.96171E-04-2.14442E-16
 -1      3628 4.35871E-03 2.57111E-04-1.50677E-16
 -1      3629 4.14199E-03 1.71309E-04-1.51571E-16
 -1      3630 7.46590E-03-9.50276E-04-2.77235E-15
 -1      3631 7.63909E-03-1.02109E-03-3.00020E-15
 -1      3632 7.38231E-03-9.10957E-04-2.72036E-15
 -1      3633 5.44423E-03 1.95753E-04-7.35672E-16
 -1      3634 5.56564E-03 1.37617E-04-8.70316E-16
 -1      3635 1.24573E-03 8.62976E-05 7.45931E-17
 -1      3636 1.23959E-03 5.68318E-05 5.59313E-17
 -1      3637 3.21067E-03-3.21255E-04-4.25678E-16
 -1      3638 1.36028E-02-4.15341E-03-2.17247E-14
 -1      3639 1.35452E-02-4.12137E-03-2.15812E-14
 -1      3640 1.35171E-02-4.10752E-03-2.13339E-14
 -1      3641 1.25320E-03-1.77489E-04-8.79288E-17
 -1      3642 1.96371E-03 2.83296E-04 2.65169E-16
 -1      3643 1.81699E-03 2.75847E-04 2.45653E-16
 -1      3644 2.02583E-03 2.48258E-04 2.40191E-16
 -1      3645 1.71916E-03 2.36296E-04 2.07056E-16
 -1      3646 1.23447E-03 2.84097E-05 3.81097E-17
 -1      3647 1.23057E-03 8.55119E-07 2.04372E-17
 -1      3648 1.35644E-03 4.31602E-05 5.00901E-17
 -1      3649 5.69663E-03 6.79305E-05-9.69534E-16
 -1      3650 2.99252E-03-4.07774E-04-6.59717E-16
 -1      3651 8.15721E-03-1.16760E-03-3.53556E-15
 -1      3652 8.20484E-03-1.16985E-03-3.57703E-15
 -1      3653 8.29331E-03-1.20015E-03-3.78986E-15
 -1      3654 1.11030E-03-3.50806E-05-2.15485E-18
 -1      3655 1.23840E-03-1.23596E-04-5.73272E-17
 -1      3656 1.24464E-03-1.50190E-04-7.27635E-17
 -1      3657 1.36900E-03-1.66571E-04-9.08561E-17
 -1      3658 3.33568E-03 3.47434E-04 3.27985E-16
 -1      3659 3.25133E-03 2.93941E-04 2.72528E-16
 -1      3660 3.49465E-03 3.59226E-04 3.16695E-16
 -1      3661 8.37631E-03-1.22735E-03-4.02745E-15
 -1      3662 8.38315E-03-1.24279E-03-4.04670E-15
 -1      3663 6.78467E-03-6.04332E-04-2.06990E-15
 -1      3664 6.91121E-03-6.79227E-04-2.19375E-15
 -1      3665 7.06870E-03-7.57799E-04-2.36984E-15
 -1      3666 5.31614E-03 2.53661E-04-5.60139E-16
 -1      3667 5.16095E-03 3.00786E-04-4.50445E-16
 -1      3668 4.93980E-03 3.43461E-04-2.97058E-16
 -1      3669 4.78276E-03 3.54141E-04-2.11297E-16
 -1      3670 5.96807E-03-9.38006E-05-1.23610E-15
 -1      3671 6.13390E-03-2.01658E-04-1.41372E-15
 -1      3672 2.84615E-03-3.42267E-04-4.73566E-16
 -1      3673 7.90551E-03-1.11717E-03-3.31069E-15
 -1      3674 8.04871E-03-1.15368E-03-3.45215E-15
 -1      3675 1.90271E-03-2.08260E-04-1.78622E-16
 -1      3676 2.03248E-03-2.18300E-04-2.05931E-16
 -1      3677 2.15983E-03-2.29467E-04-2.35719E-16
 -1      3678 2.28410E-03-2.41727E-04-2.68137E-16
 -1      3679 2.08963E-03-1.99423E-04-1.91985E-16
 -1      3680 2.39904E-03-2.55400E-04-3.01300E-16
 -1      3681 2.51004E-03-2.70727E-04-3.37458E-16
 -1      3682 2.33419E-03-2.25365E-04-2.49760E-16
 -1      3683 2.62256E-03-2.90023E-04-3.78088E-16
 -1      3684 2.72906E-03-3.11939E-04-4.21409E-16
 -1      3685 2.56649E-03-2.59445E-04-3.18403E-16
 -1      3686 8.25938E-03-1.15111E-03-3.63603E-15
 -1      3687 9.12794E-03-1.68419E-03-6.04252E-15
 -1      3688 9.25599E-03-1.75701E-03-6.37141E-15
 -1      3689 9.38642E-03-1.83108E-03-6.70873E-15
 -1      3690 9.51883E-03-1.90646E-03-7.05402E-15
 -1      3691 9.25915E-03-1.76635E-03-6.40196E-15
 -1      3692 9.64620E-03-1.97883E-03-7.39037E-15
 -1      3693 9.77488E-03-2.05193E-03-7.73460E-15
 -1      3694 9.51662E-03-1.91099E-03-7.07263E-15
 -1      3695 9.91152E-03-2.12935E-03-8.10640E-15
 -1      3696 1.00492E-02-2.20725E-03-8.48818E-15
 -1      3697 9.77993E-03-2.05920E-03-7.77672E-15
 -1      3698 1.01877E-02-2.28539E-03-8.87916E-15
 -1      3699 1.03270E-02-2.36378E-03-9.27935E-15
 -1      3700 1.00545E-02-2.21352E-03-8.53702E-15
 -1      3701 1.04669E-02-2.44227E-03-9.68876E-15
 -1      3702 1.06073E-02-2.52085E-03-1.01075E-14
 -1      3703 1.03323E-02-2.36917E-03-9.33433E-15
 -1      3704 1.07481E-02-2.59943E-03-1.05320E-14
 -1      3705 1.08893E-02-2.67802E-03-1.09652E-14
 -1      3706 1.06124E-02-2.52547E-03-1.01689E-14
 -1      3707 1.10308E-02-2.75656E-03-1.14043E-14
 -1      3708 1.11725E-02-2.83506E-03-1.18470E-14
 -1      3709 1.08943E-02-2.68200E-03-1.10338E-14
 -1      3710 1.13074E-02-2.90956E-03-1.22729E-14
 -1      3711 1.14423E-02-2.98400E-03-1.27036E-14
 -1      3712 1.11702E-02-2.83459E-03-1.18981E-14
 -1      3713 1.15846E-02-3.06228E-03-1.31610E-14
 -1      3714 1.17269E-02-3.14049E-03-1.36269E-14
 -1      3715 1.14470E-02-2.98704E-03-1.27827E-14
 -1      3716 1.18694E-02-3.21862E-03-1.40986E-14
 -1      3717 1.20119E-02-3.29667E-03-1.45767E-14
 -1      3718 1.17315E-02-3.14318E-03-1.37135E-14
 -1      3719 1.21545E-02-3.37465E-03-1.50639E-14
 -1      3720 1.22972E-02-3.45257E-03-1.55585E-14
 -1      3721 1.20164E-02-3.29908E-03-1.46733E-14
 -1      3722 1.24399E-02-3.53042E-03-1.60624E-14
 -1      3723 1.25827E-02-3.60821E-03-1.65738E-14
 -1      3724 1.23017E-02-3.45476E-03-1.56658E-14
 -1      3725 1.27254E-02-3.68595E-03-1.70962E-14
 -1      3726 1.28682E-02-3.76364E-03-1.76250E-14
 -1      3727 1.25871E-02-3.61023E-03-1.66917E-14
 -1      3728 1.30039E-02-3.83740E-03-1.81354E-14
 -1      3729 1.31396E-02-3.91113E-03-1.86572E-14
 -1      3730 1.28655E-02-3.76165E-03-1.77246E-14
 -1      3731 1.32824E-02-3.98871E-03-1.92101E-14
 -1      3732 1.34253E-02-4.06625E-03-1.97726E-14
 -1      3733 1.31440E-02-3.91293E-03-1.87885E-14
 -1      3734 1.35682E-02-4.14377E-03-2.03413E-14
 -1      3735 1.37110E-02-4.22127E-03-2.09171E-14
 -1      3736 1.34297E-02-4.06798E-03-1.99089E-14
 -1      3737 1.38539E-02-4.29874E-03-2.14972E-14
 -1      3738 1.39968E-02-4.37620E-03-2.20823E-14
 -1      3739 1.37154E-02-4.22294E-03-2.10542E-14
 -1      3740 1.40762E-02-4.41919E-03-2.24254E-14
 -1      3741 1.41692E-02-4.46937E-03-2.28408E-14
 -1      3742 1.40967E-02-4.42934E-03-2.26613E-14
 -1      3743 1.39377E-02-4.34338E-03-2.19747E-14
 -1      3744 1.38694E-02-4.30418E-03-2.20329E-14
 -1      3745 1.37933E-02-4.26207E-03-2.18422E-14
 -1      3746 1.78492E-03 2.03757E-04 1.86944E-16
 -1      3747 1.62633E-03 1.98186E-04 1.71548E-16
 -1      3748 2.96654E-03-3.23749E-04-4.17892E-16
 -1      3749 3.07686E-03-3.32824E-04-4.31241E-16
 -1      3750 5.59022E-03 1.36625E-04-7.52518E-16
 -1      3751 5.43259E-03 2.09396E-04-6.25273E-16
 -1      3752 6.23022E-03-2.16224E-04-1.32552E-15
 -1      3753 6.06387E-03-1.21003E-04-1.16171E-15
 -1      3754 6.56381E-03-4.04855E-04-1.68329E-15
 -1      3755 6.39754E-03-3.11433E-04-1.49994E-15
 -1      3756 6.37682E-03-3.13502E-04-1.52656E-15
 -1      3757 6.89255E-03-5.84786E-04-2.08083E-15
 -1      3758 6.72926E-03-4.96154E-04-1.87751E-15
 -1      3759 6.71680E-03-5.02873E-04-1.90137E-15
 -1      3760 7.21264E-03-7.54451E-04-2.51792E-15
 -1      3761 7.05388E-03-6.70746E-04-2.29353E-15
 -1      3762 7.04776E-03-6.78959E-04-2.31297E-15
 -1      3763 7.52331E-03-9.15867E-04-3.00071E-15
 -1      3764 7.36918E-03-8.35979E-04-2.75406E-15
 -1      3765 7.36726E-03-8.43475E-04-2.76739E-15
 -1      3766 7.82557E-03-1.07158E-03-3.52883E-15
 -1      3767 7.67541E-03-9.94226E-04-3.25930E-15
 -1      3768 7.67579E-03-9.99979E-04-3.26605E-15
 -1      3769 8.12124E-03-1.22387E-03-4.10535E-15
 -1      3770 7.97412E-03-1.14800E-03-3.81096E-15
 -1      3771 7.97539E-03-1.15175E-03-3.81036E-15
 -1      3772 8.41219E-03-1.37438E-03-4.72745E-15
 -1      3773 8.26719E-03-1.29925E-03-4.41002E-15
 -1      3774 8.26849E-03-1.30122E-03-4.40209E-15
 -1      3775 8.70003E-03-1.52419E-03-5.38962E-15
 -1      3776 8.55641E-03-1.44931E-03-5.05485E-15
 -1      3777 8.55721E-03-1.44989E-03-5.03798E-15
 -1      3778 8.98599E-03-1.67394E-03-6.09376E-15
 -1      3779 8.84318E-03-1.59904E-03-5.73608E-15
 -1      3780 8.84325E-03-1.59861E-03-5.71492E-15
 -1      3781 9.27094E-03-1.82399E-03-6.83779E-15
 -1      3782 9.12855E-03-1.74891E-03-6.46064E-15
 -1      3783 9.12782E-03-1.74782E-03-6.43181E-15
 -1      3784 9.55545E-03-1.97452E-03-7.61807E-15
 -1      3785 9.41322E-03-1.89919E-03-7.22348E-15
 -1      3786 9.41173E-03-1.89770E-03-7.18787E-15
 -1      3787 9.83986E-03-2.12560E-03-8.43627E-15
 -1      3788 9.69765E-03-2.04999E-03-8.02280E-15
 -1      3789 9.69547E-03-2.04829E-03-7.98148E-15
 -1      3790 1.01244E-02-2.27723E-03-9.28753E-15
 -1      3791 9.98209E-03-2.20135E-03-8.85770E-15
 -1      3792 9.97934E-03-2.19956E-03-8.81017E-15
 -1      3793 1.04091E-02-2.42939E-03-1.01761E-14
 -1      3794 1.02667E-02-2.35325E-03-9.72783E-15
 -1      3795 1.02635E-02-2.35144E-03-9.67503E-15
 -1      3796 1.06940E-02-2.58202E-03-1.10951E-14
 -1      3797 1.05515E-02-2.50565E-03-1.06310E-14
 -1      3798 1.05479E-02-2.50386E-03-1.05718E-14
 -1      3799 1.09791E-02-2.73506E-03-1.20528E-14
 -1      3800 1.08365E-02-2.65849E-03-1.15696E-14
 -1      3801 1.08326E-02-2.65674E-03-1.15015E-14
 -1      3802 1.12644E-02-2.88845E-03-1.30327E-14
 -1      3803 1.11217E-02-2.81172E-03-1.25395E-14
 -1      3804 1.11176E-02-2.81001E-03-1.24652E-14
 -1      3805 1.15498E-02-3.04214E-03-1.40467E-14
 -1      3806 1.14071E-02-2.96527E-03-1.35375E-14
 -1      3807 1.14028E-02-2.96360E-03-1.34563E-14
 -1      3808 1.18353E-02-3.19608E-03-1.50868E-14
 -1      3809 1.16925E-02-3.11908E-03-1.45630E-14
 -1      3810 1.16882E-02-3.11745E-03-1.44754E-14
 -1      3811 1.21209E-02-3.35021E-03-1.61516E-14
 -1      3812 1.19781E-02-3.27312E-03-1.56151E-14
 -1      3813 1.19737E-02-3.27151E-03-1.55209E-14
 -1      3814 1.24066E-02-3.50449E-03-1.72388E-14
 -1      3815 1.22638E-02-3.42733E-03-1.66935E-14
 -1      3816 1.22593E-02-3.42575E-03-1.65913E-14
 -1      3817 1.26923E-02-3.65889E-03-1.83413E-14
 -1      3818 1.25494E-02-3.58168E-03-1.77875E-14
 -1      3819 1.25449E-02-3.58011E-03-1.76842E-14
 -1      3820 1.29780E-02-3.81339E-03-1.94571E-14
 -1      3821 1.28352E-02-3.73613E-03-1.88981E-14
 -1      3822 1.28306E-02-3.73457E-03-1.87913E-14
 -1      3823 4.62366E-03 3.44252E-04-1.50054E-16
 -1      3824 8.44513E-03-1.30224E-03-4.28159E-15
 -1      3825 8.54259E-03-1.35631E-03-4.54381E-15
 -1      3826 1.46929E-03-1.73756E-04-1.03650E-16
 -1      3827 8.65143E-03-1.41611E-03-4.82673E-15
 -1      3828 8.76522E-03-1.47985E-03-5.11872E-15
 -1      3829 8.53382E-03-1.36868E-03-4.56795E-15
 -1      3830 5.70231E-03 7.14756E-05-9.05404E-16
 -1      3831 5.83879E-03-1.11381E-05-1.07400E-15
 -1      3832 5.96343E-03-8.29428E-05-1.17225E-15
 -1      3833 5.72438E-03 6.93099E-05-8.46938E-16
 -1      3834 3.14577E-03-2.87186E-04-3.72024E-16
 -1      3835 3.73407E-03-4.28833E-05-2.30217E-16
 -1      3836 3.88044E-03 5.53922E-05-1.75546E-16
 -1      3837 1.34496E-02-4.06837E-03-2.13272E-14
 -1      3838 3.00316E-03 2.33064E-04 2.28780E-16
 -1      3839 2.84590E-03 2.27832E-04 2.33876E-16
 -1      3840 1.23226E-03-7.16650E-05-2.56007E-17
 -1      3841 1.23429E-03-9.76000E-05-4.17147E-17
 -1      3842 1.35691E-03-1.11688E-04-5.55383E-17
 -1      3843 8.35873E-03-1.24338E-03-4.00542E-15
 -1      3844 4.45927E-03 3.32170E-04-8.30499E-17
 -1      3845 1.33639E-02-4.02249E-03-2.09388E-14
 -1      3846 2.69068E-03 2.23885E-04 2.34879E-16
 -1      3847 2.53754E-03 2.20641E-04 2.33171E-16
 -1      3848 2.75505E-03 1.79501E-04 1.86293E-16
 -1      3849 1.24907E-03 1.44762E-04 1.10426E-16
 -1      3850 1.24121E-03 1.13355E-04 9.11543E-17
 -1      3851 1.35874E-03 1.02415E-04 8.98126E-17
 -1      3852 1.35219E-03 1.61212E-04 1.27231E-16
 -1      3853 8.88212E-03-1.54522E-03-5.41768E-15
 -1      3854 9.00416E-03-1.61424E-03-5.72804E-15
 -1      3855 9.00481E-03-1.62450E-03-5.75368E-15
 -1      3856 8.76287E-03-1.49152E-03-5.14492E-15
 -1      3857 1.23076E-03-2.25253E-05 5.40746E-18
 -1      3858 1.22950E-03-4.89636E-05-1.14112E-17
 -1      3859 1.35164E-03-6.05945E-05-2.11013E-17
 -1      3860 1.35010E-03-1.17723E-05 1.26852E-17
 -1      3861 2.80663E-03-3.09656E-04-4.04814E-16
 -1      3862 4.29849E-03 3.20486E-04-1.62630E-17
 -1      3863 4.13000E-03 3.01046E-04 3.37051E-17
 -1      3864 1.63749E-03-1.88993E-04-1.31039E-16
 -1      3865 1.77089E-03-1.98531E-04-1.53618E-16
 -1      3866 1.82946E-03-1.78068E-04-1.42234E-16
 -1      3867 2.38615E-03 2.17872E-04 2.28916E-16
 -1      3868 2.23638E-03 2.15057E-04 2.21868E-16
 -1      3869 2.44876E-03 1.76618E-04 1.89166E-16
 -1      3870 6.25342E-03-2.74469E-04-1.51593E-15
 -1      3871 2.83513E-03-2.91525E-04-3.68818E-16
 -1      3872 2.87270E-03-2.69297E-04-3.31861E-16
 -1      3873 2.70177E-03-2.62957E-04-3.24231E-16
 -1      3874 7.82491E-03-1.09443E-03-3.26070E-15
 -1      3875 7.99673E-03-1.15849E-03-3.53058E-15
 -1      3876 7.74795E-03-1.06681E-03-3.20863E-15
 -1      3877 4.05253E-03 2.27166E-04-3.63750E-17
 -1      3878 3.99638E-03 2.94193E-04 8.00819E-17
 -1      3879 3.82759E-03 2.75957E-04 1.16565E-16
 -1      3880 4.00132E-03 1.59304E-04-1.00682E-16
 -1      3881 3.22374E-03-2.20799E-04-2.98901E-16
 -1      3882 3.29302E-03-1.73433E-04-2.56726E-16
 -1      3883 3.57330E-03-7.18061E-05-2.11582E-16
 -1      3884 3.08024E-03-2.43694E-04-3.09384E-16
 -1      3885 1.37172E-02-4.21996E-03-2.16543E-14
 -1      3886 1.36412E-02-4.17786E-03-2.14650E-14
 -1      3887 1.36316E-02-4.17401E-03-2.12502E-14
 -1      3888 1.93091E-03 2.08503E-04 2.00279E-16
 -1      3889 1.83704E-03 1.70653E-04 1.63701E-16
 -1      3890 2.07800E-03 2.12334E-04 2.11772E-16
 -1      3891 1.52075E-03 1.81573E-04 1.52236E-16
 -1      3892 3.81026E-03 1.23026E-04-6.89688E-17
 -1      3893 8.17287E-03-1.19227E-03-3.66633E-15
 -1      3894 6.02142E-03-1.07270E-04-1.17499E-15
 -1      3895 5.88633E-03-1.91852E-05-9.91693E-16
 -1      3896 1.32637E-02-3.96795E-03-2.05823E-14
 -1      3897 1.31209E-02-3.89066E-03-2.00200E-14
 -1      3898 3.32476E-03 2.48848E-04 2.06486E-16
 -1      3899 3.16288E-03 2.39836E-04 2.19632E-16
 -1      3900 3.07076E-03 1.86496E-04 1.69786E-16
 -1      3901 8.33600E-03-1.25434E-03-4.01477E-15
 -1      3902 1.35651E-02-4.13575E-03-2.12723E-14
 -1      3903 1.34891E-02-4.09364E-03-2.10799E-14
 -1      3904 1.34794E-02-4.08982E-03-2.08737E-14
 -1      3905 1.52980E-03-1.53673E-04-9.50981E-17
 -1      3906 7.24675E-03-8.42949E-04-2.58799E-15
 -1      3907 7.42560E-03-9.25805E-04-2.81288E-15
 -1      3908 1.34314E-02-4.06162E-03-2.09397E-14
 -1      3909 1.33737E-02-4.02959E-03-2.07996E-14
 -1      3910 1.33457E-02-4.01571E-03-2.05445E-14
 -1      3911 3.57461E-03 3.17263E-04 2.42563E-16
 -1      3912 1.31164E-02-3.88910E-03-1.99128E-14
 -1      3913 1.48027E-03 5.90898E-05 6.45371E-17
 -1      3914 1.47342E-03 2.70978E-05 4.13352E-17
 -1      3915 6.68032E-03-5.40133E-04-1.96196E-15
 -1      3916 6.84076E-03-6.26850E-04-2.12962E-15
 -1      3917 6.58299E-03-4.76547E-04-1.85445E-15
 -1      3918 7.12622E-03-7.78485E-04-2.45434E-15
 -1      3919 1.40193E-02-4.38677E-03-2.24403E-14
 -1      3920 1.39468E-02-4.34675E-03-2.22559E-14
 -1      3921 1.37850E-02-4.25866E-03-2.16582E-14
 -1      3922 1.39398E-02-4.34379E-03-2.20977E-14
 -1      3923 1.47325E-03 1.19269E-04 1.06821E-16
 -1      3924 1.47646E-03 8.88684E-05 8.54216E-17
 -1      3925 1.59418E-03 7.29295E-05 7.78728E-17
 -1      3926 2.02228E-03-1.68321E-04-1.50663E-16
 -1      3927 2.15146E-03-1.80347E-04-1.75261E-16
 -1      3928 8.25423E-03-1.24434E-03-3.93000E-15
 -1      3929 2.27248E-03-1.93422E-04-2.01269E-16
 -1      3930 2.39118E-03-2.08114E-04-2.29363E-16
 -1      3931 2.21212E-03-1.59903E-04-1.55082E-16
 -1      3932 2.48899E-03-2.23790E-04-2.56915E-16
 -1      3933 2.60873E-03-2.43592E-04-2.91854E-16
 -1      3934 2.63377E-03-2.22502E-04-2.58555E-16
 -1      3935 2.43587E-03-1.88448E-04-2.03694E-16
 -1      3936 9.12968E-03-1.70259E-03-6.09772E-15
 -1      3937 9.26017E-03-1.77459E-03-6.43161E-15
 -1      3938 3.38274E-03-1.01656E-04-1.94980E-16
 -1      3939 3.49408E-03-1.56322E-05-1.28288E-16
 -1      3940 9.38579E-03-1.84413E-03-6.75695E-15
 -1      3941 9.51274E-03-1.91477E-03-7.08987E-15
 -1      3942 9.25328E-03-1.77802E-03-6.44251E-15
 -1      3943 9.64769E-03-1.98994E-03-7.45019E-15
 -1      3944 9.78377E-03-2.06590E-03-7.81947E-15
 -1      3945 9.51446E-03-1.92141E-03-7.12515E-15
 -1      3946 9.92087E-03-2.14240E-03-8.19841E-15
 -1      3947 1.00588E-02-2.21939E-03-8.58653E-15
 -1      3948 9.78675E-03-2.07195E-03-7.86227E-15
 -1      3949 1.01975E-02-2.29669E-03-8.98408E-15
 -1      3950 1.03368E-02-2.37427E-03-9.39159E-15
 -1      3951 1.00625E-02-2.22478E-03-8.63445E-15
 -1      3952 1.04767E-02-2.45200E-03-9.80779E-15
 -1      3953 1.06171E-02-2.52988E-03-1.02321E-14
 -1      3954 1.03409E-02-2.37901E-03-9.44851E-15
 -1      3955 1.07578E-02-2.60783E-03-1.06627E-14
 -1      3956 1.08989E-02-2.68582E-03-1.11012E-14
 -1      3957 1.06214E-02-2.53403E-03-1.02949E-14
 -1      3958 1.10332E-02-2.75993E-03-1.15228E-14
 -1      3959 1.11678E-02-2.83404E-03-1.19488E-14
 -1      3960 1.08962E-02-2.68557E-03-1.11468E-14
 -1      3961 1.13096E-02-2.91203E-03-1.24045E-14
 -1      3962 1.14516E-02-2.98999E-03-1.28641E-14
 -1      3963 1.11722E-02-2.83725E-03-1.20249E-14
 -1      3964 1.15937E-02-3.06791E-03-1.33293E-14
 -1      3965 1.17360E-02-3.14580E-03-1.38027E-14
 -1      3966 1.14560E-02-2.99283E-03-1.29457E-14
 -1      3967 1.18784E-02-3.22364E-03-1.42842E-14
 -1      3968 1.20209E-02-3.30144E-03-1.47729E-14
 -1      3969 1.17404E-02-3.14833E-03-1.38925E-14
 -1      3970 1.21635E-02-3.37919E-03-1.52677E-14
 -1      3971 1.23061E-02-3.45691E-03-1.57738E-14
 -1      3972 1.20253E-02-3.30373E-03-1.48723E-14
 -1      3973 1.24488E-02-3.53458E-03-1.62872E-14
 -1      3974 1.25915E-02-3.61222E-03-1.68100E-14
 -1      3975 1.23105E-02-3.45900E-03-1.58855E-14
 -1      3976 1.27271E-02-3.68594E-03-1.73144E-14
 -1      3977 1.28627E-02-3.75964E-03-1.78236E-14
 -1      3978 1.25887E-02-3.61029E-03-1.69021E-14
 -1      3979 1.30055E-02-3.83719E-03-1.83664E-14
 -1      3980 1.31484E-02-3.91471E-03-1.89186E-14
 -1      3981 1.28671E-02-3.76148E-03-1.79478E-14
 -1      3982 1.32912E-02-3.99221E-03-1.94786E-14
 -1      3983 1.34340E-02-4.06969E-03-2.00444E-14
 -1      3984 1.31528E-02-3.91646E-03-1.90493E-14
 -1      3985 6.15097E-03-1.94235E-04-1.34784E-15
 -1      3986 6.63539E-03-4.83663E-04-1.86663E-15
 -1      3987 6.45784E-03-3.83409E-04-1.68035E-15
 -1      3988 7.52447E-03-9.30965E-04-3.02103E-15
 -1      3989 7.36777E-03-8.52874E-04-2.77962E-15
 -1      3990 7.82940E-03-1.08225E-03-3.53564E-15
 -1      3991 7.67826E-03-1.00713E-03-3.27319E-15
 -1      3992 7.68319E-03-1.01588E-03-3.27994E-15
 -1      3993 8.12545E-03-1.23023E-03-4.09584E-15
 -1      3994 7.97834E-03-1.15642E-03-3.80997E-15
 -1      3995 7.98324E-03-1.16214E-03-3.81062E-15
 -1      3996 8.41547E-03-1.37718E-03-4.70172E-15
 -1      3997 8.27104E-03-1.30370E-03-4.39297E-15
 -1      3998 8.27507E-03-1.30677E-03-4.38568E-15
 -1      3999 8.70174E-03-1.52434E-03-5.35337E-15
 -1      4000 8.55895E-03-1.45067E-03-5.02333E-15
 -1      4001 8.56175E-03-1.45169E-03-5.00872E-15
 -1      4002 8.98592E-03-1.67229E-03-6.04378E-15
 -1      4003 8.84400E-03-1.59819E-03-5.69363E-15
 -1      4004 8.84551E-03-1.59779E-03-5.67244E-15
 -1      4005 9.26913E-03-1.82121E-03-6.77293E-15
 -1      4006 9.12759E-03-1.74662E-03-6.40314E-15
 -1      4007 9.12789E-03-1.74530E-03-6.37625E-15
 -1      4008 9.55207E-03-1.97110E-03-7.54128E-15
 -1      4009 9.41060E-03-1.89604E-03-7.15224E-15
 -1      4010 9.40984E-03-1.89419E-03-7.11780E-15
 -1      4011 9.83513E-03-2.12188E-03-8.34760E-15
 -1      4012 9.69356E-03-2.04639E-03-7.94009E-15
 -1      4013 9.69192E-03-2.04428E-03-7.89951E-15
 -1      4014 1.01185E-02-2.27343E-03-9.18632E-15
 -1      4015 9.97678E-03-2.19757E-03-8.76184E-15
 -1      4016 9.97442E-03-2.19537E-03-8.71445E-15
 -1      4017 1.04023E-02-2.42562E-03-1.00622E-14
 -1      4018 1.02604E-02-2.34945E-03-9.62034E-15
 -1      4019 1.02575E-02-2.34726E-03-9.56535E-15
 -1      4020 1.06866E-02-2.57833E-03-1.09674E-14
 -1      4021 1.05444E-02-2.50192E-03-1.05119E-14
 -1      4022 1.05410E-02-2.49980E-03-1.04512E-14
 -1      4023 1.09712E-02-2.73149E-03-1.19109E-14
 -1      4024 1.08288E-02-2.65486E-03-1.14346E-14
 -1      4025 1.08251E-02-2.65284E-03-1.13675E-14
 -1      4026 1.12561E-02-2.88499E-03-1.28780E-14
 -1      4027 1.11136E-02-2.80820E-03-1.23902E-14
 -1      4028 1.11096E-02-2.80627E-03-1.23155E-14
 -1      4029 1.15412E-02-3.03877E-03-1.38776E-14
 -1      4030 1.13986E-02-2.96185E-03-1.33741E-14
 -1      4031 1.13945E-02-2.96001E-03-1.32926E-14
 -1      4032 1.18266E-02-3.19279E-03-1.49035E-14
 -1      4033 1.16839E-02-3.11576E-03-1.43870E-14
 -1      4034 1.16796E-02-3.11399E-03-1.42982E-14
 -1      4035 1.21121E-02-3.34697E-03-1.59562E-14
 -1      4036 1.19693E-02-3.26986E-03-1.54282E-14
 -1      4037 1.19649E-02-3.26815E-03-1.53329E-14
 -1      4038 1.23976E-02-3.50130E-03-1.70331E-14
 -1      4039 1.22548E-02-3.42412E-03-1.64906E-14
 -1      4040 1.22504E-02-3.42246E-03-1.63925E-14
 -1      4041 1.26833E-02-3.65574E-03-1.81290E-14
 -1      4042 1.25405E-02-3.57851E-03-1.75797E-14
 -1      4043 1.25360E-02-3.57688E-03-1.74734E-14
 -1      4044 1.29690E-02-3.81026E-03-1.92413E-14
 -1      4045 1.28261E-02-3.73299E-03-1.86845E-14
 -1      4046 1.28217E-02-3.73139E-03-1.85753E-14
 -1      4047 1.59375E-03 1.31893E-05 3.22008E-17
 -1      4048 1.47103E-03 1.48850E-07 2.17518E-17
 -1      4049 1.46979E-03-2.61199E-05 2.07354E-18
 -1      4050 3.23070E-03-1.13854E-04-1.79313E-16
 -1      4051 8.40341E-03-1.31871E-03-4.30520E-15
 -1      4052 8.51774E-03-1.37644E-03-4.58307E-15
 -1      4053 2.92067E-03-2.21058E-04-2.66985E-16
 -1      4054 2.97356E-03-1.62994E-04-1.99954E-16
 -1      4055 2.76560E-03-1.97441E-04-2.28482E-16
 -1      4056 2.81782E-03 1.33180E-04 1.33696E-16
 -1      4057 2.66282E-03 1.33069E-04 1.41380E-16
 -1      4058 1.52263E-03 1.49309E-04 1.30186E-16
 -1      4059 1.52238E-03-9.69145E-05-5.24347E-17
 -1      4060 1.52469E-03-1.25430E-04-7.40375E-17
 -1      4061 1.69170E-03-1.39466E-04-9.61958E-17
 -1      4062 3.74184E-03 1.99396E-04 4.64310E-17
 -1      4063 3.65889E-03 2.59444E-04 1.46801E-16
 -1      4064 3.49218E-03 2.45700E-04 1.70518E-16
 -1      4065 7.20754E-03-7.72745E-04-2.55023E-15
 -1      4066 7.04391E-03-6.89367E-04-2.33201E-15
 -1      4067 7.37105E-03-8.64350E-04-2.79284E-15
 -1      4068 6.92859E-03-6.34736E-04-2.19472E-15
 -1      4069 6.75784E-03-5.44368E-04-1.99188E-15
 -1      4070 6.86435E-03-6.24969E-04-2.14939E-15
 -1      4071 7.09740E-03-7.33771E-04-2.42203E-15
 -1      4072 1.33593E-02-4.02093E-03-2.08338E-14
 -1      4073 1.32736E-02-3.97505E-03-2.04425E-14
 -1      4074 1.31308E-02-3.89775E-03-1.98763E-14
 -1      4075 1.79184E-03-1.48314E-04-1.11808E-16
 -1      4076 1.92400E-03-1.58370E-04-1.32069E-16
 -1      4077 1.98973E-03-1.37331E-04-1.15359E-16
 -1      4078 1.79037E-03-1.18644E-04-8.43103E-17
 -1      4079 3.63298E-03 1.05239E-04-3.12521E-17
 -1      4080 7.49814E-03-9.53890E-04-2.93933E-15
 -1      4081 7.62073E-03-1.01308E-03-3.07865E-15
 -1      4082 8.21997E-03-1.24609E-03-3.93913E-15
 -1      4083 1.64134E-03 1.34905E-04 1.26066E-16
 -1      4084 9.00267E-03-1.63321E-03-5.77824E-15
 -1      4085 8.99906E-03-1.64035E-03-5.79986E-15
 -1      4086 8.87793E-03-1.56553E-03-5.46690E-15
 -1      4087 7.80559E-03-1.09157E-03-3.34689E-15
 -1      4088 8.16091E-03-1.23190E-03-3.88804E-15
 -1      4089 8.49888E-03-1.38083E-03-4.59429E-15
 -1      4090 8.63449E-03-1.43638E-03-4.86746E-15
 -1      4091 8.75393E-03-1.49942E-03-5.16132E-15
 -1      4092 3.44983E-03 6.96399E-05-2.34323E-17
 -1      4093 3.04619E-03-1.06319E-04-1.43562E-16
 -1      4094 3.11721E-03-4.32262E-05-8.50557E-17
 -1      4095 2.86897E-03-9.44262E-05-1.12987E-16
 -1      4096 1.35459E-02-4.12803E-03-2.08445E-14
 -1      4097 1.34698E-02-4.08595E-03-2.06610E-14
 -1      4098 2.13994E-03 1.74857E-04 1.81062E-16
 -1      4099 1.92979E-03 1.39105E-04 1.41936E-16
 -1      4100 1.78501E-03 1.37555E-04 1.34861E-16
 -1      4101 1.73395E-03 1.05956E-04 1.07932E-16
 -1      4102 1.35769E-02-4.14715E-03-2.06172E-14
 -1      4103 1.37198E-02-4.22460E-03-2.11926E-14
 -1      4104 1.38603E-02-4.30081E-03-2.17584E-14
 -1      4105 2.57033E-03 8.93404E-05 9.98957E-17
 -1      4106 2.51029E-03 1.33819E-04 1.46056E-16
 -1      4107 2.35988E-03 1.34679E-04 1.48224E-16
 -1      4108 3.39952E-03 1.86799E-04 1.20102E-16
 -1      4109 1.31263E-02-3.89617E-03-1.97663E-14
 -1      4110 1.71666E-03 2.56207E-05 4.29480E-17
 -1      4111 1.71230E-03-4.05309E-06 1.85263E-17
 -1      4112 3.13684E-03 1.37605E-04 1.08352E-16
 -1      4113 2.97574E-03 1.34353E-04 1.23382E-16
 -1      4114 2.87859E-03 8.47445E-05 7.86724E-17
 -1      4115 1.33937E-02-4.04388E-03-2.04765E-14
 -1      4116 1.33177E-02-4.00180E-03-2.02880E-14
 -1      4117 1.33081E-02-3.99792E-03-2.00779E-14
 -1      4118 1.31839E-02-3.92818E-03-1.99046E-14
 -1      4119 1.37219E-02-4.22502E-03-2.13124E-14
 -1      4120 1.36445E-02-4.18247E-03-2.10936E-14
 -1      4121 1.30982E-02-3.88226E-03-1.95144E-14
 -1      4122 6.41304E-03-3.68312E-04-1.66628E-15
 -1      4123 6.95970E-03-6.83598E-04-2.26353E-15
 -1      4124 1.73567E-03 7.25135E-05 8.13152E-17
 -1      4125 7.13789E-03-7.71861E-04-2.47830E-15
 -1      4126 1.34827E-02-4.09439E-03-2.05066E-14
 -1      4127 1.49444E-03-4.88973E-05-1.52330E-17
 -1      4128 1.49561E-03-7.43320E-05-3.43014E-17
 -1      4129 1.66366E-03-8.65419E-05-4.96294E-17
 -1      4130 1.61441E-03-3.88578E-05-9.02598E-18
 -1      4131 7.21425E-03-8.02836E-04-2.57850E-15
 -1      4132 7.37065E-03-8.88522E-04-2.78115E-15
 -1      4133 7.56319E-03-9.79677E-04-3.04996E-15
 -1      4134 7.32298E-03-8.51229E-04-2.72662E-15
 -1      4135 1.34384E-02-4.07138E-03-2.01773E-14
 -1      4136 1.85560E-03 5.55819E-05 6.94296E-17
 -1      4137 9.12186E-03-1.71393E-03-6.14057E-15
 -1      4138 9.24864E-03-1.78220E-03-6.46281E-15
 -1      4139 1.99021E-03 7.76561E-05 9.07884E-17
 -1      4140 1.96734E-03 2.61940E-05 4.48589E-17
 -1      4141 2.22214E-03 1.37210E-04 1.49010E-16
 -1      4142 2.06501E-03 1.37972E-04 1.45486E-16
 -1      4143 2.01149E-03 1.03955E-04 1.14207E-16
 -1      4144 2.28260E-03 9.68556E-05 1.11524E-16
 -1      4145 9.38322E-03-1.85516E-03-6.81035E-15
 -1      4146 9.51874E-03-1.92912E-03-7.16826E-15
 -1      4147 9.25031E-03-1.78904E-03-6.49891E-15
 -1      4148 9.65522E-03-2.00385E-03-7.53489E-15
 -1      4149 9.79249E-03-2.07929E-03-7.91080E-15
 -1      4150 9.52264E-03-1.93604E-03-7.21045E-15
 -1      4151 9.93049E-03-2.15524E-03-8.29786E-15
 -1      4152 1.00691E-02-2.23164E-03-8.69483E-15
 -1      4153 9.79783E-03-2.08606E-03-7.96193E-15
 -1      4154 1.02084E-02-2.30835E-03-9.09948E-15
 -1      4155 1.03481E-02-2.38535E-03-9.51415E-15
 -1      4156 1.00754E-02-2.23803E-03-8.75280E-15
 -1      4157 1.04883E-02-2.46253E-03-9.93811E-15
 -1      4158 1.06289E-02-2.53987E-03-1.03674E-14
 -1      4159 1.03550E-02-2.39133E-03-9.58112E-15
 -1      4160 1.07627E-02-2.61344E-03-1.07840E-14
 -1      4161 1.08969E-02-2.68708E-03-1.12058E-14
 -1      4162 1.06291E-02-2.54157E-03-1.04203E-14
 -1      4163 1.10383E-02-2.76465E-03-1.16543E-14
 -1      4164 1.11800E-02-2.84225E-03-1.21105E-14
 -1      4165 1.09044E-02-2.69227E-03-1.12854E-14
 -1      4166 1.13219E-02-2.91987E-03-1.25731E-14
 -1      4167 1.14639E-02-2.99749E-03-1.30396E-14
 -1      4168 1.11877E-02-2.84709E-03-1.21968E-14
 -1      4169 1.16061E-02-3.07511E-03-1.35156E-14
 -1      4170 1.17484E-02-3.15272E-03-1.39990E-14
 -1      4171 1.14717E-02-3.00203E-03-1.31369E-14
 -1      4172 1.18908E-02-3.23031E-03-1.44890E-14
 -1      4173 1.20332E-02-3.30789E-03-1.49886E-14
 -1      4174 1.17562E-02-3.15700E-03-1.41044E-14
 -1      4175 1.21758E-02-3.38545E-03-1.54943E-14
 -1      4176 1.23184E-02-3.46299E-03-1.60089E-14
 -1      4177 1.20412E-02-3.31198E-03-1.51046E-14
 -1      4178 1.24540E-02-3.53664E-03-1.65048E-14
 -1      4179 1.25896E-02-3.61027E-03-1.70082E-14
 -1      4180 1.23192E-02-3.46304E-03-1.61070E-14
 -1      4181 1.27323E-02-3.68776E-03-1.75459E-14
 -1      4182 1.28751E-02-3.76523E-03-1.80866E-14
 -1      4183 1.25975E-02-3.61408E-03-1.71401E-14
 -1      4184 1.30179E-02-3.84269E-03-1.86357E-14
 -1      4185 1.31607E-02-3.92013E-03-1.91915E-14
 -1      4186 1.28831E-02-3.76894E-03-1.82251E-14
 -1      4187 8.13673E-03-1.23950E-03-4.09130E-15
 -1      4188 7.99071E-03-1.16866E-03-3.81273E-15
 -1      4189 1.33398E-02-4.01698E-03-1.99378E-14
 -1      4190 7.84260E-03-1.09777E-03-3.54542E-15
 -1      4191 7.69169E-03-1.02607E-03-3.28745E-15
 -1      4192 8.00116E-03-1.17615E-03-3.81548E-15
 -1      4193 8.70706E-03-1.52481E-03-5.32017E-15
 -1      4194 8.56578E-03-1.45281E-03-4.99440E-15
 -1      4195 8.98835E-03-1.67030E-03-5.99443E-15
 -1      4196 8.84782E-03-1.59727E-03-5.65162E-15
 -1      4197 8.85102E-03-1.59661E-03-5.63227E-15
 -1      4198 9.26905E-03-1.81772E-03-6.70971E-15
 -1      4199 9.12871E-03-1.74378E-03-6.34802E-15
 -1      4200 9.13009E-03-1.74204E-03-6.32042E-15
 -1      4201 9.54990E-03-1.96683E-03-7.46542E-15
 -1      4202 9.40942E-03-1.89209E-03-7.08284E-15
 -1      4203 9.40935E-03-1.88971E-03-7.04791E-15
 -1      4204 9.83127E-03-2.11728E-03-8.25779E-15
 -1      4205 9.69050E-03-2.04190E-03-7.85715E-15
 -1      4206 9.68929E-03-2.03923E-03-7.81524E-15
 -1      4207 1.01133E-02-2.26879E-03-9.08332E-15
 -1      4208 9.97221E-03-2.19292E-03-8.66612E-15
 -1      4209 9.97012E-03-2.19019E-03-8.61704E-15
 -1      4210 1.03961E-02-2.42110E-03-9.94659E-15
 -1      4211 1.02546E-02-2.34486E-03-9.51116E-15
 -1      4212 1.02519E-02-2.34220E-03-9.45657E-15
 -1      4213 1.06795E-02-2.57401E-03-1.08417E-14
 -1      4214 1.05377E-02-2.49749E-03-1.03910E-14
 -1      4215 1.05345E-02-2.49497E-03-1.03306E-14
 -1      4216 1.09635E-02-2.72739E-03-1.17662E-14
 -1      4217 1.08215E-02-2.65065E-03-1.12983E-14
 -1      4218 1.08178E-02-2.64829E-03-1.12325E-14
 -1      4219 1.12480E-02-2.88110E-03-1.27203E-14
 -1      4220 1.11057E-02-2.80421E-03-1.22411E-14
 -1      4221 1.11018E-02-2.80201E-03-1.21633E-14
 -1      4222 1.15328E-02-3.03508E-03-1.37070E-14
 -1      4223 1.13904E-02-2.95806E-03-1.32100E-14
 -1      4224 1.13863E-02-2.95601E-03-1.31263E-14
 -1      4225 1.18180E-02-3.18925E-03-1.47199E-14
 -1      4226 1.16754E-02-3.11214E-03-1.42092E-14
 -1      4227 1.16711E-02-3.11021E-03-1.41199E-14
 -1      4228 1.21033E-02-3.34356E-03-1.57630E-14
 -1      4229 1.19606E-02-3.26639E-03-1.52373E-14
 -1      4230 1.19563E-02-3.26455E-03-1.51413E-14
 -1      4231 1.23888E-02-3.49798E-03-1.68236E-14
 -1      4232 1.22460E-02-3.42076E-03-1.62887E-14
 -1      4233 1.22416E-02-3.41901E-03-1.61864E-14
 -1      4234 1.26744E-02-3.65249E-03-1.79127E-14
 -1      4235 1.25316E-02-3.57523E-03-1.73679E-14
 -1      4236 1.25271E-02-3.57353E-03-1.72575E-14
 -1      4237 1.29577E-02-3.80600E-03-1.89872E-14
 -1      4238 1.28149E-02-3.72871E-03-1.84330E-14
 -1      4239 1.28104E-02-3.72705E-03-1.83206E-14
 -1      4240 1.30915E-02-3.87957E-03-1.93647E-14
 -1      4241 2.66218E-03-1.79456E-04-2.00211E-16
 -1      4242 1.85627E-03-1.94869E-05 4.17418E-18
 -1      4243 1.73445E-03-2.95063E-05-2.96800E-18
 -1      4244 1.75725E-03-5.47043E-05-2.51399E-17
 -1      4245 2.15600E-03-1.25392E-04-1.11524E-16
 -1      4246 2.28169E-03-1.37846E-04-1.32151E-16
 -1      4247 8.42385E-03-1.38134E-03-4.68118E-15
 -1      4248 8.28090E-03-1.31020E-03-4.38136E-15
 -1      4249 8.57117E-03-1.45400E-03-4.98305E-15
 -1      4250 8.01589E-03-1.17890E-03-3.68457E-15
 -1      4251 8.24891E-03-1.27603E-03-4.10712E-15
 -1      4252 7.48289E-03-9.27473E-04-2.95834E-15
 -1      4253 7.90458E-03-1.13452E-03-3.54857E-15
 -1      4254 1.32050E-02-3.94319E-03-1.95127E-14
 -1      4255 8.37405E-03-1.33448E-03-4.37970E-15
 -1      4256 8.49968E-03-1.39515E-03-4.66135E-15
 -1      4257 8.24203E-03-1.28296E-03-4.16385E-15
 -1      4258 2.12028E-03 1.61366E-05 3.50333E-17
 -1      4259 1.98662E-03-2.54771E-06 1.82553E-17
 -1      4260 2.00611E-03-3.09040E-05-8.64651E-18
 -1      4261 2.38629E-03-1.51446E-04-1.53279E-16
 -1      4262 2.48974E-03-1.66302E-04-1.76196E-16
 -1      4263 2.33579E-03-1.13243E-04-1.05181E-16
 -1      4264 2.71880E-03-1.01411E-04-1.09315E-16
 -1      4265 2.77716E-03-5.03259E-05-5.68664E-17
 -1      4266 2.12422E-03 7.33678E-05 8.87555E-17
 -1      4267 1.76056E-03-7.48427E-05-4.30428E-17
 -1      4268 1.78505E-03-9.93290E-05-6.60957E-17
 -1      4269 1.88563E-03-1.08066E-04-7.97024E-17
 -1      4270 1.87938E-03-6.72746E-05-4.01290E-17
 -1      4271 8.28879E-03-1.31407E-03-4.37709E-15
 -1      4272 2.62131E-03-1.36001E-04-1.44131E-16
 -1      4273 2.62815E-03 4.33999E-05 5.08491E-17
 -1      4274 2.47843E-03 4.87051E-05 6.19215E-17
 -1      4275 8.99114E-03-1.64432E-03-5.81398E-15
 -1      4276 8.98294E-03-1.64710E-03-5.82761E-15
 -1      4277 8.86173E-03-1.57617E-03-5.49845E-15
 -1      4278 7.66434E-03-1.02357E-03-3.21458E-15
 -1      4279 7.78426E-03-1.08124E-03-3.38153E-15
 -1      4280 7.99577E-03-1.17485E-03-3.72593E-15
 -1      4281 2.98678E-03 2.20666E-05 2.11419E-18
 -1      4282 2.83064E-03 2.61223E-05 2.03830E-17
 -1      4283 1.32224E-02-3.95194E-03-1.96799E-14
 -1      4284 1.31463E-02-3.90990E-03-1.94992E-14
 -1      4285 3.28278E-03 7.87365E-05 2.08167E-17
 -1      4286 2.53228E-03-9.54626E-05-9.26722E-17
 -1      4287 8.74497E-03-1.50602E-03-5.17911E-15
 -1      4288 1.30433E-02-3.85516E-03-1.89412E-14
 -1      4289 1.97109E-03-1.11200E-04-8.72241E-17
 -1      4290 2.07080E-03-1.21206E-04-1.02566E-16
 -1      4291 2.14161E-03-9.71585E-05-7.97024E-17
 -1      4292 1.96839E-03-9.06319E-05-6.59330E-17
 -1      4293 1.30058E-02-3.83362E-03-1.89737E-14
 -1      4294 3.17565E-03 2.23854E-05-2.20906E-17
 -1      4295 8.61586E-03-1.45141E-03-4.91996E-15
 -1      4296 8.74478E-03-1.51688E-03-5.22327E-15
 -1      4297 8.73221E-03-1.51831E-03-5.22999E-15
 -1      4298 8.49355E-03-1.40133E-03-4.69609E-15
 -1      4299 2.21179E-03 6.86259E-05 8.44865E-17
 -1      4300 2.18902E-03 4.12759E-05 5.87095E-17
 -1      4301 2.20624E-03 9.67189E-06 2.78233E-17
 -1      4302 2.34756E-03 6.30069E-05 7.85098E-17
 -1      4303 9.54874E-03-1.96135E-03-7.38908E-15
 -1      4304 9.40955E-03-1.88695E-03-7.01434E-15
 -1      4305 9.11215E-03-1.72084E-03-6.18098E-15
 -1      4306 9.24845E-03-1.79321E-03-6.52577E-15
 -1      4307 1.29201E-02-3.78763E-03-1.85836E-14
 -1      4308 1.28653E-02-3.75735E-03-1.84524E-14
 -1      4309 1.27248E-02-3.68109E-03-1.79359E-14
 -1      4310 9.46665E-03-1.91016E-03-7.09597E-15
 -1      4311 9.60444E-03-1.98460E-03-7.46618E-15
 -1      4312 9.74279E-03-2.05965E-03-7.84862E-15
 -1      4313 9.93847E-03-2.16604E-03-8.40052E-15
 -1      4314 1.00780E-02-2.24211E-03-8.80265E-15
 -1      4315 1.02179E-02-2.31846E-03-9.21633E-15
 -1      4316 1.03582E-02-2.39506E-03-9.63857E-15
 -1      4317 1.00804E-02-2.24579E-03-8.85404E-15
 -1      4318 1.04918E-02-2.46801E-03-1.00469E-14
 -1      4319 1.06256E-02-2.54110E-03-1.04614E-14
 -1      4320 1.03542E-02-2.39465E-03-9.67389E-15
 -1      4321 1.07668E-02-2.61816E-03-1.09058E-14
 -1      4322 1.09083E-02-2.69532E-03-1.13545E-14
 -1      4323 1.06291E-02-2.54424E-03-1.05249E-14
 -1      4324 1.10499E-02-2.77254E-03-1.18096E-14
 -1      4325 1.11917E-02-2.84983E-03-1.22731E-14
 -1      4326 1.09120E-02-2.69817E-03-1.14237E-14
 -1      4327 1.13337E-02-2.92715E-03-1.27420E-14
 -1      4328 1.14759E-02-3.00450E-03-1.32198E-14
 -1      4329 1.11957E-02-2.85241E-03-1.23484E-14
 -1      4330 1.16181E-02-3.08187E-03-1.37058E-14
 -1      4331 1.17605E-02-3.15926E-03-1.41993E-14
 -1      4332 1.14800E-02-3.00685E-03-1.33033E-14
 -1      4333 1.19029E-02-3.23665E-03-1.46991E-14
 -1      4334 1.20455E-02-3.31405E-03-1.52067E-14
 -1      4335 1.17647E-02-3.16142E-03-1.42928E-14
 -1      4336 1.21810E-02-3.38758E-03-1.56953E-14
 -1      4337 1.23165E-02-3.46111E-03-1.61911E-14
 -1      4338 1.20427E-02-3.31219E-03-1.52826E-14
 -1      4339 1.24592E-02-3.53851E-03-1.67210E-14
 -1      4340 1.26019E-02-3.61591E-03-1.72574E-14
 -1      4341 1.23208E-02-3.46300E-03-1.63002E-14
 -1      4342 1.27600E-02-3.70147E-03-1.78764E-14
 -1      4343 1.29027E-02-3.77885E-03-1.84211E-14
 -1      4344 2.73178E-03-1.67031E-05-1.73337E-17
 -1      4345 8.25856E-03-1.29708E-03-4.26727E-15
 -1      4346 8.11880E-03-1.23169E-03-3.98904E-15
 -1      4347 9.18861E-03-1.76971E-03-6.43749E-15
 -1      4348 9.05007E-03-1.69687E-03-6.08798E-15
 -1      4349 8.91161E-03-1.62483E-03-5.74852E-15
 -1      4350 9.88516E-03-2.14235E-03-8.33016E-15
 -1      4351 9.74524E-03-2.06690E-03-7.93247E-15
 -1      4352 1.01659E-02-2.29416E-03-9.15128E-15
 -1      4353 1.00254E-02-2.21812E-03-8.73563E-15
 -1      4354 1.04406E-02-2.44306E-03-9.98690E-15
 -1      4355 1.02996E-02-2.36661E-03-9.55518E-15
 -1      4356 1.07233E-02-2.59642E-03-1.08759E-14
 -1      4357 1.05819E-02-2.51968E-03-1.04286E-14
 -1      4358 1.10068E-02-2.75023E-03-1.17882E-14
 -1      4359 1.08650E-02-2.67328E-03-1.13283E-14
 -1      4360 1.12909E-02-2.90433E-03-1.27314E-14
 -1      4361 1.11488E-02-2.82725E-03-1.22558E-14
 -1      4362 1.15755E-02-3.05863E-03-1.37082E-14
 -1      4363 1.14332E-02-2.98146E-03-1.32162E-14
 -1      4364 1.18605E-02-3.21306E-03-1.47132E-14
 -1      4365 1.17180E-02-3.13583E-03-1.42061E-14
 -1      4366 1.21386E-02-3.36373E-03-1.57202E-14
 -1      4367 1.19959E-02-3.28646E-03-1.52009E-14
 -1      4368 1.24240E-02-3.51831E-03-1.67775E-14
 -1      4369 1.22812E-02-3.44102E-03-1.62480E-14
 -1      4370 1.25820E-02-3.60378E-03-1.73907E-14
 -1      4371 8.71674E-03-1.52488E-03-5.28694E-15
 -1      4372 8.57809E-03-1.45494E-03-4.97180E-15
 -1      4373 2.40517E-03 2.03100E-05 3.49926E-17
 -1      4374 2.29350E-03-6.85595E-05-5.39255E-17
 -1      4375 2.38175E-03-3.50484E-05-2.08980E-17
 -1      4376 8.52090E-03-1.42355E-03-4.81822E-15
 -1      4377 8.38332E-03-1.35640E-03-4.52106E-15
 -1      4378 7.65113E-03-1.01345E-03-3.20992E-15
 -1      4379 9.74404E-03-2.06349E-03-7.88956E-15
 -1      4380 8.92106E-03-1.62088E-03-5.71009E-15
 -1      4381 8.91603E-03-1.62319E-03-5.72811E-15
 -1      4382 1.96669E-03-6.94492E-05-4.48860E-17
 -1      4383 9.32828E-03-1.84011E-03-6.76628E-15
 -1      4384 2.58192E-03-2.74147E-05-2.06134E-17
 -1      4385 8.78770E-03-1.55211E-03-5.39149E-15
 -1      4386 1.26216E-02-3.62586E-03-1.74469E-14
 -1      4387 7.86602E-03-1.11510E-03-3.55269E-15
 -1      4388 2.09469E-03-5.55579E-05-3.48029E-17
 -1      4389 2.18367E-03-5.80702E-05-3.97225E-17
 -1      4390 8.66668E-03-1.49155E-03-5.11348E-15
 -1      4391 2.33346E-03-6.07130E-06 1.00966E-17
 -1      4392 8.13244E-03-1.23677E-03-3.98801E-15
 -3
    1PSTEP                         2           1           1          
  100CL  101 1.000000000        4392                     0    1           1
 -4  STRESS      6    1
 -5  SXX         1    4    1    1
 -5  SYY         1    4    2    2
 -5  SZZ         1    4    3    3
 -5  SXY         1    4    1    2
 -5  SYZ         1    4    2    3
 -5  SZX         1    4    3    1
 -1         1-7.32930E-01-3.25102E+00-2.29980E+00 1.10118E+00-8.23674E-13 5.29687E-13
 -1         2-8.40053E-01-2.64605E+01-3.44216E+00-1.02581E-01 8.85667E-13 5.81410E-14
 -1         3 1.99999E+01 9.50162E-05-8.59135E-05 9.26642E-05-3.59698E-13-4.65031E-13
 -1         4 1.99999E+01 8.57148E-05-1.02412E-04-8.53220E-05 4.47132E-14 3.12755E-13
 -1         5 3.26273E+01 6.12080E+00 2.69358E+00 6.17255E+00-1.35586E-14 6.38239E-13
 -1         6 3.56239E+01 1.22181E+01 5.10297E+00-8.64064E+00-3.03646E-14-1.67144E-13
 -1         7 2.08766E+01 6.14389E+00-1.18939E-01-4.55761E+00-3.55271E-15-2.60934E-13
 -1         8 1.98523E+01 5.98618E+00 6.36880E-02-3.07565E+00 2.18575E-15-2.25268E-13
 -1         9 1.92792E+01 5.81190E+00 5.42956E-02-2.29963E+00 5.45397E-15-1.75179E-13
 -1        10 1.89598E+01 5.70944E+00 4.97290E-02-1.72774E+00 8.16708E-15-1.33715E-13
 -1        11 1.87505E+01 5.64294E+00 4.37093E-02-1.26680E+00 7.49401E-15-9.04780E-14
 -1        12 1.86134E+01 5.59954E+00 3.87911E-02-8.82263E-01 7.37518E-15-5.03792E-14
 -1        13 1.85308E+01 5.57369E+00 3.60345E-02-5.32885E-01 8.18269E-15-5.42730E-15
 -1        14 1.84990E+01 5.56379E+00 3.56691E-02-2.01794E-01 8.93307E-15 3.84948E-14
 -1        15 1.85123E+01 5.56794E+00 3.73888E-02 1.30973E-01 8.47000E-15 7.87450E-14
 -1        16 1.85651E+01 5.58448E+00 4.06898E-02 4.82151E-01 1.06287E-14 1.26486E-13
 -1        17 1.86544E+01 5.61248E+00 4.50254E-02 8.66537E-01 1.12835E-14 1.77004E-13
 -1        18 1.87804E+01 5.65276E+00 4.96142E-02 1.29087E+00 9.27123E-15 2.53839E-13
 -1        19 1.89646E+01 5.71220E+00 5.34405E-02 1.78904E+00 1.23668E-14 3.34311E-13
 -1        20 1.92559E+01 5.80708E+00 5.42290E-02 2.38664E+00 1.01134E-14 4.27827E-13
 -1        21 1.98034E+01 5.98749E+00 5.50588E-02 3.16165E+00 9.16628E-15 5.45851E-13
 -1        22 2.13033E+01 6.40489E+00 1.49209E-01 4.42159E+00-2.73392E-15 6.59113E-13
 -1        23 2.33067E+01-1.31440E+00-9.24992E-01-7.94229E-01-2.74086E-14-2.57003E-13
 -1        24 1.97041E+01-1.10174E-01-3.26940E-01 6.87725E-02 1.09981E-15-3.09523E-13
 -1        25 1.91810E+01-6.18286E-02-7.64384E-02 6.28385E-02-4.39904E-15-3.59822E-13
 -1        26 1.92117E+01-2.90988E-02-1.42463E-02 3.49887E-02-7.23770E-15-4.25911E-13
 -1        27 1.95557E+01-2.18004E-02-1.00935E-02 2.62723E-02 6.25921E-15-4.44833E-13
 -1        28 2.01528E+01-1.89837E-02-1.60397E-02 2.52800E-02 2.33223E-15-4.00202E-13
 -1        29 2.09697E+01-2.16670E-02-2.52060E-02 2.63807E-02-1.31860E-14-4.02725E-13
 -1        30 2.21480E+01-2.46884E-02-3.76861E-02 3.63450E-02 7.98905E-15-3.90337E-13
 -1        31 2.37557E+01-2.75765E-02-5.23014E-02 5.54589E-02 4.82817E-15-4.40561E-13
 -1        32 2.59032E+01-2.54303E-02-6.09335E-02 8.73323E-02-7.13145E-15-5.43444E-13
 -1        33 2.86324E+01-1.02115E-02-3.95607E-02 1.30063E-01 1.82872E-14-4.51271E-13
 -1        34 3.17040E+01 2.43122E-02 5.47736E-02 1.57154E-01 7.77460E-15-4.10137E-13
 -1        35 3.41879E+01 8.81017E-02 2.47397E-01 1.11506E-01 2.56123E-14-3.92960E-13
 -1        36 3.45680E+01 1.25428E-01 4.46104E-01-1.44495E-01-2.82638E-14-4.11650E-13
 -1        37 3.05518E+01 7.10633E-02 2.73854E-01-6.25064E-01 6.33729E-14-4.21219E-13
 -1        38 2.27821E+01-1.18917E-02-4.96127E-01-8.38360E-01 6.28924E-15-3.53412E-13
 -1        39 1.73719E+01-1.81433E-01-1.17966E+00-3.86139E-01-6.32862E-14-3.84096E-13
 -1        40 1.71831E+01-2.05721E-01-1.21211E+00 4.12347E-01-7.77642E-14-7.81208E-13
 -1        41 2.31122E+01-9.56170E-02-4.85583E-01 8.65819E-01 3.85126E-14-1.05915E-12
 -1        42 3.01362E+01 8.40140E-02 2.25826E-01 6.60573E-01 4.54402E-14-8.12517E-13
 -1        43 3.46366E+01 1.32955E-01 4.54221E-01 2.07692E-01 5.48867E-15-6.33299E-13
 -1        44 3.48466E+01 9.08727E-02 2.74914E-01-9.05975E-02-2.97219E-14-3.75053E-13
 -1        45 3.24815E+01 3.15329E-02 6.80091E-02-1.58966E-01-6.36667E-14-7.68531E-13
 -1        46 2.94900E+01-8.72880E-03-3.70794E-02-1.31045E-01-1.99490E-14-8.98129E-13
 -1        47 2.68375E+01-2.31117E-02-6.19476E-02-8.48462E-02 7.93402E-14-8.09963E-13
 -1        48 2.48603E+01-2.86601E-02-5.70825E-02-5.29110E-02-1.58532E-14-7.56877E-13
 -1        49 2.33428E+01-2.33631E-02-4.15707E-02-2.97754E-02 1.09656E-14-1.08966E-12
 -1        50 2.22764E+01-1.83172E-02-2.83791E-02-1.60931E-02 7.67003E-14-6.53622E-13
 -1        51 2.15391E+01-1.36117E-02-1.88129E-02-8.41456E-03-5.10357E-14-7.47440E-13
 -1        52 2.10327E+01-9.85396E-03-1.23884E-02-4.18605E-03-1.14795E-14-1.07395E-12
 -1        53 2.06859E+01-7.08136E-03-8.19165E-03-1.91354E-03 2.54523E-14-1.05202E-12
 -1        54 2.04491E+01-4.83011E-03-5.34480E-03-4.16552E-04 5.79215E-14-5.14274E-13
 -1        55 2.02935E+01-3.74316E-03-3.79379E-03-1.17775E-04-4.24911E-14-2.34110E-13
 -1        56 2.01812E+01-2.56691E-03-2.52082E-03 2.60679E-04 5.28742E-14 1.53567E-13
 -1        57 2.01056E+01-1.82644E-03-1.70901E-03 4.08242E-04-2.04800E-14-3.64301E-13
 -1        58 2.00554E+01-1.29715E-03-1.16064E-03 4.57263E-04-4.49669E-14-6.07939E-13
 -1        59 2.00228E+01-9.24928E-04-7.86032E-04 4.51790E-04 4.87165E-14-1.36886E-13
 -1        60 2.00024E+01-6.27006E-04-5.16902E-04 4.58595E-04 6.13002E-14-2.22732E-14
 -1        61 1.99909E+01-4.71490E-04-3.58130E-04 3.75787E-04-1.02340E-13-2.85832E-13
 -1        62 1.99843E+01-3.17815E-04-2.26810E-04 3.38539E-04 1.21139E-13 7.77408E-14
 -1        63 1.99816E+01-2.15575E-04-1.39225E-04 2.92487E-04-1.26162E-13 2.53526E-13
 -1        64 1.99815E+01-1.42391E-04-7.99008E-05 2.49979E-04 3.65128E-14-8.31838E-14
 -1        65 1.99829E+01-9.11954E-05-4.04053E-05 2.12049E-04 1.71560E-14 5.14873E-13
 -1        66 1.99853E+01-5.27025E-05-1.44847E-05 1.83328E-04-6.77173E-14 5.32849E-13
 -1        67 1.99880E+01-2.67620E-05 2.93313E-06 1.54197E-04 6.15728E-14 1.94490E-13
 -1        68 1.99910E+01-6.75751E-06 1.61955E-05 1.34311E-04-9.62206E-14-1.56889E-13
 -1        69 1.99939E+01 1.09356E-05 3.17603E-05 1.16399E-04 1.37099E-14-3.98422E-13
 -1        70 1.99966E+01 2.81686E-05 5.55643E-05 9.72637E-05 1.14890E-13-5.58597E-13
 -1        71 1.99987E+01 3.76945E-05 8.30002E-05 5.97741E-05-2.16954E-15-1.46138E-13
 -1        72 1.99998E+01-1.03691E-06 5.04953E-05-9.53450E-06 4.24906E-14 3.22933E-13
 -1        73 2.11244E+01-4.04321E-01-9.82447E-01-3.20087E-01-2.01193E-14 7.79030E-13
 -1        74 1.95723E+01-6.54840E-02-2.87784E-01-5.71140E-02 2.42818E-15 8.28920E-13
 -1        75 1.90563E+01-2.00920E-02-6.25101E-02-2.24573E-02 2.69576E-15 8.30221E-13
 -1        76 1.89724E+01-9.29385E-03-8.34143E-03-1.78597E-02-1.29211E-14 9.08638E-13
 -1        77 1.90963E+01-3.96931E-03 1.69277E-03-1.55861E-02 1.10205E-14 9.58728E-13
 -1        78 1.93083E+01-4.06910E-04 4.07539E-03-1.44108E-02-2.49242E-15 9.77722E-13
 -1        79 1.95336E+01 2.39911E-03 6.79157E-03-1.35799E-02-2.80250E-14 1.10780E-12
 -1        80 1.97121E+01 4.74350E-03 1.04620E-02-1.23611E-02-1.21431E-17 1.19399E-12
 -1        81 1.97885E+01 6.52633E-03 1.45016E-02-9.94261E-03-1.90500E-14 1.17047E-12
 -1        82 1.97117E+01 7.36741E-03 1.78807E-02-5.52313E-03 2.85810E-14 1.06743E-12
 -1        83 1.94429E+01 6.75287E-03 1.91123E-02 1.41397E-03 9.03379E-15 9.31958E-13
 -1        84 1.89689E+01 4.28932E-03 1.64975E-02 1.06342E-02-1.64194E-14 1.04278E-12
 -1        85 1.83191E+01 4.15869E-05 8.86116E-03 2.06816E-02 2.10211E-15 1.12270E-12
 -1        86 1.75765E+01-5.21300E-03-3.42041E-03 2.88135E-02 1.25322E-14 1.09481E-12
 -1        87 1.68728E+01-1.00532E-02-1.77248E-02 3.17596E-02 3.81176E-14 8.21466E-13
 -1        88 1.63605E+01-1.29149E-02-2.96320E-02 2.72645E-02-4.78589E-14 8.58418E-13
 -1        89 1.61674E+01-1.28233E-02-3.47700E-02 1.56262E-02-1.65883E-14 9.95110E-13
 -1        90 1.63502E+01-9.88582E-03-3.11329E-02 5.47042E-05 5.92197E-14 8.35275E-13
 -1        91 1.68732E+01-5.20018E-03-2.02558E-02-1.47066E-02-3.14392E-14 6.70262E-13
 -1        92 1.76232E+01-2.73956E-04-6.29933E-03-2.46681E-02-6.63591E-15 8.77815E-13
 -1        93 1.84524E+01 3.63607E-03 6.16966E-03-2.81987E-02 7.63136E-16 9.56955E-13
 -1        94 1.92261E+01 5.91032E-03 1.42353E-02-2.61170E-02 4.21641E-14 9.55925E-13
 -1        95 1.98539E+01 6.56456E-03 1.72623E-02-2.06212E-02-1.55878E-14 7.01872E-13
 -1        96 2.02979E+01 6.01490E-03 1.63024E-02-1.40262E-02 5.84976E-15 5.68651E-13
 -1        97 2.05633E+01 4.79959E-03 1.30713E-02-7.99203E-03-1.83509E-14 6.75786E-13
 -1        98 2.06810E+01 3.38227E-03 9.11997E-03-3.34009E-03 4.97711E-14 7.12911E-13
 -1        99 2.06920E+01 2.07084E-03 5.47059E-03-2.33926E-04 1.02490E-14 5.83553E-13
 -1       100 2.06354E+01 1.01891E-03 2.60795E-03 1.53672E-03-5.82413E-14 5.33618E-13
 -1       101 2.05436E+01 2.66203E-04 6.31702E-04 2.32139E-03 6.67283E-15 4.90950E-13
 -1       102 2.04397E+01-2.14233E-04-5.68242E-04 2.46623E-03-3.19338E-14 3.53072E-13
 -1       103 2.03387E+01-4.78585E-04-1.18024E-03 2.24995E-03 3.09775E-14 5.18758E-13
 -1       104 2.02491E+01-5.88270E-04-1.39397E-03 1.86910E-03-2.26339E-14 6.22551E-13
 -1       105 2.01743E+01-5.97465E-04-1.36587E-03 1.44764E-03 6.54007E-14 1.20374E-12
 -1       106 2.01150E+01-5.48414E-04-1.21019E-03 1.05468E-03-7.57824E-14 8.49309E-13
 -1       107 2.00701E+01-4.71182E-04-1.00286E-03 7.22238E-04-3.98548E-14 6.84597E-13
 -1       108 2.00375E+01-3.85464E-04-7.89871E-04 4.59442E-04-6.83395E-15 2.11956E-13
 -1       109 2.00148E+01-3.03022E-04-5.96008E-04 2.62798E-04 7.11867E-14-1.27225E-13
 -1       110 2.00000E+01-2.30007E-04-4.32223E-04 1.22874E-04-1.08209E-14 2.88879E-13
 -1       111 1.99911E+01-1.68869E-04-3.01082E-04 2.83347E-05 4.62031E-14 3.16737E-13
 -1       112 1.99865E+01-1.19782E-04-2.00532E-04-3.18434E-05-4.98232E-15 2.91521E-13
 -1       113 1.99848E+01-8.16373E-05-1.26314E-04-6.73320E-05 4.55810E-15 3.37561E-13
 -1       114 1.99851E+01-5.26843E-05-7.33916E-05-8.61019E-05 1.03733E-14-9.56584E-14
 -1       115 1.99866E+01-3.09132E-05-3.66729E-05-9.44466E-05 2.11751E-14-3.90078E-13
 -1       116 1.99889E+01-1.42514E-05-1.11839E-05-9.71622E-05 4.30638E-14-6.99182E-13
 -1       117 1.99916E+01-6.83456E-07 8.30159E-06-9.76681E-05-5.59717E-14-6.43674E-13
 -1       118 1.99943E+01 1.16803E-05 2.80428E-05-9.78417E-05-1.52003E-14-4.82432E-13
 -1       119 1.99968E+01 2.37212E-05 5.45293E-05-9.68844E-05 1.70854E-14-4.25265E-13
 -1       120 1.99987E+01 3.27612E-05 8.38496E-05-8.35583E-05 3.47919E-14-6.21084E-13
 -1       121 1.99998E+01-2.52960E-05 3.66513E-05-1.78733E-05 1.70082E-13-6.89242E-13
 -1       122 1.99998E+01-9.27156E-05 3.33799E-05-4.06867E-07-4.46709E-13 8.41355E-14
 -1       123 1.99998E+01-1.11216E-03 6.58453E-05-6.33453E-05-3.65663E-13 6.93841E-14
 -1       124 1.99998E+01-2.90801E-03 2.41641E-05-8.49845E-05 1.82790E-13 2.50547E-13
 -1       125 1.99998E+01-4.93964E-03-1.04006E-05-8.12871E-05 1.06037E-13 1.34581E-13
 -1       126 1.99998E+01-6.86096E-03-3.07961E-05-6.68572E-05-7.09364E-14-4.62715E-14
 -1       127 1.99998E+01-8.43618E-03-4.20663E-05-4.98435E-05-1.02803E-12-1.81692E-13
 -1       128 1.99998E+01-9.58551E-03-4.76417E-05-3.09909E-05-8.24621E-13 1.94273E-13
 -1       129 1.99998E+01-1.02055E-02-5.06452E-05-1.17946E-05-9.03914E-13-2.33255E-13
 -1       130 1.99998E+01-1.02562E-02-5.19123E-05 7.85883E-06-3.70920E-13 1.72781E-13
 -1       131 1.99998E+01-9.72428E-03-5.11385E-05 2.82261E-05-1.85355E-13-2.91694E-13
 -1       132 1.99998E+01-8.62707E-03-4.64380E-05 4.98780E-05-2.00936E-12-1.95649E-13
 -1       133 1.99998E+01-7.05574E-03-3.55670E-05 6.88704E-05-2.55445E-12 3.16839E-13
 -1       134 1.99998E+01-5.08984E-03-1.32209E-05 8.51673E-05-1.57708E-12-1.35417E-13
 -1       135 1.99998E+01-2.98580E-03 2.58664E-05 9.12319E-05-4.22242E-13 1.98719E-13
 -1       136 1.99998E+01-1.12072E-03 7.08547E-05 6.19603E-05 4.41253E-13-5.52646E-13
 -1       137 1.99998E+01-9.93382E-05 3.37174E-05-1.10917E-05-5.20618E-13-1.56350E-13
 -1       138-1.45144E+00-1.87379E+01-2.89794E+00-3.54914E+00 3.94407E-13-3.69010E-14
 -1       139-7.78623E-01-5.40683E+00-1.92766E+00-1.59487E+00 6.19393E-13 3.64625E-13
 -1       140 4.90441E+00 6.30691E+00-7.00207E-01 5.71344E+00 1.22530E-12 1.20332E-12
 -1       141 1.83374E+01 1.20102E+01 6.66575E-01 1.46663E+01 1.08591E-12 1.16801E-12
 -1       142 3.90188E+01 1.05119E+01 2.03970E+00 1.95828E+01 6.06071E-13 1.31306E-12
 -1       143 5.80226E+01 4.98806E+00 3.04749E+00 1.55018E+01 2.92461E-13 7.63611E-13
 -1       144 6.85368E+01 1.01158E+00 3.53801E+00 3.29159E+00 1.40304E-14-3.52836E-13
 -1       145 6.47456E+01 2.46408E+00 3.37281E+00-1.04212E+01 1.35434E-13-1.15061E-12
 -1       146 4.90365E+01 7.84620E+00 2.62985E+00-1.87192E+01 3.80473E-13-1.11133E-12
 -1       147 2.86848E+01 1.20512E+01 1.43972E+00-1.82694E+01 6.58140E-13-8.41660E-13
 -1       148 1.15006E+01 1.00434E+01 4.45406E-02-1.07850E+01 7.71105E-13-7.95308E-13
 -1       149 8.37256E-01-5.23327E-01-1.46068E+00-9.54058E-01 3.06200E-13-2.68563E-13
 -1       150-1.69922E+00-1.44466E+01-2.64312E+00 4.02060E+00-1.47882E-13 5.12784E-14
 -1       151-9.18032E-01-2.49473E+01-3.37194E+00 1.94353E+00-5.15504E-13-3.01825E-14
 -1       152-1.23589E+00-2.61971E+01-3.56074E+00-3.12429E+00-6.39960E-13-1.24418E-13
 -1       153-2.57809E+00-1.76295E+01-3.21999E+00-5.77793E+00-6.36380E-13-2.52479E-13
 -1       154-1.30556E+00-4.65878E+00-2.39425E+00-1.95712E+00-5.57887E-13-2.69063E-13
 -1       155 9.62121E+00 6.72950E+00-8.58228E-01 8.25243E+00-6.84119E-13-8.32556E-13
 -1       156 3.11064E+01 1.03912E+01 1.23091E+00 1.77142E+01-2.89380E-13-3.64930E-13
 -1       157 5.68918E+01 7.03509E+00 3.47391E+00 1.88033E+01 1.36807E-13 4.35763E-13
 -1       158 7.55416E+01 2.34308E+00 5.03358E+00 8.87574E+00 5.43159E-14 5.99160E-13
 -1       159 7.71561E+01 1.94161E+00 5.15684E+00-6.21107E+00-1.51545E-14 6.50452E-13
 -1       160 6.02483E+01 6.09487E+00 3.73130E+00-1.77180E+01-5.05429E-13 1.21791E-12
 -1       161 3.40693E+01 1.00718E+01 1.46014E+00-1.81838E+01-8.99669E-13 1.62259E-12
 -1       162 1.08458E+01 7.24622E+00-7.36213E-01-9.04360E+00-8.53095E-13 1.05549E-12
 -1       163-2.80087E+00-1.55102E+01-3.11419E+00 5.75187E+00-3.23630E-14 9.51739E-14
 -1       164-1.53231E+00-2.46382E+01-3.48723E+00 4.52394E+00 6.52145E-13-1.22367E-13
 -1       165 2.12291E+01 3.68010E+00-4.89032E-02-3.41863E+00-8.09942E-15-2.13669E-13
 -1       166 2.01794E+01 4.22717E+00-4.33878E-02-2.57758E+00 3.92863E-14-1.68372E-13
 -1       167 1.96093E+01 4.52870E+00-2.99580E-02-1.96125E+00 7.36689E-14-1.33116E-13
 -1       168 1.92552E+01 4.69355E+00-2.22457E-02-1.46600E+00 8.97821E-14-1.08923E-13
 -1       169 1.90240E+01 4.78998E+00-1.81323E-02-1.06055E+00 9.25941E-14-6.30893E-14
 -1       170 1.88764E+01 4.84421E+00-1.59243E-02-7.00570E-01 9.75172E-14-2.14030E-14
 -1       171 1.88041E+01 4.86542E+00-1.48916E-02-3.68218E-01 1.07763E-13 2.63444E-14
 -1       172 1.87973E+01 4.86064E+00-1.47015E-02-4.21275E-02 1.22658E-13 6.21092E-14
 -1       173 1.88473E+01 4.83458E+00-1.52419E-02 2.95232E-01 1.29292E-13 1.05737E-13
 -1       174 1.89478E+01 4.78901E+00-1.65730E-02 6.58446E-01 1.31811E-13 1.38045E-13
 -1       175 1.90953E+01 4.72289E+00-1.90368E-02 1.05367E+00 1.20302E-13 1.98604E-13
 -1       176 1.93077E+01 4.62430E+00-2.35524E-02 1.50928E+00 1.21753E-13 2.72440E-13
 -1       177 1.96245E+01 4.46785E+00-3.21381E-02 2.04017E+00 9.88857E-14 3.42502E-13
 -1       178 2.01632E+01 4.18062E+00-4.61593E-02 2.67776E+00 6.70072E-14 4.46924E-13
 -1       179 2.12975E+01 3.44632E+00-5.85036E-02 3.39280E+00 7.65880E-15 5.39006E-13
 -1       180 2.25570E+01 1.12643E+00-3.33981E-01 2.90868E+00-4.57880E-14 6.17700E-13
 -1       181 2.22645E+01 9.11204E-01 4.08542E-04-1.87932E+00-1.25143E-14-1.97828E-13
 -1       182 2.08696E+01 2.14395E-01-9.55376E-03-6.34835E-01-2.83194E-14-2.02682E-13
 -1       183 2.02571E+01 1.25755E-01 1.49655E-02-9.78118E-02-3.37074E-14-2.07857E-13
 -1       184 2.01471E+01 8.38412E-02 1.24143E-02 1.99770E-01-2.09078E-15-2.19072E-13
 -1       185 2.03407E+01 7.67942E-02 8.35169E-03 4.24354E-01 2.97917E-14-2.41443E-13
 -1       186 2.07507E+01 8.65829E-02 6.39141E-03 6.33096E-01 1.19171E-14-1.89093E-13
 -1       187 2.14089E+01 1.10171E-01 5.55655E-03 8.85978E-01 8.19917E-15-1.54492E-13
 -1       188 2.23168E+01 1.42262E-01 4.30970E-03 1.20128E+00-3.88400E-14-1.84034E-13
 -1       189 2.35027E+01 1.70506E-01 1.51463E-03 1.58259E+00 2.53270E-15-1.16826E-13
 -1       190 2.49794E+01 1.60101E-01-3.08997E-03 1.97953E+00 3.92613E-14-4.62399E-14
 -1       191 2.67006E+01 3.14219E-02-6.86811E-03 2.21833E+00 1.24414E-14-1.20241E-13
 -1       192 2.84212E+01-3.04768E-01-3.72218E-03 1.95265E+00 1.13928E-14-1.25093E-13
 -1       193 3.00224E+01-9.38837E-01 1.02181E-02 6.18263E-01 3.33657E-14-6.53045E-14
 -1       194 3.08489E+01-1.45274E+00-2.48213E-03-2.00344E+00-7.65048E-14-3.76721E-14
 -1       195 3.03125E+01-6.40913E-01-1.10847E-01-4.44150E+00-7.72160E-14-2.25235E-13
 -1       196 2.90921E+01 1.17790E+00-2.05564E-01-3.99736E+00-9.20097E-14-3.96672E-13
 -1       197 2.82031E+01 2.53364E+00-2.59747E-01-4.42548E-01-2.04725E-13-5.36228E-13
 -1       198 2.88447E+01 1.49777E+00-2.34471E-01 3.69805E+00-2.23627E-13-4.91878E-13
 -1       199 3.02492E+01-5.08417E-01-1.24744E-01 4.60620E+00 6.39697E-14-5.76678E-13
 -1       200 3.10585E+01-1.46755E+00-1.11318E-02 2.47937E+00 1.93339E-13-4.83849E-13
 -1       201 3.04569E+01-1.03955E+00 1.25481E-02-2.71661E-01 4.18693E-14-3.60054E-13
 -1       202 2.89981E+01-3.75243E-01 2.18705E-03-1.78389E+00-1.92605E-13-4.38561E-13
 -1       203 2.72554E+01 1.72060E-02-5.45822E-03-2.14309E+00-6.91815E-14-4.31166E-13
 -1       204 2.55916E+01 1.61855E-01-3.37351E-03-1.91481E+00 1.84529E-14-3.57536E-13
 -1       205 2.42377E+01 1.79427E-01 6.40821E-04-1.52864E+00 7.49635E-14-3.31759E-13
 -1       206 2.30940E+01 1.51656E-01 3.30466E-03-1.13449E+00-1.50623E-13-3.71928E-13
 -1       207 2.22258E+01 1.14463E-01 4.14230E-03-8.13579E-01 1.66014E-13-4.95701E-13
 -1       208 2.15831E+01 8.20734E-02 3.84819E-03-5.73430E-01 4.61870E-15-4.95181E-13
 -1       209 2.11155E+01 5.74648E-02 3.13769E-03-4.00800E-01-1.76506E-13-2.60099E-13
 -1       210 2.07788E+01 3.98488E-02 2.39471E-03-2.79030E-01 8.29484E-14-2.10191E-13
 -1       211 2.05384E+01 2.75276E-02 1.78680E-03-1.93769E-01 2.15060E-13-2.96700E-13
 -1       212 2.03742E+01 1.94262E-02 1.26688E-03-1.36615E-01 1.23077E-13-3.13473E-13
 -1       213 2.02506E+01 1.35361E-02 9.39874E-04-9.42788E-02 1.45332E-13-3.74119E-13
 -1       214 2.01638E+01 9.43753E-03 6.71655E-04-6.44897E-02-4.45474E-13-3.72181E-13
 -1       215 2.01033E+01 6.59021E-03 4.80465E-04-4.35760E-02-9.77954E-14-3.51364E-13
 -1       216 2.00617E+01 4.59637E-03 3.43605E-04-2.88856E-02 1.32042E-13-3.37692E-13
 -1       217 2.00335E+01 3.18631E-03 2.46737E-04-1.85882E-02 2.29325E-13-3.18904E-13
 -1       218 2.00157E+01 2.23136E-03 1.72367E-04-1.17137E-02-1.59602E-13-1.65251E-13
 -1       219 2.00036E+01 1.51981E-03 1.25056E-04-6.69286E-03 1.45303E-13-2.34880E-13
 -1       220 1.99964E+01 1.01179E-03 8.69281E-05-3.26772E-03 9.57514E-14-3.42261E-13
 -1       221 1.99926E+01 6.54308E-04 5.97431E-05-9.92805E-04-1.97559E-13-3.54448E-13
 -1       222 1.99910E+01 4.04546E-04 4.01747E-05 4.72326E-04 3.02344E-13-1.62718E-13
 -1       223 1.99909E+01 2.31027E-04 2.59360E-05 1.37004E-03 1.60101E-13-1.35777E-13
 -1       224 1.99917E+01 1.15211E-04 1.52388E-05 1.85238E-03 3.11885E-14 4.02816E-13
 -1       225 1.99931E+01 2.75103E-05 7.79345E-06 2.08016E-03-2.04442E-13 4.22076E-13
 -1       226 1.99947E+01-4.39259E-05 1.65947E-06 2.09208E-03-2.48345E-13 3.91220E-13
 -1       227 1.99963E+01-1.16143E-04-2.28753E-06 1.91347E-03-7.32506E-14 2.89673E-13
 -1       228 1.99978E+01-2.06172E-04-3.20611E-06 1.53207E-03 5.80870E-14 5.09717E-14
 -1       229 1.99990E+01-3.45323E-04-2.80549E-06 9.28957E-04 1.48654E-13 1.52759E-13
 -1       230 2.11825E+01 2.73268E-01-4.96047E-02 1.07427E+00-4.14599E-15 5.65264E-13
 -1       231 2.01820E+01 1.26557E-01 9.14148E-03 3.62548E-01 2.14065E-15 5.61296E-13
 -1       232 1.97694E+01 5.72327E-02 1.27194E-02 7.21570E-02-3.09258E-14 5.32479E-13
 -1       233 1.96493E+01 2.53768E-02 7.21608E-03-6.20924E-02-1.70001E-14 5.24730E-13
 -1       234 1.96770E+01 7.33295E-03 3.30244E-03-1.18048E-01-3.93995E-14 5.66536E-13
 -1       235 1.97646E+01-6.39182E-03 1.33886E-03-1.23041E-01-7.65905E-14 5.77506E-13
 -1       236 1.98502E+01-1.87503E-02 4.63076E-04-8.67936E-02-1.99984E-14 5.97218E-13
 -1       237 1.98840E+01-3.02967E-02 1.20750E-04-1.35370E-02 2.08743E-14 5.96085E-13
 -1       238 1.98249E+01-3.97801E-02 9.62273E-05 9.15101E-02 5.41364E-14 5.11974E-13
 -1       239 1.96434E+01-4.44348E-02 2.56888E-04 2.17241E-01 4.55330E-14 5.83008E-13
 -1       240 1.93288E+01-4.06286E-02 4.47583E-04 3.43167E-01-9.78839E-15 5.85595E-13
 -1       241 1.88991E+01-2.53960E-02 4.93083E-04 4.39234E-01-3.71595E-14 5.64677E-13
 -1       242 1.84069E+01 1.24283E-03 2.77563E-04 4.71377E-01 2.92067E-14 5.63493E-13
 -1       243 1.79364E+01 3.43380E-02-1.43960E-04 4.13403E-01 7.72143E-14 5.91686E-13
 -1       244 1.75869E+01 6.43141E-02-5.20659E-04 2.61252E-01-1.56262E-14 6.06323E-13
 -1       245 1.74437E+01 8.05419E-02-5.55424E-04 4.12883E-02-2.87439E-14 4.76459E-13
 -1       246 1.75483E+01 7.67777E-02-1.37650E-04-1.95066E-01 1.20235E-13 4.68589E-13
 -1       247 1.78833E+01 5.48108E-02 5.32716E-04-3.90403E-01 4.18010E-14 4.92596E-13
 -1       248 1.83793E+01 2.33292E-02 1.08478E-03-5.03874E-01-9.03226E-14 4.06689E-13
 -1       249 1.89410E+01-6.99812E-03 1.22280E-03-5.24130E-01-1.38772E-14 4.21297E-13
 -1       250 1.94775E+01-2.84931E-02 9.23799E-04-4.67205E-01 6.96581E-14 3.65467E-13
 -1       251 1.99246E+01-3.85861E-02 3.74843E-04-3.63966E-01 8.89806E-14 4.08011E-13
 -1       252 2.02511E+01-3.88965E-02-1.84309E-04-2.46176E-01 8.38225E-14 3.02932E-13
 -1       253 2.04550E+01-3.29959E-02-5.81262E-04-1.37544E-01-8.20104E-14 3.85499E-13
 -1       254 2.05531E+01-2.44652E-02-7.59982E-04-5.10211E-02 1.69233E-14 4.87039E-13
 -1       255 2.05712E+01-1.58937E-02-7.51647E-04 9.60492E-03 4.52896E-14 5.07129E-13
 -1       256 2.05356E+01-8.70048E-03-6.25058E-04 4.64539E-02-3.10319E-14 5.04027E-13
 -1       257 2.04696E+01-3.38369E-03-4.49307E-04 6.44551E-02-6.07129E-14 5.35676E-13
 -1       258 2.03905E+01 1.22840E-04-2.74571E-04 6.91572E-02-1.62351E-14 6.35581E-13
 -1       259 2.03106E+01 2.15031E-03-1.28664E-04 6.55070E-02-1.50002E-14 4.81956E-13
 -1       260 2.02371E+01 3.09919E-03-2.15697E-05 5.73563E-02-1.47778E-13 5.43492E-13
 -1       261 2.01738E+01 3.33517E-03 4.78784E-05 4.74102E-02-6.39976E-14 6.38615E-13
 -1       262 2.01219E+01 3.14778E-03 8.63150E-05 3.73910E-02 1.40738E-13 7.19262E-13
 -1       263 2.00812E+01 2.74481E-03 1.01956E-04 2.82719E-02 9.56651E-14 6.91857E-13
 -1       264 2.00504E+01 2.26327E-03 1.02464E-04 2.05052E-02 3.02800E-13 4.08462E-13
 -1       265 2.00281E+01 1.78585E-03 9.40212E-05 1.42087E-02-2.27227E-14 2.89444E-13
 -1       266 2.00125E+01 1.35683E-03 8.11415E-05 9.30632E-03-3.21589E-13 3.72816E-13
 -1       267 2.00022E+01 9.95215E-04 6.68435E-05 5.62384E-03 8.19053E-14 3.19779E-13
 -1       268 1.99960E+01 7.04512E-04 5.29630E-05 2.95142E-03 4.01067E-14 5.55939E-13
 -1       269 1.99926E+01 4.79546E-04 4.04715E-05 1.08062E-03 9.55827E-14 3.99847E-13
 -1       270 1.99913E+01 3.10853E-04 2.97513E-05-1.75363E-04 3.30373E-13 3.54591E-13
 -1       271 1.99914E+01 1.87298E-04 2.08152E-05-9.72348E-04 1.21720E-13 9.91037E-14
 -1       272 1.99923E+01 9.73937E-05 1.35029E-05-1.43183E-03 2.86492E-13-9.47244E-14
 -1       273 1.99938E+01 2.96146E-05 7.74274E-06-1.64050E-03-1.41737E-13-3.95991E-13
 -1       274 1.99954E+01-2.79099E-05 4.05360E-06-1.65023E-03-4.80438E-14-2.17544E-13
 -1       275 1.99970E+01-8.75570E-05 3.85786E-06-1.47782E-03 4.97357E-14-2.69870E-13
 -1       276 1.99984E+01-1.69137E-04 4.51884E-06-1.10537E-03 1.35806E-13-2.78218E-13
 -1       277 1.99993E+01-2.48475E-04 1.96394E-06-5.25358E-04-1.13378E-14-1.67966E-13
 -1       278 1.99995E+01-8.59202E-04-2.86952E-06-8.90839E-04 1.19975E-13 8.62389E-14
 -1       279 1.99997E+01-1.90317E-03-1.88726E-06-1.35435E-03 1.05355E-13 2.63890E-13
 -1       280 1.99998E+01-3.13916E-03-1.08370E-06-1.51982E-03 1.08137E-13 1.21185E-13
 -1       281 1.99999E+01-4.39640E-03 1.00337E-06-1.44368E-03-8.54436E-14-3.50831E-13
 -1       282 1.99999E+01-5.50629E-03 3.49099E-06-1.20950E-03-5.50016E-13-4.61586E-13
 -1       283 2.00000E+01-6.39834E-03 5.43509E-06-8.70418E-04-5.24338E-13-6.53460E-14
 -1       284 2.00000E+01-6.97678E-03 6.68539E-06-4.70909E-04-4.89048E-13 1.72749E-15
 -1       285 2.00000E+01-7.19920E-03 7.17119E-06-3.93513E-05 2.22062E-14 2.86712E-13
 -1       286 2.00000E+01-7.04605E-03 6.87997E-06 4.02158E-04-2.03334E-13-8.31310E-14
 -1       287 2.00000E+01-6.52069E-03 5.71686E-06 8.29037E-04-3.16992E-13-1.11401E-12
 -1       288 1.99999E+01-5.67201E-03 3.68711E-06 1.19971E-03-3.66744E-13-5.01437E-13
 -1       289 1.99999E+01-4.53827E-03 1.22930E-06 1.47384E-03-3.91627E-13 4.76096E-13
 -1       290 1.99998E+01-3.24937E-03-1.46502E-06 1.57284E-03-1.89293E-14 6.26956E-13
 -1       291 1.99997E+01-1.96359E-03-3.46818E-06 1.40999E-03-2.89385E-13 1.06628E-13
 -1       292-2.11273E-01-9.27580E+00-6.20676E-01 2.99560E+00 2.68924E-13-7.26641E-14
 -1       293 4.38487E+00-7.68509E+00-6.00696E-01 5.03743E+00 3.50109E-13 3.39090E-13
 -1       294 1.11571E+01-3.81524E+00-3.98183E-01 6.59772E+00 2.74225E-13 6.52894E-13
 -1       295 2.04157E+01 3.67429E-01-1.32443E-02 8.21973E+00 5.24303E-13 4.36207E-13
 -1       296 3.14519E+01 3.05878E+00 3.38664E-01 7.76358E+00 4.89414E-13 5.95052E-13
 -1       297 4.07048E+01 5.71600E+00 6.76940E-01 6.38181E+00 4.95527E-13 4.36595E-13
 -1       298 4.60817E+01 7.16369E+00 8.32147E-01 2.75211E+00 5.25135E-13 2.08417E-13
 -1       299 4.88044E+01 7.01421E+00 1.02471E+00-1.18789E+00 4.13752E-13-1.75464E-13
 -1       300 4.42743E+01 6.48482E+00 8.46637E-01-4.83491E+00 1.34254E-13-4.02373E-13
 -1       301 3.66391E+01 4.88751E+00 6.25237E-01-7.93555E+00 1.39833E-13-4.10227E-13
 -1       302 2.63061E+01 2.12161E+00 2.14293E-01-8.43568E+00 2.62873E-13-2.86465E-13
 -1       303 1.74222E+01-3.27499E+00-1.34140E-01-7.55267E+00-2.75335E-14-3.87509E-13
 -1       304 7.40916E+00-6.54032E+00-4.46179E-01-6.12079E+00-1.39416E-13-2.50458E-13
 -1       305 5.94439E-01-1.04649E+01-8.86524E-01-3.04781E+00-1.54071E-13-1.66145E-13
 -1       306-1.42830E+00-1.06212E+01-7.92136E-01-8.96240E-01-2.08927E-13-1.01447E-13
 -1       307 1.49395E-01-1.10721E+01-9.61269E-01 1.45686E+00-2.86965E-13-6.41709E-14
 -1       308 5.40271E+00-8.56079E+00-8.93228E-01 3.54523E+00-2.78666E-13-1.42374E-13
 -1       309 1.62348E+01-5.09078E+00-4.50051E-01 5.98103E+00-1.06359E-13-3.57298E-13
 -1       310 2.96237E+01-2.24666E+00-1.58247E-02 5.29939E+00-2.91350E-13 9.57290E-14
 -1       311 4.12413E+01 2.85644E+00 7.13332E-01 5.43398E+00-3.26059E-13 2.45359E-13
 -1       312 5.01777E+01 5.85249E+00 1.33070E+00 2.89497E+00 9.22873E-15 2.86188E-13
 -1       313 4.97546E+01 7.68922E+00 1.13919E+00 2.36726E-01-7.70217E-14 3.26454E-13
 -1       314 5.03803E+01 6.12350E+00 1.29676E+00-2.04467E+00-3.69316E-13 5.02987E-13
 -1       315 4.26722E+01 3.17532E+00 7.93202E-01-4.90398E+00-5.35148E-13 5.69933E-13
 -1       316 3.09917E+01-1.86571E+00 7.20610E-02-4.93985E+00-2.40918E-13 5.62661E-13
 -1       317 1.67660E+01-4.56462E+00-4.72425E-01-5.86212E+00-3.36564E-13 6.01852E-13
 -1       318 6.90222E+00-7.99696E+00-7.95123E-01-4.04538E+00-7.11375E-14 5.29226E-13
 -1       319 8.27105E-01-1.10166E+01-1.03317E+00-1.56402E+00 8.88178E-14 3.99153E-13
 -1       320-1.42796E+00-1.16541E+01-9.51098E-01 2.43550E-01 2.95569E-13 1.53849E-13
 -1       321 1.99995E+01-8.84568E-04-9.15941E-06 9.35772E-04-1.33484E-13-4.03110E-13
 -1       322 2.02887E+01 3.07232E+00-2.16150E-02-1.81756E+00 4.91688E-14-1.15184E-13
 -1       323 2.10031E+01 2.22365E+00-1.66955E-02-2.10824E+00 2.30328E-15-1.46516E-13
 -1       324 1.94661E+01 3.87205E+00-1.44934E-02-1.10754E+00 1.02146E-13-7.74931E-14
 -1       325 1.92388E+01 4.05473E+00-1.22701E-02-7.90262E-01 1.08998E-13-2.59710E-14
 -1       326 1.91112E+01 4.14733E+00-1.11219E-02-4.96273E-01 1.28634E-13 1.20455E-14
 -1       327 1.90712E+01 4.16988E+00-1.07257E-02-2.08267E-01 1.45052E-13 5.86345E-14
 -1       328 1.91065E+01 4.13571E+00-1.09285E-02 8.95048E-02 1.47810E-13 9.83419E-14
 -1       329 1.92059E+01 4.05208E+00-1.16737E-02 4.08624E-01 1.53269E-13 1.23532E-13
 -1       330 1.93601E+01 3.92100E+00-1.30404E-02 7.50389E-01 1.52868E-13 1.50024E-13
 -1       331 1.95780E+01 3.72475E+00-1.53175E-02 1.12935E+00 1.42452E-13 2.14750E-13
 -1       332 1.98797E+01 3.42851E+00-1.89740E-02 1.53469E+00 1.16388E-13 2.77319E-13
 -1       333 2.03176E+01 2.94948E+00-2.33789E-02 1.93225E+00 7.94740E-14 3.43837E-13
 -1       334 2.09494E+01 2.09215E+00-2.91090E-02 2.14082E+00 3.81192E-14 4.32689E-13
 -1       335 2.13002E+01 1.17300E+00-2.33746E-02 1.77733E+00 1.51441E-14 4.85285E-13
 -1       336 2.06496E+01 4.86547E-01 8.45655E-03 7.86262E-01 6.69603E-15 4.62572E-13
 -1       337 2.08511E+01 7.64336E-01 1.30824E-02-7.49463E-01-4.42485E-15-1.27383E-13
 -1       338 2.05584E+01 4.59669E-01 8.78965E-03-7.04115E-02-1.30273E-14-1.19375E-13
 -1       339 2.04713E+01 3.53558E-01 6.49399E-03 3.96645E-01 7.84746E-15-1.28593E-13
 -1       340 2.05456E+01 3.40577E-01 5.07122E-03 7.68746E-01 3.38644E-14-1.14042E-13
 -1       341 2.07608E+01 3.85459E-01 5.03903E-03 1.15824E+00 2.66423E-14-1.03964E-13
 -1       342 2.10931E+01 4.71354E-01 5.31561E-03 1.59641E+00 2.12447E-14-8.23699E-14
 -1       343 2.15293E+01 5.68793E-01 5.20397E-03 2.11049E+00 5.11596E-14-6.57001E-14
 -1       344 2.20720E+01 6.07712E-01 3.99787E-03 2.68895E+00 4.77324E-14-4.35782E-14
 -1       345 2.27683E+01 4.27074E-01 1.13014E-03 3.24254E+00 4.02625E-14-4.15004E-14
 -1       346 2.37244E+01-2.01073E-01-6.61431E-04 3.52801E+00 8.81803E-15-5.58759E-14
 -1       347 2.53930E+01-1.64596E+00 4.78258E-03 3.13231E+00 1.40304E-14-6.05549E-14
 -1       348 2.83667E+01-3.72838E+00 1.81637E-02 1.35164E+00 6.57321E-14-8.99181E-14
 -1       349 3.19390E+01-3.94532E+00-8.57918E-02-1.84958E+00-1.71177E-13 1.27971E-13
 -1       350 3.57256E+01 5.23176E+00-7.09949E-02-2.69437E+00-2.22766E-13-1.46314E-13
 -1       351 3.55233E+01 5.32266E+00-5.66608E-02 2.00214E+00-2.26930E-13-1.01433E-13
 -1       352 3.50884E+01 9.69333E-01-1.06904E-01 4.33293E+00-3.65555E-13-1.89695E-13
 -1       353 3.24713E+01-3.58037E+00-1.10655E-01 2.73435E+00 2.32796E-13-3.02661E-13
 -1       354 2.90197E+01-3.39210E+00-4.32358E-03-6.41119E-01 2.10089E-13-4.08804E-13
 -1       355 2.63479E+01-1.62422E+00 8.36576E-03-2.67776E+00 1.04153E-14-2.34753E-13
 -1       356 2.46304E+01-2.44334E-01 4.80484E-04-3.23364E+00-1.06883E-13-6.58635E-14
 -1       357 2.35360E+01 3.88743E-01 1.21870E-03-2.98624E+00 1.08125E-13-2.67581E-16
 -1       358 2.27890E+01 5.49686E-01 3.66588E-03-2.47478E+00-2.24365E-14-4.03141E-14
 -1       359 2.21661E+01 5.12994E-01 4.97539E-03-1.90709E+00-8.95334E-15-3.91332E-14
 -1       360 2.16640E+01 4.10707E-01 5.05084E-03-1.41558E+00-9.63678E-14-1.45519E-14
 -1       361 2.12599E+01 3.06506E-01 4.28123E-03-1.02842E+00 7.68732E-14-2.61287E-13
 -1       362 2.09404E+01 2.20945E-01 3.30495E-03-7.38078E-01 1.37580E-14-2.30062E-13
 -1       363 2.06924E+01 1.56635E-01 2.42216E-03-5.26012E-01 1.02281E-13 2.50399E-13
 -1       364 2.05034E+01 1.10240E-01 1.75155E-03-3.73251E-01 3.50004E-14 1.58789E-13
 -1       365 2.03669E+01 7.89718E-02 1.23019E-03-2.68425E-01 2.22762E-14-1.90391E-13
 -1       366 2.02589E+01 5.55652E-02 8.79935E-04-1.88843E-01 1.43371E-14-3.02285E-13
 -1       367 2.01795E+01 3.91832E-02 6.16507E-04-1.32017E-01-5.23477E-14-5.26772E-13
 -1       368 2.01216E+01 2.76636E-02 4.32607E-04-9.14012E-02-2.10783E-13-2.96318E-13
 -1       369 2.00800E+01 1.95189E-02 3.04084E-04-6.23962E-02 9.87634E-14-1.57234E-13
 -1       370 2.00505E+01 1.37232E-02 2.15537E-04-4.17329E-02 1.64119E-13-1.90928E-13
 -1       371 2.00307E+01 9.77440E-03 1.49436E-04-2.76962E-02 1.27227E-13-3.66368E-13
 -1       372 2.00164E+01 6.76433E-03 1.06085E-04-1.71977E-02-3.99652E-14-3.33655E-13
 -1       373 2.00071E+01 4.61149E-03 7.23835E-05-9.89379E-03 1.09422E-14-4.57144E-13
 -1       374 2.00011E+01 3.07732E-03 4.88092E-05-4.89116E-03-2.44638E-16-3.79822E-13
 -1       375 1.99977E+01 1.98998E-03 3.21853E-05-1.54179E-03 2.77133E-13-7.07035E-16
 -1       376 1.99960E+01 1.22402E-03 2.04396E-05 6.27313E-04 1.55535E-13-3.08772E-13
 -1       377 1.99954E+01 7.09506E-04 1.17205E-05 1.90635E-03 4.09658E-13-3.97815E-13
 -1       378 1.99956E+01 3.18913E-04 5.90522E-06 2.66256E-03-2.95800E-14-3.68900E-13
 -1       379 1.99962E+01 2.23706E-05 9.47268E-07 2.97084E-03-1.41839E-13-9.03474E-14
 -1       380 1.99970E+01-2.33907E-04-3.19365E-06 2.92816E-03-1.42999E-13 1.85473E-13
 -1       381 1.99979E+01-5.01006E-04-8.38934E-06 2.58703E-03-8.46572E-14 9.94545E-14
 -1       382 1.99988E+01-7.97186E-04-8.16000E-06 1.95480E-03 8.94705E-14-1.54812E-13
 -1       383 2.02251E+01 2.33514E-01 1.08795E-02 2.69991E-01-6.00778E-15 4.39806E-13
 -1       384 1.32090E+01-5.41139E+00 1.69448E-02 8.16266E+00 5.27356E-16 3.36925E-13
 -1       385 2.00195E+01 1.11659E-01 5.99805E-03-4.08247E-04 2.12720E-16 3.82249E-13
 -1       386 1.99578E+01 3.76283E-02 2.04848E-03-1.30288E-01-5.58027E-14 3.30943E-13
 -1       387 1.99738E+01-1.32110E-02 2.17852E-04-1.64898E-01-5.56192E-14 3.12726E-13
 -1       388 2.00169E+01-5.71295E-02-8.43146E-04-1.26005E-01-4.59202E-14 2.70373E-13
 -1       389 2.00443E+01-9.67470E-02-1.52997E-03-2.37894E-02 3.92079E-14 3.43445E-13
 -1       390 2.00201E+01-1.28645E-01-1.92418E-03 1.31933E-01 6.84967E-14 3.79090E-13
 -1       391 1.99160E+01-1.44368E-01-1.96455E-03 3.23537E-01 7.43264E-15 3.99685E-13
 -1       392 1.97159E+01-1.32602E-01-1.58204E-03 5.19740E-01 2.07562E-14 4.01240E-13
 -1       393 1.94234E+01-8.39438E-02-7.59942E-04 6.74521E-01-1.99620E-14 4.16331E-13
 -1       394 1.90689E+01 1.83479E-03 3.90084E-04 7.34482E-01 7.31020E-14 3.58748E-13
 -1       395 1.87118E+01 1.09395E-01 1.63075E-03 6.56351E-01 3.07752E-14 3.88921E-13
 -1       396 1.84300E+01 2.08300E-01 2.70107E-03 4.29538E-01-2.17085E-14 4.00115E-13
 -1       397 1.82973E+01 2.63897E-01 3.37002E-03 9.09832E-02 5.38122E-14 4.04769E-13
 -1       398 1.83552E+01 2.54704E-01 3.47455E-03-2.80790E-01 1.03661E-13 3.99325E-13
 -1       399 1.85948E+01 1.85027E-01 2.95703E-03-5.94541E-01 1.16237E-13 4.03961E-13
 -1       400 1.89615E+01 8.22505E-02 1.91387E-03-7.82878E-01-4.53882E-14 2.44739E-13
 -1       401 1.93777E+01-1.86752E-02 5.78803E-04-8.24522E-01 4.17661E-14 2.19734E-13
 -1       402 1.97711E+01-9.17503E-02-6.74421E-04-7.42352E-01 1.37482E-15 1.65467E-13
 -1       403 2.00929E+01-1.27506E-01-1.56295E-03-5.83918E-01 1.42767E-13 2.37314E-13
 -1       404 2.03216E+01-1.30488E-01-1.98154E-03-3.99261E-01 9.31754E-14 2.05991E-13
 -1       405 2.04580E+01-1.12108E-01-1.97352E-03-2.26430E-01-1.80501E-13 2.75618E-13
 -1       406 2.05165E+01-8.41949E-02-1.68157E-03-8.68426E-02 1.34999E-14 4.61375E-13
 -1       407 2.05169E+01-5.55258E-02-1.25995E-03 1.25168E-02 7.07280E-14 4.59362E-13
 -1       408 2.04788E+01-3.10720E-02-8.27203E-04 7.41861E-02 3.59504E-14 5.32686E-13
 -1       409 2.04191E+01-1.27223E-02-4.55182E-04 1.05437E-01-1.85843E-13 4.57013E-13
 -1       410 2.03506E+01-4.18845E-04-1.73600E-04 1.14809E-01 2.48381E-15 6.50431E-13
 -1       411 2.02822E+01 6.85145E-03 1.63501E-05 1.10114E-01 4.86050E-14 6.54185E-13
 -1       412 2.02192E+01 1.03900E-02 1.28639E-04 9.75659E-02-1.11325E-13 4.19930E-13
 -1       413 2.01645E+01 1.14190E-02 1.82489E-04 8.16260E-02-5.64573E-14 3.27773E-13
 -1       414 2.01191E+01 1.09255E-02 1.96641E-04 6.52061E-02-1.51726E-14 4.11530E-13
 -1       415 2.00828E+01 9.63029E-03 1.86558E-04 5.00094E-02 1.63062E-13 4.89367E-13
 -1       416 2.00549E+01 8.01713E-03 1.63727E-04 3.68774E-02 3.32126E-13 5.24559E-13
 -1       417 2.00340E+01 6.38402E-03 1.35944E-04 2.60852E-02 5.10257E-14 5.45382E-13
 -1       418 2.00190E+01 4.89532E-03 1.08043E-04 1.75670E-02-3.36072E-13 3.73485E-13
 -1       419 2.00086E+01 3.62590E-03 8.26950E-05 1.10763E-02 9.51321E-14 1.29297E-13
 -1       420 2.00018E+01 2.59470E-03 6.11005E-05 6.29172E-03-6.98976E-14 2.81848E-14
 -1       421 1.99977E+01 1.78843E-03 4.35288E-05 2.88189E-03 7.10062E-14 1.96953E-13
 -1       422 1.99956E+01 1.17732E-03 2.97021E-05 5.42555E-04 2.17596E-13 3.64196E-13
 -1       423 1.99947E+01 7.24597E-04 1.90504E-05-9.85044E-04 2.24545E-13 2.90224E-13
 -1       424 1.99948E+01 3.91697E-04 1.08848E-05-1.90684E-03 2.54950E-13 1.83103E-13
 -1       425 1.99955E+01 1.40295E-04 4.52507E-06-2.37465E-03 3.45279E-15 2.91637E-13
 -1       426 1.99965E+01-6.80397E-05-2.79444E-07-2.48758E-03-1.76334E-13 4.29427E-14
 -1       427 1.99975E+01-2.68397E-04-3.41301E-06-2.29463E-03 2.08191E-13-2.89763E-14
 -1       428 1.99985E+01-4.93505E-04-4.57346E-06-1.80904E-03-1.05146E-13 1.00058E-13
 -1       429 1.99990E+01-6.90174E-04-5.42784E-06-1.40052E-03 3.30282E-15 2.69224E-13
 -1       430 1.99999E+01-2.69620E-03 1.77345E-07-2.39407E-03-9.99655E-14-2.82289E-13
 -1       431 1.99996E+01-1.89880E-03-4.80408E-06-2.36877E-03 1.11326E-13 2.37037E-13
 -1       432 1.99993E+01-1.30735E-03-7.64043E-06-2.00524E-03-6.35058E-14 1.92046E-13
 -1       433 2.00002E+01-3.40203E-03 3.26192E-06-2.13057E-03-3.67646E-13-1.08575E-12
 -1       434 2.00003E+01-3.99445E-03 5.13481E-06-1.66655E-03-4.23327E-13-2.03302E-13
 -1       435 2.00004E+01-4.42194E-03 6.39619E-06-1.07742E-03-3.14655E-13 2.25815E-13
 -1       436 2.00005E+01-4.66026E-03 7.11367E-06-4.15715E-04-3.99609E-13 3.48529E-13
 -1       437 2.00005E+01-4.69446E-03 7.25866E-06 2.80273E-04-4.68415E-13-1.07041E-13
 -1       438 2.00005E+01-4.51741E-03 6.78212E-06 9.74354E-04-4.05283E-13-5.71797E-13
 -1       439 2.00004E+01-4.14006E-03 5.44663E-06 1.60939E-03-9.92534E-14-8.98238E-13
 -1       440 2.00002E+01-3.56472E-03 3.54649E-06 2.13991E-03-9.33917E-14 4.84403E-13
 -1       441 2.00000E+01-2.83329E-03 7.63324E-07 2.46380E-03-1.65093E-13 5.39246E-13
 -1       442 1.99996E+01-1.99582E-03-3.36242E-06 2.47757E-03-3.53277E-13 2.02041E-13
 -1       443 1.97931E+01-4.99825E+00-2.74556E-02 7.45706E+00-2.63678E-15 5.45647E-13
 -1       444 1.41561E+00-3.67429E+00 4.83418E-02 1.24299E+00 3.44447E-14 7.07490E-14
 -1       445 1.98072E+01 3.56584E+00-1.80477E-02-1.45748E+00 9.48516E-14-9.05716E-14
 -1       446 2.79387E+01-2.41895E+00 8.02179E-04 5.11480E+00 2.84772E-13 3.37064E-13
 -1       447 3.35491E+01 1.84897E+00 2.96083E-03 1.54022E+00 3.63366E-13 1.36446E-13
 -1       448 3.63893E+01 6.23708E+00 2.47668E-02 3.74046E-01 5.47049E-13 1.29646E-13
 -1       449 3.58269E+01 8.82748E+00-3.56753E-02-1.02666E-01 5.73541E-13 1.50607E-13
 -1       450 3.62851E+01 8.03796E+00-1.00156E-02 2.69645E-01 3.46875E-13 2.33168E-13
 -1       451 3.50282E+01 3.99896E+00 7.58796E-03-7.96488E-01-3.47361E-14-6.27137E-14
 -1       452 3.16202E+01-3.04277E-02 3.48166E-02-3.66095E+00 2.75162E-14-5.22360E-14
 -1       453 2.59690E+01-3.76242E+00-6.04867E-03-5.46131E+00-9.85323E-14-1.99146E-14
 -1       454 1.61305E+01-5.53452E+00 1.95103E-02-7.97805E+00-1.92291E-13-4.08819E-13
 -1       455 7.12663E+00-4.92786E+00 1.82134E-02-6.97209E+00-1.26857E-13-1.28217E-13
 -1       456 2.44486E+00-3.82064E+00 6.03552E-02-3.73191E+00-1.01058E-13-1.59539E-13
 -1       457 1.48451E+00-5.01911E+00-8.04644E-02 1.76717E+00-9.47645E-14-6.11733E-14
 -1       458 6.90084E+00-5.99464E+00-1.01657E-01 5.41597E+00-3.68733E-14-1.60566E-14
 -1       459 1.55275E+01-6.67458E+00-1.03270E-01 6.51393E+00-1.79856E-14-6.45942E-14
 -1       460 2.72716E+01-6.55398E+00-2.68998E-02 3.67392E+00 5.61357E-14 1.25303E-13
 -1       461 3.55835E+01-2.15947E+00 4.68051E-02-2.35247E-01-3.50039E-13 1.98980E-13
 -1       462 3.92257E+01 2.45010E+00 7.85460E-02-1.73342E+00-2.58807E-13 6.43374E-14
 -1       463 4.01299E+01 6.56000E+00 1.84335E-01 1.45584E+00-1.45522E-13 1.23998E-14
 -1       464 3.92377E+01 2.96103E+00 1.30302E-01 2.46849E+00-4.39496E-13-1.10745E-14
 -1       465 2.73278E+01-6.07214E+00-6.55604E-02-3.80470E+00-4.28407E-14 3.49221E-13
 -1       466 1.77984E+01-6.69512E+00-5.61701E-02-6.18546E+00 7.16649E-14 5.37396E-13
 -1       467 7.87202E+00-6.12154E+00-1.10092E-01-5.55231E+00 3.35981E-14 5.05387E-13
 -1       468 2.27905E+00-5.52690E+00-1.24894E-01-2.69329E+00 5.11535E-14 3.67095E-13
 -1       469 4.97145E+00-4.84116E+00-2.28022E-02 6.14305E+00 2.24334E-13-1.72362E-14
 -1       470 3.48167E+01-1.27777E-01-1.07570E-01-4.10987E+00-2.40433E-13-6.30607E-14
 -1       471 4.71021E+00-1.90127E+00 1.50291E-01 4.11932E+00 1.60046E-14 1.89362E-13
 -1       472 2.31648E+01-5.62608E+00 1.85395E-02-6.28376E+00-1.82895E-13-5.50948E-14
 -1       473 3.40859E+01-4.04004E+00 7.46095E-02 5.95001E-01 2.97852E-14 2.35423E-13
 -1       474 3.57913E+01-1.82458E+00-2.03404E-02 1.28643E+00-1.41680E-13 1.83187E-13
 -1       475 1.93891E+01 3.42401E+00-4.73396E-03-5.43153E-01 1.24182E-13 1.07168E-14
 -1       476 1.95760E+01 3.23533E+00-5.47233E-03-7.51072E-01 1.09033E-13-5.00202E-14
 -1       477 1.93214E+01 3.48319E+00-4.39082E-03-1.00700E-01 1.37001E-13 8.10625E-14
 -1       478 1.94109E+01 3.39212E+00-4.57591E-03 1.53400E-01 1.33012E-13 1.02440E-13
 -1       479 1.95597E+01 3.23585E+00-5.02870E-03 4.28202E-01 1.34557E-13 1.24841E-13
 -1       480 1.97648E+01 3.00369E+00-5.73772E-03 7.25939E-01 1.44656E-13 1.77324E-13
 -1       481 2.00242E+01 2.67475E+00-6.62754E-03 1.02208E+00 1.12096E-13 2.15027E-13
 -1       482 2.03417E+01 2.20446E+00-6.73254E-03 1.26854E+00 8.58212E-14 2.69689E-13
 -1       483 2.06793E+01 1.53016E+00-3.59671E-03 1.34308E+00 3.24823E-14 3.51651E-13
 -1       484 2.07698E+01 9.79387E-01 4.07807E-03 1.12669E+00 1.20806E-14 4.11649E-13
 -1       485 2.05973E+01 1.18124E+00 3.24823E-03-5.36819E-01 9.70112E-15-6.51948E-14
 -1       486 2.53024E+01-4.97127E+00-2.51425E-03 5.11505E+00 2.28914E-14 2.36859E-13
 -1       487 1.15906E+01-3.27128E+00 1.67754E-01 7.53597E+00 6.69187E-14 6.47746E-14
 -1       488 2.04729E+01 8.41138E-01 3.22747E-03 8.38037E-02 1.46579E-14-4.75646E-14
 -1       489 2.03720E+01 7.18263E-01 2.11982E-03 5.66216E-01 2.64273E-14-3.96274E-14
 -1       490 2.02976E+01 7.23943E-01 2.11656E-03 1.02021E+00 1.95659E-14-3.55620E-14
 -1       491 2.02300E+01 8.24897E-01 2.28780E-03 1.47523E+00 2.32190E-14-3.46780E-14
 -1       492 2.01333E+01 9.82644E-01 2.56604E-03 1.97310E+00 1.43354E-14-1.62516E-14
 -1       493 1.99743E+01 1.12869E+00 3.08504E-03 2.54092E+00 5.72676E-14-5.66098E-14
 -1       494 1.97569E+01 1.11154E+00 5.59443E-03 3.18966E+00 2.67610E-14-2.05483E-14
 -1       495 1.96018E+01 6.79023E-01 1.14357E-02 3.87653E+00 4.30374E-14 2.24586E-14
 -1       496 1.99225E+01-6.87659E-01 3.15370E-02 4.57716E+00 4.34310E-14 3.03351E-14
 -1       497 2.15440E+01-3.40043E+00 8.55223E-02 5.01974E+00 7.91520E-14 5.51659E-14
 -1       498 4.60243E+00-1.56839E+00 1.75488E-01-1.68069E+00 5.18405E-14 2.50078E-13
 -1       499 2.04606E+01 4.99674E-01 6.47126E-03 4.77913E-01 2.63531E-14 3.94814E-13
 -1       500 2.37051E+01-3.56966E+00 7.09986E-02-4.18481E+00 1.45692E-13 1.32519E-13
 -1       501 2.15453E+01-9.24283E-01 2.25677E-02-4.22421E+00 5.43641E-14 1.14065E-13
 -1       502 2.08324E+01 4.89448E-01 1.02438E-02-3.71312E+00-8.27478E-14 2.16593E-13
 -1       503 2.07102E+01 9.55609E-01 5.79664E-03-3.07204E+00-4.98257E-14 4.87908E-14
 -1       504 2.07002E+01 9.90798E-01 3.90906E-03-2.41895E+00 4.55036E-14-4.74139E-14
 -1       505 2.06831E+01 8.41852E-01 3.51552E-03-1.84952E+00-7.30219E-14 7.02562E-14
 -1       506 2.06274E+01 6.54646E-01 2.97087E-03-1.38611E+00-1.89421E-13 1.39612E-13
 -1       507 2.05445E+01 4.86539E-01 2.31034E-03-1.02462E+00-1.51881E-14 1.28756E-15
 -1       508 2.04516E+01 3.53145E-01 1.69170E-03-7.50257E-01 2.96643E-13 4.79452E-14
 -1       509 2.03618E+01 2.53301E-01 1.22460E-03-5.45735E-01 1.86980E-13 2.45405E-13
 -1       510 2.02850E+01 1.83978E-01 8.50272E-04-4.01057E-01-1.32924E-13 4.64070E-13
 -1       511 2.02163E+01 1.31153E-01 6.02384E-04-2.88358E-01-2.25718E-13 1.42737E-13
 -1       512 2.01605E+01 9.35563E-02 4.20728E-04-2.05972E-01-1.60787E-13-2.10311E-13
 -1       513 2.01164E+01 6.67673E-02 2.92479E-04-1.45849E-01-1.90964E-13-3.27662E-13
 -1       514 2.00825E+01 4.76256E-02 2.03691E-04-1.02078E-01 1.20985E-13-2.02390E-13
 -1       515 2.00569E+01 3.38838E-02 1.44605E-04-7.03221E-02 8.10823E-14-1.19875E-13
 -1       516 2.00387E+01 2.44226E-02 9.73442E-05-4.83510E-02 4.51296E-14-1.56062E-13
 -1       517 2.00247E+01 1.71609E-02 6.94843E-05-3.16116E-02-6.62366E-14-3.18891E-13
 -1       518 2.00149E+01 1.19200E-02 4.74949E-05-1.97210E-02 6.21638E-14-2.47018E-13
 -1       519 2.00081E+01 8.14278E-03 3.18822E-05-1.13820E-02 3.99820E-14-1.27462E-13
 -1       520 2.00036E+01 5.43400E-03 2.10569E-05-5.63498E-03 3.26942E-13-1.60686E-13
 -1       521 2.00008E+01 3.50233E-03 1.35946E-05-1.76958E-03 2.59466E-13-5.48151E-14
 -1       522 1.99993E+01 2.19143E-03 7.56337E-06 6.39833E-04 1.36208E-13 3.10720E-14
 -1       523 1.99984E+01 1.19912E-03 4.16026E-06 2.21394E-03 1.33587E-13-2.66730E-13
 -1       524 1.99982E+01 4.72769E-04 1.25962E-06 3.06548E-03 2.19224E-13-8.38708E-14
 -1       525 1.99983E+01-9.99695E-05-9.95319E-07 3.37637E-03 4.80976E-14 3.15733E-13
 -1       526 1.99986E+01-6.18382E-04-2.43710E-06 3.25728E-03-2.57645E-13 3.74277E-13
 -1       527 1.99992E+01-1.22649E-03-3.39426E-06 2.99622E-03-3.89230E-13 3.22985E-13
 -1       528 2.02939E+01 2.13120E-01 1.21963E-03-1.29158E-02 2.04708E-14 2.92201E-13
 -1       529 2.03415E+01 3.38821E-01 3.60662E-03 1.86846E-01 3.05319E-14 3.23845E-13
 -1       530 2.02632E+01-6.55522E-02-3.58175E-04-1.83939E-01-2.24342E-14 1.66265E-13
 -1       531 2.03065E+01-1.74603E-01-8.73322E-04-1.12163E-01-4.89418E-14 1.31325E-13
 -1       532 2.03527E+01-2.68429E-01-1.22287E-03 4.61886E-02-3.63144E-14 1.95020E-13
 -1       533 2.03738E+01-3.33290E-01-1.37290E-03 2.74956E-01 1.57337E-14 2.73632E-13
 -1       534 2.03417E+01-3.44829E-01-1.22853E-03 5.43620E-01 5.83090E-14 2.36515E-13
 -1       535 2.02337E+01-2.75871E-01-7.52163E-04 8.00149E-01 4.45482E-14 1.54477E-13
 -1       536 2.00429E+01-1.11268E-01 5.78423E-05 9.71917E-01-1.03669E-15 1.14564E-13
 -1       537 1.97910E+01 1.32920E-01 1.00008E-03 9.81314E-01 4.33334E-14 1.19914E-13
 -1       538 1.95348E+01 3.98575E-01 1.76388E-03 7.77839E-01-4.31640E-14 2.31600E-13
 -1       539 1.93531E+01 5.98776E-01 2.19092E-03 3.73471E-01-3.37170E-14 2.86445E-13
 -1       540 1.93135E+01 6.56498E-01 2.29518E-03-1.44211E-01 7.83681E-14 2.62310E-13
 -1       541 1.94359E+01 5.48894E-01 2.10930E-03-6.39214E-01 1.27432E-13 2.58786E-13
 -1       542 1.96809E+01 3.21672E-01 1.62938E-03-9.87008E-01 8.62367E-14 2.71164E-13
 -1       543 1.99727E+01 6.04136E-02 7.56666E-04-1.12540E+00-7.87244E-14 2.92334E-13
 -1       544 2.02379E+01-1.55432E-01-1.72138E-04-1.06708E+00 1.06829E-13 2.71581E-13
 -1       545 2.04317E+01-2.84182E-01-9.01205E-04-8.74474E-01 9.00209E-14 1.68121E-13
 -1       546 2.05422E+01-3.24363E-01-1.31291E-03-6.22778E-01 9.83761E-14 2.85380E-13
 -1       547 2.05799E+01-2.99213E-01-1.38006E-03-3.73375E-01-5.72805E-14 3.50470E-13
 -1       548 2.05649E+01-2.38694E-01-1.21351E-03-1.63524E-01-1.62098E-13 1.45222E-13
 -1       549 2.05171E+01-1.67829E-01-9.35492E-04-8.21579E-03 8.13390E-14 2.04413E-13
 -1       550 2.04527E+01-1.02604E-01-6.34082E-04 9.29307E-02-1.89291E-14 2.26944E-13
 -1       551 2.03827E+01-5.06283E-02-3.67218E-04 1.48520E-01-1.19590E-13 4.32638E-13
 -1       552 2.03145E+01-1.36519E-02-1.60664E-04 1.70039E-01-1.31005E-13 2.13052E-13
 -1       553 2.02520E+01 9.85174E-03-1.80777E-05 1.68629E-01-1.76070E-14 2.13029E-13
 -1       554 2.01972E+01 2.27629E-02 6.90267E-05 1.53548E-01 1.12224E-13 3.16423E-13
 -1       555 2.01508E+01 2.81429E-02 1.13470E-04 1.31713E-01-3.89077E-14 2.45746E-13
 -1       556 2.01126E+01 2.86510E-02 1.28412E-04 1.07849E-01-1.38659E-13 1.91898E-13
 -1       557 2.00819E+01 2.63410E-02 1.24876E-04 8.48878E-02 4.41051E-14 3.81729E-13
 -1       558 2.00579E+01 2.26656E-02 1.11246E-04 6.44294E-02 1.90936E-13 4.21096E-13
 -1       559 2.00395E+01 1.85729E-02 9.33002E-05 4.71574E-02 1.25148E-13 5.78826E-13
 -1       560 2.00257E+01 1.46286E-02 7.46835E-05 3.31728E-02 7.68336E-14 4.02640E-13
 -1       561 2.00157E+01 1.11291E-02 5.74683E-05 2.22412E-02 1.27362E-13 7.49411E-14
 -1       562 2.00087E+01 8.19394E-03 4.26442E-05 1.39631E-02 9.45036E-14 9.73908E-14
 -1       563 2.00039E+01 5.83398E-03 3.05069E-05 7.88443E-03-8.33359E-14 7.76631E-14
 -1       564 2.00008E+01 3.99931E-03 2.09399E-05 3.56349E-03-1.68507E-15 2.43715E-14
 -1       565 1.99990E+01 2.60996E-03 1.36027E-05 6.07306E-04 1.21676E-13 2.00548E-13
 -1       566 1.99981E+01 1.57455E-03 8.04664E-06-1.31126E-03 1.53067E-13 4.21173E-13
 -1       567 1.99979E+01 8.00161E-04 3.78875E-06-2.44830E-03 1.68522E-13 6.44238E-13
 -1       568 1.99980E+01 1.97144E-04 4.96900E-07-2.99046E-03-2.58185E-15 5.06901E-13
 -1       569 1.99983E+01-3.21690E-04-3.25926E-06-3.06835E-03 5.32205E-14 3.59860E-13
 -1       570 1.99988E+01-8.22642E-04-5.12347E-06-2.74956E-03 5.88136E-15 6.53409E-13
 -1       571 2.00007E+01-2.10527E-03 1.99731E-06-2.28259E-03 1.10091E-13-4.23790E-13
 -1       572 2.00010E+01-2.30660E-03 2.53620E-06-1.64353E-03 1.19864E-13 7.80989E-16
 -1       573 1.99998E+01-1.45814E-03-1.74167E-06-2.97149E-03 2.00257E-13 1.72624E-14
 -1       574 2.00003E+01-1.82772E-03 6.14095E-07-2.75064E-03 2.49408E-14-9.90074E-13
 -1       575 2.00011E+01-2.44085E-03 3.00127E-06-9.02271E-04-1.89176E-13 8.23806E-14
 -1       576 2.00012E+01-2.51303E-03 3.22015E-06-1.02767E-04-5.72571E-13 2.60630E-13
 -1       577 2.00012E+01-2.52062E-03 3.21012E-06 7.20021E-04-1.66490E-13-6.21015E-16
 -1       578 2.00011E+01-2.45292E-03 2.86193E-06 1.51271E-03-2.86421E-14-5.39624E-13
 -1       579 2.00009E+01-2.28818E-03 1.90701E-06 2.24148E-03 1.90266E-13-5.47298E-13
 -1       580 2.00005E+01-2.00933E-03 1.32834E-06 2.80335E-03-7.84496E-14 1.72303E-13
 -1       581 1.99999E+01-1.67580E-03-5.47204E-07 3.06035E-03-4.49659E-13 3.51709E-13
 -1       582 2.02716E+01-5.23593E+00 6.46385E-02 7.12320E+00-8.88040E-14 4.64916E-13
 -1       583 3.09834E+01-1.90736E-02-1.20456E-01 2.26037E-01-1.27075E-13 1.59872E-13
 -1       584 2.05763E+01 1.90343E+00-5.04091E-03-1.19501E+00 1.48761E-14-7.80115E-14
 -1       585 1.40928E+01-4.32253E+00 1.35531E-01-7.77910E+00-1.55820E-13-2.40724E-13
 -1       586 3.10451E+01 7.03001E+00-1.77896E-01-1.25493E+00 4.86805E-13 8.31973E-15
 -1       587 2.02503E+01 5.84826E-02 4.17365E-04-1.57317E-01-2.08904E-14 2.16796E-13
 -1       588 3.11198E+01 5.32188E+00-1.59306E-01 1.64396E+00 1.64938E-13 3.62627E-13
 -1       589 1.93087E+01 3.49900E+00-4.42378E-03-3.30319E-01 1.29711E-13 4.74779E-14
 -1       590 3.13162E+01 3.71861E+00-1.62607E-01-1.34000E+00 2.82073E-13-1.57908E-13
 -1       591 3.05686E+01 7.91376E+00-1.92421E-01 5.47310E-01 3.29986E-13 3.46976E-13
 -1       592 6.95013E+00-2.47627E+00 1.45031E-01 4.35633E+00 6.29219E-14 1.12854E-13
 -1       593 2.99895E+01-1.98352E+00-6.37650E-02 1.43296E+00 1.55355E-13-8.76452E-14
 -1       594 2.89778E+01-3.44900E+00-3.38052E-02-2.13773E+00-1.27259E-13 1.61100E-13
 -1       595 7.75717E+00-1.89403E+00 1.86536E-01-5.62040E+00-7.16857E-14-1.32561E-13
 -1       596 4.69742E+00-7.64075E-01 2.02599E-01-3.43714E-01-9.24905E-15-4.86972E-14
 -1       597 1.42382E+01-4.58564E+00 1.20165E-01 6.44989E+00 1.30659E-13 2.23502E-14
 -1       598 2.22706E+01-5.71863E+00 6.95061E-02 5.19785E+00 1.78642E-13 1.08052E-13
 -1       599 2.51581E+01-6.06949E+00 4.68244E-02-4.14517E+00 1.86948E-13 2.49500E-13
 -1       600 1.52085E+01-4.91773E+00 8.75371E-02-6.34854E+00 2.01977E-13 3.59747E-13
 -1       601 7.91309E+00-2.91957E+00 1.38287E-01-4.79573E+00 1.82604E-13 4.56218E-13
 -1       602 1.98710E+01 2.90804E+00-6.11548E-03-9.54939E-01 8.66781E-14-7.18043E-14
 -1       603 5.60901E+00-2.30813E-01 1.77535E-01 1.18543E+00-1.57629E-13 8.19761E-14
 -1       604 1.73326E+01-4.08420E+00 9.41623E-02 7.15241E+00-2.89560E-14 2.77837E-13
 -1       605 2.02027E+01 2.48396E+00-5.76865E-03-1.10618E+00 6.88486E-14-6.60116E-14
 -1       606 2.95220E+01 3.10188E-01-1.12088E-01-1.16122E+00 1.39975E-13-2.24321E-13
 -1       607 1.98472E+01-5.01911E+00 6.03120E-02-6.82670E+00-2.80595E-13-1.12110E-13
 -1       608 1.96983E+01 2.65031E+00-1.44865E-03 1.30521E-01 1.15374E-13 1.18987E-13
 -1       609 1.95526E+01 2.81025E+00-1.34910E-03-7.27606E-02 1.01376E-13 8.40337E-14
 -1       610 2.01083E+01 2.10978E+00-1.69054E-03 5.71852E-01 1.13619E-13 1.58699E-13
 -1       611 2.03398E+01 1.70569E+00-1.08851E-03 7.42036E-01 7.00299E-14 2.26738E-13
 -1       612 2.05277E+01 1.19748E+00 2.56463E-05 7.89605E-01 4.04394E-14 2.63916E-13
 -1       613 2.05536E+01 8.29624E-01 5.76387E-03 6.60260E-01 3.57787E-14 3.04656E-13
 -1       614 2.01872E+01 1.19761E+00 8.67968E-04 2.18883E-01 2.95715E-14-1.76618E-14
 -1       615 1.99933E+01 1.09150E+00 4.98330E-04 6.69696E-01 2.33572E-14-1.48520E-14
 -1       616 1.97153E+01 1.14093E+00 5.43989E-04 1.07678E+00 7.40719E-15 1.17296E-14
 -1       617 1.93154E+01 1.29815E+00 5.68330E-04 1.46992E+00 3.07896E-14 3.06501E-15
 -1       618 1.87333E+01 1.50938E+00 7.85861E-04 1.87900E+00 6.33505E-14 9.23284E-14
 -1       619 1.79002E+01 1.67317E+00 3.55062E-03 2.34182E+00 5.98714E-14 9.17848E-14
 -1       620 1.68293E+01 1.60934E+00 1.37127E-02 2.90992E+00 8.59751E-14 1.02917E-13
 -1       621 1.55274E+01 1.01935E+00 5.41077E-02 3.76444E+00 2.61993E-14 9.33038E-14
 -1       622 1.67069E+01 7.37463E-01 5.00488E-02-3.95052E+00-1.07635E-13 3.51206E-13
 -1       623 1.75383E+01 1.42604E+00 1.30321E-02-3.08081E+00-1.23380E-13 2.02715E-13
 -1       624 1.84185E+01 1.56057E+00 3.49511E-03-2.40556E+00-1.63423E-13 2.24206E-13
 -1       625 1.90818E+01 1.38343E+00 1.45181E-03-1.88966E+00-2.66642E-14 1.14878E-13
 -1       626 1.95267E+01 1.11743E+00 1.02412E-03-1.47465E+00-1.56713E-13 2.86755E-14
 -1       627 1.98014E+01 8.58568E-01 8.29919E-04-1.13835E+00-1.60517E-13 1.94668E-13
 -1       628 1.99577E+01 6.41283E-01 6.24314E-04-8.68896E-01 6.28789E-14 2.63208E-13
 -1       629 2.00380E+01 4.71497E-01 4.61511E-04-6.56667E-01 3.44718E-13 2.61971E-13
 -1       630 2.00715E+01 3.49347E-01 3.34443E-04-4.98709E-01 1.82899E-13 7.05119E-14
 -1       631 2.00809E+01 2.53698E-01 2.29987E-04-3.70019E-01-2.11121E-13 1.63754E-13
 -1       632 2.00766E+01 1.83952E-01 1.62442E-04-2.72134E-01-4.74457E-13 2.98246E-13
 -1       633 2.00662E+01 1.33256E-01 1.13007E-04-1.98139E-01-2.27095E-13-7.50820E-14
 -1       634 2.00540E+01 9.64058E-02 7.81320E-05-1.42575E-01-3.56280E-14-6.12606E-14
 -1       635 2.00423E+01 6.95668E-02 5.66210E-05-1.01149E-01 1.46055E-13-5.37167E-14
 -1       636 2.00324E+01 5.08257E-02 3.72459E-05-7.17506E-02 1.74434E-13-6.92625E-14
 -1       637 2.00237E+01 3.62734E-02 2.75247E-05-4.88229E-02 8.92718E-15-1.79656E-13
 -1       638 2.00168E+01 2.56376E-02 1.87808E-05-3.21504E-02 8.63297E-14-9.95875E-14
 -1       639 2.00116E+01 1.78775E-02 1.26912E-05-2.01680E-02 8.30626E-14 3.73034E-14
 -1       640 2.00076E+01 1.22389E-02 8.44676E-06-1.16859E-02 4.98608E-14 2.59589E-13
 -1       641 2.00048E+01 8.16560E-03 5.70290E-06-5.80068E-03 1.82165E-13-3.99952E-13
 -1       642 2.00029E+01 5.36651E-03 2.94195E-06-1.98078E-03 4.40520E-13-4.38372E-13
 -1       643 2.00015E+01 3.23679E-03 1.92670E-06 6.67978E-04 3.41455E-13 9.06790E-14
 -1       644 2.00006E+01 1.69623E-03 7.15175E-07 2.28246E-03 1.18989E-13 1.28602E-13
 -1       645 2.00001E+01 5.39225E-04-1.67564E-07 3.13384E-03 3.81991E-13 1.22060E-13
 -1       646 1.99998E+01-3.97487E-04 5.76900E-08 3.40140E-03-1.70355E-13 3.30968E-13
 -1       647 1.99998E+01-1.00052E-03-2.37782E-06 3.31202E-03-5.02144E-13 3.65159E-13
 -1       648 2.07504E+01-5.15286E-01-4.87555E-04 8.95910E-02-6.42023E-14 8.41149E-14
 -1       649 2.05185E+01-1.74475E-01-2.40043E-04-2.14592E-01 9.22461E-15 1.36904E-13
 -1       650 2.08690E+01-6.04201E-01-4.85007E-04 3.78007E-01 5.58649E-14 8.82675E-14
 -1       651 2.09393E+01-5.78676E-01-2.62253E-04 7.11748E-01 7.04030E-14 1.69270E-13
 -1       652 2.09193E+01-3.91118E-01 6.76914E-05 1.01772E+00 4.61738E-14 1.48681E-13
 -1       653 2.07858E+01-2.79788E-02 5.47983E-04 1.19091E+00 5.54035E-14 1.33311E-13
 -1       654 2.05621E+01 4.51498E-01 9.13679E-04 1.12300E+00-8.69064E-14 1.84874E-13
 -1       655 2.03294E+01 9.06042E-01 6.27902E-04 7.60724E-01-9.68591E-14 2.06158E-13
 -1       656 2.01956E+01 1.16377E+00 2.18594E-04 1.60469E-01 2.22333E-14 1.93629E-13
 -1       657 2.02332E+01 1.11176E+00 3.45689E-04-5.09307E-01 1.33658E-13 1.57510E-13
 -1       658 2.04239E+01 7.77731E-01 9.34129E-04-1.04520E+00 1.07311E-13 2.00214E-13
 -1       659 2.06751E+01 3.04390E-01 8.20677E-04-1.31372E+00 4.93242E-14 1.90582E-13
 -1       660 2.08815E+01-1.36996E-01 4.56588E-04-1.30085E+00 3.80329E-14 3.98134E-14
 -1       661 2.09822E+01-4.35346E-01 2.90529E-05-1.08548E+00 4.12880E-14 1.84633E-13
 -1       662 2.09723E+01-5.63935E-01-3.71849E-04-7.75657E-01 6.09973E-14 3.10057E-13
 -1       663 2.08821E+01-5.55382E-01-5.03277E-04-4.61170E-01 7.96609E-14 3.57754E-13
 -1       664 2.07510E+01-4.64626E-01-4.76174E-04-1.95376E-01 1.69802E-14 3.30854E-13
 -1       665 2.06108E+01-3.41689E-01-3.91521E-04 1.06270E-03-4.00718E-14 2.78142E-13
 -1       666 2.04811E+01-2.20746E-01-2.79095E-04 1.28768E-01-7.95208E-14 4.14717E-13
 -1       667 2.03708E+01-1.19815E-01-1.72593E-04 1.99015E-01-1.18356E-13 4.53506E-13
 -1       668 2.02817E+01-4.49397E-02-8.78106E-05 2.26434E-01-2.15645E-14 2.97536E-13
 -1       669 2.02120E+01 4.97231E-03-2.78761E-05 2.24972E-01 9.53821E-15 1.86118E-13
 -1       670 2.01584E+01 3.43532E-02 1.06878E-05 2.06118E-01 5.43199E-14 1.42636E-13
 -1       671 2.01178E+01 4.85375E-02 3.20649E-05 1.78454E-01 8.75653E-14 8.21337E-14
 -1       672 2.00870E+01 5.24534E-02 4.14396E-05 1.47883E-01-3.00975E-14 6.98368E-14
 -1       673 2.00638E+01 5.00783E-02 4.28072E-05 1.18128E-01-7.18249E-14 8.04090E-14
 -1       674 2.00463E+01 4.43376E-02 3.95663E-05 9.12837E-02-2.57410E-14 2.23607E-13
 -1       675 2.00331E+01 3.72201E-02 3.40843E-05 6.83107E-02 1.29941E-13 1.93983E-13
 -1       676 2.00233E+01 2.99734E-02 2.78834E-05 4.94319E-02 1.70390E-13 1.57618E-13
 -1       677 2.00160E+01 2.33045E-02 2.18769E-05 3.44312E-02 2.34338E-13 2.77410E-13
 -1       678 2.00106E+01 1.75502E-02 1.65444E-05 2.28620E-02 1.15608E-13 2.01913E-13
 -1       679 2.00068E+01 1.28111E-02 1.20805E-05 1.41875E-02-3.40811E-15 2.18815E-13
 -1       680 2.00040E+01 9.04683E-03 8.50159E-06 7.86646E-03-2.97785E-14 1.83338E-13
 -1       681 2.00021E+01 6.14201E-03 5.72316E-06 3.40372E-03 9.54453E-14 2.37435E-13
 -1       682 2.00009E+01 3.94724E-03 3.60338E-06 3.74560E-04 6.27771E-14 2.01021E-13
 -1       683 2.00001E+01 2.30360E-03 1.96456E-06-1.56599E-03-1.60212E-13 1.44936E-13
 -1       684 1.99997E+01 1.05536E-03 8.47098E-07-2.68268E-03 1.41767E-13 4.20302E-13
 -1       685 1.99995E+01 5.57331E-05 9.10016E-07-3.16747E-03 5.36102E-14 4.91448E-13
 -1       686 1.99997E+01-6.65976E-04-3.10531E-07-3.19479E-03-2.86447E-13 3.98012E-13
 -1       687 2.57132E+01-4.86732E+00 1.18305E-02-3.63265E+00-1.70785E-13 1.56004E-14
 -1       688 2.00018E+01-3.55354E-04 9.27616E-07-5.45620E-04-4.90412E-14-1.53501E-13
 -1       689 2.00014E+01-4.59974E-04 4.94450E-07-2.02518E-03 2.25091E-13-1.93934E-13
 -1       690 2.00019E+01-4.08540E-04 1.03485E-06 2.65045E-04-1.41090E-13 3.61663E-13
 -1       691 2.00017E+01-3.77959E-04 8.62569E-07-1.31662E-03 9.36226E-14-2.02735E-13
 -1       692 2.00019E+01-5.25371E-04 1.12112E-06 1.08289E-03-1.78897E-14-1.19471E-13
 -1       693 2.00017E+01-6.73629E-04 1.18584E-06 1.90274E-03 1.63341E-13-4.73950E-13
 -1       694 2.00012E+01-7.92144E-04-2.48876E-07 2.63173E-03 9.69771E-14-4.35267E-13
 -1       695 2.34112E+01-4.95773E+00 3.79821E-02 5.13752E+00-1.50418E-13 2.71431E-13
 -1       696 2.03333E+01 1.73155E+00 1.60560E-03-5.84449E-01 3.40779E-14-2.25292E-14
 -1       697 2.77597E+01 5.83855E+00-1.41737E-01 1.56218E+00 2.27214E-13 3.57599E-13
 -1       698 2.69792E+01 6.56247E+00-1.52465E-01-6.28710E-01 2.36235E-13 1.03987E-13
 -1       699 9.52916E+00 9.69036E-03 1.40451E-01-3.26204E+00-3.93297E-14 2.48732E-13
 -1       700 1.41266E+01-1.99927E+00 1.35386E-01-5.43885E+00 7.09779E-14 4.79700E-13
 -1       701 2.06237E+01-3.61058E-01-3.95433E-04-1.13649E-01-3.62983E-14 1.12046E-13
 -1       702 2.02905E+01 1.38223E+00-9.92692E-04-1.63434E-01 2.11943E-14 9.60210E-16
 -1       703 1.30742E+01-2.15628E+00 1.19450E-01-6.43515E+00-8.15008E-14-1.11751E-13
 -1       704 2.72190E+01-3.92359E+00-1.89703E-02 2.09531E+00 1.90184E-14-2.28508E-13
 -1       705 9.94141E+00-5.95033E-01 1.83416E-01 5.20988E+00-7.90826E-14 1.54578E-13
 -1       706 1.98888E+01 2.41882E+00-1.58920E-03 3.53722E-01 1.29982E-13 1.64031E-13
 -1       707 1.95994E+01 2.74175E+00-1.53391E-03-4.73093E-01 9.74471E-14 4.65757E-15
 -1       708 2.86490E+01 1.75432E+00-1.21733E-01 1.96729E+00-3.03091E-14 3.33438E-13
 -1       709 2.87149E+01-1.19417E+00-7.49504E-02 7.44169E-01-1.07563E-13 1.22735E-13
 -1       710 8.61392E+00 5.20589E-01 1.54370E-01-2.57670E+00 6.43400E-14-4.87319E-14
 -1       711 8.53373E+00 1.45113E-01 1.66845E-01 2.58015E+00 8.47499E-14 1.08968E-13
 -1       712 1.32207E+01-1.69791E+00 1.49050E-01 5.41906E+00 9.55555E-14 1.02265E-13
 -1       713 2.84873E+01 4.58843E+00-1.48345E-01-1.97934E+00 2.62880E-13-1.17378E-13
 -1       714 1.94819E+01 2.87556E+00-1.44546E-03-3.72524E-01 1.18307E-13 3.31706E-14
 -1       715 1.19789E+01 1.97108E-02 9.80151E-02-4.22187E+00 2.59567E-14-7.30804E-14
 -1       716 2.04529E+01 3.36535E-02-8.95534E-06-2.05646E-01 1.85708E-15 1.71606E-13
 -1       717 1.40166E+01-1.76654E+00 8.24389E-02 6.13861E+00 9.40047E-14 1.82195E-13
 -1       718 2.75966E+01-2.11823E+00-5.37167E-02-2.83937E-01-1.75840E-14-2.20669E-13
 -1       719 2.04565E+01 5.86036E-01 2.08751E-03 1.99173E-01 3.52365E-14 2.65733E-13
 -1       720 2.00005E+01-7.21332E-04-5.66314E-08-2.95208E-03-1.45684E-14-6.66781E-13
 -1       721 9.12597E+00 9.54888E-01 1.66104E-01-1.13328E+00-1.29807E-13 1.84297E-14
 -1       722 2.00006E+01-9.69914E-04-4.22148E-07 3.08260E-03-2.28171E-13-2.82084E-13
 -1       723 1.74393E+01-3.27414E+00 6.81166E-02-6.33959E+00-1.65989E-13-8.24202E-14
 -1       724 2.77674E+01 1.85451E+00-8.84273E-02-2.05277E+00 1.55626E-13-7.99725E-14
 -1       725 2.00010E+01-6.21327E-04 3.97732E-07-2.54649E-03 2.84313E-13-9.07302E-13
 -1       726 2.70028E+01-3.40819E+00-2.73785E-02-7.74604E-01-5.60025E-14 9.74967E-14
 -1       727 2.04350E+01 2.74661E-01 4.69653E-04-7.87510E-02 4.19090E-14 2.20079E-13
 -1       728 1.94731E+01 2.89061E+00-1.36258E-03-2.41108E-01 1.17504E-13 5.02659E-14
 -1       729 1.98363E+01 2.46008E+00-6.08796E-04-5.50112E-01 9.07745E-14-5.51405E-14
 -1       730 9.90488E+00 1.37193E+00 1.04730E-01-9.27219E-03 1.00080E-13 1.70350E-15
 -1       731 2.04637E+01 9.45841E-01 6.40536E-04 3.86032E-01 4.24446E-14 2.31831E-13
 -1       732 2.03448E+01 1.32634E+00 2.22075E-04 3.27989E-01 6.90869E-14 1.65996E-13
 -1       733 1.98016E+01 1.47643E+00-9.46255E-05 2.57043E-01 3.52789E-15 2.23259E-15
 -1       734 1.94826E+01 1.40497E+00-2.96649E-05 5.77366E-01 3.02553E-14 4.90511E-14
 -1       735 1.89933E+01 1.48093E+00-1.22146E-04 8.34726E-01 4.31065E-14 1.09212E-13
 -1       736 1.82766E+01 1.65825E+00-3.24356E-04 1.03271E+00 7.89296E-14 9.32922E-14
 -1       737 1.72395E+01 1.87403E+00 5.38439E-04 1.18207E+00 5.60841E-14 5.20843E-14
 -1       738 1.58352E+01 2.01962E+00 5.93638E-03 1.31184E+00 3.89945E-14 7.64496E-14
 -1       739 1.37727E+01 2.03063E+00 4.80789E-02 1.56189E+00 7.09450E-14 4.22902E-14
 -1       740 2.00784E+01 2.13705E+00 8.46111E-04-5.83438E-01 6.47971E-14-3.86694E-14
 -1       741 1.59437E+01 2.00040E+00 8.16058E-03-1.58208E+00-1.66773E-13 1.83495E-13
 -1       742 1.73310E+01 1.82112E+00 1.05171E-03-1.33057E+00-1.13619E-13 1.06681E-13
 -1       743 1.82822E+01 1.52151E+00 1.09190E-05-1.12961E+00-4.21066E-14 6.50731E-14
 -1       744 1.89208E+01 1.21004E+00 2.87966E-05-9.46997E-01-7.77685E-14 3.00924E-13
 -1       745 1.93402E+01 9.33293E-01 7.26242E-05-7.78077E-01-1.19683E-14 3.89220E-13
 -1       746 1.96092E+01 7.06381E-01 7.83060E-05-6.26643E-01 1.30205E-13 3.04547E-13
 -1       747 1.97713E+01 5.36255E-01 9.20564E-05-5.01196E-01 2.11149E-13 9.90294E-14
 -1       748 1.98769E+01 3.98373E-01 4.63815E-05-3.89643E-01-2.57204E-14 8.09569E-14
 -1       749 1.99398E+01 2.94747E-01 3.71605E-05-2.98437E-01-2.71523E-13-8.89657E-14
 -1       750 1.99758E+01 2.17424E-01 2.66459E-05-2.25229E-01-1.68113E-13 1.85439E-13
 -1       751 1.99954E+01 1.59935E-01 1.76610E-05-1.67463E-01-1.54019E-13 3.49411E-13
 -1       752 2.00053E+01 1.17244E-01 1.42608E-05-1.22577E-01 1.69077E-14 8.21992E-14
 -1       753 2.00094E+01 8.69067E-02 9.61679E-06-8.95880E-02 1.56268E-13-2.09504E-13
 -1       754 2.00107E+01 6.29806E-02 6.97943E-06-6.30550E-02 1.65491E-13-3.53770E-13
 -1       755 2.00102E+01 4.52420E-02 4.95706E-06-4.32174E-02 2.30056E-13 7.07108E-14
 -1       756 2.00090E+01 3.21152E-02 3.35885E-06-2.85757E-02 2.94631E-13 2.34225E-13
 -1       757 2.00076E+01 2.24450E-02 2.17832E-06-1.79363E-02 1.24221E-13 7.05023E-15
 -1       758 2.00061E+01 1.53658E-02 1.69086E-06-1.03493E-02-3.06219E-14-1.61526E-14
 -1       759 2.00048E+01 1.04389E-02 5.75952E-07-5.26882E-03 4.45269E-13 1.49639E-13
 -1       760 2.00036E+01 6.65428E-03 4.95079E-07-1.60180E-03 6.22334E-13 3.81156E-13
 -1       761 2.00026E+01 3.91894E-03 3.15823E-07 7.77136E-04 2.75066E-13 3.13836E-13
 -1       762 2.00018E+01 1.91292E-03 1.55780E-07 2.21056E-03 5.13127E-14 1.32514E-13
 -1       763 2.00011E+01 3.55570E-04 8.78890E-07 2.94233E-03 1.98507E-13-5.34219E-13
 -1       764 2.23378E+01-4.33376E+00 3.43763E-02-4.80755E+00-1.82888E-13-8.23456E-14
 -1       765 2.12259E+01-8.28169E-01-1.16916E-04 6.01900E-02 3.41150E-14 2.52377E-14
 -1       766 2.17385E+01-4.36377E-01 1.42994E-04 1.20203E+00 4.80575E-15 2.38665E-13
 -1       767 2.16182E+01 2.27677E-01 3.61920E-04 1.37869E+00-6.28172E-14 2.58768E-13
 -1       768 2.13637E+01 1.02257E+00 4.91675E-04 1.19750E+00 2.11264E-14 2.58362E-13
 -1       769 2.11153E+01 1.65944E+00-1.09493E-03 6.18774E-01 2.96374E-14 5.48444E-14
 -1       770 2.10400E+01 1.84353E+00-1.78108E-03-2.12911E-01 4.28615E-14 5.22823E-14
 -1       771 2.11885E+01 1.48714E+00 5.47024E-04-9.85309E-01 6.05664E-14 4.35173E-14
 -1       772 2.14496E+01 7.74040E-01 5.20960E-04-1.43879E+00 5.93384E-14 1.36858E-13
 -1       773 2.16588E+01 1.31939E-02 7.34764E-04-1.48953E+00 1.46253E-14 2.35186E-13
 -1       774 2.17029E+01-5.49609E-01 6.52712E-04-1.23746E+00-9.37784E-14 4.06850E-13
 -1       775 2.15751E+01-8.31116E-01-1.04166E-04-8.48778E-01-1.01535E-13 4.09050E-13
 -1       776 2.13338E+01-8.68188E-01-2.56838E-04-4.58742E-01-4.16733E-14 5.04558E-13
 -1       777 2.10515E+01-7.51742E-01-2.02873E-04-1.41294E-01 1.46368E-13 5.48540E-13
 -1       778 2.07826E+01-5.68496E-01-1.80967E-04 8.15148E-02 4.41726E-14 5.15839E-13
 -1       779 2.05561E+01-3.78934E-01-1.25530E-04 2.16854E-01-2.95623E-14 4.24806E-13
 -1       780 2.03808E+01-2.16017E-01-7.04147E-05 2.83622E-01-1.52765E-13 1.79429E-13
 -1       781 2.02534E+01-9.20976E-02-3.20995E-05 3.02221E-01-5.67344E-14 2.03647E-13
 -1       782 2.01652E+01-7.16715E-03-1.04270E-05 2.90160E-01-1.39519E-14 3.46636E-13
 -1       783 2.01065E+01 4.48022E-02 2.92428E-06 2.60809E-01 1.57428E-13 2.78391E-13
 -1       784 2.00687E+01 7.17736E-02 9.48634E-06 2.23587E-01 1.40776E-13 4.22926E-14
 -1       785 2.00449E+01 8.13955E-02 1.27597E-05 1.84667E-01 4.87049E-14 3.84741E-14
 -1       786 2.00302E+01 8.00139E-02 1.30663E-05 1.47786E-01-6.84704E-14 6.76958E-15
 -1       787 2.00211E+01 7.24154E-02 1.19236E-05 1.14942E-01-1.43397E-13-5.69759E-14
 -1       788 2.00154E+01 6.19408E-02 1.01909E-05 8.69691E-02 3.38877E-14-1.32848E-13
 -1       789 2.00117E+01 5.07552E-02 8.29040E-06 6.39642E-02-5.13657E-14-3.87614E-14
 -1       790 2.00091E+01 4.01434E-02 6.47874E-06 4.55946E-02 9.27168E-14 2.17740E-13
 -1       791 2.00072E+01 3.07722E-02 4.88623E-06 3.13073E-02 1.40501E-13 4.45352E-13
 -1       792 2.00057E+01 2.29008E-02 3.55994E-06 2.04676E-02 1.71816E-15 3.14385E-13
 -1       793 2.00045E+01 1.65374E-02 2.50543E-06 1.24454E-02 5.36955E-14 2.65168E-13
 -1       794 2.00035E+01 1.15478E-02 1.69014E-06 6.66480E-03-3.66619E-14 6.12723E-14
 -1       795 2.00026E+01 7.72866E-03 1.06863E-06 2.62779E-03 3.06610E-14 1.24979E-14
 -1       796 2.00019E+01 4.85051E-03 5.49501E-07-7.64307E-05 1.16219E-14 1.67245E-13
 -1       797 2.00013E+01 2.68473E-03 2.03973E-07-1.77292E-03-7.67828E-14-1.19807E-13
 -1       798 2.00008E+01 1.01860E-03 7.59494E-07-2.69532E-03-4.04728E-14-8.01342E-14
 -1       799 2.00007E+01 1.55259E-04-2.10884E-06-2.92332E-03 1.34416E-13-2.38055E-13
 -1       800 2.00026E+01 1.77796E-03-7.34888E-08 4.95755E-04-1.83020E-14 1.67195E-13
 -1       801 2.00025E+01 1.40594E-03-1.59703E-07 1.24344E-03-3.04198E-13-1.71457E-13
 -1       802 2.00025E+01 1.95666E-03-1.55502E-08-2.03847E-04 3.13317E-13-3.84826E-14
 -1       803 2.14830E+01-9.26093E-01-4.47394E-05 4.11043E-01-1.73060E-14 1.24181E-13
 -1       804 1.00744E+01 1.01973E+00 1.22243E-01 2.71180E+00-6.81937E-14 2.58911E-13
 -1       805 2.04818E+01-3.83133E+00 4.53677E-02 5.55602E+00-1.25563E-13 2.10675E-13
 -1       806 2.07626E+01-3.42523E-01-1.22908E-04-3.01066E-01-1.61974E-14 6.98202E-14
 -1       807 2.09722E+01-6.12321E-01-1.40813E-04-1.80717E-01-5.89650E-14 5.45531E-14
 -1       808 2.52150E+01 5.43831E+00-7.10903E-02 6.33840E-01 1.07934E-13 2.28571E-13
 -1       809 2.67915E+01-2.42229E-01-5.45081E-02 1.69246E+00 7.09502E-15 2.84417E-13
 -1       810 2.50564E+01-4.24042E+00 1.38026E-02 2.88123E+00-3.43180E-14-1.98551E-13
 -1       811 2.00021E+01 9.19203E-04-2.90337E-06 2.02520E-03-1.79637E-13-5.86237E-13
 -1       812 2.54479E+01 4.28141E+00-8.56137E-02-1.71991E+00 1.39277E-13 3.76353E-14
 -1       813 2.16793E+01-8.21004E-01 3.74915E-04 8.25562E-01 3.00273E-14 1.39411E-13
 -1       814 2.61012E+01 3.25408E+00-7.64612E-02 2.09959E+00 1.14245E-13 3.28931E-13
 -1       815 1.41051E+01 1.87634E+00 2.64481E-02-1.96719E+00-1.52088E-13 1.83784E-13
 -1       816 1.97703E+01 2.15525E+00-3.05915E-04-1.29734E-01 9.57166E-14 1.08196E-13
 -1       817 1.14374E+01 1.27484E+00 7.58841E-02-1.94854E+00 3.92754E-14 7.28237E-15
 -1       818 2.01605E+01 1.65848E+00-3.94557E-04 1.92446E-01 1.01953E-13 1.38606E-13
 -1       819 2.06122E+01-4.72621E-02-6.24339E-05-3.04526E-01 6.12789E-14 1.22444E-13
 -1       820 1.99602E+01 1.62828E+00-3.91360E-04-2.65378E-02 2.19517E-14-5.47522E-15
 -1       821 2.67705E+01-6.02410E-01-3.15760E-02-1.48962E+00 1.36488E-14-1.70082E-13
 -1       822 2.47515E+01-4.08055E+00-4.59067E-03-2.52752E+00-1.70632E-13-3.14904E-14
 -1       823 2.39694E+01 4.41883E+00-3.91150E-02-6.27998E-01 1.65284E-13 1.19773E-13
 -1       824 2.00024E+01 1.90884E-03 1.76261E-08-8.62903E-04 1.83739E-13-2.58655E-13
 -1       825 2.00022E+01 1.64202E-03-5.55440E-09-1.49779E-03 2.58974E-13-2.82823E-13
 -1       826 1.48685E+01-1.11589E+00 6.50863E-02-5.19305E+00-1.42004E-14-6.85771E-14
 -1       827 1.25760E+01 8.52618E-02 6.42151E-02 4.31381E+00-3.81327E-14 3.10651E-13
 -1       828 2.60129E+01-3.21266E+00-2.76952E-02 7.82168E-01-5.74447E-14-2.48560E-13
 -1       829 1.97081E+01 2.15520E+00-1.01072E-03-2.72864E-01 8.67998E-14-9.51959E-15
 -1       830 2.00018E+01 1.20269E-03-2.97774E-07-2.03449E-03 5.36944E-13-3.72513E-13
 -1       831 1.95615E+01 2.33935E+00-1.53594E-05-3.14035E-01 9.78187E-14 5.32002E-14
 -1       832 2.05174E+01 2.75450E-01 9.90818E-05-1.95588E-01 5.08899E-14 1.61161E-13
 -1       833 1.96187E+01 2.30983E+00-4.04900E-04-2.47323E-01 9.37888E-14 4.64242E-14
 -1       834 1.99607E+01 1.93443E+00-4.33105E-04 2.65244E-02 1.03519E-13 1.54180E-13
 -1       835 2.04611E+01 6.87293E-01 1.88644E-04 6.13403E-02 3.67503E-14 1.59458E-13
 -1       836 2.21996E+01 1.94056E+00-8.71491E-03 1.21072E+00 7.03119E-14 1.96386E-13
 -1       837 2.25562E+01 7.48450E-01-1.34618E-03 1.58818E+00-1.64167E-14 1.80604E-13
 -1       838 1.94255E+01 1.63647E+00-3.90088E-04 1.32503E-01 5.14043E-14 1.14302E-13
 -1       839 1.89972E+01 1.57395E+00-1.86590E-04 2.66632E-01 5.35977E-14 1.07872E-13
 -1       840 1.83557E+01 1.62757E+00-3.52982E-04 2.86266E-01 4.87070E-14 8.65049E-14
 -1       841 1.74339E+01 1.74896E+00-7.46266E-05 1.69997E-01 3.12000E-14 3.99463E-14
 -1       842 1.62000E+01 1.86002E+00 1.39021E-03-9.00975E-02 7.42497E-14-4.37703E-15
 -1       843 1.43503E+01 1.87839E+00 1.72158E-02-5.42541E-01 6.17913E-14 3.09024E-14
 -1       844 1.72003E+01 1.70279E+00-1.25550E-04-3.24144E-01-2.28193E-15 1.93483E-14
 -1       845 1.81092E+01 1.41863E+00-3.74207E-04-4.23221E-01 4.60272E-15 2.61173E-15
 -1       846 1.87353E+01 1.14110E+00-1.74641E-04-4.48379E-01 5.94207E-14 1.51715E-13
 -1       847 1.91632E+01 8.96421E-01-7.28429E-05-4.26908E-01 1.19563E-13 2.03706E-13
 -1       848 1.94413E+01 7.02055E-01 1.66844E-05-3.82603E-01 1.33765E-13 1.67293E-13
 -1       849 1.96396E+01 5.36891E-01-1.85248E-05-3.25464E-01 1.32492E-13 1.44003E-13
 -1       850 1.97711E+01 4.07485E-01-7.22889E-06-2.67347E-01-2.21549E-13 1.41765E-13
 -1       851 1.98575E+01 3.07445E-01-2.53712E-06-2.13413E-01-2.16769E-13 2.07945E-13
 -1       852 1.99137E+01 2.30762E-01-2.91188E-06-1.66245E-01-1.01996E-13 1.46157E-13
 -1       853 1.99498E+01 1.72309E-01-5.44602E-07-1.26683E-01-2.70785E-13 2.43721E-14
 -1       854 1.99718E+01 1.29810E-01 1.61025E-06-9.58508E-02 8.00973E-14 1.78376E-13
 -1       855 1.99863E+01 9.56253E-02-2.70572E-07-6.98597E-02 9.33714E-14 1.58796E-13
 -1       856 1.99952E+01 6.98176E-02 3.89855E-07-4.96475E-02 3.76303E-13 1.90258E-13
 -1       857 2.00003E+01 5.03992E-02 2.83839E-07-3.42122E-02 3.34569E-13 6.37446E-14
 -1       858 2.00030E+01 3.58705E-02 3.30749E-08-2.26498E-02 1.12311E-13-1.27647E-14
 -1       859 2.00042E+01 2.50796E-02 3.24555E-07-1.41666E-02 7.80034E-14-2.78672E-13
 -1       860 2.00046E+01 1.74675E-02-8.33510E-08-8.31961E-03 4.98964E-13 5.78773E-14
 -1       861 2.00043E+01 1.15517E-02-1.20242E-07-3.96081E-03 4.95795E-13 9.09691E-14
 -1       862 2.00038E+01 7.25226E-03 2.01849E-07-1.01078E-03 3.28727E-13-1.26840E-13
 -1       863 2.00031E+01 4.11787E-03 2.64584E-06 8.83450E-04-2.40855E-14-1.67665E-13
 -1       864 2.00026E+01 2.43931E-03 1.95166E-06 1.63603E-03-3.49546E-13-2.65478E-13
 -1       865 2.27068E+01-3.65922E-01 4.38771E-04 1.39528E+00-1.60124E-14 2.20286E-13
 -1       866 2.19504E+01 2.66280E+00-4.22142E-03 2.99100E-01 8.70766E-14 2.16729E-13
 -1       867 2.20153E+01 2.46807E+00-1.81222E-03-7.65552E-01 9.15539E-14 1.07504E-13
 -1       868 2.23204E+01 1.54953E+00 5.33250E-04-1.51436E+00 2.67027E-14 8.15771E-14
 -1       869 2.25789E+01 3.59530E-01-1.14268E-03-1.67887E+00-8.97031E-14 1.25591E-13
 -1       870 2.26066E+01-6.14737E-01 1.08893E-03-1.35863E+00-2.26040E-13 2.96814E-13
 -1       871 2.23439E+01-1.12910E+00-9.29348E-04-8.43514E-01-1.36649E-13 3.66430E-13
 -1       872 2.19145E+01-1.24129E+00-5.93996E-04-3.41492E-01-3.89432E-15 2.27657E-13
 -1       873 2.14371E+01-1.09597E+00-9.73185E-05 3.56409E-02 8.35306E-14 1.96059E-13
 -1       874 2.10021E+01-8.37858E-01-1.40679E-04 2.71263E-01 6.04940E-14 3.83883E-13
 -1       875 2.06517E+01-5.64121E-01-1.07589E-04 3.90193E-01 7.18396E-14 3.96960E-13
 -1       876 2.03937E+01-3.26892E-01-3.62659E-05 4.27841E-01 3.25038E-14 1.74813E-13
 -1       877 2.02172E+01-1.45257E-01 1.11489E-06 4.15355E-01-1.41769E-13 2.19238E-13
 -1       878 2.01047E+01-1.96546E-02 4.48466E-06 3.75646E-01-6.15282E-14 2.28793E-13
 -1       879 2.00383E+01 5.83873E-02 7.41501E-06 3.24004E-01 6.89674E-14-2.64080E-14
 -1       880 2.00029E+01 1.00117E-01 5.13191E-06 2.69857E-01 3.22518E-13 7.16820E-14
 -1       881 1.99868E+01 1.16397E-01 6.13465E-06 2.18529E-01 2.14001E-13 7.67948E-15
 -1       882 1.99821E+01 1.16267E-01 5.06526E-06 1.72734E-01 5.53830E-14-1.50890E-13
 -1       883 1.99832E+01 1.06620E-01 3.68427E-06 1.33523E-01-3.54605E-14-1.27264E-13
 -1       884 1.99869E+01 9.23186E-02 2.64837E-06 1.00974E-01-1.77432E-13-9.04728E-14
 -1       885 1.99912E+01 7.65684E-02 1.86064E-06 7.46370E-02 9.44985E-14-6.89303E-14
 -1       886 1.99952E+01 6.13224E-02 1.27557E-06 5.37952E-02-2.54899E-13-3.69040E-14
 -1       887 1.99983E+01 4.76408E-02 8.47706E-07 3.76381E-02-8.19785E-14 2.34742E-13
 -1       888 2.00005E+01 3.59836E-02 5.45007E-07 2.53602E-02 2.08169E-13 9.54579E-14
 -1       889 2.00019E+01 2.64325E-02 3.29620E-07 1.62182E-02 8.11856E-14-1.42075E-13
 -1       890 2.00027E+01 1.88481E-02 1.78003E-07 9.55859E-03 1.10024E-14-1.31576E-13
 -1       891 2.00029E+01 1.29769E-02 8.22405E-08 4.82831E-03-8.08314E-14 1.81300E-13
 -1       892 2.00027E+01 8.51862E-03 1.04142E-07 1.57334E-03 4.83971E-14 1.42304E-13
 -1       893 2.00024E+01 5.16586E-03 1.17024E-07-5.64120E-04 1.11244E-13-1.68454E-13
 -1       894 2.00019E+01 2.63544E-03 8.05578E-07-1.86584E-03 1.30089E-13-2.25443E-13
 -1       895 2.00031E+01 4.13893E-03-1.93645E-06 4.07768E-04 1.56062E-13-5.43776E-13
 -1       896 2.00031E+01 4.62129E-03-4.26684E-07-6.51684E-05 1.65943E-13 9.59138E-14
 -1       897 2.46432E+01 1.19213E+00-2.23026E-02 1.96025E+00 2.52133E-14 2.35115E-13
 -1       898 2.55169E+01 1.89656E+00-4.20607E-02-2.12326E+00-3.26787E-14-1.23701E-13
 -1       899 1.58836E+01 1.94192E+00 5.30755E-03-1.22065E-01-1.61371E-13-6.90129E-14
 -1       900 1.75435E+01-1.81824E+00 5.16890E-02 5.12812E+00-3.57388E-14 1.00002E-13
 -1       901 2.04341E+01 6.95160E-01 3.78061E-04-1.40271E-01 5.12043E-14 1.02119E-13
 -1       902 1.96358E+01-2.76526E+00 3.42662E-02-4.86603E+00-6.87566E-14-1.06661E-13
 -1       903 2.13349E+01-9.21068E-01-1.38888E-04-3.55277E-01-2.81815E-14 8.20166E-14
 -1       904 2.09890E+01-5.60019E-01-8.66039E-05-4.77401E-01-4.42958E-14 1.25996E-13
 -1       905 1.95386E+01 2.37967E+00-3.51395E-04-3.09949E-01 9.29800E-14 3.61776E-14
 -1       906 2.17654E+01-1.20989E+00 1.97952E-04-8.10408E-02-4.40507E-14 1.31567E-13
 -1       907 1.40655E+01 2.03969E+00 1.69721E-02 1.66332E-01-1.06630E-13-3.93032E-14
 -1       908 2.57220E+01-2.18376E+00-7.11187E-03 4.85362E-01-6.53574E-14 2.30327E-13
 -1       909 2.00030E+01 3.33858E-03-1.09444E-06 9.66126E-04-3.05129E-13-3.95871E-13
 -1       910 2.39054E+01 3.34298E+00-4.23815E-02 1.45097E+00 6.64286E-14 1.80373E-13
 -1       911 2.00013E+01 6.34601E-04 6.60599E-07-2.52043E-03 2.52252E-13-7.78020E-13
 -1       912 2.26193E+01-3.53396E+00 7.39655E-03 3.46721E+00-1.48072E-13 6.63879E-15
 -1       913 2.03152E+01 1.13747E+00-5.04450E-04 1.68633E-02 8.18818E-14 1.22706E-13
 -1       914 2.07346E+01-1.75161E-01-1.11063E-04-4.74445E-01 5.22818E-14 1.12842E-13
 -1       915 1.96362E+01 1.78368E+00 1.45681E-03-1.71569E-02 6.41595E-14 2.89279E-14
 -1       916 1.16035E+01 1.88819E+00 8.51588E-02-8.41429E-03-2.20616E-13 9.53092E-14
 -1       917 2.23165E+01-3.40673E+00 6.24303E-03-3.54604E+00-1.38070E-13-5.03111E-14
 -1       918 2.25724E+01-1.06997E+00 1.09210E-03 8.96032E-01-1.55413E-14 1.84416E-13
 -1       919 2.57347E+01-1.95693E+00-2.29682E-02-5.30397E-01-5.11548E-14-1.39022E-13
 -1       920 1.43391E+01 6.56474E-01 3.59397E-02-3.16366E+00 3.90713E-14-8.37828E-14
 -1       921 2.00030E+01 4.70274E-03-2.03924E-07-4.63320E-04 2.01066E-13-2.30182E-14
 -1       922 2.00028E+01 4.37606E-03-2.26528E-07-8.36138E-04 2.09330E-13-2.48517E-13
 -1       923 2.44364E+01-6.91996E-01-5.87930E-03 1.43726E+00-1.37988E-14 2.76871E-13
 -1       924 2.02283E+01-2.38679E+00 1.31287E-02 3.96731E+00-9.38121E-14-2.21615E-14
 -1       925 2.36864E+01 2.88408E+00-2.70947E-02-1.60036E+00 2.22114E-14 1.98800E-13
 -1       926 1.99819E+01 1.52593E+00-7.50422E-06-2.57645E-01 6.80121E-14 1.38522E-13
 -1       927 2.00025E+01 3.70588E-03-7.02577E-07-1.22502E-03 2.88903E-13-6.34404E-13
 -1       928 2.05614E+01 2.23670E-01 1.13243E-04-3.67425E-01 6.66128E-14 1.08865E-13
 -1       929 1.97662E+01 1.74393E+00 1.20280E-05-3.48360E-01 8.11315E-14 8.85526E-14
 -1       930 1.22705E+01 1.50906E+00 5.11807E-02 1.86827E+00-2.02898E-13 3.19232E-13
 -1       931 1.94933E+01 1.94079E+00-1.64042E-04-2.00706E-01 1.00645E-13 3.03445E-14
 -1       932 2.22060E+01-1.30065E+00 1.03333E-05 3.53894E-01 2.98328E-14 1.54204E-13
 -1       933 2.40913E+01-3.36650E+00 1.18562E-03 1.88601E+00-4.87203E-14-3.27030E-13
 -1       934 2.51865E+01-1.23501E-01 5.01158E-04-1.78464E+00 1.95156E-14 1.02193E-14
 -1       935 1.55869E+01 1.32542E-01 3.11442E-02 3.72903E+00-1.46291E-13 3.20847E-13
 -1       936 1.86967E+01 1.52047E+00-1.18053E-03-2.35272E-01 4.22678E-14 1.07112E-13
 -1       937 1.80411E+01 1.47305E+00 1.06499E-05-4.97249E-01 9.48749E-15 6.98176E-14
 -1       938 1.72013E+01 1.41668E+00-1.68315E-04-9.50181E-01 2.06703E-14 1.15388E-14
 -1       939 1.60475E+01 1.25193E+00 3.86051E-03-1.70933E+00 5.49651E-14-4.13143E-14
 -1       940 1.83089E+01 1.17215E+00-2.58736E-04 9.15743E-02 4.23834E-14 3.27073E-13
 -1       941 1.88115E+01 9.73748E-01-1.25769E-04-6.72494E-02 9.13970E-14 2.70274E-13
 -1       942 1.91574E+01 7.97207E-01 2.02111E-05-1.42423E-01 4.91120E-14 3.24870E-13
 -1       943 1.94189E+01 6.34219E-01-3.49995E-05-1.71682E-01 5.12604E-14 9.12792E-14
 -1       944 1.96033E+01 4.97873E-01-3.15947E-05-1.71057E-01-7.06337E-14-9.19712E-14
 -1       945 1.97324E+01 3.86734E-01-1.09037E-05-1.54783E-01-2.19737E-13 2.13708E-14
 -1       946 1.98221E+01 2.97710E-01-8.93856E-06-1.31770E-01-9.71842E-14-3.31099E-14
 -1       947 1.98839E+01 2.27315E-01-5.41464E-06-1.07395E-01-2.75810E-13 4.22441E-14
 -1       948 1.99245E+01 1.74530E-01 6.11700E-07-8.55323E-02-7.46975E-14 1.89307E-13
 -1       949 1.99538E+01 1.30952E-01-2.65983E-06-6.52572E-02 8.04571E-14-1.29972E-14
 -1       950 1.99733E+01 9.72791E-02-8.17501E-07-4.83383E-02 2.98662E-13-2.69840E-14
 -1       951 1.99861E+01 7.14188E-02-4.65900E-07-3.46958E-02 2.72865E-13-9.75643E-14
 -1       952 1.99943E+01 5.17138E-02-5.11030E-07-2.40221E-02 1.64426E-13-1.77379E-13
 -1       953 1.99993E+01 3.68360E-02-1.68149E-08-1.59001E-02 6.74262E-14 1.67375E-13
 -1       954 2.00020E+01 2.61815E-02 6.84840E-08-1.01178E-02 4.43413E-13 1.26525E-13
 -1       955 2.00034E+01 1.78014E-02 1.76167E-07-5.66381E-03 4.47026E-13-1.06977E-13
 -1       956 2.00038E+01 1.16359E-02-6.99247E-07-2.55040E-03 3.17691E-13-1.67024E-13
 -1       957 2.00037E+01 7.13869E-03 2.22028E-08-4.48363E-04 1.75878E-13-3.96677E-13
 -1       958 2.00033E+01 5.11920E-03-2.24767E-06 3.98760E-04 7.36080E-14-4.76011E-13
 -1       959 2.00034E+01 7.74236E-03 3.59168E-07-3.61923E-04-7.52201E-14-2.26595E-13
 -1       960 2.03773E+01 6.47937E-01 2.40357E-04-3.75725E-01 4.46120E-14 1.84946E-13
 -1       961 1.67760E+01-7.32131E-01 2.88564E-02-4.17678E+00 5.58134E-14-7.23826E-14
 -1       962 2.37523E+01-6.14483E-01-1.31729E-02-1.51327E+00-7.93491E-14 6.01233E-14
 -1       963 2.33478E+01-1.45772E+00 3.65856E-03-7.92196E-01-1.75126E-13-1.62791E-13
 -1       964 2.26195E+01-1.69367E+00-8.19540E-04-8.62167E-02-9.27644E-14-3.16346E-14
 -1       965 2.18704E+01-1.50434E+00 7.21791E-04 3.80547E-01-2.61143E-14 4.94571E-14
 -1       966 2.12195E+01-1.14005E+00-1.07997E-04 6.11216E-01-3.85186E-14 6.49272E-14
 -1       967 2.07212E+01-7.58025E-01-2.07860E-04 6.80198E-01-7.73280E-15 1.32631E-13
 -1       968 2.03722E+01-4.32601E-01-3.83170E-05 6.53703E-01 1.92548E-13 1.45647E-13
 -1       969 2.01467E+01-1.87043E-01 5.26890E-05 5.80272E-01-6.51003E-14 1.96358E-13
 -1       970 2.00134E+01-1.90891E-02 2.41888E-05 4.89931E-01 9.74459E-14 4.89491E-14
 -1       971 1.99438E+01 8.44345E-02 2.64000E-05 4.00151E-01-4.39508E-14 7.44050E-14
 -1       972 1.99152E+01 1.39382E-01-1.45549E-06 3.18895E-01 1.47501E-13 4.69474E-14
 -1       973 1.99108E+01 1.60731E-01 5.90473E-06 2.49282E-01 3.24282E-13 1.16382E-13
 -1       974 1.99193E+01 1.60351E-01 4.90931E-06 1.91700E-01 2.57278E-13 1.87818E-13
 -1       975 1.99335E+01 1.47380E-01 2.52743E-06 1.45197E-01-3.32398E-14 2.04000E-13
 -1       976 1.99488E+01 1.28187E-01 1.31567E-06 1.08294E-01-7.29100E-14 1.83063E-13
 -1       977 1.99631E+01 1.06973E-01 5.98608E-07 7.94421E-02-2.31321E-14-6.37343E-14
 -1       978 1.99751E+01 8.63278E-02 2.30749E-07 5.71860E-02-1.25699E-13-1.55516E-13
 -1       979 1.99845E+01 6.76774E-02 2.32926E-08 4.02387E-02-2.38313E-13-2.71641E-13
 -1       980 1.99916E+01 5.16660E-02-8.24439E-08 2.75051E-02 1.58658E-13-3.18452E-13
 -1       981 1.99965E+01 3.84371E-02-1.32956E-07 1.80745E-02 1.51900E-13-8.75766E-15
 -1       982 1.99998E+01 2.78396E-02-4.08267E-08 1.12035E-02 1.69660E-13-1.01999E-13
 -1       983 2.00017E+01 1.95657E-02-3.24702E-07 6.29445E-03-2.73689E-13-1.52685E-13
 -1       984 2.00026E+01 1.32306E-02-5.87647E-07 2.87049E-03-7.74470E-14 7.47230E-15
 -1       985 2.00028E+01 8.45329E-03-8.60289E-07 5.57764E-04 3.89182E-13-2.86030E-13
 -1       986 1.53894E+01 1.49381E+00 7.19266E-03 1.53245E+00-2.12206E-13 4.31848E-13
 -1       987 1.66858E+01 1.48558E+00 1.04380E-03 8.26620E-01 1.47371E-14 3.52399E-13
 -1       988 2.36159E+01 1.09804E+00-1.07867E-02-1.88251E+00-3.96484E-14 2.61267E-13
 -1       989 2.43098E+01-2.98809E+00 5.22705E-03-1.03470E+00-1.14071E-13 1.47465E-13
 -1       990 2.16757E+01-1.27832E+00 5.30070E-04-6.75369E-01-2.91606E-14 1.60709E-13
 -1       991 1.95047E+01 1.95303E+00 2.50417E-04-3.27223E-01 8.30409E-14 2.54730E-14
 -1       992 2.11628E+01-8.10627E-01-2.33645E-04-7.75922E-01-1.99823E-14 1.45993E-13
 -1       993 2.01625E+01 1.34373E+00 3.92893E-04-1.22053E-01 7.86019E-14 1.55582E-13
 -1       994 1.76237E+01 1.35722E+00-2.60340E-04 3.69745E-01-9.22225E-15 2.77614E-13
 -1       995 1.96076E+01 1.87865E+00 6.66016E-05-3.71652E-01 6.77853E-14 4.94967E-14
 -1       996 1.91603E+01 1.63323E+00-5.92096E-04-1.35091E-01 9.29861E-14 5.90369E-14
 -1       997 2.07939E+01-3.25740E-01 9.83179E-05-7.32495E-01 2.20640E-14 1.96072E-13
 -1       998 1.72192E+01 4.10237E-01-1.90858E-03-2.57436E+00 1.35659E-14-3.62416E-14
 -1       999 1.79954E+01-8.01848E-01 3.71290E-03 3.62543E+00-9.83686E-14 2.15119E-14
 -1      1000 2.39258E+01-1.49367E+00-2.07580E-03 8.39773E-01-7.17373E-14 2.42292E-13
 -1      1001 2.03765E+01-2.10327E+00 1.13117E-02-3.58969E+00 1.25295E-14 1.07545E-14
 -1      1002 2.00032E+01 8.15474E-03 5.03907E-08-3.49940E-04 3.04562E-13-7.93814E-16
 -1      1003 2.05380E+01 1.74595E-01 2.67398E-04-5.80069E-01 5.57730E-14 2.06318E-13
 -1      1004 2.00026E+01 4.87353E-03-1.82442E-06-9.07856E-04 4.90102E-14-3.49356E-13
 -1      1005 2.23405E+01-1.65988E+00-5.83220E-03-3.56017E-01-1.01322E-14 1.26719E-13
 -1      1006 2.00030E+01 7.92163E-03-1.19549E-06-2.90299E-04 2.84458E-13-2.39844E-13
 -1      1007 2.21835E+01-2.68772E+00 3.16231E-03 2.48121E+00-9.70573E-14-1.82473E-13
 -1      1008 2.00029E+01 7.10302E-03 6.18089E-06-3.28572E-04 2.91594E-13-3.81673E-13
 -1      1009 1.99428E+01 1.18118E+00 7.34772E-04-5.17040E-01 3.84450E-14 1.21173E-13
 -1      1010 2.46215E+01-2.82414E+00-1.32878E-02 5.02198E-01-1.31949E-13-7.00137E-14
 -1      1011 2.00035E+01 6.48082E-03 2.65947E-06-9.21331E-05-2.98093E-14-9.13199E-13
 -1      1012 2.01652E+01 9.94151E-01-4.47733E-04-4.10705E-01 4.14104E-14 1.48183E-13
 -1      1013 1.87237E+01 1.20417E+00-2.15911E-04-8.20276E-01 2.73749E-14-3.61287E-14
 -1      1014 1.82789E+01 9.70937E-01 1.07625E-03-1.29986E+00-1.87623E-14-1.96431E-14
 -1      1015 1.77767E+01 7.58838E-01 6.26333E-03-1.85583E+00-3.37599E-15-5.00836E-15
 -1      1016 1.86648E+01 8.84181E-01 1.14529E-04 3.93195E-01-6.35924E-14 1.32190E-13
 -1      1017 2.25385E+01-2.61544E+00 5.15906E-03-2.14163E+00-1.16590E-13 1.75495E-14
 -1      1018 1.89995E+01 7.77342E-01 5.08616E-05 1.85960E-01-3.74438E-16 3.91925E-14
 -1      1019 1.92711E+01 6.55896E-01-6.94943E-05 5.56749E-02-3.56483E-14-1.24546E-13
 -1      1020 1.94748E+01 5.41215E-01-4.78228E-06-1.63319E-02-1.19935E-13-2.63404E-13
 -1      1021 1.96270E+01 4.36913E-01-7.77118E-06-5.09039E-02 1.63260E-13-1.47978E-13
 -1      1022 1.97386E+01 3.47623E-01-1.08498E-05-6.28712E-02-1.89515E-13 2.50176E-13
 -1      1023 1.98198E+01 2.72957E-01-8.06832E-06-6.23841E-02-1.85228E-13 1.48443E-13
 -1      1024 1.98759E+01 2.14453E-01 5.26560E-07-5.59855E-02-1.00836E-13 7.65927E-14
 -1      1025 1.99183E+01 1.64391E-01-4.07608E-06-4.66877E-02-1.96751E-14 1.05824E-13
 -1      1026 1.99481E+01 1.24496E-01-1.50983E-06-3.70162E-02 1.41293E-13-2.00953E-14
 -1      1027 1.99687E+01 9.30510E-02-8.71063E-07-2.81081E-02 1.62407E-13-4.01986E-13
 -1      1028 1.99827E+01 6.85506E-02-8.16511E-07-2.04886E-02 4.94458E-13-1.60504E-13
 -1      1029 1.99919E+01 4.96926E-02-1.82291E-07-1.43061E-02 2.86212E-13-2.39340E-13
 -1      1030 1.99975E+01 3.59601E-02 7.41097E-07-9.67482E-03 3.17398E-13 5.32269E-14
 -1      1031 2.00010E+01 2.49876E-02 5.68080E-07-5.97086E-03 4.33586E-13-2.79131E-15
 -1      1032 2.00028E+01 1.68247E-02-3.09515E-06-3.22459E-03 2.50443E-13-3.88337E-13
 -1      1033 2.13491E+01-1.46048E+00 2.24693E-04 1.14819E+00 4.02950E-14-2.41406E-13
 -1      1034 2.06865E+01-9.30767E-01-1.84248E-04 1.11555E+00-1.56474E-13-1.96362E-13
 -1      1035 2.02577E+01-5.03760E-01 2.19668E-04 9.76704E-01-4.31159E-14 1.15077E-13
 -1      1036 2.00000E+01-1.92566E-01 2.70878E-04 8.03534E-01 3.35059E-14 9.39901E-14
 -1      1037 1.98628E+01 1.53210E-02 1.93468E-04 6.34829E-01-8.93034E-14 1.14309E-14
 -1      1038 1.98070E+01 1.35983E-01 2.86045E-07 4.88510E-01-5.87879E-14 3.39787E-13
 -1      1039 1.97968E+01 1.98661E-01-3.77010E-05 3.68381E-01 1.44630E-13 1.74446E-13
 -1      1040 1.98128E+01 2.20015E-01 5.26581E-05 2.74526E-01 2.42529E-13 1.64936E-13
 -1      1041 1.98409E+01 2.15144E-01 2.74187E-05 2.02154E-01 1.04346E-13 2.91769E-13
 -1      1042 1.98723E+01 1.95845E-01 1.31806E-05 1.47528E-01 1.23904E-13 4.62569E-13
 -1      1043 1.99023E+01 1.69665E-01 6.59214E-06 1.06674E-01 9.91235E-14 2.12022E-13
 -1      1044 1.99286E+01 1.41538E-01 2.36475E-06 7.63540E-02 4.25180E-14 5.79465E-14
 -1      1045 1.99501E+01 1.14490E-01 2.37395E-07 5.39937E-02 2.78006E-15 1.75865E-13
 -1      1046 1.99670E+01 9.01665E-02-7.80020E-07 3.75913E-02 2.18992E-14 1.30497E-13
 -1      1047 1.99797E+01 6.92905E-02-1.28868E-06 2.56296E-02 3.07032E-14-7.26992E-14
 -1      1048 1.99889E+01 5.20017E-02-1.24254E-06 1.69667E-02-3.96529E-14-1.39865E-13
 -1      1049 1.99951E+01 3.80906E-02-7.87177E-07 1.07542E-02 1.41771E-13 6.40026E-14
 -1      1050 1.99991E+01 2.71625E-02-1.81702E-06 6.34900E-03-2.26373E-13 2.13287E-13
 -1      1051 2.00015E+01 1.87888E-02-1.81458E-06 3.29025E-03-1.05702E-13-1.03111E-13
 -1      1052 2.00026E+01 1.24224E-02-8.68961E-07 1.18372E-03 3.29897E-13-3.20504E-13
 -1      1053 1.97004E+01 1.38017E+00-1.08769E-04-5.43456E-01 6.52992E-14 5.36105E-14
 -1      1054 1.70017E+01 7.87568E-01 6.61084E-04 2.03538E+00-2.62927E-13 3.22843E-13
 -1      1055 1.94465E+01-7.68063E-01-3.45611E-03-2.72883E+00 2.24625E-14 2.54432E-14
 -1      1056 2.12118E+01-1.06947E+00-2.52055E-03-1.22919E+00 1.99455E-15 1.55059E-13
 -1      1057 1.92794E+01 1.53562E+00 9.20674E-04-4.37202E-01 9.21560E-14 2.36844E-16
 -1      1058 2.32519E+01-1.92945E+00-1.14000E-03 4.35807E-02-5.76207E-14 2.22678E-13
 -1      1059 2.22539E+01-1.98728E+00-2.82957E-03 9.74416E-01-4.61367E-14-1.03314E-13
 -1      1060 2.32590E+01-2.48914E+00-3.47809E-03 8.88501E-01-7.57520E-14-1.28484E-13
 -1      1061 1.90362E+01 1.35701E+00 1.74321E-04-5.89206E-01 7.35285E-14-3.93671E-14
 -1      1062 2.03130E+01-1.66385E+00 3.34569E-03 2.87544E+00-6.78293E-14-6.66750E-14
 -1      1063 1.82275E+01 9.52774E-01-2.51457E-04 7.35689E-01 1.33012E-13 1.32919E-13
 -1      1064 1.76746E+01 9.43704E-01 3.29607E-04 1.26838E+00-4.47645E-14 1.20681E-13
 -1      1065 2.10762E+01-1.52043E+00-2.16606E-03-2.11268E+00 1.07619E-14 8.63136E-14
 -1      1066 2.00030E+01 1.23693E-02-2.09014E-06-7.60304E-04-4.62562E-14-2.49488E-13
 -1      1067 2.03023E+01 4.86379E-01 1.06448E-04-6.60556E-01 3.92627E-14 2.06822E-13
 -1      1068 2.00035E+01 1.08442E-02 7.94914E-06-1.32258E-03-5.58620E-14-6.57226E-13
 -1      1069 2.07286E+01-4.64907E-01-5.34400E-04-1.09342E+00 2.82277E-14 2.12154E-13
 -1      1070 1.98473E+01 8.68503E-01-3.24399E-04-7.79728E-01 4.49148E-14 3.47218E-14
 -1      1071 2.19577E+01-1.69011E+00 3.76114E-03-1.21959E+00-3.36738E-14 1.15716E-13
 -1      1072 2.00027E+01 1.25093E-02-5.95837E-06-3.49017E-05 6.69329E-14-2.69738E-13
 -1      1073 1.94899E+01 1.45942E+00 3.14298E-04-5.35990E-01 7.77948E-14 1.04076E-14
 -1      1074 2.16165E+01-2.04420E+00 2.98228E-03 1.97615E+00-6.04158E-14-2.27725E-13
 -1      1075 1.90315E+01 6.23284E-01 5.23910E-04 5.31225E-01-7.75005E-15-2.43162E-14
 -1      1076 2.01944E+01 2.41300E-01-6.52541E-04-9.92519E-01 4.73591E-14 1.53114E-13
 -1      1077 2.04675E+01 2.75028E-02 2.47074E-04-8.84447E-01 5.66076E-14 2.43057E-13
 -1      1078 1.92496E+01 5.81231E-01 4.57877E-04 3.11523E-01-1.25381E-13-9.43166E-14
 -1      1079 1.94279E+01 5.13555E-01-1.23002E-04 1.69579E-01-1.31159E-13-8.68706E-14
 -1      1080 1.95706E+01 4.41584E-01 1.22220E-04 8.37350E-02 1.57998E-13-5.82585E-14
 -1      1081 1.96851E+01 3.66646E-01 3.55095E-05 3.30304E-02 1.48116E-13-9.75087E-14
 -1      1082 1.97731E+01 2.98381E-01 9.06168E-06 4.94597E-03-9.19850E-14 4.51225E-14
 -1      1083 1.98371E+01 2.41171E-01 9.51926E-06-8.35003E-03-1.39198E-13 1.89287E-13
 -1      1084 1.98878E+01 1.89600E-01-5.00244E-07-1.39993E-02-2.21720E-13 2.42349E-13
 -1      1085 1.99250E+01 1.46744E-01-4.16128E-07-1.49125E-02-5.27944E-14 1.71734E-13
 -1      1086 1.99518E+01 1.11812E-01-1.20011E-06-1.34522E-02-6.79748E-14 2.95634E-13
 -1      1087 1.99708E+01 8.38366E-02-1.68903E-06-1.10336E-02 3.76855E-13 1.71507E-13
 -1      1088 1.99838E+01 6.18084E-02-1.10488E-06-8.45454E-03 3.01897E-13-1.89665E-13
 -1      1089 1.99921E+01 4.54542E-02-2.35369E-08-6.19653E-03 4.94606E-13-2.06994E-13
 -1      1090 1.99978E+01 3.21736E-02-2.24429E-06-4.15737E-03 3.21520E-13-1.59456E-13
 -1      1091 2.00011E+01 2.21543E-02 3.63533E-06-2.56030E-03 2.18787E-13-1.22956E-13
 -1      1092 1.99639E+01-5.12058E-01-2.17881E-06 1.42402E+00-2.70634E-13-5.75928E-14
 -1      1093 2.04234E+01-1.04512E+00 3.16452E-03 1.74910E+00-8.13551E-14-2.50473E-13
 -1      1094 1.96145E+01 1.08692E-01-1.81671E-05 7.99992E-01-4.38326E-14 1.61287E-13
 -1      1095 1.96062E+01 2.30052E-01-3.51796E-04 5.76406E-01-1.59179E-13 1.88901E-13
 -1      1096 1.96385E+01 2.89776E-01 2.41116E-04 4.09775E-01 1.23805E-13 1.50003E-14
 -1      1097 1.96879E+01 3.00466E-01-3.68300E-05 2.87723E-01 2.54260E-13 5.91191E-14
 -1      1098 1.97455E+01 2.84139E-01-2.52525E-05 1.98466E-01 2.24489E-13 3.62081E-14
 -1      1099 1.98005E+01 2.53475E-01-4.58699E-05 1.36381E-01 3.81822E-14-1.14694E-14
 -1      1100 1.98491E+01 2.16982E-01-1.91195E-05 9.28847E-02 8.87901E-14-2.35496E-14
 -1      1101 1.98898E+01 1.79784E-01-9.08297E-06 6.28414E-02 1.18924E-13 1.63693E-13
 -1      1102 1.99223E+01 1.45003E-01-4.55417E-06 4.22275E-02-1.09907E-15 2.82473E-13
 -1      1103 1.99475E+01 1.14211E-01-1.19619E-06 2.81151E-02 1.45693E-13 2.17740E-13
 -1      1104 1.99663E+01 8.80028E-02 6.82515E-07 1.84697E-02 1.46181E-13 1.39624E-13
 -1      1105 1.99799E+01 6.63757E-02 5.53405E-07 1.18966E-02-1.24057E-13 5.62382E-13
 -1      1106 1.99895E+01 4.89841E-02 2.12272E-06 7.41748E-03 1.25060E-13 5.66232E-13
 -1      1107 1.99958E+01 3.52729E-02 2.16134E-06 4.35509E-03-1.38955E-14 1.35355E-13
 -1      1108 1.99997E+01 2.47975E-02 1.34267E-05 2.33985E-03 8.67601E-15-2.39860E-13
 -1      1109 2.00017E+01 1.79619E-02 2.69073E-06 7.75318E-04 3.17606E-13-5.16326E-13
 -1      1110 1.95508E+01 1.00797E+00 1.05940E-03-8.16938E-01 5.97381E-14 4.40223E-14
 -1      1111 1.91266E+01 6.42379E-01-5.83644E-03-1.31187E+00 1.64951E-14 2.83928E-14
 -1      1112 1.97157E+01-1.32792E-01-1.25859E-03 1.08411E+00-5.50523E-14-8.94486E-14
 -1      1113 1.86490E+01-3.38739E-01-1.21424E-03 2.51415E+00-1.31313E-13 2.76282E-13
 -1      1114 1.86453E+01 1.47515E-01-2.57163E-03 1.81049E+00-2.51629E-13 2.40761E-13
 -1      1115 1.98544E+01 3.91059E-01 2.02372E-03-1.15389E+00 4.06277E-14 3.21667E-14
 -1      1116 1.89684E+01 3.17924E-01 1.66763E-03-1.77437E+00-2.35873E-14 6.84923E-15
 -1      1117 2.00758E+01-5.61190E-01 5.71585E-03-1.94860E+00 1.72703E-14 6.81803E-14
 -1      1118 1.92827E+01 1.18360E+00-8.57453E-04-7.45523E-01 4.76860E-14-2.43411E-14
 -1      1119 2.04242E+01-5.38145E-01-2.05238E-03-1.56170E+00 2.43111E-14 1.29693E-13
 -1      1120 1.87931E+01 6.00126E-01-1.71921E-03 8.52854E-01 7.01566E-14-7.34770E-14
 -1      1121 1.99566E+01-1.03138E+00 6.66801E-03 2.28331E+00-1.65341E-14-1.08934E-13
 -1      1122 2.00017E+01 1.82304E-02-1.03488E-06-5.24410E-04 4.44368E-14-4.19867E-13
 -1      1123 1.91917E+01 9.40681E-01 3.86236E-05-1.00362E+00 4.46589E-14-1.70594E-14
 -1      1124 1.86836E+01 4.40511E-01-1.36842E-03 1.28044E+00-1.18141E-13 1.68012E-14
 -1      1125 2.02984E+01-6.95877E-02 9.30131E-04-1.19148E+00 4.37235E-14 1.46723E-13
 -1      1126 1.95366E+01 4.07719E-01-2.28992E-04 2.72214E-01 8.17617E-14-1.69493E-13
 -1      1127 1.93602E+01 4.11938E-01-3.56051E-04 5.42836E-01-6.50296E-14-2.26022E-13
 -1      1128 1.99996E+01 2.54739E-02-4.88545E-06 1.42757E-04 1.28683E-13-5.43576E-13
 -1      1129 1.96713E+01 3.51315E-01-9.63761E-05 1.41305E-01 1.87264E-13 1.65434E-14
 -1      1130 1.97519E+01 3.00577E-01 5.32987E-05 8.61607E-02 5.57113E-14-1.00178E-13
 -1      1131 1.98147E+01 2.51914E-01 1.91946E-05 5.22349E-02 3.64708E-14-1.39761E-13
 -1      1132 1.98673E+01 2.04384E-01 5.80371E-06 2.97942E-02-8.59541E-14 3.86091E-14
 -1      1133 1.99077E+01 1.62358E-01 5.49302E-06 1.62918E-02-5.35991E-14 2.82562E-13
 -1      1134 1.99381E+01 1.26475E-01 3.80342E-06 8.41059E-03 7.96865E-14 3.31320E-13
 -1      1135 1.99604E+01 9.66901E-02 2.57718E-06 3.96828E-03 1.80671E-14 4.41264E-13
 -1      1136 1.99763E+01 7.25551E-02 3.30532E-06 1.57368E-03-7.04173E-14 2.60517E-13
 -1      1137 1.99868E+01 5.42262E-02 7.92968E-07 4.13620E-04 2.95140E-13-1.93531E-13
 -1      1138 1.99943E+01 3.90359E-02-3.32461E-06-1.59656E-04 4.41425E-13-1.68373E-13
 -1      1139 1.92503E+01 2.83541E-01 2.07339E-03 9.45388E-01-2.16549E-14-3.96021E-14
 -1      1140 2.78684E+01 9.04895E+00 2.29461E+00-6.59684E+00-1.25455E-14-2.11053E-13
 -1      1141 2.06975E+01 6.27644E+00 2.23866E-01-3.72638E+00-1.83187E-15-2.44055E-13
 -1      1142 1.95976E+01 5.90507E+00 8.59777E-02-2.67329E+00 2.77556E-16-1.99542E-13
 -1      1143 1.91306E+01 5.75817E+00 6.32908E-02-2.00808E+00 2.23432E-15-1.53190E-13
 -1      1144 1.88614E+01 5.67460E+00 5.39229E-02-1.49347E+00 2.20657E-15-1.11319E-13
 -1      1145 1.86862E+01 5.61988E+00 4.66773E-02-1.07206E+00 3.96905E-15-7.22556E-14
 -1      1146 1.85755E+01 5.58528E+00 4.20605E-02-7.06239E-01 2.95423E-15-2.66870E-14
 -1      1147 1.85178E+01 5.56733E+00 4.00058E-02-3.67025E-01 3.19276E-15 1.72709E-14
 -1      1148 1.85082E+01 5.56465E+00 4.05687E-02-3.59648E-02 3.48506E-15 5.81193E-14
 -1      1149 1.85413E+01 5.57539E+00 4.33083E-02 3.05296E-01 4.95524E-15 1.02125E-13
 -1      1150 1.86127E+01 5.59810E+00 4.76619E-02 6.72428E-01 3.92394E-15 1.54346E-13
 -1      1151 1.87215E+01 5.63242E+00 5.31709E-02 1.07632E+00 4.25007E-15 2.15011E-13
 -1      1152 1.88782E+01 5.68113E+00 5.88529E-02 1.53676E+00 4.59355E-15 2.94813E-13
 -1      1153 1.91208E+01 5.75569E+00 6.48403E-02 2.08324E+00 4.60049E-15 3.81120E-13
 -1      1154 1.95576E+01 5.89073E+00 7.81522E-02 2.76532E+00 3.06699E-15 4.86269E-13
 -1      1155 2.05767E+01 6.22262E+00 1.65298E-01 3.75315E+00-3.35842E-15 6.04201E-13
 -1      1156 2.52284E+01 7.99453E+00 1.41991E+00 5.76225E+00-2.03726E-14 6.73211E-13
 -1      1157 2.89666E+01 3.67847E+00 1.30791E+00-4.28888E+00-3.58880E-14-2.20879E-13
 -1      1158 2.05438E+01-1.74688E-01-6.27946E-01-1.32888E-01-1.51407E-14-2.79998E-13
 -1      1159 1.92392E+01-1.02377E-01-2.51205E-01 6.53007E-02-1.92207E-15-3.30284E-13
 -1      1160 1.91021E+01-5.78002E-02-7.24244E-02 4.28312E-02-8.58862E-15-4.07355E-13
 -1      1161 1.93220E+01-3.84180E-02-3.25066E-02 3.02154E-02 5.84558E-15-4.54380E-13
 -1      1162 1.98008E+01-3.18423E-02-3.04827E-02 2.57054E-02 3.99463E-15-4.21285E-13
 -1      1163 2.05049E+01-3.44252E-02-3.91505E-02 2.71008E-02-1.23959E-14-4.22502E-13
 -1      1164 2.14864E+01-3.92602E-02-5.35010E-02 3.30361E-02-6.27580E-15-3.96461E-13
 -1      1165 2.28624E+01-4.70281E-02-7.19299E-02 4.76383E-02-8.15754E-16-4.13981E-13
 -1      1166 2.47272E+01-5.26130E-02-8.74049E-02 7.30568E-02 1.58640E-15-5.02487E-13
 -1      1167 2.71806E+01-4.59584E-02-7.79084E-02 1.09672E-01 6.45838E-15-5.00475E-13
 -1      1168 3.01737E+01-7.20730E-03 2.86848E-03 1.44013E-01 1.32886E-14-4.50237E-13
 -1      1169 3.31581E+01 8.00176E-02 2.03813E-01 1.30378E-01 2.99587E-15-4.15737E-13
 -1      1170 3.49229E+01 2.25755E-01 4.94971E-01-1.28317E-02-1.65527E-14-3.75824E-13
 -1      1171 3.32934E+01 3.31723E-01 5.83943E-01-3.85568E-01 1.51962E-14-4.10283E-13
 -1      1172 2.68206E+01 1.10075E-01-4.26433E-02-7.68249E-01 3.75585E-14-3.73257E-13
 -1      1173 1.93012E+01-2.85407E-01-1.08729E+00-5.93316E-01-1.47937E-14-3.60323E-13
 -1      1174 1.61348E+01-6.01600E-01-1.58501E+00 2.78000E-02-6.47121E-14-5.68226E-13
 -1      1175 1.94845E+01-3.65887E-01-1.07024E+00 6.84546E-01-1.95260E-14-9.81049E-13
 -1      1176 2.68640E+01 8.25040E-02-4.69629E-02 7.67534E-01 5.18335E-14-9.92317E-13
 -1      1177 3.30745E+01 3.36713E-01 5.57016E-01 4.37190E-01 5.86337E-16-7.05269E-13
 -1      1178 3.53344E+01 2.43304E-01 5.26055E-01 5.63308E-02 2.07334E-14-4.89067E-13
 -1      1179 3.39116E+01 9.44293E-02 2.31873E-01-1.24809E-01-7.37188E-14-5.40790E-13
 -1      1180 3.09971E+01-4.57583E-03 1.24765E-02-1.45086E-01 1.06156E-14-7.76226E-13
 -1      1181 2.80734E+01-4.51475E-02-7.75025E-02-1.09839E-01 1.21040E-14-8.68541E-13
 -1      1182 2.57434E+01-5.52796E-02-9.27721E-02-6.84198E-02 3.06699E-15-7.94378E-13
 -1      1183 2.40096E+01-4.67016E-02-7.62734E-02-4.34482E-02-3.51195E-15-9.37445E-13
 -1      1184 2.27382E+01-3.68524E-02-5.63019E-02-2.45737E-02 4.35320E-14-9.21759E-13
 -1      1185 2.18558E+01-2.74174E-02-3.92905E-02-1.34963E-02 3.79584E-14-6.36050E-13
 -1      1186 2.12491E+01-1.98095E-02-2.68364E-02-7.18206E-03-5.45800E-14-9.47026E-13
 -1      1187 2.08336E+01-1.41107E-02-1.82205E-02-3.64551E-03 4.39102E-16-1.14259E-12
 -1      1188 2.05494E+01-9.85181E-03-1.23453E-02-1.66567E-03 1.82065E-14-7.23470E-13
 -1      1189 2.03589E+01-7.52587E-03-8.70801E-03-3.30113E-04 5.04555E-15-3.96563E-13
 -1      1190 2.02284E+01-5.09712E-03-5.94281E-03-8.32780E-05 8.24460E-14-3.30181E-14
 -1      1191 2.01372E+01-3.61082E-03-4.09483E-03 2.13616E-04-3.59987E-14-1.62359E-15
 -1      1192 2.00762E+01-2.55991E-03-2.83119E-03 3.53317E-04-4.38562E-14-6.32570E-13
 -1      1193 2.00361E+01-1.81133E-03-1.95545E-03 4.05061E-04 4.80457E-14-3.32373E-13
 -1      1194 2.00105E+01-1.25413E-03-1.33741E-03 4.10348E-04 3.71912E-14 1.38401E-14
 -1      1195 1.99952E+01-9.44005E-04-9.35905E-04 4.14935E-04-8.93781E-14-8.11093E-14
 -1      1196 1.99866E+01-6.30619E-04-6.28025E-04 3.51269E-04 4.75373E-14-1.48981E-13
 -1      1197 1.99823E+01-4.28591E-04-4.10274E-04 3.09267E-04 2.07793E-14 3.30588E-13
 -1      1198 1.99811E+01-2.85062E-04-2.59429E-04 2.68564E-04-4.30881E-14 6.37417E-14
 -1      1199 1.99819E+01-1.83098E-04-1.55196E-04 2.30869E-04 4.60495E-14 1.45303E-13
 -1      1200 1.99840E+01-1.08114E-04-8.31503E-05 1.97504E-04-4.49096E-14 5.70279E-13
 -1      1201 1.99866E+01-6.34062E-05-3.50443E-05 1.69282E-04-6.41445E-14 4.69308E-13
 -1      1202 1.99895E+01-2.42955E-05-1.82950E-06 1.47256E-04-2.03283E-14-3.00914E-14
 -1      1203 1.99925E+01 6.41675E-06 2.93261E-05 1.27134E-04 2.31200E-14-2.58958E-13
 -1      1204 1.99953E+01 3.44191E-05 6.40641E-05 1.08129E-04 1.25875E-14-5.90432E-13
 -1      1205 1.99977E+01 6.33946E-05 1.07624E-04 8.15294E-05 3.58491E-14-2.33514E-13
 -1      1206 1.99994E+01 1.00950E-04 1.33828E-04 2.30478E-05 2.57856E-14 1.14146E-14
 -1      1207 1.99999E+01-1.73646E-05-3.08344E-05-2.90572E-05 6.41575E-14 3.54890E-13
 -1      1208 2.77272E+01 5.21432E-01 3.44249E-01 1.94847E+00-1.47382E-14 6.73239E-13
 -1      1209 2.02469E+01-6.73505E-02-5.73391E-01 1.24030E-01-9.42649E-15 8.19622E-13
 -1      1210 1.92119E+01-4.14193E-02-1.91271E-01 1.66770E-02-6.50521E-15 8.31859E-13
 -1      1211 1.89550E+01-2.12966E-02-4.95360E-02-6.09120E-04-6.10796E-15 8.67285E-13
 -1      1212 1.90003E+01-1.14000E-02-1.23460E-02-6.60074E-03-4.48795E-15 9.49445E-13
 -1      1213 1.91834E+01-4.76687E-03-2.16422E-03-9.16281E-03 3.01495E-15 9.63684E-13
 -1      1214 1.94138E+01 8.68328E-04 3.88350E-03-1.08026E-02-8.28523E-15 1.05879E-12
 -1      1215 1.96266E+01 6.14164E-03 1.04355E-02-1.19071E-02-2.18530E-14 1.18466E-12
 -1      1216 1.97650E+01 1.10337E-02 1.76113E-02-1.21513E-02-2.02498E-14 1.19293E-12
 -1      1217 1.97754E+01 1.49344E-02 2.43929E-02-1.08551E-02 1.38843E-15 1.15029E-12
 -1      1218 1.96112E+01 1.67430E-02 2.89588E-02-7.23120E-03 2.21329E-14 9.83590E-13
 -1      1219 1.92439E+01 1.51845E-02 2.89027E-02-7.61822E-04-9.20184E-15 9.83857E-13
 -1      1220 1.86785E+01 9.43400E-03 2.20083E-02 8.27108E-03-2.13501E-15 1.07527E-12
 -1      1221 1.79697E+01-1.04713E-04 7.59147E-03 1.83247E-02-2.06658E-14 1.16469E-12
 -1      1222 1.72258E+01-1.13468E-02-1.22011E-02 2.66269E-02 2.90325E-14 9.73964E-13
 -1      1223 1.65939E+01-2.09625E-02-3.22039E-02 3.00303E-02-9.29595E-16 8.16066E-13
 -1      1224 1.62210E+01-2.57731E-02-4.59235E-02 2.65039E-02-1.41922E-14 9.19868E-13
 -1      1225 1.62057E+01-2.43667E-02-4.85832E-02 1.64358E-02 9.32761E-15 9.75773E-13
 -1      1226 1.65610E+01-1.77922E-02-3.96568E-02 2.74107E-03 3.47233E-14 7.45626E-13
 -1      1227 1.72100E+01-8.80540E-03-2.30323E-02-1.04620E-02-1.64924E-14 7.80095E-13
 -1      1228 1.80169E+01-3.54305E-04-4.76980E-03-1.97636E-02 2.85114E-14 9.03670E-13
 -1      1229 1.88348E+01 5.65246E-03 9.89303E-03-2.37021E-02-4.77229E-14 1.04625E-12
 -1      1230 1.95473E+01 8.67523E-03 1.83818E-02-2.28106E-02 3.71038E-14 8.28608E-13
 -1      1231 2.00895E+01 9.17945E-03 2.08082E-02-1.87823E-02-5.30825E-15 6.25984E-13
 -1      1232 2.04457E+01 8.05866E-03 1.88944E-02-1.34900E-02 3.86898E-15 5.68827E-13
 -1      1233 2.06358E+01 6.18399E-03 1.47481E-02-8.36015E-03-2.78195E-15 7.94127E-13
 -1      1234 2.06972E+01 4.19111E-03 1.00733E-02-4.18167E-03 5.47622E-14 6.04682E-13
 -1      1235 2.06711E+01 2.44587E-03 5.90945E-03-1.20619E-03-2.56651E-14 5.72238E-13
 -1      1236 2.05940E+01 1.09913E-03 2.70541E-03 6.50653E-04-4.15382E-14 5.73471E-13
 -1      1237 2.04938E+01 1.64433E-04 5.16195E-04 1.62594E-03 1.89389E-14 3.60270E-13
 -1      1238 2.03898E+01-4.15487E-04-8.05858E-04 1.98664E-03-6.06445E-16 4.41563E-13
 -1      1239 2.02934E+01-7.23171E-04-1.47725E-03 1.96582E-03 4.36950E-14 5.35236E-13
 -1      1240 2.02107E+01-8.40350E-04-1.70823E-03 1.73995E-03-4.40948E-14 9.56377E-13
 -1      1241 2.01434E+01-8.35809E-04-1.67022E-03 1.42914E-03-2.50121E-14 1.03342E-12
 -1      1242 2.00913E+01-7.61818E-04-1.48850E-03 1.10729E-03-3.44696E-14 8.48517E-13
 -1      1243 2.00526E+01-6.55040E-04-1.24691E-03 8.14614E-04-3.22939E-14 5.55016E-13
 -1      1244 2.00251E+01-5.39318E-04-9.96971E-04 5.68892E-04 4.25411E-14-4.06293E-14
 -1      1245 2.00066E+01-4.28843E-04-7.67124E-04 3.74207E-04 1.89382E-14 8.07809E-15
 -1      1246 1.99949E+01-3.31029E-04-5.70506E-04 2.27101E-04 4.06772E-14 4.03928E-13
 -1      1247 1.99882E+01-2.48802E-04-4.10779E-04 1.20593E-04-1.30593E-15 1.53693E-13
 -1      1248 1.99852E+01-1.82291E-04-2.86201E-04 4.66024E-05-8.56371E-15 3.62498E-13
 -1      1249 1.99846E+01-1.29996E-04-1.92257E-04-2.71101E-06 4.93712E-14 1.94084E-13
 -1      1250 1.99856E+01-8.95100E-05-1.23217E-04-3.43248E-05-4.94002E-14-2.26042E-13
 -1      1251 1.99876E+01-5.79098E-05-7.28723E-05-5.41475E-05 6.46694E-14-5.90619E-13
 -1      1252 1.99902E+01-3.18832E-05-3.45419E-05-6.70097E-05-2.44541E-14-6.80598E-13
 -1      1253 1.99929E+01-7.73664E-06-5.11472E-07-7.66013E-05-2.92983E-14-5.23059E-13
 -1      1254 1.99955E+01 1.86615E-05 3.82211E-05-8.50087E-05-1.29625E-14-4.99028E-13
 -1      1255 1.99978E+01 4.92143E-05 8.63309E-05-8.93310E-05 3.64655E-14-5.12072E-13
 -1      1256 1.99994E+01 6.80794E-05 1.13487E-04-6.93983E-05 1.41863E-13-6.96224E-13
 -1      1257 1.99999E+01-2.07064E-05-3.05622E-05 2.24511E-05-2.03867E-14-6.11392E-13
 -1      1258 1.99998E+01 5.95437E-05-3.06640E-05 1.68075E-05-4.78178E-13-3.11012E-14
 -1      1259 1.99999E+01-4.25348E-04 1.05374E-04-2.12631E-05-5.97015E-13-8.89363E-14
 -1      1260 1.99998E+01-1.92757E-03 6.85916E-05-7.46612E-05 9.65362E-14 2.01143E-13
 -1      1261 1.99998E+01-3.91373E-03 9.12154E-06-8.34477E-05 1.04962E-13 3.16779E-14
 -1      1262 1.99998E+01-5.94297E-03-3.40479E-05-7.45322E-05 1.63057E-13 1.07729E-13
 -1      1263 1.99998E+01-7.72395E-03-6.02927E-05-5.82133E-05-7.67913E-13-1.09770E-13
 -1      1264 1.99997E+01-9.10625E-03-7.44713E-05-4.08441E-05-9.74852E-13-1.54721E-14
 -1      1265 1.99997E+01-1.00026E-02-8.25090E-05-2.15992E-05-8.38734E-13-1.42250E-13
 -1      1266 1.99997E+01-1.03432E-02-8.63183E-05-1.93428E-06-7.41077E-13-4.40710E-14
 -1      1267 1.99997E+01-1.01022E-02-8.64094E-05 1.83510E-05-6.22871E-14-2.39694E-14
 -1      1268 1.99997E+01-9.27938E-03-8.10843E-05 3.92569E-05-9.93829E-13-2.49608E-13
 -1      1269 1.99998E+01-7.92488E-03-6.75249E-05 5.99298E-05-2.59885E-12-2.26001E-14
 -1      1270 1.99998E+01-6.12277E-03-4.02806E-05 7.74942E-05-1.98131E-12 5.79262E-14
 -1      1271 1.99998E+01-4.03007E-03 7.30912E-06 8.77453E-05-1.17696E-12 1.48910E-16
 -1      1272 1.99998E+01-1.96472E-03 7.48388E-05 7.89245E-05 2.47858E-13-2.26640E-13
 -1      1273 1.99999E+01-4.22199E-04 1.09819E-04 1.62022E-05-1.33962E-13-2.90536E-13
 -1      1274 1.99998E+01 5.64572E-05-4.21743E-05-1.15316E-05-2.93315E-13 1.66598E-13
 -1      1275-1.28405E+00-2.44550E+01-3.69034E+00-2.20757E+00 7.29083E-13-2.04628E-14
 -1      1276-1.56581E+00-1.31551E+01-2.83899E+00-3.32446E+00 4.32543E-13 1.58096E-13
 -1      1277 1.48330E+00 4.11890E-01-1.48689E+00 1.57575E+00 8.41549E-13 7.70717E-13
 -1      1278 1.12990E+01 9.83877E+00 1.00143E-01 1.02639E+01 1.39422E-12 1.26454E-12
 -1      1279 2.90528E+01 1.21745E+01 1.71328E+00 1.77962E+01 7.83151E-13 1.21392E-12
 -1      1280 5.00718E+01 8.37900E+00 3.15760E+00 1.84981E+01 5.09093E-13 1.11400E-12
 -1      1281 6.55872E+01 3.26033E+00 3.99172E+00 9.92610E+00 1.15762E-13 1.82743E-13
 -1      1282 6.92281E+01 1.75385E+00 4.18246E+00-3.78560E+00 8.56121E-14-8.02636E-13
 -1      1283 5.87036E+01 5.57879E+00 3.61885E+00-1.52957E+01 2.81802E-13-1.25044E-12
 -1      1284 3.97292E+01 1.06772E+01 2.48415E+00-1.93360E+01 4.92384E-13-9.53904E-13
 -1      1285 1.99589E+01 1.18122E+01 9.06800E-01-1.49610E+01 7.79155E-13-8.97948E-13
 -1      1286 5.52158E+00 5.12277E+00-7.84947E-01-5.57703E+00 5.57776E-13-5.58442E-13
 -1      1287-9.74400E-01-8.03103E+00-2.32994E+00 2.25418E+00 5.35127E-14-8.28226E-14
 -1      1288-1.37552E+00-2.14110E+01-3.49315E+00 3.65161E+00-3.61489E-13 4.88498E-15
 -1      1289-1.14520E+00-2.75035E+01-3.99236E+00-5.86400E-01-6.23224E-13-4.73441E-14
 -1      1290-2.07808E+00-2.36938E+01-3.91616E+00-5.10232E+00-6.37712E-13-1.85046E-13
 -1      1291-2.47443E+00-1.20410E+01-3.18956E+00-4.72585E+00-6.06182E-13-2.96430E-13
 -1      1292 3.32781E+00 1.24908E+00-1.75991E+00 2.61527E+00-6.34826E-13-5.96190E-13
 -1      1293 1.99071E+01 9.34034E+00 2.73441E-01 1.32559E+01-5.79536E-13-7.04992E-13
 -1      1294 4.48730E+01 9.41675E+00 2.77399E+00 1.93174E+01-4.08562E-14 5.01821E-14
 -1      1295 6.92210E+01 5.04266E+00 5.20324E+00 1.48505E+01 1.23318E-13 5.44897E-13
 -1      1296 7.97827E+01 2.69276E+00 6.18433E+00 1.41843E+00-1.22957E-14 6.07348E-13
 -1      1297 7.19873E+01 4.38492E+00 5.46546E+00-1.29032E+01-2.12413E-13 8.98615E-13
 -1      1298 4.83507E+01 8.76116E+00 3.10269E+00-1.91145E+01-7.42184E-13 1.59761E-12
 -1      1299 2.20830E+01 9.49120E+00 4.91199E-01-1.39538E+01-9.38361E-13 1.37379E-12
 -1      1300 4.20224E+00 2.20885E+00-1.66261E+00-3.46800E+00-8.73523E-13 7.54508E-13
 -1      1301-2.36562E+00-1.01230E+01-3.06466E+00 4.18365E+00-5.34017E-13 4.24216E-13
 -1      1302-2.43527E+00-2.15616E+01-3.78143E+00 5.78602E+00 4.17000E-13-1.10190E-13
 -1      1303-1.29202E+00-2.75539E+01-4.05376E+00 2.43289E+00 7.90271E-13 6.00214E-15
 -1      1304 2.24224E+01 1.89989E+00-7.09058E-01-2.76153E+00-1.57097E-14-2.59737E-13
 -1      1305 2.05515E+01 4.70470E+00-4.25862E-02-3.11740E+00 2.30371E-15-2.22218E-13
 -1      1306 2.10394E+01 4.85027E+00-8.83498E-02-3.99027E+00-1.11855E-14-2.43298E-13
 -1      1307 1.96920E+01 5.01847E+00-1.84094E-02-2.42828E+00 2.51535E-14-1.79273E-13
 -1      1308 2.00178E+01 5.12296E+00 8.40072E-03-2.82960E+00 2.02616E-14-2.03920E-13
 -1      1309 2.07318E+01 3.95872E+00-2.12658E-02-2.86336E+00 1.91860E-14-1.89362E-13
 -1      1310 1.92623E+01 5.11618E+00-5.26373E-03-1.84320E+00 4.61749E-14-1.40322E-13
 -1      1311 1.94571E+01 5.18475E+00 1.49577E-02-2.13292E+00 4.24799E-14-1.62613E-13
 -1      1312 1.99005E+01 4.40602E+00-2.10566E-02-2.25677E+00 5.20660E-14-1.52670E-13
 -1      1313 1.89885E+01 5.16519E+00-3.32898E-05-1.36629E+00 5.16254E-14-1.00168E-13
 -1      1314 1.91165E+01 5.20940E+00 1.43693E-02-1.59854E+00 5.24546E-14-1.24997E-13
 -1      1315 1.94370E+01 4.62260E+00-1.75569E-02-1.70851E+00 7.83002E-14-1.22125E-13
 -1      1316 1.88093E+01 5.19294E+00 2.49800E-03-9.71370E-01 5.57436E-14-5.76154E-14
 -1      1317 1.88926E+01 5.22124E+00 1.19731E-02-1.16501E+00 5.29611E-14-7.77451E-14
 -1      1318 1.91431E+01 4.74803E+00-1.44497E-02-1.26027E+00 8.21791E-14-8.28781E-14
 -1      1319 1.86981E+01 5.20818E+00 4.31403E-03-6.16338E-01 5.86562E-14-1.28317E-14
 -1      1320 1.87472E+01 5.22456E+00 9.41336E-03-7.92313E-01 5.71349E-14-4.02300E-14
 -1      1321 1.89526E+01 4.82125E+00-1.26151E-02-8.78821E-01 9.23549E-14-4.74135E-14
 -1      1322 1.86491E+01 5.21482E+00 6.17277E-03-2.84316E-01 6.42620E-14 3.13395E-14
 -1      1323 1.86670E+01 5.22075E+00 7.38115E-03-4.51191E-01 6.37086E-14 7.23380E-15
 -1      1324 1.88421E+01 4.85760E+00-1.17918E-02-5.33716E-01 9.61744E-14 8.29198E-15
 -1      1325 1.86546E+01 5.21520E+00 8.14626E-03 4.53105E-02 6.99540E-14 7.14463E-14
 -1      1326 1.86452E+01 5.21207E+00 6.08704E-03-1.22369E-01 7.22302E-14 4.82479E-14
 -1      1327 1.88022E+01 4.86505E+00-1.16105E-02-2.05341E-01 1.09877E-13 4.28373E-14
 -1      1328 1.87078E+01 5.21101E+00 1.01804E-02 3.89684E-01 7.53442E-14 1.17614E-13
 -1      1329 1.86746E+01 5.19988E+00 5.39826E-03 2.12900E-01 7.40458E-14 9.21849E-14
 -1      1330 1.88237E+01 4.84945E+00-1.18839E-02 1.25700E-01 1.16449E-13 8.51749E-14
 -1      1331 1.88042E+01 5.20289E+00 1.21045E-02 7.63512E-01 7.70894E-14 1.61966E-13
 -1      1332 1.87490E+01 5.18432E+00 4.97506E-03 5.70236E-01 7.79437E-14 1.34733E-13
 -1      1333 1.88991E+01 4.81407E+00-1.25762E-02 4.75390E-01 1.24030E-13 1.21660E-13
 -1      1334 1.89427E+01 5.19146E+00 1.37877E-02 1.17347E+00 6.89171E-14 2.29455E-13
 -1      1335 1.88648E+01 5.16427E+00 4.20114E-03 9.60142E-01 7.10404E-14 1.91461E-13
 -1      1336 1.90240E+01 4.75933E+00-1.36991E-02 8.54094E-01 1.19575E-13 1.72168E-13
 -1      1337 1.91438E+01 5.17547E+00 1.47052E-02 1.65076E+00 7.20049E-14 3.08819E-13
 -1      1338 1.90300E+01 5.13500E+00 1.92593E-03 1.39972E+00 6.97029E-14 2.67713E-13
 -1      1339 1.92045E+01 4.67916E+00-1.58542E-02 1.27859E+00 1.13653E-13 2.36585E-13
 -1      1340 1.94521E+01 5.15256E+00 1.33467E-02 2.21588E+00 6.04239E-14 3.95892E-13
 -1      1341 1.92735E+01 5.08790E+00-4.19152E-03 1.91279E+00 6.20302E-14 3.46313E-13
 -1      1342 1.94708E+01 4.55676E+00-1.93688E-02 1.77023E+00 1.02925E-13 3.07046E-13
 -1      1343 1.99986E+01 5.11381E+00 1.04724E-02 2.92463E+00 4.12864E-14 5.07705E-13
 -1      1344 1.96728E+01 4.99606E+00-1.87038E-02 2.52484E+00 4.31044E-14 4.46691E-13
 -1      1345 1.99001E+01 4.35030E+00-2.35042E-02 2.35018E+00 7.55923E-14 3.96391E-13
 -1      1346 2.12367E+01 4.90361E+00 1.21279E-02 3.92989E+00 1.47105E-15 6.14425E-13
 -1      1347 2.04813E+01 4.73852E+00-4.46770E-02 3.27316E+00 1.23096E-14 5.55361E-13
 -1      1348 2.07212E+01 3.90927E+00-2.06164E-02 3.02183E+00 3.51941E-14 4.92134E-13
 -1      1349 2.72114E+01 3.18602E+00 9.09829E-01 4.50395E+00-3.55410E-14 6.46594E-13
 -1      1350 2.21327E+01 3.51836E+00-1.78635E-01 3.78407E+00-1.78191E-14 6.46316E-13
 -1      1351 2.22621E+01 2.54870E+00-2.98581E-02 3.32865E+00-1.32342E-14 5.77982E-13
 -1      1352 2.15422E+01 3.53131E-01-7.60531E-01 1.12369E+00-4.02456E-14 6.99107E-13
 -1      1353 2.22828E+01 1.90243E-01-3.99394E-01-1.27527E+00-1.71946E-14-2.27540E-13
 -1      1354 2.09996E+01 3.23971E-01-1.73702E-01-7.67418E-01-5.22499E-15-2.52083E-13
 -1      1355 2.04700E+01 1.63367E-01-7.81264E-02-3.36651E-01-1.31492E-14-2.50889E-13
 -1      1356 2.00818E+01 9.89011E-02-1.60722E-02-2.61416E-01-1.66984E-14-2.74471E-13
 -1      1357 2.13304E+01 4.12623E-01-1.02502E-01-1.17391E+00-2.43833E-14-1.96669E-13
 -1      1358 1.98051E+01 7.58560E-02 2.51485E-03-4.28958E-02-1.94636E-14-2.80619E-13
 -1      1359 1.97687E+01 5.41222E-02 1.44971E-02-1.95222E-02-2.55143E-14-3.08319E-13
 -1      1360 2.04143E+01 1.50503E-01-3.89483E-02-3.46405E-01-2.75266E-14-2.09633E-13
 -1      1361 1.97246E+01 4.78738E-02 1.35795E-02 1.03399E-01-1.79717E-15-3.12174E-13
 -1      1362 1.98742E+01 3.86303E-02 1.29217E-02 1.21576E-01-2.47285E-15-3.33941E-13
 -1      1363 2.01275E+01 7.97651E-02-1.25521E-02 5.63622E-02-1.68823E-14-2.06713E-13
 -1      1364 1.99820E+01 3.94762E-02 8.60055E-03 2.14185E-01 1.95286E-14-3.29254E-13
 -1      1365 2.02689E+01 3.73731E-02 8.22428E-03 2.32010E-01 2.12746E-14-3.00503E-13
 -1      1366 2.01890E+01 6.16270E-02-8.80550E-03 3.13305E-01 9.44210E-15-2.48720E-13
 -1      1367 2.04846E+01 4.22091E-02 3.49059E-03 3.19623E-01 1.23911E-14-2.99361E-13
 -1      1368 2.08856E+01 4.27441E-02 4.98716E-03 3.38658E-01 5.70897E-15-2.79519E-13
 -1      1369 2.04996E+01 6.35502E-02-9.73004E-03 5.28479E-01 2.02191E-14-2.40712E-13
 -1      1370 2.12278E+01 5.14587E-02-8.54102E-04 4.44554E-01-4.37150E-16-2.64138E-13
 -1      1371 2.18102E+01 5.30463E-02 1.56427E-03 4.71873E-01 4.56232E-15-2.62727E-13
 -1      1372 2.10303E+01 8.01501E-02-1.18192E-02 7.57601E-01 1.15498E-14-1.53540E-13
 -1      1373 2.22816E+01 6.63333E-02-6.07938E-03 6.04424E-01-4.77049E-17-2.83926E-13
 -1      1374 2.30723E+01 6.61548E-02-2.96830E-03 6.40560E-01-1.21908E-14-2.99184E-13
 -1      1375 2.18084E+01 1.04359E-01-1.53326E-02 1.04116E+00-1.51207E-14-1.95150E-13
 -1      1376 2.36900E+01 8.13598E-02-1.31236E-02 8.01354E-01-7.61544E-15-2.87013E-13
 -1      1377 2.47336E+01 7.35919E-02-8.61218E-03 8.46634E-01-1.11647E-14-3.40658E-13
 -1      1378 2.28509E+01 1.31074E-01-1.96452E-02 1.39010E+00-2.50737E-14-1.44378E-13
 -1      1379 2.55065E+01 8.39177E-02-1.96924E-02 1.01374E+00 1.50210E-14-2.75363E-13
 -1      1380 2.68064E+01 5.63904E-02-1.04910E-02 1.06000E+00 3.05294E-14-2.43403E-13
 -1      1381 2.41862E+01 1.38718E-01-2.28528E-02 1.78386E+00 1.73117E-14-8.47759E-14
 -1      1382 2.77105E+01 4.16318E-02-1.64016E-02 1.15895E+00 2.31828E-14-2.76515E-13
 -1      1383 2.91311E+01-2.33549E-02 4.11624E-03 1.17571E+00 4.39666E-15-2.74253E-13
 -1      1384 2.58095E+01 7.80078E-02-1.88400E-02 2.11532E+00 3.63258E-14-7.40866E-14
 -1      1385 3.00237E+01-8.80837E-02 1.68550E-02 1.05261E+00 2.16493E-15-2.75044E-13
 -1      1386 3.11093E+01-1.98772E-01 4.56838E-02 9.88859E-01 6.40633E-15-2.94681E-13
 -1      1387 2.75884E+01-1.38705E-01 2.44941E-03 2.12115E+00 3.29424E-15-1.36433E-13
 -1      1388 3.19159E+01-3.48371E-01 9.11057E-02 4.02799E-01 5.23540E-14-2.46858E-13
 -1      1389 3.20118E+01-4.68860E-01 1.03236E-01 1.55425E-01-2.04559E-14-2.52492E-13
 -1      1390 2.93303E+01-5.77490E-01 4.61839E-02 1.36315E+00 3.06977E-14-1.25058E-13
 -1      1391 3.23381E+01-6.28033E-01 1.49131E-01-9.79345E-01-2.24681E-14-2.39628E-13
 -1      1392 3.05462E+01-5.72752E-01 5.64816E-02-1.38624E+00-9.19750E-15-2.59737E-13
 -1      1393 3.06189E+01-1.09284E+00 8.83288E-02-6.31015E-01-3.98362E-14-1.53801E-14
 -1      1394 3.00764E+01-4.31539E-01 2.58058E-02-2.44459E+00 1.65284E-14-3.36009E-13
 -1      1395 2.67620E+01-5.98348E-02-2.19560E-01-2.60983E+00-3.88578E-14-3.03646E-13
 -1      1396 3.07495E+01-9.88680E-01 2.24491E-02-3.34720E+00-8.56051E-14-1.60941E-13
 -1      1397 2.60523E+01 3.65417E-01-2.96432E-01-2.39691E+00-1.66117E-14-3.87856E-13
 -1      1398 2.38322E+01 7.18575E-01-4.72367E-01-2.07281E+00-6.22002E-14-4.19137E-13
 -1      1399 2.96150E+01 2.94464E-01-1.80054E-01-4.40080E+00-9.89209E-14-2.82544E-13
 -1      1400 2.32615E+01 1.03927E+00-5.53809E-01-5.15948E-01-1.26843E-13-4.67598E-13
 -1      1401 2.31634E+01 1.11149E+00-5.50291E-01 1.22324E-01-1.37057E-13-6.07334E-13
 -1      1402 2.83993E+01 1.69746E+00-3.58848E-01-2.38468E+00-1.50047E-13-5.01137E-13
 -1      1403 2.35512E+01 7.91565E-01-5.26380E-01 1.93421E+00-1.71224E-13-6.37768E-13
 -1      1404 2.59967E+01 4.64296E-01-3.15742E-01 2.28843E+00-8.15736E-14-7.27418E-13
 -1      1405 2.82772E+01 1.89937E+00-3.71920E-01 1.76011E+00-2.47025E-13-5.08189E-13
 -1      1406 2.68511E+01-4.79682E-02-2.34008E-01 2.71087E+00 3.88301E-14-7.60947E-13
 -1      1407 2.98040E+01-3.61203E-01-1.79071E-02 2.54928E+00 7.80487E-14-6.92502E-13
 -1      1408 2.95350E+01 4.68459E-01-1.92241E-01 4.38060E+00-8.03801E-14-5.31309E-13
 -1      1409 3.04469E+01-5.64751E-01 3.47873E-02 1.65781E+00 9.42232E-14-6.24167E-13
 -1      1410 3.24393E+01-6.55847E-01 1.39865E-01 1.26019E+00 5.70932E-14-5.85892E-13
 -1      1411 3.08226E+01-8.71508E-01 1.63114E-02 3.65564E+00 1.45307E-13-5.67581E-13
 -1      1412 3.22745E+01-5.02064E-01 1.08466E-01 5.81627E-02 6.18325E-14-4.58855E-13
 -1      1413 3.24293E+01-3.96175E-01 9.91464E-02-2.16710E-01 2.31239E-14-4.18303E-13
 -1      1414 3.09529E+01-1.17338E+00 8.52593E-02 1.04742E+00 1.21014E-13-3.66519E-13
 -1      1415 3.17187E+01-2.32341E-01 5.61098E-02-8.88915E-01-1.28907E-13-4.10526E-13
 -1      1416 3.06918E+01-1.09298E-01 2.46645E-02-9.72273E-01-1.77667E-13-5.71460E-13
 -1      1417 2.98462E+01-6.53763E-01 5.75797E-02-1.10351E+00-7.36633E-14-4.38836E-13
 -1      1418 2.97871E+01-3.46279E-02 6.04897E-03-1.14014E+00-3.49052E-14-5.66186E-13
 -1      1419 2.84173E+01 4.01203E-02-1.31002E-02-1.12418E+00-3.76782E-15-6.10303E-13
 -1      1420 2.81587E+01-1.73082E-01 8.27853E-03-2.00514E+00-1.63657E-13-4.23786E-13
 -1      1421 2.75382E+01 5.34818E-02-1.21761E-02-1.03184E+00-1.14969E-14-6.88186E-13
 -1      1422 2.62853E+01 8.69186E-02-1.84404E-02-9.85103E-01 6.10111E-14-5.82590E-13
 -1      1423 2.63986E+01 7.23738E-02-1.64200E-02-2.04459E+00-1.78486E-14-3.81084E-13
 -1      1424 2.55740E+01 7.69098E-02-1.06113E-02-8.20576E-01 6.32888E-14-5.86989E-13
 -1      1425 2.46190E+01 8.51998E-02-1.37773E-02-7.77335E-01 2.43390E-14-5.20681E-13
 -1      1426 2.48663E+01 1.45156E-01-2.25938E-02-1.72334E+00 6.63445E-14-3.28905E-13
 -1      1427 2.40156E+01 6.80163E-02-6.68622E-03-6.08064E-01-9.81940E-14-5.59813E-13
 -1      1428 2.32721E+01 6.91493E-02-7.67866E-03-5.71107E-01-9.76259E-14-7.27141E-13
 -1      1429 2.36144E+01 1.42735E-01-1.80017E-02-1.33061E+00-4.11407E-14-3.14096E-13
 -1      1430 2.28187E+01 5.37041E-02-2.20933E-03-4.33384E-01 1.00022E-13-7.76433E-13
 -1      1431 2.22904E+01 5.10794E-02-3.34053E-03-4.06573E-01 1.19884E-13-5.63629E-13
 -1      1432 2.26157E+01 1.14105E-01-1.33666E-02-9.71642E-01 5.42795E-15-4.46807E-13
 -1      1433 2.19570E+01 3.95182E-02 1.73277E-04-3.03672E-01 6.69065E-14-6.12248E-13
 -1      1434 2.15887E+01 3.62275E-02-1.03397E-03-2.84924E-01-2.19876E-14-6.39272E-13
 -1      1435 2.18691E+01 8.37729E-02-9.36609E-03-6.91308E-01 1.02209E-13-5.17471E-13
 -1      1436 2.13476E+01 2.81607E-02 1.11996E-03-2.11112E-01-1.20647E-13-5.19507E-13
 -1      1437 2.10931E+01 2.52179E-02 1.80046E-05-1.98198E-01-5.92894E-14-6.65431E-13
 -1      1438 2.13224E+01 5.90846E-02-6.49000E-03-4.85432E-01-1.23269E-13-3.70199E-13
 -1      1439 2.09205E+01 1.97785E-02 1.31659E-03-1.46261E-01 2.34860E-15-6.69592E-13
 -1      1440 2.07454E+01 1.74439E-02 4.27326E-04-1.37409E-01 4.78161E-14-7.06242E-13
 -1      1441 2.09273E+01 4.09212E-02-4.51860E-03-3.38705E-01-4.08159E-14-2.28031E-13
 -1      1442 2.06225E+01 1.37108E-02 1.17131E-03-1.01156E-01 1.23192E-13-5.68901E-13
 -1      1443 2.05025E+01 1.21773E-02 6.17493E-04-9.50585E-02 1.07759E-13-3.72143E-13
 -1      1444 2.06440E+01 2.82037E-02-3.15239E-03-2.35543E-01 1.91098E-13-2.18946E-13
 -1      1445 2.04194E+01 9.89089E-03 1.04091E-03-7.07565E-02 1.20378E-13-4.21525E-13
 -1      1446 2.03401E+01 8.59761E-03 5.18611E-04-6.68150E-02 2.96652E-14-2.37348E-13
 -1      1447 2.04459E+01 1.91475E-02-2.43693E-03-1.64557E-01 1.59330E-13-3.37730E-13
 -1      1448 2.02774E+01 6.82660E-03 7.57398E-04-4.88657E-02 1.03075E-13-2.81407E-13
 -1      1449 2.02202E+01 5.89486E-03 4.24655E-04-4.58755E-02 1.59730E-13-1.33979E-13
 -1      1450 2.03047E+01 1.36879E-02-1.60559E-03-1.15048E-01 1.06880E-13-3.24514E-13
 -1      1451 2.01764E+01 4.84313E-03 5.98608E-04-3.33021E-02-1.65422E-13-1.77481E-13
 -1      1452 2.01376E+01 4.09992E-03 3.48398E-04-3.12391E-02-2.26761E-13-2.99290E-13
 -1      1453 2.02017E+01 9.40431E-03-1.16642E-03-7.90863E-02-1.10125E-13-4.10882E-13
 -1      1454 2.01072E+01 3.40929E-03 4.51174E-04-2.24264E-02-9.18784E-14-4.06261E-13
 -1      1455 2.00813E+01 2.85397E-03 2.78005E-04-2.09882E-02-1.03849E-13-4.79724E-13
 -1      1456 2.01296E+01 6.52114E-03-8.37092E-04-5.38278E-02-3.23359E-13-3.00436E-13
 -1      1457 2.00605E+01 2.39919E-03 3.36161E-04-1.48109E-02 7.97233E-14-4.61446E-13
 -1      1458 2.00436E+01 1.98412E-03 2.20426E-04-1.38108E-02 9.67383E-14-3.06541E-13
 -1      1459 2.00797E+01 4.52495E-03-5.99306E-04-3.60827E-02 5.23091E-14-3.35872E-13
 -1      1460 2.00296E+01 1.66453E-03 2.43607E-04-9.49199E-03 6.39695E-14-2.67010E-13
 -1      1461 2.00189E+01 1.38681E-03 1.79846E-04-8.79890E-03 1.03971E-13-2.01086E-13
 -1      1462 2.00455E+01 3.14303E-03-4.23570E-04-2.36296E-02 1.61107E-13-3.86092E-13
 -1      1463 2.00101E+01 1.19107E-03 1.85173E-04-5.90916E-03-4.64930E-14-2.61592E-13
 -1      1464 2.00039E+01 9.69650E-04 1.36895E-04-5.46624E-03-1.39268E-13-2.63148E-13
 -1      1465 2.00232E+01 2.12263E-03-3.21195E-04-1.50682E-02 1.16586E-14-2.77390E-13
 -1      1466 1.99980E+01 8.14939E-04 1.33585E-04-3.36585E-03 4.82154E-14-3.19322E-13
 -1      1467 1.99944E+01 6.38611E-04 1.02876E-04-3.03502E-03 1.29154E-13-1.75854E-13
 -1      1468 2.00086E+01 1.50625E-03-2.12419E-04-9.14502E-03-1.73305E-14-1.46439E-13
 -1      1469 1.99909E+01 5.61081E-04 1.00100E-04-1.60912E-03 1.43527E-13-1.66134E-13
 -1      1470 1.99893E+01 4.18311E-04 7.85746E-05-1.39279E-03 1.02664E-14-5.82096E-14
 -1      1471 1.99993E+01 9.97550E-04-1.48952E-04-4.93466E-03 1.27436E-13-2.90215E-13
 -1      1472 1.99875E+01 3.73369E-04 7.24511E-05-4.47719E-04-1.25552E-13-1.19169E-13
 -1      1473 1.99872E+01 2.64139E-04 5.95622E-05-3.09134E-04-2.35551E-14-1.89081E-13
 -1      1474 1.99940E+01 6.50658E-04-1.00663E-04-2.09757E-03-1.02454E-13-3.48704E-13
 -1      1475 1.99865E+01 2.40693E-04 5.15413E-05 2.97133E-04 1.01055E-13-1.51104E-13
 -1      1476 1.99870E+01 1.57505E-04 4.48859E-05 3.81382E-04 1.14855E-13 1.08319E-13
 -1      1477 1.99914E+01 4.08678E-04-6.59200E-05-2.35774E-04 8.21316E-14-2.28809E-13
 -1      1478 1.99871E+01 1.44854E-04 3.48451E-05 7.50874E-04 9.03595E-14 1.89514E-13
 -1      1479 1.99881E+01 8.57334E-05 3.28512E-05 7.97504E-04 1.64411E-14 2.48636E-13
 -1      1480 1.99907E+01 2.43182E-04-4.08222E-05 9.39283E-04 2.53843E-13-2.23133E-13
 -1      1481 1.99886E+01 8.10278E-05 2.23839E-05 9.95777E-04-2.95464E-15 4.18547E-13
 -1      1482 1.99898E+01 3.68908E-05 2.35747E-05 1.01506E-03 3.17136E-15 4.32784E-13
 -1      1483 1.99912E+01 1.22950E-04-2.43695E-05 1.62380E-03 9.70196E-14 7.10643E-14
 -1      1484 1.99906E+01 3.58045E-05 1.45827E-05 1.10559E-03-4.42020E-14 2.34732E-13
 -1      1485 1.99920E+01-4.69567E-06 1.57924E-05 1.10942E-03-1.45597E-13 1.89994E-13
 -1      1486 1.99923E+01 4.99229E-05-1.17299E-05 1.97767E-03-1.47751E-13 4.17388E-13
 -1      1487 1.99929E+01-5.46053E-07 8.42733E-06 1.10990E-03-1.57862E-13 9.60827E-14
 -1      1488 1.99943E+01-3.68904E-05 1.07723E-05 1.09788E-03-7.09477E-14 5.70331E-16
 -1      1489 1.99938E+01-1.42461E-05-2.33698E-06 2.09615E-03-1.85726E-13 4.43861E-13
 -1      1490 1.99951E+01-3.62668E-05 5.67616E-06 1.01903E-03-1.17917E-13-1.16001E-13
 -1      1491 1.99964E+01-7.07062E-05 1.00189E-05 9.90359E-04-4.68974E-14-2.55961E-13
 -1      1492 1.99955E+01-7.07401E-05 6.74935E-06 2.01259E-03-1.99346E-13 3.69903E-13
 -1      1493 1.99971E+01-7.79303E-05 8.96546E-06 8.26874E-04 1.41274E-13-2.52017E-13
 -1      1494 1.99981E+01-1.11192E-04 1.33632E-05 7.73882E-04 3.30596E-14-8.04641E-14
 -1      1495 1.99971E+01-1.36367E-04 1.75169E-05 1.73438E-03 7.61642E-15 6.47053E-14
 -1      1496 1.99987E+01-1.45475E-04 1.27944E-05 5.11783E-04 8.14558E-14-1.18138E-14
 -1      1497 1.99993E+01-1.52414E-04 1.07001E-05 4.25619E-04 1.07536E-13 2.43384E-13
 -1      1498 1.99984E+01-2.28518E-04 2.62118E-05 1.24491E-03 7.51392E-14 1.35748E-13
 -1      1499 1.99997E+01-8.72950E-05 1.25538E-05 3.35314E-05-1.83483E-13 1.92469E-13
 -1      1500 2.04891E+01 7.43677E-02-1.49163E-01 4.36399E-01 4.85029E-15 6.95038E-13
 -1      1501 2.16849E+01 2.15579E-01-2.28558E-01 6.70313E-01-5.07927E-15 6.77874E-13
 -1      1502 2.18968E+01 8.68920E-01-8.71072E-02 1.96776E+00-2.80262E-14 5.79897E-13
 -1      1503 1.96709E+01 3.21515E-02-2.00603E-02 1.44026E-01 5.78530E-15 6.91724E-13
 -1      1504 2.00302E+01 1.12934E-01-6.09803E-02 1.95498E-01-5.79398E-16 6.86930E-13
 -1      1505 2.05670E+01 1.83839E-01-5.49029E-02 7.01265E-01-1.37390E-15 5.61325E-13
 -1      1506 1.93954E+01 1.44693E-02 6.12470E-03 1.31325E-02-2.34847E-14 7.12683E-13
 -1      1507 1.94767E+01 5.16287E-02 1.93619E-03 3.94579E-02-1.23807E-14 6.74679E-13
 -1      1508 1.99167E+01 7.19724E-02-1.16834E-02 2.19673E-01-5.86857E-15 5.47208E-13
 -1      1509 1.93855E+01 5.91439E-03 7.16676E-03-4.65487E-02-8.99020E-16 7.38104E-13
 -1      1510 1.93459E+01 2.52366E-02 1.13774E-02-3.23476E-02-1.65115E-14 7.17249E-13
 -1      1511 1.96737E+01 3.00669E-02-2.47580E-03 8.06190E-03-3.49764E-14 5.41669E-13
 -1      1512 1.94981E+01 6.52150E-04 5.22608E-03-6.98124E-02-2.25291E-14 7.62106E-13
 -1      1513 1.94076E+01 1.13306E-02 8.37700E-03-6.29421E-02-1.50443E-14 7.52228E-13
 -1      1514 1.96421E+01 1.00006E-02-1.44275E-03-8.81691E-02-2.59274E-14 5.44428E-13
 -1      1515 1.96492E+01-3.74418E-03 4.45977E-03-6.85450E-02-3.88582E-14 8.30398E-13
 -1      1516 1.95484E+01 1.59021E-03 5.13468E-03-6.75087E-02-2.93770E-14 7.77028E-13
 -1      1517 1.97104E+01-2.30990E-03-6.06447E-04-1.19891E-01-5.77628E-14 5.78977E-13
 -1      1518 1.97766E+01-7.88049E-03 4.71422E-03-4.67269E-02 3.35702E-15 8.88475E-13
 -1      1519 1.96965E+01-6.78627E-03 3.33337E-03-5.11833E-02-2.58103E-14 8.39996E-13
 -1      1520 1.98060E+01-1.23271E-02 9.73218E-04-1.05523E-01-5.92484E-14 5.92189E-13
 -1      1521 1.98275E+01-1.17093E-02 5.45654E-03-6.02193E-03 5.88115E-15 8.67853E-13
 -1      1522 1.97956E+01-1.46595E-02 2.46840E-03-1.59925E-02 9.18363E-15 8.66569E-13
 -1      1523 1.98739E+01-2.15178E-02 3.06555E-03-5.19416E-02-1.66967E-15 6.12924E-13
 -1      1524 1.97563E+01-1.46129E-02 6.19044E-03 5.10567E-02 4.10544E-14 7.92259E-13
 -1      1525 1.97969E+01-2.16403E-02 2.09266E-03 3.58591E-02 2.20522E-14 8.30694E-13
 -1      1526 1.98689E+01-2.96085E-02 5.30307E-03 3.62428E-02 3.26262E-14 5.71729E-13
 -1      1527 1.95294E+01-1.55056E-02 6.32418E-03 1.18630E-01 3.66473E-14 7.67093E-13
 -1      1528 1.96607E+01-2.63667E-02 1.88334E-03 9.94855E-02 4.29596E-14 7.93211E-13
 -1      1529 1.97547E+01-3.49653E-02 7.20769E-03 1.51109E-01 5.12888E-14 5.31302E-13
 -1      1530 1.91361E+01-1.31262E-02 5.17317E-03 1.85654E-01-1.40528E-14 7.95919E-13
 -1      1531 1.93635E+01-2.67967E-02 1.52812E-03 1.65391E-01-3.51715E-15 7.48266E-13
 -1      1532 1.95098E+01-3.49308E-02 8.13231E-03 2.77139E-01 2.11016E-14 6.06512E-13
 -1      1533 1.86007E+01-6.65317E-03 2.20662E-03 2.35927E-01 5.79452E-15 8.11136E-13
 -1      1534 1.89094E+01-2.09460E-02 7.14459E-04 2.19001E-01-1.70968E-14 7.82579E-13
 -1      1535 1.91363E+01-2.66687E-02 7.40813E-03 3.89237E-01-2.97132E-14 5.84621E-13
 -1      1536 1.79909E+01 3.47831E-03-2.52867E-03 2.51234E-01 2.35093E-14 8.19171E-13
 -1      1537 1.83411E+01-8.10871E-03-7.40514E-04 2.42906E-01-2.87563E-15 8.35686E-13
 -1      1538 1.86684E+01-8.76315E-03 4.67458E-03 4.55224E-01-1.41263E-14 5.64710E-13
 -1      1539 1.74130E+01 1.50561E-02-8.04868E-03 2.17879E-01 5.11245E-14 6.90873E-13
 -1      1540 1.77430E+01 9.91648E-03-2.68641E-03 2.22392E-01 5.37367E-14 7.86572E-13
 -1      1541 1.81754E+01 1.69010E-02 2.57235E-04 4.44460E-01 6.23607E-14 5.77773E-13
 -1      1542 1.69904E+01 2.44998E-02-1.25303E-02 1.34352E-01-4.33646E-14 6.99413E-13
 -1      1543 1.72294E+01 2.85482E-02-4.53421E-03 1.52762E-01 1.45890E-14 6.86125E-13
 -1      1544 1.77514E+01 4.42291E-02-4.70997E-03 3.41066E-01 4.13784E-14 6.24525E-13
 -1      1545 1.68270E+01 2.83553E-02-1.40790E-02 1.55670E-02-2.43221E-14 7.15183E-13
 -1      1546 1.69160E+01 4.18341E-02-5.44141E-03 4.44924E-02-4.29188E-14 6.67768E-13
 -1      1547 1.74926E+01 6.43555E-02-8.66617E-03 1.55581E-01-3.73477E-14 5.37180E-13
 -1      1548 1.69705E+01 2.51463E-02-1.18082E-02-1.10396E-01 8.52677E-14 6.54943E-13
 -1      1549 1.68835E+01 4.51921E-02-4.78208E-03-7.79678E-02 4.00097E-14 7.31601E-13
 -1      1550 1.74660E+01 6.95376E-02-1.03770E-02-7.31939E-02 3.76652E-14 4.53045E-13
 -1      1551 1.73947E+01 1.62499E-02-6.46633E-03-2.12824E-01-5.87421E-15 5.71661E-13
 -1      1552 1.71481E+01 3.78316E-02-2.59988E-03-1.84791E-01 6.07717E-14 6.36720E-13
 -1      1553 1.76851E+01 5.74356E-02-9.57042E-03-2.90366E-01 1.02892E-13 5.10610E-13
 -1      1554 1.80102E+01 5.07046E-03-3.64513E-05-2.70475E-01-4.21915E-14 6.27370E-13
 -1      1555 1.76563E+01 2.30643E-02 3.44863E-04-2.52494E-01-6.18988E-14 5.30728E-13
 -1      1556 1.81059E+01 3.26391E-02-6.96529E-03-4.46130E-01-3.35079E-14 4.35771E-13
 -1      1557 1.86981E+01-4.82112E-03 5.33867E-03-2.78210E-01 1.85795E-14 6.64999E-13
 -1      1558 1.83054E+01 6.32337E-03 2.99691E-03-2.72010E-01-8.38880E-15 6.55861E-13
 -1      1559 1.86432E+01 4.07904E-03-3.75247E-03-5.13932E-01-4.91775E-14 4.44297E-13
 -1      1560 1.93474E+01-1.12087E-02 8.39084E-03-2.45440E-01 6.68116E-14 6.70989E-13
 -1      1561 1.89791E+01-7.55263E-03 4.56201E-03-2.49172E-01 9.50130E-15 6.68951E-13
 -1      1562 1.92014E+01-1.96211E-02-9.49527E-04-4.96028E-01 1.77857E-14 3.58109E-13
 -1      1563 1.98815E+01-1.36608E-02 8.99823E-03-1.89106E-01 2.43187E-14 5.41012E-13
 -1      1564 1.95807E+01-1.60313E-02 4.83341E-03-1.99025E-01 7.10265E-14 6.34721E-13
 -1      1565 1.97007E+01-3.36560E-02 9.31974E-04-4.16027E-01 8.81092E-14 4.41435E-13
 -1      1566 2.02658E+01-1.30173E-02 7.83103E-03-1.26174E-01 4.36014E-14 4.43249E-13
 -1      1567 2.00511E+01-1.90009E-02 4.10323E-03-1.38414E-01 3.78924E-14 5.07264E-13
 -1      1568 2.00924E+01-3.76814E-02 1.84969E-03-3.05443E-01 9.46951E-14 3.69053E-13
 -1      1569 2.05012E+01-1.05855E-02 5.80833E-03-6.89969E-02-3.50048E-14 4.96972E-13
 -1      1570 2.03712E+01-1.78555E-02 2.87929E-03-8.06635E-02-3.18400E-14 4.54863E-13
 -1      1571 2.03599E+01-3.42815E-02 2.03464E-03-1.92137E-01 4.07183E-15 3.32182E-13
 -1      1572 2.06108E+01-7.54196E-03 3.68531E-03-2.40708E-02 2.90566E-14 6.02005E-13
 -1      1573 2.05514E+01-1.44240E-02 1.62227E-03-3.35555E-02-1.38314E-14 6.00667E-13
 -1      1574 2.05113E+01-2.69283E-02 1.78797E-03-9.44851E-02-4.85766E-14 4.59300E-13
 -1      1575 2.06271E+01-4.67191E-03 1.90397E-03 6.95016E-03 1.40264E-14 5.52281E-13
 -1      1576 2.06196E+01-1.02580E-02 6.10629E-04 1.75655E-04 4.66040E-14 5.76486E-13
 -1      1577 2.05685E+01-1.85564E-02 1.35981E-03-2.08569E-02 3.82580E-14 5.06630E-13
 -1      1578 2.05828E+01-2.36407E-03 6.25380E-04 2.54439E-02-6.38495E-14 5.18303E-13
 -1      1579 2.06084E+01-6.36462E-03-6.02805E-05 2.12149E-02-1.03127E-14 5.61374E-13
 -1      1580 2.05583E+01-1.10194E-02 9.12752E-04 2.79237E-02 1.68461E-14 5.09966E-13
 -1      1581 2.05052E+01-7.19970E-04-1.69809E-04 3.41600E-02-1.52068E-14 5.00293E-13
 -1      1582 2.05485E+01-3.23448E-03-4.17145E-04 3.19781E-02-6.63017E-14 5.40086E-13
 -1      1583 2.05060E+01-5.15687E-03 5.29864E-04 5.53883E-02-9.20809E-14 5.20411E-13
 -1      1584 2.04148E+01 3.22088E-04-5.83471E-04 3.60815E-02-4.67502E-14 4.79570E-13
 -1      1585 2.04645E+01-9.92410E-04-5.41503E-04 3.53653E-02 2.94826E-14 5.07382E-13
 -1      1586 2.04320E+01-1.10765E-03 2.39537E-04 6.67773E-02 1.86861E-14 5.46864E-13
 -1      1587 2.03249E+01 8.91715E-04-7.34744E-04 3.38129E-02 1.78090E-14 4.89291E-13
 -1      1588 2.03737E+01 4.43748E-04-5.21956E-04 3.40361E-02-3.60506E-14 4.26082E-13
 -1      1589 2.03515E+01 1.36592E-03 3.97997E-05 6.73364E-02-5.21670E-14 5.61691E-13
 -1      1590 2.02437E+01 1.12821E-03-7.26995E-04 2.93489E-02-7.48579E-14 5.64327E-13
 -1      1591 2.02874E+01 1.24312E-03-4.30537E-04 3.00971E-02-3.11788E-14 4.99436E-13
 -1      1592 2.02740E+01 2.64075E-03-8.46240E-05 6.14629E-02-4.22012E-15 4.65725E-13
 -1      1593 2.01748E+01 1.15197E-03-6.36862E-04 2.40688E-02 4.83814E-15 9.44122E-13
 -1      1594 2.02115E+01 1.58830E-03-3.16197E-04 2.50478E-02-1.04934E-13 6.97816E-13
 -1      1595 2.02051E+01 3.09420E-03-1.52408E-04 5.24337E-02-1.76349E-13 6.50446E-13
 -1      1596 2.01193E+01 1.05491E-03-5.14938E-04 1.88360E-02 5.44725E-14 7.20080E-13
 -1      1597 2.01485E+01 1.63871E-03-2.07281E-04 1.98549E-02 1.17001E-13 9.21645E-13
 -1      1598 2.01472E+01 3.04025E-03-1.80775E-04 4.24626E-02 5.09572E-14 6.41706E-13
 -1      1599 2.00764E+01 9.00989E-04-3.91162E-04 1.41266E-02 3.57859E-14 6.98308E-13
 -1      1600 2.00987E+01 1.51763E-03-1.17078E-04 1.50746E-02 3.03937E-14 7.35752E-13
 -1      1601 2.01008E+01 2.71183E-03-1.83684E-04 3.28983E-02 1.19994E-13 6.78881E-13
 -1      1602 2.00446E+01 7.31173E-04-2.80954E-04 1.01517E-02 1.25805E-13 3.65003E-13
 -1      1603 2.00609E+01 1.31230E-03-4.93945E-05 1.09739E-02 1.01454E-13 5.08395E-13
 -1      1604 2.00650E+01 2.26688E-03-1.71573E-04 2.44549E-02 2.03445E-13 5.72923E-13
 -1      1605 2.00220E+01 5.69273E-04-1.90474E-04 6.95490E-03 4.79428E-14 1.31293E-13
 -1      1606 2.00334E+01 1.07969E-03-2.85816E-06 7.63325E-03 3.14744E-14 1.88201E-13
 -1      1607 2.00385E+01 1.80341E-03-1.51778E-04 1.74192E-02 1.62661E-13 3.68139E-13
 -1      1608 2.00067E+01 4.27315E-04-1.20509E-04 4.48486E-03-1.50545E-13 3.11309E-13
 -1      1609 2.00142E+01 8.53863E-04 2.61860E-05 5.02287E-03-1.33750E-13 1.67789E-13
 -1      1610 2.00196E+01 1.37606E-03-1.29169E-04 1.18135E-02-2.09839E-13 3.82681E-13
 -1      1611 1.99970E+01 3.09761E-04-6.90908E-05 2.64383E-03 6.84114E-14 3.67858E-13
 -1      1612 2.00016E+01 6.52770E-04 4.19597E-05 3.05659E-03 1.91708E-14 3.09514E-13
 -1      1613 2.00068E+01 1.01034E-03-1.06773E-04 7.51378E-03-8.49312E-14 2.80329E-13
 -1      1614 1.99914E+01 2.16573E-04-3.31113E-05 1.31889E-03 2.09531E-14 4.43076E-13
 -1      1615 1.99939E+01 4.83805E-04 4.83619E-05 1.62631E-03 4.34061E-14 4.27310E-13
 -1      1616 1.99987E+01 7.13592E-04-8.63048E-05 4.32886E-03 4.61062E-14 4.60068E-13
 -1      1617 1.99889E+01 1.45288E-04-9.25369E-06 4.00216E-04 7.87370E-14 3.45471E-13
 -1      1618 1.99898E+01 3.47863E-04 4.85961E-05 6.22864E-04 4.16520E-14 3.78243E-13
 -1      1619 1.99939E+01 4.82738E-04-6.85797E-05 2.05016E-03 6.39141E-14 4.72636E-13
 -1      1620 1.99883E+01 9.23270E-05 5.54307E-06-2.09335E-04 1.84519E-13 1.20576E-13
 -1      1621 1.99883E+01 2.42160E-04 4.50911E-05-5.25668E-05 1.50873E-13 3.84836E-13
 -1      1622 1.99917E+01 3.09423E-04-5.38173E-05 4.80357E-04 2.04730E-13 3.96489E-13
 -1      1623 1.99891E+01 5.37388E-05 1.39152E-05-5.89917E-04 7.46641E-14-1.51236E-13
 -1      1624 1.99884E+01 1.62022E-04 3.95724E-05-4.83011E-04 2.47075E-14-5.51634E-15
 -1      1625 1.99911E+01 1.83150E-04-4.18402E-05-5.51799E-04 1.88215E-13 2.40811E-13
 -1      1626 1.99907E+01 2.55468E-05 1.81308E-05-8.03369E-04 1.42590E-13-3.91148E-13
 -1      1627 1.99896E+01 1.01898E-04 3.32181E-05-7.33774E-04 1.53494E-13-1.68957E-13
 -1      1628 1.99917E+01 9.29925E-05-3.21707E-05-1.18508E-03 2.05500E-13 5.37928E-14
 -1      1629 1.99927E+01 3.78180E-06 2.04055E-05-8.93109E-04-1.10389E-13-5.25168E-13
 -1      1630 1.99915E+01 5.57522E-05 2.69150E-05-8.52134E-04-4.23136E-15-5.64330E-13
 -1      1631 1.99929E+01 2.82651E-05-2.39893E-05-1.52390E-03 1.44235E-13-3.16799E-13
 -1      1632 1.99949E+01-1.55877E-05 2.34692E-05-8.84069E-04-3.26901E-14-3.41067E-13
 -1      1633 1.99936E+01 1.70148E-05 2.17149E-05-8.67370E-04-1.16072E-13-4.95655E-13
 -1      1634 1.99945E+01-2.15253E-05-1.58707E-05-1.63807E-03-2.04942E-13-3.63161E-13
 -1      1635 1.99969E+01-3.69023E-05 3.00981E-05-7.82185E-04-1.79795E-14-3.59315E-13
 -1      1636 1.99957E+01-2.16359E-05 1.92282E-05-7.90603E-04-8.80541E-15-3.80169E-13
 -1      1637 1.99962E+01-6.74344E-05-5.66037E-06-1.56265E-03 6.90787E-14-1.51902E-13
 -1      1638 1.99985E+01-6.48426E-05 3.74537E-05-5.72769E-04 7.03570E-14-4.59379E-13
 -1      1639 1.99976E+01-6.86638E-05 2.01428E-05-6.15433E-04 1.02568E-13-3.50937E-13
 -1      1640 1.99977E+01-1.22544E-04 7.78104E-06-1.29838E-03 7.92464E-14-3.32510E-13
 -1      1641 1.99995E+01-1.01968E-04 1.41836E-05-2.54343E-04-3.44077E-15-4.04098E-13
 -1      1642 1.99990E+01-1.20390E-04 1.91124E-05-3.29526E-04 5.46561E-14-4.49240E-13
 -1      1643 1.99989E+01-1.97961E-04 1.98603E-05-8.25180E-04 1.39562E-13-3.27561E-13
 -1      1644 1.99997E+01-9.54082E-05 1.01591E-05-4.31955E-05-1.32205E-13-1.78377E-13
 -1      1645 1.99997E+01-1.03070E-03 1.64531E-05-4.92812E-04-1.09056E-13 2.18203E-14
 -1      1646 1.99997E+01-5.20147E-04 3.07046E-06-4.07697E-04-1.34743E-13-3.03060E-14
 -1      1647 1.99998E+01-2.41560E-03 3.80601E-06-7.23214E-04 1.41771E-13 2.75862E-13
 -1      1648 1.99997E+01-1.57542E-03 1.00880E-05-6.91152E-04-5.94441E-14 2.57504E-13
 -1      1649 1.99996E+01-1.32511E-03 1.78708E-05-1.13539E-03 1.32471E-13 1.79267E-13
 -1      1650 1.99998E+01-4.01680E-03-3.67789E-06-7.93577E-04 1.51751E-13-5.04224E-15
 -1      1651 1.99998E+01-3.06117E-03 3.25936E-06-7.92802E-04 7.40913E-14 1.90872E-13
 -1      1652 1.99997E+01-2.49785E-03 7.17878E-06-1.45180E-03 6.78945E-14 1.70849E-13
 -1      1653 1.99998E+01-5.58665E-03-5.89263E-06-7.42737E-04-8.18146E-14-1.95353E-13
 -1      1654 1.99998E+01-4.67474E-03-8.13188E-07-7.62356E-04 2.35465E-14 7.01696E-14
 -1      1655 1.99998E+01-3.77871E-03-4.93677E-06-1.49259E-03 1.28096E-13-7.46987E-14
 -1      1656 1.99999E+01-6.91808E-03-5.35665E-06-6.13805E-04-7.51141E-13-2.10045E-13
 -1      1657 1.99998E+01-6.16546E-03-1.47656E-06-6.44610E-04-3.59450E-13-3.01319E-13
 -1      1658 1.99999E+01-4.99095E-03-1.34779E-05-1.33308E-03-4.23841E-13-6.52911E-13
 -1      1659 1.99999E+01-7.93485E-03-3.97148E-06-4.33177E-04-6.56362E-13 1.17253E-13
 -1      1660 1.99999E+01-7.38373E-03-1.52111E-06-4.71608E-04-7.09706E-13-1.01497E-13
 -1      1661 1.99999E+01-6.01153E-03-1.81534E-05-1.04447E-03-5.72948E-13-1.24782E-13
 -1      1662 1.99999E+01-8.53356E-03-2.61761E-06-2.23390E-04-6.98481E-13-2.07693E-13
 -1      1663 1.99999E+01-8.23606E-03-1.34372E-06-2.65651E-04-6.46234E-13 1.35717E-13
 -1      1664 1.99999E+01-6.75884E-03-2.10284E-05-6.73208E-04-5.13114E-13 9.08785E-14
 -1      1665 1.99999E+01-8.67276E-03-1.80451E-06 1.73049E-06-1.79532E-13 2.47227E-13
 -1      1666 1.99999E+01-8.64930E-03-1.77199E-06-4.24568E-05-4.23446E-13 6.07420E-14
 -1      1667 1.99999E+01-7.16592E-03-2.25584E-05-2.56283E-04-3.01347E-13 2.86423E-14
 -1      1668 1.99999E+01-8.33626E-03-1.61077E-06 2.31170E-04-2.18128E-13-1.73118E-13
 -1      1669 1.99999E+01-8.59300E-03-2.87524E-06 1.86819E-04-2.44354E-13 1.55491E-13
 -1      1670 1.99999E+01-7.20231E-03-2.31575E-05 1.81585E-04-7.34556E-14 1.71886E-13
 -1      1671 1.99999E+01-7.53573E-03-1.88816E-06 4.52049E-04-1.08943E-12-6.38138E-13
 -1      1672 1.99999E+01-8.06260E-03-4.60532E-06 4.10069E-04-3.32182E-13-6.86706E-13
 -1      1673 1.99999E+01-6.85954E-03-2.26345E-05 6.17438E-04-2.51063E-13-6.84500E-13
 -1      1674 1.99999E+01-6.34304E-03-2.25537E-06 6.42376E-04-1.44189E-12-6.88977E-14
 -1      1675 1.99999E+01-7.09284E-03-6.12948E-06 6.07739E-04-1.15237E-12-4.69454E-13
 -1      1676 1.99999E+01-6.16083E-03-2.05207E-05 1.01842E-03-3.76443E-13-9.23385E-13
 -1      1677 1.99998E+01-4.81843E-03-1.19104E-06 7.80074E-04-9.89119E-13 7.48932E-14
 -1      1678 1.99999E+01-5.75036E-03-6.61180E-06 7.57142E-04-1.38104E-12 4.50326E-13
 -1      1679 1.99999E+01-5.15100E-03-1.55089E-05 1.34414E-03-4.54845E-13 2.63107E-13
 -1      1680 1.99998E+01-3.15667E-03 3.16234E-06 8.21848E-04-3.15023E-13 4.52048E-13
 -1      1681 1.99998E+01-4.14345E-03-3.99397E-06 8.21116E-04-8.13507E-13 2.57463E-13
 -1      1682 1.99998E+01-3.90873E-03-6.43360E-06 1.53500E-03-2.73911E-13 3.91268E-13
 -1      1683 1.99997E+01-1.61692E-03 1.02425E-05 7.11363E-04 3.14249E-14-2.38771E-13
 -1      1684 1.99998E+01-2.48348E-03 4.66779E-06 7.51614E-04-3.03569E-13 3.73847E-13
 -1      1685 1.99997E+01-2.57946E-03 8.14548E-06 1.51088E-03-1.82902E-13 5.59458E-13
 -1      1686-2.34642E-01-1.35087E+01-1.37645E+00 9.50142E-02 3.71703E-13-1.18350E-13
 -1      1687-4.40744E-01-1.68005E+01-1.68221E+00 1.19439E+00 5.60996E-13-2.11497E-14
 -1      1688 2.52774E+00-6.36820E+00-9.45961E-01 1.82976E+00 4.45866E-13 3.78003E-13
 -1      1689 1.38106E+00-1.21829E+01-1.50574E+00 8.46391E-01 3.61822E-13 1.67154E-13
 -1      1690 8.39595E+00 1.36349E+00-3.60940E-01 5.89459E+00 6.91447E-13 9.31699E-13
 -1      1691 4.93471E+00-4.09062E+00-1.13061E+00 2.79406E+00 4.92717E-13 5.07372E-13
 -1      1692 1.91513E+01 6.25104E+00 3.27727E-01 1.10013E+01 8.57314E-13 7.91700E-13
 -1      1693 1.24529E+01 3.21521E+00-5.05156E-01 7.33886E+00 8.49099E-13 7.97473E-13
 -1      1694 3.44290E+01 6.86730E+00 1.02827E+00 1.32428E+01 5.45564E-13 9.25926E-13
 -1      1695 2.49054E+01 6.79858E+00 2.25597E-01 1.14251E+01 6.94333E-13 8.62643E-13
 -1      1696 4.81224E+01 5.44584E+00 1.54976E+00 1.09097E+01 4.16250E-13 6.52478E-13
 -1      1697 3.95165E+01 7.20139E+00 9.39215E-01 1.27883E+01 5.12257E-13 8.71747E-13
 -1      1698 5.60917E+01 3.93560E+00 1.78276E+00 3.42592E+00 2.75613E-13-8.19345E-14
 -1      1699 5.14156E+01 5.25444E+00 1.47255E+00 8.64327E+00 3.89688E-13 4.15890E-13
 -1      1700 5.59909E+01 4.15367E+00 1.77112E+00-5.35626E+00 2.33813E-13-6.35270E-13
 -1      1701 5.76456E+01 3.60846E+00 1.84870E+00 5.66467E-01 2.06168E-13-2.74288E-13
 -1      1702 4.62773E+01 6.23856E+00 1.31164E+00-1.14393E+01 2.55060E-13-7.63944E-13
 -1      1703 5.33116E+01 4.45550E+00 1.76873E+00-7.83394E+00 1.59650E-13-7.58837E-13
 -1      1704 3.24741E+01 7.70927E+00 7.04992E-01-1.31649E+01 3.68483E-13-5.95080E-13
 -1      1705 4.18075E+01 6.54895E+00 1.41278E+00-1.31755E+01 2.63456E-13-7.30194E-13
 -1      1706 1.87120E+01 5.85836E+00-4.97209E-02-9.95299E+00 4.89053E-13-5.35350E-13
 -1      1707 2.70879E+01 7.35025E+00 8.24790E-01-1.29611E+01 4.81171E-13-5.48228E-13
 -1      1708 9.06773E+00-1.52748E+00-7.69403E-01-4.81612E+00 1.34337E-13-3.56382E-13
 -1      1709 1.46785E+01 3.28897E+00 7.27642E-02-8.67568E+00 3.56382E-13-5.40457E-13
 -1      1710 2.64927E+00-9.72536E+00-1.42308E+00-1.34727E+00-1.22902E-13-1.01502E-13
 -1      1711 4.77258E+00-3.57896E+00-7.12682E-01-3.47101E+00 8.30447E-14-2.61902E-13
 -1      1712-1.93389E-01-1.67999E+01-1.88189E+00-2.83451E-01-3.23963E-13-1.03278E-13
 -1      1713 3.77577E-02-1.21082E+01-1.45138E+00 3.50650E-01-1.43996E-13-6.76958E-14
 -1      1714-9.42855E-01-1.75145E+01-1.78714E+00-1.61273E+00-4.28615E-13-8.70970E-14
 -1      1715-7.95008E-01-1.69912E+01-1.71464E+00 9.68533E-02-3.43892E-13-7.54397E-14
 -1      1716-5.20041E-01-1.39042E+01-1.72144E+00-1.83834E+00-4.50417E-13-1.35877E-13
 -1      1717-4.95385E-01-1.75999E+01-1.94969E+00-1.00362E+00-4.32543E-13-1.21070E-13
 -1      1718 2.74202E+00-6.39705E+00-1.32811E+00 7.56843E-01-4.36762E-13-1.70475E-13
 -1      1719 1.17590E+00-1.22607E+01-1.90804E+00-9.75622E-01-4.34208E-13-2.12524E-13
 -1      1720 1.31327E+01 8.53897E-01-5.00120E-01 6.72097E+00-3.72147E-13-5.84865E-13
 -1      1721 7.21475E+00-4.49932E+00-1.43230E+00 2.54431E+00-3.21076E-13-3.30624E-13
 -1      1722 3.00848E+01 3.99454E+00 5.85472E-01 1.07669E+01-3.23075E-13-1.26565E-13
 -1      1723 1.99792E+01 1.77924E+00-5.66548E-01 7.29081E+00-4.37983E-13-3.20854E-13
 -1      1724 4.79102E+01 5.23237E+00 1.87568E+00 1.20117E+01-9.93650E-14 3.25517E-13
 -1      1725 3.60495E+01 5.97766E+00 6.77540E-01 1.17706E+01-2.78333E-13-1.24345E-14
 -1      1726 6.09226E+01 3.86512E+00 2.55695E+00 6.31659E+00 4.95715E-14 4.81837E-13
 -1      1727 5.30622E+01 5.57776E+00 1.95410E+00 1.06125E+01 6.80289E-14 3.88356E-13
 -1      1728 6.18069E+01 4.22710E+00 2.45442E+00-2.32606E+00-5.55112E-14 4.62408E-13
 -1      1729 6.11958E+01 4.43109E+00 2.44498E+00 3.69032E+00-2.18159E-14 4.34153E-13
 -1      1730 5.46422E+01 5.20326E+00 1.99164E+00-9.33742E+00-4.02289E-13 8.08020E-13
 -1      1731 6.18825E+01 3.75411E+00 2.59853E+00-4.47925E+00-1.60316E-13 5.51226E-13
 -1      1732 3.81326E+01 5.92295E+00 7.80420E-01-1.16950E+01-6.87228E-13 1.10667E-12
 -1      1733 5.01509E+01 4.91270E+00 1.99396E+00-1.12928E+01-5.85643E-13 8.71303E-13
 -1      1734 2.11994E+01 2.18228E+00-4.83234E-01-7.57000E+00-5.27689E-13 8.56870E-13
 -1      1735 3.20116E+01 4.06821E+00 7.02008E-01-1.09043E+01-5.84088E-13 1.02141E-12
 -1      1736 7.71651E+00-3.54826E+00-1.41287E+00-2.82241E+00-5.38458E-13 5.51781E-13
 -1      1737 1.39200E+01 1.45553E+00-4.64742E-01-7.04110E+00-5.82645E-13 7.98916E-13
 -1      1738 1.91550E+00-1.10103E+01-1.80606E+00 5.70641E-01-1.02252E-13 3.37563E-13
 -1      1739 3.86575E+00-5.47975E+00-1.21808E+00-1.44961E+00-4.44755E-13 4.85334E-13
 -1      1740-3.81054E-01-1.69232E+01-2.01051E+00 1.53742E+00 3.41449E-13 1.02793E-13
 -1      1741-3.21382E-01-1.28604E+01-1.72505E+00 1.86039E+00 5.99520E-14 2.34701E-13
 -1      1742-8.54626E-01-1.81084E+01-1.82721E+00 3.69792E-01 5.43995E-13 9.03722E-14
 -1      1743-1.05909E+00-1.74320E+01-1.86944E+00 2.03764E+00 4.65405E-13 2.31482E-14
 -1      1744 1.99995E+01-2.99650E-04 2.21596E-05 4.41690E-04-2.18509E-15-7.53973E-14
 -1      1745 7.42803E+00-6.36140E+00-7.48693E-01 5.66103E+00 3.31180E-13 4.67154E-13
 -1      1746 1.99996E+01-2.23023E-04 2.41517E-05-2.56962E-04-2.25588E-13 2.10915E-14
 -1      1747 1.99994E+01-5.27568E-04 1.34637E-05-7.02199E-04-1.23510E-14 6.74362E-14
 -1      1748-1.40627E+00-1.13623E+01-1.17454E+00 1.58457E+00 2.67786E-13 6.10623E-14
 -1      1749 1.58478E+00-9.48755E+00-9.89680E-01 3.91380E+00 3.63265E-13 1.03695E-13
 -1      1750 1.99997E+01-5.31816E-04 3.31546E-06 4.18001E-04-3.22986E-13-3.00729E-13
 -1      1751 1.99997E+01-1.04800E-03 1.80182E-05 5.12748E-04 1.18355E-13-4.85112E-13
 -1      1752 1.99996E+01-1.37218E-03 1.89882E-05 1.18439E-03-2.10202E-13-4.30809E-13
 -1      1753 1.57155E+01-1.73203E+00-2.19094E-01 7.42668E+00 3.24296E-13 5.85088E-13
 -1      1754 2.64639E+01 2.06643E+00 3.96263E-01 8.25244E+00 5.88585E-13 5.62217E-13
 -1      1755 3.68259E+01 4.96389E+00 8.88407E-01 7.17801E+00 4.77174E-13 5.02820E-13
 -1      1756 4.47467E+01 7.06750E+00 1.29568E+00 4.74312E+00 5.56499E-13 3.69094E-13
 -1      1757 4.88706E+01 7.87833E+00 1.54160E+00 8.48907E-01 4.68292E-13-7.10543E-15
 -1      1758 4.79342E+01 7.47605E+00 1.52634E+00-3.11381E+00 2.75113E-13-3.35953E-13
 -1      1759 4.15890E+01 6.28932E+00 1.21659E+00-6.57597E+00 1.15158E-13-4.60409E-13
 -1      1760 3.20206E+01 3.91961E+00 6.83554E-01-8.41850E+00 2.47191E-13-3.61822E-13
 -1      1761 2.15864E+01-7.48259E-01-4.90503E-02-7.72671E+00 1.26565E-13-3.31402E-13
 -1      1762 1.22397E+01-5.04037E+00-3.64783E-01-6.91062E+00-9.33698E-14-3.95850E-13
 -1      1763 3.54964E+00-8.97713E+00-9.26281E-01-4.58063E+00-1.51323E-13-1.95025E-13
 -1      1764-9.53922E-01-1.16300E+01-1.26297E+00-1.94735E+00-1.92846E-13-1.48159E-13
 -1      1765-1.18535E+00-1.18476E+01-1.28265E+00 2.23538E-01-2.71561E-13-8.27116E-14
 -1      1766 2.25551E+00-1.06489E+01-1.28190E+00 2.34700E+00-2.77223E-13-1.08136E-13
 -1      1767 1.04508E+01-7.05063E+00-8.26479E-01 4.80003E+00-2.41362E-13-2.38976E-13
 -1      1768 2.32798E+01-3.63248E+00-1.37833E-01 5.84601E+00-1.84963E-13-1.38001E-13
 -1      1769 3.55371E+01 5.42283E-01 4.76400E-01 5.23217E+00-3.50941E-13 1.54321E-13
 -1      1770 4.73123E+01 5.02369E+00 1.64856E+00 4.46049E+00-1.54390E-13 2.14495E-13
 -1      1771 5.17112E+01 7.80823E+00 2.00260E+00 1.41712E+00-1.59872E-14 3.32179E-13
 -1      1772 5.19609E+01 7.81827E+00 1.98294E+00-8.59019E-01-2.25597E-13 4.26548E-13
 -1      1773 4.80877E+01 5.38623E+00 1.66654E+00-3.66426E+00-5.02542E-13 5.58220E-13
 -1      1774 3.69377E+01 8.44990E-01 5.50841E-01-4.82529E+00-3.67595E-13 6.18505E-13
 -1      1775 2.41713E+01-3.02542E+00-8.13518E-02-5.79737E+00-3.39839E-13 6.48703E-13
 -1      1776 1.14438E+01-6.64922E+00-8.22913E-01-4.84938E+00-2.15383E-13 5.79758E-13
 -1      1777 3.37237E+00-1.01439E+01-1.22126E+00-2.68091E+00 9.10383E-15 5.19140E-13
 -1      1778-8.24204E-01-1.23365E+01-1.40520E+00-5.49794E-01 2.11220E-13 2.14828E-13
 -1      1779 2.30566E+01 1.99046E+00-2.84717E-02-2.64900E+00-2.14793E-14-2.29483E-13
 -1      1780 1.99422E+01 3.77676E+00-3.64152E-02-1.90004E+00 6.21465E-14-1.17854E-13
 -1      1781 2.02264E+01 3.60728E+00-3.93685E-02-2.18644E+00 4.07729E-14-1.33157E-13
 -1      1782 2.05799E+01 3.19366E+00-4.54924E-02-2.34547E+00 2.50681E-14-1.47840E-13
 -1      1783 2.08250E+01 2.81571E+00-1.34187E-01-2.63615E+00-7.25114E-16-1.84554E-13
 -1      1784 2.06364E+01 2.73434E+00-1.21132E-03-1.95237E+00 2.28298E-14-1.22631E-13
 -1      1785 1.92368E+01 4.32368E+00-2.06361E-02-1.08747E+00 9.40311E-14-6.84747E-14
 -1      1786 1.93659E+01 4.27893E+00-1.51880E-02-1.28597E+00 9.85744E-14-9.05109E-14
 -1      1787 1.90529E+01 4.44503E+00-1.62835E-02-7.47620E-01 1.03342E-13-2.38871E-14
 -1      1788 1.91349E+01 4.42037E+00-1.27785E-02-9.24587E-01 1.02027E-13-4.72053E-14
 -1      1789 1.93581E+01 3.97857E+00-6.89157E-03-9.47346E-01 9.73167E-14-5.36845E-14
 -1      1790 1.89560E+01 4.50415E+00-1.33981E-02-4.33476E-01 1.18056E-13 2.52437E-14
 -1      1791 1.89951E+01 4.49421E+00-1.21900E-02-5.97614E-01 1.12770E-13-1.83187E-15
 -1      1792 1.91793E+01 4.11171E+00-6.82526E-03-6.42586E-01 1.17471E-13-7.12451E-15
 -1      1793 1.89351E+01 4.51460E+00-1.16565E-02-1.25707E-01 1.37228E-13 6.23928E-14
 -1      1794 1.89367E+01 4.51591E+00-1.25099E-02-2.87299E-01 1.25371E-13 3.91232E-14
 -1      1795 1.90945E+01 4.16659E+00-7.12273E-03-3.52399E-01 1.31643E-13 3.59487E-14
 -1      1796 1.89796E+01 4.48540E+00-1.09125E-02 1.92302E-01 1.42196E-13 9.81142E-14
 -1      1797 1.89491E+01 4.49601E+00-1.34054E-02 2.48512E-02 1.36017E-13 7.40033E-14
 -1      1798 1.90915E+01 4.15935E+00-7.65123E-03-6.01263E-02 1.44539E-13 7.84277E-14
 -1      1799 1.90807E+01 4.42093E+00-1.11813E-02 5.33631E-01 1.44290E-13 1.27292E-13
 -1      1800 1.90223E+01 4.44056E+00-1.48571E-02 3.53429E-01 1.41075E-13 1.11272E-13
 -1      1801 1.91586E+01 4.10033E+00-8.28315E-03 2.47911E-01 1.43280E-13 1.14215E-13
 -1      1802 1.92323E+01 4.32158E+00-1.25994E-02 9.01934E-01 1.40779E-13 1.75015E-13
 -1      1803 1.91481E+01 4.35096E+00-1.71431E-02 7.06437E-01 1.40001E-13 1.41828E-13
 -1      1804 1.92862E+01 3.99439E+00-8.78057E-03 5.78118E-01 1.47520E-13 1.35439E-13
 -1      1805 1.94475E+01 4.17125E+00-1.60416E-02 1.31862E+00 1.36329E-13 2.37109E-13
 -1      1806 1.93288E+01 4.21795E+00-2.08791E-02 1.09427E+00 1.31004E-13 2.01363E-13
 -1      1807 1.94731E+01 3.83478E+00-9.23490E-03 9.38288E-01 1.45358E-13 1.88346E-13
 -1      1808 1.97540E+01 3.93526E+00-2.42737E-02 1.78480E+00 1.08432E-13 3.00825E-13
 -1      1809 1.95836E+01 4.01599E+00-2.73946E-02 1.52605E+00 1.20015E-13 2.65378E-13
 -1      1810 1.97354E+01 3.59740E+00-9.03624E-03 1.33049E+00 1.29200E-13 2.45529E-13
 -1      1811 2.02269E+01 3.52023E+00-4.31829E-02 2.29474E+00 7.07351E-14 3.83322E-13
 -1      1812 1.99613E+01 3.68585E+00-3.83229E-02 1.99326E+00 8.88968E-14 3.28879E-13
 -1      1813 2.01095E+01 3.22934E+00-6.77027E-03 1.73334E+00 9.75886E-14 3.12065E-13
 -1      1814 2.10960E+01 2.65500E+00-6.07976E-02 2.70088E+00 2.70044E-14 4.71276E-13
 -1      1815 2.05810E+01 3.08989E+00-4.95619E-02 2.44543E+00 5.38181E-14 4.28935E-13
 -1      1816 2.06640E+01 2.60087E+00-9.37166E-04 2.05849E+00 5.10499E-14 3.92089E-13
 -1      1817 2.19017E+01 1.19876E+00-1.22256E-01 2.20932E+00-1.04153E-14 5.34836E-13
 -1      1818 2.14565E+01 2.25635E+00 3.14188E-03 2.60192E+00 1.05384E-14 4.95257E-13
 -1      1819 2.11578E+01 1.67600E+00-1.27326E-02 1.99222E+00 3.33050E-14 4.62293E-13
 -1      1820 2.11745E+01 7.70022E-01-5.87085E-02 1.40767E+00-1.47798E-15 5.32284E-13
 -1      1821 2.20360E+01 2.46905E+00 9.03250E-02-2.90167E+00-1.36453E-14-2.00034E-13
 -1      1822 2.04005E+01 2.92821E-01-7.28014E-03 5.50208E-01 4.90233E-15 5.19078E-13
 -1      1823 2.08955E+01 4.33011E-01-1.41780E-02 9.23335E-01 5.75928E-15 5.05823E-13
 -1      1824 2.09857E+01 8.40534E-01 6.21660E-03 1.27457E+00 1.09426E-14 4.70710E-13
 -1      1825 2.09300E+01 5.55480E-01 3.19759E-02-7.23644E-01-1.57166E-14-1.66858E-13
 -1      1826 2.05875E+01 4.13913E-01 1.25705E-02-3.95188E-01-1.42473E-14-1.72399E-13
 -1      1827 2.04543E+01 3.28375E-01 2.86358E-02-1.06522E-01-2.35385E-14-1.71438E-13
 -1      1828 2.03827E+01 2.65761E-01 1.76175E-02 7.88735E-02-9.98507E-15-1.68786E-13
 -1      1829 2.06478E+01 5.84359E-01-8.19076E-03-3.92628E-01-8.65800E-15-1.22781E-13
 -1      1830 2.03407E+01 2.35295E-01 1.80218E-02 2.83327E-01 3.61777E-15-1.79204E-13
 -1      1831 2.04302E+01 2.19709E-01 1.68226E-02 4.21985E-01 1.91262E-14-1.85541E-13
 -1      1832 2.04677E+01 3.89277E-01-7.68651E-03 1.68433E-01-9.33368E-15-1.28782E-13
 -1      1833 2.04653E+01 2.15638E-01 1.03104E-02 5.86818E-01 2.84790E-14-1.79498E-13
 -1      1834 2.06711E+01 2.24235E-01 1.71454E-02 7.11568E-01 2.38707E-14-1.59429E-13
 -1      1835 2.04727E+01 3.32931E-01-6.59657E-03 5.84151E-01 2.38086E-14-1.23077E-13
 -1      1836 2.07741E+01 2.35891E-01 5.54699E-03 8.86411E-01 1.63602E-14-1.37025E-13
 -1      1837 2.11084E+01 2.63444E-01 1.93020E-02 1.03397E+00 2.05539E-14-1.30216E-13
 -1      1838 2.06227E+01 3.51517E-01-5.28482E-03 9.62058E-01 2.97128E-14-1.10458E-13
 -1      1839 2.12673E+01 2.87282E-01 2.41946E-03 1.23280E+00 8.61550E-15-1.27201E-13
 -1      1840 2.17293E+01 3.25035E-01 2.14760E-02 1.41145E+00-1.21674E-14-1.34480E-13
 -1      1841 2.09011E+01 4.17896E-01-4.06701E-03 1.37421E+00 1.68459E-14-1.01176E-13
 -1      1842 2.19383E+01 3.52007E-01-6.34835E-04 1.64756E+00-9.31807E-15-1.19928E-13
 -1      1843 2.25395E+01 3.85060E-01 2.18342E-02 1.85886E+00 4.19604E-14-7.83830E-14
 -1      1844 2.12895E+01 5.10753E-01-3.12746E-03 1.84963E+00 3.01521E-14-7.89621E-14
 -1      1845 2.28023E+01 3.93692E-01-3.07062E-03 2.12734E+00 3.29303E-14-6.69408E-14
 -1      1846 2.35447E+01 3.83735E-01 1.75168E-02 2.34382E+00 4.26777E-14-5.49326E-14
 -1      1847 2.17821E+01 5.80706E-01-3.37843E-03 2.39768E+00 5.20643E-14-4.95584E-14
 -1      1848 2.38923E+01 3.22061E-01-2.10537E-03 2.60151E+00 3.61907E-14-3.54083E-14
 -1      1849 2.47461E+01 1.92889E-01 6.31471E-03 2.73312E+00 1.67867E-14-5.78357E-14
 -1      1850 2.23987E+01 5.14686E-01-6.55540E-03 2.97081E+00 5.06965E-14-4.43929E-14
 -1      1851 2.52384E+01-1.44288E-02 1.08786E-02 2.85852E+00-7.79498E-15-7.93931E-14
 -1      1852 2.60755E+01-3.58251E-01-1.32772E-02 2.73770E+00 2.02702E-14-4.82392E-14
 -1      1853 2.32071E+01 1.00900E-01-1.58439E-02 3.40204E+00 5.25014E-15-4.99182E-14
 -1      1854 2.69645E+01-8.26314E-01 4.72991E-02 2.51127E+00 1.51719E-14-4.95940E-14
 -1      1855 2.77145E+01-1.47612E+00-3.51910E-02 1.86992E+00-1.36002E-15-4.54192E-14
 -1      1856 2.44441E+01-9.44269E-01-3.48683E-02 3.38341E+00 4.34236E-14-6.45838E-14
 -1      1857 2.91820E+01-2.13065E+00 7.50531E-02 9.41788E-01 4.70249E-14-4.46830E-14
 -1      1858 2.95997E+01-2.65537E+00-3.92348E-02-3.29801E-01-3.50275E-14-1.88244E-14
 -1      1859 2.65577E+01-2.69945E+00-5.92211E-02 2.34485E+00 1.62370E-14-8.72462E-14
 -1      1860 3.14697E+01-2.78062E+00-1.97952E-03-1.98469E+00-1.31230E-13 5.06470E-14
 -1      1861 3.13030E+01-2.08461E+00-1.09890E-01-3.23378E+00-1.32880E-13-3.13014E-14
 -1      1862 2.98892E+01-3.97551E+00-8.20280E-02-2.93493E-01-4.69659E-14-1.00267E-15
 -1      1863 3.21473E+01 2.72572E+00-2.48343E-01-3.24535E+00-1.83853E-13-2.60354E-13
 -1      1864 3.18240E+01 3.96553E+00-1.83268E-01-1.51824E+00-2.15827E-13-3.46057E-13
 -1      1865 3.15719E+01 4.10997E+00-1.87106E-01 7.44192E-01-2.22711E-13-3.07671E-13
 -1      1866 3.18640E+01 3.15916E+00-2.44068E-01 2.77033E+00-2.41529E-13-2.99125E-13
 -1      1867 3.19481E+01 1.71704E+00-1.37044E-01 4.05918E+00-2.90323E-13-3.55743E-13
 -1      1868 3.25755E+01-2.08734E-01-1.82162E-01 4.46951E+00-1.36224E-13-4.29309E-13
 -1      1869 3.13908E+01-1.67479E+00-8.73017E-02 3.66853E+00 1.32512E-13-4.85296E-13
 -1      1870 3.18101E+01-2.53355E+00 9.36712E-03 2.60486E+00 2.54380E-13-4.51292E-13
 -1      1871 3.35928E+01-1.40372E+00-9.69580E-02 3.69070E+00-7.37466E-14-2.76112E-13
 -1      1872 3.00624E+01-2.56072E+00-6.40533E-02 8.59968E-01 2.30885E-13-4.31998E-13
 -1      1873 2.98149E+01-2.08853E+00 7.51008E-02-4.62659E-01 8.86513E-14-3.81140E-13
 -1      1874 3.04804E+01-3.68359E+00-1.22472E-01 9.13483E-01 2.45713E-13-4.35610E-13
 -1      1875 2.84057E+01-1.51542E+00-3.64184E-02-1.47624E+00-1.24900E-14-3.24850E-13
 -1      1876 2.77411E+01-8.59470E-01 5.79297E-02-2.21605E+00-6.34076E-14-3.71621E-13
 -1      1877 2.74756E+01-2.56169E+00-4.91875E-02-1.74257E+00 7.92977E-14-2.91640E-13
 -1      1878 2.68021E+01-4.30698E-01-1.92194E-02-2.50376E+00-1.33643E-13-3.11706E-13
 -1      1879 2.59704E+01-3.02661E-02 1.95346E-02-2.67753E+00-1.37938E-13-3.11336E-13
 -1      1880 2.54006E+01-9.56591E-01-2.68941E-02-3.00925E+00-5.67671E-14-1.48228E-13
 -1      1881 2.53886E+01 1.54761E-01-1.21690E-03-2.56255E+00 4.40643E-14-2.46175E-13
 -1      1882 2.45694E+01 3.10346E-01 1.32873E-03-2.43928E+00 6.86223E-14-1.42282E-13
 -1      1883 2.40485E+01 6.36764E-02-1.36041E-02-3.13321E+00 4.07660E-17-2.31490E-14
 -1      1884 2.41975E+01 3.51450E-01 1.17772E-02-2.19769E+00 2.08011E-14-1.98052E-13
 -1      1885 2.35124E+01 3.74072E-01-3.01260E-03-1.99107E+00 6.00431E-14-1.75623E-13
 -1      1886 2.31464E+01 4.61888E-01-6.02608E-03-2.73554E+00 3.23905E-14 3.19232E-15
 -1      1887 2.32085E+01 3.57725E-01 1.60672E-02-1.72519E+00 5.87204E-15-2.17456E-13
 -1      1888 2.26286E+01 3.32296E-01-2.09838E-03-1.51108E+00-6.18516E-14-2.19470E-13
 -1      1889 2.24649E+01 5.25382E-01-1.33909E-03-2.19077E+00-1.70974E-14-2.78250E-15
 -1      1890 2.23897E+01 2.97585E-01 1.64663E-02-1.28306E+00-7.70477E-14-1.89981E-13
 -1      1891 2.19449E+01 2.59052E-01-5.11326E-04-1.10641E+00 1.78121E-14-2.51464E-13
 -1      1892 2.19022E+01 4.55813E-01-2.02849E-04-1.65847E+00-9.64680E-15-2.82066E-14
 -1      1893 2.17533E+01 2.26002E-01 1.42342E-02-9.28606E-01 1.66554E-13-3.90756E-13
 -1      1894 2.14226E+01 1.90354E-01 4.62896E-04-7.94460E-01 6.94566E-14-2.96191E-13
 -1      1895 2.14489E+01 3.52991E-01-1.69399E-04-1.21880E+00-3.37959E-14-1.58799E-13
 -1      1896 2.12709E+01 1.64214E-01 1.12439E-02-6.62219E-01-1.07097E-14-3.64316E-13
 -1      1897 2.10295E+01 1.35918E-01 8.81481E-04-5.64505E-01-7.27300E-14-2.73382E-13
 -1      1898 2.10880E+01 2.58870E-01-4.60492E-04-8.80509E-01 1.00831E-14-2.65832E-13
 -1      1899 2.09114E+01 1.16779E-01 8.43762E-03-4.68570E-01-1.04838E-14-3.40092E-14
 -1      1900 2.07373E+01 9.57910E-02 9.68832E-04-3.98835E-01 1.21147E-13 7.08212E-14
 -1      1901 2.08059E+01 1.84785E-01-7.01348E-04-6.29923E-01 1.23705E-13-1.21809E-14
 -1      1902 2.06467E+01 8.22084E-02 6.13100E-03-3.30099E-01 1.07662E-13 3.02111E-14
 -1      1903 2.05226E+01 6.72872E-02 1.01067E-03-2.80792E-01 1.60903E-13-1.15820E-13
 -1      1904 2.05892E+01 1.30293E-01-7.92020E-04-4.48027E-01 4.37285E-14 2.98014E-13
 -1      1905 2.04574E+01 5.85853E-02 4.48732E-03-2.34122E-01 9.65794E-14-2.93840E-13
 -1      1906 2.03721E+01 4.80372E-02 8.45300E-04-2.00614E-01 3.25000E-14-2.99556E-13
 -1      1907 2.04282E+01 9.17259E-02-1.01627E-03-3.19699E-01 4.16741E-14 4.09514E-15
 -1      1908 2.03198E+01 4.12456E-02 3.16070E-03-1.65034E-01 3.68749E-14-3.40806E-13
 -1      1909 2.02559E+01 3.37173E-02 6.50589E-04-1.40092E-01 4.09926E-14-4.18870E-13
 -1      1910 2.03075E+01 6.53663E-02-6.97596E-04-2.27805E-01 3.99648E-15-2.88711E-13
 -1      1911 2.02176E+01 2.91337E-02 2.27880E-03-1.14845E-01-2.23077E-14-3.90558E-13
 -1      1912 2.01726E+01 2.37173E-02 5.13911E-04-9.71811E-02-3.03794E-13-5.23149E-13
 -1      1913 2.02151E+01 4.58911E-02-6.12507E-04-1.59847E-01-2.10535E-14-3.17787E-13
 -1      1914 2.01446E+01 2.05558E-02 1.61867E-03-7.92058E-02-3.49243E-13-2.15924E-13
 -1      1915 2.01132E+01 1.67113E-02 4.04007E-04-6.67115E-02-1.04133E-13-2.52655E-13
 -1      1916 2.01474E+01 3.22976E-02-5.07409E-04-1.11291E-01-1.78868E-13-4.74834E-13
 -1      1917 2.00930E+01 1.45040E-02 1.14725E-03-5.39159E-02 5.40840E-14-2.26705E-13
 -1      1918 2.00714E+01 1.17645E-02 3.14458E-04-4.50801E-02 9.54888E-14-1.46196E-13
 -1      1919 2.00985E+01 2.27468E-02-4.07236E-04-7.65959E-02-1.79198E-14-2.42333E-13
 -1      1920 2.00570E+01 1.01953E-02 8.05462E-04-3.59895E-02 9.64277E-14-1.53725E-13
 -1      1921 2.00424E+01 8.26501E-03 2.54859E-04-2.97663E-02 2.66429E-13-2.27951E-13
 -1      1922 2.00635E+01 1.60072E-02-3.16051E-04-5.18423E-02 6.98848E-14-1.12852E-13
 -1      1923 2.00329E+01 7.24122E-03 5.75219E-04-2.36325E-02 2.05833E-13-2.99703E-13
 -1      1924 2.00236E+01 5.86290E-03 1.94114E-04-1.94317E-02-2.93776E-14-1.49270E-13
 -1      1925 2.00393E+01 1.12229E-02-2.74616E-04-3.45527E-02 1.72932E-13-3.47789E-13
 -1      1926 2.00166E+01 5.03820E-03 4.00122E-04-1.48269E-02-1.07385E-13-1.63470E-13
 -1      1927 2.00103E+01 4.02583E-03 1.40648E-04-1.17404E-02 5.89361E-14-2.00702E-13
 -1      1928 2.00226E+01 7.93445E-03-1.86612E-04-2.23257E-02 1.89466E-14-3.33250E-13
 -1      1929 2.00057E+01 3.46698E-03 2.82345E-04-8.56047E-03 4.98602E-14-3.45513E-13
 -1      1930 2.00019E+01 2.72057E-03 1.03360E-04-6.43841E-03 5.30238E-14-4.16115E-13
 -1      1931 2.00111E+01 5.43736E-03-1.42214E-04-1.34576E-02-4.07964E-14-3.65769E-13
 -1      1932 1.99991E+01 2.33180E-03 1.92822E-04-4.27133E-03 2.11524E-14-3.28521E-13
 -1      1933 1.99970E+01 1.79633E-03 7.61592E-05-2.84544E-03-1.96988E-13-3.02322E-13
 -1      1934 2.00036E+01 3.66471E-03-1.05334E-04-7.32792E-03 7.85167E-14-5.05102E-13
 -1      1935 1.99953E+01 1.52543E-03 1.28495E-04-1.40271E-03 2.56687E-14-1.33908E-13
 -1      1936 1.99945E+01 1.14419E-03 5.55916E-05-4.71347E-04 3.74501E-13-3.17847E-14
 -1      1937 1.99991E+01 2.40759E-03-7.64286E-05-3.16897E-03 7.49203E-14-1.06034E-13
 -1      1938 1.99936E+01 9.53698E-04 8.15845E-05 4.56763E-04 3.19460E-13-1.22982E-13
 -1      1939 1.99935E+01 6.89535E-04 4.08232E-05 1.03625E-03 2.16554E-13-2.54391E-13
 -1      1940 1.99966E+01 1.52347E-03-5.37146E-05-4.22427E-04 2.33047E-13-1.22676E-13
 -1      1941 1.99933E+01 5.65334E-04 4.93287E-05 1.57707E-03 2.60521E-13-2.62359E-13
 -1      1942 1.99936E+01 3.81816E-04 2.79313E-05 1.90006E-03 2.66010E-13-2.94520E-14
 -1      1943 1.99956E+01 9.01446E-04-3.99545E-05 1.29106E-03 2.44313E-13-4.02210E-13
 -1      1944 1.99937E+01 2.83698E-04 2.75249E-05 2.21580E-03-3.16137E-14 8.57831E-14
 -1      1945 1.99944E+01 1.42182E-04 1.61151E-05 2.38141E-03-1.95908E-13 4.85171E-14
 -1      1946 1.99954E+01 4.79601E-04-2.53030E-05 2.30432E-03 2.24286E-13-3.24057E-13
 -1      1947 1.99947E+01 7.34746E-05 1.23962E-05 2.50024E-03-1.49133E-13 2.50671E-13
 -1      1948 1.99955E+01-4.26730E-05 5.89386E-06 2.53133E-03-1.84258E-13 1.98268E-13
 -1      1949 1.99958E+01 1.50717E-04-1.61584E-05 2.83222E-03-6.97413E-14-1.76552E-13
 -1      1950 1.99959E+01-1.03374E-04 1.45475E-06 2.49755E-03-2.21289E-13 3.46041E-13
 -1      1951 1.99967E+01-2.10843E-04-3.31037E-06 2.41204E-03-5.71073E-15 3.78610E-13
 -1      1952 1.99966E+01-1.12265E-04-8.92342E-06 2.96284E-03-1.87558E-13 7.18220E-14
 -1      1953 1.99971E+01-2.81947E-04-5.47841E-06 2.24403E-03 4.39096E-15 2.43324E-13
 -1      1954 1.99979E+01-3.96541E-04-1.04036E-05 2.03931E-03-6.41758E-14 1.42193E-13
 -1      1955 1.99975E+01-3.57143E-04-1.36743E-06 2.76857E-03-1.06375E-13 8.15410E-14
 -1      1956 1.99983E+01-4.77765E-04-5.40002E-06 1.73574E-03 1.11656E-13 3.79904E-14
 -1      1957 1.99989E+01-5.98455E-04-1.00549E-05 1.41971E-03 1.32371E-13 3.96731E-14
 -1      1958 1.99984E+01-6.36090E-04 5.28788E-06 2.27860E-03 1.95022E-14 4.35319E-14
 -1      1959 1.99975E+01 1.36326E-01 7.44153E-03 1.54282E-01-1.06330E-14 4.85232E-13
 -1      1960 2.02163E+01 2.02851E-01 1.51902E-02 3.26203E-01 1.43809E-15 4.95812E-13
 -1      1961 2.04162E+01 3.59724E-01 5.61278E-03 5.26029E-01 2.35575E-15 4.51224E-13
 -1      1962 1.24563E+01-4.62870E+00-6.99211E-02 7.49832E+00 1.38112E-13 4.56718E-13
 -1      1963 8.78790E+00-6.26544E+00-2.73123E-01 6.58660E+00 1.73472E-13 3.36259E-13
 -1      1964 1.98360E+01 6.46851E-02 6.09585E-03-4.17320E-02-4.02152E-15 4.42255E-13
 -1      1965 1.99044E+01 9.83492E-02 1.32989E-02 4.46811E-02-2.01106E-14 4.57894E-13
 -1      1966 2.00971E+01 1.65061E-01 7.64379E-04 1.34141E-01-1.05090E-14 4.23534E-13
 -1      1967 1.98181E+01 2.17823E-02 3.15832E-03-1.29001E-01-4.16800E-14 4.58845E-13
 -1      1968 1.98110E+01 4.15627E-02 7.57816E-03-8.93080E-02-2.83499E-14 4.25875E-13
 -1      1969 1.99691E+01 6.65935E-02-2.67948E-03-6.76661E-02-2.70350E-14 3.53503E-13
 -1      1970 1.98685E+01-1.11742E-02 8.37646E-04-1.45707E-01-6.48828E-14 4.45040E-13
 -1      1971 1.98297E+01 3.32772E-03 3.15518E-03-1.37661E-01-3.99605E-14 4.53813E-13
 -1      1972 1.99535E+01 8.99084E-03-2.72617E-03-1.49567E-01-5.72460E-14 3.35534E-13
 -1      1973 1.99309E+01-4.00771E-02-8.51065E-04-1.05457E-01-3.27329E-14 4.34550E-13
 -1      1974 1.98921E+01-2.82224E-02 3.56295E-04-1.23494E-01-7.29646E-14 4.26263E-13
 -1      1975 1.99912E+01-3.59628E-02-1.55545E-03-1.47644E-01-5.71190E-14 2.94714E-13
 -1      1976 1.99594E+01-6.61098E-02-2.11364E-03-1.52695E-02 3.55382E-14 4.74891E-13
 -1      1977 1.99456E+01-5.66328E-02-1.50349E-03-5.69530E-02-3.28947E-16 4.71684E-13
 -1      1978 2.00334E+01-7.52961E-02-1.20583E-04-7.74409E-02-1.12536E-14 3.03214E-13
 -1      1979 1.99161E+01-8.65946E-02-2.85308E-03 1.17225E-01 6.23833E-14 4.28273E-13
 -1      1980 1.99474E+01-8.09094E-02-2.77569E-03 5.49523E-02 4.66667E-14 4.69874E-13
 -1      1981 2.00409E+01-1.08726E-01 1.38536E-03 5.13875E-02 5.97916E-14 3.71872E-13
 -1      1982 1.97728E+01-9.56487E-02-2.87313E-03 2.77289E-01 1.34224E-14 4.78210E-13
 -1      1983 1.98630E+01-9.63581E-02-3.48038E-03 2.01082E-01 3.05606E-14 4.34158E-13
 -1      1984 1.99811E+01-1.30573E-01 2.79340E-03 2.25471E-01 4.12123E-14 3.91399E-13
 -1      1985 1.95166E+01-8.57763E-02-2.08420E-03 4.38508E-01 7.05989E-15 4.96434E-13
 -1      1986 1.96703E+01-9.57138E-02-3.48933E-03 3.60764E-01 3.04570E-14 4.87940E-13
 -1      1987 1.98310E+01-1.31440E-01 3.81838E-03 4.20642E-01 2.09394E-14 3.94559E-13
 -1      1988 1.91582E+01-5.12266E-02-6.70933E-04 5.62381E-01-2.10658E-14 5.30483E-13
 -1      1989 1.93664E+01-7.17415E-02-2.64237E-03 5.01371E-01-6.44363E-15 5.28731E-13
 -1      1990 1.95834E+01-1.01629E-01 4.04230E-03 5.98275E-01-1.75430E-14 4.19416E-13
 -1      1991 1.87384E+01 7.16654E-03 8.47095E-04 6.05117E-01 5.53445E-14 5.00206E-13
 -1      1992 1.89761E+01-2.17187E-02-8.81276E-04 5.81606E-01-8.19657E-16 4.78589E-13
 -1      1993 1.92545E+01-3.68703E-02 3.07496E-03 7.08196E-01 3.00128E-14 3.53779E-13
 -1      1994 1.83275E+01 7.81590E-02 1.82357E-03 5.32620E-01 5.85695E-14 5.29221E-13
 -1      1995 1.85554E+01 4.77369E-02 1.61648E-03 5.62615E-01 3.30695E-14 4.94630E-13
 -1      1996 1.88898E+01 5.53160E-02 8.42318E-04 7.01070E-01 4.31359E-14 3.97025E-13
 -1      1997 1.80130E+01 1.41139E-01 1.90664E-03 3.38827E-01-1.27559E-14 5.38839E-13
 -1      1998 1.81847E+01 1.19116E-01 4.36526E-03 4.24991E-01 3.72050E-14 5.11700E-13
 -1      1999 1.85600E+01 1.53134E-01-2.07942E-03 5.48849E-01 2.99188E-14 3.88536E-13
 -1      2000 1.78742E+01 1.73895E-01 1.31952E-03 5.67719E-02 1.86622E-14 4.63678E-13
 -1      2001 1.79491E+01 1.69012E-01 6.61907E-03 1.83624E-01-1.76855E-15 5.09975E-13
 -1      2002 1.83443E+01 2.26024E-01-4.53791E-03 2.64226E-01-1.53098E-14 3.69581E-13
 -1      2003 1.79538E+01 1.63946E-01 7.21856E-04-2.47792E-01 9.03652E-14 4.10041E-13
 -1      2004 1.79103E+01 1.78875E-01 7.60659E-03-1.10347E-01 4.27913E-14 4.18974E-13
 -1      2005 1.83032E+01 2.47816E-01-5.43062E-03-9.43717E-02 1.17384E-13 4.26413E-13
 -1      2006 1.82401E+01 1.15815E-01 6.76290E-04-5.00720E-01 8.07275E-14 4.74896E-13
 -1      2007 1.80838E+01 1.45299E-01 6.90015E-03-3.85886E-01 1.24344E-13 4.74241E-13
 -1      2008 1.84539E+01 2.10396E-01-4.49653E-03-4.40438E-01 9.23762E-14 4.13264E-13
 -1      2009 1.86718E+01 4.82419E-02 1.24008E-03-6.48770E-01-8.22029E-14 3.38831E-13
 -1      2010 1.84334E+01 8.19471E-02 4.68269E-03-5.79844E-01-5.15126E-15 3.95982E-13
 -1      2011 1.87634E+01 1.28357E-01-2.46992E-03-6.93221E-01 4.80709E-14 3.27086E-13
 -1      2012 1.91622E+01-1.62907E-02 1.99597E-03-6.76656E-01 2.16519E-14 3.25927E-13
 -1      2013 1.88866E+01 1.15937E-02 1.67924E-03-6.60032E-01-3.85882E-14 3.24048E-13
 -1      2014 1.91625E+01 3.08368E-02-4.97532E-04-8.07995E-01-1.88610E-14 1.88848E-13
 -1      2015 1.96287E+01-6.18236E-02 2.48944E-03-6.04576E-01 4.76383E-14 2.07960E-13
 -1      2016 1.93607E+01-4.54319E-02-1.20309E-03-6.31358E-01 1.15524E-14 2.59399E-13
 -1      2017 1.95742E+01-5.31137E-02 7.09050E-04-7.86195E-01 3.45609E-14 1.86629E-13
 -1      2018 2.00141E+01-8.31469E-02 2.49856E-03-4.72075E-01 1.34986E-13 3.42595E-13
 -1      2019 1.97868E+01-7.87144E-02-3.28278E-03-5.25282E-01 9.44275E-14 3.36979E-13
 -1      2020 1.99365E+01-1.06125E-01 1.09253E-03-6.64025E-01 5.70624E-14 2.01802E-13
 -1      2021 2.02916E+01-8.37593E-02 2.08150E-03-3.20062E-01 8.26882E-14 2.59311E-13
 -1      2022 2.01226E+01-8.82687E-02-4.30731E-03-3.82279E-01 1.01040E-13 2.91632E-13
 -1      2023 2.02140E+01-1.25373E-01 9.52907E-04-4.91005E-01 1.31012E-13 2.08845E-13
 -1      2024 2.04610E+01-7.11866E-02 1.45523E-03-1.79230E-01-1.47731E-13 3.30725E-13
 -1      2025 2.03529E+01-8.05135E-02-4.38636E-03-2.37412E-01-8.25607E-14 2.48206E-13
 -1      2026 2.03970E+01-1.18249E-01 6.33999E-04-3.11445E-01-3.60064E-14 2.31384E-13
 -1      2027 2.05382E+01-5.29664E-02 8.29484E-04-6.65153E-02 6.67153E-15 4.64142E-13
 -1      2028 2.04836E+01-6.35655E-02-3.81975E-03-1.13408E-01-7.03569E-14 4.47446E-13
 -1      2029 2.04938E+01-9.59166E-02 3.40748E-04-1.55006E-01-1.13859E-13 4.11833E-13
 -1      2030 2.05462E+01-3.45758E-02 3.32879E-04 1.29254E-02 5.18507E-14 4.98530E-13
 -1      2031 2.05330E+01-4.41613E-02-2.93642E-03-2.03634E-02 3.36398E-14 4.64493E-13
 -1      2032 2.05219E+01-6.84145E-02 1.36915E-04-3.56813E-02 5.71210E-14 4.19401E-13
 -1      2033 2.05084E+01-1.90517E-02 7.50036E-06 6.15919E-02 3.52366E-15 5.28134E-13
 -1      2034 2.05233E+01-2.65535E-02-1.99649E-03 4.09987E-02 5.92286E-14 5.15227E-13
 -1      2035 2.05015E+01-4.25036E-02 1.46578E-05 4.45103E-02 7.60952E-14 5.31053E-13
 -1      2036 2.04448E+01-7.49562E-03-1.63524E-04 8.56885E-02-1.61510E-13 5.40097E-13
 -1      2037 2.04761E+01-1.27060E-02-1.16248E-03 7.53030E-02-1.10457E-13 4.89521E-13
 -1      2038 2.04512E+01-2.15881E-02-5.50357E-05 9.06161E-02-7.74974E-14 4.53102E-13
 -1      2039 2.03706E+01 1.92401E-04-2.21979E-04 9.23074E-02-2.13918E-14 6.80587E-13
 -1      2040 2.04093E+01-2.99833E-03-5.09613E-04 8.92361E-02-3.93446E-14 6.43072E-13
 -1      2041 2.03860E+01-6.59694E-03-9.67005E-05 1.10619E-01-1.11883E-13 5.60276E-13
 -1      2042 2.02961E+01 4.68993E-03-2.11716E-04 8.78370E-02 1.35323E-14 5.51433E-13
 -1      2043 2.03359E+01 3.05699E-03-5.11146E-05 8.94495E-02 1.25800E-14 6.57703E-13
 -1      2044 2.03166E+01 2.97824E-03-1.23965E-04 1.12722E-01 4.19945E-14 6.70178E-13
 -1      2045 2.02278E+01 6.83783E-03-1.67753E-04 7.72979E-02-1.28285E-13 4.55078E-13
 -1      2046 2.02647E+01 6.28674E-03 2.35246E-04 8.15120E-02-5.20348E-14 4.51158E-13
 -1      2047 2.02503E+01 8.26552E-03-1.42230E-04 1.03940E-01 2.74153E-14 5.05892E-13
 -1      2048 2.01688E+01 7.41532E-03-1.13652E-04 6.42509E-02-2.96677E-14 4.45018E-13
 -1      2049 2.02008E+01 7.54144E-03 3.86652E-04 6.95790E-02-1.47776E-13 4.84219E-13
 -1      2050 2.01910E+01 1.05002E-02-1.52909E-04 8.95972E-02-1.32911E-13 3.69593E-13
 -1      2051 2.01202E+01 7.04702E-03-6.29003E-05 5.09896E-02 5.30948E-14 6.35646E-13
 -1      2052 2.01466E+01 7.54425E-03 4.42148E-04 5.64649E-02-6.27680E-15 4.93014E-13
 -1      2053 2.01408E+01 1.07651E-02-1.56293E-04 7.33640E-02 7.95550E-15 3.63847E-13
 -1      2054 2.00817E+01 6.18643E-03-2.17329E-05 3.88312E-02 8.16748E-14 6.25660E-13
 -1      2055 2.01026E+01 6.84337E-03 4.35793E-04 4.38913E-02 8.26797E-14 6.90265E-13
 -1      2056 2.01000E+01 9.89683E-03-1.52950E-04 5.75331E-02 2.85315E-14 4.50771E-13
 -1      2057 2.00524E+01 5.13648E-03 8.19206E-06 2.84059E-02 3.48822E-13 4.38228E-13
 -1      2058 2.00682E+01 5.81932E-03 3.94086E-04 3.27749E-02 1.72478E-13 5.78361E-13
 -1      2059 2.00679E+01 8.48465E-03-1.44023E-04 4.33651E-02 2.04045E-13 4.99409E-13
 -1      2060 2.00309E+01 4.08274E-03 2.76991E-05 1.98980E-02 5.72854E-15 3.63001E-13
 -1      2061 2.00424E+01 4.71526E-03 3.35904E-04 2.34877E-02 2.14908E-13 4.51483E-13
 -1      2062 2.00436E+01 6.91029E-03-1.31050E-04 3.14097E-02 2.53999E-13 5.79354E-13
 -1      2063 2.00157E+01 3.12680E-03 3.86968E-05 1.32284E-02-3.28611E-13 3.29643E-13
 -1      2064 2.00237E+01 3.67226E-03 2.73616E-04 1.60627E-02-2.17067E-13 3.26451E-13
 -1      2065 2.00258E+01 5.39880E-03-1.15668E-04 2.17658E-02-1.70937E-13 5.27998E-13
 -1      2066 2.00054E+01 2.31414E-03 4.33418E-05 8.18151E-03 1.31469E-13 2.34516E-13
 -1      2067 2.00107E+01 2.76101E-03 2.14590E-04 1.03437E-02-1.28180E-13 2.65031E-13
 -1      2068 2.00132E+01 4.06600E-03-9.93580E-05 1.42740E-02-1.37636E-13 1.69292E-13
 -1      2069 1.99989E+01 1.65531E-03 4.35967E-05 4.48886E-03-5.55919E-14 2.40629E-13
 -1      2070 2.00022E+01 2.00688E-03 1.62628E-04 6.08635E-03 5.43342E-15 1.36206E-13
 -1      2071 2.00048E+01 2.95674E-03-8.32926E-05 8.64835E-03 5.78842E-14 1.24218E-13
 -1      2072 1.99952E+01 1.14087E-03 4.10355E-05 1.87931E-03 1.05323E-13 3.32710E-13
 -1      2073 1.99970E+01 1.40817E-03 1.19162E-04 3.02241E-03 9.98508E-14 2.89962E-13
 -1      2074 1.99994E+01 2.07304E-03-6.82938E-05 4.56143E-03-1.70885E-14 6.25312E-14
 -1      2075 1.99934E+01 7.51143E-04 3.67874E-05 1.07080E-04 3.63698E-13 2.93149E-13
 -1      2076 1.99942E+01 9.48489E-04 8.41545E-05 8.96746E-04 1.59368E-13 3.43259E-13
 -1      2077 1.99964E+01 1.39336E-03-5.48519E-05 1.69511E-03 1.05545E-13 3.32381E-13
 -1      2078 1.99931E+01 4.62178E-04 3.15514E-05-1.03467E-03 2.18528E-13 1.51080E-13
 -1      2079 1.99931E+01 6.04592E-04 5.67374E-05-5.12938E-04 2.39523E-13 3.51335E-13
 -1      2080 1.99949E+01 8.84942E-04-4.31828E-05-2.32166E-04 2.02507E-13 3.49066E-13
 -1      2081 1.99936E+01 2.48878E-04 2.56601E-05-1.70882E-03 2.96971E-13-3.45295E-14
 -1      2082 1.99932E+01 3.50831E-04 3.56419E-05-1.38755E-03 1.95223E-13 1.22625E-13
 -1      2083 1.99946E+01 5.10967E-04-3.32897E-05-1.45266E-03 2.78331E-13 1.94662E-13
 -1      2084 1.99947E+01 8.61187E-05 1.92080E-05-2.03356E-03-6.75272E-14-2.55609E-14
 -1      2085 1.99939E+01 1.61234E-04 1.95107E-05-1.86416E-03 2.02700E-13 2.94956E-14
 -1      2086 1.99951E+01 2.34042E-04-2.49987E-05-2.14518E-03 1.95697E-13 2.22601E-13
 -1      2087 1.99960E+01-5.12464E-05 1.26007E-05-2.08302E-03-1.09875E-13-1.01224E-13
 -1      2088 1.99951E+01 9.81888E-06 7.25602E-06-2.03636E-03-2.67421E-13-1.33081E-13
 -1      2089 1.99959E+01 1.71038E-05-1.78957E-05-2.43528E-03-1.37352E-13 1.70823E-13
 -1      2090 1.99973E+01-1.87685E-04 6.63168E-06-1.88925E-03 1.63536E-13-1.28887E-13
 -1      2091 1.99965E+01-1.28727E-04-1.36283E-06-1.95568E-03 1.37360E-13-1.74397E-14
 -1      2092 1.99969E+01-1.75626E-04-1.09561E-05-2.39635E-03 4.51882E-14 2.78643E-14
 -1      2093 1.99984E+01-3.46461E-04-4.35488E-07-1.44666E-03 1.60110E-14-6.03258E-14
 -1      2094 1.99978E+01-2.76294E-04-5.06521E-06-1.63952E-03 2.70700E-14-1.32965E-13
 -1      2095 1.99980E+01-3.78722E-04-4.47742E-06-2.06351E-03 6.86506E-14-3.23700E-14
 -1      2096 1.99992E+01-4.96112E-04-8.62484E-06-9.42936E-04 1.01820E-14 6.40640E-14
 -1      2097 1.99987E+01-4.22803E-04-5.82492E-06-1.25138E-03 5.14313E-14 3.24700E-14
 -1      2098 1.99988E+01-5.71114E-04 2.96720E-06-1.60547E-03-5.47002E-14 1.83850E-13
 -1      2099 1.99993E+01-7.67345E-04 3.77763E-06-1.14450E-03 1.14780E-14 2.33728E-13
 -1      2100 1.99999E+01-3.53267E-03 3.54465E-06-1.91149E-03-3.14270E-14-4.12210E-13
 -1      2101 1.99998E+01-2.92332E-03-1.51788E-06-1.95498E-03 6.01432E-15 3.02443E-15
 -1      2102 1.99997E+01-2.51011E-03 1.01999E-06-1.94582E-03 1.05128E-13 1.57640E-13
 -1      2103 1.99996E+01-1.91701E-03-7.96222E-06-1.85066E-03 9.08798E-14 2.35722E-13
 -1      2104 1.99998E+01-2.29831E-03-3.34405E-06-2.40275E-03 7.44540E-14-8.55795E-15
 -1      2105 1.99995E+01-1.61312E-03-8.53863E-07-1.67706E-03 3.97384E-14 1.77895E-13
 -1      2106 1.99994E+01-1.09853E-03-1.04300E-05-1.42660E-03 1.42228E-14 1.54208E-13
 -1      2107 1.99992E+01-1.00480E-03-8.76705E-06-1.69683E-03-3.34165E-14 2.25131E-13
 -1      2108 1.99994E+01-1.60984E-03-2.86254E-06-2.19541E-03-1.20679E-14 1.99681E-13
 -1      2109 2.00001E+01-4.43384E-03 7.18496E-06-1.65882E-03-4.80553E-13-8.88342E-13
 -1      2110 2.00000E+01-3.89042E-03 7.43435E-06-1.79173E-03-2.94166E-13-7.53339E-13
 -1      2111 2.00000E+01-3.06472E-03-4.94704E-06-2.27268E-03-2.39014E-13-7.33423E-13
 -1      2112 2.00002E+01-5.17054E-03 1.09828E-05-1.25450E-03-4.99117E-13-2.91728E-13
 -1      2113 2.00001E+01-4.73281E-03 1.30313E-05-1.44834E-03-4.51057E-13-2.93004E-13
 -1      2114 2.00002E+01-3.72610E-03-6.85304E-06-1.90586E-03-3.08752E-13-5.85903E-13
 -1      2115 2.00002E+01-5.66976E-03 1.43675E-05-7.58448E-04-3.67158E-13 8.65000E-14
 -1      2116 2.00002E+01-5.38508E-03 1.61707E-05-9.87522E-04-4.68116E-13-5.02852E-15
 -1      2117 2.00004E+01-4.24458E-03-8.33267E-06-1.37639E-03-4.47789E-13-1.06022E-13
 -1      2118 2.00002E+01-5.89829E-03 1.70282E-05-2.10895E-04-2.17278E-13 2.63138E-13
 -1      2119 2.00002E+01-5.78944E-03 1.70532E-05-4.58828E-04-3.94800E-13 1.49217E-13
 -1      2120 2.00004E+01-4.58285E-03-9.14314E-06-7.48963E-04-3.19474E-13 2.28557E-13
 -1      2121 2.00002E+01-5.83915E-03 1.84478E-05 3.57828E-04-3.10055E-13-1.69567E-13
 -1      2122 2.00002E+01-5.91613E-03 1.63106E-05 1.04115E-04-1.82889E-13 1.36483E-13
 -1      2123 2.00005E+01-4.72177E-03-9.65978E-06-6.85189E-05-4.45933E-13 1.91936E-13
 -1      2124 2.00002E+01-5.49133E-03 1.79206E-05 9.16784E-04-3.09717E-13-8.17365E-13
 -1      2125 2.00002E+01-5.75147E-03 1.43740E-05 6.71964E-04-3.18402E-13-3.20998E-13
 -1      2126 2.00005E+01-4.65030E-03-9.89247E-06 6.28336E-04-4.91373E-13-3.67182E-13
 -1      2127 2.00002E+01-4.88508E-03 1.44696E-05 1.41613E-03-2.22835E-13-7.03315E-13
 -1      2128 2.00002E+01-5.30285E-03 1.16980E-05 1.20440E-03-2.20285E-13-9.14453E-13
 -1      2129 2.00004E+01-4.36882E-03-9.74912E-06 1.29530E-03-2.30347E-13-7.95870E-13
 -1      2130 2.00000E+01-4.04190E-03 8.07756E-06 1.81301E-03-1.27633E-13 5.99202E-13
 -1      2131 2.00001E+01-4.59527E-03 8.50215E-06 1.65673E-03-2.44133E-13 1.43877E-13
 -1      2132 2.00003E+01-3.88556E-03-8.83704E-06 1.88196E-03-1.68643E-13-2.94187E-13
 -1      2133 1.99998E+01-3.04549E-03-1.67173E-06 2.01654E-03-3.25355E-14 4.94557E-13
 -1      2134 2.00000E+01-3.66992E-03 4.95458E-06 1.95950E-03-1.78357E-13 4.09138E-13
 -1      2135 2.00001E+01-3.22003E-03-6.61940E-06 2.31334E-03-3.25519E-14 5.56846E-13
 -1      2136 1.99996E+01-1.99714E-03-1.50504E-05 1.93933E-03-2.69764E-13 1.51259E-13
 -1      2137 1.99997E+01-2.62070E-03 2.26022E-06 2.01526E-03-1.43439E-13 4.46791E-13
 -1      2138 1.99998E+01-2.42218E-03-4.15529E-06 2.47954E-03-3.46140E-13 4.39601E-13
 -1      2139 2.00799E+01-2.39698E+00 2.76416E-02 7.79289E+00 2.79998E-13 4.54359E-13
 -1      2140 1.54308E+01-4.47644E+00-2.92079E-01 7.02994E+00 1.07248E-13 5.71071E-13
 -1      2141 1.63802E+01-5.40383E+00-7.53656E-02 7.73600E+00-1.58762E-14 4.66543E-13
 -1      2142 1.99992E+01-6.07315E-04 8.52276E-07 9.34401E-04 4.18953E-14-5.29091E-14
 -1      2143 2.17738E+01 1.76936E+00 7.78826E-02-2.15947E+00-8.37524E-15-1.76942E-13
 -1      2144 6.24139E-01-6.28062E+00-2.24978E-01 2.24326E+00 1.24983E-13-3.15303E-14
 -1      2145 8.32644E-02-7.55770E+00-4.11173E-01 5.01306E-01 1.82420E-13 1.37446E-13
 -1      2146 1.95205E+01 4.11848E+00-2.69238E-02-1.46690E+00 9.47888E-14-1.01041E-13
 -1      2147 1.97127E+01 4.03541E+00-2.18862E-02-1.70751E+00 8.27246E-14-1.03719E-13
 -1      2148 2.00597E+01 3.35817E+00-6.23300E-03-1.63635E+00 7.19654E-14-1.05041E-13
 -1      2149 1.96441E+01 3.74236E+00-7.28997E-03-1.28032E+00 1.01964E-13-8.76972E-14
 -1      2150 2.93234E+01 3.18388E-01 1.15384E-01 6.42701E+00 4.14502E-13 4.64295E-13
 -1      2151 2.42330E+01-1.31980E+00-1.21569E-01 6.57203E+00 4.45977E-13 4.12448E-13
 -1      2152 3.66648E+01 3.79789E+00 2.74421E-01 4.01499E+00 4.48308E-13 3.12750E-13
 -1      2153 3.24459E+01 2.13083E+00 8.44900E-03 4.44387E+00 4.39371E-13 4.05787E-13
 -1      2154 4.06216E+01 6.66853E+00 2.74979E-01 1.75422E+00 5.36460E-13 2.61846E-13
 -1      2155 3.82915E+01 5.64262E+00 1.67203E-01 3.06819E+00 5.42622E-13 2.90656E-13
 -1      2156 4.16110E+01 7.78121E+00 2.86789E-01-2.75327E-01 4.98379E-13 5.66075E-14
 -1      2157 4.03705E+01 7.77014E+00 1.64518E-01 9.19608E-01 5.16864E-13 1.73778E-13
 -1      2158 3.98220E+01 6.98928E+00 1.78152E-01-1.84324E+00 2.28595E-13-7.35523E-14
 -1      2159 4.17588E+01 7.40054E+00 2.89765E-01-6.76673E-01 4.02678E-13 4.77396E-14
 -1      2160 3.66628E+01 8.88450E+00 2.94334E-01 9.21773E-02 4.66627E-13 2.04031E-13
 -1      2161 3.57262E+01 3.97404E+00 1.23775E-01-4.00596E+00 3.69704E-14-2.50688E-13
 -1      2162 3.89544E+01 5.21225E+00 2.69210E-01-2.90252E+00 4.29934E-14-1.97620E-13
 -1      2163 2.88968E+01 7.65884E-01-2.84716E-02-6.00512E+00 1.39999E-13-1.39888E-13
 -1      2164 3.37673E+01 2.49901E+00 2.90325E-01-5.78559E+00 9.49241E-14-2.05724E-13
 -1      2165 2.18755E+01-3.38150E+00-5.70482E-02-6.68129E+00-4.73510E-14-1.52434E-13
 -1      2166 2.64036E+01-8.57007E-01 2.38658E-01-6.99497E+00 6.50591E-14-1.30285E-13
 -1      2167 1.16863E+01-6.01527E+00-2.80122E-01-6.87060E+00-1.56930E-13-3.22291E-13
 -1      2168 1.65407E+01-4.53997E+00-1.19260E-01-7.68088E+00-1.15075E-13-3.94351E-13
 -1      2169 3.94683E+00-7.34598E+00-3.78282E-01-4.99414E+00-1.53655E-13-1.21708E-13
 -1      2170 7.32386E+00-5.61195E+00-1.18892E-01-6.65876E+00-1.44884E-13-1.51962E-13
 -1      2171 6.35616E-01-6.79698E+00-2.42516E-01-2.15089E+00-1.49339E-13-1.28064E-13
 -1      2172 1.74365E+00-6.93237E+00-2.95773E-01-3.73697E+00-1.23401E-13-1.52656E-13
 -1      2173 4.68748E+00-4.68840E+00-7.73355E-02-5.36507E+00-1.19793E-13-1.56986E-13
 -1      2174 1.07874E+00-7.90419E+00-4.18611E-01 1.87414E+00-2.05502E-13-6.11178E-14
 -1      2175 2.74957E-02-7.52524E+00-3.69843E-01 2.70861E-01-1.42830E-13-9.72555E-14
 -1      2176 6.49267E+00-7.21540E+00-3.63454E-01 4.68705E+00-1.52434E-13-9.33420E-14
 -1      2177 3.46529E+00-8.18472E+00-4.94699E-01 3.35723E+00-1.64369E-13-2.83107E-14
 -1      2178 1.58529E+01-5.92400E+00-2.48566E-01 6.22946E+00-7.72715E-14-1.73028E-13
 -1      2179 1.03783E+01-7.52221E+00-5.48888E-01 4.99179E+00-1.52878E-13-1.08406E-13
 -1      2180 2.81623E+01-4.52921E+00-2.86612E-02 4.58238E+00-1.05027E-13 1.07636E-13
 -1      2181 2.20551E+01-5.95592E+00-2.76842E-01 4.80427E+00-2.22045E-16-9.85323E-14
 -1      2182 3.82284E+01 2.65849E-01 3.73766E-01 2.60886E+00-3.62904E-13 2.27152E-13
 -1      2183 3.22898E+01-2.11864E+00-1.13059E-01 2.48413E+00-3.33511E-13 1.29452E-13
 -1      2184 4.39181E+01 4.02049E+00 5.02701E-01 5.67927E-01-1.43330E-13 1.70308E-13
 -1      2185 4.00735E+01 2.35358E+00 2.12799E-01 1.40480E+00-2.92960E-13 1.60205E-13
 -1      2186 4.15573E+01 6.13248E+00 1.67546E-01-8.59877E-01-1.44329E-13 1.13742E-13
 -1      2187 4.23016E+01 5.28146E+00 3.81508E-01-6.94992E-01-1.20126E-13 5.67324E-14
 -1      2188 4.50115E+01 6.17809E+00 6.42813E-01 2.06423E-01-2.42806E-13 2.51854E-13
 -1      2189 4.42951E+01 6.93913E+00 4.56141E-01 6.59002E-01-8.99281E-14 1.82715E-13
 -1      2190 4.07879E+01 2.63725E+00 2.63107E-01-7.84987E-01-4.61381E-13 2.69340E-13
 -1      2191 4.40352E+01 4.33573E+00 5.20990E-01-3.65269E-02-4.01845E-13 2.25597E-13
 -1      2192 2.20451E+01-5.58014E+00-3.90571E-01-4.83375E+00-1.56430E-13 4.14668E-13
 -1      2193 2.83730E+01-3.94254E+00-1.07188E-01-4.39770E+00-1.06470E-13 3.96572E-13
 -1      2194 1.23192E+01-7.23218E+00-4.65704E-01-5.17176E+00-1.66533E-15 4.98525E-13
 -1      2195 1.74954E+01-5.73905E+00-1.75638E-01-6.04900E+00-1.41664E-13 5.34045E-13
 -1      2196 4.29105E+00-8.30157E+00-5.58193E-01-3.49655E+00 5.93414E-14 5.04374E-13
 -1      2197 7.62102E+00-6.92467E+00-3.22723E-01-4.93058E+00-5.88418E-15 5.10425E-13
 -1      2198 4.36635E-01-8.26853E+00-4.63800E-01-1.10037E+00 1.60760E-13 2.75835E-13
 -1      2199 1.81363E+00-8.09182E+00-4.52543E-01-2.35931E+00 6.92779E-14 3.79197E-13
 -1      2200 4.77205E+00-6.21499E+00-2.47657E-01 5.79493E+00 2.97928E-13 1.68948E-13
 -1      2201 2.37640E+00-6.77809E+00-2.85580E-01 4.47022E+00 2.41029E-13 2.22045E-15
 -1      2202 1.99991E+01-8.26842E-04-6.20866E-06 1.43019E-03 1.12502E-14-3.14611E-13
 -1      2203 1.52154E+00-4.97829E+00-1.88888E-01-6.83813E-01 8.35582E-14 2.39309E-13
 -1      2204 3.34189E+01-2.16526E+00-7.21663E-02-3.11149E+00-2.14745E-13 6.81399E-14
 -1      2205 3.25331E+01-7.19295E-01-1.54499E-01-4.25851E+00-1.65534E-13-1.27356E-13
 -1      2206 3.59084E+01 5.50047E+00 4.15324E-03-1.91356E-01-2.08777E-13-1.02293E-13
 -1      2207 8.94737E+00-5.36185E+00-6.40550E-02 7.25693E+00 1.19793E-13 1.88793E-13
 -1      2208 2.10612E+01 1.13469E+00-2.07833E-02-1.41605E+00-1.44225E-14-1.78548E-13
 -1      2209 2.09338E+01 1.38722E+00-2.01603E-02-1.41527E+00-4.50161E-15-1.31135E-13
 -1      2210 2.40636E+01-3.68985E+00 6.63682E-02 6.39349E+00 1.85740E-13 4.12725E-13
 -1      2211 3.19490E+01 9.59060E-01-1.41838E-01-4.11152E+00-1.76026E-13-2.37130E-13
 -1      2212 3.55906E+01 2.51133E+00-3.55330E-02-3.66115E+00-2.13440E-13-1.61149E-13
 -1      2213 3.55231E+01 3.36803E+00-3.12393E-02 3.36901E+00-3.10474E-13-1.16351E-13
 -1      2214 3.64307E+01 6.38018E+00 2.59563E-01-2.68596E-01 1.41775E-13 8.37108E-14
 -1      2215 3.69065E+01 7.89784E+00 2.56036E-01 1.46624E-01 5.68823E-13 1.05499E-13
 -1      2216 1.99993E+01-1.35618E-03 1.22427E-06 1.70236E-03-9.73131E-14-2.52511E-13
 -1      2217 2.54201E+00-5.14145E+00-1.16471E-01 3.64154E+00 1.40943E-13 1.09801E-13
 -1      2218 3.08654E+00-2.68144E+00 1.12432E-01 2.74339E+00 9.08995E-15 1.26565E-13
 -1      2219 4.55190E+00-3.51371E+00-5.40867E-02 5.12778E+00 1.28536E-13 4.76841E-14
 -1      2220 4.83846E+00-6.12341E+00-2.48435E-01-4.12165E+00 5.11813E-14 4.77118E-13
 -1      2221 1.27292E+01-6.56816E+00-1.34686E-01-5.98792E+00 5.37903E-14 5.06789E-13
 -1      2222 2.27912E+01-6.51977E+00 6.21579E-03-5.05625E+00 5.21805E-15 4.50556E-13
 -1      2223 4.03301E+01 5.33726E+00 4.89306E-01 2.08917E+00-3.01814E-13-1.77636E-15
 -1      2224 3.78793E+01 3.59031E-01 2.35086E-01-1.09313E+00-3.19411E-13 1.20237E-13
 -1      2225 3.14544E+01-4.69847E+00-2.20879E-02 1.57539E+00-1.42164E-13 1.69087E-13
 -1      2226 2.16743E+01-6.42477E+00 2.84826E-02 5.42432E+00 2.17049E-14-1.34753E-14
 -1      2227 1.10856E+01-6.53938E+00-1.65664E-01 5.96873E+00-2.57572E-14-5.08482E-14
 -1      2228 1.60282E+00-4.75107E+00-1.38087E-01-1.05038E+00-8.98864E-14-1.34059E-13
 -1      2229 1.15293E+01-5.47240E+00-1.36787E-02-7.54439E+00-1.49658E-13-2.95777E-13
 -1      2230 2.07952E+01-4.52364E+00 3.61322E-02-6.96091E+00-1.03195E-13-1.84242E-13
 -1      2231 2.41762E+01-5.10644E+00-2.04524E-01-5.87056E+00-1.33504E-13-5.46785E-14
 -1      2232 2.00198E+01-5.27511E+00 1.71118E-01-7.26715E+00-1.78635E-13-2.05839E-13
 -1      2233 2.89103E+01-1.95120E+00 6.26780E-02-4.50492E+00-2.81164E-14-1.34892E-14
 -1      2234 3.13012E+01-1.03761E-01 1.66470E-01 3.46580E+00 3.36800E-13 2.79166E-13
 -1      2235 3.53819E+01 4.33593E+00 2.06297E-01 9.35925E-01 4.43062E-13 1.51879E-13
 -1      2236 1.99992E+01-1.37485E-03-2.27277E-06 2.25506E-03-1.90356E-13 4.22694E-14
 -1      2237 3.39695E+01 2.24390E+00 2.47539E-01-2.34477E+00-7.61891E-15-1.28564E-13
 -1      2238 3.92978E+00-5.83938E+00-2.21208E-01 3.61295E+00-8.70970E-14-1.50435E-14
 -1      2239 3.12399E+01-4.74170E+00 1.99080E-01-1.50494E+00-3.25295E-14 3.16080E-13
 -1      2240 3.27802E+01-3.05691E+00 8.90720E-02-1.90497E+00-8.01581E-14 3.28071E-13
 -1      2241 3.35711E+01-1.86946E+00-3.90297E-02-1.73903E+00-1.58651E-13 3.37508E-13
 -1      2242 3.90517E+01 5.49965E-01 3.90672E-01-1.71214E+00-3.04187E-13 3.33955E-13
 -1      2243 3.47296E+01-3.22186E+00-8.85016E-02 8.61830E-01-5.08066E-14 2.48579E-13
 -1      2244 3.78889E+01 7.82882E-01 2.36358E-01 2.04466E+00-3.05589E-13 7.36078E-14
 -1      2245 1.92478E+01 3.77919E+00-1.04814E-02-5.22831E-01 1.26839E-13 9.93997E-15
 -1      2246 1.93128E+01 3.73227E+00-1.00363E-02-6.63275E-01 1.17620E-13-7.56253E-15
 -1      2247 1.94024E+01 3.63563E+00-1.32216E-02-7.75045E-01 1.12306E-13-3.08902E-14
 -1      2248 1.95195E+01 3.54383E+00-1.18743E-02-9.24705E-01 1.00445E-13-5.81566E-14
 -1      2249 1.94900E+01 3.34931E+00 2.62369E-03-6.46713E-01 1.19132E-13-1.97962E-14
 -1      2250 1.92156E+01 3.80652E+00-7.60340E-03-7.06549E-03 1.42795E-13 9.55963E-14
 -1      2251 1.91927E+01 3.82108E+00-9.88807E-03-1.51955E-01 1.42264E-13 7.28367E-14
 -1      2252 1.93106E+01 3.71920E+00-7.61960E-03 2.79648E-01 1.43577E-13 1.15304E-13
 -1      2253 1.92543E+01 3.75842E+00-1.04830E-02 1.23921E-01 1.38726E-13 1.03979E-13
 -1      2254 1.93701E+01 3.44808E+00-3.10847E-04 2.51437E-02 1.33243E-13 8.83152E-14
 -1      2255 1.94615E+01 3.57413E+00-8.72949E-03 5.87337E-01 1.42926E-13 1.33391E-13
 -1      2256 1.93782E+01 3.63758E+00-1.15323E-02 4.21002E-01 1.44531E-13 1.23776E-13
 -1      2257 1.94895E+01 3.32479E+00-5.58958E-04 2.89703E-01 1.28166E-13 1.15128E-13
 -1      2258 1.96706E+01 3.35602E+00-1.14862E-02 9.24112E-01 1.42434E-13 2.00685E-13
 -1      2259 1.95579E+01 3.45438E+00-1.31848E-02 7.41437E-01 1.49965E-13 1.59582E-13
 -1      2260 1.96671E+01 3.13378E+00-2.52216E-04 5.76391E-01 1.38225E-13 1.45455E-13
 -1      2261 1.99444E+01 3.03476E+00-1.72602E-02 1.27118E+00 1.15518E-13 2.46885E-13
 -1      2262 1.97982E+01 3.18814E+00-1.55624E-02 1.08035E+00 1.29949E-13 2.10963E-13
 -1      2263 1.99017E+01 2.85990E+00 1.19160E-03 8.74387E-01 1.26812E-13 1.98917E-13
 -1      2264 2.03047E+01 2.54429E+00-2.71689E-02 1.58430E+00 8.26954E-14 3.04349E-13
 -1      2265 2.01147E+01 2.79862E+00-1.74538E-02 1.40926E+00 1.02447E-13 2.68254E-13
 -1      2266 2.01942E+01 2.47176E+00 4.35379E-03 1.14864E+00 9.82643E-14 2.44946E-13
 -1      2267 2.07798E+01 1.78115E+00-2.76212E-02 1.71222E+00 2.73202E-14 3.90927E-13
 -1      2268 2.05311E+01 2.22190E+00-1.14203E-02 1.65936E+00 5.91567E-14 3.48528E-13
 -1      2269 2.05348E+01 1.91121E+00 9.21479E-03 1.32183E+00 5.88648E-14 3.10633E-13
 -1      2270 2.10130E+01 1.05569E+00-1.82485E-02 1.44065E+00 1.65007E-14 4.47859E-13
 -1      2271 2.08901E+01 1.52931E+00 2.21984E-03 1.62722E+00 2.47996E-14 4.18790E-13
 -1      2272 2.07276E+01 1.27155E+00 2.82322E-03 1.24216E+00 1.93612E-14 3.89303E-13
 -1      2273 2.06983E+01 7.33427E-01-2.83186E-03 9.56690E-01 4.28303E-15 4.41002E-13
 -1      2274 2.07273E+01 9.98181E-01 1.20965E-02-6.62383E-01 1.30104E-15-9.44223E-14
 -1      2275 2.05849E+01 8.00651E-01 1.24233E-03-2.95141E-01 3.97252E-16-9.12259E-14
 -1      2276 2.63365E+01-3.84241E+00-6.77885E-02 5.20742E+00 1.49714E-13 2.48968E-13
 -1      2277 2.26739E+01-4.88502E+00-5.36908E-03 6.25501E+00 4.44089E-16 3.63404E-13
 -1      2278 1.21845E+01-4.46087E+00 2.49631E-02 7.82907E+00 2.36755E-14 2.31343E-13
 -1      2279 8.50146E+00-4.01626E+00 1.14219E-01 6.76442E+00 1.43385E-13 6.21725E-15
 -1      2280 2.05348E+01 6.71909E-01 1.41788E-02-6.34115E-03 4.37757E-15-7.65325E-14
 -1      2281 2.04844E+01 5.90007E-01 6.93274E-03 2.47749E-01 5.43792E-15-8.29835E-14
 -1      2282 2.05182E+01 9.95610E-01-2.50839E-03-2.18239E-01 1.51218E-14-6.36739E-14
 -1      2283 2.04371E+01 5.47915E-01 8.56968E-03 4.72710E-01 1.37709E-14-8.00777E-14
 -1      2284 2.04712E+01 5.31180E-01 9.19031E-03 6.72925E-01 3.19913E-14-8.63435E-14
 -1      2285 2.04045E+01 7.69400E-01-3.21925E-03 3.28868E-01 1.15461E-14-3.27503E-14
 -1      2286 2.04309E+01 5.34434E-01 2.92471E-03 8.88536E-01 2.61204E-14-7.17910E-14
 -1      2287 2.05397E+01 5.62575E-01 1.15843E-02 1.09404E+00 2.57416E-14-6.38339E-14
 -1      2288 2.03221E+01 7.15635E-01-1.47532E-03 7.94131E-01 3.15943E-14-4.97545E-14
 -1      2289 2.04981E+01 6.00655E-01-1.54391E-03 1.31372E+00 2.70543E-14-6.08413E-14
 -1      2290 2.06699E+01 6.59819E-01 1.38298E-02 1.53902E+00 3.82632E-14-4.95825E-14
 -1      2291 2.02596E+01 7.72279E-01 1.21897E-03 1.24653E+00 1.48800E-14-3.93493E-14
 -1      2292 2.06101E+01 7.17606E-01-5.45247E-03 1.78446E+00 1.88989E-14-4.53784E-14
 -1      2293 2.08371E+01 7.88441E-01 1.58074E-02 2.04264E+00 3.15060E-14-3.39769E-14
 -1      2294 2.01881E+01 9.05694E-01 4.70631E-03 1.72153E+00 3.02432E-14-2.41350E-14
 -1      2295 2.07453E+01 8.38408E-01-8.05606E-03 2.32785E+00 5.81978E-14-6.98225E-14
 -1      2296 2.10285E+01 8.77369E-01 1.76558E-02 2.61315E+00 6.15406E-14-4.98510E-14
 -1      2297 2.00712E+01 1.06247E+00 8.25218E-03 2.25371E+00 2.26787E-14-4.83470E-14
 -1      2298 2.09138E+01 8.56123E-01-6.41452E-03 2.94162E+00 3.84153E-14-4.31352E-14
 -1      2299 2.12748E+01 7.70140E-01 2.11310E-02 3.21420E+00 4.23238E-14-5.48301E-14
 -1      2300 1.98887E+01 1.13281E+00 1.05886E-02 2.86231E+00 5.53699E-14-2.27698E-14
 -1      2301 2.12078E+01 5.64238E-01 5.62523E-03 3.55545E+00 3.63342E-14-4.67478E-14
 -1      2302 2.17049E+01 2.08681E-01 2.63219E-02 3.71043E+00 2.05964E-14-3.30829E-14
 -1      2303 1.96915E+01 9.05150E-01 1.03032E-02 3.52649E+00 3.13720E-14-2.17326E-14
 -1      2304 2.19092E+01-3.66224E-01 5.04796E-02 4.01968E+00 4.46631E-14-4.05734E-14
 -1      2305 2.27476E+01-1.24376E+00 4.61189E-02 3.90933E+00 5.48554E-14-2.59584E-14
 -1      2306 1.96794E+01-1.91650E-02-5.21626E-03 4.23820E+00 4.55261E-14 3.66200E-14
 -1      2307 2.36499E+01-2.40891E+00 1.08204E-01 3.94777E+00 3.85594E-14-1.98418E-14
 -1      2308 2.51246E+01-3.70866E+00 5.03555E-02 3.27342E+00 5.15560E-14-3.74700E-15
 -1      2309 2.04223E+01-2.10607E+00-3.90688E-02 4.83669E+00 5.95080E-14 4.31460E-14
 -1      2310 2.92555E+00-2.60990E+00 1.07256E-01-2.16593E-01 6.17666E-14 1.64313E-13
 -1      2311 3.53198E+00-3.54467E+00 4.92601E-02-2.25175E+00 6.50591E-14 2.99871E-13
 -1      2312 2.03462E+01 3.58633E-01 4.45044E-03 3.68695E-01 1.57374E-14 4.18213E-13
 -1      2313 2.05564E+01 5.03820E-01 8.62505E-03 6.34548E-01 1.89189E-14 4.33699E-13
 -1      2314 2.06186E+01 7.48068E-01 1.13860E-02 7.99763E-01 1.61347E-14 4.04690E-13
 -1      2315 2.65799E+01-3.56482E+00 6.63498E-02-2.39511E+00 1.93068E-13-1.15612E-13
 -1      2316 2.51393E+01-2.43971E+00 1.09765E-01-3.29243E+00 9.15379E-14-6.95104E-14
 -1      2317 2.40007E+01-1.36668E+00 2.60377E-02-3.49487E+00 2.84911E-14-3.24636E-14
 -1      2318 2.31559E+01-4.72934E-01 5.52013E-02-3.68516E+00-2.76862E-14 2.36530E-14
 -1      2319 2.23106E+01-2.31964E+00-4.88787E-02-4.25296E+00 7.50441E-14 1.32505E-13
 -1      2320 2.27629E+01 7.34839E-02 1.41285E-02-3.47661E+00-6.35984E-14 8.08748E-14
 -1      2321 2.22157E+01 4.75267E-01 1.32222E-02-3.33342E+00-6.33174E-15 8.81764E-14
 -1      2322 2.10892E+01-2.31454E-01-1.16239E-02-3.98779E+00-2.73080E-14 1.28411E-13
 -1      2323 2.21449E+01 6.58297E-01 1.52599E-02-3.02177E+00 4.58221E-14 3.79440E-14
 -1      2324 2.17550E+01 7.57686E-01-1.80855E-03-2.76826E+00-4.94031E-14-4.26789E-14
 -1      2325 2.07674E+01 7.27646E-01 4.22249E-03-3.39100E+00-3.86804E-14 2.05352E-13
 -1      2326 2.17564E+01 7.72465E-01 1.52010E-02-2.44132E+00-9.71532E-15-5.12595E-14
 -1      2327 2.14312E+01 7.44227E-01-5.43526E-03-2.16077E+00 2.42081E-14 8.97915E-15
 -1      2328 2.07194E+01 9.83291E-01 9.01810E-03-2.74379E+00-3.99547E-14-9.48557E-14
 -1      2329 2.14364E+01 6.86649E-01 1.47943E-02-1.87530E+00-4.54211E-14 2.20472E-14
 -1      2330 2.11706E+01 6.15021E-01-4.85979E-03-1.63038E+00-7.50329E-14 9.56028E-15
 -1      2331 2.07060E+01 9.23052E-01 8.42369E-03-2.13076E+00-2.18415E-14 4.55946E-14
 -1      2332 2.11566E+01 5.44054E-01 1.31597E-02-1.40025E+00-1.54135E-13 5.07058E-14
 -1      2333 2.09415E+01 4.69924E-01-3.52809E-03-1.20491E+00-1.06692E-13-9.20961E-14
 -1      2334 2.06635E+01 7.51670E-01 6.26710E-03-1.61400E+00-1.18716E-13 9.02130E-14
 -1      2335 2.09119E+01 4.07344E-01 1.08159E-02-1.02732E+00-2.22890E-14-1.24536E-13
 -1      2336 2.07413E+01 3.45094E-01-2.33911E-03-8.79026E-01-1.76428E-14-1.33504E-13
 -1      2337 2.05888E+01 5.71724E-01 3.94449E-03-1.20189E+00-1.10375E-13 1.29554E-13
 -1      2338 2.07041E+01 2.96239E-01 8.43239E-03-7.45579E-01 1.78791E-13 3.91366E-14
 -1      2339 2.05716E+01 2.48368E-01-1.47477E-03-6.36027E-01 1.97699E-13 7.53171E-14
 -1      2340 2.04974E+01 4.19637E-01 2.12024E-03-8.84551E-01 1.65656E-13 6.33009E-14
 -1      2341 2.05335E+01 2.12334E-01 6.35834E-03-5.37355E-01 8.64543E-14 2.45254E-13
 -1      2342 2.04328E+01 1.77266E-01-7.37331E-04-4.57653E-01 6.53527E-14 1.99134E-13
 -1      2343 2.04041E+01 3.02338E-01 8.90126E-04-6.45648E-01 2.51619E-13 6.88868E-14
 -1      2344 2.03998E+01 1.52844E-01 4.77048E-03-3.88767E-01-9.34163E-14 2.86474E-13
 -1      2345 2.03264E+01 1.28204E-01-4.08980E-04-3.33315E-01-4.98566E-14 1.62137E-13
 -1      2346 2.03199E+01 2.17174E-01-6.39471E-05-4.71717E-01 3.19344E-14 4.17113E-13
 -1      2347 2.02955E+01 1.09362E-01 3.46431E-03-2.79643E-01-7.46564E-14-8.65565E-15
 -1      2348 2.02380E+01 9.09669E-02-2.73548E-04-2.37440E-01-8.82135E-14-5.61979E-14
 -1      2349 2.02475E+01 1.56477E-01-1.52335E-04-3.43359E-01-1.68515E-13 3.36959E-13
 -1      2350 2.02127E+01 7.78339E-02 2.53535E-03-1.98464E-01-5.09917E-14-2.26882E-13
 -1      2351 2.01704E+01 6.46877E-02-1.33976E-04-1.68091E-01-1.97519E-14-3.30243E-13
 -1      2352 2.01856E+01 1.11351E-01-3.29463E-04-2.46192E-01-2.05936E-13-6.11455E-14
 -1      2353 2.01502E+01 5.54191E-02 1.83572E-03-1.39782E-01-9.08893E-14-4.87287E-13
 -1      2354 2.01194E+01 4.60303E-02-5.37687E-05-1.17935E-01-2.41238E-13-4.15378E-13
 -1      2355 2.01360E+01 7.92978E-02-3.81505E-04-1.75194E-01-1.75642E-13-2.36123E-13
 -1      2356 2.01037E+01 3.94630E-02 1.32505E-03-9.74104E-02-2.55952E-14-3.39620E-13
 -1      2357 2.00815E+01 3.27353E-02-9.02797E-06-8.17154E-02 1.65489E-13-1.85176E-13
 -1      2358 2.00975E+01 5.64821E-02-3.69867E-04-1.23433E-01-4.09523E-14-3.38981E-13
 -1      2359 2.00696E+01 2.80404E-02 9.49072E-04-6.68729E-02 7.58938E-14-1.56441E-13
 -1      2360 2.00539E+01 2.32410E-02 3.29720E-05-5.56431E-02 1.31900E-13-1.72360E-13
 -1      2361 2.00680E+01 4.01912E-02-3.27556E-04-8.58002E-02 8.59154E-14-9.63142E-14
 -1      2362 2.00455E+01 2.00733E-02 6.89578E-04-4.54513E-02 1.37052E-13-2.20718E-13
 -1      2363 2.00349E+01 1.66932E-02 3.72604E-05-3.77448E-02 1.07140E-13-3.21594E-13
 -1      2364 2.00465E+01 2.86259E-02-3.17011E-04-5.90537E-02 7.56142E-14-1.42935E-13
 -1      2365 2.00284E+01 1.42023E-02 4.90929E-04-2.99631E-02 4.66422E-14-4.45096E-13
 -1      2366 2.00207E+01 1.16471E-02 2.40491E-05-2.41941E-02-3.75218E-14-3.80743E-13
 -1      2367 2.00307E+01 2.04489E-02-2.24726E-04-3.97578E-02-2.80462E-14-3.03733E-13
 -1      2368 2.00162E+01 9.89694E-03 3.52707E-04-1.86955E-02 6.03698E-15-3.66988E-13
 -1      2369 2.00111E+01 8.03488E-03 2.16246E-05-1.46572E-02-5.94234E-15-2.97791E-13
 -1      2370 2.00191E+01 1.42719E-02-1.79609E-04-2.55041E-02 2.85758E-14-2.50584E-13
 -1      2371 2.00079E+01 6.78439E-03 2.47284E-04-1.08146E-02 3.24634E-14-2.89483E-13
 -1      2372 2.00047E+01 5.44165E-03 1.87588E-05-8.03121E-03 9.79918E-14-3.82938E-13
 -1      2373 2.00109E+01 9.82953E-03-1.39357E-04-1.54326E-02-3.86393E-14-1.59086E-13
 -1      2374 2.00026E+01 4.55211E-03 1.70491E-04-5.39368E-03 1.25161E-13-2.73341E-13
 -1      2375 2.00007E+01 3.58980E-03 1.58534E-05-3.51638E-03 2.49007E-13-1.71572E-13
 -1      2376 2.00055E+01 6.63955E-03-1.05840E-04-8.42088E-03 2.25296E-13-1.47491E-13
 -1      2377 1.99994E+01 2.95677E-03 1.13689E-04-1.74953E-03 2.23142E-13-3.88176E-14
 -1      2378 1.99985E+01 2.27939E-03 1.48760E-05-5.25586E-04 1.23160E-13-2.02911E-13
 -1      2379 2.00019E+01 4.36342E-03-7.83160E-05-3.63740E-03 3.19552E-13-9.48173E-14
 -1      2380 1.99978E+01 1.85746E-03 7.44619E-05 5.65896E-04 1.08047E-13-2.04428E-13
 -1      2381 1.99974E+01 1.38876E-03 1.10170E-05 1.30092E-03 3.02536E-13-2.41103E-13
 -1      2382 1.99998E+01 2.75975E-03-6.17552E-05-5.20720E-04 1.83124E-13-3.34125E-14
 -1      2383 1.99970E+01 1.06216E-03 4.70811E-05 2.01193E-03 2.54228E-13-4.09343E-13
 -1      2384 1.99970E+01 7.06036E-04 4.95166E-06 2.45419E-03 8.90608E-14-4.36484E-13
 -1      2385 1.99987E+01 1.64490E-03-4.08788E-05 1.46233E-03 1.23125E-13-1.15838E-13
 -1      2386 1.99969E+01 4.76133E-04 2.85558E-05 2.83058E-03 1.36052E-13-3.87604E-13
 -1      2387 1.99972E+01 2.02532E-04 1.33446E-07 3.02354E-03 2.91775E-14-2.05198E-13
 -1      2388 1.99982E+01 8.01834E-04-2.82649E-05 2.66569E-03 2.12219E-13-1.64129E-13
 -1      2389 1.99973E+01 2.08642E-05 1.52294E-05 3.15170E-03-2.25829E-14-4.94682E-14
 -1      2390 1.99976E+01-2.08547E-04-5.34852E-06 3.14944E-03-1.66564E-15 2.46812E-13
 -1      2391 1.99982E+01 1.66664E-04-1.84275E-05 3.24107E-03 7.17652E-14 1.23009E-14
 -1      2392 1.99978E+01-3.82061E-04 3.68104E-06 3.07640E-03-1.92954E-13 2.36276E-13
 -1      2393 1.99982E+01-5.87918E-04-1.20332E-05 2.90313E-03-1.50349E-13 2.03529E-13
 -1      2394 1.99984E+01-3.60080E-04-8.43945E-06 3.33533E-03-8.98162E-14 4.16291E-13
 -1      2395 1.99986E+01-8.38298E-04-7.93008E-06 2.80235E-03-2.04754E-13 2.37520E-13
 -1      2396 1.99989E+01-1.05302E-03-1.70770E-05 2.47193E-03-2.19676E-13 1.83722E-13
 -1      2397 1.99994E+01-1.59512E-03 1.03321E-05 2.74161E-03-4.03059E-13 2.47112E-13
 -1      2398 1.99989E+01-9.06985E-04 6.55763E-06 3.12873E-03-2.84284E-13 3.43719E-13
 -1      2399 2.01316E+01 1.15006E-01 1.54387E-03-7.71143E-02-2.27860E-14 3.03701E-13
 -1      2400 2.01715E+01 1.78702E-01 9.54753E-03 1.03480E-03 1.20273E-14 3.39053E-13
 -1      2401 2.01921E+01 2.18462E-01 5.56023E-03 8.75516E-02 2.24204E-14 3.61835E-13
 -1      2402 2.02945E+01 3.04106E-01 1.17489E-02 2.38506E-01 1.20277E-14 3.81906E-13
 -1      2403 2.03860E+01 4.11364E-01-1.91987E-03 3.30705E-01 2.81936E-14 3.51049E-13
 -1      2404 2.03005E+01 2.65378E-01-5.83296E-03 8.20510E-02 2.82480E-14 3.13464E-13
 -1      2405 2.01373E+01-7.02221E-02-2.82696E-03-1.54146E-01-2.65878E-14 1.99337E-13
 -1      2406 2.01242E+01-2.83281E-02 3.79216E-03-1.71703E-01-3.93059E-14 2.18585E-13
 -1      2407 2.01694E+01-1.44220E-01-4.67264E-03-6.49358E-02-1.10686E-14 2.30257E-13
 -1      2408 2.01628E+01-1.06902E-01 1.75698E-03-1.17581E-01-4.77228E-14 1.92940E-13
 -1      2409 2.02806E+01-1.21465E-01-1.87290E-03-1.52020E-01-2.97360E-14 1.48332E-13
 -1      2410 2.01785E+01-2.05778E-01-5.96098E-03 9.39369E-02 1.84527E-14 3.12727E-13
 -1      2411 2.01959E+01-1.75826E-01 2.26728E-04 1.17179E-02 4.34049E-15 2.70200E-13
 -1      2412 2.03307E+01-2.20757E-01-3.43566E-04-3.64898E-02-5.36535E-14 1.51115E-13
 -1      2413 2.01367E+01-2.42752E-01-6.16904E-03 3.05195E-01 2.42445E-14 3.55283E-13
 -1      2414 2.01915E+01-2.27471E-01-1.15292E-03 2.02999E-01 4.16910E-14 3.51747E-13
 -1      2415 2.03691E+01-2.98071E-01 1.28243E-03 1.57973E-01 1.41933E-15 2.45465E-13
 -1      2416 2.00227E+01-2.36722E-01-4.76416E-03 5.37419E-01 4.34379E-14 3.20642E-13
 -1      2417 2.01213E+01-2.46074E-01-2.50193E-03 4.32102E-01 3.68113E-14 3.24249E-13
 -1      2418 2.03674E+01-3.34487E-01 2.90724E-03 4.08465E-01 3.83603E-14 2.50621E-13
 -1      2419 1.98274E+01-1.69888E-01-1.53350E-03 7.41119E-01-1.13473E-15 2.74469E-13
 -1      2420 1.99666E+01-2.12294E-01-3.68759E-03 6.57470E-01 2.68251E-14 3.02654E-13
 -1      2421 2.02992E+01-3.04635E-01 4.17274E-03 6.73937E-01 5.13569E-14 1.96278E-13
 -1      2422 1.95619E+01-3.67216E-02 3.01346E-03 8.53212E-01 4.29996E-14 2.11210E-13
 -1      2423 1.97264E+01-1.12501E-01-4.22147E-03 8.20171E-01-1.65709E-14 2.31471E-13
 -1      2424 2.01483E+01-1.88149E-01 4.38020E-03 8.91789E-01 1.25067E-14 1.21185E-13
 -1      2425 1.92650E+01 1.43476E-01 7.43409E-03 8.14053E-01 3.14176E-14 2.53267E-13
 -1      2426 1.94277E+01 4.80537E-02-3.42544E-03 8.55294E-01 6.91584E-14 2.62951E-13
 -1      2427 1.99211E+01 1.36539E-02 2.77626E-03 9.85777E-01 2.99998E-14 1.29127E-13
 -1      2428 1.90013E+01 3.23175E-01 9.90370E-03 5.94820E-01-1.64218E-14 3.16617E-13
 -1      2429 1.91280E+01 2.35615E-01-8.38527E-04 7.16321E-01 6.25324E-15 3.04280E-13
 -1      2430 1.96572E+01 2.63616E-01-7.79643E-04 8.90012E-01-4.12203E-15 1.89738E-13
 -1      2431 1.88445E+01 4.41115E-01 9.29797E-03 2.21808E-01-6.10276E-15 3.10351E-13
 -1      2432 1.89040E+01 3.92733E-01 3.24822E-03 4.03530E-01-3.07020E-14 3.42966E-13
 -1      2433 1.94277E+01 4.90815E-01-5.06770E-03 5.83753E-01-2.71779E-14 2.62065E-13
 -1      2434 1.88488E+01 4.51635E-01 6.05657E-03-2.21094E-01 1.09651E-13 3.57124E-13
 -1      2435 1.88236E+01 4.61477E-01 7.48547E-03-2.20252E-02 7.94560E-14 3.70482E-13
 -1      2436 1.93108E+01 6.16107E-01-7.81115E-03 1.16941E-01 8.49559E-15 2.73918E-13
 -1      2437 1.90216E+01 3.51387E-01 1.90923E-03-6.21370E-01 1.23684E-13 3.11644E-13
 -1      2438 1.89148E+01 4.14721E-01 9.93600E-03-4.54456E-01 1.23077E-13 3.59094E-13
 -1      2439 1.93536E+01 5.91979E-01-7.18135E-03-3.96222E-01 9.70437E-14 2.55193E-13
 -1      2440 1.93190E+01 1.81352E-01-1.34660E-03-8.85167E-01 2.99747E-14 2.57585E-13
 -1      2441 1.91527E+01 2.72760E-01 9.32224E-03-7.86198E-01 1.05918E-13 3.20488E-13
 -1      2442 1.95455E+01 4.29198E-01-3.63535E-03-8.22302E-01 1.19619E-13 2.64229E-13
 -1      2443 1.96669E+01 2.31324E-03-2.94134E-03-9.72413E-01-1.49177E-14 2.59843E-13
 -1      2444 1.94740E+01 9.04266E-02 5.87904E-03-9.51808E-01-4.64468E-14 2.47827E-13
 -1      2445 1.98245E+01 1.90607E-01 5.65498E-04-1.06633E+00 8.72929E-15 2.74040E-13
 -1      2446 1.99935E+01-1.35711E-01-3.01422E-03-9.01261E-01 2.42874E-14 2.36579E-13
 -1      2447 1.98063E+01-7.33334E-02 1.18998E-03-9.45846E-01 6.22733E-14 2.55278E-13
 -1      2448 2.01116E+01-4.38127E-02 3.40490E-03-1.10413E+00-1.14023E-15 2.78031E-13
 -1      2449 2.02512E+01-2.10639E-01-2.25439E-03-7.26110E-01 1.20289E-13 1.80209E-13
 -1      2450 2.00936E+01-1.81385E-01-2.96993E-03-8.10206E-01 5.40507E-14 1.87934E-13
 -1      2451 2.03454E+01-2.14350E-01 4.30934E-03-9.75104E-01 1.09405E-13 2.11285E-13
 -1      2452 2.04225E+01-2.26440E-01-1.31750E-03-5.08818E-01 1.03658E-13 2.22645E-13
 -1      2453 2.03065E+01-2.25569E-01-5.57189E-03-6.06042E-01 1.33624E-13 2.15722E-13
 -1      2454 2.04982E+01-2.98923E-01 3.76555E-03-7.49674E-01 9.51634E-14 2.00488E-13
 -1      2455 2.05119E+01-2.01297E-01-5.44143E-04-2.98576E-01-8.89375E-14 3.24554E-13
 -1      2456 2.04393E+01-2.18516E-01-6.45468E-03-3.89181E-01 1.53133E-15 2.61308E-13
 -1      2457 2.05707E+01-3.07466E-01 2.62747E-03-4.96917E-01 1.97898E-14 3.14124E-13
 -1      2458 2.05360E+01-1.55852E-01-4.00138E-05-1.24520E-01-8.57365E-14 3.12110E-13
 -1      2459 2.05015E+01-1.80871E-01-6.02751E-03-1.97534E-01-1.94880E-13 3.04258E-13
 -1      2460 2.05796E+01-2.65897E-01 1.50319E-03-2.66220E-01-1.27037E-13 2.96094E-13
 -1      2461 2.05143E+01-1.06298E-01 2.30981E-04 2.37707E-03 6.74359E-14 3.55205E-13
 -1      2462 2.05091E+01-1.31639E-01-4.87204E-03-4.95408E-02 9.49616E-14 3.41133E-13
 -1      2463 2.05458E+01-2.01359E-01 6.42311E-04-8.34158E-02 7.65013E-16 1.32537E-13
 -1      2464 2.04646E+01-6.24057E-02 3.48963E-04 8.35174E-02 1.37978E-14 3.98427E-13
 -1      2465 2.04795E+01-8.38994E-02-3.47995E-03 5.13171E-02 3.57518E-14 3.59824E-13
 -1      2466 2.04876E+01-1.34227E-01 8.02727E-05 4.45433E-02 2.37131E-15 2.04830E-13
 -1      2467 2.04008E+01-2.84102E-02 3.80555E-04 1.26781E-01-1.32038E-13 4.08698E-13
 -1      2468 2.04277E+01-4.45091E-02-2.17240E-03 1.10501E-01-2.89512E-14 4.44774E-13
 -1      2469 2.04189E+01-7.62933E-02-2.44142E-04 1.22433E-01-3.76992E-14 3.64057E-13
 -1      2470 2.03331E+01-4.85908E-03 3.69394E-04 1.42139E-01-7.94123E-14 3.75475E-13
 -1      2471 2.03654E+01-1.56547E-02-1.11011E-03 1.37334E-01-1.57778E-13 3.65639E-13
 -1      2472 2.03487E+01-3.22703E-02-4.09533E-04 1.60479E-01-1.32621E-13 3.49225E-13
 -1      2473 2.02680E+01 9.64968E-03 3.39674E-04 1.39043E-01 2.80743E-15 5.05769E-13
 -1      2474 2.03011E+01 3.26508E-03-3.38226E-04 1.41643E-01 3.70965E-15 4.23154E-13
 -1      2475 2.02825E+01-2.31314E-03-4.77760E-04 1.70090E-01-9.39999E-14 1.80217E-13
 -1      2476 2.02093E+01 1.72349E-02 3.03364E-04 1.25216E-01 5.95532E-14 3.46960E-13
 -1      2477 2.02403E+01 1.41289E-02 1.65076E-04 1.31970E-01 8.98432E-14 4.85662E-13
 -1      2478 2.02234E+01 1.57408E-02-4.89315E-04 1.61501E-01 5.47966E-14 3.15578E-13
 -1      2479 2.01587E+01 2.00130E-02 2.65741E-04 1.06336E-01-6.04702E-14 2.35380E-13
 -1      2480 2.01860E+01 1.91218E-02 4.51682E-04 1.14902E-01-1.04625E-13 3.31017E-13
 -1      2481 2.01726E+01 2.48262E-02-4.68764E-04 1.42800E-01 3.30139E-14 2.98912E-13
 -1      2482 2.01169E+01 1.97617E-02 2.29181E-04 8.62158E-02-1.00206E-13 3.17848E-13
 -1      2483 2.01397E+01 2.02227E-02 5.80181E-04 9.50551E-02-1.04982E-13 2.63392E-13
 -1      2484 2.01303E+01 2.77739E-02-4.30437E-04 1.19793E-01-7.69852E-14 1.33280E-13
 -1      2485 2.00833E+01 1.78209E-02 1.94755E-04 6.71676E-02 1.05838E-13 3.43213E-13
 -1      2486 2.01017E+01 1.90006E-02 6.03428E-04 7.53723E-02-8.59295E-15 3.33834E-13
 -1      2487 2.00959E+01 2.69166E-02-3.83037E-04 9.62886E-02-3.18289E-14 3.72806E-13
 -1      2488 2.00571E+01 1.51186E-02 1.63096E-04 5.04079E-02 2.49895E-13 4.87721E-13
 -1      2489 2.00714E+01 1.65881E-02 5.63538E-04 5.75235E-02 2.51266E-13 4.73169E-13
 -1      2490 2.00687E+01 2.39898E-02-3.32099E-04 7.45340E-02 1.12192E-13 4.05655E-13
 -1      2491 2.00373E+01 1.22469E-02 1.34598E-04 3.64124E-02 8.08164E-14 5.86666E-13
 -1      2492 2.00481E+01 1.37396E-02 4.91179E-04 4.22846E-02 2.48977E-13 6.27274E-13
 -1      2493 2.00476E+01 2.01810E-02-2.81312E-04 5.56547E-02 1.67391E-13 4.75374E-13
 -1      2494 2.00228E+01 9.54876E-03 1.09478E-04 2.51964E-02-1.69474E-13 4.36204E-13
 -1      2495 2.00306E+01 1.09156E-02 4.06976E-04 2.98533E-02-2.22566E-14 5.51461E-13
 -1      2496 2.00317E+01 1.62382E-02-2.33182E-04 4.00308E-02 9.08981E-14 4.83286E-13
 -1      2497 2.00125E+01 7.19523E-03 8.77789E-05 1.65179E-02 7.36301E-14 2.84804E-14
 -1      2498 2.00180E+01 8.36680E-03 3.23674E-04 2.00855E-02-9.19044E-14 2.20418E-13
 -1      2499 2.00200E+01 1.25871E-02-1.89317E-04 2.75870E-02 1.24390E-13 2.24537E-13
 -1      2500 2.00055E+01 5.24641E-03 6.93694E-05 1.00153E-02 3.94663E-14 8.88952E-14
 -1      2501 2.00091E+01 6.20363E-03 2.48310E-04 1.26617E-02 1.42546E-13 6.19726E-14
 -1      2502 2.00116E+01 9.43251E-03-1.50602E-04 1.80005E-02 1.24473E-13 6.27057E-14
 -1      2503 2.00010E+01 3.69587E-03 5.39611E-05 5.29581E-03-2.50431E-14 1.32969E-13
 -1      2504 2.00032E+01 4.44910E-03 1.84052E-04 7.19589E-03-1.10370E-13 8.35344E-14
 -1      2505 2.00058E+01 6.83856E-03-1.17349E-04 1.08412E-02-6.31775E-14 1.15007E-13
 -1      2506 1.99983E+01 2.50099E-03 4.11266E-05 1.98644E-03 2.62079E-15 2.66791E-13
 -1      2507 1.99995E+01 3.07603E-03 1.31623E-04 3.30202E-03 8.86934E-15 1.35901E-13
 -1      2508 2.00020E+01 4.78569E-03-8.94520E-05 5.65893E-03 1.31088E-14 4.88166E-14
 -1      2509 1.99970E+01 1.60216E-03 3.03189E-05-2.38195E-04 1.82378E-13 2.74387E-13
 -1      2510 1.99975E+01 2.03156E-03 9.03357E-05 6.31317E-04 1.71048E-13 3.81572E-13
 -1      2511 1.99997E+01 3.20964E-03-6.65201E-05 2.03544E-03 2.52233E-14 1.69787E-13
 -1      2512 1.99965E+01 9.34038E-04 2.09022E-05-1.64399E-03 2.05855E-13 3.71986E-13
 -1      2513 1.99966E+01 1.25218E-03 5.87955E-05-1.10975E-03 2.62942E-13 3.95163E-13
 -1      2514 1.99984E+01 2.02586E-03-4.80113E-05-3.89793E-04 1.51798E-13 2.11160E-13
 -1      2515 1.99967E+01 4.31063E-04 1.22162E-05-2.43411E-03 1.06981E-13 4.80661E-13
 -1      2516 1.99964E+01 6.71887E-04 3.53693E-05-2.15288E-03 1.41911E-13 4.61583E-13
 -1      2517 1.99979E+01 1.14340E-03-3.33442E-05-1.90843E-03 1.06116E-13 5.19903E-13
 -1      2518 1.99972E+01 3.04975E-05 4.41741E-06-2.75051E-03-6.12444E-14 1.94980E-13
 -1      2519 1.99968E+01 2.25781E-04 1.84255E-05-2.66802E-03-4.37623E-14 3.64220E-13
 -1      2520 1.99978E+01 4.72430E-04-2.18650E-05-2.74187E-03 1.20073E-13 6.16870E-13
 -1      2521 1.99979E+01-3.30530E-04-2.92336E-06-2.68068E-03 1.83536E-13 1.40186E-13
 -1      2522 1.99974E+01-1.51538E-04 5.77046E-06-2.76923E-03-6.39262E-16 2.32339E-13
 -1      2523 1.99981E+01-6.85315E-05-1.22093E-05-3.04601E-03-1.54657E-14 4.32886E-13
 -1      2524 1.99986E+01-6.91342E-04-1.02994E-05-2.26896E-03-1.23203E-13 3.19601E-13
 -1      2525 1.99981E+01-5.04414E-04 1.57360E-07-2.50976E-03 7.48675E-14 2.48212E-13
 -1      2526 1.99985E+01-5.79204E-04-5.12078E-06-2.92436E-03 6.96737E-14 4.75262E-13
 -1      2527 1.99989E+01-8.69220E-04-3.55763E-06-1.90866E-03-1.31799E-13 1.90499E-13
 -1      2528 2.00005E+01-3.03723E-03 6.71665E-06-1.96755E-03-1.46830E-13-2.33889E-13
 -1      2529 2.00004E+01-2.74990E-03 5.31379E-06-2.20682E-03-1.11198E-13-7.45777E-13
 -1      2530 2.00007E+01-3.35153E-03 7.97288E-06-1.35319E-03-8.33838E-14 2.05239E-13
 -1      2531 2.00006E+01-3.14364E-03 7.93145E-06-1.65801E-03-2.00789E-13-2.63601E-14
 -1      2532 2.00008E+01-2.21420E-03-1.87121E-06-1.96890E-03 1.20168E-13-1.94784E-13
 -1      2533 1.99999E+01-2.06319E-03 6.32352E-06-2.67194E-03 4.41273E-14-1.37527E-13
 -1      2534 1.99996E+01-1.67919E-03-9.94449E-06-2.66897E-03 1.67949E-13 1.77748E-13
 -1      2535 2.00003E+01-2.60154E-03 5.69173E-06-2.43382E-03-2.50693E-13-1.01953E-12
 -1      2536 2.00001E+01-2.25972E-03 5.80671E-08-2.56845E-03-1.48101E-13-5.76469E-13
 -1      2537 2.00001E+01-1.64405E-03-2.35657E-06-2.86477E-03 1.49102E-13-6.02267E-13
 -1      2538 2.00005E+01-1.97146E-03-1.98182E-06-2.52370E-03 5.78752E-14-7.05472E-13
 -1      2539 2.00008E+01-3.53720E-03 9.49528E-06-6.51789E-04-2.67161E-13 1.98317E-13
 -1      2540 2.00008E+01-3.42164E-03 9.05384E-06-9.94567E-04-2.66869E-13 2.38512E-13
 -1      2541 2.00010E+01-2.38242E-03-1.17390E-06-1.27647E-03-9.98863E-14 7.04972E-14
 -1      2542 2.00008E+01-3.59023E-03 1.08772E-05 9.56703E-05-5.24276E-13 1.19992E-13
 -1      2543 2.00008E+01-3.57524E-03 8.99583E-06-2.65157E-04-5.45715E-13 4.60500E-13
 -1      2544 2.00011E+01-2.48632E-03-9.32510E-07-5.04339E-04-3.43221E-13 1.58942E-13
 -1      2545 2.00008E+01-3.50652E-03 1.13669E-05 8.53311E-04-3.17727E-13-3.33689E-13
 -1      2546 2.00008E+01-3.59511E-03 8.35126E-06 4.93280E-04-3.87933E-13-1.04780E-13
 -1      2547 2.00012E+01-2.52733E-03-1.32653E-06 3.08372E-04-3.36424E-13 6.67045E-14
 -1      2548 2.00007E+01-3.28679E-03 9.69789E-06 1.56543E-03-6.76476E-14-6.57665E-13
 -1      2549 2.00008E+01-3.47212E-03 7.84519E-06 1.23599E-03-2.25763E-13-6.33673E-13
 -1      2550 2.00011E+01-2.49810E-03-2.18307E-06 1.11800E-03-5.96027E-14-4.52644E-13
 -1      2551 2.00005E+01-2.92191E-03 5.82348E-06 2.19247E-03-1.73130E-14-2.51008E-14
 -1      2552 2.00006E+01-3.19957E-03 7.77365E-06 1.91690E-03-2.13102E-14-7.02473E-13
 -1      2553 2.00010E+01-2.38305E-03-3.64372E-06 1.88244E-03 5.02868E-15-6.26871E-13
 -1      2554 2.00002E+01-2.42187E-03 9.85000E-07 2.63039E-03-1.60763E-13 3.52846E-13
 -1      2555 2.00004E+01-2.77087E-03 7.96756E-06 2.46406E-03-1.32056E-13 3.54348E-13
 -1      2556 2.00007E+01-2.16215E-03-5.25690E-06 2.53368E-03 1.35959E-13-4.61709E-14
 -1      2557 1.99997E+01-1.84773E-03-7.63876E-06 2.75699E-03-4.45621E-13 1.83721E-13
 -1      2558 2.00000E+01-2.24058E-03 7.77050E-06 2.75615E-03-3.93295E-13 4.99105E-13
 -1      2559 2.00002E+01-1.85285E-03-6.16828E-06 2.94248E-03-2.31241E-13 2.04365E-13
 -1      2560 1.99995E+01-1.45523E-03-9.00109E-06 3.03850E-03-4.45511E-13 3.14432E-13
 -1      2561 2.00496E+01-5.08080E+00 3.76339E-02 7.40906E+00-6.40599E-14 5.50587E-13
 -1      2562 1.68440E+01-5.18066E+00 5.90644E-02 7.70361E+00-3.26406E-14 4.07643E-13
 -1      2563 2.29014E+01-5.15126E+00 5.44919E-02 6.12596E+00-6.27276E-14 3.28279E-13
 -1      2564 3.13632E+01-9.87267E-02-6.32049E-02-1.56012E+00-3.28904E-14 2.42029E-14
 -1      2565 3.26324E+01 1.82038E+00-1.61389E-01-3.66720E-01-7.17343E-14 3.64986E-14
 -1      2566 2.07689E+01 2.03736E+00-1.28956E-02-1.61306E+00 1.40513E-14-1.08486E-13
 -1      2567 2.07054E+01 1.34255E+00-2.45379E-03-9.81264E-01 6.61103E-15-1.03294E-13
 -1      2568 2.05845E+01 1.54534E+00-3.50389E-04-8.68007E-01 7.52783E-15-6.27484E-14
 -1      2569 2.04477E+01 2.47152E+00-1.08008E-02-1.52513E+00 3.72098E-14-9.59979E-14
 -1      2570 3.83338E+01 6.33138E+00 2.32208E-01-5.50602E-01-1.75193E-13-3.56104E-14
 -1      2571 3.82551E+01 4.47283E+00 3.62183E-01-2.42728E+00-2.13607E-13-6.05072E-14
 -1      2572 1.06767E+01-4.54930E+00 8.98739E-02-7.30936E+00-1.20348E-13-1.97370E-13
 -1      2573 1.48936E+01-5.09842E+00 6.53443E-03-7.89858E+00-1.81077E-13-3.49484E-13
 -1      2574 3.32599E+01 7.84641E+00-1.73968E-01-5.69628E-01 5.46285E-13 1.02252E-13
 -1      2575 3.36655E+01 6.57697E+00-1.04477E-01-6.06061E-01 5.27800E-13 8.32667E-15
 -1      2576 2.01134E+01 1.32236E-02-7.41855E-04-1.62722E-01-4.54741E-14 2.37414E-13
 -1      2577 2.01157E+01 6.20888E-02 6.87895E-03-1.39330E-01-4.32956E-14 2.59688E-13
 -1      2578 2.02548E+01 1.29488E-01-4.47507E-03-9.20924E-02-1.90928E-15 2.63534E-13
 -1      2579 2.02464E+01-7.26670E-03-3.29896E-03-1.75131E-01-2.81640E-14 1.86687E-13
 -1      2580 3.30823E+01 4.69682E+00-7.96665E-02 6.28974E-01 4.70179E-14 1.90986E-13
 -1      2581 3.34047E+01 6.54417E+00-1.75210E-01 8.08821E-01 2.44582E-13 3.15442E-13
 -1      2582 1.91900E+01 3.83025E+00-8.58075E-03-2.71360E-01 1.38631E-13 5.71366E-14
 -1      2583 1.92076E+01 3.81725E+00-9.67425E-03-4.10468E-01 1.26077E-13 2.91815E-14
 -1      2584 1.93547E+01 3.47628E+00 1.43597E-03-4.37227E-01 1.21358E-13 2.93840E-14
 -1      2585 1.93196E+01 3.50288E+00 4.12313E-04-2.16484E-01 1.33749E-13 6.65678E-14
 -1      2586 3.36771E+01 4.89251E+00-1.04090E-01-3.59641E-01 4.06480E-13 7.60503E-15
 -1      2587 3.24458E+01 2.86831E+00-9.43433E-02 2.98075E-03 3.13333E-13-4.57412E-14
 -1      2588 3.14824E+01 5.46517E+00-8.05533E-02-1.33326E+00 3.76560E-13-9.24816E-14
 -1      2589 3.32641E+01 7.88911E+00-1.34909E-01 5.42325E-01 3.31513E-13 3.28279E-13
 -1      2590 3.29956E+01 8.25222E+00-1.74835E-01 7.83828E-02 4.34153E-13 2.54293E-13
 -1      2591 6.91232E+00-4.23439E+00 2.16066E-02 4.96273E+00 1.10467E-14 4.51306E-14
 -1      2592 4.20141E+00-3.61364E+00 2.99875E-02 3.01412E+00-1.29757E-14 4.55191E-14
 -1      2593 3.13870E+01-1.85302E-01-1.32755E-01 1.53268E+00 2.43326E-13-2.25930E-14
 -1      2594 2.91712E+01-2.13391E+00-3.39975E-03 3.13848E+00 1.89758E-13 1.79190E-13
 -1      2595 2.76593E+01-3.56507E+00 1.35701E-03-3.67364E+00-8.82489E-14 4.28269E-14
 -1      2596 3.00749E+01-1.94250E+00-5.38376E-02-2.91706E+00-3.12944E-14 4.74620E-14
 -1      2597 3.00983E+01-1.65356E+00-6.58665E-03-9.16314E-01-1.32571E-13 1.84908E-13
 -1      2598 5.25857E+00-2.74760E+00 1.63052E-01-4.56719E+00-8.92758E-14-1.39055E-13
 -1      2599 7.34916E+00-3.39774E+00 7.59943E-02-6.38353E+00-8.54317E-14-1.33227E-13
 -1      2600 3.55127E+01-1.23511E-01-1.56761E-03 2.78859E+00-2.67480E-13-1.55431E-15
 -1      2601 3.71394E+01 1.57600E+00-9.30296E-02 3.19993E+00-4.15945E-13-7.47180E-14
 -1      2602 3.21779E+00-2.75762E+00 1.17178E-01 8.03874E-01-4.63310E-14-4.97935E-14
 -1      2603 3.34930E+00-2.28420E+00 8.95336E-02-2.03603E+00-6.95277E-14-9.79772E-14
 -1      2604 1.46416E+01-5.69300E+00-4.84978E-02 6.51361E+00 5.46230E-14-2.39531E-14
 -1      2605 1.06300E+01-5.18887E+00 1.76922E-02 5.86218E+00 5.29576E-14-2.57017E-14
 -1      2606 2.43471E+01-6.12985E+00-5.33598E-02 4.43626E+00 1.08996E-13 1.06047E-13
 -1      2607 1.92639E+01-6.21524E+00 3.73235E-02 5.81383E+00 8.72635E-14 1.76872E-14
 -1      2608 3.70592E+01 8.30823E-01-6.40794E-02-2.68419E+00-2.29650E-13-2.51466E-14
 -1      2609 3.51737E+01-8.77436E-01-8.88474E-03-2.17615E+00-2.81497E-13 9.38694E-14
 -1      2610 2.16532E+01-6.22865E+00 6.45627E-02-4.97181E+00 1.45939E-13 3.96599E-13
 -1      2611 2.59230E+01-6.40140E+00-1.53693E-01-4.04637E+00 3.47500E-14 2.91614E-13
 -1      2612 1.16118E+01-5.40963E+00 1.20935E-02-5.86809E+00 1.20792E-13 3.93019E-13
 -1      2613 1.61370E+01-5.88588E+00-8.10554E-02-6.30096E+00 1.56153E-13 4.59910E-13
 -1      2614 5.13943E+00-4.11060E+00 1.81782E-02-3.67502E+00 1.09357E-13 4.04676E-13
 -1      2615 7.84989E+00-4.50646E+00 1.44753E-02-5.23430E+00 9.62008E-14 4.70124E-13
 -1      2616 6.17026E+00-2.38380E+00 1.22732E-01-3.21288E+00 1.06581E-13 3.69316E-13
 -1      2617 3.37399E+01-3.41629E+00-3.97860E-02-9.28981E-01-2.25459E-13 1.36280E-13
 -1      2618 3.36789E+01-3.15420E+00-1.95156E-01 2.02001E+00 3.72896E-14 3.33622E-14
 -1      2619 2.98598E+01-5.09602E+00-2.89764E-02 9.23409E-01-6.17839E-14 1.40138E-13
 -1      2620 2.80579E+01-5.23658E+00 3.46840E-02 2.31739E+00 7.69662E-14 1.57235E-14
 -1      2621 1.97322E+01 3.09831E+00 3.65373E-03-8.53603E-01 9.28654E-14-6.25663E-14
 -1      2622 1.96645E+01 3.37683E+00-1.59435E-02-1.03826E+00 1.00579E-13-7.70330E-14
 -1      2623 1.98354E+01 3.21914E+00-1.59028E-02-1.20005E+00 9.16758E-14-8.18816E-14
 -1      2624 3.10773E+01 6.75690E+00-9.28608E-02 1.09332E+00 2.62013E-13 3.87412E-13
 -1      2625 2.79809E+01-3.50910E+00 4.58933E-02 3.31020E+00 1.25427E-13 1.45745E-13
 -1      2626 3.14427E+01 2.73783E+00-5.29723E-02 9.62777E-01-4.60743E-15 2.23377E-13
 -1      2627 8.10985E+00-2.65281E+00 1.84277E-01 6.00635E+00 5.94524E-14 3.09197E-14
 -1      2628 3.76346E+01 4.54303E+00 1.21413E-01 2.32922E+00-3.27793E-13-6.76681E-14
 -1      2629 3.83182E+00-1.94044E+00 1.59593E-01 1.22996E+00-7.54501E-14 6.66134E-14
 -1      2630 5.07724E+00-9.18055E-01 1.66967E-01-1.97046E-01-3.77736E-14 7.12763E-14
 -1      2631 4.88399E+00-1.17976E+00 6.19172E-02 2.52020E+00-7.96169E-14 1.75193E-13
 -1      2632 2.74583E+01-4.63566E+00 9.59515E-02-2.18539E+00 2.05086E-13-7.35731E-14
 -1      2633 2.39668E+01-4.98335E+00-9.67989E-02-4.22859E+00 1.97453E-13 1.96419E-13
 -1      2634 2.95654E+01-4.91924E+00 4.97207E-02-8.28989E-01 1.71724E-13-1.22125E-15
 -1      2635 1.85345E+01-4.87695E+00-3.17380E-02 7.14304E+00-4.22995E-14 3.60684E-13
 -1      2636 1.55688E+01-4.67820E+00 1.06178E-01 7.61825E+00 9.21485E-15 2.77368E-13
 -1      2637 1.45228E+01-3.60042E+00 1.39636E-01 7.40060E+00 3.50553E-14 2.50841E-13
 -1      2638 1.99990E+01-1.05060E-03-7.28499E-06-2.38373E-03-2.96958E-14 3.97608E-13
 -1      2639 2.63603E+01-4.53709E+00 4.52153E-02-4.35093E+00-1.45800E-13 4.27297E-14
 -1      2640 1.99992E+01-1.32577E-03 3.87687E-06-2.55311E-03 6.73284E-14 5.00377E-13
 -1      2641 1.08074E+01-3.25776E+00 1.44790E-01-6.79346E+00-1.00808E-13-1.83048E-13
 -1      2642 3.08851E+01-4.61110E+00 6.60399E-02-3.32389E-01 5.54001E-14 1.14103E-13
 -1      2643 2.00067E+01 3.00486E+00-1.72040E-02-1.29148E+00 8.57886E-14-7.65221E-14
 -1      2644 2.02304E+01 2.75115E+00-2.10165E-02-1.44791E+00 6.27118E-14-9.41192E-14
 -1      2645 2.04006E+01 2.23405E+00 7.07706E-03-1.15508E+00 3.58828E-14-7.16931E-14
 -1      2646 2.00514E+01 2.72843E+00 6.15492E-03-1.03106E+00 7.46987E-14-6.89427E-14
 -1      2647 3.14992E+01 9.93776E-01-4.84780E-02 4.07647E-02 1.86032E-13-1.04472E-13
 -1      2648 2.99333E+01-6.84741E-01-2.86719E-02 1.58121E-01 1.12917E-13-2.36158E-13
 -1      2649 3.03381E+01 1.94513E+00-1.66552E-01-1.31553E+00 1.85726E-13-1.73833E-13
 -1      2650 3.10786E+01 7.67663E+00-1.03952E-01-3.43692E-01 4.20441E-13 1.93602E-13
 -1      2651 1.85597E+01-5.19514E+00 1.77544E-01 5.88355E+00 1.56791E-13 5.64548E-14
 -1      2652 5.66100E+00-1.69975E+00 1.60129E-01 2.02054E+00 3.52079E-14 2.66454E-14
 -1      2653 1.83724E+01-5.22958E+00 1.24676E-01-7.40245E+00-2.43638E-13-2.68935E-13
 -1      2654 2.10141E+01-5.52158E+00-1.28131E-01-6.51259E+00-2.33286E-13-8.41271E-14
 -1      2655 1.71374E+01-4.57105E+00 1.50643E-01-7.38539E+00-2.25819E-13-1.80883E-13
 -1      2656 1.05454E+01-3.61954E+00 1.36991E-01 5.50395E+00 8.17957E-14 4.27991E-14
 -1      2657 5.89448E+00-1.39235E+00 1.63878E-01-3.07393E+00-4.79339E-14-9.02056E-14
 -1      2658 1.99993E+01-1.13460E-03-3.51865E-06-2.88652E-03 6.51610E-14 4.62129E-13
 -1      2659 2.56652E+01-4.62075E+00 1.10226E-01 3.27381E+00 1.32963E-13 7.13839E-15
 -1      2660 1.15186E+01-3.96665E+00 1.33611E-01-5.65139E+00 2.09388E-13 4.49668E-13
 -1      2661 2.03898E+01-5.42074E+00 1.73140E-01-5.36592E+00 2.10110E-13 3.24438E-13
 -1      2662 2.16769E+01-4.69716E+00-2.50683E-02 5.15087E+00 1.29646E-13 8.05536E-14
 -1      2663 3.28575E+01-3.81136E+00-1.28974E-01 1.66123E+00 1.29334E-13 2.84772E-14
 -1      2664 1.96292E+01 2.93763E+00-4.25103E-03 2.76976E-01 1.23091E-13 1.25957E-13
 -1      2665 1.95494E+01 3.01365E+00-6.75279E-03 1.45188E-01 1.23451E-13 1.11832E-13
 -1      2666 1.94833E+01 3.09673E+00-3.57006E-03 3.81664E-02 1.22156E-13 9.37343E-14
 -1      2667 1.94311E+01 3.13880E+00-6.83568E-03-8.33296E-02 1.19898E-13 8.16803E-14
 -1      2668 1.96299E+01 2.74251E+00 3.24822E-03 2.74889E-02 1.11836E-13 9.45152E-14
 -1      2669 2.00566E+01 2.37833E+00-9.60133E-03 7.90248E-01 1.15107E-13 1.89296E-13
 -1      2670 1.99362E+01 2.54755E+00-6.63032E-03 6.53057E-01 1.32629E-13 1.67959E-13
 -1      2671 2.03195E+01 1.93363E+00-1.41151E-02 9.93827E-01 7.88675E-14 2.52012E-13
 -1      2672 2.01883E+01 2.17954E+00-5.21681E-03 8.87704E-01 8.95697E-14 2.22170E-13
 -1      2673 2.02324E+01 1.92983E+00 6.07419E-03 6.60225E-01 9.28722E-14 1.94931E-13
 -1      2674 2.05841E+01 1.34861E+00-8.81928E-03 1.05115E+00 4.08527E-14 3.00518E-13
 -1      2675 2.04568E+01 1.69233E+00 5.63530E-04 1.04006E+00 6.46414E-14 2.71717E-13
 -1      2676 2.04498E+01 1.47529E+00 8.13203E-03 7.75587E-01 5.46666E-14 2.52457E-13
 -1      2677 2.06523E+01 8.96158E-01-2.31145E-04 8.88024E-01 2.38299E-14 3.51087E-13
 -1      2678 2.06223E+01 1.17458E+00 5.84862E-03 9.94866E-01 2.83914E-14 3.23910E-13
 -1      2679 2.05420E+01 1.01832E+00 3.20228E-03 7.26977E-01 3.40899E-14 2.86526E-13
 -1      2680 2.05082E+01 6.67018E-01 5.65096E-03 5.70228E-01 2.57511E-14 3.50159E-13
 -1      2681 2.03349E+01 1.02886E+00 3.75403E-03 1.45696E-01 2.25097E-14-3.62770E-14
 -1      2682 2.02810E+01 9.51636E-01 1.00084E-03 3.93555E-01 2.21808E-14-3.01478E-14
 -1      2683 2.01859E+01 9.09386E-01 6.83391E-04 6.15291E-01 3.97102E-14-2.60777E-14
 -1      2684 2.01454E+01 9.06177E-01 2.60574E-03 8.45129E-01 2.56086E-14-2.38681E-14
 -1      2685 2.00939E+01 1.14118E+00 2.41573E-03 4.46962E-01 2.73710E-14-2.72000E-14
 -1      2686 2.00036E+01 9.30591E-01-3.41077E-03 1.04914E+00 6.00306E-15-5.11163E-15
 -1      2687 1.99694E+01 9.84414E-01 3.98157E-03 1.27373E+00 1.05202E-14-1.13866E-14
 -1      2688 1.98653E+01 1.11965E+00 5.19203E-03 8.74543E-01 1.07058E-14-6.92155E-16
 -1      2689 1.97620E+01 1.05291E+00-8.12046E-03 1.47743E+00 2.94673E-14-1.00829E-14
 -1      2690 1.97161E+01 1.14370E+00 5.01229E-03 1.71562E+00 3.51067E-14 2.10986E-15
 -1      2691 1.95396E+01 1.22803E+00 9.42585E-03 1.27337E+00 2.53053E-14-6.24175E-15
 -1      2692 1.94140E+01 1.23073E+00-1.30285E-02 1.93592E+00 2.43227E-14 2.27622E-14
 -1      2693 1.93406E+01 1.32372E+00 6.86886E-03 2.19953E+00 4.90614E-14 1.65346E-14
 -1      2694 1.90667E+01 1.41923E+00 1.52210E-02 1.67329E+00 4.30782E-14 4.25565E-14
 -1      2695 1.89121E+01 1.37891E+00-1.66344E-02 2.45689E+00 7.20535E-14 1.95616E-14
 -1      2696 1.88133E+01 1.40260E+00 1.40962E-02 2.75191E+00 5.52145E-14 4.06194E-14
 -1      2697 1.83819E+01 1.61575E+00 2.29825E-02 2.10779E+00 6.38584E-14 1.00978E-13
 -1      2698 1.82651E+01 1.32407E+00-1.52296E-02 3.06748E+00 4.90701E-14 6.07327E-14
 -1      2699 1.82132E+01 1.15503E+00 3.02692E-02 3.37562E+00 7.18037E-14 8.08008E-14
 -1      2700 1.74538E+01 1.67722E+00 3.76357E-02 2.61397E+00 6.57261E-14 9.15706E-14
 -1      2701 1.75395E+01 8.03765E-01 1.53805E-02 3.82493E+00 5.03122E-14 9.72347E-14
 -1      2702 1.77439E+01 1.51948E-01 7.57008E-02 4.18313E+00 2.01714E-14 7.98944E-14
 -1      2703 1.62637E+01 1.31692E+00 6.23573E-02 3.32083E+00 7.36720E-14 9.73874E-14
 -1      2704 1.91624E+01-1.18006E-01 6.65439E-02-4.09801E+00 9.19924E-15 2.01271E-13
 -1      2705 1.87615E+01 5.84242E-01 2.41166E-02-3.82395E+00-8.77961E-14 2.77528E-13
 -1      2706 1.91963E+01 9.59450E-01 3.01900E-02-3.39043E+00-9.86780E-14 2.36218E-13
 -1      2707 1.91173E+01 1.16815E+00-7.80438E-03-3.09152E+00-9.77126E-14 1.72099E-13
 -1      2708 1.71686E+01 1.07777E+00 5.17310E-02-3.49713E+00-1.03209E-13 2.63397E-13
 -1      2709 1.95516E+01 1.26631E+00 1.54228E-02-2.73224E+00-1.57000E-13 1.01944E-13
 -1      2710 1.95390E+01 1.25320E+00-1.41959E-02-2.42957E+00-4.44813E-14 3.35103E-14
 -1      2711 1.80489E+01 1.52814E+00 3.02674E-02-2.73306E+00-1.78189E-13 1.73778E-13
 -1      2712 1.98772E+01 1.19447E+00 8.70921E-03-2.14892E+00 5.44668E-14 4.64101E-14
 -1      2713 1.98643E+01 1.09357E+00-1.24911E-02-1.88240E+00-4.81548E-14 5.39654E-14
 -1      2714 1.88097E+01 1.49547E+00 2.17735E-02-2.14293E+00-1.31913E-14 1.80337E-13
 -1      2715 2.00956E+01 9.87520E-01 6.88745E-03-1.65945E+00-8.64495E-14 2.02427E-14
 -1      2716 2.00641E+01 8.70386E-01-9.48583E-03-1.43893E+00-1.46059E-13 5.70645E-14
 -1      2717 1.93467E+01 1.26621E+00 1.55300E-02-1.67873E+00-1.55159E-13 9.21927E-14
 -1      2718 2.02099E+01 7.64637E-01 6.05260E-03-1.26171E+00-1.85480E-13 1.53791E-13
 -1      2719 2.01648E+01 6.60176E-01-6.77867E-03-1.08682E+00-1.05023E-13 1.13398E-13
 -1      2720 1.96915E+01 9.97872E-01 1.04931E-02-1.30358E+00-1.35301E-13 5.19080E-14
 -1      2721 2.02501E+01 5.71441E-01 5.25392E-03-9.47469E-01 5.61120E-14 7.58876E-14
 -1      2722 2.01999E+01 4.87712E-01-4.71344E-03-8.12728E-01 2.00677E-13 7.99850E-14
 -1      2723 1.98960E+01 7.55680E-01 6.66487E-03-1.00108E+00-5.96601E-14 2.45590E-13
 -1      2724 2.02459E+01 4.18987E-01 4.43331E-03-7.04635E-01 3.08833E-13 1.13094E-13
 -1      2725 2.01976E+01 3.55546E-01-3.04284E-03-6.02850E-01 3.23392E-13 2.29714E-13
 -1      2726 2.00069E+01 5.59344E-01 3.92854E-03-7.60513E-01 2.06335E-13 2.68583E-13
 -1      2727 2.02191E+01 3.06863E-01 3.64239E-03-5.23983E-01 2.05542E-13 1.81036E-13
 -1      2728 2.01774E+01 2.61505E-01-2.04533E-03-4.50866E-01 5.08904E-14 2.76145E-13
 -1      2729 2.00588E+01 4.11737E-01 1.98933E-03-5.75999E-01 2.86871E-13 1.38368E-13
 -1      2730 2.01851E+01 2.23291E-01 2.84600E-03-3.86842E-01-1.74440E-13 2.15747E-13
 -1      2731 2.01482E+01 1.88592E-01-1.43316E-03-3.29652E-01-2.03706E-13 1.56346E-13
 -1      2732 2.00781E+01 3.02056E-01 1.14899E-03-4.32889E-01-2.54392E-14 9.20769E-14
 -1      2733 2.01486E+01 1.61069E-01 2.21204E-03-2.81438E-01-3.66521E-13 1.80528E-13
 -1      2734 2.01186E+01 1.35977E-01-9.38676E-04-2.39223E-01-3.00435E-13 3.56220E-14
 -1      2735 2.00792E+01 2.18898E-01 5.04810E-04-3.19960E-01-3.37981E-13 2.88232E-13
 -1      2736 2.01153E+01 1.16138E-01 1.69677E-03-2.03053E-01-2.18188E-13-1.93412E-13
 -1      2737 2.00916E+01 9.80052E-02-6.10872E-04-1.72013E-01-1.85475E-13-1.24689E-13
 -1      2738 2.00711E+01 1.58416E-01 1.34617E-04-2.34270E-01-3.27088E-13 1.05278E-13
 -1      2739 2.00868E+01 8.36884E-02 1.28736E-03-1.45022E-01-1.40556E-13-1.69030E-13
 -1      2740 2.00685E+01 7.05649E-02-3.95477E-04-1.22271E-01 1.01607E-14-1.69578E-13
 -1      2741 2.00594E+01 1.14534E-01-5.80704E-05-1.69692E-01-1.58973E-13-5.10574E-14
 -1      2742 2.00637E+01 6.01963E-02 9.67306E-04-1.02240E-01 6.48791E-14-1.68926E-13
 -1      2743 2.00499E+01 5.07209E-02-2.27818E-04-8.56467E-02 1.17950E-13-1.00314E-13
 -1      2744 2.00473E+01 8.26620E-02-1.48094E-04-1.21339E-01 1.91846E-14-1.18105E-13
 -1      2745 2.00457E+01 4.35747E-02 7.32229E-04-7.15668E-02 1.47703E-13-1.16932E-13
 -1      2746 2.00358E+01 3.68866E-02-1.43385E-04-5.99724E-02 1.00344E-13-1.18921E-13
 -1      2747 2.00365E+01 5.98216E-02-2.21726E-04-8.60767E-02 2.23491E-13-1.88387E-15
 -1      2748 2.00320E+01 3.12677E-02 5.38895E-04-4.89698E-02 3.33517E-14-1.73160E-13
 -1      2749 2.00245E+01 2.61552E-02-1.03697E-04-4.01342E-02-7.63375E-15-1.80606E-13
 -1      2750 2.00273E+01 4.32881E-02-1.69602E-04-5.99816E-02 5.00087E-14-1.73284E-13
 -1      2751 2.00214E+01 2.21009E-02 3.99292E-04-3.21771E-02 1.31637E-14-9.44357E-14
 -1      2752 2.00160E+01 1.83682E-02-6.54934E-05-2.58632E-02 1.20272E-13-9.68004E-14
 -1      2753 2.00197E+01 3.07327E-02-1.52005E-04-4.02622E-02 5.60420E-14-1.14219E-13
 -1      2754 2.00137E+01 1.54223E-02 2.90156E-04-2.01668E-02 6.05712E-14-9.33881E-14
 -1      2755 2.00100E+01 1.27124E-02-3.98077E-05-1.57148E-02-2.61242E-14-4.52945E-14
 -1      2756 2.00137E+01 2.15769E-02-1.28988E-04-2.59913E-02 1.09661E-13-4.95250E-14
 -1      2757 2.00082E+01 1.05782E-02 2.07790E-04-1.16981E-02 8.72972E-14 1.19869E-13
 -1      2758 2.00057E+01 8.62188E-03-2.29622E-05-8.61199E-03 2.45647E-13 7.20981E-14
 -1      2759 2.00092E+01 1.49158E-02-1.05103E-04-1.58016E-02 6.89391E-14 1.76969E-13
 -1      2760 2.00045E+01 7.08086E-03 1.45385E-04-5.83474E-03 2.96558E-13-1.93281E-13
 -1      2761 2.00029E+01 5.68753E-03-8.92992E-06-3.74837E-03 2.68505E-13-2.37669E-13
 -1      2762 2.00059E+01 1.00942E-02-8.30147E-05-8.64864E-03 1.15799E-13-5.27937E-15
 -1      2763 2.00021E+01 4.63767E-03 1.00979E-04-1.96222E-03 3.59880E-13-3.08479E-13
 -1      2764 2.00011E+01 3.67382E-03-3.34851E-06-6.44075E-04 2.92996E-13-1.68738E-13
 -1      2765 2.00036E+01 6.67052E-03-7.06574E-05-3.82598E-03 2.63176E-13-5.04532E-13
 -1      2766 2.00005E+01 2.86174E-03 6.80545E-05 5.94875E-04 2.11992E-13 4.54557E-14
 -1      2767 2.00000E+01 2.13621E-03-3.07994E-06 1.46129E-03 2.66557E-13 4.46119E-14
 -1      2768 2.00020E+01 4.24249E-03-4.81569E-05-6.04327E-04 4.03162E-13-2.19420E-13
 -1      2769 1.99996E+01 1.55688E-03 4.52204E-05 2.20723E-03 1.26465E-13 1.09851E-13
 -1      2770 1.99994E+01 1.02255E-03-2.51770E-06 2.68741E-03 1.57221E-13 1.03242E-13
 -1      2771 2.00009E+01 2.42346E-03-3.52764E-05 1.51251E-03 2.11963E-13 2.60025E-13
 -1      2772 1.99992E+01 5.85949E-04 2.87569E-05 3.07279E-03 3.14056E-13 1.31790E-13
 -1      2773 1.99992E+01 1.70408E-04-3.40588E-06 3.26267E-03 1.85514E-13 2.76934E-13
 -1      2774 2.00003E+01 1.08759E-03-2.52988E-05 2.73600E-03 2.89010E-13 1.73294E-14
 -1      2775 1.99991E+01-1.94699E-04 1.53547E-05 3.37371E-03-1.15109E-13 4.41654E-13
 -1      2776 1.99992E+01-5.42963E-04-4.12716E-06 3.33287E-03-2.67088E-13 2.92716E-13
 -1      2777 1.99999E+01 5.20139E-05-1.62723E-05 3.29522E-03 8.95679E-14 3.66885E-13
 -1      2778 1.99992E+01-7.96620E-04-2.35080E-06 3.29831E-03-4.13094E-13 3.73043E-13
 -1      2779 1.99995E+01-1.12782E-03-5.57465E-06 3.14673E-03-4.31995E-13 2.82855E-13
 -1      2780 1.99999E+01-1.33430E-03 6.88926E-06 3.17880E-03-4.70108E-13 4.10823E-13
 -1      2781 1.99998E+01-6.91647E-04-3.39902E-06 3.35804E-03-3.55792E-13 2.53990E-13
 -1      2782 2.05574E+01-4.33032E-01-5.74707E-03 1.84122E-01-3.35079E-14 1.69079E-13
 -1      2783 2.05555E+01-3.82196E-01 3.34297E-03 6.95074E-02-4.56644E-14 1.48612E-13
 -1      2784 2.04110E+01-1.85815E-01-4.05769E-03-1.63094E-01-1.02769E-14 1.54085E-13
 -1      2785 2.03999E+01-1.05689E-01 5.60315E-03-1.94946E-01-4.51576E-15 1.82021E-13
 -1      2786 2.06003E+01-4.78354E-01-5.13998E-03 4.63004E-01 5.43660E-14 1.79351E-13
 -1      2787 2.06218E+01-4.64067E-01 1.50576E-03 3.26204E-01 1.82534E-14 1.87071E-13
 -1      2788 2.08095E+01-5.59805E-01 1.82727E-04 2.30575E-01-1.19728E-14 8.80611E-14
 -1      2789 2.05832E+01-4.22461E-01-2.62098E-03 7.57772E-01 7.19610E-14 1.71753E-13
 -1      2790 2.06365E+01-4.65228E-01-1.22347E-03 6.24965E-01 7.37306E-14 2.04287E-13
 -1      2791 2.09093E+01-5.89083E-01 2.69087E-03 5.44037E-01 5.87249E-14 1.15723E-13
 -1      2792 2.04821E+01-2.34768E-01 1.95796E-03 9.95101E-01 2.07797E-14 1.41171E-13
 -1      2793 2.05678E+01-3.47921E-01-4.64943E-03 9.03600E-01 4.01243E-14 1.71179E-13
 -1      2794 2.09396E+01-4.79802E-01 5.24824E-03 8.68020E-01 6.29106E-14 1.95108E-13
 -1      2795 2.02957E+01 7.96437E-02 7.47338E-03 1.08344E+00 3.96512E-14 1.13193E-13
 -1      2796 2.04025E+01-9.49422E-02-7.56195E-03 1.07447E+00 3.47923E-14 1.18827E-13
 -1      2797 2.08648E+01-2.03098E-01 6.30596E-03 1.11308E+00 5.60768E-14 8.60065E-14
 -1      2798 2.00613E+01 4.56005E-01 1.13196E-02 9.44257E-01-9.49884E-14 1.75958E-13
 -1      2799 2.01655E+01 2.61476E-01-8.17458E-03 1.04611E+00-4.17348E-14 1.17021E-13
 -1      2800 2.06820E+01 2.16517E-01 4.42727E-03 1.17037E+00-1.49687E-14 1.96740E-13
 -1      2801 1.98555E+01 7.75661E-01 1.08714E-02 5.59120E-01-5.55337E-14 2.53524E-13
 -1      2802 1.99268E+01 6.26831E-01-5.25067E-03 7.67177E-01-7.50665E-14 2.02558E-13
 -1      2803 2.04439E+01 6.78126E-01-7.66140E-04 9.55763E-01-9.73611E-14 1.75271E-13
 -1      2804 1.97640E+01 9.15033E-01 5.79526E-03 1.72101E-03 5.69341E-14 2.24713E-13
 -1      2805 1.97781E+01 8.71975E-01 8.90679E-04 2.70433E-01 2.88463E-15 2.64730E-13
 -1      2806 2.02505E+01 1.02793E+00-6.60169E-03 4.69039E-01-3.07507E-14 2.42299E-13
 -1      2807 1.98352E+01 8.14934E-01-1.09215E-03-5.75783E-01 1.15853E-13 2.05143E-13
 -1      2808 1.97850E+01 8.95672E-01 7.62150E-03-3.19468E-01 1.06470E-13 1.96621E-13
 -1      2809 2.01993E+01 1.12879E+00-8.42632E-03-1.76301E-01 7.18773E-14 1.67661E-13
 -1      2810 2.00448E+01 5.21572E-01-6.15288E-03-1.01239E+00 9.60366E-14 2.63834E-13
 -1      2811 1.99439E+01 6.89948E-01 1.12406E-02-8.34612E-01 1.12585E-13 2.13906E-13
 -1      2812 2.03200E+01 9.40168E-01-4.45399E-03-7.88011E-01 1.28441E-13 1.58467E-13
 -1      2813 2.03122E+01 1.53294E-01-7.79475E-03-1.21284E+00-1.36614E-14 2.64126E-13
 -1      2814 2.01888E+01 3.43271E-01 9.95949E-03-1.14550E+00 6.04650E-14 2.30447E-13
 -1      2815 2.05519E+01 5.42599E-01 1.46619E-03-1.19373E+00 6.45167E-14 2.05541E-13
 -1      2816 2.05487E+01-1.67446E-01-6.18071E-03-1.17732E+00 5.91604E-14 1.49310E-13
 -1      2817 2.04317E+01-1.48883E-02 5.17936E-03-1.21170E+00-3.35226E-14 1.57010E-13
 -1      2818 2.07889E+01 8.95424E-02 5.60832E-03-1.31916E+00 6.27519E-14 1.29740E-13
 -1      2819 2.06995E+01-3.70067E-01-3.08443E-03-9.75275E-01 6.87996E-14 2.11034E-13
 -1      2820 2.06088E+01-2.83276E-01-1.73235E-04-1.07732E+00 1.04661E-13 2.24082E-13
 -1      2821 2.09445E+01-2.79801E-01 6.40698E-03-1.19987E+00 2.65562E-14 8.37730E-14
 -1      2822 2.07538E+01-4.45080E-01-1.94949E-04-6.96869E-01 7.89506E-14 3.12634E-13
 -1      2823 2.06972E+01-4.22273E-01-4.06392E-03-8.27293E-01 7.93401E-14 2.82372E-13
 -1      2824 2.09870E+01-4.95155E-01 4.72637E-03-9.32364E-01 7.51929E-14 2.92043E-13
 -1      2825 2.07308E+01-4.22353E-01 1.74791E-03-4.16759E-01 1.73593E-14 3.15297E-13
 -1      2826 2.07062E+01-4.44843E-01-5.83703E-03-5.44406E-01 6.05671E-14 3.32553E-13
 -1      2827 2.09324E+01-5.57524E-01 2.32070E-03-6.16965E-01 5.82086E-14 2.94693E-13
 -1      2828 2.06596E+01-3.44193E-01 2.61738E-03-1.80014E-01-5.60595E-14 2.15024E-13
 -1      2829 2.06600E+01-3.89914E-01-5.88961E-03-2.86514E-01-4.28433E-15 3.48025E-13
 -1      2830 2.08178E+01-5.09685E-01 3.62930E-04-3.25338E-01 4.07307E-14 3.97445E-13
 -1      2831 2.05664E+01-2.47112E-01 2.68086E-03-4.60037E-03-8.22628E-15 2.23327E-13
 -1      2832 2.05835E+01-2.98524E-01-4.96773E-03-8.28921E-02-6.71279E-14 1.92738E-13
 -1      2833 2.06796E+01-4.03891E-01-8.35091E-04-9.39488E-02 9.94501E-15 2.90509E-13
 -1      2834 2.04694E+01-1.55113E-01 2.30650E-03 1.09747E-01-5.14546E-14 2.99928E-13
 -1      2835 2.04961E+01-2.01466E-01-3.67923E-03 5.91150E-02 3.40112E-14 2.82704E-13
 -1      2836 2.05435E+01-2.82378E-01-1.35449E-03 6.77395E-02-7.93436E-14 3.13576E-13
 -1      2837 2.03789E+01-8.02089E-02 1.77257E-03 1.72773E-01-1.15441E-13 4.36377E-13
 -1      2838 2.04099E+01-1.16656E-01-2.40789E-03 1.45260E-01-5.59807E-14 3.42405E-13
 -1      2839 2.04232E+01-1.71503E-01-1.42878E-03 1.66079E-01-1.02994E-13 4.79711E-13
 -1      2840 2.02998E+01-2.58163E-02 1.24765E-03 1.97411E-01-7.77386E-14 2.13500E-13
 -1      2841 2.03313E+01-5.14789E-02-1.34484E-03 1.87132E-01-9.31798E-14 3.39339E-13
 -1      2842 2.03237E+01-8.34927E-02-1.28101E-03 2.14258E-01-5.90871E-14 3.89349E-13
 -1      2843 2.02332E+01 9.60241E-03 8.11004E-04 1.96145E-01-5.22592E-15 1.26120E-13
 -1      2844 2.02630E+01-6.54206E-03-5.49460E-04 1.97441E-01-3.02326E-14 1.97474E-13
 -1      2845 2.02446E+01-2.09387E-02-1.05841E-03 2.26674E-01 1.29166E-14 2.59461E-13
 -1      2846 2.01788E+01 2.97729E-02 4.84884E-04 1.79323E-01 5.73947E-14 2.01154E-13
 -1      2847 2.02055E+01 2.10397E-02-9.29299E-06 1.87508E-01 3.27697E-14 1.65308E-13
 -1      2848 2.01833E+01 1.88663E-02-8.37831E-04 2.16082E-01 6.67028E-15 1.53941E-13
 -1      2849 2.01350E+01 3.88765E-02 2.60510E-04 1.54688E-01 3.64680E-14 1.77500E-13
 -1      2850 2.01580E+01 3.53809E-02 3.19559E-04 1.66261E-01 7.69053E-14 2.23368E-13
 -1      2851 2.01365E+01 4.07849E-02-6.51219E-04 1.92515E-01 6.97796E-14 1.03259E-13
 -1      2852 2.01003E+01 4.06541E-02 1.17590E-04 1.27559E-01-7.62469E-14 1.10486E-13
 -1      2853 2.01196E+01 4.05309E-02 4.89439E-04 1.40125E-01-2.25454E-14 1.93803E-13
 -1      2854 2.01011E+01 4.99470E-02-5.04686E-04 1.63196E-01 2.95208E-14-5.46211E-15
 -1      2855 2.00732E+01 3.80600E-02 3.37685E-05 1.01269E-01 1.86612E-16 2.58707E-13
 -1      2856 2.00889E+01 3.98766E-02 5.49013E-04 1.13338E-01-7.68173E-14 1.52900E-13
 -1      2857 2.00743E+01 5.08090E-02-3.93667E-04 1.32913E-01-5.06846E-14 7.72870E-14
 -1      2858 2.00524E+01 3.32274E-02-1.01963E-05 7.76698E-02 9.92691E-14 2.46568E-13
 -1      2859 2.00648E+01 3.59730E-02 5.38302E-04 8.84266E-02 6.81081E-14 3.07992E-13
 -1      2860 2.00541E+01 4.68271E-02-3.10255E-04 1.04553E-01-7.89788E-14 2.01602E-13
 -1      2861 2.00365E+01 2.75798E-02-2.91330E-05 5.75879E-02 1.25230E-13 3.29060E-13
 -1      2862 2.00462E+01 3.05951E-02 4.87530E-04 6.66831E-02 1.38471E-13 3.19391E-13
 -1      2863 2.00389E+01 4.04624E-02-2.46808E-04 7.96223E-02 7.93180E-14 2.55936E-13
 -1      2864 2.00247E+01 2.19909E-02-3.35678E-05 4.11883E-02 1.55440E-13 2.64797E-13
 -1      2865 2.00320E+01 2.48826E-02 4.17904E-04 4.85694E-02 1.28988E-13 3.63485E-13
 -1      2866 2.00276E+01 3.33357E-02-1.97469E-04 5.86987E-02 1.44270E-13 1.09049E-13
 -1      2867 2.00160E+01 1.69392E-02-3.04893E-05 2.82477E-02 1.74248E-13 1.28689E-13
 -1      2868 2.00213E+01 1.95015E-02 3.43327E-04 3.40344E-02 2.28132E-13 3.32776E-13
 -1      2869 2.00191E+01 2.64259E-02-1.58172E-04 4.17747E-02 2.16988E-13 2.26398E-13
 -1      2870 2.00097E+01 1.26379E-02-2.42597E-05 1.83447E-02 1.01580E-13 1.88679E-13
 -1      2871 2.00136E+01 1.47882E-02 2.72193E-04 2.27424E-02 1.49595E-13 1.49924E-13
 -1      2872 2.00129E+01 2.02557E-02-1.26240E-04 2.85117E-02 1.73751E-13 2.05892E-13
 -1      2873 2.00054E+01 9.13321E-03-1.74269E-05 1.09847E-02-5.59674E-14 1.56528E-13
 -1      2874 2.00080E+01 1.08653E-02 2.08980E-04 1.42275E-02 4.36797E-15 2.27330E-13
 -1      2875 2.00083E+01 1.50445E-02-9.99476E-05 1.84134E-02 3.99434E-14 1.90130E-13
 -1      2876 2.00025E+01 6.37493E-03-1.13662E-05 5.67720E-03 2.38649E-14 8.62977E-14
 -1      2877 2.00042E+01 7.72515E-03 1.55555E-04 7.99390E-03-2.44341E-14 9.15553E-14
 -1      2878 2.00051E+01 1.08229E-02-7.81757E-05 1.09380E-02-5.92060E-15 1.55114E-13
 -1      2879 2.00006E+01 4.26266E-03-6.74909E-06 1.97867E-03 5.46680E-14 1.99487E-13
 -1      2880 2.00017E+01 5.28845E-03 1.12161E-04 3.57343E-03 4.87886E-14 8.26178E-14
 -1      2881 2.00029E+01 7.51345E-03-6.01576E-05 5.56584E-03 2.36784E-14 2.74743E-13
 -1      2882 1.99996E+01 2.67498E-03-3.85513E-06-4.86255E-04 3.13605E-14 2.45020E-13
 -1      2883 2.00001E+01 3.44174E-03 7.81303E-05 5.57256E-04 6.69816E-14 1.30941E-13
 -1      2884 2.00014E+01 4.98440E-03-4.53459E-05 1.83626E-03 7.33732E-14 2.69648E-13
 -1      2885 1.99990E+01 1.48583E-03-2.79684E-06-2.01768E-03 1.70154E-14 3.87659E-13
 -1      2886 1.99992E+01 2.05965E-03 5.23543E-05-1.39104E-03-4.08856E-14 3.16790E-13
 -1      2887 2.00004E+01 3.08214E-03-3.33237E-05-6.35661E-04-3.92106E-14 1.45917E-13
 -1      2888 1.99988E+01 5.74286E-04-2.97186E-06-2.84075E-03 1.40091E-13 5.16973E-13
 -1      2889 1.99988E+01 1.01674E-03 3.35035E-05-2.53251E-03 2.03709E-13 5.49281E-13
 -1      2890 1.99998E+01 1.64981E-03-2.37125E-05-2.15510E-03 3.07793E-15 2.69247E-13
 -1      2891 1.99989E+01-1.63699E-04-1.01584E-06-3.10678E-03-1.91452E-15 4.28115E-13
 -1      2892 1.99988E+01 1.87388E-04 1.76316E-05-3.05744E-03 1.17615E-14 5.19899E-13
 -1      2893 1.99996E+01 5.44231E-04-1.40432E-05-2.95158E-03 7.67942E-14 4.79832E-13
 -1      2894 1.99992E+01-7.87559E-04-5.94207E-06-2.97959E-03-9.05056E-14 5.73236E-13
 -1      2895 1.99990E+01-4.58458E-04 3.07270E-06-3.12924E-03-8.37029E-14 4.18763E-13
 -1      2896 1.99996E+01-3.12692E-04-5.93844E-06-3.18946E-03-5.30703E-14 4.93041E-13
 -1      2897 1.99997E+01-1.06527E-03 2.16437E-06-3.08999E-03-1.02292E-13 2.23168E-13
 -1      2898 2.46881E+01-5.05913E+00 1.05184E-01-4.83500E+00-2.12649E-13 6.85563E-15
 -1      2899 2.70459E+01-4.30826E+00-9.76912E-02-2.91607E+00-1.45425E-13 8.35443E-14
 -1      2900 2.00015E+01-1.43624E-03 2.11281E-06-3.25595E-04-2.95803E-13-3.14642E-14
 -1      2901 2.00015E+01-1.40297E-03 7.63582E-07-7.20784E-04-5.16708E-14-2.53290E-14
 -1      2902 2.00012E+01-1.38163E-03 6.47483E-07-1.83552E-03 2.23972E-13-2.24985E-13
 -1      2903 2.00011E+01-1.28685E-03 2.76021E-06-2.15128E-03 2.14988E-13-2.16400E-13
 -1      2904 2.00015E+01-1.46632E-03 3.57646E-06 4.91026E-04-1.72454E-13 2.96776E-13
 -1      2905 2.00015E+01-1.46513E-03-1.95884E-07 8.36536E-05-3.56881E-13 2.71127E-13
 -1      2906 2.00019E+01-3.59136E-04 8.47840E-06-1.41785E-04-1.13906E-13 5.85877E-14
 -1      2907 2.00014E+01-1.41121E-03 9.84356E-07-1.11032E-03-1.20963E-13 1.28928E-14
 -1      2908 2.00013E+01-1.34707E-03 1.69805E-06-1.47687E-03 1.36169E-13-1.70213E-13
 -1      2909 2.00016E+01-4.01266E-04 5.48611E-06-1.67542E-03 2.17741E-13-3.28359E-13
 -1      2910 2.00018E+01-3.44749E-04 8.04008E-06-9.33413E-04-1.83741E-14-1.05216E-13
 -1      2911 2.00015E+01-1.49037E-03 4.35113E-06 1.29593E-03-2.03186E-14-3.34643E-13
 -1      2912 2.00015E+01-1.52597E-03-3.56448E-07 9.02597E-04-7.39675E-14-3.07797E-14
 -1      2913 2.00019E+01-4.46882E-04 7.35972E-06 6.73435E-04-7.19846E-14 1.09936E-13
 -1      2914 2.00012E+01-1.48315E-03 2.93670E-06 2.07027E-03 1.57306E-13-5.94630E-13
 -1      2915 2.00014E+01-1.56176E-03 1.16288E-06 1.70610E-03 5.83804E-14-4.30698E-13
 -1      2916 2.00018E+01-5.85244E-04 4.69251E-06 1.49402E-03 7.28397E-14-3.19281E-13
 -1      2917 2.00008E+01-1.41031E-03 9.59118E-07 2.71810E-03 2.16487E-14-7.93567E-14
 -1      2918 2.00011E+01-1.53126E-03 4.16409E-06 2.43488E-03 2.24684E-13-3.92362E-13
 -1      2919 2.00014E+01-7.25216E-04 5.58862E-07 2.27693E-03 1.34557E-13-4.19006E-13
 -1      2920 2.40916E+01-5.08756E+00-7.07824E-02 5.17502E+00-6.63775E-14 2.48353E-13
 -1      2921 2.20374E+01-5.03290E+00 1.04166E-01 6.02577E+00-1.19141E-13 3.82958E-13
 -1      2922 2.04416E+01 1.80348E+00-7.82300E-03-8.75141E-01 2.63665E-14-5.27874E-14
 -1      2923 2.04587E+01 1.47340E+00 3.29801E-03-5.60305E-01 2.40851E-14-3.82939E-14
 -1      2924 2.02735E+01 2.09189E+00-3.76796E-03-8.51813E-01 5.16865E-14-4.86785E-14
 -1      2925 2.94423E+01 5.66322E+00-1.13477E-01 1.68327E+00 2.07279E-13 3.70592E-13
 -1      2926 2.90388E+01 6.82007E+00-1.95635E-01 9.81949E-01 2.82024E-13 3.10751E-13
 -1      2927 3.78847E+01 5.65315E+00-1.99129E-03 1.54688E+00-1.99341E-13-5.47201E-14
 -1      2928 2.86743E+01 7.27920E+00-1.82724E-01 1.29665E-02 2.92016E-13 2.10982E-13
 -1      2929 2.89470E+01 6.80417E+00-1.73695E-01-1.01056E+00 3.47972E-13 7.73825E-14
 -1      2930 7.09815E+00-6.89214E-01 1.91471E-01-2.47198E+00 4.36456E-15 2.61152E-13
 -1      2931 8.74761E+00-1.47720E+00 1.52325E-01-4.09203E+00 6.75016E-14 3.19411E-13
 -1      2932 1.10274E+01-2.37843E+00 1.53554E-01-5.03001E+00 1.64591E-13 4.86805E-13
 -1      2933 1.43895E+01-3.59064E+00 2.29015E-02-5.95613E+00 1.43802E-13 3.96350E-13
 -1      2934 1.18292E+01-1.04999E+00 1.71825E-01-4.35119E+00 2.93932E-14 4.12476E-13
 -1      2935 1.82004E+01-3.87990E+00 1.67864E-01 5.68238E+00 1.28897E-13 6.87506E-14
 -1      2936 1.91063E+01-2.85215E+00 1.59160E-01-5.03756E+00 8.18789E-14 3.10960E-13
 -1      2937 1.81162E+01-1.39336E+00 1.04617E-01-4.84195E+00 5.38042E-14 2.96221E-13
 -1      2938 2.04849E+01-3.25499E-01-5.14119E-03-3.25912E-02-4.17752E-14 1.38401E-13
 -1      2939 2.04717E+01-2.55413E-01 4.53630E-03-1.09864E-01-3.92194E-14 1.28619E-13
 -1      2940 2.05629E+01-2.71029E-01-2.99301E-03-1.68762E-01-1.39259E-14 1.24842E-13
 -1      2941 2.04464E+01 1.28721E+00 2.72157E-03-3.46005E-01 2.35361E-14-3.82309E-14
 -1      2942 2.03788E+01 1.11369E+00-2.36502E-04-3.80438E-02 2.38572E-14-3.34868E-14
 -1      2943 2.02349E+01 1.30112E+00 2.58316E-03 2.85873E-02 2.22884E-14-2.84603E-16
 -1      2944 2.03098E+01 1.55146E+00-1.56203E-03-3.73101E-01 2.49074E-14-3.50565E-15
 -1      2945 1.05000E+01-2.02828E+00 1.48166E-01-6.06966E+00-7.20118E-14-1.19543E-13
 -1      2946 1.34635E+01-3.29212E+00 9.82823E-02-7.12610E+00-1.13326E-13-1.63092E-13
 -1      2947 2.83257E+01-3.12297E+00-1.25759E-01 1.80083E+00 1.16096E-13-1.34129E-13
 -1      2948 2.64301E+01-4.35077E+00 2.70343E-02 3.49297E+00 7.91034E-15 5.06678E-14
 -1      2949 1.04426E+01-2.03371E+00 8.53139E-02 6.32942E+00-1.85962E-14-2.80609E-14
 -1      2950 7.60374E+00-1.12300E+00 2.61796E-01 4.66746E+00-5.86475E-14 1.39999E-13
 -1      2951 1.98237E+01 2.70283E+00-6.14298E-03 5.35986E-01 1.40739E-13 1.72741E-13
 -1      2952 1.97206E+01 2.81950E+00-6.74812E-03 3.94426E-01 1.35751E-13 1.48321E-13
 -1      2953 1.97983E+01 2.54773E+00 3.26686E-03 2.41573E-01 1.17159E-13 1.41303E-13
 -1      2954 2.00047E+01 2.28092E+00 4.20793E-03 4.63610E-01 1.19707E-13 1.61826E-13
 -1      2955 1.94926E+01 3.07311E+00-6.57056E-03-5.12811E-01 1.12688E-13 4.82275E-15
 -1      2956 1.95825E+01 2.97585E+00-8.14125E-03-6.05651E-01 1.06565E-13-2.93301E-14
 -1      2957 2.98998E+01 9.91373E-01-8.50485E-02 1.16437E+00-8.92897E-14 2.05280E-13
 -1      2958 2.96920E+01 3.35025E+00-2.16768E-01 1.75019E+00 6.36158E-14 2.97040E-13
 -1      2959 2.88160E+01-2.19881E+00-6.82754E-02-6.47670E-01-1.20910E-13 1.42192E-13
 -1      2960 2.97231E+01-7.08149E-01-1.35844E-01 3.62435E-01-1.20695E-13 1.56944E-13
 -1      2961 2.88557E+01 2.47901E-01-5.59330E-02 1.37315E+00-8.11712E-14 2.26333E-13
 -1      2962 6.71081E+00-6.39286E-02 1.87336E-01-1.53919E+00 2.73497E-14-5.52336E-14
 -1      2963 8.03023E+00-6.59088E-01 1.47635E-01-4.04133E+00-1.01308E-14-1.08774E-13
 -1      2964 7.65420E+00-1.19312E+00 1.46304E-01 3.48255E+00 6.74877E-14 1.25788E-13
 -1      2965 6.49048E+00-3.51202E-01 1.55819E-01 1.20358E+00 4.43812E-14 2.69784E-14
 -1      2966 1.34973E+01-3.26804E+00 5.86978E-02 5.98470E+00 1.22985E-13 7.47180E-14
 -1      2967 1.01118E+01-2.04696E+00 1.49760E-01 4.83016E+00 9.14269E-14 1.09024E-13
 -1      2968 2.96524E+01 5.72347E+00-1.92777E-01-1.55048E+00 3.46057E-13-7.47596E-14
 -1      2969 2.99011E+01 4.17482E+00-1.49705E-01-1.70585E+00 2.72005E-13-1.85185E-13
 -1      2970 1.98865E+01-4.15326E+00 1.54690E-01-5.22483E+00 1.65312E-13 2.74954E-13
 -1      2971 1.75012E+01-2.58186E+00 1.68834E-01 5.38744E+00 9.26065E-14 8.21565E-14
 -1      2972 1.94301E+01 3.13962E+00-7.29272E-03-4.53038E-01 1.21418E-13 2.64686E-14
 -1      2973 1.95489E+01 2.82838E+00 6.47927E-03-4.24118E-01 1.02058E-13 2.20394E-14
 -1      2974 1.93955E+01 3.18046E+00-4.92001E-03-3.54791E-01 1.27752E-13 4.01343E-14
 -1      2975 1.01510E+01-8.57071E-01 1.69902E-01-4.86496E+00-3.65749E-14-1.13076E-13
 -1      2976 1.24245E+01-1.06858E+00 9.18864E-02-5.26253E+00-3.46771E-14-1.04652E-13
 -1      2977 1.02636E+01 2.34799E-01 1.00084E-01-3.50717E+00 4.67126E-14-5.43732E-14
 -1      2978 2.03585E+01-2.76011E-02-3.05475E-03-1.95437E-01-2.03702E-14 1.86790E-13
 -1      2979 2.03633E+01 6.27088E-02 7.09695E-03-1.75762E-01-1.03118E-14 2.12975E-13
 -1      2980 2.04747E+01-7.47310E-02-3.77070E-03-2.14986E-01 5.16244E-15 1.45579E-13
 -1      2981 7.72471E+00-3.72661E-01 2.12312E-01 3.35837E+00-1.03070E-13 1.70280E-13
 -1      2982 1.43449E+01-2.45392E-01 7.09516E-02 4.59074E+00 3.88023E-14 9.47992E-14
 -1      2983 1.67704E+01-1.11409E+00 9.93506E-02 4.97147E+00 5.63855E-14 8.24896E-14
 -1      2984 1.54119E+01-5.62270E-01 5.56541E-02-4.69877E+00-3.56798E-14 4.16889E-13
 -1      2985 1.53189E+01-3.02878E+00-1.71733E-02 6.62663E+00 3.20438E-14 2.56364E-13
 -1      2986 1.30823E+01-2.45362E+00 1.93099E-01 6.74593E+00 5.75373E-14 1.63147E-13
 -1      2987 1.19173E+01-1.18891E+00 1.07164E-01 5.68547E+00-1.89848E-14 1.41193E-13
 -1      2988 2.83997E+01-1.01234E+00-1.40726E-01-7.59165E-01 7.47596E-14-2.07431E-13
 -1      2989 2.88357E+01-2.05885E+00-3.45315E-02 4.87289E-01 6.19227E-14-1.82923E-13
 -1      2990 2.75377E+01-2.96084E+00-2.74201E-03 9.23300E-01 3.77233E-14-2.41140E-13
 -1      2991 2.06823E+01-4.40133E-01-1.73881E-03-1.63135E-02-4.36984E-14 8.80170E-14
 -1      2992 2.04960E+01-4.57601E+00 9.31392E-02 6.27782E+00-1.05055E-13 3.46266E-13
 -1      2993 2.03836E+01 3.86993E-01 6.34164E-04 9.36298E-02 3.05799E-14 2.75574E-13
 -1      2994 2.04093E+01 4.77435E-01 8.17936E-03 1.99118E-01 3.30352E-14 2.97920E-13
 -1      2995 2.30199E+01-5.00248E+00 7.02530E-02-5.33015E+00-2.39531E-13-1.55050E-14
 -1      2996 2.00001E+01-1.10945E-03-1.01254E-07-2.95493E-03 1.29204E-13-4.84853E-13
 -1      2997 2.00001E+01-6.80763E-04-9.88907E-07-3.07401E-03-2.29240E-13-2.29665E-13
 -1      2998 2.00004E+01-1.28061E-03 3.21835E-07-2.85355E-03 8.97107E-14-9.74784E-13
 -1      2999 7.04402E+00-2.97708E-01 1.64380E-01-1.47382E+00-4.04468E-14 1.57457E-13
 -1      3000 9.04849E+00 3.81540E-01 6.39228E-02-2.23348E+00-6.43652E-14 1.64063E-13
 -1      3001 7.19740E+00 3.37780E-01 1.01325E-01-5.66236E-02-1.33134E-13 7.32747E-15
 -1      3002 2.55108E+01-4.48617E+00 5.10766E-02 3.58789E+00-1.17337E-13-3.10307E-14
 -1      3003 2.00002E+01-1.33958E-03 4.98862E-07 3.06488E-03-2.58636E-13 2.83601E-14
 -1      3004 2.00005E+01-1.48880E-03 6.14147E-06 2.93351E-03-1.14346E-13-4.22078E-14
 -1      3005 2.00009E+01-9.00245E-04-7.16910E-06 2.87018E-03-8.47900E-14-3.56118E-13
 -1      3006 2.00002E+01-1.00072E-03-5.46174E-06 3.18851E-03-3.35976E-13 8.91085E-16
 -1      3007 1.52696E+01-2.74715E+00 8.29381E-02-6.46487E+00-1.26343E-13-8.74301E-14
 -1      3008 1.60329E+01-3.72504E+00 1.49093E-01-6.98422E+00-1.76803E-13-1.64022E-13
 -1      3009 1.83295E+01-4.21653E+00-2.77237E-02-6.55661E+00-2.27401E-13-1.33969E-13
 -1      3010 2.94946E+01 2.62370E+00-1.27548E-01-1.69582E+00 1.72418E-13-1.58318E-13
 -1      3011 2.86324E+01 1.15783E+00-8.70440E-02-1.54813E+00 1.75068E-13-1.48173E-13
 -1      3012 2.81510E+01 3.22903E+00-9.81578E-02-2.04948E+00 1.97217E-13-9.50351E-14
 -1      3013 2.83602E+01 3.82531E+00-1.12464E-01 1.84681E+00 9.54792E-14 3.93616E-13
 -1      3014 2.74521E+01 6.35515E+00-1.29161E-01 4.76430E-01 2.39059E-13 2.01365E-13
 -1      3015 2.78811E+01 5.65547E+00-1.27042E-01-1.33388E+00 2.54408E-13 4.20497E-15
 -1      3016 1.08082E+01-7.95824E-01 1.91196E-01 4.00983E+00 8.76521E-14 1.07081E-13
 -1      3017 2.00009E+01-1.36538E-03 3.25295E-07-2.41515E-03 2.09112E-13-6.47294E-13
 -1      3018 2.00007E+01-1.23635E-03 2.45993E-06-2.64573E-03 2.42441E-13-8.82536E-13
 -1      3019 2.00008E+01-6.61197E-04 8.45018E-08-2.75075E-03 1.43579E-13-7.33413E-13
 -1      3020 2.00012E+01-5.29253E-04 2.06474E-06-2.28929E-03 2.69054E-13-3.94375E-13
 -1      3021 2.79642E+01-3.44575E+00-1.32228E-02-1.38356E+00-8.54976E-14 1.25358E-13
 -1      3022 2.77959E+01-2.39620E+00-7.61790E-02-5.89113E-03-8.42035E-14 8.98864E-14
 -1      3023 2.62967E+01-4.08134E+00-2.32798E-02-2.24002E+00-7.09328E-14 6.55552E-14
 -1      3024 2.03447E+01 1.54041E-01-2.39506E-03-1.19225E-01 1.33076E-14 2.43396E-13
 -1      3025 2.03784E+01 2.63429E-01 9.13491E-03-3.92377E-02 2.60759E-14 2.57939E-13
 -1      3026 2.04304E+01 1.48998E-01-4.20561E-03-1.47435E-01 2.34700E-14 2.01311E-13
 -1      3027 1.93987E+01 3.18189E+00-3.85349E-03-1.73369E-01 1.28862E-13 6.26218E-14
 -1      3028 1.93850E+01 3.18600E+00-7.01502E-03-2.81781E-01 1.25405E-13 5.01131E-14
 -1      3029 1.94837E+01 2.89892E+00 4.94742E-03-3.08564E-01 1.19977E-13 5.00779E-14
 -1      3030 1.95179E+01 2.86361E+00 3.86910E-03-1.58702E-01 1.06833E-13 6.31151E-14
 -1      3031 1.97013E+01 2.83841E+00-7.68327E-03-6.56015E-01 9.84505E-14-6.04642E-14
 -1      3032 1.98433E+01 2.66760E+00-1.03195E-02-7.42282E-01 9.15629E-14-6.15120E-14
 -1      3033 1.97260E+01 2.63192E+00 9.37330E-03-5.13018E-01 9.12519E-14-2.91094E-14
 -1      3034 7.63666E+00 3.96754E-01 1.90776E-01-1.87641E-01 6.40547E-14-3.20022E-14
 -1      3035 9.21037E+00 9.14474E-01 1.17300E-01-1.17621E+00 7.91745E-14-3.05311E-14
 -1      3036 9.23572E+00 7.90719E-01 1.45309E-01 1.12961E+00 1.07430E-13 5.60663E-14
 -1      3037 2.04300E+01 4.21148E-01-4.34931E-03 5.44365E-02 3.17154E-14 2.33229E-13
 -1      3038 2.04774E+01 1.07205E+00-4.60670E-03 5.81448E-01 3.85889E-14 2.51500E-13
 -1      3039 2.04156E+01 1.32044E+00 2.98823E-03 5.67650E-01 5.58876E-14 2.29489E-13
 -1      3040 2.03273E+01 1.50186E+00-7.71866E-03 5.27169E-01 7.07489E-14 1.92846E-13
 -1      3041 2.02312E+01 1.71101E+00-9.89594E-04 4.52707E-01 9.29953E-14 1.65048E-13
 -1      3042 2.04140E+01 1.14800E+00 5.32505E-03 3.60921E-01 4.70124E-14 1.98886E-13
 -1      3043 2.04549E+01 5.72967E-01 6.35763E-03 4.16655E-01 3.56000E-14 3.15917E-13
 -1      3044 1.99908E+01 1.33987E+00-1.21219E-03 2.37804E-01 2.68411E-14-1.13263E-14
 -1      3045 1.98897E+01 1.27546E+00-3.11801E-03 4.59107E-01 1.35482E-14-6.20158E-15
 -1      3046 1.21292E+01 6.57235E-01 8.76001E-02 3.25535E+00 5.02480E-14 8.45296E-14
 -1      3047 1.32409E+01 3.88171E-01 6.38332E-02-3.70805E+00-1.04337E-13 3.43864E-13
 -1      3048 1.97301E+01 1.25035E+00-3.28288E-03 6.25957E-01 1.93020E-14 1.58489E-14
 -1      3049 1.95851E+01 1.26432E+00-3.97751E-03 8.20936E-01 1.46261E-14 2.70551E-14
 -1      3050 1.96632E+01 1.44430E+00 7.59424E-03 4.20282E-01 1.67987E-14 1.40010E-14
 -1      3051 1.93387E+01 1.30875E+00-6.92799E-03 9.61957E-01 1.57359E-14 4.93770E-14
 -1      3052 1.91328E+01 1.38070E+00-4.94059E-03 1.14203E+00 2.88647E-14 3.84005E-14
 -1      3053 1.92696E+01 1.45423E+00 1.17197E-02 7.08973E-01 3.29045E-14 7.96516E-14
 -1      3054 1.87690E+01 1.46979E+00-1.20576E-02 1.26297E+00 4.22822E-14 6.55087E-14
 -1      3055 1.84719E+01 1.57454E+00-6.50064E-03 1.43973E+00 8.13503E-14 9.65046E-14
 -1      3056 1.86853E+01 1.58753E+00 1.75240E-02 9.36173E-01 6.69334E-14 1.07179E-13
 -1      3057 1.79440E+01 1.67479E+00-1.84602E-02 1.55053E+00 6.55086E-14 8.01637E-14
 -1      3058 1.75199E+01 1.76722E+00-6.11243E-03 1.73945E+00 4.81277E-14 7.50519E-14
 -1      3059 1.78371E+01 1.79346E+00 2.62680E-02 1.10968E+00 6.25157E-14 6.26435E-14
 -1      3060 1.67967E+01 1.80838E+00-2.63698E-02 1.85614E+00 4.03661E-14 9.08479E-14
 -1      3061 1.62604E+01 1.81719E+00 2.15909E-03 2.07404E+00 5.86219E-14 6.84982E-14
 -1      3062 1.66555E+01 1.98979E+00 4.32747E-02 1.24503E+00 5.50844E-14 6.92549E-14
 -1      3063 1.51710E+01 1.72343E+00-1.94326E-02 2.25993E+00 6.81191E-14 5.64687E-14
 -1      3064 1.45776E+01 1.49344E+00 4.12855E-02 2.58388E+00 5.16419E-14 5.07684E-14
 -1      3065 1.49787E+01 2.04174E+00 8.23973E-02 1.40968E+00 4.68401E-14 4.50486E-14
 -1      3066 1.99733E+01 2.50492E+00-7.75630E-03-7.74965E-01 7.60414E-14-4.77526E-14
 -1      3067 2.01274E+01 2.29427E+00-9.82128E-03-8.34970E-01 6.53594E-14-4.99353E-14
 -1      3068 2.02126E+01 1.96109E+00 9.63016E-03-5.87515E-01 4.24469E-14-3.74938E-14
 -1      3069 1.99756E+01 2.31905E+00 1.10035E-02-5.67075E-01 8.12909E-14-3.72976E-14
 -1      3070 2.04846E+01 7.05470E-01-1.41712E-03 4.20145E-01 4.43100E-14 2.93629E-13
 -1      3071 1.66784E+01 1.73023E+00 1.13396E-02-2.30330E+00-1.67063E-13 1.67233E-13
 -1      3072 1.71191E+01 1.74201E+00-2.57747E-02-2.02548E+00-2.05237E-13 2.45815E-13
 -1      3073 1.78328E+01 1.69112E+00-1.17477E-03-1.84581E+00-1.22954E-13 2.65621E-13
 -1      3074 1.81632E+01 1.57764E+00-2.03416E-02-1.63072E+00-5.24858E-14 1.05905E-13
 -1      3075 1.67559E+01 1.95231E+00 4.19387E-02-1.45398E+00-1.51570E-13 1.74285E-13
 -1      3076 1.86528E+01 1.45055E+00-2.61816E-03-1.49436E+00-8.24195E-14 8.35821E-14
 -1      3077 1.88746E+01 1.30291E+00-1.47476E-02-1.31582E+00-1.59756E-13 1.08290E-13
 -1      3078 1.78864E+01 1.69952E+00 2.70451E-02-1.22921E+00-7.49085E-14 6.30468E-14
 -1      3079 1.92047E+01 1.16302E+00-1.46892E-03-1.20109E+00-1.53709E-13 2.00512E-13
 -1      3080 1.93409E+01 1.02214E+00-1.05118E-02-1.05155E+00-1.13089E-13 2.73628E-13
 -1      3081 1.86545E+01 1.38479E+00 1.81937E-02-1.03794E+00-7.65961E-14 1.85569E-13
 -1      3082 1.95593E+01 8.96956E-01-1.45572E-04-9.52404E-01-7.58764E-14 3.36667E-13
 -1      3083 1.96356E+01 7.77941E-01-7.51658E-03-8.29135E-01-7.40296E-15 3.66239E-13
 -1      3084 1.91651E+01 1.08410E+00 1.22222E-02-8.61963E-01-3.10373E-14 3.43578E-13
 -1      3085 1.97771E+01 6.76206E-01 8.00338E-04-7.44454E-01 8.02434E-14 3.80656E-13
 -1      3086 1.98151E+01 5.81871E-01-5.24260E-03-6.44997E-01 2.13440E-13 2.50911E-13
 -1      3087 1.94969E+01 8.27487E-01 7.96582E-03-7.01456E-01 5.78328E-14 3.89249E-13
 -1      3088 1.99018E+01 5.06710E-01 1.21332E-03-5.77812E-01 2.61984E-13 1.69720E-13
 -1      3089 1.99160E+01 4.37226E-01-3.73165E-03-5.02115E-01 2.17660E-13 6.96315E-14
 -1      3090 1.97034E+01 6.26430E-01 5.06771E-03-5.63106E-01 1.19775E-13 1.16730E-13
 -1      3091 1.99728E+01 3.76755E-01 1.30832E-03-4.43405E-01 5.16609E-14 9.60766E-14
 -1      3092 1.99753E+01 3.21765E-01-2.70197E-03-3.81175E-01-1.19165E-13 7.63487E-14
 -1      3093 1.98327E+01 4.70197E-01 3.25645E-03-4.44485E-01 1.11140E-13 1.27875E-13
 -1      3094 2.00101E+01 2.76840E-01 1.23375E-03-3.34086E-01-2.59940E-13 4.72163E-14
 -1      3095 2.00060E+01 2.36124E-01-1.88881E-03-2.86067E-01-3.70472E-13 4.33787E-14
 -1      3096 1.99134E+01 3.48339E-01 2.00136E-03-3.43231E-01-1.68579E-13-2.88658E-14
 -1      3097 2.00265E+01 2.02977E-01 1.10313E-03-2.48815E-01-4.11117E-13 2.58745E-13
 -1      3098 2.00196E+01 1.72911E-01-1.31936E-03-2.12128E-01-2.15150E-13 8.44650E-14
 -1      3099 1.99606E+01 2.57076E-01 1.18024E-03-2.61122E-01-2.17839E-13 6.82283E-14
 -1      3100 2.00314E+01 1.48522E-01 9.38259E-04-1.83058E-01-2.47984E-13 1.92947E-13
 -1      3101 2.00239E+01 1.26347E-01-9.21502E-04-1.55258E-01-9.39603E-14 1.43070E-13
 -1      3102 1.99871E+01 1.89191E-01 6.65551E-04-1.95750E-01-1.48247E-13 2.94383E-13
 -1      3103 2.00303E+01 1.08407E-01 7.75355E-04-1.32850E-01 5.18228E-14 3.87663E-14
 -1      3104 2.00233E+01 9.20901E-02-6.13506E-04-1.11967E-01 9.85071E-14 1.67364E-14
 -1      3105 2.00010E+01 1.38798E-01 3.45255E-04-1.44512E-01-4.97471E-14 1.62586E-13
 -1      3106 2.00265E+01 7.95119E-02 6.28697E-04-9.57117E-02 1.48961E-13-3.20100E-14
 -1      3107 2.00207E+01 6.78687E-02-4.27283E-04-8.07311E-02 1.42189E-13-1.10102E-13
 -1      3108 2.00075E+01 1.02104E-01 1.21654E-04-1.05707E-01 6.89651E-14-6.18386E-14
 -1      3109 2.00221E+01 5.79086E-02 4.89373E-04-6.76462E-02 9.90817E-14-1.40421E-13
 -1      3110 2.00170E+01 4.88608E-02-3.12592E-04-5.59568E-02 1.56960E-14-2.88559E-13
 -1      3111 2.00100E+01 7.49274E-02 6.40934E-05-7.59965E-02 1.63654E-13-2.71193E-13
 -1      3112 2.00174E+01 4.15489E-02 3.79892E-04-4.62390E-02 7.84910E-14-4.44684E-14
 -1      3113 2.00135E+01 3.48697E-02-2.16224E-04-3.76812E-02 1.02046E-13-3.17175E-14
 -1      3114 2.00103E+01 5.40616E-02 7.56975E-06-5.28895E-02 2.24199E-13-2.36817E-13
 -1      3115 2.00133E+01 2.94865E-02 2.88857E-04-3.05437E-02 1.98063E-13 4.94846E-14
 -1      3116 2.00103E+01 2.45756E-02-1.47733E-04-2.43598E-02 2.03305E-13 1.15158E-13
 -1      3117 2.00095E+01 3.86125E-02-2.19548E-05-3.57056E-02 2.56643E-13 2.24646E-13
 -1      3118 2.00099E+01 2.06260E-02 2.15979E-04-1.91969E-02 1.38703E-13 3.48553E-14
 -1      3119 2.00076E+01 1.70337E-02-9.95131E-05-1.47956E-02 7.58320E-14 1.05902E-13
 -1      3120 2.00081E+01 2.72119E-02-3.44710E-05-2.31097E-02 2.07468E-13 1.02918E-13
 -1      3121 2.00071E+01 1.41500E-02 1.58367E-04-1.11279E-02-3.19482E-14 9.70205E-14
 -1      3122 2.00055E+01 1.15509E-02-6.11677E-05-8.05915E-03 6.94009E-14-1.27823E-13
 -1      3123 2.00067E+01 1.88417E-02-3.79412E-05-1.40292E-02 3.91939E-14-1.58693E-14
 -1      3124 2.00050E+01 9.56101E-03 1.15285E-04-5.62848E-03 2.85367E-13-2.17282E-13
 -1      3125 2.00039E+01 7.74642E-03-3.91205E-05-3.61368E-03 4.23453E-13-1.48516E-13
 -1      3126 2.00053E+01 1.28356E-02-4.36904E-05-7.73013E-03 1.45432E-13 7.23079E-14
 -1      3127 2.00034E+01 6.20145E-03 8.14288E-05-1.85609E-03 5.48522E-13-7.32750E-14
 -1      3128 2.00026E+01 4.82688E-03-2.73047E-05-4.56239E-04 5.38337E-13 1.01448E-13
 -1      3129 2.00041E+01 8.50226E-03-3.08641E-05-3.37093E-03 5.06582E-13 2.56447E-13
 -1      3130 2.00022E+01 3.72022E-03 5.72032E-05 6.73001E-04 2.51126E-13 1.57459E-13
 -1      3131 2.00016E+01 2.72219E-03-1.65898E-05 1.53732E-03 1.86078E-13 9.54952E-14
 -1      3132 2.00030E+01 5.25085E-03-2.57454E-05-3.65694E-04 4.40675E-13 3.55534E-13
 -1      3133 2.00013E+01 1.90704E-03 3.84798E-05 2.21284E-03 1.95763E-13 1.35802E-13
 -1      3134 2.00009E+01 1.15743E-03-1.10531E-05 2.68179E-03 2.62001E-13-7.93696E-14
 -1      3135 2.00021E+01 2.89018E-03-2.12692E-05 1.52605E-03 1.87858E-13 4.10534E-13
 -1      3136 2.00006E+01 5.28787E-04 2.78405E-05 3.00480E-03 2.59965E-13-2.40672E-13
 -1      3137 2.00004E+01-6.46743E-05-6.02419E-06 3.17583E-03 4.57097E-14-1.12973E-13
 -1      3138 2.00014E+01 1.09010E-03-2.20576E-05 2.60979E-03 1.49860E-13-3.62583E-13
 -1      3139 2.13344E+01-4.53131E+00 1.31068E-01-5.74894E+00-2.39239E-13-7.79177E-14
 -1      3140 2.37931E+01-4.71677E+00-4.39664E-02-4.25599E+00-1.81664E-13-4.92531E-14
 -1      3141 2.10441E+01-7.25959E-01-5.71002E-03 2.19641E-01 4.01807E-14 3.54738E-14
 -1      3142 2.09959E+01-6.58463E-01 5.95999E-03 7.87388E-02-2.96914E-14 5.29289E-14
 -1      3143 2.12640E+01-2.06671E-01 4.41368E-03 1.19711E+00 3.30603E-14 1.46252E-13
 -1      3144 2.13161E+01-4.34842E-01-7.08971E-03 1.10191E+00 3.90162E-14 1.62090E-13
 -1      3145 2.10996E+01 3.78935E-01 1.12340E-02 1.24847E+00-5.16361E-14 2.68951E-13
 -1      3146 2.11830E+01 6.25260E-02-1.24345E-02 1.27390E+00-1.29154E-14 2.32295E-13
 -1      3147 2.16978E+01-9.44123E-02 9.28659E-03 1.30337E+00-4.41240E-14 2.20433E-13
 -1      3148 2.08613E+01 1.00270E+00 1.37635E-02 9.72546E-01-6.56423E-14 2.13938E-13
 -1      3149 2.09442E+01 6.93473E-01-1.35846E-02 1.15132E+00-1.70879E-14 2.46921E-13
 -1      3150 2.15061E+01 6.35343E-01 6.78699E-03 1.30863E+00-1.39448E-14 2.69380E-13
 -1      3151 2.06679E+01 1.42938E+00 8.38004E-03 3.81483E-01 2.48137E-14 1.17910E-13
 -1      3152 2.07141E+01 1.25040E+00-8.69893E-03 6.86745E-01-4.56579E-14 1.39972E-13
 -1      3153 2.12445E+01 1.34283E+00-8.25112E-04 9.27822E-01 1.51119E-14 1.35616E-13
 -1      3154 2.06371E+01 1.46397E+00-2.04812E-03-3.63403E-01 7.03819E-14 8.22206E-14
 -1      3155 2.06233E+01 1.50112E+00 1.55828E-03-2.13764E-02 1.62982E-14 8.17821E-14
 -1      3156 2.10725E+01 1.74340E+00-9.03706E-03 2.08203E-01 3.61987E-14 5.59813E-14
 -1      3157 2.07933E+01 1.09572E+00-1.00200E-02-1.00979E+00 9.15540E-14 1.08782E-13
 -1      3158 2.07239E+01 1.32662E+00 1.11178E-02-7.39834E-01 1.11485E-13 6.75087E-14
 -1      3159 2.11112E+01 1.66209E+00-5.73026E-03-6.11020E-01 6.62976E-14 2.79128E-14
 -1      3160 2.10430E+01 4.96483E-01-1.33418E-02-1.36541E+00 4.74909E-14 1.57692E-13
 -1      3161 2.09496E+01 8.16264E-01 1.32414E-02-1.23671E+00 8.25119E-14 1.79388E-13
 -1      3162 2.13270E+01 1.13481E+00 1.95721E-03-1.23201E+00 4.86222E-14 8.82689E-14
 -1      3163 2.12525E+01-9.39333E-02-1.03853E-02-1.38471E+00 3.45108E-14 1.55142E-13
 -1      3164 2.11731E+01 1.93246E-01 8.60413E-03-1.40035E+00 2.67939E-14 1.86709E-13
 -1      3165 2.15731E+01 4.03186E-01 8.48686E-03-1.48221E+00 2.73925E-14 1.55123E-13
 -1      3166 2.13322E+01-5.07788E-01-4.55826E-03-1.15530E+00-4.77360E-14 2.36017E-13
 -1      3167 2.12914E+01-3.24685E-01 1.78553E-03-1.27062E+00-9.36794E-15 2.18083E-13
 -1      3168 2.17006E+01-2.57690E-01 1.04377E-02-1.37333E+00-1.34277E-14 3.51813E-13
 -1      3169 2.12711E+01-6.98301E-01 5.48295E-04-8.10512E-01-4.52539E-14 3.26835E-13
 -1      3170 2.12743E+01-6.29398E-01-3.46615E-03-9.69166E-01-5.15625E-14 2.40588E-13
 -1      3171 2.16508E+01-6.85396E-01 6.63136E-03-1.04541E+00-9.39036E-14 3.36658E-13
 -1      3172 2.11111E+01-7.03999E-01 3.88971E-03-4.61416E-01 4.83809E-14 4.01917E-13
 -1      3173 2.11482E+01-7.21649E-01-5.73245E-03-6.18608E-01-1.57182E-15 3.60290E-13
 -1      3174 2.14563E+01-8.49358E-01 1.94629E-03-6.51279E-01-5.90316E-14 4.81862E-13
 -1      3175 2.09073E+01-5.97173E-01 5.21469E-03-1.71278E-01 5.59315E-14 4.38086E-13
 -1      3176 2.09632E+01-6.62930E-01-5.65212E-03-3.01827E-01 1.13768E-13 4.51859E-13
 -1      3177 2.11873E+01-8.12769E-01-1.44092E-03-2.95788E-01 6.31901E-14 4.96172E-13
 -1      3178 2.07033E+01-4.44284E-01 5.06241E-03 3.80835E-02 1.61371E-14 3.66940E-13
 -1      3179 2.07648E+01-5.26057E-01-4.50587E-03-5.69408E-02 1.76821E-14 3.90559E-13
 -1      3180 2.09082E+01-6.64242E-01-3.22482E-03-2.56676E-02 7.92931E-14 5.69895E-13
 -1      3181 2.05245E+01-2.90882E-01 4.19215E-03 1.70001E-01-1.06614E-13 3.84075E-13
 -1      3182 2.05827E+01-3.68193E-01-3.10891E-03 1.09260E-01-2.58676E-14 3.66193E-13
 -1      3183 2.06599E+01-4.77834E-01-3.69214E-03 1.52631E-01 2.81315E-14 4.88734E-13
 -1      3184 2.03804E+01-1.61269E-01 3.10979E-03 2.39134E-01-1.63074E-13 3.08809E-13
 -1      3185 2.04310E+01-2.24149E-01-1.86537E-03 2.06607E-01-1.48935E-13 3.20164E-13
 -1      3186 2.04602E+01-3.00956E-01-3.35998E-03 2.52734E-01-8.74595E-14 2.93344E-13
 -1      3187 2.02709E+01-6.40220E-02 2.09860E-03 2.62764E-01-4.43397E-14 2.51856E-13
 -1      3188 2.03126E+01-1.09745E-01-9.18897E-04 2.51042E-01-8.38163E-14 2.79589E-13
 -1      3189 2.03106E+01-1.56728E-01-2.70552E-03 2.94568E-01-9.14154E-14 1.54150E-13
 -1      3190 2.01908E+01 1.65878E-03 1.28113E-03 2.56515E-01 3.39586E-14 2.66346E-13
 -1      3191 2.02241E+01-2.82410E-02-2.66769E-04 2.58694E-01 2.80974E-14 3.08577E-13
 -1      3192 2.02045E+01-5.15488E-02-2.01181E-03 2.97171E-01-5.09875E-14 2.95733E-13
 -1      3193 2.01339E+01 4.10516E-02 6.84711E-04 2.32792E-01 8.07434E-14 2.05717E-13
 -1      3194 2.01600E+01 2.38790E-02 1.46087E-04 2.43255E-01 3.50982E-14 2.34322E-13
 -1      3195 2.01326E+01 1.75068E-02-1.41182E-03 2.75985E-01 6.53144E-14 3.53586E-13
 -1      3196 2.00941E+01 6.07541E-02 2.83889E-04 2.00611E-01 9.20513E-14 7.44171E-14
 -1      3197 2.01144E+01 5.28579E-02 3.81339E-04 2.15187E-01 9.16335E-14 1.05811E-13
 -1      3198 2.00854E+01 5.74175E-02-9.49092E-04 2.42375E-01 1.61072E-13 1.14089E-13
 -1      3199 2.00664E+01 6.69708E-02 3.73260E-05 1.66035E-01 4.86163E-14 3.13425E-14
 -1      3200 2.00821E+01 6.52630E-02 4.92846E-04 1.81870E-01 1.16015E-13 1.01770E-13
 -1      3201 2.00554E+01 7.60160E-02-6.17759E-04 2.04101E-01 1.07893E-13 7.22939E-14
 -1      3202 2.00472E+01 6.47774E-02-9.86215E-05 1.32821E-01-6.91908E-14 1.19542E-13
 -1      3203 2.00593E+01 6.68083E-02 5.22461E-04 1.48120E-01-5.28682E-14 1.06425E-13
 -1      3204 2.00366E+01 8.03324E-02-3.94088E-04 1.66086E-01-1.72862E-14-5.95977E-14
 -1      3205 2.00338E+01 5.79558E-02-1.60458E-04 1.03038E-01-1.30929E-13 8.55199E-14
 -1      3206 2.00431E+01 6.19433E-02 5.01434E-04 1.16796E-01-5.89212E-14 6.77173E-14
 -1      3207 2.00250E+01 7.59650E-02-2.50498E-04 1.31168E-01-7.12469E-14 7.01665E-14
 -1      3208 2.00243E+01 4.91125E-02-1.76261E-04 7.75982E-02 9.46678E-14 3.95012E-14
 -1      3209 2.00314E+01 5.38549E-02 4.52224E-04 8.93618E-02-9.56140E-15 4.21951E-14
 -1      3210 2.00178E+01 6.70034E-02-1.61598E-04 1.00743E-01-8.46227E-14-1.79802E-13
 -1      3211 2.00175E+01 3.99116E-02-1.66055E-04 5.66736E-02 6.95286E-14 8.74558E-14
 -1      3212 2.00229E+01 4.46604E-02 3.89993E-04 6.63453E-02 5.15741E-14 4.95679E-14
 -1      3213 2.00132E+01 5.62190E-02-1.08051E-04 7.52613E-02 1.67785E-14-1.02805E-13
 -1      3214 2.00125E+01 3.13195E-02-1.43217E-04 3.99969E-02 1.47648E-13 2.83251E-13
 -1      3215 2.00166E+01 3.56551E-02 3.24645E-04 4.76932E-02 1.53134E-13 2.09864E-13
 -1      3216 2.00101E+01 4.53489E-02-7.62626E-05 5.45943E-02-1.54549E-14 7.72693E-14
 -1      3217 2.00089E+01 2.38188E-02-1.16136E-04 2.70725E-02 1.39125E-13 3.45584E-13
 -1      3218 2.00119E+01 2.75455E-02 2.62272E-04 3.30216E-02 1.60035E-13 4.07251E-13
 -1      3219 2.00079E+01 3.53763E-02-5.72073E-05 3.82919E-02 1.08396E-13 3.29291E-13
 -1      3220 2.00062E+01 1.75775E-02-8.96708E-05 1.73172E-02-4.42418E-14 2.52922E-13
 -1      3221 2.00084E+01 2.06423E-02 2.06249E-04 2.17911E-02 3.23125E-15 2.39410E-13
 -1      3222 2.00063E+01 2.67688E-02-4.52330E-05 2.57557E-02 9.14068E-14 4.04414E-13
 -1      3223 2.00042E+01 1.25727E-02-6.63397E-05 1.01469E-02 2.08327E-14 1.55789E-13
 -1      3224 2.00058E+01 1.50071E-02 1.58111E-04 1.34190E-02 5.25498E-14 2.03025E-13
 -1      3225 2.00049E+01 1.96625E-02-3.70140E-05 1.63505E-02-1.96573E-15 3.11111E-13
 -1      3226 2.00028E+01 8.67631E-03-4.71836E-05 5.02650E-03 2.52557E-14 1.53707E-13
 -1      3227 2.00039E+01 1.05568E-02 1.18203E-04 7.34708E-03-5.76187E-14 1.76461E-13
 -1      3228 2.00038E+01 1.39956E-02-3.07302E-05 9.47183E-03 3.89199E-14 2.31181E-13
 -1      3229 2.00018E+01 5.71057E-03-3.23964E-05 1.49494E-03 7.27552E-14 1.25132E-13
 -1      3230 2.00025E+01 7.13351E-03 8.61626E-05 3.07912E-03 1.16013E-13 1.13019E-13
 -1      3231 2.00029E+01 9.59983E-03-2.54693E-05 4.58220E-03 1.27667E-14-1.70658E-14
 -1      3232 2.00010E+01 3.48149E-03-2.16921E-05-8.25591E-04-9.85449E-14 1.52885E-13
 -1      3233 2.00015E+01 4.54792E-03 6.12439E-05 1.97318E-04 8.79115E-14 1.51715E-13
 -1      3234 2.00022E+01 6.25892E-03-2.08951E-05 1.22702E-03 3.71447E-14 4.06499E-14
 -1      3235 2.00005E+01 1.79788E-03-1.43960E-05-2.23066E-03-1.91556E-14 5.47832E-14
 -1      3236 2.00008E+01 2.60546E-03 4.25134E-05-1.63347E-03-1.73586E-13-1.30163E-14
 -1      3237 2.00015E+01 3.74404E-03-1.68818E-05-9.61495E-04-5.69601E-14 9.34535E-14
 -1      3238 2.00001E+01 4.96772E-04-3.96448E-06-2.93067E-03 6.04304E-14 2.55505E-13
 -1      3239 2.00003E+01 1.11126E-03 2.65623E-05-2.66742E-03 4.43357E-14 2.04697E-13
 -1      3240 2.00010E+01 1.83339E-03-1.27537E-05-2.26913E-03-1.39518E-14-1.37863E-13
 -1      3241 2.00002E+01-2.71190E-04 1.31403E-06-3.05074E-03-1.22754E-13 1.98844E-14
 -1      3242 2.00001E+01 1.35810E-04 6.35661E-06-3.04100E-03 1.29576E-13 1.00379E-13
 -1      3243 2.00007E+01 5.92724E-04-6.15167E-06-2.81331E-03 6.90645E-14-1.01694E-13
 -1      3244 2.00006E+01-2.93057E-04-2.91358E-06-2.93656E-03 1.83262E-14-3.75640E-13
 -1      3245 2.00022E+01 6.11996E-04-7.84673E-07 7.80667E-04-7.07710E-14 4.90711E-14
 -1      3246 2.00022E+01 6.63879E-04-8.68932E-06 3.91427E-04-7.12367E-14 2.57987E-13
 -1      3247 2.00021E+01 3.56941E-04 2.15816E-06 1.56574E-03-2.39416E-14-2.63086E-13
 -1      3248 2.00022E+01 4.24037E-04-8.07753E-06 1.17261E-03-1.76702E-13-1.63230E-13
 -1      3249 2.00026E+01 1.63899E-03 1.51777E-05 8.67897E-04-2.23505E-13-1.53578E-13
 -1      3250 2.00022E+01 7.56923E-04-3.68818E-06 2.07442E-05 1.40405E-13 1.50616E-13
 -1      3251 2.00022E+01 7.79951E-04-7.00381E-06-3.63265E-04 1.18597E-13-9.94327E-14
 -1      3252 2.00026E+01 1.92246E-03 1.91285E-05 1.43853E-04 1.82315E-13 7.73708E-14
 -1      3253 2.12068E+01-7.55981E-01-4.94187E-03 5.62758E-01 7.96796E-15 1.04063E-13
 -1      3254 2.11790E+01-7.58136E-01 3.48604E-03 3.95828E-01 3.04481E-14 7.08094E-14
 -1      3255 2.13489E+01-8.79793E-01-8.91969E-04 2.31245E-01 7.42665E-15 6.10608E-14
 -1      3256 9.79841E+00 1.13861E-01 6.57706E-02 3.92674E+00-5.28119E-14 2.69978E-13
 -1      3257 8.04412E+00 5.48457E-01 2.20562E-01 2.00674E+00-1.39826E-13 2.02255E-13
 -1      3258 9.52108E+00 1.05455E+00 1.81275E-01 9.22511E-01-9.62216E-14 5.78010E-14
 -1      3259 2.15917E+01-4.55294E+00-8.41598E-02 5.42054E+00-1.50727E-13 3.05388E-13
 -1      3260 1.91803E+01-3.76419E+00 1.85058E-01 6.28123E+00-7.67719E-14 2.71380E-13
 -1      3261 2.06931E+01-3.63852E-01-4.05794E-03-2.08203E-01-2.76212E-14 8.49481E-14
 -1      3262 2.06518E+01-2.42327E-01 7.07128E-03-2.52311E-01-9.07111E-15 7.35974E-14
 -1      3263 2.08597E+01-5.75809E-01-5.07831E-03-4.59139E-02-6.48620E-14 5.80820E-14
 -1      3264 2.08082E+01-4.71146E-01 6.87580E-03-1.42148E-01-5.07810E-14 7.36776E-14
 -1      3265 2.10875E+01-7.25457E-01-3.69194E-03-6.56756E-02-1.54921E-14 5.39400E-14
 -1      3266 2.64897E+01 5.72055E+00-7.53758E-02 1.11165E+00 1.75859E-13 3.11588E-13
 -1      3267 2.60548E+01 6.00640E+00-1.14535E-01 3.22836E-02 1.79523E-13 1.90080E-13
 -1      3268 2.78414E+01-6.18546E-01-1.48675E-02 1.28365E+00-4.78159E-14 1.88148E-13
 -1      3269 2.75391E+01 5.89146E-01-1.54688E-01 1.72935E+00 3.59435E-15 3.10911E-13
 -1      3270 2.59125E+01-4.17715E+00-7.60922E-02 2.53754E+00-1.48180E-14-2.55889E-13
 -1      3271 2.44411E+01-4.46845E+00 1.04214E-01 3.90232E+00-8.54941E-14-3.15373E-14
 -1      3272 2.00017E+01 6.53585E-05-8.08457E-07 2.32403E-03-9.70683E-15-5.64673E-13
 -1      3273 2.00019E+01 1.14527E-04-4.89228E-06 1.96846E-03 3.98028E-14-5.02034E-13
 -1      3274 2.00023E+01 1.20054E-03 1.18737E-05 1.62831E-03-1.82288E-13-2.93871E-13
 -1      3275 2.61674E+01 5.40697E+00-1.14361E-01-1.20736E+00 1.90209E-13 5.30201E-14
 -1      3276 2.69644E+01 4.40810E+00-1.23443E-01-1.88607E+00 2.08222E-13-5.41928E-15
 -1      3277 2.12961E+01-5.97443E-01-1.60042E-03 9.23486E-01 4.78489E-14 1.49440E-13
 -1      3278 2.13050E+01-7.04357E-01-8.52744E-04 7.65891E-01 4.08657E-14 1.63394E-13
 -1      3279 2.15848E+01-8.72789E-01 3.20840E-03 6.16676E-01-1.60541E-15 1.32507E-13
 -1      3280 2.17230E+01-6.21997E-01 7.83709E-03 1.01809E+00 3.10677E-14 2.09393E-13
 -1      3281 2.74389E+01 2.67635E+00-4.63584E-02 2.07847E+00 5.67046E-14 3.58692E-13
 -1      3282 2.68289E+01 4.40402E+00-1.56607E-01 1.79711E+00 1.73542E-13 3.81365E-13
 -1      3283 2.65501E+01 1.52080E+00-4.74270E-02 1.96233E+00 6.48856E-14 2.86618E-13
 -1      3284 1.53669E+01 1.32203E+00 5.28893E-02-2.92988E+00-1.69061E-13 3.03943E-13
 -1      3285 1.56988E+01 1.58270E+00-2.42715E-02-2.57652E+00-1.52007E-13 2.21014E-13
 -1      3286 1.51690E+01 1.99026E+00 7.20083E-02-1.76003E+00-1.45987E-13 1.45634E-13
 -1      3287 1.20966E+01 1.09410E+00 1.16520E-01-2.53522E+00-1.35773E-13 2.12136E-13
 -1      3288 1.97356E+01 2.39798E+00-1.68540E-03-1.77742E-03 1.12821E-13 1.10677E-13
 -1      3289 1.96542E+01 2.47426E+00-5.30173E-03-9.75145E-02 9.34257E-14 9.31999E-14
 -1      3290 1.14231E+01 1.22776E+00 1.12450E-01 2.02273E+00 8.40543E-14 6.88755E-14
 -1      3291 1.02849E+01 9.39641E-01 1.87684E-01-2.27628E+00 4.92731E-14-1.25316E-14
 -1      3292 1.16422E+01 6.05599E-01 7.26519E-02-3.06471E+00 3.73833E-14-3.10585E-14
 -1      3293 1.04661E+01 1.24509E+00 3.12051E-02-9.80945E-01 6.14925E-14 8.86791E-15
 -1      3294 2.04636E+01 7.58557E-01 3.87702E-04 2.92077E-01 4.46334E-14 2.48313E-13
 -1      3295 2.05027E+01 9.11327E-01 4.76682E-03 5.30118E-01 4.12528E-14 2.72341E-13
 -1      3296 2.02563E+01 1.50495E+00 3.45741E-03 2.61641E-01 8.77081E-14 1.59128E-13
 -1      3297 2.01274E+01 1.87395E+00-5.19564E-03 3.77776E-01 1.00367E-13 1.44377E-13
 -1      3298 2.00250E+01 2.03085E+00-2.92281E-03 2.76466E-01 1.12847E-13 1.45241E-13
 -1      3299 2.05661E+01-1.22718E-01-3.34964E-03-2.60702E-01 2.54311E-14 1.14549E-13
 -1      3300 2.05443E+01 9.86610E-03 7.23465E-03-2.49322E-01 3.03883E-14 1.39909E-13
 -1      3301 2.06732E+01-2.00695E-01-4.93762E-03-3.07670E-01 1.92942E-14 9.31834E-14
 -1      3302 2.00656E+01 1.41559E+00-2.42032E-03 9.72643E-02 2.51933E-14-3.31251E-15
 -1      3303 1.98884E+01 1.56583E+00 5.73024E-03 1.17662E-01 1.22384E-14 1.19656E-14
 -1      3304 2.01286E+01 1.51937E+00 3.20117E-03-9.19478E-02 1.85013E-14-5.55171E-15
 -1      3305 2.80923E+01-2.12048E-01-6.90537E-02-1.29767E+00 1.27925E-13-1.75977E-13
 -1      3306 2.71996E+01-1.27334E+00-1.94704E-02-8.25800E-01 6.35950E-15-1.35461E-13
 -1      3307 2.72551E+01 5.67992E-01-6.40226E-02-1.79365E+00 1.04194E-13-1.26309E-13
 -1      3308 2.00147E+01-3.88737E+00 5.91458E-02-5.67254E+00-1.77136E-13-8.85819E-14
 -1      3309 2.34629E+01-4.22389E+00-1.82876E-02-3.71868E+00-1.86632E-13-6.50695E-14
 -1      3310 2.52804E+01-4.41550E+00 4.72360E-02-3.05044E+00-1.78513E-13-2.34274E-14
 -1      3311 2.57820E+01-3.79391E+00-4.16962E-02-1.68068E+00-1.05172E-13 6.20025E-14
 -1      3312 2.00002E+01-6.34622E-04 1.01780E-05 3.22909E-03-2.27135E-13-3.22761E-14
 -1      3313 2.46094E+01 5.02167E+00-2.41052E-02-2.59993E-02 1.34809E-13 1.46570E-13
 -1      3314 2.54193E+01 5.28120E+00-1.10998E-01-6.33024E-01 2.05620E-13 7.83479E-14
 -1      3315 2.47230E+01 4.37120E+00-4.94254E-02-1.13386E+00 1.62398E-13 5.55422E-14
 -1      3316 2.57015E+01 4.33354E+00-9.17864E-02 1.39518E+00 1.15449E-13 2.85457E-13
 -1      3317 2.00025E+01 1.98892E-03 1.96742E-05-5.35030E-04 2.38264E-13-1.54340E-13
 -1      3318 2.00021E+01 7.58781E-04-6.04173E-06-7.14299E-04 6.96607E-14-1.41731E-13
 -1      3319 2.00020E+01 7.47531E-04-4.00164E-06-1.07922E-03 1.25963E-13-2.03535E-13
 -1      3320 2.66727E+01 3.19423E+00-8.55489E-02-1.93428E+00 1.75249E-13-7.46972E-15
 -1      3321 2.00008E+01-2.98063E-04-7.98542E-06 3.02809E-03-9.02883E-14-4.59168E-13
 -1      3322 1.73603E+01-2.83952E+00 9.47750E-02 5.98796E+00 4.48669E-14 2.19068E-13
 -1      3323 2.00019E+01 6.18937E-04-6.54825E-06-1.41724E-03 1.73119E-13-3.29644E-13
 -1      3324 2.00018E+01 5.78656E-04-2.77231E-07-1.75498E-03 1.98577E-13-2.81473E-13
 -1      3325 2.00023E+01 1.82604E-03 1.64811E-05-1.18177E-03 1.68525E-13-3.63552E-13
 -1      3326 1.41793E+01-1.56392E+00 1.62222E-01-5.75796E+00-5.13409E-14-8.39051E-14
 -1      3327 1.59351E+01-2.23207E+00 1.59950E-02-5.77512E+00-8.35859E-14-5.05151E-14
 -1      3328 1.33425E+01-5.89837E-01 5.67867E-02-4.74161E+00 6.19643E-15-8.13655E-14
 -1      3329 1.15381E+01-2.20942E-01 1.88870E-01 4.65819E+00-5.62675E-14 2.74003E-13
 -1      3330 1.12261E+01 5.10552E-01 5.62055E-02 3.53026E+00-4.09915E-14 3.25059E-13
 -1      3331 1.30265E+01-9.13835E-01-1.84396E-02 5.20936E+00 3.54716E-14 1.95649E-13
 -1      3332 2.28706E+01-4.14726E+00 3.45686E-02 4.26104E+00-1.13638E-13 1.40088E-14
 -1      3333 2.66804E+01-3.49985E+00 7.72566E-03 1.37937E+00-2.39956E-15-2.64441E-13
 -1      3334 2.55772E+01-3.70821E+00-6.69300E-03 1.81956E+00-7.37639E-14-2.50362E-13
 -1      3335 2.66913E+01-2.68530E+00-7.24936E-02 2.47981E-01-2.85015E-14-2.24914E-13
 -1      3336 2.70433E+01-1.82283E+00-3.89955E-02 4.97651E-01-5.18240E-14 1.65035E-13
 -1      3337 1.96560E+01 2.43709E+00-3.73326E-03-3.79692E-01 9.34304E-14-1.44492E-15
 -1      3338 1.97633E+01 2.28804E+00-8.62954E-03-4.10126E-01 8.72304E-14-3.43678E-14
 -1      3339 2.00016E+01 3.57068E-04-6.24032E-06-2.03504E-03 2.66233E-13-2.69895E-13
 -1      3340 2.00014E+01 2.79058E-04 7.92277E-07-2.28898E-03 3.71176E-13-6.19380E-13
 -1      3341 2.00020E+01 1.45926E-03 1.28209E-05-1.76547E-03 4.29391E-13-2.99930E-13
 -1      3342 1.95251E+01 2.59980E+00-1.97970E-03-3.47784E-01 1.05935E-13 3.37383E-14
 -1      3343 1.95732E+01 2.52532E+00-7.12026E-03-3.89781E-01 1.00201E-13 2.77811E-14
 -1      3344 1.96418E+01 2.26575E+00 6.54309E-03-2.95320E-01 9.60488E-14 2.57422E-14
 -1      3345 2.04864E+01 1.42193E-01-3.26514E-03-2.01443E-01 2.94599E-14 1.69299E-13
 -1      3346 2.04888E+01 2.93519E-01 8.12082E-03-1.31055E-01 5.04818E-14 1.87547E-13
 -1      3347 2.05517E+01 1.08988E-01-4.38863E-03-2.54649E-01 5.63417E-14 1.40440E-13
 -1      3348 2.08535E+01-4.83230E-01-4.80167E-03-2.46067E-01-3.91540E-14 5.56331E-14
 -1      3349 2.01798E+01 1.74723E+00-4.86336E-03-3.78629E-01 3.72020E-14-2.58073E-14
 -1      3350 1.95892E+01 2.55566E+00-1.07747E-03-1.62234E-01 9.46466E-14 6.93115E-14
 -1      3351 1.95373E+01 2.59015E+00-6.21814E-03-2.40439E-01 1.04585E-13 4.71008E-14
 -1      3352 1.96989E+01 2.24468E+00 4.24084E-03-1.90696E-01 8.90413E-14 8.09434E-14
 -1      3353 2.00012E+01-1.82828E-04 3.89911E-06 2.78058E-03 9.87736E-14-4.65234E-13
 -1      3354 1.99227E+01 2.17002E+00-3.05345E-03 1.87331E-01 1.18115E-13 1.52067E-13
 -1      3355 1.98253E+01 2.28478E+00-4.21484E-03 8.19848E-02 1.12076E-13 1.36230E-13
 -1      3356 1.98696E+01 2.05581E+00 3.62446E-03-5.28054E-02 1.05413E-13 1.29808E-13
 -1      3357 2.00655E+01 1.80738E+00 3.49001E-03 1.09617E-01 1.02539E-13 1.47789E-13
 -1      3358 2.04489E+01 4.67095E-01-2.87984E-03-1.11885E-02 3.74171E-14 1.90365E-13
 -1      3359 2.04655E+01 6.58401E-01 7.97449E-03 1.36136E-01 2.34111E-14 2.11965E-13
 -1      3360 2.00017E+01 6.73404E-04 1.04394E-05 2.48472E-03 2.49741E-14-4.34631E-13
 -1      3361 2.04766E+01 4.73905E-01-3.78325E-03-7.40790E-02 4.31439E-14 1.65936E-13
 -1      3362 2.04478E+01 8.09348E-01-5.36101E-03 2.16471E-01 3.54582E-14 1.92618E-13
 -1      3363 2.16935E+01 1.83183E+00 1.40277E-02 9.08437E-01 6.23551E-14 1.30643E-13
 -1      3364 2.17584E+01 1.40036E+00-2.82037E-02 1.17908E+00 7.39465E-14 2.15876E-13
 -1      3365 2.19731E+01 9.40261E-01 1.62426E-02 1.38829E+00-1.49642E-15 2.28010E-13
 -1      3366 2.20599E+01 4.22399E-01-2.06873E-02 1.46068E+00-5.27928E-14 2.35189E-13
 -1      3367 2.24229E+01 1.40213E+00 2.08536E-02 1.43805E+00 2.34290E-14 1.52845E-13
 -1      3368 1.96048E+01 1.55846E+00-3.15113E-03 1.99446E-01 1.70844E-14 5.06347E-14
 -1      3369 1.94369E+01 1.50763E+00-7.78076E-03 3.47756E-01 3.74035E-14 8.40639E-14
 -1      3370 1.92265E+01 1.49376E+00-3.69962E-03 4.28183E-01 4.93227E-14 7.97361E-14
 -1      3371 1.89704E+01 1.50933E+00-1.05356E-02 5.39277E-01 5.74844E-14 9.77798E-14
 -1      3372 1.92420E+01 1.61791E+00 1.18413E-02 2.04864E-01 5.25762E-14 1.20859E-13
 -1      3373 1.86523E+01 1.55641E+00-6.63340E-03 5.70487E-01 4.06601E-14 1.02526E-13
 -1      3374 1.82798E+01 1.62033E+00-1.43211E-02 6.42563E-01 5.95806E-14 6.16553E-14
 -1      3375 1.87203E+01 1.61639E+00 1.54447E-02 2.81660E-01 5.19666E-14 9.89484E-14
 -1      3376 1.78194E+01 1.70300E+00-1.07323E-02 6.18532E-01 5.02328E-14 6.68174E-14
 -1      3377 1.72820E+01 1.78414E+00-1.91303E-02 6.52113E-01 4.76099E-14 5.61242E-14
 -1      3378 1.79600E+01 1.71103E+00 2.18888E-02 2.35063E-01 4.10906E-14 5.48342E-14
 -1      3379 1.66573E+01 1.85603E+00-1.75511E-02 5.70685E-01 7.57732E-14 4.06398E-14
 -1      3380 1.59335E+01 1.90835E+00-2.31028E-02 5.74605E-01 5.96693E-14 4.24864E-14
 -1      3381 1.69118E+01 1.83808E+00 3.29651E-02 4.64641E-02 5.56551E-14 1.39801E-14
 -1      3382 1.49864E+01 1.92188E+00-2.19262E-02 4.25453E-01 3.30378E-14 6.68649E-14
 -1      3383 1.38616E+01 1.86461E+00-2.41190E-02 4.29716E-01 6.69803E-14 3.92984E-14
 -1      3384 1.54270E+01 1.91331E+00 5.57266E-02-3.11302E-01 6.06592E-14 1.43826E-14
 -1      3385 1.72119E+01 1.74184E+00-1.56426E-02-8.02332E-01-7.24607E-14-2.50401E-14
 -1      3386 1.77000E+01 1.60205E+00-1.46236E-02-7.45822E-01-2.66293E-14 2.33917E-14
 -1      3387 1.81605E+01 1.45518E+00-1.11425E-02-7.59775E-01-1.36488E-14 1.42464E-14
 -1      3388 1.84880E+01 1.30773E+00-1.02212E-02-6.97511E-01-2.97955E-14 9.22435E-14
 -1      3389 1.77255E+01 1.58559E+00 2.34763E-02-3.77433E-01 4.83988E-16 5.78895E-14
 -1      3390 1.88051E+01 1.16581E+00-7.10336E-03-6.86701E-01-2.33234E-14 2.05791E-13
 -1      3391 1.90196E+01 1.03184E+00-7.38501E-03-6.21412E-01 1.98236E-15 2.40820E-13
 -1      3392 1.84697E+01 1.29701E+00 1.61058E-02-4.38430E-01 3.74518E-14 6.43049E-14
 -1      3393 1.92373E+01 9.09511E-01-4.05398E-03-5.95408E-01 6.71973E-14 2.94934E-13
 -1      3394 1.93740E+01 7.96817E-01-5.42291E-03-5.31987E-01 1.46458E-13 3.11181E-13
 -1      3395 1.89813E+01 1.03000E+00 1.10357E-02-4.39078E-01 8.22184E-14 1.50272E-13
 -1      3396 1.95163E+01 7.01669E-01-2.19587E-03-5.00771E-01 1.10088E-13 2.23544E-13
 -1      3397 1.95981E+01 6.15111E-01-4.04102E-03-4.45398E-01 1.27894E-13 2.25232E-13
 -1      3398 1.93228E+01 8.07622E-01 7.70796E-03-4.05495E-01 1.11616E-13 1.76289E-13
 -1      3399 1.96999E+01 5.35856E-01-9.86728E-04-4.10569E-01 1.82249E-13 1.59324E-13
 -1      3400 1.97526E+01 4.64299E-01-3.02916E-03-3.59956E-01 6.91788E-14 1.92754E-13
 -1      3401 1.95548E+01 6.24447E-01 5.14509E-03-3.54206E-01 1.46903E-13 1.18176E-13
 -1      3402 1.98208E+01 4.03114E-01-3.31377E-04-3.26969E-01-1.44272E-13 1.24738E-13
 -1      3403 1.98516E+01 3.48362E-01-2.22829E-03-2.84452E-01-2.58478E-13 9.13491E-14
 -1      3404 1.97146E+01 4.75594E-01 3.44718E-03-2.96311E-01-5.47845E-14 1.46683E-13
 -1      3405 1.98969E+01 3.01827E-01 7.29594E-05-2.55102E-01-2.30361E-13 7.21409E-14
 -1      3406 1.99141E+01 2.60186E-01-1.63899E-03-2.20334E-01-9.02613E-14 1.91280E-13
 -1      3407 1.98202E+01 3.59658E-01 2.26413E-03-2.40117E-01-2.50013E-13 2.01009E-13
 -1      3408 1.99439E+01 2.25048E-01 2.71148E-04-1.95341E-01-1.12837E-13 1.52502E-13
 -1      3409 1.99528E+01 1.93538E-01-1.20410E-03-1.67506E-01-1.22650E-13 2.64351E-13
 -1      3410 1.98893E+01 2.70489E-01 1.46578E-03-1.89509E-01-1.15463E-13 2.34332E-13
 -1      3411 1.99723E+01 1.67126E-01 3.56350E-04-1.46903E-01-1.41469E-13 1.40003E-13
 -1      3412 1.99764E+01 1.43381E-01-8.55531E-04-1.25024E-01-1.21949E-13 7.02195E-14
 -1      3413 1.99340E+01 2.02353E-01 9.25384E-04-1.46119E-01-2.03284E-13 3.30716E-14
 -1      3414 1.99886E+01 1.24465E-01 3.61661E-04-1.09283E-01 1.46078E-14 1.00317E-13
 -1      3415 1.99899E+01 1.07245E-01-6.24481E-04-9.29887E-02 1.19299E-13 9.04291E-15
 -1      3416 1.99621E+01 1.51589E-01 5.57973E-04-1.10983E-01-6.26171E-14 7.83632E-14
 -1      3417 1.99980E+01 9.20827E-02 3.26225E-04-7.97605E-02 2.03616E-13-4.50188E-14
 -1      3418 1.99980E+01 7.84258E-02-4.67639E-04-6.66310E-02 1.75181E-13-3.84219E-14
 -1      3419 1.99799E+01 1.13009E-01 3.68786E-04-8.25812E-02 8.14086E-14 1.85388E-13
 -1      3420 2.00031E+01 6.70861E-02 2.78545E-04-5.64374E-02 3.50644E-13-9.63182E-14
 -1      3421 2.00024E+01 5.68566E-02-3.36136E-04-4.65394E-02 3.78574E-13 5.66520E-14
 -1      3422 1.99912E+01 8.29013E-02 2.27002E-04-5.95324E-02 2.46123E-13 2.15553E-13
 -1      3423 2.00055E+01 4.83832E-02 2.30279E-04-3.88089E-02 2.81453E-13 3.28585E-14
 -1      3424 2.00045E+01 4.07462E-02-2.39606E-04-3.14587E-02 3.06472E-13 1.05565E-13
 -1      3425 1.99980E+01 6.02027E-02 1.33347E-04-4.17482E-02 3.46054E-13 6.62755E-14
 -1      3426 2.00062E+01 3.44431E-02 1.84292E-04-2.57025E-02 2.31705E-13 6.83989E-14
 -1      3427 2.00052E+01 2.87737E-02-1.69062E-04-2.03304E-02 1.10198E-13-5.91487E-14
 -1      3428 2.00018E+01 4.31772E-02 7.41841E-05-2.82858E-02 2.38603E-13 5.99312E-14
 -1      3429 2.00061E+01 2.41146E-02 1.44145E-04-1.61267E-02 6.18809E-14-7.44147E-14
 -1      3430 2.00051E+01 1.99476E-02-1.12246E-04-1.22765E-02 2.90873E-14-1.44201E-13
 -1      3431 2.00037E+01 3.04829E-02 3.63872E-05-1.82906E-02 1.10833E-13-1.67052E-13
 -1      3432 2.00055E+01 1.66893E-02 1.10555E-04-9.41299E-03 1.90908E-13 1.06296E-14
 -1      3433 2.00046E+01 1.37488E-02-7.65640E-05-6.80622E-03 4.89750E-13 1.63592E-13
 -1      3434 2.00044E+01 2.12611E-02 7.02415E-06-1.11596E-02 2.27516E-13-1.82638E-13
 -1      3435 2.00047E+01 1.12024E-02 8.20500E-05-4.66734E-03 5.62035E-13 1.98801E-13
 -1      3436 2.00039E+01 8.94877E-03-5.43986E-05-2.78606E-03 5.54231E-13 2.99981E-13
 -1      3437 2.00044E+01 1.44955E-02 3.09960E-06-6.07003E-03 5.24716E-13 9.17676E-14
 -1      3438 2.00038E+01 7.11035E-03 6.02587E-05-1.35059E-03 4.77056E-13 1.71392E-13
 -1      3439 2.00032E+01 5.47460E-03-3.47755E-05-1.17673E-04 3.46905E-13 8.58181E-14
 -1      3440 2.00040E+01 9.38668E-03-3.34017E-06-2.43491E-03 4.12004E-13-8.46644E-14
 -1      3441 2.00029E+01 4.12550E-03 4.21483E-05 8.03654E-04 1.84819E-13 1.41868E-13
 -1      3442 2.00024E+01 2.95096E-03-1.13479E-05 1.53871E-03-3.60213E-14 3.63540E-14
 -1      3443 2.00034E+01 5.66738E-03-7.64924E-06-2.08700E-05 1.78033E-13-8.09811E-14
 -1      3444 2.00023E+01 2.25989E-03 2.82006E-05 1.89690E-03-2.48217E-13-8.02821E-14
 -1      3445 2.00019E+01 1.32952E-03-4.32716E-06 2.29414E-03-8.74985E-14-3.27347E-13
 -1      3446 2.00024E+01 1.63460E-03-1.86867E-05 1.84991E-03-2.70563E-13-4.47788E-13
 -1      3447 2.00028E+01 3.24477E-03-2.37713E-05 1.28911E-03-2.09908E-13-2.41905E-13
 -1      3448 2.21588E+01-3.36782E-02 5.51224E-03 1.38406E+00-3.87097E-14 2.35602E-13
 -1      3449 2.22040E+01-4.34139E-01-9.90441E-03 1.28497E+00-2.80420E-14 2.53156E-13
 -1      3450 2.26707E+01 2.15765E-01 1.71775E-02 1.51109E+00-1.47892E-14 2.35042E-13
 -1      3451 2.15095E+01 2.24239E+00-3.08325E-03 4.06917E-02 6.34414E-14 1.38297E-13
 -1      3452 2.15308E+01 2.11776E+00-1.51243E-02 4.51807E-01 5.01838E-14 1.29220E-13
 -1      3453 2.21360E+01 2.32509E+00 1.22745E-02 7.94866E-01 8.89146E-14 2.29927E-13
 -1      3454 2.15911E+01 1.93546E+00-1.59317E-02-8.70986E-01 4.45650E-14 1.14600E-13
 -1      3455 2.15470E+01 2.18140E+00 6.67125E-03-4.91387E-01 4.95051E-14 8.37248E-14
 -1      3456 2.20108E+01 2.55659E+00-1.89992E-03-2.48606E-01 7.56238E-14 1.24575E-13
 -1      3457 2.18559E+01 1.10229E+00-2.08915E-02-1.46270E+00 2.60985E-14 1.05274E-13
 -1      3458 2.17691E+01 1.57678E+00 1.74049E-02-1.24657E+00 2.85514E-14 7.71388E-14
 -1      3459 2.21887E+01 2.03429E+00 3.61586E-03-1.16977E+00 6.95301E-14 8.69649E-14
 -1      3460 2.20910E+01 1.35999E-01-1.78721E-02-1.56660E+00-3.60911E-14 1.77419E-13
 -1      3461 2.20232E+01 6.17336E-01 1.21929E-02-1.55648E+00-4.30992E-15 1.39090E-13
 -1      3462 2.24807E+01 9.62490E-01 8.05513E-03-1.62249E+00-1.92565E-14 1.14368E-13
 -1      3463 2.21377E+01-6.01740E-01-6.83427E-03-1.28891E+00-1.66902E-13 3.99425E-13
 -1      3464 2.21300E+01-2.70298E-01 3.59380E-03-1.42888E+00-8.94292E-14 3.12919E-13
 -1      3465 2.26256E+01-1.06521E-01 1.65143E-02-1.53777E+00-1.68236E-13 2.06387E-13
 -1      3466 2.19575E+01-9.78348E-01 1.14810E-03-8.44056E-01-1.26824E-13 4.56582E-13
 -1      3467 2.20165E+01-8.33454E-01-4.79005E-03-1.04331E+00-1.38998E-13 4.40569E-13
 -1      3468 2.24883E+01-8.67069E-01 7.64119E-03-1.10190E+00-1.75419E-13 3.16172E-13
 -1      3469 2.16311E+01-1.04094E+00 6.38685E-03-4.03837E-01-3.94369E-14 4.07487E-13
 -1      3470 2.17391E+01-1.04450E+00-7.55316E-03-5.95990E-01-4.64686E-14 4.02406E-13
 -1      3471 2.21272E+01-1.18869E+00 2.76955E-04-5.87090E-01-7.89655E-14 2.79073E-13
 -1      3472 2.12557E+01-9.06951E-01 8.26869E-03-5.88406E-02 1.49011E-13 3.85415E-13
 -1      3473 2.13831E+01-9.94759E-01-6.53487E-03-2.10688E-01 1.40163E-14 3.81957E-13
 -1      3474 2.16619E+01-1.17538E+00-4.15172E-03-1.45957E-01 3.64915E-14 1.78835E-13
 -1      3475 2.09040E+01-6.87909E-01 7.62785E-03 1.70397E-01 3.48881E-14 4.86044E-13
 -1      3476 2.10275E+01-8.06296E-01-4.40897E-03 6.68494E-02 9.32804E-14 4.79009E-13
 -1      3477 2.12009E+01-9.75533E-01-6.59494E-03 1.59420E-01 7.95341E-14 2.59550E-13
 -1      3478 2.06138E+01-4.59791E-01 6.03948E-03 2.98582E-01 2.08958E-14 3.82391E-13
 -1      3479 2.07195E+01-5.74782E-01-2.39934E-03 2.37992E-01 6.77385E-14 4.83540E-13
 -1      3480 2.08085E+01-7.08896E-01-6.90788E-03 3.35030E-01 5.69645E-14 4.54151E-13
 -1      3481 2.03948E+01-2.63344E-01 4.30880E-03 3.52091E-01-2.75569E-14 1.83919E-13
 -1      3482 2.04778E+01-3.58340E-01-9.08447E-04 3.24278E-01 1.84225E-14 3.04712E-13
 -1      3483 2.05074E+01-4.51799E-01-5.92722E-03 4.11734E-01 8.79748E-14 2.58360E-13
 -1      3484 2.02405E+01-1.13576E-01 2.79352E-03 3.56322E-01-1.22175E-13 2.53066E-13
 -1      3485 2.03018E+01-1.83682E-01 2.62657E-06 3.51041E-01-1.46886E-13 2.02661E-13
 -1      3486 2.02940E+01-2.40673E-01-4.54445E-03 4.23145E-01-6.48192E-14 1.32529E-13
 -1      3487 2.01383E+01-1.05436E-02 1.61911E-03 3.31360E-01-1.19003E-13 3.02033E-13
 -1      3488 2.01814E+01-5.72550E-02 4.78281E-04 3.40088E-01-9.87676E-14 2.94638E-13
 -1      3489 2.01531E+01-8.55841E-02-3.22791E-03 3.96248E-01-8.80253E-14 2.45632E-13
 -1      3490 2.00743E+01 5.29285E-02 7.95319E-04 2.91520E-01 1.44903E-13 1.65305E-13
 -1      3491 2.01036E+01 2.52976E-02 6.79103E-04 3.07904E-01 2.16101E-14 2.13025E-13
 -1      3492 2.00664E+01 1.73850E-02-2.14189E-03 3.50075E-01-1.80581E-15 1.19038E-13
 -1      3493 2.00368E+01 8.62998E-02 2.58555E-04 2.46267E-01 2.47954E-13 1.65421E-14
 -1      3494 2.00561E+01 7.27799E-02 7.24590E-04 2.65904E-01 2.51111E-13 1.59199E-13
 -1      3495 2.00175E+01 7.80740E-02-1.33271E-03 2.96889E-01 1.73529E-13 3.41920E-14
 -1      3496 2.00163E+01 9.86721E-02-5.98816E-05 2.01412E-01 4.31646E-14 3.60507E-14
 -1      3497 2.00288E+01 9.47454E-02 6.91135E-04 2.21457E-01 1.62193E-13 3.17476E-14
 -1      3498 1.99931E+01 1.07611E-01-7.70929E-04 2.43997E-01 2.70729E-13 1.05648E-15
 -1      3499 2.00062E+01 9.76139E-02-2.27951E-04 1.60225E-01 2.82046E-14-9.34504E-14
 -1      3500 2.00143E+01 9.96412E-02 6.20913E-04 1.78986E-01 3.22734E-14-1.24999E-14
 -1      3501 1.99836E+01 1.16018E-01-4.03289E-04 1.95366E-01 1.29706E-13-4.90697E-14
 -1      3502 2.00020E+01 8.88682E-02-2.97314E-04 1.24273E-01-1.23723E-13-3.97442E-14
 -1      3503 2.00073E+01 9.41573E-02 5.37091E-04 1.40868E-01-2.51194E-14-8.14389E-14
 -1      3504 1.99823E+01 1.11318E-01-1.80973E-04 1.52845E-01 3.17554E-14-1.39104E-13
 -1      3505 2.00010E+01 7.64665E-02-3.06424E-04 9.40427E-02-8.57893E-14-4.04623E-14
 -1      3506 2.00045E+01 8.31680E-02 4.53148E-04 1.08126E-01-1.84161E-13-1.17368E-13
 -1      3507 1.99850E+01 9.94430E-02-5.60370E-05 1.16976E-01-1.33004E-13-1.50035E-13
 -1      3508 2.00012E+01 6.30465E-02-2.82144E-04 6.93763E-02 2.74387E-14-7.88875E-14
 -1      3509 2.00037E+01 6.99780E-02 3.74885E-04 8.09410E-02 6.99817E-14-1.05698E-13
 -1      3510 1.99891E+01 8.44614E-02 6.91325E-06 8.75593E-02-4.56835E-14-5.93845E-14
 -1      3511 2.00019E+01 5.01956E-02-2.42201E-04 4.97625E-02-1.16476E-13 1.22574E-14
 -1      3512 2.00037E+01 5.66673E-02 3.04813E-04 5.89963E-02-1.54018E-13-6.01992E-14
 -1      3513 1.99933E+01 6.89765E-02 3.26334E-05 6.40028E-02-6.72254E-14-5.05144E-14
 -1      3514 2.00026E+01 3.87573E-02-1.97654E-04 3.45272E-02 5.13017E-15 2.44250E-13
 -1      3515 2.00039E+01 4.44217E-02 2.43833E-04 4.17163E-02 1.03717E-15 2.13867E-13
 -1      3516 1.99968E+01 5.45103E-02 3.78229E-05 4.55378E-02-1.97543E-13 6.80878E-14
 -1      3517 2.00030E+01 2.90791E-02-1.54881E-04 2.29547E-02 1.37148E-13 1.98241E-13
 -1      3518 2.00041E+01 3.38130E-02 1.91923E-04 2.84194E-02 1.57792E-13 2.75621E-13
 -1      3519 1.99995E+01 4.18324E-02 3.30488E-05 3.13529E-02 7.66383E-14 1.75405E-13
 -1      3520 2.00031E+01 2.11995E-02-1.17132E-04 1.43605E-02 1.74465E-14 8.38176E-14
 -1      3521 2.00040E+01 2.50162E-02 1.48571E-04 1.84157E-02 9.07868E-14 1.28108E-13
 -1      3522 2.00012E+01 3.12186E-02 2.46018E-05 2.06723E-02 1.67947E-13-1.49269E-14
 -1      3523 2.00030E+01 1.49788E-02-8.57274E-05 8.13061E-03-2.87486E-15 3.44477E-14
 -1      3524 2.00037E+01 1.79680E-02 1.13041E-04 1.10630E-02 5.31139E-14 7.66877E-14
 -1      3525 2.00023E+01 2.26426E-02 1.58490E-05 1.27968E-02 7.42438E-16-1.79554E-13
 -1      3526 2.00027E+01 1.01877E-02-6.07605E-05 3.73994E-03-8.27240E-14 1.41494E-13
 -1      3527 2.00033E+01 1.24753E-02 8.44890E-05 5.79687E-03-3.10149E-14 4.41309E-14
 -1      3528 2.00028E+01 1.59086E-02 8.30628E-06 7.12285E-03 9.39922E-16 2.76901E-14
 -1      3529 2.00023E+01 6.56161E-03-4.17714E-05 7.55623E-04 4.06848E-14 1.45110E-13
 -1      3530 2.00028E+01 8.28583E-03 6.20163E-05 2.14149E-03 7.92015E-15 8.78243E-14
 -1      3531 2.00028E+01 1.07407E-02 2.90655E-06 3.14739E-03-3.92129E-14 1.54185E-13
 -1      3532 2.00018E+01 3.83519E-03-2.74879E-05-1.16462E-03 2.46043E-14-1.35381E-13
 -1      3533 2.00022E+01 5.13028E-03 4.46542E-05-2.88006E-04 5.76294E-14 8.00345E-15
 -1      3534 2.00025E+01 6.83424E-03-4.93133E-07 4.64321E-04 8.32149E-14 2.92615E-14
 -1      3535 2.00013E+01 1.75911E-03-1.41520E-05-2.28389E-03-4.39105E-14-2.78865E-13
 -1      3536 2.00016E+01 2.74514E-03 3.07646E-05-1.79500E-03-8.50238E-15-2.15294E-13
 -1      3537 2.00021E+01 3.89098E-03-2.54913E-06-1.24532E-03 7.88688E-14-1.97377E-13
 -1      3538 2.00028E+01 2.74847E-03-1.14806E-06 8.18708E-04-1.29479E-13-4.34656E-13
 -1      3539 2.00028E+01 2.92305E-03-1.74240E-05 4.76620E-04 6.71963E-14-2.15118E-13
 -1      3540 2.00028E+01 3.16877E-03-7.09698E-06 1.98413E-04 1.04266E-13 1.07416E-13
 -1      3541 2.00028E+01 3.24938E-03-1.58457E-05-1.13059E-04 3.26423E-13-1.06412E-13
 -1      3542 2.00031E+01 4.46570E-03 2.73121E-05 1.67262E-04 4.63714E-14-1.43646E-13
 -1      3543 2.57169E+01 5.83955E-01-1.59389E-02 1.83888E+00 3.77268E-14 2.69135E-13
 -1      3544 2.52785E+01 2.05938E+00-9.62819E-02 1.97097E+00 8.06855E-14 2.62269E-13
 -1      3545 2.55377E+01 3.13879E+00-4.23019E-02-1.97187E+00 5.80577E-14-3.52773E-14
 -1      3546 2.66445E+01 1.86613E+00-7.25000E-02-2.09814E+00 6.01880E-14-9.64784E-14
 -1      3547 1.58336E+01 1.95059E+00-1.45238E-02-8.15239E-01-1.48835E-13 2.34834E-14
 -1      3548 1.65415E+01 1.86200E+00-2.02069E-02-7.56759E-01-1.25708E-13-5.31378E-14
 -1      3549 1.66497E+01 1.85652E+00 3.65889E-02-2.28884E-01-7.35542E-14-2.93624E-14
 -1      3550 1.87601E+01-2.86451E+00-1.38096E-02 5.35056E+00-4.66502E-14 1.36901E-13
 -1      3551 1.60804E+01-1.67164E+00 1.64507E-01 5.62824E+00 6.65822E-14 1.41422E-13
 -1      3552 2.04759E+01 4.72782E-01-3.07123E-03-1.71238E-01 5.11643E-14 1.36855E-13
 -1      3553 2.04537E+01 6.99539E-01 3.15103E-03-3.49261E-02 4.90915E-14 1.38374E-13
 -1      3554 2.04098E+01 1.00306E+00 2.05846E-03 1.96345E-01 5.03871E-14 1.52279E-13
 -1      3555 1.98380E+01 1.90822E+00 4.80870E-03-1.59374E-01 5.22146E-14-1.56508E-14
 -1      3556 1.99054E+01 2.02222E+00-2.37178E-03-2.99239E-01 5.71013E-14-3.11225E-14
 -1      3557 1.87543E+01-2.88860E+00 1.33930E-01-5.55735E+00-1.03671E-13-8.15494E-14
 -1      3558 2.07947E+01-3.59825E+00-1.50633E-02-4.84066E+00-1.27256E-13-8.76660E-14
 -1      3559 2.12810E+01-8.89277E-01-5.46074E-03-1.49756E-01 1.32085E-14 7.36550E-14
 -1      3560 2.11686E+01-7.46962E-01 9.38736E-03-2.60360E-01-3.96553E-14 8.66574E-14
 -1      3561 2.00228E+01 1.85810E+00-3.67532E-03-2.98641E-01 4.23027E-14-2.69723E-14
 -1      3562 2.09830E+01-5.98783E-01-3.63402E-03-3.31554E-01-4.60720E-14 8.96261E-14
 -1      3563 2.08901E+01-4.33153E-01 8.55439E-03-3.82016E-01-3.02008E-14 1.10865E-13
 -1      3564 2.11402E+01-7.49833E-01-7.63057E-03-4.22211E-01-3.69171E-14 1.01802E-13
 -1      3565 1.95102E+01 2.62980E+00-1.22769E-03-2.78576E-01 1.05515E-13 4.23921E-14
 -1      3566 1.95015E+01 2.61502E+00-7.01658E-03-3.37809E-01 1.10771E-13 3.06444E-14
 -1      3567 1.95518E+01 2.37543E+00 4.91533E-03-3.15124E-01 9.60337E-14 4.88256E-14
 -1      3568 2.16204E+01-1.07942E+00-6.69257E-03 1.64380E-01-1.53829E-14 1.68297E-13
 -1      3569 2.15066E+01-9.98551E-01 8.99544E-03-4.00602E-03 1.05368E-14 1.24590E-13
 -1      3570 2.15277E+01-1.07426E+00-6.89308E-03-2.26687E-01-4.33769E-14 1.09850E-13
 -1      3571 1.39682E+01 1.93207E+00 7.54127E-03-8.52402E-01-1.08329E-13 4.06931E-14
 -1      3572 1.48900E+01 1.97457E+00-2.53365E-02-7.62465E-01-1.06313E-13 3.26362E-14
 -1      3573 1.51182E+01 2.05208E+00 6.30692E-02 2.43166E-02-1.39563E-13-1.07016E-13
 -1      3574 2.64701E+01-2.67864E+00 3.23958E-02-8.69588E-02-8.04027E-14 1.59213E-13
 -1      3575 2.62049E+01-1.28113E+00-4.33869E-02 1.06942E+00-5.04093E-14 2.46943E-13
 -1      3576 2.00026E+01 2.10265E-03 6.66005E-07 1.48651E-03-3.38082E-13-4.39958E-13
 -1      3577 2.00027E+01 2.33548E-03-1.78989E-05 1.12508E-03-3.16999E-13-2.00900E-13
 -1      3578 2.00031E+01 3.80765E-03 2.24014E-05 6.78170E-04 2.03678E-15-6.05806E-13
 -1      3579 2.00028E+01 2.95795E-03 2.50600E-05 1.28328E-03-3.29965E-13-3.51726E-13
 -1      3580 2.50373E+01 3.39586E+00-1.45384E-02 1.79503E+00 9.65408E-14 2.37086E-13
 -1      3581 2.45119E+01 4.29596E+00-9.30413E-02 1.03958E+00 9.16975E-14 1.64186E-13
 -1      3582 2.43952E+01 2.28482E+00-7.19833E-06 1.76809E+00 4.59164E-14 2.07702E-13
 -1      3583 2.00012E+01-6.84497E-06-2.91109E-06-2.52929E-03 2.00079E-13-9.13528E-13
 -1      3584 2.00009E+01-6.11393E-05 2.01055E-06-2.72830E-03 1.00881E-13-5.13259E-13
 -1      3585 2.00010E+01 3.88706E-04-2.99795E-06-2.71231E-03 2.01996E-13-4.98604E-13
 -1      3586 2.00016E+01 9.17685E-04-3.18604E-06-2.28580E-03 4.11990E-13-5.70266E-13
 -1      3587 2.37148E+01-3.98242E+00-3.06701E-02 3.22227E+00-9.11424E-14-4.96547E-14
 -1      3588 2.16652E+01-3.63470E+00 4.70800E-02 4.43174E+00-1.73318E-13 7.12555E-14
 -1      3589 2.03970E+01 9.15197E-01 1.00663E-03 4.41447E-02 6.05193E-14 1.36862E-13
 -1      3590 2.03237E+01 1.22854E+00-3.17346E-03 1.71275E-01 7.31758E-14 1.44083E-13
 -1      3591 2.02391E+01 1.39778E+00 2.33306E-04 1.08754E-01 9.70927E-14 1.34064E-13
 -1      3592 2.03741E+01 9.15821E-01-3.17397E-04-6.06034E-02 6.53108E-14 1.14114E-13
 -1      3593 2.39460E+01 4.03213E+00-4.21165E-02 4.55481E-01 1.06706E-13 1.53818E-13
 -1      3594 2.07516E+01-2.69518E-01-2.56657E-03-3.90109E-01 2.59382E-14 1.01543E-13
 -1      3595 2.06863E+01-9.46347E-02 7.54497E-03-3.82786E-01 6.16204E-14 1.21191E-13
 -1      3596 2.08421E+01-3.75715E-01-7.03185E-03-4.80840E-01 4.50266E-15 1.25698E-13
 -1      3597 2.62107E+01 6.65307E-01-3.95226E-02-1.81285E+00-2.35714E-14-1.74728E-13
 -1      3598 1.97033E+01 1.62604E+00-5.02351E-03 1.19463E-01 2.47270E-14 2.05529E-14
 -1      3599 1.95442E+01 1.71238E+00 5.14980E-03 6.05747E-02 5.34482E-14 7.49746E-14
 -1      3600 1.97816E+01 1.70617E+00-5.79077E-03-1.96839E-02 4.76249E-14 1.06220E-14
 -1      3601 1.30787E+01 1.68846E+00 1.07390E-01-1.20959E+00 5.91302E-14 1.34476E-14
 -1      3602 1.24355E+01 1.65508E+00 4.75145E-02-8.07164E-02 6.92606E-14 4.23273E-14
 -1      3603 1.51476E+01-9.22261E-01 7.32047E-02 4.87893E+00 4.77396E-15 2.03757E-13
 -1      3604 1.06221E+01 1.34407E+00 2.71159E-02 1.21492E+00-1.26160E-13 1.48229E-13
 -1      3605 1.05328E+01 1.62189E+00 2.34295E-01-4.55718E-01-2.09083E-13 8.97615E-14
 -1      3606 2.24144E+01-3.76710E+00 7.45634E-02-4.12809E+00-1.52288E-13-4.54029E-14
 -1      3607 2.34050E+01-3.76120E+00-2.45870E-02-3.07755E+00-1.55726E-13-6.02031E-14
 -1      3608 2.09143E+01-3.13127E+00-1.18208E-02-4.24537E+00-1.07435E-13-6.17978E-14
 -1      3609 2.26600E+01-7.12333E-01 1.17010E-02 1.15269E+00-2.03902E-14 1.97684E-13
 -1      3610 2.21452E+01-7.41593E-01-3.14541E-03 1.04886E+00-1.44410E-14 2.49563E-13
 -1      3611 2.21198E+01-9.48706E-01 5.12528E-04 8.55417E-01 8.34012E-15 1.66773E-13
 -1      3612 2.53631E+01-3.21986E+00-2.84576E-02-9.83671E-01-8.71581E-14 1.23613E-13
 -1      3613 2.62222E+01-1.23311E+00-1.87496E-02-1.03081E+00-3.01148E-14-1.70836E-13
 -1      3614 2.66639E+01-2.03625E+00-2.84237E-02-3.80706E-01-4.57308E-14-1.86403E-13
 -1      3615 2.58637E+01-2.57790E+00-3.29615E-02 1.71835E-01-1.42299E-14-1.37793E-13
 -1      3616 1.27711E+01 8.92555E-01-3.23847E-03-2.65217E+00 3.66270E-14-3.11279E-14
 -1      3617 1.33290E+01 3.93384E-01 1.23902E-01-3.65330E+00 3.40838E-14-6.77305E-14
 -1      3618 2.00027E+01 3.29471E-03-1.20217E-05-3.52512E-04 2.62769E-13 4.24525E-14
 -1      3619 2.00027E+01 3.27064E-03-1.12701E-05-6.43472E-04 2.39184E-13-1.51381E-13
 -1      3620 2.00031E+01 4.75605E-03 3.35868E-05-2.65997E-04 2.55396E-13 4.46501E-14
 -1      3621 2.00011E+01 8.81065E-04 1.23566E-05-2.59183E-03 7.86372E-14-5.18629E-13
 -1      3622 2.00026E+01 3.10907E-03-1.44732E-05-8.71694E-04 1.76712E-13-2.71772E-13
 -1      3623 2.00025E+01 2.97961E-03-4.86932E-06-1.15529E-03 1.78247E-13-2.80486E-13
 -1      3624 2.00029E+01 4.62988E-03 3.07936E-05-6.50772E-04 2.27436E-13-1.70233E-13
 -1      3625 1.44510E+01-2.39964E-01 1.44148E-02-4.12209E+00 1.46948E-14-9.26342E-14
 -1      3626 2.00016E+01 1.62497E-03-2.78603E-06-2.21435E-03 2.04160E-13-4.90765E-13
 -1      3627 2.55628E+01-5.61929E-01-3.56734E-02 1.50727E+00 8.28330E-16 3.18699E-13
 -1      3628 2.46184E+01 2.55023E-01 2.00824E-02 1.74317E+00 8.51229E-15 2.36505E-13
 -1      3629 2.50189E+01-1.42130E+00-2.26749E-02 9.26538E-01-2.80097E-14 2.72277E-13
 -1      3630 2.03872E+01-3.06818E+00 4.11094E-02 4.70714E+00-9.56353E-14 2.32783E-14
 -1      3631 1.88210E+01-2.14479E+00-1.07396E-02 4.53857E+00-9.86008E-14-2.23987E-14
 -1      3632 2.14392E+01-2.95299E+00 2.65550E-02 3.70061E+00-1.06606E-13-2.84790E-14
 -1      3633 2.38755E+01 3.67600E+00-1.92553E-02-1.18788E+00 9.64836E-14 1.35628E-13
 -1      3634 2.45357E+01 3.45009E+00-8.51687E-02-1.61651E+00 7.40762E-14 1.28366E-13
 -1      3635 1.99722E+01 1.72671E+00-7.91303E-04-1.17442E-01 8.45236E-14 1.36038E-13
 -1      3636 1.98694E+01 1.83356E+00-3.86133E-03-1.90429E-01 8.58686E-14 1.07413E-13
 -1      3637 1.72459E+01-2.04761E+00 1.39275E-02-5.13979E+00-3.23491E-14-8.75307E-14
 -1      3638 2.00023E+01 2.62998E-03-1.64386E-05-1.37751E-03 3.23620E-13-3.85330E-13
 -1      3639 2.00022E+01 2.43645E-03-1.41141E-06-1.62572E-03 5.07400E-13-5.10768E-13
 -1      3640 2.00027E+01 4.10158E-03 2.26617E-05-1.02297E-03 1.81328E-13-4.59570E-13
 -1      3641 1.96821E+01 1.97156E+00 4.00834E-03-1.47675E-01 8.07360E-14 3.82008E-15
 -1      3642 2.05892E+01 7.77113E-02-2.46937E-03-3.37525E-01 7.02841E-14 1.23602E-13
 -1      3643 2.05507E+01 2.65604E-01 7.01120E-03-2.75922E-01 6.31591E-14 1.42234E-13
 -1      3644 2.06321E+01 1.73036E-02-5.67184E-03-4.24913E-01 5.58331E-14 9.93678E-14
 -1      3645 2.04869E+01 4.53934E-01-3.16346E-03-2.59602E-01 5.87900E-14 1.03352E-13
 -1      3646 1.97730E+01 1.94686E+00 4.08710E-04-2.40805E-01 9.08455E-14 1.07373E-13
 -1      3647 1.96826E+01 2.01773E+00-5.55876E-03-2.93666E-01 8.98935E-14 6.53090E-14
 -1      3648 1.98766E+01 1.64307E+00 2.75421E-03-3.05800E-01 7.78985E-14 1.19217E-13
 -1      3649 2.45867E+01 2.48087E+00-2.58133E-02-1.84656E+00 9.81160E-15 7.70044E-14
 -1      3650 1.19624E+01 1.78390E+00 1.04586E-01 8.54755E-01 8.52061E-14 4.65530E-14
 -1      3651 1.21574E+01 7.58230E-01-1.04938E-02 3.05330E+00-1.38524E-13 3.76442E-13
 -1      3652 1.14007E+01 1.31300E+00 1.61693E-01 2.22543E+00-1.20111E-13 2.81275E-13
 -1      3653 1.18952E+01 1.58155E+00 3.44602E-02 9.13794E-01-1.87674E-13 1.21486E-13
 -1      3654 1.95819E+01 2.35861E+00 4.50169E-03-2.81114E-01 8.55536E-14 4.04237E-14
 -1      3655 1.95399E+01 2.14124E+00 4.03772E-03-2.58674E-01 9.27088E-14 5.16127E-14
 -1      3656 1.95876E+01 2.04324E+00-6.24863E-03-2.25081E-01 8.69145E-14 2.58309E-14
 -1      3657 1.95612E+01 1.87434E+00 3.47141E-03-1.16553E-01 8.29397E-14 3.42302E-14
 -1      3658 2.18505E+01-1.10222E+00 6.02120E-03 3.84045E-01 3.81460E-15 1.84689E-13
 -1      3659 2.19718E+01-1.26324E+00-3.31304E-03 1.31752E-01 8.16751E-15 1.06178E-13
 -1      3660 2.19363E+01-1.06816E+00-6.83035E-03 5.88590E-01 1.82135E-14 1.57499E-13
 -1      3661 1.27263E+01 1.85035E+00 1.42152E-03-1.05300E+00-1.70700E-13 1.14748E-13
 -1      3662 1.30329E+01 1.98425E+00 9.84240E-02 5.60317E-02-1.61503E-13 6.16451E-14
 -1      3663 2.49943E+01-3.34113E+00-2.97599E-02 1.33106E+00-8.64673E-14-2.81481E-13
 -1      3664 2.46096E+01-3.73381E+00 3.60421E-02 2.32113E+00-7.45584E-14-2.45777E-13
 -1      3665 2.33548E+01-3.50711E+00-1.56800E-02 2.73082E+00-1.15183E-13-1.96819E-13
 -1      3666 2.29365E+01 3.35525E+00-2.81063E-02-6.78737E-01 1.43346E-13 1.42566E-13
 -1      3667 2.28826E+01 3.52102E+00-3.36319E-02-1.29882E-01 1.18201E-13 2.10580E-13
 -1      3668 2.28706E+01 3.08527E+00-1.33665E-02 8.37138E-01 8.57387E-14 2.41968E-13
 -1      3669 2.29740E+01 2.52180E+00-5.98081E-02 1.27713E+00 5.55211E-14 2.22357E-13
 -1      3670 2.52851E+01 8.81363E-01-3.10337E-02-1.92430E+00 1.63758E-15-9.76268E-14
 -1      3671 2.59662E+01-3.67922E-01-2.83327E-02-1.64066E+00 2.11636E-15-1.21032E-13
 -1      3672 1.42648E+01 1.31826E+00 3.59761E-02-1.80401E+00 6.16798E-14-2.99344E-14
 -1      3673 1.63685E+01-8.98783E-01-1.27217E-02 4.41897E+00-7.26225E-14 1.88051E-13
 -1      3674 1.43322E+01 2.35192E-01 1.38210E-01 4.05253E+00-7.95908E-14 3.19741E-13
 -1      3675 1.88335E+01 1.55678E+00-1.75604E-03 2.29397E-02 4.49738E-14 1.20649E-13
 -1      3676 1.84978E+01 1.54669E+00-1.56621E-02 1.21538E-02 5.96576E-14 1.09032E-13
 -1      3677 1.81776E+01 1.56239E+00-1.71616E-03-9.49843E-02 4.13907E-14 8.53043E-14
 -1      3678 1.76952E+01 1.57488E+00-2.10326E-02-1.82995E-01 2.05046E-14 5.31526E-14
 -1      3679 1.84136E+01 1.51066E+00 1.42154E-02-3.57774E-01 3.04953E-14 8.15700E-14
 -1      3680 1.72828E+01 1.59950E+00-1.96444E-03-3.76300E-01 1.88521E-14 2.17790E-14
 -1      3681 1.66401E+01 1.59348E+00-2.75352E-02-5.44253E-01 3.86488E-14-9.28251E-15
 -1      3682 1.76736E+01 1.46718E+00 1.87321E-02-7.14590E-01 8.72924E-15 4.72014E-14
 -1      3683 1.60583E+01 1.58333E+00 1.42327E-04-8.76725E-01 6.02147E-14-2.85071E-14
 -1      3684 1.50951E+01 1.49777E+00-3.34725E-02-1.16834E+00 7.08105E-14-1.70315E-14
 -1      3685 1.66844E+01 1.36202E+00 2.28484E-02-1.31500E+00 3.03655E-14-2.17662E-14
 -1      3686 1.04811E+01 1.06597E+00 1.21346E-01-1.43436E+00-1.63796E-13 1.77858E-13
 -1      3687 1.81779E+01 1.27347E+00-1.37967E-02-1.51376E-01 4.78851E-14 1.75013E-13
 -1      3688 1.85039E+01 1.15928E+00-4.24844E-03-1.87268E-01 9.10806E-14 2.12695E-13
 -1      3689 1.87528E+01 1.04307E+00-8.92473E-03-2.47955E-01 9.10994E-14 2.18317E-13
 -1      3690 1.89745E+01 9.35730E-01-3.58076E-03-2.52980E-01 8.89696E-14 2.38331E-13
 -1      3691 1.85947E+01 1.08515E+00 1.15073E-02 7.82865E-03 4.21299E-14 2.34996E-13
 -1      3692 1.91460E+01 8.37710E-01-5.74997E-03-2.78427E-01 7.89710E-14 2.97159E-13
 -1      3693 1.92902E+01 7.49139E-01-2.93513E-03-2.66577E-01 9.52363E-14 2.69328E-13
 -1      3694 1.90082E+01 8.95466E-01 8.77892E-03-1.07497E-01 9.87363E-14 3.24920E-13
 -1      3695 1.94209E+01 6.62743E-01-3.51236E-03-2.72638E-01 1.00766E-13 9.11064E-14
 -1      3696 1.95228E+01 5.84665E-01-2.36022E-03-2.51536E-01 9.60812E-14 9.13968E-14
 -1      3697 1.93055E+01 7.21879E-01 6.07842E-03-1.58685E-01 1.84384E-14 1.73380E-13
 -1      3698 1.96154E+01 5.14245E-01-2.14993E-03-2.45417E-01 4.01045E-14 1.65943E-15
 -1      3699 1.96826E+01 4.51477E-01-1.90040E-03-2.21264E-01-1.07373E-13-5.20943E-14
 -1      3700 1.95229E+01 5.70461E-01 4.28006E-03-1.72278E-01 1.73552E-14 2.41199E-14
 -1      3701 1.97479E+01 3.95555E-01-1.19461E-03-2.09262E-01-2.14032E-13 6.93961E-14
 -1      3702 1.97917E+01 3.45778E-01-1.51084E-03-1.85519E-01-3.00852E-13 2.48628E-14
 -1      3703 1.96760E+01 4.45400E-01 3.01806E-03-1.63339E-01-1.18107E-13 7.59123E-15
 -1      3704 1.98375E+01 3.01991E-01-5.99909E-04-1.71486E-01-2.05456E-13 7.50745E-14
 -1      3705 1.98656E+01 2.62964E-01-1.19158E-03-1.49988E-01-5.42708E-14 1.95381E-14
 -1      3706 1.97828E+01 3.44323E-01 2.09407E-03-1.43411E-01-2.33476E-13-4.05256E-14
 -1      3707 1.98975E+01 2.29029E-01-2.29256E-04-1.36145E-01-1.96810E-13 5.68882E-14
 -1      3708 1.99153E+01 1.98681E-01-9.12419E-04-1.17685E-01-3.28700E-13 6.76511E-14
 -1      3709 1.98568E+01 2.63874E-01 1.42776E-03-1.19540E-01-1.56913E-13-3.10533E-14
 -1      3710 1.99364E+01 1.73701E-01-3.71658E-05-1.05826E-01-1.80133E-13 9.30810E-14
 -1      3711 1.99470E+01 1.51180E-01-7.02498E-04-9.11497E-02 3.53942E-14 1.36025E-13
 -1      3712 1.99066E+01 2.01946E-01 9.76807E-04-9.63644E-02-1.81677E-13 1.66582E-13
 -1      3713 1.99624E+01 1.30771E-01 6.25388E-05-8.03314E-02 8.51335E-14 7.88946E-14
 -1      3714 1.99693E+01 1.12467E-01-5.42811E-04-6.78831E-02 5.91348E-14 6.19154E-14
 -1      3715 1.99409E+01 1.53344E-01 6.72125E-04-7.52478E-02-1.46730E-14 7.33892E-14
 -1      3716 1.99797E+01 9.68598E-02 1.00441E-04-5.90059E-02 2.20938E-13 1.11710E-13
 -1      3717 1.99837E+01 8.28838E-02-4.05538E-04-4.92122E-02 3.11389E-13 1.78146E-13
 -1      3718 1.99647E+01 1.14540E-01 4.58239E-04-5.66551E-02 2.55354E-13-1.65849E-14
 -1      3719 1.99906E+01 7.10066E-02 1.14320E-04-4.21419E-02 2.19656E-13 1.43430E-13
 -1      3720 1.99928E+01 6.03820E-02-3.00249E-04-3.46012E-02 3.08182E-13 8.34453E-14
 -1      3721 1.99804E+01 8.46232E-02 3.05811E-04-4.13825E-02 2.44725E-13-2.08696E-14
 -1      3722 1.99973E+01 5.14010E-02 1.10095E-04-2.91226E-02 2.28628E-13 4.87666E-14
 -1      3723 1.99984E+01 4.33816E-02-2.19735E-04-2.34330E-02 4.96585E-14-5.50827E-14
 -1      3724 1.99907E+01 6.17390E-02 2.00913E-04-2.92419E-02 2.21668E-13-1.59075E-13
 -1      3725 2.00012E+01 3.66451E-02 9.88934E-05-1.92932E-02 1.25640E-13 1.22419E-13
 -1      3726 2.00016E+01 3.06526E-02-1.53311E-04-1.50927E-02 1.55823E-13-2.05064E-14
 -1      3727 1.99971E+01 4.43717E-02 1.27504E-04-1.98592E-02 1.20719E-13-4.58033E-14
 -1      3728 2.00032E+01 2.58718E-02 8.29405E-05-1.21878E-02 2.21290E-13-1.15965E-13
 -1      3729 2.00032E+01 2.15928E-02-1.08361E-04-9.25978E-03 4.79861E-13 5.30912E-14
 -1      3730 2.00008E+01 3.15690E-02 7.36801E-05-1.29333E-02 2.07828E-13 1.97382E-13
 -1      3731 2.00040E+01 1.78235E-02 6.60739E-05-7.01980E-03 5.07704E-13 1.50823E-14
 -1      3732 2.00038E+01 1.44982E-02-7.86884E-05-4.83712E-03 4.00922E-13-6.77312E-14
 -1      3733 2.00028E+01 2.20210E-02 5.00941E-05-7.82683E-03 4.85614E-13 9.95367E-15
 -1      3734 2.00041E+01 1.17431E-02 5.07294E-05-3.28332E-03 3.75947E-13-1.45484E-13
 -1      3735 2.00038E+01 9.31815E-03-5.24050E-05-1.79331E-03 3.36430E-13-2.39567E-13
 -1      3736 2.00037E+01 1.47357E-02 2.96438E-05-4.05665E-03 3.43939E-13-1.39190E-13
 -1      3737 2.00038E+01 7.29893E-03 3.75305E-05-7.45467E-04 1.42368E-13-2.54170E-13
 -1      3738 2.00033E+01 5.56174E-03-2.01306E-05 2.02897E-04 2.24590E-14-3.47458E-13
 -1      3739 2.00037E+01 9.38573E-03 1.16894E-05-1.45533E-03 2.70263E-13-2.58210E-13
 -1      3740 2.00032E+01 4.69564E-03 2.41435E-05 6.11152E-04-2.48776E-14-2.67977E-13
 -1      3741 2.00030E+01 3.74416E-03-2.44557E-06 1.00036E-03-1.09763E-13-3.68024E-13
 -1      3742 2.00031E+01 4.16964E-03-2.47364E-05 6.91213E-04-1.14646E-13-4.71469E-13
 -1      3743 2.00035E+01 6.14246E-03-3.67017E-06-1.23156E-05 1.40457E-13-4.08567E-13
 -1      3744 2.00033E+01 5.90031E-03-7.14136E-06 6.48354E-06 1.14614E-14-2.65204E-13
 -1      3745 2.00032E+01 6.12239E-03-2.53414E-05-1.77148E-04-9.25982E-15 7.39659E-14
 -1      3746 2.04717E+01 4.28273E-01-1.37256E-03-3.73224E-01 4.85593E-14 1.55498E-13
 -1      3747 2.04107E+01 6.82530E-01 4.14289E-03-2.55939E-01 3.97131E-14 1.33182E-13
 -1      3748 1.55557E+01-6.31937E-02 3.90899E-02-3.72932E+00 5.21631E-14-8.40491E-14
 -1      3749 1.59377E+01-8.15860E-01 1.06064E-01-4.65750E+00 2.44804E-14-7.48707E-14
 -1      3750 2.29656E+01 2.12939E+00-3.28040E-02-1.53082E+00 3.04930E-14 1.22150E-13
 -1      3751 2.28328E+01 2.74737E+00 4.34022E-03-1.15863E+00 1.01700E-13 1.52657E-13
 -1      3752 2.31586E+01-6.50150E-01-1.19005E-02-1.40747E+00-1.65328E-13 1.38604E-13
 -1      3753 2.31663E+01-7.15301E-02 5.73726E-03-1.59870E+00-1.04223E-13 1.29853E-13
 -1      3754 2.28299E+01-1.28276E+00 7.52107E-03-8.03481E-01-1.19833E-13 4.52171E-14
 -1      3755 2.29363E+01-1.03024E+00-8.17309E-03-1.05209E+00-1.77944E-13 4.35227E-14
 -1      3756 2.35341E+01-1.03096E+00-6.27181E-03-1.13725E+00-1.28429E-13-7.50511E-14
 -1      3757 2.22748E+01-1.44185E+00 1.07320E-02-2.15783E-01-3.11073E-14 6.94471E-14
 -1      3758 2.24659E+01-1.43141E+00-1.39429E-02-4.53314E-01-8.23763E-14 1.09953E-13
 -1      3759 2.29437E+01-1.62312E+00-1.64119E-02-4.21361E-01-1.26816E-13-1.56551E-13
 -1      3760 2.16722E+01-1.27293E+00 1.30632E-02 1.97024E-01 2.62657E-14 1.19930E-13
 -1      3761 2.18912E+01-1.39251E+00-8.55840E-03 2.26688E-02 1.32934E-15 1.50563E-13
 -1      3762 2.22076E+01-1.61636E+00-1.09233E-02 1.58186E-01-7.08675E-14 2.57120E-14
 -1      3763 2.11296E+01-9.67193E-01 1.09905E-02 4.31283E-01 2.03562E-14 2.00803E-13
 -1      3764 2.13327E+01-1.13347E+00-4.54329E-03 3.27771E-01 8.90748E-15 1.37751E-13
 -1      3765 2.15106E+01-1.33711E+00-1.14809E-02 5.04702E-01-1.28798E-14 5.77787E-14
 -1      3766 2.07014E+01-6.46021E-01 8.00604E-03 5.27604E-01 2.96141E-14 2.80397E-13
 -1      3767 2.08683E+01-8.07299E-01-1.38686E-03 4.80339E-01 3.69529E-14 2.81581E-13
 -1      3768 2.09396E+01-9.62224E-01-1.14969E-02 6.51131E-01-4.21641E-14 1.07210E-13
 -1      3769 2.03937E+01-3.70504E-01 5.32190E-03 5.35494E-01 9.69221E-14 1.54332E-13
 -1      3770 2.05188E+01-5.02868E-01 5.89389E-04 5.25846E-01 1.43333E-13 2.69950E-13
 -1      3771 2.05227E+01-6.04908E-01-9.19763E-03 6.69710E-01 1.25868E-13 1.19648E-13
 -1      3772 2.01890E+01-1.61093E-01 3.20144E-03 4.94405E-01-7.00998E-14 1.85990E-13
 -1      3773 2.02761E+01-2.58383E-01 1.50012E-03 5.07038E-01-2.46264E-14 1.89393E-13
 -1      3774 2.02423E+01-3.16466E-01-6.64203E-03 6.18123E-01 5.39172E-14 1.56070E-13
 -1      3775 2.00633E+01-1.71121E-02 1.65195E-03 4.30831E-01 5.59816E-14 3.44707E-14
 -1      3776 2.01199E+01-8.18455E-02 1.72305E-03 4.54803E-01-1.08854E-14 1.55341E-13
 -1      3777 2.00686E+01-1.07512E-01-4.55330E-03 5.35301E-01 2.72437E-14 1.72500E-13
 -1      3778 1.99933E+01 7.19768E-02 6.56509E-04 3.61035E-01 3.27734E-14-3.86438E-14
 -1      3779 2.00276E+01 3.35233E-02 1.60142E-03 3.89323E-01 1.43060E-15 1.45595E-13
 -1      3780 1.99717E+01 3.01468E-02-2.81634E-03 4.44771E-01 6.44787E-15 1.60824E-15
 -1      3781 1.99600E+01 1.19396E-01 4.70021E-05 2.93944E-01 2.56171E-13 8.39661E-14
 -1      3782 1.99791E+01 1.00321E-01 1.34604E-03 3.22354E-01 7.74834E-14 2.01186E-14
 -1      3783 1.99256E+01 1.10464E-01-1.67223E-03 3.59037E-01 3.08581E-14 7.67212E-14
 -1      3784 1.99490E+01 1.37739E-01-2.77802E-04 2.33826E-01 3.03534E-13 6.52888E-14
 -1      3785 1.99583E+01 1.31860E-01 1.07908E-03 2.60126E-01 3.32376E-13 1.42673E-13
 -1      3786 1.99111E+01 1.49380E-01-8.80211E-04 2.83575E-01 2.71117E-13 8.89626E-14
 -1      3787 1.99505E+01 1.37310E-01-4.28158E-04 1.82321E-01 8.75092E-14-4.02920E-14
 -1      3788 1.99541E+01 1.39689E-01 8.41771E-04 2.05436E-01 2.38000E-13 6.23035E-14
 -1      3789 1.99144E+01 1.60334E-01-3.63353E-04 2.19996E-01 3.05435E-13 1.09028E-13
 -1      3790 1.99579E+01 1.25995E-01-4.70450E-04 1.39544E-01-4.53519E-14 3.64984E-14
 -1      3791 1.99584E+01 1.32966E-01 6.43076E-04 1.59148E-01-2.88644E-14-4.76923E-14
 -1      3792 1.99264E+01 1.53900E-01-7.03924E-05 1.68016E-01 9.90155E-14 1.87900E-13
 -1      3793 1.99674E+01 1.09326E-01-4.50942E-04 1.04838E-01-1.45526E-13 5.37190E-16
 -1      3794 1.99664E+01 1.18369E-01 4.88728E-04 1.21012E-01-4.20390E-14 4.90903E-16
 -1      3795 1.99414E+01 1.37934E-01 8.33698E-05 1.26379E-01-2.95566E-14 2.25029E-13
 -1      3796 1.99767E+01 9.09636E-02-3.99997E-04 7.72301E-02 5.80889E-14-8.03038E-14
 -1      3797 1.99753E+01 1.00448E-01 3.71181E-04 9.02705E-02-9.87992E-14-5.98739E-14
 -1      3798 1.99564E+01 1.17769E-01 1.50248E-04 9.35652E-02-8.75743E-14 1.24546E-13
 -1      3799 1.99847E+01 7.31485E-02-3.36657E-04 5.56530E-02-1.98435E-13-8.72478E-14
 -1      3800 1.99833E+01 8.21056E-02 2.82256E-04 6.59540E-02-4.62629E-14-8.32246E-14
 -1      3801 1.99695E+01 9.68337E-02 1.65487E-04 6.80686E-02-6.22792E-14-1.68094E-13
 -1      3802 1.99911E+01 5.71088E-02-2.72303E-04 3.90684E-02-1.77229E-13 1.05244E-14
 -1      3803 1.99900E+01 6.50324E-02 2.15029E-04 4.70513E-02-2.23665E-13-2.59673E-14
 -1      3804 1.99802E+01 7.71595E-02 1.53210E-04 4.85163E-02-1.36952E-13-1.46155E-13
 -1      3805 1.99958E+01 4.33882E-02-2.13140E-04 2.65316E-02 2.34763E-13-7.98917E-14
 -1      3806 1.99951E+01 5.00800E-02 1.63927E-04 3.26030E-02 5.04907E-14 8.60848E-14
 -1      3807 1.99884E+01 5.97955E-02 1.28682E-04 3.37174E-02-8.39948E-14-3.22271E-13
 -1      3808 1.99991E+01 3.20957E-02-1.62023E-04 1.72185E-02 1.27835E-13-1.15636E-13
 -1      3809 1.99986E+01 3.75485E-02 1.24798E-04 2.17476E-02 2.11528E-13 5.57549E-14
 -1      3810 1.99943E+01 4.51429E-02 1.00854E-04 2.26692E-02 1.91572E-13-1.51603E-13
 -1      3811 2.00011E+01 2.30857E-02-1.19748E-04 1.04317E-02 8.53849E-14-1.85256E-13
 -1      3812 2.00009E+01 2.74010E-02 9.46274E-05 1.37400E-02 1.20932E-13-1.47368E-13
 -1      3813 1.99983E+01 3.32015E-02 7.46938E-05 1.45461E-02 1.47085E-13-5.60123E-14
 -1      3814 2.00022E+01 1.60775E-02-8.64838E-05 5.59466E-03-1.41532E-13-5.07559E-15
 -1      3815 2.00022E+01 1.94119E-02 7.13084E-05 7.95358E-03-6.49795E-14-1.75996E-13
 -1      3816 2.00008E+01 2.37431E-02 5.24974E-05 8.67841E-03-3.95080E-14-1.59973E-13
 -1      3817 2.00026E+01 1.07353E-02-5.99702E-05 2.24460E-03 3.17812E-14 6.24476E-14
 -1      3818 2.00028E+01 1.32630E-02 5.33922E-05 3.87385E-03-6.60124E-14 1.42356E-13
 -1      3819 2.00022E+01 1.64193E-02 3.28758E-05 4.52610E-03-2.71849E-13-2.31310E-14
 -1      3820 2.00026E+01 6.70933E-03-3.94352E-05 1.46704E-05 2.52353E-13-2.73676E-13
 -1      3821 2.00028E+01 8.60561E-03 3.78024E-05 1.08689E-03 2.18638E-13-2.66416E-14
 -1      3822 2.00027E+01 1.08636E-02 2.17531E-05 1.67308E-03 1.87962E-13-8.70854E-14
 -1      3823 2.33865E+01 1.68135E+00-1.09714E-02 1.57993E+00 1.11040E-14 2.34749E-13
 -1      3824 1.47214E+01 1.71539E+00-4.85679E-03 9.31845E-01-1.45054E-13 2.35398E-13
 -1      3825 1.55680E+01 1.69022E+00-1.07111E-02 6.75433E-01-1.72592E-13 2.33233E-13
 -1      3826 1.94526E+01 1.77374E+00-5.87027E-03-5.30560E-02 8.53931E-14 5.34301E-14
 -1      3827 1.62197E+01 1.67209E+00-2.49239E-02 3.84351E-01-8.65614E-14 2.25586E-13
 -1      3828 1.69018E+01 1.60003E+00-6.58308E-03 2.31044E-01 1.00083E-14 2.24223E-13
 -1      3829 1.61286E+01 1.52006E+00 3.65034E-02 1.16477E+00-9.88367E-14 3.58489E-13
 -1      3830 2.36890E+01 2.01208E+00-2.14439E-03-1.77699E+00-2.87981E-14 2.34071E-13
 -1      3831 2.45066E+01 1.41292E+00-4.81821E-02-1.98125E+00-1.54807E-14 4.72157E-14
 -1      3832 2.43122E+01 5.83121E-01-9.14905E-03-1.79741E+00 1.51094E-14 1.38841E-13
 -1      3833 2.29646E+01 1.39518E+00 1.07814E-02-1.68694E+00-1.99398E-14 1.91775E-13
 -1      3834 1.79983E+01-1.80192E+00-1.60408E-02-4.55620E+00-2.72525E-15-8.46025E-14
 -1      3835 2.46488E+01-3.41989E+00 5.75118E-02-1.73375E+00-1.28806E-13 5.71626E-14
 -1      3836 2.49715E+01-2.65691E+00-1.84519E-02-2.98198E-01-8.35877E-14 2.28723E-13
 -1      3837 2.00019E+01 1.93754E-03-7.71530E-07-1.95530E-03 4.18360E-13-2.69394E-13
 -1      3838 2.17260E+01-1.26124E+00-4.22443E-03-3.84520E-01-5.32942E-14 1.22737E-13
 -1      3839 2.15261E+01-1.07340E+00 1.29088E-02-5.04613E-01-2.53167E-14 1.25425E-13
 -1      3840 1.95330E+01 2.16599E+00 3.26334E-03-3.20037E-01 9.27210E-14 3.21765E-14
 -1      3841 1.95150E+01 2.13445E+00-8.42560E-03-3.15151E-01 8.60607E-14 4.77039E-14
 -1      3842 1.94928E+01 1.95798E+00 1.51869E-03-2.67866E-01 8.73690E-14 3.37390E-14
 -1      3843 1.30919E+01 1.75981E+00-7.21381E-03 9.59190E-01-1.53595E-13 1.49179E-13
 -1      3844 2.35312E+01 8.98611E-01-3.97571E-02 1.74412E+00-2.41517E-15 1.96575E-13
 -1      3845 2.00022E+01 3.22429E-03 8.18703E-06-1.53589E-03 2.94792E-13-3.79456E-13
 -1      3846 2.12545E+01-8.79433E-01-3.13035E-03-5.70214E-01-1.36582E-14 1.32405E-13
 -1      3847 2.10946E+01-6.63784E-01 1.04211E-02-6.16961E-01-2.84936E-14 1.32557E-13
 -1      3848 2.13857E+01-1.06122E+00-1.23869E-02-7.33046E-01-2.09970E-14 1.79710E-13
 -1      3849 2.01587E+01 1.49726E+00-2.03546E-03 3.21667E-02 9.80753E-14 1.41180E-13
 -1      3850 2.00592E+01 1.63446E+00-1.98571E-03-4.54060E-02 8.78313E-14 1.50045E-13
 -1      3851 2.00754E+01 1.44266E+00 2.76205E-03-1.90483E-01 6.84818E-14 1.53618E-13
 -1      3852 2.02411E+01 1.24703E+00 2.15563E-03-5.24637E-02 8.71571E-14 1.41755E-13
 -1      3853 1.73661E+01 1.49815E+00-2.02914E-02 4.41908E-02 2.00022E-14 1.78261E-13
 -1      3854 1.78397E+01 1.39233E+00-5.37630E-03-3.95212E-02 6.50912E-15 1.66533E-13
 -1      3855 1.80143E+01 1.28211E+00 1.59514E-02 2.24203E-01 1.38518E-14 3.35584E-13
 -1      3856 1.72228E+01 1.44546E+00 2.28198E-02 5.87314E-01 3.93202E-14 2.79633E-13
 -1      3857 1.96206E+01 2.09249E+00 1.50235E-03-3.10751E-01 8.41600E-14 4.72614E-14
 -1      3858 1.95596E+01 2.11916E+00-6.87685E-03-3.35292E-01 8.11861E-14 4.19794E-14
 -1      3859 1.95558E+01 1.92520E+00 2.81239E-03-3.54160E-01 7.98585E-14 2.83440E-14
 -1      3860 1.96899E+01 1.82022E+00 3.42764E-03-3.63468E-01 6.77726E-14 6.50286E-14
 -1      3861 1.52568E+01 9.92893E-01 3.48370E-02-2.39544E+00 5.35869E-14-6.94202E-14
 -1      3862 2.34809E+01 8.54572E-02-1.19038E-02 1.53392E+00-1.02644E-14 2.03355E-13
 -1      3863 2.35366E+01-5.27706E-01-1.44265E-02 1.41715E+00-2.28664E-14 2.31373E-13
 -1      3864 1.92850E+01 1.64158E+00-1.17296E-03 2.71545E-03 8.24857E-14 8.84065E-14
 -1      3865 1.90586E+01 1.58219E+00-1.16078E-02 5.47073E-02 6.31823E-14 1.04065E-13
 -1      3866 1.89664E+01 1.59149E+00 1.34998E-02-1.77817E-01 5.52765E-14 9.05816E-14
 -1      3867 2.08983E+01-4.53496E-01-1.26360E-03-6.09453E-01-1.57083E-14 1.51159E-13
 -1      3868 2.07792E+01-2.34902E-01 7.81894E-03-5.96465E-01 2.80772E-14 1.60054E-13
 -1      3869 2.09502E+01-5.80220E-01-1.02437E-02-7.59130E-01-5.38729E-15 1.46883E-13
 -1      3870 2.56100E+01-9.69010E-01 3.77916E-02-1.23753E+00-1.36141E-14-7.07281E-14
 -1      3871 1.58546E+01 5.26137E-01 1.12657E-02-2.84913E+00 2.66853E-14-6.89570E-14
 -1      3872 1.69056E+01-1.74253E-01-2.68205E-02-3.34920E+00 3.65836E-14-6.09634E-14
 -1      3873 1.67026E+01 8.31826E-01 2.46022E-02-2.12731E+00 3.77823E-14-2.28615E-14
 -1      3874 1.78738E+01-1.26593E+00 6.23538E-02 4.32145E+00-1.18817E-13 4.71758E-14
 -1      3875 1.67031E+01-4.04540E-01-3.18017E-02 3.68998E+00-1.45930E-13 1.04434E-13
 -1      3876 1.90809E+01-1.58798E+00 1.36672E-02 3.79716E+00-1.10559E-13-8.20698E-15
 -1      3877 2.41799E+01-1.05445E+00 1.13254E-02 1.13809E+00-4.79781E-14 2.80828E-13
 -1      3878 2.32869E+01-9.18637E-01-1.32295E-02 1.11733E+00-4.23686E-14 2.20399E-13
 -1      3879 2.32426E+01-1.27374E+00 5.63717E-03 8.64674E-01-4.80557E-14 1.93973E-13
 -1      3880 2.48374E+01-1.80814E+00 1.57023E-02 6.60253E-01-7.28870E-14 2.37294E-13
 -1      3881 2.01520E+01-2.32329E+00 9.37349E-02-4.20525E+00-3.82099E-14-6.96622E-14
 -1      3882 2.11676E+01-2.75963E+00-2.98040E-02-3.57101E+00-7.01210E-14-4.03323E-15
 -1      3883 2.33514E+01-3.29893E+00-2.78805E-02-2.32197E+00-1.32024E-13-1.96666E-14
 -1      3884 1.86157E+01-1.47947E+00 1.48625E-02-3.97691E+00 3.46979E-14-4.74130E-14
 -1      3885 2.00031E+01 6.33849E-03-1.51483E-05-2.36689E-04 2.16360E-13 1.03722E-13
 -1      3886 2.00030E+01 6.37293E-03-1.98982E-05-3.74064E-04 2.00191E-13-2.10234E-14
 -1      3887 2.00033E+01 8.07750E-03 4.77030E-05-3.62903E-04 1.27731E-13-8.77366E-14
 -1      3888 2.05612E+01 2.10977E-01 6.06774E-03-4.68920E-01 5.80990E-14 1.51290E-13
 -1      3889 2.04451E+01 4.06167E-01-4.31077E-03-4.79332E-01 5.43721E-14 2.06031E-13
 -1      3890 2.06415E+01-8.56305E-03-5.31125E-04-5.31079E-01 4.87102E-14 1.56535E-13
 -1      3891 2.03414E+01 8.91317E-01-8.77157E-04-1.84142E-01 5.80066E-14 1.36427E-13
 -1      3892 2.41485E+01-2.28839E+00-2.10610E-02-7.15441E-02-8.51507E-14 2.20121E-13
 -1      3893 1.38769E+01 7.79733E-01 2.62488E-02 2.94323E+00-1.71384E-13 3.97953E-13
 -1      3894 2.37437E+01 2.55490E-01 1.19789E-02-1.73204E+00-5.12520E-14 1.81090E-13
 -1      3895 2.30565E+01 6.56213E-01-3.23944E-02-1.75679E+00-7.93343E-14 1.96963E-13
 -1      3896 2.00022E+01 3.70806E-03-1.42335E-05-1.36510E-03 1.62124E-13-2.44287E-13
 -1      3897 2.00025E+01 5.10334E-03 2.46432E-05-7.23638E-04 1.50640E-13-2.61938E-13
 -1      3898 2.22853E+01-1.50124E+00-3.12281E-03-2.82277E-02 2.96538E-14 1.02241E-13
 -1      3899 2.20592E+01-1.40863E+00 1.08695E-02-2.28566E-01-2.33630E-14 8.87010E-14
 -1      3900 2.19357E+01-1.48944E+00-2.18929E-02-5.29405E-01-1.28291E-14 1.26060E-13
 -1      3901 1.40339E+01 1.59447E+00 7.99620E-02 1.69563E+00-2.15256E-13 3.94248E-13
 -1      3902 2.00030E+01 6.26227E-03-2.26470E-05-4.01776E-04 2.27023E-13-2.16475E-13
 -1      3903 2.00029E+01 6.10683E-03-1.28298E-05-5.28059E-04 3.05614E-13-2.69573E-13
 -1      3904 2.00032E+01 8.18538E-03 5.40966E-05-3.19333E-04 2.82611E-13-9.75888E-14
 -1      3905 1.93603E+01 1.78721E+00 9.12559E-03-1.61742E-01 1.09002E-13 2.74418E-14
 -1      3906 2.24624E+01-3.06317E+00 3.39084E-02 2.94647E+00-9.91174E-14-8.62617E-14
 -1      3907 2.12202E+01-2.60093E+00-1.52740E-02 3.23374E+00-8.00774E-14-4.91317E-14
 -1      3908 2.00028E+01 5.66896E-03-2.26783E-05-5.96594E-04 2.68656E-13-2.93250E-13
 -1      3909 2.00027E+01 5.36289E-03 2.13893E-06-7.63259E-04 2.56250E-13-4.85229E-13
 -1      3910 2.00030E+01 7.58264E-03 2.47471E-05-3.02282E-04 3.15696E-13-3.19175E-13
 -1      3911 2.23908E+01-1.18983E+00 2.26494E-03 6.19874E-01 4.88032E-15 1.83902E-13
 -1      3912 2.00027E+01 6.68069E-03 1.30355E-05-2.03277E-04 2.47855E-13-3.51040E-13
 -1      3913 1.99677E+01 1.35243E+00 1.30595E-03-3.87168E-01 5.52777E-14 1.41398E-13
 -1      3914 1.98454E+01 1.45647E+00-3.73919E-03-4.29616E-01 6.48565E-14 1.03253E-13
 -1      3915 2.52847E+01-3.00443E+00-4.30564E-03 6.90222E-01-1.09454E-13-2.03636E-13
 -1      3916 2.43329E+01-3.03493E+00 9.78548E-03 1.25563E+00-9.09845E-14-1.93184E-13
 -1      3917 2.51014E+01-2.55361E+00-7.45036E-02 4.01826E-02-1.08300E-13-1.04082E-13
 -1      3918 2.30691E+01-3.03871E+00-9.91190E-03 2.20173E+00-4.09672E-14-2.70791E-13
 -1      3919 2.00032E+01 4.86434E-03-4.78058E-06 4.25751E-04-9.27946E-14-7.74054E-13
 -1      3920 2.00033E+01 5.23851E-03-2.72010E-05 1.66894E-04 4.70150E-14-6.84501E-13
 -1      3921 2.00034E+01 7.17193E-03 1.99045E-05-2.36074E-04-1.15238E-13-4.76032E-13
 -1      3922 2.00034E+01 5.82715E-03 6.17846E-06 1.45838E-04 6.46093E-14-8.20429E-13
 -1      3923 2.01661E+01 1.16671E+00 1.44529E-04-2.66649E-01 5.60399E-14 1.53466E-13
 -1      3924 2.00693E+01 1.25625E+00-2.27861E-03-3.31603E-01 5.72518E-14 1.53300E-13
 -1      3925 2.00536E+01 1.09079E+00 6.27404E-04-4.64470E-01 3.79195E-14 1.42065E-13
 -1      3926 1.86964E+01 1.37437E+00-2.07980E-04-5.24821E-01 3.95559E-14 3.74582E-14
 -1      3927 1.83574E+01 1.30729E+00-1.65680E-02-6.70756E-01 2.18104E-14 9.62197E-15
 -1      3928 1.53532E+01 8.29943E-01-5.45389E-03 2.58648E+00-2.04780E-13 4.07481E-13
 -1      3929 1.81489E+01 1.24493E+00 6.74360E-03-8.92963E-01-4.34873E-15 3.00208E-14
 -1      3930 1.77101E+01 1.15704E+00-1.91358E-02-1.14192E+00 3.02969E-15 7.43004E-15
 -1      3931 1.85242E+01 1.09593E+00 7.84394E-03-1.04785E+00 3.41727E-15-4.42168E-14
 -1      3932 1.74974E+01 1.10441E+00 1.21292E-02-1.39409E+00 1.78642E-14 7.01685E-15
 -1      3933 1.69080E+01 9.72944E-01-1.16157E-02-1.79899E+00 2.36911E-14-1.06599E-15
 -1      3934 1.75069E+01 6.00495E-01 1.48928E-02-2.21763E+00 6.32870E-15-1.18440E-14
 -1      3935 1.80500E+01 8.55400E-01 4.50247E-03-1.56568E+00-9.67900E-15-1.93164E-14
 -1      3936 1.84647E+01 1.00570E+00-1.23080E-02 2.52675E-01-3.11390E-14 2.56976E-13
 -1      3937 1.87289E+01 9.36083E-01 1.22608E-04 1.58270E-01 2.76708E-14 1.96380E-13
 -1      3938 2.25394E+01-2.91224E+00 6.22612E-02-2.82752E+00-1.35549E-13-2.29504E-14
 -1      3939 2.33073E+01-2.87270E+00-3.22256E-02-1.64209E+00-1.21152E-13 4.51341E-14
 -1      3940 1.88889E+01 8.60593E-01-8.42057E-03 6.68765E-02 2.33738E-14 1.49320E-13
 -1      3941 1.90708E+01 7.91950E-01-4.81086E-04 1.84308E-02 1.49868E-14 1.07413E-13
 -1      3942 1.88527E+01 8.39315E-01 7.45352E-03 2.85464E-01-2.28121E-14 8.49271E-14
 -1      3943 1.92029E+01 7.16872E-01-5.61029E-03-3.80767E-02 3.82076E-14 2.03523E-14
 -1      3944 1.93395E+01 6.48013E-01-7.02003E-04-6.09510E-02 5.36587E-14-1.59526E-14
 -1      3945 1.91507E+01 7.22024E-01 5.11279E-03 1.17985E-01-1.66968E-14-8.01039E-14
 -1      3946 1.94389E+01 5.81030E-01-3.82460E-03-9.04410E-02-3.63936E-14-6.16334E-14
 -1      3947 1.95348E+01 5.20726E-01-8.96373E-04-9.57603E-02-1.11866E-13-1.32040E-13
 -1      3948 1.93846E+01 6.02906E-01 4.03152E-03 1.74948E-02-9.71793E-14-1.87817E-13
 -1      3949 1.96097E+01 4.63299E-01-2.44174E-03-1.08437E-01 2.90232E-14-7.70962E-14
 -1      3950 1.96765E+01 4.12158E-01-9.02451E-04-1.04352E-01 2.26864E-14 3.29717E-14
 -1      3951 1.95597E+01 4.92444E-01 3.18151E-03-3.46826E-02 5.31269E-14-1.82999E-13
 -1      3952 1.97319E+01 3.64777E-01-1.52217E-03-1.07154E-01-1.89993E-13 1.49840E-13
 -1      3953 1.97780E+01 3.22474E-01-8.41335E-04-9.84615E-02-1.42526E-13 1.70862E-13
 -1      3954 1.96891E+01 3.94655E-01 2.30114E-03-5.75349E-02-2.91589E-14-8.40528E-15
 -1      3955 1.98186E+01 2.84044E-01-8.95106E-04-9.59647E-02-1.23532E-13 5.02319E-14
 -1      3956 1.98501E+01 2.49652E-01-7.43101E-04-8.56987E-02-2.00060E-13 6.21112E-14
 -1      3957 1.97838E+01 3.11953E-01 1.67803E-03-6.29657E-02-2.11493E-13 2.20142E-13
 -1      3958 1.98783E+01 2.20279E-01-5.18847E-04-8.10600E-02-1.23267E-13 6.98843E-15
 -1      3959 1.98989E+01 1.93903E-01-6.25884E-04-7.13526E-02-3.11895E-14 1.43986E-13
 -1      3960 1.98510E+01 2.45080E-01 1.25520E-03-5.93334E-02-1.32340E-13 9.38629E-14
 -1      3961 1.99204E+01 1.69229E-01-2.76829E-04-6.56310E-02-4.01513E-14 1.43309E-13
 -1      3962 1.99350E+01 1.47108E-01-5.09371E-04-5.64202E-02-5.02253E-15 1.04573E-13
 -1      3963 1.98994E+01 1.90261E-01 8.92635E-04-5.13753E-02-5.04758E-14 6.60170E-14
 -1      3964 1.99503E+01 1.27698E-01-1.42211E-04-5.08521E-02 1.12768E-13 8.60109E-15
 -1      3965 1.99600E+01 1.10375E-01-4.01905E-04-4.29968E-02 2.38836E-13-1.04858E-13
 -1      3966 1.99348E+01 1.45074E-01 6.46862E-04-4.18332E-02 3.91590E-14 1.60265E-13
 -1      3967 1.99707E+01 9.52586E-02-5.46738E-05-3.80533E-02 1.39591E-13-2.89190E-13
 -1      3968 1.99769E+01 8.17924E-02-3.12128E-04-3.16281E-02 2.48901E-13-2.98941E-13
 -1      3969 1.99595E+01 1.09212E-01 4.59583E-04-3.25109E-02 1.54127E-13-2.63678E-13
 -1      3970 1.99842E+01 7.01308E-02-6.40999E-06-2.74968E-02 4.11310E-13-2.08720E-13
 -1      3971 1.99881E+01 5.97652E-02-2.38043E-04-2.24128E-02 3.73614E-13-1.40356E-13
 -1      3972 1.99765E+01 8.11015E-02 3.22296E-04-2.42377E-02 3.99636E-13-3.19358E-13
 -1      3973 1.99930E+01 5.08641E-02 2.06543E-05-1.91107E-02 3.07229E-13-2.20032E-13
 -1      3974 1.99953E+01 4.29760E-02-1.73905E-04-1.52068E-02 1.28924E-13-8.04050E-14
 -1      3975 1.99878E+01 5.93106E-02 2.20254E-04-1.73334E-02 3.78425E-13-1.44980E-13
 -1      3976 1.99983E+01 3.65550E-02 2.99448E-05-1.27869E-02 1.46097E-13-4.66511E-14
 -1      3977 1.99996E+01 3.08411E-02-1.27565E-04-9.96911E-03 3.99285E-13 7.33578E-14
 -1      3978 1.99950E+01 4.29706E-02 1.47802E-04-1.19401E-02 2.54681E-13-1.54222E-13
 -1      3979 2.00015E+01 2.57179E-02 3.07456E-05-8.03406E-03 4.91133E-13-2.56790E-14
 -1      3980 2.00021E+01 2.12263E-02-9.13954E-05-5.86725E-03 4.41514E-13-9.20734E-14
 -1      3981 1.99995E+01 3.05532E-02 1.03083E-04-7.77191E-03 3.78823E-13 1.07622E-13
 -1      3982 2.00031E+01 1.74187E-02 2.38267E-05-4.45866E-03 3.96486E-13-1.99483E-13
 -1      3983 2.00033E+01 1.40939E-02-6.61876E-05-2.93598E-03 2.46175E-13-2.08585E-13
 -1      3984 2.00021E+01 2.09869E-02 7.65101E-05-4.56480E-03 3.61680E-13-1.61161E-13
 -1      3985 2.43904E+01-4.46301E-01-4.34749E-02-1.62410E+00-4.28856E-14 7.32717E-14
 -1      3986 2.40298E+01-2.06196E+00 8.93522E-03-2.22656E-01-1.42092E-13-4.14408E-14
 -1      3987 2.43368E+01-1.65466E+00 5.38873E-03-6.26367E-01-7.87764E-14 1.50006E-14
 -1      3988 2.13155E+01-1.27028E+00 1.59943E-02 8.64954E-01 1.08740E-14-1.08397E-13
 -1      3989 2.16247E+01-1.50076E+00-1.81045E-03 7.71186E-01 1.04851E-14-1.30983E-13
 -1      3990 2.07260E+01-8.26869E-01 1.00877E-02 8.87112E-01-1.09870E-13-3.14983E-14
 -1      3991 2.09666E+01-1.04683E+00 4.14481E-04 8.72173E-01-1.00070E-13-8.28628E-14
 -1      3992 2.09716E+01-1.22049E+00-1.85022E-02 1.14198E+00-5.30600E-14-2.45385E-13
 -1      3993 2.03288E+01-4.58940E-01 5.91230E-03 8.08077E-01 1.22021E-13 9.87163E-14
 -1      3994 2.05022E+01-6.33610E-01 3.20339E-03 8.34748E-01-5.62246E-15 9.06266E-14
 -1      3995 2.04394E+01-7.30510E-01-1.23675E-02 1.04746E+00-1.35023E-13-1.79517E-14
 -1      3996 2.00818E+01-1.85893E-01 3.14456E-03 6.87779E-01-5.55757E-14 1.08399E-13
 -1      3997 2.01961E+01-3.11080E-01 3.86101E-03 7.33225E-01 1.16017E-13 1.18545E-13
 -1      3998 2.01061E+01-3.55753E-01-8.25921E-03 8.89852E-01 4.68777E-14 1.40700E-13
 -1      3999 1.99427E+01-1.62908E-03 1.15759E-03 5.60098E-01 5.29743E-14 1.32882E-13
 -1      4000 2.00122E+01-8.30501E-02 3.56699E-03 6.10888E-01-8.01332E-14 7.25392E-14
 -1      4001 1.99174E+01-9.38010E-02-5.38427E-03 7.18646E-01-7.65698E-14-3.07153E-14
 -1      4002 1.98774E+01 1.09342E-01 1.09665E-04 4.43363E-01-9.95153E-14 2.52701E-13
 -1      4003 1.99152E+01 6.20866E-02 2.93993E-03 4.91073E-01 1.18334E-14 2.02453E-13
 -1      4004 1.98271E+01 7.31785E-02-3.04427E-03 5.60080E-01-5.91298E-14 1.85978E-13
 -1      4005 1.98566E+01 1.67272E-01-4.85069E-04 3.43520E-01 1.25154E-13 1.11238E-13
 -1      4006 1.98735E+01 1.44740E-01 2.19395E-03 3.85615E-01-1.38628E-14 1.91886E-13
 -1      4007 1.97976E+01 1.65699E-01-1.95869E-03 4.27467E-01 2.78050E-14 2.83788E-13
 -1      4008 1.98615E+01 1.88405E-01-7.09132E-04 2.62029E-01 2.88350E-13 6.04730E-14
 -1      4009 1.98660E+01 1.82225E-01 1.61469E-03 2.97443E-01 2.05920E-13 3.74377E-14
 -1      4010 1.98034E+01 2.08893E-01-7.02864E-04 3.20525E-01 2.03617E-13 1.37283E-13
 -1      4011 1.98795E+01 1.85929E-01-7.64213E-04 1.97241E-01 1.75667E-13 2.85124E-13
 -1      4012 1.98771E+01 1.89993E-01 1.15892E-03 2.26052E-01 1.70245E-13 1.67022E-13
 -1      4013 1.98269E+01 2.17736E-01-6.79177E-05 2.37459E-01 1.96682E-13 2.03507E-13
 -1      4014 1.99021E+01 1.70045E-01-7.22179E-04 1.46737E-01 5.95658E-14 3.47566E-13
 -1      4015 1.98965E+01 1.79676E-01 7.95404E-04 1.69752E-01 1.99930E-13 4.21030E-13
 -1      4016 1.98573E+01 2.05824E-01 1.94218E-04 1.74184E-01 1.00705E-13 4.09331E-13
 -1      4017 1.99248E+01 1.47624E-01-6.35921E-04 1.07850E-01 1.71663E-14 2.10769E-13
 -1      4018 1.99182E+01 1.59722E-01 5.41850E-04 1.25962E-01 4.50432E-14 2.65138E-13
 -1      4019 1.98883E+01 1.83168E-01 3.19721E-04 1.26600E-01 1.10035E-13 3.52623E-13
 -1      4020 1.99451E+01 1.23205E-01-5.34282E-04 7.82217E-02-2.25678E-14 1.38904E-14
 -1      4021 1.99388E+01 1.35769E-01 3.67076E-04 9.22965E-02-1.81444E-14 1.24531E-13
 -1      4022 1.99164E+01 1.56014E-01 3.53176E-04 9.11363E-02 9.48174E-14 1.04420E-13
 -1      4023 1.99620E+01 9.95788E-02-4.33411E-04 5.58583E-02-3.98225E-14 1.29354E-14
 -1      4024 1.99566E+01 1.11416E-01 2.48700E-04 6.66726E-02-6.97320E-15-3.24172E-14
 -1      4025 1.99402E+01 1.28380E-01 3.33387E-04 6.48930E-02 6.63417E-15 7.71502E-14
 -1      4026 1.99753E+01 7.82774E-02-3.41966E-04 3.91274E-02-1.87875E-13-1.24407E-13
 -1      4027 1.99710E+01 8.87647E-02 1.70071E-04 4.73443E-02-8.46382E-14-9.04137E-14
 -1      4028 1.99593E+01 1.02631E-01 2.88675E-04 4.55846E-02 1.58612E-14 1.48314E-13
 -1      4029 1.99853E+01 5.99852E-02-2.63378E-04 2.67291E-02 6.24984E-14-2.72434E-13
 -1      4030 1.99821E+01 6.88768E-02 1.18072E-04 3.28991E-02-9.03992E-14-2.74738E-13
 -1      4031 1.99740E+01 7.99655E-02 2.35553E-04 3.14567E-02 2.03716E-14 9.99665E-14
 -1      4032 1.99924E+01 4.48465E-02-1.98409E-04 1.76397E-02 8.97791E-14-3.81943E-14
 -1      4033 1.99902E+01 5.21328E-02 8.35919E-05 2.22129E-02 6.45400E-14-2.38296E-13
 -1      4034 1.99847E+01 6.08238E-02 1.83648E-04 2.11850E-02-1.37919E-14-1.04821E-13
 -1      4035 1.99972E+01 3.26879E-02-1.45958E-04 1.10628E-02 1.34625E-13 1.75103E-14
 -1      4036 1.99958E+01 3.84920E-02 6.04956E-05 1.44017E-02 1.16735E-13 1.02558E-14
 -1      4037 1.99923E+01 4.51750E-02 1.38373E-04 1.37764E-02 4.14904E-14-1.12060E-13
 -1      4038 2.00003E+01 2.31587E-02-1.06565E-04 6.37937E-03-2.36199E-13-1.56321E-14
 -1      4039 1.99994E+01 2.76771E-02 4.46903E-05 8.77221E-03 1.29200E-14 5.18206E-14
 -1      4040 1.99973E+01 3.27160E-02 9.89551E-05 8.49008E-03 3.27058E-15 1.63794E-13
 -1      4041 2.00019E+01 1.58525E-02-7.93857E-05 3.10891E-03-1.33171E-13-8.30892E-14
 -1      4042 2.00016E+01 1.93135E-02 3.80799E-05 4.79685E-03-2.60396E-13-6.08522E-14
 -1      4043 2.00005E+01 2.30093E-02 6.47661E-05 4.77432E-03-2.37927E-13 7.85717E-14
 -1      4044 2.00027E+01 1.03368E-02-4.19037E-05 8.89541E-04 4.03663E-13-3.56900E-13
 -1      4045 2.00026E+01 1.29323E-02 3.07156E-05 2.04543E-03 1.65083E-13-1.93178E-13
 -1      4046 2.00021E+01 1.56189E-02 3.41598E-05 2.21146E-03 1.29536E-13-1.76693E-13
 -1      4047 1.98210E+01 1.28409E+00 8.54702E-04-5.34817E-01 5.73108E-14 8.68775E-14
 -1      4048 1.97409E+01 1.56333E+00 2.46958E-03-4.46404E-01 6.38017E-14 5.95838E-14
 -1      4049 1.96431E+01 1.62243E+00-5.01645E-03-4.53901E-01 6.24790E-14 4.71291E-14
 -1      4050 2.14669E+01-2.40875E+00-2.14452E-03-2.90894E+00-5.61634E-14 3.15594E-14
 -1      4051 1.61144E+01 1.08528E+00-3.46108E-02 1.81661E+00-2.45526E-13 3.82172E-13
 -1      4052 1.68269E+01 1.14750E+00 6.44780E-03 1.41944E+00-1.14059E-13 3.24832E-13
 -1      4053 1.82928E+01-7.26413E-01 3.15757E-02-3.37713E+00 3.42877E-14-3.59495E-14
 -1      4054 1.97940E+01-1.47057E+00-4.12515E-02-3.15080E+00 2.83094E-14 3.37161E-14
 -1      4055 1.83742E+01-2.02725E-01 5.08091E-03-2.71633E+00 1.60262E-14-3.53341E-14
 -1      4056 2.14593E+01-1.18712E+00-3.94986E-04-9.63341E-01-1.50528E-14 1.59124E-13
 -1      4057 2.12138E+01-9.12178E-01 1.32664E-02-9.91728E-01-2.13507E-14 1.56848E-13
 -1      4058 2.02661E+01 9.90010E-01-7.91693E-04-2.48878E-01 5.92982E-14 1.65038E-13
 -1      4059 1.94156E+01 1.74304E+00 6.53285E-03-3.75020E-01 8.93313E-14 2.48034E-14
 -1      4060 1.93711E+01 1.73149E+00-6.47314E-03-2.98692E-01 9.89327E-14 1.68006E-14
 -1      4061 1.91984E+01 1.58269E+00-5.88357E-03-2.94842E-01 8.80976E-14 1.73742E-14
 -1      4062 2.35377E+01-1.72740E+00-1.31121E-02 4.21187E-01-6.01816E-14 2.26269E-13
 -1      4063 2.28817E+01-1.50476E+00-1.30939E-02 4.73143E-01-3.44729E-14 1.82056E-13
 -1      4064 2.27277E+01-1.57666E+00 1.45114E-02 2.16098E-01-6.80537E-15 1.66507E-13
 -1      4065 2.21089E+01-1.71321E+00 1.97702E-02 6.63192E-01-4.41370E-14-5.68265E-14
 -1      4066 2.24885E+01-1.86473E+00 1.36225E-03 4.34557E-01-1.03107E-13-6.54294E-15
 -1      4067 2.17581E+01-1.71862E+00-9.32248E-03 1.06723E+00 2.41171E-14-1.79367E-13
 -1      4068 2.29962E+01-2.03259E+00 2.13710E-02 3.71444E-01-1.07755E-13-4.31469E-14
 -1      4069 2.33979E+01-1.99621E+00 5.15512E-03 1.68822E-02-1.42900E-13-5.60593E-14
 -1      4070 2.37937E+01-2.64185E+00-3.50216E-02 7.46455E-01-6.89913E-14-2.68795E-14
 -1      4071 2.26965E+01-2.24239E+00-1.42117E-02 9.64517E-01-1.03141E-13-1.38767E-13
 -1      4072 2.00026E+01 4.26397E-03-1.38258E-05-1.05695E-03 1.04448E-13-4.80343E-13
 -1      4073 2.00027E+01 5.97257E-03-1.03011E-05-6.12522E-04 1.20399E-13-3.68866E-13
 -1      4074 2.00029E+01 7.83047E-03 8.03449E-06 1.21347E-04 3.36936E-13-3.67494E-13
 -1      4075 1.90774E+01 1.49833E+00-5.15429E-03-3.57935E-01 8.02724E-14 8.02082E-15
 -1      4076 1.88411E+01 1.42081E+00-1.23145E-02-4.24563E-01 5.20420E-14 2.16112E-14
 -1      4077 1.89086E+01 1.29627E+00 1.23262E-02-6.98662E-01 5.08444E-14-2.34267E-14
 -1      4078 1.91810E+01 1.46565E+00 1.26045E-02-5.12096E-01 7.82446E-14-1.73846E-14
 -1      4079 2.38785E+01-2.37819E+00 4.60303E-02-4.56073E-01-8.16751E-14 1.96895E-13
 -1      4080 2.12306E+01-2.16308E+00 8.94799E-03 2.67693E+00-1.23689E-13-1.33153E-13
 -1      4081 2.03326E+01-1.97424E+00 3.50441E-02 3.38834E+00-9.80284E-14 2.05732E-14
 -1      4082 1.64280E+01 5.18247E-01 5.13277E-02 2.79999E+00-2.30868E-13 3.68061E-13
 -1      4083 2.02756E+01 8.22340E-01 1.17089E-03-3.93410E-01 4.74977E-14 1.66902E-13
 -1      4084 1.82556E+01 1.07729E+00 1.87363E-03 4.05959E-01 6.97710E-14 2.84491E-13
 -1      4085 1.84714E+01 9.29531E-01 8.51285E-03 5.56752E-01-7.06764E-16 1.01843E-13
 -1      4086 1.78933E+01 1.12486E+00-1.78196E-02 5.64723E-01 5.72823E-14 2.18072E-13
 -1      4087 1.91529E+01-1.33672E+00-3.26541E-02 3.29120E+00-1.28508E-14 2.06497E-14
 -1      4088 1.73952E+01 5.56345E-02 1.47230E-04 2.79622E+00-2.10494E-13 1.77580E-13
 -1      4089 1.73700E+01 8.63184E-01 5.93489E-03 1.63718E+00-1.35477E-13 1.69889E-13
 -1      4090 1.71333E+01 1.17368E+00-2.39265E-02 1.05905E+00-2.25334E-14 2.36249E-13
 -1      4091 1.76303E+01 1.17339E+00 4.59464E-03 8.06975E-01-3.35036E-14 2.06437E-13
 -1      4092 2.30210E+01-2.35597E+00-6.19014E-03-1.02652E+00-8.53944E-14 1.34448E-13
 -1      4093 2.08278E+01-1.76337E+00 3.19540E-02-2.77668E+00 1.03962E-14 7.37203E-14
 -1      4094 2.16848E+01-2.07089E+00-1.85936E-02-2.15004E+00-5.09059E-14 3.83183E-14
 -1      4095 2.03246E+01-1.17831E+00 5.61496E-03-2.45055E+00 1.67028E-14 8.61291E-14
 -1      4096 2.00032E+01 1.00316E-02-7.84142E-06-6.27832E-04-7.79774E-15-2.76214E-13
 -1      4097 2.00030E+01 1.01971E-02-3.20936E-05-5.39940E-04 2.04241E-13-8.50205E-14
 -1      4098 2.06450E+01-8.24049E-02-6.58927E-03-6.59296E-01 3.69421E-14 2.03495E-13
 -1      4099 2.04242E+01 3.28905E-01 5.02336E-04-6.20994E-01 5.67676E-14 2.06008E-13
 -1      4100 2.03465E+01 5.73570E-01 2.82893E-03-5.12574E-01 5.52294E-14 2.02115E-13
 -1      4101 2.02299E+01 7.42332E-01 2.06439E-04-5.36057E-01 3.30871E-14 1.74226E-13
 -1      4102 2.00037E+01 1.13252E-02 2.06547E-05-1.95835E-03 1.40437E-13-3.37219E-13
 -1      4103 2.00036E+01 8.91357E-03-2.52896E-05-9.01368E-04 1.62647E-13-5.14697E-13
 -1      4104 2.00036E+01 6.85815E-03 5.79024E-06-2.83599E-04 1.69287E-13-6.01345E-13
 -1      4105 2.09279E+01-7.85147E-01-1.62384E-02-1.16864E+00 4.43921E-15 1.80855E-13
 -1      4106 2.09593E+01-6.47834E-01 8.91779E-04-9.44250E-01-6.65096E-15 1.69177E-13
 -1      4107 2.07805E+01-3.80995E-01 8.04786E-03-9.05237E-01 3.36549E-14 2.13352E-13
 -1      4108 2.27508E+01-1.84357E+00-2.53605E-02-1.74829E-01-3.98362E-14 1.89306E-13
 -1      4109 2.00028E+01 9.70669E-03 9.67183E-06 3.89052E-04 3.25247E-13-3.47695E-13
 -1      4110 1.99049E+01 1.02909E+00 3.75939E-03-6.48069E-01 4.05386E-14 6.19752E-14
 -1      4111 1.97637E+01 1.12232E+00-3.41911E-03-6.55649E-01 6.33660E-14 4.55092E-14
 -1      4112 2.22076E+01-1.67221E+00 1.09406E-02-7.57893E-01-2.00803E-14 1.14561E-13
 -1      4113 2.18570E+01-1.45474E+00 2.19976E-02-9.28923E-01-1.02921E-14 1.34679E-13
 -1      4114 2.15293E+01-1.39638E+00-1.63308E-02-1.23525E+00-1.21997E-14 1.39311E-13
 -1      4115 2.00029E+01 1.02413E-02-2.94858E-05-2.30693E-04 2.30192E-13-1.27765E-13
 -1      4116 2.00029E+01 1.01328E-02-2.59658E-05-1.35803E-04 1.90184E-13-2.31080E-13
 -1      4117 2.00029E+01 1.26439E-02 6.58824E-05-4.19397E-04 4.38548E-14-1.84094E-13
 -1      4118 2.00028E+01 1.01459E-02-1.60969E-05 3.45192E-04 2.80901E-13-2.26583E-13
 -1      4119 2.00035E+01 8.61534E-03 1.07508E-05-6.90489E-04-2.77805E-14-7.60942E-13
 -1      4120 2.00034E+01 9.22158E-03-2.98527E-05-8.15293E-04-6.73548E-14-5.14109E-13
 -1      4121 2.00027E+01 1.26733E-02 3.74311E-05 5.89109E-04 1.66705E-13-3.22914E-13
 -1      4122 2.50944E+01-1.58510E+00 8.45199E-03-7.12261E-01-7.10053E-14-1.51407E-14
 -1      4123 2.37022E+01-2.87676E+00 1.71174E-02 1.34548E+00 4.51288E-15-1.95350E-13
 -1      4124 2.01141E+01 8.30102E-01-1.56337E-03-5.92609E-01 2.29541E-14 1.56861E-13
 -1      4125 2.27424E+01-2.62920E+00-1.08804E-02 1.69479E+00-8.45144E-14-1.96878E-13
 -1      4126 2.00032E+01 1.17188E-02 1.27136E-06-1.04590E-03-5.38543E-14-5.05557E-13
 -1      4127 1.95620E+01 1.66971E+00 4.06827E-03-4.51991E-01 7.57662E-14 4.16923E-14
 -1      4128 1.94848E+01 1.69892E+00-5.43904E-03-4.23351E-01 8.45412E-14 2.42770E-14
 -1      4129 1.93814E+01 1.49197E+00-1.99118E-03-4.95656E-01 9.10795E-14 9.14992E-15
 -1      4130 1.95953E+01 1.41917E+00-2.07530E-04-5.45837E-01 7.47920E-14 3.02646E-14
 -1      4131 2.24562E+01-2.30209E+00 4.65805E-03 1.46332E+00-9.96349E-14-2.45395E-13
 -1      4132 2.19246E+01-2.33629E+00 1.81384E-02 2.22340E+00-1.14039E-13-1.98674E-13
 -1      4133 2.09331E+01-1.90924E+00-2.50763E-02 2.43964E+00-9.57253E-14-1.37315E-13
 -1      4134 2.19512E+01-2.03186E+00-3.88680E-03 1.45943E+00-4.54534E-14-1.56262E-13
 -1      4135 2.00032E+01 1.38787E-02 3.93954E-05-2.27444E-03 4.28547E-14-5.19302E-13
 -1      4136 2.00801E+01 6.71580E-01-1.28004E-03-7.28438E-01 3.32681E-14 1.25421E-13
 -1      4137 1.88345E+01 7.33052E-01-9.53832E-03 4.71496E-01-2.81531E-14 1.14772E-13
 -1      4138 1.90147E+01 7.05596E-01 2.37118E-03 3.57012E-01 5.54902E-14 1.00648E-13
 -1      4139 2.02614E+01 3.70766E-01 4.46988E-03-8.23468E-01 4.34470E-14 1.75205E-13
 -1      4140 2.00121E+01 5.57271E-01-9.86053E-04-8.87959E-01 4.60664E-14 9.48624E-14
 -1      4141 2.06398E+01-1.53920E-01 1.56004E-03-8.13258E-01 4.91733E-14 2.31901E-13
 -1      4142 2.05141E+01 1.09589E-01 4.93641E-03-7.26812E-01 5.84796E-14 2.37264E-13
 -1      4143 2.03694E+01 2.54915E-01-4.52933E-03-7.69775E-01 5.55358E-14 2.27508E-13
 -1      4144 2.05748E+01-2.25644E-01-7.86139E-03-9.89344E-01 4.58988E-14 2.23876E-13
 -1      4145 1.91134E+01 6.67747E-01-5.96238E-03 2.53606E-01-4.88915E-14 2.66292E-14
 -1      4146 1.92568E+01 6.25468E-01 1.83535E-03 1.83261E-01-1.32629E-13-4.11470E-14
 -1      4147 1.91514E+01 6.02695E-01 3.00094E-03 4.16493E-01-3.90434E-14-5.60776E-14
 -1      4148 1.93416E+01 5.75642E-01-4.67085E-03 1.15923E-01-1.68422E-13-9.88032E-14
 -1      4149 1.94480E+01 5.32789E-01 7.69009E-04 7.47316E-02-1.36825E-13-2.39738E-13
 -1      4150 1.93434E+01 5.44285E-01 6.51311E-05 2.39981E-01-1.48275E-13-4.75251E-14
 -1      4151 1.95169E+01 4.84337E-01-3.42410E-03 3.75784E-02 2.14899E-14-1.35132E-13
 -1      4152 1.95969E+01 4.40256E-01-6.58277E-05 1.52811E-02 1.60976E-13-1.29234E-13
 -1      4153 1.95059E+01 4.84514E-01 3.59079E-03 1.25018E-01 2.75756E-14-7.03475E-14
 -1      4154 1.96517E+01 3.97663E-01-2.22840E-03-6.85353E-03 1.31298E-13-1.30026E-13
 -1      4155 1.97100E+01 3.58293E-01-1.59529E-04-1.59363E-02 2.15483E-14 4.55903E-14
 -1      4156 1.96341E+01 4.05877E-01 2.19091E-03 5.69694E-02 1.32415E-13-1.19321E-13
 -1      4157 1.97529E+01 3.20334E-01-1.48155E-03-2.74767E-02-1.76241E-13 1.87085E-13
 -1      4158 1.97949E+01 2.86099E-01-3.32869E-04-2.94618E-02-2.15685E-13 1.80055E-13
 -1      4159 1.97337E+01 3.34224E-01 1.67426E-03 1.82317E-02 8.72100E-14-5.87635E-14
 -1      4160 1.98263E+01 2.55430E-01-9.85252E-04-3.43800E-02-1.35597E-13 1.60464E-13
 -1      4161 1.98552E+01 2.27862E-01-3.76068E-04-3.27342E-02-1.46571E-13 1.92460E-13
 -1      4162 1.98085E+01 2.71314E-01 1.35761E-03-2.11110E-03-1.39744E-13 1.05724E-13
 -1      4163 1.98804E+01 2.01031E-01-6.31585E-04-3.42500E-02-2.37731E-13 1.92759E-13
 -1      4164 1.99020E+01 1.76892E-01-3.49192E-04-3.07997E-02-1.35665E-13 1.22342E-13
 -1      4165 1.98651E+01 2.16364E-01 9.97881E-04-1.14185E-02-1.86264E-13 2.99473E-13
 -1      4166 1.99206E+01 1.54979E-01-4.13058E-04-3.03007E-02-3.72922E-14 1.21892E-13
 -1      4167 1.99358E+01 1.35424E-01-3.08882E-04-2.63056E-02 2.87349E-14 1.13528E-13
 -1      4168 1.99083E+01 1.68944E-01 7.58562E-04-1.45809E-02-1.19606E-13 1.30318E-13
 -1      4169 1.99493E+01 1.17843E-01-2.56252E-04-2.48982E-02 4.62526E-14 6.88311E-14
 -1      4170 1.99597E+01 1.02205E-01-2.61107E-04-2.10313E-02 7.14396E-14 2.29636E-15
 -1      4171 1.99398E+01 1.29844E-01 5.63365E-04-1.42335E-02-4.55986E-14 2.18547E-13
 -1      4172 1.99693E+01 8.83008E-02-1.54455E-04-1.93502E-02 3.41917E-13-1.62176E-13
 -1      4173 1.99763E+01 7.59735E-02-2.12172E-04-1.59423E-02 5.26892E-13-1.17310E-13
 -1      4174 1.99623E+01 9.82317E-02 4.11718E-04-1.22553E-02 1.35094E-13 2.36546E-13
 -1      4175 1.99830E+01 6.51362E-02-8.56775E-05-1.43260E-02 3.66449E-13-2.41599E-13
 -1      4176 1.99875E+01 5.55553E-02-1.65262E-04-1.15027E-02 3.16325E-13-1.99382E-13
 -1      4177 1.99780E+01 7.30948E-02 2.93864E-04-9.73376E-03 3.65822E-13-6.00571E-14
 -1      4178 1.99918E+01 4.75901E-02-4.70042E-05-1.01821E-02 4.20259E-13-1.84052E-13
 -1      4179 1.99946E+01 4.05457E-02-1.24873E-04-8.02406E-03 4.46833E-13 6.64031E-15
 -1      4180 1.99884E+01 5.38548E-02 2.10485E-04-7.30704E-03 3.74072E-13-1.89314E-13
 -1      4181 1.99975E+01 3.40923E-02-2.57679E-05-6.86629E-03 3.56424E-13 3.28121E-14
 -1      4182 1.99992E+01 2.84449E-02-9.58836E-05-5.13836E-03 4.01681E-13-5.47274E-14
 -1      4183 1.99953E+01 3.89580E-02 1.55127E-04-5.15621E-03 3.96417E-13-1.85612E-13
 -1      4184 2.00010E+01 2.36219E-02-1.78197E-05-4.26106E-03 3.36838E-13-5.87241E-14
 -1      4185 2.00018E+01 1.94032E-02-6.24295E-05-2.90963E-03 2.34375E-13-3.73151E-13
 -1      4186 1.99996E+01 2.72805E-02 9.51336E-05-3.37655E-03 3.13721E-13-4.05606E-14
 -1      4187 2.01210E+01-5.00726E-01 2.54555E-03 1.18185E+00-2.16857E-13 3.32484E-14
 -1      4188 2.03501E+01-7.17369E-01 8.32501E-03 1.26446E+00-2.24219E-13-1.09213E-13
 -1      4189 2.00029E+01 1.46256E-02-7.81539E-06-1.89047E-03 2.42418E-14-4.19875E-13
 -1      4190 2.05875E+01-9.59932E-01 1.39887E-02 1.40023E+00-1.34541E-13-1.66001E-13
 -1      4191 2.08948E+01-1.26774E+00-8.09873E-04 1.45299E+00-7.24195E-14-2.04350E-13
 -1      4192 2.01609E+01-8.02320E-01-1.52402E-02 1.57966E+00-1.77214E-13-1.03747E-13
 -1      4193 1.97431E+01 5.74666E-02-5.92123E-04 7.16975E-01-5.23300E-14 2.15203E-14
 -1      4194 1.98196E+01-3.66665E-02 6.07110E-03 8.05571E-01 3.54279E-14 9.09117E-14
 -1      4195 1.97080E+01 1.78578E-01-1.26939E-03 5.31839E-01-1.29025E-13 2.34121E-13
 -1      4196 1.97410E+01 1.30991E-01 4.79378E-03 6.06753E-01-1.70565E-13 1.63593E-13
 -1      4197 1.96066E+01 1.76346E-01 4.58305E-04 6.85728E-01-1.21167E-13 1.95142E-13
 -1      4198 1.97164E+01 2.41497E-01-9.95970E-04 3.89492E-01 1.60309E-13 1.02715E-13
 -1      4199 1.97254E+01 2.18705E-01 3.27029E-03 4.52212E-01 6.21111E-14 2.27261E-13
 -1      4200 1.96178E+01 2.55141E-01-3.18693E-03 4.92763E-01 1.58124E-14 5.68687E-14
 -1      4201 1.97492E+01 2.56104E-01-1.59621E-03 2.82374E-01 2.53816E-13 1.79776E-13
 -1      4202 1.97451E+01 2.52475E-01 1.95572E-03 3.28809E-01 2.02677E-13 9.05260E-14
 -1      4203 1.96630E+01 2.93991E-01-3.56449E-04 3.46804E-01 1.47588E-13-2.47099E-15
 -1      4204 1.97921E+01 2.46134E-01-1.38254E-03 2.01489E-01 2.00959E-13 1.32509E-13
 -1      4205 1.97807E+01 2.54835E-01 1.45882E-03 2.36447E-01 2.38279E-13 1.54941E-13
 -1      4206 1.97194E+01 2.95653E-01 1.49632E-03 2.41214E-01 2.78771E-13 1.62576E-14
 -1      4207 1.98353E+01 2.22065E-01-1.11017E-03 1.42912E-01 9.75769E-14 1.20816E-13
 -1      4208 1.98213E+01 2.36180E-01 8.57237E-04 1.69217E-01 1.09333E-13 1.43431E-13
 -1      4209 1.97760E+01 2.70618E-01 1.18645E-03 1.66361E-01 1.17596E-13 6.86151E-14
 -1      4210 1.98747E+01 1.91372E-01-8.82924E-04 1.00598E-01 9.20847E-14 1.17835E-13
 -1      4211 1.98609E+01 2.07708E-01 5.12488E-04 1.20130E-01 1.01492E-13 2.29966E-13
 -1      4212 1.98274E+01 2.36536E-01 9.63487E-04 1.13855E-01 5.40643E-14-3.96965E-14
 -1      4213 1.99083E+01 1.59233E-01-6.81359E-04 7.02557E-02 1.25862E-13 1.53009E-13
 -1      4214 1.98959E+01 1.75629E-01 2.92639E-04 8.46708E-02 1.47862E-13 1.54651E-13
 -1      4215 1.98715E+01 1.99362E-01 7.91049E-04 7.73361E-02 1.15980E-13 5.01613E-14
 -1      4216 1.99355E+01 1.28715E-01-5.15313E-04 4.86207E-02-5.06088E-15 1.95311E-13
 -1      4217 1.99252E+01 1.43888E-01 1.53129E-04 5.92154E-02 2.29879E-14 2.01665E-13
 -1      4218 1.99077E+01 1.63093E-01 6.25438E-04 5.21914E-02 7.19396E-14 2.89823E-13
 -1      4219 1.99567E+01 1.01451E-01-3.83247E-04 3.32386E-02 1.48420E-13 2.28099E-13
 -1      4220 1.99485E+01 1.14773E-01 7.23570E-05 4.09970E-02 4.39879E-14 3.04454E-13
 -1      4221 1.99362E+01 1.30096E-01 4.81031E-04 3.49486E-02 3.89447E-14 2.63401E-13
 -1      4222 1.99726E+01 7.81221E-02-2.81259E-04 2.23330E-02 7.35841E-14 8.11354E-15
 -1      4223 1.99664E+01 8.93766E-02 2.81020E-05 2.79917E-02 1.86695E-13 1.56462E-13
 -1      4224 1.99578E+01 1.01438E-01 3.61159E-04 2.31512E-02 1.95412E-13 1.36867E-13
 -1      4225 1.99841E+01 5.88203E-02-2.03559E-04 1.46322E-02-7.38360E-14 1.38294E-13
 -1      4226 1.99796E+01 6.80377E-02 6.36615E-06 1.87370E-02 1.39705E-14 2.06458E-13
 -1      4227 1.99738E+01 7.73979E-02 2.62406E-04 1.50909E-02-5.28335E-15 3.21945E-13
 -1      4228 1.99921E+01 4.32749E-02-1.45622E-04 9.22639E-03 1.55671E-13 2.90012E-13
 -1      4229 1.99890E+01 5.06341E-02-3.70305E-06 1.21739E-02-2.03335E-14 2.28931E-13
 -1      4230 1.99852E+01 5.78245E-02 1.94877E-04 9.60036E-03-7.81700E-14 5.88092E-13
 -1      4231 1.99973E+01 3.10539E-02-9.71531E-05 5.44139E-03-1.76731E-13 1.82004E-13
 -1      4232 1.99953E+01 3.68092E-02-5.17177E-06 7.54959E-03 1.28502E-13 2.48189E-13
 -1      4233 1.99929E+01 4.22510E-02 1.38478E-04 5.86874E-03 1.43884E-13 3.72338E-13
 -1      4234 2.00005E+01 2.16479E-02-8.07489E-05 2.85336E-03 3.02009E-14-1.97314E-13
 -1      4235 1.99993E+01 2.60587E-02-2.32740E-06 4.34391E-03-9.70370E-14 7.66964E-14
 -1      4236 1.99979E+01 2.99686E-02 4.99994E-05 3.32090E-03-1.07877E-13-8.60938E-14
 -1      4237 2.00021E+01 1.51111E-02-5.34841E-05 1.07496E-03 2.60205E-13-3.74340E-13
 -1      4238 2.00015E+01 1.85340E-02 2.45753E-05 2.05222E-03 1.34682E-13-2.69868E-13
 -1      4239 2.00007E+01 2.13223E-02 5.91988E-06 1.50746E-03 1.97007E-13-4.28541E-13
 -1      4240 2.00022E+01 1.51764E-02-1.07150E-05 3.16778E-04 1.23872E-13-4.21437E-13
 -1      4241 1.85326E+01-8.09185E-03-1.99020E-03-2.33538E+00 1.04678E-14-2.57622E-14
 -1      4242 1.96918E+01 9.35842E-01-2.57757E-03-8.00659E-01 5.45179E-14 4.87802E-14
 -1      4243 1.96386E+01 1.19774E+00 4.86966E-03-6.75345E-01 6.24206E-14 5.81209E-14
 -1      4244 1.95109E+01 1.22967E+00-2.96196E-03-6.71050E-01 6.43392E-14 1.68665E-14
 -1      4245 1.89293E+01 9.39239E-01 5.19642E-03-1.06659E+00 1.73515E-14-2.32430E-14
 -1      4246 1.87006E+01 7.81359E-01-1.12436E-02-1.31043E+00 4.72387E-16 5.59004E-15
 -1      4247 1.98663E+01-1.61773E-01 1.27170E-03 9.37047E-01 5.45786E-14 4.10919E-14
 -1      4248 2.00082E+01-3.07532E-01 9.77526E-03 1.03150E+00-4.80682E-14 3.80057E-14
 -1      4249 1.96521E+01-1.32643E-02-4.77793E-03 9.38368E-01-2.08666E-14 7.37158E-14
 -1      4250 1.84022E+01-4.98751E-01 3.68240E-02 3.03773E+00-6.87740E-14 1.88962E-13
 -1      4251 1.78126E+01 1.85528E-01-8.28156E-03 2.31667E+00-2.02032E-13 3.32091E-13
 -1      4252 2.15058E+01-1.71386E+00 1.37342E-02 1.52310E+00 4.11563E-16-1.99566E-13
 -1      4253 1.94296E+01-9.73515E-01 1.88175E-03 2.70858E+00-4.70268E-14 3.68642E-14
 -1      4254 2.00022E+01 1.71134E-02 2.86536E-05-1.59255E-03-3.23086E-14-2.72367E-13
 -1      4255 1.78732E+01 4.55316E-01 6.79035E-04 1.92713E+00-2.57511E-13 2.76677E-13
 -1      4256 1.82033E+01 5.62842E-01 1.69898E-02 1.53346E+00-1.45961E-13 1.96585E-13
 -1      4257 1.86628E+01-8.34809E-02 3.89090E-03 2.14149E+00-2.14138E-13 3.00740E-13
 -1      4258 2.00152E+01 3.17466E-01-1.50167E-03-1.07528E+00 4.31995E-14 9.11758E-14
 -1      4259 1.98525E+01 6.36874E-01 4.23953E-03-9.59922E-01 3.85354E-14 2.88936E-14
 -1      4260 1.96785E+01 6.97700E-01-3.75404E-03-9.84288E-01 5.54134E-14 3.02923E-14
 -1      4261 1.86437E+01 6.71517E-01 1.73782E-02-1.54015E+00-1.69818E-14-1.15503E-14
 -1      4262 1.83645E+01 5.23204E-01-2.56126E-03-1.81462E+00-1.27121E-14-1.09400E-14
 -1      4263 1.90462E+01 4.69261E-01-8.22489E-03-1.53242E+00-3.51910E-15 1.91375E-14
 -1      4264 1.98097E+01-6.33767E-01 2.19463E-02-2.31541E+00 8.70289E-15 6.24230E-14
 -1      4265 2.05300E+01-1.06087E+00-1.00484E-02-2.04830E+00 1.48475E-14 7.21731E-14
 -1      4266 2.03403E+01 1.33357E-01 1.73215E-03-9.40501E-01 4.61151E-14 1.89248E-13
 -1      4267 1.94016E+01 1.33157E+00 6.78740E-03-6.38769E-01 6.19709E-14-1.80584E-14
 -1      4268 1.92690E+01 1.35922E+00-3.36703E-03-5.90576E-01 7.07165E-14-2.38934E-14
 -1      4269 1.91470E+01 1.25858E+00-7.21259E-03-6.71651E-01 6.26472E-14-2.73373E-14
 -1      4270 1.94239E+01 1.09258E+00 8.49100E-04-7.86452E-01 5.59825E-14 7.27716E-15
 -1      4271 1.98105E+01-3.24739E-01-9.54266E-03 1.24823E+00-1.65777E-13-1.17900E-13
 -1      4272 1.91031E+01-2.09797E-01-1.58738E-02-2.24282E+00 1.46216E-15 1.15229E-14
 -1      4273 2.08453E+01-8.17409E-01 1.70350E-03-1.41064E+00 1.63921E-14 1.52289E-13
 -1      4274 2.06080E+01-4.93354E-01 6.68452E-03-1.32149E+00 2.27277E-14 1.60372E-13
 -1      4275 1.87282E+01 7.58193E-01 4.92124E-03 6.17449E-01 1.34932E-14 8.10122E-14
 -1      4276 1.89263E+01 6.30121E-01 7.93580E-03 6.86268E-01 1.15684E-14-1.07940E-13
 -1      4277 1.85021E+01 7.55768E-01-9.05317E-03 8.01956E-01 9.73486E-14 8.41232E-14
 -1      4278 2.07922E+01-1.53821E+00 1.23559E-02 2.15890E+00-3.86470E-14-1.73212E-13
 -1      4279 2.01731E+01-1.29347E+00 3.15750E-02 2.55987E+00-3.72238E-14-7.48310E-14
 -1      4280 1.92223E+01-7.24579E-01-3.10783E-02 2.41382E+00-9.26941E-14 4.73473E-14
 -1      4281 2.15065E+01-1.62585E+00-8.25086E-03-1.68607E+00-3.42261E-14 1.11525E-13
 -1      4282 2.11758E+01-1.25724E+00 1.17491E-02-1.63899E+00 1.17833E-14 1.22402E-13
 -1      4283 2.00023E+01 1.51467E-02-5.10971E-05-6.79200E-04-2.74723E-14-3.15982E-13
 -1      4284 2.00022E+01 1.52385E-02-4.52036E-05-2.24386E-04 8.97236E-15-2.71676E-13
 -1      4285 2.25584E+01-2.09408E+00 1.68816E-02-1.15325E+00-7.94876E-14 1.07689E-13
 -1      4286 1.95493E+01-1.33913E-01 1.04331E-02-1.88770E+00-6.66676E-15 4.42101E-14
 -1      4287 1.79752E+01 9.55916E-01 6.45011E-03 9.92443E-01 6.92570E-14 9.46435E-14
 -1      4288 2.00014E+01 2.02053E-02-5.75745E-06-1.49867E-03 1.04276E-13-2.78265E-13
 -1      4289 1.91030E+01 1.15164E+00-1.30157E-03-7.92903E-01 6.06805E-14-3.99735E-14
 -1      4290 1.89425E+01 1.05711E+00-8.51644E-03-9.16207E-01 3.27694E-14-2.04520E-14
 -1      4291 1.91617E+01 7.99905E-01 6.30250E-04-1.15419E+00 2.31479E-14 8.92233E-15
 -1      4292 1.92368E+01 1.06561E+00 1.76229E-04-8.69914E-01 5.42739E-14-1.62689E-14
 -1      4293 2.00018E+01 1.82333E-02 7.32748E-05 1.17495E-04 1.94052E-13-4.99770E-13
 -1      4294 2.21921E+01-2.12658E+00-5.67296E-03-1.64411E+00-8.76303E-14 5.78844E-14
 -1      4295 1.81794E+01 6.81374E-01-5.23349E-03 1.27422E+00-4.36666E-14 7.04123E-14
 -1      4296 1.84526E+01 7.21283E-01 8.25124E-03 9.99638E-01 5.72068E-14 1.09269E-13
 -1      4297 1.87215E+01 5.22982E-01-6.65612E-03 1.05249E+00 1.67580E-15-4.03336E-14
 -1      4298 1.86455E+01 2.76411E-01-1.40050E-02 1.52774E+00-1.90793E-13 9.10285E-14
 -1      4299 2.03920E+01-1.56813E-02 3.60670E-03-1.03210E+00 5.23437E-14 1.76368E-13
 -1      4300 2.02391E+01 7.81875E-02-4.25509E-03-1.09150E+00 4.35323E-14 1.61835E-13
 -1      4301 2.00569E+01 1.60399E-01-1.75660E-03-1.18599E+00 3.27488E-14 9.32951E-14
 -1      4302 2.05255E+01-2.61383E-01 5.30229E-03-1.14123E+00 4.47995E-14 1.78107E-13
 -1      4303 1.96079E+01 3.47656E-01-2.98421E-03 2.82612E-01 1.98029E-13-8.82811E-14
 -1      4304 1.95912E+01 3.54383E-01 3.13277E-03 3.41703E-01 1.09458E-13-8.08581E-14
 -1      4305 1.91835E+01 5.01773E-01-8.14759E-03 5.40760E-01-6.89956E-14-1.29398E-13
 -1      4306 1.93088E+01 5.05703E-01 4.52012E-03 4.26908E-01-6.05035E-14-1.73976E-13
 -1      4307 2.00007E+01 2.19141E-02 2.21867E-05-2.26643E-04 1.46849E-13-5.66973E-13
 -1      4308 2.00006E+01 2.16208E-02-3.62205E-05 5.31086E-04 2.79323E-13-5.93914E-13
 -1      4309 1.99997E+01 2.52621E-02 4.45897E-05 1.22814E-03-3.30798E-14-4.40206E-13
 -1      4310 1.93949E+01 4.86244E-01-2.52906E-03 2.92092E-01-3.55478E-14-1.54914E-13
 -1      4311 1.94826E+01 4.59225E-01-7.18567E-05 2.23350E-01-1.82305E-14-6.08409E-14
 -1      4312 1.95507E+01 4.30207E-01 1.02307E-03 1.76201E-01 1.06179E-13-9.31399E-14
 -1      4313 1.96165E+01 3.90496E-01-2.95699E-03 1.14449E-01 1.84077E-13 9.72719E-15
 -1      4314 1.96776E+01 3.61188E-01 6.26255E-04 8.69434E-02 1.11963E-13-3.72930E-14
 -1      4315 1.97157E+01 3.29572E-01-1.84399E-03 6.15088E-02 1.11843E-13-1.76382E-13
 -1      4316 1.97617E+01 3.00206E-01 5.86250E-05 4.50590E-02 4.38343E-14-1.45551E-13
 -1      4317 1.97165E+01 3.28529E-01 2.07123E-03 1.12933E-01 8.06561E-14-4.86496E-14
 -1      4318 1.97917E+01 2.72572E-01-1.28708E-03 3.00244E-02-1.49915E-14-8.83037E-14
 -1      4319 1.98250E+01 2.46907E-01-1.25300E-04 2.15354E-02-9.61346E-14-2.80239E-14
 -1      4320 1.97873E+01 2.78402E-01 1.73434E-03 6.83304E-02 6.31158E-14-6.71595E-14
 -1      4321 1.98506E+01 2.21085E-01-8.71129E-04 1.17901E-02-1.27107E-13 1.05356E-13
 -1      4322 1.98767E+01 1.97144E-01-1.81122E-04 7.57189E-03-1.60947E-13 1.79736E-13
 -1      4323 1.98441E+01 2.29565E-01 1.25213E-03 4.04002E-02-2.07947E-14-8.57353E-14
 -1      4324 1.98966E+01 1.74877E-01-6.00313E-04 1.91532E-03-1.17149E-13 2.36273E-13
 -1      4325 1.99156E+01 1.54545E-01-2.05078E-04 4.53047E-04-3.90232E-14 2.09521E-13
 -1      4326 1.98898E+01 1.84427E-01 9.45265E-04 2.26801E-02-1.00228E-13 1.91362E-13
 -1      4327 1.99307E+01 1.35928E-01-3.97633E-04-2.70455E-03 1.83577E-14 3.49366E-13
 -1      4328 1.99444E+01 1.19059E-01-1.99201E-04-2.68848E-03 2.72821E-15 3.65687E-13
 -1      4329 1.99246E+01 1.45165E-01 7.01402E-04 1.21458E-02-1.34269E-14 3.23839E-13
 -1      4330 1.99555E+01 1.03845E-01-2.58934E-04-4.36090E-03-5.52517E-14 4.49381E-13
 -1      4331 1.99651E+01 9.01512E-02-1.75748E-04-3.64868E-03 9.55224E-14 4.15593E-13
 -1      4332 1.99505E+01 1.12105E-01 5.11347E-04 6.08237E-03 9.84468E-14 3.43928E-13
 -1      4333 1.99732E+01 7.79639E-02-1.63514E-04-4.46631E-03 1.32024E-13 3.20329E-13
 -1      4334 1.99797E+01 6.70582E-02-1.47863E-04-3.51850E-03 1.32283E-13 8.37907E-14
 -1      4335 1.99692E+01 8.49733E-02 3.66374E-04 2.72421E-03-9.60534E-14 3.82938E-13
 -1      4336 1.99850E+01 5.79075E-02-1.03910E-04-3.86779E-03 3.06483E-13-1.32961E-13
 -1      4337 1.99892E+01 4.97287E-02-1.19051E-04-2.94629E-03 4.01763E-13-2.37846E-13
 -1      4338 1.99821E+01 6.36701E-02 2.64310E-04 9.87901E-04 8.95877E-14-3.64318E-14
 -1      4339 1.99930E+01 4.21990E-02-6.73322E-05-3.07104E-03 4.88019E-13-2.36152E-13
 -1      4340 1.99958E+01 3.55249E-02-9.47276E-05-2.17747E-03 3.95860E-13-2.03639E-13
 -1      4341 1.99910E+01 4.68010E-02 1.81548E-04 1.18052E-04 4.02543E-13-2.62503E-13
 -1      4342 1.99986E+01 2.88036E-02-3.56004E-05-1.87870E-03 2.25070E-13-2.52117E-13
 -1      4343 2.00002E+01 2.38993E-02-2.96623E-05-1.21721E-03 2.60109E-13-2.72818E-13
 -1      4344 2.06948E+01-1.01897E+00-1.00217E-02-1.84251E+00 1.84449E-14 1.11210E-13
 -1      4345 1.93382E+01-2.00423E-01 1.48725E-03 1.63448E+00-2.25683E-13 4.70151E-14
 -1      4346 1.95349E+01-4.56247E-01 7.36913E-03 1.83292E+00-1.45829E-13-5.80932E-14
 -1      4347 1.95047E+01 3.44053E-01-1.65939E-03 4.72277E-01 5.25854E-14-1.62897E-13
 -1      4348 1.94836E+01 3.15590E-01-1.16185E-03 5.63757E-01-5.06419E-14-5.44060E-14
 -1      4349 1.94849E+01 2.74517E-01 4.49632E-03 6.74443E-01-1.06050E-13 8.89409E-15
 -1      4350 1.97029E+01 3.13487E-01-2.66006E-03 1.71684E-01 2.33561E-13-1.21074E-15
 -1      4351 1.96782E+01 3.31011E-01 1.12515E-03 2.13276E-01 2.64706E-13 3.46817E-14
 -1      4352 1.97723E+01 2.74844E-01-1.64631E-03 1.12318E-01 3.98907E-14 1.18149E-14
 -1      4353 1.97461E+01 2.93909E-01-1.91713E-04 1.41975E-01 1.01372E-13 7.36259E-14
 -1      4354 1.98293E+01 2.33047E-01-1.11642E-03 7.32561E-02 7.83498E-14-1.22410E-13
 -1      4355 1.98057E+01 2.53452E-01-3.17291E-04 9.38049E-02 4.82447E-14-1.91257E-14
 -1      4356 1.98766E+01 1.91219E-01-7.62375E-04 4.68156E-02-1.54022E-14 6.38295E-14
 -1      4357 1.98568E+01 2.11026E-01-2.99528E-04 6.07364E-02 3.54638E-14-5.40137E-14
 -1      4358 1.99137E+01 1.53197E-01-5.01867E-04 2.96034E-02-3.07262E-14 2.83334E-13
 -1      4359 1.98977E+01 1.71120E-01-2.87105E-04 3.89961E-02 3.63115E-15 2.27349E-13
 -1      4360 1.99419E+01 1.20105E-01-3.22295E-04 1.84930E-02 1.42464E-13 2.12042E-13
 -1      4361 1.99294E+01 1.35626E-01-2.58603E-04 2.48131E-02 8.85721E-15 2.90377E-13
 -1      4362 1.99627E+01 9.22584E-02-2.00993E-04 1.13685E-02 1.10715E-13 3.14317E-13
 -1      4363 1.99534E+01 1.05264E-01-2.18696E-04 1.56154E-02 1.58436E-13 2.46867E-13
 -1      4364 1.99777E+01 6.94502E-02-1.27530E-04 6.82401E-03-9.64480E-14 3.88638E-13
 -1      4365 1.99709E+01 8.00741E-02-1.74273E-04 9.67453E-03-2.56112E-14 2.84668E-13
 -1      4366 1.99879E+01 5.16148E-02-7.97451E-05 3.98167E-03 2.01443E-13 2.15125E-13
 -1      4367 1.99831E+01 6.01269E-02-1.35825E-04 5.91473E-03-1.64036E-14 3.32029E-13
 -1      4368 1.99949E+01 3.72396E-02-1.27371E-05 2.15298E-03 2.07640E-13-1.78354E-14
 -1      4369 1.99917E+01 4.38537E-02-1.06334E-04 3.43065E-03 3.02685E-13 1.52262E-13
 -1      4370 1.99976E+01 3.01860E-02-7.04223E-05 2.05108E-03 1.40570E-15-2.89497E-13
 -1      4371 1.94222E+01 1.84468E-01-5.74197E-03 8.68953E-01-6.54873E-14 1.28523E-13
 -1      4372 1.94819E+01 8.36456E-02 3.55480E-03 1.02061E+00-8.38474E-14 2.00269E-14
 -1      4373 2.03557E+01-2.98839E-01-9.46754E-04-1.37073E+00 3.57007E-14 1.27986E-13
 -1      4374 1.94604E+01 3.43865E-01 3.90052E-03-1.44526E+00 1.42269E-15 3.03676E-14
 -1      4375 1.99228E+01-8.92806E-02-9.05104E-03-1.53836E+00 2.48115E-14 5.44685E-14
 -1      4376 1.92336E+01 1.29332E-01 2.28792E-04 1.20494E+00-1.58504E-13-5.49492E-14
 -1      4377 1.93353E+01-2.25176E-02 1.23150E-02 1.39907E+00-2.25848E-13 2.22234E-14
 -1      4378 2.09337E+01-1.53132E+00-1.22765E-02 1.87716E+00-5.99713E-14-2.65824E-13
 -1      4379 1.96093E+01 3.82022E-01 1.64335E-03 2.04049E-01 1.55530E-13-9.65007E-14
 -1      4380 1.91303E+01 4.68105E-01 4.19071E-03 7.39281E-01-2.15684E-14-1.17883E-13
 -1      4381 1.93029E+01 3.56713E-01 1.92030E-03 7.37218E-01-9.14028E-14-9.00849E-14
 -1      4382 1.93887E+01 9.77369E-01 5.39159E-03-9.13823E-01 6.21015E-14 1.23074E-14
 -1      4383 1.94498E+01 4.12913E-01-4.75973E-04 4.01122E-01 2.22683E-14-1.97637E-13
 -1      4384 2.02181E+01-5.39426E-01-4.24756E-03-1.74208E+00 2.05101E-14 1.00852E-13
 -1      4385 1.90217E+01 4.29561E-01-3.52052E-03 9.10483E-01 2.43792E-14-1.39353E-13
 -1      4386 1.99972E+01 3.22351E-02 9.37396E-05 2.11468E-05 2.10987E-13-2.15432E-13
 -1      4387 2.02324E+01-1.03141E+00 1.86578E-02 2.01599E+00-1.83339E-14-2.50459E-13
 -1      4388 1.95331E+01 6.59307E-01 2.74232E-03-1.09514E+00 4.57616E-14 1.42154E-14
 -1      4389 1.95390E+01 5.09964E-01 5.98506E-03-1.24249E+00 3.51850E-14 4.10494E-14
 -1      4390 1.89952E+01 3.50904E-01 1.09395E-03 1.10405E+00-7.06709E-14-2.40203E-14
 -1      4391 2.01165E+01-5.72901E-02 3.53465E-03-1.35647E+00 3.65662E-14 8.39347E-14
 -1      4392 1.92077E+01-4.53259E-01-1.98487E-02 2.07800E+00-1.53867E-13 7.90375E-14
 -3
    1PSTEP                         3           1           1          
  100CL  101 1.000000000        4392                     0    1           1
 -4  TOSTRAIN    6    1
 -5  EXX         1    4    1    1
 -5  EYY         1    4    2    2
 -5  EZZ         1    4    3    3
 -5  EXY         1    4    1    2
 -5  EYZ         1    4    2    3
 -5  EZX         1    4    3    1
 -1         1 4.43960E-06-1.11486E-05-5.26008E-06 6.81686E-06-5.09956E-18 3.27886E-18
 -1         2 3.87179E-05-1.19885E-04 2.26096E-05-6.35025E-07 5.48253E-18 3.59857E-19
 -1         3 9.52375E-05-2.85707E-05-2.85718E-05 5.73636E-10-2.22670E-18-2.87876E-18
 -1         4 9.52376E-05-2.85707E-05-2.85719E-05-5.28184E-10 2.76796E-19 1.93610E-18
 -1         5 1.42776E-04-2.13117E-05-4.25278E-05 3.82110E-05-8.37504E-20 3.95046E-18
 -1         6 1.44893E-04 2.57329E-10-4.40459E-05-5.34897E-05-1.87830E-19-1.03507E-18
 -1         7 9.08052E-05-3.97164E-07-3.91670E-05-2.82138E-05-2.25523E-20-1.61531E-18
 -1         8 8.58921E-05 5.42237E-08-3.66088E-05-1.90397E-05 1.34466E-20-1.39453E-18
 -1         9 8.34254E-05 5.64673E-08-3.55859E-05-1.42358E-05 3.38151E-20-1.08445E-18
 -1        10 8.20576E-05 3.12606E-08-3.50050E-05-1.06955E-05 5.05176E-20-8.27753E-19
 -1        11 8.11643E-05 2.22855E-08-3.46396E-05-7.84208E-06 4.64015E-20-5.60107E-19
 -1        12 8.05804E-05 1.84834E-08-3.44052E-05-5.46163E-06 4.56405E-20-3.11874E-19
 -1        13 8.02279E-05 1.73687E-08-3.42634E-05-3.29881E-06 5.06516E-20-3.35819E-20
 -1        14 8.00915E-05 1.60897E-08-3.42056E-05-1.24920E-06 5.53012E-20 2.38296E-19
 -1        15 8.01464E-05 1.43960E-08-3.42224E-05 8.10783E-07 5.24308E-20 4.87466E-19
 -1        16 8.03695E-05 1.29867E-08-3.43057E-05 2.98474E-06 6.57939E-20 7.83022E-19
 -1        17 8.07484E-05 1.25907E-08-3.44526E-05 5.36428E-06 6.98306E-20 1.09573E-18
 -1        18 8.12841E-05 1.79338E-08-3.46682E-05 7.99113E-06 5.74063E-20 1.57138E-18
 -1        19 8.20710E-05 3.23160E-08-3.49981E-05 1.10750E-05 7.65374E-20 2.06955E-18
 -1        20 8.33213E-05 6.68840E-08-3.55460E-05 1.47744E-05 6.25481E-20 2.64844E-18
 -1        21 8.56696E-05 1.42668E-07-3.65819E-05 1.95721E-05 5.66453E-20 3.37911E-18
 -1        22 9.20812E-05-1.46947E-07-3.88726E-05 2.73718E-05-1.68348E-20 4.08030E-18
 -1        23 1.14183E-04-3.82329E-05-3.58223E-05-4.91665E-06-1.69671E-19-1.59062E-18
 -1        24 9.44533E-05-2.82062E-05-2.95481E-05 4.25735E-07 6.82920E-21-1.91605E-18
 -1        25 9.15354E-05-2.75866E-05-2.76770E-05 3.89000E-07-2.72159E-20-2.22745E-18
 -1        26 9.15464E-05-2.75636E-05-2.74716E-05 2.16596E-07-4.48026E-20-2.63659E-18
 -1        27 9.31678E-05-2.80261E-05-2.79536E-05 1.62638E-07 3.87534E-20-2.75372E-18
 -1        28 9.60160E-05-2.88573E-05-2.88390E-05 1.56495E-07 1.44343E-20-2.47748E-18
 -1        29 9.99224E-05-3.00238E-05-3.00457E-05 1.63309E-07-8.16204E-20-2.49304E-18
 -1        30 1.05556E-04-3.17037E-05-3.17842E-05 2.24993E-07 4.94555E-20-2.41637E-18
 -1        31 1.13237E-04-3.39934E-05-3.41464E-05 3.43317E-07 2.98976E-20-2.72726E-18
 -1        32 1.23472E-04-3.70386E-05-3.72584E-05 5.40629E-07-4.41450E-20-3.36407E-18
 -1        33 1.36416E-04-4.08956E-05-4.10772E-05 8.05149E-07 1.13208E-19-2.79351E-18
 -1        34 1.50859E-04-4.52540E-05-4.50654E-05 9.72859E-07 4.81237E-20-2.53898E-18
 -1        35 1.62320E-04-4.87738E-05-4.77877E-05 6.90275E-07 1.58557E-19-2.43260E-18
 -1        36 1.63793E-04-4.94229E-05-4.74378E-05-8.94495E-07-1.74972E-19-2.54846E-18
 -1        37 1.44992E-04-4.36982E-05-4.24429E-05-3.86944E-06 3.92289E-19-2.60770E-18
 -1        38 1.09212E-04-3.18937E-05-3.48913E-05-5.18985E-06 3.89569E-20-2.18767E-18
 -1        39 8.46679E-05-2.39958E-05-3.01753E-05-2.39039E-06-3.91806E-19-2.37762E-18
 -1        40 8.38497E-05-2.37953E-05-3.00253E-05 2.55263E-06-4.81379E-19-4.83619E-18
 -1        41 1.10889E-04-3.27791E-05-3.51932E-05 5.35983E-06 2.38380E-19-6.55604E-18
 -1        42 1.43063E-04-4.29743E-05-4.20964E-05 4.08926E-06 2.81288E-19-5.02989E-18
 -1        43 1.64097E-04-4.94966E-05-4.75078E-05 1.28571E-06 3.39144E-20-3.92007E-18
 -1        44 1.65414E-04-4.97409E-05-4.86016E-05-5.60842E-07-1.83978E-19-2.32180E-18
 -1        45 1.54532E-04-4.63492E-05-4.61234E-05-9.84076E-07-3.94131E-19-4.75760E-18
 -1        46 1.40494E-04-4.21172E-05-4.22927E-05-8.11229E-07-1.23494E-19-5.55982E-18
 -1        47 1.27919E-04-3.83608E-05-3.86012E-05-5.25238E-07 4.91155E-19-5.01404E-18
 -1        48 1.18505E-04-3.55697E-05-3.57457E-05-3.27544E-07-9.81351E-20-4.68538E-18
 -1        49 1.11249E-04-3.33987E-05-3.35114E-05-1.84324E-07 6.78859E-20-6.74549E-18
 -1        50 1.06145E-04-3.18701E-05-3.19324E-05-9.96243E-08 4.74812E-19-4.04624E-18
 -1        51 1.02613E-04-3.08080E-05-3.08402E-05-5.20901E-08-3.15936E-19-4.62700E-18
 -1        52 1.00188E-04-3.00760E-05-3.00917E-05-2.59136E-08-7.10598E-20-6.64827E-18
 -1        53 9.85260E-05-2.95733E-05-2.95801E-05-1.18457E-08 1.57562E-19-6.51252E-18
 -1        54 9.73910E-05-2.92283E-05-2.92315E-05-2.57866E-09 3.58562E-19-3.18360E-18
 -1        55 9.66463E-05-2.90031E-05-2.90034E-05-7.29083E-10-2.63040E-19-1.44925E-18
 -1        56 9.61082E-05-2.88389E-05-2.88386E-05 1.61373E-09 3.27317E-19 9.50654E-19
 -1        57 9.57460E-05-2.87285E-05-2.87278E-05 2.52721E-09-1.26781E-19-2.25520E-18
 -1        58 9.55054E-05-2.86551E-05-2.86542E-05 2.83067E-09-2.78367E-19-3.76343E-18
 -1        59 9.53492E-05-2.86073E-05-2.86064E-05 2.79679E-09 3.01578E-19-8.47392E-19
 -1        60 9.52514E-05-2.85772E-05-2.85765E-05 2.83892E-09 3.79477E-19-1.37882E-19
 -1        61 9.51958E-05-2.85601E-05-2.85594E-05 2.32630E-09-6.33531E-19-1.76943E-18
 -1        62 9.51642E-05-2.85502E-05-2.85496E-05 2.09572E-09 7.49910E-19 4.81253E-19
 -1        63 9.51512E-05-2.85460E-05-2.85456E-05 1.81063E-09-7.81002E-19 1.56945E-18
 -1        64 9.51503E-05-2.85456E-05-2.85452E-05 1.54749E-09 2.26031E-19-5.14947E-19
 -1        65 9.51570E-05-2.85474E-05-2.85471E-05 1.31268E-09 1.06204E-19 3.18731E-18
 -1        66 9.51682E-05-2.85507E-05-2.85504E-05 1.13489E-09-4.19202E-19 3.29859E-18
 -1        67 9.51810E-05-2.85544E-05-2.85542E-05 9.54552E-10 3.81165E-19 1.20399E-18
 -1        68 9.51952E-05-2.85586E-05-2.85585E-05 8.31451E-10-5.95651E-19-9.71218E-19
 -1        69 9.52091E-05-2.85628E-05-2.85626E-05 7.20566E-10 8.48710E-20-2.46642E-18
 -1        70 9.52217E-05-2.85665E-05-2.85663E-05 6.02109E-10 7.11226E-19-3.45798E-18
 -1        71 9.52315E-05-2.85694E-05-2.85692E-05 3.70030E-10-1.34305E-20-9.04665E-19
 -1        72 9.52370E-05-2.85712E-05-2.85709E-05-5.90231E-11 2.63037E-19 1.99911E-18
 -1        73 1.02573E-04-3.06995E-05-3.42784E-05-1.98149E-06-1.24646E-19 4.82237E-18
 -1        74 9.37060E-05-2.78611E-05-2.92372E-05-3.53563E-07 1.50415E-20 5.13144E-18
 -1        75 9.08623E-05-2.72297E-05-2.74923E-05-1.39021E-07 1.66925E-20 5.13948E-18
 -1        76 9.03700E-05-2.71358E-05-2.71299E-05-1.10560E-07-7.99838E-20 5.62487E-18
 -1        77 9.09379E-05-2.73017E-05-2.72667E-05-9.64855E-08 6.82221E-20 5.93501E-18
 -1        78 9.19388E-05-2.75910E-05-2.75632E-05-8.92097E-08-1.54290E-20 6.05254E-18
 -1        79 9.30039E-05-2.79034E-05-2.78762E-05-8.40660E-08-1.73488E-19 6.85785E-18
 -1        80 9.38454E-05-2.81525E-05-2.81171E-05-7.65210E-08-7.48598E-23 7.39138E-18
 -1        81 9.42007E-05-2.82589E-05-2.82095E-05-6.15495E-08-1.17931E-19 7.24577E-18
 -1        82 9.38292E-05-2.81500E-05-2.80850E-05-3.41908E-08 1.76930E-19 6.60789E-18
 -1        83 9.25481E-05-2.77707E-05-2.76942E-05 8.75316E-09 5.59249E-20 5.76926E-18
 -1        84 9.02982E-05-2.71015E-05-2.70259E-05 6.58306E-08-1.01643E-19 6.45532E-18
 -1        85 8.72211E-05-2.61826E-05-2.61280E-05 1.28029E-07 1.30126E-20 6.95004E-18
 -1        86 8.37100E-05-2.51292E-05-2.51181E-05 1.78369E-07 7.75805E-20 6.77741E-18
 -1        87 8.03862E-05-2.41265E-05-2.41740E-05 1.96607E-07 2.35964E-19 5.08529E-18
 -1        88 7.79681E-05-2.33914E-05-2.34948E-05 1.68780E-07-2.96270E-19 5.31402E-18
 -1        89 7.70557E-05-2.31077E-05-2.32436E-05 9.67333E-08-1.02689E-19 6.16020E-18
 -1        90 7.79166E-05-2.33600E-05-2.34915E-05 3.38645E-10 3.66599E-19 5.17076E-18
 -1        91 8.03847E-05-2.41003E-05-2.41935E-05-9.10405E-08-1.94622E-19 4.14924E-18
 -1        92 8.39292E-05-2.51683E-05-2.52056E-05-1.52707E-07-4.10794E-20 5.43411E-18
 -1        93 8.78547E-05-2.63521E-05-2.63364E-05-1.74563E-07 4.72460E-21 5.92405E-18
 -1        94 9.15243E-05-2.74581E-05-2.74066E-05-1.61677E-07 2.61017E-19 5.91768E-18
 -1        95 9.45084E-05-2.83561E-05-2.82899E-05-1.27655E-07-9.64958E-20 4.34492E-18
 -1        96 9.66249E-05-2.89917E-05-2.89280E-05-8.68288E-08 3.62129E-20 3.52022E-18
 -1        97 9.78949E-05-2.93720E-05-2.93208E-05-4.94745E-08-1.13600E-19 4.18343E-18
 -1        98 9.84633E-05-2.95413E-05-2.95058E-05-2.06767E-08 3.08108E-19 4.41326E-18
 -1        99 9.85223E-05-2.95579E-05-2.95368E-05-1.44811E-09 6.34456E-20 3.61247E-18
 -1       100 9.82586E-05-2.94780E-05-2.94682E-05 9.51304E-09-3.60541E-19 3.30335E-18
 -1       101 9.78252E-05-2.93476E-05-2.93453E-05 1.43705E-08 4.13081E-20 3.03920E-18
 -1       102 9.73329E-05-2.91998E-05-2.92019E-05 1.52671E-08-1.97685E-19 2.18569E-18
 -1       103 9.68535E-05-2.90559E-05-2.90603E-05 1.39283E-08 1.91766E-19 3.21136E-18
 -1       104 9.64270E-05-2.89280E-05-2.89330E-05 1.15706E-08-1.40114E-19 3.85389E-18
 -1       105 9.60709E-05-2.88213E-05-2.88261E-05 8.96155E-09 4.04861E-19 7.45171E-18
 -1       106 9.57884E-05-2.87367E-05-2.87408E-05 6.52898E-09-4.69129E-19 5.25762E-18
 -1       107 9.55740E-05-2.86724E-05-2.86757E-05 4.47099E-09-2.46720E-19 4.23798E-18
 -1       108 9.54182E-05-2.86257E-05-2.86282E-05 2.84416E-09-4.23054E-20 1.31211E-18
 -1       109 9.53101E-05-2.85932E-05-2.85950E-05 1.62685E-09 4.40679E-19-7.87584E-19
 -1       110 9.52393E-05-2.85720E-05-2.85732E-05 7.60648E-10-6.69868E-20 1.78830E-18
 -1       111 9.51965E-05-2.85591E-05-2.85599E-05 1.75405E-10 2.86019E-19 1.96075E-18
 -1       112 9.51741E-05-2.85524E-05-2.85529E-05-1.97126E-10-3.08429E-20 1.80465E-18
 -1       113 9.51659E-05-2.85499E-05-2.85502E-05-4.16817E-10 2.82168E-20 2.08966E-18
 -1       114 9.51672E-05-2.85503E-05-2.85504E-05-5.33012E-10 6.42159E-20-5.92171E-19
 -1       115 9.51746E-05-2.85524E-05-2.85525E-05-5.84670E-10 1.31084E-19-2.41477E-18
 -1       116 9.51855E-05-2.85557E-05-2.85557E-05-6.01481E-10 2.66586E-19-4.32827E-18
 -1       117 9.51980E-05-2.85594E-05-2.85594E-05-6.04612E-10-3.46491E-19-3.98465E-18
 -1       118 9.52108E-05-2.85633E-05-2.85632E-05-6.05687E-10-9.40969E-20-2.98648E-18
 -1       119 9.52226E-05-2.85668E-05-2.85666E-05-5.99760E-10 1.05767E-19-2.63259E-18
 -1       120 9.52319E-05-2.85696E-05-2.85693E-05-5.17265E-10 2.15378E-19-3.84481E-18
 -1       121 9.52370E-05-2.85713E-05-2.85709E-05-1.10644E-10 1.05289E-18-4.26674E-18
 -1       122 9.52373E-05-2.85716E-05-2.85709E-05-2.51870E-12-2.76534E-18 5.20839E-19
 -1       123 9.52388E-05-2.85766E-05-2.85693E-05-3.92137E-10-2.26363E-18 4.29521E-19
 -1       124 9.52413E-05-2.85850E-05-2.85669E-05-5.26095E-10 1.13155E-18 1.55101E-18
 -1       125 9.52442E-05-2.85946E-05-2.85641E-05-5.03206E-10 6.56417E-19 8.33121E-19
 -1       126 9.52469E-05-2.86037E-05-2.85615E-05-4.13878E-10-4.39130E-19-2.86443E-19
 -1       127 9.52491E-05-2.86112E-05-2.85593E-05-3.08555E-10-6.36398E-18-1.12476E-18
 -1       128 9.52508E-05-2.86167E-05-2.85576E-05-1.91848E-10-5.10480E-18 1.20264E-18
 -1       129 9.52516E-05-2.86196E-05-2.85568E-05-7.30144E-11-5.59566E-18-1.44396E-18
 -1       130 9.52517E-05-2.86199E-05-2.85567E-05 4.86499E-11-2.29617E-18 1.06960E-18
 -1       131 9.52510E-05-2.86173E-05-2.85574E-05 1.74733E-10-1.14744E-18-1.80573E-18
 -1       132 9.52494E-05-2.86121E-05-2.85590E-05 3.08769E-10-1.24389E-17-1.21116E-18
 -1       133 9.52472E-05-2.86047E-05-2.85612E-05 4.26340E-10-1.58132E-17 1.96138E-18
 -1       134 9.52444E-05-2.85954E-05-2.85639E-05 5.27226E-10-9.76287E-18-8.38294E-19
 -1       135 9.52414E-05-2.85854E-05-2.85668E-05 5.64769E-10-2.61388E-18 1.23016E-18
 -1       136 9.52388E-05-2.85766E-05-2.85692E-05 3.83564E-10 2.73157E-18-3.42114E-18
 -1       137 9.52374E-05-2.85717E-05-2.85709E-05-6.86628E-11-3.22288E-18-9.67883E-19
 -1       138 2.39968E-05-8.30149E-05 1.50423E-05-2.19709E-05 2.44073E-18-2.28699E-19
 -1       139 6.77012E-06-2.18807E-05-3.42977E-07-9.87299E-06 3.83409E-18 2.25692E-18
 -1       140 1.53448E-05 2.40269E-05-1.93505E-05 3.53689E-05 7.58603E-18 7.44881E-18
 -1       141 6.92112E-05 3.00428E-05-4.01795E-05 9.07912E-05 6.72290E-18 7.22773E-18
 -1       142 1.67873E-04-8.59850E-06-6.10452E-05 1.21227E-04 3.75066E-18 8.12813E-18
 -1       143 2.64819E-04-6.34903E-05-7.55033E-05 9.59638E-05 1.81032E-18 4.72666E-18
 -1       144 3.19866E-04-9.81470E-05-8.25072E-05 2.03765E-05 8.69532E-20-2.18429E-18
 -1       145 2.99974E-04-8.55783E-05-7.99528E-05-6.45122E-05 8.38384E-19-7.12312E-18
 -1       146 2.18541E-04-3.64461E-05-6.87378E-05-1.15881E-04 2.35539E-18-6.87833E-18
 -1       147 1.17322E-04 1.43517E-05-5.13385E-05-1.13096E-04 4.07380E-18-5.20798E-18
 -1       148 4.03533E-05 3.13325E-05-3.05649E-05-6.67641E-05 4.77515E-18-4.92380E-18
 -1       149 6.82123E-06-1.60142E-06-7.40411E-06-5.90607E-06 1.89651E-18-1.66230E-18
 -1       150 1.63225E-05-6.25902E-05 1.04792E-05 2.48894E-05-9.14372E-19 3.17531E-19
 -1       151 3.60845E-05-1.12668E-04 2.08936E-05 1.20314E-05-3.19120E-18-1.86877E-19
 -1       152 3.66260E-05-1.17896E-04 2.22341E-05-1.93408E-05-3.96178E-18-7.70191E-19
 -1       153 1.75084E-05-7.56670E-05 1.35347E-05-3.57681E-05-3.94082E-18-1.56320E-18
 -1       154 3.85879E-06-1.68992E-05-2.88069E-06-1.21155E-05-3.45335E-18-1.66527E-18
 -1       155 3.74278E-05 1.95267E-05-2.74450E-05 5.10865E-05-4.23601E-18-5.15377E-18
 -1       156 1.31523E-04 3.28595E-06-5.34209E-05 1.09659E-04-1.79232E-18-2.25988E-18
 -1       157 2.55901E-04-5.27364E-05-7.47817E-05 1.16401E-04 8.47245E-19 2.69611E-18
 -1       158 3.49184E-04-1.03950E-04-8.72944E-05 5.49451E-05 3.36166E-19 3.70789E-18
 -1       159 3.57269E-04-1.08344E-04-8.84403E-05-3.84495E-05-9.37824E-20 4.02658E-18
 -1       160 2.72859E-04-6.23762E-05-7.70078E-05-1.09683E-04-3.12883E-18 7.53944E-18
 -1       161 1.45760E-04-2.79520E-06-5.61057E-05-1.12566E-04-5.56924E-18 1.00450E-17
 -1       162 4.23467E-05 2.00635E-05-2.93515E-05-5.59842E-05-5.28125E-18 6.53401E-18
 -1       163 1.32688E-05-6.54079E-05 1.13291E-05 3.56068E-05-1.99900E-19 5.89111E-19
 -1       164 3.28825E-05-1.10154E-04 2.07806E-05 2.80053E-05 4.03717E-18-7.57678E-19
 -1       165 9.59033E-05-1.27331E-05-3.58174E-05-2.11630E-05-5.01602E-20-1.32264E-18
 -1       166 9.01154E-05-8.63631E-06-3.50731E-05-1.59565E-05 2.43191E-19-1.04225E-18
 -1       167 8.69506E-05-6.40518E-06-3.46254E-05-1.21411E-05 4.56048E-19-8.24044E-19
 -1       168 8.50183E-05-5.12546E-06-3.43185E-05-9.07523E-06 5.55786E-19-6.74271E-19
 -1       169 8.37733E-05-4.34176E-06-3.41062E-05-6.56533E-06 5.73198E-19-3.90535E-19
 -1       170 8.29902E-05-3.87590E-06-3.39625E-05-4.33686E-06 6.03676E-19-1.32501E-19
 -1       171 8.26139E-05-3.67303E-06-3.38845E-05-2.27945E-06 6.67102E-19 1.63080E-19
 -1       172 8.25882E-05-3.68637E-06-3.38671E-05-2.60790E-07 7.59310E-19 3.84480E-19
 -1       173 8.28645E-05-3.88118E-06-3.39039E-05 1.82763E-06 8.00378E-19 6.54584E-19
 -1       174 8.34100E-05-4.23984E-06-3.39887E-05 4.07610E-06 8.15973E-19 8.54564E-19
 -1       175 8.42103E-05-4.76190E-06-3.41167E-05 6.52274E-06 7.44727E-19 1.22947E-18
 -1       176 8.53687E-05-5.52825E-06-3.43007E-05 9.34316E-06 7.53717E-19 1.68654E-18
 -1       177 8.71135E-05-6.71369E-06-3.45707E-05 1.26296E-05 6.12150E-19 2.12028E-18
 -1       178 9.01087E-05-8.83088E-06-3.49966E-05 1.65766E-05 4.14828E-19 2.76665E-18
 -1       179 9.65771E-05-1.39304E-05-3.56269E-05 2.10030E-05 4.74735E-20 3.33670E-18
 -1       180 1.06282E-04-2.63832E-05-3.54238E-05 1.80061E-05-2.83485E-19 3.82372E-18
 -1       181 1.04719E-04-2.74680E-05-3.31063E-05-1.16339E-05-7.75300E-20-1.22468E-18
 -1       182 9.90865E-05-2.87792E-05-3.01655E-05-3.92993E-06-1.75323E-19-1.25468E-18
 -1       183 9.62615E-05-2.83613E-05-2.90471E-05-6.05501E-07-2.08658E-19-1.28673E-18
 -1       184 9.58010E-05-2.84000E-05-2.88422E-05 1.23667E-06-1.29437E-20-1.35616E-18
 -1       185 9.67391E-05-2.87045E-05-2.91281E-05 2.62695E-06 1.84428E-19-1.49465E-18
 -1       186 9.86801E-05-2.92407E-05-2.97371E-05 3.91916E-06 7.37713E-20-1.17058E-18
 -1       187 1.01782E-04-3.00674E-05-3.07150E-05 5.48463E-06 5.07608E-20-9.56383E-19
 -1       188 1.06061E-04-3.12098E-05-3.20638E-05 7.43647E-06-2.40442E-19-1.13926E-18
 -1       189 1.11672E-04-3.27655E-05-3.38116E-05 9.79699E-06 1.56767E-20-7.23201E-19
 -1       190 1.18725E-04-3.49181E-05-3.59283E-05 1.22542E-05 2.43049E-19-2.86257E-19
 -1       191 1.27111E-04-3.79843E-05-3.82213E-05 1.37325E-05 7.70171E-20-7.44370E-19
 -1       192 1.35780E-04-4.20477E-05-4.01841E-05 1.20878E-05 7.05221E-20-7.74340E-19
 -1       193 1.44290E-04-4.73744E-05-4.14993E-05 3.82734E-06 2.06517E-19-4.04286E-19
 -1       194 1.48979E-04-5.09842E-05-4.20064E-05-1.24022E-05-4.73624E-19-2.33166E-19
 -1       195 1.45419E-04-4.61973E-05-4.29159E-05-2.74950E-05-4.77912E-19-1.39432E-18
 -1       196 1.37145E-04-3.56574E-05-4.42218E-05-2.47456E-05-5.69524E-19-2.45560E-18
 -1       197 1.31052E-04-2.78541E-05-4.51465E-05-2.73958E-06-1.26737E-18-3.31949E-18
 -1       198 1.35551E-04-3.37396E-05-4.44629E-05 2.28927E-05-1.38437E-18-3.04500E-18
 -1       199 1.44948E-04-4.54560E-05-4.30808E-05 2.85146E-05 3.95988E-19-3.56993E-18
 -1       200 1.50010E-04-5.13418E-05-4.23258E-05 1.53485E-05 1.19685E-18-2.99527E-18
 -1       201 1.46500E-04-4.84780E-05-4.19650E-05-1.68171E-06 2.59179E-19-2.22892E-18
 -1       202 1.38619E-04-4.32158E-05-4.08793E-05-1.10432E-05-1.19231E-18-2.71491E-18
 -1       203 1.29771E-04-3.88466E-05-3.89869E-05-1.32667E-05-4.28267E-19-2.66915E-18
 -1       204 1.21639E-04-3.57839E-05-3.68068E-05-1.18536E-05 1.14227E-19-2.21331E-18
 -1       205 1.15160E-04-3.37718E-05-3.48786E-05-9.46303E-06 4.64062E-19-2.05374E-18
 -1       206 1.09750E-04-3.22739E-05-3.31923E-05-7.02302E-06-9.32434E-19-2.30240E-18
 -1       207 1.05668E-04-3.12119E-05-3.18949E-05-5.03644E-06 1.02771E-18-3.06862E-18
 -1       208 1.02654E-04-3.04476E-05-3.09319E-05-3.54981E-06 2.85923E-20-3.06540E-18
 -1       209 1.00463E-04-2.98958E-05-3.02321E-05-2.48114E-06-1.09265E-18-1.61014E-18
 -1       210 9.88864E-05-2.94977E-05-2.97296E-05-1.72733E-06 5.13487E-19-1.30118E-18
 -1       211 9.77599E-05-2.92120E-05-2.93714E-05-1.19952E-06 1.33132E-18-1.83672E-18
 -1       212 9.69904E-05-2.90153E-05-2.91277E-05-8.45710E-07 7.61906E-19-1.94055E-18
 -1       213 9.64109E-05-2.88664E-05-2.89443E-05-5.83631E-07 8.99673E-19-2.31598E-18
 -1       214 9.60038E-05-2.87615E-05-2.88158E-05-3.99222E-07-2.75770E-18-2.30398E-18
 -1       215 9.57200E-05-2.86883E-05-2.87262E-05-2.69756E-07-6.05400E-19-2.17511E-18
 -1       216 9.55246E-05-2.86381E-05-2.86644E-05-1.78816E-07 8.17403E-19-2.09047E-18
 -1       217 9.53928E-05-2.86045E-05-2.86227E-05-1.15070E-07 1.41963E-18-1.97417E-18
 -1       218 9.53093E-05-2.85834E-05-2.85962E-05-7.25133E-08-9.88015E-19-1.02298E-18
 -1       219 9.52530E-05-2.85695E-05-2.85782E-05-4.14320E-08 8.99492E-19-1.45402E-18
 -1       220 9.52195E-05-2.85616E-05-2.85673E-05-2.02288E-08 5.92747E-19-2.11876E-18
 -1       221 9.52017E-05-2.85578E-05-2.85615E-05-6.14594E-09-1.22298E-18-2.19420E-18
 -1       222 9.51946E-05-2.85567E-05-2.85589E-05 2.92393E-09 1.87165E-18-1.00730E-18
 -1       223 9.51944E-05-2.85574E-05-2.85586E-05 8.48121E-09 9.91103E-19-8.40523E-19
 -1       224 9.51984E-05-2.85590E-05-2.85597E-05 1.14671E-08 1.93072E-19 2.49362E-18
 -1       225 9.52050E-05-2.85614E-05-2.85615E-05 1.28772E-08-1.26559E-18 2.61285E-18
 -1       226 9.52128E-05-2.85640E-05-2.85638E-05 1.29510E-08-1.53737E-18 2.42184E-18
 -1       227 9.52207E-05-2.85667E-05-2.85660E-05 1.18453E-08-4.53456E-19 1.79322E-18
 -1       228 9.52279E-05-2.85692E-05-2.85680E-05 9.48427E-09 3.59586E-19 3.15539E-19
 -1       229 9.52337E-05-2.85716E-05-2.85695E-05 5.75069E-09 9.20240E-19 9.45649E-19
 -1       230 1.00549E-04-2.88885E-05-3.08873E-05 6.65024E-06-2.56625E-20 3.49926E-18
 -1       231 9.59107E-05-2.82418E-05-2.89686E-05 2.24434E-06 1.32746E-20 3.47469E-18
 -1       232 9.40398E-05-2.79876E-05-2.82631E-05 4.46686E-07-1.91443E-19 3.29630E-18
 -1       233 9.35215E-05-2.79599E-05-2.80723E-05-3.84382E-07-1.05238E-19 3.24833E-18
 -1       234 9.36847E-05-2.80798E-05-2.81047E-05-7.30773E-07-2.43901E-19 3.50713E-18
 -1       235 9.41242E-05-2.82675E-05-2.82196E-05-7.61685E-07-4.74132E-19 3.57504E-18
 -1       236 9.45508E-05-2.84473E-05-2.83284E-05-5.37294E-07-1.23799E-19 3.69706E-18
 -1       237 9.47288E-05-2.85501E-05-2.83618E-05-8.38008E-08 1.29224E-19 3.69005E-18
 -1       238 9.44611E-05-2.85109E-05-2.82640E-05 5.66491E-07 3.35130E-19 3.16936E-18
 -1       239 9.36031E-05-2.82739E-05-2.79973E-05 1.34483E-06 2.81874E-19 3.60910E-18
 -1       240 9.20994E-05-2.78067E-05-2.75524E-05 2.12437E-06-6.05951E-20 3.62512E-18
 -1       241 9.00314E-05-2.71204E-05-2.69601E-05 2.71907E-06-2.30036E-19 3.49562E-18
 -1       242 8.76496E-05-2.62900E-05-2.62960E-05 2.91805E-06 1.80803E-19 3.48829E-18
 -1       243 8.53627E-05-2.54598E-05-2.56732E-05 2.55916E-06 4.77995E-19 3.66281E-18
 -1       244 8.36562E-05-2.48172E-05-2.52186E-05 1.61727E-06-9.67322E-20 3.75343E-18
 -1       245 8.29508E-05-2.45352E-05-2.50372E-05 2.55594E-07-1.77941E-19 2.94951E-18
 -1       246 8.34538E-05-2.47032E-05-2.51793E-05-1.20755E-06 7.44304E-19 2.90079E-18
 -1       247 8.50796E-05-2.52874E-05-2.56234E-05-2.41678E-06 2.58765E-19 3.04940E-18
 -1       248 8.74857E-05-2.61466E-05-2.62843E-05-3.11922E-06-5.59141E-19 2.51761E-18
 -1       249 9.02033E-05-2.70936E-05-2.70427E-05-3.24461E-06-8.59066E-20 2.60804E-18
 -1       250 9.27896E-05-2.79621E-05-2.77800E-05-2.89222E-06 4.31218E-19 2.26243E-18
 -1       251 9.49337E-05-2.86480E-05-2.84068E-05-2.25312E-06 5.50827E-19 2.52578E-18
 -1       252 9.64897E-05-2.91151E-05-2.88755E-05-1.52395E-06 5.18901E-19 1.87529E-18
 -1       253 9.74527E-05-2.93777E-05-2.91771E-05-8.51464E-07-5.07682E-19 2.38642E-18
 -1       254 9.79082E-05-2.94771E-05-2.93303E-05-3.15845E-07 1.04762E-19 3.01500E-18
 -1       255 9.79817E-05-2.94620E-05-2.93683E-05 5.94590E-08 2.80366E-19 3.13937E-18
 -1       256 9.78021E-05-2.93772E-05-2.93272E-05 2.87572E-07-1.92102E-19 3.12017E-18
 -1       257 9.74796E-05-2.92577E-05-2.92396E-05 3.99008E-07-3.75842E-19 3.31609E-18
 -1       258 9.70980E-05-2.91284E-05-2.91308E-05 4.28116E-07-1.00503E-19 3.93455E-18
 -1       259 9.67143E-05-2.90047E-05-2.90188E-05 4.05520E-07-9.28587E-20 2.98354E-18
 -1       260 9.63629E-05-2.88954E-05-2.89147E-05 3.55063E-07-9.14815E-19 3.36448E-18
 -1       261 9.60610E-05-2.88039E-05-2.88243E-05 2.93492E-07-3.96175E-19 3.95333E-18
 -1       262 9.58142E-05-2.87308E-05-2.87497E-05 2.31468E-07 8.71237E-19 4.45257E-18
 -1       263 9.56207E-05-2.86745E-05-2.86909E-05 1.75017E-07 5.92213E-19 4.28292E-18
 -1       264 9.54748E-05-2.86328E-05-2.86462E-05 1.26937E-07 1.87447E-18 2.52858E-18
 -1       265 9.53690E-05-2.86031E-05-2.86136E-05 8.79587E-08-1.40664E-19 1.79180E-18
 -1       266 9.52955E-05-2.85829E-05-2.85908E-05 5.76106E-08-1.99079E-18 2.30791E-18
 -1       267 9.52472E-05-2.85700E-05-2.85757E-05 3.48143E-08 5.07033E-19 1.97959E-18
 -1       268 9.52178E-05-2.85624E-05-2.85664E-05 1.82707E-08 2.48279E-19 3.44152E-18
 -1       269 9.52021E-05-2.85586E-05-2.85614E-05 6.68958E-09 5.91702E-19 2.47525E-18
 -1       270 9.51961E-05-2.85575E-05-2.85593E-05-1.08558E-09 2.04516E-18 2.19509E-18
 -1       271 9.51967E-05-2.85582E-05-2.85593E-05-6.01930E-09 7.53504E-19 6.13499E-19
 -1       272 9.52013E-05-2.85600E-05-2.85605E-05-8.86369E-09 1.77352E-18-5.86389E-19
 -1       273 9.52083E-05-2.85624E-05-2.85625E-05-1.01555E-08-8.77418E-19-2.45137E-18
 -1       274 9.52163E-05-2.85650E-05-2.85648E-05-1.02157E-08-2.97414E-19-1.34670E-18
 -1       275 9.52240E-05-2.85676E-05-2.85670E-05-9.14840E-09 3.07887E-19-1.67063E-18
 -1       276 9.52306E-05-2.85699E-05-2.85689E-05-6.84274E-09 8.40702E-19-1.72230E-18
 -1       277 9.52353E-05-2.85717E-05-2.85701E-05-3.25222E-09-7.01866E-20-1.03979E-18
 -1       278 9.52370E-05-2.85748E-05-2.85695E-05-5.51472E-09 7.42703E-19 5.33860E-19
 -1       279 9.52392E-05-2.85800E-05-2.85682E-05-8.38407E-09 6.52195E-19 1.63360E-18
 -1       280 9.52416E-05-2.85861E-05-2.85667E-05-9.40840E-09 6.69421E-19 7.50190E-19
 -1       281 9.52438E-05-2.85922E-05-2.85650E-05-8.93705E-09-5.28937E-19-2.17181E-18
 -1       282 9.52456E-05-2.85975E-05-2.85634E-05-7.48737E-09-3.40486E-18-2.85744E-18
 -1       283 9.52470E-05-2.86018E-05-2.85622E-05-5.38830E-09-3.24590E-18-4.04523E-19
 -1       284 9.52479E-05-2.86046E-05-2.85614E-05-2.91515E-09-3.02744E-18 1.06940E-20
 -1       285 9.52483E-05-2.86057E-05-2.85611E-05-2.43603E-10 1.37467E-19 1.77488E-18
 -1       286 9.52480E-05-2.86050E-05-2.85613E-05 2.48955E-09-1.25873E-18-5.14620E-19
 -1       287 9.52472E-05-2.86024E-05-2.85620E-05 5.13214E-09-1.96233E-18-6.89623E-18
 -1       288 9.52459E-05-2.85984E-05-2.85632E-05 7.42676E-09-2.27032E-18-3.10413E-18
 -1       289 9.52440E-05-2.85929E-05-2.85648E-05 9.12379E-09-2.42436E-18 2.94726E-18
 -1       290 9.52418E-05-2.85866E-05-2.85665E-05 9.73662E-09-1.17181E-19 3.88115E-18
 -1       291 9.52393E-05-2.85803E-05-2.85682E-05 8.72851E-09-1.79143E-18 6.60080E-19
 -1       292 1.31318E-05-4.29820E-05 1.05974E-05 1.85442E-05 1.66484E-18-4.50516E-19
 -1       293 3.27172E-05-4.20016E-05 1.85415E-06 3.11841E-05 2.16756E-18 2.09921E-18
 -1       294 5.91484E-05-3.35377E-05-1.23845E-05 4.08430E-05 1.69661E-18 4.04183E-18
 -1       295 9.67117E-05-2.73967E-05-2.97533E-05 5.08840E-05 3.24562E-18 2.69992E-18
 -1       296 1.44918E-04-3.08495E-05-4.76883E-05 4.80603E-05 3.02963E-18 3.68396E-18
 -1       297 1.84700E-04-3.18977E-05-6.30919E-05 3.95064E-05 3.06745E-18 2.70161E-18
 -1       298 2.08014E-04-3.29069E-05-7.21022E-05 1.70369E-05 3.25091E-18 1.29024E-18
 -1       299 2.20918E-04-3.77834E-05-7.48612E-05-7.35360E-06 2.56143E-18-1.08611E-18
 -1       300 2.00357E-04-3.35785E-05-6.84815E-05-2.99304E-05 8.31151E-19-2.49134E-18
 -1       301 1.66597E-04-2.99609E-05-5.63464E-05-4.91248E-05 8.65562E-19-2.53940E-18
 -1       302 1.21930E-04-2.77833E-05-3.95905E-05-5.22209E-05 1.62673E-18-1.77348E-18
 -1       303 8.78332E-05-4.02924E-05-2.08491E-05-4.67546E-05-1.70465E-19-2.39880E-18
 -1       304 4.52625E-05-4.10915E-05-3.36586E-06-3.78906E-05-8.62491E-19-1.55060E-18
 -1       305 1.90470E-05-4.94157E-05 9.87915E-06-1.88674E-05-9.53547E-19-1.02819E-18
 -1       306 9.50338E-06-4.74053E-05 1.34416E-05-5.54815E-06-1.29339E-18-6.27863E-19
 -1       307 1.79020E-05-5.15645E-05 1.10264E-05 9.01869E-06-1.77644E-18-3.97682E-19
 -1       308 3.92330E-05-4.72078E-05 2.58072E-07 2.19466E-05-1.72392E-18-8.81298E-19
 -1       309 8.52242E-05-4.67915E-05-1.80632E-05 3.70254E-05-6.58780E-19-2.21213E-18
 -1       310 1.44297E-04-5.29953E-05-3.91854E-05 3.28058E-05-1.80354E-18 5.93558E-19
 -1       311 1.91288E-04-4.63331E-05-5.96000E-05 3.36389E-05-2.01853E-18 1.51831E-18
 -1       312 2.28680E-04-4.57145E-05-7.37065E-05 1.79212E-05 5.75982E-20 1.77009E-18
 -1       313 2.24315E-04-3.60901E-05-7.66379E-05 1.46545E-06-4.77091E-19 2.02095E-18
 -1       314 2.29306E-04-4.46649E-05-7.45447E-05-1.26575E-05-2.28604E-18 3.11412E-18
 -1       315 1.97532E-04-4.69729E-05-6.17193E-05-3.03580E-05-3.31267E-18 3.52959E-18
 -1       316 1.50142E-04-5.32611E-05-4.12654E-05-3.05800E-05-1.49141E-18 3.48427E-18
 -1       317 8.70336E-05-4.50128E-05-1.96801E-05-3.62893E-05-2.08497E-18 3.72567E-18
 -1       318 4.54278E-05-4.68052E-05-2.22238E-06-2.50428E-05-4.41728E-19 3.27642E-18
 -1       319 2.11525E-05-5.21654E-05 9.63650E-06-9.68201E-06 5.49936E-19 2.47090E-18
 -1       320 1.12076E-05-5.20972E-05 1.41597E-05 1.50769E-06 1.82972E-18 9.52171E-19
 -1       321 9.52370E-05-2.85749E-05-2.85695E-05 5.79287E-09-8.26327E-19-2.49544E-18
 -1       322 9.22548E-05-1.43229E-05-3.34758E-05-1.12515E-05 3.04381E-19-7.13050E-19
 -1       323 9.68619E-05-1.93918E-05-3.32606E-05-1.30510E-05 1.42672E-20-9.06974E-19
 -1       324 8.71851E-05-9.34974E-06-3.34093E-05-6.85617E-06 6.32332E-19-4.79715E-19
 -1       325 8.58384E-05-8.15823E-06-3.33349E-05-4.89210E-06 6.74750E-19-1.60777E-19
 -1       326 8.50969E-05-7.53665E-06-3.32795E-05-3.07217E-06 7.96307E-19 7.45621E-20
 -1       327 8.48738E-05-7.37273E-06-3.32527E-05-1.28927E-06 8.97938E-19 3.62982E-19
 -1       328 8.50908E-05-7.58556E-06-3.32552E-05 5.54077E-07 9.15016E-19 6.08778E-19
 -1       329 8.56848E-05-8.12473E-06-3.32813E-05 2.52958E-06 9.48809E-19 7.64732E-19
 -1       330 8.66080E-05-8.96716E-06-3.33208E-05 4.64527E-06 9.46323E-19 9.28729E-19
 -1       331 8.79295E-05-1.02098E-05-3.33626E-05 6.99119E-06 8.81847E-19 1.32940E-18
 -1       332 8.97947E-05-1.20463E-05-3.33879E-05 9.50043E-06 7.20494E-19 1.71674E-18
 -1       333 9.25705E-05-1.49466E-05-3.33501E-05 1.19616E-05 4.91977E-19 2.12851E-18
 -1       334 9.68116E-05-1.99235E-05-3.30551E-05 1.32527E-05 2.35980E-19 2.67855E-18
 -1       335 9.97874E-05-2.48098E-05-3.22159E-05 1.10025E-05 9.37295E-20 3.00417E-18
 -1       336 9.76240E-05-2.71946E-05-3.01542E-05 4.86734E-06 4.14517E-20 2.86355E-18
 -1       337 9.81802E-05-2.61662E-05-3.08169E-05-4.63953E-06-2.74028E-20-7.88561E-19
 -1       338 9.72278E-05-2.71928E-05-2.99839E-05-4.35881E-07-8.06435E-20-7.38992E-19
 -1       339 9.69682E-05-2.75704E-05-2.97189E-05 2.45542E-06 4.85762E-20-7.96049E-19
 -1       340 9.73424E-05-2.77363E-05-2.98133E-05 4.75890E-06 2.09634E-19-7.05974E-19
 -1       341 9.83031E-05-2.78300E-05-3.01849E-05 7.17008E-06 1.64928E-19-6.43588E-19
 -1       342 9.97625E-05-2.78961E-05-3.07811E-05 9.88257E-06 1.31517E-19-5.09909E-19
 -1       343 1.01701E-04-2.80551E-05-3.15440E-05 1.30649E-05 3.16703E-19-4.06714E-19
 -1       344 1.04231E-04-2.86433E-05-3.23806E-05 1.66459E-05 2.95490E-19-2.69773E-19
 -1       345 1.07809E-04-3.04941E-05-3.31309E-05 2.00729E-05 2.49242E-19-2.56908E-19
 -1       346 1.13261E-04-3.48485E-05-3.36079E-05 2.18401E-05 5.45923E-20-3.45894E-19
 -1       347 1.23264E-04-4.41205E-05-3.39016E-05 1.93905E-05 8.68473E-20-3.74858E-19
 -1       348 1.40380E-04-5.83039E-05-3.51111E-05 8.36732E-06 4.06933E-19-5.56633E-19
 -1       349 1.57849E-04-6.42919E-05-4.03995E-05-1.14498E-05-1.05964E-18 7.92214E-19
 -1       350 1.62749E-04-2.60220E-05-5.88486E-05-1.66795E-05-1.37897E-18-9.05690E-19
 -1       351 1.61636E-04-2.53206E-05-5.86212E-05 1.23942E-05-1.40438E-18-6.27837E-19
 -1       352 1.65856E-04-4.53577E-05-5.20202E-05 2.68229E-05-2.26301E-18-1.17431E-18
 -1       353 1.59898E-04-6.32788E-05-4.17996E-05 1.69270E-05 1.44107E-18-1.87372E-18
 -1       354 1.43041E-04-5.76034E-05-3.66314E-05-3.96883E-06 1.30059E-18-2.53069E-18
 -1       355 1.27775E-04-4.53862E-05-3.52797E-05-1.65766E-05 6.44936E-20-1.45323E-18
 -1       356 1.17636E-04-3.63505E-05-3.48349E-05-2.00178E-05-6.61662E-19-4.07726E-19
 -1       357 1.11519E-04-3.17735E-05-3.41724E-05-1.84863E-05 6.69350E-19-1.65932E-21
 -1       358 1.07728E-04-2.99434E-05-3.33235E-05-1.53201E-05-1.38892E-19-2.49563E-19
 -1       359 1.04813E-04-2.92301E-05-3.23750E-05-1.18058E-05-5.54244E-20-2.42253E-19
 -1       360 1.02568E-04-2.90001E-05-3.15113E-05-8.76312E-06-5.96566E-19-9.00833E-20
 -1       361 1.00794E-04-2.89179E-05-3.07888E-05-6.36640E-06 4.75883E-19-1.61749E-18
 -1       362 9.93956E-05-2.88674E-05-3.02147E-05-4.56905E-06 8.51649E-20-1.42419E-18
 -1       363 9.83079E-05-2.88181E-05-2.97728E-05-3.25626E-06 6.33170E-19 1.55009E-18
 -1       364 9.74752E-05-2.87681E-05-2.94397E-05-2.31060E-06 2.16668E-19 9.82982E-19
 -1       365 9.68705E-05-2.87212E-05-2.92025E-05-1.66168E-06 1.37900E-19-1.17861E-18
 -1       366 9.63903E-05-2.86779E-05-2.90165E-05-1.16903E-06 8.87530E-20-1.87129E-18
 -1       367 9.60359E-05-2.86421E-05-2.88809E-05-8.17247E-07-3.24058E-19-3.26097E-18
 -1       368 9.57770E-05-2.86140E-05-2.87826E-05-5.65817E-07-1.30485E-18-1.83435E-18
 -1       369 9.55905E-05-2.85931E-05-2.87121E-05-3.86262E-07 6.11393E-19-9.73352E-19
 -1       370 9.54585E-05-2.85785E-05-2.86621E-05-2.58346E-07 1.01598E-18-1.18194E-18
 -1       371 9.53703E-05-2.85690E-05-2.86286E-05-1.71453E-07 7.87599E-19-2.26799E-18
 -1       372 9.53066E-05-2.85629E-05-2.86041E-05-1.06462E-07-2.47403E-19-2.06548E-18
 -1       373 9.52650E-05-2.85596E-05-2.85877E-05-6.12473E-08 6.77376E-20-2.82994E-18
 -1       374 9.52391E-05-2.85585E-05-2.85772E-05-3.02786E-08-1.51443E-21-2.35128E-18
 -1       375 9.52243E-05-2.85587E-05-2.85709E-05-9.54439E-09 1.71558E-18-4.37689E-21
 -1       376 9.52173E-05-2.85599E-05-2.85674E-05 3.88337E-09 9.62834E-19-1.91145E-18
 -1       377 9.52154E-05-2.85616E-05-2.85659E-05 1.18012E-08 2.53598E-18-2.46266E-18
 -1       378 9.52167E-05-2.85636E-05-2.85656E-05 1.64825E-08-1.83114E-19-2.28366E-18
 -1       379 9.52200E-05-2.85659E-05-2.85660E-05 1.83909E-08-8.78049E-19-5.59294E-19
 -1       380 9.52244E-05-2.85683E-05-2.85669E-05 1.81267E-08-8.85232E-19 1.14817E-18
 -1       381 9.52290E-05-2.85709E-05-2.85678E-05 1.60149E-08-5.24068E-19 6.15671E-19
 -1       382 9.52335E-05-2.85735E-05-2.85686E-05 1.21012E-08 5.53865E-19-9.58362E-19
 -1       383 9.59607E-05-2.77965E-05-2.91747E-05 1.67137E-06-3.71933E-20 2.72260E-18
 -1       384 7.06063E-05-4.46627E-05-1.10588E-05 5.05307E-05 3.59989E-21 2.08570E-18
 -1       385 9.51628E-05-2.80761E-05-2.87302E-05-2.52724E-09 1.31191E-21 2.36631E-18
 -1       386 9.49807E-05-2.83349E-05-2.85552E-05-8.06543E-07-3.45444E-19 2.04869E-18
 -1       387 9.51317E-05-2.85971E-05-2.85140E-05-1.02080E-06-3.44309E-19 1.93592E-18
 -1       388 9.54013E-05-2.88664E-05-2.85179E-05-7.80028E-07-2.84268E-19 1.67374E-18
 -1       389 9.55896E-05-2.90933E-05-2.85038E-05-1.47268E-07 2.42715E-19 2.12609E-18
 -1       390 9.55205E-05-2.92100E-05-2.84256E-05 8.16730E-07 4.24028E-19 2.34675E-18
 -1       391 9.50472E-05-2.91361E-05-2.82545E-05 2.00285E-06 4.60119E-20 2.47424E-18
 -1       392 9.40768E-05-2.87947E-05-2.79836E-05 3.21744E-06 1.28491E-19 2.48387E-18
 -1       393 9.26132E-05-2.81463E-05-2.76314E-05 4.17561E-06-1.23575E-19 2.57729E-18
 -1       394 9.08013E-05-2.72332E-05-2.72421E-05 4.54679E-06 4.52537E-19 2.22082E-18
 -1       395 8.89453E-05-2.62126E-05-2.68797E-05 4.06313E-06 1.90513E-19 2.40761E-18
 -1       396 8.74605E-05-2.53405E-05-2.66133E-05 2.65905E-06-1.34386E-19 2.47690E-18
 -1       397 8.67482E-05-2.48872E-05-2.64999E-05 5.63229E-07 3.33122E-19 2.50571E-18
 -1       398 8.70368E-05-2.50138E-05-2.65690E-05-1.73822E-06 6.41710E-19 2.47201E-18
 -1       399 8.82783E-05-2.56872E-05-2.68143E-05-3.68049E-06 7.19562E-19 2.50071E-18
 -1       400 9.01725E-05-2.66989E-05-2.71962E-05-4.84639E-06-2.80973E-19 1.51505E-18
 -1       401 9.23004E-05-2.77721E-05-2.76529E-05-5.10418E-06 2.58552E-19 1.36026E-18
 -1       402 9.42803E-05-2.86804E-05-2.81166E-05-4.59551E-06 8.51169E-21 1.02432E-18
 -1       403 9.58648E-05-2.93091E-05-2.85294E-05-3.61473E-06 8.83795E-19 1.46909E-18
 -1       404 9.69586E-05-2.96493E-05-2.88538E-05-2.47162E-06 5.76800E-19 1.27518E-18
 -1       405 9.75820E-05-2.97567E-05-2.90750E-05-1.40171E-06-1.11739E-18 1.70621E-18
 -1       406 9.78204E-05-2.97079E-05-2.91971E-05-5.37597E-07 8.35717E-20 2.85613E-18
 -1       407 9.77805E-05-2.95724E-05-2.92365E-05 7.74849E-08 4.37839E-19 2.84367E-18
 -1       408 9.75636E-05-2.94022E-05-2.92150E-05 4.59247E-07 2.22549E-19 3.29758E-18
 -1       409 9.72527E-05-2.92301E-05-2.91541E-05 6.52703E-07-1.15045E-18 2.82913E-18
 -1       410 9.69086E-05-2.90741E-05-2.90725E-05 7.10722E-07 1.53759E-20 4.02648E-18
 -1       411 9.65719E-05-2.89419E-05-2.89842E-05 6.81657E-07 3.00888E-19 4.04972E-18
 -1       412 9.62667E-05-2.88352E-05-2.88988E-05 6.03979E-07-6.89157E-19 2.59957E-18
 -1       413 9.60048E-05-2.87523E-05-2.88218E-05 5.05304E-07-3.49498E-19 2.02907E-18
 -1       414 9.57893E-05-2.86898E-05-2.87562E-05 4.03657E-07-9.39256E-20 2.54757E-18
 -1       415 9.56185E-05-2.86442E-05-2.87026E-05 3.09582E-07 1.00943E-18 3.02942E-18
 -1       416 9.54877E-05-2.86119E-05-2.86605E-05 2.28289E-07 2.05602E-18 3.24727E-18
 -1       417 9.53907E-05-2.85898E-05-2.86285E-05 1.61480E-07 3.15874E-19 3.37617E-18
 -1       418 9.53214E-05-2.85754E-05-2.86050E-05 1.08748E-07-2.08044E-18 2.31205E-18
 -1       419 9.52739E-05-2.85666E-05-2.85885E-05 6.85676E-08 5.88913E-19 8.00410E-19
 -1       420 9.52431E-05-2.85618E-05-2.85775E-05 3.89488E-08-4.32699E-19 1.74477E-19
 -1       421 9.52247E-05-2.85597E-05-2.85705E-05 1.78403E-08 4.39562E-19 1.21923E-18
 -1       422 9.52152E-05-2.85595E-05-2.85666E-05 3.35868E-09 1.34702E-18 2.25455E-18
 -1       423 9.52120E-05-2.85605E-05-2.85649E-05-6.09789E-09 1.39004E-18 1.79663E-18
 -1       424 9.52130E-05-2.85622E-05-2.85646E-05-1.18042E-08 1.57826E-18 1.13349E-18
 -1       425 9.52165E-05-2.85643E-05-2.85652E-05-1.47002E-08 2.13744E-20 1.80537E-18
 -1       426 9.52213E-05-2.85667E-05-2.85663E-05-1.53993E-08-1.09159E-18 2.65836E-19
 -1       427 9.52266E-05-2.85691E-05-2.85675E-05-1.42049E-08 1.28880E-18-1.79377E-19
 -1       428 9.52316E-05-2.85716E-05-2.85686E-05-1.11988E-08-6.50902E-19 6.19407E-19
 -1       429 9.52346E-05-2.85733E-05-2.85691E-05-8.66988E-09 2.04460E-20 1.66663E-18
 -1       430 9.52416E-05-2.85842E-05-2.85675E-05-1.48204E-08-6.18834E-19-1.74750E-18
 -1       431 9.52388E-05-2.85799E-05-2.85681E-05-1.46638E-08 6.89163E-19 1.46737E-18
 -1       432 9.52365E-05-2.85766E-05-2.85686E-05-1.24134E-08-3.93131E-19 1.18886E-18
 -1       433 9.52438E-05-2.85879E-05-2.85668E-05-1.31892E-08-2.27590E-18-6.72132E-18
 -1       434 9.52454E-05-2.85909E-05-2.85662E-05-1.03167E-08-2.62060E-18-1.25854E-18
 -1       435 9.52464E-05-2.85931E-05-2.85657E-05-6.66976E-09-1.94786E-18 1.39790E-18
 -1       436 9.52470E-05-2.85943E-05-2.85654E-05-2.57347E-09-2.47377E-18 2.15756E-18
 -1       437 9.52471E-05-2.85945E-05-2.85654E-05 1.73503E-09-2.89971E-18-6.62633E-19
 -1       438 9.52467E-05-2.85936E-05-2.85656E-05 6.03171E-09-2.50890E-18-3.53970E-18
 -1       439 9.52459E-05-2.85917E-05-2.85660E-05 9.96291E-09-6.14426E-19-5.56052E-18
 -1       440 9.52443E-05-2.85887E-05-2.85667E-05 1.32471E-08-5.78139E-19 2.99869E-18
 -1       441 9.52420E-05-2.85849E-05-2.85673E-05 1.52521E-08-1.02200E-18 3.33819E-18
 -1       442 9.52389E-05-2.85803E-05-2.85680E-05 1.53373E-08-2.18695E-18 1.25073E-18
 -1       443 1.01433E-04-5.20379E-05-2.12663E-05 4.61627E-05-1.61995E-20 3.37791E-18
 -1       444 1.19209E-05-1.95880E-05 3.45689E-06 7.69471E-06 2.13227E-19 4.38234E-19
 -1       445 8.92515E-05-1.12900E-05-3.34759E-05-9.02250E-06 5.87173E-19-5.60673E-19
 -1       446 1.36496E-04-5.14324E-05-3.64529E-05 3.16631E-05 1.76294E-18 2.08677E-18
 -1       447 1.57112E-04-3.91269E-05-5.05545E-05 9.53467E-06 2.24940E-18 8.44386E-19
 -1       448 1.64337E-04-2.23196E-05-6.07768E-05 2.31552E-06 3.38644E-18 8.02564E-19
 -1       449 1.58045E-04-9.09468E-06-6.39618E-05-6.35551E-07 3.55066E-18 9.32319E-19
 -1       450 1.61318E-04-1.35456E-05-6.33664E-05 1.66923E-06 2.14744E-18 1.44345E-18
 -1       451 1.61077E-04-3.10084E-05-5.57169E-05-4.93064E-06-2.14882E-19-3.88682E-19
 -1       452 1.50566E-04-4.53663E-05-4.49624E-05-2.26630E-05 1.70227E-19-3.23778E-19
 -1       453 1.29046E-04-5.50062E-05-3.17525E-05-3.38081E-05-6.10234E-19-1.23243E-19
 -1       454 8.46907E-05-4.94263E-05-1.50443E-05-4.93879E-05-1.19061E-18-2.53082E-18
 -1       455 4.09501E-05-3.36729E-05-3.05437E-06-4.31605E-05-7.85094E-19-7.93882E-19
 -1       456 1.70140E-05-2.17724E-05 2.25282E-06-2.31023E-05-6.25640E-19-9.87429E-19
 -1       457 1.43542E-05-2.59063E-05 4.66628E-06 1.09396E-05-5.86676E-19-3.78835E-19
 -1       458 4.15701E-05-3.82590E-05-1.77865E-06 3.35275E-05-2.27958E-19-9.92087E-20
 -1       459 8.36231E-05-5.38183E-05-1.31388E-05 4.03244E-05-1.11702E-19-3.99905E-19
 -1       460 1.39266E-04-7.01305E-05-2.97248E-05 2.27433E-05 3.47601E-19 7.75670E-19
 -1       461 1.72463E-04-6.11837E-05-4.75258E-05-1.45629E-06-2.16671E-18 1.23180E-18
 -1       462 1.83177E-04-4.44818E-05-5.91628E-05-1.07307E-05-1.60206E-18 3.98529E-19
 -1       463 1.81460E-04-2.63537E-05-6.58221E-05 9.01232E-06-9.01243E-19 7.69741E-20
 -1       464 1.82430E-04-4.21399E-05-5.96635E-05 1.52812E-05-2.72056E-18-6.83979E-20
 -1       465 1.38901E-04-6.78610E-05-3.06774E-05-2.35529E-05-2.65333E-19 2.16173E-18
 -1       466 9.43989E-05-5.72275E-05-1.61293E-05-3.82910E-05 4.43739E-19 3.32671E-18
 -1       467 4.63881E-05-4.02387E-05-3.02493E-06-3.43714E-05 2.08370E-19 3.12852E-18
 -1       468 1.89266E-05-2.93959E-05 4.04506E-06-1.66727E-05 3.16684E-19 2.27248E-18
 -1       469 3.06221E-05-3.01226E-05-2.94713E-07 3.80284E-05 1.38892E-18-1.06409E-19
 -1       470 1.66130E-04-5.01929E-05-5.00678E-05-2.54420E-05-1.48808E-18-3.90482E-19
 -1       471 2.49310E-05-1.59973E-05-3.29709E-06 2.55006E-05 9.91558E-20 1.17229E-18
 -1       472 1.18319E-04-5.99099E-05-2.49671E-05-3.88995E-05-1.13227E-18-3.41143E-19
 -1       473 1.67979E-04-6.80391E-05-4.25674E-05 3.68334E-06 1.84521E-19 1.45774E-18
 -1       474 1.73070E-04-5.97898E-05-4.86207E-05 7.96362E-06-8.77035E-19 1.13397E-18
 -1       475 8.74442E-05-1.13871E-05-3.26127E-05-3.36238E-06 7.68747E-19 6.63424E-20
 -1       476 8.86049E-05-1.25515E-05-3.26137E-05-4.64950E-06 6.74966E-19-3.09648E-19
 -1       477 8.70369E-05-1.10091E-05-3.25989E-05-6.23384E-07 8.48103E-19 5.01816E-19
 -1       478 8.75936E-05-1.15704E-05-3.25975E-05 9.49621E-07 8.23405E-19 6.34154E-19
 -1       479 8.85261E-05-1.25265E-05-3.25891E-05 2.65078E-06 8.32971E-19 7.72825E-19
 -1       480 8.98353E-05-1.39240E-05-3.25537E-05 4.49391E-06 8.95490E-19 1.09772E-18
 -1       481 9.15420E-05-1.58597E-05-3.24587E-05 6.32713E-06 6.93930E-19 1.33111E-18
 -1       482 9.37258E-05-1.85526E-05-3.22409E-05 7.85285E-06 5.31276E-19 1.66950E-18
 -1       483 9.62920E-05-2.22502E-05-3.17449E-05 8.31431E-06 2.01074E-19 2.17689E-18
 -1       484 9.74987E-05-2.50132E-05-3.10508E-05 6.97477E-06 7.47771E-20 2.54831E-18
 -1       485 9.63901E-05-2.38044E-05-3.10967E-05-3.32317E-06 6.00583E-20-4.03586E-19
 -1       486 1.27593E-04-5.98153E-05-2.90564E-05 3.16646E-05 1.41560E-19 1.46637E-18
 -1       487 5.96269E-05-3.23751E-05-1.10859E-05 4.66513E-05 4.14305E-19 4.00964E-19
 -1       488 9.62837E-05-2.52462E-05-3.04332E-05 5.18785E-07 9.07405E-20-2.94448E-19
 -1       489 9.59806E-05-2.56856E-05-3.01189E-05 3.50515E-06 1.63597E-19-2.45312E-19
 -1       490 9.56178E-05-2.55522E-05-3.00206E-05 6.31560E-06 1.21121E-19-2.20146E-19
 -1       491 9.51514E-05-2.49751E-05-3.00675E-05 9.13241E-06 1.43737E-19-2.14674E-19
 -1       492 9.44652E-05-2.40862E-05-3.01533E-05 1.22144E-05 8.87412E-20-1.00604E-19
 -1       493 9.34990E-05-2.31644E-05-3.01325E-05 1.57295E-05 3.54514E-19-3.50441E-19
 -1       494 9.24848E-05-2.29392E-05-2.97855E-05 1.97455E-05 1.65663E-19-1.27203E-19
 -1       495 9.23557E-05-2.47855E-05-2.89182E-05 2.39975E-05 2.66418E-19 1.39029E-19
 -1       496 9.58062E-05-3.17803E-05-2.73281E-05 2.83348E-05 2.68844E-19 1.87836E-19
 -1       497 1.07326E-04-4.70919E-05-2.55122E-05 3.10746E-05 4.89982E-19 3.41553E-19
 -1       498 2.39062E-05-1.42941E-05-3.49869E-06-1.04043E-05 3.20867E-19 1.54827E-18
 -1       499 9.67083E-05-2.68593E-05-2.99124E-05 2.95851E-06 1.63137E-19 2.44409E-18
 -1       500 1.17879E-04-5.09642E-05-2.84268E-05-2.59060E-05 9.01905E-19 8.20365E-19
 -1       501 1.03885E-04-3.52125E-05-2.93511E-05-2.61499E-05 3.36540E-19 7.06114E-19
 -1       502 9.84880E-05-2.74445E-05-3.04110E-05-2.29860E-05-5.12245E-19 1.34081E-18
 -1       503 9.72464E-05-2.50437E-05-3.09235E-05-1.90174E-05-3.08445E-19 3.02038E-19
 -1       504 9.71515E-05-2.48592E-05-3.09686E-05-1.49745E-05 2.81688E-19-2.93514E-19
 -1       505 9.72834E-05-2.55435E-05-3.07332E-05-1.14494E-05-4.52043E-19 4.34919E-19
 -1       506 9.72861E-05-2.63546E-05-3.03887E-05-8.58068E-06-1.17260E-18 8.64266E-19
 -1       507 9.71325E-05-2.70357E-05-3.00333E-05-6.34288E-06-9.40215E-20 7.97020E-21
 -1       508 9.68818E-05-2.75374E-05-2.97131E-05-4.64445E-06 1.83636E-18 2.96805E-19
 -1       509 9.65973E-05-2.78838E-05-2.94443E-05-3.37836E-06 1.15749E-18 1.51918E-18
 -1       510 9.63312E-05-2.81037E-05-2.92373E-05-2.48273E-06-8.22860E-19 2.87281E-18
 -1       511 9.60798E-05-2.82567E-05-2.90649E-05-1.78507E-06-1.39730E-18 8.83613E-19
 -1       512 9.58681E-05-2.83558E-05-2.89324E-05-1.27506E-06-9.95349E-19-1.30192E-18
 -1       513 9.56967E-05-2.84202E-05-2.88317E-05-9.02878E-07-1.18216E-18-2.02838E-18
 -1       514 9.55624E-05-2.84627E-05-2.87563E-05-6.31910E-07 7.48955E-19-1.25289E-18
 -1       515 9.54603E-05-2.84915E-05-2.87004E-05-4.35327E-07 5.01938E-19-7.42085E-19
 -1       516 9.53874E-05-2.85106E-05-2.86611E-05-2.99316E-07 2.79374E-19-9.66096E-19
 -1       517 9.53313E-05-2.85252E-05-2.86310E-05-1.95691E-07-4.10036E-19-1.97409E-18
 -1       518 9.52919E-05-2.85360E-05-2.86095E-05-1.22082E-07 3.84824E-19-1.52916E-18
 -1       519 9.52651E-05-2.85443E-05-2.85945E-05-7.04601E-08 2.47507E-19-7.89053E-19
 -1       520 9.52476E-05-2.85508E-05-2.85843E-05-3.48832E-08 2.02392E-18-9.94722E-19
 -1       521 9.52370E-05-2.85560E-05-2.85775E-05-1.09545E-08 1.60622E-18-3.39331E-19
 -1       522 9.52314E-05-2.85600E-05-2.85735E-05 3.96087E-09 8.43193E-19 1.92350E-19
 -1       523 9.52289E-05-2.85635E-05-2.85709E-05 1.37053E-08 8.26965E-19-1.65119E-18
 -1       524 9.52287E-05-2.85666E-05-2.85695E-05 1.89768E-08 1.35710E-18-5.19200E-19
 -1       525 9.52300E-05-2.85694E-05-2.85688E-05 2.09014E-08 2.97747E-19 1.95454E-18
 -1       526 9.52322E-05-2.85723E-05-2.85685E-05 2.01641E-08-1.59494E-18 2.31695E-18
 -1       527 9.52360E-05-2.85761E-05-2.85685E-05 1.85480E-08-2.40952E-18 1.99943E-18
 -1       528 9.63316E-05-2.79782E-05-2.92900E-05-7.99548E-08 1.26723E-19 1.80886E-18
 -1       529 9.63753E-05-2.74511E-05-2.95262E-05 1.15667E-06 1.89007E-19 2.00475E-18
 -1       530 9.65857E-05-2.92591E-05-2.88555E-05-1.13867E-06-1.38879E-19 1.02926E-18
 -1       531 9.69481E-05-2.98394E-05-2.87640E-05-6.94340E-07-3.02972E-19 8.12965E-19
 -1       532 9.73030E-05-3.03518E-05-2.86977E-05 2.85930E-07-2.24803E-19 1.20727E-18
 -1       533 9.74964E-05-3.06906E-05-2.86359E-05 1.70211E-06 9.73993E-20 1.69391E-18
 -1       534 9.73598E-05-3.06999E-05-2.85729E-05 3.36527E-06 3.60961E-19 1.46414E-18
 -1       535 9.67463E-05-3.02179E-05-2.85148E-05 4.95330E-06 2.75775E-19 9.56288E-19
 -1       536 9.56011E-05-2.91626E-05-2.84735E-05 6.01663E-06-6.41727E-21 7.09206E-19
 -1       537 9.40514E-05-2.76413E-05-2.84579E-05 6.07480E-06 2.68255E-19 7.42326E-19
 -1       538 9.24509E-05-2.60114E-05-2.84678E-05 4.81519E-06-2.67207E-19 1.43372E-18
 -1       539 9.12990E-05-2.47991E-05-2.84922E-05 2.31196E-06-2.08725E-19 1.77323E-18
 -1       540 9.10278E-05-2.44678E-05-2.85176E-05-8.92737E-07 4.85135E-19 1.62382E-18
 -1       541 9.17646E-05-2.51548E-05-2.85396E-05-3.95704E-06 7.88869E-19 1.60200E-18
 -1       542 9.32565E-05-2.65861E-05-2.85673E-05-6.11005E-06 5.33847E-19 1.67863E-18
 -1       543 9.50209E-05-2.82459E-05-2.86152E-05-6.96676E-06-4.87342E-19 1.80969E-18
 -1       544 9.65935E-05-2.96513E-05-2.86901E-05-6.60575E-06 6.61321E-19 1.68121E-18
 -1       545 9.77012E-05-3.05401E-05-2.87865E-05-5.41341E-06 5.57273E-19 1.04075E-18
 -1       546 9.82852E-05-3.08887E-05-2.88889E-05-3.85530E-06 6.08995E-19 1.76664E-18
 -1       547 9.84292E-05-3.08228E-05-2.89790E-05-2.31137E-06-3.54593E-19 2.16958E-18
 -1       548 9.82709E-05-3.05133E-05-2.90432E-05-1.01229E-06-1.00346E-18 8.98995E-19
 -1       549 9.79417E-05-3.01080E-05-2.90749E-05-5.08597E-08 5.03527E-19 1.26541E-18
 -1       550 9.75411E-05-2.97058E-05-2.90745E-05 5.75285E-07-1.17180E-19 1.40489E-18
 -1       551 9.71334E-05-2.93587E-05-2.90476E-05 9.19411E-07-7.40320E-19 2.67824E-18
 -1       552 9.67553E-05-2.90854E-05-2.90019E-05 1.05262E-06-8.10984E-19 1.31889E-18
 -1       553 9.64238E-05-2.88844E-05-2.89455E-05 1.04389E-06-1.08996E-19 1.31875E-18
 -1       554 9.61444E-05-2.87448E-05-2.88853E-05 9.50534E-07 6.94723E-19 1.95881E-18
 -1       555 9.59158E-05-2.86530E-05-2.88265E-05 8.15366E-07-2.40857E-19 1.52129E-18
 -1       556 9.57331E-05-2.85960E-05-2.87726E-05 6.67636E-07-8.58365E-19 1.18794E-18
 -1       557 9.55904E-05-2.85632E-05-2.87255E-05 5.25496E-07 2.73031E-19 2.36308E-18
 -1       558 9.54811E-05-2.85463E-05-2.86860E-05 3.98849E-07 1.18199E-18 2.60678E-18
 -1       559 9.53993E-05-2.85395E-05-2.86539E-05 2.91927E-07 7.74723E-19 3.58321E-18
 -1       560 9.53395E-05-2.85386E-05-2.86287E-05 2.05355E-07 4.75637E-19 2.49253E-18
 -1       561 9.52969E-05-2.85409E-05-2.86095E-05 1.37684E-07 7.88430E-19 4.63921E-19
 -1       562 9.52675E-05-2.85448E-05-2.85953E-05 8.64382E-08 5.85022E-19 6.02895E-19
 -1       563 9.52482E-05-2.85492E-05-2.85852E-05 4.88084E-08-5.15889E-19 4.80771E-19
 -1       564 9.52363E-05-2.85536E-05-2.85782E-05 2.20597E-08-1.04314E-20 1.50871E-19
 -1       565 9.52298E-05-2.85576E-05-2.85737E-05 3.75951E-09 7.53233E-19 1.24148E-18
 -1       566 9.52270E-05-2.85613E-05-2.85710E-05-8.11734E-09 9.47555E-19 2.60726E-18
 -1       567 9.52267E-05-2.85646E-05-2.85695E-05-1.51561E-08 1.04323E-18 3.98814E-18
 -1       568 9.52281E-05-2.85676E-05-2.85688E-05-1.85123E-08-1.59829E-20 3.13796E-18
 -1       569 9.52304E-05-2.85705E-05-2.85685E-05-1.89945E-08 3.29461E-19 2.22770E-18
 -1       570 9.52334E-05-2.85736E-05-2.85685E-05-1.70211E-08 3.64084E-20 4.04491E-18
 -1       571 9.52445E-05-2.85825E-05-2.85694E-05-1.41303E-08 6.81516E-19-2.62346E-18
 -1       572 9.52459E-05-2.85838E-05-2.85695E-05-1.01742E-08 7.42015E-19 4.83469E-21
 -1       573 9.52391E-05-2.85781E-05-2.85690E-05-1.83950E-08 1.23969E-18 1.06863E-19
 -1       574 9.52423E-05-2.85806E-05-2.85693E-05-1.70278E-08 1.54395E-19-6.12903E-18
 -1       575 9.52468E-05-2.85846E-05-2.85695E-05-5.58549E-09-1.17109E-18 5.09975E-19
 -1       576 9.52472E-05-2.85851E-05-2.85695E-05-6.36177E-10-3.54449E-18 1.61343E-18
 -1       577 9.52472E-05-2.85851E-05-2.85695E-05 4.45727E-09-1.03065E-18-3.84438E-21
 -1       578 9.52467E-05-2.85846E-05-2.85694E-05 9.36440E-09-1.77308E-19-3.34053E-18
 -1       579 9.52454E-05-2.85835E-05-2.85694E-05 1.38758E-08 1.17784E-18-3.38804E-18
 -1       580 9.52431E-05-2.85816E-05-2.85692E-05 1.73541E-08-4.85640E-19 1.06664E-18
 -1       581 9.52400E-05-2.85793E-05-2.85689E-05 1.89450E-08-2.78360E-18 2.17725E-18
 -1       582 1.03919E-04-5.39847E-05-2.11717E-05 4.40960E-05-5.49777E-19 2.87804E-18
 -1       583 1.47739E-04-4.41807E-05-4.48083E-05 1.39928E-06-7.86602E-19 9.89546E-19
 -1       584 9.52703E-05-2.03235E-05-3.21379E-05-7.39769E-06 9.20950E-20-4.82930E-19
 -1       585 7.30900E-05-4.09097E-05-1.33121E-05-4.81564E-05-9.64506E-19-1.49030E-18
 -1       586 1.38045E-04-1.06197E-05-5.52401E-05-7.76860E-06 3.01364E-18 5.15102E-20
 -1       587 9.63459E-05-2.86511E-05-2.90106E-05-9.73864E-07-1.29321E-19 1.34207E-18
 -1       588 1.40814E-04-1.88870E-05-5.28181E-05 1.01769E-05 1.02110E-18 2.24490E-18
 -1       589 8.69538E-05-1.09156E-05-3.26035E-05-2.04483E-06 8.02975E-19 2.93912E-19
 -1       590 1.44045E-04-2.67974E-05-5.08240E-05-8.29525E-06 1.74621E-18-9.77423E-19
 -1       591 1.34534E-04-5.71004E-06-5.58911E-05 3.38811E-06 2.04283E-18 2.14792E-18
 -1       592 3.64262E-05-2.19277E-05-5.70060E-06 2.69678E-05 3.89582E-19 6.98485E-19
 -1       593 1.45732E-04-5.21965E-05-4.03122E-05 8.87074E-06 9.61687E-19-5.42525E-19
 -1       594 1.42965E-04-5.77724E-05-3.66307E-05-1.32336E-05-7.87754E-19 9.97381E-19
 -1       595 3.93782E-05-2.03673E-05-7.48766E-06-3.47930E-05-4.43766E-19-8.20510E-19
 -1       596 2.31708E-05-1.06385E-05-4.65431E-06-2.12776E-06-5.72538E-20-3.01650E-19
 -1       597 7.41803E-05-4.23484E-05-1.32172E-05 3.99279E-05 8.08811E-19 1.38437E-19
 -1       598 1.14121E-04-5.91461E-05-2.33147E-05 3.21772E-05 1.10591E-18 6.68918E-19
 -1       599 1.28404E-04-6.49093E-05-2.70464E-05-2.56606E-05 1.15721E-18 1.54462E-18
 -1       600 7.93218E-05-4.52693E-05-1.42843E-05-3.93005E-05 1.25070E-18 2.22711E-18
 -1       601 4.16547E-05-2.54047E-05-6.47510E-06-2.96878E-05 1.13047E-18 2.82422E-18
 -1       602 9.04781E-05-1.45306E-05-3.25706E-05-5.91152E-06 5.36580E-19-4.44503E-19
 -1       603 2.67857E-05-9.36560E-06-6.83774E-06 7.33839E-06-9.75755E-19 5.07373E-19
 -1       604 8.82364E-05-4.43440E-05-1.84779E-05 4.42769E-05-1.79280E-19 1.71994E-18
 -1       605 9.26628E-05-1.70243E-05-3.24369E-05-6.84780E-06 4.26206E-19-4.08650E-19
 -1       606 1.40298E-04-4.05371E-05-4.31512E-05-7.18850E-06 8.66488E-19-1.38866E-18
 -1       607 1.01594E-04-5.23398E-05-2.08958E-05-4.22605E-05-1.73697E-18-6.93985E-19
 -1       608 9.00171E-05-1.55178E-05-3.19334E-05 8.07986E-07 7.14221E-19 7.36588E-19
 -1       609 8.90949E-05-1.45482E-05-3.19533E-05-4.50423E-07 6.27566E-19 5.20209E-19
 -1       610 9.27420E-05-1.86771E-05-3.17481E-05 3.54003E-06 7.03358E-19 9.82421E-19
 -1       611 9.44210E-05-2.09330E-05-3.14987E-05 4.59356E-06 4.33519E-19 1.40361E-18
 -1       612 9.60402E-05-2.36230E-05-3.10358E-05 4.88803E-06 2.50338E-19 1.63376E-18
 -1       613 9.66808E-05-2.54199E-05-3.05200E-05 4.08732E-06 2.21486E-19 1.88597E-18
 -1       614 9.44176E-05-2.31372E-05-3.05456E-05 1.35499E-06 1.83062E-19-1.09335E-19
 -1       615 9.36462E-05-2.33649E-05-3.01188E-05 4.14574E-06 1.44592E-19-9.19408E-20
 -1       616 9.22519E-05-2.27326E-05-2.97921E-05 6.66579E-06 4.58547E-20 7.26121E-20
 -1       617 9.01227E-05-2.14126E-05-2.94452E-05 9.09952E-06 1.90603E-19 1.89739E-20
 -1       618 8.70486E-05-1.95754E-05-2.89143E-05 1.16319E-05 3.92171E-19 5.71556E-19
 -1       619 8.28437E-05-1.76093E-05-2.79450E-05 1.44970E-05 3.70632E-19 5.68193E-19
 -1       620 7.78209E-05-1.63979E-05-2.62756E-05 1.80138E-05 5.32230E-19 6.37104E-19
 -1       621 7.24066E-05-1.74053E-05-2.33806E-05 2.33037E-05 1.62195E-19 5.77584E-19
 -1       622 7.84318E-05-2.04268E-05-2.46822E-05-2.44556E-05-6.66312E-19 2.17412E-18
 -1       623 8.14600E-05-1.82827E-05-2.70299E-05-1.90717E-05-7.63785E-19 1.25490E-18
 -1       624 8.54728E-05-1.88859E-05-2.85249E-05-1.48916E-05-1.01167E-18 1.38794E-18
 -1       625 8.88874E-05-2.06740E-05-2.92291E-05-1.16979E-05-1.65066E-19 7.11149E-19
 -1       626 9.13865E-05-2.25757E-05-2.94867E-05-9.12879E-06-9.70132E-19 1.77514E-19
 -1       627 9.30646E-05-2.42004E-05-2.95103E-05-7.04690E-06-9.93675E-19 1.20509E-18
 -1       628 9.41196E-05-2.54581E-05-2.94241E-05-5.37888E-06 3.89250E-19 1.62939E-18
 -1       629 9.47450E-05-2.63812E-05-2.92972E-05-4.06508E-06 2.13397E-18 1.62173E-18
 -1       630 9.50790E-05-2.70105E-05-2.91710E-05-3.08725E-06 1.13223E-18 4.36502E-19
 -1       631 9.52604E-05-2.74792E-05-2.90483E-05-2.29060E-06-1.30694E-18 1.01371E-18
 -1       632 9.53399E-05-2.78052E-05-2.89429E-05-1.68464E-06-2.93711E-18 1.84629E-18
 -1       633 9.53630E-05-2.80317E-05-2.88559E-05-1.22657E-06-1.40583E-18-4.64793E-19
 -1       634 9.53575E-05-2.81896E-05-2.87859E-05-8.82609E-07-2.20554E-19-3.79232E-19
 -1       635 9.53399E-05-2.83006E-05-2.87309E-05-6.26157E-07 9.04150E-19-3.32532E-19
 -1       636 9.53196E-05-2.83757E-05-2.86901E-05-4.44170E-07 1.07983E-18-4.28768E-19
 -1       637 9.52991E-05-2.84326E-05-2.86570E-05-3.02237E-07 5.52635E-20-1.11215E-18
 -1       638 9.52816E-05-2.84734E-05-2.86320E-05-1.99027E-07 5.34422E-19-6.16494E-19
 -1       639 9.52676E-05-2.85028E-05-2.86134E-05-1.24849E-07 5.14197E-19 2.30926E-19
 -1       640 9.52570E-05-2.85241E-05-2.85998E-05-7.23415E-08 3.08662E-19 1.60698E-18
 -1       641 9.52493E-05-2.85394E-05-2.85899E-05-3.59089E-08 1.12769E-18-2.47589E-18
 -1       642 9.52442E-05-2.85500E-05-2.85832E-05-1.22620E-08 2.72703E-18-2.71373E-18
 -1       643 9.52407E-05-2.85582E-05-2.85782E-05 4.13510E-09 2.11377E-18 5.61346E-19
 -1       644 9.52386E-05-2.85642E-05-2.85747E-05 1.41295E-08 7.36597E-19 7.96105E-19
 -1       645 9.52376E-05-2.85690E-05-2.85723E-05 1.93999E-08 2.36470E-18 7.55606E-19
 -1       646 9.52376E-05-2.85730E-05-2.85706E-05 2.10563E-08-1.05458E-18 2.04885E-18
 -1       647 9.52388E-05-2.85760E-05-2.85698E-05 2.05030E-08-3.10851E-18 2.26051E-18
 -1       648 9.95483E-05-3.20965E-05-2.89097E-05 5.54611E-07-3.97443E-19 5.20711E-19
 -1       649 9.79567E-05-3.01426E-05-2.90640E-05-1.32843E-06 5.71047E-20 8.47501E-19
 -1       650 1.00240E-04-3.26893E-05-2.89520E-05 2.34004E-06 3.45830E-19 5.46418E-19
 -1       651 1.00538E-04-3.26685E-05-2.90878E-05 4.40606E-06 4.35828E-19 1.04786E-18
 -1       652 1.00174E-04-3.17472E-05-2.93256E-05 6.30019E-06 2.85837E-19 9.20409E-19
 -1       653 9.90190E-05-2.98280E-05-2.96514E-05 7.37229E-06 3.42975E-19 8.25259E-19
 -1       654 9.72686E-05-2.72258E-05-3.00151E-05 6.95190E-06-5.37993E-19 1.14446E-18
 -1       655 9.55116E-05-2.47285E-05-3.03334E-05 4.70925E-06-5.99603E-19 1.27622E-18
 -1       656 9.45066E-05-2.33094E-05-3.05123E-05 9.93378E-07 1.37634E-19 1.19865E-18
 -1       657 9.47597E-05-2.36109E-05-3.04911E-05-3.15285E-06 8.27407E-19 9.75065E-19
 -1       658 9.61444E-05-2.54749E-05-3.02836E-05-6.47027E-06 6.64303E-19 1.23942E-18
 -1       659 9.80169E-05-2.80876E-05-2.99668E-05-8.13255E-06 3.05340E-19 1.17980E-18
 -1       660 9.96307E-05-3.04837E-05-2.96328E-05-8.05291E-06 2.35442E-19 2.46464E-19
 -1       661 1.00537E-04-3.20477E-05-2.93525E-05-6.71966E-06 2.55593E-19 1.14297E-18
 -1       662 1.00674E-04-3.26453E-05-2.91565E-05-4.80169E-06 3.77602E-19 1.91940E-18
 -1       663 1.00233E-04-3.24755E-05-2.90406E-05-2.85486E-06 4.93138E-19 2.21467E-18
 -1       664 9.94787E-05-3.18561E-05-2.89828E-05-1.20947E-06 1.05115E-19 2.04814E-18
 -1       665 9.86354E-05-3.10705E-05-2.89578E-05 6.57864E-09-2.48064E-19 1.72183E-18
 -1       666 9.78449E-05-3.03095E-05-2.89447E-05 7.97135E-07-4.92271E-19 2.56730E-18
 -1       667 9.71752E-05-2.96714E-05-2.89308E-05 1.23200E-06-7.32681E-19 2.80742E-18
 -1       668 9.66437E-05-2.91877E-05-2.89100E-05 1.40173E-06-1.33494E-19 1.84189E-18
 -1       669 9.62403E-05-2.88505E-05-2.88814E-05 1.39268E-06 5.90460E-20 1.15216E-18
 -1       670 9.59435E-05-2.86342E-05-2.88468E-05 1.27597E-06 3.36266E-19 8.82987E-19
 -1       671 9.57295E-05-2.85086E-05-2.88089E-05 1.10472E-06 5.42071E-19 5.08447E-19
 -1       672 9.55774E-05-2.84460E-05-2.87705E-05 9.15464E-07-1.86318E-19 4.32323E-19
 -1       673 9.54702E-05-2.84241E-05-2.87339E-05 7.31267E-07-4.44630E-19 4.97770E-19
 -1       674 9.53951E-05-2.84265E-05-2.87007E-05 5.65090E-07-1.59349E-19 1.38424E-18
 -1       675 9.53426E-05-2.84416E-05-2.86718E-05 4.22876E-07 8.04394E-19 1.20085E-18
 -1       676 9.53061E-05-2.84620E-05-2.86474E-05 3.06007E-07 1.05479E-18 9.75731E-19
 -1       677 9.52808E-05-2.84833E-05-2.86274E-05 2.13145E-07 1.45067E-18 1.71730E-18
 -1       678 9.52636E-05-2.85030E-05-2.86116E-05 1.41527E-07 7.15667E-19 1.24994E-18
 -1       679 9.52519E-05-2.85201E-05-2.85993E-05 8.78271E-08-2.10978E-20 1.35457E-18
 -1       680 9.52443E-05-2.85341E-05-2.85901E-05 4.86971E-08-1.84343E-19 1.13495E-18
 -1       681 9.52395E-05-2.85453E-05-2.85832E-05 2.10707E-08 5.90852E-19 1.46984E-18
 -1       682 9.52368E-05-2.85539E-05-2.85784E-05 2.31870E-09 3.88620E-19 1.24442E-18
 -1       683 9.52355E-05-2.85607E-05-2.85749E-05-9.69423E-09-9.91787E-19 8.97226E-19
 -1       684 9.52352E-05-2.85660E-05-2.85725E-05-1.66071E-08 8.77606E-19 2.60187E-18
 -1       685 9.52357E-05-2.85705E-05-2.85708E-05-1.96081E-08 3.31873E-19 3.04230E-18
 -1       686 9.52375E-05-2.85741E-05-2.85700E-05-1.97773E-08-1.77324E-18 2.46388E-18
 -1       687 1.29380E-04-5.99277E-05-2.97235E-05-2.24878E-05-1.05723E-18 9.66147E-20
 -1       688 9.52474E-05-2.85758E-05-2.85735E-05-3.37765E-09-3.03588E-19-9.50245E-19
 -1       689 9.52456E-05-2.85757E-05-2.85728E-05-1.25368E-08 1.39342E-18-1.20054E-18
 -1       690 9.52477E-05-2.85761E-05-2.85736E-05 1.64076E-09-8.73412E-19 2.23886E-18
 -1       691 9.52467E-05-2.85757E-05-2.85733E-05-8.15053E-09 5.79568E-19-1.25503E-18
 -1       692 9.52477E-05-2.85766E-05-2.85733E-05 6.70359E-09-1.10746E-19-7.39582E-19
 -1       693 9.52470E-05-2.85770E-05-2.85728E-05 1.17789E-08 1.01116E-18-2.93398E-18
 -1       694 9.52451E-05-2.85770E-05-2.85721E-05 1.62917E-08 6.00335E-19-2.69451E-18
 -1       695 1.18510E-04-5.71070E-05-2.61812E-05 3.18037E-05-9.31154E-19 1.68030E-18
 -1       696 9.43494E-05-2.08044E-05-3.15136E-05-3.61802E-06 2.10958E-19-1.39466E-19
 -1       697 1.24051E-04-1.16516E-05-4.86724E-05 9.67061E-06 1.40666E-18 2.21373E-18
 -1       698 1.19315E-04-7.07403E-06-4.86427E-05-3.89201E-06 1.46240E-18 6.43722E-19
 -1       699 4.51624E-05-1.37676E-05-1.29581E-05-2.01936E-05-2.43509E-19 1.53975E-18
 -1       700 6.99322E-05-2.98946E-05-1.66801E-05-3.36691E-05 4.39319E-19 2.96946E-18
 -1       701 9.87246E-05-3.11812E-05-2.89486E-05-7.03544E-07-2.24704E-19 6.93619E-19
 -1       702 9.46482E-05-2.24030E-05-3.09658E-05-1.01174E-06 1.31201E-19 5.94453E-21
 -1       703 6.51677E-05-2.91160E-05-1.50282E-05-3.98366E-05-5.04567E-19-6.91708E-19
 -1       704 1.35247E-04-5.75409E-05-3.33695E-05 1.29710E-05 1.17731E-19-1.41462E-18
 -1       705 4.79281E-05-1.72975E-05-1.24786E-05 3.22516E-05-4.89545E-19 9.56935E-19
 -1       706 9.12554E-05-1.68921E-05-3.18756E-05 2.18971E-06 8.04648E-19 1.01543E-18
 -1       707 8.94159E-05-1.49410E-05-3.19232E-05-2.92867E-06 6.03244E-19 2.88337E-20
 -1       708 1.34092E-04-3.23993E-05-4.40130E-05 1.21785E-05-1.87724E-19 2.06417E-18
 -1       709 1.38551E-04-4.66008E-05-3.96723E-05 4.60676E-06-6.65834E-19 7.59709E-19
 -1       710 4.00545E-05-1.00471E-05-1.23142E-05-1.59510E-05 3.98291E-19-3.01544E-19
 -1       711 4.01911E-05-1.17384E-05-1.16038E-05 1.59723E-05 5.24671E-19 6.74397E-19
 -1       712 6.51683E-05-2.71849E-05-1.57514E-05 3.35465E-05 5.91573E-19 6.33157E-19
 -1       713 1.29311E-04-1.86345E-05-4.79574E-05-1.22531E-05 1.62741E-18-7.26595E-19
 -1       714 8.86653E-05-1.41361E-05-3.19462E-05-2.30610E-06 7.32374E-19 2.05341E-19
 -1       715 5.68742E-05-1.71589E-05-1.66741E-05-2.61354E-05 1.60672E-19-4.52514E-19
 -1       716 9.73465E-05-2.90581E-05-2.92665E-05-1.27305E-06 1.14964E-20 1.06232E-18
 -1       717 6.91518E-05-2.85536E-05-1.71076E-05 3.80009E-05 5.81885E-19 1.12785E-18
 -1       718 1.34515E-04-4.94337E-05-3.66534E-05-1.75771E-06-1.08844E-19-1.36609E-18
 -1       719 9.65715E-05-2.64358E-05-3.00508E-05 1.23298E-06 2.18130E-19 1.64501E-18
 -1       720 9.52416E-05-2.85756E-05-2.85711E-05-1.82748E-08-9.01854E-20-4.12769E-18
 -1       721 4.18556E-05-8.72731E-06-1.36103E-05-7.01553E-06-8.03561E-19 1.14032E-19
 -1       722 9.52424E-05-2.85769E-05-2.85709E-05 1.90828E-08-1.41249E-18-1.74623E-18
 -1       723 8.76245E-05-4.06018E-05-1.99116E-05-3.92451E-05-1.02753E-18-5.10245E-19
 -1       724 1.29703E-04-3.07104E-05-4.27382E-05-1.27076E-05 9.63394E-19-4.95051E-19
 -1       725 9.52440E-05-2.85759E-05-2.85720E-05-1.57640E-08 1.76003E-18-5.61663E-18
 -1       726 1.33493E-04-5.47658E-05-3.38370E-05-4.79517E-06-3.46680E-19 6.03577E-19
 -1       727 9.69163E-05-2.78856E-05-2.95829E-05-4.87506E-07 2.59437E-19 1.36240E-18
 -1       728 8.86016E-05-1.40520E-05-3.19547E-05-1.49258E-06 7.27407E-19 3.11170E-19
 -1       729 9.09453E-05-1.66221E-05-3.18549E-05-3.40545E-06 5.61937E-19-3.41344E-19
 -1       730 4.50566E-05-7.76646E-06-1.56110E-05-5.73993E-08 6.19525E-19 1.06673E-20
 -1       731 9.60942E-05-2.47308E-05-3.05820E-05 2.38972E-06 2.62751E-19 1.43514E-18
 -1       732 9.49849E-05-2.27484E-05-3.09577E-05 2.03041E-06 4.27681E-19 1.02759E-18
 -1       733 9.21842E-05-2.12572E-05-3.03976E-05 1.59122E-06 2.18401E-20 1.38208E-20
 -1       734 9.07671E-05-2.11419E-05-2.98395E-05 3.57417E-06 1.87295E-19 3.03649E-19
 -1       735 8.83287E-05-2.00810E-05-2.92494E-05 5.16735E-06 2.66850E-19 6.76078E-19
 -1       736 8.46631E-05-1.82126E-05-2.84799E-05 6.39299E-06 4.88612E-19 5.77522E-19
 -1       737 7.94150E-05-1.57047E-05-2.73025E-05 7.31760E-06 3.47189E-19 3.22425E-19
 -1       738 7.25120E-05-1.30129E-05-2.54786E-05 8.12089E-06 2.41396E-19 4.73256E-19
 -1       739 6.26146E-05-1.00743E-05-2.23472E-05 9.66884E-06 4.39187E-19 2.61796E-19
 -1       740 9.25575E-05-1.85082E-05-3.17324E-05-3.61176E-06 4.01126E-19-2.39383E-19
 -1       741 7.30532E-05-1.32627E-05-2.55956E-05-9.79386E-06-1.03241E-18 1.13592E-18
 -1       742 7.99256E-05-1.60881E-05-2.73552E-05-8.23689E-06-7.03354E-19 6.60407E-19
 -1       743 8.48847E-05-1.88722E-05-2.82910E-05-6.99284E-06-2.60658E-19 4.02831E-19
 -1       744 8.83705E-05-2.12677E-05-2.87583E-05-5.86236E-06-4.81424E-19 1.86286E-18
 -1       745 9.07628E-05-2.31847E-05-2.89618E-05-4.81667E-06-7.40889E-20 2.40946E-18
 -1       746 9.23679E-05-2.46495E-05-2.90219E-05-3.87922E-06 8.06028E-19 1.88529E-18
 -1       747 9.33830E-05-2.56913E-05-2.90104E-05-3.10264E-06 1.30711E-18 6.13039E-19
 -1       748 9.40829E-05-2.64987E-05-2.89645E-05-2.41208E-06-1.59221E-19 5.01162E-19
 -1       749 9.45301E-05-2.70819E-05-2.89062E-05-1.84747E-06-1.68086E-18-5.50740E-19
 -1       750 9.48120E-05-2.75015E-05-2.88473E-05-1.39428E-06-1.04070E-18 1.14796E-18
 -1       751 9.49877E-05-2.78033E-05-2.87932E-05-1.03668E-06-9.53450E-19 2.16302E-18
 -1       752 9.50958E-05-2.80207E-05-2.87464E-05-7.58813E-07 1.04667E-19 5.08852E-19
 -1       753 9.51588E-05-2.81711E-05-2.87090E-05-5.54592E-07 9.67375E-19-1.29693E-18
 -1       754 9.51989E-05-2.82868E-05-2.86766E-05-3.90341E-07 1.02447E-18-2.19000E-18
 -1       755 9.52222E-05-2.83706E-05-2.86507E-05-2.67536E-07 1.42416E-18 4.37733E-19
 -1       756 9.52353E-05-2.84314E-05-2.86302E-05-1.76897E-07 1.82391E-18 1.44996E-18
 -1       757 9.52421E-05-2.84754E-05-2.86143E-05-1.11034E-07 7.68988E-19 4.36443E-20
 -1       758 9.52452E-05-2.85070E-05-2.86021E-05-6.40673E-08-1.89564E-19-9.99921E-20
 -1       759 9.52461E-05-2.85286E-05-2.85932E-05-3.26165E-08 2.75643E-18 9.26335E-19
 -1       760 9.52459E-05-2.85449E-05-2.85861E-05-9.91590E-09 3.85255E-18 2.35954E-18
 -1       761 9.52449E-05-2.85565E-05-2.85808E-05 4.81084E-09 1.70279E-18 1.94280E-18
 -1       762 9.52438E-05-2.85649E-05-2.85767E-05 1.36844E-08 3.17650E-19 8.20324E-19
 -1       763 9.52429E-05-2.85713E-05-2.85735E-05 1.82144E-08 1.22885E-18-3.30707E-18
 -1       764 1.12512E-04-5.25971E-05-2.55563E-05-2.97610E-05-1.13217E-18-5.09762E-19
 -1       765 1.02259E-04-3.42662E-05-2.91402E-05 3.72605E-07 2.11188E-19 1.56234E-19
 -1       766 1.04140E-04-3.31333E-05-3.04310E-05 7.44115E-06 2.97502E-20 1.47745E-18
 -1       767 1.02618E-04-2.97995E-05-3.12067E-05 8.53473E-06-3.88868E-19 1.60190E-18
 -1       768 1.00270E-04-2.56509E-05-3.19780E-05 7.41311E-06 1.30783E-19 1.59938E-18
 -1       769 9.81798E-05-2.22610E-05-3.25405E-05 3.83050E-06 1.83469E-19 3.39513E-19
 -1       770 9.75594E-05-2.12759E-05-3.26992E-05-1.31802E-06 2.65337E-19 3.23653E-19
 -1       771 9.87723E-05-2.31884E-05-3.23912E-05-6.09953E-06 3.74937E-19 2.69392E-19
 -1       772 1.01034E-04-2.69571E-05-3.17455E-05-8.90681E-06 3.67335E-19 8.47216E-19
 -1       773 1.03117E-04-3.08793E-05-3.09565E-05-9.22091E-06 9.05362E-20 1.45591E-18
 -1       774 1.04131E-04-3.36223E-05-3.02159E-05-7.66047E-06-5.80534E-19 2.51859E-18
 -1       775 1.03926E-04-3.47791E-05-2.96347E-05-5.25434E-06-6.28548E-19 2.53221E-18
 -1       776 1.02830E-04-3.46107E-05-2.92378E-05-2.83983E-06-2.57977E-19 3.12346E-18
 -1       777 1.01319E-04-3.36530E-05-2.90006E-05-8.74676E-07 9.06086E-19 3.39572E-18
 -1       778 9.97770E-05-3.23963E-05-2.88781E-05 5.04615E-07 2.73450E-19 3.19329E-18
 -1       779 9.84276E-05-3.11701E-05-2.88251E-05 1.34243E-06-1.83005E-19 2.62975E-18
 -1       780 9.73601E-05-3.01440E-05-2.88072E-05 1.75575E-06-9.45690E-19 1.11075E-18
 -1       781 9.65763E-05-2.93719E-05-2.88020E-05 1.87089E-06-3.51213E-19 1.26067E-18
 -1       782 9.60349E-05-2.88415E-05-2.87972E-05 1.79623E-06-8.63687E-20 2.14584E-18
 -1       783 9.56813E-05-2.85103E-05-2.87876E-05 1.61453E-06 9.74553E-19 1.72337E-18
 -1       784 9.54628E-05-2.83278E-05-2.87721E-05 1.38411E-06 8.71468E-19 2.61812E-19
 -1       785 9.53358E-05-2.82481E-05-2.87519E-05 1.14318E-06 3.01506E-19 2.38173E-19
 -1       786 9.52677E-05-2.82336E-05-2.87288E-05 9.14869E-07-4.23864E-19 4.19069E-20
 -1       787 9.52351E-05-2.82568E-05-2.87050E-05 7.11548E-07-8.87696E-19-3.52708E-19
 -1       788 9.52228E-05-2.82985E-05-2.86818E-05 5.38380E-07 2.09781E-19-8.22392E-19
 -1       789 9.52211E-05-2.83464E-05-2.86605E-05 3.95969E-07-3.17978E-19-2.39951E-19
 -1       790 9.52239E-05-2.83932E-05-2.86417E-05 2.82253E-07 5.73961E-19 1.34792E-18
 -1       791 9.52283E-05-2.84352E-05-2.86256E-05 1.93807E-07 8.69767E-19 2.75694E-18
 -1       792 9.52325E-05-2.84705E-05-2.86123E-05 1.26704E-07 1.06362E-20 1.94619E-18
 -1       793 9.52358E-05-2.84991E-05-2.86014E-05 7.70433E-08 3.32400E-19 1.64152E-18
 -1       794 9.52381E-05-2.85214E-05-2.85929E-05 4.12583E-08-2.26955E-19 3.79305E-19
 -1       795 9.52395E-05-2.85384E-05-2.85862E-05 1.62673E-08 1.89806E-19 7.73678E-20
 -1       796 9.52401E-05-2.85510E-05-2.85810E-05-4.73143E-10 7.19453E-20 1.03533E-18
 -1       797 9.52403E-05-2.85605E-05-2.85771E-05-1.09752E-08-4.75322E-19-7.41660E-19
 -1       798 9.52404E-05-2.85677E-05-2.85740E-05-1.66853E-08-2.50546E-19-4.96069E-19
 -1       799 9.52410E-05-2.85716E-05-2.85726E-05-1.80967E-08 8.32097E-19-1.47368E-18
 -1       800 9.52479E-05-2.85667E-05-2.85777E-05 3.06896E-09-1.13298E-19 1.03502E-18
 -1       801 9.52479E-05-2.85683E-05-2.85770E-05 7.69748E-09-1.88313E-18-1.06140E-18
 -1       802 9.52474E-05-2.85657E-05-2.85779E-05-1.26191E-09 1.93958E-18-2.38225E-19
 -1       803 1.03623E-04-3.50999E-05-2.93672E-05 2.54455E-06-1.07132E-19 7.68742E-19
 -1       804 4.63418E-05-9.71074E-06-1.52666E-05 1.67873E-05-4.22140E-19 1.60282E-18
 -1       805 1.02941E-04-4.75689E-05-2.35703E-05 3.43944E-05-7.77285E-19 1.30417E-18
 -1       806 9.93590E-05-3.12917E-05-2.91721E-05-1.86374E-06-1.00270E-19 4.32221E-19
 -1       807 1.00742E-04-3.28758E-05-2.90861E-05-1.11872E-06-3.65022E-19 3.37710E-19
 -1       808 1.12404E-04-1.00231E-05-4.41289E-05 3.92377E-06 6.68044E-19 1.41497E-18
 -1       809 1.28002E-04-3.93491E-05-3.81870E-05 1.04771E-05 4.39034E-20 1.76066E-18
 -1       810 1.25354E-04-5.60070E-05-2.96714E-05 1.78362E-05-2.12433E-19-1.22910E-18
 -1       811 9.52470E-05-2.85701E-05-2.85758E-05 1.25370E-08-1.11204E-18-3.62909E-18
 -1       812 1.15186E-04-1.58441E-05-4.28781E-05-1.06471E-05 8.62121E-19 2.32964E-19
 -1       813 1.04407E-04-3.48806E-05-2.97958E-05 5.11062E-06 1.85884E-19 8.63022E-19
 -1       814 1.19752E-04-2.16826E-05-4.23003E-05 1.29975E-05 7.07233E-19 2.03625E-18
 -1       815 6.44489E-05-1.12530E-05-2.27047E-05-1.21778E-05-9.41510E-19 1.13771E-18
 -1       816 9.10659E-05-1.79798E-05-3.13237E-05-8.03114E-07 5.92531E-19 6.69785E-19
 -1       817 5.25344E-05-1.03769E-05-1.77990E-05-1.20624E-05 2.43128E-19 4.49986E-20
 -1       818 9.36338E-05-2.09027E-05-3.11719E-05 1.19133E-06 6.31136E-19 8.58040E-19
 -1       819 9.82207E-05-2.96709E-05-2.93787E-05-1.88516E-06 3.79346E-19 7.57986E-19
 -1       820 9.27232E-05-2.07603E-05-3.08426E-05-1.64282E-07 1.35891E-19-3.38948E-20
 -1       821 1.28384E-04-4.10671E-05-3.75333E-05-9.22144E-06 8.44717E-20-1.05288E-18
 -1       822 1.23700E-04-5.47839E-05-2.95518E-05-1.56465E-05-1.05630E-18-1.94950E-19
 -1       823 1.07883E-04-1.31441E-05-4.07409E-05-3.88761E-06 1.02320E-18 7.41457E-19
 -1       824 9.52469E-05-2.85658E-05-2.85776E-05-5.34178E-09 1.13743E-18-1.60120E-18
 -1       825 9.52461E-05-2.85667E-05-2.85769E-05-9.27203E-09 1.60317E-18-1.75081E-18
 -1       826 7.23033E-05-2.66474E-05-1.93366E-05-3.21474E-05-8.79194E-20-4.24522E-19
 -1       827 5.96724E-05-1.76515E-05-1.77818E-05 2.67046E-05-2.36051E-19 1.92308E-18
 -1       828 1.28500E-04-5.24201E-05-3.27037E-05 4.84199E-06-3.55611E-19-1.53869E-18
 -1       829 9.07708E-05-1.78902E-05-3.12381E-05-1.68916E-06 5.37333E-19-5.89304E-20
 -1       830 9.52451E-05-2.85683E-05-2.85758E-05-1.25944E-08 3.32394E-18-2.30603E-18
 -1       831 8.98080E-05-1.68052E-05-3.12870E-05-1.94403E-06 6.05544E-19 3.29335E-19
 -1       832 9.73081E-05-2.79990E-05-2.97036E-05-1.21078E-06 3.15033E-19 9.97661E-19
 -1       833 9.01232E-05-1.70269E-05-3.13284E-05-1.53105E-06 5.80598E-19 2.87388E-19
 -1       834 9.22880E-05-1.93031E-05-3.12808E-05 1.64199E-07 6.40829E-19 9.54449E-19
 -1       835 9.64519E-05-2.59577E-05-3.02112E-05 3.79726E-07 2.27502E-19 9.87121E-19
 -1       836 1.02953E-04-2.24605E-05-3.45275E-05 7.49491E-06 4.35263E-19 1.21573E-18
 -1       837 1.06343E-04-2.86572E-05-3.32988E-05 9.83160E-06-1.01634E-19 1.11802E-18
 -1       838 9.01650E-05-1.99574E-05-3.00904E-05 8.20258E-07 3.18218E-19 7.07585E-19
 -1       839 8.82145E-05-1.96436E-05-2.93882E-05 1.65058E-06 3.31795E-19 6.67779E-19
 -1       840 8.50835E-05-1.84716E-05-2.85492E-05 1.77212E-06 3.01520E-19 5.35505E-19
 -1       841 8.05201E-05-1.65771E-05-2.74044E-05 1.05236E-06 1.93144E-19 2.47285E-19
 -1       842 7.44835E-05-1.42875E-05-2.57933E-05-5.57747E-07 4.59645E-19-2.70968E-20
 -1       843 6.56267E-05-1.15803E-05-2.31018E-05-3.35859E-06 3.82521E-19 1.91297E-19
 -1       844 7.94739E-05-1.64632E-05-2.70050E-05-2.00660E-06-1.41280E-20 1.19774E-19
 -1       845 8.42082E-05-1.91144E-05-2.78987E-05-2.61994E-06 2.84934E-20 1.61675E-20
 -1       846 8.75860E-05-2.13307E-05-2.83958E-05-2.77568E-06 3.67843E-19 9.39186E-19
 -1       847 8.99726E-05-2.31072E-05-2.86569E-05-2.64276E-06 7.40151E-19 1.26104E-18
 -1       848 9.15749E-05-2.44303E-05-2.87762E-05-2.36850E-06 8.28068E-19 1.03562E-18
 -1       849 9.27549E-05-2.54999E-05-2.88236E-05-2.01478E-06 8.20189E-19 8.91446E-19
 -1       850 9.35660E-05-2.63040E-05-2.88266E-05-1.65500E-06-1.37149E-18 8.77594E-19
 -1       851 9.41202E-05-2.69038E-05-2.88071E-05-1.32113E-06-1.34190E-18 1.28728E-18
 -1       852 9.44973E-05-2.73492E-05-2.87778E-05-1.02913E-06-6.31407E-19 9.04779E-19
 -1       853 9.47527E-05-2.76791E-05-2.87458E-05-7.84229E-07-1.67629E-18 1.50875E-19
 -1       854 9.49182E-05-2.79129E-05-2.87165E-05-5.93362E-07 4.95840E-19 1.10423E-18
 -1       855 9.50364E-05-2.80966E-05-2.86885E-05-4.32465E-07 5.78014E-19 9.83020E-19
 -1       856 9.51154E-05-2.82321E-05-2.86643E-05-3.07342E-07 2.32950E-18 1.17779E-18
 -1       857 9.51674E-05-2.83318E-05-2.86438E-05-2.11790E-07 2.07114E-18 3.94610E-19
 -1       858 9.52012E-05-2.84049E-05-2.86270E-05-1.40213E-07 6.95260E-19-7.90194E-20
 -1       859 9.52225E-05-2.84581E-05-2.86133E-05-8.76982E-08 4.82878E-19-1.72511E-18
 -1       860 9.52348E-05-2.84948E-05-2.86029E-05-5.15023E-08 3.08882E-18 3.58288E-19
 -1       861 9.52422E-05-2.85226E-05-2.85941E-05-2.45193E-08 3.06920E-18 5.63142E-19
 -1       862 9.52457E-05-2.85423E-05-2.85872E-05-6.25724E-09 2.03498E-18-7.85200E-19
 -1       863 9.52468E-05-2.85562E-05-2.85817E-05 5.46898E-09-1.49101E-19-1.03793E-18
 -1       864 9.52471E-05-2.85636E-05-2.85787E-05 1.01278E-08-2.16386E-18-1.64343E-18
 -1       865 1.08650E-04-3.41814E-05-3.19135E-05 8.63743E-06-9.91248E-20 1.36368E-18
 -1       866 1.00728E-04-1.86716E-05-3.51818E-05 1.85157E-06 5.39042E-19 1.34165E-18
 -1       867 1.01312E-04-1.96951E-05-3.49849E-05-4.73913E-06 5.66758E-19 6.65507E-19
 -1       868 1.04073E-04-2.45084E-05-3.40974E-05-9.37459E-06 1.65304E-19 5.05000E-19
 -1       869 1.07006E-04-3.05419E-05-3.27746E-05-1.03930E-05-5.55304E-19 7.77467E-19
 -1       870 1.08527E-04-3.52240E-05-3.14118E-05-8.41059E-06-1.39929E-18 1.83742E-18
 -1       871 1.08014E-04-3.72953E-05-3.03113E-05-5.22176E-06-8.45919E-19 2.26838E-18
 -1       872 1.06129E-04-3.72165E-05-2.95360E-05-2.11400E-06-2.41070E-20 1.40931E-18
 -1       873 1.03647E-04-3.58432E-05-2.90593E-05 2.20634E-07 5.17094E-19 1.21370E-18
 -1       874 1.01207E-04-3.39926E-05-2.88067E-05 1.67925E-06 3.74487E-19 2.37642E-18
 -1       875 9.91473E-05-3.21885E-05-2.86970E-05 2.41548E-06 4.44721E-19 2.45737E-18
 -1       876 9.75798E-05-3.06904E-05-2.86670E-05 2.64854E-06 2.01214E-19 1.08218E-18
 -1       877 9.64801E-05-2.95735E-05-2.86743E-05 2.57124E-06-8.77615E-19 1.35719E-18
 -1       878 9.57649E-05-2.88147E-05-2.86930E-05 2.32543E-06-3.80889E-19 1.41634E-18
 -1       879 9.53371E-05-2.83481E-05-2.87095E-05 2.00574E-06 4.26941E-19-1.63478E-19
 -1       880 9.51087E-05-2.80988E-05-2.87185E-05 1.67054E-06 1.99654E-18 4.43746E-19
 -1       881 9.50091E-05-2.79984E-05-2.87189E-05 1.35280E-06 1.32477E-18 4.75395E-20
 -1       882 9.49867E-05-2.79922E-05-2.87119E-05 1.06931E-06 3.42847E-19-9.34083E-19
 -1       883 9.50060E-05-2.80398E-05-2.86998E-05 8.26569E-07-2.19517E-19-7.87824E-19
 -1       884 9.50440E-05-2.81132E-05-2.86846E-05 6.25079E-07-1.09839E-18-5.60070E-19
 -1       885 9.50870E-05-2.81943E-05-2.86683E-05 4.62039E-07 5.84991E-19-4.26712E-19
 -1       886 9.51275E-05-2.82725E-05-2.86521E-05 3.33018E-07-1.57794E-18-2.28453E-19
 -1       887 9.51619E-05-2.83421E-05-2.86371E-05 2.32998E-07-5.07486E-19 1.45317E-18
 -1       888 9.51892E-05-2.84008E-05-2.86236E-05 1.56992E-07 1.28867E-18 5.90930E-19
 -1       889 9.52095E-05-2.84483E-05-2.86120E-05 1.00398E-07 5.02578E-19-8.79510E-19
 -1       890 9.52239E-05-2.84855E-05-2.86022E-05 5.91722E-08 6.81102E-20-8.14520E-19
 -1       891 9.52333E-05-2.85138E-05-2.85941E-05 2.98895E-08-5.00385E-19 1.12233E-18
 -1       892 9.52390E-05-2.85348E-05-2.85875E-05 9.73975E-09 2.99601E-19 8.80930E-19
 -1       893 9.52420E-05-2.85502E-05-2.85822E-05-3.49217E-09 6.88656E-19-1.04281E-18
 -1       894 9.52432E-05-2.85616E-05-2.85779E-05-1.15504E-08 8.05310E-19-1.39560E-18
 -1       895 9.52471E-05-2.85562E-05-2.85818E-05 2.52428E-09 9.66098E-19-3.36623E-18
 -1       896 9.52462E-05-2.85538E-05-2.85824E-05-4.03424E-10 1.02727E-18 5.93752E-19
 -1       897 1.15677E-04-2.94959E-05-3.70139E-05 1.21349E-05 1.56079E-19 1.45548E-18
 -1       898 1.18860E-04-2.73614E-05-3.93624E-05-1.31440E-05-2.02295E-19-7.65777E-19
 -1       899 7.28546E-05-1.34513E-05-2.54398E-05-7.55638E-07-9.98965E-19-4.27218E-19
 -1       900 8.60643E-05-3.37943E-05-2.22186E-05 3.17455E-05-2.21231E-19 6.19069E-19
 -1       901 9.63117E-05-2.58819E-05-3.01829E-05-8.68344E-07 3.16979E-19 6.32166E-19
 -1       902 9.74052E-05-4.12680E-05-2.39376E-05-3.01230E-05-4.25634E-19-6.60275E-19
 -1       903 1.02911E-04-3.48643E-05-2.91633E-05-2.19933E-06-1.74457E-19 5.07722E-19
 -1       904 1.00748E-04-3.26509E-05-2.91846E-05-2.95534E-06-2.74212E-19 7.79974E-19
 -1       905 8.96420E-05-1.65800E-05-3.13135E-05-1.91873E-06 5.75590E-19 2.23956E-19
 -1       906 1.05373E-04-3.68551E-05-2.93640E-05-5.01681E-07-2.72695E-19 8.14464E-19
 -1       907 6.40404E-05-1.04050E-05-2.29266E-05 1.02967E-06-6.60101E-19-2.43317E-19
 -1       908 1.25616E-04-4.71344E-05-3.36600E-05 3.00462E-06-4.04594E-19 1.42583E-18
 -1       909 9.52476E-05-2.85598E-05-2.85805E-05 5.98078E-09-1.88889E-18-2.45063E-18
 -1       910 1.09120E-04-1.81711E-05-3.91281E-05 8.98221E-06 4.11221E-19 1.11660E-18
 -1       911 9.52434E-05-2.85703E-05-2.85742E-05-1.56027E-08 1.56156E-18-4.81631E-18
 -1       912 1.12749E-04-4.91522E-05-2.72295E-05 2.14637E-05-9.16638E-19 4.10976E-20
 -1       913 9.51148E-05-2.36045E-05-3.06491E-05 1.04392E-07 5.06887E-19 7.59606E-19
 -1       914 9.89865E-05-3.04548E-05-2.93711E-05-2.93704E-06 3.23650E-19 6.98545E-19
 -1       915 9.09558E-05-1.95602E-05-3.05930E-05-1.06209E-07 3.97178E-19 1.79077E-19
 -1       916 5.24357E-05-7.70672E-06-1.88683E-05-5.20885E-08-1.36570E-18 5.90038E-19
 -1       917 1.11127E-04-4.81121E-05-2.69842E-05-2.19517E-05-8.54712E-19-3.11443E-19
 -1       918 1.09015E-04-3.73430E-05-3.07126E-05 5.54686E-06-9.62102E-20 1.14162E-18
 -1       919 1.25374E-04-4.60497E-05-3.40776E-05-3.28341E-06-3.16676E-19-8.60610E-19
 -1       920 6.72923E-05-1.74097E-05-2.12511E-05-1.95846E-05 2.41868E-19-5.18675E-19
 -1       921 9.52455E-05-2.85533E-05-2.85824E-05-2.86817E-09 1.24469E-18-1.42493E-19
 -1       922 9.52451E-05-2.85546E-05-2.85816E-05-5.17609E-09 1.29585E-18-1.53844E-18
 -1       923 1.17361E-04-3.81960E-05-3.39486E-05 8.89731E-06-8.54195E-20 1.71396E-18
 -1       924 9.97161E-05-4.02820E-05-2.54253E-05 2.45595E-05-5.80737E-19-1.37181E-19
 -1       925 1.08711E-04-2.00652E-05-3.80868E-05-9.90699E-06 1.37501E-19 1.23067E-18
 -1       926 9.29721E-05-2.12792E-05-3.07255E-05-1.59494E-06 4.21027E-19 8.57518E-19
 -1       927 9.52448E-05-2.85574E-05-2.85803E-05-7.58343E-09 1.78845E-18-3.92726E-18
 -1       928 9.75917E-05-2.83085E-05-2.96924E-05-2.27454E-06 4.12365E-19 6.73928E-19
 -1       929 9.16332E-05-1.99329E-05-3.07286E-05-2.15652E-06 5.02243E-19 5.48183E-19
 -1       930 5.62020E-05-1.04164E-05-1.94414E-05 1.15655E-05-1.25604E-18 1.97623E-18
 -1       931 9.00530E-05-1.86055E-05-3.06209E-05-1.24247E-06 6.23037E-19 1.87847E-19
 -1       932 1.07601E-04-3.79164E-05-2.98647E-05 2.19077E-06 1.84679E-19 9.54595E-19
 -1       933 1.19528E-04-5.04488E-05-2.96012E-05 1.16753E-05-3.01605E-19-2.02447E-18
 -1       934 1.20111E-04-3.65695E-05-3.58019E-05-1.10478E-05 1.20811E-19 6.32363E-20
 -1       935 7.39893E-05-2.16803E-05-2.23080E-05 2.30845E-05-9.05620E-19 1.98619E-18
 -1       936 8.68615E-05-1.94675E-05-2.88873E-05-1.45645E-06 2.61657E-19 6.63073E-19
 -1       937 8.38055E-05-1.87584E-05-2.78773E-05-3.07821E-06 5.87307E-20 4.32203E-19
 -1       938 7.98873E-05-1.78269E-05-2.65979E-05-5.88207E-06 1.27959E-19 7.14278E-20
 -1       939 7.46225E-05-1.69689E-05-2.46951E-05-1.05816E-05 3.40256E-19-2.55756E-19
 -1       940 8.55112E-05-2.05736E-05-2.78313E-05 5.66888E-07 2.62373E-19 2.02474E-18
 -1       941 8.81876E-05-2.22365E-05-2.82652E-05-4.16306E-07 5.65792E-19 1.67312E-18
 -1       942 9.00870E-05-2.35716E-05-2.85065E-05-8.81666E-07 3.04026E-19 2.01110E-18
 -1       943 9.15650E-05-2.47211E-05-2.86475E-05-1.06280E-06 3.17326E-19 5.65061E-19
 -1       944 9.26377E-05-2.56338E-05-2.87161E-05-1.05892E-06-4.37256E-19-5.69346E-19
 -1       945 9.34112E-05-2.63475E-05-2.87416E-05-9.58181E-07-1.36028E-18 1.32295E-19
 -1       946 9.39656E-05-2.68996E-05-2.87426E-05-8.15719E-07-6.01616E-19-2.04966E-19
 -1       947 9.43606E-05-2.73232E-05-2.87304E-05-6.64827E-07-1.70740E-18 2.61511E-19
 -1       948 9.46294E-05-2.76325E-05-2.87129E-05-5.29486E-07-4.62413E-19 1.17190E-18
 -1       949 9.48309E-05-2.78818E-05-2.86925E-05-4.03973E-07 4.98068E-19-8.04587E-20
 -1       950 9.49721E-05-2.80701E-05-2.86723E-05-2.99237E-07 1.84886E-18-1.67044E-19
 -1       951 9.50701E-05-2.82115E-05-2.86537E-05-2.14783E-07 1.68917E-18-6.03969E-19
 -1       952 9.51371E-05-2.83170E-05-2.86372E-05-1.48708E-07 1.01788E-18-1.09806E-18
 -1       953 9.51820E-05-2.83950E-05-2.86230E-05-9.84292E-08 4.17400E-19 1.03613E-18
 -1       954 9.52102E-05-2.84496E-05-2.86117E-05-6.26339E-08 2.74494E-18 7.83249E-19
 -1       955 9.52288E-05-2.84915E-05-2.86017E-05-3.50617E-08 2.76730E-18-6.62236E-19
 -1       956 9.52398E-05-2.85215E-05-2.85935E-05-1.57882E-08 1.96666E-18-1.03396E-18
 -1       957 9.52453E-05-2.85427E-05-2.85868E-05-2.77558E-09 1.08877E-18-2.45562E-18
 -1       958 9.52467E-05-2.85518E-05-2.85835E-05 2.46851E-09 4.55668E-19-2.94674E-18
 -1       959 9.52431E-05-2.85394E-05-2.85873E-05-2.24048E-09-4.65648E-19-1.40273E-18
 -1       960 9.61086E-05-2.60253E-05-3.00348E-05-2.32591E-06 2.76170E-19 1.14490E-18
 -1       961 8.08904E-05-2.74933E-05-2.27824E-05-2.58563E-05 3.45507E-19-4.48097E-19
 -1       962 1.14003E-04-3.68392E-05-3.31168E-05-9.36786E-06-4.91206E-19 3.72190E-19
 -1       963 1.13257E-04-4.03008E-05-3.12541E-05-4.90407E-06-1.08411E-18-1.00775E-18
 -1       964 1.10133E-04-4.03776E-05-2.98980E-05-5.33722E-07-5.74256E-19-1.95835E-19
 -1       965 1.06293E-04-3.84079E-05-2.90909E-05 2.35577E-06-1.61659E-19 3.06163E-19
 -1       966 1.02674E-04-3.57422E-05-2.86855E-05 3.78372E-06-2.38449E-19 4.01930E-19
 -1       967 9.97554E-05-3.32110E-05-2.85197E-05 4.21075E-06-4.78700E-20 8.21048E-19
 -1       968 9.76287E-05-3.11631E-05-2.84854E-05 4.04673E-06 1.19197E-18 9.01626E-19
 -1       969 9.62036E-05-2.96717E-05-2.85135E-05 3.59216E-06-4.03002E-19 1.21555E-18
 -1       970 9.53290E-05-2.86815E-05-2.85631E-05 3.03291E-06 6.03236E-19 3.03018E-19
 -1       971 9.48500E-05-2.80892E-05-2.86117E-05 2.47713E-06-2.72076E-19 4.60602E-19
 -1       972 9.46351E-05-2.77865E-05-2.86494E-05 1.97411E-06 9.13100E-19 2.90627E-19
 -1       973 9.45836E-05-2.76786E-05-2.86736E-05 1.54317E-06 2.00746E-18 7.20462E-19
 -1       974 9.46248E-05-2.76926E-05-2.86852E-05 1.18671E-06 1.59267E-18 1.16268E-18
 -1       975 9.47107E-05-2.77746E-05-2.86869E-05 8.98839E-07-2.05770E-19 1.26286E-18
 -1       976 9.48112E-05-2.78879E-05-2.86814E-05 6.70392E-07-4.51347E-19 1.13325E-18
 -1       977 9.49093E-05-2.80093E-05-2.86715E-05 4.91785E-07-1.43199E-19-3.94546E-19
 -1       978 9.49960E-05-2.81247E-05-2.86591E-05 3.54008E-07-7.78138E-19-9.62719E-19
 -1       979 9.50678E-05-2.82271E-05-2.86460E-05 2.49097E-07-1.47527E-18-1.68159E-18
 -1       980 9.51242E-05-2.83134E-05-2.86332E-05 1.70269E-07 9.82171E-19-1.97137E-18
 -1       981 9.51667E-05-2.83834E-05-2.86214E-05 1.11890E-07 9.40331E-19-5.42141E-20
 -1       982 9.51972E-05-2.84385E-05-2.86109E-05 6.93551E-08 1.05028E-18-6.31422E-19
 -1       983 9.52180E-05-2.84806E-05-2.86018E-05 3.89656E-08-1.69427E-18-9.45192E-19
 -1       984 9.52315E-05-2.85121E-05-2.85940E-05 1.77697E-08-4.79434E-19 4.62571E-20
 -1       985 9.52395E-05-2.85352E-05-2.85876E-05 3.45282E-09 2.40922E-18-1.77066E-18
 -1       986 7.11384E-05-1.48817E-05-2.40846E-05 9.48660E-06-1.31366E-18 2.67335E-18
 -1       987 7.73326E-05-1.67642E-05-2.59542E-05 5.11717E-06 9.12277E-20 2.18152E-18
 -1       988 1.10904E-04-2.84929E-05-3.53570E-05-1.16537E-05-2.45441E-19 1.61737E-18
 -1       989 1.20022E-04-4.89648E-05-3.04347E-05-6.40529E-06-7.06150E-19 9.12878E-19
 -1       990 1.05043E-04-3.70532E-05-2.91366E-05-4.18085E-06-1.80519E-19 9.94863E-19
 -1       991 9.00889E-05-1.85640E-05-3.06526E-05-2.02567E-06 5.14063E-19 1.57689E-19
 -1       992 1.01933E-04-3.40923E-05-2.90756E-05-4.80333E-06-1.23699E-19 9.03768E-19
 -1       993 9.40919E-05-2.24055E-05-3.07214E-05-7.55565E-07 4.86583E-19 9.63127E-19
 -1       994 8.19837E-05-1.87134E-05-2.71168E-05 2.28890E-06-5.70918E-20 1.71857E-18
 -1       995 9.06857E-05-1.90650E-05-3.06943E-05-2.30070E-06 4.19623E-19 3.06408E-19
 -1       996 8.89071E-05-1.95937E-05-2.97078E-05-8.36275E-07 5.75627E-19 3.65466E-19
 -1       997 9.94837E-05-3.12568E-05-2.92397E-05-4.53450E-06 1.36587E-19 1.21378E-18
 -1       998 8.14130E-05-2.26427E-05-2.51940E-05-1.59365E-05 8.39828E-20-2.24352E-19
 -1       999 8.68326E-05-2.95313E-05-2.45445E-05 2.24431E-05-6.08950E-19 1.33171E-19
 -1      1000 1.16069E-04-4.12895E-05-3.20559E-05 5.19859E-06-4.44090E-19 1.49990E-18
 -1      1001 1.00019E-04-3.91410E-05-2.60507E-05-2.22219E-05 7.75515E-20 6.65723E-20
 -1      1002 9.52416E-05-2.85371E-05-2.85876E-05-2.16629E-09 1.88538E-18-4.91408E-21
 -1      1003 9.75504E-05-2.85090E-05-2.95882E-05-3.59090E-06 3.45261E-19 1.27721E-18
 -1      1004 9.52435E-05-2.85519E-05-2.85821E-05-5.62006E-09 3.03396E-19-2.16268E-18
 -1      1005 1.08763E-04-3.98108E-05-2.95715E-05-2.20391E-06-6.27210E-20 7.84453E-19
 -1      1006 9.52412E-05-2.85380E-05-2.85871E-05-1.79709E-09 1.76093E-18-1.48475E-18
 -1      1007 1.09471E-04-4.44940E-05-2.78361E-05 1.53599E-05-6.00831E-19-1.12959E-18
 -1      1008 9.52419E-05-2.85418E-05-2.85857E-05-2.03402E-09 1.80510E-18-2.36274E-18
 -1      1009 9.32773E-05-2.28661E-05-3.01736E-05-3.20072E-06 2.37993E-19 7.50118E-19
 -1      1010 1.21299E-04-4.86029E-05-3.12024E-05 3.10884E-06-8.16826E-19-4.33421E-19
 -1      1011 9.52453E-05-2.85455E-05-2.85856E-05-5.70348E-10-1.84533E-19-5.65314E-18
 -1      1012 9.46051E-05-2.40727E-05-3.02298E-05-2.54246E-06 2.56350E-19 9.17320E-19
 -1      1013 8.74404E-05-2.10136E-05-2.84694E-05-5.07790E-06 1.69463E-19-2.23654E-19
 -1      1014 8.56538E-05-2.14908E-05-2.74946E-05-8.04673E-06-1.16147E-19-1.21601E-19
 -1      1015 8.35578E-05-2.17907E-05-2.64495E-05-1.14885E-05-2.08987E-20-3.10048E-20
 -1      1016 8.76168E-05-2.24538E-05-2.79266E-05 2.43407E-06-3.93668E-19 8.18319E-19
 -1      1017 1.11055E-04-4.46597E-05-2.84370E-05-1.32577E-05-7.21743E-19 1.08641E-19
 -1      1018 8.93630E-05-2.34405E-05-2.82523E-05 1.15118E-06-2.31782E-21 2.42620E-19
 -1      1019 9.08304E-05-2.44068E-05-2.84675E-05 3.44654E-07-2.20680E-19-7.71001E-19
 -1      1020 9.19641E-05-2.52439E-05-2.85944E-05-1.01102E-07-7.42454E-19-1.63060E-18
 -1      1021 9.28376E-05-2.59580E-05-2.86627E-05-3.15119E-07 1.01066E-18-9.16053E-19
 -1      1022 9.34969E-05-2.65427E-05-2.86947E-05-3.89203E-07-1.17319E-18 1.54871E-18
 -1      1023 9.39902E-05-2.70142E-05-2.87040E-05-3.86187E-07-1.14665E-18 9.18935E-19
 -1      1024 9.43406E-05-2.73729E-05-2.87005E-05-3.46577E-07-6.24225E-19 4.74145E-19
 -1      1025 9.46141E-05-2.76719E-05-2.86895E-05-2.89019E-07-1.21798E-19 6.55100E-19
 -1      1026 9.48130E-05-2.79044E-05-2.86751E-05-2.29148E-07 8.74670E-19-1.24400E-19
 -1      1027 9.49562E-05-2.80837E-05-2.86597E-05-1.74002E-07 1.00538E-18-2.48849E-18
 -1      1028 9.50579E-05-2.82203E-05-2.86447E-05-1.26834E-07 3.06093E-18-9.93593E-19
 -1      1029 9.51286E-05-2.83232E-05-2.86309E-05-8.85614E-08 1.77179E-18-1.48163E-18
 -1      1030 9.51748E-05-2.83966E-05-2.86192E-05-5.98917E-08 1.96484E-18 3.29500E-19
 -1      1031 9.52072E-05-2.84539E-05-2.86086E-05-3.69624E-08 2.68411E-18-1.72795E-20
 -1      1032 9.52275E-05-2.84953E-05-2.85995E-05-1.99618E-08 1.55036E-18-2.40399E-18
 -1      1033 1.03748E-04-3.74537E-05-2.84113E-05 7.10786E-06 2.49446E-19-1.49441E-18
 -1      1034 9.98369E-05-3.39841E-05-2.82233E-05 6.90578E-06-9.68650E-19-1.21557E-18
 -1      1035 9.71848E-05-3.13388E-05-2.82189E-05 6.04626E-06-2.66909E-19 7.12385E-19
 -1      1036 9.55130E-05-2.94888E-05-2.82951E-05 4.97426E-06 2.07417E-19 5.81844E-19
 -1      1037 9.45628E-05-2.83028E-05-2.83964E-05 3.92989E-06-5.52830E-19 7.07629E-20
 -1      1038 9.41246E-05-2.76481E-05-2.84899E-05 3.02411E-06-3.63925E-19 2.10344E-18
 -1      1039 9.39866E-05-2.73350E-05-2.85651E-05 2.28045E-06 8.95329E-19 1.07990E-18
 -1      1040 9.40324E-05-2.72564E-05-2.86181E-05 1.69945E-06 1.50137E-18 1.02103E-18
 -1      1041 9.41732E-05-2.73197E-05-2.86514E-05 1.25143E-06 6.45953E-19 1.80619E-18
 -1      1042 9.43503E-05-2.74565E-05-2.86688E-05 9.13270E-07 7.67023E-19 2.86352E-18
 -1      1043 9.45306E-05-2.76240E-05-2.86742E-05 6.60364E-07 6.13622E-19 1.31252E-18
 -1      1044 9.46957E-05-2.77954E-05-2.86715E-05 4.72667E-07 2.63207E-19 3.58716E-19
 -1      1045 9.48370E-05-2.79550E-05-2.86637E-05 3.34247E-07 1.72099E-20 1.08869E-18
 -1      1046 9.49523E-05-2.80950E-05-2.86531E-05 2.32708E-07 1.35566E-19 8.07838E-19
 -1      1047 9.50426E-05-2.82125E-05-2.86415E-05 1.58659E-07 1.90067E-19-4.50043E-19
 -1      1048 9.51108E-05-2.83079E-05-2.86298E-05 1.05032E-07-2.45470E-19-8.65831E-19
 -1      1049 9.51604E-05-2.83831E-05-2.86189E-05 6.65737E-08 8.77633E-19 3.96207E-19
 -1      1050 9.51952E-05-2.84408E-05-2.86090E-05 3.93034E-08-1.40136E-18 1.32035E-18
 -1      1051 9.52183E-05-2.84841E-05-2.86004E-05 2.03682E-08-6.54348E-19-6.38304E-19
 -1      1052 9.52329E-05-2.85160E-05-2.85929E-05 7.32779E-09 2.04222E-18-1.98408E-18
 -1      1053 9.18398E-05-2.15710E-05-3.01156E-05-3.36425E-06 4.04233E-19 3.31875E-19
 -1      1054 7.98345E-05-2.05388E-05-2.54101E-05 1.26000E-05-1.62764E-18 1.99855E-18
 -1      1055 9.37044E-05-3.14332E-05-2.66999E-05-1.68927E-05 1.39054E-19 1.57509E-19
 -1      1056 1.02540E-04-3.53918E-05-2.87868E-05-7.60925E-06 1.23465E-20 9.59891E-19
 -1      1057 8.96115E-05-2.02308E-05-2.97313E-05-2.70649E-06 5.70490E-19 1.46597E-21
 -1      1058 1.13481E-04-4.24032E-05-3.04660E-05 2.69785E-07-3.56698E-19 1.37849E-18
 -1      1059 1.08814E-04-4.12505E-05-2.89658E-05 6.03210E-06-2.85609E-19-6.39564E-19
 -1      1060 1.14318E-04-4.50752E-05-2.96878E-05 5.50024E-06-4.68941E-19-7.95380E-19
 -1      1061 8.87098E-05-2.07329E-05-2.91324E-05-3.64747E-06 4.55177E-19-2.43702E-19
 -1      1062 9.91009E-05-3.69465E-05-2.66258E-05 1.78004E-05-4.19890E-19-4.12747E-19
 -1      1063 8.54368E-05-2.15019E-05-2.74016E-05 4.55426E-06 8.23409E-19 8.22831E-19
 -1      1064 8.28160E-05-2.07560E-05-2.65960E-05 7.85190E-06-2.77115E-19 7.47074E-19
 -1      1065 1.02538E-04-3.73459E-05-2.79472E-05-1.30785E-05 6.66220E-20 5.34321E-19
 -1      1066 9.52347E-05-2.85168E-05-2.85934E-05-4.70664E-09-2.86348E-19-1.54445E-18
 -1      1067 9.59826E-05-2.66873E-05-2.96976E-05-4.08916E-06 2.43055E-19 1.28032E-18
 -1      1068 9.52394E-05-2.85248E-05-2.85919E-05-8.18741E-09-3.45812E-19-4.06854E-18
 -1      1069 9.93727E-05-3.18254E-05-2.89507E-05-6.76881E-06 1.74742E-19 1.31333E-18
 -1      1070 9.32707E-05-2.42171E-05-2.95955E-05-4.82689E-06 2.78044E-19 2.14944E-19
 -1      1071 1.06970E-04-3.94217E-05-2.89359E-05-7.54985E-06-2.08454E-19 7.16340E-19
 -1      1072 9.52332E-05-2.85157E-05-2.85932E-05-2.16058E-10 4.14346E-19-1.66981E-18
 -1      1073 9.07237E-05-2.08935E-05-2.99261E-05-3.31804E-06 4.81587E-19 6.44280E-20
 -1      1074 1.05852E-04-4.06193E-05-2.79463E-05 1.22333E-05-3.74001E-19-1.40973E-18
 -1      1075 8.97349E-05-2.42206E-05-2.80757E-05 3.28854E-06-4.79767E-20-1.50529E-19
 -1      1076 9.58199E-05-2.76991E-05-2.91969E-05-6.14417E-06 2.93176E-19 9.47847E-19
 -1      1077 9.74247E-05-2.91087E-05-2.92774E-05-5.47515E-06 3.50428E-19 1.50464E-18
 -1      1078 9.08338E-05-2.47323E-05-2.83276E-05 1.92848E-06-7.76166E-19-5.83865E-19
 -1      1079 9.17805E-05-2.53085E-05-2.84884E-05 1.04977E-06-8.11937E-19-5.37771E-19
 -1      1080 9.25623E-05-2.58554E-05-2.85883E-05 5.18360E-07 9.78083E-19-3.60648E-19
 -1      1081 9.32146E-05-2.63756E-05-2.86451E-05 2.04474E-07 9.16910E-19-6.03625E-19
 -1      1082 9.37314E-05-2.68264E-05-2.86735E-05 3.06179E-08-5.69431E-19 2.79330E-19
 -1      1083 9.41177E-05-2.71903E-05-2.86832E-05-5.16906E-08-8.61702E-19 1.17178E-18
 -1      1084 9.44328E-05-2.75082E-05-2.86820E-05-8.66623E-08-1.37256E-18 1.50025E-18
 -1      1085 9.46712E-05-2.77655E-05-2.86739E-05-9.23153E-08-3.26822E-19 1.06311E-18
 -1      1086 9.48489E-05-2.79701E-05-2.86623E-05-8.32756E-08-4.20796E-19 1.83012E-18
 -1      1087 9.49791E-05-2.81304E-05-2.86494E-05-6.83032E-08 2.33291E-18 1.06171E-18
 -1      1088 9.50726E-05-2.82539E-05-2.86366E-05-5.23376E-08 1.86889E-18-1.17412E-18
 -1      1089 9.51356E-05-2.83437E-05-2.86251E-05-3.83595E-08 3.06185E-18-1.28139E-18
 -1      1090 9.51814E-05-2.84150E-05-2.86142E-05-2.57361E-08 1.99036E-18-9.87110E-19
 -1      1091 9.52116E-05-2.84675E-05-2.86046E-05-1.58495E-08 1.35439E-18-7.61157E-19
 -1      1092 9.57976E-05-3.09582E-05-2.77883E-05 8.81535E-06-1.67535E-18-3.56526E-19
 -1      1093 9.87430E-05-3.41576E-05-2.76682E-05 1.08278E-05-5.03624E-19-1.55055E-18
 -1      1094 9.32472E-05-2.75031E-05-2.81761E-05 4.95233E-06-2.71346E-19 9.98444E-19
 -1      1095 9.30345E-05-2.69128E-05-2.83391E-05 3.56823E-06-9.85395E-19 1.16938E-18
 -1      1096 9.31024E-05-2.66755E-05-2.84678E-05 2.53670E-06 7.66409E-19 9.28586E-20
 -1      1097 9.33227E-05-2.66947E-05-2.85550E-05 1.78114E-06 1.57399E-18 3.65975E-19
 -1      1098 9.36202E-05-2.68547E-05-2.86138E-05 1.22860E-06 1.38969E-18 2.24145E-19
 -1      1099 9.39260E-05-2.70793E-05-2.86487E-05 8.44263E-07 2.36366E-19-7.10013E-20
 -1      1100 9.42098E-05-2.73226E-05-2.86660E-05 5.75000E-07 5.49653E-19-1.45783E-19
 -1      1101 9.44564E-05-2.75578E-05-2.86708E-05 3.89018E-07 7.36197E-19 1.01334E-18
 -1      1102 9.46610E-05-2.77699E-05-2.86676E-05 2.61408E-07-6.80379E-21 1.74864E-18
 -1      1103 9.48248E-05-2.79525E-05-2.86596E-05 1.74046E-07 9.01909E-19 1.34791E-18
 -1      1104 9.49519E-05-2.81042E-05-2.86490E-05 1.14336E-07 9.04931E-19 8.64336E-19
 -1      1105 9.50477E-05-2.82267E-05-2.86376E-05 7.36453E-08-7.67972E-19 3.48141E-18
 -1      1106 9.51179E-05-2.83231E-05-2.86263E-05 4.59177E-08 7.74179E-19 3.50525E-18
 -1      1107 9.51677E-05-2.83975E-05-2.86158E-05 2.69601E-08-8.60199E-20 8.37913E-19
 -1      1108 9.52013E-05-2.84530E-05-2.86064E-05 1.44848E-08 5.37086E-20-1.48485E-18
 -1      1109 9.52203E-05-2.84883E-05-2.85995E-05 4.79959E-09 1.96613E-18-3.19630E-18
 -1      1110 9.16577E-05-2.31314E-05-2.93647E-05-5.05724E-06 3.69807E-19 2.72519E-19
 -1      1111 9.01697E-05-2.42564E-05-2.82692E-05-8.12110E-06 1.02111E-19 1.75765E-19
 -1      1112 9.40756E-05-2.87958E-05-2.79815E-05 6.71114E-06-3.40799E-19-5.53730E-19
 -1      1113 8.92904E-05-2.82527E-05-2.61633E-05 1.55638E-05-8.12887E-19 1.71031E-18
 -1      1114 8.85801E-05-2.59300E-05-2.68591E-05 1.12078E-05-1.55771E-18 1.49043E-18
 -1      1115 9.39831E-05-2.65041E-05-2.89124E-05-7.14316E-06 2.51506E-19 1.99128E-19
 -1      1116 8.98693E-05-2.55862E-05-2.75440E-05-1.09842E-05-1.46017E-19 4.23980E-20
 -1      1117 9.63924E-05-3.13601E-05-2.78507E-05-1.20628E-05 1.06910E-19 4.22067E-19
 -1      1118 9.01326E-05-2.19093E-05-2.92416E-05-4.61514E-06 2.95199E-19-1.50683E-19
 -1      1119 9.80297E-05-3.17371E-05-2.84184E-05-9.66764E-06 1.50498E-19 8.02863E-19
 -1      1120 8.86363E-05-2.39872E-05-2.77129E-05 5.27957E-06 4.34303E-19-4.54855E-19
 -1      1121 9.64952E-05-3.34302E-05-2.70042E-05 1.41347E-05-1.02353E-19-6.74352E-19
 -1      1122 9.52204E-05-2.84871E-05-2.86000E-05-3.24635E-09 2.75085E-19-2.59917E-18
 -1      1123 9.00451E-05-2.29373E-05-2.87604E-05-6.21289E-06 2.76459E-19-1.05606E-19
 -1      1124 8.83420E-05-2.45912E-05-2.73266E-05 7.92656E-06-7.31345E-19 1.04008E-19
 -1      1125 9.67572E-05-2.93304E-05-2.88939E-05-7.37584E-06 2.70668E-19 9.08284E-19
 -1      1126 9.24492E-05-2.59676E-05-2.84930E-05 1.68513E-06 5.06144E-19-1.04924E-18
 -1      1127 9.16033E-05-2.56953E-05-2.82475E-05 3.36041E-06-4.02564E-19-1.39918E-18
 -1      1128 9.51997E-05-2.84495E-05-2.86072E-05 8.83732E-10 7.96609E-19-3.36500E-18
 -1      1129 9.31711E-05-2.64288E-05-2.86042E-05 8.74744E-07 1.15925E-18 1.02411E-19
 -1      1130 9.36271E-05-2.67857E-05-2.86461E-05 5.33376E-07 3.44879E-19-6.20147E-19
 -1      1131 9.39959E-05-2.71072E-05-2.86665E-05 3.23359E-07 2.25772E-19-8.65185E-19
 -1      1132 9.43140E-05-2.74086E-05-2.86737E-05 1.84440E-07-5.32097E-19 2.39009E-19
 -1      1133 9.45666E-05-2.76664E-05-2.86715E-05 1.00854E-07-3.31804E-19 1.74919E-18
 -1      1134 9.47625E-05-2.78807E-05-2.86636E-05 5.20656E-08 4.93297E-19 2.05103E-18
 -1      1135 9.49112E-05-2.80544E-05-2.86529E-05 2.45655E-08 1.11844E-19 2.73164E-18
 -1      1136 9.50214E-05-2.81920E-05-2.86412E-05 9.74183E-09-4.35917E-19 1.61273E-18
 -1      1137 9.50978E-05-2.82944E-05-2.86300E-05 2.56051E-09 1.82706E-18-1.19805E-18
 -1      1138 9.51551E-05-2.83774E-05-2.86190E-05-9.88345E-10 2.73263E-18-1.04231E-18
 -1      1139 9.12601E-05-2.61532E-05-2.78956E-05 5.85240E-06-1.34054E-19-2.45156E-19
 -1      1140 1.16502E-04 2.57329E-10-4.18124E-05-4.08376E-05-7.83505E-20-1.30718E-18
 -1      1141 8.92736E-05 7.38530E-11-3.74682E-05-2.30681E-05-1.17526E-20-1.51074E-18
 -1      1142 8.47631E-05 4.25975E-11-3.60229E-05-1.65490E-05 1.79995E-21-1.23524E-18
 -1      1143 8.27817E-05 3.16282E-11-3.52540E-05-1.24310E-05 1.37378E-20-9.48346E-19
 -1      1144 8.16325E-05 2.54200E-11-3.47946E-05-9.24530E-06 1.36849E-20-6.89114E-19
 -1      1145 8.08870E-05 2.15513E-11-3.45008E-05-6.63656E-06 2.45772E-20-4.47293E-19
 -1      1146 8.04159E-05 1.92558E-11-3.43152E-05-4.37195E-06 1.82774E-20-1.65198E-19
 -1      1147 8.01693E-05 1.82515E-11-3.42168E-05-2.27206E-06 1.97630E-20 1.06911E-19
 -1      1148 8.01270E-05 1.83285E-11-3.41966E-05-2.22639E-07 2.15762E-20 3.59787E-19
 -1      1149 8.02653E-05 1.93128E-11-3.42462E-05 1.88993E-06 3.06917E-20 6.32211E-19
 -1      1150 8.05663E-05 2.11071E-11-3.43598E-05 4.16265E-06 2.42728E-20 9.55480E-19
 -1      1151 8.10279E-05 2.37048E-11-3.45382E-05 6.66296E-06 2.62977E-20 1.33102E-18
 -1      1152 8.16963E-05 2.74384E-11-3.48045E-05 9.51325E-06 2.84285E-20 1.82503E-18
 -1      1153 8.27362E-05 3.31167E-11-3.52290E-05 1.28962E-05 2.84815E-20 2.35930E-18
 -1      1154 8.46044E-05 4.32604E-11-3.59826E-05 1.71186E-05 1.87406E-20 3.01024E-18
 -1      1155 8.88587E-05 6.87282E-11-3.74976E-05 2.32338E-05-2.10699E-20 3.74029E-18
 -1      1156 1.06686E-04 1.65609E-10-4.06999E-05 3.56711E-05-1.25784E-19 4.16719E-18
 -1      1157 1.30813E-04-2.57328E-05-4.04077E-05-2.65502E-05-2.22134E-19-1.36669E-18
 -1      1158 9.89745E-05-2.92831E-05-3.20890E-05-8.22640E-07-9.36766E-20-1.73324E-18
 -1      1159 9.21206E-05-2.76133E-05-2.85346E-05 4.04243E-07-1.18717E-20-2.04463E-18
 -1      1160 9.11483E-05-2.74605E-05-2.75510E-05 2.65146E-07-5.31712E-20-2.52164E-18
 -1      1161 9.21107E-05-2.77393E-05-2.77027E-05 1.87048E-07 3.61941E-20-2.81292E-18
 -1      1162 9.43783E-05-2.83949E-05-2.83865E-05 1.59129E-07 2.47228E-20-2.60796E-18
 -1      1163 9.77474E-05-2.94007E-05-2.94299E-05 1.67767E-07-7.67293E-20-2.61548E-18
 -1      1164 1.02449E-04-3.08054E-05-3.08936E-05 2.04509E-07-3.88477E-20-2.45428E-18
 -1      1165 1.09038E-04-3.27817E-05-3.29358E-05 2.94904E-07-5.04911E-21-2.56280E-18
 -1      1166 1.17948E-04-3.54502E-05-3.56656E-05 4.52256E-07 9.82360E-21-3.11062E-18
 -1      1167 1.29608E-04-3.89370E-05-3.91348E-05 6.78922E-07 3.99793E-20-3.09802E-18
 -1      1168 1.43691E-04-4.31438E-05-4.30814E-05 8.91509E-07 8.22644E-20-2.78727E-18
 -1      1169 1.57490E-04-4.72788E-05-4.65124E-05 8.07103E-07 1.85553E-20-2.57360E-18
 -1      1170 1.65270E-04-4.95219E-05-4.78553E-05-7.94346E-08-1.02465E-19-2.32675E-18
 -1      1171 1.57232E-04-4.68166E-05-4.52553E-05-2.38685E-06 9.40604E-20-2.54025E-18
 -1      1172 1.27621E-04-3.77301E-05-3.86755E-05-4.75583E-06 2.32511E-19-2.30944E-18
 -1      1173 9.38715E-05-2.73790E-05-3.23430E-05-3.67291E-06-9.15325E-20-2.23024E-18
 -1      1174 7.99563E-05-2.36502E-05-2.97380E-05 1.72095E-07-4.00594E-19-3.51773E-18
 -1      1175 9.48349E-05-2.80484E-05-3.24087E-05 4.23767E-06-1.20808E-19-6.07280E-18
 -1      1176 1.27873E-04-3.79172E-05-3.87187E-05 4.75140E-06 3.20853E-19-6.14353E-18
 -1      1177 1.56221E-04-4.64416E-05-4.50778E-05 2.70642E-06 3.57342E-21-4.36518E-18
 -1      1178 1.67160E-04-5.00706E-05-4.83203E-05 3.48715E-07 1.28312E-19-3.02772E-18
 -1      1179 1.61018E-04-4.83267E-05-4.74759E-05-7.72627E-07-4.56352E-19-3.34769E-18
 -1      1180 1.47594E-04-4.43212E-05-4.42157E-05-8.98153E-07 6.57154E-20-4.80501E-18
 -1      1181 1.33858E-04-4.02091E-05-4.04094E-05-6.79955E-07 7.49326E-20-5.37675E-18
 -1      1182 1.22799E-04-3.69070E-05-3.71391E-05-4.23551E-07 1.89921E-20-4.91745E-18
 -1      1183 1.14507E-04-3.44129E-05-3.45960E-05-2.68965E-07-2.17251E-20-5.80323E-18
 -1      1184 1.08410E-04-3.25782E-05-3.26986E-05-1.52123E-07 2.69482E-19-5.70617E-18
 -1      1185 1.04170E-04-3.12969E-05-3.13705E-05-8.35486E-08 2.34981E-19-3.93747E-18
 -1      1186 1.01253E-04-3.04119E-05-3.04554E-05-4.44604E-08-3.37877E-19-5.86254E-18
 -1      1187 9.92539E-05-2.98035E-05-2.98289E-05-2.25675E-08 2.72060E-21-7.07320E-18
 -1      1188 9.78859E-05-2.93855E-05-2.94010E-05-1.03113E-08 1.12707E-19-4.47863E-18
 -1      1189 9.69702E-05-2.91075E-05-2.91148E-05-2.04356E-09 3.12335E-20-2.45491E-18
 -1      1190 9.63417E-05-2.89136E-05-2.89188E-05-5.15530E-10 5.10381E-19-2.04398E-19
 -1      1191 9.59025E-05-2.87788E-05-2.87818E-05 1.32238E-09-2.22849E-19-1.00507E-20
 -1      1192 9.56085E-05-2.86884E-05-2.86901E-05 2.18720E-09-2.71491E-19-3.91591E-18
 -1      1193 9.54153E-05-2.86288E-05-2.86297E-05 2.50752E-09 2.97426E-19-2.05755E-18
 -1      1194 9.52919E-05-2.85905E-05-2.85910E-05 2.54025E-09 2.30231E-19 8.56773E-20
 -1      1195 9.52180E-05-2.85678E-05-2.85677E-05 2.56865E-09-5.53293E-19-5.02105E-19
 -1      1196 9.51759E-05-2.85543E-05-2.85543E-05 2.17452E-09 2.94278E-19-9.22262E-19
 -1      1197 9.51550E-05-2.85476E-05-2.85475E-05 1.91451E-09 1.28633E-19 2.04650E-18
 -1      1198 9.51490E-05-2.85455E-05-2.85453E-05 1.66254E-09-2.66736E-19 3.94591E-19
 -1      1199 9.51526E-05-2.85463E-05-2.85461E-05 1.42919E-09 2.85068E-19 8.99498E-19
 -1      1200 9.51620E-05-2.85489E-05-2.85488E-05 1.22264E-09-2.78012E-19 3.53030E-18
 -1      1201 9.51743E-05-2.85525E-05-2.85523E-05 1.04793E-09-3.97085E-19 2.90524E-18
 -1      1202 9.51880E-05-2.85565E-05-2.85564E-05 9.11584E-10-1.25842E-19-1.86280E-19
 -1      1203 9.52023E-05-2.85607E-05-2.85606E-05 7.87021E-10 1.43124E-19-1.60307E-18
 -1      1204 9.52157E-05-2.85647E-05-2.85645E-05 6.69371E-10 7.79225E-20-3.65506E-18
 -1      1205 9.52271E-05-2.85681E-05-2.85678E-05 5.04706E-10 2.21923E-19-1.44556E-18
 -1      1206 9.52349E-05-2.85703E-05-2.85701E-05 1.42677E-10 1.59625E-19 7.06621E-20
 -1      1207 9.52376E-05-2.85713E-05-2.85714E-05-1.79878E-10 3.97166E-19 2.19694E-18
 -1      1208 1.30798E-04-3.76191E-05-3.87159E-05 1.20620E-05-9.12413E-20 4.16698E-18
 -1      1209 9.73290E-05-2.84257E-05-3.15583E-05 7.67802E-07-5.84453E-20 5.07404E-18
 -1      1210 9.18174E-05-2.73695E-05-2.82971E-05 1.03238E-07-4.02539E-20 5.14962E-18
 -1      1211 9.03630E-05-2.71092E-05-2.72840E-05-3.77074E-09-3.78055E-20 5.36892E-18
 -1      1212 9.05115E-05-2.71799E-05-2.71858E-05-4.08617E-08-2.77825E-20 5.87756E-18
 -1      1213 9.13596E-05-2.74245E-05-2.74084E-05-5.67222E-08 1.86637E-20 5.96568E-18
 -1      1214 9.24399E-05-2.77354E-05-2.77168E-05-6.68735E-08-5.12897E-20 6.55445E-18
 -1      1215 9.34363E-05-2.80236E-05-2.79971E-05-7.37106E-08-1.35280E-19 7.33361E-18
 -1      1216 9.40779E-05-2.82083E-05-2.81676E-05-7.52224E-08-1.25355E-19 7.38477E-18
 -1      1217 9.41123E-05-2.82143E-05-2.81557E-05-6.71984E-08 8.59275E-21 7.12085E-18
 -1      1218 9.33215E-05-2.79777E-05-2.79021E-05-4.47646E-08 1.37016E-19 6.08888E-18
 -1      1219 9.15745E-05-2.74602E-05-2.73753E-05-4.71604E-09-5.69630E-20 6.09054E-18
 -1      1220 8.89004E-05-2.66701E-05-2.65923E-05 5.12019E-08-1.32150E-20 6.65643E-18
 -1      1221 8.55592E-05-2.56823E-05-2.56347E-05 1.13439E-07-1.27931E-19 7.20997E-18
 -1      1222 8.20615E-05-2.46449E-05-2.46502E-05 1.64833E-07 1.79726E-19 6.02934E-18
 -1      1223 7.90945E-05-2.37594E-05-2.38290E-05 1.85902E-07-5.75552E-21 5.05184E-18
 -1      1224 7.73454E-05-2.32300E-05-2.33548E-05 1.64072E-07-8.78532E-20 5.69442E-18
 -1      1225 7.72743E-05-2.31977E-05-2.33476E-05 1.01745E-07 5.77389E-20 6.04050E-18
 -1      1226 7.89439E-05-2.36866E-05-2.38220E-05 1.69685E-08 2.14951E-19 4.61581E-18
 -1      1227 8.19980E-05-2.45948E-05-2.46829E-05-6.47645E-08-1.02096E-19 4.82915E-18
 -1      1228 8.58022E-05-2.57333E-05-2.57607E-05-1.22346E-07 1.76499E-19 5.59418E-18
 -1      1229 8.96671E-05-2.68940E-05-2.68678E-05-1.46727E-07-2.95427E-19 6.47684E-18
 -1      1230 9.30438E-05-2.79097E-05-2.78496E-05-1.41209E-07 2.29691E-19 5.12955E-18
 -1      1231 9.56213E-05-2.86853E-05-2.86133E-05-1.16271E-07-3.28606E-20 3.87514E-18
 -1      1232 9.73222E-05-2.91968E-05-2.91298E-05-8.35095E-08 2.39502E-20 3.52131E-18
 -1      1233 9.82360E-05-2.94714E-05-2.94184E-05-5.17533E-08-1.72186E-20 4.91601E-18
 -1      1234 9.85377E-05-2.95619E-05-2.95255E-05-2.58865E-08 3.39005E-19 3.74327E-18
 -1      1235 9.84219E-05-2.95269E-05-2.95055E-05-7.46690E-09-1.58879E-19 3.54242E-18
 -1      1236 9.80611E-05-2.94186E-05-2.94086E-05 4.02785E-09-2.57141E-19 3.55005E-18
 -1      1237 9.75886E-05-2.92768E-05-2.92746E-05 1.00654E-08 1.17241E-19 2.23024E-18
 -1      1238 9.70960E-05-2.91291E-05-2.91315E-05 1.22982E-08-3.75419E-21 2.73349E-18
 -1      1239 9.66386E-05-2.89920E-05-2.89966E-05 1.21694E-08 2.70493E-19 3.31337E-18
 -1      1240 9.62449E-05-2.88739E-05-2.88793E-05 1.07711E-08-2.72968E-19 5.92043E-18
 -1      1241 9.59246E-05-2.87779E-05-2.87831E-05 8.84705E-09-1.54837E-19 6.39736E-18
 -1      1242 9.56760E-05-2.87033E-05-2.87078E-05 6.85465E-09-2.13383E-19 5.25272E-18
 -1      1243 9.54912E-05-2.86479E-05-2.86515E-05 5.04285E-09-1.99915E-19 3.43581E-18
 -1      1244 9.53598E-05-2.86084E-05-2.86113E-05 3.52171E-09 2.63349E-19-2.51515E-19
 -1      1245 9.52711E-05-2.85818E-05-2.85839E-05 2.31652E-09 1.17236E-19 5.00074E-20
 -1      1246 9.52150E-05-2.85649E-05-2.85664E-05 1.40586E-09 2.51811E-19 2.50050E-18
 -1      1247 9.51830E-05-2.85552E-05-2.85562E-05 7.46526E-10-8.08435E-21 9.51433E-19
 -1      1248 9.51682E-05-2.85507E-05-2.85514E-05 2.88491E-10-5.30134E-20 2.24403E-18
 -1      1249 9.51652E-05-2.85498E-05-2.85502E-05-1.67824E-11 3.05631E-19 1.20147E-18
 -1      1250 9.51699E-05-2.85511E-05-2.85513E-05-2.12487E-10-3.05810E-19-1.39931E-18
 -1      1251 9.51793E-05-2.85539E-05-2.85540E-05-3.35199E-10 4.00334E-19-3.65621E-18
 -1      1252 9.51913E-05-2.85575E-05-2.85575E-05-4.14822E-10-1.51382E-19-4.21323E-18
 -1      1253 9.52042E-05-2.85613E-05-2.85612E-05-4.74199E-10-1.81371E-19-3.23798E-18
 -1      1254 9.52167E-05-2.85650E-05-2.85649E-05-5.26245E-10-8.02440E-20-3.08922E-18
 -1      1255 9.52275E-05-2.85682E-05-2.85680E-05-5.53002E-10 2.25739E-19-3.16997E-18
 -1      1256 9.52350E-05-2.85704E-05-2.85701E-05-4.29609E-10 8.78202E-19-4.30996E-18
 -1      1257 9.52375E-05-2.85713E-05-2.85713E-05 1.38983E-10-1.26204E-19-3.78481E-18
 -1      1258 9.52370E-05-2.85708E-05-2.85713E-05 1.04046E-10-2.96015E-18-1.92531E-19
 -1      1259 9.52379E-05-2.85734E-05-2.85701E-05-1.31628E-10-3.69581E-18-5.50558E-19
 -1      1260 9.52400E-05-2.85805E-05-2.85681E-05-4.62189E-10 5.97605E-19 1.24517E-18
 -1      1261 9.52427E-05-2.85898E-05-2.85655E-05-5.16581E-10 6.49764E-19 1.96102E-19
 -1      1262 9.52456E-05-2.85994E-05-2.85628E-05-4.61390E-10 1.00940E-18 6.66896E-19
 -1      1263 9.52481E-05-2.86078E-05-2.85603E-05-3.60368E-10-4.75375E-18-6.79529E-19
 -1      1264 9.52500E-05-2.86143E-05-2.85584E-05-2.52844E-10-6.03480E-18-9.57796E-20
 -1      1265 9.52513E-05-2.86186E-05-2.85572E-05-1.33710E-10-5.19216E-18-8.80594E-19
 -1      1266 9.52517E-05-2.86202E-05-2.85567E-05-1.19741E-11-4.58762E-18-2.72821E-19
 -1      1267 9.52514E-05-2.86190E-05-2.85570E-05 1.13601E-10-3.85587E-19-1.48382E-19
 -1      1268 9.52502E-05-2.86151E-05-2.85582E-05 2.43019E-10-6.15227E-18-1.54519E-18
 -1      1269 9.52483E-05-2.86087E-05-2.85601E-05 3.70994E-10-1.60881E-17-1.39906E-19
 -1      1270 9.52458E-05-2.86002E-05-2.85625E-05 4.79726E-10-1.22653E-17 3.58591E-19
 -1      1271 9.52429E-05-2.85903E-05-2.85654E-05 5.43185E-10-7.28594E-18 9.21822E-22
 -1      1272 9.52401E-05-2.85807E-05-2.85680E-05 4.88580E-10 1.53436E-18-1.40301E-18
 -1      1273 9.52379E-05-2.85734E-05-2.85701E-05 1.00299E-10-8.29291E-19-1.79856E-18
 -1      1274 9.52370E-05-2.85708E-05-2.85714E-05-7.13860E-11-1.81576E-18 1.03132E-18
 -1      1275 3.40931E-05-1.09346E-04 1.91970E-05-1.36659E-05 4.51214E-18-1.26764E-19
 -1      1276 1.53924E-05-5.63508E-05 7.51089E-06-2.05800E-05 2.67324E-18 9.77900E-19
 -1      1277 8.59903E-06 1.96651E-06-9.78783E-06 9.75467E-06 5.20925E-18 4.77134E-18
 -1      1278 3.96065E-05 3.05667E-05-2.97200E-05 6.35387E-05 8.63296E-18 7.82658E-18
 -1      1279 1.18507E-04 1.40221E-05-5.07376E-05 1.10167E-04 4.84842E-18 7.51318E-18
 -1      1280 2.21956E-04-3.61419E-05-6.84649E-05 1.14512E-04 3.15054E-18 6.89485E-18
 -1      1281 3.01960E-04-8.38731E-05-7.93454E-05 6.14473E-05 7.16590E-19 1.13164E-18
 -1      1282 3.21177E-04-9.65206E-05-8.14863E-05-2.34347E-05 5.29951E-19-4.96870E-18
 -1      1283 2.66401E-04-6.24663E-05-7.45993E-05-9.46877E-05 1.74425E-18-7.74188E-18
 -1      1284 1.70385E-04-9.46108E-06-6.01798E-05-1.19699E-04 3.04762E-18-5.90043E-18
 -1      1285 7.68725E-05 2.64404E-05-4.10693E-05-9.26158E-05 4.82216E-18-5.55992E-18
 -1      1286 2.00963E-05 1.76275E-05-1.89441E-05-3.45245E-05 3.45420E-18-3.45674E-18
 -1      1287 1.01614E-05-3.35225E-05 1.76995E-06 1.39544E-05 3.30343E-19-5.13302E-19
 -1      1288 2.90273E-05-9.50021E-05 1.59182E-05 2.26052E-05-2.23617E-18 3.00697E-20
 -1      1289 3.95407E-05-1.23630E-04 2.19155E-05-3.63009E-06-3.85802E-18-2.93391E-19
 -1      1290 2.95472E-05-1.04264E-04 1.81686E-05-3.15858E-05-3.94802E-18-1.14551E-18
 -1      1291 9.97491E-06-4.92465E-05 5.54792E-06-2.92553E-05-3.75405E-18-1.83467E-18
 -1      1292 1.65765E-05 3.70817E-06-1.49190E-05 1.61898E-05-3.92854E-18-3.69137E-18
 -1      1293 8.10617E-05 1.56485E-05-4.04800E-05 8.20605E-05-3.58803E-18-4.36561E-18
 -1      1294 1.96265E-04-2.32254E-05-6.43473E-05 1.19584E-04-2.54110E-19 3.08320E-19
 -1      1295 3.14987E-04-8.23077E-05-8.13136E-05 9.19317E-05 7.63388E-19 3.37458E-18
 -1      1296 3.67236E-04-1.09987E-04-8.83728E-05 8.78076E-06-7.60212E-20 3.75913E-18
 -1      1297 3.28724E-04-8.97662E-05-8.30771E-05-7.98768E-05-1.31502E-18 5.56331E-18
 -1      1298 2.13293E-04-3.17850E-05-6.68136E-05-1.18328E-04-4.59515E-18 9.88826E-18
 -1      1299 9.08967E-05 1.29473E-05-4.27670E-05-8.63809E-05-5.80895E-18 8.50590E-18
 -1      1300 1.92303E-05 6.89028E-06-1.70759E-05-2.14686E-05-5.41085E-18 4.67223E-18
 -1      1301 7.57463E-06-4.04471E-05 3.24721E-06 2.58988E-05-3.30682E-18 2.62665E-18
 -1      1302 2.46078E-05-9.37933E-05 1.62744E-05 3.58182E-05 2.58260E-18-6.82285E-19
 -1      1303 3.90014E-05-1.23572E-04 2.19049E-05 1.50607E-05 4.89172E-18 3.71106E-20
 -1      1304 1.05072E-04-2.19720E-05-3.81226E-05-1.70952E-05-9.76205E-20-1.60767E-18
 -1      1305 9.12042E-05-6.89515E-06-3.62831E-05-1.92982E-05 1.41349E-20-1.37558E-18
 -1      1306 9.33850E-05-6.83356E-06-3.74060E-05-2.47017E-05-6.94567E-20-1.50597E-18
 -1      1307 8.66287E-05-4.20773E-06-3.53884E-05-1.50322E-05 1.55722E-19-1.10972E-18
 -1      1308 8.79923E-05-4.21378E-06-3.58753E-05-1.75166E-05 1.25361E-19-1.26234E-18
 -1      1309 9.30978E-05-1.07354E-05-3.53734E-05-1.77256E-05 1.18796E-19-1.17219E-18
 -1      1310 8.44239E-05-3.14731E-06-3.48515E-05-1.14103E-05 2.85794E-19-8.68646E-19
 -1      1311 8.52247E-05-3.12795E-06-3.51314E-05-1.32038E-05 2.62951E-19-1.00665E-18
 -1      1312 8.84999E-05-7.41813E-06-3.48238E-05-1.39705E-05 3.22296E-19-9.45051E-19
 -1      1313 8.30425E-05-2.53020E-06-3.45054E-05-8.45796E-06 3.19596E-19-6.20068E-19
 -1      1314 8.35683E-05-2.52311E-06-3.46828E-05-9.89574E-06 3.24705E-19-7.73765E-19
 -1      1315 8.59787E-05-5.72974E-06-3.44545E-05-1.05765E-05 4.84715E-19-7.55977E-19
 -1      1316 8.21462E-05-2.14576E-06-3.42770E-05-6.01324E-06 3.45067E-19-3.56654E-19
 -1      1317 8.24888E-05-2.14347E-06-3.43913E-05-7.21195E-06 3.27868E-19-4.81274E-19
 -1      1318 8.43955E-05-4.71702E-06-3.41991E-05-7.80170E-06 5.08723E-19-5.13037E-19
 -1      1319 8.15922E-05-1.91690E-06-3.41313E-05-3.81542E-06 3.63109E-19-7.94358E-20
 -1      1320 8.17952E-05-1.91630E-06-3.42005E-05-4.90480E-06 3.53676E-19-2.49041E-19
 -1      1321 8.33812E-05-4.09883E-06-3.40228E-05-5.44032E-06 5.71721E-19-2.93497E-19
 -1      1322 8.13465E-05-1.81789E-06-3.40619E-05-1.76005E-06 3.97812E-19 1.94023E-19
 -1      1323 8.14216E-05-1.81695E-06-3.40902E-05-2.79309E-06 3.94393E-19 4.47869E-20
 -1      1324 8.28017E-05-3.76903E-06-3.39129E-05-3.30395E-06 5.95366E-19 5.13249E-20
 -1      1325 8.13696E-05-1.82681E-06-3.40610E-05 2.80493E-07 4.33049E-19 4.42310E-19
 -1      1326 8.13323E-05-1.82535E-06-3.40529E-05-7.57525E-07 4.47138E-19 2.98672E-19
 -1      1327 8.26006E-05-3.67673E-06-3.38656E-05-1.27116E-06 6.80191E-19 2.65201E-19
 -1      1328 8.16261E-05-1.92571E-06-3.41213E-05 2.41233E-06 4.66424E-19 7.28091E-19
 -1      1329 8.14907E-05-1.92440E-06-3.40807E-05 1.31795E-06 4.58380E-19 5.70675E-19
 -1      1330 8.27259E-05-3.78143E-06-3.38754E-05 7.78141E-07 7.20876E-19 5.27304E-19
 -1      1331 8.20937E-05-2.10473E-06-3.42381E-05 4.72650E-06 4.77224E-19 1.00262E-18
 -1      1332 8.18676E-05-2.10415E-06-3.41667E-05 3.53003E-06 4.82498E-19 8.34076E-19
 -1      1333 8.31365E-05-4.05664E-06-3.39359E-05 2.94289E-06 7.67802E-19 7.53118E-19
 -1      1334 8.27674E-05-2.35947E-06-3.44118E-05 7.26432E-06 4.26640E-19 1.42043E-18
 -1      1335 8.24490E-05-2.36401E-06-3.43073E-05 5.94374E-06 4.39769E-19 1.18522E-18
 -1      1336 8.38108E-05-4.49402E-06-3.40414E-05 5.28725E-06 7.40231E-19 1.06578E-18
 -1      1337 8.37466E-05-2.72424E-06-3.46718E-05 1.02190E-05 4.45725E-19 1.91178E-18
 -1      1338 8.32807E-05-2.73613E-06-3.45123E-05 8.66496E-06 4.31510E-19 1.65727E-18
 -1      1339 8.47882E-05-5.13064E-06-3.41950E-05 7.91511E-06 7.03563E-19 1.46457E-18
 -1      1340 8.52490E-05-3.27169E-06-3.50859E-05 1.37173E-05 3.74071E-19 2.45076E-18
 -1      1341 8.45163E-05-3.29955E-06-3.48220E-05 1.18411E-05 3.84024E-19 2.14388E-18
 -1      1342 8.62362E-05-6.08896E-06-3.44174E-05 1.09586E-05 6.37167E-19 1.90079E-18
 -1      1343 8.79113E-05-4.23300E-06-3.58251E-05 1.81049E-05 2.55486E-19 3.14297E-18
 -1      1344 8.65697E-05-4.28660E-06-3.53304E-05 1.56300E-05 2.66868E-19 2.76524E-18
 -1      1345 8.85813E-05-7.67944E-06-3.47554E-05 1.45487E-05 4.67946E-19 2.45383E-18
 -1      1346 9.41048E-05-7.00497E-06-3.72856E-05 2.43279E-05 8.99973E-21 3.80355E-18
 -1      1347 9.08247E-05-6.63087E-06-3.62411E-05 2.02624E-05 7.63388E-20 3.43805E-18
 -1      1348 9.31174E-05-1.09568E-05-3.52846E-05 1.87065E-05 2.17899E-19 3.04667E-18
 -1      1349 1.23727E-04-2.50017E-05-3.90924E-05 2.78816E-05-2.20123E-19 4.00223E-18
 -1      1350 1.00623E-04-1.46089E-05-3.74951E-05 2.34252E-05-1.10538E-19 4.00085E-18
 -1      1351 1.02411E-04-1.96236E-05-3.55861E-05 2.06059E-05-8.19372E-20 3.57787E-18
 -1      1352 1.03164E-04-2.80066E-05-3.49007E-05 6.95615E-06-2.49160E-19 4.32791E-18
 -1      1353 1.06407E-04-3.03561E-05-3.40063E-05-7.89451E-06-1.06726E-19-1.40840E-18
 -1      1354 9.97834E-05-2.82085E-05-3.12894E-05-4.75068E-06-3.23461E-20-1.56045E-18
 -1      1355 9.73546E-05-2.83534E-05-2.98483E-05-2.08403E-06-8.13681E-20-1.55311E-18
 -1      1356 9.55092E-05-2.81944E-05-2.89061E-05-1.61829E-06-1.03338E-19-1.69915E-18
 -1      1357 1.01130E-04-2.83606E-05-3.15495E-05-7.26709E-06-1.51037E-19-1.21745E-18
 -1      1358 9.41982E-05-2.79354E-05-2.83894E-05-2.65545E-07-1.20471E-19-1.73713E-18
 -1      1359 9.40387E-05-2.80040E-05-2.82493E-05-1.20852E-07-1.57945E-19-1.90860E-18
 -1      1360 9.70514E-05-2.83909E-05-2.95637E-05-2.14441E-06-1.70412E-19-1.29773E-18
 -1      1361 9.38389E-05-2.79694E-05-2.81817E-05 6.40089E-07-1.11272E-20-1.93251E-18
 -1      1362 9.45656E-05-2.82263E-05-2.83854E-05 7.52615E-07-1.53128E-20-2.06726E-18
 -1      1363 9.57493E-05-2.83558E-05-2.89273E-05 3.48909E-07-1.04503E-19-1.27966E-18
 -1      1364 9.50838E-05-2.83700E-05-2.85612E-05 1.32590E-06 1.20887E-19-2.03824E-18
 -1      1365 9.64536E-05-2.87894E-05-2.89699E-05 1.43625E-06 1.31697E-19-1.86030E-18
 -1      1366 9.60627E-05-2.85354E-05-2.89714E-05 1.93950E-06 5.84585E-20-1.53970E-18
 -1      1367 9.74803E-05-2.90677E-05-2.93074E-05 1.97862E-06 7.67061E-20-1.85320E-18
 -1      1368 9.93873E-05-2.96402E-05-2.98740E-05 2.09646E-06 3.53438E-20-1.73036E-18
 -1      1369 9.75402E-05-2.89686E-05-2.94223E-05 3.27153E-06 1.25162E-19-1.49012E-18
 -1      1370 1.01012E-04-3.00791E-05-3.04029E-05 2.75200E-06-2.70653E-21-1.63514E-18
 -1      1371 1.03780E-04-3.09071E-05-3.12258E-05 2.92112E-06 2.82499E-20-1.62640E-18
 -1      1372 1.00047E-04-2.96448E-05-3.02141E-05 4.68991E-06 7.15015E-20-9.50483E-19
 -1      1373 1.06017E-04-3.15062E-05-3.19545E-05 3.74167E-06-2.91168E-22-1.75765E-18
 -1      1374 1.09778E-04-3.26411E-05-3.30690E-05 3.96537E-06-7.54587E-20-1.85209E-18
 -1      1375 1.03723E-04-3.06361E-05-3.13770E-05 6.44530E-06-9.35971E-20-1.20807E-18
 -1      1376 1.12712E-04-3.34367E-05-3.40216E-05 4.96076E-06-4.71361E-20-1.77670E-18
 -1      1377 1.17686E-04-3.49710E-05-3.54799E-05 5.24107E-06-6.91126E-20-2.10879E-18
 -1      1378 1.08655E-04-3.19920E-05-3.29250E-05 8.60536E-06-1.55219E-19-8.93769E-19
 -1      1379 1.21368E-04-3.60102E-05-3.66516E-05 6.27551E-06 9.29817E-20-1.70460E-18
 -1      1380 1.27584E-04-3.80114E-05-3.84254E-05 6.56189E-06 1.88988E-19-1.50677E-18
 -1      1381 1.15007E-04-3.38586E-05-3.48588E-05 1.10430E-05 1.07170E-19-5.24790E-19
 -1      1382 1.31919E-04-3.93647E-05-3.97240E-05 7.17443E-06 1.43511E-19-1.71185E-18
 -1      1383 1.38747E-04-4.17330E-05-4.15629E-05 7.27819E-06 2.72142E-20-1.69788E-18
 -1      1384 1.22818E-04-3.64723E-05-3.70718E-05 1.30948E-05 2.24874E-19-4.58668E-19
 -1      1385 1.43072E-04-4.33345E-05-4.26849E-05 6.51617E-06 1.33805E-20-1.70270E-18
 -1      1386 1.48358E-04-4.54536E-05-4.39403E-05 6.12151E-06 3.96782E-20-1.82419E-18
 -1      1387 1.31568E-04-4.00761E-05-3.92022E-05 1.31309E-05 2.03817E-20-8.44545E-19
 -1      1388 1.52348E-04-4.73833E-05-4.46627E-05 2.49352E-06 3.24043E-19-1.52814E-18
 -1      1389 1.52959E-04-4.81112E-05-4.45697E-05 9.62156E-07-1.26658E-19-1.56309E-18
 -1      1390 1.40427E-04-4.47163E-05-4.08555E-05 8.43857E-06 1.90053E-19-7.74175E-19
 -1      1391 1.54675E-04-4.94010E-05-4.45900E-05-6.06261E-06-1.39125E-19-1.48337E-18
 -1      1392 1.46196E-04-4.64455E-05-4.25502E-05-8.58146E-06-5.69365E-20-1.60809E-18
 -1      1393 1.47239E-04-4.90715E-05-4.17595E-05-3.90628E-06-2.46592E-19-9.52647E-20
 -1      1394 1.43801E-04-4.50581E-05-4.22269E-05-1.51332E-05 1.02253E-19-2.07989E-18
 -1      1395 1.27837E-04-3.82026E-05-3.91914E-05-1.61561E-05-2.40504E-19-1.87957E-18
 -1      1396 1.47806E-04-4.86679E-05-4.24085E-05-2.07207E-05-5.29978E-19-9.96296E-19
 -1      1397 1.23960E-04-3.50540E-05-3.91511E-05-1.48380E-05-1.02915E-19-2.40113E-18
 -1      1398 1.13135E-04-2.99494E-05-3.73219E-05-1.28317E-05-3.84976E-19-2.59446E-18
 -1      1399 1.40860E-04-4.06476E-05-4.35851E-05-2.72431E-05-6.12193E-19-1.74904E-18
 -1      1400 1.10076E-04-2.74907E-05-3.73526E-05-3.19397E-06-7.85200E-19-2.89463E-18
 -1      1401 1.09500E-04-2.70116E-05-3.72988E-05 7.57246E-07-8.48727E-19-3.75977E-18
 -1      1402 1.33323E-04-3.19747E-05-4.47042E-05-1.47623E-05-9.28560E-19-3.10228E-18
 -1      1403 1.11770E-04-2.91233E-05-3.72820E-05 1.19737E-05-1.05964E-18-3.94802E-18
 -1      1404 1.23582E-04-3.44762E-05-3.93050E-05 1.41665E-05-5.05043E-19-4.50262E-18
 -1      1405 1.32471E-04-3.08201E-05-4.48804E-05 1.08959E-05-1.52953E-18-3.14591E-18
 -1      1406 1.28265E-04-3.82529E-05-3.94046E-05 1.67816E-05 2.40293E-19-4.71035E-18
 -1      1407 1.42466E-04-4.42716E-05-4.21465E-05 1.57812E-05 4.83126E-19-4.28683E-18
 -1      1408 1.40248E-04-3.96875E-05-4.37776E-05 2.71180E-05-4.97632E-19-3.28910E-18
 -1      1409 1.45742E-04-4.62346E-05-4.25231E-05 1.02626E-05 5.83288E-19-3.86353E-18
 -1      1410 1.55210E-04-4.96647E-05-4.47388E-05 7.80120E-06 3.53451E-19-3.62678E-18
 -1      1411 1.47996E-04-4.82056E-05-4.27096E-05 2.26302E-05 8.99496E-19-3.51357E-18
 -1      1412 1.54251E-04-4.86522E-05-4.48727E-05 3.60055E-07 3.82779E-19-2.84063E-18
 -1      1413 1.54850E-04-4.83558E-05-4.52895E-05-1.34154E-06 1.43122E-19-2.58953E-18
 -1      1414 1.48949E-04-4.99278E-05-4.21362E-05 6.48401E-06 7.49121E-19-2.26896E-18
 -1      1415 1.51293E-04-4.64990E-05-4.47133E-05-5.50281E-06-7.97984E-19-2.54134E-18
 -1      1416 1.46273E-04-4.44012E-05-4.35719E-05-6.01883E-06-1.09983E-18-3.53758E-18
 -1      1417 1.42976E-04-4.58328E-05-4.14293E-05-6.83125E-06-4.56021E-19-2.71661E-18
 -1      1418 1.41884E-04-4.27265E-05-4.24747E-05-7.05803E-06-2.16083E-19-3.50497E-18
 -1      1419 1.35282E-04-4.03864E-05-4.07159E-05-6.95918E-06-2.33265E-20-3.77808E-18
 -1      1420 1.34324E-04-4.10627E-05-3.99400E-05-1.24128E-05-1.01312E-18-2.62347E-18
 -1      1421 1.31075E-04-3.90682E-05-3.94747E-05-6.38758E-06-7.11772E-20-4.26021E-18
 -1      1422 1.25070E-04-3.71102E-05-3.77625E-05-6.09826E-06 3.77691E-19-3.60651E-18
 -1      1423 1.25628E-04-3.73442E-05-3.78939E-05-1.26570E-05-1.10494E-19-2.35907E-18
 -1      1424 1.21686E-04-3.61529E-05-3.66946E-05-5.07976E-06 3.91779E-19-3.63367E-18
 -1      1425 1.17131E-04-3.47446E-05-3.53573E-05-4.81208E-06 1.50679E-19-3.22323E-18
 -1      1426 1.18236E-04-3.47997E-05-3.58382E-05-1.06683E-05 4.10705E-19-2.03606E-18
 -1      1427 1.14272E-04-3.39746E-05-3.44370E-05-3.76421E-06-6.07865E-19-3.46556E-18
 -1      1428 1.10732E-04-3.29057E-05-3.33813E-05-3.53542E-06-6.04351E-19-4.50133E-18
 -1      1429 1.12271E-04-3.30295E-05-3.40245E-05-8.23709E-06-2.54679E-19-1.94440E-18
 -1      1430 1.08587E-04-3.23393E-05-3.26854E-05-2.68285E-06 6.19188E-19-4.80648E-18
 -1      1431 1.06077E-04-3.15955E-05-3.19324E-05-2.51688E-06 7.42146E-19-3.48913E-18
 -1      1432 1.07550E-04-3.17457E-05-3.25348E-05-6.01493E-06 3.35968E-20-2.76594E-18
 -1      1433 1.04500E-04-3.11791E-05-3.14227E-05-1.87988E-06 4.14186E-19-3.79013E-18
 -1      1434 1.02753E-04-3.06670E-05-3.08977E-05-1.76381E-06-1.36118E-19-3.95739E-18
 -1      1435 1.04032E-04-3.08292E-05-3.14058E-05-4.27953E-06 6.32734E-19-3.20338E-18
 -1      1436 1.01613E-04-3.03640E-05-3.05314E-05-1.30688E-06-7.46865E-19-3.21599E-18
 -1      1437 1.00407E-04-3.00130E-05-3.01690E-05-1.22694E-06-3.67023E-19-4.11934E-18
 -1      1438 1.01460E-04-3.01700E-05-3.05759E-05-3.00506E-06-7.63094E-19-2.29170E-18
 -1      1439 9.95912E-05-2.97941E-05-2.99084E-05-9.05422E-07 1.45385E-20-4.14509E-18
 -1      1440 9.87620E-05-2.95538E-05-2.96591E-05-8.50624E-07 2.96003E-19-4.37198E-18
 -1      1441 9.96019E-05-2.96949E-05-2.99762E-05-2.09675E-06-2.52667E-19-1.41162E-18
 -1      1442 9.81811E-05-2.93971E-05-2.94747E-05-6.26203E-07 7.62616E-19-3.52177E-18
 -1      1443 9.76129E-05-2.92322E-05-2.93038E-05-5.88458E-07 6.67081E-19-2.30374E-18
 -1      1444 9.82691E-05-2.93527E-05-2.95468E-05-1.45812E-06 1.18299E-18-1.35538E-18
 -1      1445 9.72197E-05-2.91250E-05-2.91798E-05-4.38016E-07 7.45195E-19-2.60944E-18
 -1      1446 9.68444E-05-2.90170E-05-2.90670E-05-4.13617E-07 1.83642E-19-1.46930E-18
 -1      1447 9.73375E-05-2.91138E-05-2.92474E-05-1.01869E-06 9.86327E-19-2.09071E-18
 -1      1448 9.65484E-05-2.89364E-05-2.89739E-05-3.02502E-07 6.38083E-19-1.74205E-18
 -1      1449 9.62774E-05-2.88585E-05-2.88923E-05-2.83991E-07 9.88807E-19-8.29392E-19
 -1      1450 9.66717E-05-2.89392E-05-2.90339E-05-7.12203E-07 6.61638E-19-2.00890E-18
 -1      1451 9.60703E-05-2.88012E-05-2.88275E-05-2.06156E-07-1.02404E-18-1.09869E-18
 -1      1452 9.58871E-05-2.87490E-05-2.87722E-05-1.93385E-07-1.40376E-18-1.85275E-18
 -1      1453 9.61870E-05-2.88132E-05-2.88786E-05-4.89582E-07-6.81724E-19-2.54356E-18
 -1      1454 9.57433E-05-2.87090E-05-2.87274E-05-1.38830E-07-5.68771E-19-2.51495E-18
 -1      1455 9.56210E-05-2.86744E-05-2.86904E-05-1.29927E-07-6.42874E-19-2.96972E-18
 -1      1456 9.58473E-05-2.87244E-05-2.87699E-05-3.33220E-07-2.00175E-18-1.85984E-18
 -1      1457 9.55224E-05-2.86469E-05-2.86597E-05-9.16866E-08 4.93525E-19-2.85657E-18
 -1      1458 9.54425E-05-2.86246E-05-2.86355E-05-8.54957E-08 5.98856E-19-1.89763E-18
 -1      1459 9.56118E-05-2.86628E-05-2.86945E-05-2.23369E-07 3.23818E-19-2.07920E-18
 -1      1460 9.53762E-05-2.86061E-05-2.86149E-05-5.87599E-08 3.96002E-19-1.65292E-18
 -1      1461 9.53258E-05-2.85921E-05-2.85995E-05-5.44694E-08 6.43628E-19-1.24482E-18
 -1      1462 9.54511E-05-2.86209E-05-2.86430E-05-1.46279E-07 9.97331E-19-2.39010E-18
 -1      1463 9.52842E-05-2.85804E-05-2.85867E-05-3.65805E-08-2.87814E-19-1.61938E-18
 -1      1464 9.52550E-05-2.85726E-05-2.85777E-05-3.38386E-08-8.62132E-19-1.62901E-18
 -1      1465 9.53459E-05-2.85940E-05-2.86091E-05-9.32796E-08 7.21723E-20-1.71718E-18
 -1      1466 9.52271E-05-2.85648E-05-2.85691E-05-2.08362E-08 2.98476E-19-1.97675E-18
 -1      1467 9.52102E-05-2.85605E-05-2.85638E-05-1.87882E-08 7.99524E-19-1.08862E-18
 -1      1468 9.52772E-05-2.85762E-05-2.85869E-05-5.66120E-08-1.07284E-19-9.06529E-19
 -1      1469 9.51937E-05-2.85559E-05-2.85587E-05-9.96120E-09 8.88501E-19-1.02845E-18
 -1      1470 9.51863E-05-2.85542E-05-2.85563E-05-8.62206E-09 6.35539E-20-3.60346E-19
 -1      1471 9.52335E-05-2.85655E-05-2.85725E-05-3.05479E-08 7.88891E-19-1.79657E-18
 -1      1472 9.51778E-05-2.85518E-05-2.85537E-05-2.77159E-09-7.77225E-19-7.37711E-19
 -1      1473 9.51766E-05-2.85519E-05-2.85532E-05-1.91369E-09-1.45817E-19-1.17050E-18
 -1      1474 9.52087E-05-2.85596E-05-2.85643E-05-1.29849E-08-6.34241E-19-2.15865E-18
 -1      1475 9.51733E-05-2.85511E-05-2.85522E-05 1.83939E-09 6.25577E-19-9.35407E-19
 -1      1476 9.51761E-05-2.85522E-05-2.85529E-05 2.36094E-09 7.11009E-19 6.70549E-19
 -1      1477 9.51969E-05-2.85572E-05-2.85601E-05-1.45955E-09 5.08433E-19-1.41643E-18
 -1      1478 9.51763E-05-2.85523E-05-2.85530E-05 4.64827E-09 5.59368E-19 1.17318E-18
 -1      1479 9.51814E-05-2.85541E-05-2.85544E-05 4.93693E-09 1.01778E-19 1.53917E-18
 -1      1480 9.51937E-05-2.85570E-05-2.85587E-05 5.81461E-09 1.57141E-18-1.38130E-18
 -1      1481 9.51836E-05-2.85548E-05-2.85551E-05 6.16434E-09-1.82906E-20 2.59100E-18
 -1      1482 9.51896E-05-2.85568E-05-2.85568E-05 6.28371E-09 1.96323E-20 2.67914E-18
 -1      1483 9.51959E-05-2.85582E-05-2.85591E-05 1.00521E-08 6.00598E-19 4.39922E-19
 -1      1484 9.51932E-05-2.85578E-05-2.85580E-05 6.84414E-09-2.73631E-19 1.45310E-18
 -1      1485 9.52000E-05-2.85600E-05-2.85599E-05 6.86785E-09-9.01317E-19 1.17615E-18
 -1      1486 9.52014E-05-2.85602E-05-2.85606E-05 1.22427E-08-9.14650E-19 2.58383E-18
 -1      1487 9.52041E-05-2.85613E-05-2.85612E-05 6.87081E-09-9.77242E-19 5.94798E-19
 -1      1488 9.52108E-05-2.85634E-05-2.85631E-05 6.79643E-09-4.39200E-19 3.53061E-21
 -1      1489 9.52088E-05-2.85627E-05-2.85626E-05 1.29762E-08-1.14973E-18 2.74771E-18
 -1      1490 9.52149E-05-2.85646E-05-2.85644E-05 6.30830E-09-7.29961E-19-7.18099E-19
 -1      1491 9.52209E-05-2.85666E-05-2.85661E-05 6.13079E-09-2.90317E-19-1.58452E-18
 -1      1492 9.52168E-05-2.85654E-05-2.85649E-05 1.24589E-08-1.23404E-18 2.28988E-18
 -1      1493 9.52246E-05-2.85677E-05-2.85672E-05 5.11875E-09 8.74550E-19-1.56010E-18
 -1      1494 9.52293E-05-2.85693E-05-2.85685E-05 4.79070E-09 2.04654E-19-4.98111E-19
 -1      1495 9.52245E-05-2.85680E-05-2.85670E-05 1.07366E-08 4.71493E-20 4.00556E-19
 -1      1496 9.52322E-05-2.85703E-05-2.85693E-05 3.16818E-09 5.04250E-19-7.31332E-20
 -1      1497 9.52350E-05-2.85712E-05-2.85702E-05 2.63478E-09 6.65698E-19 1.50666E-18
 -1      1498 9.52309E-05-2.85703E-05-2.85687E-05 7.70659E-09 4.65147E-19 8.40342E-19
 -1      1499 9.52370E-05-2.85715E-05-2.85709E-05 2.07576E-10-1.13585E-18 1.19147E-18
 -1      1500 9.76739E-05-2.87029E-05-3.00866E-05 2.70152E-06 3.00167E-20 4.30269E-18
 -1      1501 1.03280E-04-2.96254E-05-3.23748E-05 4.14956E-06-3.15520E-20 4.19641E-18
 -1      1502 1.03153E-04-2.70190E-05-3.29372E-05 1.21814E-05-1.73536E-19 3.58973E-18
 -1      1503 9.36538E-05-2.79196E-05-2.82428E-05 8.91592E-07 3.58004E-20 4.28212E-18
 -1      1504 9.53077E-05-2.79897E-05-2.90663E-05 1.21023E-06-3.58666E-21 4.25242E-18
 -1      1505 9.77539E-05-2.84276E-05-2.99055E-05 4.34116E-06-8.47033E-21 3.47489E-18
 -1      1506 9.23299E-05-2.76476E-05-2.76993E-05 8.12962E-08-1.45385E-19 4.41182E-18
 -1      1507 9.26695E-05-2.75807E-05-2.78883E-05 2.44263E-07-7.66432E-20 4.17661E-18
 -1      1508 9.47551E-05-2.80930E-05-2.86108E-05 1.35988E-06-3.63430E-20 3.38751E-18
 -1      1509 9.22930E-05-2.76756E-05-2.76678E-05-2.88159E-07-5.56527E-21 4.56923E-18
 -1      1510 9.20709E-05-2.75330E-05-2.76188E-05-2.00247E-07-1.02213E-19 4.44009E-18
 -1      1511 9.36448E-05-2.79586E-05-2.81600E-05 4.99070E-08-2.16523E-19 3.35318E-18
 -1      1512 9.28397E-05-2.78588E-05-2.78305E-05-4.32172E-07-1.39464E-19 4.71777E-18
 -1      1513 9.23888E-05-2.76831E-05-2.77014E-05-3.89642E-07-9.31298E-20 4.65664E-18
 -1      1514 9.35217E-05-2.80105E-05-2.80813E-05-5.45809E-07-1.60504E-19 3.37027E-18
 -1      1515 9.35667E-05-2.80945E-05-2.80437E-05-4.24326E-07-2.40551E-19 5.14058E-18
 -1      1516 9.30781E-05-2.79261E-05-2.79041E-05-4.17911E-07-1.81857E-19 4.81013E-18
 -1      1517 9.38633E-05-2.81679E-05-2.81573E-05-7.42182E-07-3.57579E-19 3.58413E-18
 -1      1518 9.41789E-05-2.82966E-05-2.82186E-05-2.89262E-07 2.07829E-20 5.50009E-18
 -1      1519 9.37980E-05-2.81750E-05-2.81124E-05-3.16849E-07-1.59779E-19 5.19998E-18
 -1      1520 9.43304E-05-2.83543E-05-2.82720E-05-6.53236E-07-3.66777E-19 3.66593E-18
 -1      1521 9.44257E-05-2.83886E-05-2.82823E-05-3.72786E-08 3.64059E-20 5.37243E-18
 -1      1522 9.42821E-05-2.83527E-05-2.82467E-05-9.90012E-08 5.68521E-20 5.36447E-18
 -1      1523 9.46641E-05-2.84982E-05-2.83460E-05-3.21543E-07-1.03331E-20 3.79429E-18
 -1      1524 9.40896E-05-2.83017E-05-2.81729E-05 3.16065E-07 2.54146E-19 4.90446E-18
 -1      1525 9.42990E-05-2.83874E-05-2.82404E-05 2.21985E-07 1.36516E-19 5.14239E-18
 -1      1526 9.46485E-05-2.85327E-05-2.83166E-05 2.24360E-07 2.01978E-19 3.53928E-18
 -1      1527 9.30103E-05-2.79820E-05-2.78469E-05 7.34376E-07 2.26863E-19 4.74868E-18
 -1      1528 9.36576E-05-2.82150E-05-2.80401E-05 6.15862E-07 2.65939E-19 4.91035E-18
 -1      1529 9.41096E-05-2.83978E-05-2.81367E-05 9.35437E-07 3.17498E-19 3.28901E-18
 -1      1530 9.11357E-05-2.74072E-05-2.72939E-05 1.14928E-06-8.69929E-20 4.92714E-18
 -1      1531 9.22432E-05-2.77919E-05-2.76166E-05 1.02385E-06-2.17714E-20 4.63215E-18
 -1      1532 9.29421E-05-2.80491E-05-2.77825E-05 1.71562E-06 1.30635E-19 3.75460E-18
 -1      1533 8.85813E-05-2.66073E-05-2.65525E-05 1.46050E-06 3.58715E-20 5.02129E-18
 -1      1534 9.00734E-05-2.71141E-05-2.69800E-05 1.35572E-06-1.05834E-19 4.84453E-18
 -1      1535 9.11527E-05-2.74751E-05-2.72642E-05 2.40956E-06-1.83943E-19 3.61909E-18
 -1      1536 8.56694E-05-2.56810E-05-2.57182E-05 1.55526E-06 1.45533E-19 5.07107E-18
 -1      1537 8.73510E-05-2.62391E-05-2.61935E-05 1.50370E-06-1.78020E-20 5.17324E-18
 -1      1538 8.89032E-05-2.67176E-05-2.66344E-05 2.81806E-06-8.74487E-20 3.49582E-18
 -1      1539 8.29089E-05-2.47925E-05-2.49355E-05 1.34877E-06 3.16483E-19 4.27684E-18
 -1      1540 8.44801E-05-2.52961E-05-2.53741E-05 1.37671E-06 3.32656E-19 4.86927E-18
 -1      1541 8.65249E-05-2.58847E-05-2.59877E-05 2.75142E-06 3.86042E-19 3.57669E-18
 -1      1542 8.08898E-05-2.41375E-05-2.43667E-05 8.31701E-07-2.68450E-19 4.32971E-18
 -1      1543 8.20103E-05-2.44710E-05-2.46758E-05 9.45668E-07 9.03116E-20 4.24745E-18
 -1      1544 8.44741E-05-2.51418E-05-2.54448E-05 2.11136E-06 2.56161E-19 3.86610E-18
 -1      1545 8.01083E-05-2.38835E-05-2.41462E-05 9.63669E-08-1.50560E-19 4.42732E-18
 -1      1546 8.05004E-05-2.39587E-05-2.42514E-05 2.75429E-07-2.65684E-19 4.13381E-18
 -1      1547 8.32186E-05-2.46706E-05-2.51226E-05 9.63119E-07-2.31200E-19 3.32540E-18
 -1      1548 8.07929E-05-2.41070E-05-2.43357E-05-6.83405E-07 5.27847E-19 4.05442E-18
 -1      1549 8.03397E-05-2.38972E-05-2.42066E-05-4.82658E-07 2.47674E-19 4.52896E-18
 -1      1550 8.30867E-05-2.46054E-05-2.51001E-05-4.53105E-07 2.33166E-19 2.80456E-18
 -1      1551 8.28178E-05-2.47629E-05-2.49035E-05-1.31748E-06-3.63662E-20 3.53888E-18
 -1      1552 8.16072E-05-2.43134E-05-2.45637E-05-1.14394E-06 3.76205E-19 3.94161E-18
 -1      1553 8.41466E-05-2.49773E-05-2.53921E-05-1.79751E-06 6.36936E-19 3.16092E-18
 -1      1554 8.57557E-05-2.57047E-05-2.57363E-05-1.67437E-06-2.61186E-19 3.88373E-18
 -1      1555 8.40442E-05-2.51140E-05-2.52546E-05-1.56306E-06-3.83183E-19 3.28548E-18
 -1      1556 8.61817E-05-2.57001E-05-2.59453E-05-2.76176E-06-2.07430E-19 2.69763E-18
 -1      1557 8.90377E-05-2.67421E-05-2.66792E-05-1.72226E-06 1.15016E-19 4.11669E-18
 -1      1558 8.71553E-05-2.61248E-05-2.61454E-05-1.68387E-06-5.19306E-20 4.06012E-18
 -1      1559 8.87767E-05-2.66084E-05-2.66569E-05-3.18148E-06-3.04433E-19 2.75042E-18
 -1      1560 9.21344E-05-2.77045E-05-2.75831E-05-1.51939E-06 4.13597E-19 4.15374E-18
 -1      1561 9.03810E-05-2.71555E-05-2.70805E-05-1.54250E-06 5.88175E-20 4.14116E-18
 -1      1562 9.14644E-05-2.75226E-05-2.74070E-05-3.07065E-06 1.10098E-19 2.21687E-18
 -1      1563 9.46804E-05-2.84800E-05-2.83398E-05-1.17065E-06 1.50542E-19 3.34912E-18
 -1      1564 9.32572E-05-2.80556E-05-2.79264E-05-1.23206E-06 4.39690E-19 3.92924E-18
 -1      1565 9.38594E-05-2.83054E-05-2.80913E-05-2.57541E-06 5.45443E-19 2.73269E-18
 -1      1566 9.65112E-05-2.90243E-05-2.88953E-05-7.81078E-07 2.69916E-19 2.74392E-18
 -1      1567 9.55028E-05-2.87408E-05-2.85978E-05-8.56847E-07 2.34570E-19 3.14021E-18
 -1      1568 9.57291E-05-2.88854E-05-2.86407E-05-1.89084E-06 5.86206E-19 2.28462E-18
 -1      1569 9.76315E-05-2.93461E-05-2.92446E-05-4.27123E-07-2.16698E-19 3.07650E-18
 -1      1570 9.70269E-05-2.91908E-05-2.90624E-05-4.99345E-07-1.97106E-19 2.81581E-18
 -1      1571 9.69981E-05-2.92518E-05-2.90269E-05-1.18942E-06 2.52092E-20 2.05636E-18
 -1      1572 9.81520E-05-2.94851E-05-2.94156E-05-1.49010E-07 1.79874E-19 3.72670E-18
 -1      1573 9.78823E-05-2.94302E-05-2.93309E-05-2.07725E-07-8.56231E-20 3.71841E-18
 -1      1574 9.77089E-05-2.94327E-05-2.92549E-05-5.84908E-07-3.00717E-19 2.84328E-18
 -1      1575 9.82283E-05-2.94923E-05-2.94516E-05 4.30248E-08 8.68300E-20 3.41888E-18
 -1      1576 9.82021E-05-2.95062E-05-2.94389E-05 1.08739E-09 2.88502E-19 3.56872E-18
 -1      1577 9.79700E-05-2.94739E-05-2.93507E-05-1.29114E-07 2.36837E-19 3.13628E-18
 -1      1578 9.80158E-05-2.94162E-05-2.93976E-05 1.57510E-07-3.95259E-19 3.20854E-18
 -1      1579 9.81443E-05-2.94707E-05-2.94317E-05 1.31330E-07-6.38401E-20 3.47517E-18
 -1      1580 9.79113E-05-2.94228E-05-2.93490E-05 1.72861E-07 1.04285E-19 3.15693E-18
 -1      1581 9.76452E-05-2.92964E-05-2.92930E-05 2.11466E-07-9.41375E-20 3.09705E-18
 -1      1582 9.78552E-05-2.93698E-05-2.93524E-05 1.97960E-07-4.10439E-19 3.34339E-18
 -1      1583 9.76541E-05-2.93196E-05-2.92844E-05 3.42880E-07-5.70024E-19 3.22159E-18
 -1      1584 9.72135E-05-2.91616E-05-2.91672E-05 2.23362E-07-2.89406E-19 2.96877E-18
 -1      1585 9.74520E-05-2.92389E-05-2.92361E-05 2.18928E-07 1.82511E-19 3.14093E-18
 -1      1586 9.72967E-05-2.91942E-05-2.91859E-05 4.13383E-07 1.15675E-19 3.38535E-18
 -1      1587 9.67852E-05-2.90303E-05-2.90404E-05 2.09318E-07 1.10246E-19 3.02894E-18
 -1      1588 9.70178E-05-2.91024E-05-2.91084E-05 2.10699E-07-2.23171E-19 2.63765E-18
 -1      1589 9.69097E-05-2.90671E-05-2.90753E-05 4.16845E-07-3.22939E-19 3.47713E-18
 -1      1590 9.63981E-05-2.89132E-05-2.89247E-05 1.81683E-07-4.63406E-19 3.49345E-18
 -1      1591 9.66053E-05-2.89754E-05-2.89858E-05 1.86316E-07-1.93012E-19 3.09175E-18
 -1      1592 9.65391E-05-2.89501E-05-2.89670E-05 3.80484E-07-2.61246E-20 2.88306E-18
 -1      1593 9.60699E-05-2.88148E-05-2.88259E-05 1.48998E-07 2.99506E-20 5.84456E-18
 -1      1594 9.62432E-05-2.88655E-05-2.88773E-05 1.55058E-07-6.49592E-19 4.31981E-18
 -1      1595 9.62104E-05-2.88494E-05-2.88695E-05 3.24590E-07-1.09168E-18 4.02657E-18
 -1      1596 9.58053E-05-2.87361E-05-2.87458E-05 1.16604E-07 3.37211E-19 4.45764E-18
 -1      1597 9.59431E-05-2.87755E-05-2.87869E-05 1.22911E-07 7.24292E-19 5.70542E-18
 -1      1598 9.59350E-05-2.87670E-05-2.87869E-05 2.62864E-07 3.15449E-19 3.97246E-18
 -1      1599 9.56011E-05-2.86757E-05-2.86837E-05 8.74505E-08 2.21532E-19 4.32286E-18
 -1      1600 9.57059E-05-2.87050E-05-2.87151E-05 9.33190E-08 1.88151E-19 4.55465E-18
 -1      1601 9.57144E-05-2.87022E-05-2.87202E-05 2.03656E-07 7.42821E-19 4.20260E-18
 -1      1602 9.54497E-05-2.86312E-05-2.86375E-05 6.28437E-08 7.78795E-19 2.25954E-18
 -1      1603 9.55261E-05-2.86521E-05-2.86605E-05 6.79339E-08 6.28050E-19 3.14720E-18
 -1      1604 9.55447E-05-2.86533E-05-2.86684E-05 1.51388E-07 1.25942E-18 3.54667E-18
 -1      1605 9.53422E-05-2.85998E-05-2.86045E-05 4.30542E-08 2.96789E-19 8.12766E-19
 -1      1606 9.53954E-05-2.86139E-05-2.86206E-05 4.72534E-08 1.94841E-19 1.16506E-18
 -1      1607 9.54191E-05-2.86176E-05-2.86297E-05 1.07833E-07 1.00695E-18 2.27896E-18
 -1      1608 9.52695E-05-2.85788E-05-2.85822E-05 2.77635E-08-9.31945E-19 1.92715E-18
 -1      1609 9.53045E-05-2.85877E-05-2.85928E-05 3.10939E-08-8.27977E-19 1.03869E-18
 -1      1610 9.53298E-05-2.85927E-05-2.86020E-05 7.31313E-08-1.29900E-18 2.36898E-18
 -1      1611 9.52234E-05-2.85656E-05-2.85679E-05 1.63665E-08 4.23499E-19 2.27722E-18
 -1      1612 9.52448E-05-2.85707E-05-2.85745E-05 1.89218E-08 1.18676E-19 1.91604E-18
 -1      1613 9.52693E-05-2.85762E-05-2.85831E-05 4.65139E-08-5.25764E-19 1.73537E-18
 -1      1614 9.51971E-05-2.85581E-05-2.85597E-05 8.16455E-09 1.29710E-19 2.74285E-18
 -1      1615 9.52084E-05-2.85605E-05-2.85632E-05 1.00677E-08 2.68704E-19 2.64525E-18
 -1      1616 9.52308E-05-2.85660E-05-2.85709E-05 2.67977E-08 2.85419E-19 2.84804E-18
 -1      1617 9.51848E-05-2.85548E-05-2.85558E-05 2.47753E-09 4.87420E-19 2.13863E-18
 -1      1618 9.51892E-05-2.85553E-05-2.85572E-05 3.85582E-09 2.57845E-19 2.34151E-18
 -1      1619 9.52086E-05-2.85604E-05-2.85638E-05 1.26915E-08 3.95659E-19 2.92584E-18
 -1      1620 9.51823E-05-2.85543E-05-2.85548E-05-1.29588E-09 1.14226E-18 7.46421E-19
 -1      1621 9.51819E-05-2.85536E-05-2.85548E-05-3.25414E-10 9.33976E-19 2.38232E-18
 -1      1622 9.51981E-05-2.85580E-05-2.85602E-05 2.97364E-09 1.26738E-18 2.45445E-18
 -1      1623 9.51860E-05-2.85556E-05-2.85558E-05-3.65186E-09 4.62206E-19-9.36221E-19
 -1      1624 9.51826E-05-2.85542E-05-2.85549E-05-2.99007E-09 1.52951E-19-3.41488E-20
 -1      1625 9.51956E-05-2.85578E-05-2.85592E-05-3.41590E-09 1.16514E-18 1.49073E-18
 -1      1626 9.51936E-05-2.85580E-05-2.85581E-05-4.97323E-09 8.82703E-19-2.42139E-18
 -1      1627 9.51885E-05-2.85562E-05-2.85566E-05-4.54241E-09 9.50201E-19-1.04592E-18
 -1      1628 9.51984E-05-2.85591E-05-2.85598E-05-7.33621E-09 1.27214E-18 3.33003E-19
 -1      1629 9.52033E-05-2.85610E-05-2.85609E-05-5.52877E-09-6.83361E-19-3.25104E-18
 -1      1630 9.51973E-05-2.85590E-05-2.85592E-05-5.27512E-09-2.61941E-20-3.49347E-18
 -1      1631 9.52044E-05-2.85611E-05-2.85615E-05-9.43368E-09 8.92882E-19-1.96114E-18
 -1      1632 9.52136E-05-2.85642E-05-2.85639E-05-5.47281E-09-2.02367E-19-2.11136E-18
 -1      1633 9.52075E-05-2.85622E-05-2.85622E-05-5.36944E-09-7.18540E-19-3.06834E-18
 -1      1634 9.52120E-05-2.85637E-05-2.85636E-05-1.01404E-08-1.26869E-18-2.24814E-18
 -1      1635 9.52233E-05-2.85672E-05-2.85668E-05-4.84210E-09-1.11302E-19-2.22433E-18
 -1      1636 9.52177E-05-2.85654E-05-2.85652E-05-4.89421E-09-5.45097E-20-2.35343E-18
 -1      1637 9.52200E-05-2.85663E-05-2.85659E-05-9.67357E-09 4.27630E-19-9.40349E-19
 -1      1638 9.52311E-05-2.85697E-05-2.85690E-05-3.54571E-09 4.35543E-19-2.84378E-18
 -1      1639 9.52267E-05-2.85684E-05-2.85678E-05-3.80983E-09 6.34947E-19-2.17247E-18
 -1      1640 9.52273E-05-2.85687E-05-2.85679E-05-8.03758E-09 4.90573E-19-2.05839E-18
 -1      1641 9.52359E-05-2.85712E-05-2.85705E-05-1.57451E-09-2.13000E-20-2.50156E-18
 -1      1642 9.52335E-05-2.85706E-05-2.85698E-05-2.03992E-09 3.38347E-19-2.78101E-18
 -1      1643 9.52331E-05-2.85708E-05-2.85695E-05-5.10826E-09 8.63955E-19-2.02776E-18
 -1      1644 9.52370E-05-2.85715E-05-2.85709E-05-2.67401E-10-8.18410E-19-1.10424E-18
 -1      1645 9.52381E-05-2.85759E-05-2.85694E-05-3.05074E-09-6.75108E-19 1.35078E-19
 -1      1646 9.52372E-05-2.85734E-05-2.85702E-05-2.52384E-09-8.34122E-19-1.87609E-19
 -1      1647 9.52404E-05-2.85826E-05-2.85676E-05-4.47704E-09 8.77627E-19 1.70772E-18
 -1      1648 9.52390E-05-2.85785E-05-2.85687E-05-4.27856E-09-3.67987E-19 1.59407E-18
 -1      1649 9.52381E-05-2.85772E-05-2.85689E-05-7.02858E-09 8.20061E-19 1.10975E-18
 -1      1650 9.52429E-05-2.85903E-05-2.85654E-05-4.91262E-09 9.39411E-19-3.12138E-20
 -1      1651 9.52414E-05-2.85857E-05-2.85667E-05-4.90782E-09 4.58660E-19 1.18159E-18
 -1      1652 9.52404E-05-2.85830E-05-2.85675E-05-8.98735E-09 4.20300E-19 1.05764E-18
 -1      1653 9.52453E-05-2.85978E-05-2.85633E-05-4.59790E-09-5.06471E-19-1.20933E-18
 -1      1654 9.52439E-05-2.85934E-05-2.85645E-05-4.71935E-09 1.45764E-19 4.34383E-19
 -1      1655 9.52427E-05-2.85892E-05-2.85658E-05-9.23982E-09 7.92974E-19-4.62420E-19
 -1      1656 9.52473E-05-2.86042E-05-2.85614E-05-3.79974E-09-4.64992E-18-1.30028E-18
 -1      1657 9.52462E-05-2.86006E-05-2.85624E-05-3.99045E-09-2.22516E-18-1.86531E-18
 -1      1658 9.52447E-05-2.85950E-05-2.85642E-05-8.25241E-09-2.62378E-18-4.04183E-18
 -1      1659 9.52488E-05-2.86090E-05-2.85599E-05-2.68157E-09-4.06320E-18 7.25852E-19
 -1      1660 9.52480E-05-2.86064E-05-2.85607E-05-2.91948E-09-4.39342E-18-6.28317E-19
 -1      1661 9.52463E-05-2.85999E-05-2.85628E-05-6.46575E-09-3.54682E-18-7.72458E-19
 -1      1662 9.52497E-05-2.86119E-05-2.85591E-05-1.38289E-09-4.32393E-18-1.28572E-18
 -1      1663 9.52493E-05-2.86105E-05-2.85595E-05-1.64451E-09-4.00049E-18 8.40150E-19
 -1      1664 9.52475E-05-2.86035E-05-2.85618E-05-4.16748E-09-3.17642E-18 5.62581E-19
 -1      1665 9.52499E-05-2.86126E-05-2.85589E-05 1.07125E-11-1.11139E-18 1.53046E-18
 -1      1666 9.52499E-05-2.86124E-05-2.85589E-05-2.62828E-10-2.62133E-18 3.76022E-19
 -1      1667 9.52481E-05-2.86054E-05-2.85612E-05-1.58651E-09-1.86548E-18 1.77309E-19
 -1      1668 9.52494E-05-2.86110E-05-2.85594E-05 1.43105E-09-1.35032E-18-1.07168E-18
 -1      1669 9.52498E-05-2.86122E-05-2.85590E-05 1.15650E-09-1.51267E-18 9.62563E-19
 -1      1670 9.52481E-05-2.86056E-05-2.85612E-05 1.12410E-09-4.54725E-19 1.06405E-18
 -1      1671 9.52483E-05-2.86071E-05-2.85605E-05 2.79840E-09-6.74410E-18-3.95038E-18
 -1      1672 9.52491E-05-2.86096E-05-2.85598E-05 2.53852E-09-2.05636E-18-4.25104E-18
 -1      1673 9.52476E-05-2.86040E-05-2.85617E-05 3.82224E-09-1.55420E-18-4.23738E-18
 -1      1674 9.52465E-05-2.86014E-05-2.85622E-05 3.97662E-09-8.92601E-18-4.26510E-19
 -1      1675 9.52476E-05-2.86050E-05-2.85611E-05 3.76219E-09-7.13373E-18-2.90614E-18
 -1      1676 9.52466E-05-2.86006E-05-2.85626E-05 6.30450E-09-2.33036E-18-5.71619E-18
 -1      1677 9.52442E-05-2.85941E-05-2.85643E-05 4.82903E-09-6.12312E-18 4.63625E-19
 -1      1678 9.52456E-05-2.85986E-05-2.85630E-05 4.68707E-09-8.54928E-18 2.78773E-18
 -1      1679 9.52450E-05-2.85958E-05-2.85640E-05 8.32085E-09-2.81571E-18 1.62876E-18
 -1      1680 9.52416E-05-2.85862E-05-2.85666E-05 5.08763E-09-1.95014E-18 2.79839E-18
 -1      1681 9.52431E-05-2.85909E-05-2.85653E-05 5.08310E-09-5.03600E-18 1.59382E-18
 -1      1682 9.52429E-05-2.85898E-05-2.85656E-05 9.50236E-09-1.69564E-18 2.42213E-18
 -1      1683 9.52390E-05-2.85787E-05-2.85687E-05 4.40367E-09 1.94535E-19-1.47811E-18
 -1      1684 9.52405E-05-2.85829E-05-2.85675E-05 4.65285E-09-1.87924E-18 2.31429E-18
 -1      1685 9.52405E-05-2.85833E-05-2.85673E-05 9.35305E-09-1.13225E-18 3.46331E-18
 -1      1686 2.01472E-05-6.20257E-05 1.30788E-05 5.88183E-07 2.30054E-18-7.32895E-19
 -1      1687 2.43051E-05-7.69695E-05 1.66198E-05 7.39386E-06 3.47284E-18-1.31290E-19
 -1      1688 2.24857E-05-3.25844E-05 9.81787E-07 1.13271E-05 2.76048E-18 2.33951E-18
 -1      1689 2.61317E-05-5.78357E-05 8.26100E-06 5.23956E-06 2.23871E-18 1.03470E-18
 -1      1690 3.85485E-05-4.98578E-06-1.56608E-05 3.64903E-05 4.28090E-18 5.76829E-18
 -1      1691 3.09575E-05-2.49136E-05-6.58971E-06 1.72965E-05 3.04932E-18 3.14080E-18
 -1      1692 8.17985E-05 1.93964E-06-3.47285E-05 6.81032E-05 5.30751E-18 4.90009E-18
 -1      1693 5.54282E-05-1.75775E-06-2.47886E-05 4.54311E-05 5.25584E-18 4.93651E-18
 -1      1694 1.52668E-04-1.79519E-05-5.40982E-05 8.19792E-05 3.37712E-18 5.73102E-18
 -1      1695 1.08562E-04-3.52719E-06-4.42171E-05 7.07267E-05 4.29954E-18 5.33970E-18
 -1      1696 2.19161E-04-4.50276E-05-6.91462E-05 6.75361E-05 2.57657E-18 4.03865E-18
 -1      1697 1.76545E-04-2.35016E-05-6.22674E-05 7.91656E-05 3.17087E-18 5.39645E-18
 -1      1698 2.58934E-04-6.39368E-05-7.72639E-05 2.12081E-05 1.70614E-18-5.07796E-19
 -1      1699 2.35226E-04-5.05334E-05-7.39451E-05 5.35060E-05 2.41214E-18 2.57498E-18
 -1      1700 2.58159E-04-6.27378E-05-7.74869E-05-3.31578E-05 1.44758E-18-3.93235E-18
 -1      1701 2.66707E-04-6.78088E-05-7.87025E-05 3.50670E-06 1.27627E-18-1.69788E-18
 -1      1702 2.09582E-04-3.82768E-05-6.87767E-05-7.08144E-05 1.57898E-18-4.72814E-18
 -1      1703 2.44973E-04-5.74696E-05-7.41020E-05-4.84958E-05 9.88487E-19-4.69764E-18
 -1      1704 1.42618E-04-1.06879E-05-5.40477E-05-8.14969E-05 2.28191E-18-3.68375E-18
 -1      1705 1.87710E-04-3.05578E-05-6.23532E-05-8.15627E-05 1.63117E-18-4.51977E-18
 -1      1706 8.08068E-05 1.23653E-06-3.53373E-05-6.16137E-05 3.02730E-18-3.31529E-18
 -1      1707 1.17311E-04-4.87402E-06-4.52697E-05-8.02352E-05 2.97817E-18-3.39406E-18
 -1      1708 4.64610E-05-1.91285E-05-1.44356E-05-2.98141E-05 8.34327E-19-2.20567E-18
 -1      1709 6.50951E-05-5.41146E-06-2.53213E-05-5.37066E-05 2.20652E-18-3.34747E-18
 -1      1710 2.85419E-05-4.80630E-05 3.33213E-06-8.34026E-06-7.61483E-19-6.28075E-19
 -1      1711 2.88575E-05-2.28425E-05-5.09889E-06-2.14872E-05 5.15843E-19-1.62080E-18
 -1      1712 2.57674E-05-7.70348E-05 1.53147E-05-1.75469E-06-2.00535E-18-6.39298E-19
 -1      1713 1.95506E-05-5.56387E-05 1.03322E-05 2.17069E-06-8.90232E-19-4.19122E-19
 -1      1714 2.30840E-05-7.95025E-05 1.78575E-05-9.98354E-06-2.65333E-18-5.39136E-19
 -1      1715 2.29368E-05-7.73251E-05 1.72439E-05 5.99568E-07-2.12902E-18-4.66927E-19
 -1      1716 1.98460E-05-6.30085E-05 1.24088E-05-1.13802E-05-2.78843E-18-8.41104E-19
 -1      1717 2.55690E-05-8.03161E-05 1.65662E-05-6.21287E-06-2.67832E-18-7.49201E-19
 -1      1718 2.40932E-05-3.24820E-05-1.10285E-06 4.68522E-06-2.70373E-18-1.05456E-18
 -1      1719 2.58406E-05-5.73383E-05 6.74949E-06-6.03956E-06-2.68764E-18-1.31565E-18
 -1      1720 6.20315E-05-1.39804E-05-2.23624E-05 4.16060E-05-2.30393E-18-3.62276E-18
 -1      1721 4.28297E-05-2.96860E-05-1.06997E-05 1.57505E-05-1.98799E-18-2.04643E-18
 -1      1722 1.36718E-04-2.47930E-05-4.58968E-05 6.66525E-05-2.00069E-18-7.80964E-19
 -1      1723 9.34065E-05-1.92598E-05-3.37813E-05 4.51336E-05-2.71220E-18-1.98375E-18
 -1      1724 2.17990E-04-4.62067E-05-6.69862E-05 7.43584E-05-6.14522E-19 2.01255E-18
 -1      1725 1.62157E-04-2.40022E-05-5.68125E-05 7.28657E-05-1.72456E-18-7.45389E-20
 -1      1726 2.80933E-04-7.22797E-05-8.03779E-05 3.91027E-05 3.06838E-19 2.98325E-18
 -1      1727 2.41918E-04-5.20340E-05-7.44662E-05 6.56967E-05 4.21346E-19 2.40473E-18
 -1      1728 2.84774E-04-7.16729E-05-8.26466E-05-1.43994E-05-3.43048E-19 2.86255E-18
 -1      1729 2.81586E-04-6.98149E-05-8.21099E-05 2.28448E-05-1.34678E-19 2.68721E-18
 -1      1730 2.49922E-04-5.61280E-05-7.60095E-05-5.78031E-05-2.49028E-18 5.00173E-18
 -1      1731 2.85603E-04-7.42390E-05-8.13926E-05-2.77287E-05-9.92511E-19 3.41270E-18
 -1      1732 1.72008E-04-2.73855E-05-5.92202E-05-7.23978E-05-4.25338E-18 6.85080E-18
 -1      1733 2.28947E-04-5.10988E-05-6.91672E-05-6.99076E-05-3.62551E-18 5.39729E-18
 -1      1734 9.85222E-05-1.92027E-05-3.57035E-05-4.68619E-05-3.26616E-18 5.30497E-18
 -1      1735 1.45622E-04-2.73613E-05-4.81997E-05-6.75026E-05-3.61683E-18 6.32564E-18
 -1      1736 4.38326E-05-2.59017E-05-1.26826E-05-1.74721E-05-3.33562E-18 3.41524E-18
 -1      1737 6.48701E-05-1.22907E-05-2.41780E-05-4.35877E-05-3.60751E-18 4.94498E-18
 -1      1738 2.74305E-05-5.25861E-05 4.39220E-06 3.53254E-06-6.33581E-19 2.08984E-18
 -1      1739 2.79766E-05-2.98764E-05-3.49464E-06-8.97375E-06-2.75370E-18 3.00527E-18
 -1      1740 2.52336E-05-7.71701E-05 1.51465E-05 9.51734E-06 2.11419E-18 6.36228E-19
 -1      1741 1.93060E-05-5.83165E-05 1.06166E-05 1.15167E-05 3.72694E-19 1.45287E-18
 -1      1742 2.44098E-05-8.23992E-05 1.83890E-05 2.28919E-06 3.36770E-18 5.59677E-19
 -1      1743 2.25302E-05-7.88259E-05 1.75137E-05 1.26140E-05 2.88118E-18 1.42725E-19
 -1      1744 9.52361E-05-2.85722E-05-2.85702E-05 2.73427E-09-1.35267E-20-4.66745E-19
 -1      1745 4.55288E-05-3.98343E-05-5.08896E-06 3.50445E-05 2.04982E-18 2.89209E-18
 -1      1746 9.52366E-05-2.85720E-05-2.85705E-05-1.59072E-09-1.39650E-18 1.30567E-19
 -1      1747 9.52362E-05-2.85732E-05-2.85698E-05-4.34695E-09-7.64584E-20 4.17462E-19
 -1      1748 1.12132E-05-5.04191E-05 1.26477E-05 9.80922E-06 1.65775E-18 3.77777E-19
 -1      1749 2.25140E-05-4.60290E-05 6.57692E-06 2.42283E-05 2.24930E-18 6.42051E-19
 -1      1750 9.52373E-05-2.85735E-05-2.85702E-05 2.58763E-09-1.99944E-18-1.86166E-18
 -1      1751 9.52381E-05-2.85760E-05-2.85694E-05 3.17415E-09 7.32672E-19-3.00307E-18
 -1      1752 9.52383E-05-2.85775E-05-2.85688E-05 7.33195E-09-1.30125E-18-2.66691E-18
 -1      1753 7.76230E-05-3.03855E-05-2.10197E-05 4.59747E-05 2.00662E-18 3.62234E-18
 -1      1754 1.22500E-04-2.85315E-05-3.88706E-05 5.10865E-05 3.64351E-18 3.48131E-18
 -1      1755 1.67001E-04-3.02400E-05-5.54692E-05 4.44353E-05 2.95382E-18 3.11369E-18
 -1      1756 2.01132E-04-3.21200E-05-6.78504E-05 2.93622E-05 3.44488E-18 2.28487E-18
 -1      1757 2.19260E-04-3.45016E-05-7.37289E-05 5.25514E-06 2.89855E-18-4.38340E-20
 -1      1758 2.15398E-04-3.50577E-05-7.18893E-05-1.92760E-05 1.70296E-18-2.07947E-18
 -1      1759 1.87320E-04-3.12017E-05-6.26043E-05-4.07084E-05 7.12884E-19-2.84942E-18
 -1      1760 1.45903E-04-2.80555E-05-4.80882E-05-5.21145E-05 1.53017E-18-2.23956E-18
 -1      1761 1.03931E-04-3.43307E-05-3.00023E-05-4.78320E-05 7.83505E-19-2.05236E-18
 -1      1762 6.60061E-05-4.09660E-05-1.20219E-05-4.27800E-05-5.77676E-19-2.45068E-18
 -1      1763 3.10508E-05-4.64959E-05 3.34269E-06-2.83563E-05-9.36818E-19-1.20723E-18
 -1      1764 1.38760E-05-5.22138E-05 1.19628E-05-1.20550E-05-1.19389E-18-9.16913E-19
 -1      1765 1.31130E-05-5.28915E-05 1.25107E-05 1.38381E-06-1.68094E-18-5.12455E-19
 -1      1766 2.77845E-05-5.20997E-05 5.88621E-06 1.45290E-05-1.71609E-18-6.69685E-19
 -1      1767 6.10185E-05-4.73234E-05-8.79294E-06 2.97145E-05-1.49417E-18-1.47977E-18
 -1      1768 1.16242E-04-5.03575E-05-2.87240E-05 3.61896E-05-1.14519E-18-8.55080E-19
 -1      1769 1.67769E-04-4.88656E-05-4.92735E-05 3.23896E-05-2.17264E-18 9.56300E-19
 -1      1770 2.15765E-04-4.60218E-05-6.69155E-05 2.76126E-05-9.55400E-19 1.32561E-18
 -1      1771 2.32228E-04-3.95520E-05-7.54916E-05 8.77266E-06-9.91029E-20 2.05575E-18
 -1      1772 2.33431E-04-3.98327E-05-7.59562E-05-5.31774E-06-1.39718E-18 2.64084E-18
 -1      1773 2.18914E-04-4.54288E-05-6.84555E-05-2.26835E-05-3.11115E-18 3.45674E-18
 -1      1774 1.73900E-04-4.95313E-05-5.13522E-05-2.98708E-05-2.27598E-18 3.82944E-18
 -1      1775 1.19540E-04-4.88209E-05-3.05958E-05-3.58885E-05-2.10403E-18 4.01578E-18
 -1      1776 6.51687E-05-4.68356E-05-1.07680E-05-3.00200E-05-1.33408E-18 3.58909E-18
 -1      1777 3.22949E-05-5.13774E-05 3.85811E-06-1.65961E-05 5.50571E-20 3.21385E-18
 -1      1778 1.57062E-05-5.55602E-05 1.21095E-05-3.40349E-06 1.30740E-18 1.32984E-18
 -1      1779 1.06991E-04-2.34190E-05-3.59171E-05-1.63985E-05-1.33037E-19-1.42047E-18
 -1      1780 8.96195E-05-1.04523E-05-3.40576E-05-1.17621E-05 3.84725E-19-7.29587E-19
 -1      1781 9.12190E-05-1.16611E-05-3.42355E-05-1.35351E-05 2.52422E-19-8.24348E-19
 -1      1782 9.35023E-05-1.41270E-05-3.41789E-05-1.45196E-05 1.55171E-19-9.15166E-19
 -1      1783 9.53359E-05-1.61501E-05-3.44114E-05-1.63190E-05-4.44692E-21-1.14244E-18
 -1      1784 9.43643E-05-1.64583E-05-3.33926E-05-1.20861E-05 1.41327E-19-7.59153E-19
 -1      1785 8.54564E-05-6.86263E-06-3.37560E-05-6.73197E-06 5.82100E-19-4.23900E-19
 -1      1786 8.61275E-05-7.26802E-06-3.38506E-05-7.96077E-06 6.10218E-19-5.60312E-19
 -1      1787 8.44011E-05-6.02826E-06-3.36459E-05-4.62812E-06 6.39735E-19-1.47873E-19
 -1      1788 8.48219E-05-6.26791E-06-3.37112E-05-5.72363E-06 6.31599E-19-2.92226E-19
 -1      1789 8.65077E-05-8.69903E-06-3.33709E-05-5.86452E-06 6.02437E-19-3.32321E-19
 -1      1790 8.38513E-05-5.61254E-06-3.35783E-05-2.68342E-06 7.30822E-19 1.56264E-19
 -1      1791 8.40499E-05-5.71741E-06-3.36142E-05-3.69952E-06 6.98100E-19-1.13423E-20
 -1      1792 8.54660E-05-7.80974E-06-3.33054E-05-3.97791E-06 7.27204E-19-4.40987E-20
 -1      1793 8.37344E-05-5.53541E-06-3.35551E-05-7.78187E-07 8.49506E-19 3.86260E-19
 -1      1794 8.37416E-05-5.53032E-06-3.35634E-05-1.77852E-06 7.76105E-19 2.42185E-19
 -1      1795 8.49841E-05-7.42679E-06-3.32641E-05-2.18152E-06 8.14930E-19 2.22545E-19
 -1      1796 8.39868E-05-5.73903E-06-3.35734E-05 1.19044E-06 8.80257E-19 6.07389E-19
 -1      1797 8.38303E-05-5.64146E-06-3.35569E-05 1.53841E-07 8.42011E-19 4.58112E-19
 -1      1798 8.49811E-05-7.45629E-06-3.32520E-05-3.72211E-07 8.94766E-19 4.85495E-19
 -1      1799 8.45609E-05-6.19016E-06-3.36270E-05 3.30343E-06 8.93222E-19 7.88005E-19
 -1      1800 8.42598E-05-6.00793E-06-3.35891E-05 2.18789E-06 8.73322E-19 6.88823E-19
 -1      1801 8.53859E-05-7.83227E-06-3.32666E-05 1.53469E-06 8.86972E-19 7.07041E-19
 -1      1802 8.54266E-05-6.87774E-06-3.37084E-05 5.58340E-06 8.71488E-19 1.08343E-18
 -1      1803 8.49902E-05-6.61109E-06-3.36517E-05 4.37318E-06 8.66674E-19 8.77976E-19
 -1      1804 8.61451E-05-8.51822E-06-3.32997E-05 3.57883E-06 9.13221E-19 8.38437E-19
 -1      1805 8.66712E-05-7.89614E-06-3.38175E-05 8.16289E-06 8.43939E-19 1.46780E-18
 -1      1806 8.60461E-05-7.49730E-06-3.37376E-05 6.77403E-06 8.10978E-19 1.24654E-18
 -1      1807 8.72639E-05-9.54462E-06-3.33409E-05 5.80845E-06 8.99837E-19 1.16597E-18
 -1      1808 8.84793E-05-9.44593E-06-3.39573E-05 1.10487E-05 6.71241E-19 1.86223E-18
 -1      1809 8.75573E-05-8.81371E-06-3.38442E-05 9.44700E-06 7.42947E-19 1.64281E-18
 -1      1810 8.88519E-05-1.10501E-05-3.33756E-05 8.23635E-06 7.99809E-19 1.51993E-18
 -1      1811 9.13513E-05-1.20708E-05-3.41301E-05 1.42055E-05 4.37850E-19 2.37291E-18
 -1      1812 8.98431E-05-1.09097E-05-3.39641E-05 1.23392E-05 5.50307E-19 2.03590E-18
 -1      1813 9.11557E-05-1.33403E-05-3.33734E-05 1.07302E-05 6.04120E-19 1.93183E-18
 -1      1814 9.67509E-05-1.74074E-05-3.42195E-05 1.67197E-05 1.67170E-19 2.91739E-18
 -1      1815 9.36613E-05-1.46168E-05-3.40515E-05 1.51384E-05 3.33168E-19 2.65534E-18
 -1      1816 9.46860E-05-1.71336E-05-3.32400E-05 1.27430E-05 3.16026E-19 2.42725E-18
 -1      1817 1.02756E-04-2.54051E-05-3.35828E-05 1.36767E-05-6.44804E-20 3.31073E-18
 -1      1818 9.89460E-05-1.99121E-05-3.38606E-05 1.61071E-05 6.52215E-20 3.06573E-18
 -1      1819 9.83753E-05-2.22263E-05-3.26803E-05 1.23328E-05 2.06160E-19 2.86181E-18
 -1      1820 9.98150E-05-2.64987E-05-3.16289E-05 8.71415E-06-9.21148E-21 3.29509E-18
 -1      1821 1.01277E-04-1.98517E-05-3.45771E-05-1.79627E-05-8.44915E-20-1.23836E-18
 -1      1822 9.67375E-05-2.77388E-05-2.95966E-05 3.40605E-06 3.03741E-20 3.21334E-18
 -1      1823 9.89038E-05-2.77684E-05-3.05368E-05 5.71588E-06 3.57077E-20 3.13130E-18
 -1      1824 9.87224E-05-2.59860E-05-3.11508E-05 7.89022E-06 6.77097E-20 2.91393E-18
 -1      1825 9.88277E-05-2.73006E-05-3.05413E-05-4.47970E-06-9.72764E-20-1.03293E-18
 -1      1826 9.74263E-05-2.74576E-05-2.99421E-05-2.44640E-06-8.82105E-20-1.06724E-18
 -1      1827 9.68915E-05-2.76977E-05-2.95532E-05-6.59424E-07-1.45710E-19-1.06129E-18
 -1      1828 9.66557E-05-2.78778E-05-2.94139E-05 4.88264E-07-6.18136E-20-1.04487E-18
 -1      1829 9.75000E-05-2.67026E-05-3.03707E-05-2.43055E-06-5.36079E-20-7.60073E-19
 -1      1830 9.64985E-05-2.79634E-05-2.93084E-05 1.75393E-06 2.23934E-20-1.10936E-18
 -1      1831 9.69489E-05-2.81638E-05-2.94198E-05 2.61229E-06 1.18393E-19-1.14858E-18
 -1      1832 9.69202E-05-2.73749E-05-2.98323E-05 1.04268E-06-5.77835E-20-7.97223E-19
 -1      1833 9.71311E-05-2.82240E-05-2.94951E-05 3.63268E-06 1.76295E-19-1.11117E-18
 -1      1834 9.80888E-05-2.84868E-05-2.97688E-05 4.40494E-06 1.47774E-19-9.86943E-19
 -1      1835 9.70230E-05-2.76519E-05-2.97538E-05 3.61617E-06 1.47380E-19-7.61904E-19
 -1      1836 9.85792E-05-2.85619E-05-2.99878E-05 5.48731E-06 1.01280E-19-8.48252E-19
 -1      1837 1.00112E-04-2.89279E-05-3.04393E-05 6.40077E-06 1.27240E-19-8.06096E-19
 -1      1838 9.77086E-05-2.77795E-05-2.99883E-05 5.95560E-06 1.83938E-19-6.83787E-19
 -1      1839 1.00859E-04-2.90173E-05-3.07807E-05 7.63159E-06 5.33366E-20-7.87432E-19
 -1      1840 1.02978E-04-2.95247E-05-3.14039E-05 8.73752E-06-7.53264E-20-8.32498E-19
 -1      1841 9.89380E-05-2.78630E-05-3.04751E-05 8.50703E-06 1.04288E-19-6.26329E-19
 -1      1842 1.03966E-04-2.96632E-05-3.18463E-05 1.01992E-05-5.76909E-20-7.42408E-19
 -1      1843 1.06750E-04-3.03968E-05-3.26454E-05 1.15072E-05 2.59761E-19-4.85231E-19
 -1      1844 1.00653E-04-2.79769E-05-3.11581E-05 1.14501E-05 1.86658E-19-4.88813E-19
 -1      1845 1.08024E-04-3.06956E-05-3.31517E-05 1.31693E-05 2.03857E-19-4.14394E-19
 -1      1846 1.11544E-04-3.18330E-05-3.41000E-05 1.45093E-05 2.64195E-19-3.40057E-19
 -1      1847 1.02900E-04-2.83472E-05-3.19630E-05 1.48428E-05 3.22309E-19-3.06791E-19
 -1      1848 1.13316E-04-3.25952E-05-3.46019E-05 1.61046E-05 2.24033E-19-2.19196E-19
 -1      1849 1.17554E-04-3.44421E-05-3.55971E-05 1.69193E-05 1.03915E-19-3.58043E-19
 -1      1850 1.05935E-04-2.95379E-05-3.27646E-05 1.83908E-05 3.13833E-19-2.74816E-19
 -1      1851 1.20188E-04-3.61390E-05-3.59824E-05 1.76956E-05-4.82544E-20-4.91478E-19
 -1      1852 1.24700E-04-3.89376E-05-3.68021E-05 1.69477E-05 1.25480E-19-2.98606E-19
 -1      1853 1.10388E-04-3.26499E-05-3.33726E-05 2.10602E-05 3.24983E-20-3.09015E-19
 -1      1854 1.29515E-04-4.25232E-05-3.71151E-05 1.55459E-05 9.39148E-20-3.06997E-19
 -1      1855 1.34133E-04-4.65711E-05-3.76510E-05 1.15757E-05-8.47033E-21-2.81150E-19
 -1      1856 1.17799E-04-3.93669E-05-3.37373E-05 2.09449E-05 2.68801E-19-3.99813E-19
 -1      1857 1.41899E-04-5.19418E-05-3.82874E-05 5.83011E-06 2.91035E-19-2.76609E-19
 -1      1858 1.44800E-04-5.48739E-05-3.86787E-05-2.04162E-06-2.16787E-19-1.16530E-19
 -1      1859 1.30406E-04-5.07095E-05-3.43653E-05 1.45158E-05 1.00532E-19-5.40076E-19
 -1      1860 1.53831E-04-5.81950E-05-4.09938E-05-1.22862E-05-8.12397E-19 3.13614E-19
 -1      1861 1.52197E-04-5.44883E-05-4.22638E-05-2.00186E-05-8.22628E-19-1.93865E-19
 -1      1862 1.48126E-04-6.15126E-05-3.74101E-05-1.81686E-06-2.90744E-19-6.16746E-21
 -1      1863 1.49543E-04-3.25903E-05-5.10012E-05-2.00903E-05-1.13799E-18-1.61169E-18
 -1      1864 1.46140E-04-2.63176E-05-5.20007E-05-9.39862E-06-1.33577E-18-2.14215E-18
 -1      1865 1.44738E-04-2.52641E-05-5.18650E-05 4.60690E-06-1.37812E-18-1.90466E-18
 -1      1866 1.47569E-04-3.01277E-05-5.11953E-05 1.71497E-05-1.49459E-18-1.85172E-18
 -1      1867 1.49877E-04-3.72680E-05-4.87457E-05 2.51283E-05-1.79719E-18-2.20239E-18
 -1      1868 1.55680E-04-4.72701E-05-4.71056E-05 2.76684E-05-8.43115E-19-2.65757E-18
 -1      1869 1.51997E-04-5.26945E-05-4.28672E-05 2.27100E-05 8.20351E-19-3.00432E-18
 -1      1870 1.55083E-04-5.75210E-05-4.17791E-05 1.61253E-05 1.57474E-18-2.79378E-18
 -1      1871 1.62110E-04-5.45357E-05-4.64462E-05 2.28472E-05-4.56551E-19-1.70910E-18
 -1      1872 1.46904E-04-5.50487E-05-3.95931E-05 5.32361E-06 1.42926E-18-2.67427E-18
 -1      1873 1.44852E-04-5.26455E-05-3.92515E-05-2.86408E-06 5.48877E-19-2.35946E-18
 -1      1874 1.50582E-04-6.09094E-05-3.88644E-05 5.65490E-06 1.52106E-18-2.69664E-18
 -1      1875 1.37482E-04-4.77438E-05-3.85881E-05-9.13861E-06-7.73447E-20-2.01098E-18
 -1      1876 1.33246E-04-4.38056E-05-3.81265E-05-1.37184E-05-3.92494E-19-2.30054E-18
 -1      1877 1.34566E-04-5.13790E-05-3.58255E-05-1.07874E-05 4.90935E-19-1.80538E-18
 -1      1878 1.28272E-04-4.03122E-05-3.77650E-05-1.54995E-05-8.27313E-19-1.92958E-18
 -1      1879 1.23684E-04-3.72726E-05-3.69643E-05-1.65752E-05-8.53908E-19-1.92733E-18
 -1      1880 1.22360E-04-4.08034E-05-3.50481E-05-1.86287E-05-3.51386E-19-9.17601E-19
 -1      1881 1.20679E-04-3.55307E-05-3.64963E-05-1.58634E-05 2.72780E-19-1.52394E-18
 -1      1882 1.16552E-04-3.36233E-05-3.55362E-05-1.51003E-05 4.24804E-19-8.80782E-19
 -1      1883 1.14445E-04-3.40324E-05-3.45108E-05-1.93961E-05 2.44845E-22-1.43307E-19
 -1      1884 1.14708E-04-3.29112E-05-3.50139E-05-1.36047E-05 1.28762E-19-1.22601E-18
 -1      1885 1.11434E-04-3.18036E-05-3.41379E-05-1.23257E-05 3.71702E-19-1.08719E-18
 -1      1886 1.09570E-04-3.08582E-05-3.37548E-05-1.69343E-05 2.00514E-19 1.97630E-20
 -1      1887 1.09983E-04-3.14745E-05-3.35896E-05-1.06797E-05 3.63496E-20-1.34616E-18
 -1      1888 1.07284E-04-3.07412E-05-3.28113E-05-9.35429E-06-3.82892E-19-1.35862E-18
 -1      1889 1.06227E-04-2.95889E-05-3.28496E-05-1.35619E-05-1.05839E-19-1.72236E-20
 -1      1890 1.06169E-04-3.05917E-05-3.23320E-05-7.94276E-06-4.76966E-19-1.17607E-18
 -1      1891 1.04130E-04-3.01155E-05-3.17224E-05-6.84920E-06 1.10266E-19-1.55668E-18
 -1      1892 1.03645E-04-2.91181E-05-3.19410E-05-1.02667E-05-5.97191E-20-1.74612E-19
 -1      1893 1.03244E-04-3.00203E-05-3.13313E-05-5.74851E-06 1.03106E-18-2.41896E-18
 -1      1894 1.01740E-04-2.96979E-05-3.08734E-05-4.91808E-06 4.29972E-19-1.83356E-18
 -1      1895 1.01633E-04-2.89601E-05-3.11463E-05-7.54494E-06-2.09214E-19-9.83039E-19
 -1      1896 1.01039E-04-2.96210E-05-3.05680E-05-4.09945E-06-6.62969E-20-2.25529E-18
 -1      1897 9.99452E-05-2.93962E-05-3.02322E-05-3.49456E-06-4.50231E-19-1.69237E-18
 -1      1898 1.00050E-04-2.88923E-05-3.04977E-05-5.45077E-06 6.24224E-20-1.64563E-18
 -1      1899 9.93990E-05-2.93293E-05-3.00000E-05-2.90067E-06-6.48973E-20-2.10533E-19
 -1      1900 9.86109E-05-2.91700E-05-2.97570E-05-2.46898E-06 7.49958E-19 4.38417E-19
 -1      1901 9.88128E-05-2.88418E-05-2.99901E-05-3.89952E-06 7.65794E-19-7.54074E-20
 -1      1902 9.81915E-05-2.91126E-05-2.95836E-05-2.04347E-06 6.66474E-19 1.87022E-19
 -1      1903 9.76289E-05-2.89990E-05-2.94092E-05-1.73824E-06 9.96064E-19-7.16980E-19
 -1      1904 9.78587E-05-2.87915E-05-2.96030E-05-2.77350E-06 2.70701E-19 1.84485E-18
 -1      1905 9.73262E-05-2.89523E-05-2.92872E-05-1.44933E-06 5.97871E-19-1.81901E-18
 -1      1906 9.69402E-05-2.88755E-05-2.91676E-05-1.24189E-06 2.01189E-19-1.85439E-18
 -1      1907 9.71475E-05-2.87449E-05-2.93190E-05-1.97909E-06 2.57982E-19 2.53510E-20
 -1      1908 9.66974E-05-2.88364E-05-2.90721E-05-1.02164E-06 2.28274E-19-2.10975E-18
 -1      1909 9.64077E-05-2.87774E-05-2.89821E-05-8.67234E-07 2.53764E-19-2.59300E-18
 -1      1910 9.66098E-05-2.86984E-05-2.91074E-05-1.41022E-06 2.47377E-20-1.78726E-18
 -1      1911 9.62292E-05-2.87468E-05-2.89130E-05-7.10943E-07-1.38096E-19-2.41774E-18
 -1      1912 9.60254E-05-2.87058E-05-2.88494E-05-6.01597E-07-1.88063E-18-3.23854E-18
 -1      1913 9.61977E-05-2.86593E-05-2.89472E-05-9.89528E-07-1.30331E-19-1.96725E-18
 -1      1914 9.58949E-05-2.86824E-05-2.87996E-05-4.90321E-07-2.16198E-18-1.33667E-18
 -1      1915 9.57527E-05-2.86541E-05-2.87551E-05-4.12976E-07-6.44634E-19-1.56406E-18
 -1      1916 9.58948E-05-2.86275E-05-2.88306E-05-6.88942E-07-1.10728E-18-2.93945E-18
 -1      1917 9.56587E-05-2.86369E-05-2.87196E-05-3.33765E-07 3.34806E-19-1.40341E-18
 -1      1918 9.55608E-05-2.86178E-05-2.86887E-05-2.79067E-07 5.91121E-19-9.05023E-19
 -1      1919 9.56750E-05-2.86032E-05-2.87465E-05-4.74165E-07-1.10932E-19-1.50016E-18
 -1      1920 9.54940E-05-2.86055E-05-2.86637E-05-2.22792E-07 5.96934E-19-9.51632E-19
 -1      1921 9.54280E-05-2.85931E-05-2.86426E-05-1.84268E-07 1.64932E-18-1.41112E-18
 -1      1922 9.55179E-05-2.85854E-05-2.86865E-05-3.20928E-07 4.32620E-19-6.98606E-19
 -1      1923 9.53835E-05-2.85848E-05-2.86260E-05-1.46297E-07 1.27420E-18-1.85531E-18
 -1      1924 9.53416E-05-2.85774E-05-2.86125E-05-1.20291E-07-1.81861E-19-9.24053E-19
 -1      1925 9.54097E-05-2.85738E-05-2.86449E-05-2.13898E-07 1.07053E-18-2.15298E-18
 -1      1926 9.53094E-05-2.85717E-05-2.86004E-05-9.17859E-08-6.64767E-19-1.01195E-18
 -1      1927 9.52811E-05-2.85672E-05-2.85912E-05-7.26784E-08 3.64842E-19-1.24244E-18
 -1      1928 9.53347E-05-2.85657E-05-2.86160E-05-1.38207E-07 1.17289E-19-2.06297E-18
 -1      1929 9.52600E-05-2.85635E-05-2.85832E-05-5.29934E-08 3.08658E-19-2.13889E-18
 -1      1930 9.52432E-05-2.85614E-05-2.85776E-05-3.98568E-08 3.28243E-19-2.57595E-18
 -1      1931 9.52832E-05-2.85611E-05-2.85957E-05-8.33088E-08-2.52549E-19-2.26428E-18
 -1      1932 9.52301E-05-2.85593E-05-2.85725E-05-2.64416E-08 1.30943E-19-2.03370E-18
 -1      1933 9.52211E-05-2.85587E-05-2.85693E-05-1.76146E-08-1.21945E-18-1.87151E-18
 -1      1934 9.52501E-05-2.85590E-05-2.85823E-05-4.53633E-08 4.86056E-19-3.12682E-18
 -1      1935 9.52136E-05-2.85577E-05-2.85663E-05-8.68342E-09 1.58902E-19-8.28952E-19
 -1      1936 9.52100E-05-2.85581E-05-2.85649E-05-2.91786E-09 2.31834E-18-1.96762E-19
 -1      1937 9.52304E-05-2.85585E-05-2.85739E-05-1.96174E-08 4.63792E-19-6.56399E-19
 -1      1938 9.52063E-05-2.85579E-05-2.85633E-05 2.82758E-09 1.97761E-18-7.61317E-19
 -1      1939 9.52062E-05-2.85590E-05-2.85630E-05 6.41485E-09 1.34057E-18-1.57480E-18
 -1      1940 9.52199E-05-2.85593E-05-2.85690E-05-2.61503E-09 1.44267E-18-7.59426E-19
 -1      1941 9.52052E-05-2.85592E-05-2.85624E-05 9.76280E-09 1.61275E-18-1.62413E-18
 -1      1942 9.52071E-05-2.85605E-05-2.85627E-05 1.17623E-08 1.64673E-18-1.82322E-19
 -1      1943 9.52157E-05-2.85607E-05-2.85666E-05 7.99226E-09 1.51241E-18-2.48987E-18
 -1      1944 9.52077E-05-2.85611E-05-2.85627E-05 1.37169E-08-1.95704E-19 5.31039E-19
 -1      1945 9.52110E-05-2.85627E-05-2.85635E-05 1.47421E-08-1.21276E-18 3.00344E-19
 -1      1946 9.52156E-05-2.85626E-05-2.85657E-05 1.42648E-08 1.38844E-18-2.00606E-18
 -1      1947 9.52126E-05-2.85635E-05-2.85639E-05 1.54777E-08-9.23203E-19 1.55178E-18
 -1      1948 9.52165E-05-2.85652E-05-2.85649E-05 1.56701E-08-1.14064E-18 1.22738E-18
 -1      1949 9.52181E-05-2.85648E-05-2.85658E-05 1.75328E-08-4.31732E-19-1.09294E-18
 -1      1950 9.52186E-05-2.85660E-05-2.85654E-05 1.54610E-08-1.36989E-18 2.14216E-18
 -1      1951 9.52226E-05-2.85677E-05-2.85664E-05 1.49317E-08-3.53521E-20 2.34378E-18
 -1      1952 9.52221E-05-2.85671E-05-2.85665E-05 1.83414E-08-1.16107E-18 4.44612E-19
 -1      1953 9.52249E-05-2.85687E-05-2.85670E-05 1.38916E-08 2.71821E-20 1.50629E-18
 -1      1954 9.52285E-05-2.85702E-05-2.85679E-05 1.26243E-08-3.97279E-19 8.80245E-19
 -1      1955 9.52267E-05-2.85695E-05-2.85673E-05 1.71388E-08-6.58509E-19 5.04777E-19
 -1      1956 9.52307E-05-2.85713E-05-2.85683E-05 1.07450E-08 6.91205E-19 2.35179E-19
 -1      1957 9.52336E-05-2.85726E-05-2.85690E-05 8.78869E-09 8.19442E-19 2.45596E-19
 -1      1958 9.52313E-05-2.85722E-05-2.85682E-05 1.41056E-08 1.20728E-19 2.69483E-19
 -1      1959 9.50209E-05-2.79293E-05-2.87272E-05 9.55079E-07-6.58171E-20 3.00382E-18
 -1      1960 9.59568E-05-2.79362E-05-2.90979E-05 2.01935E-06 8.92032E-21 3.06930E-18
 -1      1961 9.66982E-05-2.74611E-05-2.96532E-05 3.25637E-06 1.45848E-20 2.79328E-18
 -1      1962 6.60279E-05-3.97362E-05-1.15152E-05 4.64182E-05 8.54233E-19 2.82740E-18
 -1      1963 5.11879E-05-4.19994E-05-4.90410E-06 4.07742E-05 1.07361E-18 2.08158E-18
 -1      1964 9.43561E-05-2.80378E-05-2.84005E-05-2.58341E-07-2.49014E-20 2.73778E-18
 -1      1965 9.46235E-05-2.79856E-05-2.85121E-05 2.76597E-07-1.24494E-19 2.83458E-18
 -1      1966 9.54638E-05-2.79253E-05-2.89424E-05 8.30395E-07-6.50594E-20 2.62187E-18
 -1      1967 9.43363E-05-2.82124E-05-2.83276E-05-7.98580E-07-2.58019E-19 2.84047E-18
 -1      1968 9.42678E-05-2.81143E-05-2.83247E-05-5.52859E-07-1.75496E-19 2.63637E-18
 -1      1969 9.49998E-05-2.82064E-05-2.86352E-05-4.18885E-07-1.67363E-19 2.18835E-18
 -1      1970 9.46266E-05-2.84380E-05-2.83636E-05-9.01997E-07-4.01656E-19 2.75501E-18
 -1      1971 9.44179E-05-2.83168E-05-2.83179E-05-8.52186E-07-2.47374E-19 2.80932E-18
 -1      1972 9.50075E-05-2.84582E-05-2.85308E-05-9.25891E-07-3.54379E-19 2.07712E-18
 -1      1973 9.49674E-05-2.86623E-05-2.84195E-05-6.52828E-07-2.02630E-19 2.69007E-18
 -1      1974 9.47639E-05-2.85521E-05-2.83752E-05-7.64489E-07-4.51685E-19 2.63878E-18
 -1      1975 9.52498E-05-2.87279E-05-2.85149E-05-9.13987E-07-3.53594E-19 1.82442E-18
 -1      1976 9.51422E-05-2.88252E-05-2.84290E-05-9.45253E-08 2.20002E-19 2.93980E-18
 -1      1977 9.50620E-05-2.87612E-05-2.84199E-05-3.52566E-07-2.03486E-21 2.91995E-18
 -1      1978 9.55050E-05-2.89776E-05-2.85122E-05-4.79396E-07-6.96635E-20 1.87704E-18
 -1      1979 9.49664E-05-2.88599E-05-2.83415E-05 7.25676E-07 3.86186E-19 2.65121E-18
 -1      1980 9.51070E-05-2.88776E-05-2.83939E-05 3.40181E-07 2.88891E-19 2.90874E-18
 -1      1981 9.55862E-05-2.91496E-05-2.84679E-05 3.18113E-07 3.70137E-19 2.30206E-18
 -1      1982 9.42968E-05-2.86982E-05-2.81238E-05 1.71655E-06 8.30919E-20 2.96035E-18
 -1      1983 9.47285E-05-2.88296E-05-2.82547E-05 1.24480E-06 1.89180E-19 2.68764E-18
 -1      1984 9.53307E-05-2.91702E-05-2.83446E-05 1.39577E-06 2.55126E-19 2.42295E-18
 -1      1985 9.30615E-05-2.82863E-05-2.77682E-05 2.71458E-06 4.37049E-20 3.07316E-18
 -1      1986 9.38099E-05-2.85512E-05-2.79803E-05 2.23330E-06 1.88548E-19 3.02058E-18
 -1      1987 9.46157E-05-2.89614E-05-2.81241E-05 2.60397E-06 1.29627E-19 2.44251E-18
 -1      1988 9.13035E-05-2.76118E-05-2.72988E-05 3.48141E-06-1.30408E-19 3.28394E-18
 -1      1989 9.23274E-05-2.80042E-05-2.75764E-05 3.10373E-06-3.98916E-20 3.27310E-18
 -1      1990 9.33935E-05-2.84660E-05-2.78118E-05 3.70361E-06-1.08601E-19 2.59639E-18
 -1      1991 8.92188E-05-2.67362E-05-2.67753E-05 3.74596E-06 3.42610E-19 3.09651E-18
 -1      1992 9.03948E-05-2.72109E-05-2.70819E-05 3.60042E-06-5.07475E-21 2.96270E-18
 -1      1993 9.17365E-05-2.76864E-05-2.74392E-05 4.38407E-06 1.85794E-19 2.19006E-18
 -1      1994 8.71595E-05-2.58125E-05-2.62851E-05 3.29717E-06 3.62573E-19 3.27613E-18
 -1      1995 8.82886E-05-2.62827E-05-2.65682E-05 3.48286E-06 2.04716E-19 3.06200E-18
 -1      1996 8.98714E-05-2.67233E-05-2.70605E-05 4.33995E-06 2.67032E-19 2.45777E-18
 -1      1997 8.55717E-05-2.50634E-05-2.59254E-05 2.09750E-06-7.89660E-20 3.33567E-18
 -1      1998 8.64174E-05-2.54172E-05-2.61275E-05 2.63089E-06 2.30317E-19 3.16766E-18
 -1      1999 8.81654E-05-2.57822E-05-2.67430E-05 3.39764E-06 1.85212E-19 2.40523E-18
 -1      2000 8.48649E-05-2.47084E-05-2.57767E-05 3.51445E-07 1.15521E-19 2.87039E-18
 -1      2001 8.52209E-05-2.48462E-05-2.58515E-05 1.13672E-06-1.09585E-20 3.15699E-18
 -1      2002 8.70373E-05-2.51233E-05-2.65506E-05 1.63569E-06-9.47717E-20 2.28788E-18
 -1      2003 8.52592E-05-2.48687E-05-2.58791E-05-1.53395E-06 5.59402E-19 2.53835E-18
 -1      2004 8.50208E-05-2.47452E-05-2.58055E-05-6.83102E-07 2.64896E-19 2.59365E-18
 -1      2005 8.68116E-05-2.49595E-05-2.65273E-05-5.84206E-07 7.26668E-19 2.63970E-18
 -1      2006 8.66914E-05-2.55068E-05-2.62196E-05-3.09969E-06 4.99743E-19 2.93984E-18
 -1      2007 8.58960E-05-2.51520E-05-2.60088E-05-2.38882E-06 7.69744E-19 2.93578E-18
 -1      2008 8.75818E-05-2.53545E-05-2.66848E-05-2.72652E-06 5.71853E-19 2.55830E-18
 -1      2009 8.88428E-05-2.64461E-05-2.67370E-05-4.01620E-06-5.08875E-19 2.09753E-18
 -1      2010 8.76545E-05-2.59499E-05-2.64283E-05-3.58951E-06-3.18828E-20 2.45132E-18
 -1      2011 8.91695E-05-2.61900E-05-2.69999E-05-4.29137E-06 2.97582E-19 2.02482E-18
 -1      2012 9.12688E-05-2.74549E-05-2.73417E-05-4.18882E-06 1.34035E-19 2.01765E-18
 -1      2013 8.99173E-05-2.69281E-05-2.69894E-05-4.08591E-06-2.38880E-19 2.00601E-18
 -1      2014 9.12068E-05-2.72275E-05-2.74215E-05-5.00187E-06-1.16760E-19 1.16906E-18
 -1      2015 9.35549E-05-2.83390E-05-2.79409E-05-3.74261E-06 2.94900E-19 1.28737E-18
 -1      2016 9.22604E-05-2.78728E-05-2.75990E-05-3.90841E-06 7.15131E-20 1.60581E-18
 -1      2017 9.32853E-05-2.82171E-05-2.78839E-05-4.86692E-06 2.13949E-19 1.15532E-18
 -1      2018 9.54203E-05-2.89910E-05-2.84608E-05-2.92237E-06 8.35624E-19 2.12083E-18
 -1      2019 9.43402E-05-2.86370E-05-2.81701E-05-3.25174E-06 5.84552E-19 2.08607E-18
 -1      2020 9.50856E-05-2.89876E-05-2.83238E-05-4.11063E-06 3.53243E-19 1.24925E-18
 -1      2021 9.67435E-05-2.93899E-05-2.88585E-05-1.98133E-06 5.11876E-19 1.60526E-18
 -1      2022 9.59540E-05-2.91607E-05-2.86409E-05-2.36649E-06 6.25488E-19 1.80534E-18
 -1      2023 9.64349E-05-2.94755E-05-2.86935E-05-3.03955E-06 8.11031E-19 1.29285E-18
 -1      2024 9.75331E-05-2.95711E-05-2.91214E-05-1.10952E-06-9.14528E-19 2.04735E-18
 -1      2025 9.70397E-05-2.94526E-05-2.89814E-05-1.46969E-06-5.11088E-19 1.53651E-18
 -1      2026 9.72968E-05-2.97026E-05-2.89667E-05-1.92799E-06-2.22899E-19 1.43237E-18
 -1      2027 9.78755E-05-2.95937E-05-2.92607E-05-4.11761E-07 4.12995E-20 2.87326E-18
 -1      2028 9.76374E-05-2.95596E-05-2.91897E-05-7.02048E-07-4.35544E-19 2.76990E-18
 -1      2029 9.77262E-05-2.97341E-05-2.91382E-05-9.59561E-07-7.04839E-19 2.54945E-18
 -1      2030 9.78881E-05-2.95169E-05-2.93008E-05 8.00143E-08 3.20981E-19 3.08613E-18
 -1      2031 9.78434E-05-2.95389E-05-2.92837E-05-1.26059E-07 2.08243E-19 2.87544E-18
 -1      2032 9.78210E-05-2.96430E-05-2.92187E-05-2.20884E-07 3.53606E-19 2.59629E-18
 -1      2033 9.76863E-05-2.93885E-05-2.92705E-05 3.81283E-07 2.18136E-20 3.26940E-18
 -1      2034 9.77708E-05-2.94426E-05-2.92906E-05 2.53802E-07 3.66653E-19 3.18950E-18
 -1      2035 9.76871E-05-2.94903E-05-2.92271E-05 2.75540E-07 4.71065E-19 3.28747E-18
 -1      2036 9.73671E-05-2.92423E-05-2.91969E-05 5.30452E-07-9.99823E-19 3.34346E-18
 -1      2037 9.75252E-05-2.93105E-05-2.92390E-05 4.66162E-07-6.83779E-19 3.03037E-18
 -1      2038 9.74177E-05-2.93188E-05-2.91855E-05 5.60957E-07-4.79747E-19 2.80492E-18
 -1      2039 9.70027E-05-2.90996E-05-2.91021E-05 5.71427E-07-1.32426E-19 4.21316E-18
 -1      2040 9.71921E-05-2.91697E-05-2.91543E-05 5.52414E-07-2.43561E-19 3.98092E-18
 -1      2041 9.70855E-05-2.91541E-05-2.91138E-05 6.84782E-07-6.92612E-19 3.46838E-18
 -1      2042 9.66417E-05-2.89718E-05-2.90022E-05 5.43753E-07 8.37712E-20 3.41364E-18
 -1      2043 9.68333E-05-2.90367E-05-2.90559E-05 5.53735E-07 7.78762E-20 4.07150E-18
 -1      2044 9.67416E-05-2.90093E-05-2.90285E-05 6.97805E-07 2.59966E-19 4.14872E-18
 -1      2045 9.63132E-05-2.88640E-05-2.89074E-05 4.78511E-07-7.94144E-19 2.81715E-18
 -1      2046 9.64893E-05-2.89200E-05-2.89575E-05 5.04598E-07-3.22120E-19 2.79288E-18
 -1      2047 9.64182E-05-2.88894E-05-2.89414E-05 6.43439E-07 1.69713E-19 3.13171E-18
 -1      2048 9.60313E-05-2.87770E-05-2.88236E-05 3.97744E-07-1.83657E-19 2.75487E-18
 -1      2049 9.61830E-05-2.88229E-05-2.88672E-05 4.30727E-07-9.14806E-19 2.99755E-18
 -1      2050 9.61331E-05-2.87941E-05-2.88601E-05 5.54650E-07-8.22780E-19 2.28796E-18
 -1      2051 9.58004E-05-2.87095E-05-2.87535E-05 3.15650E-07 3.28682E-19 3.93495E-18
 -1      2052 9.59247E-05-2.87455E-05-2.87895E-05 3.49545E-07-3.88564E-20 3.05199E-18
 -1      2053 9.58936E-05-2.87211E-05-2.87887E-05 4.54158E-07 4.92485E-20 2.25238E-18
 -1      2054 9.56186E-05-2.86587E-05-2.86971E-05 2.40383E-07 5.05606E-19 3.87313E-18
 -1      2055 9.57162E-05-2.86860E-05-2.87257E-05 2.71708E-07 5.11827E-19 4.27307E-18
 -1      2056 9.57003E-05-2.86669E-05-2.87291E-05 3.56158E-07 1.76624E-19 2.79049E-18
 -1      2057 9.54805E-05-2.86219E-05-2.86536E-05 1.75846E-07 2.15937E-18 2.71284E-18
 -1      2058 9.55542E-05-2.86418E-05-2.86754E-05 2.02892E-07 1.06772E-18 3.58033E-18
 -1      2059 9.55496E-05-2.86278E-05-2.86813E-05 2.68451E-07 1.26314E-18 3.09158E-18
 -1      2060 9.53793E-05-2.85962E-05-2.86213E-05 1.23178E-07 3.54624E-20 2.24715E-18
 -1      2061 9.54329E-05-2.86101E-05-2.86372E-05 1.45400E-07 1.33039E-18 2.79490E-18
 -1      2062 9.54360E-05-2.86006E-05-2.86442E-05 1.94441E-07 1.57238E-18 3.58648E-18
 -1      2063 9.53081E-05-2.85790E-05-2.85981E-05 8.18900E-08-2.03426E-18 2.04065E-18
 -1      2064 9.53454E-05-2.85882E-05-2.86093E-05 9.94355E-08-1.34375E-18 2.02089E-18
 -1      2065 9.53533E-05-2.85824E-05-2.86165E-05 1.34741E-07-1.05818E-18 3.26856E-18
 -1      2066 9.52604E-05-2.85682E-05-2.85822E-05 5.06474E-08 8.13856E-19 1.45176E-18
 -1      2067 9.52850E-05-2.85739E-05-2.85897E-05 6.40321E-08-7.93496E-19 1.64067E-18
 -1      2068 9.52954E-05-2.85708E-05-2.85966E-05 8.83630E-08-8.52036E-19 1.04800E-18
 -1      2069 9.52304E-05-2.85620E-05-2.85720E-05 2.77882E-08-3.44141E-19 1.48961E-18
 -1      2070 9.52454E-05-2.85652E-05-2.85766E-05 3.76774E-08 3.36355E-20 8.43179E-19
 -1      2071 9.52567E-05-2.85640E-05-2.85828E-05 5.35374E-08 3.58331E-19 7.68971E-19
 -1      2072 9.52134E-05-2.85592E-05-2.85660E-05 1.16338E-08 6.51998E-19 2.05963E-18
 -1      2073 9.52215E-05-2.85606E-05-2.85685E-05 1.87102E-08 6.18124E-19 1.79500E-18
 -1      2074 9.52324E-05-2.85606E-05-2.85739E-05 2.82374E-08-1.05786E-19 3.87098E-19
 -1      2075 9.52058E-05-2.85585E-05-2.85630E-05 6.62878E-10 2.25146E-18 1.81473E-18
 -1      2076 9.52089E-05-2.85587E-05-2.85641E-05 5.55128E-09 9.86566E-19 2.12494E-18
 -1      2077 9.52189E-05-2.85595E-05-2.85685E-05 1.04935E-08 6.53372E-19 2.05760E-18
 -1      2078 9.52045E-05-2.85594E-05-2.85621E-05-6.40510E-09 1.35279E-18 9.35256E-19
 -1      2079 9.52043E-05-2.85588E-05-2.85622E-05-3.17533E-09 1.48276E-18 2.17493E-18
 -1      2080 9.52128E-05-2.85599E-05-2.85657E-05-1.43722E-09 1.25361E-18 2.16088E-18
 -1      2081 9.52073E-05-2.85611E-05-2.85625E-05-1.05784E-08 1.83839E-18-2.13754E-19
 -1      2082 9.52050E-05-2.85600E-05-2.85620E-05-8.58959E-09 1.20853E-18 7.59106E-19
 -1      2083 9.52119E-05-2.85613E-05-2.85647E-05-8.99267E-09 1.72300E-18 1.20505E-18
 -1      2084 9.52125E-05-2.85634E-05-2.85638E-05-1.25887E-08-4.18026E-19-1.58234E-19
 -1      2085 9.52090E-05-2.85620E-05-2.85629E-05-1.15401E-08 1.25481E-18 1.82592E-19
 -1      2086 9.52143E-05-2.85632E-05-2.85648E-05-1.32797E-08 1.21146E-18 1.37801E-18
 -1      2087 9.52189E-05-2.85659E-05-2.85655E-05-1.28949E-08-6.80177E-19-6.26624E-19
 -1      2088 9.52149E-05-2.85644E-05-2.85645E-05-1.26060E-08-1.65546E-18-8.23832E-19
 -1      2089 9.52186E-05-2.85655E-05-2.85657E-05-1.50755E-08-8.50276E-19 1.05747E-18
 -1      2090 9.52254E-05-2.85684E-05-2.85672E-05-1.16954E-08 1.01237E-18-7.97871E-19
 -1      2091 9.52215E-05-2.85670E-05-2.85662E-05-1.21066E-08 8.50322E-19-1.07960E-19
 -1      2092 9.52238E-05-2.85679E-05-2.85669E-05-1.48345E-08 2.79737E-19 1.72493E-19
 -1      2093 9.52311E-05-2.85708E-05-2.85687E-05-8.95552E-09 9.91158E-20-3.73446E-19
 -1      2094 9.52278E-05-2.85695E-05-2.85679E-05-1.01494E-08 1.67576E-19-8.23119E-19
 -1      2095 9.52291E-05-2.85703E-05-2.85680E-05-1.27741E-08 4.24980E-19-2.00386E-19
 -1      2096 9.52349E-05-2.85726E-05-2.85696E-05-5.83722E-09 6.30317E-20 3.96586E-19
 -1      2097 9.52325E-05-2.85716E-05-2.85690E-05-7.74664E-09 3.18384E-19 2.01005E-19
 -1      2098 9.52331E-05-2.85724E-05-2.85688E-05-9.93859E-09-3.38620E-19 1.13812E-18
 -1      2099 9.52358E-05-2.85741E-05-2.85693E-05-7.08502E-09 7.10542E-20 1.44689E-18
 -1      2100 9.52428E-05-2.85882E-05-2.85663E-05-1.18330E-08-1.94548E-19-2.55178E-18
 -1      2101 9.52415E-05-2.85851E-05-2.85670E-05-1.21023E-08 3.72315E-20 1.87227E-20
 -1      2102 9.52403E-05-2.85830E-05-2.85674E-05-1.20456E-08 6.50793E-19 9.75869E-19
 -1      2103 9.52388E-05-2.85799E-05-2.85681E-05-1.14564E-08 5.62589E-19 1.45923E-18
 -1      2104 9.52402E-05-2.85820E-05-2.85678E-05-1.48742E-08 4.60906E-19-5.29778E-20
 -1      2105 9.52380E-05-2.85784E-05-2.85684E-05-1.03818E-08 2.46000E-19 1.10126E-18
 -1      2106 9.52366E-05-2.85757E-05-2.85690E-05-8.83135E-09 8.80461E-20 9.54620E-19
 -1      2107 9.52355E-05-2.85750E-05-2.85688E-05-1.05042E-08-2.06864E-19 1.39367E-18
 -1      2108 9.52377E-05-2.85783E-05-2.85683E-05-1.35907E-08-7.47060E-20 1.23612E-18
 -1      2109 9.52448E-05-2.85927E-05-2.85652E-05-1.02689E-08-2.97485E-18-5.49926E-18
 -1      2110 9.52437E-05-2.85900E-05-2.85658E-05-1.10916E-08-1.82103E-18-4.66352E-18
 -1      2111 9.52427E-05-2.85861E-05-2.85671E-05-1.40690E-08-1.47961E-18-4.54024E-18
 -1      2112 9.52462E-05-2.85963E-05-2.85642E-05-7.76598E-09-3.08977E-18-1.80593E-18
 -1      2113 9.52454E-05-2.85942E-05-2.85648E-05-8.96592E-09-2.79226E-18-1.81383E-18
 -1      2114 9.52446E-05-2.85895E-05-2.85665E-05-1.17982E-08-1.91132E-18-3.62702E-18
 -1      2115 9.52472E-05-2.85987E-05-2.85636E-05-4.69515E-09-2.27288E-18 5.35476E-19
 -1      2116 9.52467E-05-2.85974E-05-2.85639E-05-6.11323E-09-2.89786E-18-3.11289E-20
 -1      2117 9.52459E-05-2.85921E-05-2.85659E-05-8.52049E-09-2.77203E-18-6.56330E-19
 -1      2118 9.52476E-05-2.85999E-05-2.85633E-05-1.30554E-09-1.34505E-18 1.62895E-18
 -1      2119 9.52474E-05-2.85993E-05-2.85634E-05-2.84036E-09-2.44400E-18 9.23724E-19
 -1      2120 9.52467E-05-2.85938E-05-2.85655E-05-4.63644E-09-1.97770E-18 1.41488E-18
 -1      2121 9.52476E-05-2.85996E-05-2.85633E-05 2.21512E-09-1.91939E-18-1.04970E-18
 -1      2122 9.52477E-05-2.86000E-05-2.85632E-05 6.44519E-10-1.13217E-18 8.44893E-19
 -1      2123 9.52470E-05-2.85946E-05-2.85654E-05-4.24165E-10-2.76054E-18 1.18817E-18
 -1      2124 9.52470E-05-2.85979E-05-2.85638E-05 5.67533E-09-1.91730E-18-5.05988E-18
 -1      2125 9.52474E-05-2.85992E-05-2.85635E-05 4.15978E-09-1.97106E-18-1.98713E-18
 -1      2126 9.52469E-05-2.85942E-05-2.85655E-05 3.88970E-09-3.04183E-18-2.27303E-18
 -1      2127 9.52458E-05-2.85949E-05-2.85646E-05 8.76654E-09-1.37945E-18-4.35386E-18
 -1      2128 9.52466E-05-2.85970E-05-2.85641E-05 7.45582E-09-1.36367E-18-5.66090E-18
 -1      2129 9.52463E-05-2.85928E-05-2.85658E-05 8.01853E-09-1.42596E-18-4.92681E-18
 -1      2130 9.52441E-05-2.85907E-05-2.85657E-05 1.12234E-08-7.90111E-19 3.70935E-18
 -1      2131 9.52452E-05-2.85935E-05-2.85650E-05 1.02559E-08-1.51130E-18 8.90669E-19
 -1      2132 9.52451E-05-2.85903E-05-2.85663E-05 1.16502E-08-1.04398E-18-1.82116E-18
 -1      2133 9.52417E-05-2.85857E-05-2.85669E-05 1.24833E-08-2.01410E-19 3.06154E-18
 -1      2134 9.52431E-05-2.85889E-05-2.85661E-05 1.21302E-08-1.10411E-18 2.53276E-18
 -1      2135 9.52432E-05-2.85869E-05-2.85670E-05 1.43207E-08-2.01512E-19 3.44714E-18
 -1      2136 9.52389E-05-2.85803E-05-2.85680E-05 1.20054E-08-1.66997E-18 9.36364E-19
 -1      2137 9.52406E-05-2.85835E-05-2.85673E-05 1.24754E-08-8.87956E-19 2.76585E-18
 -1      2138 9.52405E-05-2.85826E-05-2.85677E-05 1.53495E-08-2.14277E-18 2.72134E-18
 -1      2139 9.90032E-05-4.01392E-05-2.51297E-05 4.82417E-05 1.73388E-18 2.81300E-18
 -1      2140 8.02923E-05-4.29432E-05-1.70400E-05 4.35187E-05 6.63650E-19 3.53530E-18
 -1      2141 8.58286E-05-4.90252E-05-1.60395E-05 4.78895E-05-9.86793E-20 2.88822E-18
 -1      2142 9.52353E-05-2.85732E-05-2.85695E-05 5.78438E-09 2.59352E-19-3.27533E-19
 -1      2143 1.01046E-04-2.27912E-05-3.32623E-05-1.33681E-05-5.18278E-20-1.09537E-18
 -1      2144 1.22658E-05-3.04779E-05 7.00936E-06 1.38869E-05 7.73553E-19-1.96088E-19
 -1      2145 1.17806E-05-3.55206E-05 8.71980E-06 3.10332E-06 1.12936E-18 8.50421E-19
 -1      2146 8.71099E-05-8.23624E-06-3.38982E-05-9.08079E-06 5.86782E-19-6.25468E-19
 -1      2147 8.81365E-05-8.91353E-06-3.40301E-05-1.05703E-05 5.12098E-19-6.42038E-19
 -1      2148 9.07338E-05-1.26565E-05-3.34837E-05-1.01298E-05 4.45500E-19-6.50257E-19
 -1      2149 8.82076E-05-1.02319E-05-3.34440E-05-7.92579E-06 6.31200E-19-5.42869E-19
 -1      2150 1.39015E-04-4.05392E-05-4.17959E-05 3.97863E-05 2.56566E-18 2.87441E-18
 -1      2151 1.17455E-04-4.07297E-05-3.33121E-05 4.06840E-05 2.76048E-18 2.55296E-18
 -1      2152 1.68777E-04-3.46852E-05-5.64971E-05 2.48547E-05 2.77520E-18 1.93505E-18
 -1      2153 1.51448E-04-3.62166E-05-4.93552E-05 2.75097E-05 2.71993E-18 2.51103E-18
 -1      2154 1.83517E-04-2.66687E-05-6.62479E-05 1.08594E-05 3.32122E-18 1.62101E-18
 -1      2155 1.74041E-04-2.80714E-05-6.19668E-05 1.89935E-05 3.35891E-18 1.79867E-18
 -1      2156 1.86622E-04-2.28006E-05-6.91946E-05-1.70440E-06 3.08574E-18 3.50407E-19
 -1      2157 1.80905E-04-2.09066E-05-6.79890E-05 5.69281E-06 3.20051E-18 1.07552E-18
 -1      2158 1.79390E-04-2.38608E-05-6.60250E-05-1.14105E-05 1.41497E-18-4.55704E-19
 -1      2159 1.87865E-04-2.48287E-05-6.88478E-05-4.18893E-06 2.49282E-18 2.95614E-19
 -1      2160 1.61472E-04-1.04888E-05-6.36660E-05 5.70621E-07 2.88881E-18 1.26298E-18
 -1      2161 1.64271E-04-3.22903E-05-5.61252E-05-2.47988E-05 2.28858E-19-1.55176E-18
 -1      2162 1.77666E-04-3.12134E-05-6.18132E-05-1.79680E-05 2.65968E-19-1.22396E-18
 -1      2163 1.36550E-04-3.75934E-05-4.25109E-05-3.71746E-05 8.67362E-19-8.66938E-19
 -1      2164 1.56812E-04-3.67537E-05-5.04265E-05-3.58156E-05 5.87629E-19-1.27351E-18
 -1      2165 1.09081E-04-4.72716E-05-2.66916E-05-4.13604E-05-2.93073E-19-9.43595E-19
 -1      2166 1.26615E-04-4.21414E-05-3.53587E-05-4.33022E-05 4.03188E-19-8.05952E-19
 -1      2167 6.46424E-05-4.49386E-05-9.43538E-06-4.25323E-05-9.71970E-19-1.99513E-18
 -1      2168 8.54211E-05-4.50780E-05-1.77118E-05-4.75483E-05-7.12355E-19-2.44115E-18
 -1      2169 2.98291E-05-4.00788E-05 3.05459E-06-3.09161E-05-9.51218E-19-7.53648E-19
 -1      2170 4.30624E-05-3.70164E-05-3.01174E-06-4.12209E-05-8.96584E-19-9.40842E-19
 -1      2171 1.30832E-05-3.29281E-05 7.64711E-06-1.33151E-05-9.24325E-19-7.92823E-19
 -1      2172 1.86290E-05-3.50797E-05 6.00401E-06-2.31336E-05-7.64024E-19-9.44865E-19
 -1      2173 2.91295E-05-2.89116E-05-3.66955E-07-3.32123E-05-7.41789E-19-9.71335E-19
 -1      2174 1.70266E-05-3.85821E-05 7.75726E-06 1.16018E-05-1.27224E-18-3.79471E-19
 -1      2175 1.14096E-05-3.53454E-05 8.94991E-06 1.67676E-06-8.84197E-19-6.01817E-19
 -1      2176 4.17444E-05-4.31151E-05-6.98268E-07 2.90151E-05-9.43595E-19-5.77994E-19
 -1      2177 2.89006E-05-4.32186E-05 4.38633E-06 2.07828E-05-1.01771E-18-1.75336E-19
 -1      2178 8.43080E-05-5.05015E-05-1.53678E-05 3.85633E-05-4.77727E-19-1.07171E-18
 -1      2179 6.09505E-05-4.98620E-05-6.69382E-06 3.09015E-05-9.46559E-19-6.71141E-19
 -1      2180 1.40617E-04-6.17585E-05-3.38980E-05 2.83671E-05-6.50521E-19 6.66615E-19
 -1      2181 1.13928E-04-5.94733E-05-2.43171E-05 2.97407E-05-1.69407E-21-6.09864E-19
 -1      2182 1.81126E-04-5.38799E-05-5.32119E-05 1.61501E-05-2.24654E-18 1.40607E-18
 -1      2183 1.56949E-04-5.60555E-05-4.36400E-05 1.53780E-05-2.06443E-18 8.01293E-19
 -1      2184 2.02672E-04-4.43131E-05-6.60899E-05 3.51574E-06-8.86632E-19 1.05286E-18
 -1      2185 1.87160E-04-4.63443E-05-5.95968E-05 8.69639E-06-1.81360E-18 9.91029E-19
 -1      2186 1.88892E-04-3.04047E-05-6.73305E-05-5.32305E-06-8.94043E-19 7.04096E-19
 -1      2187 1.93346E-04-3.58260E-05-6.61591E-05-4.30233E-06-7.43271E-19 3.50672E-19
 -1      2188 2.04596E-04-3.58009E-05-7.00669E-05 1.27786E-06-1.50306E-18 1.55981E-18
 -1      2189 2.00364E-04-3.08868E-05-7.10196E-05 4.07954E-06-5.56501E-19 1.13111E-18
 -1      2190 1.90085E-04-4.60860E-05-6.07830E-05-4.85944E-06-2.85598E-18 1.66696E-18
 -1      2191 2.02753E-04-4.30054E-05-6.66204E-05-2.26119E-07-2.48689E-18 1.39676E-18
 -1      2192 1.13506E-04-5.75072E-05-2.53812E-05-2.99232E-05-9.68159E-19 2.56693E-18
 -1      2193 1.40895E-04-5.91538E-05-3.54111E-05-2.72239E-05-6.59839E-19 2.45512E-18
 -1      2194 6.96597E-05-5.13725E-05-9.48477E-06-3.20157E-05-1.01644E-20 3.08622E-18
 -1      2195 9.17611E-05-5.20714E-05-1.76312E-05-3.74462E-05-8.77526E-19 3.30618E-18
 -1      2196 3.30904E-05-4.48639E-05 3.07126E-06-2.16453E-05 3.68459E-19 3.12195E-18
 -1      2197 4.66440E-05-4.34007E-05-2.53156E-06-3.05226E-05-3.64224E-20 3.15964E-18
 -1      2198 1.45540E-05-3.93351E-05 8.97985E-06-6.81182E-06 9.95052E-19 1.70677E-18
 -1      2199 2.08425E-05-4.04769E-05 6.81388E-06-1.46053E-05 4.29446E-19 2.34713E-18
 -1      2200 3.19564E-05-3.60586E-05 8.82016E-07 3.58734E-05 1.84357E-18 1.04587E-18
 -1      2201 2.14071E-05-3.52635E-05 4.92823E-06 2.76728E-05 1.49226E-18 1.43996E-20
 -1      2202 9.52352E-05-2.85741E-05-2.85690E-05 8.85358E-09 6.96443E-20-1.94759E-18
 -1      2203 1.46271E-05-2.56099E-05 4.03875E-06-4.23313E-06 5.17325E-19 1.48146E-18
 -1      2204 1.62334E-04-5.79489E-05-4.49917E-05-1.92616E-05-1.32915E-18 4.21822E-19
 -1      2205 1.56168E-04-4.96803E-05-4.61840E-05-2.63622E-05-1.02449E-18-7.88482E-19
 -1      2206 1.63129E-04-2.51110E-05-5.91358E-05-1.18458E-06-1.29257E-18-6.33422E-19
 -1      2207 5.03578E-05-3.82231E-05-5.42720E-06 4.49239E-05 7.42848E-19 1.16848E-18
 -1      2208 9.87003E-05-2.46545E-05-3.18074E-05-8.76603E-06-8.93090E-20-1.10526E-18
 -1      2209 9.77318E-05-2.32708E-05-3.19832E-05-8.76120E-06-2.78594E-20-8.11775E-19
 -1      2210 1.19765E-04-5.20421E-05-2.87894E-05 3.95788E-05 1.14985E-18 2.55507E-18
 -1      2211 1.50971E-04-4.08719E-05-4.76870E-05-2.54523E-05-1.08971E-18-1.46812E-18
 -1      2212 1.65942E-04-3.88342E-05-5.46005E-05-2.26643E-05-1.32095E-18-9.97805E-19
 -1      2213 1.64391E-04-3.46644E-05-5.57075E-05 2.08558E-05-1.92234E-18-7.19978E-19
 -1      2214 1.63994E-04-2.20329E-05-5.99224E-05-1.66274E-06 8.77950E-19 5.17961E-19
 -1      2215 1.64097E-04-1.54805E-05-6.27869E-05 9.07675E-07 3.52112E-18 6.53062E-19
 -1      2216 9.52367E-05-2.85769E-05-2.85685E-05 1.05384E-08-6.02414E-19-1.56316E-18
 -1      2217 1.96161E-05-2.79481E-05 3.15885E-06 2.25429E-05 8.72444E-19 6.79320E-19
 -1      2218 1.83678E-05-1.73387E-05-4.33274E-08 1.69829E-05 5.63806E-20 7.83505E-19
 -1      2219 2.67725E-05-2.31574E-05-1.74068E-06 3.17434E-05 7.95999E-19 2.95614E-19
 -1      2220 3.21429E-05-3.57163E-05 6.52625E-07-2.55150E-05 3.17002E-19 2.95445E-18
 -1      2221 7.01906E-05-4.92690E-05-9.44280E-06-3.70681E-05 3.32884E-19 3.13741E-18
 -1      2222 1.17835E-04-6.36143E-05-2.32153E-05-3.13006E-05 3.26108E-20 2.78886E-18
 -1      2223 1.83724E-04-3.28979E-05-6.29090E-05 1.29330E-05-1.86855E-18-1.01644E-20
 -1      2224 1.79529E-04-5.27395E-05-5.35067E-05-6.76701E-06-1.97729E-18 7.44118E-19
 -1      2225 1.56526E-04-6.72769E-05-3.83279E-05 9.75244E-06-8.80067E-19 1.04693E-18
 -1      2226 1.12349E-04-6.15982E-05-2.16495E-05 3.35791E-05 1.34678E-19-8.34327E-20
 -1      2227 6.23673E-05-4.67399E-05-7.28350E-06 3.69493E-05-1.59242E-19-3.14567E-19
 -1      2228 1.46170E-05-2.47166E-05 3.83994E-06-6.50232E-06-5.56395E-19-8.29245E-19
 -1      2229 6.27387E-05-4.25099E-05-8.71787E-06-4.67034E-05-9.27078E-19-1.83107E-18
 -1      2230 1.05435E-04-5.13001E-05-2.30730E-05-4.30913E-05-6.39510E-19-1.14032E-18
 -1      2231 1.22712E-04-5.85616E-05-2.82164E-05-3.63416E-05-8.26281E-19-3.38813E-19
 -1      2232 1.02624E-04-5.39638E-05-2.02491E-05-4.49871E-05-1.10580E-18-1.27423E-18
 -1      2233 1.40366E-04-5.06814E-05-3.82145E-05-2.78876E-05-1.74277E-19-8.34327E-20
 -1      2234 1.48964E-04-4.54479E-05-4.37751E-05 2.14550E-05 2.08487E-18 1.72795E-18
 -1      2235 1.61997E-04-3.01931E-05-5.57574E-05 5.79382E-06 2.74269E-18 9.40630E-19
 -1      2236 9.52362E-05-2.85768E-05-2.85683E-05 1.39599E-08-1.17839E-18 2.61668E-19
 -1      2237 1.58200E-04-3.81963E-05-5.05547E-05-1.45152E-05-4.70103E-20-7.97058E-19
 -1      2238 2.73712E-05-3.31045E-05 1.67464E-06 2.23659E-05-5.39136E-19-9.31736E-20
 -1      2239 1.55251E-04-6.74923E-05-3.69065E-05-9.31630E-06-2.01382E-19 1.95707E-18
 -1      2240 1.60336E-04-6.15129E-05-4.20377E-05-1.17926E-05-4.96150E-19 2.03119E-18
 -1      2241 1.62589E-04-5.68051E-05-4.54739E-05-1.07654E-05-9.82135E-19 2.09048E-18
 -1      2242 1.84617E-04-5.37274E-05-5.47135E-05-1.05990E-05-1.88285E-18 2.06845E-18
 -1      2243 1.70108E-04-6.48295E-05-4.54325E-05 5.33514E-06-3.14514E-19 1.53906E-18
 -1      2244 1.78967E-04-5.07366E-05-5.41199E-05 1.26574E-05-1.89185E-18 4.55280E-19
 -1      2245 8.62724E-05-9.48578E-06-3.29456E-05-3.23658E-06 7.85192E-19 6.15323E-20
 -1      2246 8.66484E-05-9.80269E-06-3.29694E-05-4.10599E-06 7.28123E-19-4.68184E-20
 -1      2247 8.72177E-05-1.03863E-05-3.29745E-05-4.79790E-06 6.95229E-19-1.91231E-19
 -1      2248 8.79043E-05-1.09927E-05-3.30041E-05-5.72436E-06 6.21804E-19-3.60015E-19
 -1      2249 8.80211E-05-1.18976E-05-3.26151E-05-4.00346E-06 7.37487E-19-1.22548E-19
 -1      2250 8.60758E-05-9.31370E-06-3.29249E-05-4.37388E-08 8.83969E-19 5.91778E-19
 -1      2251 8.59494E-05-9.20845E-06-3.29240E-05-9.40672E-07 8.80681E-19 4.50890E-19
 -1      2252 8.66528E-05-9.86515E-06-3.29359E-05 1.73115E-06 8.88813E-19 7.13784E-19
 -1      2253 8.63332E-05-9.59401E-06-3.29253E-05 7.67132E-07 8.58780E-19 6.43685E-19
 -1      2254 8.73131E-05-1.12516E-05-3.25989E-05 1.55651E-07 8.24837E-19 5.46717E-19
 -1      2255 8.75803E-05-1.07700E-05-3.29496E-05 3.63589E-06 8.84778E-19 8.25758E-19
 -1      2256 8.70971E-05-1.03449E-05-3.29346E-05 2.60620E-06 8.94713E-19 7.66234E-19
 -1      2257 8.80583E-05-1.20090E-05-3.25945E-05 1.79340E-06 7.93407E-19 7.12692E-19
 -1      2258 8.88915E-05-1.21034E-05-3.29498E-05 5.72069E-06 8.81736E-19 1.24235E-18
 -1      2259 8.82168E-05-1.14716E-05-3.29374E-05 4.58985E-06 9.28353E-19 9.87885E-19
 -1      2260 8.91763E-05-1.31727E-05-3.25739E-05 3.56814E-06 8.55677E-19 9.00436E-19
 -1      2261 9.06625E-05-1.40161E-05-3.29095E-05 7.86919E-06 7.15114E-19 1.52834E-18
 -1      2262 8.97448E-05-1.30793E-05-3.29117E-05 6.68790E-06 8.04446E-19 1.30597E-18
 -1      2263 9.06826E-05-1.48141E-05-3.25109E-05 5.41287E-06 7.85028E-19 1.23140E-18
 -1      2264 9.30930E-05-1.68522E-05-3.27707E-05 9.80757E-06 5.11926E-19 1.88405E-18
 -1      2265 9.18114E-05-1.53836E-05-3.28165E-05 8.72398E-06 6.34200E-19 1.66062E-18
 -1      2266 9.26254E-05-1.70847E-05-3.23592E-05 7.11061E-06 6.08304E-19 1.51633E-18
 -1      2267 9.64465E-05-2.11643E-05-3.23615E-05 1.05994E-05 1.69129E-19 2.42003E-18
 -1      2268 9.46091E-05-1.87333E-05-3.25586E-05 1.02722E-05 3.66209E-19 2.15755E-18
 -1      2269 9.50415E-05-2.02477E-05-3.20219E-05 8.18279E-06 3.64400E-19 1.92297E-18
 -1      2270 9.85800E-05-2.49655E-05-3.16136E-05 8.91831E-06 1.02120E-19 2.77247E-18
 -1      2271 9.72889E-05-2.25638E-05-3.20172E-05 1.00733E-05 1.53485E-19 2.59250E-18
 -1      2272 9.68821E-05-2.35598E-05-3.14139E-05 7.68958E-06 1.19855E-19 2.40997E-18
 -1      2273 9.75198E-05-2.60725E-05-3.06303E-05 5.92237E-06 2.65095E-20 2.73002E-18
 -1      2274 9.72580E-05-2.48744E-05-3.09787E-05-4.10047E-06 8.05343E-21-5.84521E-19
 -1      2275 9.68779E-05-2.55962E-05-3.05449E-05-1.82706E-06 2.46169E-21-5.64734E-19
 -1      2276 1.30998E-04-5.58239E-05-3.24572E-05 3.22364E-05 9.26654E-19 1.54096E-18
 -1      2277 1.14957E-04-5.56457E-05-2.54383E-05 3.87215E-05 2.75286E-21 2.24972E-18
 -1      2278 6.43583E-05-3.86843E-05-1.09148E-05 4.84657E-05 1.46960E-19 1.43191E-18
 -1      2279 4.60575E-05-3.14332E-05-5.86354E-06 4.18750E-05 8.87902E-19 3.81165E-20
 -1      2280 9.68046E-05-2.61561E-05-3.02278E-05-3.92547E-08 2.70951E-20-4.73773E-19
 -1      2281 9.66921E-05-2.64638E-05-3.00733E-05 1.53369E-06 3.36563E-20-5.13708E-19
 -1      2282 9.62872E-05-2.45672E-05-3.07460E-05-1.35100E-06 9.36137E-20-3.94172E-19
 -1      2283 9.65245E-05-2.65990E-05-2.99378E-05 2.92630E-06 8.52525E-20-4.95719E-19
 -1      2284 9.67098E-05-2.67282E-05-2.99596E-05 4.16572E-06 1.98037E-19-5.34508E-19
 -1      2285 9.60695E-05-2.54808E-05-3.02637E-05 2.03585E-06 7.14750E-20-2.02740E-19
 -1      2286 9.65222E-05-2.66462E-05-2.99365E-05 5.50046E-06 1.61697E-19-4.44421E-19
 -1      2287 9.69881E-05-2.66801E-05-3.00910E-05 6.77265E-06 1.59351E-19-3.95162E-19
 -1      2288 9.57514E-05-2.56216E-05-3.00609E-05 4.91605E-06 1.95584E-19-3.08004E-19
 -1      2289 9.67541E-05-2.64205E-05-3.01484E-05 8.13254E-06 1.67479E-19-3.76638E-19
 -1      2290 9.74656E-05-2.64062E-05-3.04051E-05 9.52728E-06 2.36871E-19-3.06941E-19
 -1      2291 9.53694E-05-2.52665E-05-3.00398E-05 7.71661E-06 9.21124E-20-2.43591E-19
 -1      2292 9.71258E-05-2.60180E-05-3.04941E-05 1.10467E-05 1.16995E-19-2.80915E-19
 -1      2293 9.80755E-05-2.60354E-05-3.08184E-05 1.26449E-05 1.95036E-19-2.10332E-19
 -1      2294 9.48332E-05-2.45340E-05-3.01116E-05 1.06571E-05 1.87219E-19-1.49406E-19
 -1      2295 9.76010E-05-2.56322E-05-3.08722E-05 1.44105E-05 3.60270E-19-4.32232E-19
 -1      2296 9.88570E-05-2.58879E-05-3.12100E-05 1.61767E-05 3.80976E-19-3.08602E-19
 -1      2297 9.40477E-05-2.36256E-05-3.01517E-05 1.39516E-05 1.40389E-19-2.99290E-19
 -1      2298 9.83755E-05-2.57909E-05-3.11304E-05 1.82100E-05 2.37811E-19-2.67027E-19
 -1      2299 1.00178E-04-2.67555E-05-3.13922E-05 1.98974E-05 2.62005E-19-3.39428E-19
 -1      2300 9.30746E-05-2.30332E-05-2.99803E-05 1.77191E-05 3.42769E-19-1.40955E-19
 -1      2301 1.00175E-04-2.76180E-05-3.10761E-05 2.20099E-05 2.24920E-19-2.89391E-19
 -1      2302 1.03021E-04-3.00509E-05-3.11798E-05 2.29693E-05 1.27505E-19-2.04793E-19
 -1      2303 9.24612E-05-2.38352E-05-2.93747E-05 2.18307E-05 1.94205E-19-1.34533E-19
 -1      2304 1.04781E-04-3.31149E-05-3.05353E-05 2.48837E-05 2.76483E-19-2.51172E-19
 -1      2305 1.10033E-04-3.84851E-05-3.05002E-05 2.42006E-05 3.39581E-19-1.60685E-19
 -1      2306 9.37462E-05-2.81972E-05-2.81109E-05 2.62365E-05 2.81824E-19 2.26661E-19
 -1      2307 1.15905E-04-4.54112E-05-2.98291E-05 2.44386E-05 2.38757E-19-1.22807E-19
 -1      2308 1.24867E-04-5.36246E-05-3.03545E-05 2.02640E-05 3.19226E-19-2.31875E-20
 -1      2309 1.00314E-04-3.91478E-05-2.63521E-05 2.99414E-05 3.68353E-19 2.67133E-19
 -1      2310 1.75064E-05-1.67607E-05 5.98177E-08-1.34081E-06 3.82329E-19 1.01686E-18
 -1      2311 2.18124E-05-2.19955E-05 2.52707E-07-1.39394E-05 4.02870E-19 1.85585E-18
 -1      2312 9.63682E-05-2.73646E-05-2.95572E-05 2.28240E-06 9.74220E-20 2.58894E-18
 -1      2313 9.71555E-05-2.69794E-05-3.00449E-05 3.92816E-06 1.17142E-19 2.68481E-18
 -1      2314 9.70991E-05-2.59092E-05-3.04696E-05 4.95091E-06 9.98705E-20 2.50523E-18
 -1      2315 1.31569E-04-5.50414E-05-3.25627E-05-1.48269E-05 1.19516E-18-7.15716E-19
 -1      2316 1.23039E-04-4.76877E-05-3.19053E-05-2.03817E-05 5.66718E-19-4.30332E-19
 -1      2317 1.16204E-04-4.08319E-05-3.22103E-05-2.16349E-05 1.76395E-19-2.00972E-19
 -1      2318 1.10863E-04-3.54108E-05-3.21414E-05-2.28129E-05-1.71398E-19 1.46431E-19
 -1      2319 1.09624E-04-4.28483E-05-2.87912E-05-2.63278E-05 4.64492E-19 8.20246E-19
 -1      2320 1.08270E-04-3.21887E-05-3.25561E-05-2.15219E-05-3.93692E-19 5.00649E-19
 -1      2321 1.05091E-04-2.94925E-05-3.23527E-05-2.06354E-05-3.91885E-20 5.45860E-19
 -1      2322 1.00772E-04-3.12131E-05-2.98522E-05-2.46863E-05-1.69036E-19 7.94940E-19
 -1      2323 1.04490E-04-2.85226E-05-3.25033E-05-1.87062E-05 2.83662E-19 2.34890E-19
 -1      2324 1.02515E-04-2.74680E-05-3.21696E-05-1.71368E-05-3.05827E-19-2.64202E-19
 -1      2325 9.78470E-05-2.62088E-05-3.06871E-05-2.09919E-05-2.39452E-19 1.27123E-18
 -1      2326 1.02477E-04-2.74239E-05-3.21117E-05-1.51129E-05-6.01393E-20-3.17321E-19
 -1      2327 1.00998E-04-2.70643E-05-3.17051E-05-1.33762E-05 1.49862E-19 5.55870E-20
 -1      2328 9.72461E-05-2.49296E-05-3.09609E-05-1.69853E-05-2.47343E-19-5.87202E-19
 -1      2329 1.01076E-04-2.73748E-05-3.15339E-05-1.16090E-05-2.81182E-19 1.36484E-19
 -1      2330 9.99407E-05-2.73081E-05-3.11455E-05-1.00928E-05-4.64492E-19 5.91827E-20
 -1      2331 9.72694E-05-2.51966E-05-3.08585E-05-1.31904E-05-1.35209E-19 2.82253E-19
 -1      2332 9.99498E-05-2.76518E-05-3.09383E-05-8.66819E-06-9.54166E-19 3.13893E-19
 -1      2333 9.90550E-05-2.76736E-05-3.06045E-05-7.45900E-06-6.60481E-19-5.70119E-19
 -1      2334 9.73151E-05-2.59489E-05-3.05633E-05-9.99144E-06-7.34907E-19 5.58461E-19
 -1      2335 9.89829E-05-2.79498E-05-3.04045E-05-6.35962E-06-1.37980E-19-7.70940E-19
 -1      2336 9.82784E-05-2.79838E-05-3.01345E-05-5.44159E-06-1.09221E-19-8.26456E-19
 -1      2337 9.72194E-05-2.66957E-05-3.02105E-05-7.44026E-06-6.83273E-19 8.02002E-19
 -1      2338 9.81558E-05-2.81787E-05-2.99604E-05-4.61549E-06 1.10680E-18 2.42273E-19
 -1      2339 9.76075E-05-2.82032E-05-2.97499E-05-3.93731E-06 1.22385E-18 4.66249E-19
 -1      2340 9.70042E-05-2.72868E-05-2.98714E-05-5.47579E-06 1.02549E-18 3.91863E-19
 -1      2341 9.74662E-05-2.83316E-05-2.96066E-05-3.32648E-06 5.35195E-19 1.51824E-18
 -1      2342 9.70468E-05-2.83445E-05-2.94464E-05-2.83309E-06 4.04562E-19 1.23274E-18
 -1      2343 9.67293E-05-2.77103E-05-2.95764E-05-3.99687E-06 1.55764E-18 4.26442E-19
 -1      2344 9.69166E-05-2.84215E-05-2.93382E-05-2.40665E-06-5.78292E-19 1.77341E-18
 -1      2345 9.66100E-05-2.84267E-05-2.92229E-05-2.06338E-06-3.08636E-19 1.00370E-18
 -1      2346 9.64515E-05-2.79942E-05-2.93390E-05-2.92015E-06 1.97689E-19 2.58213E-18
 -1      2347 9.64838E-05-2.84777E-05-2.91332E-05-1.73113E-06-4.62159E-19-5.35826E-20
 -1      2348 9.62418E-05-2.84778E-05-2.90427E-05-1.46986E-06-5.46084E-19-3.47892E-19
 -1      2349 9.61932E-05-2.81796E-05-2.91492E-05-2.12556E-06-1.04319E-18 2.08594E-18
 -1      2350 9.61362E-05-2.85083E-05-2.89744E-05-1.22858E-06-3.15663E-19-1.40451E-18
 -1      2351 9.59572E-05-2.85066E-05-2.89079E-05-1.04056E-06-1.22273E-19-2.04436E-18
 -1      2352 9.59632E-05-2.83058E-05-2.89972E-05-1.52405E-06-1.27484E-18-3.78520E-19
 -1      2353 9.58717E-05-2.85248E-05-2.88565E-05-8.65320E-07-5.62649E-19-3.01654E-18
 -1      2354 9.57408E-05-2.85227E-05-2.88080E-05-7.30071E-07-1.49338E-18-2.57139E-18
 -1      2355 9.57732E-05-2.83876E-05-2.88809E-05-1.08453E-06-1.08731E-18-1.46171E-18
 -1      2356 9.56738E-05-2.85336E-05-2.87697E-05-6.03017E-07-1.58447E-19-2.10241E-18
 -1      2357 9.55794E-05-2.85320E-05-2.87347E-05-5.05857E-07 1.02445E-18-1.14633E-18
 -1      2358 9.56220E-05-2.84412E-05-2.87931E-05-7.64111E-07-2.53515E-19-2.09845E-18
 -1      2359 9.55283E-05-2.85387E-05-2.87065E-05-4.13975E-07 4.69819E-19-9.68441E-19
 -1      2360 9.54616E-05-2.85378E-05-2.86815E-05-3.44457E-07 8.16525E-19-1.06699E-18
 -1      2361 9.55052E-05-2.84768E-05-2.87276E-05-5.31144E-07 5.31857E-19-5.96231E-19
 -1      2362 9.54253E-05-2.85419E-05-2.86619E-05-2.81365E-07 8.48419E-19-1.36635E-18
 -1      2363 9.53805E-05-2.85419E-05-2.86450E-05-2.33658E-07 6.63245E-19-1.99082E-18
 -1      2364 9.54191E-05-2.85011E-05-2.86803E-05-3.65571E-07 4.68088E-19-8.84834E-19
 -1      2365 9.53524E-05-2.85451E-05-2.86300E-05-1.85486E-07 2.88737E-19-2.75536E-18
 -1      2366 9.53202E-05-2.85456E-05-2.86176E-05-1.49773E-07-2.32278E-19-2.35698E-18
 -1      2367 9.53556E-05-2.85176E-05-2.86456E-05-2.46120E-07-1.73619E-19-1.88025E-18
 -1      2368 9.53004E-05-2.85479E-05-2.86070E-05-1.15734E-07 3.73719E-20-2.27183E-18
 -1      2369 9.52793E-05-2.85490E-05-2.85986E-05-9.07348E-08-3.67859E-20-1.84347E-18
 -1      2370 9.53088E-05-2.85305E-05-2.86199E-05-1.57883E-07 1.76898E-19-1.55124E-18
 -1      2371 9.52659E-05-2.85508E-05-2.85913E-05-6.69473E-08 2.00964E-19-1.79204E-18
 -1      2372 9.52527E-05-2.85523E-05-2.85858E-05-4.97170E-08 6.06616E-19-2.37057E-18
 -1      2373 9.52764E-05-2.85401E-05-2.86018E-05-9.55353E-08-2.39196E-19-9.84818E-19
 -1      2374 9.52439E-05-2.85538E-05-2.85809E-05-3.33895E-08 7.74809E-19-1.69211E-18
 -1      2375 9.52364E-05-2.85554E-05-2.85775E-05-2.17681E-08 1.54147E-18-1.06211E-18
 -1      2376 9.52548E-05-2.85475E-05-2.85892E-05-5.21292E-08 1.39469E-18-9.13040E-19
 -1      2377 9.52311E-05-2.85567E-05-2.85743E-05-1.08304E-08 1.38135E-18-2.40299E-19
 -1      2378 9.52275E-05-2.85584E-05-2.85724E-05-3.25363E-09 7.62419E-19-1.25612E-18
 -1      2379 9.52412E-05-2.85533E-05-2.85808E-05-2.25172E-08 1.97818E-18-5.86964E-19
 -1      2380 9.52246E-05-2.85595E-05-2.85705E-05 3.50317E-09 6.68863E-19-1.26550E-18
 -1      2381 9.52236E-05-2.85611E-05-2.85696E-05 8.05330E-09 1.87284E-18-1.49254E-18
 -1      2382 9.52335E-05-2.85580E-05-2.85754E-05-3.22350E-09 1.13363E-18-2.06839E-19
 -1      2383 9.52223E-05-2.85622E-05-2.85685E-05 1.24548E-08 1.57379E-18-2.53403E-18
 -1      2384 9.52229E-05-2.85638E-05-2.85682E-05 1.51926E-08 5.51329E-19-2.70204E-18
 -1      2385 9.52296E-05-2.85617E-05-2.85721E-05 9.05252E-09 7.62202E-19-7.17089E-19
 -1      2386 9.52228E-05-2.85648E-05-2.85676E-05 1.75226E-08 8.42225E-19-2.39945E-18
 -1      2387 9.52244E-05-2.85665E-05-2.85677E-05 1.87172E-08 1.80623E-19-1.27027E-18
 -1      2388 9.52284E-05-2.85650E-05-2.85701E-05 1.65019E-08 1.31373E-18-1.01604E-18
 -1      2389 9.52250E-05-2.85674E-05-2.85675E-05 1.95106E-08-1.39799E-19-3.06232E-19
 -1      2390 9.52272E-05-2.85691E-05-2.85678E-05 1.94965E-08-1.03111E-20 1.52788E-18
 -1      2391 9.52291E-05-2.85680E-05-2.85691E-05 2.00638E-08 4.44261E-19 7.61485E-20
 -1      2392 9.52283E-05-2.85701E-05-2.85678E-05 1.90444E-08-1.19448E-18 1.46266E-18
 -1      2393 9.52305E-05-2.85717E-05-2.85681E-05 1.79718E-08-9.30732E-19 1.25994E-18
 -1      2394 9.52310E-05-2.85708E-05-2.85687E-05 2.06473E-08-5.56005E-19 2.57704E-18
 -1      2395 9.52324E-05-2.85733E-05-2.85682E-05 1.73479E-08-1.26752E-18 1.47036E-18
 -1      2396 9.52346E-05-2.85749E-05-2.85685E-05 1.53024E-08-1.35990E-18 1.13733E-18
 -1      2397 9.52376E-05-2.85782E-05-2.85683E-05 1.69719E-08-2.49512E-18 1.52974E-18
 -1      2398 9.52343E-05-2.85742E-05-2.85686E-05 1.93683E-08-1.75985E-18 2.12778E-18
 -1      2399 9.56982E-05-2.82140E-05-2.89163E-05-4.77374E-07-1.41054E-19 1.88005E-18
 -1      2400 9.57858E-05-2.79791E-05-2.90263E-05 6.40588E-09 7.44578E-20 2.09890E-18
 -1      2401 9.58327E-05-2.78135E-05-2.91314E-05 5.41986E-07 1.38791E-19 2.23993E-18
 -1      2402 9.61892E-05-2.75608E-05-2.93706E-05 1.47647E-06 7.44529E-20 2.36418E-18
 -1      2403 9.64912E-05-2.71612E-05-2.97196E-05 2.04722E-06 1.74525E-19 2.17316E-18
 -1      2404 9.62983E-05-2.77287E-05-2.94076E-05 5.07935E-07 1.74868E-19 1.94049E-18
 -1      2405 9.59962E-05-2.90979E-05-2.86807E-05-9.54238E-07-1.64591E-19 1.23399E-18
 -1      2406 9.58646E-05-2.88892E-05-2.86903E-05-1.06293E-06-2.43323E-19 1.35315E-18
 -1      2407 9.62576E-05-2.94935E-05-2.86297E-05-4.01984E-07-6.85203E-20 1.42540E-18
 -1      2408 9.61634E-05-2.93155E-05-2.86429E-05-7.27881E-07-2.95424E-19 1.19439E-18
 -1      2409 9.67506E-05-2.95480E-05-2.88077E-05-9.41076E-07-1.84079E-19 9.18243E-19
 -1      2410 9.63904E-05-2.97977E-05-2.85608E-05 5.81514E-07 1.14229E-19 1.93593E-18
 -1      2411 9.64220E-05-2.96889E-05-2.85991E-05 7.25391E-08 2.68701E-20 1.67267E-18
 -1      2412 9.71288E-05-3.00946E-05-2.87302E-05-2.25889E-07-3.32141E-19 9.35473E-19
 -1      2413 9.62446E-05-2.99138E-05-2.84493E-05 1.88930E-06 1.50084E-19 2.19937E-18
 -1      2414 9.64764E-05-2.99265E-05-2.85255E-05 1.25666E-06 2.58089E-19 2.17748E-18
 -1      2415 9.74197E-05-3.05199E-05-2.86668E-05 9.77928E-07 8.78549E-21 1.51955E-18
 -1      2416 9.56912E-05-2.97243E-05-2.82884E-05 3.32688E-06 2.68903E-19 1.98493E-18
 -1      2417 9.61708E-05-2.99129E-05-2.84051E-05 2.67492E-06 2.27880E-19 2.00725E-18
 -1      2418 9.74611E-05-3.06932E-05-2.86045E-05 2.52859E-06 2.37469E-19 1.55146E-18
 -1      2419 9.46608E-05-2.91316E-05-2.80894E-05 4.58788E-06-7.02524E-21 1.69909E-18
 -1      2420 9.53875E-05-2.95294E-05-2.82380E-05 4.07005E-06 1.66060E-19 1.87357E-18
 -1      2421 9.70919E-05-3.04554E-05-2.85437E-05 4.17199E-06 3.17924E-19 1.21505E-18
 -1      2422 9.31999E-05-2.81247E-05-2.78787E-05 5.28179E-06 2.66188E-19 1.30749E-18
 -1      2423 9.41022E-05-2.87103E-05-2.80400E-05 5.07725E-06-1.02583E-19 1.43292E-18
 -1      2424 9.62069E-05-2.96855E-05-2.84937E-05 5.52060E-06 7.74225E-20 7.50194E-19
 -1      2425 9.15224E-05-2.68488E-05-2.76910E-05 5.03937E-06 1.94489E-19 1.56784E-18
 -1      2426 9.24489E-05-2.75201E-05-2.78388E-05 5.29468E-06 4.28123E-19 1.62779E-18
 -1      2427 9.48387E-05-2.83976E-05-2.84649E-05 6.10243E-06 1.85714E-19 7.99355E-19
 -1      2428 9.00064E-05-2.56199E-05-2.75592E-05 3.68222E-06-1.01659E-19 1.96001E-18
 -1      2429 9.07501E-05-2.62025E-05-2.76662E-05 4.43437E-06 3.87104E-20 1.88364E-18
 -1      2430 9.32302E-05-2.68253E-05-2.84620E-05 5.50960E-06-2.55177E-20 1.17457E-18
 -1      2431 8.90923E-05-2.48335E-05-2.75066E-05 1.37310E-06-3.77823E-20 1.92122E-18
 -1      2432 8.94535E-05-2.51402E-05-2.75513E-05 2.49804E-06-1.90056E-19 2.12312E-18
 -1      2433 9.18191E-05-2.54095E-05-2.84792E-05 3.61371E-06-1.68244E-19 1.62231E-18
 -1      2434 8.91022E-05-2.47848E-05-2.75432E-05-1.36868E-06 6.78801E-19 2.21077E-18
 -1      2435 8.89663E-05-2.47041E-05-2.75145E-05-1.36346E-07 4.91875E-19 2.29346E-18
 -1      2436 9.10870E-05-2.46418E-05-2.85041E-05 7.23923E-07 5.25905E-20 1.69569E-18
 -1      2437 9.00742E-05-2.55031E-05-2.76665E-05-3.84658E-06 7.65665E-19 1.92923E-18
 -1      2438 8.94637E-05-2.50604E-05-2.75662E-05-2.81330E-06 7.61906E-19 2.22297E-18
 -1      2439 9.13245E-05-2.48188E-05-2.85279E-05-2.45280E-06 6.00748E-19 1.57976E-18
 -1      2440 9.17379E-05-2.67330E-05-2.78640E-05-5.47960E-06 1.85560E-19 1.59457E-18
 -1      2441 9.08001E-05-2.60754E-05-2.77062E-05-4.86694E-06 6.55683E-19 1.98397E-18
 -1      2442 9.24657E-05-2.58731E-05-2.85526E-05-5.09044E-06 7.40497E-19 1.63570E-18
 -1      2443 9.36529E-05-2.80804E-05-2.81129E-05-6.01970E-06-9.23479E-20 1.60855E-18
 -1      2444 9.25955E-05-2.73977E-05-2.79211E-05-5.89214E-06-2.87527E-19 1.53416E-18
 -1      2445 9.41294E-05-2.74139E-05-2.85904E-05-6.60107E-06 5.40389E-20 1.69644E-18
 -1      2446 9.54052E-05-2.92040E-05-2.83826E-05-5.57923E-06 1.50352E-19 1.46454E-18
 -1      2447 9.44186E-05-2.86456E-05-2.81842E-05-5.85524E-06 3.85502E-19 1.58029E-18
 -1      2448 9.58271E-05-2.89443E-05-2.86520E-05-6.83507E-06-7.05833E-21 1.72114E-18
 -1      2449 9.67385E-05-2.99301E-05-2.86401E-05-4.49497E-06 7.44648E-19 1.11558E-18
 -1      2450 9.59470E-05-2.95646E-05-2.84601E-05-5.01556E-06 3.34602E-19 1.16340E-18
 -1      2451 9.71830E-05-3.00918E-05-2.87382E-05-6.03636E-06 6.77267E-19 1.30796E-18
 -1      2452 9.75752E-05-3.02513E-05-2.88577E-05-3.14982E-06 6.41690E-19 1.37828E-18
 -1      2453 9.70277E-05-3.00754E-05-2.87136E-05-3.75169E-06 8.27194E-19 1.33542E-18
 -1      2454 9.80320E-05-3.07119E-05-2.88382E-05-4.64084E-06 5.89107E-19 1.24111E-18
 -1      2455 9.79641E-05-3.02605E-05-2.90178E-05-1.84833E-06-5.50565E-19 2.00915E-18
 -1      2456 9.76514E-05-3.02303E-05-2.89176E-05-2.40922E-06 9.47784E-21 1.61762E-18
 -1      2457 9.83912E-05-3.08546E-05-2.89350E-05-3.07616E-06 1.22509E-19 1.94458E-18
 -1      2458 9.80133E-05-3.00793E-05-2.91147E-05-7.70837E-07-5.30750E-19 1.93211E-18
 -1      2459 9.78930E-05-3.01405E-05-2.90581E-05-1.22283E-06-1.20640E-18 1.88350E-18
 -1      2460 9.83760E-05-3.06678E-05-2.90125E-05-1.64803E-06-7.86415E-19 1.83296E-18
 -1      2461 9.78387E-05-2.98127E-05-2.91532E-05 1.47152E-08 4.17460E-19 2.19889E-18
 -1      2462 9.78576E-05-2.99187E-05-2.91339E-05-3.06681E-07 5.87857E-19 2.11178E-18
 -1      2463 9.81240E-05-3.03109E-05-2.90605E-05-5.16384E-07 4.73644E-21 8.20465E-19
 -1      2464 9.75390E-05-2.95328E-05-2.91443E-05 5.17012E-07 8.54138E-20 2.46645E-18
 -1      2465 9.76465E-05-2.96510E-05-2.91532E-05 3.17677E-07 2.21320E-19 2.22748E-18
 -1      2466 9.77519E-05-2.99074E-05-2.90759E-05 2.75744E-07 1.46800E-20 1.26799E-18
 -1      2467 9.71868E-05-2.92799E-05-2.91016E-05 7.84833E-07-8.17376E-19 2.53004E-18
 -1      2468 9.73415E-05-2.93913E-05-2.91292E-05 6.84052E-07-1.79222E-19 2.75336E-18
 -1      2469 9.73421E-05-2.95328E-05-2.90620E-05 7.57918E-07-2.33376E-19 2.25368E-18
 -1      2470 9.68308E-05-2.90710E-05-2.90386E-05 8.79907E-07-4.91600E-19 2.32437E-18
 -1      2471 9.70022E-05-2.91664E-05-2.90764E-05 8.50163E-07-9.76723E-19 2.26348E-18
 -1      2472 9.69450E-05-2.92226E-05-2.90254E-05 9.93442E-07-8.20987E-19 2.16187E-18
 -1      2473 9.65001E-05-2.89088E-05-2.89665E-05 8.60745E-07 1.73794E-20 3.13095E-18
 -1      2474 9.66679E-05-2.89856E-05-2.90079E-05 8.76839E-07 2.29645E-20 2.61952E-18
 -1      2475 9.65874E-05-2.89854E-05-2.89740E-05 1.05294E-06-5.81904E-19 1.11563E-18
 -1      2476 9.62096E-05-2.87888E-05-2.88936E-05 7.75144E-07 3.68663E-19 2.14785E-18
 -1      2477 9.63618E-05-2.88476E-05-2.89341E-05 8.16960E-07 5.56172E-19 3.00648E-18
 -1      2478 9.62803E-05-2.88150E-05-2.89154E-05 9.99767E-07 3.39217E-19 1.95358E-18
 -1      2479 9.59650E-05-2.87033E-05-2.88255E-05 6.58270E-07-3.74339E-19 1.45711E-18
 -1      2480 9.60958E-05-2.87467E-05-2.88623E-05 7.11301E-07-6.47678E-19 2.04915E-18
 -1      2481 9.60254E-05-2.86992E-05-2.88557E-05 8.83997E-07 2.04372E-19 1.85041E-18
 -1      2482 9.57660E-05-2.86446E-05-2.87655E-05 5.33717E-07-6.20321E-19 1.96763E-18
 -1      2483 9.58736E-05-2.86755E-05-2.87971E-05 5.88436E-07-6.49888E-19 1.63052E-18
 -1      2484 9.58194E-05-2.86247E-05-2.87993E-05 7.41574E-07-4.76575E-19 8.25068E-19
 -1      2485 9.56089E-05-2.86058E-05-2.87149E-05 4.15800E-07 6.55189E-19 2.12465E-18
 -1      2486 9.56943E-05-2.86271E-05-2.87410E-05 4.66590E-07-5.31946E-20 2.06659E-18
 -1      2487 9.56569E-05-2.85797E-05-2.87487E-05 5.96072E-07-1.97036E-19 2.30785E-18
 -1      2488 9.54882E-05-2.85813E-05-2.86738E-05 3.12049E-07 1.54697E-18 3.01923E-18
 -1      2489 9.55537E-05-2.85953E-05-2.86945E-05 3.56098E-07 1.55546E-18 2.92914E-18
 -1      2490 9.55313E-05-2.85548E-05-2.87054E-05 4.61401E-07 6.94525E-19 2.51120E-18
 -1      2491 9.53982E-05-2.85666E-05-2.86416E-05 2.25410E-07 5.00292E-19 3.63174E-18
 -1      2492 9.54468E-05-2.85754E-05-2.86574E-05 2.61762E-07 1.54129E-18 3.88312E-18
 -1      2493 9.54363E-05-2.85429E-05-2.86696E-05 3.44529E-07 1.03623E-18 2.94279E-18
 -1      2494 9.53329E-05-2.85587E-05-2.86171E-05 1.55978E-07-1.04912E-18 2.70031E-18
 -1      2495 9.53677E-05-2.85638E-05-2.86288E-05 1.84806E-07-1.37779E-19 3.41381E-18
 -1      2496 9.53661E-05-2.85390E-05-2.86410E-05 2.47809E-07 5.62703E-19 2.99177E-18
 -1      2497 9.52873E-05-2.85552E-05-2.85992E-05 1.02254E-07 4.55805E-19 1.76307E-19
 -1      2498 9.53112E-05-2.85577E-05-2.86075E-05 1.24339E-07-5.68932E-19 1.36449E-18
 -1      2499 9.53155E-05-2.85397E-05-2.86188E-05 1.70776E-07 7.70033E-19 1.38999E-18
 -1      2500 9.52567E-05-2.85544E-05-2.85865E-05 6.19997E-08 2.44315E-19 5.50304E-19
 -1      2501 9.52723E-05-2.85553E-05-2.85921E-05 7.83821E-08 8.82431E-19 3.83640E-19
 -1      2502 9.52800E-05-2.85429E-05-2.86022E-05 1.11432E-07 7.70549E-19 3.88178E-19
 -1      2503 9.52375E-05-2.85553E-05-2.85779E-05 3.27836E-08-1.55028E-19 8.23138E-19
 -1      2504 9.52468E-05-2.85551E-05-2.85815E-05 4.45460E-08-6.83241E-19 5.17117E-19
 -1      2505 9.52562E-05-2.85470E-05-2.85901E-05 6.71120E-08-3.91099E-19 7.11946E-19
 -1      2506 9.52265E-05-2.85572E-05-2.85724E-05 1.22970E-08 1.62240E-20 1.65156E-18
 -1      2507 9.52313E-05-2.85563E-05-2.85745E-05 2.04411E-08 5.49054E-20 8.41291E-19
 -1      2508 9.52410E-05-2.85514E-05-2.85816E-05 3.50315E-08 8.11498E-20 3.02198E-19
 -1      2509 9.52214E-05-2.85595E-05-2.85693E-05-1.47454E-09 1.12900E-18 1.69859E-18
 -1      2510 9.52231E-05-2.85583E-05-2.85703E-05 3.90815E-09 1.05887E-18 2.36211E-18
 -1      2511 9.52321E-05-2.85556E-05-2.85759E-05 1.26003E-08 1.56144E-19 1.05106E-18
 -1      2512 9.52202E-05-2.85621E-05-2.85677E-05-1.01771E-08 1.27434E-18 2.30277E-18
 -1      2513 9.52199E-05-2.85606E-05-2.85680E-05-6.86986E-09 1.62774E-18 2.44625E-18
 -1      2514 9.52277E-05-2.85594E-05-2.85723E-05-2.41300E-09 9.39701E-19 1.30718E-18
 -1      2515 9.52217E-05-2.85647E-05-2.85673E-05-1.50683E-08 6.62263E-19 2.97552E-18
 -1      2516 9.52200E-05-2.85632E-05-2.85671E-05-1.33273E-08 8.78494E-19 2.85742E-18
 -1      2517 9.52264E-05-2.85629E-05-2.85702E-05-1.18141E-08 6.56909E-19 3.21845E-18
 -1      2518 9.52247E-05-2.85673E-05-2.85675E-05-1.70270E-08-3.79132E-19 1.20702E-18
 -1      2519 9.52224E-05-2.85658E-05-2.85670E-05-1.65163E-08-2.70910E-19 2.25470E-18
 -1      2520 9.52271E-05-2.85660E-05-2.85691E-05-1.69735E-08 7.43311E-19 3.81872E-18
 -1      2521 9.52285E-05-2.85700E-05-2.85679E-05-1.65947E-08 1.13618E-18 8.67817E-19
 -1      2522 9.52259E-05-2.85684E-05-2.85675E-05-1.71428E-08-3.95734E-21 1.43829E-18
 -1      2523 9.52291E-05-2.85690E-05-2.85687E-05-1.88563E-08-9.57401E-20 2.67977E-18
 -1      2524 9.52324E-05-2.85727E-05-2.85685E-05-1.40460E-08-7.62683E-19 1.97848E-18
 -1      2525 9.52299E-05-2.85712E-05-2.85680E-05-1.55366E-08 4.63465E-19 1.53655E-18
 -1      2526 9.52319E-05-2.85721E-05-2.85685E-05-1.81032E-08 4.31314E-19 2.94210E-18
 -1      2527 9.52340E-05-2.85740E-05-2.85686E-05-1.18155E-08-8.15897E-19 1.17928E-18
 -1      2528 9.52450E-05-2.85867E-05-2.85678E-05-1.21801E-08-9.08946E-19-1.44788E-18
 -1      2529 9.52441E-05-2.85851E-05-2.85681E-05-1.36613E-08-6.88370E-19-4.61671E-18
 -1      2530 9.52462E-05-2.85884E-05-2.85676E-05-8.37691E-09-5.16185E-19 1.27053E-18
 -1      2531 9.52456E-05-2.85873E-05-2.85678E-05-1.02639E-08-1.24298E-18-1.63182E-19
 -1      2532 9.52452E-05-2.85832E-05-2.85695E-05-1.21884E-08 7.43897E-19-1.20581E-18
 -1      2533 9.52405E-05-2.85811E-05-2.85683E-05-1.65406E-08 2.73169E-19-8.51358E-19
 -1      2534 9.52388E-05-2.85789E-05-2.85686E-05-1.65222E-08 1.03969E-18 1.10034E-18
 -1      2535 9.52432E-05-2.85842E-05-2.85681E-05-1.50665E-08-1.55191E-18-6.31139E-18
 -1      2536 9.52418E-05-2.85823E-05-2.85684E-05-1.58999E-08-9.16815E-19-3.56862E-18
 -1      2537 9.52407E-05-2.85793E-05-2.85692E-05-1.77343E-08 9.23015E-19-3.72832E-18
 -1      2538 9.52434E-05-2.85816E-05-2.85694E-05-1.56229E-08 3.58275E-19-4.36721E-18
 -1      2539 9.52469E-05-2.85894E-05-2.85675E-05-4.03489E-09-1.65386E-18 1.22768E-18
 -1      2540 9.52466E-05-2.85888E-05-2.85676E-05-6.15685E-09-1.65205E-18 1.47650E-18
 -1      2541 9.52464E-05-2.85842E-05-2.85695E-05-7.90195E-09-6.18344E-19 4.36411E-19
 -1      2542 9.52472E-05-2.85897E-05-2.85674E-05 5.92245E-10-3.24552E-18 7.42807E-19
 -1      2543 9.52471E-05-2.85896E-05-2.85674E-05-1.64145E-09-3.37824E-18 2.85071E-18
 -1      2544 9.52470E-05-2.85849E-05-2.85695E-05-3.12210E-09-2.12470E-18 9.83926E-19
 -1      2545 9.52470E-05-2.85893E-05-2.85675E-05 5.28240E-09-1.96688E-18-2.06569E-18
 -1      2546 9.52472E-05-2.85897E-05-2.85674E-05 3.05364E-09-2.40149E-18-6.48635E-19
 -1      2547 9.52472E-05-2.85851E-05-2.85695E-05 1.90897E-09-2.08262E-18 4.12933E-19
 -1      2548 9.52462E-05-2.85881E-05-2.85677E-05 9.69074E-09-4.18771E-19-4.07126E-18
 -1      2549 9.52468E-05-2.85891E-05-2.85675E-05 7.65139E-09-1.39758E-18-3.92274E-18
 -1      2550 9.52469E-05-2.85849E-05-2.85695E-05 6.92096E-09-3.68969E-19-2.80208E-18
 -1      2551 9.52448E-05-2.85861E-05-2.85680E-05 1.35724E-08-1.07176E-19-1.55386E-19
 -1      2552 9.52457E-05-2.85876E-05-2.85677E-05 1.18665E-08-1.31920E-19-4.34864E-18
 -1      2553 9.52461E-05-2.85841E-05-2.85694E-05 1.16532E-08 3.11299E-20-3.88063E-18
 -1      2554 9.52424E-05-2.85832E-05-2.85682E-05 1.62833E-08-9.95199E-19 2.18428E-18
 -1      2555 9.52438E-05-2.85852E-05-2.85680E-05 1.52537E-08-8.17489E-19 2.19358E-18
 -1      2556 9.52443E-05-2.85826E-05-2.85693E-05 1.56847E-08 8.41649E-19-2.85820E-19
 -1      2557 9.52393E-05-2.85798E-05-2.85684E-05 1.70671E-08-2.75860E-18 1.13732E-18
 -1      2558 9.52411E-05-2.85821E-05-2.85681E-05 1.70619E-08-2.43468E-18 3.08970E-18
 -1      2559 9.52415E-05-2.85805E-05-2.85690E-05 1.82153E-08-1.43149E-18 1.26512E-18
 -1      2560 9.52379E-05-2.85777E-05-2.85687E-05 1.88098E-08-2.75793E-18 1.94648E-18
 -1      2561 1.02679E-04-5.28903E-05-2.12048E-05 4.58656E-05-3.96835E-19 3.40846E-18
 -1      2562 8.75259E-05-4.88170E-05-1.63806E-05 4.76890E-05-2.02441E-19 2.52350E-18
 -1      2563 1.16335E-04-5.73239E-05-2.50978E-05 3.79226E-05-3.88576E-19 2.03224E-18
 -1      2564 1.49580E-04-4.51844E-05-4.49645E-05-9.65792E-06-2.03606E-19 1.50348E-19
 -1      2565 1.53022E-04-3.77186E-05-4.99867E-05-2.27017E-06-4.44057E-19 2.25734E-19
 -1      2566 9.60076E-05-1.99497E-05-3.26418E-05-9.98562E-06 8.69797E-20-6.71565E-19
 -1      2567 9.66826E-05-2.31825E-05-3.15087E-05-6.07449E-06 4.09289E-20-6.39438E-19
 -1      2568 9.58142E-05-2.20471E-05-3.16157E-05-5.37338E-06 4.66000E-20-3.88437E-19
 -1      2569 9.38548E-05-1.74264E-05-3.27932E-05-9.44126E-06 2.30347E-19-5.94273E-19
 -1      2570 1.73165E-04-2.49449E-05-6.27016E-05-3.40849E-06-1.08463E-18-2.20652E-19
 -1      2571 1.75260E-04-3.38684E-05-5.93152E-05-1.50260E-05-1.32179E-18-3.73965E-19
 -1      2572 5.72119E-05-3.70441E-05-8.32541E-06-4.52484E-05-7.44754E-19-1.22185E-18
 -1      2573 7.81962E-05-4.55642E-05-1.39621E-05-4.88959E-05-1.12105E-18-2.16375E-18
 -1      2574 1.47420E-04-9.90175E-06-5.95517E-05-3.52627E-06 3.38220E-18 6.32945E-19
 -1      2575 1.51065E-04-1.66254E-05-5.79867E-05-3.75181E-06 3.26764E-18 5.16690E-20
 -1      2576 9.57604E-05-2.86694E-05-2.87559E-05-1.00733E-06-2.81507E-19 1.46971E-18
 -1      2577 9.56903E-05-2.84508E-05-2.87926E-05-8.62520E-07-2.68020E-19 1.60759E-18
 -1      2578 9.62730E-05-2.83125E-05-2.91418E-05-5.70096E-07-1.18196E-20 1.63140E-18
 -1      2579 9.64267E-05-2.89534E-05-2.89288E-05-1.08414E-06-1.74349E-19 1.15568E-18
 -1      2580 1.50939E-04-2.47808E-05-5.43495E-05 3.89365E-06 2.91379E-19 1.18203E-18
 -1      2581 1.49972E-04-1.63080E-05-5.79042E-05 5.00699E-06 1.51407E-18 1.95294E-18
 -1      2582 8.59215E-05-9.16277E-06-3.29269E-05-1.67985E-06 8.58191E-19 3.53699E-19
 -1      2583 8.60252E-05-9.24820E-06-3.29387E-05-2.54099E-06 7.80477E-19 1.80636E-19
 -1      2584 8.71969E-05-1.10979E-05-3.26088E-05-2.70664E-06 7.51262E-19 1.81904E-19
 -1      2585 8.69934E-05-1.09196E-05-3.26016E-05-1.34014E-06 8.27970E-19 4.12083E-19
 -1      2586 1.53527E-04-2.46639E-05-5.55952E-05-2.22635E-06 2.51653E-18 4.70103E-20
 -1      2587 1.50541E-04-3.25578E-05-5.08980E-05 1.84522E-08 1.93992E-18-2.83121E-19
 -1      2588 1.42224E-04-1.88351E-05-5.31658E-05-8.25353E-06 2.33167E-18-5.72594E-19
 -1      2589 1.47323E-04-9.76018E-06-5.94327E-05 3.35725E-06 2.05236E-18 2.03224E-18
 -1      2590 1.45583E-04-7.59051E-06-5.97580E-05 4.85227E-07 2.68764E-18 1.57417E-18
 -1      2591 3.89341E-05-3.00694E-05-3.72271E-06 3.07217E-05 6.81862E-20 2.79309E-19
 -1      2592 2.51262E-05-2.32527E-05-6.96880E-07 1.86588E-05-8.02564E-20 2.81215E-19
 -1      2593 1.49916E-04-4.55313E-05-4.52060E-05 9.48801E-06 1.50626E-18-1.39337E-19
 -1      2594 1.41964E-04-5.18298E-05-3.86409E-05 1.94287E-05 1.17462E-18 1.10898E-18
 -1      2595 1.36802E-04-5.64917E-05-3.44138E-05-2.27416E-05-5.46336E-19 2.65121E-19
 -1      2596 1.46066E-04-5.21373E-05-4.04456E-05-1.80580E-05-1.93812E-19 2.93709E-19
 -1      2597 1.45697E-04-5.08623E-05-4.06667E-05-5.67242E-06-8.20590E-19 1.14477E-18
 -1      2598 2.87330E-05-2.08290E-05-2.81066E-06-2.82731E-05-5.52689E-19-8.60162E-19
 -1      2599 3.97414E-05-2.67871E-05-5.28301E-06-3.95171E-05-5.29184E-19-8.24375E-19
 -1      2600 1.69287E-04-5.13184E-05-5.05635E-05 1.72627E-05-1.65584E-18-9.31736E-21
 -1      2601 1.74736E-04-4.54186E-05-5.57507E-05 1.98091E-05-2.57498E-18-4.62480E-19
 -1      2602 1.90948E-05-1.78957E-05-9.93962E-08 4.97636E-06-2.86879E-19-3.08320E-19
 -1      2603 1.90843E-05-1.57898E-05-1.09521E-06-1.26040E-05-4.30452E-19-6.06052E-19
 -1      2604 7.79242E-05-4.79568E-05-1.30147E-05 4.03223E-05 3.37966E-19-1.48019E-19
 -1      2605 5.80066E-05-3.99200E-05-7.68883E-06 3.62897E-05 3.28649E-19-1.58395E-19
 -1      2606 1.24772E-04-6.38951E-05-2.62787E-05 2.74626E-05 6.74662E-19 6.56503E-19
 -1      2607 1.00558E-04-5.71695E-05-1.84631E-05 3.59904E-05 5.40195E-19 1.09519E-19
 -1      2608 1.75377E-04-4.88938E-05-5.44337E-05-1.66164E-05-1.42132E-18-1.55007E-19
 -1      2609 1.68760E-04-5.44137E-05-4.90369E-05-1.34714E-05-1.74245E-18 5.81065E-19
 -1      2610 1.11916E-04-6.06856E-05-2.17276E-05-3.07779E-05 9.04419E-19 2.45515E-18
 -1      2611 1.32807E-04-6.72961E-05-2.86199E-05-2.50489E-05 2.15146E-19 1.80503E-18
 -1      2612 6.30050E-05-4.23657E-05-8.80262E-06-3.63263E-05 7.48142E-19 2.43310E-18
 -1      2613 8.53672E-05-5.09651E-05-1.50305E-05-3.90060E-05 9.67312E-19 2.84730E-18
 -1      2614 3.03198E-05-2.69423E-05-1.38318E-06-2.27501E-05 6.77203E-19 2.50510E-18
 -1      2615 4.37976E-05-3.26942E-05-4.70739E-06-3.24028E-05 5.95676E-19 2.91019E-18
 -1      2616 3.26123E-05-2.03414E-05-4.82478E-06-1.98893E-05 6.59945E-19 2.28657E-18
 -1      2617 1.65604E-04-6.44112E-05-4.35090E-05-5.75083E-06-1.39570E-18 8.43645E-19
 -1      2618 1.65160E-04-6.28539E-05-4.45360E-05 1.25048E-05 2.30816E-19 2.06253E-19
 -1      2619 1.49511E-04-6.68823E-05-3.55149E-05 5.71634E-06-3.82541E-19 8.67785E-19
 -1      2620 1.41040E-04-6.50683E-05-3.24367E-05 1.43458E-05 4.76668E-19 9.73029E-20
 -1      2621 8.95312E-05-1.34401E-05-3.25976E-05-5.28421E-06 5.74882E-19-3.87319E-19
 -1      2622 8.88391E-05-1.19892E-05-3.29921E-05-6.42731E-06 6.22630E-19-4.76880E-19
 -1      2623 8.98783E-05-1.29843E-05-3.30108E-05-7.42886E-06 5.67515E-19-5.06890E-19
 -1      2624 1.38467E-04-1.20877E-05-5.44910E-05 6.76819E-06 1.62228E-18 2.39827E-18
 -1      2625 1.38190E-04-5.67482E-05-3.47412E-05 2.04917E-05 7.76306E-19 9.02090E-19
 -1      2626 1.45892E-04-3.18052E-05-4.90816E-05 5.96005E-06-2.85874E-20 1.38257E-18
 -1      2627 4.21448E-05-2.44812E-05-6.91826E-06 3.71822E-05 3.67824E-19 1.91641E-19
 -1      2628 1.72549E-04-3.23037E-05-5.96756E-05 1.44190E-05-2.02864E-18-4.18434E-19
 -1      2629 2.07908E-05-1.49422E-05-1.94201E-06 7.61404E-06-4.67059E-19 4.12505E-19
 -1      2630 2.52503E-05-1.18634E-05-5.14661E-06-1.21981E-06-2.33874E-19 4.41304E-19
 -1      2631 2.48540E-05-1.26835E-05-4.99691E-06 1.56012E-05-4.92814E-19 1.08484E-18
 -1      2632 1.37239E-04-6.14378E-05-3.21469E-05-1.35286E-05 1.26949E-18-4.55333E-19
 -1      2633 1.21385E-04-5.78302E-05-2.75801E-05-2.61770E-05 1.22227E-18 1.21592E-18
 -1      2634 1.47744E-04-6.57322E-05-3.49720E-05-5.13184E-06 1.06281E-18-7.62330E-21
 -1      2635 9.52718E-05-4.96561E-05-1.96619E-05 4.42188E-05-2.61839E-19 2.23278E-18
 -1      2636 8.06685E-05-4.46699E-05-1.50524E-05 4.71606E-05 5.67512E-20 1.71704E-18
 -1      2637 7.41003E-05-3.80912E-05-1.49385E-05 4.58132E-05 2.17052E-19 1.55282E-18
 -1      2638 9.52349E-05-2.85750E-05-2.85686E-05-1.47564E-08-1.83831E-19 2.46138E-18
 -1      2639 1.31942E-04-5.93273E-05-3.09607E-05-2.69343E-05-9.02725E-19 2.64274E-19
 -1      2640 9.52363E-05-2.85767E-05-2.85684E-05-1.58050E-08 4.16795E-19 3.09757E-18
 -1      2641 5.59110E-05-3.11591E-05-1.00957E-05-4.20547E-05-6.24263E-19-1.13291E-18
 -1      2642 1.53565E-04-6.61736E-05-3.72198E-05-2.05765E-06 3.43048E-19 7.06214E-19
 -1      2643 9.10020E-05-1.42476E-05-3.29556E-05-7.99489E-06 5.31075E-19-4.73716E-19
 -1      2644 9.24352E-05-1.57699E-05-3.29309E-05-8.96322E-06 3.88217E-19-5.82653E-19
 -1      2645 9.39442E-05-1.85155E-05-3.23015E-05-7.15048E-06 2.22134E-19-4.43822E-19
 -1      2646 9.15761E-05-1.56611E-05-3.25133E-05-6.38273E-06 4.62421E-19-4.26792E-19
 -1      2647 1.48646E-04-4.01974E-05-4.66494E-05 2.52353E-07 1.15154E-18-6.46710E-19
 -1      2648 1.43559E-04-4.59815E-05-4.19202E-05 9.78843E-07 6.98961E-19-1.46166E-18
 -1      2649 1.41926E-04-3.38397E-05-4.69121E-05-8.14373E-06 1.14964E-18-1.07626E-18
 -1      2650 1.37175E-04-7.69409E-06-5.58596E-05-2.12762E-06 2.60251E-18 1.19850E-18
 -1      2651 9.55478E-05-5.15063E-05-1.82469E-05 3.64220E-05 9.70700E-19 3.49666E-19
 -1      2652 2.91566E-05-1.64099E-05-4.89641E-06 1.25081E-05 2.17899E-19 1.64960E-19
 -1      2653 9.47804E-05-5.13272E-05-1.81818E-05-4.58247E-05-1.50793E-18-1.66481E-18
 -1      2654 1.08138E-04-5.61304E-05-2.27423E-05-4.03160E-05-1.44409E-18-5.20766E-19
 -1      2655 8.79215E-05-4.64641E-05-1.72346E-05-4.57191E-05-1.39782E-18-1.11988E-18
 -1      2656 5.51912E-05-3.24964E-05-9.24174E-06 3.40720E-05 5.06737E-19 2.65121E-19
 -1      2657 2.98239E-05-1.52850E-05-5.65126E-06-1.90291E-05-2.96673E-19-5.58618E-19
 -1      2658 9.52363E-05-2.85758E-05-2.85688E-05-1.78689E-08 4.03378E-19 2.86080E-18
 -1      2659 1.28659E-04-5.88256E-05-2.95386E-05 2.02664E-05 8.23316E-19 4.41913E-20
 -1      2660 6.03263E-05-3.55349E-05-1.01523E-05-3.49848E-05 1.29660E-18 2.78377E-18
 -1      2661 1.04591E-04-5.51887E-05-2.05599E-05-3.32176E-05 1.30062E-18 2.00855E-18
 -1      2662 1.09969E-04-5.32986E-05-2.43762E-05 3.18863E-05 8.02670E-19 4.98691E-19
 -1      2663 1.62093E-04-6.49044E-05-4.21086E-05 1.02838E-05 8.00645E-19 1.76395E-19
 -1      2664 8.92820E-05-1.40470E-05-3.22586E-05 1.71461E-06 7.61992E-19 7.79734E-19
 -1      2665 8.87967E-05-1.35673E-05-3.22650E-05 8.98780E-07 7.64222E-19 6.92296E-19
 -1      2666 8.83586E-05-1.30818E-05-3.22741E-05 2.36268E-07 7.56202E-19 5.80262E-19
 -1      2667 8.80549E-05-1.28023E-05-3.22753E-05-5.15850E-07 7.42229E-19 5.05642E-19
 -1      2668 8.95533E-05-1.49878E-05-3.19451E-05 1.70169E-07 6.92319E-19 5.85095E-19
 -1      2669 9.21237E-05-1.73132E-05-3.20956E-05 4.89201E-06 7.12569E-19 1.17183E-18
 -1      2670 9.13042E-05-1.63395E-05-3.21512E-05 4.04273E-06 8.21039E-19 1.03974E-18
 -1      2671 9.40175E-05-1.98000E-05-3.18574E-05 6.15227E-06 4.88229E-19 1.56007E-18
 -1      2672 9.30284E-05-1.84541E-05-3.19788E-05 5.49531E-06 5.54480E-19 1.37533E-18
 -1      2673 9.35791E-05-1.97224E-05-3.16314E-05 4.08711E-06 5.74922E-19 1.20672E-18
 -1      2674 9.61056E-05-2.29713E-05-3.13745E-05 6.50710E-06 2.52892E-19 1.86035E-18
 -1      2675 9.49949E-05-2.11661E-05-3.16389E-05 6.43845E-06 4.00160E-19 1.68205E-18
 -1      2676 9.52608E-05-2.22004E-05-3.12828E-05 4.80125E-06 3.38412E-19 1.56283E-18
 -1      2677 9.70643E-05-2.52355E-05-3.07846E-05 5.49729E-06 1.47529E-19 2.17339E-18
 -1      2678 9.65151E-05-2.38755E-05-3.11105E-05 6.15869E-06 1.75739E-19 2.00516E-18
 -1      2679 9.63597E-05-2.45011E-05-3.07852E-05 4.50033E-06 2.11044E-19 1.77373E-18
 -1      2680 9.66973E-05-2.61293E-05-3.02234E-05 3.52999E-06 1.59401E-19 2.16765E-18
 -1      2681 9.53577E-05-2.41559E-05-3.05018E-05 9.01929E-07 1.39346E-19-2.24572E-19
 -1      2682 9.52153E-05-2.44427E-05-3.03276E-05 2.43629E-06 1.37309E-19-1.86628E-19
 -1      2683 9.48232E-05-2.45076E-05-3.01329E-05 3.80894E-06 2.45825E-19-1.61433E-19
 -1      2684 9.46323E-05-2.44678E-05-3.00613E-05 5.23175E-06 1.58531E-19-1.47755E-19
 -1      2685 9.40514E-05-2.32748E-05-3.03243E-05 2.76691E-06 1.69439E-19-1.68380E-19
 -1      2686 9.39305E-05-2.41403E-05-2.99222E-05 6.49466E-06 3.71615E-20-3.16438E-20
 -1      2687 9.36803E-05-2.38457E-05-2.99150E-05 7.88498E-06 6.51256E-20-7.04899E-20
 -1      2688 9.29899E-05-2.30548E-05-2.99538E-05 5.41384E-06 6.62743E-20-4.28480E-21
 -1      2689 9.26121E-05-2.32059E-05-2.97742E-05 9.14597E-06 1.82416E-19-6.24195E-20
 -1      2690 9.22454E-05-2.27269E-05-2.97759E-05 1.06205E-05 2.17325E-19 1.30618E-20
 -1      2691 9.12778E-05-2.20794E-05-2.96231E-05 7.88275E-06 1.56653E-19-3.86409E-20
 -1      2692 9.07081E-05-2.18551E-05-2.95545E-05 1.19842E-05 1.50568E-19 1.40908E-19
 -1      2693 9.01972E-05-2.13358E-05-2.94877E-05 1.36162E-05 3.03711E-19 1.02359E-19
 -1      2694 8.87444E-05-2.05016E-05-2.91931E-05 1.03585E-05 2.66676E-19 2.63445E-19
 -1      2695 8.81113E-05-2.04272E-05-2.90663E-05 1.52093E-05 4.46046E-19 1.21098E-19
 -1      2696 8.75631E-05-2.02172E-05-2.88127E-05 1.70356E-05 3.41804E-19 2.51455E-19
 -1      2697 8.51920E-05-1.85987E-05-2.84587E-05 1.30482E-05 3.95316E-19 6.25105E-19
 -1      2698 8.51069E-05-1.97662E-05-2.80571E-05 1.89892E-05 3.03767E-19 3.75964E-19
 -1      2699 8.50362E-05-2.05619E-05-2.75248E-05 2.08967E-05 4.44497E-19 5.00199E-19
 -1      2700 8.06634E-05-1.70010E-05-2.71508E-05 1.61817E-05 4.06877E-19 5.66870E-19
 -1      2701 8.23513E-05-2.12510E-05-2.61315E-05 2.36781E-05 3.11457E-19 6.01949E-19
 -1      2702 8.41696E-05-2.47330E-05-2.52050E-05 2.58956E-05 1.24871E-19 4.94614E-19
 -1      2703 7.54759E-05-1.70519E-05-2.48183E-05 2.05575E-05 4.56054E-19 6.02889E-19
 -1      2704 9.13231E-05-2.80319E-05-2.68894E-05-2.53686E-05 5.69630E-20 1.24596E-18
 -1      2705 8.84715E-05-2.40545E-05-2.75220E-05-2.36721E-05-5.43497E-19 1.71802E-18
 -1      2706 8.99970E-05-2.28976E-05-2.86501E-05-2.09884E-05-6.10853E-19 1.46231E-18
 -1      2707 8.93770E-05-2.17366E-05-2.90163E-05-1.91380E-05-6.04887E-19 1.06537E-18
 -1      2708 8.01417E-05-1.94682E-05-2.58199E-05-2.16489E-05-6.38921E-19 1.63055E-18
 -1      2709 9.12718E-05-2.19228E-05-2.96664E-05-1.69139E-05-9.71906E-19 6.31083E-19
 -1      2710 9.12729E-05-2.19250E-05-2.97708E-05-1.50402E-05-2.75362E-19 2.07445E-19
 -1      2711 8.37209E-05-1.85505E-05-2.78231E-05-1.69189E-05-1.10308E-18 1.07576E-18
 -1      2712 9.29347E-05-2.27205E-05-3.00610E-05-1.33028E-05 3.37175E-19 2.87302E-19
 -1      2713 9.30477E-05-2.31523E-05-2.99993E-05-1.16530E-05-2.98103E-19 3.34072E-19
 -1      2714 8.74027E-05-1.97809E-05-2.89038E-05-1.32658E-05-8.16634E-20 1.11637E-18
 -1      2715 9.42728E-05-2.40154E-05-3.00859E-05-1.02728E-05-5.35168E-19 1.25312E-19
 -1      2716 9.43136E-05-2.45048E-05-2.99516E-05-8.90766E-06-9.04177E-19 3.53256E-19
 -1      2717 9.02959E-05-2.16307E-05-2.93730E-05-1.03921E-05-9.60508E-19 5.70717E-19
 -1      2718 9.51368E-05-2.52388E-05-2.99348E-05-7.81058E-06-1.14821E-18 9.52041E-19
 -1      2719 9.50893E-05-2.56534E-05-2.97822E-05-6.72794E-06-6.50142E-19 7.01988E-19
 -1      2720 9.23285E-05-2.33939E-05-2.95063E-05-8.06975E-06-8.37577E-19 3.21334E-19
 -1      2721 9.56053E-05-2.62151E-05-2.97201E-05-5.86528E-06 3.47360E-19 4.69780E-19
 -1      2722 9.55002E-05-2.65279E-05-2.95762E-05-5.03118E-06 1.24229E-18 4.95146E-19
 -1      2723 9.36538E-05-2.48339E-05-2.94707E-05-6.19713E-06-3.69325E-19 1.52032E-18
 -1      2724 9.58040E-05-2.69338E-05-2.95001E-05-4.36202E-06 1.91183E-18 7.00108E-19
 -1      2725 9.56756E-05-2.71563E-05-2.93762E-05-3.73193E-06 2.00195E-18 1.42204E-18
 -1      2726 9.44664E-05-2.59234E-05-2.93617E-05-4.70793E-06 1.27731E-18 1.66266E-18
 -1      2727 9.58378E-05-2.74284E-05-2.93055E-05-3.24371E-06 1.27240E-18 1.12070E-18
 -1      2728 9.57121E-05-2.75767E-05-2.92082E-05-2.79107E-06 3.15035E-19 1.70947E-18
 -1      2729 9.49268E-05-2.66975E-05-2.92341E-05-3.56571E-06 1.77587E-18 8.56564E-19
 -1      2730 9.57963E-05-2.77766E-05-2.91412E-05-2.39473E-06-1.07987E-18 1.33557E-18
 -1      2731 9.56765E-05-2.78831E-05-2.90594E-05-2.04070E-06-1.26104E-18 9.67858E-19
 -1      2732 9.51767E-05-2.72462E-05-2.91090E-05-2.67979E-06-1.57481E-19 5.70000E-19
 -1      2733 9.57124E-05-2.80199E-05-2.90033E-05-1.74223E-06-2.26894E-18 1.11755E-18
 -1      2734 9.56099E-05-2.80920E-05-2.89396E-05-1.48090E-06-1.85983E-18 2.20517E-19
 -1      2735 9.53017E-05-2.76429E-05-2.89948E-05-1.98071E-06-2.09227E-18 1.78429E-18
 -1      2736 9.56187E-05-2.81855E-05-2.88939E-05-1.25700E-06-1.35069E-18-1.19731E-18
 -1      2737 9.55350E-05-2.82347E-05-2.88451E-05-1.06484E-06-1.14818E-18-7.71885E-19
 -1      2738 9.53500E-05-2.79188E-05-2.88986E-05-1.45024E-06-2.02483E-18 6.51719E-19
 -1      2739 9.55302E-05-2.82988E-05-2.88089E-05-8.97752E-07-8.70110E-19-1.04638E-18
 -1      2740 9.54642E-05-2.83327E-05-2.87720E-05-7.56914E-07 6.28995E-20-1.04977E-18
 -1      2741 9.53575E-05-2.81108E-05-2.88202E-05-1.05047E-06-9.84120E-19-3.16070E-19
 -1      2742 9.54538E-05-2.83771E-05-2.87438E-05-6.32914E-07 4.01632E-19-1.04573E-18
 -1      2743 9.54035E-05-2.84008E-05-2.87162E-05-5.30194E-07 7.30165E-19-6.20990E-19
 -1      2744 9.53455E-05-2.82452E-05-2.87578E-05-7.51145E-07 1.18762E-19-7.31128E-19
 -1      2745 9.53926E-05-2.84303E-05-2.86955E-05-4.43032E-07 9.14350E-19-7.23867E-19
 -1      2746 9.53563E-05-2.84468E-05-2.86760E-05-3.71258E-07 6.21175E-19-7.36175E-19
 -1      2747 9.53267E-05-2.83384E-05-2.87101E-05-5.32855E-07 1.38351E-18-1.16621E-20
 -1      2748 9.53452E-05-2.84691E-05-2.86593E-05-3.03146E-07 2.06463E-19-1.07194E-18
 -1      2749 9.53173E-05-2.84817E-05-2.86442E-05-2.48450E-07-4.72565E-20-1.11804E-18
 -1      2750 9.53066E-05-2.84041E-05-2.86731E-05-3.71315E-07 3.09578E-19-1.07271E-18
 -1      2751 9.53080E-05-2.84974E-05-2.86317E-05-1.99192E-07 8.14894E-20-5.84602E-19
 -1      2752 9.52883E-05-2.85068E-05-2.86209E-05-1.60105E-07 7.44542E-19-5.99241E-19
 -1      2753 9.52881E-05-2.84530E-05-2.86442E-05-2.49242E-07 3.46926E-19-7.07069E-19
 -1      2754 9.52810E-05-2.85180E-05-2.86117E-05-1.24842E-07 3.74965E-19-5.78117E-19
 -1      2755 9.52675E-05-2.85251E-05-2.86040E-05-9.72820E-08-1.61721E-19-2.80394E-19
 -1      2756 9.52728E-05-2.84881E-05-2.86225E-05-1.60899E-07 6.78851E-19-3.06583E-19
 -1      2757 9.52620E-05-2.85331E-05-2.85973E-05-7.24168E-08 5.40412E-19 7.42047E-19
 -1      2758 9.52532E-05-2.85385E-05-2.85921E-05-5.33123E-08 1.52067E-18 4.46322E-19
 -1      2759 9.52609E-05-2.85134E-05-2.86064E-05-9.78195E-08 4.26766E-19 1.09552E-18
 -1      2760 9.52491E-05-2.85443E-05-2.85873E-05-3.61198E-08 1.83584E-18-1.19650E-18
 -1      2761 9.52438E-05-2.85485E-05-2.85837E-05-2.32042E-08 1.66217E-18-1.47128E-18
 -1      2762 9.52520E-05-2.85317E-05-2.85947E-05-5.35392E-08 7.16849E-19-3.26818E-20
 -1      2763 9.52411E-05-2.85524E-05-2.85805E-05-1.21471E-08 2.22783E-18-1.90963E-18
 -1      2764 9.52383E-05-2.85556E-05-2.85783E-05-3.98713E-09 1.81378E-18-1.04457E-18
 -1      2765 9.52459E-05-2.85447E-05-2.85865E-05-2.36846E-08 1.62918E-18-3.12330E-18
 -1      2766 9.52364E-05-2.85587E-05-2.85760E-05 3.68256E-09 1.31233E-18 2.81393E-19
 -1      2767 9.52351E-05-2.85613E-05-2.85745E-05 9.04610E-09 1.65012E-18 2.76169E-19
 -1      2768 9.52418E-05-2.85541E-05-2.85806E-05-3.74107E-09 2.49576E-18-1.35831E-18
 -1      2769 9.52340E-05-2.85635E-05-2.85729E-05 1.36638E-08 7.82881E-19 6.80033E-19
 -1      2770 9.52339E-05-2.85657E-05-2.85721E-05 1.66364E-08 9.73274E-19 6.39118E-19
 -1      2771 9.52392E-05-2.85612E-05-2.85764E-05 9.36318E-09 1.31215E-18 1.60968E-18
 -1      2772 9.52334E-05-2.85675E-05-2.85710E-05 1.90220E-08 1.94416E-18 8.15842E-19
 -1      2773 9.52339E-05-2.85694E-05-2.85705E-05 2.01975E-08 1.14842E-18 1.71435E-18
 -1      2774 9.52378E-05-2.85666E-05-2.85735E-05 1.69371E-08 1.78911E-18 1.07277E-19
 -1      2775 9.52339E-05-2.85710E-05-2.85697E-05 2.08849E-08-7.12578E-19 2.73405E-18
 -1      2776 9.52349E-05-2.85728E-05-2.85695E-05 2.06321E-08-1.65340E-18 1.81205E-18
 -1      2777 9.52374E-05-2.85710E-05-2.85714E-05 2.03990E-08 5.54468E-19 2.27119E-18
 -1      2778 9.52355E-05-2.85741E-05-2.85692E-05 2.04181E-08-2.55725E-18 2.30932E-18
 -1      2779 9.52373E-05-2.85761E-05-2.85691E-05 1.94797E-08-2.67425E-18 1.75100E-18
 -1      2780 9.52395E-05-2.85776E-05-2.85693E-05 1.96783E-08-2.91019E-18 2.54319E-18
 -1      2781 9.52382E-05-2.85745E-05-2.85702E-05 2.07878E-08-2.20252E-18 1.57232E-18
 -1      2782 9.85191E-05-3.14215E-05-2.87764E-05 1.13981E-06-2.07430E-19 1.04668E-18
 -1      2783 9.84246E-05-3.11898E-05-2.88031E-05 4.30284E-07-2.82684E-19 9.19979E-19
 -1      2784 9.74666E-05-3.00377E-05-2.89125E-05-1.00963E-06-6.36193E-20 9.53860E-19
 -1      2785 9.72855E-05-2.96540E-05-2.89651E-05-1.20681E-06-2.79542E-20 1.12680E-18
 -1      2786 9.87875E-05-3.16996E-05-2.87702E-05 2.86621E-06 3.36552E-19 1.11027E-18
 -1      2787 9.88600E-05-3.16718E-05-2.87896E-05 2.01936E-06 1.12996E-19 1.15806E-18
 -1      2788 9.98921E-05-3.23938E-05-2.89272E-05 1.42737E-06-7.41172E-20 5.45140E-19
 -1      2789 9.86225E-05-3.14125E-05-2.88135E-05 4.69097E-06 4.45472E-19 1.06323E-18
 -1      2790 9.89355E-05-3.16944E-05-2.88219E-05 3.86883E-06 4.56428E-19 1.26464E-18
 -1      2791 1.00406E-04-3.26795E-05-2.90161E-05 3.36785E-06 3.63535E-19 7.16382E-19
 -1      2792 9.78666E-05-3.03809E-05-2.89155E-05 6.16015E-06 1.28636E-19 8.73913E-19
 -1      2793 9.84457E-05-3.10327E-05-2.89077E-05 5.59371E-06 2.48389E-19 1.05968E-18
 -1      2794 1.00390E-04-3.22059E-05-2.92033E-05 5.37346E-06 3.89447E-19 1.20781E-18
 -1      2795 9.65216E-05-2.86252E-05-2.90720E-05 6.70699E-06 2.45460E-19 7.00720E-19
 -1      2796 9.73013E-05-2.95878E-05-2.90468E-05 6.65146E-06 2.15381E-19 7.35595E-19
 -1      2797 9.96371E-05-3.07829E-05-2.94866E-05 6.89050E-06 3.47142E-19 5.32421E-19
 -1      2798 9.48623E-05-2.65037E-05-2.92565E-05 5.84540E-06-5.88024E-19 1.08927E-18
 -1      2799 9.56644E-05-2.75511E-05-2.92203E-05 6.47590E-06-2.58358E-19 7.24413E-19
 -1      2800 9.81702E-05-2.85211E-05-2.98340E-05 7.24512E-06-9.26628E-20 1.21791E-18
 -1      2801 9.34262E-05-2.46869E-05-2.94213E-05 3.46122E-06-3.43780E-19 1.56944E-18
 -1      2802 9.40017E-05-2.54745E-05-2.93874E-05 4.74919E-06-4.64697E-19 1.25393E-18
 -1      2803 9.63844E-05-2.59753E-05-3.01780E-05 5.91663E-06-6.02711E-19 1.08501E-18
 -1      2804 9.27989E-05-2.38853E-05-2.95139E-05 1.06539E-08 3.52448E-19 1.39108E-18
 -1      2805 9.29344E-05-2.41034E-05-2.94958E-05 1.67411E-06 1.78555E-20 1.63881E-18
 -1      2806 9.49717E-05-2.40249E-05-3.04291E-05 2.90357E-06-1.90362E-19 1.49995E-18
 -1      2807 9.32907E-05-2.44538E-05-2.95054E-05-3.56437E-06 7.17187E-19 1.26993E-18
 -1      2808 9.29236E-05-2.40100E-05-2.95075E-05-1.97766E-06 6.59101E-19 1.21717E-18
 -1      2809 9.45867E-05-2.34689E-05-3.05088E-05-1.09139E-06 4.44956E-19 1.03790E-18
 -1      2810 9.47152E-05-2.61430E-05-2.94099E-05-6.26716E-06 5.94512E-19 1.63326E-18
 -1      2811 9.39695E-05-2.52219E-05-2.94235E-05-5.16664E-06 6.96959E-19 1.32418E-18
 -1      2812 9.54251E-05-2.45452E-05-3.03929E-05-4.87816E-06 7.95108E-19 9.80988E-19
 -1      2813 9.65171E-05-2.82764E-05-2.92736E-05-7.50808E-06-8.45701E-20 1.63506E-18
 -1      2814 9.56327E-05-2.72208E-05-2.92842E-05-7.09120E-06 3.74308E-19 1.42658E-18
 -1      2815 9.70890E-05-2.67782E-05-3.01280E-05-7.38973E-06 3.99388E-19 1.27240E-18
 -1      2816 9.80990E-05-3.01438E-05-2.91455E-05-7.28815E-06 3.66231E-19 9.24303E-19
 -1      2817 9.73077E-05-2.92664E-05-2.91422E-05-7.50098E-06-2.07521E-19 9.71964E-19
 -1      2818 9.88590E-05-2.92801E-05-2.97997E-05-8.16622E-06 3.88464E-19 8.03150E-19
 -1      2819 9.91020E-05-3.13285E-05-2.90567E-05-6.03742E-06 4.25901E-19 1.30640E-18
 -1      2820 9.85421E-05-3.07898E-05-2.90373E-05-6.66912E-06 6.47901E-19 1.38718E-18
 -1      2821 1.00126E-04-3.12622E-05-2.94904E-05-7.42777E-06 1.64395E-19 5.18595E-19
 -1      2822 9.94639E-05-3.17675E-05-2.90134E-05-4.31395E-06 4.88742E-19 1.93535E-18
 -1      2823 9.91673E-05-3.15725E-05-2.89836E-05-5.12134E-06 4.91153E-19 1.74802E-18
 -1      2824 1.00639E-04-3.23461E-05-2.92516E-05-5.77178E-06 4.65481E-19 1.80789E-18
 -1      2825 9.93192E-05-3.16292E-05-2.90038E-05-2.57994E-06 1.07461E-19 1.95184E-18
 -1      2826 9.92449E-05-3.16903E-05-2.89726E-05-3.37013E-06 3.74940E-19 2.05866E-18
 -1      2827 1.00471E-04-3.25616E-05-2.90959E-05-3.81931E-06 3.60339E-19 1.82429E-18
 -1      2828 9.88672E-05-3.11565E-05-2.90096E-05-1.11437E-06-3.47036E-19 1.33110E-18
 -1      2829 9.89462E-05-3.13625E-05-2.89853E-05-1.77366E-06-2.65211E-20 2.15444E-18
 -1      2830 9.98598E-05-3.21672E-05-2.90098E-05-2.01400E-06 2.52142E-19 2.46037E-18
 -1      2831 9.82845E-05-3.05611E-05-2.90148E-05-2.84785E-08-5.09254E-20 1.38250E-18
 -1      2832 9.84502E-05-3.08194E-05-2.90022E-05-5.13141E-07-4.15553E-19 1.19314E-18
 -1      2833 9.90525E-05-3.14644E-05-2.89693E-05-5.81588E-07 6.15642E-20 1.79839E-18
 -1      2834 9.76914E-05-2.99839E-05-2.90094E-05 6.79387E-07-3.18529E-19 1.85670E-18
 -1      2835 9.78934E-05-3.02342E-05-2.90098E-05 3.65950E-07 2.10545E-19 1.75007E-18
 -1      2836 9.82316E-05-3.06906E-05-2.89509E-05 4.19340E-07-4.91175E-19 1.94118E-18
 -1      2837 9.71544E-05-2.94972E-05-2.89897E-05 1.06954E-06-7.14634E-19 2.70138E-18
 -1      2838 9.73599E-05-2.97090E-05-2.90018E-05 8.99226E-07-3.46547E-19 2.11965E-18
 -1      2839 9.75005E-05-2.99907E-05-2.89378E-05 1.02811E-06-6.37583E-19 2.96964E-18
 -1      2840 9.67007E-05-2.91244E-05-2.89569E-05 1.22207E-06-4.81239E-19 1.32167E-18
 -1      2841 9.68911E-05-2.92879E-05-2.89776E-05 1.15844E-06-5.76827E-19 2.10067E-18
 -1      2842 9.69005E-05-2.94296E-05-2.89206E-05 1.32636E-06-3.65777E-19 2.41025E-18
 -1      2843 9.63339E-05-2.88601E-05-2.89145E-05 1.21423E-06-3.23509E-20 7.80741E-19
 -1      2844 9.65006E-05-2.89775E-05-2.89404E-05 1.22226E-06-1.87154E-19 1.22246E-18
 -1      2845 9.64342E-05-2.90190E-05-2.88960E-05 1.40322E-06 7.99600E-20 1.60619E-18
 -1      2846 9.60461E-05-2.86857E-05-2.88670E-05 1.11009E-06 3.55300E-19 1.24524E-18
 -1      2847 9.61865E-05-2.87648E-05-2.88951E-05 1.16076E-06 2.02860E-19 1.02334E-18
 -1      2848 9.60853E-05-2.87423E-05-2.88643E-05 1.33765E-06 4.12922E-20 9.52968E-19
 -1      2849 9.58250E-05-2.85795E-05-2.88186E-05 9.57594E-07 2.25754E-19 1.09881E-18
 -1      2850 9.59397E-05-2.86292E-05-2.88462E-05 1.02923E-06 4.76081E-19 1.38275E-18
 -1      2851 9.58310E-05-2.85713E-05-2.88279E-05 1.19176E-06 4.31969E-19 6.39221E-19
 -1      2852 9.56576E-05-2.85213E-05-2.87723E-05 7.89652E-07-4.72004E-19 6.83963E-19
 -1      2853 9.57491E-05-2.85500E-05-2.87979E-05 8.67438E-07-1.39567E-19 1.19973E-18
 -1      2854 9.56488E-05-2.84773E-05-2.87896E-05 1.01026E-06 1.82748E-19-3.38131E-20
 -1      2855 9.55325E-05-2.84949E-05-2.87303E-05 6.26903E-07 1.15526E-21 1.60152E-18
 -1      2856 9.56039E-05-2.85094E-05-2.87529E-05 7.01613E-07-4.75536E-19 9.46527E-19
 -1      2857 9.55199E-05-2.84351E-05-2.87520E-05 8.22796E-07-3.13762E-19 4.78443E-19
 -1      2858 9.54400E-05-2.84880E-05-2.86938E-05 4.80813E-07 6.14523E-19 1.52637E-18
 -1      2859 9.54947E-05-2.84935E-05-2.87129E-05 5.47403E-07 4.21622E-19 1.90662E-18
 -1      2860 9.54293E-05-2.84253E-05-2.87171E-05 6.47231E-07-4.88916E-19 1.24801E-18
 -1      2861 9.53726E-05-2.84922E-05-2.86631E-05 3.56496E-07 7.75233E-19 2.03704E-18
 -1      2862 9.54136E-05-2.84924E-05-2.86788E-05 4.12800E-07 8.57202E-19 1.97718E-18
 -1      2863 9.53660E-05-2.84340E-05-2.86860E-05 4.92900E-07 4.91016E-19 1.58436E-18
 -1      2864 9.53242E-05-2.85019E-05-2.86382E-05 2.54975E-07 9.62246E-19 1.63922E-18
 -1      2865 9.53541E-05-2.84992E-05-2.86506E-05 3.00668E-07 7.98500E-19 2.25015E-18
 -1      2866 9.53220E-05-2.84518E-05-2.86594E-05 3.63373E-07 8.93102E-19 6.75067E-19
 -1      2867 9.52900E-05-2.85135E-05-2.86186E-05 1.74867E-07 1.07868E-18 7.96646E-19
 -1      2868 9.53113E-05-2.85095E-05-2.86281E-05 2.10689E-07 1.41225E-18 2.06004E-18
 -1      2869 9.52915E-05-2.84726E-05-2.86372E-05 2.58605E-07 1.34326E-18 1.40151E-18
 -1      2870 9.52665E-05-2.85251E-05-2.86035E-05 1.13562E-07 6.28826E-19 1.16801E-18
 -1      2871 9.52812E-05-2.85208E-05-2.86106E-05 1.40786E-07 9.26063E-19 9.28099E-19
 -1      2872 9.52706E-05-2.84932E-05-2.86193E-05 1.76501E-07 1.07560E-18 1.27457E-18
 -1      2873 9.52508E-05-2.85356E-05-2.85923E-05 6.80007E-08-3.46465E-19 9.68985E-19
 -1      2874 9.52605E-05-2.85315E-05-2.85974E-05 8.80753E-08 2.70398E-20 1.40728E-18
 -1      2875 9.52565E-05-2.85116E-05-2.86053E-05 1.13988E-07 2.47269E-19 1.17700E-18
 -1      2876 9.52409E-05-2.85446E-05-2.85842E-05 3.51446E-08 1.47735E-19 5.34224E-19
 -1      2877 9.52469E-05-2.85409E-05-2.85877E-05 4.94860E-08-1.51259E-19 5.66771E-19
 -1      2878 9.52471E-05-2.85271E-05-2.85946E-05 6.77115E-08-3.66513E-20 9.60231E-19
 -1      2879 9.52351E-05-2.85520E-05-2.85785E-05 1.22489E-08 3.38421E-19 1.23492E-18
 -1      2880 9.52384E-05-2.85488E-05-2.85808E-05 2.21212E-08 3.02025E-19 5.11443E-19
 -1      2881 9.52411E-05-2.85397E-05-2.85866E-05 3.44552E-08 1.46580E-19 1.70079E-18
 -1      2882 9.52322E-05-2.85581E-05-2.85746E-05-3.01015E-09 1.94136E-19 1.51679E-18
 -1      2883 9.52336E-05-2.85553E-05-2.85761E-05 3.44968E-09 4.14648E-19 8.10590E-19
 -1      2884 9.52376E-05-2.85496E-05-2.85807E-05 1.13673E-08 4.54215E-19 1.66925E-18
 -1      2885 9.52313E-05-2.85629E-05-2.85722E-05-1.24904E-08 1.05334E-19 2.39979E-18
 -1      2886 9.52315E-05-2.85606E-05-2.85730E-05-8.61122E-09-2.53101E-19 1.96108E-18
 -1      2887 9.52357E-05-2.85573E-05-2.85766E-05-3.93504E-09-2.42732E-19 9.03298E-19
 -1      2888 9.52318E-05-2.85670E-05-2.85706E-05-1.75856E-08 8.67232E-19 3.20031E-18
 -1      2889 9.52311E-05-2.85650E-05-2.85711E-05-1.56774E-08 1.26106E-18 3.40031E-18
 -1      2890 9.52350E-05-2.85633E-05-2.85737E-05-1.33411E-08 1.90538E-20 1.66677E-18
 -1      2891 9.52331E-05-2.85706E-05-2.85696E-05-1.92324E-08-1.18518E-20 2.65024E-18
 -1      2892 9.52320E-05-2.85688E-05-2.85699E-05-1.89270E-08 7.28091E-20 3.21842E-18
 -1      2893 9.52352E-05-2.85682E-05-2.85716E-05-1.82717E-08 4.75393E-19 2.97039E-18
 -1      2894 9.52354E-05-2.85740E-05-2.85692E-05-1.84451E-08-5.60273E-19 3.54861E-18
 -1      2895 9.52340E-05-2.85722E-05-2.85693E-05-1.93715E-08-5.18161E-19 2.59234E-18
 -1      2896 9.52366E-05-2.85723E-05-2.85704E-05-1.97443E-08-3.28530E-19 3.05216E-18
 -1      2897 9.52384E-05-2.85761E-05-2.85695E-05-1.91285E-08-6.33239E-19 1.38152E-18
 -1      2898 1.24639E-04-5.95100E-05-2.75404E-05-2.99310E-05-1.31640E-18 4.22987E-20
 -1      2899 1.35084E-04-5.90130E-05-3.29476E-05-1.80518E-05-9.00264E-19 5.17167E-19
 -1      2900 9.52473E-05-2.85804E-05-2.85715E-05-2.01559E-09-1.83116E-18-1.94778E-19
 -1      2901 9.52471E-05-2.85802E-05-2.85715E-05-4.46200E-09-3.19867E-19-1.56799E-19
 -1      2902 9.52458E-05-2.85797E-05-2.85712E-05-1.13628E-08 1.38649E-18-1.39277E-18
 -1      2903 9.52450E-05-2.85791E-05-2.85711E-05-1.33175E-08 1.33088E-18-1.33962E-18
 -1      2904 9.52475E-05-2.85806E-05-2.85715E-05 3.03968E-09-1.06758E-18 1.83719E-18
 -1      2905 9.52474E-05-2.85806E-05-2.85715E-05 5.17856E-10-2.20926E-18 1.67840E-18
 -1      2906 9.52476E-05-2.85758E-05-2.85736E-05-8.77714E-10-7.05134E-19 3.62686E-19
 -1      2907 9.52468E-05-2.85801E-05-2.85714E-05-6.87340E-09-7.48819E-19 7.98128E-20
 -1      2908 9.52463E-05-2.85797E-05-2.85714E-05-9.14256E-09 8.42951E-19-1.05370E-18
 -1      2909 9.52461E-05-2.85756E-05-2.85731E-05-1.03717E-08 1.34792E-18-2.03270E-18
 -1      2910 9.52470E-05-2.85756E-05-2.85734E-05-5.77827E-09-1.13745E-19-6.51339E-19
 -1      2911 9.52472E-05-2.85806E-05-2.85714E-05 8.02240E-09-1.25782E-19-2.07160E-18
 -1      2912 9.52475E-05-2.85808E-05-2.85714E-05 5.58750E-09-4.57894E-19-1.90541E-19
 -1      2913 9.52477E-05-2.85763E-05-2.85734E-05 4.16889E-09-4.45619E-19 6.80555E-19
 -1      2914 9.52461E-05-2.85803E-05-2.85711E-05 1.28159E-08 9.73798E-19-3.68105E-18
 -1      2915 9.52469E-05-2.85808E-05-2.85712E-05 1.05616E-08 3.61403E-19-2.66623E-18
 -1      2916 9.52473E-05-2.85767E-05-2.85731E-05 9.24872E-09 4.50912E-19-1.97650E-18
 -1      2917 9.52440E-05-2.85793E-05-2.85706E-05 1.68263E-08 1.34016E-19-4.91256E-19
 -1      2918 9.52453E-05-2.85802E-05-2.85707E-05 1.50731E-08 1.39090E-18-2.42891E-18
 -1      2919 9.52460E-05-2.85769E-05-2.85725E-05 1.40953E-08 8.32975E-19-2.59385E-18
 -1      2920 1.22091E-04-5.85419E-05-2.74857E-05 3.20359E-05-4.11023E-19 1.53736E-18
 -1      2921 1.11981E-04-5.55970E-05-2.37961E-05 3.73024E-05-7.37554E-19 2.37070E-18
 -1      2922 9.47757E-05-2.06031E-05-3.18159E-05-5.41754E-06 1.63223E-19-3.26779E-19
 -1      2923 9.53130E-05-2.22153E-05-3.13159E-05-3.46856E-06 1.49099E-19-2.37057E-19
 -1      2924 9.35573E-05-1.89953E-05-3.19685E-05-5.27313E-06 3.19963E-19-3.01349E-19
 -1      2925 1.32273E-04-1.49306E-05-5.06911E-05 1.04202E-05 1.28304E-18 2.29419E-18
 -1      2926 1.28817E-04-8.72803E-06-5.21586E-05 6.07873E-06 1.74595E-18 1.92374E-18
 -1      2927 1.72330E-04-2.71984E-05-6.22065E-05 9.57591E-06-1.23455E-18-3.38813E-19
 -1      2928 1.26406E-04-6.03939E-06-5.22323E-05 8.02686E-08 1.80778E-18 1.30609E-18
 -1      2929 1.28371E-04-8.70391E-06-5.19002E-05-6.25585E-06 2.15400E-18 4.79156E-19
 -1      2930 3.45118E-05-1.36957E-05-8.24385E-06-1.53027E-05 2.71580E-20 1.61677E-18
 -1      2931 4.35480E-05-1.97485E-05-9.66095E-06-2.53316E-05 4.17799E-19 1.97740E-18
 -1      2932 5.56901E-05-2.72987E-05-1.16245E-05-3.11382E-05 1.01919E-18 3.01353E-18
 -1      2933 7.36184E-05-3.76875E-05-1.53180E-05-3.68713E-05 8.90232E-19 2.45364E-18
 -1      2934 5.75842E-05-2.21443E-05-1.45807E-05-2.69359E-05 1.81953E-19 2.55338E-18
 -1      2935 9.19715E-05-4.47161E-05-1.96585E-05 3.51767E-05 7.97693E-19 4.25528E-19
 -1      2936 9.48297E-05-4.11038E-05-2.24624E-05-3.11849E-05 5.06632E-19 1.92494E-18
 -1      2937 8.81089E-05-3.26649E-05-2.33917E-05-2.99740E-05 3.32990E-19 1.83372E-18
 -1      2938 9.80195E-05-3.08068E-05-2.88236E-05-2.01755E-07-2.58609E-19 8.56766E-19
 -1      2939 9.78428E-05-3.04681E-05-2.88589E-05-6.80112E-07-2.42787E-19 7.96214E-19
 -1      2940 9.83101E-05-3.06619E-05-2.90027E-05-1.04472E-06-8.62085E-20 7.72830E-19
 -1      2941 9.55212E-05-2.30835E-05-3.10351E-05-2.14194E-06 1.45700E-19-2.36668E-19
 -1      2942 9.54515E-05-2.38090E-05-3.07048E-05-2.35509E-07 1.47688E-19-2.07300E-19
 -1      2943 9.44942E-05-2.27149E-05-3.07534E-05 1.76969E-07 1.37976E-19-1.76189E-21
 -1      2944 9.44991E-05-2.16238E-05-3.12378E-05-2.30967E-06 1.54188E-19-2.17014E-20
 -1      2945 5.26859E-05-2.48702E-05-1.13969E-05-3.75741E-05-4.45751E-19-7.39883E-19
 -1      2946 6.86744E-05-3.50507E-05-1.40625E-05-4.41139E-05-7.01661E-19-1.00956E-18
 -1      2947 1.39525E-04-5.51569E-05-3.66027E-05 1.11480E-05 7.18681E-19-8.30304E-19
 -1      2948 1.32034E-04-5.85139E-05-3.14132E-05 2.16232E-05 4.88632E-20 3.13614E-19
 -1      2949 5.25103E-05-2.47243E-05-1.16065E-05 3.91821E-05-1.15091E-19-1.73642E-19
 -1      2950 3.74386E-05-1.65841E-05-8.01155E-06 2.88938E-05-3.63007E-19 8.66726E-19
 -1      2951 9.05462E-05-1.54402E-05-3.22100E-05 3.31801E-06 8.71241E-19 1.06935E-18
 -1      2952 8.98896E-05-1.47365E-05-3.22323E-05 2.44169E-06 8.40364E-19 9.18179E-19
 -1      2953 9.06334E-05-1.61559E-05-3.19074E-05 1.49545E-06 7.25268E-19 8.74734E-19
 -1      2954 9.19962E-05-1.77227E-05-3.18166E-05 2.86997E-06 7.41041E-19 1.00178E-18
 -1      2955 8.84411E-05-1.32033E-05-3.22680E-05-3.17454E-06 6.97591E-19 2.98563E-20
 -1      2956 8.90102E-05-1.37926E-05-3.22649E-05-3.74927E-06 6.59691E-19-1.81566E-19
 -1      2957 1.41085E-04-3.78717E-05-4.45353E-05 7.20798E-06-5.52689E-19 1.27044E-18
 -1      2958 1.36914E-04-2.61539E-05-4.82354E-05 1.08345E-05 3.93553E-19 1.83891E-18
 -1      2959 1.40458E-04-5.15386E-05-3.83496E-05-4.00939E-06-7.48407E-19 8.80173E-19
 -1      2960 1.42744E-04-4.56397E-05-4.20968E-05 2.24365E-06-7.47189E-19 9.71441E-19
 -1      2961 1.37134E-04-3.99620E-05-4.18429E-05 8.50044E-06-5.02502E-19 1.40110E-18
 -1      2962 3.17799E-05-1.01589E-05-8.60346E-06-9.52833E-06 1.69301E-19-3.42201E-19
 -1      2963 3.89698E-05-1.48212E-05-9.82717E-06-2.50177E-05-6.27334E-20-6.73391E-19
 -1      2964 3.79440E-05-1.68251E-05-8.53343E-06 2.15587E-05 4.17799E-19 7.78423E-19
 -1      2965 3.11862E-05-1.11671E-05-8.02841E-06 7.45071E-06 2.74730E-19 1.66865E-19
 -1      2966 6.88578E-05-3.49279E-05-1.43338E-05 3.70482E-05 7.61483E-19 4.62480E-19
 -1      2967 5.08616E-05-2.44068E-05-1.08080E-05 2.99010E-05 5.65924E-19 6.74662E-19
 -1      2968 1.33301E-04-1.48305E-05-5.14549E-05-9.59819E-06 2.14236E-18-4.62798E-19
 -1      2969 1.36636E-04-2.26219E-05-4.93928E-05-1.05600E-05 1.68411E-18-1.14625E-18
 -1      2970 1.00410E-04-4.84077E-05-2.17395E-05-3.23442E-05 1.02353E-18 1.70211E-18
 -1      2971 8.67864E-05-3.75375E-05-2.05094E-05 3.33508E-05 5.73230E-19 5.08590E-19
 -1      2972 8.80497E-05-1.27963E-05-3.22773E-05-2.80452E-06 7.51638E-19 1.63855E-19
 -1      2973 8.90401E-05-1.44678E-05-3.19367E-05-2.62549E-06 6.31786E-19 1.36435E-19
 -1      2974 8.78232E-05-1.25559E-05-3.22749E-05-2.19632E-06 7.90846E-19 2.48454E-19
 -1      2975 4.93199E-05-1.88255E-05-1.24680E-05-3.01164E-05-2.26422E-19-7.00073E-19
 -1      2976 6.05598E-05-2.29691E-05-1.57853E-05-3.25775E-05-2.14617E-19-6.47980E-19
 -1      2977 4.83957E-05-1.36871E-05-1.45211E-05-2.17111E-05 2.89182E-19-3.36484E-19
 -1      2978 9.69889E-05-2.92106E-05-2.90586E-05-1.20985E-06-1.26102E-19 1.15632E-18
 -1      2979 9.68682E-05-2.88019E-05-2.91462E-05-1.08805E-06-6.38344E-20 1.31842E-18
 -1      2980 9.76106E-05-2.96000E-05-2.91607E-05-1.33087E-06 3.19581E-20 9.01206E-19
 -1      2981 3.70134E-05-1.31132E-05-9.49192E-06 2.07899E-05-6.37922E-19 1.05434E-18
 -1      2982 6.85584E-05-2.17626E-05-1.98043E-05 2.84189E-05 2.40187E-19 5.86994E-19
 -1      2983 8.13088E-05-2.94049E-05-2.18931E-05 3.07758E-05 3.48978E-19 5.10655E-19
 -1      2984 7.41136E-05-2.47739E-05-2.09487E-05-2.90876E-05-2.20917E-19 2.58070E-18
 -1      2985 7.72984E-05-3.62824E-05-1.76391E-05 4.10220E-05 1.98470E-19 1.58708E-18
 -1      2986 6.55262E-05-3.06488E-05-1.42644E-05 4.17605E-05 3.56283E-19 1.00977E-18
 -1      2987 5.82946E-05-2.28393E-05-1.48160E-05 3.51958E-05-1.17579E-19 8.73926E-19
 -1      2988 1.36884E-04-4.51907E-05-3.97950E-05-4.69960E-06 4.62798E-19-1.28415E-18
 -1      2989 1.40303E-04-5.09486E-05-3.84171E-05 3.01655E-06 3.83349E-19-1.13227E-18
 -1      2990 1.35366E-04-5.34349E-05-3.51229E-05 5.71567E-06 2.33530E-19-1.49279E-18
 -1      2991 9.91185E-05-3.16396E-05-2.89257E-05-1.00988E-07-2.70514E-19 5.44867E-19
 -1      2992 1.04004E-04-5.12035E-05-2.22993E-05 3.88627E-05-6.50310E-19 2.14351E-18
 -1      2993 9.65110E-05-2.72775E-05-2.96693E-05 5.79613E-07 1.89302E-19 1.70593E-18
 -1      2994 9.64936E-05-2.68944E-05-2.97993E-05 1.23264E-06 2.04504E-19 1.84427E-18
 -1      2995 1.16665E-04-5.68073E-05-2.54047E-05-3.29961E-05-1.48263E-18-9.59794E-20
 -1      2996 9.52403E-05-2.85769E-05-2.85700E-05-1.82924E-08 7.99835E-19-3.00147E-18
 -1      2997 9.52395E-05-2.85748E-05-2.85706E-05-1.90296E-08-1.41910E-18-1.42174E-18
 -1      2998 9.52420E-05-2.85782E-05-2.85702E-05-1.76648E-08 5.55352E-19-6.03438E-18
 -1      2999 3.37334E-05-1.17154E-05-8.85483E-06-9.12363E-06-2.50457E-19 9.74723E-19
 -1      3000 4.24517E-05-1.12009E-05-1.31671E-05-1.38263E-05-3.98476E-19 1.01580E-18
 -1      3001 3.36460E-05-8.81828E-06-1.02820E-05-3.50527E-07-8.24143E-19 4.53163E-20
 -1      3002 1.27816E-04-5.78796E-05-2.97919E-05 2.22108E-05-7.26331E-19-1.92065E-19
 -1      3003 9.52411E-05-2.85781E-05-2.85698E-05 1.89731E-08-1.60108E-18 1.75562E-19
 -1      3004 9.52428E-05-2.85793E-05-2.85701E-05 1.81598E-08-7.07859E-19-2.61286E-19
 -1      3005 9.52438E-05-2.85770E-05-2.85715E-05 1.77678E-08-5.24891E-19-2.20454E-18
 -1      3006 9.52407E-05-2.85765E-05-2.85704E-05 1.97384E-08-2.07985E-18 5.51624E-21
 -1      3007 7.65184E-05-3.50139E-05-1.74943E-05-4.00206E-05-7.82076E-19-5.41254E-19
 -1      3008 8.14554E-05-4.08553E-05-1.68726E-05-4.32356E-05-1.09447E-18-1.01554E-18
 -1      3009 9.33463E-05-4.62241E-05-2.02933E-05-4.05886E-05-1.40777E-18-8.29351E-19
 -1      3010 1.36884E-04-2.94591E-05-4.64906E-05-1.04979E-05 1.06737E-18-9.80017E-19
 -1      3011 1.34815E-04-3.52656E-05-4.29719E-05-9.58369E-06 1.08378E-18-9.17284E-19
 -1      3012 1.29580E-04-2.46992E-05-4.52961E-05-1.26873E-05 1.22089E-18-5.88211E-19
 -1      3013 1.29744E-04-2.21381E-05-4.65148E-05 1.14327E-05 5.91123E-19 2.43681E-18
 -1      3014 1.21830E-04-8.77013E-06-4.89111E-05 2.94933E-06 1.47998E-18 1.24653E-18
 -1      3015 1.24869E-04-1.27178E-05-4.85143E-05-8.25737E-06 1.57495E-18 2.59404E-20
 -1      3016 5.23313E-05-1.95030E-05-1.33929E-05 2.48228E-05 5.42683E-19 6.63121E-19
 -1      3017 9.52443E-05-2.85792E-05-2.85708E-05-1.49510E-08 1.29450E-18-4.00706E-18
 -1      3018 9.52431E-05-2.85783E-05-2.85706E-05-1.63783E-08 1.50082E-18-5.46332E-18
 -1      3019 9.52428E-05-2.85757E-05-2.85716E-05-1.70285E-08 8.88820E-19-4.54018E-18
 -1      3020 9.52448E-05-2.85757E-05-2.85724E-05-1.41718E-08 1.66557E-18-2.44137E-18
 -1      3021 1.38104E-04-5.63383E-05-3.50893E-05-8.56492E-06-5.29276E-19 7.76094E-19
 -1      3022 1.35893E-04-5.10100E-05-3.66480E-05-3.64689E-08-5.21269E-19 5.56448E-19
 -1      3023 1.31086E-04-5.69684E-05-3.18471E-05-1.38668E-05-4.39094E-19 4.05782E-19
 -1      3024 9.66627E-05-2.83269E-05-2.92953E-05-7.38062E-07 8.23806E-20 1.50674E-18
 -1      3025 9.66505E-05-2.78706E-05-2.94448E-05-2.42900E-07 1.61423E-19 1.59677E-18
 -1      3026 9.70806E-05-2.84707E-05-2.94191E-05-9.12691E-07 1.45291E-19 1.24621E-18
 -1      3027 8.78347E-05-1.25551E-05-3.22763E-05-1.07324E-06 7.97717E-19 3.87660E-19
 -1      3028 8.77681E-05-1.25114E-05-3.22777E-05-1.74436E-06 7.76316E-19 3.10226E-19
 -1      3029 8.86312E-05-1.40366E-05-3.19516E-05-1.91016E-06 7.42713E-19 3.10006E-19
 -1      3030 8.88461E-05-1.42521E-05-3.19552E-05-9.82441E-07 6.61348E-19 3.90713E-19
 -1      3031 8.97717E-05-1.46175E-05-3.22361E-05-4.06104E-06 6.09456E-19-3.74304E-19
 -1      3032 9.06956E-05-1.56299E-05-3.22075E-05-4.59508E-06 5.66818E-19-3.80784E-19
 -1      3033 9.01602E-05-1.56605E-05-3.18953E-05-3.17583E-06 5.64892E-19-1.80201E-19
 -1      3034 3.55257E-05-9.29275E-06-1.05678E-05-1.16159E-06 3.96491E-19-1.98312E-19
 -1      3035 4.23849E-05-8.97060E-06-1.39055E-05-7.28129E-06 4.90128E-19-1.89100E-19
 -1      3036 4.26424E-05-9.63614E-06-1.36315E-05 6.99279E-06 6.65027E-19 3.47072E-19
 -1      3037 9.66902E-05-2.71740E-05-2.98080E-05 3.36988E-07 1.96334E-19 1.44380E-18
 -1      3038 9.59863E-05-2.41418E-05-3.08068E-05 3.59944E-06 2.38883E-19 1.55691E-18
 -1      3039 9.53265E-05-2.28816E-05-3.10372E-05 3.51402E-06 3.45972E-19 1.42065E-18
 -1      3040 9.46623E-05-2.18763E-05-3.12213E-05 3.26343E-06 4.37969E-19 1.19381E-18
 -1      3041 9.38961E-05-2.07526E-05-3.13507E-05 2.80247E-06 5.75684E-19 1.02173E-18
 -1      3042 9.55618E-05-2.37038E-05-3.07774E-05 2.23427E-06 2.91029E-19 1.23120E-18
 -1      3043 9.65767E-05-2.65020E-05-3.00095E-05 2.57929E-06 2.20381E-19 1.95568E-18
 -1      3044 9.32819E-05-2.21762E-05-3.04782E-05 1.47212E-06 1.66159E-19-7.01149E-20
 -1      3045 9.28953E-05-2.23358E-05-3.02508E-05 2.84209E-06 8.38703E-20-3.83906E-20
 -1      3046 5.66938E-05-1.43228E-05-1.78491E-05 2.01522E-05 3.11099E-19 5.23149E-19
 -1      3047 6.24062E-05-1.71583E-05-1.91661E-05-2.29546E-05-6.45916E-19 2.12881E-18
 -1      3048 9.21716E-05-2.22272E-05-2.99878E-05 3.87497E-06 1.19488E-19 9.81117E-20
 -1      3049 9.14619E-05-2.19525E-05-2.98038E-05 5.08198E-06 9.05432E-20 1.67484E-19
 -1      3050 9.15600E-05-2.12234E-05-3.01174E-05 2.60174E-06 1.03993E-19 8.66720E-20
 -1      3051 9.02292E-05-2.13847E-05-2.95293E-05 5.95497E-06 9.74125E-20 3.05668E-19
 -1      3052 8.91430E-05-2.07507E-05-2.93285E-05 7.06974E-06 1.78688E-19 2.37718E-19
 -1      3053 8.96656E-05-2.06198E-05-2.95496E-05 4.38888E-06 2.03696E-19 4.93080E-19
 -1      3054 8.72936E-05-1.97966E-05-2.89699E-05 7.81838E-06 2.61747E-19 4.05531E-19
 -1      3055 8.57216E-05-1.88814E-05-2.86688E-05 8.91262E-06 5.03599E-19 5.97408E-19
 -1      3056 8.66849E-05-1.91587E-05-2.88778E-05 5.79536E-06 4.14352E-19 6.63487E-19
 -1      3057 8.30812E-05-1.76326E-05-2.81147E-05 9.59852E-06 4.05534E-19 4.96250E-19
 -1      3058 8.09122E-05-1.66044E-05-2.75821E-05 1.07680E-05 2.97941E-19 4.64607E-19
 -1      3059 8.23391E-05-1.69788E-05-2.79186E-05 6.86943E-06 3.87003E-19 3.87796E-19
 -1      3060 7.74386E-05-1.53463E-05-2.67043E-05 1.14904E-05 2.49885E-19 5.62397E-19
 -1      3061 7.48315E-05-1.45790E-05-2.58149E-05 1.28393E-05 3.62896E-19 4.24033E-19
 -1      3062 7.64077E-05-1.43803E-05-2.64301E-05 7.70734E-06 3.41002E-19 4.28718E-19
 -1      3063 6.98088E-05-1.34384E-05-2.42275E-05 1.39901E-05 4.21690E-19 3.49573E-19
 -1      3064 6.72249E-05-1.37726E-05-2.27621E-05 1.59955E-05 3.19682E-19 3.14302E-19
 -1      3065 6.82926E-05-1.17933E-05-2.39225E-05 8.72660E-06 2.89963E-19 2.78866E-19
 -1      3066 9.15437E-05-1.65940E-05-3.21487E-05-4.79740E-06 4.70734E-19-2.95608E-19
 -1      3067 9.25812E-05-1.78143E-05-3.20777E-05-5.16886E-06 4.04607E-19-3.09124E-19
 -1      3068 9.34354E-05-1.95504E-05-3.16309E-05-3.63700E-06 2.62767E-19-2.32105E-19
 -1      3069 9.17933E-05-1.75092E-05-3.17971E-05-3.51046E-06 5.03229E-19-2.30889E-19
 -1      3070 9.65397E-05-2.59022E-05-3.02782E-05 2.60090E-06 2.74300E-19 1.81770E-18
 -1      3071 7.69330E-05-1.56033E-05-2.62440E-05-1.42585E-05-1.03420E-18 1.03524E-18
 -1      3072 7.90679E-05-1.61238E-05-2.70672E-05-1.25387E-05-1.27052E-18 1.52171E-18
 -1      3073 8.25040E-05-1.74208E-05-2.78969E-05-1.14264E-05-7.61140E-19 1.64432E-18
 -1      3074 8.42669E-05-1.84058E-05-2.82981E-05-1.00949E-05-3.24915E-19 6.55603E-19
 -1      3075 7.69412E-05-1.47002E-05-2.65263E-05-9.00084E-06-9.38288E-19 1.07891E-18
 -1      3076 8.67542E-05-1.97357E-05-2.87315E-05-9.25079E-06-5.10215E-19 5.17413E-19
 -1      3077 8.80388E-05-2.07383E-05-2.88952E-05-8.14554E-06-9.88963E-19 6.70367E-19
 -1      3078 8.27069E-05-1.74977E-05-2.78511E-05-7.60938E-06-4.63716E-19 3.90290E-19
 -1      3079 8.97916E-05-2.18950E-05-2.91037E-05-7.43534E-06-9.51532E-19 1.24126E-18
 -1      3080 9.06545E-05-2.27475E-05-2.91401E-05-6.50961E-06-7.00073E-19 1.69389E-18
 -1      3081 8.68267E-05-2.00811E-05-2.85409E-05-6.42536E-06-4.74165E-19 1.14876E-18
 -1      3082 9.18581E-05-2.36704E-05-2.92238E-05-5.89583E-06-4.69711E-19 2.08413E-18
 -1      3083 9.24020E-05-2.43356E-05-2.91979E-05-5.13274E-06-4.58283E-20 2.26719E-18
 -1      3084 8.96963E-05-2.22338E-05-2.88693E-05-5.33596E-06-1.92135E-19 2.12691E-18
 -1      3085 9.32097E-05-2.50342E-05-2.92153E-05-4.60852E-06 4.96745E-19 2.35644E-18
 -1      3086 9.35337E-05-2.55289E-05-2.91635E-05-3.99284E-06 1.32129E-18 1.55326E-18
 -1      3087 9.16487E-05-2.39236E-05-2.89968E-05-4.34235E-06 3.58012E-19 2.40964E-18
 -1      3088 9.40450E-05-2.60200E-05-2.91493E-05-3.57693E-06 1.62181E-18 1.05065E-18
 -1      3089 9.42188E-05-2.63641E-05-2.90938E-05-3.10833E-06 1.34742E-18 4.31052E-19
 -1      3090 9.29235E-05-2.51719E-05-2.90185E-05-3.48590E-06 7.41464E-19 7.22617E-19
 -1      3091 9.45686E-05-2.67404E-05-2.90646E-05-2.74489E-06 3.19805E-19 5.94760E-19
 -1      3092 9.46648E-05-2.70001E-05-2.90087E-05-2.35965E-06-7.37689E-19 4.72635E-19
 -1      3093 9.37650E-05-2.60980E-05-2.89886E-05-2.75157E-06 6.88010E-19 7.91608E-19
 -1      3094 9.48888E-05-2.72693E-05-2.89754E-05-2.06815E-06-1.60915E-18 2.92291E-19
 -1      3095 9.49319E-05-2.74528E-05-2.89263E-05-1.77089E-06-2.29340E-18 2.68535E-19
 -1      3096 9.43251E-05-2.67918E-05-2.89358E-05-2.12476E-06-1.04358E-18-1.78693E-19
 -1      3097 9.50729E-05-2.76443E-05-2.88940E-05-1.54029E-06-2.54501E-18 1.60176E-18
 -1      3098 9.50865E-05-2.77742E-05-2.88528E-05-1.31317E-06-1.33188E-18 5.22879E-19
 -1      3099 9.46814E-05-2.72926E-05-2.88767E-05-1.61647E-06-1.34853E-18 4.22366E-19
 -1      3100 9.51741E-05-2.79104E-05-2.88240E-05-1.13322E-06-1.53514E-18 1.19443E-18
 -1      3101 9.51727E-05-2.80026E-05-2.87904E-05-9.61120E-07-5.81659E-19 8.85670E-19
 -1      3102 9.49052E-05-2.76530E-05-2.88200E-05-1.21179E-06-9.17722E-19 1.82237E-18
 -1      3103 9.52265E-05-2.80996E-05-2.87659E-05-8.22405E-07 3.20808E-19 2.39982E-19
 -1      3104 9.52185E-05-2.81654E-05-2.87392E-05-6.93131E-07 6.09806E-19 1.03606E-19
 -1      3105 9.50442E-05-2.79124E-05-2.87695E-05-8.94600E-07-3.07958E-19 1.00648E-18
 -1      3106 9.52500E-05-2.82316E-05-2.87199E-05-5.92501E-07 9.22137E-19-1.98157E-19
 -1      3107 9.52402E-05-2.82772E-05-2.86999E-05-4.99764E-07 8.80215E-19-6.81581E-19
 -1      3108 9.51278E-05-2.80961E-05-2.87274E-05-6.54376E-07 4.26927E-19-3.82810E-19
 -1      3109 9.52598E-05-2.83279E-05-2.86833E-05-4.18762E-07 6.13363E-19-8.69274E-19
 -1      3110 9.52499E-05-2.83626E-05-2.86671E-05-3.46399E-07 9.71659E-20-1.78632E-18
 -1      3111 9.51787E-05-2.82291E-05-2.86925E-05-4.70454E-07 1.01310E-18-1.67881E-18
 -1      3112 9.52613E-05-2.83990E-05-2.86539E-05-2.86241E-07 4.85896E-19-2.75281E-19
 -1      3113 9.52527E-05-2.84243E-05-2.86415E-05-2.33265E-07 6.31716E-19-1.96347E-19
 -1      3114 9.52100E-05-2.83288E-05-2.86634E-05-3.27411E-07 1.38790E-18-1.46601E-18
 -1      3115 9.52590E-05-2.84505E-05-2.86312E-05-1.89080E-07 1.22611E-18 3.06333E-19
 -1      3116 9.52521E-05-2.84689E-05-2.86219E-05-1.50798E-07 1.25856E-18 7.12881E-19
 -1      3117 9.52281E-05-2.84011E-05-2.86402E-05-2.21035E-07 1.58874E-18 1.39067E-18
 -1      3118 9.52554E-05-2.84876E-05-2.86140E-05-1.18838E-07 8.58638E-19 2.15771E-19
 -1      3119 9.52501E-05-2.85010E-05-2.86071E-05-9.15916E-08 4.69436E-19 6.55584E-19
 -1      3120 9.52380E-05-2.84534E-05-2.86221E-05-1.43060E-07 1.28432E-18 6.37114E-19
 -1      3121 9.52515E-05-2.85144E-05-2.86011E-05-6.88868E-08-1.97775E-19 6.00603E-19
 -1      3122 9.52477E-05-2.85241E-05-2.85960E-05-4.98900E-08 4.29624E-19-7.91285E-19
 -1      3123 9.52430E-05-2.84912E-05-2.86081E-05-8.68472E-08 2.42629E-19-9.82385E-20
 -1      3124 9.52481E-05-2.85332E-05-2.85917E-05-3.48430E-08 1.76656E-18-1.34508E-18
 -1      3125 9.52455E-05-2.85400E-05-2.85882E-05-2.23704E-08 2.62138E-18-9.19385E-19
 -1      3126 9.52451E-05-2.85178E-05-2.85976E-05-4.78532E-08 9.00296E-19 4.47620E-19
 -1      3127 9.52453E-05-2.85469E-05-2.85848E-05-1.14901E-08 3.39561E-18-4.53607E-19
 -1      3128 9.52435E-05-2.85521E-05-2.85821E-05-2.82434E-09 3.33256E-18 6.28012E-19
 -1      3129 9.52455E-05-2.85368E-05-2.85896E-05-2.08677E-08 3.13598E-18 1.58753E-18
 -1      3130 9.52430E-05-2.85569E-05-2.85796E-05 4.16620E-09 1.55459E-18 9.74744E-19
 -1      3131 9.52420E-05-2.85608E-05-2.85777E-05 9.51672E-09 1.15191E-18 5.91161E-19
 -1      3132 9.52450E-05-2.85507E-05-2.85834E-05-2.26382E-09 2.72799E-18 2.20092E-18
 -1      3133 9.52413E-05-2.85642E-05-2.85758E-05 1.36985E-08 1.21186E-18 8.40679E-19
 -1      3134 9.52409E-05-2.85672E-05-2.85745E-05 1.66016E-08 1.62191E-18-4.91335E-19
 -1      3135 9.52441E-05-2.85607E-05-2.85787E-05 9.44695E-09 1.16293E-18 2.54140E-18
 -1      3136 9.52404E-05-2.85699E-05-2.85730E-05 1.86011E-08 1.60931E-18-1.48987E-18
 -1      3137 9.52403E-05-2.85724E-05-2.85720E-05 1.96599E-08 2.82965E-19-6.99355E-19
 -1      3138 9.52432E-05-2.85682E-05-2.85751E-05 1.61558E-08 9.27702E-19-2.24456E-18
 -1      3139 1.07878E-04-5.22426E-05-2.33803E-05-3.55887E-05-1.48114E-18-4.82352E-19
 -1      3140 1.20101E-04-5.63881E-05-2.74612E-05-2.63466E-05-1.12452E-18-3.04872E-19
 -1      3141 1.01255E-04-3.35117E-05-2.90531E-05 1.35968E-06 2.48738E-19 2.19600E-19
 -1      3142 1.00913E-04-3.31382E-05-2.90251E-05 4.87431E-07-1.83804E-19 3.27655E-19
 -1      3143 1.01546E-04-3.13675E-05-3.00608E-05 7.41068E-06 2.04659E-19 9.05369E-19
 -1      3144 1.02136E-04-3.25121E-05-2.98641E-05 6.82138E-06 2.41529E-19 1.00342E-18
 -1      3145 9.99170E-05-2.83539E-05-3.06302E-05 7.72860E-06-3.19653E-19 1.66493E-18
 -1      3146 1.00800E-04-2.99459E-05-3.04099E-05 7.88603E-06-7.99511E-20 1.43801E-18
 -1      3147 1.03444E-04-3.14596E-05-3.08177E-05 8.06848E-06-2.73149E-19 1.36459E-18
 -1      3148 9.78872E-05-2.50467E-05-3.11687E-05 6.02052E-06-4.06356E-19 1.32438E-18
 -1      3149 9.87630E-05-2.65986E-05-3.09756E-05 7.12725E-06-1.05783E-19 1.52856E-18
 -1      3150 1.01492E-04-2.77072E-05-3.15983E-05 8.10107E-06-8.63221E-20 1.66759E-18
 -1      3151 9.63646E-05-2.27310E-05-3.15276E-05 2.36156E-06 1.53606E-19 7.29917E-19
 -1      3152 9.68647E-05-2.36249E-05-3.14193E-05 4.25128E-06-2.82644E-19 8.66495E-19
 -1      3153 9.92471E-05-2.39537E-05-3.22715E-05 5.74366E-06 9.35456E-20 8.39529E-19
 -1      3154 9.61836E-05-2.25074E-05-3.15828E-05-2.24964E-06 4.35698E-19 5.08985E-19
 -1      3155 9.60594E-05-2.23158E-05-3.15989E-05-1.32330E-07 1.00893E-19 5.06270E-19
 -1      3156 9.78674E-05-2.17887E-05-3.26371E-05 1.28888E-06 2.24090E-19 3.46551E-19
 -1      3157 9.74646E-05-2.44727E-05-3.13177E-05-6.25111E-06 5.66764E-19 6.73410E-19
 -1      3158 9.67744E-05-2.33043E-05-3.14479E-05-4.57993E-06 6.90140E-19 4.17911E-19
 -1      3159 9.81631E-05-2.22359E-05-3.25605E-05-3.78251E-06 4.10421E-19 1.72794E-19
 -1      3160 9.95147E-05-2.76782E-05-3.08343E-05-8.45254E-06 2.93989E-19 9.76187E-19
 -1      3161 9.85749E-05-2.60599E-05-3.10310E-05-7.65581E-06 5.10787E-19 1.11050E-18
 -1      3162 9.99331E-05-2.50661E-05-3.20790E-05-7.62673E-06 3.00998E-19 5.46427E-19
 -1      3163 1.01351E-04-3.07931E-05-3.02759E-05-8.57199E-06 2.13640E-19 9.60405E-19
 -1      3164 1.00536E-04-2.93394E-05-3.04824E-05-8.66886E-06 1.65867E-19 1.15582E-18
 -1      3165 1.02141E-04-2.89110E-05-3.13543E-05-9.17557E-06 1.69571E-19 9.60284E-19
 -1      3166 1.02314E-04-3.28861E-05-2.97708E-05-7.15186E-06-2.95509E-19 1.46106E-18
 -1      3167 1.01849E-04-3.19650E-05-2.99440E-05-7.86572E-06-5.79920E-20 1.35004E-18
 -1      3168 1.03690E-04-3.22429E-05-3.05831E-05-8.50155E-06-8.31250E-20 2.17789E-18
 -1      3169 1.02288E-04-3.37134E-05-2.93872E-05-5.01745E-06-2.80144E-19 2.02326E-18
 -1      3170 1.02210E-04-3.33840E-05-2.95092E-05-5.99960E-06-3.19196E-19 1.48935E-18
 -1      3171 1.04069E-04-3.42030E-05-2.99190E-05-6.47158E-06-5.81309E-19 2.08407E-18
 -1      3172 1.01529E-04-3.35167E-05-2.91345E-05-2.85638E-06 2.99500E-19 2.48806E-18
 -1      3173 1.01745E-04-3.36399E-05-2.92081E-05-3.82948E-06-9.73054E-21 2.23037E-18
 -1      3174 1.03384E-04-3.46992E-05-2.94293E-05-4.03173E-06-3.65434E-19 2.98296E-18
 -1      3175 1.00404E-04-3.27187E-05-2.89896E-05-1.06029E-06 3.46243E-19 2.71196E-18
 -1      3176 1.00780E-04-3.30962E-05-2.90273E-05-1.86845E-06 7.04278E-19 2.79722E-18
 -1      3177 1.02055E-04-3.41358E-05-2.91133E-05-1.83107E-06 3.91176E-19 3.07154E-18
 -1      3178 9.92147E-05-3.16990E-05-2.89174E-05 2.35755E-07 9.98962E-20 2.27153E-18
 -1      3179 9.96379E-05-3.21626E-05-2.89339E-05-3.52491E-07 1.09460E-19 2.41775E-18
 -1      3180 1.00516E-04-3.30273E-05-2.89353E-05-1.58895E-07 4.90863E-19 3.52792E-18
 -1      3181 9.81453E-05-3.07119E-05-2.88852E-05 1.05238E-06-6.59991E-19 2.37761E-18
 -1      3182 9.85434E-05-3.11527E-05-2.88927E-05 6.76370E-07-1.60133E-19 2.26691E-18
 -1      3183 9.90685E-05-3.17843E-05-2.88491E-05 9.44857E-07 1.74147E-19 3.02550E-18
 -1      3184 9.72756E-05-2.98873E-05-2.88697E-05 1.48036E-06-1.00951E-18 1.91168E-18
 -1      3185 9.76135E-05-3.02519E-05-2.88759E-05 1.27899E-06-9.21978E-19 1.98197E-18
 -1      3186 9.78642E-05-3.06572E-05-2.88149E-05 1.56454E-06-5.41416E-19 1.81594E-18
 -1      3187 9.66164E-05-2.92662E-05-2.88569E-05 1.62663E-06-2.74483E-19 1.55911E-18
 -1      3188 9.68848E-05-2.95393E-05-2.88656E-05 1.55407E-06-5.18863E-19 1.73079E-18
 -1      3189 9.69448E-05-2.97576E-05-2.88041E-05 1.82352E-06-5.65905E-19 9.54263E-19
 -1      3190 9.61425E-05-2.88379E-05-2.88403E-05 1.58795E-06 2.10220E-19 1.64881E-18
 -1      3191 9.63462E-05-2.90257E-05-2.88526E-05 1.60144E-06 1.73936E-19 1.91024E-18
 -1      3192 9.62885E-05-2.91062E-05-2.87995E-05 1.83963E-06-3.15637E-19 1.83073E-18
 -1      3193 9.58160E-05-2.85682E-05-2.88181E-05 1.44110E-06 4.99840E-19 1.27349E-18
 -1      3194 9.59658E-05-2.86865E-05-2.88335E-05 1.50586E-06 2.17274E-19 1.45057E-18
 -1      3195 9.58463E-05-2.86754E-05-2.87925E-05 1.70848E-06 4.04327E-19 2.18887E-18
 -1      3196 9.55988E-05-2.84169E-05-2.87912E-05 1.24188E-06 5.69842E-19 4.60677E-19
 -1      3197 9.57067E-05-2.84837E-05-2.88085E-05 1.33211E-06 5.67255E-19 6.55018E-19
 -1      3198 9.55642E-05-2.84187E-05-2.87800E-05 1.50042E-06 9.97112E-19 7.06264E-19
 -1      3199 9.54586E-05-2.83475E-05-2.87618E-05 1.02784E-06 3.00958E-19 1.94025E-19
 -1      3200 9.55352E-05-2.83787E-05-2.87796E-05 1.12586E-06 7.18191E-19 6.30008E-19
 -1      3201 9.53941E-05-2.82877E-05-2.87621E-05 1.26348E-06 6.67910E-19 4.47534E-19
 -1      3202 9.53705E-05-2.83303E-05-2.87319E-05 8.22228E-07-4.28324E-19 7.40020E-19
 -1      3203 9.54244E-05-2.83388E-05-2.87491E-05 9.16935E-07-3.27279E-19 6.58823E-19
 -1      3204 9.52983E-05-2.82407E-05-2.87404E-05 1.02815E-06-1.07010E-19-3.68938E-19
 -1      3205 9.53164E-05-2.83435E-05-2.87032E-05 6.37854E-07-8.10513E-19 5.29409E-19
 -1      3206 9.53541E-05-2.83387E-05-2.87191E-05 7.23025E-07-3.64750E-19 4.19203E-19
 -1      3207 9.52491E-05-2.82451E-05-2.87169E-05 8.11994E-07-4.41052E-19 4.34364E-19
 -1      3208 9.52837E-05-2.83720E-05-2.86771E-05 4.80370E-07 5.86039E-19 2.44531E-19
 -1      3209 9.53100E-05-2.83605E-05-2.86911E-05 5.53192E-07-5.91896E-20 2.61208E-19
 -1      3210 9.52274E-05-2.82776E-05-2.86933E-05 6.23648E-07-5.23855E-19-1.11306E-18
 -1      3211 9.52644E-05-2.84061E-05-2.86542E-05 3.50837E-07 4.30415E-19 5.41393E-19
 -1      3212 9.52827E-05-2.83920E-05-2.86661E-05 4.10709E-07 3.19269E-19 3.06849E-19
 -1      3213 9.52207E-05-2.83224E-05-2.86711E-05 4.65903E-07 1.03867E-19-6.36415E-19
 -1      3214 9.52531E-05-2.84399E-05-2.86347E-05 2.47600E-07 9.14014E-19 1.75346E-18
 -1      3215 9.52657E-05-2.84258E-05-2.86445E-05 2.95243E-07 9.47970E-19 1.29916E-18
 -1      3216 9.52215E-05-2.83698E-05-2.86510E-05 3.37965E-07-9.56734E-20 4.78334E-19
 -1      3217 9.52465E-05-2.84705E-05-2.86187E-05 1.67592E-07 8.61250E-19 2.13933E-18
 -1      3218 9.52551E-05-2.84577E-05-2.86266E-05 2.04419E-07 9.90692E-19 2.52108E-18
 -1      3219 9.52253E-05-2.84142E-05-2.86335E-05 2.37045E-07 6.71021E-19 2.03847E-18
 -1      3220 9.52427E-05-2.84965E-05-2.86058E-05 1.07202E-07-2.73878E-19 1.56571E-18
 -1      3221 9.52485E-05-2.84855E-05-2.86120E-05 1.34897E-07 2.00030E-20 1.48206E-18
 -1      3222 9.52297E-05-2.84528E-05-2.86188E-05 1.59440E-07 5.65852E-19 2.50352E-18
 -1      3223 9.52405E-05-2.85175E-05-2.85958E-05 6.28143E-08 1.28964E-19 9.64411E-19
 -1      3224 9.52442E-05-2.85085E-05-2.86005E-05 8.30697E-08 3.25308E-19 1.25682E-18
 -1      3225 9.52336E-05-2.84848E-05-2.86067E-05 1.01217E-07-1.21688E-20 1.92592E-18
 -1      3226 9.52391E-05-2.85341E-05-2.85881E-05 3.11164E-08 1.56345E-19 9.51520E-19
 -1      3227 9.52415E-05-2.85269E-05-2.85915E-05 4.54819E-08-3.56687E-19 1.09238E-18
 -1      3228 9.52365E-05-2.85102E-05-2.85971E-05 5.86352E-08 2.40933E-19 1.43112E-18
 -1      3229 9.52384E-05-2.85467E-05-2.85823E-05 9.25441E-09 4.50389E-19 7.74627E-19
 -1      3230 9.52398E-05-2.85412E-05-2.85848E-05 1.90612E-08 7.18176E-19 6.99641E-19
 -1      3231 9.52384E-05-2.85299E-05-2.85895E-05 2.83660E-08 7.90317E-20-1.05646E-19
 -1      3232 9.52380E-05-2.85563E-05-2.85780E-05-5.11080E-09-6.10040E-19 9.46432E-19
 -1      3233 9.52386E-05-2.85520E-05-2.85798E-05 1.22149E-09 5.44214E-19 9.39186E-19
 -1      3234 9.52395E-05-2.85447E-05-2.85836E-05 7.59581E-09 2.29943E-19 2.51642E-19
 -1      3235 9.52379E-05-2.85635E-05-2.85748E-05-1.38088E-08-1.18582E-19 3.39134E-19
 -1      3236 9.52380E-05-2.85602E-05-2.85761E-05-1.01119E-08-1.07458E-18-8.05772E-20
 -1      3237 9.52400E-05-2.85557E-05-2.85790E-05-5.95211E-09-3.52610E-19 5.78522E-19
 -1      3238 9.52381E-05-2.85693E-05-2.85724E-05-1.81422E-08 3.74093E-19 1.58170E-18
 -1      3239 9.52379E-05-2.85666E-05-2.85733E-05-1.65126E-08 2.74459E-19 1.26717E-18
 -1      3240 9.52402E-05-2.85641E-05-2.85755E-05-1.40470E-08-8.63681E-20-8.53439E-19
 -1      3241 9.52392E-05-2.85729E-05-2.85713E-05-1.88856E-08-7.59908E-19 1.23094E-19
 -1      3242 9.52384E-05-2.85709E-05-2.85717E-05-1.88252E-08 8.02136E-19 6.21394E-19
 -1      3243 9.52406E-05-2.85696E-05-2.85733E-05-1.74157E-08 4.27542E-19-6.29536E-19
 -1      3244 9.52413E-05-2.85737E-05-2.85719E-05-1.81787E-08 1.13448E-19-2.32539E-18
 -1      3245 9.52478E-05-2.85717E-05-2.85755E-05 4.83270E-09-4.38106E-19 3.03773E-19
 -1      3246 9.52478E-05-2.85714E-05-2.85756E-05 2.42312E-09-4.40989E-19 1.59706E-18
 -1      3247 9.52474E-05-2.85727E-05-2.85749E-05 9.69265E-09-1.48210E-19-1.62863E-18
 -1      3248 9.52478E-05-2.85725E-05-2.85752E-05 7.25901E-09-1.09387E-18-1.01047E-18
 -1      3249 9.52479E-05-2.85673E-05-2.85773E-05 5.37270E-09-1.38360E-18-9.50721E-19
 -1      3250 9.52476E-05-2.85710E-05-2.85757E-05 1.28416E-10 8.69175E-19 9.32387E-19
 -1      3251 9.52474E-05-2.85708E-05-2.85757E-05-2.24879E-09 7.34171E-19-6.15536E-19
 -1      3252 9.52477E-05-2.85660E-05-2.85778E-05 8.90520E-10 1.12861E-18 4.78962E-19
 -1      3253 1.02072E-04-3.38883E-05-2.92390E-05 3.48374E-06 4.93252E-20 6.44197E-19
 -1      3254 1.01930E-04-3.38709E-05-2.91561E-05 2.45036E-06 1.88488E-19 4.38344E-19
 -1      3255 1.02919E-04-3.46866E-05-2.92458E-05 1.43152E-06 4.59744E-20 3.77995E-19
 -1      3256 4.64025E-05-1.35495E-05-1.38472E-05 2.43084E-05-3.26955E-19 1.67130E-18
 -1      3257 3.72068E-05-9.19499E-06-1.12248E-05 1.24227E-05-8.65562E-19 1.25191E-18
 -1      3258 4.35730E-05-8.83882E-06-1.42448E-05 5.71078E-06-5.95676E-19 3.57766E-19
 -1      3259 1.09442E-04-5.24058E-05-2.47419E-05 3.35557E-05-9.33113E-19 1.89047E-18
 -1      3260 9.64478E-05-4.55895E-05-2.11418E-05 3.88838E-05-4.75344E-19 1.68004E-18
 -1      3261 9.90641E-05-3.12884E-05-2.90611E-05-1.28887E-06-1.70988E-19 5.25869E-19
 -1      3262 9.86779E-05-3.06666E-05-2.91227E-05-1.56193E-06-5.61548E-20 4.55603E-19
 -1      3263 1.00162E-04-3.25342E-05-2.90011E-05-2.84229E-07-4.01526E-19 3.59556E-19
 -1      3264 9.97497E-05-3.19793E-05-2.90201E-05-8.79967E-07-3.14358E-19 4.56099E-19
 -1      3265 1.01459E-04-3.35744E-05-2.91063E-05-4.06563E-07-9.59033E-20 3.33915E-19
 -1      3266 1.18077E-04-1.04941E-05-4.63736E-05 6.88162E-06 1.08875E-18 1.92885E-18
 -1      3267 1.15654E-04-8.45561E-06-4.63471E-05 1.99851E-07 1.11141E-18 1.17668E-18
 -1      3268 1.33483E-04-4.26976E-05-3.89606E-05 7.94643E-06-2.95932E-19 1.16472E-18
 -1      3269 1.30518E-04-3.63151E-05-4.09198E-05 1.07055E-05 2.21817E-20 1.92464E-18
 -1      3270 1.29469E-04-5.68004E-05-3.14129E-05 1.57086E-05-9.17443E-20-1.58408E-18
 -1      3271 1.22621E-04-5.63431E-05-2.80361E-05 2.41572E-05-5.29237E-19-1.95188E-19
 -1      3272 9.52459E-05-2.85735E-05-2.85739E-05 1.43869E-08-6.00899E-20-3.49559E-18
 -1      3273 9.52470E-05-2.85736E-05-2.85743E-05 1.21857E-08 2.46398E-19-3.10783E-18
 -1      3274 9.52475E-05-2.85691E-05-2.85764E-05 1.00800E-08-1.12845E-18-1.81920E-18
 -1      3275 1.17046E-04-1.14711E-05-4.56508E-05-7.47416E-06 1.17748E-18 3.28199E-19
 -1      3276 1.22281E-04-1.73533E-05-4.54057E-05-1.16757E-05 1.28897E-18-3.35637E-20
 -1      3277 1.02266E-04-3.32657E-05-2.95771E-05 5.71682E-06 2.96208E-19 9.25104E-19
 -1      3278 1.02460E-04-3.37886E-05-2.94335E-05 4.74123E-06 2.52979E-19 1.01149E-18
 -1      3279 1.04027E-04-3.49961E-05-2.95732E-05 3.81752E-06-9.93816E-21 8.20284E-19
 -1      3280 1.04320E-04-3.40060E-05-3.01070E-05 6.30248E-06 1.92324E-19 1.29624E-18
 -1      3281 1.26904E-04-2.63876E-05-4.32425E-05 1.28667E-05 3.50989E-19 2.22050E-18
 -1      3282 1.21689E-04-1.71318E-05-4.53642E-05 1.11249E-05 1.07425E-18 2.36081E-18
 -1      3283 1.24324E-04-3.06191E-05-4.03272E-05 1.21478E-05 4.01758E-19 1.77432E-18
 -1      3284 7.12116E-05-1.57329E-05-2.35895E-05-1.81374E-05-1.04656E-18 1.88156E-18
 -1      3285 7.25299E-05-1.48555E-05-2.48034E-05-1.59499E-05-9.41001E-19 1.36818E-18
 -1      3286 6.92872E-05-1.22954E-05-2.41703E-05-1.08954E-05-9.03731E-19 9.01547E-19
 -1      3287 5.58733E-05-1.22373E-05-1.82890E-05-1.56942E-05-8.40521E-19 1.31322E-18
 -1      3288 9.05558E-05-1.67724E-05-3.16274E-05-1.10031E-08 6.98416E-19 6.85143E-19
 -1      3289 9.00645E-05-1.62877E-05-3.16374E-05-6.03661E-07 5.78349E-19 5.76952E-19
 -1      3290 5.24812E-05-1.06329E-05-1.75372E-05 1.25217E-05 5.20356E-19 4.26322E-19
 -1      3291 4.73652E-05-1.04863E-05-1.51413E-05-1.40913E-05 3.04985E-19-7.77153E-20
 -1      3292 5.44701E-05-1.38517E-05-1.71509E-05-1.89720E-05 2.31425E-19-1.92276E-19
 -1      3293 4.80152E-05-9.06712E-06-1.65817E-05-6.07252E-06 3.80662E-19 5.49513E-20
 -1      3294 9.63614E-05-2.56221E-05-3.03155E-05 1.80810E-06 2.76301E-19 1.53718E-18
 -1      3295 9.63233E-05-2.49568E-05-3.05688E-05 3.28168E-06 2.55375E-19 1.68592E-18
 -1      3296 9.43037E-05-2.17761E-05-3.10710E-05 1.61968E-06 5.42955E-19 9.85080E-19
 -1      3297 9.31752E-05-1.98225E-05-3.14553E-05 2.33861E-06 6.21321E-19 8.93761E-19
 -1      3298 9.24599E-05-1.89322E-05-3.15222E-05 1.71145E-06 6.98576E-19 8.99111E-19
 -1      3299 9.81140E-05-2.99598E-05-2.92208E-05-1.61387E-06 1.57431E-19 7.09112E-19
 -1      3300 9.78055E-05-2.93123E-05-2.93286E-05-1.54342E-06 1.88118E-19 8.66101E-19
 -1      3301 9.87378E-05-3.04818E-05-2.92700E-05-1.90462E-06 1.19441E-19 5.76850E-19
 -1      3302 9.35316E-05-2.19207E-05-3.06989E-05 6.02112E-07 1.55958E-19-2.05061E-20
 -1      3303 9.24617E-05-2.09639E-05-3.06216E-05 7.28386E-07 7.57619E-20 7.40720E-20
 -1      3304 9.36753E-05-2.15246E-05-3.09104E-05-5.69201E-07 1.14530E-19-3.43677E-20
 -1      3305 1.34175E-04-4.10430E-05-4.01578E-05-8.03316E-06 7.91870E-19-1.08939E-18
 -1      3306 1.31369E-04-4.48923E-05-3.71303E-05-5.11210E-06 3.93870E-20-8.38589E-19
 -1      3307 1.29066E-04-3.61397E-05-4.00522E-05-1.11035E-05 6.44989E-19-7.81864E-19
 -1      3308 1.00777E-04-4.71882E-05-2.27574E-05-3.51157E-05-1.09654E-18-5.48414E-19
 -1      3309 1.17789E-04-5.36061E-05-2.75714E-05-2.30204E-05-1.15538E-18-4.02797E-19
 -1      3310 1.26623E-04-5.72085E-05-2.95820E-05-1.88837E-05-1.10506E-18-1.45015E-19
 -1      3311 1.28251E-04-5.48381E-05-3.16101E-05-1.04042E-05-6.51064E-19 3.83812E-19
 -1      3312 9.52401E-05-2.85748E-05-2.85708E-05 1.99896E-08-1.40607E-18-1.99805E-19
 -1      3313 1.10048E-04-1.12091E-05-4.24449E-05-1.60948E-07 8.34539E-19 9.07344E-19
 -1      3314 1.13658E-04-1.10061E-05-4.43864E-05-3.91872E-06 1.27288E-18 4.85006E-19
 -1      3315 1.11555E-04-1.44327E-05-4.17985E-05-7.01914E-06 1.00527E-18 3.43829E-19
 -1      3316 1.16329E-04-1.59494E-05-4.33443E-05 8.63681E-06 7.14578E-19 1.76712E-18
 -1      3317 9.52471E-05-2.85656E-05-2.85778E-05-3.31209E-09 1.47496E-18-9.55436E-19
 -1      3318 9.52471E-05-2.85708E-05-2.85756E-05-4.42185E-09 4.31233E-19-8.77385E-19
 -1      3319 9.52468E-05-2.85708E-05-2.85754E-05-6.68089E-09 7.79773E-19-1.25998E-18
 -1      3320 1.22572E-04-2.27710E-05-4.30744E-05-1.19741E-05 1.08484E-18-4.62692E-20
 -1      3321 9.52425E-05-2.85740E-05-2.85722E-05 1.87453E-08-5.58927E-19-2.84247E-18
 -1      3322 8.65890E-05-3.84573E-05-2.02926E-05 3.70683E-05 2.77668E-19 1.35621E-18
 -1      3323 9.52464E-05-2.85712E-05-2.85751E-05-8.77337E-09 1.07169E-18-2.04066E-18
 -1      3324 9.52458E-05-2.85712E-05-2.85748E-05-1.08642E-08 1.22929E-18-1.74245E-18
 -1      3325 9.52465E-05-2.85661E-05-2.85773E-05-7.31572E-09 1.04325E-18-2.25056E-18
 -1      3326 6.95230E-05-2.79351E-05-1.72495E-05-3.56445E-05-3.17743E-19-5.19443E-19
 -1      3327 7.90470E-05-3.34161E-05-1.94995E-05-3.57507E-05-5.17431E-19-3.12661E-19
 -1      3328 6.42970E-05-2.19505E-05-1.79476E-05-2.93528E-05 3.83282E-20-5.03773E-19
 -1      3329 5.49891E-05-1.78049E-05-1.52680E-05 2.88364E-05-3.48342E-19 1.69618E-18
 -1      3330 5.26478E-05-1.36863E-05-1.64989E-05 2.18540E-05-2.53739E-19 2.01250E-18
 -1      3331 6.33627E-05-2.29345E-05-1.73916E-05 3.22484E-05 2.19593E-19 1.21115E-18
 -1      3332 1.14783E-04-5.24705E-05-2.65830E-05 2.63779E-05-7.03461E-19 8.67415E-20
 -1      3333 1.32038E-04-5.47918E-05-3.30783E-05 8.53895E-06-1.48578E-20-1.63700E-18
 -1      3334 1.27103E-04-5.41874E-05-3.12732E-05 1.12639E-05-4.56630E-19-1.54985E-18
 -1      3335 1.31041E-04-5.08139E-05-3.46394E-05 1.53512E-06-1.76448E-19-1.39231E-18
 -1      3336 1.31437E-04-4.72578E-05-3.62150E-05 3.08070E-06-3.20830E-19 1.02163E-18
 -1      3337 9.01236E-05-1.64694E-05-3.15793E-05-2.35048E-06 5.78379E-19-8.94513E-21
 -1      3338 9.08544E-05-1.73254E-05-3.15429E-05-2.53887E-06 5.39998E-19-2.12754E-19
 -1      3339 9.52453E-05-2.85720E-05-2.85743E-05-1.25979E-08 1.64811E-18-1.67078E-18
 -1      3340 9.52445E-05-2.85721E-05-2.85739E-05-1.41699E-08 2.29776E-18-3.83426E-18
 -1      3341 9.52456E-05-2.85674E-05-2.85763E-05-1.09291E-08 2.65814E-18-1.85671E-18
 -1      3342 8.92655E-05-1.55102E-05-3.16164E-05-2.15295E-06 6.55791E-19 2.08856E-19
 -1      3343 8.96085E-05-1.59263E-05-3.16033E-05-2.41293E-06 6.20295E-19 1.71978E-19
 -1      3344 9.02865E-05-1.72799E-05-3.12654E-05-1.82817E-06 5.94588E-19 1.59357E-19
 -1      3345 9.73557E-05-2.85845E-05-2.94849E-05-1.24703E-06 1.82370E-19 1.04804E-18
 -1      3346 9.71347E-05-2.78836E-05-2.96503E-05-8.11292E-07 3.12507E-19 1.16101E-18
 -1      3347 9.77157E-05-2.88343E-05-2.95361E-05-1.57640E-06 3.48782E-19 8.69389E-19
 -1      3348 9.99998E-05-3.20850E-05-2.91233E-05-1.52327E-06-2.42382E-19 3.44396E-19
 -1      3349 9.36053E-05-2.05013E-05-3.13475E-05-2.34390E-06 2.30297E-19-1.59760E-19
 -1      3350 8.96327E-05-1.58133E-05-3.16407E-05-1.00431E-06 5.85907E-19 4.29072E-19
 -1      3351 8.93436E-05-1.55675E-05-3.16403E-05-1.48843E-06 6.47428E-19 2.91576E-19
 -1      3352 9.05916E-05-1.74584E-05-3.13278E-05-1.18050E-06 5.51208E-19 5.01079E-19
 -1      3353 9.52441E-05-2.85740E-05-2.85729E-05 1.72131E-08 6.11455E-19-2.88002E-18
 -1      3354 9.17744E-05-1.81232E-05-3.15756E-05 1.15967E-06 7.31187E-19 9.41365E-19
 -1      3355 9.11484E-05-1.74360E-05-3.16059E-05 5.07525E-07 6.93802E-19 8.43330E-19
 -1      3356 9.16752E-05-1.86008E-05-3.13048E-05-3.26891E-07 6.52557E-19 8.03572E-19
 -1      3357 9.29629E-05-2.00634E-05-3.12303E-05 6.78581E-07 6.34762E-19 9.14884E-19
 -1      3358 9.67123E-05-2.69843E-05-2.98936E-05-6.92620E-08 2.31630E-19 1.17845E-18
 -1      3359 9.65028E-05-2.61126E-05-3.01390E-05 8.42744E-07 1.44926E-19 1.31216E-18
 -1      3360 9.52451E-05-2.85706E-05-2.85747E-05 1.53816E-08 1.54602E-19-2.69057E-18
 -1      3361 9.68359E-05-2.69901E-05-2.99473E-05-4.58584E-07 2.67081E-19 1.02722E-18
 -1      3362 9.62219E-05-2.53495E-05-3.03929E-05 1.34006E-06 2.19503E-19 1.19240E-18
 -1      3363 1.00665E-04-2.22877E-05-3.35408E-05 5.62366E-06 3.86004E-19 8.08740E-19
 -1      3364 1.01651E-04-2.43748E-05-3.32183E-05 7.29906E-06 4.57765E-19 1.33638E-18
 -1      3365 1.03267E-04-2.69359E-05-3.26560E-05 8.59419E-06-9.26111E-21 1.41149E-18
 -1      3366 1.04473E-04-2.94731E-05-3.22160E-05 9.04227E-06-3.26812E-19 1.45593E-18
 -1      3367 1.04743E-04-2.53856E-05-3.39364E-05 8.90224E-06 1.45028E-19 9.46179E-19
 -1      3368 9.11343E-05-2.05811E-05-3.02482E-05 1.23466E-06 1.05760E-19 3.13453E-19
 -1      3369 9.04140E-05-2.05767E-05-2.99578E-05 2.15278E-06 2.31544E-19 5.20396E-19
 -1      3370 8.94262E-05-2.03480E-05-2.96180E-05 2.65066E-06 3.05332E-19 4.93604E-19
 -1      3371 8.81943E-05-1.98983E-05-2.93070E-05 3.33838E-06 3.55855E-19 6.05305E-19
 -1      3372 8.93005E-05-1.98012E-05-2.97435E-05 1.26821E-06 3.25471E-19 7.48178E-19
 -1      3373 8.66066E-05-1.92252E-05-2.89012E-05 3.53158E-06 2.51705E-19 6.34687E-19
 -1      3374 8.47522E-05-1.83776E-05-2.84969E-05 3.97777E-06 3.68832E-19 3.81673E-19
 -1      3375 8.68130E-05-1.90682E-05-2.89788E-05 1.74361E-06 3.21698E-19 6.12539E-19
 -1      3376 8.24366E-05-1.73314E-05-2.79402E-05 3.82901E-06 3.10964E-19 4.13626E-19
 -1      3377 7.97737E-05-1.61653E-05-2.73284E-05 4.03689E-06 2.94728E-19 3.47435E-19
 -1      3378 8.30484E-05-1.75407E-05-2.79973E-05 1.45515E-06 2.54370E-19 3.39445E-19
 -1      3379 7.66943E-05-1.49329E-05-2.65313E-05 3.53281E-06 4.69073E-19 2.51580E-19
 -1      3380 7.31808E-05-1.36418E-05-2.55984E-05 3.55708E-06 3.69379E-19 2.63010E-19
 -1      3381 7.78593E-05-1.54540E-05-2.66285E-05 2.87635E-07 3.44532E-19 8.65463E-20
 -1      3382 6.86497E-05-1.22260E-05-2.42591E-05 2.63376E-06 2.04525E-19 4.13921E-19
 -1      3383 6.33782E-05-1.08887E-05-2.25808E-05 2.66015E-06 4.14646E-19 2.43297E-19
 -1      3384 7.06492E-05-1.30072E-05-2.45066E-05-1.92711E-06 3.75514E-19 8.90278E-20
 -1      3385 7.94953E-05-1.62716E-05-2.71512E-05-4.96682E-06-4.48567E-19-1.55010E-19
 -1      3386 8.20180E-05-1.76360E-05-2.76440E-05-4.61699E-06-1.64850E-19 1.44802E-19
 -1      3387 8.44156E-05-1.89982E-05-2.80754E-05-4.70337E-06-8.44932E-20 8.81899E-20
 -1      3388 8.61845E-05-2.01695E-05-2.83283E-05-4.31792E-06-1.84447E-19 5.71030E-19
 -1      3389 8.21084E-05-1.78052E-05-2.74754E-05-2.33649E-06 2.99522E-21 3.58361E-19
 -1      3390 8.78930E-05-2.13029E-05-2.85637E-05-4.25101E-06-1.44383E-19 1.27394E-18
 -1      3391 8.91062E-05-2.22468E-05-2.86801E-05-3.84684E-06 1.22725E-20 1.49079E-18
 -1      3392 8.60751E-05-2.02321E-05-2.81615E-05-2.71409E-06 2.31845E-19 3.98077E-19
 -1      3393 9.03127E-05-2.31451E-05-2.88005E-05-3.68586E-06 4.15984E-19 1.82578E-18
 -1      3394 9.11267E-05-2.38751E-05-2.88413E-05-3.29326E-06 9.06646E-19 1.92636E-18
 -1      3395 8.88997E-05-2.22271E-05-2.85349E-05-2.71810E-06 5.08971E-19 9.30254E-19
 -1      3396 9.19353E-05-2.45360E-05-2.88932E-05-3.10001E-06 6.81495E-19 1.38385E-18
 -1      3397 9.24511E-05-2.50623E-05-2.88952E-05-2.75722E-06 7.91728E-19 1.39430E-18
 -1      3398 9.08488E-05-2.37693E-05-2.87211E-05-2.51021E-06 6.90958E-19 1.09131E-18
 -1      3399 9.30450E-05-2.55896E-05-2.89130E-05-2.54162E-06 1.12821E-18 9.86293E-19
 -1      3400 9.34010E-05-2.60027E-05-2.88957E-05-2.22830E-06 4.28249E-19 1.19324E-18
 -1      3401 9.22185E-05-2.49692E-05-2.88029E-05-2.19271E-06 9.09400E-19 7.31566E-19
 -1      3402 9.38096E-05-2.63954E-05-2.88929E-05-2.02409E-06-8.93114E-19 7.72185E-19
 -1      3403 9.40371E-05-2.66974E-05-2.88677E-05-1.76089E-06-1.60010E-18 5.65495E-19
 -1      3404 9.31947E-05-2.59039E-05-2.88267E-05-1.83430E-06-3.39142E-19 9.08040E-19
 -1      3405 9.43160E-05-2.69870E-05-2.88550E-05-1.57920E-06-1.42605E-18 4.46587E-19
 -1      3406 9.44596E-05-2.72074E-05-2.88282E-05-1.36397E-06-5.58760E-19 1.18411E-18
 -1      3407 9.38650E-05-2.66052E-05-2.88176E-05-1.48644E-06-1.54770E-18 1.24434E-18
 -1      3408 9.46491E-05-2.74200E-05-2.88115E-05-1.20925E-06-6.98515E-19 9.44057E-19
 -1      3409 9.47388E-05-2.75807E-05-2.87863E-05-1.03694E-06-7.59260E-19 1.63646E-18
 -1      3410 9.43226E-05-2.71274E-05-2.87928E-05-1.17315E-06-7.14771E-19 1.45063E-18
 -1      3411 9.48670E-05-2.77366E-05-2.87689E-05-9.09401E-07-8.75758E-19 8.66688E-19
 -1      3412 9.49223E-05-2.78538E-05-2.87467E-05-7.73960E-07-7.54923E-19 4.34692E-19
 -1      3413 9.46336E-05-2.75149E-05-2.87619E-05-9.04548E-07-1.25842E-18 2.04729E-19
 -1      3414 9.50054E-05-2.79630E-05-2.87312E-05-6.76516E-07 9.04292E-20 6.21007E-19
 -1      3415 9.50376E-05-2.80454E-05-2.87132E-05-5.75644E-07 7.38518E-19 5.59799E-20
 -1      3416 9.48401E-05-2.77962E-05-2.87311E-05-6.87038E-07-3.87630E-19 4.85105E-19
 -1      3417 9.50966E-05-2.81306E-05-2.86986E-05-4.93756E-07 1.26048E-18-2.78688E-19
 -1      3418 9.51172E-05-2.81945E-05-2.86828E-05-4.12477E-07 1.08445E-18-2.37850E-19
 -1      3419 9.49804E-05-2.80051E-05-2.87024E-05-5.11217E-07 5.03958E-19 1.14764E-18
 -1      3420 9.51567E-05-2.82568E-05-2.86704E-05-3.49374E-07 2.17065E-18-5.96256E-19
 -1      3421 9.51687E-05-2.83036E-05-2.86577E-05-2.88101E-07 2.34355E-18 3.50703E-19
 -1      3422 9.50776E-05-2.81645E-05-2.86763E-05-3.68534E-07 1.52362E-18 1.33437E-18
 -1      3423 9.51947E-05-2.83492E-05-2.86473E-05-2.40245E-07 1.74233E-18 2.03410E-19
 -1      3424 9.52015E-05-2.83834E-05-2.86371E-05-1.94744E-07 1.89721E-18 6.53495E-19
 -1      3425 9.51422E-05-2.82820E-05-2.86539E-05-2.58441E-07 2.14224E-18 4.10277E-19
 -1      3426 9.52183E-05-2.84166E-05-2.86287E-05-1.59111E-07 1.43436E-18 4.23421E-19
 -1      3427 9.52218E-05-2.84416E-05-2.86207E-05-1.25855E-07 6.82176E-19-3.66158E-19
 -1      3428 9.51847E-05-2.83684E-05-2.86353E-05-1.75103E-07 1.47706E-18 3.71003E-19
 -1      3429 9.52324E-05-2.84655E-05-2.86139E-05-9.98322E-08 3.83072E-19-4.60662E-19
 -1      3430 9.52341E-05-2.84836E-05-2.86078E-05-7.59974E-08 1.80064E-19-8.92676E-19
 -1      3431 9.52119E-05-2.84316E-05-2.86200E-05-1.13227E-07 6.86109E-19-1.03413E-18
 -1      3432 9.52402E-05-2.84999E-05-2.86026E-05-5.82709E-08 1.18181E-18 6.58023E-20
 -1      3433 9.52407E-05-2.85125E-05-2.85981E-05-4.21337E-08 3.03179E-18 1.01271E-18
 -1      3434 9.52285E-05-2.84764E-05-2.86080E-05-6.90835E-08 1.40843E-18-1.13062E-18
 -1      3435 9.52443E-05-2.85249E-05-2.85937E-05-2.88931E-08 3.47926E-18 1.23067E-18
 -1      3436 9.52442E-05-2.85344E-05-2.85901E-05-1.72470E-08 3.43096E-18 1.85703E-18
 -1      3437 9.52383E-05-2.85087E-05-2.85984E-05-3.75764E-08 3.24824E-18 5.68085E-19
 -1      3438 9.52459E-05-2.85431E-05-2.85867E-05-8.36078E-09 2.95320E-18 1.06100E-18
 -1      3439 9.52455E-05-2.85498E-05-2.85840E-05-7.28454E-10 2.14751E-18 5.31255E-19
 -1      3440 9.52437E-05-2.85324E-05-2.85906E-05-1.50733E-08 2.55050E-18-5.24113E-19
 -1      3441 9.52460E-05-2.85560E-05-2.85813E-05 4.97500E-09 1.14412E-18 8.78233E-19
 -1      3442 9.52455E-05-2.85608E-05-2.85792E-05 9.52537E-09-2.22989E-19 2.25049E-19
 -1      3443 9.52460E-05-2.85492E-05-2.85844E-05-1.29196E-10 1.10211E-18-5.01312E-19
 -1      3444 9.52456E-05-2.85639E-05-2.85777E-05 1.17427E-08-1.53658E-18-4.96984E-19
 -1      3445 9.52452E-05-2.85678E-05-2.85760E-05 1.42018E-08-5.41658E-19-2.02643E-18
 -1      3446 9.52470E-05-2.85670E-05-2.85772E-05 1.14518E-08-1.67491E-18-2.77202E-18
 -1      3447 9.52468E-05-2.85599E-05-2.85802E-05 7.98020E-09-1.29943E-18-1.49751E-18
 -1      3448 1.05558E-04-3.18236E-05-3.15810E-05 8.56801E-06-2.39634E-19 1.45850E-18
 -1      3449 1.06368E-04-3.37732E-05-3.11470E-05 7.95456E-06-1.73594E-19 1.56716E-18
 -1      3450 1.07623E-04-3.13838E-05-3.26132E-05 9.35436E-06-9.15540E-20 1.45503E-18
 -1      3451 9.92272E-05-2.00454E-05-3.39459E-05 2.51901E-07 3.92726E-19 8.56125E-19
 -1      3452 9.95237E-05-2.06520E-05-3.38556E-05 2.79690E-06 3.10666E-19 7.99932E-19
 -1      3453 1.02070E-04-2.05685E-05-3.48860E-05 4.92060E-06 5.50423E-19 1.42336E-18
 -1      3454 1.00073E-04-2.16052E-05-3.36852E-05-5.39182E-06 2.75880E-19 7.09430E-19
 -1      3455 9.94791E-05-2.04034E-05-3.38660E-05-3.04192E-06 3.06464E-19 5.18298E-19
 -1      3456 1.01164E-04-1.92670E-05-3.51053E-05-1.53899E-06 4.68140E-19 7.71185E-19
 -1      3457 1.02531E-04-2.59439E-05-3.28969E-05-9.05484E-06 1.61565E-19 6.51693E-19
 -1      3458 1.01385E-04-2.36152E-05-3.32684E-05-7.71689E-06 1.76747E-19 4.77525E-19
 -1      3459 1.02749E-04-2.20163E-05-3.45871E-05-7.24145E-06 4.30428E-19 5.38356E-19
 -1      3460 1.05026E-04-3.08854E-05-3.18379E-05-9.69798E-06-2.23421E-19 1.09831E-18
 -1      3461 1.03973E-04-2.85395E-05-3.22856E-05-9.63535E-06-2.66766E-20 8.61035E-19
 -1      3462 1.05664E-04-2.75435E-05-3.34519E-05-1.00440E-05-1.19208E-19 7.07991E-19
 -1      3463 1.06287E-04-3.44809E-05-3.07981E-05-7.97894E-06-1.03320E-18 2.47263E-18
 -1      3464 1.05762E-04-3.29065E-05-3.12110E-05-8.84544E-06-5.53610E-19 1.93712E-18
 -1      3465 1.07870E-04-3.28531E-05-3.20915E-05-9.51953E-06-1.04146E-18 1.27764E-18
 -1      3466 1.05956E-04-3.60284E-05-2.99648E-05-5.22511E-06-7.85104E-19 2.82646E-18
 -1      3467 1.06038E-04-3.54142E-05-3.02844E-05-6.45859E-06-8.60461E-19 2.72733E-18
 -1      3468 1.08315E-04-3.62659E-05-3.08510E-05-6.82131E-06-1.08593E-18 1.95726E-18
 -1      3469 1.04483E-04-3.58676E-05-2.93842E-05-2.49994E-06-2.44133E-19 2.52254E-18
 -1      3470 1.05023E-04-3.60189E-05-2.95997E-05-3.68946E-06-2.87663E-19 2.49109E-18
 -1      3471 1.07065E-04-3.72711E-05-2.99108E-05-3.63437E-06-4.88833E-19 1.72759E-18
 -1      3472 1.02501E-04-3.46959E-05-2.90303E-05-3.64251E-07 9.22451E-19 2.38591E-18
 -1      3473 1.03255E-04-3.52750E-05-2.91574E-05-1.30426E-06 8.67671E-20 2.36450E-18
 -1      3474 1.04837E-04-3.65367E-05-2.92862E-05-9.03546E-07 2.25900E-19 1.10707E-18
 -1      3475 1.00515E-04-3.31495E-05-2.88438E-05 1.05484E-06 2.15975E-19 3.00884E-18
 -1      3476 1.01289E-04-3.38724E-05-2.89084E-05 4.13829E-07 5.77450E-19 2.96530E-18
 -1      3477 1.02360E-04-3.49230E-05-2.89248E-05 9.86883E-07 4.92354E-19 1.60674E-18
 -1      3478 9.88092E-05-3.16464E-05-2.87627E-05 1.84837E-06 1.29356E-19 2.36718E-18
 -1      3479 9.94887E-05-3.23329E-05-2.87896E-05 1.47328E-06 4.19334E-19 2.99334E-18
 -1      3480 1.00111E-04-3.30923E-05-2.87466E-05 2.07400E-06 3.52637E-19 2.81141E-18
 -1      3481 9.74880E-05-3.03955E-05-2.87386E-05 2.17961E-06-1.70590E-19 1.13855E-18
 -1      3482 9.80266E-05-3.09591E-05-2.87464E-05 2.00744E-06 1.14044E-19 1.88631E-18
 -1      3483 9.83083E-05-3.14393E-05-2.86791E-05 2.54883E-06 5.44606E-19 1.59937E-18
 -1      3484 9.65416E-05-2.94598E-05-2.87394E-05 2.20580E-06-7.56319E-19 1.56660E-18
 -1      3485 9.69377E-05-2.98773E-05-2.87402E-05 2.17311E-06-9.09295E-19 1.25457E-18
 -1      3486 9.69885E-05-3.01310E-05-2.86693E-05 2.61947E-06-4.01261E-19 8.20421E-19
 -1      3487 9.59092E-05-2.88215E-05-2.87462E-05 2.05127E-06-7.36685E-19 1.86973E-18
 -1      3488 9.61831E-05-2.91039E-05-2.87465E-05 2.10531E-06-6.11419E-19 1.82395E-18
 -1      3489 9.60938E-05-2.91930E-05-2.86832E-05 2.45296E-06-5.44919E-19 1.52058E-18
 -1      3490 9.55153E-05-2.84267E-05-2.87494E-05 1.80465E-06 8.97022E-19 1.02332E-18
 -1      3491 9.56944E-05-2.85999E-05-2.87523E-05 1.90607E-06 1.33777E-19 1.31873E-18
 -1      3492 9.55325E-05-2.85804E-05-2.87013E-05 2.16713E-06-1.11788E-20 7.36900E-19
 -1      3493 9.52895E-05-2.82134E-05-2.87460E-05 1.52451E-06 1.53496E-18 1.02404E-19
 -1      3494 9.54002E-05-2.83060E-05-2.87521E-05 1.64607E-06 1.55450E-18 9.85519E-19
 -1      3495 9.52117E-05-2.82227E-05-2.87143E-05 1.83788E-06 1.07423E-18 2.11665E-19
 -1      3496 9.51747E-05-2.81247E-05-2.87359E-05 1.24684E-06 2.67210E-19 2.23171E-19
 -1      3497 9.52390E-05-2.81624E-05-2.87447E-05 1.37093E-06 1.00405E-18 1.96532E-19
 -1      3498 9.50526E-05-2.80480E-05-2.87190E-05 1.51046E-06 1.67594E-18 6.54006E-21
 -1      3499 9.51285E-05-2.81151E-05-2.87208E-05 9.91870E-07 1.74600E-19-5.78503E-19
 -1      3500 9.51630E-05-2.81183E-05-2.87313E-05 1.10801E-06 1.99788E-19-7.73803E-20
 -1      3501 9.49947E-05-2.79949E-05-2.87156E-05 1.20941E-06 8.02941E-19-3.03765E-19
 -1      3502 9.51213E-05-2.81507E-05-2.87027E-05 7.69311E-07-7.65902E-19-2.46035E-19
 -1      3503 9.51378E-05-2.81343E-05-2.87139E-05 8.72040E-07-1.55501E-19-5.04145E-19
 -1      3504 9.49950E-05-2.80158E-05-2.87060E-05 9.46181E-07 1.96581E-19-8.61121E-19
 -1      3505 9.51339E-05-2.82082E-05-2.86835E-05 5.82169E-07-5.31077E-19-2.50481E-19
 -1      3506 9.51401E-05-2.81825E-05-2.86945E-05 6.69353E-07-1.14004E-18-7.26566E-19
 -1      3507 9.50246E-05-2.80764E-05-2.86923E-05 7.24136E-07-8.23357E-19-9.28790E-19
 -1      3508 9.51543E-05-2.82726E-05-2.86646E-05 4.29472E-07 1.69859E-19-4.88351E-19
 -1      3509 9.51552E-05-2.82440E-05-2.86749E-05 5.01063E-07 4.33220E-19-6.54320E-19
 -1      3510 9.50656E-05-2.81537E-05-2.86765E-05 5.42034E-07-2.82802E-19-3.67618E-19
 -1      3511 9.51759E-05-2.83348E-05-2.86471E-05 3.08054E-07-7.21039E-19 7.58795E-20
 -1      3512 9.51744E-05-2.83073E-05-2.86562E-05 3.65215E-07-9.53445E-19-3.72662E-19
 -1      3513 9.51075E-05-2.82334E-05-2.86602E-05 3.96208E-07-4.16157E-19-3.12708E-19
 -1      3514 9.51953E-05-2.83903E-05-2.86314E-05 2.13740E-07 3.17582E-20 1.51203E-18
 -1      3515 9.51931E-05-2.83659E-05-2.86394E-05 2.58244E-07 6.42060E-21 1.32394E-18
 -1      3516 9.51449E-05-2.83073E-05-2.86445E-05 2.81900E-07-1.22288E-18 4.21496E-19
 -1      3517 9.52110E-05-2.84370E-05-2.86180E-05 1.42100E-07 8.49009E-19 1.22721E-18
 -1      3518 9.52089E-05-2.84165E-05-2.86246E-05 1.75930E-07 9.76809E-19 1.70623E-18
 -1      3519 9.51757E-05-2.83715E-05-2.86302E-05 1.94090E-07 4.74427E-19 1.08584E-18
 -1      3520 9.52228E-05-2.84748E-05-2.86067E-05 8.88980E-08 1.08002E-19 5.18871E-19
 -1      3521 9.52211E-05-2.84582E-05-2.86122E-05 1.14002E-07 5.62014E-19 7.93052E-19
 -1      3522 9.51994E-05-2.84246E-05-2.86177E-05 1.27972E-07 1.03967E-18-9.24044E-20
 -1      3523 9.52311E-05-2.85043E-05-2.85975E-05 5.03323E-08-1.77967E-20 2.13248E-19
 -1      3524 9.52299E-05-2.84913E-05-2.86019E-05 6.84854E-08 3.28800E-19 4.74734E-19
 -1      3525 9.52167E-05-2.84669E-05-2.86070E-05 7.92183E-08 4.59604E-21-1.11152E-18
 -1      3526 9.52365E-05-2.85267E-05-2.85901E-05 2.31520E-08-5.12101E-19 8.75915E-19
 -1      3527 9.52358E-05-2.85168E-05-2.85935E-05 3.58854E-08-1.91997E-19 2.73191E-19
 -1      3528 9.52285E-05-2.84996E-05-2.85981E-05 4.40939E-08 5.81855E-21 1.71415E-19
 -1      3529 9.52397E-05-2.85434E-05-2.85843E-05 4.67767E-09 2.51859E-19 8.98297E-19
 -1      3530 9.52393E-05-2.85360E-05-2.85869E-05 1.32568E-08 4.90295E-20 5.43674E-19
 -1      3531 9.52360E-05-2.85243E-05-2.85907E-05 1.94838E-08-2.42747E-19 9.54480E-19
 -1      3532 9.52413E-05-2.85557E-05-2.85796E-05-7.20956E-09 1.52312E-19-8.38070E-19
 -1      3533 9.52412E-05-2.85502E-05-2.85817E-05-1.78290E-09 3.56753E-19 4.95452E-20
 -1      3534 9.52404E-05-2.85425E-05-2.85848E-05 2.87437E-09 5.15140E-19 1.81142E-19
 -1      3535 9.52419E-05-2.85649E-05-2.85759E-05-1.41383E-08-2.71827E-19-1.72630E-18
 -1      3536 9.52418E-05-2.85607E-05-2.85775E-05-1.11119E-08-5.26338E-20-1.33277E-18
 -1      3537 9.52425E-05-2.85559E-05-2.85800E-05-7.70910E-09 4.88235E-19-1.22186E-18
 -1      3538 9.52476E-05-2.85624E-05-2.85794E-05 5.06819E-09-8.01537E-19-2.69073E-18
 -1      3539 9.52475E-05-2.85615E-05-2.85797E-05 2.95051E-09 4.15977E-19-1.33168E-18
 -1      3540 9.52471E-05-2.85604E-05-2.85800E-05 1.22827E-09 6.45455E-19 6.64957E-19
 -1      3541 9.52468E-05-2.85599E-05-2.85801E-05-6.99888E-10 2.02072E-18-6.58743E-19
 -1      3542 9.52467E-05-2.85547E-05-2.85822E-05 1.03543E-09 2.87061E-19-8.89238E-19
 -1      3543 1.21650E-04-3.39350E-05-3.76486E-05 1.13836E-05 2.33516E-19 1.66607E-18
 -1      3544 1.17569E-04-2.61681E-05-3.95126E-05 1.22012E-05 4.99485E-19 1.62360E-18
 -1      3545 1.17184E-04-2.14753E-05-4.11678E-05-1.22068E-05 3.59407E-19-2.18376E-19
 -1      3546 1.24316E-04-2.90737E-05-4.10747E-05-1.29885E-05 3.72536E-19-5.97291E-19
 -1      3547 7.26321E-05-1.33101E-05-2.54751E-05-5.04672E-06-9.21360E-19 1.45379E-19
 -1      3548 7.61377E-05-1.47351E-05-2.63869E-05-4.68470E-06-7.78188E-19-3.28950E-19
 -1      3549 7.65800E-05-1.49970E-05-2.62633E-05-1.41690E-06-4.55337E-19-1.81768E-19
 -1      3550 9.34456E-05-4.04209E-05-2.27737E-05 3.31225E-05-2.88785E-19 8.47456E-19
 -1      3551 7.87266E-05-3.11673E-05-1.98006E-05 3.48415E-05 4.12240E-19 8.75514E-19
 -1      3552 9.68334E-05-2.69956E-05-2.99414E-05-1.06004E-06 3.16731E-19 8.47196E-19
 -1      3553 9.63948E-05-2.58930E-05-3.02039E-05-2.16209E-07 3.03900E-19 8.56602E-19
 -1      3554 9.57539E-05-2.43834E-05-3.05801E-05 1.21547E-06 3.11920E-19 9.42680E-19
 -1      3555 9.17338E-05-1.92601E-05-3.10432E-05-9.86599E-07 3.23233E-19-9.68856E-20
 -1      3556 9.19020E-05-1.88033E-05-3.13364E-05-1.85243E-06 3.53484E-19-1.92662E-19
 -1      3557 9.32413E-05-4.07384E-05-2.20275E-05-3.44026E-05-6.41786E-19-5.04805E-19
 -1      3558 1.04184E-04-4.68197E-05-2.46381E-05-2.99660E-05-7.87767E-19-5.42710E-19
 -1      3559 1.02616E-04-3.46283E-05-2.91570E-05-9.27061E-07 8.17668E-20 4.55961E-19
 -1      3560 1.01856E-04-3.38112E-05-2.91290E-05-1.61175E-06-2.45486E-19 5.36450E-19
 -1      3561 9.26975E-05-1.97507E-05-3.12759E-05-1.84873E-06 2.61875E-19-1.66972E-19
 -1      3562 1.00780E-04-3.28219E-05-2.91376E-05-2.05248E-06-2.85208E-19 5.54828E-19
 -1      3563 1.00083E-04-3.19179E-05-2.91835E-05-2.36486E-06-1.86957E-19 6.86308E-19
 -1      3564 1.01750E-04-3.37601E-05-2.91655E-05-2.61369E-06-2.28535E-19 6.30203E-19
 -1      3565 8.91504E-05-1.53471E-05-3.16344E-05-1.72452E-06 6.53190E-19 2.62427E-19
 -1      3566 8.91384E-05-1.53968E-05-3.16284E-05-2.09120E-06 6.85724E-19 1.89703E-19
 -1      3567 8.97033E-05-1.66266E-05-3.13012E-05-1.95077E-06 5.94494E-19 3.02253E-19
 -1      3568 1.04506E-04-3.60169E-05-2.93762E-05 1.01759E-06-9.52275E-20 1.04184E-18
 -1      3569 1.03826E-04-3.54916E-05-2.92544E-05-2.47992E-08 6.52277E-20 7.71274E-19
 -1      3570 1.04057E-04-3.58595E-05-2.92520E-05-1.40330E-06-2.68524E-19 6.80026E-19
 -1      3571 6.37446E-05-1.07651E-05-2.26788E-05-5.27677E-06-6.70614E-19 2.51926E-19
 -1      3572 6.81202E-05-1.18325E-05-2.42129E-05-4.72002E-06-6.58125E-19 2.02037E-19
 -1      3573 6.89697E-05-1.19157E-05-2.42286E-05 1.50531E-07-8.63965E-19-6.62471E-19
 -1      3574 1.29828E-04-5.06161E-05-3.38335E-05-5.38316E-07-4.97751E-19 9.85629E-19
 -1      3575 1.26677E-04-4.34742E-05-3.58120E-05 6.62020E-06-3.12079E-19 1.52867E-18
 -1      3576 9.52474E-05-2.85651E-05-2.85781E-05 9.20222E-09-2.09289E-18-2.72355E-18
 -1      3577 9.52477E-05-2.85642E-05-2.85787E-05 6.96479E-09-1.96238E-18-1.24367E-18
 -1      3578 9.52474E-05-2.85578E-05-2.85812E-05 4.19820E-09 1.26086E-20-3.75022E-18
 -1      3579 9.52474E-05-2.85614E-05-2.85796E-05 7.94409E-09-2.04264E-18-2.17735E-18
 -1      3580 1.14395E-04-1.95760E-05-4.06880E-05 1.11121E-05 5.97608E-19 1.46767E-18
 -1      3581 1.10719E-04-1.44271E-05-4.15971E-05 6.43547E-06 5.67671E-19 1.01641E-18
 -1      3582 1.12903E-04-2.39701E-05-3.81143E-05 1.09453E-05 2.84206E-19 1.28582E-18
 -1      3583 9.52437E-05-2.85731E-05-2.85731E-05-1.56575E-08 1.23858E-18-5.65517E-18
 -1      3584 9.52425E-05-2.85730E-05-2.85726E-05-1.68895E-08 6.24503E-19-3.17731E-18
 -1      3585 9.52422E-05-2.85710E-05-2.85734E-05-1.67905E-08 1.25045E-18-3.08660E-18
 -1      3586 9.52442E-05-2.85693E-05-2.85750E-05-1.41502E-08 2.55042E-18-3.53022E-18
 -1      3587 1.18661E-04-5.27985E-05-2.83352E-05 1.99474E-05-5.64230E-19-3.07400E-19
 -1      3588 1.08293E-04-4.83256E-05-2.55336E-05 2.74346E-05-1.07291E-18 4.41106E-19
 -1      3589 9.58198E-05-2.47820E-05-3.04412E-05 2.73277E-07 3.74643E-19 8.47241E-19
 -1      3590 9.50292E-05-2.31792E-05-3.08041E-05 1.06027E-06 4.52993E-19 8.91942E-19
 -1      3591 9.43793E-05-2.22572E-05-3.09087E-05 6.73239E-07 6.01050E-19 8.29920E-19
 -1      3592 9.57118E-05-2.47444E-05-3.04157E-05-3.75164E-07 4.04304E-19 7.06417E-19
 -1      3593 1.08328E-04-1.49478E-05-4.01693E-05 2.81965E-06 6.60580E-19 9.52211E-19
 -1      3594 9.92059E-05-3.09249E-05-2.92724E-05-2.41496E-06 1.60570E-19 6.28600E-19
 -1      3595 9.86308E-05-3.00133E-05-2.93808E-05-2.36963E-06 3.81460E-19 7.50231E-19
 -1      3596 9.97951E-05-3.15536E-05-2.92712E-05-2.97663E-06 2.78739E-20 7.78128E-19
 -1      3597 1.23919E-04-3.42192E-05-3.85825E-05-1.12224E-05-1.45928E-19-1.08163E-18
 -1      3598 9.15093E-05-2.03973E-05-3.04943E-05 7.39531E-07 1.53072E-19 1.27232E-19
 -1      3599 9.06138E-05-1.97734E-05-3.03420E-05 3.74986E-07 3.30870E-19 4.64128E-19
 -1      3600 9.17690E-05-2.01265E-05-3.07244E-05-1.21852E-07 2.94821E-19 6.57551E-20
 -1      3601 5.97140E-05-1.07970E-05-2.05846E-05-7.48796E-06 3.66057E-19 8.32739E-20
 -1      3602 5.67844E-05-9.95156E-06-1.99032E-05-4.99673E-07 4.28757E-19 2.61998E-19
 -1      3603 7.33441E-05-2.61357E-05-1.99732E-05 3.02029E-05 2.95667E-20 1.26139E-18
 -1      3604 4.86224E-05-8.81275E-06-1.69653E-05 7.52092E-06-7.80991E-19 9.17548E-19
 -1      3605 4.75044E-05-7.65826E-06-1.62481E-05-2.82111E-06-1.29428E-18 5.55601E-19
 -1      3606 1.12010E-04-5.00657E-05-2.62840E-05-2.55548E-05-9.42734E-19-2.81063E-19
 -1      3607 1.16861E-04-5.13111E-05-2.81797E-05-1.90515E-05-9.64010E-19-3.72680E-19
 -1      3608 1.04082E-04-4.47715E-05-2.54606E-05-2.62808E-05-6.65080E-19-3.82554E-19
 -1      3609 1.08906E-04-3.57803E-05-3.12981E-05 7.13568E-06-1.26226E-19 1.22376E-18
 -1      3610 1.06517E-04-3.51629E-05-3.05915E-05 6.49296E-06-8.93967E-20 1.54492E-18
 -1      3611 1.06687E-04-3.61181E-05-3.02420E-05 5.29544E-06 5.16293E-20 1.03241E-18
 -1      3612 1.25417E-04-5.15250E-05-3.17687E-05-6.08939E-06-5.39557E-19 7.65202E-19
 -1      3613 1.26656E-04-4.33054E-05-3.57880E-05-6.38123E-06-1.86427E-19-1.05755E-18
 -1      3614 1.29921E-04-4.77471E-05-3.53178E-05-2.35675E-06-2.83108E-19-1.15387E-18
 -1      3615 1.26890E-04-4.91767E-05-3.34223E-05 1.06374E-06-8.80914E-20-8.53002E-19
 -1      3616 5.95445E-05-1.39896E-05-1.95350E-05-1.64182E-05 2.26714E-19-1.92647E-19
 -1      3617 6.27323E-05-1.73451E-05-1.90133E-05-2.26157E-05 2.10964E-19-4.19228E-19
 -1      3618 9.52465E-05-2.85596E-05-2.85801E-05-2.18222E-09 1.62667E-18 2.62801E-19
 -1      3619 9.52461E-05-2.85597E-05-2.85800E-05-3.98340E-09 1.48066E-18-9.37119E-19
 -1      3620 9.52458E-05-2.85532E-05-2.85824E-05-1.64665E-09 1.58102E-18 2.76405E-19
 -1      3621 9.52419E-05-2.85688E-05-2.85742E-05-1.60446E-08 4.86802E-19-3.21056E-18
 -1      3622 9.52460E-05-2.85603E-05-2.85796E-05-5.39620E-09 1.09393E-18-1.68240E-18
 -1      3623 9.52456E-05-2.85608E-05-2.85792E-05-7.15177E-09 1.10343E-18-1.73634E-18
 -1      3624 9.52453E-05-2.85536E-05-2.85820E-05-4.02859E-09 1.40794E-18-1.05382E-18
 -1      3625 6.91367E-05-2.18076E-05-2.02329E-05-2.55177E-05 9.09634E-20-5.73547E-19
 -1      3626 9.52433E-05-2.85659E-05-2.85760E-05-1.37079E-08 1.26385E-18-3.03807E-18
 -1      3627 1.22581E-04-3.91432E-05-3.58854E-05 9.33073E-06 5.11859E-21 1.97288E-18
 -1      3628 1.16837E-04-3.39834E-05-3.54378E-05 1.07910E-05 5.27079E-20 1.46407E-18
 -1      3629 1.21200E-04-4.24770E-05-3.38188E-05 5.73571E-06-1.73390E-19 1.68552E-18
 -1      3630 1.01407E-04-4.37937E-05-2.45458E-05 2.91394E-05-5.92023E-19 1.44115E-19
 -1      3631 9.27030E-05-3.70851E-05-2.38743E-05 2.80959E-05-6.10380E-19-1.38649E-19
 -1      3632 1.06272E-04-4.47272E-05-2.62824E-05 2.29086E-05-6.59947E-19-1.76302E-19
 -1      3633 1.08469E-04-1.65756E-05-3.94509E-05-7.35352E-06 5.97304E-19 8.39582E-19
 -1      3634 1.12030E-04-1.85003E-05-4.03853E-05-1.00070E-05 4.58510E-19 7.94649E-19
 -1      3635 9.26401E-05-2.03081E-05-3.10022E-05-7.27022E-07 5.23241E-19 8.42142E-19
 -1      3636 9.20023E-05-1.96481E-05-3.10226E-05-1.17885E-06 5.31567E-19 6.64937E-19
 -1      3637 8.50284E-05-3.44074E-05-2.16455E-05-3.18177E-05-2.00270E-19-5.41863E-19
 -1      3638 9.52455E-05-2.85622E-05-2.85786E-05-8.52744E-09 2.00336E-18-2.38538E-18
 -1      3639 9.52450E-05-2.85629E-05-2.85780E-05-1.00640E-08 3.14105E-18-3.16190E-18
 -1      3640 9.52449E-05-2.85557E-05-2.85810E-05-6.33267E-09 1.12250E-18-2.84495E-18
 -1      3641 9.09021E-05-1.87347E-05-3.09147E-05-9.14181E-07 4.99795E-19 2.36491E-20
 -1      3642 9.79363E-05-2.90396E-05-2.95359E-05-2.08944E-06 4.35092E-19 7.65154E-19
 -1      3643 9.74711E-05-2.81034E-05-2.97042E-05-1.70809E-06 3.90985E-19 8.80494E-19
 -1      3644 9.82316E-05-2.93840E-05-2.95262E-05-2.63042E-06 3.45634E-19 6.15134E-19
 -1      3645 9.69125E-05-2.71008E-05-2.99305E-05-1.60706E-06 3.63938E-19 6.39800E-19
 -1      3646 9.13755E-05-1.89770E-05-3.10265E-05-1.49070E-06 5.62377E-19 6.64688E-19
 -1      3647 9.08520E-05-1.85018E-05-3.10269E-05-1.81793E-06 5.56484E-19 4.04293E-19
 -1      3648 9.22994E-05-2.05750E-05-3.07293E-05-1.89305E-06 4.82229E-19 7.38008E-19
 -1      3649 1.13572E-04-2.32734E-05-3.87909E-05-1.14311E-05 6.07217E-20 4.76701E-19
 -1      3650 5.42659E-05-8.74375E-06-1.91395E-05 5.29134E-06 5.27490E-19 2.88256E-19
 -1      3651 5.68242E-05-1.37421E-05-1.85009E-05 1.89014E-05-8.57528E-19 2.33045E-18
 -1      3652 5.21825E-05-1.02654E-05-1.73925E-05 1.37765E-05-7.43546E-19 1.74124E-18
 -1      3653 5.43354E-05-9.51123E-06-1.90885E-05 5.65682E-06-1.16178E-18 7.52059E-19
 -1      3654 8.98712E-05-1.67491E-05-3.13221E-05-1.74023E-06 5.29617E-19 2.50241E-19
 -1      3655 8.99823E-05-1.77235E-05-3.09538E-05-1.60131E-06 5.73912E-19 3.19508E-19
 -1      3656 9.03642E-05-1.82436E-05-3.09309E-05-1.39336E-06 5.38042E-19 1.59906E-19
 -1      3657 9.04660E-05-1.90241E-05-3.06057E-05-7.21516E-07 5.13436E-19 2.11902E-19
 -1      3658 1.05616E-04-3.64722E-05-2.96117E-05 2.37742E-06 2.36148E-20 1.14332E-18
 -1      3659 1.06437E-04-3.73990E-05-2.95995E-05 8.15609E-07 5.05610E-20 6.57293E-19
 -1      3660 1.05994E-04-3.64142E-05-2.98441E-05 3.64365E-06 1.12751E-19 9.74990E-19
 -1      3661 5.79560E-05-9.37124E-06-2.08170E-05-6.51858E-06-1.05670E-18 7.10396E-19
 -1      3662 5.90860E-05-9.31017E-06-2.09843E-05 3.46863E-07-9.99790E-19 3.81615E-19
 -1      3663 1.23836E-04-5.15738E-05-3.10748E-05 8.23988E-06-5.35274E-19-1.74249E-18
 -1      3664 1.22471E-04-5.29881E-05-2.96509E-05 1.43689E-05-4.61573E-19-1.52149E-18
 -1      3665 1.16246E-04-5.00421E-05-2.84284E-05 1.69051E-05-7.13036E-19-1.21840E-18
 -1      3666 1.04468E-04-1.67489E-05-3.76935E-05-4.20171E-06 8.87373E-19 8.82555E-19
 -1      3667 1.03983E-04-1.58746E-05-3.78796E-05-8.04033E-07 7.31717E-19 1.30359E-18
 -1      3668 1.04519E-04-1.79615E-05-3.71435E-05 5.18228E-06 5.30759E-19 1.49789E-18
 -1      3669 1.05883E-04-2.07260E-05-3.67073E-05 7.90602E-06 3.43700E-19 1.37651E-18
 -1      3670 1.19190E-04-3.18802E-05-3.75284E-05-1.19123E-05 1.01644E-20-6.04371E-19
 -1      3671 1.24215E-04-3.88062E-05-3.67039E-05-1.01564E-05 1.31025E-20-7.49227E-19
 -1      3672 6.59932E-05-1.41523E-05-2.20903E-05-1.11677E-05 3.81840E-19-1.85328E-19
 -1      3673 7.92475E-05-2.76454E-05-2.21602E-05 2.73555E-05-4.49563E-19 1.16411E-18
 -1      3674 6.77153E-05-1.95521E-05-2.01525E-05 2.50871E-05-4.92695E-19 1.97937E-18
 -1      3675 8.74620E-05-1.94893E-05-2.91374E-05 1.42008E-07 2.78409E-19 7.46875E-19
 -1      3676 8.58975E-05-1.90378E-05-2.87095E-05 7.52378E-08 3.69307E-19 6.74963E-19
 -1      3677 8.43303E-05-1.85256E-05-2.82081E-05-5.87998E-07 2.56227E-19 5.28073E-19
 -1      3678 8.20432E-05-1.77494E-05-2.76289E-05-1.13283E-06 1.26933E-19 3.29038E-19
 -1      3679 8.55054E-05-1.91318E-05-2.83955E-05-2.21479E-06 1.88778E-19 5.04954E-19
 -1      3680 8.00167E-05-1.70702E-05-2.69840E-05-2.32948E-06 1.16709E-19 1.34821E-19
 -1      3681 7.70013E-05-1.61442E-05-2.61790E-05-3.36919E-06 2.39257E-19-5.74626E-20
 -1      3682 8.20374E-05-1.82882E-05-2.72548E-05-4.42365E-06 5.40376E-20 2.92198E-19
 -1      3683 7.42062E-05-1.54010E-05-2.52017E-05-5.42735E-06 3.72759E-19-1.76481E-19
 -1      3684 6.97896E-05-1.43844E-05-2.38635E-05-7.23258E-06 4.38340E-19-1.05449E-19
 -1      3685 7.74711E-05-1.73817E-05-2.56718E-05-8.14048E-06 1.87975E-19-1.34745E-19
 -1      3686 4.82136E-05-1.00702E-05-1.59179E-05-8.87939E-06-1.01398E-18 1.10125E-18
 -1      3687 8.47621E-05-1.98846E-05-2.78534E-05-9.37088E-07 2.96431E-19 1.08342E-18
 -1      3688 8.64638E-05-2.09077E-05-2.81105E-05-1.15928E-06 5.63833E-19 1.31668E-18
 -1      3689 8.78216E-05-2.18099E-05-2.83223E-05-1.53496E-06 5.63949E-19 1.35149E-18
 -1      3690 8.90233E-05-2.26455E-05-2.84603E-05-1.56606E-06 5.50764E-19 1.47538E-18
 -1      3691 8.69795E-05-2.14129E-05-2.80593E-05 4.84631E-08 2.60804E-19 1.45473E-18
 -1      3692 8.99830E-05-2.33542E-05-2.85756E-05-1.72360E-06 4.88867E-19 1.83955E-18
 -1      3693 9.07919E-05-2.39858E-05-2.86415E-05-1.65024E-06 5.89558E-19 1.66727E-18
 -1      3694 8.92236E-05-2.29030E-05-2.83920E-05-6.65460E-07 6.11224E-19 2.01141E-18
 -1      3695 9.15385E-05-2.45831E-05-2.87076E-05-1.68776E-06 6.23789E-19 5.63992E-19
 -1      3696 9.21337E-05-2.51022E-05-2.87361E-05-1.55713E-06 5.94789E-19 5.65789E-19
 -1      3697 9.08908E-05-2.41504E-05-2.85815E-05-9.82336E-07 1.14143E-19 1.07330E-18
 -1      3698 9.26751E-05-2.55701E-05-2.87669E-05-1.51925E-06 2.48266E-19 1.02726E-20
 -1      3699 9.30844E-05-2.59654E-05-2.87720E-05-1.36973E-06-6.64693E-19-3.22488E-19
 -1      3700 9.21453E-05-2.51795E-05-2.86845E-05-1.06648E-06 1.07437E-19 1.49314E-19
 -1      3701 9.34744E-05-2.63260E-05-2.87821E-05-1.29543E-06-1.32496E-18 4.29595E-19
 -1      3702 9.37543E-05-2.66251E-05-2.87750E-05-1.14845E-06-1.86242E-18 1.53912E-19
 -1      3703 9.30546E-05-2.59919E-05-2.87305E-05-1.01115E-06-7.31137E-19 4.69933E-20
 -1      3704 9.40335E-05-2.69003E-05-2.87735E-05-1.06158E-06-1.27187E-18 4.64747E-19
 -1      3705 9.42241E-05-2.71255E-05-2.87607E-05-9.28495E-07-3.35962E-19 1.20950E-19
 -1      3706 9.37089E-05-2.66245E-05-2.87430E-05-8.87783E-07-1.44533E-18-2.50873E-19
 -1      3707 9.44229E-05-2.73340E-05-2.87532E-05-8.42801E-07-1.21835E-18 3.52165E-19
 -1      3708 9.45521E-05-2.75030E-05-2.87386E-05-7.28528E-07-2.03481E-18 4.18793E-19
 -1      3709 9.41771E-05-2.71123E-05-2.87370E-05-7.40011E-07-9.71368E-19-1.92235E-19
 -1      3710 9.46872E-05-2.76534E-05-2.87289E-05-6.55115E-07-1.11511E-18 5.76216E-19
 -1      3711 9.47709E-05-2.77749E-05-2.87151E-05-5.64260E-07 2.19107E-19 8.42062E-19
 -1      3712 9.45036E-05-2.74778E-05-2.87219E-05-5.96542E-07-1.12467E-18 1.03122E-18
 -1      3713 9.48720E-05-2.78950E-05-2.87042E-05-4.97289E-07 5.27017E-19 4.88395E-19
 -1      3714 9.49318E-05-2.79912E-05-2.86908E-05-4.20229E-07 3.66072E-19 3.83286E-19
 -1      3715 9.47364E-05-2.77577E-05-2.87028E-05-4.65820E-07-9.08328E-20 4.54314E-19
 -1      3716 9.50027E-05-2.80813E-05-2.86802E-05-3.65275E-07 1.36771E-18 6.91540E-19
 -1      3717 9.50426E-05-2.81529E-05-2.86685E-05-3.04647E-07 1.92765E-18 1.10281E-18
 -1      3718 9.49055E-05-2.79762E-05-2.86824E-05-3.50722E-07 1.58076E-18-1.02668E-19
 -1      3719 9.50917E-05-2.82200E-05-2.86589E-05-2.60878E-07 1.35977E-18 8.87900E-19
 -1      3720 9.51181E-05-2.82732E-05-2.86489E-05-2.14198E-07 1.90779E-18 5.16566E-19
 -1      3721 9.50236E-05-2.81410E-05-2.86629E-05-2.56178E-07 1.51496E-18-1.29193E-19
 -1      3722 9.51517E-05-2.83230E-05-2.86405E-05-1.80283E-07 1.41531E-18 3.01888E-19
 -1      3723 9.51688E-05-2.83623E-05-2.86322E-05-1.45061E-07 3.07410E-19-3.40988E-19
 -1      3724 9.51051E-05-2.82644E-05-2.86453E-05-1.81021E-07 1.37223E-18-9.84753E-19
 -1      3725 9.51913E-05-2.83988E-05-2.86250E-05-1.19434E-07 7.77773E-19 7.57831E-19
 -1      3726 9.52021E-05-2.84275E-05-2.86182E-05-9.34309E-08 9.64618E-19-1.26944E-19
 -1      3727 9.51605E-05-2.83561E-05-2.86300E-05-1.22938E-07 7.47306E-19-2.83544E-19
 -1      3728 9.52162E-05-2.84529E-05-2.86126E-05-7.54484E-08 1.36989E-18-7.17877E-19
 -1      3729 9.52225E-05-2.84730E-05-2.86073E-05-5.73225E-08 2.97057E-18 3.28660E-19
 -1      3730 9.51965E-05-2.84223E-05-2.86173E-05-8.00630E-08 1.28656E-18 1.22189E-18
 -1      3731 9.52318E-05-2.84924E-05-2.86024E-05-4.34559E-08 3.14293E-18 9.33668E-20
 -1      3732 9.52355E-05-2.85077E-05-2.85979E-05-2.99441E-08 2.48190E-18-4.19288E-19
 -1      3733 9.52198E-05-2.84706E-05-2.86066E-05-4.84518E-08 3.00618E-18 6.16179E-20
 -1      3734 9.52410E-05-2.85215E-05-2.85939E-05-2.03253E-08 2.32729E-18-9.00618E-19
 -1      3735 9.52428E-05-2.85324E-05-2.85904E-05-1.11014E-08 2.08266E-18-1.48304E-18
 -1      3736 9.52344E-05-2.85065E-05-2.85976E-05-2.51126E-08 2.12914E-18-8.61650E-19
 -1      3737 9.52455E-05-2.85421E-05-2.85871E-05-4.61479E-09 8.81326E-19-1.57344E-18
 -1      3738 9.52461E-05-2.85497E-05-2.85842E-05 1.25603E-09 1.39032E-19-2.15093E-18
 -1      3739 9.52425E-05-2.85321E-05-2.85901E-05-9.00921E-09 1.67305E-18-1.59844E-18
 -1      3740 9.52468E-05-2.85537E-05-2.85827E-05 3.78332E-09-1.54004E-19-1.65891E-18
 -1      3741 9.52470E-05-2.85579E-05-2.85811E-05 6.19272E-09-6.79484E-19-2.27825E-18
 -1      3742 9.52471E-05-2.85560E-05-2.85820E-05 4.27894E-09-7.09712E-19-2.91862E-18
 -1      3743 9.52459E-05-2.85471E-05-2.85852E-05-7.62397E-11 8.69496E-19-2.52922E-18
 -1      3744 9.52452E-05-2.85480E-05-2.85845E-05 4.01362E-11 7.09513E-20-1.64174E-18
 -1      3745 9.52446E-05-2.85468E-05-2.85849E-05-1.09663E-09-5.73227E-20 4.57884E-19
 -1      3746 9.68744E-05-2.72039E-05-2.98636E-05-2.31043E-06 3.00605E-19 9.62609E-19
 -1      3747 9.62126E-05-2.59139E-05-3.01134E-05-1.58438E-06 2.45843E-19 8.24461E-19
 -1      3748 7.41092E-05-2.25792E-05-2.19460E-05-2.30862E-05 3.22918E-19-5.20303E-19
 -1      3749 7.69078E-05-2.68047E-05-2.10976E-05-2.88322E-05 1.51526E-19-4.63459E-19
 -1      3750 1.06365E-04-2.26212E-05-3.60062E-05-9.47651E-06 1.88773E-19 7.56175E-19
 -1      3751 1.04797E-04-1.95418E-05-3.65225E-05-7.17244E-06 6.29584E-19 9.45031E-19
 -1      3752 1.11225E-04-3.61627E-05-3.22116E-05-8.71289E-06-1.02346E-18 8.58025E-19
 -1      3753 1.10410E-04-3.34435E-05-3.29652E-05-9.89674E-06-6.45191E-19 8.03849E-19
 -1      3754 1.10536E-04-3.87333E-05-3.07458E-05-4.97393E-06-7.41824E-19 2.79916E-19
 -1      3755 1.10704E-04-3.76604E-05-3.13333E-05-6.51296E-06-1.10156E-18 2.69428E-19
 -1      3756 1.13549E-04-3.85205E-05-3.21772E-05-7.04011E-06-7.95036E-19-4.64601E-19
 -1      3757 1.08115E-04-3.87024E-05-2.97102E-05-1.33580E-06-1.92568E-19 4.29907E-19
 -1      3758 1.09045E-04-3.88905E-05-3.01157E-05-2.80623E-06-5.09947E-19 6.80665E-19
 -1      3759 1.11598E-04-4.04825E-05-3.05362E-05-2.60842E-06-7.85047E-19-9.69125E-19
 -1      3760 1.05001E-04-3.70406E-05-2.90797E-05 1.21967E-06 1.62598E-19 7.42428E-19
 -1      3761 1.06245E-04-3.78919E-05-2.93246E-05 1.40331E-07 8.22879E-21 9.32060E-19
 -1      3762 1.08075E-04-3.94066E-05-2.94681E-05 9.79245E-07-4.38704E-19 1.59169E-19
 -1      3763 1.01983E-04-3.48065E-05-2.87511E-05 2.66985E-06 1.26015E-19 1.24307E-18
 -1      3764 1.03210E-04-3.58663E-05-2.88777E-05 2.02906E-06 5.51403E-20 8.52745E-19
 -1      3765 1.04358E-04-3.70802E-05-2.88740E-05 3.12434E-06-7.97311E-20 3.57678E-19
 -1      3766 9.94896E-05-3.26612E-05-2.86124E-05 3.26612E-06 1.83325E-19 1.73579E-18
 -1      3767 1.00528E-04-3.36542E-05-2.86652E-05 2.97353E-06 2.28756E-19 1.74312E-18
 -1      3768 1.01104E-04-3.44794E-05-2.85939E-05 4.03081E-06-2.61017E-19 6.63678E-19
 -1      3769 9.76346E-05-3.09058E-05-2.85792E-05 3.31496E-06 5.99994E-19 9.55391E-19
 -1      3770 9.84262E-05-3.17080E-05-2.85914E-05 3.25524E-06 8.87298E-19 1.67112E-18
 -1      3771 9.86045E-05-3.21855E-05-2.84978E-05 4.14582E-06 7.79181E-19 7.40677E-19
 -1      3772 9.63636E-05-2.96131E-05-2.85960E-05 3.06060E-06-4.33951E-19 1.15137E-18
 -1      3773 9.69197E-05-3.01983E-05-2.85895E-05 3.13881E-06-1.52450E-19 1.17244E-18
 -1      3774 9.68537E-05-3.04151E-05-2.84972E-05 3.82647E-06 3.33772E-19 9.66149E-19
 -1      3775 9.55615E-05-2.87457E-05-2.86295E-05 2.66705E-06 3.46553E-19 2.13390E-19
 -1      3776 9.59236E-05-2.91349E-05-2.86176E-05 2.81545E-06-6.73859E-20 9.61633E-19
 -1      3777 9.57250E-05-2.91749E-05-2.85376E-05 3.31377E-06 1.68651E-19 1.06786E-18
 -1      3778 9.51026E-05-2.82201E-05-2.86616E-05 2.23498E-06 2.02883E-19-2.39224E-19
 -1      3779 9.53195E-05-2.84536E-05-2.86512E-05 2.41010E-06 8.85603E-21 9.01304E-19
 -1      3780 9.50643E-05-2.83834E-05-2.85875E-05 2.75334E-06 3.99152E-20 9.95574E-21
 -1      3781 9.48769E-05-2.79458E-05-2.86846E-05 1.81965E-06 1.58582E-18 5.19790E-19
 -1      3782 9.49931E-05-2.80657E-05-2.86784E-05 1.99553E-06 4.79659E-19 1.24544E-19
 -1      3783 9.47285E-05-2.79368E-05-2.86310E-05 2.22261E-06 1.91026E-19 4.74941E-19
 -1      3784 9.47989E-05-2.78423E-05-2.86967E-05 1.44750E-06 1.87902E-18 4.04168E-19
 -1      3785 9.48498E-05-2.78856E-05-2.86952E-05 1.61031E-06 2.05756E-18 8.83213E-19
 -1      3786 9.46024E-05-2.77318E-05-2.86620E-05 1.75546E-06 1.67834E-18 5.50721E-19
 -1      3787 9.48068E-05-2.78462E-05-2.86989E-05 1.12866E-06 5.41724E-19-2.49427E-19
 -1      3788 9.48186E-05-2.78418E-05-2.87013E-05 1.27175E-06 1.47334E-18 3.85688E-19
 -1      3789 9.46017E-05-2.76851E-05-2.86799E-05 1.36188E-06 1.89079E-18 6.74935E-19
 -1      3790 9.48585E-05-2.79107E-05-2.86936E-05 8.63844E-07-2.80750E-19 2.25942E-19
 -1      3791 9.48491E-05-2.78797E-05-2.86989E-05 9.85202E-07-1.78684E-19-2.95238E-19
 -1      3792 9.46677E-05-2.77333E-05-2.86864E-05 1.04010E-06 6.12953E-19 1.16319E-18
 -1      3793 9.49274E-05-2.80036E-05-2.86832E-05 6.48996E-07-9.00874E-19 3.32547E-21
 -1      3794 9.49085E-05-2.79605E-05-2.86902E-05 7.49123E-07-2.60241E-19 3.03896E-21
 -1      3795 9.47620E-05-2.78311E-05-2.86844E-05 7.82346E-07-1.82970E-19 1.39304E-18
 -1      3796 9.49978E-05-2.81044E-05-2.86700E-05 4.78091E-07 3.59598E-19-4.97119E-19
 -1      3797 9.49763E-05-2.80583E-05-2.86778E-05 5.58817E-07-6.11614E-19-3.70648E-19
 -1      3798 9.48618E-05-2.79485E-05-2.86766E-05 5.79213E-07-5.42127E-19 7.70999E-19
 -1      3799 9.50614E-05-2.82008E-05-2.86557E-05 3.44519E-07-1.22841E-18-5.40105E-19
 -1      3800 9.50411E-05-2.81571E-05-2.86636E-05 4.08287E-07-2.86389E-19-5.15200E-19
 -1      3801 9.49542E-05-2.80670E-05-2.86654E-05 4.21377E-07-3.85538E-19-1.04058E-18
 -1      3802 9.51146E-05-2.82864E-05-2.86416E-05 2.41852E-07-1.09713E-18 6.51512E-20
 -1      3803 9.50972E-05-2.82478E-05-2.86490E-05 2.91270E-07-1.38459E-18-1.60750E-19
 -1      3804 9.50332E-05-2.81759E-05-2.86526E-05 3.00339E-07-8.47797E-19-9.04770E-19
 -1      3805 9.51565E-05-2.83585E-05-2.86285E-05 1.64243E-07 1.45330E-18-4.94568E-19
 -1      3806 9.51428E-05-2.83261E-05-2.86351E-05 2.01828E-07 3.12562E-19 5.32906E-19
 -1      3807 9.50970E-05-2.82702E-05-2.86396E-05 2.08727E-07-5.19968E-19-1.99501E-18
 -1      3808 9.51880E-05-2.84170E-05-2.86167E-05 1.06591E-07 7.91360E-19-7.15839E-19
 -1      3809 9.51777E-05-2.83908E-05-2.86225E-05 1.34628E-07 1.30946E-18 3.45149E-19
 -1      3810 9.51462E-05-2.83484E-05-2.86273E-05 1.40333E-07 1.18592E-18-9.38492E-19
 -1      3811 9.52104E-05-2.84629E-05-2.86065E-05 6.45769E-08 5.28573E-19-1.14682E-18
 -1      3812 9.52032E-05-2.84424E-05-2.86114E-05 8.50573E-08 7.48625E-19-9.12279E-19
 -1      3813 9.51824E-05-2.84110E-05-2.86161E-05 9.00475E-08 9.10527E-19-3.46743E-19
 -1      3814 9.52256E-05-2.84979E-05-2.85979E-05 3.46336E-08-8.76152E-19-3.14203E-20
 -1      3815 9.52209E-05-2.84823E-05-2.86020E-05 4.92365E-08-4.02254E-19-1.08950E-18
 -1      3816 9.52079E-05-2.84596E-05-2.86062E-05 5.37235E-08-2.44573E-19-9.90308E-19
 -1      3817 9.52353E-05-2.85239E-05-2.85908E-05 1.38951E-08 1.96741E-19 3.86581E-19
 -1      3818 9.52324E-05-2.85123E-05-2.85941E-05 2.39809E-08-4.08648E-19 8.81250E-19
 -1      3819 9.52250E-05-2.84964E-05-2.85978E-05 2.80187E-08-1.68287E-18-1.43192E-19
 -1      3820 9.52408E-05-2.85431E-05-2.85849E-05 9.08167E-11 1.56218E-18-1.69419E-18
 -1      3821 9.52392E-05-2.85345E-05-2.85876E-05 6.72835E-09 1.35347E-18-1.64924E-19
 -1      3822 9.52356E-05-2.85236E-05-2.85907E-05 1.03572E-08 1.16357E-18-5.39100E-19
 -1      3823 1.08978E-04-2.53872E-05-3.58635E-05 9.78053E-06 6.87288E-20 1.45321E-18
 -1      3824 6.76581E-05-1.28551E-05-2.35042E-05 5.76857E-06-8.97967E-19 1.45722E-18
 -1      3825 7.17340E-05-1.41760E-05-2.47056E-05 4.18125E-06-1.06843E-18 1.44382E-18
 -1      3826 9.01059E-05-1.93346E-05-3.03513E-05-3.28442E-07 5.28625E-19 3.30758E-19
 -1      3827 7.48836E-05-1.51731E-05-2.56784E-05 2.37932E-06-5.35859E-19 1.39649E-18
 -1      3828 7.82082E-05-1.65168E-05-2.64625E-05 1.43027E-06 6.19558E-20 1.38805E-18
 -1      3829 7.45791E-05-1.58546E-05-2.50385E-05 7.21046E-06-6.11841E-19 2.21922E-18
 -1      3830 1.09934E-04-2.42571E-05-3.67261E-05-1.10004E-05-1.78294E-19 1.44901E-18
 -1      3831 1.14748E-04-2.82123E-05-3.72573E-05-1.22649E-05-9.58272E-20 2.92266E-19
 -1      3832 1.14952E-04-3.19419E-05-3.56083E-05-1.11268E-05 9.35442E-20 8.59505E-19
 -1      3833 1.07347E-04-2.61782E-05-3.47483E-05-1.04430E-05-1.23435E-19 1.18718E-18
 -1      3834 8.83031E-05-3.42695E-05-2.32140E-05-2.82051E-05-1.68877E-20-5.23771E-19
 -1      3835 1.22179E-04-5.15799E-05-3.00532E-05-1.07327E-05-7.97372E-19 3.53874E-19
 -1      3836 1.22734E-04-4.82992E-05-3.19659E-05-1.84599E-06-5.17444E-19 1.41591E-18
 -1      3837 9.52442E-05-2.85649E-05-2.85769E-05-1.21043E-08 2.58984E-18-1.66768E-18
 -1      3838 1.05265E-04-3.70371E-05-2.92556E-05-2.38036E-06-3.29918E-19 7.59797E-19
 -1      3839 1.04020E-04-3.58815E-05-2.91567E-05-3.12380E-06-1.56722E-19 7.76439E-19
 -1      3840 8.99152E-05-1.75946E-05-3.09830E-05-1.98118E-06 5.73987E-19 1.99188E-19
 -1      3841 8.98916E-05-1.77025E-05-3.09680E-05-1.95094E-06 5.32756E-19 2.95310E-19
 -1      3842 9.00235E-05-1.85253E-05-3.06367E-05-1.65822E-06 5.40855E-19 2.08860E-19
 -1      3843 5.98388E-05-1.03124E-05-2.12511E-05 5.93785E-06-9.50834E-19 9.23478E-19
 -1      3844 1.10826E-04-2.92801E-05-3.50890E-05 1.07969E-05-1.49687E-20 1.21689E-18
 -1      3845 9.52440E-05-2.85592E-05-2.85792E-05-9.50791E-09 1.82490E-18-2.34902E-18
 -1      3846 1.02473E-04-3.45469E-05-2.91222E-05-3.52990E-06-8.45511E-20 8.19650E-19
 -1      3847 1.01384E-04-3.33109E-05-2.91372E-05-3.81928E-06-1.76390E-19 8.20593E-19
 -1      3848 1.03370E-04-3.55867E-05-2.90939E-05-4.53791E-06-1.29980E-19 1.11249E-18
 -1      3849 9.38579E-05-2.16655E-05-3.09468E-05 1.99127E-07 6.07132E-19 8.73968E-19
 -1      3850 9.31880E-05-2.08701E-05-3.10004E-05-2.81085E-07 5.43718E-19 9.28849E-19
 -1      3851 9.35324E-05-2.18134E-05-3.07270E-05-1.17918E-06 4.23935E-19 9.50969E-19
 -1      3852 9.46017E-05-2.29807E-05-3.06871E-05-3.24775E-07 5.39544E-19 8.77532E-19
 -1      3853 8.05846E-05-1.76457E-05-2.70456E-05 2.73562E-07 1.23819E-19 1.10352E-18
 -1      3854 8.29696E-05-1.88475E-05-2.74999E-05-2.44655E-07 4.02944E-20 1.03092E-18
 -1      3855 8.39280E-05-1.96522E-05-2.74904E-05 1.38793E-06 8.57484E-20 2.07742E-18
 -1      3856 7.99159E-05-1.77535E-05-2.65603E-05 3.63575E-06 2.43410E-19 1.73106E-18
 -1      3857 9.04402E-05-1.80674E-05-3.10116E-05-1.92369E-06 5.20990E-19 2.92571E-19
 -1      3858 9.01234E-05-1.78412E-05-3.10024E-05-2.07562E-06 5.02581E-19 2.59872E-19
 -1      3859 9.03684E-05-1.87732E-05-3.06737E-05-2.19242E-06 4.94362E-19 1.75463E-19
 -1      3860 9.11562E-05-1.94656E-05-3.07124E-05-2.25004E-06 4.19545E-19 4.02558E-19
 -1      3861 7.11835E-05-1.71172E-05-2.30480E-05-1.48289E-05 3.31733E-19-4.29750E-19
 -1      3862 1.11709E-04-3.31202E-05-3.37229E-05 9.49569E-06-6.35407E-20 1.25887E-18
 -1      3863 1.12853E-04-3.61160E-05-3.29385E-05 8.77283E-06-1.41556E-19 1.43231E-18
 -1      3864 8.94899E-05-1.97313E-05-2.99007E-05 1.68099E-08 5.10626E-19 5.47279E-19
 -1      3865 8.85114E-05-1.96757E-05-2.95421E-05 3.38664E-07 3.91128E-19 6.44213E-19
 -1      3866 8.80235E-05-1.95356E-05-2.93042E-05-1.10077E-06 3.42188E-19 5.60742E-19
 -1      3867 1.00165E-04-3.20124E-05-2.92128E-05-3.77280E-06-9.72425E-20 9.35744E-19
 -1      3868 9.92727E-05-3.08143E-05-2.93117E-05-3.69240E-06 1.73812E-19 9.90811E-19
 -1      3869 1.00606E-04-3.26771E-05-2.91487E-05-4.69938E-06-3.33507E-20 9.09274E-19
 -1      3870 1.23283E-04-4.12541E-05-3.50215E-05-7.66093E-06-8.42798E-20-4.37850E-19
 -1      3871 7.47301E-05-2.01600E-05-2.33473E-05-1.76375E-05 1.65198E-19-4.26865E-19
 -1      3872 8.07899E-05-2.49423E-05-2.40296E-05-2.07332E-05 2.26470E-19-3.77386E-19
 -1      3873 7.83126E-05-1.99349E-05-2.49320E-05-1.31691E-05 2.33887E-19-1.41531E-19
 -1      3874 8.68329E-05-3.16514E-05-2.34287E-05 2.67518E-05-7.35542E-19 2.92041E-19
 -1      3875 8.01620E-05-2.57425E-05-2.34351E-05 2.28427E-05-9.03380E-19 6.46498E-19
 -1      3876 9.31103E-05-3.48397E-05-2.49248E-05 2.35062E-05-6.84409E-19-5.08087E-20
 -1      3877 1.16633E-04-3.95802E-05-3.29825E-05 7.04535E-06-2.97009E-19 1.73846E-18
 -1      3878 1.12221E-04-3.76225E-05-3.20176E-05 6.91678E-06-2.62283E-19 1.36437E-18
 -1      3879 1.12491E-04-3.92772E-05-3.13572E-05 5.35274E-06-2.97494E-19 1.20078E-18
 -1      3880 1.20834E-04-4.41146E-05-3.28242E-05 4.08728E-06-4.51204E-19 1.46896E-18
 -1      3881 9.91469E-05-3.99857E-05-2.50232E-05-2.60325E-05-2.36541E-19-4.31246E-19
 -1      3882 1.04783E-04-4.33379E-05-2.64390E-05-2.21063E-05-4.34091E-19-2.49676E-20
 -1      3883 1.15950E-04-4.90285E-05-2.87792E-05-1.43741E-05-8.17288E-19-1.21744E-19
 -1      3884 9.07385E-05-3.36602E-05-2.44095E-05-2.46190E-05 2.14789E-19-2.93533E-19
 -1      3885 9.52439E-05-2.85457E-05-2.85850E-05-1.46522E-09 1.33937E-18 6.42091E-19
 -1      3886 9.52435E-05-2.85454E-05-2.85850E-05-2.31563E-09 1.23928E-18-1.30145E-19
 -1      3887 9.52424E-05-2.85378E-05-2.85875E-05-2.24654E-09 7.90718E-19-5.43132E-19
 -1      3888 9.76004E-05-2.83772E-05-2.96456E-05-2.90284E-06 3.59661E-19 9.36558E-19
 -1      3889 9.67834E-05-2.72670E-05-2.98080E-05-2.96730E-06 3.36590E-19 1.27543E-18
 -1      3890 9.83058E-05-2.95279E-05-2.94781E-05-3.28763E-06 3.01540E-19 9.69024E-19
 -1      3891 9.55916E-05-2.48135E-05-3.03366E-05-1.13993E-06 3.59088E-19 8.44546E-19
 -1      3892 1.18292E-04-4.53648E-05-3.13290E-05-4.42892E-07-5.27122E-19 1.36266E-18
 -1      3893 6.49291E-05-1.61486E-05-2.08131E-05 1.82200E-05-1.06100E-18 2.46354E-18
 -1      3894 1.12683E-04-3.27201E-05-3.42276E-05-1.07222E-05-3.17267E-19 1.12103E-18
 -1      3895 1.08902E-04-2.97667E-05-3.40295E-05-1.08754E-05-4.91124E-19 1.21929E-18
 -1      3896 9.52434E-05-2.85569E-05-2.85800E-05-8.45063E-09 1.00362E-18-1.51225E-18
 -1      3897 9.52428E-05-2.85508E-05-2.85822E-05-4.47967E-09 9.32533E-19-1.62152E-18
 -1      3898 1.08270E-04-3.89804E-05-2.97064E-05-1.74743E-07 1.83571E-19 6.32915E-19
 -1      3899 1.07040E-04-3.82364E-05-2.94490E-05-1.41493E-06-1.44628E-19 5.49099E-19
 -1      3900 1.06615E-04-3.83980E-05-2.93132E-05-3.27727E-06-7.94209E-20 7.80372E-19
 -1      3901 6.44362E-05-1.25700E-05-2.19455E-05 1.04968E-05-1.33254E-18 2.44059E-18
 -1      3902 9.52433E-05-2.85458E-05-2.85847E-05-2.48719E-09 1.40538E-18-1.34008E-18
 -1      3903 9.52431E-05-2.85464E-05-2.85843E-05-3.26894E-09 1.89189E-18-1.66878E-18
 -1      3904 9.52414E-05-2.85371E-05-2.85874E-05-1.97682E-09 1.74950E-18-6.04121E-19
 -1      3905 8.96255E-05-1.91600E-05-3.01672E-05-1.00126E-06 6.74774E-19 1.69878E-19
 -1      3906 1.11291E-04-4.67241E-05-2.75517E-05 1.82400E-05-6.13583E-19-5.34001E-19
 -1      3907 1.04786E-04-4.26781E-05-2.66716E-05 2.00184E-05-4.95719E-19-3.04144E-19
 -1      3908 9.52435E-05-2.85484E-05-2.85837E-05-3.69320E-09 1.66311E-18-1.81536E-18
 -1      3909 9.52434E-05-2.85498E-05-2.85830E-05-4.72494E-09 1.58631E-18-3.00380E-18
 -1      3910 9.52415E-05-2.85396E-05-2.85864E-05-1.87127E-09 1.95431E-18-1.97584E-18
 -1      3911 1.08319E-04-3.76559E-05-3.02763E-05 3.83732E-06 3.02128E-20 1.13844E-18
 -1      3912 9.52415E-05-2.85435E-05-2.85848E-05-1.25838E-09 1.53434E-18-2.17311E-18
 -1      3913 9.31502E-05-2.20869E-05-3.04511E-05-2.39675E-06 3.42195E-19 8.75318E-19
 -1      3914 9.24264E-05-2.14096E-05-3.04490E-05-2.65953E-06 4.01493E-19 6.39185E-19
 -1      3915 1.24701E-04-5.04216E-05-3.18494E-05 4.27280E-06-6.77573E-19-1.26060E-18
 -1      3916 1.20193E-04-4.92274E-05-3.03791E-05 7.77292E-06-5.63240E-19-1.19590E-18
 -1      3917 1.23285E-04-4.79128E-05-3.25659E-05 2.48750E-07-6.70427E-19-6.44314E-19
 -1      3918 1.14208E-04-4.74118E-05-2.86621E-05 1.36297E-05-2.53604E-19-1.67632E-18
 -1      3919 9.52466E-05-2.85529E-05-2.85830E-05 2.63560E-09-5.74443E-19-4.79176E-18
 -1      3920 9.52462E-05-2.85511E-05-2.85837E-05 1.03315E-09 2.91045E-19-4.23739E-18
 -1      3921 9.52441E-05-2.85422E-05-2.85865E-05-1.46141E-09-7.13376E-19-2.94687E-18
 -1      3922 9.52460E-05-2.85486E-05-2.85846E-05 9.02809E-10 3.99963E-19-5.07885E-18
 -1      3923 9.43620E-05-2.32531E-05-3.04747E-05-1.65068E-06 3.46914E-19 9.50027E-19
 -1      3924 9.37767E-05-2.26850E-05-3.04759E-05-2.05278E-06 3.54416E-19 9.48999E-19
 -1      3925 9.39341E-05-2.34546E-05-3.02033E-05-2.87529E-06 2.34740E-19 8.79452E-19
 -1      3926 8.70674E-05-2.01642E-05-2.86735E-05-3.24889E-06 2.44870E-19 2.31884E-19
 -1      3927 8.55722E-05-1.99760E-05-2.81713E-05-4.15230E-06 1.35016E-19 5.95636E-20
 -1      3928 7.19327E-05-1.79733E-05-2.31448E-05 1.60115E-05-1.26768E-18 2.52250E-18
 -1      3929 8.46355E-05-2.00085E-05-2.76734E-05-5.52787E-06-2.69206E-20 1.85841E-19
 -1      3930 8.27081E-05-1.97630E-05-2.70441E-05-7.06904E-06 1.87538E-20 4.59946E-20
 -1      3931 8.66335E-05-2.12556E-05-2.79913E-05-6.48670E-06 2.11535E-20-2.73723E-19
 -1      3932 8.17260E-05-1.97545E-05-2.65163E-05-8.63007E-06 1.10587E-19 4.34369E-20
 -1      3933 7.91411E-05-1.95047E-05-2.55996E-05-1.11366E-05 1.46659E-19-6.60007E-21
 -1      3934 8.24871E-05-2.21716E-05-2.57968E-05-1.37282E-05 3.91819E-20-7.33205E-20
 -1      3935 8.47242E-05-2.17189E-05-2.69863E-05-9.69232E-06-5.99177E-20-1.19579E-19
 -1      3936 8.65082E-05-2.15716E-05-2.78735E-05 1.56418E-06-1.92766E-19 1.59080E-18
 -1      3937 8.78476E-05-2.22982E-05-2.80922E-05 9.79767E-07 1.71295E-19 1.21568E-18
 -1      3938 1.11402E-04-4.61559E-05-2.77423E-05-1.75037E-05-8.39109E-19-1.42075E-19
 -1      3939 1.15137E-04-4.69297E-05-2.93458E-05-1.01653E-05-7.49986E-19 2.79404E-19
 -1      3940 8.87297E-05-2.28740E-05-2.82536E-05 4.13998E-07 1.44695E-19 9.24362E-19
 -1      3941 8.96827E-05-2.34721E-05-2.83777E-05 1.14095E-07 9.27751E-20 6.64937E-19
 -1      3942 8.85650E-05-2.29463E-05-2.80959E-05 1.76716E-06-1.41217E-19 5.25739E-19
 -1      3943 9.04261E-05-2.40110E-05-2.84835E-05-2.35713E-07 2.36523E-19 1.25990E-19
 -1      3944 9.11679E-05-2.45410E-05-2.85569E-05-3.77316E-07 3.32173E-19-9.87544E-20
 -1      3945 9.01548E-05-2.39272E-05-2.83652E-05 7.30383E-07-1.03361E-19-4.95882E-19
 -1      3946 9.17414E-05-2.49975E-05-2.86180E-05-5.59873E-07-2.25294E-19-3.81540E-19
 -1      3947 9.22804E-05-2.54260E-05-2.86551E-05-5.92802E-07-6.92501E-19-8.17392E-19
 -1      3948 9.14404E-05-2.48270E-05-2.85343E-05 1.08301E-07-6.01586E-19-1.16267E-18
 -1      3949 9.27212E-05-2.58042E-05-2.86874E-05-6.71277E-07 1.79668E-19-4.77262E-19
 -1      3950 9.31100E-05-2.61453E-05-2.87024E-05-6.45991E-07 1.40440E-19 2.04110E-19
 -1      3951 9.24332E-05-2.56019E-05-2.86307E-05-2.14702E-07 3.28881E-19-1.13285E-18
 -1      3952 9.34423E-05-2.64492E-05-2.87167E-05-6.63334E-07-1.17615E-18 9.27579E-19
 -1      3953 9.37212E-05-2.67174E-05-2.87189E-05-6.09524E-07-8.82304E-19 1.05771E-18
 -1      3954 9.31906E-05-2.62513E-05-2.86801E-05-3.56168E-07-1.80507E-19-5.20327E-20
 -1      3955 9.39698E-05-2.69584E-05-2.87223E-05-5.94067E-07-7.64724E-19 3.10959E-19
 -1      3956 9.41686E-05-2.71674E-05-2.87175E-05-5.30516E-07-1.23847E-18 3.84498E-19
 -1      3957 9.37605E-05-2.67795E-05-2.87002E-05-3.89787E-07-1.30924E-18 1.36278E-18
 -1      3958 9.43448E-05-2.73479E-05-2.87148E-05-5.01800E-07-7.63083E-19 4.32617E-20
 -1      3959 9.44804E-05-2.75027E-05-2.87069E-05-4.41707E-07-1.93078E-19 8.91345E-19
 -1      3960 9.41766E-05-2.71933E-05-2.87027E-05-3.67302E-07-8.19247E-19 5.81056E-19
 -1      3961 9.46178E-05-2.76515E-05-2.87008E-05-4.06287E-07-2.48556E-19 8.87152E-19
 -1      3962 9.47193E-05-2.77774E-05-2.86912E-05-3.49268E-07-3.10919E-20 6.47355E-19
 -1      3963 9.44861E-05-2.75230E-05-2.86953E-05-3.18037E-07-3.12469E-19 4.08676E-19
 -1      3964 9.48193E-05-2.78922E-05-2.86836E-05-3.14799E-07 6.98085E-19 5.32448E-20
 -1      3965 9.48905E-05-2.79881E-05-2.86739E-05-2.66171E-07 1.47851E-18-6.49120E-19
 -1      3966 9.47195E-05-2.77884E-05-2.86825E-05-2.58968E-07 2.42413E-19 9.92117E-19
 -1      3967 9.49624E-05-2.80758E-05-2.86659E-05-2.35568E-07 8.64133E-19-1.79023E-18
 -1      3968 9.50118E-05-2.81485E-05-2.86568E-05-1.95793E-07 1.54082E-18-1.85059E-18
 -1      3969 9.48887E-05-2.79942E-05-2.86675E-05-2.01258E-07 9.54119E-19-1.63229E-18
 -1      3970 9.50628E-05-2.82149E-05-2.86491E-05-1.70218E-07 2.54620E-18-1.29208E-18
 -1      3971 9.50966E-05-2.82696E-05-2.86410E-05-1.38746E-07 2.31285E-18-8.68870E-19
 -1      3972 9.50098E-05-2.81521E-05-2.86522E-05-1.50043E-07 2.47393E-18-1.97698E-18
 -1      3973 9.51321E-05-2.83193E-05-2.86340E-05-1.18305E-07 1.90189E-18-1.36210E-18
 -1      3974 9.51548E-05-2.83599E-05-2.86270E-05-9.41376E-08 7.98101E-19-4.97745E-19
 -1      3975 9.50951E-05-2.82719E-05-2.86377E-05-1.07302E-07 2.34263E-18-8.97495E-19
 -1      3976 9.51780E-05-2.83950E-05-2.86211E-05-7.91569E-08 9.04412E-19-2.88793E-19
 -1      3977 9.51922E-05-2.84238E-05-2.86155E-05-6.17135E-08 2.47176E-18 4.54120E-19
 -1      3978 9.51528E-05-2.83599E-05-2.86250E-05-7.39152E-08 1.57660E-18-9.54706E-19
 -1      3979 9.52084E-05-2.84511E-05-2.86101E-05-4.97347E-08 3.04035E-18-1.58965E-19
 -1      3980 9.52179E-05-2.84732E-05-2.86052E-05-3.63211E-08 2.73318E-18-5.69978E-19
 -1      3981 9.51918E-05-2.84253E-05-2.86138E-05-4.81119E-08 2.34510E-18 6.66234E-19
 -1      3982 9.52280E-05-2.84930E-05-2.86007E-05-2.76012E-08 2.45444E-18-1.23490E-18
 -1      3983 9.52336E-05-2.85089E-05-2.85965E-05-1.81751E-08 1.52394E-18-1.29124E-18
 -1      3984 9.52178E-05-2.84745E-05-2.86040E-05-2.82583E-08 2.23897E-18-9.97661E-19
 -1      3985 1.16844E-04-3.69065E-05-3.44128E-05-1.00540E-05-2.65472E-19 4.53566E-19
 -1      3986 1.17360E-04-4.41599E-05-3.13400E-05-1.37835E-06-8.79611E-19-2.56538E-19
 -1      3987 1.18246E-04-4.26539E-05-3.23774E-05-3.87751E-06-4.87659E-19 9.28560E-20
 -1      3988 1.03294E-04-3.65226E-05-2.85599E-05 5.35448E-06 6.73143E-20-6.71031E-19
 -1      3989 1.05121E-04-3.80363E-05-2.87571E-05 4.77401E-06 6.49105E-20-8.10848E-19
 -1      3990 9.98622E-05-3.35605E-05-2.83793E-05 5.49165E-06-6.80148E-19-1.94990E-19
 -1      3991 1.01336E-04-3.49378E-05-2.84549E-05 5.39916E-06-6.19480E-19-5.12962E-19
 -1      3992 1.01635E-04-3.57449E-05-2.83040E-05 7.06940E-06-3.28467E-19-1.51905E-18
 -1      3993 9.74511E-05-3.12351E-05-2.83574E-05 5.00238E-06 7.55371E-19 6.11101E-19
 -1      3994 9.85299E-05-3.23106E-05-2.83684E-05 5.16749E-06-3.48059E-20 5.61023E-19
 -1      3995 9.83918E-05-3.26601E-05-2.82145E-05 6.48430E-06-8.35854E-19-1.11129E-19
 -1      3996 9.58889E-05-2.95780E-05-2.84078E-05 4.25768E-06-3.44041E-19 6.71044E-19
 -1      3997 9.66107E-05-3.03384E-05-2.83888E-05 4.53901E-06 7.18199E-19 7.33847E-19
 -1      3998 9.62635E-05-3.04053E-05-2.82542E-05 5.50861E-06 2.90194E-19 8.71000E-19
 -1      3999 9.49660E-05-2.84990E-05-2.84817E-05 3.46727E-06 3.27936E-19 8.22605E-19
 -1      4000 9.54097E-05-2.89894E-05-2.84532E-05 3.78169E-06-4.96062E-19 4.49052E-19
 -1      4001 9.49863E-05-2.88924E-05-2.83450E-05 4.44876E-06-4.74003E-19-1.90143E-19
 -1      4002 9.44981E-05-2.78758E-05-2.85520E-05 2.74463E-06-6.16047E-19 1.56434E-18
 -1      4003 9.47415E-05-2.81589E-05-2.85250E-05 3.03998E-06 7.32546E-20 1.25328E-18
 -1      4004 9.43146E-05-2.79716E-05-2.84435E-05 3.46716E-06-3.66042E-19 1.15130E-18
 -1      4005 9.43169E-05-2.75693E-05-2.86078E-05 2.12655E-06 7.74766E-19 6.88618E-19
 -1      4006 9.44260E-05-2.77047E-05-2.85871E-05 2.38714E-06-8.58176E-20 1.18787E-18
 -1      4007 9.40403E-05-2.74904E-05-2.85283E-05 2.64622E-06 1.72126E-19 1.75678E-18
 -1      4008 9.43106E-05-2.74755E-05-2.86462E-05 1.62209E-06 1.78502E-18 3.74357E-19
 -1      4009 9.43376E-05-2.75146E-05-2.86327E-05 1.84132E-06 1.27474E-18 2.31757E-19
 -1      4010 9.40046E-05-2.72949E-05-2.85924E-05 1.98420E-06 1.26049E-18 8.49846E-19
 -1      4011 9.43996E-05-2.75128E-05-2.86685E-05 1.22102E-06 1.08746E-18 1.76505E-18
 -1      4012 9.43796E-05-2.74927E-05-2.86617E-05 1.39937E-06 1.05389E-18 1.03394E-18
 -1      4013 9.41028E-05-2.72872E-05-2.86355E-05 1.46999E-06 1.21755E-18 1.25980E-18
 -1      4014 9.45300E-05-2.76208E-05-2.86779E-05 9.08375E-07 3.68740E-19 2.15160E-18
 -1      4015 9.44872E-05-2.75691E-05-2.86764E-05 1.05085E-06 1.23766E-18 2.60638E-18
 -1      4016 9.42642E-05-2.73877E-05-2.86607E-05 1.07828E-06 6.23411E-19 2.53396E-18
 -1      4017 9.46699E-05-2.77601E-05-2.86779E-05 6.67642E-07 1.06267E-19 1.30476E-18
 -1      4018 9.46196E-05-2.76948E-05-2.86802E-05 7.79763E-07 2.78839E-19 1.64133E-18
 -1      4019 9.44438E-05-2.75400E-05-2.86719E-05 7.83716E-07 6.81170E-19 2.18291E-18
 -1      4020 9.48014E-05-2.79055E-05-2.86715E-05 4.84230E-07-1.39705E-19 8.59883E-20
 -1      4021 9.47522E-05-2.78380E-05-2.86762E-05 5.71359E-07-1.12323E-19 7.70905E-19
 -1      4022 9.46166E-05-2.77096E-05-2.86732E-05 5.64177E-07 5.86965E-19 6.46411E-19
 -1      4023 9.49155E-05-2.80423E-05-2.86615E-05 3.45789E-07-2.46521E-19 8.00762E-20
 -1      4024 9.48720E-05-2.79793E-05-2.86674E-05 4.12735E-07-4.31674E-20-2.00678E-19
 -1      4025 9.47695E-05-2.78752E-05-2.86678E-05 4.01719E-07 4.10686E-20 4.77596E-19
 -1      4026 9.50092E-05-2.81629E-05-2.86496E-05 2.42217E-07-1.16304E-18-7.70138E-19
 -1      4027 9.49731E-05-2.81076E-05-2.86560E-05 2.93084E-07-5.23951E-19-5.59704E-19
 -1      4028 9.48973E-05-2.80250E-05-2.86585E-05 2.82190E-07 9.81885E-20 9.18134E-19
 -1      4029 9.50827E-05-2.82644E-05-2.86374E-05 1.65466E-07 3.86895E-19-1.68650E-18
 -1      4030 9.50543E-05-2.82181E-05-2.86437E-05 2.03661E-07-5.59614E-19-1.70076E-18
 -1      4031 9.49995E-05-2.81538E-05-2.86473E-05 1.94732E-07 1.26110E-19 6.18840E-19
 -1      4032 9.51382E-05-2.83468E-05-2.86256E-05 1.09198E-07 5.55776E-19-2.36441E-19
 -1      4033 9.51168E-05-2.83093E-05-2.86315E-05 1.37508E-07 3.99533E-19-1.47517E-18
 -1      4034 9.50782E-05-2.82602E-05-2.86356E-05 1.31145E-07-8.53783E-20-6.48890E-19
 -1      4035 9.51784E-05-2.84116E-05-2.86149E-05 6.84840E-08 8.33393E-19 1.08397E-19
 -1      4036 9.51631E-05-2.83822E-05-2.86201E-05 8.91535E-08 7.22646E-19 6.34882E-20
 -1      4037 9.51367E-05-2.83455E-05-2.86243E-05 8.52827E-08 2.56845E-19-6.93704E-19
 -1      4038 9.52064E-05-2.84614E-05-2.86054E-05 3.94914E-08-1.46218E-18-9.67704E-20
 -1      4039 9.51959E-05-2.84389E-05-2.86100E-05 5.43041E-08 7.99807E-20 3.20794E-19
 -1      4040 9.51785E-05-2.84120E-05-2.86139E-05 5.25576E-08 2.02465E-20 1.01396E-18
 -1      4041 9.52247E-05-2.84986E-05-2.85972E-05 1.92456E-08-8.24395E-19-5.14362E-19
 -1      4042 9.52180E-05-2.84818E-05-2.86011E-05 2.96948E-08-1.61198E-18-3.76704E-19
 -1      4043 9.52073E-05-2.84626E-05-2.86046E-05 2.95553E-08-1.47288E-18 4.86396E-19
 -1      4044 9.52362E-05-2.85260E-05-2.85902E-05 5.50668E-09 2.49887E-18-2.20938E-18
 -1      4045 9.52321E-05-2.85137E-05-2.85935E-05 1.26622E-08 1.02194E-18-1.19586E-18
 -1      4046 9.52258E-05-2.85001E-05-2.85966E-05 1.36900E-08 8.01890E-19-1.09382E-18
 -1      4047 9.25501E-05-2.22022E-05-3.01461E-05-3.31077E-06 3.54782E-19 5.37813E-19
 -1      4048 9.17672E-05-2.07603E-05-3.04228E-05-2.76345E-06 3.94963E-19 3.68852E-19
 -1      4049 9.12281E-05-2.03286E-05-3.04033E-05-2.80986E-06 3.86775E-19 2.91751E-19
 -1      4050 1.05667E-04-4.21341E-05-2.72361E-05-1.80077E-05-3.47681E-19 1.95361E-19
 -1      4051 7.52342E-05-1.78031E-05-2.47358E-05 1.12457E-05-1.51993E-18 2.36583E-18
 -1      4052 7.84794E-05-1.85833E-05-2.56470E-05 8.78703E-06-7.06082E-19 2.01086E-18
 -1      4053 8.81013E-05-2.96368E-05-2.49445E-05-2.09060E-05 2.12248E-19-2.22535E-19
 -1      4054 9.64170E-05-3.52210E-05-2.63728E-05-1.95050E-05 1.75242E-19 2.08727E-19
 -1      4055 8.77785E-05-2.72215E-05-2.59350E-05-1.68153E-05 9.92154E-20-2.18732E-19
 -1      4056 1.03884E-04-3.63085E-05-2.89621E-05-5.96354E-06-9.31836E-20 9.85053E-19
 -1      4057 1.02302E-04-3.46680E-05-2.89391E-05-6.13927E-06-1.32170E-19 9.70964E-19
 -1      4058 9.50920E-05-2.42361E-05-3.03696E-05-1.54068E-06 3.67084E-19 1.02166E-18
 -1      4059 8.99558E-05-1.94457E-05-3.01955E-05-2.32155E-06 5.53004E-19 1.53545E-19
 -1      4060 8.97791E-05-1.94186E-05-3.01774E-05-1.84905E-06 6.12439E-19 1.04003E-19
 -1      4061 8.91681E-05-1.98812E-05-2.97152E-05-1.82521E-06 5.45366E-19 1.07554E-19
 -1      4062 1.14571E-04-4.18323E-05-3.12200E-05 2.60735E-06-3.72552E-19 1.40071E-18
 -1      4063 1.11129E-04-3.98350E-05-3.06009E-05 2.92898E-06-2.13404E-19 1.12702E-18
 -1      4064 1.10459E-04-3.99968E-05-3.01467E-05 1.33775E-06-4.21289E-20 1.03076E-18
 -1      4065 1.07700E-04-3.97706E-05-2.90426E-05 4.10547E-06-2.73229E-19-3.51784E-19
 -1      4066 1.09750E-04-4.10080E-05-2.94560E-05 2.69012E-06-6.38282E-19-4.05004E-20
 -1      4067 1.06079E-04-3.92536E-05-2.86723E-05 6.60667E-06 1.49296E-19-1.11036E-18
 -1      4068 1.12379E-04-4.25612E-05-2.98462E-05 2.29942E-06-6.67056E-19-2.67093E-19
 -1      4069 1.14263E-04-4.29388E-05-3.05493E-05 1.04509E-07-8.84622E-19-3.47029E-19
 -1      4070 1.17127E-04-4.65212E-05-3.03837E-05 4.62091E-06-4.27087E-19-1.66389E-19
 -1      4071 1.11302E-04-4.30814E-05-2.92879E-05 5.97082E-06-6.38491E-19-8.59034E-19
 -1      4072 9.52442E-05-2.85547E-05-2.85812E-05-6.54301E-09 6.46581E-19-2.97355E-18
 -1      4073 9.52426E-05-2.85469E-05-2.85839E-05-3.79180E-09 7.45327E-19-2.28346E-18
 -1      4074 9.52406E-05-2.85383E-05-2.85867E-05 7.51193E-10 2.08579E-18-2.27497E-18
 -1      4075 8.87116E-05-2.01111E-05-2.94184E-05-2.21579E-06 4.96924E-19 4.96532E-20
 -1      4076 8.77074E-05-2.01325E-05-2.90042E-05-2.62825E-06 3.22165E-19 1.33784E-19
 -1      4077 8.81716E-05-2.08572E-05-2.88054E-05-4.32505E-06 3.14750E-19-1.45023E-19
 -1      4078 8.92265E-05-2.04402E-05-2.94353E-05-3.17012E-06 4.84372E-19-1.07620E-19
 -1      4079 1.17039E-04-4.55027E-05-3.04956E-05-2.82331E-06-5.05612E-19 1.21888E-18
 -1      4080 1.04175E-04-4.06426E-05-2.71967E-05 1.65715E-05-7.65693E-19-8.24279E-19
 -1      4081 9.95922E-05-3.84978E-05-2.60593E-05 2.09754E-05-6.06833E-19 1.27358E-19
 -1      4082 7.74151E-05-2.10741E-05-2.39646E-05 1.73333E-05-1.42918E-18 2.27846E-18
 -1      4083 9.53738E-05-2.50508E-05-3.01343E-05-2.43539E-06 2.94034E-19 1.03320E-18
 -1      4084 8.53897E-05-2.09521E-05-2.76095E-05 2.51308E-06 4.31916E-19 1.76113E-18
 -1      4085 8.66188E-05-2.19735E-05-2.76750E-05 3.44656E-06-4.37558E-21 6.30457E-19
 -1      4086 8.36245E-05-2.01799E-05-2.72536E-05 3.49591E-06 3.54604E-19 1.34997E-18
 -1      4087 9.31606E-05-3.36800E-05-2.56072E-05 2.03741E-05-7.95483E-20 1.27836E-19
 -1      4088 8.27547E-05-2.45856E-05-2.49291E-05 1.73099E-05-1.30306E-18 1.09931E-18
 -1      4089 8.14725E-05-2.07123E-05-2.60191E-05 1.01349E-05-8.38665E-19 1.05170E-18
 -1      4090 7.99445E-05-1.88530E-05-2.62667E-05 6.55603E-06-1.39494E-19 1.46249E-18
 -1      4091 8.22708E-05-1.96051E-05-2.68405E-05 4.99556E-06-2.07402E-19 1.27794E-18
 -1      4092 1.12998E-04-4.40972E-05-2.95509E-05-6.35467E-06-5.28628E-19 8.32303E-19
 -1      4093 1.01654E-04-3.81967E-05-2.70828E-05-1.71890E-05 6.43646E-20 4.56361E-19
 -1      4094 1.06246E-04-4.08131E-05-2.81084E-05-1.33098E-05-3.15123E-19 2.37209E-19
 -1      4095 9.84590E-05-3.46541E-05-2.73251E-05-1.51701E-05 1.03401E-19 5.33181E-19
 -1      4096 9.52389E-05-2.85282E-05-2.85903E-05-3.88658E-09-4.82717E-20-1.70990E-18
 -1      4097 9.52380E-05-2.85272E-05-2.85905E-05-3.34248E-09 1.26435E-18-5.26317E-19
 -1      4098 9.84368E-05-2.98759E-05-2.94066E-05-4.08136E-06 2.28689E-19 1.25973E-18
 -1      4099 9.67875E-05-2.76119E-05-2.96449E-05-3.84425E-06 3.51419E-19 1.27529E-18
 -1      4100 9.60646E-05-2.63392E-05-2.98723E-05-3.17308E-06 3.41897E-19 1.25119E-18
 -1      4101 9.52719E-05-2.53652E-05-2.99593E-05-3.31845E-06 2.04824E-19 1.07854E-18
 -1      4102 9.52394E-05-2.85228E-05-2.85928E-05-1.21231E-08 8.69372E-19-2.08755E-18
 -1      4103 9.52424E-05-2.85340E-05-2.85894E-05-5.57989E-09 1.00686E-18-3.18622E-18
 -1      4104 9.52452E-05-2.85439E-05-2.85863E-05-1.75561E-09 1.04797E-18-3.72261E-18
 -1      4105 1.00802E-04-3.36126E-05-2.88527E-05-7.23445E-06 2.74789E-20 1.11958E-18
 -1      4106 1.00731E-04-3.30281E-05-2.90122E-05-5.84536E-06-4.11729E-20 1.04728E-18
 -1      4107 9.94874E-05-3.15121E-05-2.91038E-05-5.60385E-06 2.08340E-19 1.32075E-18
 -1      4108 1.11007E-04-4.12438E-05-2.99882E-05-1.08228E-06-2.46604E-19 1.17189E-18
 -1      4109 9.52376E-05-2.85292E-05-2.85893E-05 2.40842E-09 2.01343E-18-2.15240E-18
 -1      4110 9.33096E-05-2.35405E-05-2.98877E-05-4.01185E-06 2.50953E-19 3.83656E-19
 -1      4111 9.25143E-05-2.28845E-05-2.98534E-05-4.05878E-06 3.92266E-19 2.81724E-19
 -1      4112 1.08124E-04-3.97036E-05-2.92842E-05-4.69172E-06-1.24303E-19 7.09188E-19
 -1      4113 1.06128E-04-3.81831E-05-2.90414E-05-5.75048E-06-6.37148E-20 8.33725E-19
 -1      4114 1.04539E-04-3.73823E-05-2.88391E-05-7.64680E-06-7.55257E-20 8.62404E-19
 -1      4115 9.52375E-05-2.85268E-05-2.85904E-05-1.42810E-09 1.42500E-18-7.90926E-19
 -1      4116 9.52373E-05-2.85272E-05-2.85901E-05-8.40688E-10 1.17733E-18-1.43050E-18
 -1      4117 9.52338E-05-2.85155E-05-2.85933E-05-2.59627E-09 2.71482E-19-1.13963E-18
 -1      4118 9.52370E-05-2.85271E-05-2.85900E-05 2.13690E-09 1.73891E-18-1.40266E-18
 -1      4119 9.52425E-05-2.85354E-05-2.85887E-05-4.27445E-09-1.71974E-19-4.71060E-18
 -1      4120 9.52412E-05-2.85323E-05-2.85896E-05-5.04705E-09-4.16958E-19-3.18258E-18
 -1      4121 9.52327E-05-2.85150E-05-2.85932E-05 3.64686E-09 1.03198E-18-1.99899E-18
 -1      4122 1.21749E-04-4.34093E-05-3.35444E-05-4.40924E-06-4.39560E-19-9.37560E-20
 -1      4123 1.16953E-04-4.75836E-05-2.96691E-05 8.32917E-06 2.79389E-20-1.20931E-18
 -1      4124 9.45977E-05-2.47793E-05-2.99277E-05-3.66853E-06 1.42097E-19 9.71046E-19
 -1      4125 1.12069E-04-4.49936E-05-2.87850E-05 1.04916E-05-5.23182E-19-1.21877E-18
 -1      4126 9.52366E-05-2.85202E-05-2.85927E-05-6.47463E-09-3.33384E-19-3.12964E-18
 -1      4127 9.07615E-05-2.00006E-05-3.03117E-05-2.79804E-06 4.69029E-19 2.58095E-19
 -1      4128 9.03654E-05-1.97376E-05-3.02883E-05-2.62074E-06 5.23351E-19 1.50287E-19
 -1      4129 9.01637E-05-2.05802E-05-2.98285E-05-3.06835E-06 5.63825E-19 5.66427E-20
 -1      4130 9.12840E-05-2.12351E-05-3.00217E-05-3.37899E-06 4.62998E-19 1.87353E-19
 -1      4131 1.10216E-04-4.30492E-05-2.87694E-05 9.05866E-06-6.16787E-19-1.51911E-18
 -1      4132 1.07715E-04-4.24720E-05-2.78970E-05 1.37639E-05-7.05959E-19-1.22989E-18
 -1      4133 1.02445E-04-3.89602E-05-2.72963E-05 1.51025E-05-5.92586E-19-8.50046E-19
 -1      4134 1.07438E-04-4.10288E-05-2.84747E-05 9.03457E-06-2.81379E-19-9.67330E-19
 -1      4135 9.52336E-05-2.85100E-05-2.85957E-05-1.40799E-08 2.65291E-19-3.21473E-18
 -1      4136 9.46621E-05-2.54861E-05-2.96514E-05-4.50938E-06 2.05945E-19 7.76417E-19
 -1      4137 8.86546E-05-2.34021E-05-2.79991E-05 2.91879E-06-1.74282E-19 7.10495E-19
 -1      4138 8.95346E-05-2.38072E-05-2.81605E-05 2.21007E-06 3.43511E-19 6.23059E-19
 -1      4139 9.59466E-05-2.71856E-05-2.94532E-05-5.09766E-06 2.68958E-19 1.08460E-18
 -1      4140 9.45009E-05-2.59336E-05-2.93895E-05-5.49689E-06 2.85173E-19 5.87244E-19
 -1      4141 9.85025E-05-3.02206E-05-2.92581E-05-5.03446E-06 3.04406E-19 1.43558E-18
 -1      4142 9.75227E-05-2.87911E-05-2.94389E-05-4.49931E-06 3.62017E-19 1.46878E-18
 -1      4143 9.66394E-05-2.78788E-05-2.94849E-05-4.76527E-06 3.43794E-19 1.40838E-18
 -1      4144 9.83089E-05-3.04559E-05-2.91077E-05-6.12451E-06 2.84136E-19 1.38590E-18
 -1      4145 9.00709E-05-2.41166E-05-2.82872E-05 1.56994E-06-3.02661E-19 1.64847E-19
 -1      4146 9.08028E-05-2.45339E-05-2.83945E-05 1.13447E-06-8.21038E-19-2.54719E-19
 -1      4147 9.03319E-05-2.44935E-05-2.82058E-05 2.57829E-06-2.41698E-19-3.47147E-19
 -1      4148 9.12874E-05-2.48831E-05-2.84755E-05 7.17621E-07-1.04261E-18-6.11639E-19
 -1      4149 9.18472E-05-2.52468E-05-2.85403E-05 4.62624E-07-8.47011E-19-1.48409E-18
 -1      4150 9.13339E-05-2.50417E-05-2.84107E-05 1.48560E-06-9.17895E-19-2.94203E-19
 -1      4151 9.22507E-05-2.55701E-05-2.85895E-05 2.32628E-07 1.33033E-19-8.36533E-19
 -1      4152 9.26895E-05-2.58990E-05-2.86248E-05 9.45972E-08 9.96518E-19-8.00022E-19
 -1      4153 9.21880E-05-2.55635E-05-2.85406E-05 7.73921E-07 1.70706E-19-4.35485E-19
 -1      4154 9.30148E-05-2.61771E-05-2.86526E-05-4.24266E-08 8.12796E-19-8.04920E-19
 -1      4155 9.33453E-05-2.64507E-05-2.86697E-05-9.86532E-08 1.33394E-19 2.82225E-19
 -1      4156 9.29127E-05-2.61191E-05-2.86181E-05 3.52668E-07 8.19711E-19-7.38657E-19
 -1      4157 9.36061E-05-2.66910E-05-2.86832E-05-1.70094E-07-1.09102E-18 1.15814E-18
 -1      4158 9.38532E-05-2.69156E-05-2.86887E-05-1.82382E-07-1.33519E-18 1.11462E-18
 -1      4159 9.34899E-05-2.66018E-05-2.86604E-05 1.12863E-07 5.39871E-19-3.63774E-19
 -1      4160 9.40475E-05-2.71056E-05-2.86929E-05-2.12829E-07-8.39409E-19 9.93346E-19
 -1      4161 9.42235E-05-2.72789E-05-2.86918E-05-2.02641E-07-9.07344E-19 1.19142E-18
 -1      4162 9.39367E-05-2.70078E-05-2.86790E-05-1.30687E-08-8.65080E-19 6.54479E-19
 -1      4163 9.43822E-05-2.74423E-05-2.86907E-05-2.12024E-07-1.47167E-18 1.19327E-18
 -1      4164 9.45193E-05-2.75886E-05-2.86858E-05-1.90665E-07-8.39829E-19 7.57354E-19
 -1      4165 9.42852E-05-2.73498E-05-2.86830E-05-7.06861E-08-1.15306E-18 1.85388E-18
 -1      4166 9.46393E-05-2.77194E-05-2.86814E-05-1.87576E-07-2.30856E-19 7.54567E-19
 -1      4167 9.47391E-05-2.78343E-05-2.86746E-05-1.62844E-07 1.77883E-19 7.02792E-19
 -1      4168 9.45591E-05-2.76370E-05-2.86782E-05-9.02627E-08-7.40419E-19 8.06732E-19
 -1      4169 9.48286E-05-2.79374E-05-2.86685E-05-1.54132E-07 2.86326E-19 4.26097E-19
 -1      4170 9.49004E-05-2.80268E-05-2.86611E-05-1.30194E-07 4.42245E-19 1.42156E-20
 -1      4171 9.47651E-05-2.78679E-05-2.86682E-05-8.81124E-08-2.82277E-19 1.35291E-18
 -1      4172 9.49660E-05-2.81069E-05-2.86544E-05-1.19787E-07 2.11663E-18-1.00395E-18
 -1      4173 9.50170E-05-2.81755E-05-2.86471E-05-9.86903E-08 3.26171E-18-7.26202E-19
 -1      4174 9.49176E-05-2.80504E-05-2.86559E-05-7.58662E-08 8.36294E-19 1.46433E-18
 -1      4175 9.50641E-05-2.82368E-05-2.86406E-05-8.86849E-08 2.26849E-18-1.49561E-18
 -1      4176 9.50996E-05-2.82888E-05-2.86338E-05-7.12070E-08 1.95820E-18-1.23427E-18
 -1      4177 9.50284E-05-2.81923E-05-2.86430E-05-6.02566E-08 2.26461E-18-3.71782E-19
 -1      4178 9.51313E-05-2.83331E-05-2.86280E-05-6.30323E-08 2.60160E-18-1.13937E-18
 -1      4179 9.51545E-05-2.83704E-05-2.86222E-05-4.96728E-08 2.76611E-18 4.11067E-20
 -1      4180 9.51057E-05-2.82987E-05-2.86308E-05-4.52341E-08 2.31568E-18-1.17194E-18
 -1      4181 9.51776E-05-2.84055E-05-2.86167E-05-4.25056E-08 2.20643E-18 2.03123E-19
 -1      4182 9.51939E-05-2.84347E-05-2.86114E-05-3.18089E-08 2.48659E-18-3.38789E-19
 -1      4183 9.51597E-05-2.83794E-05-2.86196E-05-3.19194E-08 2.45401E-18-1.14903E-18
 -1      4184 9.52089E-05-2.84603E-05-2.86066E-05-2.63780E-08 2.08519E-18-3.63530E-19
 -1      4185 9.52193E-05-2.84816E-05-2.86021E-05-1.80120E-08 1.45089E-18-2.30998E-18
 -1      4186 9.51971E-05-2.84411E-05-2.86094E-05-2.09025E-08 1.94208E-18-2.51089E-19
 -1      4187 9.65260E-05-3.11323E-05-2.80168E-05 7.31621E-06-1.34245E-18 2.05826E-19
 -1      4188 9.79181E-05-3.24995E-05-2.80071E-05 7.82764E-06-1.38802E-18-6.76080E-19
 -1      4189 9.52310E-05-2.85059E-05-2.85965E-05-1.17029E-08 1.50068E-19-2.59923E-18
 -1      4190 9.93872E-05-3.40018E-05-2.79728E-05 8.66809E-06-8.32878E-19-1.02763E-18
 -1      4191 1.01311E-04-3.58855E-05-2.80425E-05 8.99468E-06-4.48310E-19-1.26502E-18
 -1      4192 9.71724E-05-3.26001E-05-2.77277E-05 9.77883E-06-1.09704E-18-6.42242E-19
 -1      4193 9.39334E-05-2.79299E-05-2.82893E-05 4.43842E-06-3.23948E-19 1.33221E-19
 -1      4194 9.44228E-05-2.84970E-05-2.82324E-05 4.98687E-06 2.19316E-19 5.62787E-19
 -1      4195 9.35943E-05-2.73021E-05-2.84154E-05 3.29234E-06-7.98726E-19 1.44932E-18
 -1      4196 9.38108E-05-2.75845E-05-2.83657E-05 3.75609E-06-1.05588E-18 1.01272E-18
 -1      4197 9.31124E-05-2.71704E-05-2.82592E-05 4.24498E-06-7.50080E-19 1.20802E-18
 -1      4198 9.35441E-05-2.70149E-05-2.85160E-05 2.41114E-06 9.92388E-19 6.35857E-19
 -1      4199 9.36134E-05-2.71424E-05-2.84760E-05 2.79941E-06 3.84497E-19 1.40685E-18
 -1      4200 9.30582E-05-2.68059E-05-2.84051E-05 3.05044E-06 9.78863E-20 3.52045E-19
 -1      4201 9.36804E-05-2.69914E-05-2.85867E-05 1.74803E-06 1.57124E-18 1.11290E-18
 -1      4202 9.36607E-05-2.70078E-05-2.85586E-05 2.03549E-06 1.25467E-18 5.60399E-19
 -1      4203 9.32137E-05-2.66895E-05-2.85116E-05 2.14688E-06 9.13640E-19-1.52967E-20
 -1      4204 9.38984E-05-2.71004E-05-2.86326E-05 1.24731E-06 1.24403E-18 8.20296E-19
 -1      4205 9.38275E-05-2.70467E-05-2.86152E-05 1.46372E-06 1.47506E-18 9.59159E-19
 -1      4206 9.34774E-05-2.67648E-05-2.85858E-05 1.49323E-06 1.72573E-18 1.00642E-19
 -1      4207 9.41382E-05-2.72771E-05-2.86587E-05 8.84691E-07 6.04048E-19 7.47909E-19
 -1      4208 9.40485E-05-2.71927E-05-2.86495E-05 1.04754E-06 6.76824E-19 8.87907E-19
 -1      4209 9.37829E-05-2.69644E-05-2.86323E-05 1.02985E-06 7.27975E-19 4.24760E-19
 -1      4210 9.43692E-05-2.74799E-05-2.86700E-05 6.22748E-07 5.70048E-19 7.29452E-19
 -1      4211 9.42780E-05-2.73843E-05-2.86669E-05 7.43663E-07 6.28281E-19 1.42360E-18
 -1      4212 9.40767E-05-2.71998E-05-2.86581E-05 7.04818E-07 3.34684E-19-2.45741E-19
 -1      4213 9.45748E-05-2.76812E-05-2.86711E-05 4.34916E-07 7.79145E-19 9.47196E-19
 -1      4214 9.44912E-05-2.75868E-05-2.86723E-05 5.24153E-07 9.15336E-19 9.57366E-19
 -1      4215 9.43404E-05-2.74397E-05-2.86689E-05 4.78747E-07 7.17968E-19 3.10522E-19
 -1      4216 9.47478E-05-2.78656E-05-2.86656E-05 3.00985E-07-3.13292E-20 1.20907E-18
 -1      4217 9.46761E-05-2.77796E-05-2.86694E-05 3.66571E-07 1.42306E-19 1.24840E-18
 -1      4218 9.45646E-05-2.76638E-05-2.86696E-05 3.23090E-07 4.45340E-19 1.79414E-18
 -1      4219 9.48875E-05-2.80259E-05-2.86563E-05 2.05762E-07 9.18792E-19 1.41204E-18
 -1      4220 9.48290E-05-2.79515E-05-2.86615E-05 2.53791E-07 2.72306E-19 1.88472E-18
 -1      4221 9.47475E-05-2.78614E-05-2.86638E-05 2.16349E-07 2.41086E-19 1.63058E-18
 -1      4222 9.49964E-05-2.81599E-05-2.86452E-05 1.38252E-07 4.55521E-19 5.02267E-20
 -1      4223 9.49505E-05-2.80979E-05-2.86510E-05 1.73282E-07 1.15573E-18 9.68573E-19
 -1      4224 9.48919E-05-2.80287E-05-2.86544E-05 1.43317E-07 1.20969E-18 8.47271E-19
 -1      4225 9.50786E-05-2.82683E-05-2.86337E-05 9.05804E-08-4.57080E-19 8.56105E-19
 -1      4226 9.50439E-05-2.82184E-05-2.86395E-05 1.15991E-07 8.64839E-20 1.27807E-18
 -1      4227 9.50024E-05-2.81658E-05-2.86433E-05 9.34199E-08-3.27065E-20 1.99300E-18
 -1      4228 9.51387E-05-2.83538E-05-2.86226E-05 5.71158E-08 9.63675E-19 1.79531E-18
 -1      4229 9.51134E-05-2.83146E-05-2.86281E-05 7.53624E-08-1.25874E-19 1.41719E-18
 -1      4230 9.50847E-05-2.82752E-05-2.86320E-05 5.94308E-08-4.83909E-19 3.64057E-18
 -1      4231 9.51811E-05-2.84196E-05-2.86124E-05 3.36848E-08-1.09405E-18 1.12669E-18
 -1      4232 9.51633E-05-2.83895E-05-2.86174E-05 4.67356E-08 7.95490E-19 1.53641E-18
 -1      4233 9.51439E-05-2.83603E-05-2.86210E-05 3.63303E-08 8.90711E-19 2.30495E-18
 -1      4234 9.52095E-05-2.84689E-05-2.86034E-05 1.76637E-08 1.86958E-19-1.22146E-18
 -1      4235 9.51977E-05-2.84464E-05-2.86077E-05 2.68909E-08-6.00705E-19 4.74787E-19
 -1      4236 9.51854E-05-2.84258E-05-2.86110E-05 2.05579E-08-6.67808E-19-5.32962E-19
 -1      4237 9.52264E-05-2.85024E-05-2.85962E-05 6.65454E-09 1.61079E-18-2.31735E-18
 -1      4238 9.52189E-05-2.84854E-05-2.86000E-05 1.27042E-08 8.33744E-19-1.67061E-18
 -1      4239 9.52110E-05-2.84709E-05-2.86029E-05 9.33188E-09 1.21957E-18-2.65287E-18
 -1      4240 9.52269E-05-2.85023E-05-2.85963E-05 1.96100E-09 7.66824E-19-2.60889E-18
 -1      4241 8.82650E-05-2.65109E-05-2.64731E-05-1.44571E-05 6.48046E-20-1.59482E-19
 -1      4242 9.24375E-05-2.36711E-05-2.94804E-05-4.95646E-06 3.37492E-19 3.01972E-19
 -1      4243 9.17991E-05-2.23586E-05-2.97430E-05-4.18071E-06 3.86413E-19 3.59796E-19
 -1      4244 9.11566E-05-2.20129E-05-2.96435E-05-4.15412E-06 3.98290E-19 1.04412E-19
 -1      4245 8.87903E-05-2.25767E-05-2.83589E-05-6.60268E-06 1.07414E-19-1.43887E-19
 -1      4246 8.79504E-05-2.29784E-05-2.78849E-05-8.11216E-06 2.92388E-21 3.46063E-20
 -1      4247 9.48306E-05-2.91526E-05-2.81432E-05 5.80077E-06 3.37868E-19 2.54380E-19
 -1      4248 9.57026E-05-3.00616E-05-2.80973E-05 6.38550E-06-2.97563E-19 2.35273E-19
 -1      4249 9.36073E-05-2.81308E-05-2.80783E-05 5.80894E-06-1.29173E-19 4.56336E-19
 -1      4250 8.82893E-05-2.87164E-05-2.54010E-05 1.88050E-05-4.25743E-19 1.16976E-18
 -1      4251 8.45686E-05-2.45513E-05-2.57510E-05 1.43413E-05-1.25068E-18 2.05580E-18
 -1      4252 1.04837E-04-3.89034E-05-2.82088E-05 9.42871E-06 2.54937E-21-1.23541E-18
 -1      4253 9.39099E-05-3.23950E-05-2.63569E-05 1.67674E-05-2.91120E-19 2.28213E-19
 -1      4254 9.52240E-05-2.84931E-05-2.85989E-05-9.85867E-09-2.00005E-19-1.68608E-18
 -1      4255 8.44591E-05-2.33659E-05-2.61804E-05 1.19299E-05-1.59411E-18 1.71276E-18
 -1      4256 8.58539E-05-2.33487E-05-2.67278E-05 9.49288E-06-9.03565E-19 1.21695E-18
 -1      4257 8.89841E-05-2.70642E-05-2.65233E-05 1.32568E-05-1.32562E-18 1.86173E-18
 -1      4258 9.48593E-05-2.70793E-05-2.90539E-05-6.65651E-06 2.67427E-19 5.64421E-19
 -1      4259 9.36200E-05-2.53341E-05-2.92504E-05-5.94237E-06 2.38554E-19 1.78865E-19
 -1      4260 9.27157E-05-2.47844E-05-2.91267E-05-6.09321E-06 3.43035E-19 1.87524E-19
 -1      4261 8.77956E-05-2.34610E-05-2.75105E-05-9.53426E-06-1.05126E-19-7.15027E-20
 -1      4262 8.67064E-05-2.37400E-05-2.69947E-05-1.12334E-05-7.86880E-20-6.77279E-20
 -1      4263 9.00377E-05-2.49626E-05-2.79184E-05-9.48641E-06-2.17863E-20 1.18468E-19
 -1      4264 9.52062E-05-3.13489E-05-2.72898E-05-1.43335E-05 5.38759E-20 3.86429E-19
 -1      4265 9.92917E-05-3.43660E-05-2.78609E-05-1.26799E-05 9.19113E-20 4.46787E-19
 -1      4266 9.66655E-05-2.84250E-05-2.92398E-05-5.82215E-06 2.85474E-19 1.17154E-18
 -1      4267 9.04768E-05-2.13855E-05-2.95865E-05-3.95428E-06 3.83629E-19-1.11790E-19
 -1      4268 8.98202E-05-2.10499E-05-2.94849E-05-3.65595E-06 4.37769E-19-1.47911E-19
 -1      4269 8.93887E-05-2.13494E-05-2.91852E-05-4.15784E-06 3.87815E-19-1.69231E-19
 -1      4270 9.09326E-05-2.25469E-05-2.93052E-05-4.86851E-06 3.46558E-19 4.50499E-20
 -1      4271 9.48131E-05-2.98334E-05-2.78822E-05 7.72714E-06-1.02624E-18-7.29857E-19
 -1      4272 9.12893E-05-2.82664E-05-2.70660E-05-1.38841E-05 9.05266E-21 7.13361E-20
 -1      4273 1.00429E-04-3.36739E-05-2.86032E-05-8.73255E-06 1.01475E-19 9.42739E-19
 -1      4274 9.88284E-05-3.17988E-05-2.87033E-05-8.18068E-06 1.40693E-19 9.92779E-19
 -1      4275 8.80916E-05-2.31511E-05-2.78142E-05 3.82230E-06 8.35296E-20 5.01505E-19
 -1      4276 8.92137E-05-2.40483E-05-2.79000E-05 4.24833E-06 7.16138E-20-6.68199E-19
 -1      4277 8.70385E-05-2.28198E-05-2.75544E-05 4.96449E-06 6.02635E-19 5.20764E-19
 -1      4278 1.01190E-04-3.70456E-05-2.74469E-05 1.33646E-05-2.39243E-19-1.07226E-18
 -1      4279 9.78650E-05-3.50232E-05-2.68205E-05 1.58468E-05-2.30433E-19-4.63235E-19
 -1      4280 9.26144E-05-3.08665E-05-2.65734E-05 1.49427E-05-5.73822E-19 2.93102E-19
 -1      4281 1.04746E-04-3.84539E-05-2.84402E-05-1.04376E-05-2.11881E-19 6.90398E-19
 -1      4282 1.02616E-04-3.62548E-05-2.83991E-05-1.01461E-05 7.29424E-20 7.57726E-19
 -1      4283 9.52276E-05-2.85025E-05-2.85966E-05-4.20457E-09-1.70067E-19-1.95608E-18
 -1      4284 9.52268E-05-2.85019E-05-2.85965E-05-1.38906E-09 5.55432E-20-1.68180E-18
 -1      4285 1.10388E-04-4.22222E-05-2.91544E-05-7.13918E-06-4.92060E-19 6.66651E-19
 -1      4286 9.32684E-05-2.85802E-05-2.76866E-05-1.16858E-05-4.12697E-20 2.73680E-19
 -1      4287 8.42214E-05-2.11361E-05-2.70137E-05 6.14370E-06 4.28732E-19 5.85887E-19
 -1      4288 9.52158E-05-2.84772E-05-2.86023E-05-9.27750E-09 6.45516E-19-1.72259E-18
 -1      4289 8.93235E-05-2.18042E-05-2.89414E-05-4.90845E-06 3.75641E-19-2.47455E-19
 -1      4290 8.87043E-05-2.20147E-05-2.86114E-05-5.67176E-06 2.02858E-19-1.26607E-19
 -1      4291 9.01025E-05-2.35657E-05-2.85135E-05-7.14498E-06 1.43297E-19 5.52325E-20
 -1      4292 9.00811E-05-2.24070E-05-2.90026E-05-5.38518E-06 3.35981E-19-1.00712E-19
 -1      4293 9.52206E-05-2.84873E-05-2.85997E-05 7.27350E-10 1.20127E-18-3.09381E-18
 -1      4294 1.08723E-04-4.18215E-05-2.86920E-05-1.01778E-05-5.42467E-19 3.58335E-19
 -1      4295 8.56024E-05-2.27184E-05-2.69688E-05 7.88804E-06-2.70317E-19 4.35884E-19
 -1      4296 8.68275E-05-2.29380E-05-2.73520E-05 6.18824E-06 3.54138E-19 6.76427E-19
 -1      4297 8.84124E-05-2.42451E-05-2.75238E-05 6.51539E-06 1.03743E-20-2.49683E-19
 -1      4298 8.84131E-05-2.53001E-05-2.70979E-05 9.45743E-06-1.18109E-18 5.63511E-19
 -1      4299 9.71220E-05-2.92113E-05-2.90918E-05-6.38921E-06 3.24032E-19 1.09180E-18
 -1      4300 9.62711E-05-2.85346E-05-2.90450E-05-6.75690E-06 2.69486E-19 1.00183E-18
 -1      4301 9.52822E-05-2.78863E-05-2.88902E-05-7.34184E-06 2.02730E-19 5.77541E-19
 -1      4302 9.81062E-05-3.05744E-05-2.89235E-05-7.06475E-06 2.77330E-19 1.10256E-18
 -1      4303 9.28785E-05-2.63515E-05-2.85221E-05 1.74951E-06 1.22590E-18-5.46502E-19
 -1      4304 9.27806E-05-2.63043E-05-2.84787E-05 2.11530E-06 6.77596E-19-5.00550E-19
 -1      4305 9.06449E-05-2.50040E-05-2.81606E-05 3.34756E-06-4.27117E-19-8.01035E-19
 -1      4306 9.12178E-05-2.51824E-05-2.82849E-05 2.64277E-06-3.74546E-19-1.07699E-18
 -1      4307 9.52100E-05-2.84681E-05-2.86036E-05-1.40303E-09 9.09063E-19-3.50983E-18
 -1      4308 9.52100E-05-2.84692E-05-2.86033E-05 3.28768E-09 1.72914E-18-3.67661E-18
 -1      4309 9.52004E-05-2.84507E-05-2.86068E-05 7.60277E-09-2.04780E-19-2.72508E-18
 -1      4310 9.16656E-05-2.53879E-05-2.84137E-05 1.80819E-06-2.20058E-19-9.58993E-19
 -1      4311 9.21184E-05-2.56454E-05-2.84887E-05 1.38264E-06-1.12855E-19-3.76634E-19
 -1      4312 9.24827E-05-2.58825E-05-2.85393E-05 1.09077E-06 6.57298E-19-5.76580E-19
 -1      4313 9.28581E-05-2.61598E-05-2.85955E-05 7.08491E-07 1.13953E-18 6.02160E-20
 -1      4314 9.31858E-05-2.63917E-05-2.86238E-05 5.38221E-07 6.93105E-19-2.30862E-19
 -1      4315 9.34163E-05-2.65933E-05-2.86449E-05 3.80769E-07 6.92359E-19-1.09189E-18
 -1      4316 9.36743E-05-2.68015E-05-2.86596E-05 2.78937E-07 2.71355E-19-9.01031E-19
 -1      4317 9.34160E-05-2.66050E-05-2.86259E-05 6.99111E-07 4.99299E-19-3.01164E-19
 -1      4318 9.38588E-05-2.69741E-05-2.86694E-05 1.85866E-07-9.28042E-20-5.46642E-19
 -1      4319 9.40521E-05-2.71455E-05-2.86747E-05 1.33315E-07-5.95119E-19-1.73481E-19
 -1      4320 9.38252E-05-2.69444E-05-2.86571E-05 4.22998E-07 3.90717E-19-4.15749E-19
 -1      4321 9.42123E-05-2.73040E-05-2.86781E-05 7.29862E-08-7.86856E-19 6.52203E-19
 -1      4322 9.43696E-05-2.74562E-05-2.86778E-05 4.68736E-08-9.96336E-19 1.11265E-18
 -1      4323 9.41660E-05-2.72574E-05-2.86707E-05 2.50096E-07-1.28729E-19-5.30743E-19
 -1      4324 9.44968E-05-2.75901E-05-2.86764E-05 1.18567E-08-7.25208E-19 1.46264E-18
 -1      4325 9.46158E-05-2.77147E-05-2.86727E-05 2.80458E-09-2.41572E-19 1.29703E-18
 -1      4326 9.44485E-05-2.75371E-05-2.86730E-05 1.40401E-07-6.20461E-19 1.18462E-18
 -1      4327 9.47147E-05-2.78246E-05-2.86686E-05-1.67425E-08 1.13643E-19 2.16274E-18
 -1      4328 9.48034E-05-2.79247E-05-2.86630E-05-1.66430E-08 1.68889E-20 2.26378E-18
 -1      4329 9.46706E-05-2.77734E-05-2.86677E-05 7.51883E-08-8.31189E-20 2.00472E-18
 -1      4330 9.48784E-05-2.80130E-05-2.86575E-05-2.69961E-08-3.42035E-19 2.78188E-18
 -1      4331 9.49434E-05-2.80920E-05-2.86512E-05-2.25871E-08 5.91329E-19 2.57272E-18
 -1      4332 9.48413E-05-2.79676E-05-2.86584E-05 3.76528E-08 6.09433E-19 2.12908E-18
 -1      4333 9.49991E-05-2.81616E-05-2.86452E-05-2.76486E-08 8.17292E-19 1.98299E-18
 -1      4334 9.50457E-05-2.82229E-05-2.86389E-05-2.17812E-08 8.18893E-19 5.18704E-19
 -1      4335 9.49695E-05-2.81233E-05-2.86471E-05 1.68642E-08-5.94617E-19 2.37057E-18
 -1      4336 9.50843E-05-2.82742E-05-2.86333E-05-2.39434E-08 1.89728E-18-8.23093E-19
 -1      4337 9.51158E-05-2.83190E-05-2.86276E-05-1.82389E-08 2.48710E-18-1.47238E-18
 -1      4338 9.50617E-05-2.82431E-05-2.86356E-05 6.11558E-09 5.54590E-19-2.25530E-19
 -1      4339 9.51447E-05-2.83604E-05-2.86221E-05-1.90112E-08 3.02107E-18-1.46189E-18
 -1      4340 9.51675E-05-2.83961E-05-2.86166E-05-1.34795E-08 2.45056E-18-1.26062E-18
 -1      4341 9.51280E-05-2.83359E-05-2.86245E-05 7.30796E-10 2.49193E-18-1.62502E-18
 -1      4342 9.51903E-05-2.84322E-05-2.86107E-05-1.16301E-08 1.39329E-18-1.56072E-18
 -1      4343 9.52050E-05-2.84579E-05-2.86060E-05-7.53514E-09 1.61020E-18-1.68887E-18
 -1      4344 1.00016E-04-3.44018E-05-2.81560E-05-1.14060E-05 1.14185E-19 6.88441E-19
 -1      4345 9.23707E-05-2.85825E-05-2.73326E-05 1.01182E-05-1.39709E-18 2.91047E-19
 -1      4346 9.36645E-05-3.00901E-05-2.72201E-05 1.13466E-05-9.02749E-19-3.59627E-19
 -1      4347 9.23906E-05-2.62232E-05-2.83633E-05 2.92362E-06 3.25529E-19-1.00841E-18
 -1      4348 9.23296E-05-2.63292E-05-2.82900E-05 3.48993E-06-3.13497E-19-3.36799E-19
 -1      4349 9.23867E-05-2.65348E-05-2.82063E-05 4.17513E-06-6.56499E-19 5.50588E-20
 -1      4350 9.33793E-05-2.66504E-05-2.86075E-05 1.06280E-06 1.44585E-18-7.49519E-21
 -1      4351 9.32312E-05-2.65371E-05-2.85792E-05 1.32028E-06 1.63866E-18 2.14696E-19
 -1      4352 9.37635E-05-2.69350E-05-2.86466E-05 6.95300E-07 2.46943E-19 7.31398E-20
 -1      4353 9.36094E-05-2.68089E-05-2.86295E-05 8.78890E-07 6.27539E-19 4.55779E-19
 -1      4354 9.40937E-05-2.72162E-05-2.86658E-05 4.53490E-07 4.85023E-19-7.57774E-19
 -1      4355 9.39510E-05-2.70864E-05-2.86574E-05 5.80697E-07 2.98658E-19-1.18397E-19
 -1      4356 9.43784E-05-2.74835E-05-2.86720E-05 2.89811E-07-9.53472E-20 3.95135E-19
 -1      4357 9.42552E-05-2.73616E-05-2.86698E-05 3.75987E-07 2.19538E-19-3.34370E-19
 -1      4358 9.46088E-05-2.77179E-05-2.86693E-05 1.83259E-07-1.90210E-19 1.75397E-18
 -1      4359 9.45070E-05-2.76100E-05-2.86711E-05 2.41405E-07 2.24786E-20 1.40740E-18
 -1      4360 9.47901E-05-2.79160E-05-2.86615E-05 1.14481E-07 8.81919E-19 1.31264E-18
 -1      4361 9.47087E-05-2.78244E-05-2.86656E-05 1.53605E-07 5.48304E-20 1.79757E-18
 -1      4362 9.49290E-05-2.80785E-05-2.86509E-05 7.03763E-08 6.85381E-19 1.94577E-18
 -1      4363 9.48660E-05-2.80033E-05-2.86562E-05 9.66669E-08 9.80795E-19 1.52822E-18
 -1      4364 9.50328E-05-2.82086E-05-2.86394E-05 4.22439E-08-5.97059E-19 2.40586E-18
 -1      4365 9.49854E-05-2.81483E-05-2.86451E-05 5.98899E-08-1.58545E-19 1.76223E-18
 -1      4366 9.51066E-05-2.83082E-05-2.86282E-05 2.46484E-08 1.24703E-18 1.33173E-18
 -1      4367 9.50719E-05-2.82608E-05-2.86338E-05 3.66150E-08-1.01546E-19 2.05542E-18
 -1      4368 9.51608E-05-2.83868E-05-2.86175E-05 1.33280E-08 1.28539E-18-1.10409E-19
 -1      4369 9.51360E-05-2.83506E-05-2.86227E-05 2.12374E-08 1.87376E-18 9.42577E-19
 -1      4370 9.51838E-05-2.84242E-05-2.86115E-05 1.26972E-08 8.70199E-21-1.79212E-18
 -1      4371 9.22311E-05-2.68593E-05-2.80368E-05 5.37923E-06-4.05398E-19 7.95620E-19
 -1      4372 9.26466E-05-2.74381E-05-2.79339E-05 6.31803E-06-5.19055E-19 1.23977E-19
 -1      4373 9.73604E-05-3.05013E-05-2.86572E-05-8.48548E-06 2.21003E-19 7.92297E-19
 -1      4374 9.21717E-05-2.61687E-05-2.82732E-05-8.94683E-06 8.80699E-21 1.87991E-19
 -1      4375 9.50110E-05-2.88734E-05-2.83767E-05-9.52320E-06 1.53595E-19 3.37187E-19
 -1      4376 9.14034E-05-2.68610E-05-2.76602E-05 7.45915E-06-9.81215E-19-3.40161E-19
 -1      4377 9.20875E-05-2.77467E-05-2.75311E-05 8.66090E-06-1.39811E-18 1.37573E-19
 -1      4378 1.01890E-04-3.71798E-05-2.77762E-05 1.16205E-05-3.71246E-19-1.64558E-18
 -1      4379 9.28295E-05-2.61965E-05-2.85512E-05 1.26316E-06 9.62802E-19-5.97385E-19
 -1      4380 9.04218E-05-2.51059E-05-2.79777E-05 4.57650E-06-1.33518E-19-7.29754E-19
 -1      4381 9.14060E-05-2.58796E-05-2.80759E-05 4.56373E-06-5.65827E-19-5.57669E-19
 -1      4382 9.09231E-05-2.30517E-05-2.90687E-05-5.65700E-06 3.84438E-19 7.61883E-20
 -1      4383 9.20290E-05-2.58185E-05-2.83776E-05 2.48314E-06 1.37851E-19-1.22347E-18
 -1      4384 9.70536E-05-3.14457E-05-2.81327E-05-1.07843E-05 1.26969E-19 6.24320E-19
 -1      4385 8.99707E-05-2.51232E-05-2.78042E-05 5.63632E-06 1.50920E-19-8.62661E-19
 -1      4386 9.51787E-05-2.84141E-05-2.86131E-05 1.30909E-10 1.30611E-18-1.33363E-18
 -1      4387 9.77914E-05-3.38415E-05-2.73411E-05 1.24800E-05-1.13494E-19-1.55046E-18
 -1      4388 9.20688E-05-2.47687E-05-2.88332E-05-6.77942E-06 2.83288E-19 8.80000E-20
 -1      4389 9.23057E-05-2.54930E-05-2.86129E-05-7.69157E-06 2.17812E-19 2.54116E-19
 -1      4390 8.99504E-05-2.54666E-05-2.76321E-05 6.83462E-06-4.37486E-19-1.48694E-19
 -1      4391 9.58698E-05-2.90158E-05-2.86392E-05-8.39719E-06 2.26361E-19 5.19594E-19
 -1      4392 9.21412E-05-2.95696E-05-2.68866E-05 1.28638E-05-9.52515E-19 4.89274E-19
 -3
    1PSTEP                         4           1           1          
  100CL  101 1.000000000        4392                     0    1           1
 -4  ERROR       1    1
 -5  STR(%)      1    1    0    0
 -1         1 3.78106E+01
 -1         2 2.63567E+01
 -1         3 3.03143E-04
 -1         4 3.34500E-04
 -1         5 1.38550E+01
 -1         6 1.30715E+01
 -1         7 1.30715E+01
 -1         8 3.55968E+00
 -1         9 1.83791E+00
 -1        10 1.31139E+00
 -1        11 1.03905E+00
 -1        12 8.61243E-01
 -1        13 7.38492E-01
 -1        14 6.60635E-01
 -1        15 7.08280E-01
 -1        16 7.99441E-01
 -1        17 9.13202E-01
 -1        18 1.08592E+00
 -1        19 1.34695E+00
 -1        20 1.84453E+00
 -1        21 3.45385E+00
 -1        22 8.46162E+00
 -1        23 1.30715E+01
 -1        24 4.20231E+00
 -1        25 3.25473E+00
 -1        26 1.99225E+00
 -1        27 1.53022E+00
 -1        28 1.23905E+00
 -1        29 1.34214E+00
 -1        30 1.67435E+00
 -1        31 2.00155E+00
 -1        32 2.76834E+00
 -1        33 3.74294E+00
 -1        34 4.62677E+00
 -1        35 4.62677E+00
 -1        36 4.49453E+00
 -1        37 5.75074E+00
 -1        38 1.22032E+01
 -1        39 1.30103E+01
 -1        40 1.30103E+01
 -1        41 1.20732E+01
 -1        42 5.31565E+00
 -1        43 4.32251E+00
 -1        44 4.69464E+00
 -1        45 4.69464E+00
 -1        46 3.85860E+00
 -1        47 2.88833E+00
 -1        48 2.04884E+00
 -1        49 1.51986E+00
 -1        50 1.16094E+00
 -1        51 8.54173E-01
 -1        52 6.13823E-01
 -1        53 4.34732E-01
 -1        54 3.04959E-01
 -1        55 2.05572E-01
 -1        56 1.49769E-01
 -1        57 1.05183E-01
 -1        58 8.24104E-02
 -1        59 6.41344E-02
 -1        60 4.95490E-02
 -1        61 3.83299E-02
 -1        62 2.91525E-02
 -1        63 2.17833E-02
 -1        64 1.59721E-02
 -1        65 1.27274E-02
 -1        66 1.02128E-02
 -1        67 7.85159E-03
 -1        68 5.96161E-03
 -1        69 4.09887E-03
 -1        70 3.03263E-03
 -1        71 2.52656E-03
 -1        72 1.72435E-03
 -1        73 1.38550E+01
 -1        74 3.35085E+00
 -1        75 2.31974E+00
 -1        76 1.54109E+00
 -1        77 1.09731E+00
 -1        78 8.27286E-01
 -1        79 5.78276E-01
 -1        80 3.69728E-01
 -1        81 2.24703E-01
 -1        82 3.69240E-01
 -1        83 5.98173E-01
 -1        84 7.90781E-01
 -1        85 9.56865E-01
 -1        86 1.41814E+00
 -1        87 1.81489E+00
 -1        88 2.02401E+00
 -1        89 2.20003E+00
 -1        90 2.31961E+00
 -1        91 2.31961E+00
 -1        92 2.12536E+00
 -1        93 1.70993E+00
 -1        94 1.25796E+00
 -1        95 8.35253E-01
 -1        96 5.45771E-01
 -1        97 3.47755E-01
 -1        98 2.37011E-01
 -1        99 2.23985E-01
 -1       100 2.23985E-01
 -1       101 2.13357E-01
 -1       102 1.83215E-01
 -1       103 1.46568E-01
 -1       104 1.16677E-01
 -1       105 8.86770E-02
 -1       106 7.25885E-02
 -1       107 5.67338E-02
 -1       108 4.24920E-02
 -1       109 3.04792E-02
 -1       110 2.11756E-02
 -1       111 1.83012E-02
 -1       112 1.52436E-02
 -1       113 1.22848E-02
 -1       114 9.64125E-03
 -1       115 8.70545E-03
 -1       116 7.47885E-03
 -1       117 6.09231E-03
 -1       118 4.60790E-03
 -1       119 3.24740E-03
 -1       120 2.36061E-03
 -1       121 1.39343E-03
 -1       122 6.50523E-04
 -1       123 5.65434E-04
 -1       124 2.98115E-04
 -1       125 1.72215E-04
 -1       126 2.77548E-04
 -1       127 3.38987E-04
 -1       128 3.71416E-04
 -1       129 3.85086E-04
 -1       130 3.87719E-04
 -1       131 3.87719E-04
 -1       132 3.65196E-04
 -1       133 3.11728E-04
 -1       134 2.00796E-04
 -1       135 3.30861E-04
 -1       136 5.80458E-04
 -1       137 1.08435E-03
 -1       138 2.63567E+01
 -1       139 4.39138E+01
 -1       140 4.39138E+01
 -1       141 1.69248E+01
 -1       142 1.22534E+01
 -1       143 1.25056E+01
 -1       144 1.25056E+01
 -1       145 1.22011E+01
 -1       146 1.22011E+01
 -1       147 1.21855E+01
 -1       148 2.89560E+01
 -1       149 3.00221E+01
 -1       150 2.78023E+01
 -1       151 2.53427E+01
 -1       152 2.53427E+01
 -1       153 2.52010E+01
 -1       154 4.09655E+01
 -1       155 4.09655E+01
 -1       156 1.52874E+01
 -1       157 1.33098E+01
 -1       158 1.41527E+01
 -1       159 1.41527E+01
 -1       160 1.37147E+01
 -1       161 1.52292E+01
 -1       162 3.78106E+01
 -1       163 2.45938E+01
 -1       164 2.45938E+01
 -1       165 6.01382E+00
 -1       166 2.30409E+00
 -1       167 1.54476E+00
 -1       168 1.17432E+00
 -1       169 9.50125E-01
 -1       170 8.04734E-01
 -1       171 7.07068E-01
 -1       172 6.82511E-01
 -1       173 7.60297E-01
 -1       174 8.60299E-01
 -1       175 1.00284E+00
 -1       176 1.21289E+00
 -1       177 1.57482E+00
 -1       178 2.29434E+00
 -1       179 3.87424E+00
 -1       180 1.38550E+01
 -1       181 4.20231E+00
 -1       182 3.25473E+00
 -1       183 1.99225E+00
 -1       184 1.53022E+00
 -1       185 1.23905E+00
 -1       186 1.01163E+00
 -1       187 1.34214E+00
 -1       188 1.94255E+00
 -1       189 2.65195E+00
 -1       190 3.24607E+00
 -1       191 3.74294E+00
 -1       192 4.62677E+00
 -1       193 4.49453E+00
 -1       194 4.16348E+00
 -1       195 6.33555E+00
 -1       196 1.22032E+01
 -1       197 1.30103E+01
 -1       198 1.20732E+01
 -1       199 6.30144E+00
 -1       200 4.01460E+00
 -1       201 4.32251E+00
 -1       202 4.69464E+00
 -1       203 3.85860E+00
 -1       204 3.17815E+00
 -1       205 2.55697E+00
 -1       206 2.05243E+00
 -1       207 1.50721E+00
 -1       208 1.06233E+00
 -1       209 7.28095E-01
 -1       210 4.89061E-01
 -1       211 3.28524E-01
 -1       212 2.26725E-01
 -1       213 1.69408E-01
 -1       214 1.19686E-01
 -1       215 8.37204E-02
 -1       216 6.41344E-02
 -1       217 4.95490E-02
 -1       218 3.83299E-02
 -1       219 2.91525E-02
 -1       220 2.17865E-02
 -1       221 1.67471E-02
 -1       222 1.27274E-02
 -1       223 1.02128E-02
 -1       224 7.85159E-03
 -1       225 5.97280E-03
 -1       226 4.36903E-03
 -1       227 3.03263E-03
 -1       228 2.52656E-03
 -1       229 1.72435E-03
 -1       230 3.35085E+00
 -1       231 2.31974E+00
 -1       232 1.54109E+00
 -1       233 1.09731E+00
 -1       234 8.27286E-01
 -1       235 5.78276E-01
 -1       236 3.82763E-01
 -1       237 2.70689E-01
 -1       238 3.23655E-01
 -1       239 4.53886E-01
 -1       240 6.15834E-01
 -1       241 8.32929E-01
 -1       242 1.17473E+00
 -1       243 1.47877E+00
 -1       244 1.81489E+00
 -1       245 2.02401E+00
 -1       246 2.20003E+00
 -1       247 2.31961E+00
 -1       248 2.12536E+00
 -1       249 1.70993E+00
 -1       250 1.25796E+00
 -1       251 8.78144E-01
 -1       252 5.45891E-01
 -1       253 3.47755E-01
 -1       254 2.37011E-01
 -1       255 2.09652E-01
 -1       256 2.23985E-01
 -1       257 2.13357E-01
 -1       258 1.83215E-01
 -1       259 1.46568E-01
 -1       260 1.19252E-01
 -1       261 9.34965E-02
 -1       262 7.25885E-02
 -1       263 5.67338E-02
 -1       264 4.24920E-02
 -1       265 3.10144E-02
 -1       266 2.20880E-02
 -1       267 1.83012E-02
 -1       268 1.52436E-02
 -1       269 1.22848E-02
 -1       270 9.64125E-03
 -1       271 8.70545E-03
 -1       272 7.47885E-03
 -1       273 6.09231E-03
 -1       274 4.60790E-03
 -1       275 3.24740E-03
 -1       276 2.36061E-03
 -1       277 1.39343E-03
 -1       278 5.95351E-04
 -1       279 5.44069E-04
 -1       280 3.46710E-04
 -1       281 4.58154E-04
 -1       282 5.80164E-04
 -1       283 6.47753E-04
 -1       284 6.82452E-04
 -1       285 6.88723E-04
 -1       286 6.88723E-04
 -1       287 6.83829E-04
 -1       288 6.40075E-04
 -1       289 5.28033E-04
 -1       290 3.44998E-04
 -1       291 1.25826E-03
 -1       292 3.05415E+01
 -1       293 3.66552E+01
 -1       294 4.39138E+01
 -1       295 1.75643E+01
 -1       296 1.10167E+01
 -1       297 1.22534E+01
 -1       298 1.25056E+01
 -1       299 1.17192E+01
 -1       300 1.22011E+01
 -1       301 1.14478E+01
 -1       302 1.21855E+01
 -1       303 3.00221E+01
 -1       304 3.00221E+01
 -1       305 2.62763E+01
 -1       306 2.75355E+01
 -1       307 2.75355E+01
 -1       308 3.70717E+01
 -1       309 4.09655E+01
 -1       310 1.54096E+01
 -1       311 1.19811E+01
 -1       312 1.33098E+01
 -1       313 1.41527E+01
 -1       314 1.37147E+01
 -1       315 1.23438E+01
 -1       316 1.52292E+01
 -1       317 3.78106E+01
 -1       318 3.44786E+01
 -1       319 2.47741E+01
 -1       320 3.05415E+01
 -1       321 1.25826E-03
 -1       322 1.13196E+00
 -1       323 2.47696E+00
 -1       324 8.00516E-01
 -1       325 6.74943E-01
 -1       326 5.83417E-01
 -1       327 5.17944E-01
 -1       328 5.68029E-01
 -1       329 6.37298E-01
 -1       330 7.26139E-01
 -1       331 8.35841E-01
 -1       332 9.77298E-01
 -1       333 1.17786E+00
 -1       334 1.34407E+00
 -1       335 2.08552E+00
 -1       336 1.77632E+00
 -1       337 1.53216E+00
 -1       338 9.89824E-01
 -1       339 7.41802E-01
 -1       340 6.35895E-01
 -1       341 1.04025E+00
 -1       342 1.62492E+00
 -1       343 2.32693E+00
 -1       344 3.09398E+00
 -1       345 3.78439E+00
 -1       346 4.26489E+00
 -1       347 5.61473E+00
 -1       348 7.65806E+00
 -1       349 7.30343E+00
 -1       350 1.27657E+01
 -1       351 8.53651E+00
 -1       352 6.40225E+00
 -1       353 8.65859E+00
 -1       354 5.98370E+00
 -1       355 4.82621E+00
 -1       356 3.66976E+00
 -1       357 3.32138E+00
 -1       358 2.77073E+00
 -1       359 2.22115E+00
 -1       360 1.65671E+00
 -1       361 1.19314E+00
 -1       362 8.38642E-01
 -1       363 5.79586E-01
 -1       364 3.95374E-01
 -1       365 2.60619E-01
 -1       366 1.81271E-01
 -1       367 1.19686E-01
 -1       368 8.37204E-02
 -1       369 5.86663E-02
 -1       370 4.16934E-02
 -1       371 2.81888E-02
 -1       372 2.13727E-02
 -1       373 1.68545E-02
 -1       374 1.30439E-02
 -1       375 9.86923E-03
 -1       376 7.63714E-03
 -1       377 6.10339E-03
 -1       378 5.00624E-03
 -1       379 3.81759E-03
 -1       380 2.83486E-03
 -1       381 1.97708E-03
 -1       382 1.53910E-03
 -1       383 1.03342E+00
 -1       384 2.54359E+01
 -1       385 6.96911E-01
 -1       386 5.30840E-01
 -1       387 4.05045E-01
 -1       388 3.57448E-01
 -1       389 3.88719E-01
 -1       390 5.18987E-01
 -1       391 7.01237E-01
 -1       392 9.12217E-01
 -1       393 1.12559E+00
 -1       394 1.34715E+00
 -1       395 1.47204E+00
 -1       396 1.47263E+00
 -1       397 1.47263E+00
 -1       398 1.49228E+00
 -1       399 1.53740E+00
 -1       400 1.50383E+00
 -1       401 1.30576E+00
 -1       402 1.03844E+00
 -1       403 7.81331E-01
 -1       404 5.22243E-01
 -1       405 3.06805E-01
 -1       406 1.75236E-01
 -1       407 1.17679E-01
 -1       408 1.38822E-01
 -1       409 1.51702E-01
 -1       410 1.44286E-01
 -1       411 1.25539E-01
 -1       412 1.09176E-01
 -1       413 8.89276E-02
 -1       414 6.85035E-02
 -1       415 5.41140E-02
 -1       416 4.17838E-02
 -1       417 3.10144E-02
 -1       418 2.20880E-02
 -1       419 1.49919E-02
 -1       420 1.16509E-02
 -1       421 9.92837E-03
 -1       422 8.12645E-03
 -1       423 6.37151E-03
 -1       424 4.88768E-03
 -1       425 4.24242E-03
 -1       426 3.40849E-03
 -1       427 2.64811E-03
 -1       428 1.91095E-03
 -1       429 1.34618E-03
 -1       430 6.41761E-04
 -1       431 1.05634E-03
 -1       432 1.05634E-03
 -1       433 7.46532E-04
 -1       434 8.17519E-04
 -1       435 8.52844E-04
 -1       436 8.62765E-04
 -1       437 8.73618E-04
 -1       438 8.86371E-04
 -1       439 8.86371E-04
 -1       440 8.45564E-04
 -1       441 7.10167E-04
 -1       442 1.17156E-03
 -1       443 1.49229E+01
 -1       444 3.36033E+01
 -1       445 9.50260E-01
 -1       446 8.72667E+00
 -1       447 7.72088E+00
 -1       448 9.65028E+00
 -1       449 1.17192E+01
 -1       450 1.12448E+01
 -1       451 9.28355E+00
 -1       452 7.39949E+00
 -1       453 1.10849E+01
 -1       454 1.94607E+01
 -1       455 2.26450E+01
 -1       456 4.02049E+01
 -1       457 4.02049E+01
 -1       458 2.90803E+01
 -1       459 2.47451E+01
 -1       460 1.41747E+01
 -1       461 7.92607E+00
 -1       462 9.60179E+00
 -1       463 1.04371E+01
 -1       464 9.43412E+00
 -1       465 1.29471E+01
 -1       466 2.29097E+01
 -1       467 2.60734E+01
 -1       468 3.36033E+01
 -1       469 2.08798E+01
 -1       470 5.67701E+00
 -1       471 2.66262E+01
 -1       472 1.09854E+01
 -1       473 7.60185E+00
 -1       474 7.95181E+00
 -1       475 4.53904E-01
 -1       476 5.14257E-01
 -1       477 4.11495E-01
 -1       478 4.67273E-01
 -1       479 5.21532E-01
 -1       480 5.60861E-01
 -1       481 5.64537E-01
 -1       482 5.64537E-01
 -1       483 6.17131E-01
 -1       484 1.21669E+00
 -1       485 6.47885E-01
 -1       486 7.63363E+00
 -1       487 2.03763E+01
 -1       488 4.77718E-01
 -1       489 4.78812E-01
 -1       490 7.31332E-01
 -1       491 1.14775E+00
 -1       492 1.72892E+00
 -1       493 2.54604E+00
 -1       494 3.67978E+00
 -1       495 5.42757E+00
 -1       496 8.34331E+00
 -1       497 1.13453E+01
 -1       498 3.36033E+01
 -1       499 8.38110E-01
 -1       500 1.19746E+01
 -1       501 8.47233E+00
 -1       502 5.26599E+00
 -1       503 3.83890E+00
 -1       504 2.82944E+00
 -1       505 2.04108E+00
 -1       506 1.46136E+00
 -1       507 1.03804E+00
 -1       508 7.31595E-01
 -1       509 5.11664E-01
 -1       510 3.53713E-01
 -1       511 2.49036E-01
 -1       512 1.69677E-01
 -1       513 1.13999E-01
 -1       514 7.51918E-02
 -1       515 4.83062E-02
 -1       516 2.90835E-02
 -1       517 2.03880E-02
 -1       518 1.45188E-02
 -1       519 1.14224E-02
 -1       520 9.19021E-03
 -1       521 7.17973E-03
 -1       522 5.67077E-03
 -1       523 4.57685E-03
 -1       524 3.49003E-03
 -1       525 2.52485E-03
 -1       526 1.87599E-03
 -1       527 1.66558E-03
 -1       528 5.30840E-01
 -1       529 6.15481E-01
 -1       530 3.57448E-01
 -1       531 3.88719E-01
 -1       532 4.80792E-01
 -1       533 6.06817E-01
 -1       534 7.76527E-01
 -1       535 1.00511E+00
 -1       536 1.19877E+00
 -1       537 1.34715E+00
 -1       538 1.47204E+00
 -1       539 1.47263E+00
 -1       540 1.43385E+00
 -1       541 1.49228E+00
 -1       542 1.43324E+00
 -1       543 1.25229E+00
 -1       544 1.07799E+00
 -1       545 8.35260E-01
 -1       546 5.72651E-01
 -1       547 3.82106E-01
 -1       548 2.33982E-01
 -1       549 1.65588E-01
 -1       550 1.35876E-01
 -1       551 1.27104E-01
 -1       552 1.25002E-01
 -1       553 1.16681E-01
 -1       554 1.01651E-01
 -1       555 8.70882E-02
 -1       556 7.09637E-02
 -1       557 5.49078E-02
 -1       558 4.04451E-02
 -1       559 2.82820E-02
 -1       560 2.04425E-02
 -1       561 1.44004E-02
 -1       562 1.16509E-02
 -1       563 9.92837E-03
 -1       564 8.12645E-03
 -1       565 6.37151E-03
 -1       566 4.84283E-03
 -1       567 4.02777E-03
 -1       568 3.09963E-03
 -1       569 2.24154E-03
 -1       570 1.56272E-03
 -1       571 9.46139E-04
 -1       572 9.48926E-04
 -1       573 1.38718E-03
 -1       574 9.94219E-04
 -1       575 9.48926E-04
 -1       576 9.45199E-04
 -1       577 1.00138E-03
 -1       578 1.06722E-03
 -1       579 1.06722E-03
 -1       580 1.04877E-03
 -1       581 1.03573E-03
 -1       582 1.14438E+01
 -1       583 4.27223E+00
 -1       584 8.94896E-01
 -1       585 1.60016E+01
 -1       586 7.36896E+00
 -1       587 4.05045E-01
 -1       588 6.62038E+00
 -1       589 3.96545E-01
 -1       590 5.37433E+00
 -1       591 7.91870E+00
 -1       592 2.90803E+01
 -1       593 5.31179E+00
 -1       594 6.86332E+00
 -1       595 2.26450E+01
 -1       596 4.02049E+01
 -1       597 1.76864E+01
 -1       598 1.17535E+01
 -1       599 1.24852E+01
 -1       600 1.69489E+01
 -1       601 2.60734E+01
 -1       602 5.14257E-01
 -1       603 1.94754E+01
 -1       604 1.06449E+01
 -1       605 5.74716E-01
 -1       606 3.95289E+00
 -1       607 9.62779E+00
 -1       608 3.94861E-01
 -1       609 3.51526E-01
 -1       610 4.19082E-01
 -1       611 4.11775E-01
 -1       612 4.04052E-01
 -1       613 6.35596E-01
 -1       614 5.28247E-01
 -1       615 6.85921E-01
 -1       616 1.00316E+00
 -1       617 1.57440E+00
 -1       618 2.39584E+00
 -1       619 3.55909E+00
 -1       620 5.51914E+00
 -1       621 1.21637E+01
 -1       622 1.12232E+01
 -1       623 5.54236E+00
 -1       624 3.80603E+00
 -1       625 2.58661E+00
 -1       626 1.76146E+00
 -1       627 1.20543E+00
 -1       628 8.15649E-01
 -1       629 5.46270E-01
 -1       630 3.70009E-01
 -1       631 2.57885E-01
 -1       632 1.84282E-01
 -1       633 1.30156E-01
 -1       634 9.06337E-02
 -1       635 6.19949E-02
 -1       636 4.12750E-02
 -1       637 2.75188E-02
 -1       638 1.71902E-02
 -1       639 1.00942E-02
 -1       640 7.52560E-03
 -1       641 6.68263E-03
 -1       642 5.67077E-03
 -1       643 4.57685E-03
 -1       644 3.49003E-03
 -1       645 2.69677E-03
 -1       646 2.00062E-03
 -1       647 1.63437E-03
 -1       648 6.06817E-01
 -1       649 3.79231E-01
 -1       650 7.41340E-01
 -1       651 9.02273E-01
 -1       652 1.06559E+00
 -1       653 1.19348E+00
 -1       654 1.25829E+00
 -1       655 1.32378E+00
 -1       656 1.19768E+00
 -1       657 1.25892E+00
 -1       658 1.29182E+00
 -1       659 1.20238E+00
 -1       660 1.10560E+00
 -1       661 9.13133E-01
 -1       662 7.42676E-01
 -1       663 5.47311E-01
 -1       664 3.82106E-01
 -1       665 2.87404E-01
 -1       666 2.16541E-01
 -1       667 1.54030E-01
 -1       668 1.45820E-01
 -1       669 1.31304E-01
 -1       670 1.13409E-01
 -1       671 9.62554E-02
 -1       672 7.99543E-02
 -1       673 6.36528E-02
 -1       674 4.86778E-02
 -1       675 3.57932E-02
 -1       676 2.52440E-02
 -1       677 1.69602E-02
 -1       678 1.07019E-02
 -1       679 7.09205E-03
 -1       680 5.81944E-03
 -1       681 5.15537E-03
 -1       682 4.30553E-03
 -1       683 3.38306E-03
 -1       684 2.54100E-03
 -1       685 1.97657E-03
 -1       686 1.72844E-03
 -1       687 7.48216E+00
 -1       688 9.45199E-04
 -1       689 1.01857E-03
 -1       690 9.33876E-04
 -1       691 9.76051E-04
 -1       692 1.08691E-03
 -1       693 1.26474E-03
 -1       694 1.26474E-03
 -1       695 7.86918E+00
 -1       696 4.69804E-01
 -1       697 5.14114E+00
 -1       698 6.00284E+00
 -1       699 1.74710E+01
 -1       700 1.41119E+01
 -1       701 4.80792E-01
 -1       702 4.77718E-01
 -1       703 1.28292E+01
 -1       704 4.74474E+00
 -1       705 1.82348E+01
 -1       706 4.19082E-01
 -1       707 3.20854E-01
 -1       708 3.36942E+00
 -1       709 2.48977E+00
 -1       710 1.56362E+01
 -1       711 1.70197E+01
 -1       712 1.51092E+01
 -1       713 4.28919E+00
 -1       714 2.81293E-01
 -1       715 9.39071E+00
 -1       716 3.03392E-01
 -1       717 9.71490E+00
 -1       718 3.02933E+00
 -1       719 3.45056E-01
 -1       720 1.28558E-03
 -1       721 1.46884E+01
 -1       722 1.48314E-03
 -1       723 7.44426E+00
 -1       724 3.34987E+00
 -1       725 1.07544E-03
 -1       726 3.94036E+00
 -1       727 3.21878E-01
 -1       728 2.89638E-01
 -1       729 3.65247E-01
 -1       730 1.37599E+01
 -1       731 2.61975E-01
 -1       732 3.34156E-01
 -1       733 5.42089E-01
 -1       734 7.91890E-01
 -1       735 1.20934E+00
 -1       736 1.86189E+00
 -1       737 2.79314E+00
 -1       738 4.53626E+00
 -1       739 1.07865E+01
 -1       740 4.05608E-01
 -1       741 4.86565E+00
 -1       742 3.25369E+00
 -1       743 2.15566E+00
 -1       744 1.46124E+00
 -1       745 1.00236E+00
 -1       746 6.90843E-01
 -1       747 4.78914E-01
 -1       748 3.32571E-01
 -1       749 2.26468E-01
 -1       750 1.52779E-01
 -1       751 1.02873E-01
 -1       752 6.95725E-02
 -1       753 4.67939E-02
 -1       754 3.13176E-02
 -1       755 2.11278E-02
 -1       756 1.37389E-02
 -1       757 8.51223E-03
 -1       758 4.90800E-03
 -1       759 3.82918E-03
 -1       760 3.60831E-03
 -1       761 3.13319E-03
 -1       762 2.53396E-03
 -1       763 2.23135E-03
 -1       764 6.59250E+00
 -1       765 7.36600E-01
 -1       766 1.17947E+00
 -1       767 1.26387E+00
 -1       768 1.47696E+00
 -1       769 1.57918E+00
 -1       770 1.47491E+00
 -1       771 1.51060E+00
 -1       772 1.34222E+00
 -1       773 1.16827E+00
 -1       774 1.11798E+00
 -1       775 9.37242E-01
 -1       776 7.42676E-01
 -1       777 5.59281E-01
 -1       778 4.38254E-01
 -1       779 3.16395E-01
 -1       780 2.23631E-01
 -1       781 1.92646E-01
 -1       782 1.61490E-01
 -1       783 1.31304E-01
 -1       784 1.10978E-01
 -1       785 8.98280E-02
 -1       786 7.01458E-02
 -1       787 5.37484E-02
 -1       788 4.00187E-02
 -1       789 2.89216E-02
 -1       790 2.02218E-02
 -1       791 1.35940E-02
 -1       792 8.68946E-03
 -1       793 5.17496E-03
 -1       794 3.20417E-03
 -1       795 3.07441E-03
 -1       796 2.82280E-03
 -1       797 2.37734E-03
 -1       798 1.82681E-03
 -1       799 1.53645E-03
 -1       800 9.57831E-04
 -1       801 1.12166E-03
 -1       802 9.04114E-04
 -1       803 9.02273E-01
 -1       804 1.46884E+01
 -1       805 9.11646E+00
 -1       806 4.06664E-01
 -1       807 5.61745E-01
 -1       808 3.98608E+00
 -1       809 2.61123E+00
 -1       810 5.59679E+00
 -1       811 1.82598E-03
 -1       812 4.14941E+00
 -1       813 1.09010E+00
 -1       814 3.36942E+00
 -1       815 1.00328E+01
 -1       816 3.25938E-01
 -1       817 8.81395E+00
 -1       818 3.52658E-01
 -1       819 2.84328E-01
 -1       820 4.75924E-01
 -1       821 2.67324E+00
 -1       822 4.25024E+00
 -1       823 3.59842E+00
 -1       824 9.21783E-04
 -1       825 9.76051E-04
 -1       826 6.84289E+00
 -1       827 8.51448E+00
 -1       828 2.82356E+00
 -1       829 3.65247E-01
 -1       830 1.01857E-03
 -1       831 2.36189E-01
 -1       832 2.00625E-01
 -1       833 2.65206E-01
 -1       834 3.52658E-01
 -1       835 2.47365E-01
 -1       836 3.17033E+00
 -1       837 2.40028E+00
 -1       838 5.42281E-01
 -1       839 8.64269E-01
 -1       840 1.32798E+00
 -1       841 1.92132E+00
 -1       842 3.07278E+00
 -1       843 5.23748E+00
 -1       844 2.08319E+00
 -1       845 1.34729E+00
 -1       846 9.49104E-01
 -1       847 6.84829E-01
 -1       848 4.97574E-01
 -1       849 3.62130E-01
 -1       850 2.59070E-01
 -1       851 1.83837E-01
 -1       852 1.29076E-01
 -1       853 8.94565E-02
 -1       854 6.13459E-02
 -1       855 4.24670E-02
 -1       856 2.83786E-02
 -1       857 1.84267E-02
 -1       858 1.15223E-02
 -1       859 6.74711E-03
 -1       860 3.78085E-03
 -1       861 2.32454E-03
 -1       862 2.17102E-03
 -1       863 2.11185E-03
 -1       864 2.23135E-03
 -1       865 1.99952E+00
 -1       866 2.80937E+00
 -1       867 2.50720E+00
 -1       868 1.66716E+00
 -1       869 1.34222E+00
 -1       870 1.44644E+00
 -1       871 1.18507E+00
 -1       872 9.46467E-01
 -1       873 8.15059E-01
 -1       874 6.15232E-01
 -1       875 4.38254E-01
 -1       876 3.35068E-01
 -1       877 2.65680E-01
 -1       878 2.07389E-01
 -1       879 1.64161E-01
 -1       880 1.32448E-01
 -1       881 1.03128E-01
 -1       882 7.80057E-02
 -1       883 6.03966E-02
 -1       884 4.62329E-02
 -1       885 3.43404E-02
 -1       886 2.43854E-02
 -1       887 1.69367E-02
 -1       888 1.12168E-02
 -1       889 6.94479E-03
 -1       890 3.87849E-03
 -1       891 1.98490E-03
 -1       892 1.75493E-03
 -1       893 1.84015E-03
 -1       894 1.67134E-03
 -1       895 1.01912E-03
 -1       896 8.25455E-04
 -1       897 3.17033E+00
 -1       898 2.40097E+00
 -1       899 3.15919E+00
 -1       900 8.51448E+00
 -1       901 2.04115E-01
 -1       902 6.84289E+00
 -1       903 6.61515E-01
 -1       904 4.78487E-01
 -1       905 1.77802E-01
 -1       906 8.52584E-01
 -1       907 5.81955E+00
 -1       908 2.70394E+00
 -1       909 1.26477E-03
 -1       910 3.17033E+00
 -1       911 1.29334E-03
 -1       912 3.76419E+00
 -1       913 2.71067E-01
 -1       914 3.48570E-01
 -1       915 4.68880E-01
 -1       916 7.35468E+00
 -1       917 3.77696E+00
 -1       918 1.59996E+00
 -1       919 2.18014E+00
 -1       920 6.05698E+00
 -1       921 8.39856E-04
 -1       922 9.32975E-04
 -1       923 2.61123E+00
 -1       924 4.34569E+00
 -1       925 2.50720E+00
 -1       926 2.91864E-01
 -1       927 1.11890E-03
 -1       928 2.85856E-01
 -1       929 2.91864E-01
 -1       930 7.54365E+00
 -1       931 4.06875E-01
 -1       932 1.17435E+00
 -1       933 2.98014E+00
 -1       934 1.97908E+00
 -1       935 7.54365E+00
 -1       936 9.24220E-01
 -1       937 1.44214E+00
 -1       938 2.45958E+00
 -1       939 4.10036E+00
 -1       940 1.00592E+00
 -1       941 7.09990E-01
 -1       942 4.72722E-01
 -1       943 3.43064E-01
 -1       944 2.38119E-01
 -1       945 1.78400E-01
 -1       946 1.32950E-01
 -1       947 9.74317E-02
 -1       948 7.05034E-02
 -1       949 5.02915E-02
 -1       950 3.46073E-02
 -1       951 2.37621E-02
 -1       952 1.58881E-02
 -1       953 1.02031E-02
 -1       954 6.31705E-03
 -1       955 3.61724E-03
 -1       956 1.77048E-03
 -1       957 1.41327E-03
 -1       958 1.31334E-03
 -1       959 1.10273E-03
 -1       960 2.86392E-01
 -1       961 5.00123E+00
 -1       962 1.75420E+00
 -1       963 1.53781E+00
 -1       964 1.18507E+00
 -1       965 1.13453E+00
 -1       966 8.19828E-01
 -1       967 6.26423E-01
 -1       968 4.90064E-01
 -1       969 3.65511E-01
 -1       970 2.83789E-01
 -1       971 2.14372E-01
 -1       972 1.61845E-01
 -1       973 1.24430E-01
 -1       974 9.69341E-02
 -1       975 7.76930E-02
 -1       976 6.03966E-02
 -1       977 4.53861E-02
 -1       978 3.29788E-02
 -1       979 2.31119E-02
 -1       980 1.56824E-02
 -1       981 1.04068E-02
 -1       982 6.52248E-03
 -1       983 3.75298E-03
 -1       984 1.95155E-03
 -1       985 1.00921E-03
 -1       986 5.81955E+00
 -1       987 2.36441E+00
 -1       988 1.97908E+00
 -1       989 2.88740E+00
 -1       990 8.99769E-01
 -1       991 2.83604E-01
 -1       992 6.61515E-01
 -1       993 2.86392E-01
 -1       994 1.41989E+00
 -1       995 2.34637E-01
 -1       996 6.19602E-01
 -1       997 4.78487E-01
 -1       998 4.10036E+00
 -1       999 3.91122E+00
 -1      1000 2.08360E+00
 -1      1001 5.00123E+00
 -1      1002 1.10273E-03
 -1      1003 3.41808E-01
 -1      1004 1.23691E-03
 -1      1005 1.17435E+00
 -1      1006 1.08364E-03
 -1      1007 2.98878E+00
 -1      1008 7.70105E-04
 -1      1009 4.75811E-01
 -1      1010 2.32367E+00
 -1      1011 9.44549E-04
 -1      1012 4.57886E-01
 -1      1013 1.10872E+00
 -1      1014 1.57820E+00
 -1      1015 2.57115E+00
 -1      1016 7.46564E-01
 -1      1017 2.81203E+00
 -1      1018 4.73955E-01
 -1      1019 3.72298E-01
 -1      1020 2.73658E-01
 -1      1021 1.98192E-01
 -1      1022 1.41605E-01
 -1      1023 1.00384E-01
 -1      1024 6.76148E-02
 -1      1025 5.00682E-02
 -1      1026 3.64160E-02
 -1      1027 2.57436E-02
 -1      1028 1.77822E-02
 -1      1029 1.21818E-02
 -1      1030 8.07265E-03
 -1      1031 5.10873E-03
 -1      1032 3.03653E-03
 -1      1033 1.46966E+00
 -1      1034 8.90474E-01
 -1      1035 6.87320E-01
 -1      1036 5.45229E-01
 -1      1037 4.02021E-01
 -1      1038 2.80585E-01
 -1      1039 2.06300E-01
 -1      1040 1.56815E-01
 -1      1041 1.24430E-01
 -1      1042 9.69341E-02
 -1      1043 7.37526E-02
 -1      1044 5.47702E-02
 -1      1045 3.96942E-02
 -1      1046 2.80238E-02
 -1      1047 1.91859E-02
 -1      1048 1.27478E-02
 -1      1049 8.36840E-03
 -1      1050 5.26348E-03
 -1      1051 3.32094E-03
 -1      1052 1.95155E-03
 -1      1053 3.32655E-01
 -1      1054 2.92086E+00
 -1      1055 3.27254E+00
 -1      1056 1.04498E+00
 -1      1057 3.93057E-01
 -1      1058 2.18166E+00
 -1      1059 1.71200E+00
 -1      1060 2.24926E+00
 -1      1061 6.19602E-01
 -1      1062 3.04215E+00
 -1      1063 1.36431E+00
 -1      1064 2.22880E+00
 -1      1065 2.11761E+00
 -1      1066 2.70373E-03
 -1      1067 5.97790E-01
 -1      1068 1.41175E-03
 -1      1069 6.92474E-01
 -1      1070 5.97790E-01
 -1      1071 1.74076E+00
 -1      1072 2.03322E-03
 -1      1073 3.35942E-01
 -1      1074 2.33246E+00
 -1      1075 5.37606E-01
 -1      1076 5.97790E-01
 -1      1077 4.67764E-01
 -1      1078 4.13262E-01
 -1      1079 3.84918E-01
 -1      1080 1.98192E-01
 -1      1081 1.49123E-01
 -1      1082 1.13378E-01
 -1      1083 8.05831E-02
 -1      1084 6.21885E-02
 -1      1085 4.47701E-02
 -1      1086 3.15811E-02
 -1      1087 2.18268E-02
 -1      1088 1.50377E-02
 -1      1089 9.82946E-03
 -1      1090 6.85587E-03
 -1      1091 4.17036E-03
 -1      1092 1.89076E+00
 -1      1093 2.43323E+00
 -1      1094 5.65401E-01
 -1      1095 3.53352E-01
 -1      1096 3.61299E-01
 -1      1097 2.06300E-01
 -1      1098 1.56815E-01
 -1      1099 1.15174E-01
 -1      1100 8.44748E-02
 -1      1101 6.08508E-02
 -1      1102 4.30770E-02
 -1      1103 3.05366E-02
 -1      1104 2.23311E-02
 -1      1105 1.57864E-02
 -1      1106 1.09802E-02
 -1      1107 7.42164E-03
 -1      1108 4.68527E-03
 -1      1109 3.18791E-03
 -1      1110 6.62480E-01
 -1      1111 1.15039E+00
 -1      1112 1.40167E+00
 -1      1113 2.61869E+00
 -1      1114 2.43323E+00
 -1      1115 1.16871E+00
 -1      1116 2.07281E+00
 -1      1117 1.55178E+00
 -1      1118 4.86711E-01
 -1      1119 1.22949E+00
 -1      1120 8.13484E-01
 -1      1121 2.43655E+00
 -1      1122 3.18791E-03
 -1      1123 9.28325E-01
 -1      1124 1.72016E+00
 -1      1125 8.14333E-01
 -1      1126 3.84918E-01
 -1      1127 4.63024E-01
 -1      1128 6.76427E-03
 -1      1129 1.82072E-01
 -1      1130 1.13378E-01
 -1      1131 8.05831E-02
 -1      1132 6.52043E-02
 -1      1133 4.93246E-02
 -1      1134 3.63403E-02
 -1      1135 2.61230E-02
 -1      1136 1.84957E-02
 -1      1137 1.23150E-02
 -1      1138 8.95433E-03
 -1      1139 1.09881E+00
 -1      1140 1.30715E+01
 -1      1141 8.31559E+00
 -1      1142 2.69880E+00
 -1      1143 1.57465E+00
 -1      1144 1.17522E+00
 -1      1145 9.50146E-01
 -1      1146 7.99867E-01
 -1      1147 6.99563E-01
 -1      1148 6.84458E-01
 -1      1149 7.53861E-01
 -1      1150 8.56322E-01
 -1      1151 9.99559E-01
 -1      1152 1.21644E+00
 -1      1153 1.59574E+00
 -1      1154 2.64919E+00
 -1      1155 5.95774E+00
 -1      1156 1.11583E+01
 -1      1157 1.30715E+01
 -1      1158 8.63690E+00
 -1      1159 3.72852E+00
 -1      1160 2.62349E+00
 -1      1161 1.76123E+00
 -1      1162 1.38463E+00
 -1      1163 1.29059E+00
 -1      1164 1.50824E+00
 -1      1165 1.83795E+00
 -1      1166 2.38494E+00
 -1      1167 3.25564E+00
 -1      1168 4.18485E+00
 -1      1169 4.62677E+00
 -1      1170 4.56065E+00
 -1      1171 5.12263E+00
 -1      1172 8.97698E+00
 -1      1173 1.26067E+01
 -1      1174 1.30103E+01
 -1      1175 1.25417E+01
 -1      1176 8.69441E+00
 -1      1177 4.81908E+00
 -1      1178 4.50857E+00
 -1      1179 4.69464E+00
 -1      1180 4.27662E+00
 -1      1181 3.37346E+00
 -1      1182 2.46858E+00
 -1      1183 1.78435E+00
 -1      1184 1.34040E+00
 -1      1185 1.00756E+00
 -1      1186 7.33998E-01
 -1      1187 5.24277E-01
 -1      1188 3.69845E-01
 -1      1189 2.55265E-01
 -1      1190 1.77670E-01
 -1      1191 1.27476E-01
 -1      1192 9.37967E-02
 -1      1193 7.32724E-02
 -1      1194 5.68417E-02
 -1      1195 4.39395E-02
 -1      1196 3.37412E-02
 -1      1197 2.54679E-02
 -1      1198 1.88777E-02
 -1      1199 1.43497E-02
 -1      1200 1.14701E-02
 -1      1201 9.03220E-03
 -1      1202 6.90660E-03
 -1      1203 5.03024E-03
 -1      1204 3.56575E-03
 -1      1205 2.77959E-03
 -1      1206 2.12546E-03
 -1      1207 1.02943E-03
 -1      1208 1.38550E+01
 -1      1209 8.60292E+00
 -1      1210 2.83529E+00
 -1      1211 1.93041E+00
 -1      1212 1.31920E+00
 -1      1213 9.62297E-01
 -1      1214 7.02781E-01
 -1      1215 4.74002E-01
 -1      1216 2.97216E-01
 -1      1217 2.96971E-01
 -1      1218 4.83706E-01
 -1      1219 6.94477E-01
 -1      1220 8.73823E-01
 -1      1221 1.18750E+00
 -1      1222 1.61651E+00
 -1      1223 1.91945E+00
 -1      1224 2.11202E+00
 -1      1225 2.25982E+00
 -1      1226 2.31961E+00
 -1      1227 2.22249E+00
 -1      1228 1.91765E+00
 -1      1229 1.48395E+00
 -1      1230 1.04661E+00
 -1      1231 6.90512E-01
 -1      1232 4.46763E-01
 -1      1233 2.92383E-01
 -1      1234 2.30498E-01
 -1      1235 2.23985E-01
 -1      1236 2.18671E-01
 -1      1237 1.98286E-01
 -1      1238 1.64892E-01
 -1      1239 1.31623E-01
 -1      1240 1.02677E-01
 -1      1241 8.06327E-02
 -1      1242 6.46612E-02
 -1      1243 4.96129E-02
 -1      1244 3.64856E-02
 -1      1245 2.58274E-02
 -1      1246 1.97384E-02
 -1      1247 1.67724E-02
 -1      1248 1.37642E-02
 -1      1249 1.09630E-02
 -1      1250 9.17335E-03
 -1      1251 8.09215E-03
 -1      1252 6.78558E-03
 -1      1253 5.35010E-03
 -1      1254 3.92765E-03
 -1      1255 2.80400E-03
 -1      1256 1.87702E-03
 -1      1257 8.48287E-04
 -1      1258 4.76833E-04
 -1      1259 6.07978E-04
 -1      1260 4.31774E-04
 -1      1261 2.35165E-04
 -1      1262 2.24882E-04
 -1      1263 3.08268E-04
 -1      1264 3.55202E-04
 -1      1265 3.78251E-04
 -1      1266 3.86402E-04
 -1      1267 3.87719E-04
 -1      1268 3.76457E-04
 -1      1269 3.38462E-04
 -1      1270 2.56262E-04
 -1      1271 2.65829E-04
 -1      1272 4.55660E-04
 -1      1273 8.32403E-04
 -1      1274 7.09424E-04
 -1      1275 2.63567E+01
 -1      1276 3.51353E+01
 -1      1277 4.39138E+01
 -1      1278 3.04193E+01
 -1      1279 1.45891E+01
 -1      1280 1.23795E+01
 -1      1281 1.25056E+01
 -1      1282 1.23533E+01
 -1      1283 1.22011E+01
 -1      1284 1.21933E+01
 -1      1285 2.05707E+01
 -1      1286 2.94890E+01
 -1      1287 2.89122E+01
 -1      1288 2.65725E+01
 -1      1289 2.53427E+01
 -1      1290 2.52719E+01
 -1      1291 3.30833E+01
 -1      1292 4.09655E+01
 -1      1293 2.81265E+01
 -1      1294 1.42986E+01
 -1      1295 1.37313E+01
 -1      1296 1.41527E+01
 -1      1297 1.39337E+01
 -1      1298 1.44719E+01
 -1      1299 2.65199E+01
 -1      1300 3.78106E+01
 -1      1301 3.12022E+01
 -1      1302 2.45938E+01
 -1      1303 2.54752E+01
 -1      1304 1.30715E+01
 -1      1305 4.78675E+00
 -1      1306 9.54266E+00
 -1      1307 2.07100E+00
 -1      1308 2.93189E+00
 -1      1309 4.15895E+00
 -1      1310 1.42807E+00
 -1      1311 1.69134E+00
 -1      1312 1.92442E+00
 -1      1313 1.10669E+00
 -1      1314 1.24286E+00
 -1      1315 1.35954E+00
 -1      1316 9.05684E-01
 -1      1317 9.94587E-01
 -1      1318 1.06223E+00
 -1      1319 7.71613E-01
 -1      1320 8.32988E-01
 -1      1321 8.77429E-01
 -1      1322 6.83851E-01
 -1      1323 7.22780E-01
 -1      1324 7.55901E-01
 -1      1325 6.95396E-01
 -1      1326 6.71573E-01
 -1      1327 6.94789E-01
 -1      1328 7.79869E-01
 -1      1329 7.34288E-01
 -1      1330 7.21404E-01
 -1      1331 8.86751E-01
 -1      1332 8.29870E-01
 -1      1333 8.10298E-01
 -1      1334 1.04438E+00
 -1      1335 9.58020E-01
 -1      1336 9.31569E-01
 -1      1337 1.27992E+00
 -1      1338 1.14940E+00
 -1      1339 1.10786E+00
 -1      1340 1.70968E+00
 -1      1341 1.46089E+00
 -1      1342 1.39386E+00
 -1      1343 2.87410E+00
 -1      1344 2.06944E+00
 -1      1345 1.93458E+00
 -1      1346 6.16793E+00
 -1      1347 3.66404E+00
 -1      1348 3.08429E+00
 -1      1349 1.38550E+01
 -1      1350 1.11583E+01
 -1      1351 8.86462E+00
 -1      1352 1.38550E+01
 -1      1353 8.63690E+00
 -1      1354 4.20231E+00
 -1      1355 3.72852E+00
 -1      1356 3.25473E+00
 -1      1357 3.72852E+00
 -1      1358 2.62349E+00
 -1      1359 1.99225E+00
 -1      1360 2.62349E+00
 -1      1361 1.76123E+00
 -1      1362 1.53022E+00
 -1      1363 1.76123E+00
 -1      1364 1.38463E+00
 -1      1365 1.23905E+00
 -1      1366 1.38463E+00
 -1      1367 1.12534E+00
 -1      1368 1.17688E+00
 -1      1369 1.12534E+00
 -1      1370 1.34214E+00
 -1      1371 1.50824E+00
 -1      1372 1.17688E+00
 -1      1373 1.80845E+00
 -1      1374 1.97205E+00
 -1      1375 1.64234E+00
 -1      1376 2.32675E+00
 -1      1377 2.71015E+00
 -1      1378 2.29725E+00
 -1      1379 3.00720E+00
 -1      1380 3.49450E+00
 -1      1381 2.94901E+00
 -1      1382 3.74294E+00
 -1      1383 4.18485E+00
 -1      1384 3.49450E+00
 -1      1385 4.62677E+00
 -1      1386 4.62677E+00
 -1      1387 4.18485E+00
 -1      1388 4.56065E+00
 -1      1389 4.49453E+00
 -1      1390 4.56065E+00
 -1      1391 4.32901E+00
 -1      1392 4.95711E+00
 -1      1393 4.32901E+00
 -1      1394 6.04314E+00
 -1      1395 9.26939E+00
 -1      1396 5.24951E+00
 -1      1397 1.22032E+01
 -1      1398 1.26067E+01
 -1      1399 9.26939E+00
 -1      1400 1.30103E+01
 -1      1401 1.30103E+01
 -1      1402 1.26067E+01
 -1      1403 1.25417E+01
 -1      1404 1.20732E+01
 -1      1405 1.25417E+01
 -1      1406 9.18731E+00
 -1      1407 5.80855E+00
 -1      1408 9.18731E+00
 -1      1409 4.66513E+00
 -1      1410 4.16856E+00
 -1      1411 5.15802E+00
 -1      1412 4.32251E+00
 -1      1413 4.50857E+00
 -1      1414 4.16856E+00
 -1      1415 4.69464E+00
 -1      1416 4.69464E+00
 -1      1417 4.50857E+00
 -1      1418 4.27662E+00
 -1      1419 3.85860E+00
 -1      1420 4.27662E+00
 -1      1421 3.51838E+00
 -1      1422 3.03324E+00
 -1      1423 3.51838E+00
 -1      1424 2.72265E+00
 -1      1425 2.30290E+00
 -1      1426 2.86756E+00
 -1      1427 2.05063E+00
 -1      1428 1.78614E+00
 -1      1429 2.30470E+00
 -1      1430 1.51353E+00
 -1      1431 1.33408E+00
 -1      1432 1.77982E+00
 -1      1433 1.11164E+00
 -1      1434 9.58251E-01
 -1      1435 1.28477E+00
 -1      1436 7.91134E-01
 -1      1437 6.70959E-01
 -1      1438 8.95211E-01
 -1      1439 5.51442E-01
 -1      1440 4.61896E-01
 -1      1441 6.08578E-01
 -1      1442 3.81628E-01
 -1      1443 3.16741E-01
 -1      1444 4.08792E-01
 -1      1445 2.65842E-01
 -1      1446 2.16149E-01
 -1      1447 2.77624E-01
 -1      1448 1.87490E-01
 -1      1449 1.59588E-01
 -1      1450 1.98066E-01
 -1      1451 1.34727E-01
 -1      1452 1.12434E-01
 -1      1453 1.44547E-01
 -1      1454 9.44517E-02
 -1      1455 8.30654E-02
 -1      1456 1.01703E-01
 -1      1457 7.32724E-02
 -1      1458 6.41344E-02
 -1      1459 7.39274E-02
 -1      1460 5.68417E-02
 -1      1461 4.95490E-02
 -1      1462 5.68417E-02
 -1      1463 4.39395E-02
 -1      1464 3.83299E-02
 -1      1465 4.39395E-02
 -1      1466 3.37412E-02
 -1      1467 2.91525E-02
 -1      1468 3.37412E-02
 -1      1469 2.54695E-02
 -1      1470 2.17849E-02
 -1      1471 2.54695E-02
 -1      1472 1.92652E-02
 -1      1473 1.63596E-02
 -1      1474 1.92668E-02
 -1      1475 1.43497E-02
 -1      1476 1.27274E-02
 -1      1477 1.47372E-02
 -1      1478 1.14701E-02
 -1      1479 1.02128E-02
 -1      1480 1.14701E-02
 -1      1481 9.03220E-03
 -1      1482 7.85159E-03
 -1      1483 9.03220E-03
 -1      1484 6.91220E-03
 -1      1485 5.96720E-03
 -1      1486 6.91220E-03
 -1      1487 5.16532E-03
 -1      1488 4.23395E-03
 -1      1489 5.17091E-03
 -1      1490 3.56575E-03
 -1      1491 3.03263E-03
 -1      1492 3.70083E-03
 -1      1493 2.77959E-03
 -1      1494 2.52656E-03
 -1      1495 2.77959E-03
 -1      1496 2.12546E-03
 -1      1497 1.72435E-03
 -1      1498 2.12546E-03
 -1      1499 1.40435E-03
 -1      1500 3.35085E+00
 -1      1501 8.60292E+00
 -1      1502 8.60292E+00
 -1      1503 2.31974E+00
 -1      1504 2.83529E+00
 -1      1505 2.83529E+00
 -1      1506 1.54109E+00
 -1      1507 1.93041E+00
 -1      1508 1.93041E+00
 -1      1509 1.09731E+00
 -1      1510 1.31920E+00
 -1      1511 1.31920E+00
 -1      1512 8.27286E-01
 -1      1513 9.62297E-01
 -1      1514 9.62297E-01
 -1      1515 5.78276E-01
 -1      1516 7.02781E-01
 -1      1517 7.02781E-01
 -1      1518 3.76246E-01
 -1      1519 4.80519E-01
 -1      1520 4.80519E-01
 -1      1521 2.47696E-01
 -1      1522 3.20209E-01
 -1      1523 3.26726E-01
 -1      1524 3.46447E-01
 -1      1525 2.74179E-01
 -1      1526 2.97172E-01
 -1      1527 5.26030E-01
 -1      1528 4.11563E-01
 -1      1529 3.88771E-01
 -1      1530 7.03308E-01
 -1      1531 6.07003E-01
 -1      1532 5.34860E-01
 -1      1533 8.94897E-01
 -1      1534 8.11855E-01
 -1      1535 7.24381E-01
 -1      1536 1.29643E+00
 -1      1537 1.06580E+00
 -1      1538 1.00383E+00
 -1      1539 1.64683E+00
 -1      1540 1.44845E+00
 -1      1541 1.32675E+00
 -1      1542 1.91945E+00
 -1      1543 1.81489E+00
 -1      1544 1.64683E+00
 -1      1545 2.11202E+00
 -1      1546 2.02401E+00
 -1      1547 1.91945E+00
 -1      1548 2.25982E+00
 -1      1549 2.20003E+00
 -1      1550 2.11202E+00
 -1      1551 2.31961E+00
 -1      1552 2.31961E+00
 -1      1553 2.25982E+00
 -1      1554 2.12536E+00
 -1      1555 2.22249E+00
 -1      1556 2.22249E+00
 -1      1557 1.70993E+00
 -1      1558 1.91765E+00
 -1      1559 1.91765E+00
 -1      1560 1.25796E+00
 -1      1561 1.48395E+00
 -1      1562 1.48395E+00
 -1      1563 8.56698E-01
 -1      1564 1.06805E+00
 -1      1565 1.06805E+00
 -1      1566 5.45831E-01
 -1      1567 6.90572E-01
 -1      1568 7.12017E-01
 -1      1569 3.47755E-01
 -1      1570 4.46763E-01
 -1      1571 4.46823E-01
 -1      1572 2.37011E-01
 -1      1573 2.92383E-01
 -1      1574 2.92383E-01
 -1      1575 2.16819E-01
 -1      1576 2.23331E-01
 -1      1577 2.23331E-01
 -1      1578 2.23985E-01
 -1      1579 2.23985E-01
 -1      1580 2.16819E-01
 -1      1581 2.13357E-01
 -1      1582 2.18671E-01
 -1      1583 2.18671E-01
 -1      1584 1.83215E-01
 -1      1585 1.98286E-01
 -1      1586 1.98286E-01
 -1      1587 1.46568E-01
 -1      1588 1.64892E-01
 -1      1589 1.64892E-01
 -1      1590 1.17964E-01
 -1      1591 1.32910E-01
 -1      1592 1.32910E-01
 -1      1593 9.10867E-02
 -1      1594 1.05087E-01
 -1      1595 1.06374E-01
 -1      1596 7.25885E-02
 -1      1597 8.06327E-02
 -1      1598 8.30425E-02
 -1      1599 5.67338E-02
 -1      1600 6.46612E-02
 -1      1601 6.46612E-02
 -1      1602 4.24920E-02
 -1      1603 4.96129E-02
 -1      1604 4.96129E-02
 -1      1605 3.07468E-02
 -1      1606 3.67532E-02
 -1      1607 3.67532E-02
 -1      1608 2.16318E-02
 -1      1609 2.62836E-02
 -1      1610 2.65512E-02
 -1      1611 1.83012E-02
 -1      1612 1.97384E-02
 -1      1613 2.01946E-02
 -1      1614 1.52436E-02
 -1      1615 1.67724E-02
 -1      1616 1.67724E-02
 -1      1617 1.22848E-02
 -1      1618 1.37642E-02
 -1      1619 1.37642E-02
 -1      1620 9.64125E-03
 -1      1621 1.09630E-02
 -1      1622 1.09630E-02
 -1      1623 8.70545E-03
 -1      1624 9.17335E-03
 -1      1625 9.17335E-03
 -1      1626 7.47885E-03
 -1      1627 8.09215E-03
 -1      1628 8.09215E-03
 -1      1629 6.09231E-03
 -1      1630 6.78558E-03
 -1      1631 6.78558E-03
 -1      1632 4.60790E-03
 -1      1633 5.35010E-03
 -1      1634 5.35010E-03
 -1      1635 3.24740E-03
 -1      1636 3.92765E-03
 -1      1637 3.92765E-03
 -1      1638 2.36061E-03
 -1      1639 2.80400E-03
 -1      1640 2.80400E-03
 -1      1641 1.39343E-03
 -1      1642 1.87702E-03
 -1      1643 1.87702E-03
 -1      1644 1.02198E-03
 -1      1645 5.80392E-04
 -1      1646 6.22937E-04
 -1      1647 4.21092E-04
 -1      1648 5.54752E-04
 -1      1649 5.69710E-04
 -1      1650 2.59463E-04
 -1      1651 3.22412E-04
 -1      1652 4.45390E-04
 -1      1653 3.67851E-04
 -1      1654 3.15184E-04
 -1      1655 4.02432E-04
 -1      1656 4.59576E-04
 -1      1657 4.28856E-04
 -1      1658 5.19159E-04
 -1      1659 5.09584E-04
 -1      1660 4.93370E-04
 -1      1661 6.13959E-04
 -1      1662 5.33769E-04
 -1      1663 5.26934E-04
 -1      1664 6.65102E-04
 -1      1665 5.38221E-04
 -1      1666 5.36904E-04
 -1      1667 6.85587E-04
 -1      1668 5.38221E-04
 -1      1669 5.38221E-04
 -1      1670 6.88723E-04
 -1      1671 5.24513E-04
 -1      1672 5.35774E-04
 -1      1673 6.86276E-04
 -1      1674 4.75901E-04
 -1      1675 5.02636E-04
 -1      1676 6.61952E-04
 -1      1677 3.64415E-04
 -1      1678 4.19880E-04
 -1      1679 5.84054E-04
 -1      1680 3.37930E-04
 -1      1681 2.72897E-04
 -1      1682 4.36516E-04
 -1      1683 9.19357E-04
 -1      1684 7.94559E-04
 -1      1685 8.01627E-04
 -1      1686 2.84491E+01
 -1      1687 2.84491E+01
 -1      1688 4.02845E+01
 -1      1689 3.15060E+01
 -1      1690 4.39138E+01
 -1      1691 4.39138E+01
 -1      1692 1.72445E+01
 -1      1693 3.07390E+01
 -1      1694 1.16350E+01
 -1      1695 1.39707E+01
 -1      1696 1.23795E+01
 -1      1697 1.22534E+01
 -1      1698 1.25056E+01
 -1      1699 1.25056E+01
 -1      1700 1.19601E+01
 -1      1701 1.21124E+01
 -1      1702 1.22011E+01
 -1      1703 1.22011E+01
 -1      1704 1.18167E+01
 -1      1705 1.18244E+01
 -1      1706 2.05707E+01
 -1      1707 1.21855E+01
 -1      1708 3.00221E+01
 -1      1709 2.94890E+01
 -1      1710 2.89122E+01
 -1      1711 3.00221E+01
 -1      1712 2.58095E+01
 -1      1713 2.70393E+01
 -1      1714 2.64391E+01
 -1      1715 2.64391E+01
 -1      1716 2.63683E+01
 -1      1717 2.64391E+01
 -1      1718 3.90186E+01
 -1      1719 3.11364E+01
 -1      1720 4.09655E+01
 -1      1721 4.09655E+01
 -1      1722 1.53485E+01
 -1      1723 2.81876E+01
 -1      1724 1.26455E+01
 -1      1725 1.36342E+01
 -1      1726 1.37313E+01
 -1      1727 1.33098E+01
 -1      1728 1.41527E+01
 -1      1729 1.41527E+01
 -1      1730 1.37147E+01
 -1      1731 1.39337E+01
 -1      1732 1.37865E+01
 -1      1733 1.30292E+01
 -1      1734 2.65199E+01
 -1      1735 1.52292E+01
 -1      1736 3.78106E+01
 -1      1737 3.78106E+01
 -1      1738 2.95362E+01
 -1      1739 3.61446E+01
 -1      1740 2.46839E+01
 -1      1741 2.46839E+01
 -1      1742 2.84491E+01
 -1      1743 2.75676E+01
 -1      1744 1.40435E-03
 -1      1745 4.02845E+01
 -1      1746 1.02198E-03
 -1      1747 9.94392E-04
 -1      1748 3.05415E+01
 -1      1749 3.35984E+01
 -1      1750 1.17130E-03
 -1      1751 9.19357E-04
 -1      1752 1.25826E-03
 -1      1753 3.07390E+01
 -1      1754 1.42905E+01
 -1      1755 1.16350E+01
 -1      1756 1.23795E+01
 -1      1757 1.21124E+01
 -1      1758 1.19601E+01
 -1      1759 1.18244E+01
 -1      1760 1.18167E+01
 -1      1761 2.11038E+01
 -1      1762 3.00221E+01
 -1      1763 2.81492E+01
 -1      1764 2.69059E+01
 -1      1765 2.75355E+01
 -1      1766 3.23036E+01
 -1      1767 3.90186E+01
 -1      1768 2.81876E+01
 -1      1769 1.36954E+01
 -1      1770 1.26455E+01
 -1      1771 1.37313E+01
 -1      1772 1.39337E+01
 -1      1773 1.30292E+01
 -1      1774 1.37865E+01
 -1      1775 2.65199E+01
 -1      1776 3.61446E+01
 -1      1777 2.96264E+01
 -1      1778 2.76578E+01
 -1      1779 9.54266E+00
 -1      1780 1.33836E+00
 -1      1781 1.71802E+00
 -1      1782 2.39053E+00
 -1      1783 4.24539E+00
 -1      1784 1.80446E+00
 -1      1785 8.75321E-01
 -1      1786 9.87421E-01
 -1      1787 7.39838E-01
 -1      1788 8.12534E-01
 -1      1789 7.37730E-01
 -1      1790 6.45242E-01
 -1      1791 6.94075E-01
 -1      1792 6.29180E-01
 -1      1793 6.00228E-01
 -1      1794 6.12506E-01
 -1      1795 5.50681E-01
 -1      1796 6.64163E-01
 -1      1797 6.25270E-01
 -1      1798 5.42987E-01
 -1      1799 7.48798E-01
 -1      1800 6.98797E-01
 -1      1801 6.02663E-01
 -1      1802 8.64489E-01
 -1      1803 7.93219E-01
 -1      1804 6.81718E-01
 -1      1805 1.02436E+00
 -1      1806 9.19340E-01
 -1      1807 7.80990E-01
 -1      1808 1.27606E+00
 -1      1809 1.09509E+00
 -1      1810 9.06570E-01
 -1      1811 1.73610E+00
 -1      1812 1.37634E+00
 -1      1813 1.07758E+00
 -1      1814 2.60915E+00
 -1      1815 1.81920E+00
 -1      1816 1.26096E+00
 -1      1817 7.97026E+00
 -1      1818 2.97988E+00
 -1      1819 1.71480E+00
 -1      1820 2.71819E+00
 -1      1821 5.10806E+00
 -1      1822 2.04803E+00
 -1      1823 2.56358E+00
 -1      1824 1.93092E+00
 -1      1825 2.39344E+00
 -1      1826 1.76220E+00
 -1      1827 1.49104E+00
 -1      1828 1.26002E+00
 -1      1829 1.26099E+00
 -1      1830 1.13601E+00
 -1      1831 9.90427E-01
 -1      1832 8.65813E-01
 -1      1833 9.37473E-01
 -1      1834 8.23762E-01
 -1      1835 6.88849E-01
 -1      1836 1.02594E+00
 -1      1837 1.19119E+00
 -1      1838 8.38071E-01
 -1      1839 1.48353E+00
 -1      1840 1.78374E+00
 -1      1841 1.33258E+00
 -1      1842 2.13474E+00
 -1      1843 2.48944E+00
 -1      1844 1.97593E+00
 -1      1845 2.87297E+00
 -1      1846 3.17002E+00
 -1      1847 2.71046E+00
 -1      1848 3.51523E+00
 -1      1849 3.76366E+00
 -1      1850 3.43919E+00
 -1      1851 4.00391E+00
 -1      1852 4.44583E+00
 -1      1853 4.02464E+00
 -1      1854 5.12075E+00
 -1      1855 5.05463E+00
 -1      1856 4.93981E+00
 -1      1857 6.07629E+00
 -1      1858 5.91077E+00
 -1      1859 6.63639E+00
 -1      1860 5.73346E+00
 -1      1861 6.81949E+00
 -1      1862 7.48074E+00
 -1      1863 1.24845E+01
 -1      1864 1.28880E+01
 -1      1865 1.07734E+01
 -1      1866 1.03048E+01
 -1      1867 9.23771E+00
 -1      1868 6.35184E+00
 -1      1869 7.48001E+00
 -1      1870 6.33660E+00
 -1      1871 7.53042E+00
 -1      1872 4.99915E+00
 -1      1873 5.15311E+00
 -1      1874 7.32115E+00
 -1      1875 4.57436E+00
 -1      1876 4.76042E+00
 -1      1877 5.40496E+00
 -1      1878 4.18220E+00
 -1      1879 3.76418E+00
 -1      1880 4.24799E+00
 -1      1881 3.58999E+00
 -1      1882 3.24977E+00
 -1      1883 3.49557E+00
 -1      1884 2.97444E+00
 -1      1885 2.66385E+00
 -1      1886 3.04605E+00
 -1      1887 2.38906E+00
 -1      1888 2.13679E+00
 -1      1889 2.49594E+00
 -1      1890 1.85457E+00
 -1      1891 1.58196E+00
 -1      1892 1.93893E+00
 -1      1893 1.35017E+00
 -1      1894 1.12773E+00
 -1      1895 1.42492E+00
 -1      1896 9.50485E-01
 -1      1897 7.83368E-01
 -1      1898 1.01589E+00
 -1      1899 6.53841E-01
 -1      1900 5.34324E-01
 -1      1901 7.09114E-01
 -1      1902 4.42217E-01
 -1      1903 3.61949E-01
 -1      1904 4.87480E-01
 -1      1905 2.94572E-01
 -1      1906 2.43672E-01
 -1      1907 3.27997E-01
 -1      1908 2.03998E-01
 -1      1909 1.75340E-01
 -1      1910 2.20945E-01
 -1      1911 1.44547E-01
 -1      1912 1.19686E-01
 -1      1913 1.50478E-01
 -1      1914 1.01703E-01
 -1      1915 8.37204E-02
 -1      1916 1.01703E-01
 -1      1917 7.11934E-02
 -1      1918 6.14004E-02
 -1      1919 7.11934E-02
 -1      1920 5.29139E-02
 -1      1921 4.56212E-02
 -1      1922 5.01799E-02
 -1      1923 3.88689E-02
 -1      1924 3.32594E-02
 -1      1925 3.49411E-02
 -1      1926 2.98513E-02
 -1      1927 2.52626E-02
 -1      1928 2.47807E-02
 -1      1929 2.30035E-02
 -1      1930 1.93205E-02
 -1      1931 1.91136E-02
 -1      1932 1.74152E-02
 -1      1933 1.48955E-02
 -1      1934 1.49492E-02
 -1      1935 1.33082E-02
 -1      1936 1.12983E-02
 -1      1937 1.14566E-02
 -1      1938 1.01823E-02
 -1      1939 8.92498E-03
 -1      1940 8.75319E-03
 -1      1941 8.15810E-03
 -1      1942 6.97749E-03
 -1      1943 6.87027E-03
 -1      1944 6.42892E-03
 -1      1945 5.48952E-03
 -1      1946 5.55482E-03
 -1      1947 4.89519E-03
 -1      1948 4.09331E-03
 -1      1949 4.41192E-03
 -1      1950 3.60194E-03
 -1      1951 2.93374E-03
 -1      1952 3.32622E-03
 -1      1953 2.50485E-03
 -1      1954 2.25182E-03
 -1      1955 2.40597E-03
 -1      1956 2.03283E-03
 -1      1957 1.63172E-03
 -1      1958 1.75809E-03
 -1      1959 1.28725E+00
 -1      1960 1.67658E+00
 -1      1961 1.40487E+00
 -1      1962 3.46749E+01
 -1      1963 3.10456E+01
 -1      1964 8.97110E-01
 -1      1965 1.11900E+00
 -1      1966 8.65164E-01
 -1      1967 6.79063E-01
 -1      1968 8.14074E-01
 -1      1969 6.13875E-01
 -1      1970 4.91660E-01
 -1      1971 6.16165E-01
 -1      1972 4.67942E-01
 -1      1973 3.70105E-01
 -1      1974 4.67862E-01
 -1      1975 3.81246E-01
 -1      1976 3.29704E-01
 -1      1977 3.85741E-01
 -1      1978 3.73083E-01
 -1      1979 4.21321E-01
 -1      1980 3.94838E-01
 -1      1981 4.53853E-01
 -1      1982 5.77562E-01
 -1      1983 5.12446E-01
 -1      1984 6.10112E-01
 -1      1985 7.64026E-01
 -1      1986 6.83052E-01
 -1      1987 8.06727E-01
 -1      1988 9.79261E-01
 -1      1989 8.70714E-01
 -1      1990 1.01890E+00
 -1      1991 1.26094E+00
 -1      1992 1.09004E+00
 -1      1993 1.23637E+00
 -1      1994 1.47541E+00
 -1      1995 1.32339E+00
 -1      1996 1.40960E+00
 -1      1997 1.64376E+00
 -1      1998 1.47570E+00
 -1      1999 1.47234E+00
 -1      2000 1.74832E+00
 -1      2001 1.64376E+00
 -1      2002 1.47263E+00
 -1      2003 1.84615E+00
 -1      2004 1.75814E+00
 -1      2005 1.48246E+00
 -1      2006 1.92851E+00
 -1      2007 1.86871E+00
 -1      2008 1.51484E+00
 -1      2009 1.81459E+00
 -1      2010 1.91172E+00
 -1      2011 1.52062E+00
 -1      2012 1.50785E+00
 -1      2013 1.71556E+00
 -1      2014 1.40479E+00
 -1      2015 1.14820E+00
 -1      2016 1.37419E+00
 -1      2017 1.17210E+00
 -1      2018 8.29737E-01
 -1      2019 1.01965E+00
 -1      2020 9.09887E-01
 -1      2021 5.34067E-01
 -1      2022 7.00193E-01
 -1      2023 6.51787E-01
 -1      2024 3.27280E-01
 -1      2025 4.26348E-01
 -1      2026 4.14524E-01
 -1      2027 2.06123E-01
 -1      2028 2.61496E-01
 -1      2029 2.41021E-01
 -1      2030 1.63666E-01
 -1      2031 1.77345E-01
 -1      2032 1.46458E-01
 -1      2033 1.81404E-01
 -1      2034 1.74237E-01
 -1      2035 1.28251E-01
 -1      2036 1.82529E-01
 -1      2037 1.87843E-01
 -1      2038 1.45262E-01
 -1      2039 1.63751E-01
 -1      2040 1.78822E-01
 -1      2041 1.47994E-01
 -1      2042 1.36053E-01
 -1      2043 1.54377E-01
 -1      2044 1.34912E-01
 -1      2045 1.14214E-01
 -1      2046 1.27872E-01
 -1      2047 1.17357E-01
 -1      2048 9.12120E-02
 -1      2049 1.04090E-01
 -1      2050 9.90517E-02
 -1      2051 7.05460E-02
 -1      2052 8.10000E-02
 -1      2053 7.87156E-02
 -1      2054 5.54239E-02
 -1      2055 6.33512E-02
 -1      2056 6.13087E-02
 -1      2057 4.21379E-02
 -1      2058 4.92588E-02
 -1      2059 4.79489E-02
 -1      2060 3.10144E-02
 -1      2061 3.67532E-02
 -1      2062 3.63991E-02
 -1      2063 2.20880E-02
 -1      2064 2.65512E-02
 -1      2065 2.65512E-02
 -1      2066 1.66466E-02
 -1      2067 1.85400E-02
 -1      2068 1.85400E-02
 -1      2069 1.34472E-02
 -1      2070 1.49760E-02
 -1      2071 1.33214E-02
 -1      2072 1.11066E-02
 -1      2073 1.25860E-02
 -1      2074 1.07896E-02
 -1      2075 8.88385E-03
 -1      2076 1.02056E-02
 -1      2077 9.02741E-03
 -1      2078 7.53848E-03
 -1      2079 8.00638E-03
 -1      2080 7.24898E-03
 -1      2081 6.18326E-03
 -1      2082 6.79657E-03
 -1      2083 5.62959E-03
 -1      2084 5.16736E-03
 -1      2085 5.86063E-03
 -1      2086 4.56505E-03
 -1      2087 4.00820E-03
 -1      2088 4.75040E-03
 -1      2089 3.82546E-03
 -1      2090 2.94775E-03
 -1      2091 3.62800E-03
 -1      2092 3.02830E-03
 -1      2093 2.13578E-03
 -1      2094 2.57917E-03
 -1      2095 2.27953E-03
 -1      2096 1.36981E-03
 -1      2097 1.85339E-03
 -1      2098 1.62856E-03
 -1      2099 9.70765E-04
 -1      2100 5.49958E-04
 -1      2101 4.94236E-04
 -1      2102 7.01524E-04
 -1      2103 8.00203E-04
 -1      2104 8.49049E-04
 -1      2105 8.00203E-04
 -1      2106 8.25844E-04
 -1      2107 1.20126E-03
 -1      2108 1.05634E-03
 -1      2109 6.63348E-04
 -1      2110 6.02343E-04
 -1      2111 6.94147E-04
 -1      2112 7.32636E-04
 -1      2113 6.98842E-04
 -1      2114 7.82026E-04
 -1      2115 7.67648E-04
 -1      2116 7.50299E-04
 -1      2117 8.35182E-04
 -1      2118 7.75744E-04
 -1      2119 7.72608E-04
 -1      2120 8.57805E-04
 -1      2121 7.81170E-04
 -1      2122 7.81170E-04
 -1      2123 8.68192E-04
 -1      2124 7.85100E-04
 -1      2125 7.87547E-04
 -1      2126 8.79994E-04
 -1      2127 7.63223E-04
 -1      2128 7.85100E-04
 -1      2129 8.86371E-04
 -1      2130 6.86798E-04
 -1      2131 7.42819E-04
 -1      2132 8.65967E-04
 -1      2133 5.27583E-04
 -1      2134 6.19100E-04
 -1      2135 7.77866E-04
 -1      2136 1.21491E-03
 -1      2137 7.58281E-04
 -1      2138 9.40866E-04
 -1      2139 1.62436E+01
 -1      2140 2.94183E+01
 -1      2141 2.01794E+01
 -1      2142 1.49130E-03
 -1      2143 3.33964E+00
 -1      2144 3.20724E+01
 -1      2145 3.20724E+01
 -1      2146 1.06229E+00
 -1      2147 1.24751E+00
 -1      2148 1.04111E+00
 -1      2149 8.75388E-01
 -1      2150 9.87166E+00
 -1      2151 1.31455E+01
 -1      2152 9.98715E+00
 -1      2153 9.36877E+00
 -1      2154 1.10779E+01
 -1      2155 1.09518E+01
 -1      2156 1.17192E+01
 -1      2157 1.21124E+01
 -1      2158 1.17229E+01
 -1      2159 1.14820E+01
 -1      2160 1.14820E+01
 -1      2161 1.03657E+01
 -1      2162 1.07423E+01
 -1      2163 9.79250E+00
 -1      2164 9.42366E+00
 -1      2165 2.05535E+01
 -1      2166 1.16352E+01
 -1      2167 2.47414E+01
 -1      2168 2.47414E+01
 -1      2169 2.44607E+01
 -1      2170 2.63336E+01
 -1      2171 3.38702E+01
 -1      2172 3.32406E+01
 -1      2173 3.14249E+01
 -1      2174 3.38702E+01
 -1      2175 3.38702E+01
 -1      2176 3.30760E+01
 -1      2177 2.83079E+01
 -1      2178 3.28553E+01
 -1      2179 3.09084E+01
 -1      2180 1.47922E+01
 -1      2181 2.75701E+01
 -1      2182 9.95358E+00
 -1      2183 1.16679E+01
 -1      2184 1.14558E+01
 -1      2185 1.07914E+01
 -1      2186 1.34592E+01
 -1      2187 1.30378E+01
 -1      2188 1.20759E+01
 -1      2189 1.22949E+01
 -1      2190 1.08890E+01
 -1      2191 1.15744E+01
 -1      2192 2.53789E+01
 -1      2193 1.40882E+01
 -1      2194 2.86942E+01
 -1      2195 3.03601E+01
 -1      2196 2.54238E+01
 -1      2197 3.02760E+01
 -1      2198 3.20724E+01
 -1      2199 2.91887E+01
 -1      2200 2.87675E+01
 -1      2201 2.57106E+01
 -1      2202 1.39868E-03
 -1      2203 3.36033E+01
 -1      2204 6.49022E+00
 -1      2205 6.00628E+00
 -1      2206 1.06511E+01
 -1      2207 2.31579E+01
 -1      2208 2.86584E+00
 -1      2209 2.00456E+00
 -1      2210 1.18248E+01
 -1      2211 8.94012E+00
 -1      2212 9.22135E+00
 -1      2213 7.46938E+00
 -1      2214 1.02642E+01
 -1      2215 1.06847E+01
 -1      2216 1.39868E-03
 -1      2217 2.85838E+01
 -1      2218 3.01147E+01
 -1      2219 2.37530E+01
 -1      2220 2.98384E+01
 -1      2221 2.44916E+01
 -1      2222 1.79284E+01
 -1      2223 9.93561E+00
 -1      2224 8.76393E+00
 -1      2225 1.10504E+01
 -1      2226 1.94599E+01
 -1      2227 2.69127E+01
 -1      2228 4.02049E+01
 -1      2229 2.10529E+01
 -1      2230 2.05038E+01
 -1      2231 1.10352E+01
 -1      2232 1.52231E+01
 -1      2233 9.24221E+00
 -1      2234 8.22378E+00
 -1      2235 8.68558E+00
 -1      2236 1.35533E-03
 -1      2237 8.34152E+00
 -1      2238 3.46426E+01
 -1      2239 1.02745E+01
 -1      2240 1.14155E+01
 -1      2241 1.15905E+01
 -1      2242 1.01478E+01
 -1      2243 7.77683E+00
 -1      2244 8.69297E+00
 -1      2245 5.18661E-01
 -1      2246 5.64424E-01
 -1      2247 5.94600E-01
 -1      2248 6.57386E-01
 -1      2249 4.84080E-01
 -1      2250 4.89762E-01
 -1      2251 4.64720E-01
 -1      2252 5.52285E-01
 -1      2253 5.17651E-01
 -1      2254 4.39384E-01
 -1      2255 6.23835E-01
 -1      2256 5.79415E-01
 -1      2257 4.94402E-01
 -1      2258 6.98351E-01
 -1      2259 6.43500E-01
 -1      2260 5.41196E-01
 -1      2261 7.70917E-01
 -1      2262 7.00189E-01
 -1      2263 5.62699E-01
 -1      2264 8.71198E-01
 -1      2265 7.70917E-01
 -1      2266 5.64537E-01
 -1      2267 9.80600E-01
 -1      2268 8.97495E-01
 -1      2269 5.90834E-01
 -1      2270 1.65110E+00
 -1      2271 1.28038E+00
 -1      2272 9.16909E-01
 -1      2273 1.49650E+00
 -1      2274 1.09002E+00
 -1      2275 8.18854E-01
 -1      2276 8.18015E+00
 -1      2277 1.12782E+01
 -1      2278 2.29061E+01
 -1      2279 2.06280E+01
 -1      2280 7.33771E-01
 -1      2281 6.09760E-01
 -1      2282 5.62801E-01
 -1      2283 6.10307E-01
 -1      2284 5.57354E-01
 -1      2285 4.78265E-01
 -1      2286 6.83614E-01
 -1      2287 8.85789E-01
 -1      2288 6.05072E-01
 -1      2289 1.09400E+00
 -1      2290 1.38633E+00
 -1      2291 9.39539E-01
 -1      2292 1.67692E+00
 -1      2293 2.02792E+00
 -1      2294 1.43833E+00
 -1      2295 2.43649E+00
 -1      2296 2.82001E+00
 -1      2297 2.13748E+00
 -1      2298 3.38688E+00
 -1      2299 3.73208E+00
 -1      2300 3.11291E+00
 -1      2301 4.60598E+00
 -1      2302 4.84623E+00
 -1      2303 4.55367E+00
 -1      2304 6.30410E+00
 -1      2305 6.97902E+00
 -1      2306 6.88544E+00
 -1      2307 8.48000E+00
 -1      2308 9.50166E+00
 -1      2309 9.84429E+00
 -1      2310 3.36033E+01
 -1      2311 3.36033E+01
 -1      2312 9.35763E-01
 -1      2313 1.30721E+00
 -1      2314 1.02740E+00
 -1      2315 8.97913E+00
 -1      2316 8.40039E+00
 -1      2317 6.64927E+00
 -1      2318 6.07104E+00
 -1      2319 1.02234E+01
 -1      2320 4.46787E+00
 -1      2321 4.29368E+00
 -1      2322 6.86916E+00
 -1      2323 3.58014E+00
 -1      2324 3.30481E+00
 -1      2325 4.55244E+00
 -1      2326 2.80008E+00
 -1      2327 2.52529E+00
 -1      2328 3.33417E+00
 -1      2329 2.13111E+00
 -1      2330 1.84889E+00
 -1      2331 2.43526E+00
 -1      2332 1.55904E+00
 -1      2333 1.32725E+00
 -1      2334 1.75122E+00
 -1      2335 1.11559E+00
 -1      2336 9.38340E-01
 -1      2337 1.24970E+00
 -1      2338 7.85118E-01
 -1      2339 6.55590E-01
 -1      2340 8.84817E-01
 -1      2341 5.45625E-01
 -1      2342 4.53519E-01
 -1      2343 6.21629E-01
 -1      2344 3.74543E-01
 -1      2345 3.07166E-01
 -1      2346 4.32689E-01
 -1      2347 2.54827E-01
 -1      2348 2.15153E-01
 -1      2349 3.01374E-01
 -1      2350 1.75474E-01
 -1      2351 1.44681E-01
 -1      2352 2.09356E-01
 -1      2353 1.16842E-01
 -1      2354 9.88598E-02
 -1      2355 1.41838E-01
 -1      2356 7.94561E-02
 -1      2357 6.69291E-02
 -1      2358 9.45955E-02
 -1      2359 5.34863E-02
 -1      2360 4.49998E-02
 -1      2361 6.17490E-02
 -1      2362 3.53885E-02
 -1      2363 2.86362E-02
 -1      2364 3.86949E-02
 -1      2365 2.42884E-02
 -1      2366 2.08803E-02
 -1      2367 2.47358E-02
 -1      2368 1.79457E-02
 -1      2369 1.56866E-02
 -1      2370 1.74534E-02
 -1      2371 1.41385E-02
 -1      2372 1.22332E-02
 -1      2373 1.29706E-02
 -1      2374 1.11171E-02
 -1      2375 9.52972E-03
 -1      2376 1.03063E-02
 -1      2377 8.52448E-03
 -1      2378 7.40843E-03
 -1      2379 8.18497E-03
 -1      2380 6.65396E-03
 -1      2381 5.88708E-03
 -1      2382 6.42525E-03
 -1      2383 5.34012E-03
 -1      2384 4.79155E-03
 -1      2385 5.12381E-03
 -1      2386 4.24814E-03
 -1      2387 3.65381E-03
 -1      2388 4.03344E-03
 -1      2389 3.17122E-03
 -1      2390 2.67986E-03
 -1      2391 3.00744E-03
 -1      2392 2.35543E-03
 -1      2393 1.92654E-03
 -1      2394 2.20042E-03
 -1      2395 1.82133E-03
 -1      2396 1.60234E-03
 -1      2397 1.41857E-03
 -1      2398 1.77079E-03
 -1      2399 5.30840E-01
 -1      2400 6.13875E-01
 -1      2401 6.56196E-01
 -1      2402 8.24449E-01
 -1      2403 7.26795E-01
 -1      2404 5.73160E-01
 -1      2405 3.57448E-01
 -1      2406 3.81246E-01
 -1      2407 3.88719E-01
 -1      2408 3.73083E-01
 -1      2409 3.73083E-01
 -1      2410 4.99890E-01
 -1      2411 4.34755E-01
 -1      2412 4.34755E-01
 -1      2413 6.54027E-01
 -1      2414 5.62902E-01
 -1      2415 5.43804E-01
 -1      2416 8.44372E-01
 -1      2417 7.38882E-01
 -1      2418 6.91672E-01
 -1      2419 1.06535E+00
 -1      2420 9.58664E-01
 -1      2421 8.90820E-01
 -1      2422 1.27296E+00
 -1      2423 1.16218E+00
 -1      2424 1.10194E+00
 -1      2425 1.40960E+00
 -1      2426 1.34715E+00
 -1      2427 1.27296E+00
 -1      2428 1.47234E+00
 -1      2429 1.47204E+00
 -1      2430 1.40960E+00
 -1      2431 1.47263E+00
 -1      2432 1.47263E+00
 -1      2433 1.47234E+00
 -1      2434 1.46307E+00
 -1      2435 1.45324E+00
 -1      2436 1.45324E+00
 -1      2437 1.51484E+00
 -1      2438 1.49228E+00
 -1      2439 1.46307E+00
 -1      2440 1.46854E+00
 -1      2441 1.48532E+00
 -1      2442 1.46276E+00
 -1      2443 1.27903E+00
 -1      2444 1.37806E+00
 -1      2445 1.34277E+00
 -1      2446 1.05822E+00
 -1      2447 1.19188E+00
 -1      2448 1.16514E+00
 -1      2449 8.08296E-01
 -1      2450 9.36852E-01
 -1      2451 9.56627E-01
 -1      2452 5.47447E-01
 -1      2453 6.76991E-01
 -1      2454 7.03956E-01
 -1      2455 3.44455E-01
 -1      2456 4.52174E-01
 -1      2457 4.77378E-01
 -1      2458 2.04609E-01
 -1      2459 2.70394E-01
 -1      2460 3.08044E-01
 -1      2461 1.41634E-01
 -1      2462 1.70412E-01
 -1      2463 1.99785E-01
 -1      2464 1.37349E-01
 -1      2465 1.26778E-01
 -1      2466 1.50732E-01
 -1      2467 1.39403E-01
 -1      2468 1.32963E-01
 -1      2469 1.31490E-01
 -1      2470 1.34644E-01
 -1      2471 1.38352E-01
 -1      2472 1.26053E-01
 -1      2473 1.21110E-01
 -1      2474 1.30483E-01
 -1      2475 1.20841E-01
 -1      2476 1.05414E-01
 -1      2477 1.13595E-01
 -1      2478 1.09166E-01
 -1      2479 8.80079E-02
 -1      2480 9.81320E-02
 -1      2481 9.43698E-02
 -1      2482 6.97336E-02
 -1      2483 7.99457E-02
 -1      2484 7.90260E-02
 -1      2485 5.45109E-02
 -1      2486 6.17056E-02
 -1      2487 6.29358E-02
 -1      2488 4.11145E-02
 -1      2489 4.72796E-02
 -1      2490 4.76765E-02
 -1      2491 2.96482E-02
 -1      2492 3.50329E-02
 -1      2493 3.43636E-02
 -1      2494 2.12652E-02
 -1      2495 2.57284E-02
 -1      2496 2.43622E-02
 -1      2497 1.46962E-02
 -1      2498 1.82442E-02
 -1      2499 1.74215E-02
 -1      2500 1.16509E-02
 -1      2501 1.33214E-02
 -1      2502 1.30257E-02
 -1      2503 9.92837E-03
 -1      2504 1.07896E-02
 -1      2505 1.07896E-02
 -1      2506 8.12645E-03
 -1      2507 9.02741E-03
 -1      2508 9.02741E-03
 -1      2509 6.37151E-03
 -1      2510 7.24898E-03
 -1      2511 7.24898E-03
 -1      2512 4.86526E-03
 -1      2513 5.60717E-03
 -1      2514 5.60717E-03
 -1      2515 4.13509E-03
 -1      2516 4.45772E-03
 -1      2517 4.43530E-03
 -1      2518 3.25406E-03
 -1      2519 3.67103E-03
 -1      2520 3.56370E-03
 -1      2521 2.44482E-03
 -1      2522 2.82502E-03
 -1      2523 2.67059E-03
 -1      2524 1.73683E-03
 -1      2525 2.10541E-03
 -1      2526 1.90213E-03
 -1      2527 1.48364E-03
 -1      2528 8.81829E-04
 -1      2529 8.46335E-04
 -1      2530 9.00885E-04
 -1      2531 8.83223E-04
 -1      2532 9.47532E-04
 -1      2533 1.01447E-03
 -1      2534 1.22176E-03
 -1      2535 8.70376E-04
 -1      2536 8.17990E-04
 -1      2537 1.19070E-03
 -1      2538 9.70179E-04
 -1      2539 9.05845E-04
 -1      2540 9.00885E-04
 -1      2541 9.48926E-04
 -1      2542 9.09408E-04
 -1      2543 9.03982E-04
 -1      2544 9.47062E-04
 -1      2545 9.43877E-04
 -1      2546 9.37500E-04
 -1      2547 9.73290E-04
 -1      2548 9.76793E-04
 -1      2549 9.76793E-04
 -1      2550 1.03430E-03
 -1      2551 9.56390E-04
 -1      2552 9.76793E-04
 -1      2553 1.06722E-03
 -1      2554 8.79470E-04
 -1      2555 9.47168E-04
 -1      2556 1.05799E-03
 -1      2557 1.10365E-03
 -1      2558 8.72948E-04
 -1      2559 1.04225E-03
 -1      2560 1.35065E-03
 -1      2561 1.31833E+01
 -1      2562 1.84399E+01
 -1      2563 9.53872E+00
 -1      2564 5.83586E+00
 -1      2565 6.77789E+00
 -1      2566 1.68593E+00
 -1      2567 1.21353E+00
 -1      2568 7.71390E-01
 -1      2569 1.01343E+00
 -1      2570 1.16014E+01
 -1      2571 1.11837E+01
 -1      2572 1.93233E+01
 -1      2573 1.77312E+01
 -1      2574 9.54408E+00
 -1      2575 8.50962E+00
 -1      2576 4.05045E-01
 -1      2577 4.67942E-01
 -1      2578 4.67942E-01
 -1      2579 3.81246E-01
 -1      2580 7.95196E+00
 -1      2581 8.93259E+00
 -1      2582 4.57244E-01
 -1      2583 4.89981E-01
 -1      2584 4.25224E-01
 -1      2585 4.04020E-01
 -1      2586 7.51231E+00
 -1      2587 6.54761E+00
 -1      2588 6.37165E+00
 -1      2589 9.58175E+00
 -1      2590 9.81895E+00
 -1      2591 2.90803E+01
 -1      2592 3.46426E+01
 -1      2593 6.51634E+00
 -1      2594 7.01923E+00
 -1      2595 8.97412E+00
 -1      2596 7.13141E+00
 -1      2597 5.56777E+00
 -1      2598 3.14249E+01
 -1      2599 2.26450E+01
 -1      2600 7.17703E+00
 -1      2601 7.91818E+00
 -1      2602 4.02049E+01
 -1      2603 4.02049E+01
 -1      2604 2.12158E+01
 -1      2605 2.33833E+01
 -1      2606 1.29641E+01
 -1      2607 1.82493E+01
 -1      2608 7.63940E+00
 -1      2609 6.80154E+00
 -1      2610 1.76975E+01
 -1      2611 1.27162E+01
 -1      2612 2.15112E+01
 -1      2613 1.99293E+01
 -1      2614 2.98384E+01
 -1      2615 2.60734E+01
 -1      2616 2.98384E+01
 -1      2617 7.61475E+00
 -1      2618 8.30520E+00
 -1      2619 1.07391E+01
 -1      2620 1.09164E+01
 -1      2621 5.14257E-01
 -1      2622 6.57386E-01
 -1      2623 7.32258E-01
 -1      2624 7.26954E+00
 -1      2625 6.47271E+00
 -1      2626 5.44630E+00
 -1      2627 2.35012E+01
 -1      2628 8.98531E+00
 -1      2629 2.65393E+01
 -1      2630 2.65393E+01
 -1      2631 2.30508E+01
 -1      2632 9.23447E+00
 -1      2633 1.22299E+01
 -1      2634 1.05719E+01
 -1      2635 1.10444E+01
 -1      2636 1.80404E+01
 -1      2637 1.55106E+01
 -1      2638 1.30953E-03
 -1      2639 8.92435E+00
 -1      2640 1.30953E-03
 -1      2641 1.93233E+01
 -1      2642 1.08029E+01
 -1      2643 7.62488E-01
 -1      2644 8.53338E-01
 -1      2645 7.34806E-01
 -1      2646 5.44486E-01
 -1      2647 5.83689E+00
 -1      2648 4.63234E+00
 -1      2649 4.66361E+00
 -1      2650 7.64383E+00
 -1      2651 1.47200E+01
 -1      2652 3.46426E+01
 -1      2653 1.45443E+01
 -1      2654 1.03066E+01
 -1      2655 1.28147E+01
 -1      2656 2.33833E+01
 -1      2657 3.14249E+01
 -1      2658 1.47495E-03
 -1      2659 9.70580E+00
 -1      2660 2.15112E+01
 -1      2661 1.47171E+01
 -1      2662 1.15494E+01
 -1      2663 8.13022E+00
 -1      2664 4.58196E-01
 -1      2665 4.31067E-01
 -1      2666 4.09399E-01
 -1      2667 3.81510E-01
 -1      2668 3.73193E-01
 -1      2669 4.91809E-01
 -1      2670 4.89972E-01
 -1      2671 4.88156E-01
 -1      2672 4.88156E-01
 -1      2673 4.15429E-01
 -1      2674 5.10591E-01
 -1      2675 4.84294E-01
 -1      2676 4.07913E-01
 -1      2677 9.26141E-01
 -1      2678 6.26363E-01
 -1      2679 5.19824E-01
 -1      2680 7.36853E-01
 -1      2681 5.02982E-01
 -1      2682 5.03529E-01
 -1      2683 5.82367E-01
 -1      2684 7.08627E-01
 -1      2685 6.07084E-01
 -1      2686 8.67247E-01
 -1      2687 1.07545E+00
 -1      2688 8.44542E-01
 -1      2689 1.36107E+00
 -1      2690 1.65166E+00
 -1      2691 1.28878E+00
 -1      2692 2.06238E+00
 -1      2693 2.47094E+00
 -1      2694 1.98512E+00
 -1      2695 3.05257E+00
 -1      2696 3.61944E+00
 -1      2697 2.97747E+00
 -1      2698 4.59946E+00
 -1      2699 5.47335E+00
 -1      2700 4.53912E+00
 -1      2701 8.79562E+00
 -1      2702 1.02535E+01
 -1      2703 8.84141E+00
 -1      2704 9.84775E+00
 -1      2705 8.24458E+00
 -1      2706 5.40417E+00
 -1      2707 4.69063E+00
 -1      2708 8.38277E+00
 -1      2709 3.82246E+00
 -1      2710 3.31773E+00
 -1      2711 4.67419E+00
 -1      2712 2.70802E+00
 -1      2713 2.31384E+00
 -1      2714 3.19632E+00
 -1      2715 1.90127E+00
 -1      2716 1.61141E+00
 -1      2717 2.17403E+00
 -1      2718 1.33339E+00
 -1      2719 1.12173E+00
 -1      2720 1.48345E+00
 -1      2721 9.26844E-01
 -1      2722 7.73622E-01
 -1      2723 1.01054E+00
 -1      2724 6.38932E-01
 -1      2725 5.28967E-01
 -1      2726 6.80959E-01
 -1      2727 4.40836E-01
 -1      2728 3.61861E-01
 -1      2729 4.58139E-01
 -1      2730 3.05799E-01
 -1      2731 2.53461E-01
 -1      2732 3.13947E-01
 -1      2733 2.16659E-01
 -1      2734 1.76980E-01
 -1      2735 2.21084E-01
 -1      2736 1.49917E-01
 -1      2737 1.22078E-01
 -1      2738 1.57219E-01
 -1      2739 1.02316E-01
 -1      2740 8.29128E-02
 -1      2741 1.10395E-01
 -1      2742 6.85934E-02
 -1      2743 5.51505E-02
 -1      2744 7.63143E-02
 -1      2745 4.47906E-02
 -1      2746 3.51793E-02
 -1      2747 5.16350E-02
 -1      2748 2.83012E-02
 -1      2749 2.39534E-02
 -1      2750 3.43969E-02
 -1      2751 1.87891E-02
 -1      2752 1.58545E-02
 -1      2753 2.23545E-02
 -1      2754 1.23065E-02
 -1      2755 1.07583E-02
 -1      2756 1.36422E-02
 -1      2757 9.47400E-03
 -1      2758 8.35791E-03
 -1      2759 8.80992E-03
 -1      2760 7.93642E-03
 -1      2761 6.93118E-03
 -1      2762 7.10412E-03
 -1      2763 6.42525E-03
 -1      2764 5.67077E-03
 -1      2765 6.17670E-03
 -1      2766 5.12381E-03
 -1      2767 4.57685E-03
 -1      2768 5.12381E-03
 -1      2769 4.03344E-03
 -1      2770 3.49003E-03
 -1      2771 4.03344E-03
 -1      2772 3.09340E-03
 -1      2773 2.61081E-03
 -1      2774 3.09340E-03
 -1      2775 2.26274E-03
 -1      2776 1.93831E-03
 -1      2777 2.34870E-03
 -1      2778 1.75518E-03
 -1      2779 1.64998E-03
 -1      2780 1.33505E-03
 -1      2781 1.81750E-03
 -1      2782 6.06817E-01
 -1      2783 5.43804E-01
 -1      2784 3.83975E-01
 -1      2785 3.68340E-01
 -1      2786 7.58933E-01
 -1      2787 6.74078E-01
 -1      2788 6.74078E-01
 -1      2789 9.53693E-01
 -1      2790 8.39400E-01
 -1      2791 8.21806E-01
 -1      2792 1.13218E+00
 -1      2793 1.03535E+00
 -1      2794 9.83934E-01
 -1      2795 1.27032E+00
 -1      2796 1.19613E+00
 -1      2797 1.12954E+00
 -1      2798 1.36517E+00
 -1      2799 1.30272E+00
 -1      2800 1.22589E+00
 -1      2801 1.39820E+00
 -1      2802 1.39791E+00
 -1      2803 1.29104E+00
 -1      2804 1.31577E+00
 -1      2805 1.33516E+00
 -1      2806 1.26073E+00
 -1      2807 1.37560E+00
 -1      2808 1.34639E+00
 -1      2809 1.22830E+00
 -1      2810 1.36253E+00
 -1      2811 1.39205E+00
 -1      2812 1.27537E+00
 -1      2813 1.22734E+00
 -1      2814 1.31781E+00
 -1      2815 1.24710E+00
 -1      2816 1.09180E+00
 -1      2817 1.17895E+00
 -1      2818 1.15399E+00
 -1      2819 8.74196E-01
 -1      2820 9.95564E-01
 -1      2821 1.00937E+00
 -1      2822 6.57664E-01
 -1      2823 7.88968E-01
 -1      2824 8.27905E-01
 -1      2825 4.64708E-01
 -1      2826 5.59981E-01
 -1      2827 6.44994E-01
 -1      2828 3.08044E-01
 -1      2829 3.82106E-01
 -1      2830 4.64708E-01
 -1      2831 2.26496E-01
 -1      2832 2.60693E-01
 -1      2833 3.34755E-01
 -1      2834 1.76209E-01
 -1      2835 1.91065E-01
 -1      2836 2.51972E-01
 -1      2837 1.40567E-01
 -1      2838 1.44953E-01
 -1      2839 1.85286E-01
 -1      2840 1.35411E-01
 -1      2841 1.36462E-01
 -1      2842 1.49925E-01
 -1      2843 1.23992E-01
 -1      2844 1.28153E-01
 -1      2845 1.38562E-01
 -1      2846 1.07530E-01
 -1      2847 1.15045E-01
 -1      2848 1.22356E-01
 -1      2849 9.16718E-02
 -1      2850 9.89534E-02
 -1      2851 1.04832E-01
 -1      2852 7.54590E-02
 -1      2853 8.35213E-02
 -1      2854 8.81049E-02
 -1      2855 5.92803E-02
 -1      2856 6.73083E-02
 -1      2857 7.18036E-02
 -1      2858 4.45615E-02
 -1      2859 5.17928E-02
 -1      2860 5.61653E-02
 -1      2861 3.20376E-02
 -1      2862 3.81192E-02
 -1      2863 4.22355E-02
 -1      2864 2.28432E-02
 -1      2865 2.67630E-02
 -1      2866 3.05186E-02
 -1      2867 1.56803E-02
 -1      2868 1.87013E-02
 -1      2869 2.11021E-02
 -1      2870 1.11764E-02
 -1      2871 1.25512E-02
 -1      2872 1.38311E-02
 -1      2873 8.51021E-03
 -1      2874 9.37146E-03
 -1      2875 8.89699E-03
 -1      2876 6.97295E-03
 -1      2877 7.87390E-03
 -1      2878 6.45574E-03
 -1      2879 5.76344E-03
 -1      2880 6.64091E-03
 -1      2881 5.48741E-03
 -1      2882 4.57418E-03
 -1      2883 5.33852E-03
 -1      2884 4.73045E-03
 -1      2885 3.70541E-03
 -1      2886 4.11295E-03
 -1      2887 3.84429E-03
 -1      2888 2.82032E-03
 -1      2889 3.28438E-03
 -1      2890 2.96203E-03
 -1      2891 2.10905E-03
 -1      2892 2.53810E-03
 -1      2893 2.25878E-03
 -1      2894 1.64558E-03
 -1      2895 1.98499E-03
 -1      2896 1.85250E-03
 -1      2897 1.55781E-03
 -1      2898 9.23377E+00
 -1      2899 7.17274E+00
 -1      2900 9.45199E-04
 -1      2901 9.47062E-04
 -1      2902 9.83749E-04
 -1      2903 9.82356E-04
 -1      2904 9.67629E-04
 -1      2905 9.39537E-04
 -1      2906 9.39537E-04
 -1      2907 9.62488E-04
 -1      2908 9.62488E-04
 -1      2909 9.97312E-04
 -1      2910 9.60625E-04
 -1      2911 1.07706E-03
 -1      2912 1.04415E-03
 -1      2913 1.01039E-03
 -1      2914 1.16598E-03
 -1      2915 1.16598E-03
 -1      2916 1.17583E-03
 -1      2917 1.15676E-03
 -1      2918 1.16598E-03
 -1      2919 1.26474E-03
 -1      2920 7.75140E+00
 -1      2921 9.65650E+00
 -1      2922 6.82350E-01
 -1      2923 5.58844E-01
 -1      2924 5.22260E-01
 -1      2925 5.88076E+00
 -1      2926 6.52992E+00
 -1      2927 9.48680E+00
 -1      2928 6.96077E+00
 -1      2929 6.68590E+00
 -1      2930 2.55372E+01
 -1      2931 2.17722E+01
 -1      2932 2.00927E+01
 -1      2933 1.55304E+01
 -1      2934 1.57914E+01
 -1      2935 1.45158E+01
 -1      2936 1.30432E+01
 -1      2937 1.12921E+01
 -1      2938 4.80792E-01
 -1      2939 4.34755E-01
 -1      2940 4.30012E-01
 -1      2941 5.62801E-01
 -1      2942 4.77718E-01
 -1      2943 5.02982E-01
 -1      2944 4.73761E-01
 -1      2945 1.77371E+01
 -1      2946 1.44154E+01
 -1      2947 5.02826E+00
 -1      2948 6.18918E+00
 -1      2949 1.93056E+01
 -1      2950 2.24305E+01
 -1      2951 4.89972E-01
 -1      2952 4.70307E-01
 -1      2953 4.06972E-01
 -1      2954 4.19082E-01
 -1      2955 3.87379E-01
 -1      2956 4.17556E-01
 -1      2957 3.82082E+00
 -1      2958 4.99490E+00
 -1      2959 4.67655E+00
 -1      2960 3.38100E+00
 -1      2961 2.92959E+00
 -1      2962 2.79206E+01
 -1      2963 1.91406E+01
 -1      2964 2.30500E+01
 -1      2965 2.86123E+01
 -1      2966 1.63978E+01
 -1      2967 2.20948E+01
 -1      2968 5.82907E+00
 -1      2969 4.83176E+00
 -1      2970 1.44618E+01
 -1      2971 1.32273E+01
 -1      2972 3.67599E-01
 -1      2973 3.01074E-01
 -1      2974 3.38919E-01
 -1      2975 1.60179E+01
 -1      2976 1.11099E+01
 -1      2977 1.25135E+01
 -1      2978 3.30420E-01
 -1      2979 3.54218E-01
 -1      2980 3.41312E-01
 -1      2981 1.88551E+01
 -1      2982 1.36365E+01
 -1      2983 1.17263E+01
 -1      2984 1.26675E+01
 -1      2985 1.01799E+01
 -1      2986 1.50456E+01
 -1      2987 1.39749E+01
 -1      2988 3.49111E+00
 -1      2989 4.17056E+00
 -1      2990 3.88703E+00
 -1      2991 5.43804E-01
 -1      2992 9.25706E+00
 -1      2993 4.37948E-01
 -1      2994 4.80269E-01
 -1      2995 8.55498E+00
 -1      2996 1.33638E-03
 -1      2997 1.50701E-03
 -1      2998 1.13990E-03
 -1      2999 2.41458E+01
 -1      3000 1.60797E+01
 -1      3001 1.70819E+01
 -1      3002 6.30696E+00
 -1      3003 1.25943E-03
 -1      3004 1.26595E-03
 -1      3005 1.37394E-03
 -1      3006 1.55875E-03
 -1      3007 1.01367E+01
 -1      3008 1.17229E+01
 -1      3009 8.53602E+00
 -1      3010 4.36210E+00
 -1      3011 3.65138E+00
 -1      3012 3.81953E+00
 -1      3013 4.25528E+00
 -1      3014 5.57199E+00
 -1      3015 5.14601E+00
 -1      3016 1.60645E+01
 -1      3017 1.01079E-03
 -1      3018 1.03483E-03
 -1      3019 1.18051E-03
 -1      3020 1.04700E-03
 -1      3021 5.40184E+00
 -1      3022 3.21507E+00
 -1      3023 5.71126E+00
 -1      3024 3.63461E-01
 -1      3025 4.26359E-01
 -1      3026 3.12635E-01
 -1      3027 3.50566E-01
 -1      3028 3.43091E-01
 -1      3029 2.85466E-01
 -1      3030 3.20582E-01
 -1      3031 4.39752E-01
 -1      3032 4.39752E-01
 -1      3033 3.43051E-01
 -1      3034 2.69824E+01
 -1      3035 1.46981E+01
 -1      3036 1.53898E+01
 -1      3037 3.33467E-01
 -1      3038 3.33013E-01
 -1      3039 3.36875E-01
 -1      3040 3.72965E-01
 -1      3041 3.76619E-01
 -1      3042 2.98065E-01
 -1      3043 6.25538E-01
 -1      3044 5.35168E-01
 -1      3045 6.14005E-01
 -1      3046 1.45917E+01
 -1      3047 1.43471E+01
 -1      3048 7.38906E-01
 -1      3049 8.97526E-01
 -1      3050 6.66990E-01
 -1      3051 1.10625E+00
 -1      3052 1.39187E+00
 -1      3053 1.00061E+00
 -1      3054 1.71814E+00
 -1      3055 2.12886E+00
 -1      3056 1.53561E+00
 -1      3057 2.59449E+00
 -1      3058 3.17612E+00
 -1      3059 2.32751E+00
 -1      3060 4.04768E+00
 -1      3061 5.02770E+00
 -1      3062 3.66470E+00
 -1      3063 8.15284E+00
 -1      3064 1.14751E+01
 -1      3065 7.66140E+00
 -1      3066 4.59932E-01
 -1      3067 4.90162E-01
 -1      3068 4.37706E-01
 -1      3069 3.85427E-01
 -1      3070 4.90326E-01
 -1      3071 5.20400E+00
 -1      3072 4.33584E+00
 -1      3073 3.52986E+00
 -1      3074 2.92015E+00
 -1      3075 4.05967E+00
 -1      3076 2.37113E+00
 -1      3077 1.95856E+00
 -1      3078 2.70467E+00
 -1      3079 1.61135E+00
 -1      3080 1.33334E+00
 -1      3081 1.80845E+00
 -1      3082 1.10389E+00
 -1      3083 9.09003E-01
 -1      3084 1.23180E+00
 -1      3085 7.53246E-01
 -1      3086 6.18556E-01
 -1      3087 8.46600E-01
 -1      3088 5.12592E-01
 -1      3089 4.24461E-01
 -1      3090 5.84879E-01
 -1      3091 3.51290E-01
 -1      3092 2.95228E-01
 -1      3093 4.05743E-01
 -1      3094 2.42177E-01
 -1      3095 2.05375E-01
 -1      3096 2.79520E-01
 -1      3097 1.68531E-01
 -1      3098 1.41468E-01
 -1      3099 1.89624E-01
 -1      3100 1.16515E-01
 -1      3101 9.67534E-02
 -1      3102 1.27826E-01
 -1      3103 8.01031E-02
 -1      3104 6.57837E-02
 -1      3105 8.62227E-02
 -1      3106 5.43944E-02
 -1      3107 4.40345E-02
 -1      3108 5.81832E-02
 -1      3109 3.62963E-02
 -1      3110 2.94182E-02
 -1      3111 3.90557E-02
 -1      3112 2.43233E-02
 -1      3113 1.91590E-02
 -1      3114 2.62227E-02
 -1      3115 1.54646E-02
 -1      3116 1.19166E-02
 -1      3117 1.74334E-02
 -1      3118 9.30324E-03
 -1      3119 8.01892E-03
 -1      3120 1.11256E-02
 -1      3121 6.21680E-03
 -1      3122 5.79532E-03
 -1      3123 6.71012E-03
 -1      3124 5.25590E-03
 -1      3125 4.74998E-03
 -1      3126 4.36859E-03
 -1      3127 4.63954E-03
 -1      3128 4.09258E-03
 -1      3129 3.71875E-03
 -1      3130 3.85502E-03
 -1      3131 3.31161E-03
 -1      3132 3.37075E-03
 -1      3133 3.01200E-03
 -1      3134 2.61537E-03
 -1      3135 2.83358E-03
 -1      3136 2.46406E-03
 -1      3137 2.11599E-03
 -1      3138 2.38266E-03
 -1      3139 8.11015E+00
 -1      3140 7.03733E+00
 -1      3141 7.38970E-01
 -1      3142 6.71709E-01
 -1      3143 1.18648E+00
 -1      3144 1.12253E+00
 -1      3145 1.26108E+00
 -1      3146 1.22868E+00
 -1      3147 1.22167E+00
 -1      3148 1.40037E+00
 -1      3149 1.36763E+00
 -1      3150 1.37042E+00
 -1      3151 1.38843E+00
 -1      3152 1.45148E+00
 -1      3153 1.52807E+00
 -1      3154 1.36692E+00
 -1      3155 1.33629E+00
 -1      3156 1.52705E+00
 -1      3157 1.40121E+00
 -1      3158 1.38476E+00
 -1      3159 1.49276E+00
 -1      3160 1.27230E+00
 -1      3161 1.31702E+00
 -1      3162 1.42641E+00
 -1      3163 1.13694E+00
 -1      3164 1.18533E+00
 -1      3165 1.25525E+00
 -1      3166 1.01556E+00
 -1      3167 1.11179E+00
 -1      3168 1.14313E+00
 -1      3169 8.39959E-01
 -1      3170 9.25187E-01
 -1      3171 1.02761E+00
 -1      3172 6.44994E-01
 -1      3173 7.42676E-01
 -1      3174 8.39959E-01
 -1      3175 4.70694E-01
 -1      3176 5.53296E-01
 -1      3177 6.50979E-01
 -1      3178 3.62829E-01
 -1      3179 4.10180E-01
 -1      3180 4.98767E-01
 -1      3181 2.66468E-01
 -1      3182 3.01900E-01
 -1      3183 3.77324E-01
 -1      3184 1.88830E-01
 -1      3185 2.20086E-01
 -1      3186 2.70013E-01
 -1      3187 1.69233E-01
 -1      3188 1.73338E-01
 -1      3189 2.08138E-01
 -1      3190 1.46397E-01
 -1      3191 1.53655E-01
 -1      3192 1.77068E-01
 -1      3193 1.22356E-01
 -1      3194 1.31304E-01
 -1      3195 1.46397E-01
 -1      3196 1.03617E-01
 -1      3197 1.12193E-01
 -1      3198 1.21141E-01
 -1      3199 8.48911E-02
 -1      3200 9.30417E-02
 -1      3201 1.00403E-01
 -1      3202 6.68993E-02
 -1      3203 7.50501E-02
 -1      3204 7.99869E-02
 -1      3205 5.12131E-02
 -1      3206 5.87006E-02
 -1      3207 6.19471E-02
 -1      3208 3.79060E-02
 -1      3209 4.43482E-02
 -1      3210 4.68836E-02
 -1      3211 2.70828E-02
 -1      3212 3.23574E-02
 -1      3213 3.44701E-02
 -1      3214 1.85910E-02
 -1      3215 2.27329E-02
 -1      3216 2.45717E-02
 -1      3217 1.21480E-02
 -1      3218 1.52771E-02
 -1      3219 1.69079E-02
 -1      3220 7.89075E-03
 -1      3221 9.69570E-03
 -1      3222 1.11417E-02
 -1      3223 5.49720E-03
 -1      3224 6.13350E-03
 -1      3225 6.93221E-03
 -1      3226 4.17977E-03
 -1      3227 4.51181E-03
 -1      3228 4.18956E-03
 -1      3229 3.68997E-03
 -1      3230 4.11489E-03
 -1      3231 3.13929E-03
 -1      3232 3.10293E-03
 -1      3233 3.56416E-03
 -1      3234 2.94860E-03
 -1      3235 2.45917E-03
 -1      3236 2.88020E-03
 -1      3237 2.60007E-03
 -1      3238 1.90169E-03
 -1      3239 2.18391E-03
 -1      3240 2.10208E-03
 -1      3241 1.63244E-03
 -1      3242 1.75651E-03
 -1      3243 1.68163E-03
 -1      3244 1.41101E-03
 -1      3245 1.02237E-03
 -1      3246 9.45854E-04
 -1      3247 1.19320E-03
 -1      3248 1.10429E-03
 -1      3249 1.03975E-03
 -1      3250 9.18995E-04
 -1      3251 9.24656E-04
 -1      3252 9.30972E-04
 -1      3253 9.02273E-01
 -1      3254 8.21806E-01
 -1      3255 8.19437E-01
 -1      3256 1.64616E+01
 -1      3257 1.70819E+01
 -1      3258 1.46884E+01
 -1      3259 8.49282E+00
 -1      3260 9.88070E+00
 -1      3261 4.43728E-01
 -1      3262 3.92948E-01
 -1      3263 5.84281E-01
 -1      3264 5.21269E-01
 -1      3265 6.49173E-01
 -1      3266 4.56361E+00
 -1      3267 4.99446E+00
 -1      3268 2.55050E+00
 -1      3269 2.99032E+00
 -1      3270 5.17076E+00
 -1      3271 6.73298E+00
 -1      3272 1.54536E-03
 -1      3273 1.54536E-03
 -1      3274 1.47382E-03
 -1      3275 5.07613E+00
 -1      3276 4.21930E+00
 -1      3277 1.07785E+00
 -1      3278 9.96185E-01
 -1      3279 9.96185E-01
 -1      3280 1.13478E+00
 -1      3281 3.36942E+00
 -1      3282 4.25528E+00
 -1      3283 2.99032E+00
 -1      3284 1.06280E+01
 -1      3285 7.78760E+00
 -1      3286 7.44925E+00
 -1      3287 1.37519E+01
 -1      3288 3.60400E-01
 -1      3289 3.38732E-01
 -1      3290 1.39031E+01
 -1      3291 1.22251E+01
 -1      3292 9.10233E+00
 -1      3293 1.12869E+01
 -1      3294 3.03516E-01
 -1      3295 4.48785E-01
 -1      3296 3.43407E-01
 -1      3297 3.85870E-01
 -1      3298 3.85870E-01
 -1      3299 3.31779E-01
 -1      3300 2.93860E-01
 -1      3301 3.45496E-01
 -1      3302 5.02085E-01
 -1      3303 5.09007E-01
 -1      3304 4.76821E-01
 -1      3305 3.31306E+00
 -1      3306 2.85128E+00
 -1      3307 3.01155E+00
 -1      3308 7.01838E+00
 -1      3309 5.42137E+00
 -1      3310 5.86620E+00
 -1      3311 4.09530E+00
 -1      3312 1.74188E-03
 -1      3313 3.79225E+00
 -1      3314 4.80063E+00
 -1      3315 3.87392E+00
 -1      3316 3.67775E+00
 -1      3317 9.12948E-04
 -1      3318 9.33491E-04
 -1      3319 9.48917E-04
 -1      3320 3.74964E+00
 -1      3321 1.85724E-03
 -1      3322 9.41568E+00
 -1      3323 9.76051E-04
 -1      3324 9.97312E-04
 -1      3325 9.48917E-04
 -1      3326 9.83603E+00
 -1      3327 7.14357E+00
 -1      3328 8.11680E+00
 -1      3329 1.33747E+01
 -1      3330 1.16014E+01
 -1      3331 9.11469E+00
 -1      3332 7.35662E+00
 -1      3333 3.78415E+00
 -1      3334 4.21017E+00
 -1      3335 2.92644E+00
 -1      3336 3.27579E+00
 -1      3337 3.43051E-01
 -1      3338 3.65247E-01
 -1      3339 1.01857E-03
 -1      3340 1.04700E-03
 -1      3341 9.97312E-04
 -1      3342 2.58741E-01
 -1      3343 2.78522E-01
 -1      3344 3.00718E-01
 -1      3345 2.52009E-01
 -1      3346 2.61251E-01
 -1      3347 2.42476E-01
 -1      3348 4.84205E-01
 -1      3349 4.41663E-01
 -1      3350 3.08366E-01
 -1      3351 2.77422E-01
 -1      3352 2.95572E-01
 -1      3353 1.74805E-03
 -1      3354 3.85870E-01
 -1      3355 3.73760E-01
 -1      3356 3.39298E-01
 -1      3357 3.52658E-01
 -1      3358 2.84621E-01
 -1      3359 2.96211E-01
 -1      3360 2.02867E-03
 -1      3361 2.23995E-01
 -1      3362 2.54670E-01
 -1      3363 2.37475E+00
 -1      3364 2.32364E+00
 -1      3365 1.93862E+00
 -1      3366 1.83207E+00
 -1      3367 2.78530E+00
 -1      3368 5.42185E-01
 -1      3369 6.67086E-01
 -1      3370 8.28079E-01
 -1      3371 1.03680E+00
 -1      3372 7.03275E-01
 -1      3373 1.26866E+00
 -1      3374 1.59494E+00
 -1      3375 1.09613E+00
 -1      3376 1.89160E+00
 -1      3377 2.35723E+00
 -1      3378 1.62465E+00
 -1      3379 2.93296E+00
 -1      3380 3.80452E+00
 -1      3381 2.49705E+00
 -1      3382 4.88687E+00
 -1      3383 8.01201E+00
 -1      3384 4.15513E+00
 -1      3385 2.66844E+00
 -1      3386 2.11942E+00
 -1      3387 1.75147E+00
 -1      3388 1.40426E+00
 -1      3389 1.71524E+00
 -1      3390 1.20517E+00
 -1      3391 9.75731E-01
 -1      3392 1.14820E+00
 -1      3393 8.43593E-01
 -1      3394 6.87836E-01
 -1      3395 8.16966E-01
 -1      3396 5.94209E-01
 -1      3397 4.88244E-01
 -1      3398 5.91201E-01
 -1      3399 4.20522E-01
 -1      3400 3.47351E-01
 -1      3401 4.29852E-01
 -1      3402 2.95821E-01
 -1      3403 2.42769E-01
 -1      3404 3.10600E-01
 -1      3405 2.05153E-01
 -1      3406 1.68308E-01
 -1      3407 2.21454E-01
 -1      3408 1.40928E-01
 -1      3409 1.15974E-01
 -1      3410 1.56456E-01
 -1      3411 9.61648E-02
 -1      3412 7.95145E-02
 -1      3413 1.09266E-01
 -1      3414 6.54592E-02
 -1      3415 5.40699E-02
 -1      3416 7.54012E-02
 -1      3417 4.46304E-02
 -1      3418 3.68923E-02
 -1      3419 5.19065E-02
 -1      3420 2.98481E-02
 -1      3421 2.47532E-02
 -1      3422 3.54228E-02
 -1      3423 1.97772E-02
 -1      3424 1.60828E-02
 -1      3425 2.34026E-02
 -1      3426 1.26306E-02
 -1      3427 1.00172E-02
 -1      3428 1.49745E-02
 -1      3429 7.62967E-03
 -1      3430 5.82756E-03
 -1      3431 9.13469E-03
 -1      3432 4.34443E-03
 -1      3433 3.80502E-03
 -1      3434 5.26398E-03
 -1      3435 3.07686E-03
 -1      3436 2.96643E-03
 -1      3437 3.05270E-03
 -1      3438 2.88966E-03
 -1      3439 2.65210E-03
 -1      3440 2.24778E-03
 -1      3441 2.62252E-03
 -1      3442 2.32291E-03
 -1      3443 2.14143E-03
 -1      3444 2.38266E-03
 -1      3445 2.23135E-03
 -1      3446 2.02867E-03
 -1      3447 2.17160E-03
 -1      3448 1.63170E+00
 -1      3449 1.58950E+00
 -1      3450 2.19990E+00
 -1      3451 2.14214E+00
 -1      3452 2.19428E+00
 -1      3453 2.98985E+00
 -1      3454 2.00890E+00
 -1      3455 1.99106E+00
 -1      3456 2.65829E+00
 -1      3457 1.50469E+00
 -1      3458 1.58888E+00
 -1      3459 2.08718E+00
 -1      3460 1.25525E+00
 -1      3461 1.34222E+00
 -1      3462 1.50469E+00
 -1      3463 1.28221E+00
 -1      3464 1.30736E+00
 -1      3465 1.39433E+00
 -1      3466 1.06116E+00
 -1      3467 1.15153E+00
 -1      3468 1.31576E+00
 -1      3469 8.44572E-01
 -1      3470 9.41854E-01
 -1      3471 1.06577E+00
 -1      3472 6.87170E-01
 -1      3473 7.78868E-01
 -1      3474 8.80763E-01
 -1      3475 5.26743E-01
 -1      3476 5.87257E-01
 -1      3477 7.15145E-01
 -1      3478 3.77324E-01
 -1      3479 4.38254E-01
 -1      3480 5.26743E-01
 -1      3481 2.79349E-01
 -1      3482 3.25732E-01
 -1      3483 3.86661E-01
 -1      3484 2.29163E-01
 -1      3485 2.44655E-01
 -1      3486 3.00374E-01
 -1      3487 1.84439E-01
 -1      3488 2.00017E-01
 -1      3489 2.36534E-01
 -1      3490 1.47732E-01
 -1      3491 1.62826E-01
 -1      3492 1.85775E-01
 -1      3493 1.21713E-01
 -1      3494 1.31876E-01
 -1      3495 1.48305E-01
 -1      3496 9.64778E-02
 -1      3497 1.07053E-01
 -1      3498 1.17788E-01
 -1      3499 7.40757E-02
 -1      3500 8.39168E-02
 -1      3501 9.05667E-02
 -1      3502 5.70725E-02
 -1      3503 6.52712E-02
 -1      3504 6.92011E-02
 -1      3505 4.31258E-02
 -1      3506 4.99907E-02
 -1      3507 5.33147E-02
 -1      3508 3.16310E-02
 -1      3509 3.71796E-02
 -1      3510 4.02867E-02
 -1      3511 2.23036E-02
 -1      3512 2.66535E-02
 -1      3513 2.93629E-02
 -1      3514 1.52654E-02
 -1      3515 1.85793E-02
 -1      3516 2.06611E-02
 -1      3517 9.95311E-03
 -1      3518 1.24054E-02
 -1      3519 1.40767E-02
 -1      3520 6.05988E-03
 -1      3521 7.81713E-03
 -1      3522 9.08078E-03
 -1      3523 3.54133E-03
 -1      3524 4.52672E-03
 -1      3525 5.41164E-03
 -1      3526 2.52966E-03
 -1      3527 2.59454E-03
 -1      3528 2.93170E-03
 -1      3529 2.28887E-03
 -1      3530 2.41467E-03
 -1      3531 1.86992E-03
 -1      3532 2.10874E-03
 -1      3533 2.33147E-03
 -1      3534 1.79754E-03
 -1      3535 1.74908E-03
 -1      3536 2.02434E-03
 -1      3537 1.75574E-03
 -1      3538 1.07039E-03
 -1      3539 9.88478E-04
 -1      3540 8.91643E-04
 -1      3541 8.64784E-04
 -1      3542 9.22290E-04
 -1      3543 2.89078E+00
 -1      3544 3.26987E+00
 -1      3545 3.27519E+00
 -1      3546 2.87542E+00
 -1      3547 4.01242E+00
 -1      3548 3.20644E+00
 -1      3549 2.62119E+00
 -1      3550 8.81547E+00
 -1      3551 9.11469E+00
 -1      3552 2.02370E-01
 -1      3553 2.25740E-01
 -1      3554 2.90761E-01
 -1      3555 4.20585E-01
 -1      3556 4.20585E-01
 -1      3557 7.14357E+00
 -1      3558 6.71769E+00
 -1      3559 6.99057E-01
 -1      3560 6.11630E-01
 -1      3561 4.40766E-01
 -1      3562 5.20116E-01
 -1      3563 4.42575E-01
 -1      3564 5.70001E-01
 -1      3565 2.33720E-01
 -1      3566 2.29548E-01
 -1      3567 2.06996E-01
 -1      3568 8.77428E-01
 -1      3569 7.94592E-01
 -1      3570 7.57049E-01
 -1      3571 7.92620E+00
 -1      3572 5.34260E+00
 -1      3573 4.48937E+00
 -1      3574 3.32215E+00
 -1      3575 2.65758E+00
 -1      3576 1.54538E-03
 -1      3577 1.19322E-03
 -1      3578 1.14195E-03
 -1      3579 1.74806E-03
 -1      3580 3.26987E+00
 -1      3581 3.57820E+00
 -1      3582 3.17033E+00
 -1      3583 1.18439E-03
 -1      3584 1.28946E-03
 -1      3585 1.41489E-03
 -1      3586 1.15596E-03
 -1      3587 4.68049E+00
 -1      3588 6.44032E+00
 -1      3589 2.59216E-01
 -1      3590 3.02611E-01
 -1      3591 3.11863E-01
 -1      3592 2.37591E-01
 -1      3593 3.38437E+00
 -1      3594 3.77617E-01
 -1      3595 3.16449E-01
 -1      3596 4.13529E-01
 -1      3597 2.53710E+00
 -1      3598 5.05485E-01
 -1      3599 5.05580E-01
 -1      3600 4.72402E-01
 -1      3601 7.02571E+00
 -1      3602 9.80025E+00
 -1      3603 8.51448E+00
 -1      3604 1.10215E+01
 -1      3605 1.10215E+01
 -1      3606 5.18473E+00
 -1      3607 4.01360E+00
 -1      3608 5.30992E+00
 -1      3609 1.79974E+00
 -1      3610 1.38971E+00
 -1      3611 1.34503E+00
 -1      3612 3.47709E+00
 -1      3613 2.42669E+00
 -1      3614 2.60473E+00
 -1      3615 2.50185E+00
 -1      3616 7.43547E+00
 -1      3617 7.72385E+00
 -1      3618 8.71985E-04
 -1      3619 8.80819E-04
 -1      3620 8.32655E-04
 -1      3621 1.56008E-03
 -1      3622 9.27379E-04
 -1      3623 9.54513E-04
 -1      3624 8.86415E-04
 -1      3625 6.44993E+00
 -1      3626 1.48234E-03
 -1      3627 2.61123E+00
 -1      3628 2.89078E+00
 -1      3629 2.65758E+00
 -1      3630 6.73107E+00
 -1      3631 6.43009E+00
 -1      3632 4.05494E+00
 -1      3633 3.05281E+00
 -1      3634 3.32831E+00
 -1      3635 3.22261E-01
 -1      3636 3.08901E-01
 -1      3637 6.84289E+00
 -1      3638 1.04747E-03
 -1      3639 1.06874E-03
 -1      3640 1.02594E-03
 -1      3641 4.17063E-01
 -1      3642 2.85092E-01
 -1      3643 2.43241E-01
 -1      3644 3.17213E-01
 -1      3645 2.44986E-01
 -1      3646 3.08901E-01
 -1      3647 2.78535E-01
 -1      3648 2.91864E-01
 -1      3649 2.45409E+00
 -1      3650 1.22732E+01
 -1      3651 8.02907E+00
 -1      3652 1.11160E+01
 -1      3653 7.44917E+00
 -1      3654 2.21504E-01
 -1      3655 3.21532E-01
 -1      3656 3.86061E-01
 -1      3657 4.37877E-01
 -1      3658 1.03831E+00
 -1      3659 1.01347E+00
 -1      3660 1.13222E+00
 -1      3661 8.69376E+00
 -1      3662 6.58711E+00
 -1      3663 2.90185E+00
 -1      3664 4.28847E+00
 -1      3665 3.37216E+00
 -1      3666 3.05281E+00
 -1      3667 3.20390E+00
 -1      3668 2.98985E+00
 -1      3669 3.17033E+00
 -1      3670 2.19002E+00
 -1      3671 2.32616E+00
 -1      3672 5.64723E+00
 -1      3673 8.02907E+00
 -1      3674 8.02907E+00
 -1      3675 8.94244E-01
 -1      3676 1.12610E+00
 -1      3677 1.38506E+00
 -1      3678 1.68173E+00
 -1      3679 1.18318E+00
 -1      3680 2.19045E+00
 -1      3681 2.76618E+00
 -1      3682 1.95086E+00
 -1      3683 3.58657E+00
 -1      3684 4.66892E+00
 -1      3685 3.27997E+00
 -1      3686 1.24128E+01
 -1      3687 1.17660E+00
 -1      3688 9.77514E-01
 -1      3689 8.29547E-01
 -1      3690 6.97410E-01
 -1      3691 8.57957E-01
 -1      3692 5.78775E-01
 -1      3693 4.85148E-01
 -1      3694 5.91356E-01
 -1      3695 4.20319E-01
 -1      3696 3.52597E-01
 -1      3697 4.07893E-01
 -1      3698 3.00124E-01
 -1      3699 2.48594E-01
 -1      3700 2.90592E-01
 -1      3701 2.18735E-01
 -1      3702 1.81118E-01
 -1      3703 2.08259E-01
 -1      3704 1.58393E-01
 -1      3705 1.31013E-01
 -1      3706 1.55675E-01
 -1      3707 1.13254E-01
 -1      3708 9.34441E-02
 -1      3709 1.15191E-01
 -1      3710 7.99799E-02
 -1      3711 6.59246E-02
 -1      3712 8.39675E-02
 -1      3713 5.58187E-02
 -1      3714 4.63793E-02
 -1      3715 6.03974E-02
 -1      3716 3.85372E-02
 -1      3717 3.14930E-02
 -1      3718 4.24494E-02
 -1      3719 2.60704E-02
 -1      3720 2.10944E-02
 -1      3721 2.91847E-02
 -1      3722 1.71574E-02
 -1      3723 1.37052E-02
 -1      3724 1.98251E-02
 -1      3725 1.08627E-02
 -1      3726 8.47511E-03
 -1      3727 1.30456E-02
 -1      3728 6.53208E-03
 -1      3729 5.04895E-03
 -1      3730 8.26007E-03
 -1      3731 3.69905E-03
 -1      3732 2.97089E-03
 -1      3733 4.96714E-03
 -1      3734 2.04751E-03
 -1      3735 1.97075E-03
 -1      3736 2.69386E-03
 -1      3737 1.79214E-03
 -1      3738 1.76256E-03
 -1      3739 1.59188E-03
 -1      3740 1.71259E-03
 -1      3741 1.77235E-03
 -1      3742 1.28905E-03
 -1      3743 1.36331E-03
 -1      3744 1.06093E-03
 -1      3745 9.64093E-04
 -1      3746 2.86124E-01
 -1      3747 2.45254E-01
 -1      3748 5.52911E+00
 -1      3749 5.92206E+00
 -1      3750 2.08718E+00
 -1      3751 2.50720E+00
 -1      3752 1.60032E+00
 -1      3753 1.54821E+00
 -1      3754 1.36144E+00
 -1      3755 1.49213E+00
 -1      3756 1.64601E+00
 -1      3757 1.06577E+00
 -1      3758 1.18507E+00
 -1      3759 1.36144E+00
 -1      3760 9.74793E-01
 -1      3761 1.04050E+00
 -1      3762 1.15980E+00
 -1      3763 7.17530E-01
 -1      3764 8.17443E-01
 -1      3765 9.77178E-01
 -1      3766 5.32338E-01
 -1      3767 6.20827E-01
 -1      3768 7.23126E-01
 -1      3769 4.12566E-01
 -1      3770 4.64159E-01
 -1      3771 5.58243E-01
 -1      3772 3.15595E-01
 -1      3773 3.50289E-01
 -1      3774 4.27787E-01
 -1      3775 2.45589E-01
 -1      3776 2.74734E-01
 -1      3777 3.24650E-01
 -1      3778 1.89266E-01
 -1      3779 2.10880E-01
 -1      3780 2.49080E-01
 -1      3781 1.47147E-01
 -1      3782 1.63003E-01
 -1      3783 1.88109E-01
 -1      3784 1.13779E-01
 -1      3785 1.28439E-01
 -1      3786 1.43138E-01
 -1      3787 8.74699E-02
 -1      3788 1.00031E-01
 -1      3789 1.10682E-01
 -1      3790 6.90448E-02
 -1      3791 7.78494E-02
 -1      3792 8.73136E-02
 -1      3793 5.33147E-02
 -1      3794 6.03966E-02
 -1      3795 6.90448E-02
 -1      3796 3.98633E-02
 -1      3797 4.58095E-02
 -1      3798 5.28913E-02
 -1      3799 2.86821E-02
 -1      3800 3.36596E-02
 -1      3801 3.91825E-02
 -1      3802 2.00243E-02
 -1      3803 2.37486E-02
 -1      3804 2.80454E-02
 -1      3805 1.34496E-02
 -1      3806 1.63095E-02
 -1      3807 1.93971E-02
 -1      3808 8.67580E-03
 -1      3809 1.08118E-02
 -1      3810 1.30446E-02
 -1      3811 5.20049E-03
 -1      3812 6.73364E-03
 -1      3813 8.46465E-03
 -1      3814 2.86894E-03
 -1      3815 3.81573E-03
 -1      3816 5.13773E-03
 -1      3817 1.85324E-03
 -1      3818 1.96822E-03
 -1      3819 2.85226E-03
 -1      3820 1.42468E-03
 -1      3821 1.38207E-03
 -1      3822 1.48038E-03
 -1      3823 3.17033E+00
 -1      3824 5.81955E+00
 -1      3825 4.48937E+00
 -1      3826 4.74578E-01
 -1      3827 2.76180E+00
 -1      3828 2.22380E+00
 -1      3829 4.09198E+00
 -1      3830 2.24314E+00
 -1      3831 2.19002E+00
 -1      3832 1.97908E+00
 -1      3833 1.82312E+00
 -1      3834 5.92206E+00
 -1      3835 3.56882E+00
 -1      3836 2.79567E+00
 -1      3837 1.34495E-03
 -1      3838 8.76176E-01
 -1      3839 7.80642E-01
 -1      3840 2.30703E-01
 -1      3841 2.59897E-01
 -1      3842 3.45240E-01
 -1      3843 6.68160E+00
 -1      3844 2.78530E+00
 -1      3845 1.39512E-03
 -1      3846 6.61515E-01
 -1      3847 5.70001E-01
 -1      3848 7.80642E-01
 -1      3849 3.19525E-01
 -1      3850 3.19525E-01
 -1      3851 2.89128E-01
 -1      3852 2.78730E-01
 -1      3853 1.75154E+00
 -1      3854 1.38359E+00
 -1      3855 1.21290E+00
 -1      3856 1.89215E+00
 -1      3857 2.49922E-01
 -1      3858 2.06220E-01
 -1      3859 2.59121E-01
 -1      3860 2.63251E-01
 -1      3861 5.07867E+00
 -1      3862 2.50575E+00
 -1      3863 2.30538E+00
 -1      3864 5.80941E-01
 -1      3865 7.41935E-01
 -1      3866 7.71911E-01
 -1      3867 4.78487E-01
 -1      3868 4.13529E-01
 -1      3869 5.70001E-01
 -1      3870 2.07961E+00
 -1      3871 5.07867E+00
 -1      3872 4.55079E+00
 -1      3873 4.10036E+00
 -1      3874 6.21285E+00
 -1      3875 5.72744E+00
 -1      3876 4.12846E+00
 -1      3877 2.34741E+00
 -1      3878 2.04156E+00
 -1      3879 1.84178E+00
 -1      3880 2.39377E+00
 -1      3881 5.92206E+00
 -1      3882 4.38909E+00
 -1      3883 3.33218E+00
 -1      3884 5.00123E+00
 -1      3885 9.64093E-04
 -1      3886 9.71293E-04
 -1      3887 1.10273E-03
 -1      3888 3.13832E-01
 -1      3889 3.14100E-01
 -1      3890 3.45189E-01
 -1      3891 2.78730E-01
 -1      3892 2.48550E+00
 -1      3893 7.54365E+00
 -1      3894 1.86664E+00
 -1      3895 1.66065E+00
 -1      3896 1.45412E-03
 -1      3897 1.53853E-03
 -1      3898 1.17435E+00
 -1      3899 1.01347E+00
 -1      3900 1.03706E+00
 -1      3901 6.68160E+00
 -1      3902 9.61748E-04
 -1      3903 1.00831E-03
 -1      3904 1.09319E-03
 -1      3905 5.13238E-01
 -1      3906 3.37648E+00
 -1      3907 3.66723E+00
 -1      3908 8.51540E-04
 -1      3909 9.44502E-04
 -1      3910 9.26873E-04
 -1      3911 1.38716E+00
 -1      3912 1.12306E-03
 -1      3913 3.83838E-01
 -1      3914 3.83838E-01
 -1      3915 2.57361E+00
 -1      3916 2.65191E+00
 -1      3917 2.25190E+00
 -1      3918 2.98446E+00
 -1      3919 1.10466E-03
 -1      3920 9.81837E-04
 -1      3921 1.02364E-03
 -1      3922 1.12894E-03
 -1      3923 3.72139E-01
 -1      3924 3.74875E-01
 -1      3925 4.66848E-01
 -1      3926 1.01647E+00
 -1      3927 1.27543E+00
 -1      3928 6.68160E+00
 -1      3929 1.51017E+00
 -1      3930 2.01889E+00
 -1      3931 1.34346E+00
 -1      3932 2.51537E+00
 -1      3933 3.33576E+00
 -1      3934 3.33576E+00
 -1      3935 2.07468E+00
 -1      3936 8.76244E-01
 -1      3937 7.28277E-01
 -1      3938 3.29450E+00
 -1      3939 2.84972E+00
 -1      3940 5.91973E-01
 -1      3941 4.73339E-01
 -1      3942 6.10260E-01
 -1      3943 4.22510E-01
 -1      3944 3.57681E-01
 -1      3945 4.23126E-01
 -1      3946 3.08361E-01
 -1      3947 2.55888E-01
 -1      3948 3.22978E-01
 -1      3949 2.18155E-01
 -1      3950 1.88296E-01
 -1      3951 2.35925E-01
 -1      3952 1.60002E-01
 -1      3953 1.37277E-01
 -1      3954 1.69898E-01
 -1      3955 1.16667E-01
 -1      3956 9.89078E-02
 -1      3957 1.20995E-01
 -1      3958 8.25233E-02
 -1      3959 6.90591E-02
 -1      3960 8.39993E-02
 -1      3961 6.02858E-02
 -1      3962 5.01798E-02
 -1      3963 5.88415E-02
 -1      3964 4.33537E-02
 -1      3965 3.55116E-02
 -1      3966 4.32421E-02
 -1      3967 3.01755E-02
 -1      3968 2.47529E-02
 -1      3969 3.10798E-02
 -1      3970 2.07722E-02
 -1      3971 1.68351E-02
 -1      3972 2.17629E-02
 -1      3973 1.40349E-02
 -1      3974 1.11924E-02
 -1      3975 1.49820E-02
 -1      3976 9.13788E-03
 -1      3977 7.19485E-03
 -1      3978 1.01272E-02
 -1      3979 5.71289E-03
 -1      3980 4.36298E-03
 -1      3981 6.59069E-03
 -1      3982 3.32688E-03
 -1      3983 2.40351E-03
 -1      3984 4.07263E-03
 -1      3985 1.86664E+00
 -1      3986 1.93074E+00
 -1      3987 2.03893E+00
 -1      3988 1.14474E+00
 -1      3989 1.30209E+00
 -1      3990 7.58449E-01
 -1      3991 8.55151E-01
 -1      3992 1.18007E+00
 -1      3993 5.88692E-01
 -1      3994 6.56871E-01
 -1      3995 7.88897E-01
 -1      3996 4.55370E-01
 -1      3997 5.17646E-01
 -1      3998 6.16274E-01
 -1      3999 3.42905E-01
 -1      4000 3.83766E-01
 -1      4001 4.73625E-01
 -1      4002 2.47478E-01
 -1      4003 2.82187E-01
 -1      4004 3.41303E-01
 -1      4005 1.84073E-01
 -1      4006 2.10336E-01
 -1      4007 2.43442E-01
 -1      4008 1.40622E-01
 -1      4009 1.59330E-01
 -1      4010 1.81557E-01
 -1      4011 1.10682E-01
 -1      4012 1.24430E-01
 -1      4013 1.40622E-01
 -1      4014 8.73136E-02
 -1      4015 9.69341E-02
 -1      4016 1.10682E-01
 -1      4017 6.70746E-02
 -1      4018 7.57228E-02
 -1      4019 8.53434E-02
 -1      4020 5.00781E-02
 -1      4021 5.75834E-02
 -1      4022 6.42614E-02
 -1      4023 3.63365E-02
 -1      4024 4.25401E-02
 -1      4025 4.72322E-02
 -1      4026 2.55678E-02
 -1      4027 3.05013E-02
 -1      4028 3.38590E-02
 -1      4029 1.74341E-02
 -1      4030 2.11489E-02
 -1      4031 2.36049E-02
 -1      4032 1.15773E-02
 -1      4033 1.42151E-02
 -1      4034 1.59668E-02
 -1      4035 7.44544E-03
 -1      4036 9.38760E-03
 -1      4037 1.05581E-02
 -1      4038 4.50823E-03
 -1      4039 5.89298E-03
 -1      4040 6.81594E-03
 -1      4041 2.63624E-03
 -1      4042 3.53696E-03
 -1      4043 4.29221E-03
 -1      4044 1.48038E-03
 -1      4045 1.95155E-03
 -1      4046 2.63624E-03
 -1      4047 4.04233E-01
 -1      4048 3.12259E-01
 -1      4049 2.83646E-01
 -1      4050 3.90663E+00
 -1      4051 4.37021E+00
 -1      4052 2.64263E+00
 -1      4053 4.13688E+00
 -1      4054 4.13688E+00
 -1      4055 3.68645E+00
 -1      4056 9.72376E-01
 -1      4057 8.53249E-01
 -1      4058 2.86392E-01
 -1      4059 3.38331E-01
 -1      4060 3.99966E-01
 -1      4061 5.06329E-01
 -1      4062 2.13263E+00
 -1      4063 1.89081E+00
 -1      4064 1.67801E+00
 -1      4065 1.42326E+00
 -1      4066 1.44854E+00
 -1      4067 1.59083E+00
 -1      4068 1.71717E+00
 -1      4069 1.89354E+00
 -1      4070 2.28646E+00
 -1      4071 1.98063E+00
 -1      4072 1.17790E-03
 -1      4073 1.00351E-03
 -1      4074 8.89658E-04
 -1      4075 6.19602E-01
 -1      4076 7.71911E-01
 -1      4077 8.64159E-01
 -1      4078 5.06329E-01
 -1      4079 2.53453E+00
 -1      4080 3.01547E+00
 -1      4081 3.69392E+00
 -1      4082 5.23226E+00
 -1      4083 3.72139E-01
 -1      4084 1.18512E+00
 -1      4085 1.05544E+00
 -1      4086 1.39210E+00
 -1      4087 3.47669E+00
 -1      4088 3.41604E+00
 -1      4089 2.57483E+00
 -1      4090 2.29661E+00
 -1      4091 1.82434E+00
 -1      4092 2.49685E+00
 -1      4093 3.55942E+00
 -1      4094 2.46482E+00
 -1      4095 2.69508E+00
 -1      4096 1.90323E-03
 -1      4097 1.90323E-03
 -1      4098 4.10147E-01
 -1      4099 4.69799E-01
 -1      4100 4.42091E-01
 -1      4101 5.27838E-01
 -1      4102 1.59112E-03
 -1      4103 1.41251E-03
 -1      4104 1.17891E-03
 -1      4105 8.68728E-01
 -1      4106 6.76994E-01
 -1      4107 5.85480E-01
 -1      4108 1.67801E+00
 -1      4109 1.36083E-03
 -1      4110 5.36800E-01
 -1      4111 4.65222E-01
 -1      4112 1.45756E+00
 -1      4113 1.32026E+00
 -1      4114 1.39287E+00
 -1      4115 1.56797E-03
 -1      4116 1.55843E-03
 -1      4117 2.36847E-03
 -1      4118 1.51759E-03
 -1      4119 1.17815E-03
 -1      4120 1.25724E-03
 -1      4121 1.99238E-03
 -1      4122 2.15137E+00
 -1      4123 2.61470E+00
 -1      4124 5.36800E-01
 -1      4125 2.61902E+00
 -1      4126 2.05774E-03
 -1      4127 2.85289E-01
 -1      4128 3.09773E-01
 -1      4129 3.64499E-01
 -1      4130 3.34298E-01
 -1      4131 2.29086E+00
 -1      4132 2.66062E+00
 -1      4133 2.68730E+00
 -1      4134 2.02223E+00
 -1      4135 2.22414E-03
 -1      4136 5.97790E-01
 -1      4137 6.42085E-01
 -1      4138 5.05780E-01
 -1      4139 5.97790E-01
 -1      4140 5.97790E-01
 -1      4141 4.73126E-01
 -1      4142 4.04786E-01
 -1      4143 5.32777E-01
 -1      4144 5.80119E-01
 -1      4145 4.43608E-01
 -1      4146 3.92780E-01
 -1      4147 4.75434E-01
 -1      4148 3.78608E-01
 -1      4149 3.29288E-01
 -1      4150 3.99090E-01
 -1      4151 2.35925E-01
 -1      4152 1.98192E-01
 -1      4153 2.91555E-01
 -1      4154 1.73657E-01
 -1      4155 1.45364E-01
 -1      4156 1.73657E-01
 -1      4157 1.27492E-01
 -1      4158 1.06881E-01
 -1      4159 1.31251E-01
 -1      4160 9.04835E-02
 -1      4161 7.40990E-02
 -1      4162 9.69808E-02
 -1      4163 6.49017E-02
 -1      4164 5.61283E-02
 -1      4165 7.13858E-02
 -1      4166 4.74191E-02
 -1      4167 4.05930E-02
 -1      4168 5.34793E-02
 -1      4169 3.39986E-02
 -1      4170 2.86624E-02
 -1      4171 3.81756E-02
 -1      4172 2.37852E-02
 -1      4173 1.98045E-02
 -1      4174 2.67039E-02
 -1      4175 1.64100E-02
 -1      4176 1.36098E-02
 -1      4177 1.84322E-02
 -1      4178 1.10056E-02
 -1      4179 8.95106E-03
 -1      4180 1.24336E-02
 -1      4181 7.46426E-03
 -1      4182 5.98230E-03
 -1      4183 8.34267E-03
 -1      4184 4.63954E-03
 -1      4185 3.60345E-03
 -1      4186 5.51312E-03
 -1      4187 1.28904E+00
 -1      4188 1.39062E+00
 -1      4189 2.87013E-03
 -1      4190 1.66185E+00
 -1      4191 1.95144E+00
 -1      4192 2.16199E+00
 -1      4193 4.83711E-01
 -1      4194 5.55315E-01
 -1      4195 3.16968E-01
 -1      4196 3.77687E-01
 -1      4197 4.59377E-01
 -1      4198 2.83799E-01
 -1      4199 3.20942E-01
 -1      4200 3.57325E-01
 -1      4201 1.81557E-01
 -1      4202 2.06300E-01
 -1      4203 2.83799E-01
 -1      4204 1.40622E-01
 -1      4205 1.56815E-01
 -1      4206 1.81557E-01
 -1      4207 1.06054E-01
 -1      4208 1.19802E-01
 -1      4209 1.35994E-01
 -1      4210 7.91137E-02
 -1      4211 9.07045E-02
 -1      4212 9.98242E-02
 -1      4213 5.78105E-02
 -1      4214 6.73017E-02
 -1      4215 7.26628E-02
 -1      4216 4.13856E-02
 -1      4217 4.89236E-02
 -1      4218 5.19639E-02
 -1      4219 2.92802E-02
 -1      4220 3.51154E-02
 -1      4221 3.68068E-02
 -1      4222 2.07585E-02
 -1      4223 2.51774E-02
 -1      4224 2.64339E-02
 -1      4225 1.42671E-02
 -1      4226 1.74861E-02
 -1      4227 1.90587E-02
 -1      4228 9.67432E-03
 -1      4229 1.18640E-02
 -1      4230 1.33833E-02
 -1      4231 6.34256E-03
 -1      4232 7.89502E-03
 -1      4233 9.20094E-03
 -1      4234 4.00310E-03
 -1      4235 4.97437E-03
 -1      4236 6.05345E-03
 -1      4237 2.56973E-03
 -1      4238 3.25442E-03
 -1      4239 3.93659E-03
 -1      4240 2.61056E-03
 -1      4241 2.92185E+00
 -1      4242 6.30135E-01
 -1      4243 4.97567E-01
 -1      4244 4.99211E-01
 -1      4245 1.12955E+00
 -1      4246 1.36430E+00
 -1      4247 9.73450E-01
 -1      4248 1.04450E+00
 -1      4249 9.83537E-01
 -1      4250 3.26496E+00
 -1      4251 2.76978E+00
 -1      4252 1.90106E+00
 -1      4253 2.83042E+00
 -1      4254 3.43705E-03
 -1      4255 2.67704E+00
 -1      4256 2.33101E+00
 -1      4257 2.52596E+00
 -1      4258 8.83248E-01
 -1      4259 8.83248E-01
 -1      4260 9.15593E-01
 -1      4261 1.82551E+00
 -1      4262 2.32198E+00
 -1      4263 1.61160E+00
 -1      4264 2.41216E+00
 -1      4265 1.83470E+00
 -1      4266 5.32777E-01
 -1      4267 4.11326E-01
 -1      4268 4.39884E-01
 -1      4269 5.53156E-01
 -1      4270 5.74595E-01
 -1      4271 1.64622E+00
 -1      4272 2.67267E+00
 -1      4273 1.13724E+00
 -1      4274 9.60981E-01
 -1      4275 7.80024E-01
 -1      4276 6.75545E-01
 -1      4277 1.08890E+00
 -1      4278 2.38450E+00
 -1      4279 2.73935E+00
 -1      4280 2.52762E+00
 -1      4281 1.92919E+00
 -1      4282 1.58130E+00
 -1      4283 2.94582E-03
 -1      4284 2.61056E-03
 -1      4285 1.99319E+00
 -1      4286 1.81230E+00
 -1      4287 1.79656E+00
 -1      4288 3.67913E-03
 -1      4289 7.73963E-01
 -1      4290 1.01852E+00
 -1      4291 1.03936E+00
 -1      4292 7.07518E-01
 -1      4293 3.18791E-03
 -1      4294 2.27639E+00
 -1      4295 1.97448E+00
 -1      4296 1.54224E+00
 -1      4297 1.26682E+00
 -1      4298 2.07669E+00
 -1      4299 6.41049E-01
 -1      4300 7.06061E-01
 -1      4301 9.91520E-01
 -1      4302 7.53403E-01
 -1      4303 2.95609E-01
 -1      4304 3.73109E-01
 -1      4305 5.00315E-01
 -1      4306 4.38143E-01
 -1      4307 4.97609E-03
 -1      4308 4.97609E-03
 -1      4309 5.72477E-03
 -1      4310 3.99090E-01
 -1      4311 3.84918E-01
 -1      4312 2.91555E-01
 -1      4313 1.90132E-01
 -1      4314 1.65597E-01
 -1      4315 1.31251E-01
 -1      4316 1.13378E-01
 -1      4317 1.47725E-01
 -1      4318 9.69808E-02
 -1      4319 8.05831E-02
 -1      4320 9.69808E-02
 -1      4321 7.28937E-02
 -1      4322 6.36964E-02
 -1      4323 7.28937E-02
 -1      4324 5.57566E-02
 -1      4325 4.70474E-02
 -1      4326 5.72644E-02
 -1      4327 4.05552E-02
 -1      4328 3.39607E-02
 -1      4329 4.28325E-02
 -1      4330 2.88521E-02
 -1      4331 2.39749E-02
 -1      4332 3.12316E-02
 -1      4333 2.01613E-02
 -1      4334 1.67667E-02
 -1      4335 2.23094E-02
 -1      4336 1.36764E-02
 -1      4337 1.10722E-02
 -1      4338 1.54054E-02
 -1      4339 9.39190E-03
 -1      4340 7.90510E-03
 -1      4341 1.06347E-02
 -1      4342 6.81007E-03
 -1      4343 5.46731E-03
 -1      4344 1.67355E+00
 -1      4345 2.16199E+00
 -1      4346 2.43323E+00
 -1      4347 4.12162E-01
 -1      4348 4.08188E-01
 -1      4349 5.14213E-01
 -1      4350 1.69443E-01
 -1      4351 1.94186E-01
 -1      4352 1.14276E-01
 -1      4353 1.35097E-01
 -1      4354 8.25290E-02
 -1      4355 9.78784E-02
 -1      4356 6.30275E-02
 -1      4357 7.48395E-02
 -1      4358 4.62008E-02
 -1      4359 5.50877E-02
 -1      4360 3.34385E-02
 -1      4361 3.97086E-02
 -1      4362 2.42270E-02
 -1      4363 2.83298E-02
 -1      4364 1.71411E-02
 -1      4365 2.04134E-02
 -1      4366 1.16476E-02
 -1      4367 1.40507E-02
 -1      4368 8.18799E-03
 -1      4369 9.96729E-03
 -1      4370 7.09295E-03
 -1      4371 8.32105E-01
 -1      4372 1.25024E+00
 -1      4373 1.02191E+00
 -1      4374 1.62076E+00
 -1      4375 1.36025E+00
 -1      4376 1.56092E+00
 -1      4377 1.80546E+00
 -1      4378 2.38284E+00
 -1      4379 2.83495E-01
 -1      4380 8.18207E-01
 -1      4381 7.80917E-01
 -1      4382 7.95402E-01
 -1      4383 4.23971E-01
 -1      4384 1.39064E+00
 -1      4385 9.56146E-01
 -1      4386 7.85930E-03
 -1      4387 2.43489E+00
 -1      4388 1.04852E+00
 -1      4389 1.15955E+00
 -1      4390 1.40949E+00
 -1      4391 1.19910E+00
 -1      4392 2.43489E+00
 -3
 9999
