    1C
    1UUSER                                                              
    1UDATE              26.october.2022                                 
    1UTIME              23:37:40                                        
    1UHOST                                                              
    1UPGM               CalculiX                                        
    1UVERSION           Version 2.17                             
    1UCOMPILETIME       Thu Jul 23 21:43:50 CEST 2020                    
    1UDIR                                                               
    1UDBN                                                               
    1UMAT    1SOLIDMATERIAL                                             
    2C                          4305                                     1
 -1         1 5.72566E+01 2.78257E+01 0.00000E+00
 -1         2 5.97617E+01 2.24595E+01 0.00000E+00
 -1         3 1.50000E+02 0.00000E+00 0.00000E+00
 -1         4 1.50000E+02 5.00000E+01 0.00000E+00
 -1         5 0.00000E+00 0.00000E+00 0.00000E+00
 -1         6 0.00000E+00 5.00000E+01 0.00000E+00
 -1         7 0.00000E+00 4.70500E+01 0.00000E+00
 -1         8 0.00000E+00 4.41000E+01 0.00000E+00
 -1         9 0.00000E+00 4.11500E+01 0.00000E+00
 -1        10 0.00000E+00 3.82000E+01 0.00000E+00
 -1        11 0.00000E+00 3.52500E+01 0.00000E+00
 -1        12 0.00000E+00 3.23500E+01 0.00000E+00
 -1        13 0.00000E+00 2.94000E+01 0.00000E+00
 -1        14 0.00000E+00 2.64500E+01 0.00000E+00
 -1        15 0.00000E+00 2.35000E+01 0.00000E+00
 -1        16 0.00000E+00 2.05500E+01 0.00000E+00
 -1        17 0.00000E+00 1.76000E+01 0.00000E+00
 -1        18 0.00000E+00 1.47000E+01 0.00000E+00
 -1        19 0.00000E+00 1.17500E+01 0.00000E+00
 -1        20 0.00000E+00 8.80000E+00 0.00000E+00
 -1        21 0.00000E+00 5.85000E+00 0.00000E+00
 -1        22 0.00000E+00 2.90000E+00 0.00000E+00
 -1        23 3.15000E+00 5.00000E+01 0.00000E+00
 -1        24 6.15000E+00 5.00000E+01 0.00000E+00
 -1        25 9.15000E+00 5.00000E+01 0.00000E+00
 -1        26 1.21500E+01 5.00000E+01 0.00000E+00
 -1        27 1.51500E+01 5.00000E+01 0.00000E+00
 -1        28 1.81500E+01 5.00000E+01 0.00000E+00
 -1        29 2.11500E+01 5.00000E+01 0.00000E+00
 -1        30 2.41500E+01 5.00000E+01 0.00000E+00
 -1        31 2.71500E+01 5.00000E+01 0.00000E+00
 -1        32 3.01500E+01 5.00000E+01 0.00000E+00
 -1        33 3.31500E+01 5.00000E+01 0.00000E+00
 -1        34 3.61500E+01 5.00000E+01 0.00000E+00
 -1        35 3.91500E+01 5.00000E+01 0.00000E+00
 -1        36 4.21500E+01 5.00000E+01 0.00000E+00
 -1        37 4.51500E+01 5.00000E+01 0.00000E+00
 -1        38 4.81500E+01 5.00000E+01 0.00000E+00
 -1        39 5.11500E+01 5.00000E+01 0.00000E+00
 -1        40 5.41500E+01 5.00000E+01 0.00000E+00
 -1        41 5.71500E+01 5.00000E+01 0.00000E+00
 -1        42 6.01500E+01 5.00000E+01 0.00000E+00
 -1        43 6.31500E+01 5.00000E+01 0.00000E+00
 -1        44 6.61500E+01 5.00000E+01 0.00000E+00
 -1        45 6.91500E+01 5.00000E+01 0.00000E+00
 -1        46 7.21500E+01 5.00000E+01 0.00000E+00
 -1        47 7.51500E+01 5.00000E+01 0.00000E+00
 -1        48 7.81500E+01 5.00000E+01 0.00000E+00
 -1        49 8.11500E+01 5.00000E+01 0.00000E+00
 -1        50 8.41500E+01 5.00000E+01 0.00000E+00
 -1        51 8.71500E+01 5.00000E+01 0.00000E+00
 -1        52 9.01500E+01 5.00000E+01 0.00000E+00
 -1        53 9.31500E+01 5.00000E+01 0.00000E+00
 -1        54 9.61500E+01 5.00000E+01 0.00000E+00
 -1        55 9.91500E+01 5.00000E+01 0.00000E+00
 -1        56 1.02150E+02 5.00000E+01 0.00000E+00
 -1        57 1.05150E+02 5.00000E+01 0.00000E+00
 -1        58 1.08150E+02 5.00000E+01 0.00000E+00
 -1        59 1.11150E+02 5.00000E+01 0.00000E+00
 -1        60 1.14150E+02 5.00000E+01 0.00000E+00
 -1        61 1.17150E+02 5.00000E+01 0.00000E+00
 -1        62 1.20150E+02 5.00000E+01 0.00000E+00
 -1        63 1.23150E+02 5.00000E+01 0.00000E+00
 -1        64 1.26150E+02 5.00000E+01 0.00000E+00
 -1        65 1.29150E+02 5.00000E+01 0.00000E+00
 -1        66 1.32150E+02 5.00000E+01 0.00000E+00
 -1        67 1.35150E+02 5.00000E+01 0.00000E+00
 -1        68 1.38150E+02 5.00000E+01 0.00000E+00
 -1        69 1.41150E+02 5.00000E+01 0.00000E+00
 -1        70 1.44150E+02 5.00000E+01 0.00000E+00
 -1        71 1.47150E+02 5.00000E+01 0.00000E+00
 -1        72 3.15000E+00 0.00000E+00 0.00000E+00
 -1        73 6.15000E+00 0.00000E+00 0.00000E+00
 -1        74 9.15000E+00 0.00000E+00 0.00000E+00
 -1        75 1.21500E+01 0.00000E+00 0.00000E+00
 -1        76 1.51500E+01 0.00000E+00 0.00000E+00
 -1        77 1.81500E+01 0.00000E+00 0.00000E+00
 -1        78 2.11500E+01 0.00000E+00 0.00000E+00
 -1        79 2.41500E+01 0.00000E+00 0.00000E+00
 -1        80 2.71500E+01 0.00000E+00 0.00000E+00
 -1        81 3.01500E+01 0.00000E+00 0.00000E+00
 -1        82 3.31500E+01 0.00000E+00 0.00000E+00
 -1        83 3.61500E+01 0.00000E+00 0.00000E+00
 -1        84 3.91500E+01 0.00000E+00 0.00000E+00
 -1        85 4.21500E+01 0.00000E+00 0.00000E+00
 -1        86 4.51500E+01 0.00000E+00 0.00000E+00
 -1        87 4.81500E+01 0.00000E+00 0.00000E+00
 -1        88 5.11500E+01 0.00000E+00 0.00000E+00
 -1        89 5.41500E+01 0.00000E+00 0.00000E+00
 -1        90 5.71500E+01 0.00000E+00 0.00000E+00
 -1        91 6.01500E+01 0.00000E+00 0.00000E+00
 -1        92 6.31500E+01 0.00000E+00 0.00000E+00
 -1        93 6.61500E+01 0.00000E+00 0.00000E+00
 -1        94 6.91500E+01 0.00000E+00 0.00000E+00
 -1        95 7.21500E+01 0.00000E+00 0.00000E+00
 -1        96 7.51500E+01 0.00000E+00 0.00000E+00
 -1        97 7.81500E+01 0.00000E+00 0.00000E+00
 -1        98 8.11500E+01 0.00000E+00 0.00000E+00
 -1        99 8.41500E+01 0.00000E+00 0.00000E+00
 -1       100 8.71500E+01 0.00000E+00 0.00000E+00
 -1       101 9.01500E+01 0.00000E+00 0.00000E+00
 -1       102 9.31500E+01 0.00000E+00 0.00000E+00
 -1       103 9.61500E+01 0.00000E+00 0.00000E+00
 -1       104 9.91500E+01 0.00000E+00 0.00000E+00
 -1       105 1.02150E+02 0.00000E+00 0.00000E+00
 -1       106 1.05150E+02 0.00000E+00 0.00000E+00
 -1       107 1.08150E+02 0.00000E+00 0.00000E+00
 -1       108 1.11150E+02 0.00000E+00 0.00000E+00
 -1       109 1.14150E+02 0.00000E+00 0.00000E+00
 -1       110 1.17150E+02 0.00000E+00 0.00000E+00
 -1       111 1.20150E+02 0.00000E+00 0.00000E+00
 -1       112 1.23150E+02 0.00000E+00 0.00000E+00
 -1       113 1.26150E+02 0.00000E+00 0.00000E+00
 -1       114 1.29150E+02 0.00000E+00 0.00000E+00
 -1       115 1.32150E+02 0.00000E+00 0.00000E+00
 -1       116 1.35150E+02 0.00000E+00 0.00000E+00
 -1       117 1.38150E+02 0.00000E+00 0.00000E+00
 -1       118 1.41150E+02 0.00000E+00 0.00000E+00
 -1       119 1.44150E+02 0.00000E+00 0.00000E+00
 -1       120 1.47150E+02 0.00000E+00 0.00000E+00
 -1       121 1.50000E+02 2.95000E+00 0.00000E+00
 -1       122 1.50000E+02 5.90000E+00 0.00000E+00
 -1       123 1.50000E+02 8.85000E+00 0.00000E+00
 -1       124 1.50000E+02 1.18000E+01 0.00000E+00
 -1       125 1.50000E+02 1.47500E+01 0.00000E+00
 -1       126 1.50000E+02 1.76500E+01 0.00000E+00
 -1       127 1.50000E+02 2.06000E+01 0.00000E+00
 -1       128 1.50000E+02 2.35500E+01 0.00000E+00
 -1       129 1.50000E+02 2.65000E+01 0.00000E+00
 -1       130 1.50000E+02 2.94500E+01 0.00000E+00
 -1       131 1.50000E+02 3.24000E+01 0.00000E+00
 -1       132 1.50000E+02 3.53000E+01 0.00000E+00
 -1       133 1.50000E+02 3.82500E+01 0.00000E+00
 -1       134 1.50000E+02 4.12000E+01 0.00000E+00
 -1       135 1.50000E+02 4.41500E+01 0.00000E+00
 -1       136 1.50000E+02 4.71000E+01 0.00000E+00
 -1       137 5.95984E+01 2.09561E+01 0.00000E+00
 -1       138 5.90866E+01 1.94602E+01 0.00000E+00
 -1       139 5.83346E+01 1.82236E+01 0.00000E+00
 -1       140 5.72154E+01 1.70591E+01 0.00000E+00
 -1       141 5.60309E+01 1.62698E+01 0.00000E+00
 -1       142 5.46558E+01 1.57206E+01 0.00000E+00
 -1       143 5.30744E+01 1.54665E+01 0.00000E+00
 -1       144 5.16368E+01 1.55505E+01 0.00000E+00
 -1       145 5.01677E+01 1.59579E+01 0.00000E+00
 -1       146 4.88969E+01 1.66231E+01 0.00000E+00
 -1       147 4.77767E+01 1.75453E+01 0.00000E+00
 -1       148 4.68268E+01 1.87478E+01 0.00000E+00
 -1       149 4.61667E+01 2.01130E+01 0.00000E+00
 -1       150 4.58317E+01 2.14722E+01 0.00000E+00
 -1       151 4.57811E+01 2.29799E+01 0.00000E+00
 -1       152 4.60488E+01 2.44436E+01 0.00000E+00
 -1       153 4.66254E+01 2.58279E+01 0.00000E+00
 -1       154 4.76598E+01 2.72523E+01 0.00000E+00
 -1       155 4.87153E+01 2.81715E+01 0.00000E+00
 -1       156 5.02238E+01 2.89832E+01 0.00000E+00
 -1       157 5.16113E+01 2.93643E+01 0.00000E+00
 -1       158 5.31388E+01 2.94493E+01 0.00000E+00
 -1       159 5.45895E+01 2.92166E+01 0.00000E+00
 -1       160 5.60095E+01 2.86605E+01 0.00000E+00
 -1       161 5.82874E+01 2.67568E+01 0.00000E+00
 -1       162 5.91020E+01 2.54260E+01 0.00000E+00
 -1       163 5.96091E+01 2.39131E+01 0.00000E+00
 -1       164 2.59800E+00 4.55750E+01 0.00000E+00
 -1       165 2.59800E+00 4.26250E+01 0.00000E+00
 -1       166 2.59800E+00 3.96750E+01 0.00000E+00
 -1       167 2.59800E+00 3.67250E+01 0.00000E+00
 -1       168 2.59800E+00 3.38250E+01 0.00000E+00
 -1       169 2.59800E+00 3.08750E+01 0.00000E+00
 -1       170 2.59800E+00 2.79250E+01 0.00000E+00
 -1       171 2.59800E+00 2.49750E+01 0.00000E+00
 -1       172 2.59800E+00 2.20250E+01 0.00000E+00
 -1       173 2.59800E+00 1.90750E+01 0.00000E+00
 -1       174 2.59800E+00 1.61750E+01 0.00000E+00
 -1       175 2.59800E+00 1.32250E+01 0.00000E+00
 -1       176 2.59800E+00 1.02750E+01 0.00000E+00
 -1       177 2.59800E+00 7.32500E+00 0.00000E+00
 -1       178 2.59800E+00 4.37500E+00 0.00000E+00
 -1       179 2.87400E+00 2.18750E+00 0.00000E+00
 -1       180 4.65000E+00 4.74020E+01 0.00000E+00
 -1       181 7.65000E+00 4.74020E+01 0.00000E+00
 -1       182 1.06500E+01 4.74020E+01 0.00000E+00
 -1       183 1.36500E+01 4.74020E+01 0.00000E+00
 -1       184 1.66500E+01 4.74020E+01 0.00000E+00
 -1       185 1.96500E+01 4.74020E+01 0.00000E+00
 -1       186 2.26500E+01 4.74020E+01 0.00000E+00
 -1       187 2.56500E+01 4.74020E+01 0.00000E+00
 -1       188 2.86500E+01 4.74020E+01 0.00000E+00
 -1       189 3.16500E+01 4.74020E+01 0.00000E+00
 -1       190 3.46500E+01 4.74020E+01 0.00000E+00
 -1       191 3.76500E+01 4.74020E+01 0.00000E+00
 -1       192 4.06500E+01 4.74020E+01 0.00000E+00
 -1       193 4.36500E+01 4.74020E+01 0.00000E+00
 -1       194 4.66500E+01 4.74020E+01 0.00000E+00
 -1       195 4.96500E+01 4.74020E+01 0.00000E+00
 -1       196 5.26500E+01 4.74020E+01 0.00000E+00
 -1       197 5.56500E+01 4.74020E+01 0.00000E+00
 -1       198 5.86500E+01 4.74020E+01 0.00000E+00
 -1       199 6.16500E+01 4.74020E+01 0.00000E+00
 -1       200 6.46500E+01 4.74020E+01 0.00000E+00
 -1       201 6.76500E+01 4.74020E+01 0.00000E+00
 -1       202 7.06500E+01 4.74020E+01 0.00000E+00
 -1       203 7.36500E+01 4.74020E+01 0.00000E+00
 -1       204 7.66500E+01 4.74020E+01 0.00000E+00
 -1       205 7.96500E+01 4.74020E+01 0.00000E+00
 -1       206 8.26500E+01 4.74020E+01 0.00000E+00
 -1       207 8.56500E+01 4.74020E+01 0.00000E+00
 -1       208 8.86500E+01 4.74020E+01 0.00000E+00
 -1       209 9.16500E+01 4.74020E+01 0.00000E+00
 -1       210 9.46500E+01 4.74020E+01 0.00000E+00
 -1       211 9.76500E+01 4.74020E+01 0.00000E+00
 -1       212 1.00650E+02 4.74020E+01 0.00000E+00
 -1       213 1.03650E+02 4.74020E+01 0.00000E+00
 -1       214 1.06650E+02 4.74020E+01 0.00000E+00
 -1       215 1.09650E+02 4.74020E+01 0.00000E+00
 -1       216 1.12650E+02 4.74020E+01 0.00000E+00
 -1       217 1.15650E+02 4.74020E+01 0.00000E+00
 -1       218 1.18650E+02 4.74020E+01 0.00000E+00
 -1       219 1.21650E+02 4.74020E+01 0.00000E+00
 -1       220 1.24650E+02 4.74020E+01 0.00000E+00
 -1       221 1.27650E+02 4.74020E+01 0.00000E+00
 -1       222 1.30650E+02 4.74020E+01 0.00000E+00
 -1       223 1.33650E+02 4.74020E+01 0.00000E+00
 -1       224 1.36650E+02 4.74020E+01 0.00000E+00
 -1       225 1.39650E+02 4.74020E+01 0.00000E+00
 -1       226 1.42650E+02 4.74020E+01 0.00000E+00
 -1       227 1.45650E+02 4.74020E+01 0.00000E+00
 -1       228 5.87400E+00 2.18750E+00 0.00000E+00
 -1       229 8.87400E+00 2.18750E+00 0.00000E+00
 -1       230 1.18740E+01 2.18750E+00 0.00000E+00
 -1       231 1.48740E+01 2.18750E+00 0.00000E+00
 -1       232 1.78740E+01 2.18750E+00 0.00000E+00
 -1       233 2.08740E+01 2.18750E+00 0.00000E+00
 -1       234 2.38740E+01 2.18750E+00 0.00000E+00
 -1       235 2.68740E+01 2.18750E+00 0.00000E+00
 -1       236 2.98740E+01 2.18750E+00 0.00000E+00
 -1       237 3.28740E+01 2.18750E+00 0.00000E+00
 -1       238 3.58740E+01 2.18750E+00 0.00000E+00
 -1       239 3.88740E+01 2.18750E+00 0.00000E+00
 -1       240 4.18740E+01 2.18750E+00 0.00000E+00
 -1       241 4.48740E+01 2.18750E+00 0.00000E+00
 -1       242 4.78740E+01 2.18750E+00 0.00000E+00
 -1       243 5.08740E+01 2.18750E+00 0.00000E+00
 -1       244 5.38740E+01 2.18750E+00 0.00000E+00
 -1       245 5.68740E+01 2.18750E+00 0.00000E+00
 -1       246 5.98740E+01 2.18750E+00 0.00000E+00
 -1       247 6.28740E+01 2.18750E+00 0.00000E+00
 -1       248 6.58740E+01 2.18750E+00 0.00000E+00
 -1       249 6.88740E+01 2.18750E+00 0.00000E+00
 -1       250 7.18740E+01 2.18750E+00 0.00000E+00
 -1       251 7.48740E+01 2.18750E+00 0.00000E+00
 -1       252 7.78740E+01 2.18750E+00 0.00000E+00
 -1       253 8.08740E+01 2.18750E+00 0.00000E+00
 -1       254 8.38740E+01 2.18750E+00 0.00000E+00
 -1       255 8.68740E+01 2.18750E+00 0.00000E+00
 -1       256 8.98740E+01 2.18750E+00 0.00000E+00
 -1       257 9.28740E+01 2.18750E+00 0.00000E+00
 -1       258 9.58740E+01 2.18750E+00 0.00000E+00
 -1       259 9.88740E+01 2.18750E+00 0.00000E+00
 -1       260 1.01874E+02 2.18750E+00 0.00000E+00
 -1       261 1.04874E+02 2.18750E+00 0.00000E+00
 -1       262 1.07874E+02 2.18750E+00 0.00000E+00
 -1       263 1.10874E+02 2.18750E+00 0.00000E+00
 -1       264 1.13874E+02 2.18750E+00 0.00000E+00
 -1       265 1.16874E+02 2.18750E+00 0.00000E+00
 -1       266 1.19874E+02 2.18750E+00 0.00000E+00
 -1       267 1.22874E+02 2.18750E+00 0.00000E+00
 -1       268 1.25874E+02 2.18750E+00 0.00000E+00
 -1       269 1.28874E+02 2.18750E+00 0.00000E+00
 -1       270 1.31874E+02 2.18750E+00 0.00000E+00
 -1       271 1.34874E+02 2.18750E+00 0.00000E+00
 -1       272 1.37874E+02 2.18750E+00 0.00000E+00
 -1       273 1.40874E+02 2.18750E+00 0.00000E+00
 -1       274 1.43874E+02 2.18750E+00 0.00000E+00
 -1       275 1.46874E+02 2.18750E+00 0.00000E+00
 -1       276 1.47402E+02 4.42500E+00 0.00000E+00
 -1       277 1.47402E+02 7.37500E+00 0.00000E+00
 -1       278 1.47402E+02 1.03250E+01 0.00000E+00
 -1       279 1.47402E+02 1.32750E+01 0.00000E+00
 -1       280 1.47402E+02 1.61750E+01 0.00000E+00
 -1       281 1.47402E+02 1.91250E+01 0.00000E+00
 -1       282 1.47402E+02 2.20750E+01 0.00000E+00
 -1       283 1.47402E+02 2.50250E+01 0.00000E+00
 -1       284 1.47402E+02 2.79750E+01 0.00000E+00
 -1       285 1.47402E+02 3.09250E+01 0.00000E+00
 -1       286 1.47402E+02 3.38250E+01 0.00000E+00
 -1       287 1.47402E+02 3.67750E+01 0.00000E+00
 -1       288 1.47402E+02 3.97250E+01 0.00000E+00
 -1       289 1.47402E+02 4.26750E+01 0.00000E+00
 -1       290 1.46526E+02 4.50385E+01 0.00000E+00
 -1       291 6.09686E+01 2.15678E+01 0.00000E+00
 -1       292 6.07274E+01 1.97343E+01 0.00000E+00
 -1       293 5.97465E+01 1.82119E+01 0.00000E+00
 -1       294 5.87700E+01 1.66851E+01 0.00000E+00
 -1       295 5.72955E+01 1.56555E+01 0.00000E+00
 -1       296 5.58552E+01 1.47137E+01 0.00000E+00
 -1       297 5.41106E+01 1.40656E+01 0.00000E+00
 -1       298 5.22800E+01 1.42145E+01 0.00000E+00
 -1       299 5.05335E+01 1.44244E+01 0.00000E+00
 -1       300 4.89700E+01 1.52164E+01 0.00000E+00
 -1       301 4.75130E+01 1.60834E+01 0.00000E+00
 -1       302 4.63504E+01 1.73950E+01 0.00000E+00
 -1       303 4.54052E+01 1.89027E+01 0.00000E+00
 -1       304 4.48220E+01 2.05025E+01 0.00000E+00
 -1       305 4.45109E+01 2.21826E+01 0.00000E+00
 -1       306 4.46399E+01 2.39449E+01 0.00000E+00
 -1       307 4.49859E+01 2.56986E+01 0.00000E+00
 -1       308 4.58226E+01 2.74987E+01 0.00000E+00
 -1       309 4.73913E+01 2.86262E+01 0.00000E+00
 -1       310 4.88157E+01 2.97926E+01 0.00000E+00
 -1       311 5.05964E+01 3.03429E+01 0.00000E+00
 -1       312 5.23030E+01 3.07010E+01 0.00000E+00
 -1       313 5.40562E+01 3.05301E+01 0.00000E+00
 -1       314 5.57417E+01 3.00674E+01 0.00000E+00
 -1       315 5.74006E+01 2.93898E+01 0.00000E+00
 -1       316 5.86447E+01 2.81328E+01 0.00000E+00
 -1       317 5.97288E+01 2.67244E+01 0.00000E+00
 -1       318 6.06640E+01 2.51081E+01 0.00000E+00
 -1       319 6.08912E+01 2.33129E+01 0.00000E+00
 -1       320 5.19600E+00 4.11500E+01 0.00000E+00
 -1       321 5.19600E+00 4.41000E+01 0.00000E+00
 -1       322 5.19600E+00 3.52750E+01 0.00000E+00
 -1       323 5.19600E+00 3.23250E+01 0.00000E+00
 -1       324 5.19600E+00 2.93750E+01 0.00000E+00
 -1       325 5.19600E+00 2.64250E+01 0.00000E+00
 -1       326 5.19600E+00 2.34750E+01 0.00000E+00
 -1       327 5.19600E+00 2.05250E+01 0.00000E+00
 -1       328 5.19600E+00 1.76250E+01 0.00000E+00
 -1       329 5.19600E+00 1.46750E+01 0.00000E+00
 -1       330 5.19600E+00 1.17250E+01 0.00000E+00
 -1       331 5.19600E+00 8.77500E+00 0.00000E+00
 -1       332 5.19600E+00 5.82500E+00 0.00000E+00
 -1       333 5.53500E+00 4.00625E+00 0.00000E+00
 -1       334 8.53500E+00 4.00625E+00 0.00000E+00
 -1       335 9.15000E+00 4.48040E+01 0.00000E+00
 -1       336 1.21500E+01 4.48040E+01 0.00000E+00
 -1       337 1.51500E+01 4.48040E+01 0.00000E+00
 -1       338 1.81500E+01 4.48040E+01 0.00000E+00
 -1       339 2.11500E+01 4.48040E+01 0.00000E+00
 -1       340 2.41500E+01 4.48040E+01 0.00000E+00
 -1       341 2.71500E+01 4.48040E+01 0.00000E+00
 -1       342 3.01500E+01 4.48040E+01 0.00000E+00
 -1       343 3.31500E+01 4.48040E+01 0.00000E+00
 -1       344 3.61500E+01 4.48040E+01 0.00000E+00
 -1       345 3.91500E+01 4.48040E+01 0.00000E+00
 -1       346 4.21500E+01 4.48040E+01 0.00000E+00
 -1       347 4.51500E+01 4.48040E+01 0.00000E+00
 -1       348 4.81500E+01 4.48040E+01 0.00000E+00
 -1       349 5.11500E+01 4.48040E+01 0.00000E+00
 -1       350 5.41500E+01 4.48040E+01 0.00000E+00
 -1       351 5.71500E+01 4.48040E+01 0.00000E+00
 -1       352 6.01500E+01 4.48040E+01 0.00000E+00
 -1       353 6.31500E+01 4.48040E+01 0.00000E+00
 -1       354 6.61500E+01 4.48040E+01 0.00000E+00
 -1       355 6.91500E+01 4.48040E+01 0.00000E+00
 -1       356 7.21500E+01 4.48040E+01 0.00000E+00
 -1       357 7.51500E+01 4.48040E+01 0.00000E+00
 -1       358 7.81500E+01 4.48040E+01 0.00000E+00
 -1       359 8.11500E+01 4.48040E+01 0.00000E+00
 -1       360 8.41500E+01 4.48040E+01 0.00000E+00
 -1       361 8.71500E+01 4.48040E+01 0.00000E+00
 -1       362 9.01500E+01 4.48040E+01 0.00000E+00
 -1       363 9.31500E+01 4.48040E+01 0.00000E+00
 -1       364 9.61500E+01 4.48040E+01 0.00000E+00
 -1       365 9.91500E+01 4.48040E+01 0.00000E+00
 -1       366 1.02150E+02 4.48040E+01 0.00000E+00
 -1       367 1.05150E+02 4.48040E+01 0.00000E+00
 -1       368 1.08150E+02 4.48040E+01 0.00000E+00
 -1       369 1.11150E+02 4.48040E+01 0.00000E+00
 -1       370 1.14150E+02 4.48040E+01 0.00000E+00
 -1       371 1.17150E+02 4.48040E+01 0.00000E+00
 -1       372 1.20150E+02 4.48040E+01 0.00000E+00
 -1       373 1.23150E+02 4.48040E+01 0.00000E+00
 -1       374 1.26150E+02 4.48040E+01 0.00000E+00
 -1       375 1.29150E+02 4.48040E+01 0.00000E+00
 -1       376 1.32150E+02 4.48040E+01 0.00000E+00
 -1       377 1.35150E+02 4.48040E+01 0.00000E+00
 -1       378 1.38150E+02 4.48040E+01 0.00000E+00
 -1       379 1.41150E+02 4.48040E+01 0.00000E+00
 -1       380 1.43838E+02 4.49212E+01 0.00000E+00
 -1       381 1.15350E+01 4.00625E+00 0.00000E+00
 -1       382 1.45350E+01 4.00625E+00 0.00000E+00
 -1       383 1.75350E+01 4.00625E+00 0.00000E+00
 -1       384 2.05350E+01 4.00625E+00 0.00000E+00
 -1       385 2.35350E+01 4.00625E+00 0.00000E+00
 -1       386 2.65350E+01 4.00625E+00 0.00000E+00
 -1       387 2.95350E+01 4.00625E+00 0.00000E+00
 -1       388 3.25350E+01 4.00625E+00 0.00000E+00
 -1       389 3.55350E+01 4.00625E+00 0.00000E+00
 -1       390 3.85350E+01 4.00625E+00 0.00000E+00
 -1       391 4.15350E+01 4.00625E+00 0.00000E+00
 -1       392 4.45350E+01 4.00625E+00 0.00000E+00
 -1       393 4.75350E+01 4.00625E+00 0.00000E+00
 -1       394 5.05350E+01 4.00625E+00 0.00000E+00
 -1       395 5.35350E+01 4.00625E+00 0.00000E+00
 -1       396 5.65350E+01 4.00625E+00 0.00000E+00
 -1       397 5.95350E+01 4.00625E+00 0.00000E+00
 -1       398 6.25350E+01 4.00625E+00 0.00000E+00
 -1       399 6.55350E+01 4.00625E+00 0.00000E+00
 -1       400 6.85350E+01 4.00625E+00 0.00000E+00
 -1       401 7.15350E+01 4.00625E+00 0.00000E+00
 -1       402 7.45350E+01 4.00625E+00 0.00000E+00
 -1       403 7.75350E+01 4.00625E+00 0.00000E+00
 -1       404 8.05350E+01 4.00625E+00 0.00000E+00
 -1       405 8.35350E+01 4.00625E+00 0.00000E+00
 -1       406 8.65350E+01 4.00625E+00 0.00000E+00
 -1       407 8.95350E+01 4.00625E+00 0.00000E+00
 -1       408 9.25350E+01 4.00625E+00 0.00000E+00
 -1       409 9.55350E+01 4.00625E+00 0.00000E+00
 -1       410 9.85350E+01 4.00625E+00 0.00000E+00
 -1       411 1.01535E+02 4.00625E+00 0.00000E+00
 -1       412 1.04535E+02 4.00625E+00 0.00000E+00
 -1       413 1.07535E+02 4.00625E+00 0.00000E+00
 -1       414 1.10535E+02 4.00625E+00 0.00000E+00
 -1       415 1.13535E+02 4.00625E+00 0.00000E+00
 -1       416 1.16535E+02 4.00625E+00 0.00000E+00
 -1       417 1.19535E+02 4.00625E+00 0.00000E+00
 -1       418 1.22535E+02 4.00625E+00 0.00000E+00
 -1       419 1.25535E+02 4.00625E+00 0.00000E+00
 -1       420 1.28535E+02 4.00625E+00 0.00000E+00
 -1       421 1.31535E+02 4.00625E+00 0.00000E+00
 -1       422 1.34535E+02 4.00625E+00 0.00000E+00
 -1       423 1.37535E+02 4.00625E+00 0.00000E+00
 -1       424 1.40535E+02 4.00625E+00 0.00000E+00
 -1       425 1.43535E+02 4.00625E+00 0.00000E+00
 -1       426 1.45469E+02 4.21562E+00 0.00000E+00
 -1       427 1.44804E+02 1.18000E+01 0.00000E+00
 -1       428 1.44804E+02 8.85000E+00 0.00000E+00
 -1       429 1.45136E+02 6.53281E+00 0.00000E+00
 -1       430 1.44804E+02 1.47000E+01 0.00000E+00
 -1       431 1.44804E+02 1.76500E+01 0.00000E+00
 -1       432 1.44804E+02 2.06000E+01 0.00000E+00
 -1       433 1.44804E+02 2.35500E+01 0.00000E+00
 -1       434 1.44804E+02 2.65000E+01 0.00000E+00
 -1       435 1.44804E+02 2.94500E+01 0.00000E+00
 -1       436 1.44804E+02 3.23500E+01 0.00000E+00
 -1       437 1.44804E+02 3.53000E+01 0.00000E+00
 -1       438 1.44804E+02 3.82500E+01 0.00000E+00
 -1       439 1.44804E+02 4.12000E+01 0.00000E+00
 -1       440 6.15378E+01 1.81349E+01 0.00000E+00
 -1       441 6.22248E+01 2.24978E+01 0.00000E+00
 -1       442 6.25485E+01 2.04274E+01 0.00000E+00
 -1       443 6.05613E+01 1.66081E+01 0.00000E+00
 -1       444 5.89187E+01 1.49015E+01 0.00000E+00
 -1       445 5.19600E+00 3.82125E+01 0.00000E+00
 -1       446 5.55510E+01 1.28604E+01 0.00000E+00
 -1       447 5.30699E+01 1.25976E+01 0.00000E+00
 -1       448 5.13234E+01 1.28075E+01 0.00000E+00
 -1       449 4.91660E+01 1.36641E+01 0.00000E+00
 -1       450 4.77090E+01 1.45312E+01 0.00000E+00
 -1       451 4.58991E+01 1.58238E+01 0.00000E+00
 -1       452 4.47796E+01 1.74604E+01 0.00000E+00
 -1       453 4.38958E+01 1.92586E+01 0.00000E+00
 -1       454 4.33096E+01 2.10913E+01 0.00000E+00
 -1       455 4.29484E+01 2.31828E+01 0.00000E+00
 -1       456 4.32944E+01 2.49365E+01 0.00000E+00
 -1       457 4.38490E+01 2.73216E+01 0.00000E+00
 -1       458 4.57038E+01 2.93191E+01 0.00000E+00
 -1       459 4.71281E+01 3.04854E+01 0.00000E+00
 -1       460 4.92986E+01 3.13862E+01 0.00000E+00
 -1       461 5.11319E+01 3.20365E+01 0.00000E+00
 -1       462 5.33216E+01 3.20724E+01 0.00000E+00
 -1       463 5.53307E+01 3.18719E+01 0.00000E+00
 -1       464 5.70930E+01 3.10062E+01 0.00000E+00
 -1       465 5.90630E+01 2.97910E+01 0.00000E+00
 -1       466 6.02803E+01 2.82703E+01 0.00000E+00
 -1       467 6.13908E+01 2.66074E+01 0.00000E+00
 -1       468 6.22298E+01 2.43942E+01 0.00000E+00
 -1       469 5.74784E+01 1.39596E+01 0.00000E+00
 -1       470 4.37301E+01 2.91420E+01 0.00000E+00
 -1       471 1.00350E+01 6.60425E+00 0.00000E+00
 -1       472 7.79400E+00 3.08500E+01 0.00000E+00
 -1       473 7.79400E+00 3.38000E+01 0.00000E+00
 -1       474 7.79400E+00 2.49500E+01 0.00000E+00
 -1       475 7.79400E+00 2.20000E+01 0.00000E+00
 -1       476 7.79400E+00 1.91000E+01 0.00000E+00
 -1       477 7.79400E+00 1.61500E+01 0.00000E+00
 -1       478 7.79400E+00 1.32000E+01 0.00000E+00
 -1       479 7.79400E+00 1.02500E+01 0.00000E+00
 -1       480 1.30350E+01 6.60425E+00 0.00000E+00
 -1       481 1.06500E+01 4.22060E+01 0.00000E+00
 -1       482 5.72813E+01 1.20657E+01 0.00000E+00
 -1       483 1.36500E+01 4.22060E+01 0.00000E+00
 -1       484 1.66500E+01 4.22060E+01 0.00000E+00
 -1       485 1.96500E+01 4.22060E+01 0.00000E+00
 -1       486 2.26500E+01 4.22060E+01 0.00000E+00
 -1       487 2.56500E+01 4.22060E+01 0.00000E+00
 -1       488 2.86500E+01 4.22060E+01 0.00000E+00
 -1       489 3.16500E+01 4.22060E+01 0.00000E+00
 -1       490 3.46500E+01 4.22060E+01 0.00000E+00
 -1       491 3.76500E+01 4.22060E+01 0.00000E+00
 -1       492 4.06500E+01 4.22060E+01 0.00000E+00
 -1       493 4.36500E+01 4.22060E+01 0.00000E+00
 -1       494 4.66500E+01 4.22060E+01 0.00000E+00
 -1       495 4.96500E+01 4.22060E+01 0.00000E+00
 -1       496 5.26500E+01 4.22060E+01 0.00000E+00
 -1       497 5.56500E+01 4.22060E+01 0.00000E+00
 -1       498 5.86500E+01 4.22060E+01 0.00000E+00
 -1       499 6.16500E+01 4.22060E+01 0.00000E+00
 -1       500 6.46500E+01 4.22060E+01 0.00000E+00
 -1       501 6.76500E+01 4.22060E+01 0.00000E+00
 -1       502 7.06500E+01 4.22060E+01 0.00000E+00
 -1       503 7.36500E+01 4.22060E+01 0.00000E+00
 -1       504 7.66500E+01 4.22060E+01 0.00000E+00
 -1       505 7.96500E+01 4.22060E+01 0.00000E+00
 -1       506 8.26500E+01 4.22060E+01 0.00000E+00
 -1       507 8.56500E+01 4.22060E+01 0.00000E+00
 -1       508 8.86500E+01 4.22060E+01 0.00000E+00
 -1       509 9.16500E+01 4.22060E+01 0.00000E+00
 -1       510 9.46500E+01 4.22060E+01 0.00000E+00
 -1       511 9.76500E+01 4.22060E+01 0.00000E+00
 -1       512 1.00650E+02 4.22060E+01 0.00000E+00
 -1       513 1.03650E+02 4.22060E+01 0.00000E+00
 -1       514 1.06650E+02 4.22060E+01 0.00000E+00
 -1       515 1.09650E+02 4.22060E+01 0.00000E+00
 -1       516 1.12650E+02 4.22060E+01 0.00000E+00
 -1       517 1.15650E+02 4.22060E+01 0.00000E+00
 -1       518 1.18650E+02 4.22060E+01 0.00000E+00
 -1       519 1.21650E+02 4.22060E+01 0.00000E+00
 -1       520 1.24650E+02 4.22060E+01 0.00000E+00
 -1       521 1.27650E+02 4.22060E+01 0.00000E+00
 -1       522 1.30650E+02 4.22060E+01 0.00000E+00
 -1       523 1.33650E+02 4.22060E+01 0.00000E+00
 -1       524 1.36650E+02 4.22060E+01 0.00000E+00
 -1       525 1.39650E+02 4.22060E+01 0.00000E+00
 -1       526 1.90350E+01 6.60425E+00 0.00000E+00
 -1       527 2.20350E+01 6.60425E+00 0.00000E+00
 -1       528 2.50350E+01 6.60425E+00 0.00000E+00
 -1       529 2.80350E+01 6.60425E+00 0.00000E+00
 -1       530 3.10350E+01 6.60425E+00 0.00000E+00
 -1       531 3.40350E+01 6.60425E+00 0.00000E+00
 -1       532 3.70350E+01 6.60425E+00 0.00000E+00
 -1       533 4.00350E+01 6.60425E+00 0.00000E+00
 -1       534 4.30350E+01 6.60425E+00 0.00000E+00
 -1       535 4.60350E+01 6.60425E+00 0.00000E+00
 -1       536 4.90350E+01 6.60425E+00 0.00000E+00
 -1       537 5.20350E+01 6.60425E+00 0.00000E+00
 -1       538 5.50350E+01 6.60425E+00 0.00000E+00
 -1       539 5.80350E+01 6.60425E+00 0.00000E+00
 -1       540 6.10350E+01 6.60425E+00 0.00000E+00
 -1       541 6.40350E+01 6.60425E+00 0.00000E+00
 -1       542 6.70350E+01 6.60425E+00 0.00000E+00
 -1       543 7.00350E+01 6.60425E+00 0.00000E+00
 -1       544 7.30350E+01 6.60425E+00 0.00000E+00
 -1       545 7.60350E+01 6.60425E+00 0.00000E+00
 -1       546 7.90350E+01 6.60425E+00 0.00000E+00
 -1       547 8.20350E+01 6.60425E+00 0.00000E+00
 -1       548 8.50350E+01 6.60425E+00 0.00000E+00
 -1       549 8.80350E+01 6.60425E+00 0.00000E+00
 -1       550 9.10350E+01 6.60425E+00 0.00000E+00
 -1       551 9.40350E+01 6.60425E+00 0.00000E+00
 -1       552 9.70350E+01 6.60425E+00 0.00000E+00
 -1       553 1.00035E+02 6.60425E+00 0.00000E+00
 -1       554 1.03035E+02 6.60425E+00 0.00000E+00
 -1       555 1.06035E+02 6.60425E+00 0.00000E+00
 -1       556 1.09035E+02 6.60425E+00 0.00000E+00
 -1       557 1.12035E+02 6.60425E+00 0.00000E+00
 -1       558 1.15035E+02 6.60425E+00 0.00000E+00
 -1       559 1.18035E+02 6.60425E+00 0.00000E+00
 -1       560 1.21035E+02 6.60425E+00 0.00000E+00
 -1       561 1.24035E+02 6.60425E+00 0.00000E+00
 -1       562 1.27035E+02 6.60425E+00 0.00000E+00
 -1       563 1.30035E+02 6.60425E+00 0.00000E+00
 -1       564 1.33035E+02 6.60425E+00 0.00000E+00
 -1       565 1.36035E+02 6.60425E+00 0.00000E+00
 -1       566 1.39035E+02 6.60425E+00 0.00000E+00
 -1       567 1.42035E+02 6.60425E+00 0.00000E+00
 -1       568 1.42206E+02 1.61750E+01 0.00000E+00
 -1       569 1.42206E+02 1.91250E+01 0.00000E+00
 -1       570 1.42206E+02 1.03250E+01 0.00000E+00
 -1       571 1.42206E+02 1.32500E+01 0.00000E+00
 -1       572 1.42206E+02 2.20750E+01 0.00000E+00
 -1       573 1.42206E+02 2.50250E+01 0.00000E+00
 -1       574 1.42206E+02 2.79750E+01 0.00000E+00
 -1       575 1.42206E+02 3.08750E+01 0.00000E+00
 -1       576 1.42206E+02 3.38250E+01 0.00000E+00
 -1       577 1.42206E+02 3.67750E+01 0.00000E+00
 -1       578 1.42206E+02 3.97250E+01 0.00000E+00
 -1       579 6.39156E+01 2.17016E+01 0.00000E+00
 -1       580 6.35359E+01 1.86231E+01 0.00000E+00
 -1       581 6.39206E+01 2.35980E+01 0.00000E+00
 -1       582 1.60350E+01 6.60425E+00 0.00000E+00
 -1       583 6.27768E+01 1.62668E+01 0.00000E+00
 -1       584 6.11342E+01 1.45602E+01 0.00000E+00
 -1       585 7.92300E+00 4.16780E+01 0.00000E+00
 -1       586 6.31790E+01 2.60196E+01 0.00000E+00
 -1       587 4.17379E+01 2.65554E+01 0.00000E+00
 -1       588 4.15214E+01 2.18595E+01 0.00000E+00
 -1       589 7.79400E+00 2.79000E+01 0.00000E+00
 -1       590 5.45264E+01 1.06902E+01 0.00000E+00
 -1       591 4.40620E+01 1.57683E+01 0.00000E+00
 -1       592 5.20020E+01 1.10829E+01 0.00000E+00
 -1       593 4.95499E+01 1.14860E+01 0.00000E+00
 -1       594 4.76461E+01 1.27678E+01 0.00000E+00
 -1       595 4.58073E+01 1.37818E+01 0.00000E+00
 -1       596 4.27984E+01 1.76030E+01 0.00000E+00
 -1       597 4.22085E+01 1.97290E+01 0.00000E+00
 -1       598 4.13919E+01 2.48017E+01 0.00000E+00
 -1       599 4.96418E+01 3.33278E+01 0.00000E+00
 -1       600 4.54355E+01 3.10996E+01 0.00000E+00
 -1       601 4.74713E+01 3.24270E+01 0.00000E+00
 -1       602 5.21986E+01 3.37693E+01 0.00000E+00
 -1       603 5.44715E+01 3.34287E+01 0.00000E+00
 -1       604 5.70420E+01 3.31288E+01 0.00000E+00
 -1       605 5.90120E+01 3.19136E+01 0.00000E+00
 -1       606 6.08798E+01 2.99977E+01 0.00000E+00
 -1       607 6.20528E+01 2.82517E+01 0.00000E+00
 -1       608 5.91372E+01 1.29951E+01 0.00000E+00
 -1       609 7.61550E+00 6.21462E+00 0.00000E+00
 -1       610 5.62568E+01 9.89549E+00 0.00000E+00
 -1       611 7.79400E+00 3.67375E+01 0.00000E+00
 -1       612 6.49030E+01 1.98973E+01 0.00000E+00
 -1       613 4.16191E+01 2.83758E+01 0.00000E+00
 -1       614 1.41678E+02 4.22645E+01 0.00000E+00
 -1       615 1.03920E+01 2.05500E+01 0.00000E+00
 -1       616 1.03920E+01 2.35000E+01 0.00000E+00
 -1       617 1.03920E+01 1.46750E+01 0.00000E+00
 -1       618 1.03920E+01 1.17250E+01 0.00000E+00
 -1       619 1.15350E+01 9.20225E+00 0.00000E+00
 -1       620 1.45350E+01 9.20225E+00 0.00000E+00
 -1       621 6.40723E+01 2.78705E+01 0.00000E+00
 -1       622 6.49483E+01 1.68676E+01 0.00000E+00
 -1       623 1.51500E+01 3.96080E+01 0.00000E+00
 -1       624 1.81500E+01 3.96080E+01 0.00000E+00
 -1       625 2.11500E+01 3.96080E+01 0.00000E+00
 -1       626 2.41500E+01 3.96080E+01 0.00000E+00
 -1       627 2.71500E+01 3.96080E+01 0.00000E+00
 -1       628 3.01500E+01 3.96080E+01 0.00000E+00
 -1       629 3.31500E+01 3.96080E+01 0.00000E+00
 -1       630 3.61500E+01 3.96080E+01 0.00000E+00
 -1       631 3.91500E+01 3.96080E+01 0.00000E+00
 -1       632 4.21500E+01 3.96080E+01 0.00000E+00
 -1       633 4.51500E+01 3.96080E+01 0.00000E+00
 -1       634 4.81500E+01 3.96080E+01 0.00000E+00
 -1       635 5.11500E+01 3.96080E+01 0.00000E+00
 -1       636 5.41500E+01 3.96080E+01 0.00000E+00
 -1       637 5.71500E+01 3.96080E+01 0.00000E+00
 -1       638 6.01500E+01 3.96080E+01 0.00000E+00
 -1       639 6.31500E+01 3.96080E+01 0.00000E+00
 -1       640 6.61500E+01 3.96080E+01 0.00000E+00
 -1       641 6.91500E+01 3.96080E+01 0.00000E+00
 -1       642 7.21500E+01 3.96080E+01 0.00000E+00
 -1       643 7.51500E+01 3.96080E+01 0.00000E+00
 -1       644 7.81500E+01 3.96080E+01 0.00000E+00
 -1       645 8.11500E+01 3.96080E+01 0.00000E+00
 -1       646 8.41500E+01 3.96080E+01 0.00000E+00
 -1       647 8.71500E+01 3.96080E+01 0.00000E+00
 -1       648 9.01500E+01 3.96080E+01 0.00000E+00
 -1       649 9.31500E+01 3.96080E+01 0.00000E+00
 -1       650 9.61500E+01 3.96080E+01 0.00000E+00
 -1       651 9.91500E+01 3.96080E+01 0.00000E+00
 -1       652 1.02150E+02 3.96080E+01 0.00000E+00
 -1       653 1.05150E+02 3.96080E+01 0.00000E+00
 -1       654 1.08150E+02 3.96080E+01 0.00000E+00
 -1       655 1.11150E+02 3.96080E+01 0.00000E+00
 -1       656 1.14150E+02 3.96080E+01 0.00000E+00
 -1       657 1.17150E+02 3.96080E+01 0.00000E+00
 -1       658 1.20150E+02 3.96080E+01 0.00000E+00
 -1       659 1.23150E+02 3.96080E+01 0.00000E+00
 -1       660 1.26150E+02 3.96080E+01 0.00000E+00
 -1       661 1.29150E+02 3.96080E+01 0.00000E+00
 -1       662 1.32150E+02 3.96080E+01 0.00000E+00
 -1       663 1.35150E+02 3.96080E+01 0.00000E+00
 -1       664 1.38150E+02 3.96080E+01 0.00000E+00
 -1       665 2.35350E+01 9.20225E+00 0.00000E+00
 -1       666 5.35893E+01 3.52952E+01 0.00000E+00
 -1       667 2.05350E+01 9.20225E+00 0.00000E+00
 -1       668 2.95350E+01 9.20225E+00 0.00000E+00
 -1       669 3.25350E+01 9.20225E+00 0.00000E+00
 -1       670 3.55350E+01 9.20225E+00 0.00000E+00
 -1       671 3.85350E+01 9.20225E+00 0.00000E+00
 -1       672 4.15350E+01 9.20225E+00 0.00000E+00
 -1       673 4.45350E+01 9.20225E+00 0.00000E+00
 -1       674 4.75350E+01 9.20225E+00 0.00000E+00
 -1       675 5.35350E+01 8.98964E+00 0.00000E+00
 -1       676 6.25350E+01 9.20225E+00 0.00000E+00
 -1       677 6.55350E+01 9.20225E+00 0.00000E+00
 -1       678 6.85350E+01 9.20225E+00 0.00000E+00
 -1       679 7.15350E+01 9.20225E+00 0.00000E+00
 -1       680 7.45350E+01 9.20225E+00 0.00000E+00
 -1       681 7.75350E+01 9.20225E+00 0.00000E+00
 -1       682 8.05350E+01 9.20225E+00 0.00000E+00
 -1       683 8.35350E+01 9.20225E+00 0.00000E+00
 -1       684 8.65350E+01 9.20225E+00 0.00000E+00
 -1       685 8.95350E+01 9.20225E+00 0.00000E+00
 -1       686 9.25350E+01 9.20225E+00 0.00000E+00
 -1       687 9.55350E+01 9.20225E+00 0.00000E+00
 -1       688 9.85350E+01 9.20225E+00 0.00000E+00
 -1       689 1.01535E+02 9.20225E+00 0.00000E+00
 -1       690 1.04535E+02 9.20225E+00 0.00000E+00
 -1       691 1.07535E+02 9.20225E+00 0.00000E+00
 -1       692 1.10535E+02 9.20225E+00 0.00000E+00
 -1       693 1.13535E+02 9.20225E+00 0.00000E+00
 -1       694 1.16535E+02 9.20225E+00 0.00000E+00
 -1       695 1.19535E+02 9.20225E+00 0.00000E+00
 -1       696 1.22535E+02 9.20225E+00 0.00000E+00
 -1       697 1.25535E+02 9.20225E+00 0.00000E+00
 -1       698 1.28535E+02 9.20225E+00 0.00000E+00
 -1       699 1.31535E+02 9.20225E+00 0.00000E+00
 -1       700 1.34535E+02 9.20225E+00 0.00000E+00
 -1       701 1.37535E+02 9.20225E+00 0.00000E+00
 -1       702 1.39870E+02 9.76363E+00 0.00000E+00
 -1       703 1.39608E+02 2.35500E+01 0.00000E+00
 -1       704 1.40178E+02 3.96665E+01 0.00000E+00
 -1       705 1.39608E+02 1.76500E+01 0.00000E+00
 -1       706 1.39608E+02 2.65000E+01 0.00000E+00
 -1       707 1.39608E+02 2.06000E+01 0.00000E+00
 -1       708 5.59555E+01 3.49823E+01 0.00000E+00
 -1       709 4.77707E+01 3.47711E+01 0.00000E+00
 -1       710 1.39608E+02 2.94000E+01 0.00000E+00
 -1       711 1.39608E+02 3.23500E+01 0.00000E+00
 -1       712 1.39608E+02 3.53000E+01 0.00000E+00
 -1       713 4.53336E+01 3.34807E+01 0.00000E+00
 -1       714 6.14140E+01 3.23868E+01 0.00000E+00
 -1       715 1.75350E+01 9.20225E+00 0.00000E+00
 -1       716 3.97178E+01 2.60430E+01 0.00000E+00
 -1       717 9.78035E+00 3.93914E+01 0.00000E+00
 -1       718 6.33119E+01 1.41080E+01 0.00000E+00
 -1       719 4.06893E+01 1.81626E+01 0.00000E+00
 -1       720 6.58008E+01 2.26449E+01 0.00000E+00
 -1       721 2.65350E+01 9.20225E+00 0.00000E+00
 -1       722 1.24652E+01 3.94997E+01 0.00000E+00
 -1       723 1.03920E+01 1.76125E+01 0.00000E+00
 -1       724 6.51897E+01 2.53110E+01 0.00000E+00
 -1       725 1.03920E+01 3.23250E+01 0.00000E+00
 -1       726 4.58176E+01 1.16261E+01 0.00000E+00
 -1       727 3.92410E+01 2.32330E+01 0.00000E+00
 -1       728 5.04434E+01 9.26134E+00 0.00000E+00
 -1       729 4.81305E+01 1.04437E+01 0.00000E+00
 -1       730 5.06283E+01 3.52386E+01 0.00000E+00
 -1       731 4.35202E+01 1.35325E+01 0.00000E+00
 -1       732 4.20177E+01 1.57128E+01 0.00000E+00
 -1       733 4.00022E+01 2.02931E+01 0.00000E+00
 -1       734 4.30369E+01 3.14675E+01 0.00000E+00
 -1       735 6.12971E+01 1.22959E+01 0.00000E+00
 -1       736 6.28899E+01 3.00812E+01 0.00000E+00
 -1       737 5.90154E+01 3.41236E+01 0.00000E+00
 -1       738 5.90523E+01 1.08470E+01 0.00000E+00
 -1       739 1.03920E+01 3.52625E+01 0.00000E+00
 -1       740 1.03920E+01 2.64500E+01 0.00000E+00
 -1       741 6.63154E+01 1.81419E+01 0.00000E+00
 -1       742 1.39608E+02 1.47250E+01 0.00000E+00
 -1       743 5.79289E+01 3.59771E+01 0.00000E+00
 -1       744 1.39739E+02 1.22443E+01 0.00000E+00
 -1       745 6.54834E+01 1.47088E+01 0.00000E+00
 -1       746 4.09258E+01 3.07013E+01 0.00000E+00
 -1       747 1.03920E+01 2.93875E+01 0.00000E+00
 -1       748 3.95990E+01 2.78634E+01 0.00000E+00
 -1       749 1.38879E+02 3.74540E+01 0.00000E+00
 -1       750 1.33920E+01 1.17250E+01 0.00000E+00
 -1       751 6.72132E+01 2.08895E+01 0.00000E+00
 -1       752 3.77990E+01 2.12911E+01 0.00000E+00
 -1       753 1.96500E+01 3.70100E+01 0.00000E+00
 -1       754 2.26500E+01 3.70100E+01 0.00000E+00
 -1       755 2.56500E+01 3.70100E+01 0.00000E+00
 -1       756 2.86500E+01 3.70100E+01 0.00000E+00
 -1       757 3.16500E+01 3.70100E+01 0.00000E+00
 -1       758 3.46500E+01 3.70100E+01 0.00000E+00
 -1       759 3.76500E+01 3.70100E+01 0.00000E+00
 -1       760 4.06500E+01 3.70100E+01 0.00000E+00
 -1       761 4.36500E+01 3.70100E+01 0.00000E+00
 -1       762 4.96500E+01 3.72226E+01 0.00000E+00
 -1       763 5.26500E+01 3.73902E+01 0.00000E+00
 -1       764 5.56500E+01 3.73902E+01 0.00000E+00
 -1       765 5.86500E+01 3.72226E+01 0.00000E+00
 -1       766 6.16500E+01 3.72226E+01 0.00000E+00
 -1       767 6.46500E+01 3.72226E+01 0.00000E+00
 -1       768 6.76500E+01 3.72226E+01 0.00000E+00
 -1       769 7.06500E+01 3.72226E+01 0.00000E+00
 -1       770 7.36500E+01 3.72226E+01 0.00000E+00
 -1       771 7.66500E+01 3.72226E+01 0.00000E+00
 -1       772 7.96500E+01 3.72226E+01 0.00000E+00
 -1       773 8.26500E+01 3.72226E+01 0.00000E+00
 -1       774 8.56500E+01 3.72226E+01 0.00000E+00
 -1       775 8.86500E+01 3.72226E+01 0.00000E+00
 -1       776 9.16500E+01 3.72226E+01 0.00000E+00
 -1       777 9.46500E+01 3.72226E+01 0.00000E+00
 -1       778 9.76500E+01 3.72226E+01 0.00000E+00
 -1       779 1.00650E+02 3.72226E+01 0.00000E+00
 -1       780 1.03650E+02 3.72226E+01 0.00000E+00
 -1       781 1.06650E+02 3.72226E+01 0.00000E+00
 -1       782 1.09650E+02 3.72226E+01 0.00000E+00
 -1       783 1.12650E+02 3.72226E+01 0.00000E+00
 -1       784 1.15650E+02 3.72226E+01 0.00000E+00
 -1       785 1.18650E+02 3.72226E+01 0.00000E+00
 -1       786 1.21650E+02 3.72226E+01 0.00000E+00
 -1       787 1.24650E+02 3.72226E+01 0.00000E+00
 -1       788 1.27650E+02 3.72226E+01 0.00000E+00
 -1       789 1.30650E+02 3.72226E+01 0.00000E+00
 -1       790 1.33650E+02 3.72226E+01 0.00000E+00
 -1       791 1.36264E+02 3.73383E+01 0.00000E+00
 -1       792 3.40350E+01 1.18003E+01 0.00000E+00
 -1       793 3.10350E+01 1.18003E+01 0.00000E+00
 -1       794 4.00350E+01 1.18003E+01 0.00000E+00
 -1       795 7.30350E+01 1.18003E+01 0.00000E+00
 -1       796 7.60350E+01 1.18003E+01 0.00000E+00
 -1       797 7.90350E+01 1.18003E+01 0.00000E+00
 -1       798 8.20350E+01 1.18003E+01 0.00000E+00
 -1       799 8.50350E+01 1.18003E+01 0.00000E+00
 -1       800 8.80350E+01 1.18003E+01 0.00000E+00
 -1       801 9.10350E+01 1.18003E+01 0.00000E+00
 -1       802 9.40350E+01 1.18003E+01 0.00000E+00
 -1       803 9.70350E+01 1.18003E+01 0.00000E+00
 -1       804 1.00035E+02 1.18003E+01 0.00000E+00
 -1       805 1.03035E+02 1.18003E+01 0.00000E+00
 -1       806 1.06035E+02 1.18003E+01 0.00000E+00
 -1       807 1.09035E+02 1.18003E+01 0.00000E+00
 -1       808 1.12035E+02 1.18003E+01 0.00000E+00
 -1       809 1.15035E+02 1.18003E+01 0.00000E+00
 -1       810 1.18035E+02 1.18003E+01 0.00000E+00
 -1       811 1.21035E+02 1.18003E+01 0.00000E+00
 -1       812 1.24035E+02 1.18003E+01 0.00000E+00
 -1       813 1.27035E+02 1.18003E+01 0.00000E+00
 -1       814 1.30035E+02 1.18003E+01 0.00000E+00
 -1       815 1.33035E+02 1.18003E+01 0.00000E+00
 -1       816 1.36035E+02 1.18003E+01 0.00000E+00
 -1       817 1.37887E+02 1.20223E+01 0.00000E+00
 -1       818 3.72928E+01 2.50091E+01 0.00000E+00
 -1       819 1.29900E+01 2.20250E+01 0.00000E+00
 -1       820 1.37010E+02 2.50250E+01 0.00000E+00
 -1       821 1.37010E+02 2.79250E+01 0.00000E+00
 -1       822 4.27233E+01 3.41419E+01 0.00000E+00
 -1       823 3.96985E+01 1.60403E+01 0.00000E+00
 -1       824 6.44235E+01 1.16551E+01 0.00000E+00
 -1       825 6.15154E+01 3.50516E+01 0.00000E+00
 -1       826 4.10808E+01 1.34593E+01 0.00000E+00
 -1       827 1.37010E+02 3.38250E+01 0.00000E+00
 -1       828 1.37010E+02 3.08750E+01 0.00000E+00
 -1       829 7.00350E+01 1.18003E+01 0.00000E+00
 -1       830 6.72292E+01 1.17277E+01 0.00000E+00
 -1       831 3.70350E+01 1.18003E+01 0.00000E+00
 -1       832 6.54368E+01 3.00219E+01 0.00000E+00
 -1       833 2.20350E+01 1.18003E+01 0.00000E+00
 -1       834 4.31456E+01 1.07436E+01 0.00000E+00
 -1       835 4.56712E+01 3.57897E+01 0.00000E+00
 -1       836 1.66500E+01 3.70100E+01 0.00000E+00
 -1       837 6.65542E+01 2.74624E+01 0.00000E+00
 -1       838 3.83945E+01 1.85986E+01 0.00000E+00
 -1       839 6.40198E+01 3.24297E+01 0.00000E+00
 -1       840 6.76570E+01 2.44734E+01 0.00000E+00
 -1       841 1.29900E+01 2.49750E+01 0.00000E+00
 -1       842 1.37136E+01 1.50524E+01 0.00000E+00
 -1       843 1.29900E+01 3.37938E+01 0.00000E+00
 -1       844 6.68506E+01 1.59830E+01 0.00000E+00
 -1       845 3.58509E+01 2.30672E+01 0.00000E+00
 -1       846 1.39652E+01 3.69017E+01 0.00000E+00
 -1       847 1.37010E+02 1.61875E+01 0.00000E+00
 -1       848 2.80350E+01 1.18003E+01 0.00000E+00
 -1       849 3.71740E+01 2.68295E+01 0.00000E+00
 -1       850 1.29900E+01 1.90875E+01 0.00000E+00
 -1       851 1.37010E+02 1.91375E+01 0.00000E+00
 -1       852 1.63920E+01 1.17250E+01 0.00000E+00
 -1       853 1.37010E+02 2.20812E+01 0.00000E+00
 -1       854 4.06123E+01 3.33757E+01 0.00000E+00
 -1       855 1.29900E+01 3.08563E+01 0.00000E+00
 -1       856 1.92135E+01 1.17626E+01 0.00000E+00
 -1       857 6.90695E+01 2.27180E+01 0.00000E+00
 -1       858 2.50350E+01 1.18003E+01 0.00000E+00
 -1       859 1.36637E+02 3.55817E+01 0.00000E+00
 -1       860 2.11500E+01 3.44120E+01 0.00000E+00
 -1       861 6.85539E+01 1.89309E+01 0.00000E+00
 -1       862 6.78745E+01 2.95624E+01 0.00000E+00
 -1       863 2.41500E+01 3.44120E+01 0.00000E+00
 -1       864 2.71500E+01 3.44120E+01 0.00000E+00
 -1       865 3.01500E+01 3.44120E+01 0.00000E+00
 -1       866 3.31500E+01 3.44120E+01 0.00000E+00
 -1       867 3.61500E+01 3.44120E+01 0.00000E+00
 -1       868 3.72198E+01 1.63884E+01 0.00000E+00
 -1       869 6.61500E+01 3.46246E+01 0.00000E+00
 -1       870 6.91500E+01 3.46246E+01 0.00000E+00
 -1       871 7.21500E+01 3.46246E+01 0.00000E+00
 -1       872 7.51500E+01 3.46246E+01 0.00000E+00
 -1       873 7.81500E+01 3.46246E+01 0.00000E+00
 -1       874 8.11500E+01 3.46246E+01 0.00000E+00
 -1       875 8.41500E+01 3.46246E+01 0.00000E+00
 -1       876 8.71500E+01 3.46246E+01 0.00000E+00
 -1       877 9.01500E+01 3.46246E+01 0.00000E+00
 -1       878 9.31500E+01 3.46246E+01 0.00000E+00
 -1       879 9.61500E+01 3.46246E+01 0.00000E+00
 -1       880 9.91500E+01 3.46246E+01 0.00000E+00
 -1       881 1.02150E+02 3.46246E+01 0.00000E+00
 -1       882 1.05150E+02 3.46246E+01 0.00000E+00
 -1       883 1.08150E+02 3.46246E+01 0.00000E+00
 -1       884 1.11150E+02 3.46246E+01 0.00000E+00
 -1       885 1.14150E+02 3.46246E+01 0.00000E+00
 -1       886 1.17150E+02 3.46246E+01 0.00000E+00
 -1       887 1.20150E+02 3.46246E+01 0.00000E+00
 -1       888 1.23150E+02 3.46246E+01 0.00000E+00
 -1       889 1.26150E+02 3.46246E+01 0.00000E+00
 -1       890 1.29150E+02 3.46246E+01 0.00000E+00
 -1       891 1.32150E+02 3.46246E+01 0.00000E+00
 -1       892 3.25350E+01 1.43982E+01 0.00000E+00
 -1       893 8.05350E+01 1.43982E+01 0.00000E+00
 -1       894 7.75350E+01 1.43982E+01 0.00000E+00
 -1       895 7.45350E+01 1.43982E+01 0.00000E+00
 -1       896 8.35350E+01 1.43982E+01 0.00000E+00
 -1       897 8.65350E+01 1.43982E+01 0.00000E+00
 -1       898 8.95350E+01 1.43982E+01 0.00000E+00
 -1       899 9.25350E+01 1.43982E+01 0.00000E+00
 -1       900 9.55350E+01 1.43982E+01 0.00000E+00
 -1       901 9.85350E+01 1.43982E+01 0.00000E+00
 -1       902 1.01535E+02 1.43982E+01 0.00000E+00
 -1       903 1.04535E+02 1.43982E+01 0.00000E+00
 -1       904 1.07535E+02 1.43982E+01 0.00000E+00
 -1       905 1.10535E+02 1.43982E+01 0.00000E+00
 -1       906 1.13535E+02 1.43982E+01 0.00000E+00
 -1       907 1.16535E+02 1.43982E+01 0.00000E+00
 -1       908 1.19535E+02 1.43982E+01 0.00000E+00
 -1       909 1.22535E+02 1.43982E+01 0.00000E+00
 -1       910 1.25535E+02 1.43982E+01 0.00000E+00
 -1       911 1.28535E+02 1.43982E+01 0.00000E+00
 -1       912 1.31535E+02 1.43982E+01 0.00000E+00
 -1       913 1.34535E+02 1.43982E+01 0.00000E+00
 -1       914 1.37449E+02 1.41049E+01 0.00000E+00
 -1       915 1.34412E+02 2.64750E+01 0.00000E+00
 -1       916 7.15350E+01 1.43982E+01 0.00000E+00
 -1       917 1.29900E+01 2.79188E+01 0.00000E+00
 -1       918 1.81500E+01 3.44120E+01 0.00000E+00
 -1       919 6.95007E+01 2.68516E+01 0.00000E+00
 -1       920 3.82533E+01 3.02217E+01 0.00000E+00
 -1       921 3.59313E+01 1.94660E+01 0.00000E+00
 -1       922 6.66397E+01 3.23506E+01 0.00000E+00
 -1       923 3.83667E+01 1.39203E+01 0.00000E+00
 -1       924 7.04101E+01 2.07594E+01 0.00000E+00
 -1       925 6.90890E+01 1.67720E+01 0.00000E+00
 -1       926 3.47913E+01 2.53603E+01 0.00000E+00
 -1       927 1.55700E+01 3.41029E+01 0.00000E+00
 -1       928 2.95350E+01 1.43982E+01 0.00000E+00
 -1       929 1.34394E+02 3.51031E+01 0.00000E+00
 -1       930 1.70766E+01 1.50178E+01 0.00000E+00
 -1       931 6.84428E+01 1.38916E+01 0.00000E+00
 -1       932 1.34412E+02 2.94250E+01 0.00000E+00
 -1       933 1.34412E+02 2.35313E+01 0.00000E+00
 -1       934 1.34250E+02 1.73983E+01 0.00000E+00
 -1       935 1.55880E+01 2.35000E+01 0.00000E+00
 -1       936 2.05896E+01 1.43792E+01 0.00000E+00
 -1       937 3.54509E+01 1.41593E+01 0.00000E+00
 -1       938 1.63530E+01 1.90528E+01 0.00000E+00
 -1       939 2.35896E+01 1.43792E+01 0.00000E+00
 -1       940 1.34403E+02 3.22641E+01 0.00000E+00
 -1       941 7.09132E+01 2.50962E+01 0.00000E+00
 -1       942 1.55700E+01 3.11654E+01 0.00000E+00
 -1       943 1.59705E+01 2.12764E+01 0.00000E+00
 -1       944 1.81500E+01 3.14745E+01 0.00000E+00
 -1       945 2.26500E+01 3.18140E+01 0.00000E+00
 -1       946 2.56500E+01 3.18140E+01 0.00000E+00
 -1       947 2.86500E+01 3.18140E+01 0.00000E+00
 -1       948 3.16500E+01 3.18140E+01 0.00000E+00
 -1       949 3.46500E+01 3.18140E+01 0.00000E+00
 -1       950 7.06500E+01 3.20266E+01 0.00000E+00
 -1       951 7.36500E+01 3.20266E+01 0.00000E+00
 -1       952 7.66500E+01 3.20266E+01 0.00000E+00
 -1       953 7.96500E+01 3.20266E+01 0.00000E+00
 -1       954 8.26500E+01 3.20266E+01 0.00000E+00
 -1       955 8.56500E+01 3.20266E+01 0.00000E+00
 -1       956 8.86500E+01 3.20266E+01 0.00000E+00
 -1       957 9.16500E+01 3.20266E+01 0.00000E+00
 -1       958 9.46500E+01 3.20266E+01 0.00000E+00
 -1       959 9.76500E+01 3.20266E+01 0.00000E+00
 -1       960 1.00650E+02 3.20266E+01 0.00000E+00
 -1       961 1.03650E+02 3.20266E+01 0.00000E+00
 -1       962 1.06650E+02 3.20266E+01 0.00000E+00
 -1       963 1.09650E+02 3.20266E+01 0.00000E+00
 -1       964 1.12650E+02 3.20266E+01 0.00000E+00
 -1       965 1.15650E+02 3.20266E+01 0.00000E+00
 -1       966 1.18650E+02 3.20266E+01 0.00000E+00
 -1       967 1.21650E+02 3.20266E+01 0.00000E+00
 -1       968 1.24650E+02 3.20266E+01 0.00000E+00
 -1       969 1.27650E+02 3.20266E+01 0.00000E+00
 -1       970 1.30650E+02 3.20266E+01 0.00000E+00
 -1       971 3.52380E+01 2.93133E+01 0.00000E+00
 -1       972 8.50350E+01 1.69963E+01 0.00000E+00
 -1       973 8.20350E+01 1.69963E+01 0.00000E+00
 -1       974 8.80350E+01 1.69963E+01 0.00000E+00
 -1       975 9.10350E+01 1.69963E+01 0.00000E+00
 -1       976 9.40350E+01 1.69963E+01 0.00000E+00
 -1       977 9.70350E+01 1.69963E+01 0.00000E+00
 -1       978 1.00035E+02 1.69963E+01 0.00000E+00
 -1       979 1.03035E+02 1.69963E+01 0.00000E+00
 -1       980 1.06035E+02 1.69963E+01 0.00000E+00
 -1       981 1.09035E+02 1.69963E+01 0.00000E+00
 -1       982 1.12035E+02 1.69963E+01 0.00000E+00
 -1       983 1.15035E+02 1.69963E+01 0.00000E+00
 -1       984 1.18035E+02 1.69963E+01 0.00000E+00
 -1       985 1.21035E+02 1.69963E+01 0.00000E+00
 -1       986 1.24035E+02 1.69963E+01 0.00000E+00
 -1       987 1.27035E+02 1.69963E+01 0.00000E+00
 -1       988 1.30035E+02 1.69963E+01 0.00000E+00
 -1       989 3.45298E+01 1.70706E+01 0.00000E+00
 -1       990 7.30350E+01 1.69963E+01 0.00000E+00
 -1       991 2.04000E+01 3.16443E+01 0.00000E+00
 -1       992 1.55880E+01 2.64438E+01 0.00000E+00
 -1       993 1.55790E+01 2.88046E+01 0.00000E+00
 -1       994 3.29627E+01 2.31240E+01 0.00000E+00
 -1       995 7.60350E+01 1.69963E+01 0.00000E+00
 -1       996 7.90350E+01 1.69963E+01 0.00000E+00
 -1       997 1.98660E+01 1.84143E+01 0.00000E+00
 -1       998 7.05894E+01 2.93479E+01 0.00000E+00
 -1       999 1.34412E+02 2.05875E+01 0.00000E+00
 -1      1000 2.65623E+01 1.43887E+01 0.00000E+00
 -1      1001 3.37463E+01 2.00973E+01 0.00000E+00
 -1      1002 1.30197E+02 2.01854E+01 0.00000E+00
 -1      1003 7.09453E+01 1.86006E+01 0.00000E+00
 -1      1004 3.10350E+01 1.69963E+01 0.00000E+00
 -1      1005 1.83396E+01 2.28287E+01 0.00000E+00
 -1      1006 3.24330E+01 2.76285E+01 0.00000E+00
 -1      1007 7.20019E+01 2.75925E+01 0.00000E+00
 -1      1008 1.31814E+02 2.79500E+01 0.00000E+00
 -1      1009 7.22538E+01 2.31376E+01 0.00000E+00
 -1      1010 1.31814E+02 2.50063E+01 0.00000E+00
 -1      1011 1.83396E+01 2.57724E+01 0.00000E+00
 -1      1012 2.28660E+01 1.84143E+01 0.00000E+00
 -1      1013 3.06045E+01 2.53922E+01 0.00000E+00
 -1      1014 8.65350E+01 1.95942E+01 0.00000E+00
 -1      1015 1.81590E+01 2.91137E+01 0.00000E+00
 -1      1016 2.71500E+01 2.92160E+01 0.00000E+00
 -1      1017 7.35894E+01 2.93479E+01 0.00000E+00
 -1      1018 7.65894E+01 2.93479E+01 0.00000E+00
 -1      1019 7.95894E+01 2.93479E+01 0.00000E+00
 -1      1020 8.25894E+01 2.93479E+01 0.00000E+00
 -1      1021 8.55894E+01 2.93479E+01 0.00000E+00
 -1      1022 8.85894E+01 2.93479E+01 0.00000E+00
 -1      1023 9.15894E+01 2.93479E+01 0.00000E+00
 -1      1024 9.45894E+01 2.93479E+01 0.00000E+00
 -1      1025 9.75894E+01 2.93479E+01 0.00000E+00
 -1      1026 1.00589E+02 2.93479E+01 0.00000E+00
 -1      1027 1.03589E+02 2.93479E+01 0.00000E+00
 -1      1028 1.06589E+02 2.93479E+01 0.00000E+00
 -1      1029 1.09589E+02 2.93479E+01 0.00000E+00
 -1      1030 1.12589E+02 2.93479E+01 0.00000E+00
 -1      1031 1.15589E+02 2.93479E+01 0.00000E+00
 -1      1032 1.18589E+02 2.93479E+01 0.00000E+00
 -1      1033 1.21589E+02 2.93479E+01 0.00000E+00
 -1      1034 1.24589E+02 2.93479E+01 0.00000E+00
 -1      1035 1.27589E+02 2.93479E+01 0.00000E+00
 -1      1036 8.35350E+01 1.95942E+01 0.00000E+00
 -1      1037 8.95350E+01 1.95942E+01 0.00000E+00
 -1      1038 1.94835E+01 2.06378E+01 0.00000E+00
 -1      1039 9.25350E+01 1.95942E+01 0.00000E+00
 -1      1040 9.55350E+01 1.95942E+01 0.00000E+00
 -1      1041 9.85350E+01 1.95942E+01 0.00000E+00
 -1      1042 1.01535E+02 1.95942E+01 0.00000E+00
 -1      1043 1.04535E+02 1.95942E+01 0.00000E+00
 -1      1044 1.07535E+02 1.95942E+01 0.00000E+00
 -1      1045 1.10535E+02 1.95942E+01 0.00000E+00
 -1      1046 1.13535E+02 1.95942E+01 0.00000E+00
 -1      1047 1.16535E+02 1.95942E+01 0.00000E+00
 -1      1048 1.19535E+02 1.95942E+01 0.00000E+00
 -1      1049 1.22535E+02 1.95942E+01 0.00000E+00
 -1      1050 1.25535E+02 1.95942E+01 0.00000E+00
 -1      1051 1.27866E+02 1.98898E+01 0.00000E+00
 -1      1052 7.75350E+01 1.95942E+01 0.00000E+00
 -1      1053 2.41500E+01 2.92160E+01 0.00000E+00
 -1      1054 7.45350E+01 1.95942E+01 0.00000E+00
 -1      1055 8.05350E+01 1.95942E+01 0.00000E+00
 -1      1056 2.80623E+01 1.69867E+01 0.00000E+00
 -1      1057 3.20415E+01 2.97213E+01 0.00000E+00
 -1      1058 1.31005E+02 2.25958E+01 0.00000E+00
 -1      1059 2.04090E+01 2.92834E+01 0.00000E+00
 -1      1060 3.04348E+01 2.02568E+01 0.00000E+00
 -1      1061 3.01500E+01 2.92160E+01 0.00000E+00
 -1      1062 2.24835E+01 2.06378E+01 0.00000E+00
 -1      1063 7.33425E+01 2.56340E+01 0.00000E+00
 -1      1064 1.27589E+02 2.64042E+01 0.00000E+00
 -1      1065 7.33944E+01 2.13659E+01 0.00000E+00
 -1      1066 2.09376E+01 2.43005E+01 0.00000E+00
 -1      1067 2.54642E+01 1.77005E+01 0.00000E+00
 -1      1068 2.17106E+01 2.24692E+01 0.00000E+00
 -1      1069 2.99826E+01 2.23856E+01 0.00000E+00
 -1      1070 2.06733E+01 2.67920E+01 0.00000E+00
 -1      1071 2.77234E+01 2.00431E+01 0.00000E+00
 -1      1072 8.80350E+01 2.21922E+01 0.00000E+00
 -1      1073 7.50019E+01 2.75925E+01 0.00000E+00
 -1      1074 7.80894E+01 2.67499E+01 0.00000E+00
 -1      1075 8.10894E+01 2.67499E+01 0.00000E+00
 -1      1076 8.40894E+01 2.67499E+01 0.00000E+00
 -1      1077 8.70894E+01 2.67499E+01 0.00000E+00
 -1      1078 9.00894E+01 2.67499E+01 0.00000E+00
 -1      1079 9.30894E+01 2.67499E+01 0.00000E+00
 -1      1080 9.60894E+01 2.67499E+01 0.00000E+00
 -1      1081 9.90894E+01 2.67499E+01 0.00000E+00
 -1      1082 1.02089E+02 2.67499E+01 0.00000E+00
 -1      1083 1.05089E+02 2.67499E+01 0.00000E+00
 -1      1084 1.08089E+02 2.67499E+01 0.00000E+00
 -1      1085 1.11089E+02 2.67499E+01 0.00000E+00
 -1      1086 1.14089E+02 2.67499E+01 0.00000E+00
 -1      1087 1.17089E+02 2.67499E+01 0.00000E+00
 -1      1088 1.20089E+02 2.67499E+01 0.00000E+00
 -1      1089 1.23089E+02 2.67499E+01 0.00000E+00
 -1      1090 1.25339E+02 2.65771E+01 0.00000E+00
 -1      1091 8.50350E+01 2.21922E+01 0.00000E+00
 -1      1092 9.40350E+01 2.21922E+01 0.00000E+00
 -1      1093 9.70350E+01 2.21922E+01 0.00000E+00
 -1      1094 1.00035E+02 2.21922E+01 0.00000E+00
 -1      1095 1.03035E+02 2.21922E+01 0.00000E+00
 -1      1096 1.06035E+02 2.21922E+01 0.00000E+00
 -1      1097 1.09035E+02 2.21922E+01 0.00000E+00
 -1      1098 1.12035E+02 2.21922E+01 0.00000E+00
 -1      1099 1.15035E+02 2.21922E+01 0.00000E+00
 -1      1100 1.18035E+02 2.21922E+01 0.00000E+00
 -1      1101 1.21035E+02 2.21922E+01 0.00000E+00
 -1      1102 1.24035E+02 2.21922E+01 0.00000E+00
 -1      1103 2.76045E+01 2.53922E+01 0.00000E+00
 -1      1104 7.90350E+01 2.21922E+01 0.00000E+00
 -1      1105 7.60350E+01 2.21922E+01 0.00000E+00
 -1      1106 2.41389E+01 2.60921E+01 0.00000E+00
 -1      1107 8.20350E+01 2.21922E+01 0.00000E+00
 -1      1108 9.10350E+01 2.21922E+01 0.00000E+00
 -1      1109 2.51253E+01 2.07568E+01 0.00000E+00
 -1      1110 2.63649E+01 2.30745E+01 0.00000E+00
 -1      1111 1.28674E+02 2.23002E+01 0.00000E+00
 -1      1112 7.44831E+01 2.38623E+01 0.00000E+00
 -1      1113 1.26366E+02 2.24878E+01 0.00000E+00
 -1      1114 7.95894E+01 2.41519E+01 0.00000E+00
 -1      1115 7.64660E+01 2.48930E+01 0.00000E+00
 -1      1116 2.40377E+01 2.27718E+01 0.00000E+00
 -1      1117 1.26106E+02 2.49989E+01 0.00000E+00
 -1      1118 0.00000E+00 4.85250E+01 0.00000E+00
 -1      1119 0.00000E+00 4.55750E+01 0.00000E+00
 -1      1120 0.00000E+00 4.26250E+01 0.00000E+00
 -1      1121 0.00000E+00 3.96750E+01 0.00000E+00
 -1      1122 0.00000E+00 3.67250E+01 0.00000E+00
 -1      1123 0.00000E+00 3.38000E+01 0.00000E+00
 -1      1124 0.00000E+00 3.08750E+01 0.00000E+00
 -1      1125 0.00000E+00 2.79250E+01 0.00000E+00
 -1      1126 0.00000E+00 2.49750E+01 0.00000E+00
 -1      1127 0.00000E+00 2.20250E+01 0.00000E+00
 -1      1128 0.00000E+00 1.90750E+01 0.00000E+00
 -1      1129 0.00000E+00 1.61500E+01 0.00000E+00
 -1      1130 0.00000E+00 1.32250E+01 0.00000E+00
 -1      1131 0.00000E+00 1.02750E+01 0.00000E+00
 -1      1132 0.00000E+00 7.32500E+00 0.00000E+00
 -1      1133 0.00000E+00 4.37500E+00 0.00000E+00
 -1      1134 0.00000E+00 1.45000E+00 0.00000E+00
 -1      1135 1.57500E+00 5.00000E+01 0.00000E+00
 -1      1136 4.65000E+00 5.00000E+01 0.00000E+00
 -1      1137 7.65000E+00 5.00000E+01 0.00000E+00
 -1      1138 1.06500E+01 5.00000E+01 0.00000E+00
 -1      1139 1.36500E+01 5.00000E+01 0.00000E+00
 -1      1140 1.66500E+01 5.00000E+01 0.00000E+00
 -1      1141 1.96500E+01 5.00000E+01 0.00000E+00
 -1      1142 2.26500E+01 5.00000E+01 0.00000E+00
 -1      1143 2.56500E+01 5.00000E+01 0.00000E+00
 -1      1144 2.86500E+01 5.00000E+01 0.00000E+00
 -1      1145 3.16500E+01 5.00000E+01 0.00000E+00
 -1      1146 3.46500E+01 5.00000E+01 0.00000E+00
 -1      1147 3.76500E+01 5.00000E+01 0.00000E+00
 -1      1148 4.06500E+01 5.00000E+01 0.00000E+00
 -1      1149 4.36500E+01 5.00000E+01 0.00000E+00
 -1      1150 4.66500E+01 5.00000E+01 0.00000E+00
 -1      1151 4.96500E+01 5.00000E+01 0.00000E+00
 -1      1152 5.26500E+01 5.00000E+01 0.00000E+00
 -1      1153 5.56500E+01 5.00000E+01 0.00000E+00
 -1      1154 5.86500E+01 5.00000E+01 0.00000E+00
 -1      1155 6.16500E+01 5.00000E+01 0.00000E+00
 -1      1156 6.46500E+01 5.00000E+01 0.00000E+00
 -1      1157 6.76500E+01 5.00000E+01 0.00000E+00
 -1      1158 7.06500E+01 5.00000E+01 0.00000E+00
 -1      1159 7.36500E+01 5.00000E+01 0.00000E+00
 -1      1160 7.66500E+01 5.00000E+01 0.00000E+00
 -1      1161 7.96500E+01 5.00000E+01 0.00000E+00
 -1      1162 8.26500E+01 5.00000E+01 0.00000E+00
 -1      1163 8.56500E+01 5.00000E+01 0.00000E+00
 -1      1164 8.86500E+01 5.00000E+01 0.00000E+00
 -1      1165 9.16500E+01 5.00000E+01 0.00000E+00
 -1      1166 9.46500E+01 5.00000E+01 0.00000E+00
 -1      1167 9.76500E+01 5.00000E+01 0.00000E+00
 -1      1168 1.00650E+02 5.00000E+01 0.00000E+00
 -1      1169 1.03650E+02 5.00000E+01 0.00000E+00
 -1      1170 1.06650E+02 5.00000E+01 0.00000E+00
 -1      1171 1.09650E+02 5.00000E+01 0.00000E+00
 -1      1172 1.12650E+02 5.00000E+01 0.00000E+00
 -1      1173 1.15650E+02 5.00000E+01 0.00000E+00
 -1      1174 1.18650E+02 5.00000E+01 0.00000E+00
 -1      1175 1.21650E+02 5.00000E+01 0.00000E+00
 -1      1176 1.24650E+02 5.00000E+01 0.00000E+00
 -1      1177 1.27650E+02 5.00000E+01 0.00000E+00
 -1      1178 1.30650E+02 5.00000E+01 0.00000E+00
 -1      1179 1.33650E+02 5.00000E+01 0.00000E+00
 -1      1180 1.36650E+02 5.00000E+01 0.00000E+00
 -1      1181 1.39650E+02 5.00000E+01 0.00000E+00
 -1      1182 1.42650E+02 5.00000E+01 0.00000E+00
 -1      1183 1.45650E+02 5.00000E+01 0.00000E+00
 -1      1184 1.48575E+02 5.00000E+01 0.00000E+00
 -1      1185 1.57500E+00 0.00000E+00 0.00000E+00
 -1      1186 4.65000E+00 0.00000E+00 0.00000E+00
 -1      1187 7.65000E+00 0.00000E+00 0.00000E+00
 -1      1188 1.06500E+01 0.00000E+00 0.00000E+00
 -1      1189 1.36500E+01 0.00000E+00 0.00000E+00
 -1      1190 1.66500E+01 0.00000E+00 0.00000E+00
 -1      1191 1.96500E+01 0.00000E+00 0.00000E+00
 -1      1192 2.26500E+01 0.00000E+00 0.00000E+00
 -1      1193 2.56500E+01 0.00000E+00 0.00000E+00
 -1      1194 2.86500E+01 0.00000E+00 0.00000E+00
 -1      1195 3.16500E+01 0.00000E+00 0.00000E+00
 -1      1196 3.46500E+01 0.00000E+00 0.00000E+00
 -1      1197 3.76500E+01 0.00000E+00 0.00000E+00
 -1      1198 4.06500E+01 0.00000E+00 0.00000E+00
 -1      1199 4.36500E+01 0.00000E+00 0.00000E+00
 -1      1200 4.66500E+01 0.00000E+00 0.00000E+00
 -1      1201 4.96500E+01 0.00000E+00 0.00000E+00
 -1      1202 5.26500E+01 0.00000E+00 0.00000E+00
 -1      1203 5.56500E+01 0.00000E+00 0.00000E+00
 -1      1204 5.86500E+01 0.00000E+00 0.00000E+00
 -1      1205 6.16500E+01 0.00000E+00 0.00000E+00
 -1      1206 6.46500E+01 0.00000E+00 0.00000E+00
 -1      1207 6.76500E+01 0.00000E+00 0.00000E+00
 -1      1208 7.06500E+01 0.00000E+00 0.00000E+00
 -1      1209 7.36500E+01 0.00000E+00 0.00000E+00
 -1      1210 7.66500E+01 0.00000E+00 0.00000E+00
 -1      1211 7.96500E+01 0.00000E+00 0.00000E+00
 -1      1212 8.26500E+01 0.00000E+00 0.00000E+00
 -1      1213 8.56500E+01 0.00000E+00 0.00000E+00
 -1      1214 8.86500E+01 0.00000E+00 0.00000E+00
 -1      1215 9.16500E+01 0.00000E+00 0.00000E+00
 -1      1216 9.46500E+01 0.00000E+00 0.00000E+00
 -1      1217 9.76500E+01 0.00000E+00 0.00000E+00
 -1      1218 1.00650E+02 0.00000E+00 0.00000E+00
 -1      1219 1.03650E+02 0.00000E+00 0.00000E+00
 -1      1220 1.06650E+02 0.00000E+00 0.00000E+00
 -1      1221 1.09650E+02 0.00000E+00 0.00000E+00
 -1      1222 1.12650E+02 0.00000E+00 0.00000E+00
 -1      1223 1.15650E+02 0.00000E+00 0.00000E+00
 -1      1224 1.18650E+02 0.00000E+00 0.00000E+00
 -1      1225 1.21650E+02 0.00000E+00 0.00000E+00
 -1      1226 1.24650E+02 0.00000E+00 0.00000E+00
 -1      1227 1.27650E+02 0.00000E+00 0.00000E+00
 -1      1228 1.30650E+02 0.00000E+00 0.00000E+00
 -1      1229 1.33650E+02 0.00000E+00 0.00000E+00
 -1      1230 1.36650E+02 0.00000E+00 0.00000E+00
 -1      1231 1.39650E+02 0.00000E+00 0.00000E+00
 -1      1232 1.42650E+02 0.00000E+00 0.00000E+00
 -1      1233 1.45650E+02 0.00000E+00 0.00000E+00
 -1      1234 1.48575E+02 0.00000E+00 0.00000E+00
 -1      1235 1.50000E+02 1.47500E+00 0.00000E+00
 -1      1236 1.50000E+02 4.42500E+00 0.00000E+00
 -1      1237 1.50000E+02 7.37500E+00 0.00000E+00
 -1      1238 1.50000E+02 1.03250E+01 0.00000E+00
 -1      1239 1.50000E+02 1.32750E+01 0.00000E+00
 -1      1240 1.50000E+02 1.62000E+01 0.00000E+00
 -1      1241 1.50000E+02 1.91250E+01 0.00000E+00
 -1      1242 1.50000E+02 2.20750E+01 0.00000E+00
 -1      1243 1.50000E+02 2.50250E+01 0.00000E+00
 -1      1244 1.50000E+02 2.79750E+01 0.00000E+00
 -1      1245 1.50000E+02 3.09250E+01 0.00000E+00
 -1      1246 1.50000E+02 3.38500E+01 0.00000E+00
 -1      1247 1.50000E+02 3.67750E+01 0.00000E+00
 -1      1248 1.50000E+02 3.97250E+01 0.00000E+00
 -1      1249 1.50000E+02 4.26750E+01 0.00000E+00
 -1      1250 1.50000E+02 4.56250E+01 0.00000E+00
 -1      1251 1.50000E+02 4.85500E+01 0.00000E+00
 -1      1252 5.97207E+01 2.17034E+01 0.00000E+00
 -1      1253 5.93848E+01 2.01936E+01 0.00000E+00
 -1      1254 5.87426E+01 1.88224E+01 0.00000E+00
 -1      1255 5.78087E+01 1.76090E+01 0.00000E+00
 -1      1256 5.66433E+01 1.66343E+01 0.00000E+00
 -1      1257 5.53579E+01 1.59588E+01 0.00000E+00
 -1      1258 5.38724E+01 1.55482E+01 0.00000E+00
 -1      1259 5.23534E+01 1.54714E+01 0.00000E+00
 -1      1260 5.08911E+01 1.57141E+01 0.00000E+00
 -1      1261 4.95152E+01 1.62578E+01 0.00000E+00
 -1      1262 4.83129E+01 1.70551E+01 0.00000E+00
 -1      1263 4.72687E+01 1.81204E+01 0.00000E+00
 -1      1264 4.64597E+01 1.94125E+01 0.00000E+00
 -1      1265 4.59651E+01 2.07842E+01 0.00000E+00
 -1      1266 4.57656E+01 2.22247E+01 0.00000E+00
 -1      1267 4.58759E+01 2.37189E+01 0.00000E+00
 -1      1268 4.62999E+01 2.51512E+01 0.00000E+00
 -1      1269 4.70977E+01 2.65727E+01 0.00000E+00
 -1      1270 4.81645E+01 2.77383E+01 0.00000E+00
 -1      1271 4.94447E+01 2.86237E+01 0.00000E+00
 -1      1272 5.09077E+01 2.92095E+01 0.00000E+00
 -1      1273 5.23727E+01 2.94487E+01 0.00000E+00
 -1      1274 5.38703E+01 2.93712E+01 0.00000E+00
 -1      1275 5.53147E+01 2.89773E+01 0.00000E+00
 -1      1276 5.66554E+01 2.82766E+01 0.00000E+00
 -1      1277 5.78004E+01 2.73186E+01 0.00000E+00
 -1      1278 5.87319E+01 2.61141E+01 0.00000E+00
 -1      1279 5.93988E+01 2.46840E+01 0.00000E+00
 -1      1280 5.97234E+01 2.31903E+01 0.00000E+00
 -1      1281 1.57500E+00 4.85250E+01 0.00000E+00
 -1      1282 1.29900E+00 4.48375E+01 0.00000E+00
 -1      1283 1.29900E+00 4.63125E+01 0.00000E+00
 -1      1284 1.29900E+00 4.18875E+01 0.00000E+00
 -1      1285 1.29900E+00 4.33625E+01 0.00000E+00
 -1      1286 2.59800E+00 4.41000E+01 0.00000E+00
 -1      1287 1.29900E+00 3.89375E+01 0.00000E+00
 -1      1288 1.29900E+00 4.04125E+01 0.00000E+00
 -1      1289 2.59800E+00 4.11500E+01 0.00000E+00
 -1      1290 1.29900E+00 3.59875E+01 0.00000E+00
 -1      1291 1.29900E+00 3.74625E+01 0.00000E+00
 -1      1292 2.59800E+00 3.82000E+01 0.00000E+00
 -1      1293 1.29900E+00 3.30875E+01 0.00000E+00
 -1      1294 1.29900E+00 3.45375E+01 0.00000E+00
 -1      1295 2.59800E+00 3.52750E+01 0.00000E+00
 -1      1296 1.29900E+00 3.01375E+01 0.00000E+00
 -1      1297 1.29900E+00 3.16125E+01 0.00000E+00
 -1      1298 2.59800E+00 3.23500E+01 0.00000E+00
 -1      1299 1.29900E+00 2.71875E+01 0.00000E+00
 -1      1300 1.29900E+00 2.86625E+01 0.00000E+00
 -1      1301 2.59800E+00 2.94000E+01 0.00000E+00
 -1      1302 1.29900E+00 2.42375E+01 0.00000E+00
 -1      1303 1.29900E+00 2.57125E+01 0.00000E+00
 -1      1304 2.59800E+00 2.64500E+01 0.00000E+00
 -1      1305 1.29900E+00 2.12875E+01 0.00000E+00
 -1      1306 1.29900E+00 2.27625E+01 0.00000E+00
 -1      1307 2.59800E+00 2.35000E+01 0.00000E+00
 -1      1308 1.29900E+00 1.83375E+01 0.00000E+00
 -1      1309 1.29900E+00 1.98125E+01 0.00000E+00
 -1      1310 2.59800E+00 2.05500E+01 0.00000E+00
 -1      1311 1.29900E+00 1.54375E+01 0.00000E+00
 -1      1312 1.29900E+00 1.68875E+01 0.00000E+00
 -1      1313 2.59800E+00 1.76250E+01 0.00000E+00
 -1      1314 1.29900E+00 1.24875E+01 0.00000E+00
 -1      1315 1.29900E+00 1.39625E+01 0.00000E+00
 -1      1316 2.59800E+00 1.47000E+01 0.00000E+00
 -1      1317 1.29900E+00 9.53750E+00 0.00000E+00
 -1      1318 1.29900E+00 1.10125E+01 0.00000E+00
 -1      1319 2.59800E+00 1.17500E+01 0.00000E+00
 -1      1320 1.29900E+00 6.58750E+00 0.00000E+00
 -1      1321 1.29900E+00 8.06250E+00 0.00000E+00
 -1      1322 2.59800E+00 8.80000E+00 0.00000E+00
 -1      1323 1.29900E+00 3.63750E+00 0.00000E+00
 -1      1324 1.29900E+00 5.11250E+00 0.00000E+00
 -1      1325 2.59800E+00 5.85000E+00 0.00000E+00
 -1      1326 1.43700E+00 1.09375E+00 0.00000E+00
 -1      1327 1.43700E+00 2.54375E+00 0.00000E+00
 -1      1328 2.73600E+00 3.28125E+00 0.00000E+00
 -1      1329 3.01200E+00 1.09375E+00 0.00000E+00
 -1      1330 3.90000E+00 4.87010E+01 0.00000E+00
 -1      1331 5.40000E+00 4.87010E+01 0.00000E+00
 -1      1332 6.90000E+00 4.87010E+01 0.00000E+00
 -1      1333 8.40000E+00 4.87010E+01 0.00000E+00
 -1      1334 6.15000E+00 4.74020E+01 0.00000E+00
 -1      1335 9.90000E+00 4.87010E+01 0.00000E+00
 -1      1336 1.14000E+01 4.87010E+01 0.00000E+00
 -1      1337 9.15000E+00 4.74020E+01 0.00000E+00
 -1      1338 1.29000E+01 4.87010E+01 0.00000E+00
 -1      1339 1.44000E+01 4.87010E+01 0.00000E+00
 -1      1340 1.21500E+01 4.74020E+01 0.00000E+00
 -1      1341 1.59000E+01 4.87010E+01 0.00000E+00
 -1      1342 1.74000E+01 4.87010E+01 0.00000E+00
 -1      1343 1.51500E+01 4.74020E+01 0.00000E+00
 -1      1344 1.89000E+01 4.87010E+01 0.00000E+00
 -1      1345 2.04000E+01 4.87010E+01 0.00000E+00
 -1      1346 1.81500E+01 4.74020E+01 0.00000E+00
 -1      1347 2.19000E+01 4.87010E+01 0.00000E+00
 -1      1348 2.34000E+01 4.87010E+01 0.00000E+00
 -1      1349 2.11500E+01 4.74020E+01 0.00000E+00
 -1      1350 2.49000E+01 4.87010E+01 0.00000E+00
 -1      1351 2.64000E+01 4.87010E+01 0.00000E+00
 -1      1352 2.41500E+01 4.74020E+01 0.00000E+00
 -1      1353 2.79000E+01 4.87010E+01 0.00000E+00
 -1      1354 2.94000E+01 4.87010E+01 0.00000E+00
 -1      1355 2.71500E+01 4.74020E+01 0.00000E+00
 -1      1356 3.09000E+01 4.87010E+01 0.00000E+00
 -1      1357 3.24000E+01 4.87010E+01 0.00000E+00
 -1      1358 3.01500E+01 4.74020E+01 0.00000E+00
 -1      1359 3.39000E+01 4.87010E+01 0.00000E+00
 -1      1360 3.54000E+01 4.87010E+01 0.00000E+00
 -1      1361 3.31500E+01 4.74020E+01 0.00000E+00
 -1      1362 3.69000E+01 4.87010E+01 0.00000E+00
 -1      1363 3.84000E+01 4.87010E+01 0.00000E+00
 -1      1364 3.61500E+01 4.74020E+01 0.00000E+00
 -1      1365 3.99000E+01 4.87010E+01 0.00000E+00
 -1      1366 4.14000E+01 4.87010E+01 0.00000E+00
 -1      1367 3.91500E+01 4.74020E+01 0.00000E+00
 -1      1368 4.29000E+01 4.87010E+01 0.00000E+00
 -1      1369 4.44000E+01 4.87010E+01 0.00000E+00
 -1      1370 4.21500E+01 4.74020E+01 0.00000E+00
 -1      1371 4.59000E+01 4.87010E+01 0.00000E+00
 -1      1372 4.74000E+01 4.87010E+01 0.00000E+00
 -1      1373 4.51500E+01 4.74020E+01 0.00000E+00
 -1      1374 4.89000E+01 4.87010E+01 0.00000E+00
 -1      1375 5.04000E+01 4.87010E+01 0.00000E+00
 -1      1376 4.81500E+01 4.74020E+01 0.00000E+00
 -1      1377 5.19000E+01 4.87010E+01 0.00000E+00
 -1      1378 5.34000E+01 4.87010E+01 0.00000E+00
 -1      1379 5.11500E+01 4.74020E+01 0.00000E+00
 -1      1380 5.49000E+01 4.87010E+01 0.00000E+00
 -1      1381 5.64000E+01 4.87010E+01 0.00000E+00
 -1      1382 5.41500E+01 4.74020E+01 0.00000E+00
 -1      1383 5.79000E+01 4.87010E+01 0.00000E+00
 -1      1384 5.94000E+01 4.87010E+01 0.00000E+00
 -1      1385 5.71500E+01 4.74020E+01 0.00000E+00
 -1      1386 6.09000E+01 4.87010E+01 0.00000E+00
 -1      1387 6.24000E+01 4.87010E+01 0.00000E+00
 -1      1388 6.01500E+01 4.74020E+01 0.00000E+00
 -1      1389 6.39000E+01 4.87010E+01 0.00000E+00
 -1      1390 6.54000E+01 4.87010E+01 0.00000E+00
 -1      1391 6.31500E+01 4.74020E+01 0.00000E+00
 -1      1392 6.69000E+01 4.87010E+01 0.00000E+00
 -1      1393 6.84000E+01 4.87010E+01 0.00000E+00
 -1      1394 6.61500E+01 4.74020E+01 0.00000E+00
 -1      1395 6.99000E+01 4.87010E+01 0.00000E+00
 -1      1396 7.14000E+01 4.87010E+01 0.00000E+00
 -1      1397 6.91500E+01 4.74020E+01 0.00000E+00
 -1      1398 7.29000E+01 4.87010E+01 0.00000E+00
 -1      1399 7.44000E+01 4.87010E+01 0.00000E+00
 -1      1400 7.21500E+01 4.74020E+01 0.00000E+00
 -1      1401 7.59000E+01 4.87010E+01 0.00000E+00
 -1      1402 7.74000E+01 4.87010E+01 0.00000E+00
 -1      1403 7.51500E+01 4.74020E+01 0.00000E+00
 -1      1404 7.89000E+01 4.87010E+01 0.00000E+00
 -1      1405 8.04000E+01 4.87010E+01 0.00000E+00
 -1      1406 7.81500E+01 4.74020E+01 0.00000E+00
 -1      1407 8.19000E+01 4.87010E+01 0.00000E+00
 -1      1408 8.34000E+01 4.87010E+01 0.00000E+00
 -1      1409 8.11500E+01 4.74020E+01 0.00000E+00
 -1      1410 8.49000E+01 4.87010E+01 0.00000E+00
 -1      1411 8.64000E+01 4.87010E+01 0.00000E+00
 -1      1412 8.41500E+01 4.74020E+01 0.00000E+00
 -1      1413 8.79000E+01 4.87010E+01 0.00000E+00
 -1      1414 8.94000E+01 4.87010E+01 0.00000E+00
 -1      1415 8.71500E+01 4.74020E+01 0.00000E+00
 -1      1416 9.09000E+01 4.87010E+01 0.00000E+00
 -1      1417 9.24000E+01 4.87010E+01 0.00000E+00
 -1      1418 9.01500E+01 4.74020E+01 0.00000E+00
 -1      1419 9.39000E+01 4.87010E+01 0.00000E+00
 -1      1420 9.54000E+01 4.87010E+01 0.00000E+00
 -1      1421 9.31500E+01 4.74020E+01 0.00000E+00
 -1      1422 9.69000E+01 4.87010E+01 0.00000E+00
 -1      1423 9.84000E+01 4.87010E+01 0.00000E+00
 -1      1424 9.61500E+01 4.74020E+01 0.00000E+00
 -1      1425 9.99000E+01 4.87010E+01 0.00000E+00
 -1      1426 1.01400E+02 4.87010E+01 0.00000E+00
 -1      1427 9.91500E+01 4.74020E+01 0.00000E+00
 -1      1428 1.02900E+02 4.87010E+01 0.00000E+00
 -1      1429 1.04400E+02 4.87010E+01 0.00000E+00
 -1      1430 1.02150E+02 4.74020E+01 0.00000E+00
 -1      1431 1.05900E+02 4.87010E+01 0.00000E+00
 -1      1432 1.07400E+02 4.87010E+01 0.00000E+00
 -1      1433 1.05150E+02 4.74020E+01 0.00000E+00
 -1      1434 1.08900E+02 4.87010E+01 0.00000E+00
 -1      1435 1.10400E+02 4.87010E+01 0.00000E+00
 -1      1436 1.08150E+02 4.74020E+01 0.00000E+00
 -1      1437 1.11900E+02 4.87010E+01 0.00000E+00
 -1      1438 1.13400E+02 4.87010E+01 0.00000E+00
 -1      1439 1.11150E+02 4.74020E+01 0.00000E+00
 -1      1440 1.14900E+02 4.87010E+01 0.00000E+00
 -1      1441 1.16400E+02 4.87010E+01 0.00000E+00
 -1      1442 1.14150E+02 4.74020E+01 0.00000E+00
 -1      1443 1.17900E+02 4.87010E+01 0.00000E+00
 -1      1444 1.19400E+02 4.87010E+01 0.00000E+00
 -1      1445 1.17150E+02 4.74020E+01 0.00000E+00
 -1      1446 1.20900E+02 4.87010E+01 0.00000E+00
 -1      1447 1.22400E+02 4.87010E+01 0.00000E+00
 -1      1448 1.20150E+02 4.74020E+01 0.00000E+00
 -1      1449 1.23900E+02 4.87010E+01 0.00000E+00
 -1      1450 1.25400E+02 4.87010E+01 0.00000E+00
 -1      1451 1.23150E+02 4.74020E+01 0.00000E+00
 -1      1452 1.26900E+02 4.87010E+01 0.00000E+00
 -1      1453 1.28400E+02 4.87010E+01 0.00000E+00
 -1      1454 1.26150E+02 4.74020E+01 0.00000E+00
 -1      1455 1.29900E+02 4.87010E+01 0.00000E+00
 -1      1456 1.31400E+02 4.87010E+01 0.00000E+00
 -1      1457 1.29150E+02 4.74020E+01 0.00000E+00
 -1      1458 1.32900E+02 4.87010E+01 0.00000E+00
 -1      1459 1.34400E+02 4.87010E+01 0.00000E+00
 -1      1460 1.32150E+02 4.74020E+01 0.00000E+00
 -1      1461 1.35900E+02 4.87010E+01 0.00000E+00
 -1      1462 1.37400E+02 4.87010E+01 0.00000E+00
 -1      1463 1.35150E+02 4.74020E+01 0.00000E+00
 -1      1464 1.38900E+02 4.87010E+01 0.00000E+00
 -1      1465 1.40400E+02 4.87010E+01 0.00000E+00
 -1      1466 1.38150E+02 4.74020E+01 0.00000E+00
 -1      1467 1.41900E+02 4.87010E+01 0.00000E+00
 -1      1468 1.43400E+02 4.87010E+01 0.00000E+00
 -1      1469 1.41150E+02 4.74020E+01 0.00000E+00
 -1      1470 1.44900E+02 4.87010E+01 0.00000E+00
 -1      1471 1.46400E+02 4.87010E+01 0.00000E+00
 -1      1472 1.44150E+02 4.74020E+01 0.00000E+00
 -1      1473 1.48575E+02 4.85500E+01 0.00000E+00
 -1      1474 1.47825E+02 4.72510E+01 0.00000E+00
 -1      1475 6.01200E+00 1.09375E+00 0.00000E+00
 -1      1476 4.51200E+00 1.09375E+00 0.00000E+00
 -1      1477 4.37400E+00 2.18750E+00 0.00000E+00
 -1      1478 9.01200E+00 1.09375E+00 0.00000E+00
 -1      1479 7.51200E+00 1.09375E+00 0.00000E+00
 -1      1480 7.37400E+00 2.18750E+00 0.00000E+00
 -1      1481 1.20120E+01 1.09375E+00 0.00000E+00
 -1      1482 1.05120E+01 1.09375E+00 0.00000E+00
 -1      1483 1.03740E+01 2.18750E+00 0.00000E+00
 -1      1484 1.50120E+01 1.09375E+00 0.00000E+00
 -1      1485 1.35120E+01 1.09375E+00 0.00000E+00
 -1      1486 1.33740E+01 2.18750E+00 0.00000E+00
 -1      1487 1.80120E+01 1.09375E+00 0.00000E+00
 -1      1488 1.65120E+01 1.09375E+00 0.00000E+00
 -1      1489 1.63740E+01 2.18750E+00 0.00000E+00
 -1      1490 2.10120E+01 1.09375E+00 0.00000E+00
 -1      1491 1.95120E+01 1.09375E+00 0.00000E+00
 -1      1492 1.93740E+01 2.18750E+00 0.00000E+00
 -1      1493 2.40120E+01 1.09375E+00 0.00000E+00
 -1      1494 2.25120E+01 1.09375E+00 0.00000E+00
 -1      1495 2.23740E+01 2.18750E+00 0.00000E+00
 -1      1496 2.70120E+01 1.09375E+00 0.00000E+00
 -1      1497 2.55120E+01 1.09375E+00 0.00000E+00
 -1      1498 2.53740E+01 2.18750E+00 0.00000E+00
 -1      1499 3.00120E+01 1.09375E+00 0.00000E+00
 -1      1500 2.85120E+01 1.09375E+00 0.00000E+00
 -1      1501 2.83740E+01 2.18750E+00 0.00000E+00
 -1      1502 3.30120E+01 1.09375E+00 0.00000E+00
 -1      1503 3.15120E+01 1.09375E+00 0.00000E+00
 -1      1504 3.13740E+01 2.18750E+00 0.00000E+00
 -1      1505 3.60120E+01 1.09375E+00 0.00000E+00
 -1      1506 3.45120E+01 1.09375E+00 0.00000E+00
 -1      1507 3.43740E+01 2.18750E+00 0.00000E+00
 -1      1508 3.90120E+01 1.09375E+00 0.00000E+00
 -1      1509 3.75120E+01 1.09375E+00 0.00000E+00
 -1      1510 3.73740E+01 2.18750E+00 0.00000E+00
 -1      1511 4.20120E+01 1.09375E+00 0.00000E+00
 -1      1512 4.05120E+01 1.09375E+00 0.00000E+00
 -1      1513 4.03740E+01 2.18750E+00 0.00000E+00
 -1      1514 4.50120E+01 1.09375E+00 0.00000E+00
 -1      1515 4.35120E+01 1.09375E+00 0.00000E+00
 -1      1516 4.33740E+01 2.18750E+00 0.00000E+00
 -1      1517 4.80120E+01 1.09375E+00 0.00000E+00
 -1      1518 4.65120E+01 1.09375E+00 0.00000E+00
 -1      1519 4.63740E+01 2.18750E+00 0.00000E+00
 -1      1520 5.10120E+01 1.09375E+00 0.00000E+00
 -1      1521 4.95120E+01 1.09375E+00 0.00000E+00
 -1      1522 4.93740E+01 2.18750E+00 0.00000E+00
 -1      1523 5.40120E+01 1.09375E+00 0.00000E+00
 -1      1524 5.25120E+01 1.09375E+00 0.00000E+00
 -1      1525 5.23740E+01 2.18750E+00 0.00000E+00
 -1      1526 5.70120E+01 1.09375E+00 0.00000E+00
 -1      1527 5.55120E+01 1.09375E+00 0.00000E+00
 -1      1528 5.53740E+01 2.18750E+00 0.00000E+00
 -1      1529 6.00120E+01 1.09375E+00 0.00000E+00
 -1      1530 5.85120E+01 1.09375E+00 0.00000E+00
 -1      1531 5.83740E+01 2.18750E+00 0.00000E+00
 -1      1532 6.30120E+01 1.09375E+00 0.00000E+00
 -1      1533 6.15120E+01 1.09375E+00 0.00000E+00
 -1      1534 6.13740E+01 2.18750E+00 0.00000E+00
 -1      1535 6.60120E+01 1.09375E+00 0.00000E+00
 -1      1536 6.45120E+01 1.09375E+00 0.00000E+00
 -1      1537 6.43740E+01 2.18750E+00 0.00000E+00
 -1      1538 6.90120E+01 1.09375E+00 0.00000E+00
 -1      1539 6.75120E+01 1.09375E+00 0.00000E+00
 -1      1540 6.73740E+01 2.18750E+00 0.00000E+00
 -1      1541 7.20120E+01 1.09375E+00 0.00000E+00
 -1      1542 7.05120E+01 1.09375E+00 0.00000E+00
 -1      1543 7.03740E+01 2.18750E+00 0.00000E+00
 -1      1544 7.50120E+01 1.09375E+00 0.00000E+00
 -1      1545 7.35120E+01 1.09375E+00 0.00000E+00
 -1      1546 7.33740E+01 2.18750E+00 0.00000E+00
 -1      1547 7.80120E+01 1.09375E+00 0.00000E+00
 -1      1548 7.65120E+01 1.09375E+00 0.00000E+00
 -1      1549 7.63740E+01 2.18750E+00 0.00000E+00
 -1      1550 8.10120E+01 1.09375E+00 0.00000E+00
 -1      1551 7.95120E+01 1.09375E+00 0.00000E+00
 -1      1552 7.93740E+01 2.18750E+00 0.00000E+00
 -1      1553 8.40120E+01 1.09375E+00 0.00000E+00
 -1      1554 8.25120E+01 1.09375E+00 0.00000E+00
 -1      1555 8.23740E+01 2.18750E+00 0.00000E+00
 -1      1556 8.70120E+01 1.09375E+00 0.00000E+00
 -1      1557 8.55120E+01 1.09375E+00 0.00000E+00
 -1      1558 8.53740E+01 2.18750E+00 0.00000E+00
 -1      1559 9.00120E+01 1.09375E+00 0.00000E+00
 -1      1560 8.85120E+01 1.09375E+00 0.00000E+00
 -1      1561 8.83740E+01 2.18750E+00 0.00000E+00
 -1      1562 9.30120E+01 1.09375E+00 0.00000E+00
 -1      1563 9.15120E+01 1.09375E+00 0.00000E+00
 -1      1564 9.13740E+01 2.18750E+00 0.00000E+00
 -1      1565 9.60120E+01 1.09375E+00 0.00000E+00
 -1      1566 9.45120E+01 1.09375E+00 0.00000E+00
 -1      1567 9.43740E+01 2.18750E+00 0.00000E+00
 -1      1568 9.90120E+01 1.09375E+00 0.00000E+00
 -1      1569 9.75120E+01 1.09375E+00 0.00000E+00
 -1      1570 9.73740E+01 2.18750E+00 0.00000E+00
 -1      1571 1.02012E+02 1.09375E+00 0.00000E+00
 -1      1572 1.00512E+02 1.09375E+00 0.00000E+00
 -1      1573 1.00374E+02 2.18750E+00 0.00000E+00
 -1      1574 1.05012E+02 1.09375E+00 0.00000E+00
 -1      1575 1.03512E+02 1.09375E+00 0.00000E+00
 -1      1576 1.03374E+02 2.18750E+00 0.00000E+00
 -1      1577 1.08012E+02 1.09375E+00 0.00000E+00
 -1      1578 1.06512E+02 1.09375E+00 0.00000E+00
 -1      1579 1.06374E+02 2.18750E+00 0.00000E+00
 -1      1580 1.11012E+02 1.09375E+00 0.00000E+00
 -1      1581 1.09512E+02 1.09375E+00 0.00000E+00
 -1      1582 1.09374E+02 2.18750E+00 0.00000E+00
 -1      1583 1.14012E+02 1.09375E+00 0.00000E+00
 -1      1584 1.12512E+02 1.09375E+00 0.00000E+00
 -1      1585 1.12374E+02 2.18750E+00 0.00000E+00
 -1      1586 1.17012E+02 1.09375E+00 0.00000E+00
 -1      1587 1.15512E+02 1.09375E+00 0.00000E+00
 -1      1588 1.15374E+02 2.18750E+00 0.00000E+00
 -1      1589 1.20012E+02 1.09375E+00 0.00000E+00
 -1      1590 1.18512E+02 1.09375E+00 0.00000E+00
 -1      1591 1.18374E+02 2.18750E+00 0.00000E+00
 -1      1592 1.23012E+02 1.09375E+00 0.00000E+00
 -1      1593 1.21512E+02 1.09375E+00 0.00000E+00
 -1      1594 1.21374E+02 2.18750E+00 0.00000E+00
 -1      1595 1.26012E+02 1.09375E+00 0.00000E+00
 -1      1596 1.24512E+02 1.09375E+00 0.00000E+00
 -1      1597 1.24374E+02 2.18750E+00 0.00000E+00
 -1      1598 1.29012E+02 1.09375E+00 0.00000E+00
 -1      1599 1.27512E+02 1.09375E+00 0.00000E+00
 -1      1600 1.27374E+02 2.18750E+00 0.00000E+00
 -1      1601 1.32012E+02 1.09375E+00 0.00000E+00
 -1      1602 1.30512E+02 1.09375E+00 0.00000E+00
 -1      1603 1.30374E+02 2.18750E+00 0.00000E+00
 -1      1604 1.35012E+02 1.09375E+00 0.00000E+00
 -1      1605 1.33512E+02 1.09375E+00 0.00000E+00
 -1      1606 1.33374E+02 2.18750E+00 0.00000E+00
 -1      1607 1.38012E+02 1.09375E+00 0.00000E+00
 -1      1608 1.36512E+02 1.09375E+00 0.00000E+00
 -1      1609 1.36374E+02 2.18750E+00 0.00000E+00
 -1      1610 1.41012E+02 1.09375E+00 0.00000E+00
 -1      1611 1.39512E+02 1.09375E+00 0.00000E+00
 -1      1612 1.39374E+02 2.18750E+00 0.00000E+00
 -1      1613 1.44012E+02 1.09375E+00 0.00000E+00
 -1      1614 1.42512E+02 1.09375E+00 0.00000E+00
 -1      1615 1.42374E+02 2.18750E+00 0.00000E+00
 -1      1616 1.47012E+02 1.09375E+00 0.00000E+00
 -1      1617 1.45512E+02 1.09375E+00 0.00000E+00
 -1      1618 1.45374E+02 2.18750E+00 0.00000E+00
 -1      1619 1.48575E+02 1.47500E+00 0.00000E+00
 -1      1620 1.48701E+02 5.16250E+00 0.00000E+00
 -1      1621 1.48701E+02 3.68750E+00 0.00000E+00
 -1      1622 1.48701E+02 8.11250E+00 0.00000E+00
 -1      1623 1.48701E+02 6.63750E+00 0.00000E+00
 -1      1624 1.47402E+02 5.90000E+00 0.00000E+00
 -1      1625 1.48701E+02 1.10625E+01 0.00000E+00
 -1      1626 1.48701E+02 9.58750E+00 0.00000E+00
 -1      1627 1.47402E+02 8.85000E+00 0.00000E+00
 -1      1628 1.48701E+02 1.40125E+01 0.00000E+00
 -1      1629 1.48701E+02 1.25375E+01 0.00000E+00
 -1      1630 1.47402E+02 1.18000E+01 0.00000E+00
 -1      1631 1.48701E+02 1.69125E+01 0.00000E+00
 -1      1632 1.48701E+02 1.54625E+01 0.00000E+00
 -1      1633 1.47402E+02 1.47250E+01 0.00000E+00
 -1      1634 1.48701E+02 1.98625E+01 0.00000E+00
 -1      1635 1.48701E+02 1.83875E+01 0.00000E+00
 -1      1636 1.47402E+02 1.76500E+01 0.00000E+00
 -1      1637 1.48701E+02 2.28125E+01 0.00000E+00
 -1      1638 1.48701E+02 2.13375E+01 0.00000E+00
 -1      1639 1.47402E+02 2.06000E+01 0.00000E+00
 -1      1640 1.48701E+02 2.57625E+01 0.00000E+00
 -1      1641 1.48701E+02 2.42875E+01 0.00000E+00
 -1      1642 1.47402E+02 2.35500E+01 0.00000E+00
 -1      1643 1.48701E+02 2.87125E+01 0.00000E+00
 -1      1644 1.48701E+02 2.72375E+01 0.00000E+00
 -1      1645 1.47402E+02 2.65000E+01 0.00000E+00
 -1      1646 1.48701E+02 3.16625E+01 0.00000E+00
 -1      1647 1.48701E+02 3.01875E+01 0.00000E+00
 -1      1648 1.47402E+02 2.94500E+01 0.00000E+00
 -1      1649 1.48701E+02 3.45625E+01 0.00000E+00
 -1      1650 1.48701E+02 3.31125E+01 0.00000E+00
 -1      1651 1.47402E+02 3.23750E+01 0.00000E+00
 -1      1652 1.48701E+02 3.75125E+01 0.00000E+00
 -1      1653 1.48701E+02 3.60375E+01 0.00000E+00
 -1      1654 1.47402E+02 3.53000E+01 0.00000E+00
 -1      1655 1.48701E+02 4.04625E+01 0.00000E+00
 -1      1656 1.48701E+02 3.89875E+01 0.00000E+00
 -1      1657 1.47402E+02 3.82500E+01 0.00000E+00
 -1      1658 1.48701E+02 4.34125E+01 0.00000E+00
 -1      1659 1.48701E+02 4.19375E+01 0.00000E+00
 -1      1660 1.47402E+02 4.12000E+01 0.00000E+00
 -1      1661 1.48263E+02 4.60692E+01 0.00000E+00
 -1      1662 1.48263E+02 4.45942E+01 0.00000E+00
 -1      1663 1.46964E+02 4.38568E+01 0.00000E+00
 -1      1664 1.46088E+02 4.62202E+01 0.00000E+00
 -1      1665 6.02835E+01 2.12620E+01 0.00000E+00
 -1      1666 6.03652E+01 2.20137E+01 0.00000E+00
 -1      1667 5.99070E+01 1.95972E+01 0.00000E+00
 -1      1668 6.01629E+01 2.03452E+01 0.00000E+00
 -1      1669 5.90405E+01 1.82178E+01 0.00000E+00
 -1      1670 5.94165E+01 1.88361E+01 0.00000E+00
 -1      1671 5.79927E+01 1.68721E+01 0.00000E+00
 -1      1672 5.85523E+01 1.74544E+01 0.00000E+00
 -1      1673 5.66632E+01 1.59627E+01 0.00000E+00
 -1      1674 5.72554E+01 1.63573E+01 0.00000E+00
 -1      1675 5.52555E+01 1.52171E+01 0.00000E+00
 -1      1676 5.59431E+01 1.54918E+01 0.00000E+00
 -1      1677 5.35925E+01 1.47660E+01 0.00000E+00
 -1      1678 5.43832E+01 1.48931E+01 0.00000E+00
 -1      1679 5.19584E+01 1.48825E+01 0.00000E+00
 -1      1680 5.26772E+01 1.48405E+01 0.00000E+00
 -1      1681 5.03506E+01 1.51911E+01 0.00000E+00
 -1      1682 5.10852E+01 1.49874E+01 0.00000E+00
 -1      1683 4.89335E+01 1.59197E+01 0.00000E+00
 -1      1684 4.95689E+01 1.55871E+01 0.00000E+00
 -1      1685 4.76448E+01 1.68144E+01 0.00000E+00
 -1      1686 4.82050E+01 1.63533E+01 0.00000E+00
 -1      1687 4.65886E+01 1.80714E+01 0.00000E+00
 -1      1688 4.70635E+01 1.74701E+01 0.00000E+00
 -1      1689 4.57859E+01 1.95079E+01 0.00000E+00
 -1      1690 4.61160E+01 1.88252E+01 0.00000E+00
 -1      1691 4.53268E+01 2.09873E+01 0.00000E+00
 -1      1692 4.54943E+01 2.03078E+01 0.00000E+00
 -1      1693 4.51460E+01 2.25812E+01 0.00000E+00
 -1      1694 4.51713E+01 2.18274E+01 0.00000E+00
 -1      1695 4.53443E+01 2.41942E+01 0.00000E+00
 -1      1696 4.52105E+01 2.34624E+01 0.00000E+00
 -1      1697 4.58057E+01 2.57633E+01 0.00000E+00
 -1      1698 4.55173E+01 2.50711E+01 0.00000E+00
 -1      1699 4.67412E+01 2.73755E+01 0.00000E+00
 -1      1700 4.62240E+01 2.66633E+01 0.00000E+00
 -1      1701 4.80533E+01 2.83988E+01 0.00000E+00
 -1      1702 4.75256E+01 2.79392E+01 0.00000E+00
 -1      1703 4.95197E+01 2.93879E+01 0.00000E+00
 -1      1704 4.87655E+01 2.89820E+01 0.00000E+00
 -1      1705 5.11039E+01 2.98536E+01 0.00000E+00
 -1      1706 5.04101E+01 2.96631E+01 0.00000E+00
 -1      1707 5.27209E+01 3.00752E+01 0.00000E+00
 -1      1708 5.19571E+01 3.00327E+01 0.00000E+00
 -1      1709 5.43229E+01 2.98734E+01 0.00000E+00
 -1      1710 5.35975E+01 2.99897E+01 0.00000E+00
 -1      1711 5.58756E+01 2.93639E+01 0.00000E+00
 -1      1712 5.51656E+01 2.96420E+01 0.00000E+00
 -1      1713 5.73286E+01 2.86078E+01 0.00000E+00
 -1      1714 5.67050E+01 2.90252E+01 0.00000E+00
 -1      1715 5.84660E+01 2.74448E+01 0.00000E+00
 -1      1716 5.79506E+01 2.79793E+01 0.00000E+00
 -1      1717 5.94154E+01 2.60752E+01 0.00000E+00
 -1      1718 5.90081E+01 2.67406E+01 0.00000E+00
 -1      1719 6.01366E+01 2.45106E+01 0.00000E+00
 -1      1720 5.98830E+01 2.52670E+01 0.00000E+00
 -1      1721 6.03264E+01 2.28862E+01 0.00000E+00
 -1      1722 6.02501E+01 2.36130E+01 0.00000E+00
 -1      1723 5.80327E+01 1.61703E+01 0.00000E+00
 -1      1724 5.92582E+01 1.74485E+01 0.00000E+00
 -1      1725 1.48437E+02 2.56875E+00 0.00000E+00
 -1      1726 1.47138E+02 3.30625E+00 0.00000E+00
 -1      1727 6.08480E+01 2.06511E+01 0.00000E+00
 -1      1728 6.02369E+01 1.89731E+01 0.00000E+00
 -1      1729 6.09299E+01 2.24403E+01 0.00000E+00
 -1      1730 5.65753E+01 1.51846E+01 0.00000E+00
 -1      1731 5.49829E+01 1.43896E+01 0.00000E+00
 -1      1732 5.31953E+01 1.41401E+01 0.00000E+00
 -1      1733 5.14068E+01 1.43194E+01 0.00000E+00
 -1      1734 4.97518E+01 1.48204E+01 0.00000E+00
 -1      1735 4.82415E+01 1.56499E+01 0.00000E+00
 -1      1736 4.69317E+01 1.67392E+01 0.00000E+00
 -1      1737 4.58778E+01 1.81488E+01 0.00000E+00
 -1      1738 4.51136E+01 1.97026E+01 0.00000E+00
 -1      1739 4.46665E+01 2.13425E+01 0.00000E+00
 -1      1740 4.45754E+01 2.30637E+01 0.00000E+00
 -1      1741 4.48129E+01 2.48218E+01 0.00000E+00
 -1      1742 4.54043E+01 2.65986E+01 0.00000E+00
 -1      1743 4.66070E+01 2.80624E+01 0.00000E+00
 -1      1744 4.81035E+01 2.92094E+01 0.00000E+00
 -1      1745 4.97060E+01 3.00677E+01 0.00000E+00
 -1      1746 5.14497E+01 3.05219E+01 0.00000E+00
 -1      1747 5.31796E+01 3.06155E+01 0.00000E+00
 -1      1748 5.48989E+01 3.02988E+01 0.00000E+00
 -1      1749 5.65712E+01 2.97286E+01 0.00000E+00
 -1      1750 5.80226E+01 2.87613E+01 0.00000E+00
 -1      1751 5.91867E+01 2.74286E+01 0.00000E+00
 -1      1752 6.01964E+01 2.59162E+01 0.00000E+00
 -1      1753 6.07776E+01 2.42105E+01 0.00000E+00
 -1      1754 2.87400E+00 4.77875E+01 0.00000E+00
 -1      1755 3.89700E+00 4.04125E+01 0.00000E+00
 -1      1756 3.89700E+00 4.18875E+01 0.00000E+00
 -1      1757 3.89700E+00 4.33625E+01 0.00000E+00
 -1      1758 3.89700E+00 4.48375E+01 0.00000E+00
 -1      1759 5.19600E+00 4.26250E+01 0.00000E+00
 -1      1760 3.89700E+00 3.45500E+01 0.00000E+00
 -1      1761 3.89700E+00 3.60000E+01 0.00000E+00
 -1      1762 3.89700E+00 3.16000E+01 0.00000E+00
 -1      1763 3.89700E+00 3.30750E+01 0.00000E+00
 -1      1764 5.19600E+00 3.38000E+01 0.00000E+00
 -1      1765 3.89700E+00 2.86500E+01 0.00000E+00
 -1      1766 3.89700E+00 3.01250E+01 0.00000E+00
 -1      1767 5.19600E+00 3.08500E+01 0.00000E+00
 -1      1768 3.89700E+00 2.57000E+01 0.00000E+00
 -1      1769 3.89700E+00 2.71750E+01 0.00000E+00
 -1      1770 5.19600E+00 2.79000E+01 0.00000E+00
 -1      1771 3.89700E+00 2.27500E+01 0.00000E+00
 -1      1772 3.89700E+00 2.42250E+01 0.00000E+00
 -1      1773 5.19600E+00 2.49500E+01 0.00000E+00
 -1      1774 3.89700E+00 1.98000E+01 0.00000E+00
 -1      1775 3.89700E+00 2.12750E+01 0.00000E+00
 -1      1776 5.19600E+00 2.20000E+01 0.00000E+00
 -1      1777 3.89700E+00 1.69000E+01 0.00000E+00
 -1      1778 3.89700E+00 1.83500E+01 0.00000E+00
 -1      1779 5.19600E+00 1.90750E+01 0.00000E+00
 -1      1780 3.89700E+00 1.39500E+01 0.00000E+00
 -1      1781 3.89700E+00 1.54250E+01 0.00000E+00
 -1      1782 5.19600E+00 1.61500E+01 0.00000E+00
 -1      1783 3.89700E+00 1.10000E+01 0.00000E+00
 -1      1784 3.89700E+00 1.24750E+01 0.00000E+00
 -1      1785 5.19600E+00 1.32000E+01 0.00000E+00
 -1      1786 3.89700E+00 8.05000E+00 0.00000E+00
 -1      1787 3.89700E+00 9.52500E+00 0.00000E+00
 -1      1788 5.19600E+00 1.02500E+01 0.00000E+00
 -1      1789 3.89700E+00 5.10000E+00 0.00000E+00
 -1      1790 3.89700E+00 6.57500E+00 0.00000E+00
 -1      1791 5.19600E+00 7.30000E+00 0.00000E+00
 -1      1792 4.20450E+00 3.09687E+00 0.00000E+00
 -1      1793 4.06650E+00 4.19063E+00 0.00000E+00
 -1      1794 5.36550E+00 4.91563E+00 0.00000E+00
 -1      1795 5.70450E+00 3.09687E+00 0.00000E+00
 -1      1796 3.62400E+00 4.64885E+01 0.00000E+00
 -1      1797 8.70450E+00 3.09687E+00 0.00000E+00
 -1      1798 7.20450E+00 3.09687E+00 0.00000E+00
 -1      1799 7.03500E+00 4.00625E+00 0.00000E+00
 -1      1800 4.92300E+00 4.57510E+01 0.00000E+00
 -1      1801 8.40000E+00 4.61030E+01 0.00000E+00
 -1      1802 9.90000E+00 4.61030E+01 0.00000E+00
 -1      1803 1.14000E+01 4.61030E+01 0.00000E+00
 -1      1804 1.29000E+01 4.61030E+01 0.00000E+00
 -1      1805 1.06500E+01 4.48040E+01 0.00000E+00
 -1      1806 1.44000E+01 4.61030E+01 0.00000E+00
 -1      1807 1.59000E+01 4.61030E+01 0.00000E+00
 -1      1808 1.36500E+01 4.48040E+01 0.00000E+00
 -1      1809 1.74000E+01 4.61030E+01 0.00000E+00
 -1      1810 1.89000E+01 4.61030E+01 0.00000E+00
 -1      1811 1.66500E+01 4.48040E+01 0.00000E+00
 -1      1812 2.04000E+01 4.61030E+01 0.00000E+00
 -1      1813 2.19000E+01 4.61030E+01 0.00000E+00
 -1      1814 1.96500E+01 4.48040E+01 0.00000E+00
 -1      1815 2.34000E+01 4.61030E+01 0.00000E+00
 -1      1816 2.49000E+01 4.61030E+01 0.00000E+00
 -1      1817 2.26500E+01 4.48040E+01 0.00000E+00
 -1      1818 2.64000E+01 4.61030E+01 0.00000E+00
 -1      1819 2.79000E+01 4.61030E+01 0.00000E+00
 -1      1820 2.56500E+01 4.48040E+01 0.00000E+00
 -1      1821 2.94000E+01 4.61030E+01 0.00000E+00
 -1      1822 3.09000E+01 4.61030E+01 0.00000E+00
 -1      1823 2.86500E+01 4.48040E+01 0.00000E+00
 -1      1824 3.24000E+01 4.61030E+01 0.00000E+00
 -1      1825 3.39000E+01 4.61030E+01 0.00000E+00
 -1      1826 3.16500E+01 4.48040E+01 0.00000E+00
 -1      1827 3.54000E+01 4.61030E+01 0.00000E+00
 -1      1828 3.69000E+01 4.61030E+01 0.00000E+00
 -1      1829 3.46500E+01 4.48040E+01 0.00000E+00
 -1      1830 3.84000E+01 4.61030E+01 0.00000E+00
 -1      1831 3.99000E+01 4.61030E+01 0.00000E+00
 -1      1832 3.76500E+01 4.48040E+01 0.00000E+00
 -1      1833 4.14000E+01 4.61030E+01 0.00000E+00
 -1      1834 4.29000E+01 4.61030E+01 0.00000E+00
 -1      1835 4.06500E+01 4.48040E+01 0.00000E+00
 -1      1836 4.44000E+01 4.61030E+01 0.00000E+00
 -1      1837 4.59000E+01 4.61030E+01 0.00000E+00
 -1      1838 4.36500E+01 4.48040E+01 0.00000E+00
 -1      1839 4.74000E+01 4.61030E+01 0.00000E+00
 -1      1840 4.89000E+01 4.61030E+01 0.00000E+00
 -1      1841 4.66500E+01 4.48040E+01 0.00000E+00
 -1      1842 5.04000E+01 4.61030E+01 0.00000E+00
 -1      1843 5.19000E+01 4.61030E+01 0.00000E+00
 -1      1844 4.96500E+01 4.48040E+01 0.00000E+00
 -1      1845 5.34000E+01 4.61030E+01 0.00000E+00
 -1      1846 5.49000E+01 4.61030E+01 0.00000E+00
 -1      1847 5.26500E+01 4.48040E+01 0.00000E+00
 -1      1848 5.64000E+01 4.61030E+01 0.00000E+00
 -1      1849 5.79000E+01 4.61030E+01 0.00000E+00
 -1      1850 5.56500E+01 4.48040E+01 0.00000E+00
 -1      1851 5.94000E+01 4.61030E+01 0.00000E+00
 -1      1852 6.09000E+01 4.61030E+01 0.00000E+00
 -1      1853 5.86500E+01 4.48040E+01 0.00000E+00
 -1      1854 6.24000E+01 4.61030E+01 0.00000E+00
 -1      1855 6.39000E+01 4.61030E+01 0.00000E+00
 -1      1856 6.16500E+01 4.48040E+01 0.00000E+00
 -1      1857 6.54000E+01 4.61030E+01 0.00000E+00
 -1      1858 6.69000E+01 4.61030E+01 0.00000E+00
 -1      1859 6.46500E+01 4.48040E+01 0.00000E+00
 -1      1860 6.84000E+01 4.61030E+01 0.00000E+00
 -1      1861 6.99000E+01 4.61030E+01 0.00000E+00
 -1      1862 6.76500E+01 4.48040E+01 0.00000E+00
 -1      1863 7.14000E+01 4.61030E+01 0.00000E+00
 -1      1864 7.29000E+01 4.61030E+01 0.00000E+00
 -1      1865 7.06500E+01 4.48040E+01 0.00000E+00
 -1      1866 7.44000E+01 4.61030E+01 0.00000E+00
 -1      1867 7.59000E+01 4.61030E+01 0.00000E+00
 -1      1868 7.36500E+01 4.48040E+01 0.00000E+00
 -1      1869 7.74000E+01 4.61030E+01 0.00000E+00
 -1      1870 7.89000E+01 4.61030E+01 0.00000E+00
 -1      1871 7.66500E+01 4.48040E+01 0.00000E+00
 -1      1872 8.04000E+01 4.61030E+01 0.00000E+00
 -1      1873 8.19000E+01 4.61030E+01 0.00000E+00
 -1      1874 7.96500E+01 4.48040E+01 0.00000E+00
 -1      1875 8.34000E+01 4.61030E+01 0.00000E+00
 -1      1876 8.49000E+01 4.61030E+01 0.00000E+00
 -1      1877 8.26500E+01 4.48040E+01 0.00000E+00
 -1      1878 8.64000E+01 4.61030E+01 0.00000E+00
 -1      1879 8.79000E+01 4.61030E+01 0.00000E+00
 -1      1880 8.56500E+01 4.48040E+01 0.00000E+00
 -1      1881 8.94000E+01 4.61030E+01 0.00000E+00
 -1      1882 9.09000E+01 4.61030E+01 0.00000E+00
 -1      1883 8.86500E+01 4.48040E+01 0.00000E+00
 -1      1884 9.24000E+01 4.61030E+01 0.00000E+00
 -1      1885 9.39000E+01 4.61030E+01 0.00000E+00
 -1      1886 9.16500E+01 4.48040E+01 0.00000E+00
 -1      1887 9.54000E+01 4.61030E+01 0.00000E+00
 -1      1888 9.69000E+01 4.61030E+01 0.00000E+00
 -1      1889 9.46500E+01 4.48040E+01 0.00000E+00
 -1      1890 9.84000E+01 4.61030E+01 0.00000E+00
 -1      1891 9.99000E+01 4.61030E+01 0.00000E+00
 -1      1892 9.76500E+01 4.48040E+01 0.00000E+00
 -1      1893 1.01400E+02 4.61030E+01 0.00000E+00
 -1      1894 1.02900E+02 4.61030E+01 0.00000E+00
 -1      1895 1.00650E+02 4.48040E+01 0.00000E+00
 -1      1896 1.04400E+02 4.61030E+01 0.00000E+00
 -1      1897 1.05900E+02 4.61030E+01 0.00000E+00
 -1      1898 1.03650E+02 4.48040E+01 0.00000E+00
 -1      1899 1.07400E+02 4.61030E+01 0.00000E+00
 -1      1900 1.08900E+02 4.61030E+01 0.00000E+00
 -1      1901 1.06650E+02 4.48040E+01 0.00000E+00
 -1      1902 1.10400E+02 4.61030E+01 0.00000E+00
 -1      1903 1.11900E+02 4.61030E+01 0.00000E+00
 -1      1904 1.09650E+02 4.48040E+01 0.00000E+00
 -1      1905 1.13400E+02 4.61030E+01 0.00000E+00
 -1      1906 1.14900E+02 4.61030E+01 0.00000E+00
 -1      1907 1.12650E+02 4.48040E+01 0.00000E+00
 -1      1908 1.16400E+02 4.61030E+01 0.00000E+00
 -1      1909 1.17900E+02 4.61030E+01 0.00000E+00
 -1      1910 1.15650E+02 4.48040E+01 0.00000E+00
 -1      1911 1.19400E+02 4.61030E+01 0.00000E+00
 -1      1912 1.20900E+02 4.61030E+01 0.00000E+00
 -1      1913 1.18650E+02 4.48040E+01 0.00000E+00
 -1      1914 1.22400E+02 4.61030E+01 0.00000E+00
 -1      1915 1.23900E+02 4.61030E+01 0.00000E+00
 -1      1916 1.21650E+02 4.48040E+01 0.00000E+00
 -1      1917 1.25400E+02 4.61030E+01 0.00000E+00
 -1      1918 1.26900E+02 4.61030E+01 0.00000E+00
 -1      1919 1.24650E+02 4.48040E+01 0.00000E+00
 -1      1920 1.28400E+02 4.61030E+01 0.00000E+00
 -1      1921 1.29900E+02 4.61030E+01 0.00000E+00
 -1      1922 1.27650E+02 4.48040E+01 0.00000E+00
 -1      1923 1.31400E+02 4.61030E+01 0.00000E+00
 -1      1924 1.32900E+02 4.61030E+01 0.00000E+00
 -1      1925 1.30650E+02 4.48040E+01 0.00000E+00
 -1      1926 1.34400E+02 4.61030E+01 0.00000E+00
 -1      1927 1.35900E+02 4.61030E+01 0.00000E+00
 -1      1928 1.33650E+02 4.48040E+01 0.00000E+00
 -1      1929 1.37400E+02 4.61030E+01 0.00000E+00
 -1      1930 1.38900E+02 4.61030E+01 0.00000E+00
 -1      1931 1.36650E+02 4.48040E+01 0.00000E+00
 -1      1932 1.40400E+02 4.61030E+01 0.00000E+00
 -1      1933 1.41900E+02 4.61030E+01 0.00000E+00
 -1      1934 1.39650E+02 4.48040E+01 0.00000E+00
 -1      1935 1.43244E+02 4.61616E+01 0.00000E+00
 -1      1936 1.44744E+02 4.61616E+01 0.00000E+00
 -1      1937 1.45182E+02 4.49799E+01 0.00000E+00
 -1      1938 1.42494E+02 4.48626E+01 0.00000E+00
 -1      1939 1.17045E+01 3.09687E+00 0.00000E+00
 -1      1940 1.02045E+01 3.09687E+00 0.00000E+00
 -1      1941 1.00350E+01 4.00625E+00 0.00000E+00
 -1      1942 1.47045E+01 3.09687E+00 0.00000E+00
 -1      1943 1.32045E+01 3.09687E+00 0.00000E+00
 -1      1944 1.30350E+01 4.00625E+00 0.00000E+00
 -1      1945 1.77045E+01 3.09687E+00 0.00000E+00
 -1      1946 1.62045E+01 3.09687E+00 0.00000E+00
 -1      1947 1.60350E+01 4.00625E+00 0.00000E+00
 -1      1948 2.07045E+01 3.09687E+00 0.00000E+00
 -1      1949 1.92045E+01 3.09687E+00 0.00000E+00
 -1      1950 1.90350E+01 4.00625E+00 0.00000E+00
 -1      1951 2.37045E+01 3.09687E+00 0.00000E+00
 -1      1952 2.22045E+01 3.09687E+00 0.00000E+00
 -1      1953 2.20350E+01 4.00625E+00 0.00000E+00
 -1      1954 2.67045E+01 3.09687E+00 0.00000E+00
 -1      1955 2.52045E+01 3.09687E+00 0.00000E+00
 -1      1956 2.50350E+01 4.00625E+00 0.00000E+00
 -1      1957 2.97045E+01 3.09687E+00 0.00000E+00
 -1      1958 2.82045E+01 3.09687E+00 0.00000E+00
 -1      1959 2.80350E+01 4.00625E+00 0.00000E+00
 -1      1960 3.27045E+01 3.09687E+00 0.00000E+00
 -1      1961 3.12045E+01 3.09687E+00 0.00000E+00
 -1      1962 3.10350E+01 4.00625E+00 0.00000E+00
 -1      1963 3.57045E+01 3.09687E+00 0.00000E+00
 -1      1964 3.42045E+01 3.09687E+00 0.00000E+00
 -1      1965 3.40350E+01 4.00625E+00 0.00000E+00
 -1      1966 3.87045E+01 3.09687E+00 0.00000E+00
 -1      1967 3.72045E+01 3.09687E+00 0.00000E+00
 -1      1968 3.70350E+01 4.00625E+00 0.00000E+00
 -1      1969 4.17045E+01 3.09687E+00 0.00000E+00
 -1      1970 4.02045E+01 3.09687E+00 0.00000E+00
 -1      1971 4.00350E+01 4.00625E+00 0.00000E+00
 -1      1972 4.47045E+01 3.09687E+00 0.00000E+00
 -1      1973 4.32045E+01 3.09687E+00 0.00000E+00
 -1      1974 4.30350E+01 4.00625E+00 0.00000E+00
 -1      1975 4.77045E+01 3.09687E+00 0.00000E+00
 -1      1976 4.62045E+01 3.09687E+00 0.00000E+00
 -1      1977 4.60350E+01 4.00625E+00 0.00000E+00
 -1      1978 5.07045E+01 3.09687E+00 0.00000E+00
 -1      1979 4.92045E+01 3.09687E+00 0.00000E+00
 -1      1980 4.90350E+01 4.00625E+00 0.00000E+00
 -1      1981 5.37045E+01 3.09687E+00 0.00000E+00
 -1      1982 5.22045E+01 3.09687E+00 0.00000E+00
 -1      1983 5.20350E+01 4.00625E+00 0.00000E+00
 -1      1984 5.67045E+01 3.09687E+00 0.00000E+00
 -1      1985 5.52045E+01 3.09687E+00 0.00000E+00
 -1      1986 5.50350E+01 4.00625E+00 0.00000E+00
 -1      1987 5.97045E+01 3.09687E+00 0.00000E+00
 -1      1988 5.82045E+01 3.09687E+00 0.00000E+00
 -1      1989 5.80350E+01 4.00625E+00 0.00000E+00
 -1      1990 6.27045E+01 3.09687E+00 0.00000E+00
 -1      1991 6.12045E+01 3.09687E+00 0.00000E+00
 -1      1992 6.10350E+01 4.00625E+00 0.00000E+00
 -1      1993 6.57045E+01 3.09687E+00 0.00000E+00
 -1      1994 6.42045E+01 3.09687E+00 0.00000E+00
 -1      1995 6.40350E+01 4.00625E+00 0.00000E+00
 -1      1996 6.87045E+01 3.09687E+00 0.00000E+00
 -1      1997 6.72045E+01 3.09687E+00 0.00000E+00
 -1      1998 6.70350E+01 4.00625E+00 0.00000E+00
 -1      1999 7.17045E+01 3.09687E+00 0.00000E+00
 -1      2000 7.02045E+01 3.09687E+00 0.00000E+00
 -1      2001 7.00350E+01 4.00625E+00 0.00000E+00
 -1      2002 7.47045E+01 3.09687E+00 0.00000E+00
 -1      2003 7.32045E+01 3.09687E+00 0.00000E+00
 -1      2004 7.30350E+01 4.00625E+00 0.00000E+00
 -1      2005 7.77045E+01 3.09687E+00 0.00000E+00
 -1      2006 7.62045E+01 3.09687E+00 0.00000E+00
 -1      2007 7.60350E+01 4.00625E+00 0.00000E+00
 -1      2008 8.07045E+01 3.09687E+00 0.00000E+00
 -1      2009 7.92045E+01 3.09687E+00 0.00000E+00
 -1      2010 7.90350E+01 4.00625E+00 0.00000E+00
 -1      2011 8.37045E+01 3.09687E+00 0.00000E+00
 -1      2012 8.22045E+01 3.09687E+00 0.00000E+00
 -1      2013 8.20350E+01 4.00625E+00 0.00000E+00
 -1      2014 8.67045E+01 3.09687E+00 0.00000E+00
 -1      2015 8.52045E+01 3.09687E+00 0.00000E+00
 -1      2016 8.50350E+01 4.00625E+00 0.00000E+00
 -1      2017 8.97045E+01 3.09687E+00 0.00000E+00
 -1      2018 8.82045E+01 3.09687E+00 0.00000E+00
 -1      2019 8.80350E+01 4.00625E+00 0.00000E+00
 -1      2020 9.27045E+01 3.09687E+00 0.00000E+00
 -1      2021 9.12045E+01 3.09687E+00 0.00000E+00
 -1      2022 9.10350E+01 4.00625E+00 0.00000E+00
 -1      2023 9.57045E+01 3.09687E+00 0.00000E+00
 -1      2024 9.42045E+01 3.09687E+00 0.00000E+00
 -1      2025 9.40350E+01 4.00625E+00 0.00000E+00
 -1      2026 9.87045E+01 3.09687E+00 0.00000E+00
 -1      2027 9.72045E+01 3.09687E+00 0.00000E+00
 -1      2028 9.70350E+01 4.00625E+00 0.00000E+00
 -1      2029 1.01704E+02 3.09687E+00 0.00000E+00
 -1      2030 1.00204E+02 3.09687E+00 0.00000E+00
 -1      2031 1.00035E+02 4.00625E+00 0.00000E+00
 -1      2032 1.04704E+02 3.09687E+00 0.00000E+00
 -1      2033 1.03204E+02 3.09687E+00 0.00000E+00
 -1      2034 1.03035E+02 4.00625E+00 0.00000E+00
 -1      2035 1.07704E+02 3.09687E+00 0.00000E+00
 -1      2036 1.06204E+02 3.09687E+00 0.00000E+00
 -1      2037 1.06035E+02 4.00625E+00 0.00000E+00
 -1      2038 1.10704E+02 3.09687E+00 0.00000E+00
 -1      2039 1.09204E+02 3.09687E+00 0.00000E+00
 -1      2040 1.09035E+02 4.00625E+00 0.00000E+00
 -1      2041 1.13704E+02 3.09687E+00 0.00000E+00
 -1      2042 1.12204E+02 3.09687E+00 0.00000E+00
 -1      2043 1.12035E+02 4.00625E+00 0.00000E+00
 -1      2044 1.16704E+02 3.09687E+00 0.00000E+00
 -1      2045 1.15204E+02 3.09687E+00 0.00000E+00
 -1      2046 1.15035E+02 4.00625E+00 0.00000E+00
 -1      2047 1.19704E+02 3.09687E+00 0.00000E+00
 -1      2048 1.18204E+02 3.09687E+00 0.00000E+00
 -1      2049 1.18035E+02 4.00625E+00 0.00000E+00
 -1      2050 1.22704E+02 3.09687E+00 0.00000E+00
 -1      2051 1.21204E+02 3.09687E+00 0.00000E+00
 -1      2052 1.21035E+02 4.00625E+00 0.00000E+00
 -1      2053 1.25704E+02 3.09687E+00 0.00000E+00
 -1      2054 1.24204E+02 3.09687E+00 0.00000E+00
 -1      2055 1.24035E+02 4.00625E+00 0.00000E+00
 -1      2056 1.28704E+02 3.09687E+00 0.00000E+00
 -1      2057 1.27204E+02 3.09687E+00 0.00000E+00
 -1      2058 1.27035E+02 4.00625E+00 0.00000E+00
 -1      2059 1.31704E+02 3.09687E+00 0.00000E+00
 -1      2060 1.30204E+02 3.09687E+00 0.00000E+00
 -1      2061 1.30035E+02 4.00625E+00 0.00000E+00
 -1      2062 1.34704E+02 3.09687E+00 0.00000E+00
 -1      2063 1.33204E+02 3.09687E+00 0.00000E+00
 -1      2064 1.33035E+02 4.00625E+00 0.00000E+00
 -1      2065 1.37704E+02 3.09687E+00 0.00000E+00
 -1      2066 1.36204E+02 3.09687E+00 0.00000E+00
 -1      2067 1.36035E+02 4.00625E+00 0.00000E+00
 -1      2068 1.40704E+02 3.09687E+00 0.00000E+00
 -1      2069 1.39204E+02 3.09687E+00 0.00000E+00
 -1      2070 1.39035E+02 4.00625E+00 0.00000E+00
 -1      2071 1.43704E+02 3.09687E+00 0.00000E+00
 -1      2072 1.42204E+02 3.09687E+00 0.00000E+00
 -1      2073 1.42035E+02 4.00625E+00 0.00000E+00
 -1      2074 1.46171E+02 3.20156E+00 0.00000E+00
 -1      2075 1.44671E+02 3.20156E+00 0.00000E+00
 -1      2076 1.44502E+02 4.11094E+00 0.00000E+00
 -1      2077 1.46435E+02 4.32031E+00 0.00000E+00
 -1      2078 1.46103E+02 1.25375E+01 0.00000E+00
 -1      2079 1.46103E+02 1.10625E+01 0.00000E+00
 -1      2080 1.46103E+02 9.58750E+00 0.00000E+00
 -1      2081 1.46103E+02 8.11250E+00 0.00000E+00
 -1      2082 1.44804E+02 1.03250E+01 0.00000E+00
 -1      2083 1.46269E+02 6.95391E+00 0.00000E+00
 -1      2084 1.46269E+02 5.47891E+00 0.00000E+00
 -1      2085 1.45302E+02 5.37422E+00 0.00000E+00
 -1      2086 1.44970E+02 7.69141E+00 0.00000E+00
 -1      2087 1.46103E+02 1.54375E+01 0.00000E+00
 -1      2088 1.46103E+02 1.39875E+01 0.00000E+00
 -1      2089 1.44804E+02 1.32500E+01 0.00000E+00
 -1      2090 1.46103E+02 1.83875E+01 0.00000E+00
 -1      2091 1.46103E+02 1.69125E+01 0.00000E+00
 -1      2092 1.44804E+02 1.61750E+01 0.00000E+00
 -1      2093 1.46103E+02 2.13375E+01 0.00000E+00
 -1      2094 1.46103E+02 1.98625E+01 0.00000E+00
 -1      2095 1.44804E+02 1.91250E+01 0.00000E+00
 -1      2096 1.46103E+02 2.42875E+01 0.00000E+00
 -1      2097 1.46103E+02 2.28125E+01 0.00000E+00
 -1      2098 1.44804E+02 2.20750E+01 0.00000E+00
 -1      2099 1.46103E+02 2.72375E+01 0.00000E+00
 -1      2100 1.46103E+02 2.57625E+01 0.00000E+00
 -1      2101 1.44804E+02 2.50250E+01 0.00000E+00
 -1      2102 1.46103E+02 3.01875E+01 0.00000E+00
 -1      2103 1.46103E+02 2.87125E+01 0.00000E+00
 -1      2104 1.44804E+02 2.79750E+01 0.00000E+00
 -1      2105 1.46103E+02 3.30875E+01 0.00000E+00
 -1      2106 1.46103E+02 3.16375E+01 0.00000E+00
 -1      2107 1.44804E+02 3.09000E+01 0.00000E+00
 -1      2108 1.46103E+02 3.60375E+01 0.00000E+00
 -1      2109 1.46103E+02 3.45625E+01 0.00000E+00
 -1      2110 1.44804E+02 3.38250E+01 0.00000E+00
 -1      2111 1.46103E+02 3.89875E+01 0.00000E+00
 -1      2112 1.46103E+02 3.75125E+01 0.00000E+00
 -1      2113 1.44804E+02 3.67750E+01 0.00000E+00
 -1      2114 1.46103E+02 4.19375E+01 0.00000E+00
 -1      2115 1.46103E+02 4.04625E+01 0.00000E+00
 -1      2116 1.44804E+02 3.97250E+01 0.00000E+00
 -1      2117 6.06422E+01 1.81734E+01 0.00000E+00
 -1      2118 6.11326E+01 1.89346E+01 0.00000E+00
 -1      2119 6.15967E+01 2.20328E+01 0.00000E+00
 -1      2120 6.15580E+01 2.29053E+01 0.00000E+00
 -1      2121 6.16379E+01 2.00808E+01 0.00000E+00
 -1      2122 6.17585E+01 2.09976E+01 0.00000E+00
 -1      2123 5.96656E+01 1.66466E+01 0.00000E+00
 -1      2124 6.01539E+01 1.74100E+01 0.00000E+00
 -1      2125 6.10496E+01 1.73715E+01 0.00000E+00
 -1      2126 5.81071E+01 1.52785E+01 0.00000E+00
 -1      2127 5.88443E+01 1.57933E+01 0.00000E+00
 -1      2128 3.89700E+00 3.74688E+01 0.00000E+00
 -1      2129 3.89700E+00 3.89437E+01 0.00000E+00
 -1      2130 5.19600E+00 3.96813E+01 0.00000E+00
 -1      2131 5.19600E+00 3.67438E+01 0.00000E+00
 -1      2132 5.48308E+01 1.34630E+01 0.00000E+00
 -1      2133 5.57031E+01 1.37870E+01 0.00000E+00
 -1      2134 5.26749E+01 1.34061E+01 0.00000E+00
 -1      2135 5.35902E+01 1.33316E+01 0.00000E+00
 -1      2136 5.09284E+01 1.36159E+01 0.00000E+00
 -1      2137 5.18017E+01 1.35110E+01 0.00000E+00
 -1      2138 5.21966E+01 1.27025E+01 0.00000E+00
 -1      2139 4.90680E+01 1.44402E+01 0.00000E+00
 -1      2140 4.98498E+01 1.40442E+01 0.00000E+00
 -1      2141 4.76110E+01 1.53073E+01 0.00000E+00
 -1      2142 4.83395E+01 1.48738E+01 0.00000E+00
 -1      2143 4.84375E+01 1.40976E+01 0.00000E+00
 -1      2144 4.61247E+01 1.66094E+01 0.00000E+00
 -1      2145 4.67060E+01 1.59536E+01 0.00000E+00
 -1      2146 4.50924E+01 1.81815E+01 0.00000E+00
 -1      2147 4.55650E+01 1.74277E+01 0.00000E+00
 -1      2148 4.43589E+01 1.98805E+01 0.00000E+00
 -1      2149 4.46505E+01 1.90806E+01 0.00000E+00
 -1      2150 4.39102E+01 2.16369E+01 0.00000E+00
 -1      2151 4.40658E+01 2.07969E+01 0.00000E+00
 -1      2152 4.37941E+01 2.35639E+01 0.00000E+00
 -1      2153 4.37297E+01 2.26827E+01 0.00000E+00
 -1      2154 4.41401E+01 2.53175E+01 0.00000E+00
 -1      2155 4.39671E+01 2.44407E+01 0.00000E+00
 -1      2156 4.31214E+01 2.40596E+01 0.00000E+00
 -1      2157 4.48358E+01 2.74101E+01 0.00000E+00
 -1      2158 4.44174E+01 2.65101E+01 0.00000E+00
 -1      2159 4.65476E+01 2.89726E+01 0.00000E+00
 -1      2160 4.57632E+01 2.84089E+01 0.00000E+00
 -1      2161 4.79719E+01 3.01390E+01 0.00000E+00
 -1      2162 4.72597E+01 2.95558E+01 0.00000E+00
 -1      2163 4.64159E+01 2.99022E+01 0.00000E+00
 -1      2164 4.99475E+01 3.08645E+01 0.00000E+00
 -1      2165 4.90571E+01 3.05894E+01 0.00000E+00
 -1      2166 5.17174E+01 3.13688E+01 0.00000E+00
 -1      2167 5.08642E+01 3.11897E+01 0.00000E+00
 -1      2168 5.36889E+01 3.13012E+01 0.00000E+00
 -1      2169 5.28123E+01 3.13867E+01 0.00000E+00
 -1      2170 5.55362E+01 3.09697E+01 0.00000E+00
 -1      2171 5.46934E+01 3.12010E+01 0.00000E+00
 -1      2172 5.72468E+01 3.01980E+01 0.00000E+00
 -1      2173 5.64173E+01 3.05368E+01 0.00000E+00
 -1      2174 5.88538E+01 2.89619E+01 0.00000E+00
 -1      2175 5.82318E+01 2.95904E+01 0.00000E+00
 -1      2176 6.00045E+01 2.74973E+01 0.00000E+00
 -1      2177 5.94625E+01 2.82016E+01 0.00000E+00
 -1      2178 6.10274E+01 2.58577E+01 0.00000E+00
 -1      2179 6.05598E+01 2.66659E+01 0.00000E+00
 -1      2180 6.15605E+01 2.38535E+01 0.00000E+00
 -1      2181 6.14469E+01 2.47511E+01 0.00000E+00
 -1      2182 5.66668E+01 1.43367E+01 0.00000E+00
 -1      2183 5.73869E+01 1.48076E+01 0.00000E+00
 -1      2184 5.81986E+01 1.44306E+01 0.00000E+00
 -1      2185 5.97400E+01 1.57548E+01 0.00000E+00
 -1      2186 6.42300E+00 4.57510E+01 0.00000E+00
 -1      2187 5.65147E+01 1.34100E+01 0.00000E+00
 -1      2188 7.17300E+00 4.44520E+01 0.00000E+00
 -1      2189 6.20432E+01 1.92811E+01 0.00000E+00
 -1      2190 6.23866E+01 2.14626E+01 0.00000E+00
 -1      2191 1.45665E+02 4.31193E+01 0.00000E+00
 -1      2192 6.22273E+01 2.34460E+01 0.00000E+00
 -1      2193 6.18103E+01 2.55008E+01 0.00000E+00
 -1      2194 6.08355E+01 2.74388E+01 0.00000E+00
 -1      2195 5.96716E+01 2.90306E+01 0.00000E+00
 -1      2196 5.80780E+01 3.03986E+01 0.00000E+00
 -1      2197 5.62118E+01 3.14390E+01 0.00000E+00
 -1      2198 5.43262E+01 3.19722E+01 0.00000E+00
 -1      2199 5.22267E+01 3.20544E+01 0.00000E+00
 -1      2200 4.82134E+01 3.09358E+01 0.00000E+00
 -1      2201 4.35717E+01 2.61290E+01 0.00000E+00
 -1      2202 4.31290E+01 2.21370E+01 0.00000E+00
 -1      2203 4.36027E+01 2.01749E+01 0.00000E+00
 -1      2204 4.43377E+01 1.83595E+01 0.00000E+00
 -1      2205 4.68040E+01 1.51775E+01 0.00000E+00
 -1      2206 5.02447E+01 1.32358E+01 0.00000E+00
 -1      2207 5.43104E+01 1.27290E+01 0.00000E+00
 -1      2208 4.53393E+01 1.66421E+01 0.00000E+00
 -1      2209 4.47764E+01 2.83203E+01 0.00000E+00
 -1      2210 4.37895E+01 2.82318E+01 0.00000E+00
 -1      2211 4.47170E+01 2.92305E+01 0.00000E+00
 -1      2212 5.02152E+01 3.17113E+01 0.00000E+00
 -1      2213 1.07850E+01 5.30525E+00 0.00000E+00
 -1      2214 9.28500E+00 5.30525E+00 0.00000E+00
 -1      2215 6.49500E+00 3.01125E+01 0.00000E+00
 -1      2216 6.49500E+00 3.15875E+01 0.00000E+00
 -1      2217 6.49500E+00 3.30625E+01 0.00000E+00
 -1      2218 6.49500E+00 3.45375E+01 0.00000E+00
 -1      2219 7.79400E+00 3.23250E+01 0.00000E+00
 -1      2220 6.49500E+00 2.42125E+01 0.00000E+00
 -1      2221 6.49500E+00 2.56875E+01 0.00000E+00
 -1      2222 6.49500E+00 2.12625E+01 0.00000E+00
 -1      2223 6.49500E+00 2.27375E+01 0.00000E+00
 -1      2224 7.79400E+00 2.34750E+01 0.00000E+00
 -1      2225 6.49500E+00 1.83625E+01 0.00000E+00
 -1      2226 6.49500E+00 1.98125E+01 0.00000E+00
 -1      2227 7.79400E+00 2.05500E+01 0.00000E+00
 -1      2228 6.49500E+00 1.54125E+01 0.00000E+00
 -1      2229 6.49500E+00 1.68875E+01 0.00000E+00
 -1      2230 7.79400E+00 1.76250E+01 0.00000E+00
 -1      2231 6.49500E+00 1.24625E+01 0.00000E+00
 -1      2232 6.49500E+00 1.39375E+01 0.00000E+00
 -1      2233 7.79400E+00 1.46750E+01 0.00000E+00
 -1      2234 6.49500E+00 9.51250E+00 0.00000E+00
 -1      2235 6.49500E+00 1.09875E+01 0.00000E+00
 -1      2236 7.79400E+00 1.17250E+01 0.00000E+00
 -1      2237 1.37850E+01 5.30525E+00 0.00000E+00
 -1      2238 1.22850E+01 5.30525E+00 0.00000E+00
 -1      2239 1.15350E+01 6.60425E+00 0.00000E+00
 -1      2240 9.90000E+00 4.35050E+01 0.00000E+00
 -1      2241 1.14000E+01 4.35050E+01 0.00000E+00
 -1      2242 5.64162E+01 1.24631E+01 0.00000E+00
 -1      2243 5.73799E+01 1.30127E+01 0.00000E+00
 -1      2244 1.29000E+01 4.35050E+01 0.00000E+00
 -1      2245 1.44000E+01 4.35050E+01 0.00000E+00
 -1      2246 1.21500E+01 4.22060E+01 0.00000E+00
 -1      2247 1.59000E+01 4.35050E+01 0.00000E+00
 -1      2248 1.74000E+01 4.35050E+01 0.00000E+00
 -1      2249 1.51500E+01 4.22060E+01 0.00000E+00
 -1      2250 1.89000E+01 4.35050E+01 0.00000E+00
 -1      2251 2.04000E+01 4.35050E+01 0.00000E+00
 -1      2252 1.81500E+01 4.22060E+01 0.00000E+00
 -1      2253 2.19000E+01 4.35050E+01 0.00000E+00
 -1      2254 2.34000E+01 4.35050E+01 0.00000E+00
 -1      2255 2.11500E+01 4.22060E+01 0.00000E+00
 -1      2256 2.49000E+01 4.35050E+01 0.00000E+00
 -1      2257 2.64000E+01 4.35050E+01 0.00000E+00
 -1      2258 2.41500E+01 4.22060E+01 0.00000E+00
 -1      2259 2.79000E+01 4.35050E+01 0.00000E+00
 -1      2260 2.94000E+01 4.35050E+01 0.00000E+00
 -1      2261 2.71500E+01 4.22060E+01 0.00000E+00
 -1      2262 3.09000E+01 4.35050E+01 0.00000E+00
 -1      2263 3.24000E+01 4.35050E+01 0.00000E+00
 -1      2264 3.01500E+01 4.22060E+01 0.00000E+00
 -1      2265 3.39000E+01 4.35050E+01 0.00000E+00
 -1      2266 3.54000E+01 4.35050E+01 0.00000E+00
 -1      2267 3.31500E+01 4.22060E+01 0.00000E+00
 -1      2268 3.69000E+01 4.35050E+01 0.00000E+00
 -1      2269 3.84000E+01 4.35050E+01 0.00000E+00
 -1      2270 3.61500E+01 4.22060E+01 0.00000E+00
 -1      2271 3.99000E+01 4.35050E+01 0.00000E+00
 -1      2272 4.14000E+01 4.35050E+01 0.00000E+00
 -1      2273 3.91500E+01 4.22060E+01 0.00000E+00
 -1      2274 4.29000E+01 4.35050E+01 0.00000E+00
 -1      2275 4.44000E+01 4.35050E+01 0.00000E+00
 -1      2276 4.21500E+01 4.22060E+01 0.00000E+00
 -1      2277 4.59000E+01 4.35050E+01 0.00000E+00
 -1      2278 4.74000E+01 4.35050E+01 0.00000E+00
 -1      2279 4.51500E+01 4.22060E+01 0.00000E+00
 -1      2280 4.89000E+01 4.35050E+01 0.00000E+00
 -1      2281 5.04000E+01 4.35050E+01 0.00000E+00
 -1      2282 4.81500E+01 4.22060E+01 0.00000E+00
 -1      2283 5.19000E+01 4.35050E+01 0.00000E+00
 -1      2284 5.34000E+01 4.35050E+01 0.00000E+00
 -1      2285 5.11500E+01 4.22060E+01 0.00000E+00
 -1      2286 5.49000E+01 4.35050E+01 0.00000E+00
 -1      2287 5.64000E+01 4.35050E+01 0.00000E+00
 -1      2288 5.41500E+01 4.22060E+01 0.00000E+00
 -1      2289 5.79000E+01 4.35050E+01 0.00000E+00
 -1      2290 5.94000E+01 4.35050E+01 0.00000E+00
 -1      2291 5.71500E+01 4.22060E+01 0.00000E+00
 -1      2292 6.09000E+01 4.35050E+01 0.00000E+00
 -1      2293 6.24000E+01 4.35050E+01 0.00000E+00
 -1      2294 6.01500E+01 4.22060E+01 0.00000E+00
 -1      2295 6.39000E+01 4.35050E+01 0.00000E+00
 -1      2296 6.54000E+01 4.35050E+01 0.00000E+00
 -1      2297 6.31500E+01 4.22060E+01 0.00000E+00
 -1      2298 6.69000E+01 4.35050E+01 0.00000E+00
 -1      2299 6.84000E+01 4.35050E+01 0.00000E+00
 -1      2300 6.61500E+01 4.22060E+01 0.00000E+00
 -1      2301 6.99000E+01 4.35050E+01 0.00000E+00
 -1      2302 7.14000E+01 4.35050E+01 0.00000E+00
 -1      2303 6.91500E+01 4.22060E+01 0.00000E+00
 -1      2304 7.29000E+01 4.35050E+01 0.00000E+00
 -1      2305 7.44000E+01 4.35050E+01 0.00000E+00
 -1      2306 7.21500E+01 4.22060E+01 0.00000E+00
 -1      2307 7.59000E+01 4.35050E+01 0.00000E+00
 -1      2308 7.74000E+01 4.35050E+01 0.00000E+00
 -1      2309 7.51500E+01 4.22060E+01 0.00000E+00
 -1      2310 7.89000E+01 4.35050E+01 0.00000E+00
 -1      2311 8.04000E+01 4.35050E+01 0.00000E+00
 -1      2312 7.81500E+01 4.22060E+01 0.00000E+00
 -1      2313 8.19000E+01 4.35050E+01 0.00000E+00
 -1      2314 8.34000E+01 4.35050E+01 0.00000E+00
 -1      2315 8.11500E+01 4.22060E+01 0.00000E+00
 -1      2316 8.49000E+01 4.35050E+01 0.00000E+00
 -1      2317 8.64000E+01 4.35050E+01 0.00000E+00
 -1      2318 8.41500E+01 4.22060E+01 0.00000E+00
 -1      2319 8.79000E+01 4.35050E+01 0.00000E+00
 -1      2320 8.94000E+01 4.35050E+01 0.00000E+00
 -1      2321 8.71500E+01 4.22060E+01 0.00000E+00
 -1      2322 9.09000E+01 4.35050E+01 0.00000E+00
 -1      2323 9.24000E+01 4.35050E+01 0.00000E+00
 -1      2324 9.01500E+01 4.22060E+01 0.00000E+00
 -1      2325 9.39000E+01 4.35050E+01 0.00000E+00
 -1      2326 9.54000E+01 4.35050E+01 0.00000E+00
 -1      2327 9.31500E+01 4.22060E+01 0.00000E+00
 -1      2328 9.69000E+01 4.35050E+01 0.00000E+00
 -1      2329 9.84000E+01 4.35050E+01 0.00000E+00
 -1      2330 9.61500E+01 4.22060E+01 0.00000E+00
 -1      2331 9.99000E+01 4.35050E+01 0.00000E+00
 -1      2332 1.01400E+02 4.35050E+01 0.00000E+00
 -1      2333 9.91500E+01 4.22060E+01 0.00000E+00
 -1      2334 1.02900E+02 4.35050E+01 0.00000E+00
 -1      2335 1.04400E+02 4.35050E+01 0.00000E+00
 -1      2336 1.02150E+02 4.22060E+01 0.00000E+00
 -1      2337 1.05900E+02 4.35050E+01 0.00000E+00
 -1      2338 1.07400E+02 4.35050E+01 0.00000E+00
 -1      2339 1.05150E+02 4.22060E+01 0.00000E+00
 -1      2340 1.08900E+02 4.35050E+01 0.00000E+00
 -1      2341 1.10400E+02 4.35050E+01 0.00000E+00
 -1      2342 1.08150E+02 4.22060E+01 0.00000E+00
 -1      2343 1.11900E+02 4.35050E+01 0.00000E+00
 -1      2344 1.13400E+02 4.35050E+01 0.00000E+00
 -1      2345 1.11150E+02 4.22060E+01 0.00000E+00
 -1      2346 1.14900E+02 4.35050E+01 0.00000E+00
 -1      2347 1.16400E+02 4.35050E+01 0.00000E+00
 -1      2348 1.14150E+02 4.22060E+01 0.00000E+00
 -1      2349 1.17900E+02 4.35050E+01 0.00000E+00
 -1      2350 1.19400E+02 4.35050E+01 0.00000E+00
 -1      2351 1.17150E+02 4.22060E+01 0.00000E+00
 -1      2352 1.20900E+02 4.35050E+01 0.00000E+00
 -1      2353 1.22400E+02 4.35050E+01 0.00000E+00
 -1      2354 1.20150E+02 4.22060E+01 0.00000E+00
 -1      2355 1.23900E+02 4.35050E+01 0.00000E+00
 -1      2356 1.25400E+02 4.35050E+01 0.00000E+00
 -1      2357 1.23150E+02 4.22060E+01 0.00000E+00
 -1      2358 1.26900E+02 4.35050E+01 0.00000E+00
 -1      2359 1.28400E+02 4.35050E+01 0.00000E+00
 -1      2360 1.26150E+02 4.22060E+01 0.00000E+00
 -1      2361 1.29900E+02 4.35050E+01 0.00000E+00
 -1      2362 1.31400E+02 4.35050E+01 0.00000E+00
 -1      2363 1.29150E+02 4.22060E+01 0.00000E+00
 -1      2364 1.32900E+02 4.35050E+01 0.00000E+00
 -1      2365 1.34400E+02 4.35050E+01 0.00000E+00
 -1      2366 1.32150E+02 4.22060E+01 0.00000E+00
 -1      2367 1.35900E+02 4.35050E+01 0.00000E+00
 -1      2368 1.37400E+02 4.35050E+01 0.00000E+00
 -1      2369 1.35150E+02 4.22060E+01 0.00000E+00
 -1      2370 1.38900E+02 4.35050E+01 0.00000E+00
 -1      2371 1.40400E+02 4.35050E+01 0.00000E+00
 -1      2372 1.38150E+02 4.22060E+01 0.00000E+00
 -1      2373 1.97850E+01 5.30525E+00 0.00000E+00
 -1      2374 1.82850E+01 5.30525E+00 0.00000E+00
 -1      2375 2.27850E+01 5.30525E+00 0.00000E+00
 -1      2376 2.12850E+01 5.30525E+00 0.00000E+00
 -1      2377 2.05350E+01 6.60425E+00 0.00000E+00
 -1      2378 2.57850E+01 5.30525E+00 0.00000E+00
 -1      2379 2.42850E+01 5.30525E+00 0.00000E+00
 -1      2380 2.35350E+01 6.60425E+00 0.00000E+00
 -1      2381 2.87850E+01 5.30525E+00 0.00000E+00
 -1      2382 2.72850E+01 5.30525E+00 0.00000E+00
 -1      2383 2.65350E+01 6.60425E+00 0.00000E+00
 -1      2384 3.17850E+01 5.30525E+00 0.00000E+00
 -1      2385 3.02850E+01 5.30525E+00 0.00000E+00
 -1      2386 2.95350E+01 6.60425E+00 0.00000E+00
 -1      2387 3.47850E+01 5.30525E+00 0.00000E+00
 -1      2388 3.32850E+01 5.30525E+00 0.00000E+00
 -1      2389 3.25350E+01 6.60425E+00 0.00000E+00
 -1      2390 3.77850E+01 5.30525E+00 0.00000E+00
 -1      2391 3.62850E+01 5.30525E+00 0.00000E+00
 -1      2392 3.55350E+01 6.60425E+00 0.00000E+00
 -1      2393 4.07850E+01 5.30525E+00 0.00000E+00
 -1      2394 3.92850E+01 5.30525E+00 0.00000E+00
 -1      2395 3.85350E+01 6.60425E+00 0.00000E+00
 -1      2396 4.37850E+01 5.30525E+00 0.00000E+00
 -1      2397 4.22850E+01 5.30525E+00 0.00000E+00
 -1      2398 4.15350E+01 6.60425E+00 0.00000E+00
 -1      2399 4.67850E+01 5.30525E+00 0.00000E+00
 -1      2400 4.52850E+01 5.30525E+00 0.00000E+00
 -1      2401 4.45350E+01 6.60425E+00 0.00000E+00
 -1      2402 4.97850E+01 5.30525E+00 0.00000E+00
 -1      2403 4.82850E+01 5.30525E+00 0.00000E+00
 -1      2404 4.75350E+01 6.60425E+00 0.00000E+00
 -1      2405 5.27850E+01 5.30525E+00 0.00000E+00
 -1      2406 5.12850E+01 5.30525E+00 0.00000E+00
 -1      2407 5.05350E+01 6.60425E+00 0.00000E+00
 -1      2408 5.57850E+01 5.30525E+00 0.00000E+00
 -1      2409 5.42850E+01 5.30525E+00 0.00000E+00
 -1      2410 5.35350E+01 6.60425E+00 0.00000E+00
 -1      2411 5.87850E+01 5.30525E+00 0.00000E+00
 -1      2412 5.72850E+01 5.30525E+00 0.00000E+00
 -1      2413 5.65350E+01 6.60425E+00 0.00000E+00
 -1      2414 6.17850E+01 5.30525E+00 0.00000E+00
 -1      2415 6.02850E+01 5.30525E+00 0.00000E+00
 -1      2416 5.95350E+01 6.60425E+00 0.00000E+00
 -1      2417 6.47850E+01 5.30525E+00 0.00000E+00
 -1      2418 6.32850E+01 5.30525E+00 0.00000E+00
 -1      2419 6.25350E+01 6.60425E+00 0.00000E+00
 -1      2420 6.77850E+01 5.30525E+00 0.00000E+00
 -1      2421 6.62850E+01 5.30525E+00 0.00000E+00
 -1      2422 6.55350E+01 6.60425E+00 0.00000E+00
 -1      2423 7.07850E+01 5.30525E+00 0.00000E+00
 -1      2424 6.92850E+01 5.30525E+00 0.00000E+00
 -1      2425 6.85350E+01 6.60425E+00 0.00000E+00
 -1      2426 7.37850E+01 5.30525E+00 0.00000E+00
 -1      2427 7.22850E+01 5.30525E+00 0.00000E+00
 -1      2428 7.15350E+01 6.60425E+00 0.00000E+00
 -1      2429 7.67850E+01 5.30525E+00 0.00000E+00
 -1      2430 7.52850E+01 5.30525E+00 0.00000E+00
 -1      2431 7.45350E+01 6.60425E+00 0.00000E+00
 -1      2432 7.97850E+01 5.30525E+00 0.00000E+00
 -1      2433 7.82850E+01 5.30525E+00 0.00000E+00
 -1      2434 7.75350E+01 6.60425E+00 0.00000E+00
 -1      2435 8.27850E+01 5.30525E+00 0.00000E+00
 -1      2436 8.12850E+01 5.30525E+00 0.00000E+00
 -1      2437 8.05350E+01 6.60425E+00 0.00000E+00
 -1      2438 8.57850E+01 5.30525E+00 0.00000E+00
 -1      2439 8.42850E+01 5.30525E+00 0.00000E+00
 -1      2440 8.35350E+01 6.60425E+00 0.00000E+00
 -1      2441 8.87850E+01 5.30525E+00 0.00000E+00
 -1      2442 8.72850E+01 5.30525E+00 0.00000E+00
 -1      2443 8.65350E+01 6.60425E+00 0.00000E+00
 -1      2444 9.17850E+01 5.30525E+00 0.00000E+00
 -1      2445 9.02850E+01 5.30525E+00 0.00000E+00
 -1      2446 8.95350E+01 6.60425E+00 0.00000E+00
 -1      2447 9.47850E+01 5.30525E+00 0.00000E+00
 -1      2448 9.32850E+01 5.30525E+00 0.00000E+00
 -1      2449 9.25350E+01 6.60425E+00 0.00000E+00
 -1      2450 9.77850E+01 5.30525E+00 0.00000E+00
 -1      2451 9.62850E+01 5.30525E+00 0.00000E+00
 -1      2452 9.55350E+01 6.60425E+00 0.00000E+00
 -1      2453 1.00785E+02 5.30525E+00 0.00000E+00
 -1      2454 9.92850E+01 5.30525E+00 0.00000E+00
 -1      2455 9.85350E+01 6.60425E+00 0.00000E+00
 -1      2456 1.03785E+02 5.30525E+00 0.00000E+00
 -1      2457 1.02285E+02 5.30525E+00 0.00000E+00
 -1      2458 1.01535E+02 6.60425E+00 0.00000E+00
 -1      2459 1.06785E+02 5.30525E+00 0.00000E+00
 -1      2460 1.05285E+02 5.30525E+00 0.00000E+00
 -1      2461 1.04535E+02 6.60425E+00 0.00000E+00
 -1      2462 1.09785E+02 5.30525E+00 0.00000E+00
 -1      2463 1.08285E+02 5.30525E+00 0.00000E+00
 -1      2464 1.07535E+02 6.60425E+00 0.00000E+00
 -1      2465 1.12785E+02 5.30525E+00 0.00000E+00
 -1      2466 1.11285E+02 5.30525E+00 0.00000E+00
 -1      2467 1.10535E+02 6.60425E+00 0.00000E+00
 -1      2468 1.15785E+02 5.30525E+00 0.00000E+00
 -1      2469 1.14285E+02 5.30525E+00 0.00000E+00
 -1      2470 1.13535E+02 6.60425E+00 0.00000E+00
 -1      2471 1.18785E+02 5.30525E+00 0.00000E+00
 -1      2472 1.17285E+02 5.30525E+00 0.00000E+00
 -1      2473 1.16535E+02 6.60425E+00 0.00000E+00
 -1      2474 1.21785E+02 5.30525E+00 0.00000E+00
 -1      2475 1.20285E+02 5.30525E+00 0.00000E+00
 -1      2476 1.19535E+02 6.60425E+00 0.00000E+00
 -1      2477 1.24785E+02 5.30525E+00 0.00000E+00
 -1      2478 1.23285E+02 5.30525E+00 0.00000E+00
 -1      2479 1.22535E+02 6.60425E+00 0.00000E+00
 -1      2480 1.27785E+02 5.30525E+00 0.00000E+00
 -1      2481 1.26285E+02 5.30525E+00 0.00000E+00
 -1      2482 1.25535E+02 6.60425E+00 0.00000E+00
 -1      2483 1.30785E+02 5.30525E+00 0.00000E+00
 -1      2484 1.29285E+02 5.30525E+00 0.00000E+00
 -1      2485 1.28535E+02 6.60425E+00 0.00000E+00
 -1      2486 1.33785E+02 5.30525E+00 0.00000E+00
 -1      2487 1.32285E+02 5.30525E+00 0.00000E+00
 -1      2488 1.31535E+02 6.60425E+00 0.00000E+00
 -1      2489 1.36785E+02 5.30525E+00 0.00000E+00
 -1      2490 1.35285E+02 5.30525E+00 0.00000E+00
 -1      2491 1.34535E+02 6.60425E+00 0.00000E+00
 -1      2492 1.39785E+02 5.30525E+00 0.00000E+00
 -1      2493 1.38285E+02 5.30525E+00 0.00000E+00
 -1      2494 1.37535E+02 6.60425E+00 0.00000E+00
 -1      2495 1.42785E+02 5.30525E+00 0.00000E+00
 -1      2496 1.41285E+02 5.30525E+00 0.00000E+00
 -1      2497 1.40535E+02 6.60425E+00 0.00000E+00
 -1      2498 1.44336E+02 5.26953E+00 0.00000E+00
 -1      2499 1.43505E+02 1.69125E+01 0.00000E+00
 -1      2500 1.43505E+02 1.54375E+01 0.00000E+00
 -1      2501 1.43505E+02 1.98625E+01 0.00000E+00
 -1      2502 1.43505E+02 1.83875E+01 0.00000E+00
 -1      2503 1.42206E+02 1.76500E+01 0.00000E+00
 -1      2504 1.43505E+02 1.10625E+01 0.00000E+00
 -1      2505 1.43505E+02 9.58750E+00 0.00000E+00
 -1      2506 1.43505E+02 1.39750E+01 0.00000E+00
 -1      2507 1.43505E+02 1.25250E+01 0.00000E+00
 -1      2508 1.42206E+02 1.17875E+01 0.00000E+00
 -1      2509 1.42206E+02 1.47125E+01 0.00000E+00
 -1      2510 1.43505E+02 2.28125E+01 0.00000E+00
 -1      2511 1.43505E+02 2.13375E+01 0.00000E+00
 -1      2512 1.42206E+02 2.06000E+01 0.00000E+00
 -1      2513 1.43505E+02 2.57625E+01 0.00000E+00
 -1      2514 1.43505E+02 2.42875E+01 0.00000E+00
 -1      2515 1.42206E+02 2.35500E+01 0.00000E+00
 -1      2516 1.43505E+02 2.87125E+01 0.00000E+00
 -1      2517 1.43505E+02 2.72375E+01 0.00000E+00
 -1      2518 1.42206E+02 2.65000E+01 0.00000E+00
 -1      2519 1.43505E+02 3.16125E+01 0.00000E+00
 -1      2520 1.43505E+02 3.01625E+01 0.00000E+00
 -1      2521 1.42206E+02 2.94250E+01 0.00000E+00
 -1      2522 1.43505E+02 3.45625E+01 0.00000E+00
 -1      2523 1.43505E+02 3.30875E+01 0.00000E+00
 -1      2524 1.42206E+02 3.23500E+01 0.00000E+00
 -1      2525 1.43505E+02 3.75125E+01 0.00000E+00
 -1      2526 1.43505E+02 3.60375E+01 0.00000E+00
 -1      2527 1.42206E+02 3.53000E+01 0.00000E+00
 -1      2528 1.43505E+02 4.04625E+01 0.00000E+00
 -1      2529 1.43505E+02 3.89875E+01 0.00000E+00
 -1      2530 1.42206E+02 3.82500E+01 0.00000E+00
 -1      2531 6.32320E+01 2.10645E+01 0.00000E+00
 -1      2532 6.30702E+01 2.20997E+01 0.00000E+00
 -1      2533 6.25368E+01 1.83790E+01 0.00000E+00
 -1      2534 6.30422E+01 1.95252E+01 0.00000E+00
 -1      2535 6.30727E+01 2.30479E+01 0.00000E+00
 -1      2536 6.30752E+01 2.39961E+01 0.00000E+00
 -1      2537 6.39181E+01 2.26498E+01 0.00000E+00
 -1      2538 1.67850E+01 5.30525E+00 0.00000E+00
 -1      2539 1.52850E+01 5.30525E+00 0.00000E+00
 -1      2540 1.75350E+01 6.60425E+00 0.00000E+00
 -1      2541 1.44321E+02 4.30606E+01 0.00000E+00
 -1      2542 6.16690E+01 1.64375E+01 0.00000E+00
 -1      2543 6.21573E+01 1.72009E+01 0.00000E+00
 -1      2544 6.00264E+01 1.47309E+01 0.00000E+00
 -1      2545 6.08477E+01 1.55842E+01 0.00000E+00
 -1      2546 6.19555E+01 1.54135E+01 0.00000E+00
 -1      2547 6.55950E+00 4.28890E+01 0.00000E+00
 -1      2548 8.53650E+00 4.32410E+01 0.00000E+00
 -1      2549 9.28650E+00 4.19420E+01 0.00000E+00
 -1      2550 6.55950E+00 4.14140E+01 0.00000E+00
 -1      2551 6.27044E+01 2.52069E+01 0.00000E+00
 -1      2552 6.22849E+01 2.63135E+01 0.00000E+00
 -1      2553 4.27934E+01 2.69385E+01 0.00000E+00
 -1      2554 4.25162E+01 2.57459E+01 0.00000E+00
 -1      2555 4.22349E+01 2.25211E+01 0.00000E+00
 -1      2556 4.24155E+01 2.14754E+01 0.00000E+00
 -1      2557 6.49500E+00 2.71625E+01 0.00000E+00
 -1      2558 6.49500E+00 2.86375E+01 0.00000E+00
 -1      2559 7.79400E+00 2.93750E+01 0.00000E+00
 -1      2560 7.79400E+00 2.64250E+01 0.00000E+00
 -1      2561 5.37981E+01 1.16439E+01 0.00000E+00
 -1      2562 5.50387E+01 1.17753E+01 0.00000E+00
 -1      2563 4.44208E+01 1.66143E+01 0.00000E+00
 -1      2564 4.49805E+01 1.57961E+01 0.00000E+00
 -1      2565 5.16627E+01 1.19452E+01 0.00000E+00
 -1      2566 5.25359E+01 1.18402E+01 0.00000E+00
 -1      2567 4.93580E+01 1.25750E+01 0.00000E+00
 -1      2568 5.04366E+01 1.21467E+01 0.00000E+00
 -1      2569 4.76776E+01 1.36495E+01 0.00000E+00
 -1      2570 4.84061E+01 1.32159E+01 0.00000E+00
 -1      2571 4.58532E+01 1.48028E+01 0.00000E+00
 -1      2572 4.67581E+01 1.41565E+01 0.00000E+00
 -1      2573 4.33471E+01 1.84308E+01 0.00000E+00
 -1      2574 4.37890E+01 1.75317E+01 0.00000E+00
 -1      2575 4.27590E+01 2.04101E+01 0.00000E+00
 -1      2576 4.30522E+01 1.94938E+01 0.00000E+00
 -1      2577 4.23432E+01 2.48691E+01 0.00000E+00
 -1      2578 4.21702E+01 2.39923E+01 0.00000E+00
 -1      2579 4.15649E+01 2.56786E+01 0.00000E+00
 -1      2580 5.03869E+01 3.26821E+01 0.00000E+00
 -1      2581 4.94702E+01 3.23570E+01 0.00000E+00
 -1      2582 4.62818E+01 3.07925E+01 0.00000E+00
 -1      2583 4.55696E+01 3.02093E+01 0.00000E+00
 -1      2584 4.83850E+01 3.19066E+01 0.00000E+00
 -1      2585 4.72997E+01 3.14562E+01 0.00000E+00
 -1      2586 4.85566E+01 3.28774E+01 0.00000E+00
 -1      2587 5.27601E+01 3.29209E+01 0.00000E+00
 -1      2588 5.16653E+01 3.29029E+01 0.00000E+00
 -1      2589 5.49011E+01 3.26503E+01 0.00000E+00
 -1      2590 5.38966E+01 3.27505E+01 0.00000E+00
 -1      2591 5.70675E+01 3.20675E+01 0.00000E+00
 -1      2592 5.61864E+01 3.25004E+01 0.00000E+00
 -1      2593 5.90375E+01 3.08523E+01 0.00000E+00
 -1      2594 5.80525E+01 3.14599E+01 0.00000E+00
 -1      2595 5.80270E+01 3.25212E+01 0.00000E+00
 -1      2596 6.05800E+01 2.91340E+01 0.00000E+00
 -1      2597 5.99714E+01 2.98943E+01 0.00000E+00
 -1      2598 6.17218E+01 2.74295E+01 0.00000E+00
 -1      2599 6.11665E+01 2.82610E+01 0.00000E+00
 -1      2600 5.83078E+01 1.34774E+01 0.00000E+00
 -1      2601 5.90280E+01 1.39483E+01 0.00000E+00
 -1      2602 8.07525E+00 5.11044E+00 0.00000E+00
 -1      2603 6.57525E+00 5.11044E+00 0.00000E+00
 -1      2604 6.40575E+00 6.01981E+00 0.00000E+00
 -1      2605 8.82525E+00 6.40944E+00 0.00000E+00
 -1      2606 5.53916E+01 1.02928E+01 0.00000E+00
 -1      2607 5.59039E+01 1.13780E+01 0.00000E+00
 -1      2608 5.67691E+01 1.09806E+01 0.00000E+00
 -1      2609 7.79400E+00 3.52687E+01 0.00000E+00
 -1      2610 6.49500E+00 3.60062E+01 0.00000E+00
 -1      2611 6.49500E+00 3.74750E+01 0.00000E+00
 -1      2612 1.45350E+01 6.60425E+00 0.00000E+00
 -1      2613 6.40575E+00 7.49481E+00 0.00000E+00
 -1      2614 5.82093E+01 1.25304E+01 0.00000E+00
 -1      2615 6.26159E+01 2.71357E+01 0.00000E+00
 -1      2616 6.35498E+01 2.48088E+01 0.00000E+00
 -1      2617 5.99459E+01 3.09557E+01 0.00000E+00
 -1      2618 6.31563E+01 1.74450E+01 0.00000E+00
 -1      2619 5.57568E+01 3.32787E+01 0.00000E+00
 -1      2620 1.43586E+02 6.56853E+00 0.00000E+00
 -1      2621 1.43419E+02 7.72713E+00 0.00000E+00
 -1      2622 7.70475E+00 8.23231E+00 0.00000E+00
 -1      2623 6.37257E+01 2.01623E+01 0.00000E+00
 -1      2624 6.44093E+01 2.07994E+01 0.00000E+00
 -1      2625 6.42194E+01 1.92602E+01 0.00000E+00
 -1      2626 4.64534E+01 3.17633E+01 0.00000E+00
 -1      2627 6.01357E+01 1.37777E+01 0.00000E+00
 -1      2628 6.55950E+00 3.99453E+01 0.00000E+00
 -1      2629 4.27340E+01 2.78487E+01 0.00000E+00
 -1      2630 4.16785E+01 2.74656E+01 0.00000E+00
 -1      2631 4.26746E+01 2.87589E+01 0.00000E+00
 -1      2632 5.09202E+01 3.35485E+01 0.00000E+00
 -1      2633 4.18650E+01 2.07942E+01 0.00000E+00
 -1      2634 4.25035E+01 1.86660E+01 0.00000E+00
 -1      2635 4.49346E+01 1.47751E+01 0.00000E+00
 -1      2636 4.67267E+01 1.32748E+01 0.00000E+00
 -1      2637 4.85980E+01 1.21269E+01 0.00000E+00
 -1      2638 5.07760E+01 1.12844E+01 0.00000E+00
 -1      2639 4.14567E+01 2.33306E+01 0.00000E+00
 -1      2640 4.34302E+01 1.66857E+01 0.00000E+00
 -1      2641 5.32642E+01 1.08865E+01 0.00000E+00
 -1      2642 4.45828E+01 3.01208E+01 0.00000E+00
 -1      2643 1.42758E+02 4.35929E+01 0.00000E+00
 -1      2644 1.43241E+02 4.17323E+01 0.00000E+00
 -1      2645 1.41942E+02 4.09948E+01 0.00000E+00
 -1      2646 1.41414E+02 4.35342E+01 0.00000E+00
 -1      2647 5.33351E+01 3.35990E+01 0.00000E+00
 -1      2648 6.14663E+01 2.91247E+01 0.00000E+00
 -1      2649 1.42120E+02 8.46463E+00 0.00000E+00
 -1      2650 1.40664E+02 4.22352E+01 0.00000E+00
 -1      2651 9.09300E+00 1.98250E+01 0.00000E+00
 -1      2652 9.09300E+00 2.12750E+01 0.00000E+00
 -1      2653 9.09300E+00 2.27500E+01 0.00000E+00
 -1      2654 9.09300E+00 2.42250E+01 0.00000E+00
 -1      2655 1.03920E+01 2.20250E+01 0.00000E+00
 -1      2656 9.09300E+00 1.39375E+01 0.00000E+00
 -1      2657 9.09300E+00 1.54125E+01 0.00000E+00
 -1      2658 9.09300E+00 1.09875E+01 0.00000E+00
 -1      2659 9.09300E+00 1.24625E+01 0.00000E+00
 -1      2660 1.03920E+01 1.32000E+01 0.00000E+00
 -1      2661 1.22850E+01 7.90325E+00 0.00000E+00
 -1      2662 1.07850E+01 7.90325E+00 0.00000E+00
 -1      2663 1.52850E+01 7.90325E+00 0.00000E+00
 -1      2664 1.37850E+01 7.90325E+00 0.00000E+00
 -1      2665 1.30350E+01 9.20225E+00 0.00000E+00
 -1      2666 6.36257E+01 2.69451E+01 0.00000E+00
 -1      2667 6.30626E+01 2.80611E+01 0.00000E+00
 -1      2668 6.38625E+01 1.65672E+01 0.00000E+00
 -1      2669 6.42421E+01 1.77454E+01 0.00000E+00
 -1      2670 1.44000E+01 4.09070E+01 0.00000E+00
 -1      2671 1.59000E+01 4.09070E+01 0.00000E+00
 -1      2672 1.74000E+01 4.09070E+01 0.00000E+00
 -1      2673 1.89000E+01 4.09070E+01 0.00000E+00
 -1      2674 1.66500E+01 3.96080E+01 0.00000E+00
 -1      2675 2.04000E+01 4.09070E+01 0.00000E+00
 -1      2676 2.19000E+01 4.09070E+01 0.00000E+00
 -1      2677 1.96500E+01 3.96080E+01 0.00000E+00
 -1      2678 2.34000E+01 4.09070E+01 0.00000E+00
 -1      2679 2.49000E+01 4.09070E+01 0.00000E+00
 -1      2680 2.26500E+01 3.96080E+01 0.00000E+00
 -1      2681 2.64000E+01 4.09070E+01 0.00000E+00
 -1      2682 2.79000E+01 4.09070E+01 0.00000E+00
 -1      2683 2.56500E+01 3.96080E+01 0.00000E+00
 -1      2684 2.94000E+01 4.09070E+01 0.00000E+00
 -1      2685 3.09000E+01 4.09070E+01 0.00000E+00
 -1      2686 2.86500E+01 3.96080E+01 0.00000E+00
 -1      2687 3.24000E+01 4.09070E+01 0.00000E+00
 -1      2688 3.39000E+01 4.09070E+01 0.00000E+00
 -1      2689 3.16500E+01 3.96080E+01 0.00000E+00
 -1      2690 3.54000E+01 4.09070E+01 0.00000E+00
 -1      2691 3.69000E+01 4.09070E+01 0.00000E+00
 -1      2692 3.46500E+01 3.96080E+01 0.00000E+00
 -1      2693 3.84000E+01 4.09070E+01 0.00000E+00
 -1      2694 3.99000E+01 4.09070E+01 0.00000E+00
 -1      2695 3.76500E+01 3.96080E+01 0.00000E+00
 -1      2696 4.14000E+01 4.09070E+01 0.00000E+00
 -1      2697 4.29000E+01 4.09070E+01 0.00000E+00
 -1      2698 4.06500E+01 3.96080E+01 0.00000E+00
 -1      2699 4.44000E+01 4.09070E+01 0.00000E+00
 -1      2700 4.59000E+01 4.09070E+01 0.00000E+00
 -1      2701 4.36500E+01 3.96080E+01 0.00000E+00
 -1      2702 4.74000E+01 4.09070E+01 0.00000E+00
 -1      2703 4.89000E+01 4.09070E+01 0.00000E+00
 -1      2704 4.66500E+01 3.96080E+01 0.00000E+00
 -1      2705 5.04000E+01 4.09070E+01 0.00000E+00
 -1      2706 5.19000E+01 4.09070E+01 0.00000E+00
 -1      2707 4.96500E+01 3.96080E+01 0.00000E+00
 -1      2708 5.34000E+01 4.09070E+01 0.00000E+00
 -1      2709 5.49000E+01 4.09070E+01 0.00000E+00
 -1      2710 5.26500E+01 3.96080E+01 0.00000E+00
 -1      2711 5.64000E+01 4.09070E+01 0.00000E+00
 -1      2712 5.79000E+01 4.09070E+01 0.00000E+00
 -1      2713 5.56500E+01 3.96080E+01 0.00000E+00
 -1      2714 5.94000E+01 4.09070E+01 0.00000E+00
 -1      2715 6.09000E+01 4.09070E+01 0.00000E+00
 -1      2716 5.86500E+01 3.96080E+01 0.00000E+00
 -1      2717 6.24000E+01 4.09070E+01 0.00000E+00
 -1      2718 6.39000E+01 4.09070E+01 0.00000E+00
 -1      2719 6.16500E+01 3.96080E+01 0.00000E+00
 -1      2720 6.54000E+01 4.09070E+01 0.00000E+00
 -1      2721 6.69000E+01 4.09070E+01 0.00000E+00
 -1      2722 6.46500E+01 3.96080E+01 0.00000E+00
 -1      2723 6.84000E+01 4.09070E+01 0.00000E+00
 -1      2724 6.99000E+01 4.09070E+01 0.00000E+00
 -1      2725 6.76500E+01 3.96080E+01 0.00000E+00
 -1      2726 7.14000E+01 4.09070E+01 0.00000E+00
 -1      2727 7.29000E+01 4.09070E+01 0.00000E+00
 -1      2728 7.06500E+01 3.96080E+01 0.00000E+00
 -1      2729 7.44000E+01 4.09070E+01 0.00000E+00
 -1      2730 7.59000E+01 4.09070E+01 0.00000E+00
 -1      2731 7.36500E+01 3.96080E+01 0.00000E+00
 -1      2732 7.74000E+01 4.09070E+01 0.00000E+00
 -1      2733 7.89000E+01 4.09070E+01 0.00000E+00
 -1      2734 7.66500E+01 3.96080E+01 0.00000E+00
 -1      2735 8.04000E+01 4.09070E+01 0.00000E+00
 -1      2736 8.19000E+01 4.09070E+01 0.00000E+00
 -1      2737 7.96500E+01 3.96080E+01 0.00000E+00
 -1      2738 8.34000E+01 4.09070E+01 0.00000E+00
 -1      2739 8.49000E+01 4.09070E+01 0.00000E+00
 -1      2740 8.26500E+01 3.96080E+01 0.00000E+00
 -1      2741 8.64000E+01 4.09070E+01 0.00000E+00
 -1      2742 8.79000E+01 4.09070E+01 0.00000E+00
 -1      2743 8.56500E+01 3.96080E+01 0.00000E+00
 -1      2744 8.94000E+01 4.09070E+01 0.00000E+00
 -1      2745 9.09000E+01 4.09070E+01 0.00000E+00
 -1      2746 8.86500E+01 3.96080E+01 0.00000E+00
 -1      2747 9.24000E+01 4.09070E+01 0.00000E+00
 -1      2748 9.39000E+01 4.09070E+01 0.00000E+00
 -1      2749 9.16500E+01 3.96080E+01 0.00000E+00
 -1      2750 9.54000E+01 4.09070E+01 0.00000E+00
 -1      2751 9.69000E+01 4.09070E+01 0.00000E+00
 -1      2752 9.46500E+01 3.96080E+01 0.00000E+00
 -1      2753 9.84000E+01 4.09070E+01 0.00000E+00
 -1      2754 9.99000E+01 4.09070E+01 0.00000E+00
 -1      2755 9.76500E+01 3.96080E+01 0.00000E+00
 -1      2756 1.01400E+02 4.09070E+01 0.00000E+00
 -1      2757 1.02900E+02 4.09070E+01 0.00000E+00
 -1      2758 1.00650E+02 3.96080E+01 0.00000E+00
 -1      2759 1.04400E+02 4.09070E+01 0.00000E+00
 -1      2760 1.05900E+02 4.09070E+01 0.00000E+00
 -1      2761 1.03650E+02 3.96080E+01 0.00000E+00
 -1      2762 1.07400E+02 4.09070E+01 0.00000E+00
 -1      2763 1.08900E+02 4.09070E+01 0.00000E+00
 -1      2764 1.06650E+02 3.96080E+01 0.00000E+00
 -1      2765 1.10400E+02 4.09070E+01 0.00000E+00
 -1      2766 1.11900E+02 4.09070E+01 0.00000E+00
 -1      2767 1.09650E+02 3.96080E+01 0.00000E+00
 -1      2768 1.13400E+02 4.09070E+01 0.00000E+00
 -1      2769 1.14900E+02 4.09070E+01 0.00000E+00
 -1      2770 1.12650E+02 3.96080E+01 0.00000E+00
 -1      2771 1.16400E+02 4.09070E+01 0.00000E+00
 -1      2772 1.17900E+02 4.09070E+01 0.00000E+00
 -1      2773 1.15650E+02 3.96080E+01 0.00000E+00
 -1      2774 1.19400E+02 4.09070E+01 0.00000E+00
 -1      2775 1.20900E+02 4.09070E+01 0.00000E+00
 -1      2776 1.18650E+02 3.96080E+01 0.00000E+00
 -1      2777 1.22400E+02 4.09070E+01 0.00000E+00
 -1      2778 1.23900E+02 4.09070E+01 0.00000E+00
 -1      2779 1.21650E+02 3.96080E+01 0.00000E+00
 -1      2780 1.25400E+02 4.09070E+01 0.00000E+00
 -1      2781 1.26900E+02 4.09070E+01 0.00000E+00
 -1      2782 1.24650E+02 3.96080E+01 0.00000E+00
 -1      2783 1.28400E+02 4.09070E+01 0.00000E+00
 -1      2784 1.29900E+02 4.09070E+01 0.00000E+00
 -1      2785 1.27650E+02 3.96080E+01 0.00000E+00
 -1      2786 1.31400E+02 4.09070E+01 0.00000E+00
 -1      2787 1.32900E+02 4.09070E+01 0.00000E+00
 -1      2788 1.30650E+02 3.96080E+01 0.00000E+00
 -1      2789 1.34400E+02 4.09070E+01 0.00000E+00
 -1      2790 1.35900E+02 4.09070E+01 0.00000E+00
 -1      2791 1.33650E+02 3.96080E+01 0.00000E+00
 -1      2792 1.37400E+02 4.09070E+01 0.00000E+00
 -1      2793 1.38900E+02 4.09070E+01 0.00000E+00
 -1      2794 1.36650E+02 3.96080E+01 0.00000E+00
 -1      2795 2.42850E+01 7.90325E+00 0.00000E+00
 -1      2796 2.27850E+01 7.90325E+00 0.00000E+00
 -1      2797 5.40304E+01 3.43619E+01 0.00000E+00
 -1      2798 5.28940E+01 3.45322E+01 0.00000E+00
 -1      2799 2.12850E+01 7.90325E+00 0.00000E+00
 -1      2800 1.97850E+01 7.90325E+00 0.00000E+00
 -1      2801 2.20350E+01 9.20225E+00 0.00000E+00
 -1      2802 3.02850E+01 7.90325E+00 0.00000E+00
 -1      2803 2.87850E+01 7.90325E+00 0.00000E+00
 -1      2804 3.32850E+01 7.90325E+00 0.00000E+00
 -1      2805 3.17850E+01 7.90325E+00 0.00000E+00
 -1      2806 3.10350E+01 9.20225E+00 0.00000E+00
 -1      2807 3.62850E+01 7.90325E+00 0.00000E+00
 -1      2808 3.47850E+01 7.90325E+00 0.00000E+00
 -1      2809 3.40350E+01 9.20225E+00 0.00000E+00
 -1      2810 3.92850E+01 7.90325E+00 0.00000E+00
 -1      2811 3.77850E+01 7.90325E+00 0.00000E+00
 -1      2812 3.70350E+01 9.20225E+00 0.00000E+00
 -1      2813 4.22850E+01 7.90325E+00 0.00000E+00
 -1      2814 4.07850E+01 7.90325E+00 0.00000E+00
 -1      2815 4.00350E+01 9.20225E+00 0.00000E+00
 -1      2816 4.52850E+01 7.90325E+00 0.00000E+00
 -1      2817 4.37850E+01 7.90325E+00 0.00000E+00
 -1      2818 4.30350E+01 9.20225E+00 0.00000E+00
 -1      2819 4.82850E+01 7.90325E+00 0.00000E+00
 -1      2820 4.67850E+01 7.90325E+00 0.00000E+00
 -1      2821 4.60350E+01 9.20225E+00 0.00000E+00
 -1      2822 5.42850E+01 7.79695E+00 0.00000E+00
 -1      2823 5.27850E+01 7.79695E+00 0.00000E+00
 -1      2824 5.71459E+01 8.24987E+00 0.00000E+00
 -1      2825 5.56459E+01 8.24987E+00 0.00000E+00
 -1      2826 6.32850E+01 7.90325E+00 0.00000E+00
 -1      2827 6.17850E+01 7.90325E+00 0.00000E+00
 -1      2828 6.62850E+01 7.90325E+00 0.00000E+00
 -1      2829 6.47850E+01 7.90325E+00 0.00000E+00
 -1      2830 6.40350E+01 9.20225E+00 0.00000E+00
 -1      2831 6.92850E+01 7.90325E+00 0.00000E+00
 -1      2832 6.77850E+01 7.90325E+00 0.00000E+00
 -1      2833 6.70350E+01 9.20225E+00 0.00000E+00
 -1      2834 7.22850E+01 7.90325E+00 0.00000E+00
 -1      2835 7.07850E+01 7.90325E+00 0.00000E+00
 -1      2836 7.00350E+01 9.20225E+00 0.00000E+00
 -1      2837 7.52850E+01 7.90325E+00 0.00000E+00
 -1      2838 7.37850E+01 7.90325E+00 0.00000E+00
 -1      2839 7.30350E+01 9.20225E+00 0.00000E+00
 -1      2840 7.82850E+01 7.90325E+00 0.00000E+00
 -1      2841 7.67850E+01 7.90325E+00 0.00000E+00
 -1      2842 7.60350E+01 9.20225E+00 0.00000E+00
 -1      2843 8.12850E+01 7.90325E+00 0.00000E+00
 -1      2844 7.97850E+01 7.90325E+00 0.00000E+00
 -1      2845 7.90350E+01 9.20225E+00 0.00000E+00
 -1      2846 8.42850E+01 7.90325E+00 0.00000E+00
 -1      2847 8.27850E+01 7.90325E+00 0.00000E+00
 -1      2848 8.20350E+01 9.20225E+00 0.00000E+00
 -1      2849 8.72850E+01 7.90325E+00 0.00000E+00
 -1      2850 8.57850E+01 7.90325E+00 0.00000E+00
 -1      2851 8.50350E+01 9.20225E+00 0.00000E+00
 -1      2852 9.02850E+01 7.90325E+00 0.00000E+00
 -1      2853 8.87850E+01 7.90325E+00 0.00000E+00
 -1      2854 8.80350E+01 9.20225E+00 0.00000E+00
 -1      2855 9.32850E+01 7.90325E+00 0.00000E+00
 -1      2856 9.17850E+01 7.90325E+00 0.00000E+00
 -1      2857 9.10350E+01 9.20225E+00 0.00000E+00
 -1      2858 9.62850E+01 7.90325E+00 0.00000E+00
 -1      2859 9.47850E+01 7.90325E+00 0.00000E+00
 -1      2860 9.40350E+01 9.20225E+00 0.00000E+00
 -1      2861 9.92850E+01 7.90325E+00 0.00000E+00
 -1      2862 9.77850E+01 7.90325E+00 0.00000E+00
 -1      2863 9.70350E+01 9.20225E+00 0.00000E+00
 -1      2864 1.02285E+02 7.90325E+00 0.00000E+00
 -1      2865 1.00785E+02 7.90325E+00 0.00000E+00
 -1      2866 1.00035E+02 9.20225E+00 0.00000E+00
 -1      2867 1.05285E+02 7.90325E+00 0.00000E+00
 -1      2868 1.03785E+02 7.90325E+00 0.00000E+00
 -1      2869 1.03035E+02 9.20225E+00 0.00000E+00
 -1      2870 1.08285E+02 7.90325E+00 0.00000E+00
 -1      2871 1.06785E+02 7.90325E+00 0.00000E+00
 -1      2872 1.06035E+02 9.20225E+00 0.00000E+00
 -1      2873 1.11285E+02 7.90325E+00 0.00000E+00
 -1      2874 1.09785E+02 7.90325E+00 0.00000E+00
 -1      2875 1.09035E+02 9.20225E+00 0.00000E+00
 -1      2876 1.14285E+02 7.90325E+00 0.00000E+00
 -1      2877 1.12785E+02 7.90325E+00 0.00000E+00
 -1      2878 1.12035E+02 9.20225E+00 0.00000E+00
 -1      2879 1.17285E+02 7.90325E+00 0.00000E+00
 -1      2880 1.15785E+02 7.90325E+00 0.00000E+00
 -1      2881 1.15035E+02 9.20225E+00 0.00000E+00
 -1      2882 1.20285E+02 7.90325E+00 0.00000E+00
 -1      2883 1.18785E+02 7.90325E+00 0.00000E+00
 -1      2884 1.18035E+02 9.20225E+00 0.00000E+00
 -1      2885 1.23285E+02 7.90325E+00 0.00000E+00
 -1      2886 1.21785E+02 7.90325E+00 0.00000E+00
 -1      2887 1.21035E+02 9.20225E+00 0.00000E+00
 -1      2888 1.26285E+02 7.90325E+00 0.00000E+00
 -1      2889 1.24785E+02 7.90325E+00 0.00000E+00
 -1      2890 1.24035E+02 9.20225E+00 0.00000E+00
 -1      2891 1.29285E+02 7.90325E+00 0.00000E+00
 -1      2892 1.27785E+02 7.90325E+00 0.00000E+00
 -1      2893 1.27035E+02 9.20225E+00 0.00000E+00
 -1      2894 1.32285E+02 7.90325E+00 0.00000E+00
 -1      2895 1.30785E+02 7.90325E+00 0.00000E+00
 -1      2896 1.30035E+02 9.20225E+00 0.00000E+00
 -1      2897 1.35285E+02 7.90325E+00 0.00000E+00
 -1      2898 1.33785E+02 7.90325E+00 0.00000E+00
 -1      2899 1.33035E+02 9.20225E+00 0.00000E+00
 -1      2900 1.38285E+02 7.90325E+00 0.00000E+00
 -1      2901 1.36785E+02 7.90325E+00 0.00000E+00
 -1      2902 1.36035E+02 9.20225E+00 0.00000E+00
 -1      2903 1.40953E+02 8.18394E+00 0.00000E+00
 -1      2904 1.39453E+02 8.18394E+00 0.00000E+00
 -1      2905 1.38703E+02 9.48294E+00 0.00000E+00
 -1      2906 1.41038E+02 1.00443E+01 0.00000E+00
 -1      2907 1.40907E+02 2.42875E+01 0.00000E+00
 -1      2908 1.40907E+02 2.28125E+01 0.00000E+00
 -1      2909 1.39914E+02 4.09362E+01 0.00000E+00
 -1      2910 1.40928E+02 4.09655E+01 0.00000E+00
 -1      2911 1.39164E+02 3.96372E+01 0.00000E+00
 -1      2912 1.40907E+02 1.83875E+01 0.00000E+00
 -1      2913 1.40907E+02 1.69125E+01 0.00000E+00
 -1      2914 1.40907E+02 2.72375E+01 0.00000E+00
 -1      2915 1.40907E+02 2.57625E+01 0.00000E+00
 -1      2916 1.39608E+02 2.50250E+01 0.00000E+00
 -1      2917 1.40907E+02 2.13375E+01 0.00000E+00
 -1      2918 1.40907E+02 1.98625E+01 0.00000E+00
 -1      2919 1.39608E+02 1.91250E+01 0.00000E+00
 -1      2920 1.39608E+02 2.20750E+01 0.00000E+00
 -1      2921 5.64987E+01 3.40555E+01 0.00000E+00
 -1      2922 5.52135E+01 3.42055E+01 0.00000E+00
 -1      2923 4.87063E+01 3.40494E+01 0.00000E+00
 -1      2924 4.76210E+01 3.35990E+01 0.00000E+00
 -1      2925 1.40907E+02 3.01375E+01 0.00000E+00
 -1      2926 1.40907E+02 2.86875E+01 0.00000E+00
 -1      2927 1.39608E+02 2.79500E+01 0.00000E+00
 -1      2928 1.40907E+02 3.30875E+01 0.00000E+00
 -1      2929 1.40907E+02 3.16125E+01 0.00000E+00
 -1      2930 1.39608E+02 3.08750E+01 0.00000E+00
 -1      2931 1.40907E+02 3.60375E+01 0.00000E+00
 -1      2932 1.40907E+02 3.45625E+01 0.00000E+00
 -1      2933 1.39608E+02 3.38250E+01 0.00000E+00
 -1      2934 4.64025E+01 3.29539E+01 0.00000E+00
 -1      2935 4.53845E+01 3.22901E+01 0.00000E+00
 -1      2936 6.11469E+01 3.11923E+01 0.00000E+00
 -1      2937 6.02130E+01 3.21502E+01 0.00000E+00
 -1      2938 1.82850E+01 7.90325E+00 0.00000E+00
 -1      2939 1.67850E+01 7.90325E+00 0.00000E+00
 -1      2940 1.60350E+01 9.20225E+00 0.00000E+00
 -1      2941 1.90350E+01 9.20225E+00 0.00000E+00
 -1      2942 4.07279E+01 2.62992E+01 0.00000E+00
 -1      2943 4.05549E+01 2.54224E+01 0.00000E+00
 -1      2944 8.85168E+00 4.05347E+01 0.00000E+00
 -1      2945 1.02152E+01 4.07987E+01 0.00000E+00
 -1      2946 6.22230E+01 1.43341E+01 0.00000E+00
 -1      2947 6.30443E+01 1.51874E+01 0.00000E+00
 -1      2948 4.14489E+01 1.89458E+01 0.00000E+00
 -1      2949 4.17439E+01 1.78828E+01 0.00000E+00
 -1      2950 6.48582E+01 2.21732E+01 0.00000E+00
 -1      2951 6.48607E+01 2.31214E+01 0.00000E+00
 -1      2952 2.72850E+01 7.90325E+00 0.00000E+00
 -1      2953 2.57850E+01 7.90325E+00 0.00000E+00
 -1      2954 2.50350E+01 9.20225E+00 0.00000E+00
 -1      2955 2.80350E+01 9.20225E+00 0.00000E+00
 -1      2956 1.15576E+01 4.08528E+01 0.00000E+00
 -1      2957 1.30576E+01 4.08528E+01 0.00000E+00
 -1      2958 1.38076E+01 3.95538E+01 0.00000E+00
 -1      2959 1.11228E+01 3.94455E+01 0.00000E+00
 -1      2960 9.09300E+00 1.68813E+01 0.00000E+00
 -1      2961 9.09300E+00 1.83563E+01 0.00000E+00
 -1      2962 1.03920E+01 1.90812E+01 0.00000E+00
 -1      2963 1.03920E+01 1.61437E+01 0.00000E+00
 -1      2964 6.45552E+01 2.44545E+01 0.00000E+00
 -1      2965 6.41844E+01 2.56653E+01 0.00000E+00
 -1      2966 9.09300E+00 3.15875E+01 0.00000E+00
 -1      2967 9.09300E+00 3.30625E+01 0.00000E+00
 -1      2968 4.58124E+01 1.27039E+01 0.00000E+00
 -1      2969 4.67318E+01 1.21969E+01 0.00000E+00
 -1      2970 4.03164E+01 2.40174E+01 0.00000E+00
 -1      2971 4.03812E+01 2.25462E+01 0.00000E+00
 -1      2972 4.99966E+01 1.03737E+01 0.00000E+00
 -1      2973 5.12227E+01 1.01721E+01 0.00000E+00
 -1      2974 4.78883E+01 1.16057E+01 0.00000E+00
 -1      2975 4.88402E+01 1.09649E+01 0.00000E+00
 -1      2976 4.92869E+01 9.85253E+00 0.00000E+00
 -1      2977 4.69740E+01 1.10349E+01 0.00000E+00
 -1      2978 5.14135E+01 3.45040E+01 0.00000E+00
 -1      2979 5.01351E+01 3.42832E+01 0.00000E+00
 -1      2980 5.27685E+01 1.00363E+01 0.00000E+00
 -1      2981 5.40307E+01 9.83991E+00 0.00000E+00
 -1      2982 4.37911E+01 1.46504E+01 0.00000E+00
 -1      2983 4.46637E+01 1.36571E+01 0.00000E+00
 -1      2984 4.24081E+01 1.66579E+01 0.00000E+00
 -1      2985 4.30399E+01 1.57406E+01 0.00000E+00
 -1      2986 4.07618E+01 2.10763E+01 0.00000E+00
 -1      2987 4.11054E+01 2.00110E+01 0.00000E+00
 -1      2988 4.03458E+01 1.92279E+01 0.00000E+00
 -1      2989 4.42362E+01 3.12835E+01 0.00000E+00
 -1      2990 4.33835E+01 3.03047E+01 0.00000E+00
 -1      2991 1.41192E+02 3.96958E+01 0.00000E+00
 -1      2992 6.02171E+01 1.26455E+01 0.00000E+00
 -1      2993 6.12156E+01 1.34281E+01 0.00000E+00
 -1      2994 6.24714E+01 2.91665E+01 0.00000E+00
 -1      2995 6.18849E+01 3.00394E+01 0.00000E+00
 -1      2996 8.91450E+00 8.42712E+00 0.00000E+00
 -1      2997 5.90137E+01 3.30186E+01 0.00000E+00
 -1      2998 5.80287E+01 3.36262E+01 0.00000E+00
 -1      2999 7.48818E+00 3.88019E+01 0.00000E+00
 -1      3000 5.81668E+01 1.14564E+01 0.00000E+00
 -1      3001 5.90948E+01 1.19211E+01 0.00000E+00
 -1      3002 9.09300E+00 3.45313E+01 0.00000E+00
 -1      3003 9.09300E+00 3.60000E+01 0.00000E+00
 -1      3004 1.03920E+01 3.37938E+01 0.00000E+00
 -1      3005 1.03920E+01 2.49750E+01 0.00000E+00
 -1      3006 9.09300E+00 2.57000E+01 0.00000E+00
 -1      3007 9.09300E+00 2.71750E+01 0.00000E+00
 -1      3008 6.34811E+01 2.89759E+01 0.00000E+00
 -1      3009 6.53519E+01 2.12711E+01 0.00000E+00
 -1      3010 5.48959E+01 9.44257E+00 0.00000E+00
 -1      3011 6.46310E+01 2.65908E+01 0.00000E+00
 -1      3012 6.56319E+01 1.75048E+01 0.00000E+00
 -1      3013 6.49256E+01 1.83825E+01 0.00000E+00
 -1      3014 6.56092E+01 1.90196E+01 0.00000E+00
 -1      3015 4.13535E+01 1.69377E+01 0.00000E+00
 -1      3016 4.27690E+01 1.46227E+01 0.00000E+00
 -1      3017 1.39608E+02 1.61875E+01 0.00000E+00
 -1      3018 1.40907E+02 1.54500E+01 0.00000E+00
 -1      3019 1.40907E+02 1.39875E+01 0.00000E+00
 -1      3020 5.21088E+01 3.52669E+01 0.00000E+00
 -1      3021 3.94794E+01 2.46380E+01 0.00000E+00
 -1      3022 5.19892E+01 9.12549E+00 0.00000E+00
 -1      3023 5.12392E+01 7.93279E+00 0.00000E+00
 -1      3024 4.97392E+01 7.93279E+00 0.00000E+00
 -1      3025 6.07936E+01 1.00246E+01 0.00000E+00
 -1      3026 6.00436E+01 8.72565E+00 0.00000E+00
 -1      3027 5.85436E+01 8.72565E+00 0.00000E+00
 -1      3028 6.23045E+01 1.32019E+01 0.00000E+00
 -1      3029 5.74854E+01 3.45529E+01 0.00000E+00
 -1      3030 5.69422E+01 3.54797E+01 0.00000E+00
 -1      3031 5.84721E+01 3.50503E+01 0.00000E+00
 -1      3032 1.40973E+02 1.27472E+01 0.00000E+00
 -1      3033 1.40973E+02 1.12847E+01 0.00000E+00
 -1      3034 1.39805E+02 1.10040E+01 0.00000E+00
 -1      3035 1.39674E+02 1.34847E+01 0.00000E+00
 -1      3036 4.91995E+01 3.50048E+01 0.00000E+00
 -1      3037 4.65522E+01 3.41259E+01 0.00000E+00
 -1      3038 4.41852E+01 3.24741E+01 0.00000E+00
 -1      3039 1.41192E+02 3.82207E+01 0.00000E+00
 -1      3040 6.41301E+01 1.54878E+01 0.00000E+00
 -1      3041 6.52159E+01 1.57882E+01 0.00000E+00
 -1      3042 6.43977E+01 1.44084E+01 0.00000E+00
 -1      3043 6.02147E+01 3.32552E+01 0.00000E+00
 -1      3044 4.19814E+01 3.10844E+01 0.00000E+00
 -1      3045 4.23280E+01 2.99216E+01 0.00000E+00
 -1      3046 4.12725E+01 2.95385E+01 0.00000E+00
 -1      3047 6.01747E+01 1.15715E+01 0.00000E+00
 -1      3048 6.21520E+01 3.12340E+01 0.00000E+00
 -1      3049 6.54953E+01 2.39780E+01 0.00000E+00
 -1      3050 9.09300E+00 2.86437E+01 0.00000E+00
 -1      3051 9.09300E+00 3.01187E+01 0.00000E+00
 -1      3052 1.03920E+01 3.08563E+01 0.00000E+00
 -1      3053 1.03920E+01 2.79188E+01 0.00000E+00
 -1      3054 4.46689E+01 1.25793E+01 0.00000E+00
 -1      3055 8.78718E+00 3.80644E+01 0.00000E+00
 -1      3056 5.47724E+01 3.51387E+01 0.00000E+00
 -1      3057 4.06090E+01 2.81196E+01 0.00000E+00
 -1      3058 4.06685E+01 2.72094E+01 0.00000E+00
 -1      3059 3.96584E+01 2.69532E+01 0.00000E+00
 -1      3060 1.39529E+02 3.85602E+01 0.00000E+00
 -1      3061 1.40542E+02 3.71145E+01 0.00000E+00
 -1      3062 1.39243E+02 3.63770E+01 0.00000E+00
 -1      3063 1.38514E+02 3.85310E+01 0.00000E+00
 -1      3064 5.76545E+01 1.03713E+01 0.00000E+00
 -1      3065 9.66450E+00 9.72612E+00 0.00000E+00
 -1      3066 1.09635E+01 1.04636E+01 0.00000E+00
 -1      3067 1.24635E+01 1.04636E+01 0.00000E+00
 -1      3068 1.18920E+01 1.17250E+01 0.00000E+00
 -1      3069 1.39635E+01 1.04636E+01 0.00000E+00
 -1      3070 1.18920E+01 1.32000E+01 0.00000E+00
 -1      3071 6.60581E+01 2.03934E+01 0.00000E+00
 -1      3072 6.65070E+01 2.17672E+01 0.00000E+00
 -1      3073 6.67643E+01 1.95157E+01 0.00000E+00
 -1      3074 3.96216E+01 2.17631E+01 0.00000E+00
 -1      3075 3.85200E+01 2.22621E+01 0.00000E+00
 -1      3076 3.89006E+01 2.07921E+01 0.00000E+00
 -1      3077 1.89000E+01 3.83090E+01 0.00000E+00
 -1      3078 2.04000E+01 3.83090E+01 0.00000E+00
 -1      3079 2.19000E+01 3.83090E+01 0.00000E+00
 -1      3080 2.34000E+01 3.83090E+01 0.00000E+00
 -1      3081 2.11500E+01 3.70100E+01 0.00000E+00
 -1      3082 2.49000E+01 3.83090E+01 0.00000E+00
 -1      3083 2.64000E+01 3.83090E+01 0.00000E+00
 -1      3084 2.41500E+01 3.70100E+01 0.00000E+00
 -1      3085 2.79000E+01 3.83090E+01 0.00000E+00
 -1      3086 2.94000E+01 3.83090E+01 0.00000E+00
 -1      3087 2.71500E+01 3.70100E+01 0.00000E+00
 -1      3088 3.09000E+01 3.83090E+01 0.00000E+00
 -1      3089 3.24000E+01 3.83090E+01 0.00000E+00
 -1      3090 3.01500E+01 3.70100E+01 0.00000E+00
 -1      3091 3.39000E+01 3.83090E+01 0.00000E+00
 -1      3092 3.54000E+01 3.83090E+01 0.00000E+00
 -1      3093 3.31500E+01 3.70100E+01 0.00000E+00
 -1      3094 3.69000E+01 3.83090E+01 0.00000E+00
 -1      3095 3.84000E+01 3.83090E+01 0.00000E+00
 -1      3096 3.61500E+01 3.70100E+01 0.00000E+00
 -1      3097 3.99000E+01 3.83090E+01 0.00000E+00
 -1      3098 4.14000E+01 3.83090E+01 0.00000E+00
 -1      3099 3.91500E+01 3.70100E+01 0.00000E+00
 -1      3100 4.29000E+01 3.83090E+01 0.00000E+00
 -1      3101 4.44000E+01 3.83090E+01 0.00000E+00
 -1      3102 4.21500E+01 3.70100E+01 0.00000E+00
 -1      3103 4.89000E+01 3.84153E+01 0.00000E+00
 -1      3104 5.04000E+01 3.84153E+01 0.00000E+00
 -1      3105 5.19000E+01 3.84991E+01 0.00000E+00
 -1      3106 5.34000E+01 3.84991E+01 0.00000E+00
 -1      3107 5.49000E+01 3.84991E+01 0.00000E+00
 -1      3108 5.64000E+01 3.84991E+01 0.00000E+00
 -1      3109 5.79000E+01 3.84153E+01 0.00000E+00
 -1      3110 5.94000E+01 3.84153E+01 0.00000E+00
 -1      3111 6.09000E+01 3.84153E+01 0.00000E+00
 -1      3112 6.24000E+01 3.84153E+01 0.00000E+00
 -1      3113 6.01500E+01 3.72226E+01 0.00000E+00
 -1      3114 6.39000E+01 3.84153E+01 0.00000E+00
 -1      3115 6.54000E+01 3.84153E+01 0.00000E+00
 -1      3116 6.31500E+01 3.72226E+01 0.00000E+00
 -1      3117 6.69000E+01 3.84153E+01 0.00000E+00
 -1      3118 6.84000E+01 3.84153E+01 0.00000E+00
 -1      3119 6.61500E+01 3.72226E+01 0.00000E+00
 -1      3120 6.99000E+01 3.84153E+01 0.00000E+00
 -1      3121 7.14000E+01 3.84153E+01 0.00000E+00
 -1      3122 6.91500E+01 3.72226E+01 0.00000E+00
 -1      3123 7.29000E+01 3.84153E+01 0.00000E+00
 -1      3124 7.44000E+01 3.84153E+01 0.00000E+00
 -1      3125 7.21500E+01 3.72226E+01 0.00000E+00
 -1      3126 7.59000E+01 3.84153E+01 0.00000E+00
 -1      3127 7.74000E+01 3.84153E+01 0.00000E+00
 -1      3128 7.51500E+01 3.72226E+01 0.00000E+00
 -1      3129 7.89000E+01 3.84153E+01 0.00000E+00
 -1      3130 8.04000E+01 3.84153E+01 0.00000E+00
 -1      3131 7.81500E+01 3.72226E+01 0.00000E+00
 -1      3132 8.19000E+01 3.84153E+01 0.00000E+00
 -1      3133 8.34000E+01 3.84153E+01 0.00000E+00
 -1      3134 8.11500E+01 3.72226E+01 0.00000E+00
 -1      3135 8.49000E+01 3.84153E+01 0.00000E+00
 -1      3136 8.64000E+01 3.84153E+01 0.00000E+00
 -1      3137 8.41500E+01 3.72226E+01 0.00000E+00
 -1      3138 8.79000E+01 3.84153E+01 0.00000E+00
 -1      3139 8.94000E+01 3.84153E+01 0.00000E+00
 -1      3140 8.71500E+01 3.72226E+01 0.00000E+00
 -1      3141 9.09000E+01 3.84153E+01 0.00000E+00
 -1      3142 9.24000E+01 3.84153E+01 0.00000E+00
 -1      3143 9.01500E+01 3.72226E+01 0.00000E+00
 -1      3144 9.39000E+01 3.84153E+01 0.00000E+00
 -1      3145 9.54000E+01 3.84153E+01 0.00000E+00
 -1      3146 9.31500E+01 3.72226E+01 0.00000E+00
 -1      3147 9.69000E+01 3.84153E+01 0.00000E+00
 -1      3148 9.84000E+01 3.84153E+01 0.00000E+00
 -1      3149 9.61500E+01 3.72226E+01 0.00000E+00
 -1      3150 9.99000E+01 3.84153E+01 0.00000E+00
 -1      3151 1.01400E+02 3.84153E+01 0.00000E+00
 -1      3152 9.91500E+01 3.72226E+01 0.00000E+00
 -1      3153 1.02900E+02 3.84153E+01 0.00000E+00
 -1      3154 1.04400E+02 3.84153E+01 0.00000E+00
 -1      3155 1.02150E+02 3.72226E+01 0.00000E+00
 -1      3156 1.05900E+02 3.84153E+01 0.00000E+00
 -1      3157 1.07400E+02 3.84153E+01 0.00000E+00
 -1      3158 1.05150E+02 3.72226E+01 0.00000E+00
 -1      3159 1.08900E+02 3.84153E+01 0.00000E+00
 -1      3160 1.10400E+02 3.84153E+01 0.00000E+00
 -1      3161 1.08150E+02 3.72226E+01 0.00000E+00
 -1      3162 1.11900E+02 3.84153E+01 0.00000E+00
 -1      3163 1.13400E+02 3.84153E+01 0.00000E+00
 -1      3164 1.11150E+02 3.72226E+01 0.00000E+00
 -1      3165 1.14900E+02 3.84153E+01 0.00000E+00
 -1      3166 1.16400E+02 3.84153E+01 0.00000E+00
 -1      3167 1.14150E+02 3.72226E+01 0.00000E+00
 -1      3168 1.17900E+02 3.84153E+01 0.00000E+00
 -1      3169 1.19400E+02 3.84153E+01 0.00000E+00
 -1      3170 1.17150E+02 3.72226E+01 0.00000E+00
 -1      3171 1.20900E+02 3.84153E+01 0.00000E+00
 -1      3172 1.22400E+02 3.84153E+01 0.00000E+00
 -1      3173 1.20150E+02 3.72226E+01 0.00000E+00
 -1      3174 1.23900E+02 3.84153E+01 0.00000E+00
 -1      3175 1.25400E+02 3.84153E+01 0.00000E+00
 -1      3176 1.23150E+02 3.72226E+01 0.00000E+00
 -1      3177 1.26900E+02 3.84153E+01 0.00000E+00
 -1      3178 1.28400E+02 3.84153E+01 0.00000E+00
 -1      3179 1.26150E+02 3.72226E+01 0.00000E+00
 -1      3180 1.29900E+02 3.84153E+01 0.00000E+00
 -1      3181 1.31400E+02 3.84153E+01 0.00000E+00
 -1      3182 1.29150E+02 3.72226E+01 0.00000E+00
 -1      3183 1.32900E+02 3.84153E+01 0.00000E+00
 -1      3184 1.34400E+02 3.84153E+01 0.00000E+00
 -1      3185 1.32150E+02 3.72226E+01 0.00000E+00
 -1      3186 1.35707E+02 3.84732E+01 0.00000E+00
 -1      3187 1.37207E+02 3.84732E+01 0.00000E+00
 -1      3188 1.37572E+02 3.73962E+01 0.00000E+00
 -1      3189 1.34957E+02 3.72805E+01 0.00000E+00
 -1      3190 3.47850E+01 1.05013E+01 0.00000E+00
 -1      3191 3.32850E+01 1.05013E+01 0.00000E+00
 -1      3192 3.17850E+01 1.05013E+01 0.00000E+00
 -1      3193 3.02850E+01 1.05013E+01 0.00000E+00
 -1      3194 3.25350E+01 1.18003E+01 0.00000E+00
 -1      3195 4.07850E+01 1.05013E+01 0.00000E+00
 -1      3196 3.92850E+01 1.05013E+01 0.00000E+00
 -1      3197 4.89892E+01 9.23179E+00 0.00000E+00
 -1      3198 6.19160E+01 1.07491E+01 0.00000E+00
 -1      3199 7.37850E+01 1.05013E+01 0.00000E+00
 -1      3200 7.22850E+01 1.05013E+01 0.00000E+00
 -1      3201 7.67850E+01 1.05013E+01 0.00000E+00
 -1      3202 7.52850E+01 1.05013E+01 0.00000E+00
 -1      3203 7.45350E+01 1.18003E+01 0.00000E+00
 -1      3204 7.97850E+01 1.05013E+01 0.00000E+00
 -1      3205 7.82850E+01 1.05013E+01 0.00000E+00
 -1      3206 7.75350E+01 1.18003E+01 0.00000E+00
 -1      3207 8.27850E+01 1.05013E+01 0.00000E+00
 -1      3208 8.12850E+01 1.05013E+01 0.00000E+00
 -1      3209 8.05350E+01 1.18003E+01 0.00000E+00
 -1      3210 8.57850E+01 1.05013E+01 0.00000E+00
 -1      3211 8.42850E+01 1.05013E+01 0.00000E+00
 -1      3212 8.35350E+01 1.18003E+01 0.00000E+00
 -1      3213 8.87850E+01 1.05013E+01 0.00000E+00
 -1      3214 8.72850E+01 1.05013E+01 0.00000E+00
 -1      3215 8.65350E+01 1.18003E+01 0.00000E+00
 -1      3216 9.17850E+01 1.05013E+01 0.00000E+00
 -1      3217 9.02850E+01 1.05013E+01 0.00000E+00
 -1      3218 8.95350E+01 1.18003E+01 0.00000E+00
 -1      3219 9.47850E+01 1.05013E+01 0.00000E+00
 -1      3220 9.32850E+01 1.05013E+01 0.00000E+00
 -1      3221 9.25350E+01 1.18003E+01 0.00000E+00
 -1      3222 9.77850E+01 1.05013E+01 0.00000E+00
 -1      3223 9.62850E+01 1.05013E+01 0.00000E+00
 -1      3224 9.55350E+01 1.18003E+01 0.00000E+00
 -1      3225 1.00785E+02 1.05013E+01 0.00000E+00
 -1      3226 9.92850E+01 1.05013E+01 0.00000E+00
 -1      3227 9.85350E+01 1.18003E+01 0.00000E+00
 -1      3228 1.03785E+02 1.05013E+01 0.00000E+00
 -1      3229 1.02285E+02 1.05013E+01 0.00000E+00
 -1      3230 1.01535E+02 1.18003E+01 0.00000E+00
 -1      3231 1.06785E+02 1.05013E+01 0.00000E+00
 -1      3232 1.05285E+02 1.05013E+01 0.00000E+00
 -1      3233 1.04535E+02 1.18003E+01 0.00000E+00
 -1      3234 1.09785E+02 1.05013E+01 0.00000E+00
 -1      3235 1.08285E+02 1.05013E+01 0.00000E+00
 -1      3236 1.07535E+02 1.18003E+01 0.00000E+00
 -1      3237 1.12785E+02 1.05013E+01 0.00000E+00
 -1      3238 1.11285E+02 1.05013E+01 0.00000E+00
 -1      3239 1.10535E+02 1.18003E+01 0.00000E+00
 -1      3240 1.15785E+02 1.05013E+01 0.00000E+00
 -1      3241 1.14285E+02 1.05013E+01 0.00000E+00
 -1      3242 1.13535E+02 1.18003E+01 0.00000E+00
 -1      3243 1.18785E+02 1.05013E+01 0.00000E+00
 -1      3244 1.17285E+02 1.05013E+01 0.00000E+00
 -1      3245 1.16535E+02 1.18003E+01 0.00000E+00
 -1      3246 1.21785E+02 1.05013E+01 0.00000E+00
 -1      3247 1.20285E+02 1.05013E+01 0.00000E+00
 -1      3248 1.19535E+02 1.18003E+01 0.00000E+00
 -1      3249 1.24785E+02 1.05013E+01 0.00000E+00
 -1      3250 1.23285E+02 1.05013E+01 0.00000E+00
 -1      3251 1.22535E+02 1.18003E+01 0.00000E+00
 -1      3252 1.27785E+02 1.05013E+01 0.00000E+00
 -1      3253 1.26285E+02 1.05013E+01 0.00000E+00
 -1      3254 1.25535E+02 1.18003E+01 0.00000E+00
 -1      3255 1.30785E+02 1.05013E+01 0.00000E+00
 -1      3256 1.29285E+02 1.05013E+01 0.00000E+00
 -1      3257 1.28535E+02 1.18003E+01 0.00000E+00
 -1      3258 1.33785E+02 1.05013E+01 0.00000E+00
 -1      3259 1.32285E+02 1.05013E+01 0.00000E+00
 -1      3260 1.31535E+02 1.18003E+01 0.00000E+00
 -1      3261 1.36785E+02 1.05013E+01 0.00000E+00
 -1      3262 1.35285E+02 1.05013E+01 0.00000E+00
 -1      3263 1.34535E+02 1.18003E+01 0.00000E+00
 -1      3264 1.38879E+02 1.08930E+01 0.00000E+00
 -1      3265 1.37711E+02 1.06123E+01 0.00000E+00
 -1      3266 1.36961E+02 1.19113E+01 0.00000E+00
 -1      3267 1.38813E+02 1.21333E+01 0.00000E+00
 -1      3268 3.85053E+01 2.55260E+01 0.00000E+00
 -1      3269 3.82669E+01 2.41211E+01 0.00000E+00
 -1      3270 1.16910E+01 2.12875E+01 0.00000E+00
 -1      3271 1.16910E+01 2.27625E+01 0.00000E+00
 -1      3272 1.38309E+02 2.57625E+01 0.00000E+00
 -1      3273 1.38309E+02 2.42875E+01 0.00000E+00
 -1      3274 1.38309E+02 2.86625E+01 0.00000E+00
 -1      3275 1.38309E+02 2.72125E+01 0.00000E+00
 -1      3276 1.37010E+02 2.64750E+01 0.00000E+00
 -1      3277 4.40284E+01 3.38113E+01 0.00000E+00
 -1      3278 4.28801E+01 3.28047E+01 0.00000E+00
 -1      3279 4.01939E+01 1.71015E+01 0.00000E+00
 -1      3280 4.08581E+01 1.58766E+01 0.00000E+00
 -1      3281 6.34792E+01 1.04287E+01 0.00000E+00
 -1      3282 6.28603E+01 1.19755E+01 0.00000E+00
 -1      3283 6.38677E+01 1.28815E+01 0.00000E+00
 -1      3284 6.49792E+01 1.04287E+01 0.00000E+00
 -1      3285 6.14647E+01 3.37192E+01 0.00000E+00
 -1      3286 6.02654E+01 3.45876E+01 0.00000E+00
 -1      3287 4.15492E+01 1.45861E+01 0.00000E+00
 -1      3288 4.23005E+01 1.34959E+01 0.00000E+00
 -1      3289 1.38309E+02 3.45625E+01 0.00000E+00
 -1      3290 1.38309E+02 3.30875E+01 0.00000E+00
 -1      3291 1.38309E+02 3.16125E+01 0.00000E+00
 -1      3292 1.38309E+02 3.01375E+01 0.00000E+00
 -1      3293 1.37010E+02 2.94000E+01 0.00000E+00
 -1      3294 1.37010E+02 3.23500E+01 0.00000E+00
 -1      3295 7.07850E+01 1.05013E+01 0.00000E+00
 -1      3296 6.92850E+01 1.05013E+01 0.00000E+00
 -1      3297 7.15350E+01 1.18003E+01 0.00000E+00
 -1      3298 6.78821E+01 1.04650E+01 0.00000E+00
 -1      3299 6.63821E+01 1.04650E+01 0.00000E+00
 -1      3300 6.58263E+01 1.16914E+01 0.00000E+00
 -1      3301 6.86321E+01 1.17640E+01 0.00000E+00
 -1      3302 3.77850E+01 1.05013E+01 0.00000E+00
 -1      3303 3.62850E+01 1.05013E+01 0.00000E+00
 -1      3304 3.55350E+01 1.18003E+01 0.00000E+00
 -1      3305 3.85350E+01 1.18003E+01 0.00000E+00
 -1      3306 6.47546E+01 2.89462E+01 0.00000E+00
 -1      3307 6.41634E+01 3.00515E+01 0.00000E+00
 -1      3308 2.27850E+01 1.05013E+01 0.00000E+00
 -1      3309 2.12850E+01 1.05013E+01 0.00000E+00
 -1      3310 5.31196E+01 3.63427E+01 0.00000E+00
 -1      3311 5.16392E+01 3.63144E+01 0.00000E+00
 -1      3312 4.33329E+01 1.21381E+01 0.00000E+00
 -1      3313 4.44816E+01 1.11849E+01 0.00000E+00
 -1      3314 4.67210E+01 3.52804E+01 0.00000E+00
 -1      3315 4.55024E+01 3.46352E+01 0.00000E+00
 -1      3316 1.59000E+01 3.83090E+01 0.00000E+00
 -1      3317 1.74000E+01 3.83090E+01 0.00000E+00
 -1      3318 1.81500E+01 3.70100E+01 0.00000E+00
 -1      3319 6.58720E+01 2.63867E+01 0.00000E+00
 -1      3320 6.53133E+01 2.76664E+01 0.00000E+00
 -1      3321 6.59955E+01 2.87421E+01 0.00000E+00
 -1      3322 1.00862E+01 3.73269E+01 0.00000E+00
 -1      3323 5.01392E+01 3.62306E+01 0.00000E+00
 -1      3324 4.87104E+01 3.59968E+01 0.00000E+00
 -1      3325 3.91984E+01 1.94458E+01 0.00000E+00
 -1      3326 3.95419E+01 1.83806E+01 0.00000E+00
 -1      3327 6.34549E+01 3.12554E+01 0.00000E+00
 -1      3328 6.27169E+01 3.24083E+01 0.00000E+00
 -1      3329 6.67289E+01 2.35591E+01 0.00000E+00
 -1      3330 6.64234E+01 2.48922E+01 0.00000E+00
 -1      3331 5.58027E+01 3.61862E+01 0.00000E+00
 -1      3332 5.46196E+01 3.63427E+01 0.00000E+00
 -1      3333 1.16910E+01 2.42375E+01 0.00000E+00
 -1      3334 1.16910E+01 2.57125E+01 0.00000E+00
 -1      3335 1.29900E+01 2.35000E+01 0.00000E+00
 -1      3336 1.35528E+01 1.33887E+01 0.00000E+00
 -1      3337 1.20528E+01 1.48637E+01 0.00000E+00
 -1      3338 1.16910E+01 3.30594E+01 0.00000E+00
 -1      3339 1.16910E+01 3.45281E+01 0.00000E+00
 -1      3340 6.58994E+01 1.64253E+01 0.00000E+00
 -1      3341 6.65830E+01 1.70624E+01 0.00000E+00
 -1      3342 6.61670E+01 1.53459E+01 0.00000E+00
 -1      3343 3.75459E+01 2.31501E+01 0.00000E+00
 -1      3344 3.68250E+01 2.21792E+01 0.00000E+00
 -1      3345 3.65719E+01 2.40381E+01 0.00000E+00
 -1      3346 4.46606E+01 3.63999E+01 0.00000E+00
 -1      3347 4.54106E+01 3.76989E+01 0.00000E+00
 -1      3348 1.32152E+01 3.82007E+01 0.00000E+00
 -1      3349 1.45576E+01 3.82548E+01 0.00000E+00
 -1      3350 1.53076E+01 3.69558E+01 0.00000E+00
 -1      3351 1.38309E+02 1.69188E+01 0.00000E+00
 -1      3352 1.38309E+02 1.54563E+01 0.00000E+00
 -1      3353 5.11500E+01 3.73064E+01 0.00000E+00
 -1      3354 4.69106E+01 3.76989E+01 0.00000E+00
 -1      3355 5.41500E+01 3.73902E+01 0.00000E+00
 -1      3356 5.71500E+01 3.73064E+01 0.00000E+00
 -1      3357 6.47283E+01 3.12258E+01 0.00000E+00
 -1      3358 1.14286E+01 3.73811E+01 0.00000E+00
 -1      3359 2.95350E+01 1.18003E+01 0.00000E+00
 -1      3360 2.87850E+01 1.05013E+01 0.00000E+00
 -1      3361 2.72850E+01 1.05013E+01 0.00000E+00
 -1      3362 4.78327E+01 9.82299E+00 0.00000E+00
 -1      3363 4.38403E+01 9.97294E+00 0.00000E+00
 -1      3364 4.23403E+01 9.97294E+00 0.00000E+00
 -1      3365 4.66763E+01 1.04142E+01 0.00000E+00
 -1      3366 4.51763E+01 1.04142E+01 0.00000E+00
 -1      3367 4.76606E+01 3.65062E+01 0.00000E+00
 -1      3368 3.84459E+01 2.64362E+01 0.00000E+00
 -1      3369 3.72334E+01 2.59193E+01 0.00000E+00
 -1      3370 3.83865E+01 2.73464E+01 0.00000E+00
 -1      3371 1.16910E+01 1.98188E+01 0.00000E+00
 -1      3372 1.29900E+01 2.05562E+01 0.00000E+00
 -1      3373 1.16910E+01 1.83500E+01 0.00000E+00
 -1      3374 1.38309E+02 1.98687E+01 0.00000E+00
 -1      3375 1.38309E+02 1.83937E+01 0.00000E+00
 -1      3376 1.37010E+02 1.76625E+01 0.00000E+00
 -1      3377 1.54635E+01 1.04636E+01 0.00000E+00
 -1      3378 1.48920E+01 1.17250E+01 0.00000E+00
 -1      3379 1.69635E+01 1.04636E+01 0.00000E+00
 -1      3380 1.20528E+01 1.63325E+01 0.00000E+00
 -1      3381 1.38309E+02 2.28156E+01 0.00000E+00
 -1      3382 1.38309E+02 2.13406E+01 0.00000E+00
 -1      3383 1.37010E+02 2.06094E+01 0.00000E+00
 -1      3384 1.37010E+02 2.35531E+01 0.00000E+00
 -1      3385 4.41973E+01 3.49658E+01 0.00000E+00
 -1      3386 4.03896E+01 1.47498E+01 0.00000E+00
 -1      3387 6.49534E+01 1.31819E+01 0.00000E+00
 -1      3388 4.18246E+01 3.24216E+01 0.00000E+00
 -1      3389 4.07690E+01 3.20385E+01 0.00000E+00
 -1      3390 4.16678E+01 3.37588E+01 0.00000E+00
 -1      3391 1.16910E+01 3.15906E+01 0.00000E+00
 -1      3392 1.29900E+01 3.23250E+01 0.00000E+00
 -1      3393 1.16910E+01 3.01219E+01 0.00000E+00
 -1      3394 4.21132E+01 1.21014E+01 0.00000E+00
 -1      3395 1.98743E+01 1.04824E+01 0.00000E+00
 -1      3396 1.83743E+01 1.04824E+01 0.00000E+00
 -1      3397 1.78027E+01 1.17438E+01 0.00000E+00
 -1      3398 2.06243E+01 1.17814E+01 0.00000E+00
 -1      3399 6.81413E+01 2.18037E+01 0.00000E+00
 -1      3400 6.74351E+01 2.26814E+01 0.00000E+00
 -1      3401 6.83632E+01 2.35957E+01 0.00000E+00
 -1      3402 2.42850E+01 1.05013E+01 0.00000E+00
 -1      3403 2.35350E+01 1.18003E+01 0.00000E+00
 -1      3404 2.57850E+01 1.05013E+01 0.00000E+00
 -1      3405 6.27676E+01 3.37406E+01 0.00000E+00
 -1      3406 4.02624E+01 2.92823E+01 0.00000E+00
 -1      3407 3.80968E+01 1.99449E+01 0.00000E+00
 -1      3408 6.71056E+01 2.59679E+01 0.00000E+00
 -1      3409 4.15903E+01 1.12719E+01 0.00000E+00
 -1      3410 1.37758E+02 3.65178E+01 0.00000E+00
 -1      3411 1.38123E+02 3.54408E+01 0.00000E+00
 -1      3412 1.36824E+02 3.47033E+01 0.00000E+00
 -1      3413 1.36451E+02 3.64600E+01 0.00000E+00
 -1      3414 3.90465E+01 1.73194E+01 0.00000E+00
 -1      3415 1.50528E+01 1.33887E+01 0.00000E+00
 -1      3416 2.04000E+01 3.57110E+01 0.00000E+00
 -1      3417 2.19000E+01 3.57110E+01 0.00000E+00
 -1      3418 6.74347E+01 1.85364E+01 0.00000E+00
 -1      3419 6.78836E+01 1.99102E+01 0.00000E+00
 -1      3420 1.34776E+01 3.53477E+01 0.00000E+00
 -1      3421 1.21786E+01 3.60821E+01 0.00000E+00
 -1      3422 6.72143E+01 2.85124E+01 0.00000E+00
 -1      3423 6.66556E+01 2.97921E+01 0.00000E+00
 -1      3424 4.31867E+01 3.55759E+01 0.00000E+00
 -1      3425 2.34000E+01 3.57110E+01 0.00000E+00
 -1      3426 2.49000E+01 3.57110E+01 0.00000E+00
 -1      3427 2.26500E+01 3.44120E+01 0.00000E+00
 -1      3428 2.64000E+01 3.57110E+01 0.00000E+00
 -1      3429 2.79000E+01 3.57110E+01 0.00000E+00
 -1      3430 2.56500E+01 3.44120E+01 0.00000E+00
 -1      3431 2.94000E+01 3.57110E+01 0.00000E+00
 -1      3432 3.09000E+01 3.57110E+01 0.00000E+00
 -1      3433 2.86500E+01 3.44120E+01 0.00000E+00
 -1      3434 3.24000E+01 3.57110E+01 0.00000E+00
 -1      3435 3.39000E+01 3.57110E+01 0.00000E+00
 -1      3436 3.16500E+01 3.44120E+01 0.00000E+00
 -1      3437 3.54000E+01 3.57110E+01 0.00000E+00
 -1      3438 3.69000E+01 3.57110E+01 0.00000E+00
 -1      3439 3.46500E+01 3.44120E+01 0.00000E+00
 -1      3440 3.91311E+01 3.51928E+01 0.00000E+00
 -1      3441 4.06311E+01 3.51928E+01 0.00000E+00
 -1      3442 4.16867E+01 3.55759E+01 0.00000E+00
 -1      3443 3.78072E+01 1.74935E+01 0.00000E+00
 -1      3444 3.84592E+01 1.62143E+01 0.00000E+00
 -1      3445 6.15827E+01 3.61371E+01 0.00000E+00
 -1      3446 6.30827E+01 3.61371E+01 0.00000E+00
 -1      3447 6.54000E+01 3.59236E+01 0.00000E+00
 -1      3448 6.69000E+01 3.59236E+01 0.00000E+00
 -1      3449 6.84000E+01 3.59236E+01 0.00000E+00
 -1      3450 6.99000E+01 3.59236E+01 0.00000E+00
 -1      3451 6.76500E+01 3.46246E+01 0.00000E+00
 -1      3452 7.14000E+01 3.59236E+01 0.00000E+00
 -1      3453 7.29000E+01 3.59236E+01 0.00000E+00
 -1      3454 7.06500E+01 3.46246E+01 0.00000E+00
 -1      3455 7.44000E+01 3.59236E+01 0.00000E+00
 -1      3456 7.59000E+01 3.59236E+01 0.00000E+00
 -1      3457 7.36500E+01 3.46246E+01 0.00000E+00
 -1      3458 7.74000E+01 3.59236E+01 0.00000E+00
 -1      3459 7.89000E+01 3.59236E+01 0.00000E+00
 -1      3460 7.66500E+01 3.46246E+01 0.00000E+00
 -1      3461 8.04000E+01 3.59236E+01 0.00000E+00
 -1      3462 8.19000E+01 3.59236E+01 0.00000E+00
 -1      3463 7.96500E+01 3.46246E+01 0.00000E+00
 -1      3464 8.34000E+01 3.59236E+01 0.00000E+00
 -1      3465 8.49000E+01 3.59236E+01 0.00000E+00
 -1      3466 8.26500E+01 3.46246E+01 0.00000E+00
 -1      3467 8.64000E+01 3.59236E+01 0.00000E+00
 -1      3468 8.79000E+01 3.59236E+01 0.00000E+00
 -1      3469 8.56500E+01 3.46246E+01 0.00000E+00
 -1      3470 8.94000E+01 3.59236E+01 0.00000E+00
 -1      3471 9.09000E+01 3.59236E+01 0.00000E+00
 -1      3472 8.86500E+01 3.46246E+01 0.00000E+00
 -1      3473 9.24000E+01 3.59236E+01 0.00000E+00
 -1      3474 9.39000E+01 3.59236E+01 0.00000E+00
 -1      3475 9.16500E+01 3.46246E+01 0.00000E+00
 -1      3476 9.54000E+01 3.59236E+01 0.00000E+00
 -1      3477 9.69000E+01 3.59236E+01 0.00000E+00
 -1      3478 9.46500E+01 3.46246E+01 0.00000E+00
 -1      3479 9.84000E+01 3.59236E+01 0.00000E+00
 -1      3480 9.99000E+01 3.59236E+01 0.00000E+00
 -1      3481 9.76500E+01 3.46246E+01 0.00000E+00
 -1      3482 1.01400E+02 3.59236E+01 0.00000E+00
 -1      3483 1.02900E+02 3.59236E+01 0.00000E+00
 -1      3484 1.00650E+02 3.46246E+01 0.00000E+00
 -1      3485 1.04400E+02 3.59236E+01 0.00000E+00
 -1      3486 1.05900E+02 3.59236E+01 0.00000E+00
 -1      3487 1.03650E+02 3.46246E+01 0.00000E+00
 -1      3488 1.07400E+02 3.59236E+01 0.00000E+00
 -1      3489 1.08900E+02 3.59236E+01 0.00000E+00
 -1      3490 1.06650E+02 3.46246E+01 0.00000E+00
 -1      3491 1.10400E+02 3.59236E+01 0.00000E+00
 -1      3492 1.11900E+02 3.59236E+01 0.00000E+00
 -1      3493 1.09650E+02 3.46246E+01 0.00000E+00
 -1      3494 1.13400E+02 3.59236E+01 0.00000E+00
 -1      3495 1.14900E+02 3.59236E+01 0.00000E+00
 -1      3496 1.12650E+02 3.46246E+01 0.00000E+00
 -1      3497 1.16400E+02 3.59236E+01 0.00000E+00
 -1      3498 1.17900E+02 3.59236E+01 0.00000E+00
 -1      3499 1.15650E+02 3.46246E+01 0.00000E+00
 -1      3500 1.19400E+02 3.59236E+01 0.00000E+00
 -1      3501 1.20900E+02 3.59236E+01 0.00000E+00
 -1      3502 1.18650E+02 3.46246E+01 0.00000E+00
 -1      3503 1.22400E+02 3.59236E+01 0.00000E+00
 -1      3504 1.23900E+02 3.59236E+01 0.00000E+00
 -1      3505 1.21650E+02 3.46246E+01 0.00000E+00
 -1      3506 1.25400E+02 3.59236E+01 0.00000E+00
 -1      3507 1.26900E+02 3.59236E+01 0.00000E+00
 -1      3508 1.24650E+02 3.46246E+01 0.00000E+00
 -1      3509 1.28400E+02 3.59236E+01 0.00000E+00
 -1      3510 1.29900E+02 3.59236E+01 0.00000E+00
 -1      3511 1.27650E+02 3.46246E+01 0.00000E+00
 -1      3512 1.31400E+02 3.59236E+01 0.00000E+00
 -1      3513 1.32900E+02 3.59236E+01 0.00000E+00
 -1      3514 1.30650E+02 3.46246E+01 0.00000E+00
 -1      3515 3.32850E+01 1.30992E+01 0.00000E+00
 -1      3516 3.17850E+01 1.30992E+01 0.00000E+00
 -1      3517 6.43349E+01 3.48262E+01 0.00000E+00
 -1      3518 8.12850E+01 1.30992E+01 0.00000E+00
 -1      3519 7.97850E+01 1.30992E+01 0.00000E+00
 -1      3520 7.82850E+01 1.30992E+01 0.00000E+00
 -1      3521 7.67850E+01 1.30992E+01 0.00000E+00
 -1      3522 7.90350E+01 1.43982E+01 0.00000E+00
 -1      3523 6.00827E+01 3.61371E+01 0.00000E+00
 -1      3524 5.88327E+01 3.56731E+01 0.00000E+00
 -1      3525 7.52850E+01 1.30992E+01 0.00000E+00
 -1      3526 7.37850E+01 1.30992E+01 0.00000E+00
 -1      3527 7.60350E+01 1.43982E+01 0.00000E+00
 -1      3528 8.42850E+01 1.30992E+01 0.00000E+00
 -1      3529 8.27850E+01 1.30992E+01 0.00000E+00
 -1      3530 8.20350E+01 1.43982E+01 0.00000E+00
 -1      3531 8.72850E+01 1.30992E+01 0.00000E+00
 -1      3532 8.57850E+01 1.30992E+01 0.00000E+00
 -1      3533 8.50350E+01 1.43982E+01 0.00000E+00
 -1      3534 9.02850E+01 1.30992E+01 0.00000E+00
 -1      3535 8.87850E+01 1.30992E+01 0.00000E+00
 -1      3536 8.80350E+01 1.43982E+01 0.00000E+00
 -1      3537 9.32850E+01 1.30992E+01 0.00000E+00
 -1      3538 9.17850E+01 1.30992E+01 0.00000E+00
 -1      3539 9.10350E+01 1.43982E+01 0.00000E+00
 -1      3540 9.62850E+01 1.30992E+01 0.00000E+00
 -1      3541 9.47850E+01 1.30992E+01 0.00000E+00
 -1      3542 9.40350E+01 1.43982E+01 0.00000E+00
 -1      3543 9.92850E+01 1.30992E+01 0.00000E+00
 -1      3544 9.77850E+01 1.30992E+01 0.00000E+00
 -1      3545 9.70350E+01 1.43982E+01 0.00000E+00
 -1      3546 1.02285E+02 1.30992E+01 0.00000E+00
 -1      3547 1.00785E+02 1.30992E+01 0.00000E+00
 -1      3548 1.00035E+02 1.43982E+01 0.00000E+00
 -1      3549 1.05285E+02 1.30992E+01 0.00000E+00
 -1      3550 1.03785E+02 1.30992E+01 0.00000E+00
 -1      3551 1.03035E+02 1.43982E+01 0.00000E+00
 -1      3552 1.08285E+02 1.30992E+01 0.00000E+00
 -1      3553 1.06785E+02 1.30992E+01 0.00000E+00
 -1      3554 1.06035E+02 1.43982E+01 0.00000E+00
 -1      3555 1.11285E+02 1.30992E+01 0.00000E+00
 -1      3556 1.09785E+02 1.30992E+01 0.00000E+00
 -1      3557 1.09035E+02 1.43982E+01 0.00000E+00
 -1      3558 1.14285E+02 1.30992E+01 0.00000E+00
 -1      3559 1.12785E+02 1.30992E+01 0.00000E+00
 -1      3560 1.12035E+02 1.43982E+01 0.00000E+00
 -1      3561 1.17285E+02 1.30992E+01 0.00000E+00
 -1      3562 1.15785E+02 1.30992E+01 0.00000E+00
 -1      3563 1.15035E+02 1.43982E+01 0.00000E+00
 -1      3564 1.20285E+02 1.30992E+01 0.00000E+00
 -1      3565 1.18785E+02 1.30992E+01 0.00000E+00
 -1      3566 1.18035E+02 1.43982E+01 0.00000E+00
 -1      3567 1.23285E+02 1.30992E+01 0.00000E+00
 -1      3568 1.21785E+02 1.30992E+01 0.00000E+00
 -1      3569 1.21035E+02 1.43982E+01 0.00000E+00
 -1      3570 1.26285E+02 1.30992E+01 0.00000E+00
 -1      3571 1.24785E+02 1.30992E+01 0.00000E+00
 -1      3572 1.24035E+02 1.43982E+01 0.00000E+00
 -1      3573 1.29285E+02 1.30992E+01 0.00000E+00
 -1      3574 1.27785E+02 1.30992E+01 0.00000E+00
 -1      3575 1.27035E+02 1.43982E+01 0.00000E+00
 -1      3576 1.32285E+02 1.30992E+01 0.00000E+00
 -1      3577 1.30785E+02 1.30992E+01 0.00000E+00
 -1      3578 1.30035E+02 1.43982E+01 0.00000E+00
 -1      3579 1.35285E+02 1.30992E+01 0.00000E+00
 -1      3580 1.33785E+02 1.30992E+01 0.00000E+00
 -1      3581 1.33035E+02 1.43982E+01 0.00000E+00
 -1      3582 1.38528E+02 1.44149E+01 0.00000E+00
 -1      3583 1.38594E+02 1.31746E+01 0.00000E+00
 -1      3584 1.37668E+02 1.30636E+01 0.00000E+00
 -1      3585 1.37229E+02 1.51462E+01 0.00000E+00
 -1      3586 1.35711E+02 2.72000E+01 0.00000E+00
 -1      3587 1.35711E+02 2.57500E+01 0.00000E+00
 -1      3588 7.22850E+01 1.30992E+01 0.00000E+00
 -1      3589 7.07850E+01 1.30992E+01 0.00000E+00
 -1      3590 7.30350E+01 1.43982E+01 0.00000E+00
 -1      3591 6.63563E+01 1.32182E+01 0.00000E+00
 -1      3592 1.33518E+01 1.70700E+01 0.00000E+00
 -1      3593 5.67894E+01 3.66836E+01 0.00000E+00
 -1      3594 1.16910E+01 2.71844E+01 0.00000E+00
 -1      3595 1.16910E+01 2.86531E+01 0.00000E+00
 -1      3596 1.29900E+01 2.93875E+01 0.00000E+00
 -1      3597 1.74000E+01 3.57110E+01 0.00000E+00
 -1      3598 1.89000E+01 3.57110E+01 0.00000E+00
 -1      3599 1.96500E+01 3.44120E+01 0.00000E+00
 -1      3600 4.05579E+01 1.26298E+01 0.00000E+00
 -1      3601 6.85789E+01 2.56625E+01 0.00000E+00
 -1      3602 6.80274E+01 2.71570E+01 0.00000E+00
 -1      3603 3.95896E+01 3.04615E+01 0.00000E+00
 -1      3604 3.89262E+01 2.90425E+01 0.00000E+00
 -1      3605 3.68652E+01 2.03786E+01 0.00000E+00
 -1      3606 3.71629E+01 1.90323E+01 0.00000E+00
 -1      3607 6.60382E+01 3.11862E+01 0.00000E+00
 -1      3608 6.53298E+01 3.23901E+01 0.00000E+00
 -1      3609 3.97238E+01 1.36898E+01 0.00000E+00
 -1      3610 3.92009E+01 1.28603E+01 0.00000E+00
 -1      3611 3.77009E+01 1.28603E+01 0.00000E+00
 -1      3612 3.90326E+01 1.49803E+01 0.00000E+00
 -1      3613 6.94820E+01 1.98452E+01 0.00000E+00
 -1      3614 6.88117E+01 2.08245E+01 0.00000E+00
 -1      3615 6.97398E+01 2.17387E+01 0.00000E+00
 -1      3616 6.72571E+01 3.09565E+01 0.00000E+00
 -1      3617 6.79698E+01 1.63775E+01 0.00000E+00
 -1      3618 6.77022E+01 1.74570E+01 0.00000E+00
 -1      3619 6.88215E+01 1.78515E+01 0.00000E+00
 -1      3620 3.77933E+01 1.51543E+01 0.00000E+00
 -1      3621 3.60421E+01 2.51847E+01 0.00000E+00
 -1      3622 3.53211E+01 2.42138E+01 0.00000E+00
 -1      3623 1.47676E+01 3.55023E+01 0.00000E+00
 -1      3624 1.61100E+01 3.55564E+01 0.00000E+00
 -1      3625 1.68600E+01 3.42574E+01 0.00000E+00
 -1      3626 1.42800E+01 3.39483E+01 0.00000E+00
 -1      3627 3.83811E+01 3.38938E+01 0.00000E+00
 -1      3628 3.65756E+01 1.79272E+01 0.00000E+00
 -1      3629 3.59826E+01 2.60949E+01 0.00000E+00
 -1      3630 3.10350E+01 1.43982E+01 0.00000E+00
 -1      3631 3.02850E+01 1.30992E+01 0.00000E+00
 -1      3632 2.87850E+01 1.30992E+01 0.00000E+00
 -1      3633 1.34022E+02 3.61629E+01 0.00000E+00
 -1      3634 1.35329E+02 3.62207E+01 0.00000E+00
 -1      3635 1.35515E+02 3.53424E+01 0.00000E+00
 -1      3636 1.33272E+02 3.48639E+01 0.00000E+00
 -1      3637 6.50849E+01 3.35272E+01 0.00000E+00
 -1      3638 2.65350E+01 1.18003E+01 0.00000E+00
 -1      3639 1.67343E+01 1.33714E+01 0.00000E+00
 -1      3640 1.53951E+01 1.50351E+01 0.00000E+00
 -1      3641 1.35702E+02 3.44641E+01 0.00000E+00
 -1      3642 3.77137E+01 2.85256E+01 0.00000E+00
 -1      3643 6.78360E+01 1.28097E+01 0.00000E+00
 -1      3644 6.69631E+01 1.43002E+01 0.00000E+00
 -1      3645 6.76467E+01 1.49373E+01 0.00000E+00
 -1      3646 6.92389E+01 1.28459E+01 0.00000E+00
 -1      3647 1.35773E+02 1.52929E+01 0.00000E+00
 -1      3648 1.35992E+02 1.42516E+01 0.00000E+00
 -1      3649 1.36742E+02 1.29526E+01 0.00000E+00
 -1      3650 1.35711E+02 2.86750E+01 0.00000E+00
 -1      3651 1.34412E+02 2.79500E+01 0.00000E+00
 -1      3652 1.35711E+02 3.01500E+01 0.00000E+00
 -1      3653 1.35711E+02 2.42781E+01 0.00000E+00
 -1      3654 1.35711E+02 2.28062E+01 0.00000E+00
 -1      3655 1.34412E+02 2.50031E+01 0.00000E+00
 -1      3656 6.99889E+01 1.41449E+01 0.00000E+00
 -1      3657 3.94328E+01 3.17987E+01 0.00000E+00
 -1      3658 1.35630E+02 1.67929E+01 0.00000E+00
 -1      3659 1.34393E+02 1.58983E+01 0.00000E+00
 -1      3660 1.42890E+01 2.27625E+01 0.00000E+00
 -1      3661 1.42890E+01 2.42375E+01 0.00000E+00
 -1      3662 1.29900E+01 2.64469E+01 0.00000E+00
 -1      3663 1.35630E+02 1.82679E+01 0.00000E+00
 -1      3664 2.13123E+01 1.30897E+01 0.00000E+00
 -1      3665 1.99016E+01 1.30709E+01 0.00000E+00
 -1      3666 3.62429E+01 1.29798E+01 0.00000E+00
 -1      3667 3.47429E+01 1.29798E+01 0.00000E+00
 -1      3668 3.39929E+01 1.42788E+01 0.00000E+00
 -1      3669 3.69088E+01 1.40398E+01 0.00000E+00
 -1      3670 1.50333E+01 1.70526E+01 0.00000E+00
 -1      3671 1.46715E+01 1.90702E+01 0.00000E+00
 -1      3672 1.67148E+01 1.70353E+01 0.00000E+00
 -1      3673 2.43123E+01 1.30897E+01 0.00000E+00
 -1      3674 2.28123E+01 1.30897E+01 0.00000E+00
 -1      3675 2.20896E+01 1.43792E+01 0.00000E+00
 -1      3676 1.35706E+02 3.30445E+01 0.00000E+00
 -1      3677 1.35706E+02 3.15695E+01 0.00000E+00
 -1      3678 1.34407E+02 3.08445E+01 0.00000E+00
 -1      3679 1.34398E+02 3.36836E+01 0.00000E+00
 -1      3680 6.92851E+01 2.47848E+01 0.00000E+00
 -1      3681 7.02069E+01 2.59739E+01 0.00000E+00
 -1      3682 6.99913E+01 2.39071E+01 0.00000E+00
 -1      3683 3.58911E+01 2.12666E+01 0.00000E+00
 -1      3684 6.86876E+01 2.82070E+01 0.00000E+00
 -1      3685 1.42800E+01 3.10108E+01 0.00000E+00
 -1      3686 1.42800E+01 3.24796E+01 0.00000E+00
 -1      3687 1.55700E+01 3.26341E+01 0.00000E+00
 -1      3688 6.63949E+01 3.34876E+01 0.00000E+00
 -1      3689 1.44803E+01 2.01820E+01 0.00000E+00
 -1      3690 1.44803E+01 2.16507E+01 0.00000E+00
 -1      3691 1.57793E+01 2.23882E+01 0.00000E+00
 -1      3692 1.61618E+01 2.01646E+01 0.00000E+00
 -1      3693 6.78949E+01 3.34876E+01 0.00000E+00
 -1      3694 1.68600E+01 3.27887E+01 0.00000E+00
 -1      3695 1.81500E+01 3.29432E+01 0.00000E+00
 -1      3696 1.68600E+01 3.13199E+01 0.00000E+00
 -1      3697 2.19000E+01 3.31130E+01 0.00000E+00
 -1      3698 2.34000E+01 3.31130E+01 0.00000E+00
 -1      3699 2.49000E+01 3.31130E+01 0.00000E+00
 -1      3700 2.64000E+01 3.31130E+01 0.00000E+00
 -1      3701 2.41500E+01 3.18140E+01 0.00000E+00
 -1      3702 2.79000E+01 3.31130E+01 0.00000E+00
 -1      3703 2.94000E+01 3.31130E+01 0.00000E+00
 -1      3704 2.71500E+01 3.18140E+01 0.00000E+00
 -1      3705 3.09000E+01 3.31130E+01 0.00000E+00
 -1      3706 3.24000E+01 3.31130E+01 0.00000E+00
 -1      3707 3.01500E+01 3.18140E+01 0.00000E+00
 -1      3708 3.39000E+01 3.31130E+01 0.00000E+00
 -1      3709 3.54000E+01 3.31130E+01 0.00000E+00
 -1      3710 3.31500E+01 3.18140E+01 0.00000E+00
 -1      3711 5.82894E+01 3.65998E+01 0.00000E+00
 -1      3712 1.33276E+02 3.34443E+01 0.00000E+00
 -1      3713 6.99000E+01 3.33256E+01 0.00000E+00
 -1      3714 7.14000E+01 3.33256E+01 0.00000E+00
 -1      3715 7.29000E+01 3.33256E+01 0.00000E+00
 -1      3716 7.44000E+01 3.33256E+01 0.00000E+00
 -1      3717 7.21500E+01 3.20266E+01 0.00000E+00
 -1      3718 7.59000E+01 3.33256E+01 0.00000E+00
 -1      3719 7.74000E+01 3.33256E+01 0.00000E+00
 -1      3720 7.51500E+01 3.20266E+01 0.00000E+00
 -1      3721 7.89000E+01 3.33256E+01 0.00000E+00
 -1      3722 8.04000E+01 3.33256E+01 0.00000E+00
 -1      3723 7.81500E+01 3.20266E+01 0.00000E+00
 -1      3724 8.19000E+01 3.33256E+01 0.00000E+00
 -1      3725 8.34000E+01 3.33256E+01 0.00000E+00
 -1      3726 8.11500E+01 3.20266E+01 0.00000E+00
 -1      3727 8.49000E+01 3.33256E+01 0.00000E+00
 -1      3728 8.64000E+01 3.33256E+01 0.00000E+00
 -1      3729 8.41500E+01 3.20266E+01 0.00000E+00
 -1      3730 8.79000E+01 3.33256E+01 0.00000E+00
 -1      3731 8.94000E+01 3.33256E+01 0.00000E+00
 -1      3732 8.71500E+01 3.20266E+01 0.00000E+00
 -1      3733 9.09000E+01 3.33256E+01 0.00000E+00
 -1      3734 9.24000E+01 3.33256E+01 0.00000E+00
 -1      3735 9.01500E+01 3.20266E+01 0.00000E+00
 -1      3736 9.39000E+01 3.33256E+01 0.00000E+00
 -1      3737 9.54000E+01 3.33256E+01 0.00000E+00
 -1      3738 9.31500E+01 3.20266E+01 0.00000E+00
 -1      3739 9.69000E+01 3.33256E+01 0.00000E+00
 -1      3740 9.84000E+01 3.33256E+01 0.00000E+00
 -1      3741 9.61500E+01 3.20266E+01 0.00000E+00
 -1      3742 9.99000E+01 3.33256E+01 0.00000E+00
 -1      3743 1.01400E+02 3.33256E+01 0.00000E+00
 -1      3744 9.91500E+01 3.20266E+01 0.00000E+00
 -1      3745 1.02900E+02 3.33256E+01 0.00000E+00
 -1      3746 1.04400E+02 3.33256E+01 0.00000E+00
 -1      3747 1.02150E+02 3.20266E+01 0.00000E+00
 -1      3748 1.05900E+02 3.33256E+01 0.00000E+00
 -1      3749 1.07400E+02 3.33256E+01 0.00000E+00
 -1      3750 1.05150E+02 3.20266E+01 0.00000E+00
 -1      3751 1.08900E+02 3.33256E+01 0.00000E+00
 -1      3752 1.10400E+02 3.33256E+01 0.00000E+00
 -1      3753 1.08150E+02 3.20266E+01 0.00000E+00
 -1      3754 1.11900E+02 3.33256E+01 0.00000E+00
 -1      3755 1.13400E+02 3.33256E+01 0.00000E+00
 -1      3756 1.11150E+02 3.20266E+01 0.00000E+00
 -1      3757 1.14900E+02 3.33256E+01 0.00000E+00
 -1      3758 1.16400E+02 3.33256E+01 0.00000E+00
 -1      3759 1.14150E+02 3.20266E+01 0.00000E+00
 -1      3760 1.17900E+02 3.33256E+01 0.00000E+00
 -1      3761 1.19400E+02 3.33256E+01 0.00000E+00
 -1      3762 1.17150E+02 3.20266E+01 0.00000E+00
 -1      3763 1.20900E+02 3.33256E+01 0.00000E+00
 -1      3764 1.22400E+02 3.33256E+01 0.00000E+00
 -1      3765 1.20150E+02 3.20266E+01 0.00000E+00
 -1      3766 1.23900E+02 3.33256E+01 0.00000E+00
 -1      3767 1.25400E+02 3.33256E+01 0.00000E+00
 -1      3768 1.23150E+02 3.20266E+01 0.00000E+00
 -1      3769 1.26900E+02 3.33256E+01 0.00000E+00
 -1      3770 1.28400E+02 3.33256E+01 0.00000E+00
 -1      3771 1.26150E+02 3.20266E+01 0.00000E+00
 -1      3772 1.29900E+02 3.33256E+01 0.00000E+00
 -1      3773 1.31400E+02 3.33256E+01 0.00000E+00
 -1      3774 1.29150E+02 3.20266E+01 0.00000E+00
 -1      3775 3.67457E+01 2.97675E+01 0.00000E+00
 -1      3776 3.62060E+01 2.80714E+01 0.00000E+00
 -1      3777 1.81450E+01 1.33902E+01 0.00000E+00
 -1      3778 3.72017E+01 3.23168E+01 0.00000E+00
 -1      3779 8.57850E+01 1.56973E+01 0.00000E+00
 -1      3780 8.42850E+01 1.56973E+01 0.00000E+00
 -1      3781 8.27850E+01 1.56973E+01 0.00000E+00
 -1      3782 8.12850E+01 1.56973E+01 0.00000E+00
 -1      3783 8.35350E+01 1.69963E+01 0.00000E+00
 -1      3784 6.87659E+01 1.53318E+01 0.00000E+00
 -1      3785 8.87850E+01 1.56973E+01 0.00000E+00
 -1      3786 8.72850E+01 1.56973E+01 0.00000E+00
 -1      3787 8.65350E+01 1.69963E+01 0.00000E+00
 -1      3788 9.17850E+01 1.56973E+01 0.00000E+00
 -1      3789 9.02850E+01 1.56973E+01 0.00000E+00
 -1      3790 8.95350E+01 1.69963E+01 0.00000E+00
 -1      3791 9.47850E+01 1.56973E+01 0.00000E+00
 -1      3792 9.32850E+01 1.56973E+01 0.00000E+00
 -1      3793 9.25350E+01 1.69963E+01 0.00000E+00
 -1      3794 9.77850E+01 1.56973E+01 0.00000E+00
 -1      3795 9.62850E+01 1.56973E+01 0.00000E+00
 -1      3796 9.55350E+01 1.69963E+01 0.00000E+00
 -1      3797 1.00785E+02 1.56973E+01 0.00000E+00
 -1      3798 9.92850E+01 1.56973E+01 0.00000E+00
 -1      3799 9.85350E+01 1.69963E+01 0.00000E+00
 -1      3800 1.03785E+02 1.56973E+01 0.00000E+00
 -1      3801 1.02285E+02 1.56973E+01 0.00000E+00
 -1      3802 1.01535E+02 1.69963E+01 0.00000E+00
 -1      3803 1.06785E+02 1.56973E+01 0.00000E+00
 -1      3804 1.05285E+02 1.56973E+01 0.00000E+00
 -1      3805 1.04535E+02 1.69963E+01 0.00000E+00
 -1      3806 1.09785E+02 1.56973E+01 0.00000E+00
 -1      3807 1.08285E+02 1.56973E+01 0.00000E+00
 -1      3808 1.07535E+02 1.69963E+01 0.00000E+00
 -1      3809 1.12785E+02 1.56973E+01 0.00000E+00
 -1      3810 1.11285E+02 1.56973E+01 0.00000E+00
 -1      3811 1.10535E+02 1.69963E+01 0.00000E+00
 -1      3812 1.15785E+02 1.56973E+01 0.00000E+00
 -1      3813 1.14285E+02 1.56973E+01 0.00000E+00
 -1      3814 1.13535E+02 1.69963E+01 0.00000E+00
 -1      3815 1.18785E+02 1.56973E+01 0.00000E+00
 -1      3816 1.17285E+02 1.56973E+01 0.00000E+00
 -1      3817 1.16535E+02 1.69963E+01 0.00000E+00
 -1      3818 1.21785E+02 1.56973E+01 0.00000E+00
 -1      3819 1.20285E+02 1.56973E+01 0.00000E+00
 -1      3820 1.19535E+02 1.69963E+01 0.00000E+00
 -1      3821 1.24785E+02 1.56973E+01 0.00000E+00
 -1      3822 1.23285E+02 1.56973E+01 0.00000E+00
 -1      3823 1.22535E+02 1.69963E+01 0.00000E+00
 -1      3824 1.27785E+02 1.56973E+01 0.00000E+00
 -1      3825 1.26285E+02 1.56973E+01 0.00000E+00
 -1      3826 1.25535E+02 1.69963E+01 0.00000E+00
 -1      3827 1.30785E+02 1.56973E+01 0.00000E+00
 -1      3828 1.29285E+02 1.56973E+01 0.00000E+00
 -1      3829 1.28535E+02 1.69963E+01 0.00000E+00
 -1      3830 1.32893E+02 1.58983E+01 0.00000E+00
 -1      3831 6.86449E+01 3.21886E+01 0.00000E+00
 -1      3832 3.52305E+01 1.82683E+01 0.00000E+00
 -1      3833 3.58748E+01 1.67295E+01 0.00000E+00
 -1      3834 7.37850E+01 1.56973E+01 0.00000E+00
 -1      3835 7.22850E+01 1.56973E+01 0.00000E+00
 -1      3836 3.63354E+01 1.52738E+01 0.00000E+00
 -1      3837 1.92750E+01 3.30281E+01 0.00000E+00
 -1      3838 2.07750E+01 3.30281E+01 0.00000E+00
 -1      3839 2.15250E+01 3.17291E+01 0.00000E+00
 -1      3840 1.92750E+01 3.15594E+01 0.00000E+00
 -1      3841 1.88331E+01 1.46985E+01 0.00000E+00
 -1      3842 1.55880E+01 2.49719E+01 0.00000E+00
 -1      3843 1.42890E+01 2.57094E+01 0.00000E+00
 -1      3844 1.42890E+01 2.71812E+01 0.00000E+00
 -1      3845 1.42845E+01 2.83617E+01 0.00000E+00
 -1      3846 1.42845E+01 2.98304E+01 0.00000E+00
 -1      3847 1.55745E+01 2.99850E+01 0.00000E+00
 -1      3848 1.55835E+01 2.76242E+01 0.00000E+00
 -1      3849 7.03120E+01 1.55851E+01 0.00000E+00
 -1      3850 3.38770E+01 2.42421E+01 0.00000E+00
 -1      3851 3.44068E+01 2.30956E+01 0.00000E+00
 -1      3852 7.67850E+01 1.56973E+01 0.00000E+00
 -1      3853 7.52850E+01 1.56973E+01 0.00000E+00
 -1      3854 7.45350E+01 1.69963E+01 0.00000E+00
 -1      3855 7.97850E+01 1.56973E+01 0.00000E+00
 -1      3856 7.82850E+01 1.56973E+01 0.00000E+00
 -1      3857 8.05350E+01 1.69963E+01 0.00000E+00
 -1      3858 2.02278E+01 1.63967E+01 0.00000E+00
 -1      3859 1.84713E+01 1.67160E+01 0.00000E+00
 -1      3860 1.81095E+01 1.87336E+01 0.00000E+00
 -1      3861 3.50146E+01 2.73368E+01 0.00000E+00
 -1      3862 7.00451E+01 2.80998E+01 0.00000E+00
 -1      3863 6.92319E+01 2.94552E+01 0.00000E+00
 -1      3864 6.92622E+01 3.07945E+01 0.00000E+00
 -1      3865 1.35711E+02 2.13344E+01 0.00000E+00
 -1      3866 1.35711E+02 1.98625E+01 0.00000E+00
 -1      3867 1.34412E+02 2.20594E+01 0.00000E+00
 -1      3868 2.72987E+01 1.30945E+01 0.00000E+00
 -1      3869 2.57987E+01 1.30945E+01 0.00000E+00
 -1      3870 2.50760E+01 1.43840E+01 0.00000E+00
 -1      3871 2.80487E+01 1.43935E+01 0.00000E+00
 -1      3872 1.34331E+02 1.89929E+01 0.00000E+00
 -1      3873 3.47986E+01 2.15822E+01 0.00000E+00
 -1      3874 3.48388E+01 1.97816E+01 0.00000E+00
 -1      3875 3.41380E+01 1.85840E+01 0.00000E+00
 -1      3876 3.33545E+01 2.16106E+01 0.00000E+00
 -1      3877 1.32143E+02 1.71973E+01 0.00000E+00
 -1      3878 1.32304E+02 2.03865E+01 0.00000E+00
 -1      3879 1.32223E+02 1.87919E+01 0.00000E+00
 -1      3880 1.30116E+02 1.85908E+01 0.00000E+00
 -1      3881 6.97496E+01 1.87657E+01 0.00000E+00
 -1      3882 7.06777E+01 1.96800E+01 0.00000E+00
 -1      3883 7.00172E+01 1.76863E+01 0.00000E+00
 -1      3884 3.17850E+01 1.56973E+01 0.00000E+00
 -1      3885 3.02850E+01 1.56973E+01 0.00000E+00
 -1      3886 1.71551E+01 2.20525E+01 0.00000E+00
 -1      3887 1.69638E+01 2.31643E+01 0.00000E+00
 -1      3888 7.06197E+01 3.06873E+01 0.00000E+00
 -1      3889 3.64517E+01 3.10178E+01 0.00000E+00
 -1      3890 3.49440E+01 3.05636E+01 0.00000E+00
 -1      3891 3.38355E+01 2.84709E+01 0.00000E+00
 -1      3892 3.36122E+01 2.64944E+01 0.00000E+00
 -1      3893 7.10620E+01 1.68841E+01 0.00000E+00
 -1      3894 7.14575E+01 2.63444E+01 0.00000E+00
 -1      3895 7.07513E+01 2.72221E+01 0.00000E+00
 -1      3896 7.12956E+01 2.84702E+01 0.00000E+00
 -1      3897 1.33113E+02 2.86875E+01 0.00000E+00
 -1      3898 1.33113E+02 2.72125E+01 0.00000E+00
 -1      3899 7.06617E+01 2.29278E+01 0.00000E+00
 -1      3900 7.15835E+01 2.41169E+01 0.00000E+00
 -1      3901 7.13320E+01 2.19485E+01 0.00000E+00
 -1      3902 7.75350E+01 1.69963E+01 0.00000E+00
 -1      3903 1.33113E+02 2.57406E+01 0.00000E+00
 -1      3904 1.33113E+02 2.42687E+01 0.00000E+00
 -1      3905 1.31814E+02 2.64781E+01 0.00000E+00
 -1      3906 1.32526E+02 3.21453E+01 0.00000E+00
 -1      3907 3.49903E+01 1.56149E+01 0.00000E+00
 -1      3908 1.69638E+01 2.46362E+01 0.00000E+00
 -1      3909 1.69638E+01 2.61081E+01 0.00000E+00
 -1      3910 1.83396E+01 2.43005E+01 0.00000E+00
 -1      3911 3.35324E+01 1.57344E+01 0.00000E+00
 -1      3912 2.32278E+01 1.63967E+01 0.00000E+00
 -1      3913 2.17278E+01 1.63967E+01 0.00000E+00
 -1      3914 2.13660E+01 1.84143E+01 0.00000E+00
 -1      3915 3.26979E+01 2.53763E+01 0.00000E+00
 -1      3916 3.17836E+01 2.42581E+01 0.00000E+00
 -1      3917 3.15188E+01 2.65104E+01 0.00000E+00
 -1      3918 3.27824E+01 1.70334E+01 0.00000E+00
 -1      3919 8.72850E+01 1.82952E+01 0.00000E+00
 -1      3920 8.57850E+01 1.82952E+01 0.00000E+00
 -1      3921 1.68645E+01 3.01395E+01 0.00000E+00
 -1      3922 1.81545E+01 3.02941E+01 0.00000E+00
 -1      3923 1.68690E+01 2.89591E+01 0.00000E+00
 -1      3924 2.64000E+01 3.05150E+01 0.00000E+00
 -1      3925 2.79000E+01 3.05150E+01 0.00000E+00
 -1      3926 7.21197E+01 3.06873E+01 0.00000E+00
 -1      3927 7.36197E+01 3.06873E+01 0.00000E+00
 -1      3928 7.20894E+01 2.93479E+01 0.00000E+00
 -1      3929 7.51197E+01 3.06873E+01 0.00000E+00
 -1      3930 7.66197E+01 3.06873E+01 0.00000E+00
 -1      3931 7.50894E+01 2.93479E+01 0.00000E+00
 -1      3932 7.81197E+01 3.06873E+01 0.00000E+00
 -1      3933 7.96197E+01 3.06873E+01 0.00000E+00
 -1      3934 7.80894E+01 2.93479E+01 0.00000E+00
 -1      3935 8.11197E+01 3.06873E+01 0.00000E+00
 -1      3936 8.26197E+01 3.06873E+01 0.00000E+00
 -1      3937 8.10894E+01 2.93479E+01 0.00000E+00
 -1      3938 8.41197E+01 3.06873E+01 0.00000E+00
 -1      3939 8.56197E+01 3.06873E+01 0.00000E+00
 -1      3940 8.40894E+01 2.93479E+01 0.00000E+00
 -1      3941 8.71197E+01 3.06873E+01 0.00000E+00
 -1      3942 8.86197E+01 3.06873E+01 0.00000E+00
 -1      3943 8.70894E+01 2.93479E+01 0.00000E+00
 -1      3944 9.01197E+01 3.06873E+01 0.00000E+00
 -1      3945 9.16197E+01 3.06873E+01 0.00000E+00
 -1      3946 9.00894E+01 2.93479E+01 0.00000E+00
 -1      3947 9.31197E+01 3.06873E+01 0.00000E+00
 -1      3948 9.46197E+01 3.06873E+01 0.00000E+00
 -1      3949 9.30894E+01 2.93479E+01 0.00000E+00
 -1      3950 9.61197E+01 3.06873E+01 0.00000E+00
 -1      3951 9.76197E+01 3.06873E+01 0.00000E+00
 -1      3952 9.60894E+01 2.93479E+01 0.00000E+00
 -1      3953 9.91197E+01 3.06873E+01 0.00000E+00
 -1      3954 1.00620E+02 3.06873E+01 0.00000E+00
 -1      3955 9.90894E+01 2.93479E+01 0.00000E+00
 -1      3956 1.02120E+02 3.06873E+01 0.00000E+00
 -1      3957 1.03620E+02 3.06873E+01 0.00000E+00
 -1      3958 1.02089E+02 2.93479E+01 0.00000E+00
 -1      3959 1.05120E+02 3.06873E+01 0.00000E+00
 -1      3960 1.06620E+02 3.06873E+01 0.00000E+00
 -1      3961 1.05089E+02 2.93479E+01 0.00000E+00
 -1      3962 1.08120E+02 3.06873E+01 0.00000E+00
 -1      3963 1.09620E+02 3.06873E+01 0.00000E+00
 -1      3964 1.08089E+02 2.93479E+01 0.00000E+00
 -1      3965 1.11120E+02 3.06873E+01 0.00000E+00
 -1      3966 1.12620E+02 3.06873E+01 0.00000E+00
 -1      3967 1.11089E+02 2.93479E+01 0.00000E+00
 -1      3968 1.14120E+02 3.06873E+01 0.00000E+00
 -1      3969 1.15620E+02 3.06873E+01 0.00000E+00
 -1      3970 1.14089E+02 2.93479E+01 0.00000E+00
 -1      3971 1.17120E+02 3.06873E+01 0.00000E+00
 -1      3972 1.18620E+02 3.06873E+01 0.00000E+00
 -1      3973 1.17089E+02 2.93479E+01 0.00000E+00
 -1      3974 1.20120E+02 3.06873E+01 0.00000E+00
 -1      3975 1.21620E+02 3.06873E+01 0.00000E+00
 -1      3976 1.20089E+02 2.93479E+01 0.00000E+00
 -1      3977 1.23120E+02 3.06873E+01 0.00000E+00
 -1      3978 1.24620E+02 3.06873E+01 0.00000E+00
 -1      3979 1.23089E+02 2.93479E+01 0.00000E+00
 -1      3980 1.26120E+02 3.06873E+01 0.00000E+00
 -1      3981 1.27620E+02 3.06873E+01 0.00000E+00
 -1      3982 1.26089E+02 2.93479E+01 0.00000E+00
 -1      3983 1.29120E+02 3.06873E+01 0.00000E+00
 -1      3984 3.23906E+01 1.85468E+01 0.00000E+00
 -1      3985 7.19901E+01 1.77984E+01 0.00000E+00
 -1      3986 8.42850E+01 1.82952E+01 0.00000E+00
 -1      3987 8.27850E+01 1.82952E+01 0.00000E+00
 -1      3988 8.50350E+01 1.95942E+01 0.00000E+00
 -1      3989 9.02850E+01 1.82952E+01 0.00000E+00
 -1      3990 8.87850E+01 1.82952E+01 0.00000E+00
 -1      3991 8.80350E+01 1.95942E+01 0.00000E+00
 -1      3992 1.96748E+01 1.95261E+01 0.00000E+00
 -1      3993 1.79183E+01 1.98453E+01 0.00000E+00
 -1      3994 1.77270E+01 2.09571E+01 0.00000E+00
 -1      3995 9.32850E+01 1.82952E+01 0.00000E+00
 -1      3996 9.17850E+01 1.82952E+01 0.00000E+00
 -1      3997 9.10350E+01 1.95942E+01 0.00000E+00
 -1      3998 9.62850E+01 1.82952E+01 0.00000E+00
 -1      3999 9.47850E+01 1.82952E+01 0.00000E+00
 -1      4000 9.40350E+01 1.95942E+01 0.00000E+00
 -1      4001 9.92850E+01 1.82952E+01 0.00000E+00
 -1      4002 9.77850E+01 1.82952E+01 0.00000E+00
 -1      4003 9.70350E+01 1.95942E+01 0.00000E+00
 -1      4004 1.02285E+02 1.82952E+01 0.00000E+00
 -1      4005 1.00785E+02 1.82952E+01 0.00000E+00
 -1      4006 1.00035E+02 1.95942E+01 0.00000E+00
 -1      4007 1.05285E+02 1.82952E+01 0.00000E+00
 -1      4008 1.03785E+02 1.82952E+01 0.00000E+00
 -1      4009 1.03035E+02 1.95942E+01 0.00000E+00
 -1      4010 1.08285E+02 1.82952E+01 0.00000E+00
 -1      4011 1.06785E+02 1.82952E+01 0.00000E+00
 -1      4012 1.06035E+02 1.95942E+01 0.00000E+00
 -1      4013 1.11285E+02 1.82952E+01 0.00000E+00
 -1      4014 1.09785E+02 1.82952E+01 0.00000E+00
 -1      4015 1.09035E+02 1.95942E+01 0.00000E+00
 -1      4016 1.14285E+02 1.82952E+01 0.00000E+00
 -1      4017 1.12785E+02 1.82952E+01 0.00000E+00
 -1      4018 1.12035E+02 1.95942E+01 0.00000E+00
 -1      4019 1.17285E+02 1.82952E+01 0.00000E+00
 -1      4020 1.15785E+02 1.82952E+01 0.00000E+00
 -1      4021 1.15035E+02 1.95942E+01 0.00000E+00
 -1      4022 1.20285E+02 1.82952E+01 0.00000E+00
 -1      4023 1.18785E+02 1.82952E+01 0.00000E+00
 -1      4024 1.18035E+02 1.95942E+01 0.00000E+00
 -1      4025 1.23285E+02 1.82952E+01 0.00000E+00
 -1      4026 1.21785E+02 1.82952E+01 0.00000E+00
 -1      4027 1.21035E+02 1.95942E+01 0.00000E+00
 -1      4028 1.26285E+02 1.82952E+01 0.00000E+00
 -1      4029 1.24785E+02 1.82952E+01 0.00000E+00
 -1      4030 1.24035E+02 1.95942E+01 0.00000E+00
 -1      4031 1.28950E+02 1.84430E+01 0.00000E+00
 -1      4032 1.27450E+02 1.84430E+01 0.00000E+00
 -1      4033 1.26700E+02 1.97420E+01 0.00000E+00
 -1      4034 1.29031E+02 2.00376E+01 0.00000E+00
 -1      4035 7.82850E+01 1.82952E+01 0.00000E+00
 -1      4036 7.67850E+01 1.82952E+01 0.00000E+00
 -1      4037 1.32531E+02 3.07258E+01 0.00000E+00
 -1      4038 2.34000E+01 3.05150E+01 0.00000E+00
 -1      4039 2.49000E+01 3.05150E+01 0.00000E+00
 -1      4040 2.56500E+01 2.92160E+01 0.00000E+00
 -1      4041 7.52850E+01 1.82952E+01 0.00000E+00
 -1      4042 7.37850E+01 1.82952E+01 0.00000E+00
 -1      4043 7.60350E+01 1.95942E+01 0.00000E+00
 -1      4044 8.12850E+01 1.82952E+01 0.00000E+00
 -1      4045 7.97850E+01 1.82952E+01 0.00000E+00
 -1      4046 7.90350E+01 1.95942E+01 0.00000E+00
 -1      4047 2.95487E+01 1.69915E+01 0.00000E+00
 -1      4048 2.87987E+01 1.56925E+01 0.00000E+00
 -1      4049 2.73123E+01 1.56877E+01 0.00000E+00
 -1      4050 3.33458E+01 3.07676E+01 0.00000E+00
 -1      4051 3.36397E+01 2.95173E+01 0.00000E+00
 -1      4052 3.22373E+01 2.86749E+01 0.00000E+00
 -1      4053 3.18458E+01 3.07676E+01 0.00000E+00
 -1      4054 1.32709E+02 2.30635E+01 0.00000E+00
 -1      4055 1.32709E+02 2.15917E+01 0.00000E+00
 -1      4056 1.30601E+02 2.13906E+01 0.00000E+00
 -1      4057 1.31410E+02 2.38010E+01 0.00000E+00
 -1      4058 1.31232E+02 2.99883E+01 0.00000E+00
 -1      4059 1.29702E+02 2.86490E+01 0.00000E+00
 -1      4060 1.92840E+01 2.91986E+01 0.00000E+00
 -1      4061 1.92795E+01 3.03790E+01 0.00000E+00
 -1      4062 2.04045E+01 3.04638E+01 0.00000E+00
 -1      4063 7.27401E+01 1.90974E+01 0.00000E+00
 -1      4064 8.20350E+01 1.95942E+01 0.00000E+00
 -1      4065 1.89116E+01 2.17333E+01 0.00000E+00
 -1      4066 3.20905E+01 2.01770E+01 0.00000E+00
 -1      4067 3.07349E+01 1.86265E+01 0.00000E+00
 -1      4068 2.94000E+01 3.05150E+01 0.00000E+00
 -1      4069 3.09000E+01 3.05150E+01 0.00000E+00
 -1      4070 2.26748E+01 1.95261E+01 0.00000E+00
 -1      4071 2.11748E+01 1.95261E+01 0.00000E+00
 -1      4072 2.09835E+01 2.06378E+01 0.00000E+00
 -1      4073 7.21278E+01 2.53651E+01 0.00000E+00
 -1      4074 7.26722E+01 2.66133E+01 0.00000E+00
 -1      4075 7.27982E+01 2.43858E+01 0.00000E+00
 -1      4076 1.27589E+02 2.78761E+01 0.00000E+00
 -1      4077 1.29702E+02 2.71771E+01 0.00000E+00
 -1      4078 1.29702E+02 2.57052E+01 0.00000E+00
 -1      4079 7.21699E+01 1.99833E+01 0.00000E+00
 -1      4080 7.19023E+01 2.10627E+01 0.00000E+00
 -1      4081 7.28241E+01 2.22518E+01 0.00000E+00
 -1      4082 7.39647E+01 2.04801E+01 0.00000E+00
 -1      4083 7.27956E+01 2.84702E+01 0.00000E+00
 -1      4084 1.96386E+01 2.35646E+01 0.00000E+00
 -1      4085 1.96386E+01 2.50365E+01 0.00000E+00
 -1      4086 1.68735E+01 2.77787E+01 0.00000E+00
 -1      4087 2.86500E+01 2.92160E+01 0.00000E+00
 -1      4088 2.15295E+01 3.05487E+01 0.00000E+00
 -1      4089 2.22795E+01 2.92497E+01 0.00000E+00
 -1      4090 2.60132E+01 1.60446E+01 0.00000E+00
 -1      4091 2.45269E+01 1.60399E+01 0.00000E+00
 -1      4092 2.41651E+01 1.80574E+01 0.00000E+00
 -1      4093 2.67632E+01 1.73436E+01 0.00000E+00
 -1      4094 3.12915E+01 2.84223E+01 0.00000E+00
 -1      4095 3.03772E+01 2.73041E+01 0.00000E+00
 -1      4096 2.05971E+01 2.15535E+01 0.00000E+00
 -1      4097 2.00251E+01 2.26489E+01 0.00000E+00
 -1      4098 2.13241E+01 2.33849E+01 0.00000E+00
 -1      4099 2.20971E+01 2.15535E+01 0.00000E+00
 -1      4100 2.92485E+01 1.86218E+01 0.00000E+00
 -1      4101 3.02935E+01 2.38889E+01 0.00000E+00
 -1      4102 3.14726E+01 2.27548E+01 0.00000E+00
 -1      4103 3.16987E+01 2.16904E+01 0.00000E+00
 -1      4104 1.82493E+01 2.74430E+01 0.00000E+00
 -1      4105 3.02087E+01 2.13212E+01 0.00000E+00
 -1      4106 1.95065E+01 2.62822E+01 0.00000E+00
 -1      4107 1.94162E+01 2.79528E+01 0.00000E+00
 -1      4108 2.05412E+01 2.80377E+01 0.00000E+00
 -1      4109 2.08055E+01 2.55463E+01 0.00000E+00
 -1      4110 3.10958E+01 2.94686E+01 0.00000E+00
 -1      4111 2.90791E+01 2.01499E+01 0.00000E+00
 -1      4112 2.78928E+01 1.85149E+01 0.00000E+00
 -1      4113 2.65938E+01 1.88718E+01 0.00000E+00
 -1      4114 2.88530E+01 2.12143E+01 0.00000E+00
 -1      4115 8.87850E+01 2.08932E+01 0.00000E+00
 -1      4116 8.72850E+01 2.08932E+01 0.00000E+00
 -1      4117 7.42956E+01 2.84702E+01 0.00000E+00
 -1      4118 7.57956E+01 2.84702E+01 0.00000E+00
 -1      4119 7.35019E+01 2.75925E+01 0.00000E+00
 -1      4120 2.24117E+01 2.80040E+01 0.00000E+00
 -1      4121 7.73394E+01 2.80489E+01 0.00000E+00
 -1      4122 7.88394E+01 2.80489E+01 0.00000E+00
 -1      4123 8.03394E+01 2.80489E+01 0.00000E+00
 -1      4124 8.18394E+01 2.80489E+01 0.00000E+00
 -1      4125 7.95894E+01 2.67499E+01 0.00000E+00
 -1      4126 8.33394E+01 2.80489E+01 0.00000E+00
 -1      4127 8.48394E+01 2.80489E+01 0.00000E+00
 -1      4128 8.25894E+01 2.67499E+01 0.00000E+00
 -1      4129 8.63394E+01 2.80489E+01 0.00000E+00
 -1      4130 8.78394E+01 2.80489E+01 0.00000E+00
 -1      4131 8.55894E+01 2.67499E+01 0.00000E+00
 -1      4132 8.93394E+01 2.80489E+01 0.00000E+00
 -1      4133 9.08394E+01 2.80489E+01 0.00000E+00
 -1      4134 8.85894E+01 2.67499E+01 0.00000E+00
 -1      4135 9.23394E+01 2.80489E+01 0.00000E+00
 -1      4136 9.38394E+01 2.80489E+01 0.00000E+00
 -1      4137 9.15894E+01 2.67499E+01 0.00000E+00
 -1      4138 9.53394E+01 2.80489E+01 0.00000E+00
 -1      4139 9.68394E+01 2.80489E+01 0.00000E+00
 -1      4140 9.45894E+01 2.67499E+01 0.00000E+00
 -1      4141 9.83394E+01 2.80489E+01 0.00000E+00
 -1      4142 9.98394E+01 2.80489E+01 0.00000E+00
 -1      4143 9.75894E+01 2.67499E+01 0.00000E+00
 -1      4144 1.01339E+02 2.80489E+01 0.00000E+00
 -1      4145 1.02839E+02 2.80489E+01 0.00000E+00
 -1      4146 1.00589E+02 2.67499E+01 0.00000E+00
 -1      4147 1.04339E+02 2.80489E+01 0.00000E+00
 -1      4148 1.05839E+02 2.80489E+01 0.00000E+00
 -1      4149 1.03589E+02 2.67499E+01 0.00000E+00
 -1      4150 1.07339E+02 2.80489E+01 0.00000E+00
 -1      4151 1.08839E+02 2.80489E+01 0.00000E+00
 -1      4152 1.06589E+02 2.67499E+01 0.00000E+00
 -1      4153 1.10339E+02 2.80489E+01 0.00000E+00
 -1      4154 1.11839E+02 2.80489E+01 0.00000E+00
 -1      4155 1.09589E+02 2.67499E+01 0.00000E+00
 -1      4156 1.13339E+02 2.80489E+01 0.00000E+00
 -1      4157 1.14839E+02 2.80489E+01 0.00000E+00
 -1      4158 1.12589E+02 2.67499E+01 0.00000E+00
 -1      4159 1.16339E+02 2.80489E+01 0.00000E+00
 -1      4160 1.17839E+02 2.80489E+01 0.00000E+00
 -1      4161 1.15589E+02 2.67499E+01 0.00000E+00
 -1      4162 1.19339E+02 2.80489E+01 0.00000E+00
 -1      4163 1.20839E+02 2.80489E+01 0.00000E+00
 -1      4164 1.18589E+02 2.67499E+01 0.00000E+00
 -1      4165 1.22339E+02 2.80489E+01 0.00000E+00
 -1      4166 1.23839E+02 2.80489E+01 0.00000E+00
 -1      4167 1.21589E+02 2.67499E+01 0.00000E+00
 -1      4168 1.24964E+02 2.79625E+01 0.00000E+00
 -1      4169 1.26464E+02 2.79625E+01 0.00000E+00
 -1      4170 1.26464E+02 2.64906E+01 0.00000E+00
 -1      4171 1.24214E+02 2.66635E+01 0.00000E+00
 -1      4172 8.57850E+01 2.08932E+01 0.00000E+00
 -1      4173 8.42850E+01 2.08932E+01 0.00000E+00
 -1      4174 8.65350E+01 2.21922E+01 0.00000E+00
 -1      4175 9.47850E+01 2.08932E+01 0.00000E+00
 -1      4176 9.32850E+01 2.08932E+01 0.00000E+00
 -1      4177 9.77850E+01 2.08932E+01 0.00000E+00
 -1      4178 9.62850E+01 2.08932E+01 0.00000E+00
 -1      4179 9.55350E+01 2.21922E+01 0.00000E+00
 -1      4180 1.00785E+02 2.08932E+01 0.00000E+00
 -1      4181 9.92850E+01 2.08932E+01 0.00000E+00
 -1      4182 9.85350E+01 2.21922E+01 0.00000E+00
 -1      4183 1.03785E+02 2.08932E+01 0.00000E+00
 -1      4184 1.02285E+02 2.08932E+01 0.00000E+00
 -1      4185 1.01535E+02 2.21922E+01 0.00000E+00
 -1      4186 1.06785E+02 2.08932E+01 0.00000E+00
 -1      4187 1.05285E+02 2.08932E+01 0.00000E+00
 -1      4188 1.04535E+02 2.21922E+01 0.00000E+00
 -1      4189 1.09785E+02 2.08932E+01 0.00000E+00
 -1      4190 1.08285E+02 2.08932E+01 0.00000E+00
 -1      4191 1.07535E+02 2.21922E+01 0.00000E+00
 -1      4192 1.12785E+02 2.08932E+01 0.00000E+00
 -1      4193 1.11285E+02 2.08932E+01 0.00000E+00
 -1      4194 1.10535E+02 2.21922E+01 0.00000E+00
 -1      4195 1.15785E+02 2.08932E+01 0.00000E+00
 -1      4196 1.14285E+02 2.08932E+01 0.00000E+00
 -1      4197 1.13535E+02 2.21922E+01 0.00000E+00
 -1      4198 1.18785E+02 2.08932E+01 0.00000E+00
 -1      4199 1.17285E+02 2.08932E+01 0.00000E+00
 -1      4200 1.16535E+02 2.21922E+01 0.00000E+00
 -1      4201 1.21785E+02 2.08932E+01 0.00000E+00
 -1      4202 1.20285E+02 2.08932E+01 0.00000E+00
 -1      4203 1.19535E+02 2.21922E+01 0.00000E+00
 -1      4204 1.24785E+02 2.08932E+01 0.00000E+00
 -1      4205 1.23285E+02 2.08932E+01 0.00000E+00
 -1      4206 1.22535E+02 2.21922E+01 0.00000E+00
 -1      4207 2.88772E+01 2.73041E+01 0.00000E+00
 -1      4208 2.91045E+01 2.53922E+01 0.00000E+00
 -1      4209 2.73772E+01 2.73041E+01 0.00000E+00
 -1      4210 7.97850E+01 2.08932E+01 0.00000E+00
 -1      4211 7.82850E+01 2.08932E+01 0.00000E+00
 -1      4212 7.67850E+01 2.08932E+01 0.00000E+00
 -1      4213 7.52850E+01 2.08932E+01 0.00000E+00
 -1      4214 7.75350E+01 2.21922E+01 0.00000E+00
 -1      4215 2.87935E+01 2.38889E+01 0.00000E+00
 -1      4216 2.41444E+01 2.76540E+01 0.00000E+00
 -1      4217 2.56444E+01 2.76540E+01 0.00000E+00
 -1      4218 2.58717E+01 2.57421E+01 0.00000E+00
 -1      4219 2.24061E+01 2.64420E+01 0.00000E+00
 -1      4220 8.27850E+01 2.08932E+01 0.00000E+00
 -1      4221 8.12850E+01 2.08932E+01 0.00000E+00
 -1      4222 8.35350E+01 2.21922E+01 0.00000E+00
 -1      4223 9.17850E+01 2.08932E+01 0.00000E+00
 -1      4224 9.02850E+01 2.08932E+01 0.00000E+00
 -1      4225 8.95350E+01 2.21922E+01 0.00000E+00
 -1      4226 9.25350E+01 2.21922E+01 0.00000E+00
 -1      4227 2.52947E+01 1.92287E+01 0.00000E+00
 -1      4228 2.39957E+01 1.95856E+01 0.00000E+00
 -1      4229 2.64243E+01 2.04000E+01 0.00000E+00
 -1      4230 2.25383E+01 2.51963E+01 0.00000E+00
 -1      4231 2.81737E+01 2.27301E+01 0.00000E+00
 -1      4232 2.70441E+01 2.15588E+01 0.00000E+00
 -1      4233 2.57451E+01 2.19157E+01 0.00000E+00
 -1      4234 2.69847E+01 2.42333E+01 0.00000E+00
 -1      4235 7.41722E+01 2.66133E+01 0.00000E+00
 -1      4236 1.29840E+02 2.24480E+01 0.00000E+00
 -1      4237 1.29436E+02 2.12428E+01 0.00000E+00
 -1      4238 1.28270E+02 2.10950E+01 0.00000E+00
 -1      4239 7.65456E+01 2.71712E+01 0.00000E+00
 -1      4240 7.33685E+01 2.35000E+01 0.00000E+00
 -1      4241 7.39128E+01 2.47481E+01 0.00000E+00
 -1      4242 7.39388E+01 2.26141E+01 0.00000E+00
 -1      4243 7.47147E+01 2.17791E+01 0.00000E+00
 -1      4244 1.25950E+02 2.10410E+01 0.00000E+00
 -1      4245 1.25200E+02 2.23400E+01 0.00000E+00
 -1      4246 1.27116E+02 2.11888E+01 0.00000E+00
 -1      4247 8.05350E+01 2.21922E+01 0.00000E+00
 -1      4248 2.38044E+01 2.06973E+01 0.00000E+00
 -1      4249 7.88394E+01 2.54509E+01 0.00000E+00
 -1      4250 8.03394E+01 2.54509E+01 0.00000E+00
 -1      4251 8.15622E+01 2.44711E+01 0.00000E+00
 -1      4252 8.30622E+01 2.44711E+01 0.00000E+00
 -1      4253 8.45622E+01 2.44711E+01 0.00000E+00
 -1      4254 8.60622E+01 2.44711E+01 0.00000E+00
 -1      4255 8.75622E+01 2.44711E+01 0.00000E+00
 -1      4256 8.90622E+01 2.44711E+01 0.00000E+00
 -1      4257 9.05622E+01 2.44711E+01 0.00000E+00
 -1      4258 9.20622E+01 2.44711E+01 0.00000E+00
 -1      4259 9.35622E+01 2.44711E+01 0.00000E+00
 -1      4260 9.50622E+01 2.44711E+01 0.00000E+00
 -1      4261 9.65622E+01 2.44711E+01 0.00000E+00
 -1      4262 9.80622E+01 2.44711E+01 0.00000E+00
 -1      4263 9.95622E+01 2.44711E+01 0.00000E+00
 -1      4264 1.01062E+02 2.44711E+01 0.00000E+00
 -1      4265 1.02562E+02 2.44711E+01 0.00000E+00
 -1      4266 1.04062E+02 2.44711E+01 0.00000E+00
 -1      4267 1.05562E+02 2.44711E+01 0.00000E+00
 -1      4268 1.07062E+02 2.44711E+01 0.00000E+00
 -1      4269 1.08562E+02 2.44711E+01 0.00000E+00
 -1      4270 1.10062E+02 2.44711E+01 0.00000E+00
 -1      4271 1.11562E+02 2.44711E+01 0.00000E+00
 -1      4272 1.13062E+02 2.44711E+01 0.00000E+00
 -1      4273 1.14562E+02 2.44711E+01 0.00000E+00
 -1      4274 1.16062E+02 2.44711E+01 0.00000E+00
 -1      4275 1.17562E+02 2.44711E+01 0.00000E+00
 -1      4276 1.19062E+02 2.44711E+01 0.00000E+00
 -1      4277 1.20562E+02 2.44711E+01 0.00000E+00
 -1      4278 1.22062E+02 2.44711E+01 0.00000E+00
 -1      4279 1.23562E+02 2.44711E+01 0.00000E+00
 -1      4280 2.52519E+01 2.45833E+01 0.00000E+00
 -1      4281 7.57339E+01 2.62427E+01 0.00000E+00
 -1      4282 7.72777E+01 2.58215E+01 0.00000E+00
 -1      4283 7.80277E+01 2.45224E+01 0.00000E+00
 -1      4284 7.49043E+01 2.52635E+01 0.00000E+00
 -1      4285 1.28132E+02 2.43522E+01 0.00000E+00
 -1      4286 1.30244E+02 2.36532E+01 0.00000E+00
 -1      4287 7.52591E+01 2.30273E+01 0.00000E+00
 -1      4288 2.45815E+01 2.17643E+01 0.00000E+00
 -1      4289 2.32606E+01 2.17048E+01 0.00000E+00
 -1      4290 2.28742E+01 2.26205E+01 0.00000E+00
 -1      4291 2.52013E+01 2.29232E+01 0.00000E+00
 -1      4292 2.24877E+01 2.35362E+01 0.00000E+00
 -1      4293 1.27520E+02 2.23940E+01 0.00000E+00
 -1      4294 2.40883E+01 2.44320E+01 0.00000E+00
 -1      4295 1.26978E+02 2.44460E+01 0.00000E+00
 -1      4296 7.54745E+01 2.43776E+01 0.00000E+00
 -1      4297 1.25071E+02 2.35956E+01 0.00000E+00
 -1      4298 1.24598E+02 2.58744E+01 0.00000E+00
 -1      4299 8.08122E+01 2.31721E+01 0.00000E+00
 -1      4300 7.93122E+01 2.31721E+01 0.00000E+00
 -1      4301 7.62505E+01 2.35426E+01 0.00000E+00
 -1      4302 7.77505E+01 2.35426E+01 0.00000E+00
 -1      4303 1.26236E+02 2.37434E+01 0.00000E+00
 -1      4304 1.25723E+02 2.57880E+01 0.00000E+00
 -1      4305 1.26848E+02 2.57015E+01 0.00000E+00
 -3
    3C                          2071                                     1
 -1       164    8    0    1
 -2         6         7        23      1118      1281      1135
 -1       165    8    0    1
 -2         7         8       164      1119      1282      1283
 -1       166    8    0    1
 -2         8         9       165      1120      1284      1285
 -1       167    8    0    1
 -2         8       165       164      1285      1286      1282
 -1       168    8    0    1
 -2         9        10       166      1121      1287      1288
 -1       169    8    0    1
 -2         9       166       165      1288      1289      1284
 -1       170    8    0    1
 -2        10        11       167      1122      1290      1291
 -1       171    8    0    1
 -2        10       167       166      1291      1292      1287
 -1       172    8    0    1
 -2        11        12       168      1123      1293      1294
 -1       173    8    0    1
 -2        11       168       167      1294      1295      1290
 -1       174    8    0    1
 -2        12        13       169      1124      1296      1297
 -1       175    8    0    1
 -2        12       169       168      1297      1298      1293
 -1       176    8    0    1
 -2        13        14       170      1125      1299      1300
 -1       177    8    0    1
 -2        13       170       169      1300      1301      1296
 -1       178    8    0    1
 -2        14        15       171      1126      1302      1303
 -1       179    8    0    1
 -2        14       171       170      1303      1304      1299
 -1       180    8    0    1
 -2        15        16       172      1127      1305      1306
 -1       181    8    0    1
 -2        15       172       171      1306      1307      1302
 -1       182    8    0    1
 -2        16        17       173      1128      1308      1309
 -1       183    8    0    1
 -2        16       173       172      1309      1310      1305
 -1       184    8    0    1
 -2        17        18       174      1129      1311      1312
 -1       185    8    0    1
 -2        17       174       173      1312      1313      1308
 -1       186    8    0    1
 -2        18        19       175      1130      1314      1315
 -1       187    8    0    1
 -2        18       175       174      1315      1316      1311
 -1       188    8    0    1
 -2        19        20       176      1131      1317      1318
 -1       189    8    0    1
 -2        19       176       175      1318      1319      1314
 -1       190    8    0    1
 -2        20        21       177      1132      1320      1321
 -1       191    8    0    1
 -2        20       177       176      1321      1322      1317
 -1       192    8    0    1
 -2        21        22       178      1133      1323      1324
 -1       193    8    0    1
 -2        21       178       177      1324      1325      1320
 -1       194    8    0    1
 -2        22         5       179      1134      1326      1327
 -1       195    8    0    1
 -2       178        22       179      1323      1327      1328
 -1       196    8    0    1
 -2         5        72       179      1185      1329      1326
 -1       197    8    0    1
 -2        24        23       180      1136      1330      1331
 -1       198    8    0    1
 -2        25        24       181      1137      1332      1333
 -1       199    8    0    1
 -2        24       180       181      1331      1334      1332
 -1       200    8    0    1
 -2        26        25       182      1138      1335      1336
 -1       201    8    0    1
 -2        25       181       182      1333      1337      1335
 -1       202    8    0    1
 -2        27        26       183      1139      1338      1339
 -1       203    8    0    1
 -2        26       182       183      1336      1340      1338
 -1       204    8    0    1
 -2        28        27       184      1140      1341      1342
 -1       205    8    0    1
 -2        27       183       184      1339      1343      1341
 -1       206    8    0    1
 -2        29        28       185      1141      1344      1345
 -1       207    8    0    1
 -2        28       184       185      1342      1346      1344
 -1       208    8    0    1
 -2        30        29       186      1142      1347      1348
 -1       209    8    0    1
 -2        29       185       186      1345      1349      1347
 -1       210    8    0    1
 -2        31        30       187      1143      1350      1351
 -1       211    8    0    1
 -2        30       186       187      1348      1352      1350
 -1       212    8    0    1
 -2        32        31       188      1144      1353      1354
 -1       213    8    0    1
 -2        31       187       188      1351      1355      1353
 -1       214    8    0    1
 -2        33        32       189      1145      1356      1357
 -1       215    8    0    1
 -2        32       188       189      1354      1358      1356
 -1       216    8    0    1
 -2        34        33       190      1146      1359      1360
 -1       217    8    0    1
 -2        33       189       190      1357      1361      1359
 -1       218    8    0    1
 -2        35        34       191      1147      1362      1363
 -1       219    8    0    1
 -2        34       190       191      1360      1364      1362
 -1       220    8    0    1
 -2        36        35       192      1148      1365      1366
 -1       221    8    0    1
 -2        35       191       192      1363      1367      1365
 -1       222    8    0    1
 -2        37        36       193      1149      1368      1369
 -1       223    8    0    1
 -2        36       192       193      1366      1370      1368
 -1       224    8    0    1
 -2        38        37       194      1150      1371      1372
 -1       225    8    0    1
 -2        37       193       194      1369      1373      1371
 -1       226    8    0    1
 -2        39        38       195      1151      1374      1375
 -1       227    8    0    1
 -2        38       194       195      1372      1376      1374
 -1       228    8    0    1
 -2        40        39       196      1152      1377      1378
 -1       229    8    0    1
 -2        39       195       196      1375      1379      1377
 -1       230    8    0    1
 -2        41        40       197      1153      1380      1381
 -1       231    8    0    1
 -2        40       196       197      1378      1382      1380
 -1       232    8    0    1
 -2        42        41       198      1154      1383      1384
 -1       233    8    0    1
 -2        41       197       198      1381      1385      1383
 -1       234    8    0    1
 -2        43        42       199      1155      1386      1387
 -1       235    8    0    1
 -2        42       198       199      1384      1388      1386
 -1       236    8    0    1
 -2        44        43       200      1156      1389      1390
 -1       237    8    0    1
 -2        43       199       200      1387      1391      1389
 -1       238    8    0    1
 -2        45        44       201      1157      1392      1393
 -1       239    8    0    1
 -2        44       200       201      1390      1394      1392
 -1       240    8    0    1
 -2        46        45       202      1158      1395      1396
 -1       241    8    0    1
 -2        45       201       202      1393      1397      1395
 -1       242    8    0    1
 -2        47        46       203      1159      1398      1399
 -1       243    8    0    1
 -2        46       202       203      1396      1400      1398
 -1       244    8    0    1
 -2        48        47       204      1160      1401      1402
 -1       245    8    0    1
 -2        47       203       204      1399      1403      1401
 -1       246    8    0    1
 -2        49        48       205      1161      1404      1405
 -1       247    8    0    1
 -2        48       204       205      1402      1406      1404
 -1       248    8    0    1
 -2        50        49       206      1162      1407      1408
 -1       249    8    0    1
 -2        49       205       206      1405      1409      1407
 -1       250    8    0    1
 -2        51        50       207      1163      1410      1411
 -1       251    8    0    1
 -2        50       206       207      1408      1412      1410
 -1       252    8    0    1
 -2        52        51       208      1164      1413      1414
 -1       253    8    0    1
 -2        51       207       208      1411      1415      1413
 -1       254    8    0    1
 -2        53        52       209      1165      1416      1417
 -1       255    8    0    1
 -2        52       208       209      1414      1418      1416
 -1       256    8    0    1
 -2        54        53       210      1166      1419      1420
 -1       257    8    0    1
 -2        53       209       210      1417      1421      1419
 -1       258    8    0    1
 -2        55        54       211      1167      1422      1423
 -1       259    8    0    1
 -2        54       210       211      1420      1424      1422
 -1       260    8    0    1
 -2        56        55       212      1168      1425      1426
 -1       261    8    0    1
 -2        55       211       212      1423      1427      1425
 -1       262    8    0    1
 -2        57        56       213      1169      1428      1429
 -1       263    8    0    1
 -2        56       212       213      1426      1430      1428
 -1       264    8    0    1
 -2        58        57       214      1170      1431      1432
 -1       265    8    0    1
 -2        57       213       214      1429      1433      1431
 -1       266    8    0    1
 -2        59        58       215      1171      1434      1435
 -1       267    8    0    1
 -2        58       214       215      1432      1436      1434
 -1       268    8    0    1
 -2        60        59       216      1172      1437      1438
 -1       269    8    0    1
 -2        59       215       216      1435      1439      1437
 -1       270    8    0    1
 -2        61        60       217      1173      1440      1441
 -1       271    8    0    1
 -2        60       216       217      1438      1442      1440
 -1       272    8    0    1
 -2        62        61       218      1174      1443      1444
 -1       273    8    0    1
 -2        61       217       218      1441      1445      1443
 -1       274    8    0    1
 -2        63        62       219      1175      1446      1447
 -1       275    8    0    1
 -2        62       218       219      1444      1448      1446
 -1       276    8    0    1
 -2        64        63       220      1176      1449      1450
 -1       277    8    0    1
 -2        63       219       220      1447      1451      1449
 -1       278    8    0    1
 -2        65        64       221      1177      1452      1453
 -1       279    8    0    1
 -2        64       220       221      1450      1454      1452
 -1       280    8    0    1
 -2        66        65       222      1178      1455      1456
 -1       281    8    0    1
 -2        65       221       222      1453      1457      1455
 -1       282    8    0    1
 -2        67        66       223      1179      1458      1459
 -1       283    8    0    1
 -2        66       222       223      1456      1460      1458
 -1       284    8    0    1
 -2        68        67       224      1180      1461      1462
 -1       285    8    0    1
 -2        67       223       224      1459      1463      1461
 -1       286    8    0    1
 -2        69        68       225      1181      1464      1465
 -1       287    8    0    1
 -2        68       224       225      1462      1466      1464
 -1       288    8    0    1
 -2        70        69       226      1182      1467      1468
 -1       289    8    0    1
 -2        69       225       226      1465      1469      1467
 -1       290    8    0    1
 -2        71        70       227      1183      1470      1471
 -1       291    8    0    1
 -2        70       226       227      1468      1472      1470
 -1       292    8    0    1
 -2         4        71       136      1184      1473      1251
 -1       293    8    0    1
 -2       136        71       227      1473      1471      1474
 -1       294    8    0    1
 -2        72        73       228      1186      1475      1476
 -1       295    8    0    1
 -2        72       228       179      1476      1477      1329
 -1       296    8    0    1
 -2        73        74       229      1187      1478      1479
 -1       297    8    0    1
 -2        73       229       228      1479      1480      1475
 -1       298    8    0    1
 -2        74        75       230      1188      1481      1482
 -1       299    8    0    1
 -2        74       230       229      1482      1483      1478
 -1       300    8    0    1
 -2        75        76       231      1189      1484      1485
 -1       301    8    0    1
 -2        75       231       230      1485      1486      1481
 -1       302    8    0    1
 -2        76        77       232      1190      1487      1488
 -1       303    8    0    1
 -2        76       232       231      1488      1489      1484
 -1       304    8    0    1
 -2        77        78       233      1191      1490      1491
 -1       305    8    0    1
 -2        77       233       232      1491      1492      1487
 -1       306    8    0    1
 -2        78        79       234      1192      1493      1494
 -1       307    8    0    1
 -2        78       234       233      1494      1495      1490
 -1       308    8    0    1
 -2        79        80       235      1193      1496      1497
 -1       309    8    0    1
 -2        79       235       234      1497      1498      1493
 -1       310    8    0    1
 -2        80        81       236      1194      1499      1500
 -1       311    8    0    1
 -2        80       236       235      1500      1501      1496
 -1       312    8    0    1
 -2        81        82       237      1195      1502      1503
 -1       313    8    0    1
 -2        81       237       236      1503      1504      1499
 -1       314    8    0    1
 -2        82        83       238      1196      1505      1506
 -1       315    8    0    1
 -2        82       238       237      1506      1507      1502
 -1       316    8    0    1
 -2        83        84       239      1197      1508      1509
 -1       317    8    0    1
 -2        83       239       238      1509      1510      1505
 -1       318    8    0    1
 -2        84        85       240      1198      1511      1512
 -1       319    8    0    1
 -2        84       240       239      1512      1513      1508
 -1       320    8    0    1
 -2        85        86       241      1199      1514      1515
 -1       321    8    0    1
 -2        85       241       240      1515      1516      1511
 -1       322    8    0    1
 -2        86        87       242      1200      1517      1518
 -1       323    8    0    1
 -2        86       242       241      1518      1519      1514
 -1       324    8    0    1
 -2        87        88       243      1201      1520      1521
 -1       325    8    0    1
 -2        87       243       242      1521      1522      1517
 -1       326    8    0    1
 -2        88        89       244      1202      1523      1524
 -1       327    8    0    1
 -2        88       244       243      1524      1525      1520
 -1       328    8    0    1
 -2        89        90       245      1203      1526      1527
 -1       329    8    0    1
 -2        89       245       244      1527      1528      1523
 -1       330    8    0    1
 -2        90        91       246      1204      1529      1530
 -1       331    8    0    1
 -2        90       246       245      1530      1531      1526
 -1       332    8    0    1
 -2        91        92       247      1205      1532      1533
 -1       333    8    0    1
 -2        91       247       246      1533      1534      1529
 -1       334    8    0    1
 -2        92        93       248      1206      1535      1536
 -1       335    8    0    1
 -2        92       248       247      1536      1537      1532
 -1       336    8    0    1
 -2        93        94       249      1207      1538      1539
 -1       337    8    0    1
 -2        93       249       248      1539      1540      1535
 -1       338    8    0    1
 -2        94        95       250      1208      1541      1542
 -1       339    8    0    1
 -2        94       250       249      1542      1543      1538
 -1       340    8    0    1
 -2        95        96       251      1209      1544      1545
 -1       341    8    0    1
 -2        95       251       250      1545      1546      1541
 -1       342    8    0    1
 -2        96        97       252      1210      1547      1548
 -1       343    8    0    1
 -2        96       252       251      1548      1549      1544
 -1       344    8    0    1
 -2        97        98       253      1211      1550      1551
 -1       345    8    0    1
 -2        97       253       252      1551      1552      1547
 -1       346    8    0    1
 -2        98        99       254      1212      1553      1554
 -1       347    8    0    1
 -2        98       254       253      1554      1555      1550
 -1       348    8    0    1
 -2        99       100       255      1213      1556      1557
 -1       349    8    0    1
 -2        99       255       254      1557      1558      1553
 -1       350    8    0    1
 -2       100       101       256      1214      1559      1560
 -1       351    8    0    1
 -2       100       256       255      1560      1561      1556
 -1       352    8    0    1
 -2       101       102       257      1215      1562      1563
 -1       353    8    0    1
 -2       101       257       256      1563      1564      1559
 -1       354    8    0    1
 -2       102       103       258      1216      1565      1566
 -1       355    8    0    1
 -2       102       258       257      1566      1567      1562
 -1       356    8    0    1
 -2       103       104       259      1217      1568      1569
 -1       357    8    0    1
 -2       103       259       258      1569      1570      1565
 -1       358    8    0    1
 -2       104       105       260      1218      1571      1572
 -1       359    8    0    1
 -2       104       260       259      1572      1573      1568
 -1       360    8    0    1
 -2       105       106       261      1219      1574      1575
 -1       361    8    0    1
 -2       105       261       260      1575      1576      1571
 -1       362    8    0    1
 -2       106       107       262      1220      1577      1578
 -1       363    8    0    1
 -2       106       262       261      1578      1579      1574
 -1       364    8    0    1
 -2       107       108       263      1221      1580      1581
 -1       365    8    0    1
 -2       107       263       262      1581      1582      1577
 -1       366    8    0    1
 -2       108       109       264      1222      1583      1584
 -1       367    8    0    1
 -2       108       264       263      1584      1585      1580
 -1       368    8    0    1
 -2       109       110       265      1223      1586      1587
 -1       369    8    0    1
 -2       109       265       264      1587      1588      1583
 -1       370    8    0    1
 -2       110       111       266      1224      1589      1590
 -1       371    8    0    1
 -2       110       266       265      1590      1591      1586
 -1       372    8    0    1
 -2       111       112       267      1225      1592      1593
 -1       373    8    0    1
 -2       111       267       266      1593      1594      1589
 -1       374    8    0    1
 -2       112       113       268      1226      1595      1596
 -1       375    8    0    1
 -2       112       268       267      1596      1597      1592
 -1       376    8    0    1
 -2       113       114       269      1227      1598      1599
 -1       377    8    0    1
 -2       113       269       268      1599      1600      1595
 -1       378    8    0    1
 -2       114       115       270      1228      1601      1602
 -1       379    8    0    1
 -2       114       270       269      1602      1603      1598
 -1       380    8    0    1
 -2       115       116       271      1229      1604      1605
 -1       381    8    0    1
 -2       115       271       270      1605      1606      1601
 -1       382    8    0    1
 -2       116       117       272      1230      1607      1608
 -1       383    8    0    1
 -2       116       272       271      1608      1609      1604
 -1       384    8    0    1
 -2       117       118       273      1231      1610      1611
 -1       385    8    0    1
 -2       117       273       272      1611      1612      1607
 -1       386    8    0    1
 -2       118       119       274      1232      1613      1614
 -1       387    8    0    1
 -2       118       274       273      1614      1615      1610
 -1       388    8    0    1
 -2       119       120       275      1233      1616      1617
 -1       389    8    0    1
 -2       119       275       274      1617      1618      1613
 -1       390    8    0    1
 -2       120         3       121      1234      1235      1619
 -1       391    8    0    1
 -2       121       122       276      1236      1620      1621
 -1       392    8    0    1
 -2       122       123       277      1237      1622      1623
 -1       393    8    0    1
 -2       122       277       276      1623      1624      1620
 -1       394    8    0    1
 -2       123       124       278      1238      1625      1626
 -1       395    8    0    1
 -2       123       278       277      1626      1627      1622
 -1       396    8    0    1
 -2       124       125       279      1239      1628      1629
 -1       397    8    0    1
 -2       124       279       278      1629      1630      1625
 -1       398    8    0    1
 -2       125       126       280      1240      1631      1632
 -1       399    8    0    1
 -2       125       280       279      1632      1633      1628
 -1       400    8    0    1
 -2       126       127       281      1241      1634      1635
 -1       401    8    0    1
 -2       126       281       280      1635      1636      1631
 -1       402    8    0    1
 -2       127       128       282      1242      1637      1638
 -1       403    8    0    1
 -2       127       282       281      1638      1639      1634
 -1       404    8    0    1
 -2       128       129       283      1243      1640      1641
 -1       405    8    0    1
 -2       128       283       282      1641      1642      1637
 -1       406    8    0    1
 -2       129       130       284      1244      1643      1644
 -1       407    8    0    1
 -2       129       284       283      1644      1645      1640
 -1       408    8    0    1
 -2       130       131       285      1245      1646      1647
 -1       409    8    0    1
 -2       130       285       284      1647      1648      1643
 -1       410    8    0    1
 -2       131       132       286      1246      1649      1650
 -1       411    8    0    1
 -2       131       286       285      1650      1651      1646
 -1       412    8    0    1
 -2       132       133       287      1247      1652      1653
 -1       413    8    0    1
 -2       132       287       286      1653      1654      1649
 -1       414    8    0    1
 -2       133       134       288      1248      1655      1656
 -1       415    8    0    1
 -2       133       288       287      1656      1657      1652
 -1       416    8    0    1
 -2       134       135       289      1249      1658      1659
 -1       417    8    0    1
 -2       134       289       288      1659      1660      1655
 -1       418    8    0    1
 -2       135       136       290      1250      1661      1662
 -1       419    8    0    1
 -2       289       135       290      1658      1662      1663
 -1       420    8    0    1
 -2       136       227       290      1474      1664      1661
 -1       421    8    0    1
 -2         2       137       291      1252      1665      1666
 -1       422    8    0    1
 -2       137       138       292      1253      1667      1668
 -1       423    8    0    1
 -2       138       139       293      1254      1669      1670
 -1       424    8    0    1
 -2       139       140       294      1255      1671      1672
 -1       425    8    0    1
 -2       140       141       295      1256      1673      1674
 -1       426    8    0    1
 -2       141       142       296      1257      1675      1676
 -1       427    8    0    1
 -2       142       143       297      1258      1677      1678
 -1       428    8    0    1
 -2       143       144       298      1259      1679      1680
 -1       429    8    0    1
 -2       144       145       299      1260      1681      1682
 -1       430    8    0    1
 -2       145       146       300      1261      1683      1684
 -1       431    8    0    1
 -2       146       147       301      1262      1685      1686
 -1       432    8    0    1
 -2       147       148       302      1263      1687      1688
 -1       433    8    0    1
 -2       148       149       303      1264      1689      1690
 -1       434    8    0    1
 -2       149       150       304      1265      1691      1692
 -1       435    8    0    1
 -2       150       151       305      1266      1693      1694
 -1       436    8    0    1
 -2       151       152       306      1267      1695      1696
 -1       437    8    0    1
 -2       152       153       307      1268      1697      1698
 -1       438    8    0    1
 -2       153       154       308      1269      1699      1700
 -1       439    8    0    1
 -2       154       155       309      1270      1701      1702
 -1       440    8    0    1
 -2       155       156       310      1271      1703      1704
 -1       441    8    0    1
 -2       156       157       311      1272      1705      1706
 -1       442    8    0    1
 -2       157       158       312      1273      1707      1708
 -1       443    8    0    1
 -2       158       159       313      1274      1709      1710
 -1       444    8    0    1
 -2       159       160       314      1275      1711      1712
 -1       445    8    0    1
 -2       160         1       315      1276      1713      1714
 -1       446    8    0    1
 -2         1       161       316      1277      1715      1716
 -1       447    8    0    1
 -2       161       162       317      1278      1717      1718
 -1       448    8    0    1
 -2       162       163       318      1279      1719      1720
 -1       449    8    0    1
 -2       163         2       319      1280      1721      1722
 -1       450    8    0    1
 -2       294       140       295      1671      1674      1723
 -1       451    8    0    1
 -2       293       139       294      1669      1672      1724
 -1       452    8    0    1
 -2       120       121       275      1619      1725      1616
 -1       453    8    0    1
 -2       121       276       275      1621      1726      1725
 -1       454    8    0    1
 -2       291       137       292      1665      1668      1727
 -1       455    8    0    1
 -2       292       138       293      1667      1670      1728
 -1       456    8    0    1
 -2         2       291       319      1666      1729      1721
 -1       457    8    0    1
 -2       141       296       295      1676      1730      1673
 -1       458    8    0    1
 -2       142       297       296      1678      1731      1675
 -1       459    8    0    1
 -2       143       298       297      1680      1732      1677
 -1       460    8    0    1
 -2       144       299       298      1682      1733      1679
 -1       461    8    0    1
 -2       145       300       299      1684      1734      1681
 -1       462    8    0    1
 -2       146       301       300      1686      1735      1683
 -1       463    8    0    1
 -2       147       302       301      1688      1736      1685
 -1       464    8    0    1
 -2       148       303       302      1690      1737      1687
 -1       465    8    0    1
 -2       149       304       303      1692      1738      1689
 -1       466    8    0    1
 -2       150       305       304      1694      1739      1691
 -1       467    8    0    1
 -2       151       306       305      1696      1740      1693
 -1       468    8    0    1
 -2       152       307       306      1698      1741      1695
 -1       469    8    0    1
 -2       153       308       307      1700      1742      1697
 -1       470    8    0    1
 -2       154       309       308      1702      1743      1699
 -1       471    8    0    1
 -2       155       310       309      1704      1744      1701
 -1       472    8    0    1
 -2       156       311       310      1706      1745      1703
 -1       473    8    0    1
 -2       157       312       311      1708      1746      1705
 -1       474    8    0    1
 -2       158       313       312      1710      1747      1707
 -1       475    8    0    1
 -2       159       314       313      1712      1748      1709
 -1       476    8    0    1
 -2       160       315       314      1714      1749      1711
 -1       477    8    0    1
 -2         1       316       315      1716      1750      1713
 -1       478    8    0    1
 -2       161       317       316      1718      1751      1715
 -1       479    8    0    1
 -2       162       318       317      1720      1752      1717
 -1       480    8    0    1
 -2       163       319       318      1722      1753      1719
 -1       481    8    0    1
 -2        23         7       164      1281      1283      1754
 -1       482    8    0    1
 -2       165       166       320      1289      1755      1756
 -1       483    8    0    1
 -2       164       165       321      1286      1757      1758
 -1       484    8    0    1
 -2       165       320       321      1756      1759      1757
 -1       485    8    0    1
 -2       167       168       322      1295      1760      1761
 -1       486    8    0    1
 -2       168       169       323      1298      1762      1763
 -1       487    8    0    1
 -2       168       323       322      1763      1764      1760
 -1       488    8    0    1
 -2       169       170       324      1301      1765      1766
 -1       489    8    0    1
 -2       169       324       323      1766      1767      1762
 -1       490    8    0    1
 -2       170       171       325      1304      1768      1769
 -1       491    8    0    1
 -2       170       325       324      1769      1770      1765
 -1       492    8    0    1
 -2       171       172       326      1307      1771      1772
 -1       493    8    0    1
 -2       171       326       325      1772      1773      1768
 -1       494    8    0    1
 -2       172       173       327      1310      1774      1775
 -1       495    8    0    1
 -2       172       327       326      1775      1776      1771
 -1       496    8    0    1
 -2       173       174       328      1313      1777      1778
 -1       497    8    0    1
 -2       173       328       327      1778      1779      1774
 -1       498    8    0    1
 -2       174       175       329      1316      1780      1781
 -1       499    8    0    1
 -2       174       329       328      1781      1782      1777
 -1       500    8    0    1
 -2       175       176       330      1319      1783      1784
 -1       501    8    0    1
 -2       175       330       329      1784      1785      1780
 -1       502    8    0    1
 -2       176       177       331      1322      1786      1787
 -1       503    8    0    1
 -2       176       331       330      1787      1788      1783
 -1       504    8    0    1
 -2       177       178       332      1325      1789      1790
 -1       505    8    0    1
 -2       177       332       331      1790      1791      1786
 -1       506    8    0    1
 -2       178       179       333      1328      1792      1793
 -1       507    8    0    1
 -2       332       178       333      1789      1793      1794
 -1       508    8    0    1
 -2       179       228       333      1477      1795      1792
 -1       509    8    0    1
 -2       180        23       164      1330      1754      1796
 -1       510    8    0    1
 -2       228       229       334      1480      1797      1798
 -1       511    8    0    1
 -2       228       334       333      1798      1799      1795
 -1       512    8    0    1
 -2       180       164       321      1796      1758      1800
 -1       513    8    0    1
 -2       182       181       335      1337      1801      1802
 -1       514    8    0    1
 -2       183       182       336      1340      1803      1804
 -1       515    8    0    1
 -2       182       335       336      1802      1805      1803
 -1       516    8    0    1
 -2       184       183       337      1343      1806      1807
 -1       517    8    0    1
 -2       183       336       337      1804      1808      1806
 -1       518    8    0    1
 -2       185       184       338      1346      1809      1810
 -1       519    8    0    1
 -2       184       337       338      1807      1811      1809
 -1       520    8    0    1
 -2       186       185       339      1349      1812      1813
 -1       521    8    0    1
 -2       185       338       339      1810      1814      1812
 -1       522    8    0    1
 -2       187       186       340      1352      1815      1816
 -1       523    8    0    1
 -2       186       339       340      1813      1817      1815
 -1       524    8    0    1
 -2       188       187       341      1355      1818      1819
 -1       525    8    0    1
 -2       187       340       341      1816      1820      1818
 -1       526    8    0    1
 -2       189       188       342      1358      1821      1822
 -1       527    8    0    1
 -2       188       341       342      1819      1823      1821
 -1       528    8    0    1
 -2       190       189       343      1361      1824      1825
 -1       529    8    0    1
 -2       189       342       343      1822      1826      1824
 -1       530    8    0    1
 -2       191       190       344      1364      1827      1828
 -1       531    8    0    1
 -2       190       343       344      1825      1829      1827
 -1       532    8    0    1
 -2       192       191       345      1367      1830      1831
 -1       533    8    0    1
 -2       191       344       345      1828      1832      1830
 -1       534    8    0    1
 -2       193       192       346      1370      1833      1834
 -1       535    8    0    1
 -2       192       345       346      1831      1835      1833
 -1       536    8    0    1
 -2       194       193       347      1373      1836      1837
 -1       537    8    0    1
 -2       193       346       347      1834      1838      1836
 -1       538    8    0    1
 -2       195       194       348      1376      1839      1840
 -1       539    8    0    1
 -2       194       347       348      1837      1841      1839
 -1       540    8    0    1
 -2       196       195       349      1379      1842      1843
 -1       541    8    0    1
 -2       195       348       349      1840      1844      1842
 -1       542    8    0    1
 -2       197       196       350      1382      1845      1846
 -1       543    8    0    1
 -2       196       349       350      1843      1847      1845
 -1       544    8    0    1
 -2       198       197       351      1385      1848      1849
 -1       545    8    0    1
 -2       197       350       351      1846      1850      1848
 -1       546    8    0    1
 -2       199       198       352      1388      1851      1852
 -1       547    8    0    1
 -2       198       351       352      1849      1853      1851
 -1       548    8    0    1
 -2       200       199       353      1391      1854      1855
 -1       549    8    0    1
 -2       199       352       353      1852      1856      1854
 -1       550    8    0    1
 -2       201       200       354      1394      1857      1858
 -1       551    8    0    1
 -2       200       353       354      1855      1859      1857
 -1       552    8    0    1
 -2       202       201       355      1397      1860      1861
 -1       553    8    0    1
 -2       201       354       355      1858      1862      1860
 -1       554    8    0    1
 -2       203       202       356      1400      1863      1864
 -1       555    8    0    1
 -2       202       355       356      1861      1865      1863
 -1       556    8    0    1
 -2       204       203       357      1403      1866      1867
 -1       557    8    0    1
 -2       203       356       357      1864      1868      1866
 -1       558    8    0    1
 -2       205       204       358      1406      1869      1870
 -1       559    8    0    1
 -2       204       357       358      1867      1871      1869
 -1       560    8    0    1
 -2       206       205       359      1409      1872      1873
 -1       561    8    0    1
 -2       205       358       359      1870      1874      1872
 -1       562    8    0    1
 -2       207       206       360      1412      1875      1876
 -1       563    8    0    1
 -2       206       359       360      1873      1877      1875
 -1       564    8    0    1
 -2       208       207       361      1415      1878      1879
 -1       565    8    0    1
 -2       207       360       361      1876      1880      1878
 -1       566    8    0    1
 -2       209       208       362      1418      1881      1882
 -1       567    8    0    1
 -2       208       361       362      1879      1883      1881
 -1       568    8    0    1
 -2       210       209       363      1421      1884      1885
 -1       569    8    0    1
 -2       209       362       363      1882      1886      1884
 -1       570    8    0    1
 -2       211       210       364      1424      1887      1888
 -1       571    8    0    1
 -2       210       363       364      1885      1889      1887
 -1       572    8    0    1
 -2       212       211       365      1427      1890      1891
 -1       573    8    0    1
 -2       211       364       365      1888      1892      1890
 -1       574    8    0    1
 -2       213       212       366      1430      1893      1894
 -1       575    8    0    1
 -2       212       365       366      1891      1895      1893
 -1       576    8    0    1
 -2       214       213       367      1433      1896      1897
 -1       577    8    0    1
 -2       213       366       367      1894      1898      1896
 -1       578    8    0    1
 -2       215       214       368      1436      1899      1900
 -1       579    8    0    1
 -2       214       367       368      1897      1901      1899
 -1       580    8    0    1
 -2       216       215       369      1439      1902      1903
 -1       581    8    0    1
 -2       215       368       369      1900      1904      1902
 -1       582    8    0    1
 -2       217       216       370      1442      1905      1906
 -1       583    8    0    1
 -2       216       369       370      1903      1907      1905
 -1       584    8    0    1
 -2       218       217       371      1445      1908      1909
 -1       585    8    0    1
 -2       217       370       371      1906      1910      1908
 -1       586    8    0    1
 -2       219       218       372      1448      1911      1912
 -1       587    8    0    1
 -2       218       371       372      1909      1913      1911
 -1       588    8    0    1
 -2       220       219       373      1451      1914      1915
 -1       589    8    0    1
 -2       219       372       373      1912      1916      1914
 -1       590    8    0    1
 -2       221       220       374      1454      1917      1918
 -1       591    8    0    1
 -2       220       373       374      1915      1919      1917
 -1       592    8    0    1
 -2       222       221       375      1457      1920      1921
 -1       593    8    0    1
 -2       221       374       375      1918      1922      1920
 -1       594    8    0    1
 -2       223       222       376      1460      1923      1924
 -1       595    8    0    1
 -2       222       375       376      1921      1925      1923
 -1       596    8    0    1
 -2       224       223       377      1463      1926      1927
 -1       597    8    0    1
 -2       223       376       377      1924      1928      1926
 -1       598    8    0    1
 -2       225       224       378      1466      1929      1930
 -1       599    8    0    1
 -2       224       377       378      1927      1931      1929
 -1       600    8    0    1
 -2       226       225       379      1469      1932      1933
 -1       601    8    0    1
 -2       225       378       379      1930      1934      1932
 -1       602    8    0    1
 -2       227       226       380      1472      1935      1936
 -1       603    8    0    1
 -2       290       227       380      1664      1936      1937
 -1       604    8    0    1
 -2       226       379       380      1933      1938      1935
 -1       605    8    0    1
 -2       229       230       381      1483      1939      1940
 -1       606    8    0    1
 -2       229       381       334      1940      1941      1797
 -1       607    8    0    1
 -2       230       231       382      1486      1942      1943
 -1       608    8    0    1
 -2       230       382       381      1943      1944      1939
 -1       609    8    0    1
 -2       231       232       383      1489      1945      1946
 -1       610    8    0    1
 -2       231       383       382      1946      1947      1942
 -1       611    8    0    1
 -2       232       233       384      1492      1948      1949
 -1       612    8    0    1
 -2       232       384       383      1949      1950      1945
 -1       613    8    0    1
 -2       233       234       385      1495      1951      1952
 -1       614    8    0    1
 -2       233       385       384      1952      1953      1948
 -1       615    8    0    1
 -2       234       235       386      1498      1954      1955
 -1       616    8    0    1
 -2       234       386       385      1955      1956      1951
 -1       617    8    0    1
 -2       235       236       387      1501      1957      1958
 -1       618    8    0    1
 -2       235       387       386      1958      1959      1954
 -1       619    8    0    1
 -2       236       237       388      1504      1960      1961
 -1       620    8    0    1
 -2       236       388       387      1961      1962      1957
 -1       621    8    0    1
 -2       237       238       389      1507      1963      1964
 -1       622    8    0    1
 -2       237       389       388      1964      1965      1960
 -1       623    8    0    1
 -2       238       239       390      1510      1966      1967
 -1       624    8    0    1
 -2       238       390       389      1967      1968      1963
 -1       625    8    0    1
 -2       239       240       391      1513      1969      1970
 -1       626    8    0    1
 -2       239       391       390      1970      1971      1966
 -1       627    8    0    1
 -2       240       241       392      1516      1972      1973
 -1       628    8    0    1
 -2       240       392       391      1973      1974      1969
 -1       629    8    0    1
 -2       241       242       393      1519      1975      1976
 -1       630    8    0    1
 -2       241       393       392      1976      1977      1972
 -1       631    8    0    1
 -2       242       243       394      1522      1978      1979
 -1       632    8    0    1
 -2       242       394       393      1979      1980      1975
 -1       633    8    0    1
 -2       243       244       395      1525      1981      1982
 -1       634    8    0    1
 -2       243       395       394      1982      1983      1978
 -1       635    8    0    1
 -2       244       245       396      1528      1984      1985
 -1       636    8    0    1
 -2       244       396       395      1985      1986      1981
 -1       637    8    0    1
 -2       245       246       397      1531      1987      1988
 -1       638    8    0    1
 -2       245       397       396      1988      1989      1984
 -1       639    8    0    1
 -2       246       247       398      1534      1990      1991
 -1       640    8    0    1
 -2       246       398       397      1991      1992      1987
 -1       641    8    0    1
 -2       247       248       399      1537      1993      1994
 -1       642    8    0    1
 -2       247       399       398      1994      1995      1990
 -1       643    8    0    1
 -2       248       249       400      1540      1996      1997
 -1       644    8    0    1
 -2       248       400       399      1997      1998      1993
 -1       645    8    0    1
 -2       249       250       401      1543      1999      2000
 -1       646    8    0    1
 -2       249       401       400      2000      2001      1996
 -1       647    8    0    1
 -2       250       251       402      1546      2002      2003
 -1       648    8    0    1
 -2       250       402       401      2003      2004      1999
 -1       649    8    0    1
 -2       251       252       403      1549      2005      2006
 -1       650    8    0    1
 -2       251       403       402      2006      2007      2002
 -1       651    8    0    1
 -2       252       253       404      1552      2008      2009
 -1       652    8    0    1
 -2       252       404       403      2009      2010      2005
 -1       653    8    0    1
 -2       253       254       405      1555      2011      2012
 -1       654    8    0    1
 -2       253       405       404      2012      2013      2008
 -1       655    8    0    1
 -2       254       255       406      1558      2014      2015
 -1       656    8    0    1
 -2       254       406       405      2015      2016      2011
 -1       657    8    0    1
 -2       255       256       407      1561      2017      2018
 -1       658    8    0    1
 -2       255       407       406      2018      2019      2014
 -1       659    8    0    1
 -2       256       257       408      1564      2020      2021
 -1       660    8    0    1
 -2       256       408       407      2021      2022      2017
 -1       661    8    0    1
 -2       257       258       409      1567      2023      2024
 -1       662    8    0    1
 -2       257       409       408      2024      2025      2020
 -1       663    8    0    1
 -2       258       259       410      1570      2026      2027
 -1       664    8    0    1
 -2       258       410       409      2027      2028      2023
 -1       665    8    0    1
 -2       259       260       411      1573      2029      2030
 -1       666    8    0    1
 -2       259       411       410      2030      2031      2026
 -1       667    8    0    1
 -2       260       261       412      1576      2032      2033
 -1       668    8    0    1
 -2       260       412       411      2033      2034      2029
 -1       669    8    0    1
 -2       261       262       413      1579      2035      2036
 -1       670    8    0    1
 -2       261       413       412      2036      2037      2032
 -1       671    8    0    1
 -2       262       263       414      1582      2038      2039
 -1       672    8    0    1
 -2       262       414       413      2039      2040      2035
 -1       673    8    0    1
 -2       263       264       415      1585      2041      2042
 -1       674    8    0    1
 -2       263       415       414      2042      2043      2038
 -1       675    8    0    1
 -2       264       265       416      1588      2044      2045
 -1       676    8    0    1
 -2       264       416       415      2045      2046      2041
 -1       677    8    0    1
 -2       265       266       417      1591      2047      2048
 -1       678    8    0    1
 -2       265       417       416      2048      2049      2044
 -1       679    8    0    1
 -2       266       267       418      1594      2050      2051
 -1       680    8    0    1
 -2       266       418       417      2051      2052      2047
 -1       681    8    0    1
 -2       267       268       419      1597      2053      2054
 -1       682    8    0    1
 -2       267       419       418      2054      2055      2050
 -1       683    8    0    1
 -2       268       269       420      1600      2056      2057
 -1       684    8    0    1
 -2       268       420       419      2057      2058      2053
 -1       685    8    0    1
 -2       269       270       421      1603      2059      2060
 -1       686    8    0    1
 -2       269       421       420      2060      2061      2056
 -1       687    8    0    1
 -2       270       271       422      1606      2062      2063
 -1       688    8    0    1
 -2       270       422       421      2063      2064      2059
 -1       689    8    0    1
 -2       271       272       423      1609      2065      2066
 -1       690    8    0    1
 -2       271       423       422      2066      2067      2062
 -1       691    8    0    1
 -2       272       273       424      1612      2068      2069
 -1       692    8    0    1
 -2       272       424       423      2069      2070      2065
 -1       693    8    0    1
 -2       273       274       425      1615      2071      2072
 -1       694    8    0    1
 -2       273       425       424      2072      2073      2068
 -1       695    8    0    1
 -2       274       275       426      1618      2074      2075
 -1       696    8    0    1
 -2       425       274       426      2071      2075      2076
 -1       697    8    0    1
 -2       275       276       426      1726      2077      2074
 -1       698    8    0    1
 -2       278       279       427      1630      2078      2079
 -1       699    8    0    1
 -2       277       278       428      1627      2080      2081
 -1       700    8    0    1
 -2       278       427       428      2079      2082      2080
 -1       701    8    0    1
 -2       276       277       429      1624      2083      2084
 -1       702    8    0    1
 -2       426       276       429      2077      2084      2085
 -1       703    8    0    1
 -2       277       428       429      2081      2086      2083
 -1       704    8    0    1
 -2       279       280       430      1633      2087      2088
 -1       705    8    0    1
 -2       279       430       427      2088      2089      2078
 -1       706    8    0    1
 -2       280       281       431      1636      2090      2091
 -1       707    8    0    1
 -2       280       431       430      2091      2092      2087
 -1       708    8    0    1
 -2       281       282       432      1639      2093      2094
 -1       709    8    0    1
 -2       281       432       431      2094      2095      2090
 -1       710    8    0    1
 -2       282       283       433      1642      2096      2097
 -1       711    8    0    1
 -2       282       433       432      2097      2098      2093
 -1       712    8    0    1
 -2       283       284       434      1645      2099      2100
 -1       713    8    0    1
 -2       283       434       433      2100      2101      2096
 -1       714    8    0    1
 -2       284       285       435      1648      2102      2103
 -1       715    8    0    1
 -2       284       435       434      2103      2104      2099
 -1       716    8    0    1
 -2       285       286       436      1651      2105      2106
 -1       717    8    0    1
 -2       285       436       435      2106      2107      2102
 -1       718    8    0    1
 -2       286       287       437      1654      2108      2109
 -1       719    8    0    1
 -2       286       437       436      2109      2110      2105
 -1       720    8    0    1
 -2       287       288       438      1657      2111      2112
 -1       721    8    0    1
 -2       287       438       437      2112      2113      2108
 -1       722    8    0    1
 -2       288       289       439      1660      2114      2115
 -1       723    8    0    1
 -2       288       439       438      2115      2116      2111
 -1       724    8    0    1
 -2       292       293       440      1728      2117      2118
 -1       725    8    0    1
 -2       319       291       441      1729      2119      2120
 -1       726    8    0    1
 -2       291       292       442      1727      2121      2122
 -1       727    8    0    1
 -2       293       294       443      1724      2123      2124
 -1       728    8    0    1
 -2       293       443       440      2124      2125      2117
 -1       729    8    0    1
 -2       294       295       444      1723      2126      2127
 -1       730    8    0    1
 -2       166       167       445      1292      2128      2129
 -1       731    8    0    1
 -2       320       166       445      1755      2129      2130
 -1       732    8    0    1
 -2       167       322       445      1761      2131      2128
 -1       733    8    0    1
 -2       296       297       446      1731      2132      2133
 -1       734    8    0    1
 -2       297       298       447      1732      2134      2135
 -1       735    8    0    1
 -2       298       299       448      1733      2136      2137
 -1       736    8    0    1
 -2       298       448       447      2137      2138      2134
 -1       737    8    0    1
 -2       299       300       449      1734      2139      2140
 -1       738    8    0    1
 -2       300       301       450      1735      2141      2142
 -1       739    8    0    1
 -2       300       450       449      2142      2143      2139
 -1       740    8    0    1
 -2       301       302       451      1736      2144      2145
 -1       741    8    0    1
 -2       302       303       452      1737      2146      2147
 -1       742    8    0    1
 -2       303       304       453      1738      2148      2149
 -1       743    8    0    1
 -2       304       305       454      1739      2150      2151
 -1       744    8    0    1
 -2       305       306       455      1740      2152      2153
 -1       745    8    0    1
 -2       306       307       456      1741      2154      2155
 -1       746    8    0    1
 -2       306       456       455      2155      2156      2152
 -1       747    8    0    1
 -2       307       308       457      1742      2157      2158
 -1       748    8    0    1
 -2       308       309       458      1743      2159      2160
 -1       749    8    0    1
 -2       309       310       459      1744      2161      2162
 -1       750    8    0    1
 -2       309       459       458      2162      2163      2159
 -1       751    8    0    1
 -2       310       311       460      1745      2164      2165
 -1       752    8    0    1
 -2       311       312       461      1746      2166      2167
 -1       753    8    0    1
 -2       312       313       462      1747      2168      2169
 -1       754    8    0    1
 -2       313       314       463      1748      2170      2171
 -1       755    8    0    1
 -2       314       315       464      1749      2172      2173
 -1       756    8    0    1
 -2       315       316       465      1750      2174      2175
 -1       757    8    0    1
 -2       316       317       466      1751      2176      2177
 -1       758    8    0    1
 -2       317       318       467      1752      2178      2179
 -1       759    8    0    1
 -2       318       319       468      1753      2180      2181
 -1       760    8    0    1
 -2       295       296       469      1730      2182      2183
 -1       761    8    0    1
 -2       295       469       444      2183      2184      2126
 -1       762    8    0    1
 -2       443       294       444      2123      2127      2185
 -1       763    8    0    1
 -2       180       321       181      1800      2186      1334
 -1       764    8    0    1
 -2       296       446       469      2133      2187      2182
 -1       765    8    0    1
 -2       335       181       321      1801      2186      2188
 -1       766    8    0    1
 -2       442       292       440      2121      2118      2189
 -1       767    8    0    1
 -2       441       291       442      2119      2122      2190
 -1       768    8    0    1
 -2       439       289       290      2114      1663      2191
 -1       769    8    0    1
 -2       319       441       468      2120      2192      2180
 -1       770    8    0    1
 -2       467       318       468      2178      2181      2193
 -1       771    8    0    1
 -2       466       317       467      2176      2179      2194
 -1       772    8    0    1
 -2       465       316       466      2174      2177      2195
 -1       773    8    0    1
 -2       464       315       465      2172      2175      2196
 -1       774    8    0    1
 -2       463       314       464      2170      2173      2197
 -1       775    8    0    1
 -2       462       313       463      2168      2171      2198
 -1       776    8    0    1
 -2       461       312       462      2166      2169      2199
 -1       777    8    0    1
 -2       459       310       460      2161      2165      2200
 -1       778    8    0    1
 -2       456       307       457      2154      2158      2201
 -1       779    8    0    1
 -2       454       305       455      2150      2153      2202
 -1       780    8    0    1
 -2       453       304       454      2148      2151      2203
 -1       781    8    0    1
 -2       452       303       453      2146      2149      2204
 -1       782    8    0    1
 -2       450       301       451      2141      2145      2205
 -1       783    8    0    1
 -2       448       299       449      2136      2140      2206
 -1       784    8    0    1
 -2       446       297       447      2132      2135      2207
 -1       785    8    0    1
 -2       451       302       452      2144      2147      2208
 -1       786    8    0    1
 -2       457       308       470      2157      2209      2210
 -1       787    8    0    1
 -2       308       458       470      2160      2211      2209
 -1       788    8    0    1
 -2       460       311       461      2164      2167      2212
 -1       789    8    0    1
 -2       334       381       471      1941      2213      2214
 -1       790    8    0    1
 -2       323       324       472      1767      2215      2216
 -1       791    8    0    1
 -2       322       323       473      1764      2217      2218
 -1       792    8    0    1
 -2       323       472       473      2216      2219      2217
 -1       793    8    0    1
 -2       325       326       474      1773      2220      2221
 -1       794    8    0    1
 -2       326       327       475      1776      2222      2223
 -1       795    8    0    1
 -2       326       475       474      2223      2224      2220
 -1       796    8    0    1
 -2       327       328       476      1779      2225      2226
 -1       797    8    0    1
 -2       327       476       475      2226      2227      2222
 -1       798    8    0    1
 -2       328       329       477      1782      2228      2229
 -1       799    8    0    1
 -2       328       477       476      2229      2230      2225
 -1       800    8    0    1
 -2       329       330       478      1785      2231      2232
 -1       801    8    0    1
 -2       329       478       477      2232      2233      2228
 -1       802    8    0    1
 -2       330       331       479      1788      2234      2235
 -1       803    8    0    1
 -2       330       479       478      2235      2236      2231
 -1       804    8    0    1
 -2       381       382       480      1944      2237      2238
 -1       805    8    0    1
 -2       381       480       471      2238      2239      2213
 -1       806    8    0    1
 -2       336       335       481      1805      2240      2241
 -1       807    8    0    1
 -2       469       446       482      2187      2242      2243
 -1       808    8    0    1
 -2       337       336       483      1808      2244      2245
 -1       809    8    0    1
 -2       336       481       483      2241      2246      2244
 -1       810    8    0    1
 -2       338       337       484      1811      2247      2248
 -1       811    8    0    1
 -2       337       483       484      2245      2249      2247
 -1       812    8    0    1
 -2       339       338       485      1814      2250      2251
 -1       813    8    0    1
 -2       338       484       485      2248      2252      2250
 -1       814    8    0    1
 -2       340       339       486      1817      2253      2254
 -1       815    8    0    1
 -2       339       485       486      2251      2255      2253
 -1       816    8    0    1
 -2       341       340       487      1820      2256      2257
 -1       817    8    0    1
 -2       340       486       487      2254      2258      2256
 -1       818    8    0    1
 -2       342       341       488      1823      2259      2260
 -1       819    8    0    1
 -2       341       487       488      2257      2261      2259
 -1       820    8    0    1
 -2       343       342       489      1826      2262      2263
 -1       821    8    0    1
 -2       342       488       489      2260      2264      2262
 -1       822    8    0    1
 -2       344       343       490      1829      2265      2266
 -1       823    8    0    1
 -2       343       489       490      2263      2267      2265
 -1       824    8    0    1
 -2       345       344       491      1832      2268      2269
 -1       825    8    0    1
 -2       344       490       491      2266      2270      2268
 -1       826    8    0    1
 -2       346       345       492      1835      2271      2272
 -1       827    8    0    1
 -2       345       491       492      2269      2273      2271
 -1       828    8    0    1
 -2       347       346       493      1838      2274      2275
 -1       829    8    0    1
 -2       346       492       493      2272      2276      2274
 -1       830    8    0    1
 -2       348       347       494      1841      2277      2278
 -1       831    8    0    1
 -2       347       493       494      2275      2279      2277
 -1       832    8    0    1
 -2       349       348       495      1844      2280      2281
 -1       833    8    0    1
 -2       348       494       495      2278      2282      2280
 -1       834    8    0    1
 -2       350       349       496      1847      2283      2284
 -1       835    8    0    1
 -2       349       495       496      2281      2285      2283
 -1       836    8    0    1
 -2       351       350       497      1850      2286      2287
 -1       837    8    0    1
 -2       350       496       497      2284      2288      2286
 -1       838    8    0    1
 -2       352       351       498      1853      2289      2290
 -1       839    8    0    1
 -2       351       497       498      2287      2291      2289
 -1       840    8    0    1
 -2       353       352       499      1856      2292      2293
 -1       841    8    0    1
 -2       352       498       499      2290      2294      2292
 -1       842    8    0    1
 -2       354       353       500      1859      2295      2296
 -1       843    8    0    1
 -2       353       499       500      2293      2297      2295
 -1       844    8    0    1
 -2       355       354       501      1862      2298      2299
 -1       845    8    0    1
 -2       354       500       501      2296      2300      2298
 -1       846    8    0    1
 -2       356       355       502      1865      2301      2302
 -1       847    8    0    1
 -2       355       501       502      2299      2303      2301
 -1       848    8    0    1
 -2       357       356       503      1868      2304      2305
 -1       849    8    0    1
 -2       356       502       503      2302      2306      2304
 -1       850    8    0    1
 -2       358       357       504      1871      2307      2308
 -1       851    8    0    1
 -2       357       503       504      2305      2309      2307
 -1       852    8    0    1
 -2       359       358       505      1874      2310      2311
 -1       853    8    0    1
 -2       358       504       505      2308      2312      2310
 -1       854    8    0    1
 -2       360       359       506      1877      2313      2314
 -1       855    8    0    1
 -2       359       505       506      2311      2315      2313
 -1       856    8    0    1
 -2       361       360       507      1880      2316      2317
 -1       857    8    0    1
 -2       360       506       507      2314      2318      2316
 -1       858    8    0    1
 -2       362       361       508      1883      2319      2320
 -1       859    8    0    1
 -2       361       507       508      2317      2321      2319
 -1       860    8    0    1
 -2       363       362       509      1886      2322      2323
 -1       861    8    0    1
 -2       362       508       509      2320      2324      2322
 -1       862    8    0    1
 -2       364       363       510      1889      2325      2326
 -1       863    8    0    1
 -2       363       509       510      2323      2327      2325
 -1       864    8    0    1
 -2       365       364       511      1892      2328      2329
 -1       865    8    0    1
 -2       364       510       511      2326      2330      2328
 -1       866    8    0    1
 -2       366       365       512      1895      2331      2332
 -1       867    8    0    1
 -2       365       511       512      2329      2333      2331
 -1       868    8    0    1
 -2       367       366       513      1898      2334      2335
 -1       869    8    0    1
 -2       366       512       513      2332      2336      2334
 -1       870    8    0    1
 -2       368       367       514      1901      2337      2338
 -1       871    8    0    1
 -2       367       513       514      2335      2339      2337
 -1       872    8    0    1
 -2       369       368       515      1904      2340      2341
 -1       873    8    0    1
 -2       368       514       515      2338      2342      2340
 -1       874    8    0    1
 -2       370       369       516      1907      2343      2344
 -1       875    8    0    1
 -2       369       515       516      2341      2345      2343
 -1       876    8    0    1
 -2       371       370       517      1910      2346      2347
 -1       877    8    0    1
 -2       370       516       517      2344      2348      2346
 -1       878    8    0    1
 -2       372       371       518      1913      2349      2350
 -1       879    8    0    1
 -2       371       517       518      2347      2351      2349
 -1       880    8    0    1
 -2       373       372       519      1916      2352      2353
 -1       881    8    0    1
 -2       372       518       519      2350      2354      2352
 -1       882    8    0    1
 -2       374       373       520      1919      2355      2356
 -1       883    8    0    1
 -2       373       519       520      2353      2357      2355
 -1       884    8    0    1
 -2       375       374       521      1922      2358      2359
 -1       885    8    0    1
 -2       374       520       521      2356      2360      2358
 -1       886    8    0    1
 -2       376       375       522      1925      2361      2362
 -1       887    8    0    1
 -2       375       521       522      2359      2363      2361
 -1       888    8    0    1
 -2       377       376       523      1928      2364      2365
 -1       889    8    0    1
 -2       376       522       523      2362      2366      2364
 -1       890    8    0    1
 -2       378       377       524      1931      2367      2368
 -1       891    8    0    1
 -2       377       523       524      2365      2369      2367
 -1       892    8    0    1
 -2       379       378       525      1934      2370      2371
 -1       893    8    0    1
 -2       378       524       525      2368      2372      2370
 -1       894    8    0    1
 -2       383       384       526      1950      2373      2374
 -1       895    8    0    1
 -2       384       385       527      1953      2375      2376
 -1       896    8    0    1
 -2       384       527       526      2376      2377      2373
 -1       897    8    0    1
 -2       385       386       528      1956      2378      2379
 -1       898    8    0    1
 -2       385       528       527      2379      2380      2375
 -1       899    8    0    1
 -2       386       387       529      1959      2381      2382
 -1       900    8    0    1
 -2       386       529       528      2382      2383      2378
 -1       901    8    0    1
 -2       387       388       530      1962      2384      2385
 -1       902    8    0    1
 -2       387       530       529      2385      2386      2381
 -1       903    8    0    1
 -2       388       389       531      1965      2387      2388
 -1       904    8    0    1
 -2       388       531       530      2388      2389      2384
 -1       905    8    0    1
 -2       389       390       532      1968      2390      2391
 -1       906    8    0    1
 -2       389       532       531      2391      2392      2387
 -1       907    8    0    1
 -2       390       391       533      1971      2393      2394
 -1       908    8    0    1
 -2       390       533       532      2394      2395      2390
 -1       909    8    0    1
 -2       391       392       534      1974      2396      2397
 -1       910    8    0    1
 -2       391       534       533      2397      2398      2393
 -1       911    8    0    1
 -2       392       393       535      1977      2399      2400
 -1       912    8    0    1
 -2       392       535       534      2400      2401      2396
 -1       913    8    0    1
 -2       393       394       536      1980      2402      2403
 -1       914    8    0    1
 -2       393       536       535      2403      2404      2399
 -1       915    8    0    1
 -2       394       395       537      1983      2405      2406
 -1       916    8    0    1
 -2       394       537       536      2406      2407      2402
 -1       917    8    0    1
 -2       395       396       538      1986      2408      2409
 -1       918    8    0    1
 -2       395       538       537      2409      2410      2405
 -1       919    8    0    1
 -2       396       397       539      1989      2411      2412
 -1       920    8    0    1
 -2       396       539       538      2412      2413      2408
 -1       921    8    0    1
 -2       397       398       540      1992      2414      2415
 -1       922    8    0    1
 -2       397       540       539      2415      2416      2411
 -1       923    8    0    1
 -2       398       399       541      1995      2417      2418
 -1       924    8    0    1
 -2       398       541       540      2418      2419      2414
 -1       925    8    0    1
 -2       399       400       542      1998      2420      2421
 -1       926    8    0    1
 -2       399       542       541      2421      2422      2417
 -1       927    8    0    1
 -2       400       401       543      2001      2423      2424
 -1       928    8    0    1
 -2       400       543       542      2424      2425      2420
 -1       929    8    0    1
 -2       401       402       544      2004      2426      2427
 -1       930    8    0    1
 -2       401       544       543      2427      2428      2423
 -1       931    8    0    1
 -2       402       403       545      2007      2429      2430
 -1       932    8    0    1
 -2       402       545       544      2430      2431      2426
 -1       933    8    0    1
 -2       403       404       546      2010      2432      2433
 -1       934    8    0    1
 -2       403       546       545      2433      2434      2429
 -1       935    8    0    1
 -2       404       405       547      2013      2435      2436
 -1       936    8    0    1
 -2       404       547       546      2436      2437      2432
 -1       937    8    0    1
 -2       405       406       548      2016      2438      2439
 -1       938    8    0    1
 -2       405       548       547      2439      2440      2435
 -1       939    8    0    1
 -2       406       407       549      2019      2441      2442
 -1       940    8    0    1
 -2       406       549       548      2442      2443      2438
 -1       941    8    0    1
 -2       407       408       550      2022      2444      2445
 -1       942    8    0    1
 -2       407       550       549      2445      2446      2441
 -1       943    8    0    1
 -2       408       409       551      2025      2447      2448
 -1       944    8    0    1
 -2       408       551       550      2448      2449      2444
 -1       945    8    0    1
 -2       409       410       552      2028      2450      2451
 -1       946    8    0    1
 -2       409       552       551      2451      2452      2447
 -1       947    8    0    1
 -2       410       411       553      2031      2453      2454
 -1       948    8    0    1
 -2       410       553       552      2454      2455      2450
 -1       949    8    0    1
 -2       411       412       554      2034      2456      2457
 -1       950    8    0    1
 -2       411       554       553      2457      2458      2453
 -1       951    8    0    1
 -2       412       413       555      2037      2459      2460
 -1       952    8    0    1
 -2       412       555       554      2460      2461      2456
 -1       953    8    0    1
 -2       413       414       556      2040      2462      2463
 -1       954    8    0    1
 -2       413       556       555      2463      2464      2459
 -1       955    8    0    1
 -2       414       415       557      2043      2465      2466
 -1       956    8    0    1
 -2       414       557       556      2466      2467      2462
 -1       957    8    0    1
 -2       415       416       558      2046      2468      2469
 -1       958    8    0    1
 -2       415       558       557      2469      2470      2465
 -1       959    8    0    1
 -2       416       417       559      2049      2471      2472
 -1       960    8    0    1
 -2       416       559       558      2472      2473      2468
 -1       961    8    0    1
 -2       417       418       560      2052      2474      2475
 -1       962    8    0    1
 -2       417       560       559      2475      2476      2471
 -1       963    8    0    1
 -2       418       419       561      2055      2477      2478
 -1       964    8    0    1
 -2       418       561       560      2478      2479      2474
 -1       965    8    0    1
 -2       419       420       562      2058      2480      2481
 -1       966    8    0    1
 -2       419       562       561      2481      2482      2477
 -1       967    8    0    1
 -2       420       421       563      2061      2483      2484
 -1       968    8    0    1
 -2       420       563       562      2484      2485      2480
 -1       969    8    0    1
 -2       421       422       564      2064      2486      2487
 -1       970    8    0    1
 -2       421       564       563      2487      2488      2483
 -1       971    8    0    1
 -2       422       423       565      2067      2489      2490
 -1       972    8    0    1
 -2       422       565       564      2490      2491      2486
 -1       973    8    0    1
 -2       423       424       566      2070      2492      2493
 -1       974    8    0    1
 -2       423       566       565      2493      2494      2489
 -1       975    8    0    1
 -2       424       425       567      2073      2495      2496
 -1       976    8    0    1
 -2       424       567       566      2496      2497      2492
 -1       977    8    0    1
 -2       425       426       429      2076      2085      2498
 -1       978    8    0    1
 -2       430       431       568      2092      2499      2500
 -1       979    8    0    1
 -2       431       432       569      2095      2501      2502
 -1       980    8    0    1
 -2       431       569       568      2502      2503      2499
 -1       981    8    0    1
 -2       428       427       570      2082      2504      2505
 -1       982    8    0    1
 -2       427       430       571      2089      2506      2507
 -1       983    8    0    1
 -2       570       427       571      2504      2507      2508
 -1       984    8    0    1
 -2       430       568       571      2500      2509      2506
 -1       985    8    0    1
 -2       432       433       572      2098      2510      2511
 -1       986    8    0    1
 -2       432       572       569      2511      2512      2501
 -1       987    8    0    1
 -2       433       434       573      2101      2513      2514
 -1       988    8    0    1
 -2       433       573       572      2514      2515      2510
 -1       989    8    0    1
 -2       434       435       574      2104      2516      2517
 -1       990    8    0    1
 -2       434       574       573      2517      2518      2513
 -1       991    8    0    1
 -2       435       436       575      2107      2519      2520
 -1       992    8    0    1
 -2       435       575       574      2520      2521      2516
 -1       993    8    0    1
 -2       436       437       576      2110      2522      2523
 -1       994    8    0    1
 -2       436       576       575      2523      2524      2519
 -1       995    8    0    1
 -2       437       438       577      2113      2525      2526
 -1       996    8    0    1
 -2       437       577       576      2526      2527      2522
 -1       997    8    0    1
 -2       438       439       578      2116      2528      2529
 -1       998    8    0    1
 -2       438       578       577      2529      2530      2525
 -1       999    8    0    1
 -2       441       442       579      2190      2531      2532
 -1      1000    8    0    1
 -2       442       440       580      2189      2533      2534
 -1      1001    8    0    1
 -2       468       441       581      2192      2535      2536
 -1      1002    8    0    1
 -2       441       579       581      2532      2537      2535
 -1      1003    8    0    1
 -2       382       383       582      1947      2538      2539
 -1      1004    8    0    1
 -2       383       526       582      2374      2540      2538
 -1      1005    8    0    1
 -2       439       290       380      2191      1937      2541
 -1      1006    8    0    1
 -2       440       443       583      2125      2542      2543
 -1      1007    8    0    1
 -2       443       444       584      2185      2544      2545
 -1      1008    8    0    1
 -2       443       584       583      2545      2546      2542
 -1      1009    8    0    1
 -2       335       321       585      2188      2547      2548
 -1      1010    8    0    1
 -2       481       335       585      2240      2548      2549
 -1      1011    8    0    1
 -2       321       320       585      1759      2550      2547
 -1      1012    8    0    1
 -2       467       468       586      2193      2551      2552
 -1      1013    8    0    1
 -2       456       457       587      2201      2553      2554
 -1      1014    8    0    1
 -2       454       455       588      2202      2555      2556
 -1      1015    8    0    1
 -2       324       325       589      1770      2557      2558
 -1      1016    8    0    1
 -2       472       324       589      2215      2558      2559
 -1      1017    8    0    1
 -2       325       474       589      2221      2560      2557
 -1      1018    8    0    1
 -2       446       447       590      2207      2561      2562
 -1      1019    8    0    1
 -2       451       452       591      2208      2563      2564
 -1      1020    8    0    1
 -2       447       448       592      2138      2565      2566
 -1      1021    8    0    1
 -2       448       449       593      2206      2567      2568
 -1      1022    8    0    1
 -2       449       450       594      2143      2569      2570
 -1      1023    8    0    1
 -2       450       451       595      2205      2571      2572
 -1      1024    8    0    1
 -2       452       453       596      2204      2573      2574
 -1      1025    8    0    1
 -2       453       454       597      2203      2575      2576
 -1      1026    8    0    1
 -2       455       456       598      2156      2577      2578
 -1      1027    8    0    1
 -2       456       587       598      2554      2579      2577
 -1      1028    8    0    1
 -2       460       461       599      2212      2580      2581
 -1      1029    8    0    1
 -2       458       459       600      2163      2582      2583
 -1      1030    8    0    1
 -2       459       460       601      2200      2584      2585
 -1      1031    8    0    1
 -2       460       599       601      2581      2586      2584
 -1      1032    8    0    1
 -2       461       462       602      2199      2587      2588
 -1      1033    8    0    1
 -2       462       463       603      2198      2589      2590
 -1      1034    8    0    1
 -2       463       464       604      2197      2591      2592
 -1      1035    8    0    1
 -2       464       465       605      2196      2593      2594
 -1      1036    8    0    1
 -2       464       605       604      2594      2595      2591
 -1      1037    8    0    1
 -2       465       466       606      2195      2596      2597
 -1      1038    8    0    1
 -2       466       467       607      2194      2598      2599
 -1      1039    8    0    1
 -2       444       469       608      2184      2600      2601
 -1      1040    8    0    1
 -2       333       334       609      1799      2602      2603
 -1      1041    8    0    1
 -2       332       333       609      1794      2603      2604
 -1      1042    8    0    1
 -2       334       471       609      2214      2605      2602
 -1      1043    8    0    1
 -2       446       590       610      2562      2606      2607
 -1      1044    8    0    1
 -2       446       610       482      2607      2608      2242
 -1      1045    8    0    1
 -2       322       473       611      2218      2609      2610
 -1      1046    8    0    1
 -2       322       611       445      2610      2611      2131
 -1      1047    8    0    1
 -2       480       382       582      2237      2539      2612
 -1      1048    8    0    1
 -2       331       332       609      1791      2604      2613
 -1      1049    8    0    1
 -2       608       469       482      2600      2243      2614
 -1      1050    8    0    1
 -2       607       467       586      2598      2552      2615
 -1      1051    8    0    1
 -2       586       468       581      2551      2536      2616
 -1      1052    8    0    1
 -2       605       465       606      2593      2597      2617
 -1      1053    8    0    1
 -2       440       583       580      2543      2618      2533
 -1      1054    8    0    1
 -2       603       463       604      2589      2592      2619
 -1      1055    8    0    1
 -2       425       429       567      2498      2620      2495
 -1      1056    8    0    1
 -2       429       428       567      2086      2621      2620
 -1      1057    8    0    1
 -2       331       609       479      2613      2622      2234
 -1      1058    8    0    1
 -2       579       442       612      2531      2623      2624
 -1      1059    8    0    1
 -2       442       580       612      2534      2625      2623
 -1      1060    8    0    1
 -2       600       459       601      2582      2585      2626
 -1      1061    8    0    1
 -2       584       444       608      2544      2601      2627
 -1      1062    8    0    1
 -2       585       320       445      2550      2130      2628
 -1      1063    8    0    1
 -2       587       457       613      2553      2629      2630
 -1      1064    8    0    1
 -2       457       470       613      2210      2631      2629
 -1      1065    8    0    1
 -2       461       602       599      2588      2632      2580
 -1      1066    8    0    1
 -2       597       454       588      2575      2556      2633
 -1      1067    8    0    1
 -2       596       453       597      2573      2576      2634
 -1      1068    8    0    1
 -2       595       451       591      2571      2564      2635
 -1      1069    8    0    1
 -2       594       450       595      2569      2572      2636
 -1      1070    8    0    1
 -2       593       449       594      2567      2570      2637
 -1      1071    8    0    1
 -2       592       448       593      2565      2568      2638
 -1      1072    8    0    1
 -2       588       455       598      2555      2578      2639
 -1      1073    8    0    1
 -2       591       452       596      2563      2574      2640
 -1      1074    8    0    1
 -2       447       592       590      2566      2641      2561
 -1      1075    8    0    1
 -2       470       458       600      2211      2583      2642
 -1      1076    8    0    1
 -2       439       380       614      2541      2643      2644
 -1      1077    8    0    1
 -2       578       439       614      2528      2644      2645
 -1      1078    8    0    1
 -2       380       379       614      1938      2646      2643
 -1      1079    8    0    1
 -2       602       462       603      2587      2590      2647
 -1      1080    8    0    1
 -2       606       466       607      2596      2599      2648
 -1      1081    8    0    1
 -2       567       428       570      2621      2505      2649
 -1      1082    8    0    1
 -2       614       379       525      2646      2371      2650
 -1      1083    8    0    1
 -2       475       476       615      2227      2651      2652
 -1      1084    8    0    1
 -2       474       475       616      2224      2653      2654
 -1      1085    8    0    1
 -2       475       615       616      2652      2655      2653
 -1      1086    8    0    1
 -2       477       478       617      2233      2656      2657
 -1      1087    8    0    1
 -2       478       479       618      2236      2658      2659
 -1      1088    8    0    1
 -2       478       618       617      2659      2660      2656
 -1      1089    8    0    1
 -2       471       480       619      2239      2661      2662
 -1      1090    8    0    1
 -2       480       582       620      2612      2663      2664
 -1      1091    8    0    1
 -2       480       620       619      2664      2665      2661
 -1      1092    8    0    1
 -2       607       586       621      2615      2666      2667
 -1      1093    8    0    1
 -2       580       583       622      2618      2668      2669
 -1      1094    8    0    1
 -2       484       483       623      2249      2670      2671
 -1      1095    8    0    1
 -2       485       484       624      2252      2672      2673
 -1      1096    8    0    1
 -2       484       623       624      2671      2674      2672
 -1      1097    8    0    1
 -2       486       485       625      2255      2675      2676
 -1      1098    8    0    1
 -2       485       624       625      2673      2677      2675
 -1      1099    8    0    1
 -2       487       486       626      2258      2678      2679
 -1      1100    8    0    1
 -2       486       625       626      2676      2680      2678
 -1      1101    8    0    1
 -2       488       487       627      2261      2681      2682
 -1      1102    8    0    1
 -2       487       626       627      2679      2683      2681
 -1      1103    8    0    1
 -2       489       488       628      2264      2684      2685
 -1      1104    8    0    1
 -2       488       627       628      2682      2686      2684
 -1      1105    8    0    1
 -2       490       489       629      2267      2687      2688
 -1      1106    8    0    1
 -2       489       628       629      2685      2689      2687
 -1      1107    8    0    1
 -2       491       490       630      2270      2690      2691
 -1      1108    8    0    1
 -2       490       629       630      2688      2692      2690
 -1      1109    8    0    1
 -2       492       491       631      2273      2693      2694
 -1      1110    8    0    1
 -2       491       630       631      2691      2695      2693
 -1      1111    8    0    1
 -2       493       492       632      2276      2696      2697
 -1      1112    8    0    1
 -2       492       631       632      2694      2698      2696
 -1      1113    8    0    1
 -2       494       493       633      2279      2699      2700
 -1      1114    8    0    1
 -2       493       632       633      2697      2701      2699
 -1      1115    8    0    1
 -2       495       494       634      2282      2702      2703
 -1      1116    8    0    1
 -2       494       633       634      2700      2704      2702
 -1      1117    8    0    1
 -2       496       495       635      2285      2705      2706
 -1      1118    8    0    1
 -2       495       634       635      2703      2707      2705
 -1      1119    8    0    1
 -2       497       496       636      2288      2708      2709
 -1      1120    8    0    1
 -2       496       635       636      2706      2710      2708
 -1      1121    8    0    1
 -2       498       497       637      2291      2711      2712
 -1      1122    8    0    1
 -2       497       636       637      2709      2713      2711
 -1      1123    8    0    1
 -2       499       498       638      2294      2714      2715
 -1      1124    8    0    1
 -2       498       637       638      2712      2716      2714
 -1      1125    8    0    1
 -2       500       499       639      2297      2717      2718
 -1      1126    8    0    1
 -2       499       638       639      2715      2719      2717
 -1      1127    8    0    1
 -2       501       500       640      2300      2720      2721
 -1      1128    8    0    1
 -2       500       639       640      2718      2722      2720
 -1      1129    8    0    1
 -2       502       501       641      2303      2723      2724
 -1      1130    8    0    1
 -2       501       640       641      2721      2725      2723
 -1      1131    8    0    1
 -2       503       502       642      2306      2726      2727
 -1      1132    8    0    1
 -2       502       641       642      2724      2728      2726
 -1      1133    8    0    1
 -2       504       503       643      2309      2729      2730
 -1      1134    8    0    1
 -2       503       642       643      2727      2731      2729
 -1      1135    8    0    1
 -2       505       504       644      2312      2732      2733
 -1      1136    8    0    1
 -2       504       643       644      2730      2734      2732
 -1      1137    8    0    1
 -2       506       505       645      2315      2735      2736
 -1      1138    8    0    1
 -2       505       644       645      2733      2737      2735
 -1      1139    8    0    1
 -2       507       506       646      2318      2738      2739
 -1      1140    8    0    1
 -2       506       645       646      2736      2740      2738
 -1      1141    8    0    1
 -2       508       507       647      2321      2741      2742
 -1      1142    8    0    1
 -2       507       646       647      2739      2743      2741
 -1      1143    8    0    1
 -2       509       508       648      2324      2744      2745
 -1      1144    8    0    1
 -2       508       647       648      2742      2746      2744
 -1      1145    8    0    1
 -2       510       509       649      2327      2747      2748
 -1      1146    8    0    1
 -2       509       648       649      2745      2749      2747
 -1      1147    8    0    1
 -2       511       510       650      2330      2750      2751
 -1      1148    8    0    1
 -2       510       649       650      2748      2752      2750
 -1      1149    8    0    1
 -2       512       511       651      2333      2753      2754
 -1      1150    8    0    1
 -2       511       650       651      2751      2755      2753
 -1      1151    8    0    1
 -2       513       512       652      2336      2756      2757
 -1      1152    8    0    1
 -2       512       651       652      2754      2758      2756
 -1      1153    8    0    1
 -2       514       513       653      2339      2759      2760
 -1      1154    8    0    1
 -2       513       652       653      2757      2761      2759
 -1      1155    8    0    1
 -2       515       514       654      2342      2762      2763
 -1      1156    8    0    1
 -2       514       653       654      2760      2764      2762
 -1      1157    8    0    1
 -2       516       515       655      2345      2765      2766
 -1      1158    8    0    1
 -2       515       654       655      2763      2767      2765
 -1      1159    8    0    1
 -2       517       516       656      2348      2768      2769
 -1      1160    8    0    1
 -2       516       655       656      2766      2770      2768
 -1      1161    8    0    1
 -2       518       517       657      2351      2771      2772
 -1      1162    8    0    1
 -2       517       656       657      2769      2773      2771
 -1      1163    8    0    1
 -2       519       518       658      2354      2774      2775
 -1      1164    8    0    1
 -2       518       657       658      2772      2776      2774
 -1      1165    8    0    1
 -2       520       519       659      2357      2777      2778
 -1      1166    8    0    1
 -2       519       658       659      2775      2779      2777
 -1      1167    8    0    1
 -2       521       520       660      2360      2780      2781
 -1      1168    8    0    1
 -2       520       659       660      2778      2782      2780
 -1      1169    8    0    1
 -2       522       521       661      2363      2783      2784
 -1      1170    8    0    1
 -2       521       660       661      2781      2785      2783
 -1      1171    8    0    1
 -2       523       522       662      2366      2786      2787
 -1      1172    8    0    1
 -2       522       661       662      2784      2788      2786
 -1      1173    8    0    1
 -2       524       523       663      2369      2789      2790
 -1      1174    8    0    1
 -2       523       662       663      2787      2791      2789
 -1      1175    8    0    1
 -2       525       524       664      2372      2792      2793
 -1      1176    8    0    1
 -2       524       663       664      2790      2794      2792
 -1      1177    8    0    1
 -2       527       528       665      2380      2795      2796
 -1      1178    8    0    1
 -2       602       603       666      2647      2797      2798
 -1      1179    8    0    1
 -2       526       527       667      2377      2799      2800
 -1      1180    8    0    1
 -2       527       665       667      2796      2801      2799
 -1      1181    8    0    1
 -2       529       530       668      2386      2802      2803
 -1      1182    8    0    1
 -2       530       531       669      2389      2804      2805
 -1      1183    8    0    1
 -2       530       669       668      2805      2806      2802
 -1      1184    8    0    1
 -2       531       532       670      2392      2807      2808
 -1      1185    8    0    1
 -2       531       670       669      2808      2809      2804
 -1      1186    8    0    1
 -2       532       533       671      2395      2810      2811
 -1      1187    8    0    1
 -2       532       671       670      2811      2812      2807
 -1      1188    8    0    1
 -2       533       534       672      2398      2813      2814
 -1      1189    8    0    1
 -2       533       672       671      2814      2815      2810
 -1      1190    8    0    1
 -2       534       535       673      2401      2816      2817
 -1      1191    8    0    1
 -2       534       673       672      2817      2818      2813
 -1      1192    8    0    1
 -2       535       536       674      2404      2819      2820
 -1      1193    8    0    1
 -2       535       674       673      2820      2821      2816
 -1      1194    8    0    1
 -2       537       538       675      2410      2822      2823
 -1      1195    8    0    1
 -2       538       539       610      2413      2824      2825
 -1      1196    8    0    1
 -2       540       541       676      2419      2826      2827
 -1      1197    8    0    1
 -2       541       542       677      2422      2828      2829
 -1      1198    8    0    1
 -2       541       677       676      2829      2830      2826
 -1      1199    8    0    1
 -2       542       543       678      2425      2831      2832
 -1      1200    8    0    1
 -2       542       678       677      2832      2833      2828
 -1      1201    8    0    1
 -2       543       544       679      2428      2834      2835
 -1      1202    8    0    1
 -2       543       679       678      2835      2836      2831
 -1      1203    8    0    1
 -2       544       545       680      2431      2837      2838
 -1      1204    8    0    1
 -2       544       680       679      2838      2839      2834
 -1      1205    8    0    1
 -2       545       546       681      2434      2840      2841
 -1      1206    8    0    1
 -2       545       681       680      2841      2842      2837
 -1      1207    8    0    1
 -2       546       547       682      2437      2843      2844
 -1      1208    8    0    1
 -2       546       682       681      2844      2845      2840
 -1      1209    8    0    1
 -2       547       548       683      2440      2846      2847
 -1      1210    8    0    1
 -2       547       683       682      2847      2848      2843
 -1      1211    8    0    1
 -2       548       549       684      2443      2849      2850
 -1      1212    8    0    1
 -2       548       684       683      2850      2851      2846
 -1      1213    8    0    1
 -2       549       550       685      2446      2852      2853
 -1      1214    8    0    1
 -2       549       685       684      2853      2854      2849
 -1      1215    8    0    1
 -2       550       551       686      2449      2855      2856
 -1      1216    8    0    1
 -2       550       686       685      2856      2857      2852
 -1      1217    8    0    1
 -2       551       552       687      2452      2858      2859
 -1      1218    8    0    1
 -2       551       687       686      2859      2860      2855
 -1      1219    8    0    1
 -2       552       553       688      2455      2861      2862
 -1      1220    8    0    1
 -2       552       688       687      2862      2863      2858
 -1      1221    8    0    1
 -2       553       554       689      2458      2864      2865
 -1      1222    8    0    1
 -2       553       689       688      2865      2866      2861
 -1      1223    8    0    1
 -2       554       555       690      2461      2867      2868
 -1      1224    8    0    1
 -2       554       690       689      2868      2869      2864
 -1      1225    8    0    1
 -2       555       556       691      2464      2870      2871
 -1      1226    8    0    1
 -2       555       691       690      2871      2872      2867
 -1      1227    8    0    1
 -2       556       557       692      2467      2873      2874
 -1      1228    8    0    1
 -2       556       692       691      2874      2875      2870
 -1      1229    8    0    1
 -2       557       558       693      2470      2876      2877
 -1      1230    8    0    1
 -2       557       693       692      2877      2878      2873
 -1      1231    8    0    1
 -2       558       559       694      2473      2879      2880
 -1      1232    8    0    1
 -2       558       694       693      2880      2881      2876
 -1      1233    8    0    1
 -2       559       560       695      2476      2882      2883
 -1      1234    8    0    1
 -2       559       695       694      2883      2884      2879
 -1      1235    8    0    1
 -2       560       561       696      2479      2885      2886
 -1      1236    8    0    1
 -2       560       696       695      2886      2887      2882
 -1      1237    8    0    1
 -2       561       562       697      2482      2888      2889
 -1      1238    8    0    1
 -2       561       697       696      2889      2890      2885
 -1      1239    8    0    1
 -2       562       563       698      2485      2891      2892
 -1      1240    8    0    1
 -2       562       698       697      2892      2893      2888
 -1      1241    8    0    1
 -2       563       564       699      2488      2894      2895
 -1      1242    8    0    1
 -2       563       699       698      2895      2896      2891
 -1      1243    8    0    1
 -2       564       565       700      2491      2897      2898
 -1      1244    8    0    1
 -2       564       700       699      2898      2899      2894
 -1      1245    8    0    1
 -2       565       566       701      2494      2900      2901
 -1      1246    8    0    1
 -2       565       701       700      2901      2902      2897
 -1      1247    8    0    1
 -2       566       567       702      2497      2903      2904
 -1      1248    8    0    1
 -2       701       566       702      2900      2904      2905
 -1      1249    8    0    1
 -2       567       570       702      2649      2906      2903
 -1      1250    8    0    1
 -2       572       573       703      2515      2907      2908
 -1      1251    8    0    1
 -2       614       525       704      2650      2909      2910
 -1      1252    8    0    1
 -2       525       664       704      2793      2911      2909
 -1      1253    8    0    1
 -2       568       569       705      2503      2912      2913
 -1      1254    8    0    1
 -2       573       574       706      2518      2914      2915
 -1      1255    8    0    1
 -2       573       706       703      2915      2916      2907
 -1      1256    8    0    1
 -2       569       572       707      2512      2917      2918
 -1      1257    8    0    1
 -2       705       569       707      2912      2918      2919
 -1      1258    8    0    1
 -2       572       703       707      2908      2920      2917
 -1      1259    8    0    1
 -2       603       604       708      2619      2921      2922
 -1      1260    8    0    1
 -2       601       599       709      2586      2923      2924
 -1      1261    8    0    1
 -2       574       575       710      2521      2925      2926
 -1      1262    8    0    1
 -2       574       710       706      2926      2927      2914
 -1      1263    8    0    1
 -2       575       576       711      2524      2928      2929
 -1      1264    8    0    1
 -2       575       711       710      2929      2930      2925
 -1      1265    8    0    1
 -2       576       577       712      2527      2931      2932
 -1      1266    8    0    1
 -2       576       712       711      2932      2933      2928
 -1      1267    8    0    1
 -2       600       601       713      2626      2934      2935
 -1      1268    8    0    1
 -2       605       606       714      2617      2936      2937
 -1      1269    8    0    1
 -2       582       526       715      2540      2938      2939
 -1      1270    8    0    1
 -2       620       582       715      2663      2939      2940
 -1      1271    8    0    1
 -2       526       667       715      2800      2941      2938
 -1      1272    8    0    1
 -2       598       587       716      2579      2942      2943
 -1      1273    8    0    1
 -2       481       585       717      2549      2944      2945
 -1      1274    8    0    1
 -2       583       584       718      2546      2946      2947
 -1      1275    8    0    1
 -2       596       597       719      2634      2948      2949
 -1      1276    8    0    1
 -2       581       579       720      2537      2950      2951
 -1      1277    8    0    1
 -2       528       529       721      2383      2952      2953
 -1      1278    8    0    1
 -2       665       528       721      2795      2953      2954
 -1      1279    8    0    1
 -2       529       668       721      2803      2955      2952
 -1      1280    8    0    1
 -2       483       481       722      2246      2956      2957
 -1      1281    8    0    1
 -2       623       483       722      2670      2957      2958
 -1      1282    8    0    1
 -2       481       717       722      2945      2959      2956
 -1      1283    8    0    1
 -2       476       477       723      2230      2960      2961
 -1      1284    8    0    1
 -2       615       476       723      2651      2961      2962
 -1      1285    8    0    1
 -2       477       617       723      2657      2963      2960
 -1      1286    8    0    1
 -2       586       581       724      2616      2964      2965
 -1      1287    8    0    1
 -2       473       472       725      2219      2966      2967
 -1      1288    8    0    1
 -2       594       595       726      2636      2968      2969
 -1      1289    8    0    1
 -2       588       598       727      2639      2970      2971
 -1      1290    8    0    1
 -2       592       593       728      2638      2972      2973
 -1      1291    8    0    1
 -2       593       594       729      2637      2974      2975
 -1      1292    8    0    1
 -2       728       593       729      2972      2975      2976
 -1      1293    8    0    1
 -2       594       726       729      2969      2977      2974
 -1      1294    8    0    1
 -2       599       602       730      2632      2978      2979
 -1      1295    8    0    1
 -2       590       592       675      2641      2980      2981
 -1      1296    8    0    1
 -2       595       591       731      2635      2982      2983
 -1      1297    8    0    1
 -2       591       596       732      2640      2984      2985
 -1      1298    8    0    1
 -2       597       588       733      2633      2986      2987
 -1      1299    8    0    1
 -2       597       733       719      2987      2988      2948
 -1      1300    8    0    1
 -2       470       600       734      2642      2989      2990
 -1      1301    8    0    1
 -2       578       614       704      2645      2910      2991
 -1      1302    8    0    1
 -2       584       608       735      2627      2992      2993
 -1      1303    8    0    1
 -2       606       607       736      2648      2994      2995
 -1      1304    8    0    1
 -2       479       609       471      2622      2605      2996
 -1      1305    8    0    1
 -2       604       605       737      2595      2997      2998
 -1      1306    8    0    1
 -2       585       445       717      2628      2999      2944
 -1      1307    8    0    1
 -2       608       482       738      2614      3000      3001
 -1      1308    8    0    1
 -2       611       473       739      2609      3002      3003
 -1      1309    8    0    1
 -2       473       725       739      2967      3004      3002
 -1      1310    8    0    1
 -2       474       616       740      2654      3005      3006
 -1      1311    8    0    1
 -2       474       740       589      3006      3007      2560
 -1      1312    8    0    1
 -2       607       621       736      2667      3008      2994
 -1      1313    8    0    1
 -2       579       612       720      2624      3009      2950
 -1      1314    8    0    1
 -2       610       590       675      2606      2981      3010
 -1      1315    8    0    1
 -2       621       586       724      2666      2965      3011
 -1      1316    8    0    1
 -2       580       622       741      2669      3012      3013
 -1      1317    8    0    1
 -2       580       741       612      3013      3014      2625
 -1      1318    8    0    1
 -2       732       596       719      2984      2949      3015
 -1      1319    8    0    1
 -2       731       591       732      2982      2985      3016
 -1      1320    8    0    1
 -2       568       705       742      2913      3017      3018
 -1      1321    8    0    1
 -2       568       742       571      3018      3019      2509
 -1      1322    8    0    1
 -2       602       666       730      2798      3020      2978
 -1      1323    8    0    1
 -2       598       716       727      2943      3021      2970
 -1      1324    8    0    1
 -2       537       675       728      2823      3022      3023
 -1      1325    8    0    1
 -2       675       538       610      2822      2825      3010
 -1      1326    8    0    1
 -2       536       537       728      2407      3023      3024
 -1      1327    8    0    1
 -2       540       676       738      2827      3025      3026
 -1      1328    8    0    1
 -2       539       540       738      2416      3026      3027
 -1      1329    8    0    1
 -2       584       735       718      2993      3028      2946
 -1      1330    8    0    1
 -2       708       604       743      2921      3029      3030
 -1      1331    8    0    1
 -2       604       737       743      2998      3031      3029
 -1      1332    8    0    1
 -2       570       571       744      2508      3032      3033
 -1      1333    8    0    1
 -2       702       570       744      2906      3033      3034
 -1      1334    8    0    1
 -2       571       742       744      3019      3035      3032
 -1      1335    8    0    1
 -2       709       599       730      2923      2979      3036
 -1      1336    8    0    1
 -2       601       709       713      2924      3037      2934
 -1      1337    8    0    1
 -2       600       713       734      2935      3038      2989
 -1      1338    8    0    1
 -2       577       578       704      2530      2991      3039
 -1      1339    8    0    1
 -2       622       583       745      2668      3040      3041
 -1      1340    8    0    1
 -2       583       718       745      2947      3042      3040
 -1      1341    8    0    1
 -2       605       714       737      2937      3043      2997
 -1      1342    8    0    1
 -2       470       734       746      2990      3044      3045
 -1      1343    8    0    1
 -2       470       746       613      3045      3046      2631
 -1      1344    8    0    1
 -2       608       738       735      3001      3047      2992
 -1      1345    8    0    1
 -2       714       606       736      2936      2995      3048
 -1      1346    8    0    1
 -2       581       720       724      2951      3049      2964
 -1      1347    8    0    1
 -2       472       589       747      2559      3050      3051
 -1      1348    8    0    1
 -2       725       472       747      2966      3051      3052
 -1      1349    8    0    1
 -2       589       740       747      3007      3053      3050
 -1      1350    8    0    1
 -2       726       595       731      2968      2983      3054
 -1      1351    8    0    1
 -2       445       611       717      2611      3055      2999
 -1      1352    8    0    1
 -2       666       603       708      2797      2922      3056
 -1      1353    8    0    1
 -2       587       613       748      2630      3057      3058
 -1      1354    8    0    1
 -2       587       748       716      3058      3059      2942
 -1      1355    8    0    1
 -2       592       728       675      2973      3022      2980
 -1      1356    8    0    1
 -2       577       704       749      3039      3060      3061
 -1      1357    8    0    1
 -2       712       577       749      2931      3061      3062
 -1      1358    8    0    1
 -2       704       664       749      2911      3063      3060
 -1      1359    8    0    1
 -2       482       610       738      2608      3064      3000
 -1      1360    8    0    1
 -2       479       471       619      2996      2662      3065
 -1      1361    8    0    1
 -2       618       479       619      2658      3065      3066
 -1      1362    8    0    1
 -2       539       738       610      3027      3064      2824
 -1      1363    8    0    1
 -2       618       619       750      3066      3067      3068
 -1      1364    8    0    1
 -2       619       620       750      2665      3069      3067
 -1      1365    8    0    1
 -2       617       618       750      2660      3068      3070
 -1      1366    8    0    1
 -2       720       612       751      3009      3071      3072
 -1      1367    8    0    1
 -2       612       741       751      3014      3073      3071
 -1      1368    8    0    1
 -2       733       588       727      2986      2971      3074
 -1      1369    8    0    1
 -2       733       727       752      3074      3075      3076
 -1      1370    8    0    1
 -2       625       624       753      2677      3077      3078
 -1      1371    8    0    1
 -2       626       625       754      2680      3079      3080
 -1      1372    8    0    1
 -2       625       753       754      3078      3081      3079
 -1      1373    8    0    1
 -2       627       626       755      2683      3082      3083
 -1      1374    8    0    1
 -2       626       754       755      3080      3084      3082
 -1      1375    8    0    1
 -2       628       627       756      2686      3085      3086
 -1      1376    8    0    1
 -2       627       755       756      3083      3087      3085
 -1      1377    8    0    1
 -2       629       628       757      2689      3088      3089
 -1      1378    8    0    1
 -2       628       756       757      3086      3090      3088
 -1      1379    8    0    1
 -2       630       629       758      2692      3091      3092
 -1      1380    8    0    1
 -2       629       757       758      3089      3093      3091
 -1      1381    8    0    1
 -2       631       630       759      2695      3094      3095
 -1      1382    8    0    1
 -2       630       758       759      3092      3096      3094
 -1      1383    8    0    1
 -2       632       631       760      2698      3097      3098
 -1      1384    8    0    1
 -2       631       759       760      3095      3099      3097
 -1      1385    8    0    1
 -2       633       632       761      2701      3100      3101
 -1      1386    8    0    1
 -2       632       760       761      3098      3102      3100
 -1      1387    8    0    1
 -2       635       634       762      2707      3103      3104
 -1      1388    8    0    1
 -2       636       635       763      2710      3105      3106
 -1      1389    8    0    1
 -2       637       636       764      2713      3107      3108
 -1      1390    8    0    1
 -2       638       637       765      2716      3109      3110
 -1      1391    8    0    1
 -2       639       638       766      2719      3111      3112
 -1      1392    8    0    1
 -2       638       765       766      3110      3113      3111
 -1      1393    8    0    1
 -2       640       639       767      2722      3114      3115
 -1      1394    8    0    1
 -2       639       766       767      3112      3116      3114
 -1      1395    8    0    1
 -2       641       640       768      2725      3117      3118
 -1      1396    8    0    1
 -2       640       767       768      3115      3119      3117
 -1      1397    8    0    1
 -2       642       641       769      2728      3120      3121
 -1      1398    8    0    1
 -2       641       768       769      3118      3122      3120
 -1      1399    8    0    1
 -2       643       642       770      2731      3123      3124
 -1      1400    8    0    1
 -2       642       769       770      3121      3125      3123
 -1      1401    8    0    1
 -2       644       643       771      2734      3126      3127
 -1      1402    8    0    1
 -2       643       770       771      3124      3128      3126
 -1      1403    8    0    1
 -2       645       644       772      2737      3129      3130
 -1      1404    8    0    1
 -2       644       771       772      3127      3131      3129
 -1      1405    8    0    1
 -2       646       645       773      2740      3132      3133
 -1      1406    8    0    1
 -2       645       772       773      3130      3134      3132
 -1      1407    8    0    1
 -2       647       646       774      2743      3135      3136
 -1      1408    8    0    1
 -2       646       773       774      3133      3137      3135
 -1      1409    8    0    1
 -2       648       647       775      2746      3138      3139
 -1      1410    8    0    1
 -2       647       774       775      3136      3140      3138
 -1      1411    8    0    1
 -2       649       648       776      2749      3141      3142
 -1      1412    8    0    1
 -2       648       775       776      3139      3143      3141
 -1      1413    8    0    1
 -2       650       649       777      2752      3144      3145
 -1      1414    8    0    1
 -2       649       776       777      3142      3146      3144
 -1      1415    8    0    1
 -2       651       650       778      2755      3147      3148
 -1      1416    8    0    1
 -2       650       777       778      3145      3149      3147
 -1      1417    8    0    1
 -2       652       651       779      2758      3150      3151
 -1      1418    8    0    1
 -2       651       778       779      3148      3152      3150
 -1      1419    8    0    1
 -2       653       652       780      2761      3153      3154
 -1      1420    8    0    1
 -2       652       779       780      3151      3155      3153
 -1      1421    8    0    1
 -2       654       653       781      2764      3156      3157
 -1      1422    8    0    1
 -2       653       780       781      3154      3158      3156
 -1      1423    8    0    1
 -2       655       654       782      2767      3159      3160
 -1      1424    8    0    1
 -2       654       781       782      3157      3161      3159
 -1      1425    8    0    1
 -2       656       655       783      2770      3162      3163
 -1      1426    8    0    1
 -2       655       782       783      3160      3164      3162
 -1      1427    8    0    1
 -2       657       656       784      2773      3165      3166
 -1      1428    8    0    1
 -2       656       783       784      3163      3167      3165
 -1      1429    8    0    1
 -2       658       657       785      2776      3168      3169
 -1      1430    8    0    1
 -2       657       784       785      3166      3170      3168
 -1      1431    8    0    1
 -2       659       658       786      2779      3171      3172
 -1      1432    8    0    1
 -2       658       785       786      3169      3173      3171
 -1      1433    8    0    1
 -2       660       659       787      2782      3174      3175
 -1      1434    8    0    1
 -2       659       786       787      3172      3176      3174
 -1      1435    8    0    1
 -2       661       660       788      2785      3177      3178
 -1      1436    8    0    1
 -2       660       787       788      3175      3179      3177
 -1      1437    8    0    1
 -2       662       661       789      2788      3180      3181
 -1      1438    8    0    1
 -2       661       788       789      3178      3182      3180
 -1      1439    8    0    1
 -2       663       662       790      2791      3183      3184
 -1      1440    8    0    1
 -2       662       789       790      3181      3185      3183
 -1      1441    8    0    1
 -2       664       663       791      2794      3186      3187
 -1      1442    8    0    1
 -2       749       664       791      3063      3187      3188
 -1      1443    8    0    1
 -2       663       790       791      3184      3189      3186
 -1      1444    8    0    1
 -2       669       670       792      2809      3190      3191
 -1      1445    8    0    1
 -2       668       669       793      2806      3192      3193
 -1      1446    8    0    1
 -2       669       792       793      3191      3194      3192
 -1      1447    8    0    1
 -2       671       672       794      2815      3195      3196
 -1      1448    8    0    1
 -2       674       536       728      2819      3024      3197
 -1      1449    8    0    1
 -2       738       676       735      3025      3198      3047
 -1      1450    8    0    1
 -2       679       680       795      2839      3199      3200
 -1      1451    8    0    1
 -2       680       681       796      2842      3201      3202
 -1      1452    8    0    1
 -2       680       796       795      3202      3203      3199
 -1      1453    8    0    1
 -2       681       682       797      2845      3204      3205
 -1      1454    8    0    1
 -2       681       797       796      3205      3206      3201
 -1      1455    8    0    1
 -2       682       683       798      2848      3207      3208
 -1      1456    8    0    1
 -2       682       798       797      3208      3209      3204
 -1      1457    8    0    1
 -2       683       684       799      2851      3210      3211
 -1      1458    8    0    1
 -2       683       799       798      3211      3212      3207
 -1      1459    8    0    1
 -2       684       685       800      2854      3213      3214
 -1      1460    8    0    1
 -2       684       800       799      3214      3215      3210
 -1      1461    8    0    1
 -2       685       686       801      2857      3216      3217
 -1      1462    8    0    1
 -2       685       801       800      3217      3218      3213
 -1      1463    8    0    1
 -2       686       687       802      2860      3219      3220
 -1      1464    8    0    1
 -2       686       802       801      3220      3221      3216
 -1      1465    8    0    1
 -2       687       688       803      2863      3222      3223
 -1      1466    8    0    1
 -2       687       803       802      3223      3224      3219
 -1      1467    8    0    1
 -2       688       689       804      2866      3225      3226
 -1      1468    8    0    1
 -2       688       804       803      3226      3227      3222
 -1      1469    8    0    1
 -2       689       690       805      2869      3228      3229
 -1      1470    8    0    1
 -2       689       805       804      3229      3230      3225
 -1      1471    8    0    1
 -2       690       691       806      2872      3231      3232
 -1      1472    8    0    1
 -2       690       806       805      3232      3233      3228
 -1      1473    8    0    1
 -2       691       692       807      2875      3234      3235
 -1      1474    8    0    1
 -2       691       807       806      3235      3236      3231
 -1      1475    8    0    1
 -2       692       693       808      2878      3237      3238
 -1      1476    8    0    1
 -2       692       808       807      3238      3239      3234
 -1      1477    8    0    1
 -2       693       694       809      2881      3240      3241
 -1      1478    8    0    1
 -2       693       809       808      3241      3242      3237
 -1      1479    8    0    1
 -2       694       695       810      2884      3243      3244
 -1      1480    8    0    1
 -2       694       810       809      3244      3245      3240
 -1      1481    8    0    1
 -2       695       696       811      2887      3246      3247
 -1      1482    8    0    1
 -2       695       811       810      3247      3248      3243
 -1      1483    8    0    1
 -2       696       697       812      2890      3249      3250
 -1      1484    8    0    1
 -2       696       812       811      3250      3251      3246
 -1      1485    8    0    1
 -2       697       698       813      2893      3252      3253
 -1      1486    8    0    1
 -2       697       813       812      3253      3254      3249
 -1      1487    8    0    1
 -2       698       699       814      2896      3255      3256
 -1      1488    8    0    1
 -2       698       814       813      3256      3257      3252
 -1      1489    8    0    1
 -2       699       700       815      2899      3258      3259
 -1      1490    8    0    1
 -2       699       815       814      3259      3260      3255
 -1      1491    8    0    1
 -2       700       701       816      2902      3261      3262
 -1      1492    8    0    1
 -2       700       816       815      3262      3263      3258
 -1      1493    8    0    1
 -2       701       702       817      2905      3264      3265
 -1      1494    8    0    1
 -2       816       701       817      3261      3265      3266
 -1      1495    8    0    1
 -2       702       744       817      3034      3267      3264
 -1      1496    8    0    1
 -2       727       716       818      3021      3268      3269
 -1      1497    8    0    1
 -2       616       615       819      2655      3270      3271
 -1      1498    8    0    1
 -2       703       706       820      2916      3272      3273
 -1      1499    8    0    1
 -2       706       710       821      2927      3274      3275
 -1      1500    8    0    1
 -2       706       821       820      3275      3276      3272
 -1      1501    8    0    1
 -2       734       713       822      3038      3277      3278
 -1      1502    8    0    1
 -2       732       719       823      3015      3279      3280
 -1      1503    8    0    1
 -2       735       676       824      3198      3281      3282
 -1      1504    8    0    1
 -2       718       735       824      3028      3282      3283
 -1      1505    8    0    1
 -2       676       677       824      2830      3284      3281
 -1      1506    8    0    1
 -2       737       714       825      3043      3285      3286
 -1      1507    8    0    1
 -2       731       732       826      3016      3287      3288
 -1      1508    8    0    1
 -2       711       712       827      2933      3289      3290
 -1      1509    8    0    1
 -2       710       711       828      2930      3291      3292
 -1      1510    8    0    1
 -2       821       710       828      3274      3292      3293
 -1      1511    8    0    1
 -2       711       827       828      3290      3294      3291
 -1      1512    8    0    1
 -2       678       679       829      2836      3295      3296
 -1      1513    8    0    1
 -2       679       795       829      3200      3297      3295
 -1      1514    8    0    1
 -2       677       678       830      2833      3298      3299
 -1      1515    8    0    1
 -2       824       677       830      3284      3299      3300
 -1      1516    8    0    1
 -2       678       829       830      3296      3301      3298
 -1      1517    8    0    1
 -2       670       671       831      2812      3302      3303
 -1      1518    8    0    1
 -2       792       670       831      3190      3303      3304
 -1      1519    8    0    1
 -2       671       794       831      3196      3305      3302
 -1      1520    8    0    1
 -2       736       621       832      3008      3306      3307
 -1      1521    8    0    1
 -2       667       665       833      2801      3308      3309
 -1      1522    8    0    1
 -2       730       666       763      3020      3310      3311
 -1      1523    8    0    1
 -2       726       731       834      3054      3312      3313
 -1      1524    8    0    1
 -2       713       709       835      3037      3314      3315
 -1      1525    8    0    1
 -2       624       623       836      2674      3316      3317
 -1      1526    8    0    1
 -2       624       836       753      3317      3318      3077
 -1      1527    8    0    1
 -2       621       724       837      3011      3319      3320
 -1      1528    8    0    1
 -2       621       837       832      3320      3321      3306
 -1      1529    8    0    1
 -2       717       611       739      3055      3003      3322
 -1      1530    8    0    1
 -2       709       730       762      3036      3323      3324
 -1      1531    8    0    1
 -2       719       733       838      2988      3325      3326
 -1      1532    8    0    1
 -2       714       736       839      3048      3327      3328
 -1      1533    8    0    1
 -2       724       720       840      3049      3329      3330
 -1      1534    8    0    1
 -2       666       708       764      3056      3331      3332
 -1      1535    8    0    1
 -2       740       616       841      3005      3333      3334
 -1      1536    8    0    1
 -2       616       819       841      3271      3335      3333
 -1      1537    8    0    1
 -2       617       750       842      3070      3336      3337
 -1      1538    8    0    1
 -2       739       725       843      3004      3338      3339
 -1      1539    8    0    1
 -2       741       622       844      3012      3340      3341
 -1      1540    8    0    1
 -2       622       745       844      3041      3342      3340
 -1      1541    8    0    1
 -2       752       727       845      3075      3343      3344
 -1      1542    8    0    1
 -2       727       818       845      3269      3345      3343
 -1      1543    8    0    1
 -2       633       761       835      3101      3346      3347
 -1      1544    8    0    1
 -2       623       722       846      2958      3348      3349
 -1      1545    8    0    1
 -2       623       846       836      3349      3350      3316
 -1      1546    8    0    1
 -2       742       705       847      3017      3351      3352
 -1      1547    8    0    1
 -2       635       762       763      3104      3353      3105
 -1      1548    8    0    1
 -2       634       633       835      2704      3347      3354
 -1      1549    8    0    1
 -2       636       763       764      3106      3355      3107
 -1      1550    8    0    1
 -2       637       764       765      3108      3356      3109
 -1      1551    8    0    1
 -2       736       832       839      3307      3357      3327
 -1      1552    8    0    1
 -2       722       717       739      2959      3322      3358
 -1      1553    8    0    1
 -2       668       793       848      3193      3359      3360
 -1      1554    8    0    1
 -2       668       848       721      3360      3361      2955
 -1      1555    8    0    1
 -2       674       728       729      3197      2976      3362
 -1      1556    8    0    1
 -2       672       673       834      2818      3363      3364
 -1      1557    8    0    1
 -2       673       674       726      2821      3365      3366
 -1      1558    8    0    1
 -2       634       835       762      3354      3367      3103
 -1      1559    8    0    1
 -2       818       716       849      3268      3368      3369
 -1      1560    8    0    1
 -2       716       748       849      3059      3370      3368
 -1      1561    8    0    1
 -2       819       615       850      3270      3371      3372
 -1      1562    8    0    1
 -2       615       723       850      2962      3373      3371
 -1      1563    8    0    1
 -2       705       707       851      2919      3374      3375
 -1      1564    8    0    1
 -2       705       851       847      3375      3376      3351
 -1      1565    8    0    1
 -2       750       620       852      3069      3377      3378
 -1      1566    8    0    1
 -2       620       715       852      2940      3379      3377
 -1      1567    8    0    1
 -2       617       842       723      3337      3380      2963
 -1      1568    8    0    1
 -2       707       703       853      2920      3381      3382
 -1      1569    8    0    1
 -2       851       707       853      3374      3382      3383
 -1      1570    8    0    1
 -2       703       820       853      3273      3384      3381
 -1      1571    8    0    1
 -2       822       713       835      3277      3315      3385
 -1      1572    8    0    1
 -2       732       823       826      3280      3386      3287
 -1      1573    8    0    1
 -2       745       718       824      3042      3283      3387
 -1      1574    8    0    1
 -2       746       734       854      3044      3388      3389
 -1      1575    8    0    1
 -2       734       822       854      3278      3390      3388
 -1      1576    8    0    1
 -2       843       725       855      3338      3391      3392
 -1      1577    8    0    1
 -2       725       747       855      3052      3393      3391
 -1      1578    8    0    1
 -2       731       826       834      3288      3394      3312
 -1      1579    8    0    1
 -2       715       667       856      2941      3395      3396
 -1      1580    8    0    1
 -2       852       715       856      3379      3396      3397
 -1      1581    8    0    1
 -2       667       833       856      3309      3398      3395
 -1      1582    8    0    1
 -2       763       666       764      3310      3332      3355
 -1      1583    8    0    1
 -2       720       751       857      3072      3399      3400
 -1      1584    8    0    1
 -2       720       857       840      3400      3401      3329
 -1      1585    8    0    1
 -2       833       665       858      3308      3402      3403
 -1      1586    8    0    1
 -2       665       721       858      2954      3404      3402
 -1      1587    8    0    1
 -2       730       763       762      3311      3353      3323
 -1      1588    8    0    1
 -2       726       834       673      3313      3363      3366
 -1      1589    8    0    1
 -2       825       714       839      3285      3328      3405
 -1      1590    8    0    1
 -2       748       613       746      3057      3046      3406
 -1      1591    8    0    1
 -2       733       752       838      3076      3407      3325
 -1      1592    8    0    1
 -2       837       724       840      3319      3330      3408
 -1      1593    8    0    1
 -2       672       834       794      3364      3409      3195
 -1      1594    8    0    1
 -2       712       749       859      3062      3410      3411
 -1      1595    8    0    1
 -2       827       712       859      3289      3411      3412
 -1      1596    8    0    1
 -2       749       791       859      3188      3413      3410
 -1      1597    8    0    1
 -2       719       838       823      3326      3414      3279
 -1      1598    8    0    1
 -2       726       674       729      3365      3362      2977
 -1      1599    8    0    1
 -2       842       750       852      3336      3378      3415
 -1      1600    8    0    1
 -2       754       753       860      3081      3416      3417
 -1      1601    8    0    1
 -2       751       741       861      3073      3418      3419
 -1      1602    8    0    1
 -2       739       843       846      3339      3420      3421
 -1      1603    8    0    1
 -2       832       837       862      3321      3422      3423
 -1      1604    8    0    1
 -2       835       761       822      3346      3424      3385
 -1      1605    8    0    1
 -2       755       754       863      3084      3425      3426
 -1      1606    8    0    1
 -2       754       860       863      3417      3427      3425
 -1      1607    8    0    1
 -2       756       755       864      3087      3428      3429
 -1      1608    8    0    1
 -2       755       863       864      3426      3430      3428
 -1      1609    8    0    1
 -2       757       756       865      3090      3431      3432
 -1      1610    8    0    1
 -2       756       864       865      3429      3433      3431
 -1      1611    8    0    1
 -2       758       757       866      3093      3434      3435
 -1      1612    8    0    1
 -2       757       865       866      3432      3436      3434
 -1      1613    8    0    1
 -2       759       758       867      3096      3437      3438
 -1      1614    8    0    1
 -2       758       866       867      3435      3439      3437
 -1      1615    8    0    1
 -2       760       759       854      3099      3440      3441
 -1      1616    8    0    1
 -2       761       760       822      3102      3442      3424
 -1      1617    8    0    1
 -2       823       838       868      3414      3443      3444
 -1      1618    8    0    1
 -2       767       766       825      3116      3445      3446
 -1      1619    8    0    1
 -2       768       767       869      3119      3447      3448
 -1      1620    8    0    1
 -2       769       768       870      3122      3449      3450
 -1      1621    8    0    1
 -2       768       869       870      3448      3451      3449
 -1      1622    8    0    1
 -2       770       769       871      3125      3452      3453
 -1      1623    8    0    1
 -2       769       870       871      3450      3454      3452
 -1      1624    8    0    1
 -2       771       770       872      3128      3455      3456
 -1      1625    8    0    1
 -2       770       871       872      3453      3457      3455
 -1      1626    8    0    1
 -2       772       771       873      3131      3458      3459
 -1      1627    8    0    1
 -2       771       872       873      3456      3460      3458
 -1      1628    8    0    1
 -2       773       772       874      3134      3461      3462
 -1      1629    8    0    1
 -2       772       873       874      3459      3463      3461
 -1      1630    8    0    1
 -2       774       773       875      3137      3464      3465
 -1      1631    8    0    1
 -2       773       874       875      3462      3466      3464
 -1      1632    8    0    1
 -2       775       774       876      3140      3467      3468
 -1      1633    8    0    1
 -2       774       875       876      3465      3469      3467
 -1      1634    8    0    1
 -2       776       775       877      3143      3470      3471
 -1      1635    8    0    1
 -2       775       876       877      3468      3472      3470
 -1      1636    8    0    1
 -2       777       776       878      3146      3473      3474
 -1      1637    8    0    1
 -2       776       877       878      3471      3475      3473
 -1      1638    8    0    1
 -2       778       777       879      3149      3476      3477
 -1      1639    8    0    1
 -2       777       878       879      3474      3478      3476
 -1      1640    8    0    1
 -2       779       778       880      3152      3479      3480
 -1      1641    8    0    1
 -2       778       879       880      3477      3481      3479
 -1      1642    8    0    1
 -2       780       779       881      3155      3482      3483
 -1      1643    8    0    1
 -2       779       880       881      3480      3484      3482
 -1      1644    8    0    1
 -2       781       780       882      3158      3485      3486
 -1      1645    8    0    1
 -2       780       881       882      3483      3487      3485
 -1      1646    8    0    1
 -2       782       781       883      3161      3488      3489
 -1      1647    8    0    1
 -2       781       882       883      3486      3490      3488
 -1      1648    8    0    1
 -2       783       782       884      3164      3491      3492
 -1      1649    8    0    1
 -2       782       883       884      3489      3493      3491
 -1      1650    8    0    1
 -2       784       783       885      3167      3494      3495
 -1      1651    8    0    1
 -2       783       884       885      3492      3496      3494
 -1      1652    8    0    1
 -2       785       784       886      3170      3497      3498
 -1      1653    8    0    1
 -2       784       885       886      3495      3499      3497
 -1      1654    8    0    1
 -2       786       785       887      3173      3500      3501
 -1      1655    8    0    1
 -2       785       886       887      3498      3502      3500
 -1      1656    8    0    1
 -2       787       786       888      3176      3503      3504
 -1      1657    8    0    1
 -2       786       887       888      3501      3505      3503
 -1      1658    8    0    1
 -2       788       787       889      3179      3506      3507
 -1      1659    8    0    1
 -2       787       888       889      3504      3508      3506
 -1      1660    8    0    1
 -2       789       788       890      3182      3509      3510
 -1      1661    8    0    1
 -2       788       889       890      3507      3511      3509
 -1      1662    8    0    1
 -2       790       789       891      3185      3512      3513
 -1      1663    8    0    1
 -2       789       890       891      3510      3514      3512
 -1      1664    8    0    1
 -2       793       792       892      3194      3515      3516
 -1      1665    8    0    1
 -2       825       839       767      3405      3517      3446
 -1      1666    8    0    1
 -2       797       798       893      3209      3518      3519
 -1      1667    8    0    1
 -2       796       797       894      3206      3520      3521
 -1      1668    8    0    1
 -2       797       893       894      3519      3522      3520
 -1      1669    8    0    1
 -2       737       825       765      3286      3523      3524
 -1      1670    8    0    1
 -2       795       796       895      3203      3525      3526
 -1      1671    8    0    1
 -2       796       894       895      3521      3527      3525
 -1      1672    8    0    1
 -2       798       799       896      3212      3528      3529
 -1      1673    8    0    1
 -2       798       896       893      3529      3530      3518
 -1      1674    8    0    1
 -2       799       800       897      3215      3531      3532
 -1      1675    8    0    1
 -2       799       897       896      3532      3533      3528
 -1      1676    8    0    1
 -2       800       801       898      3218      3534      3535
 -1      1677    8    0    1
 -2       800       898       897      3535      3536      3531
 -1      1678    8    0    1
 -2       801       802       899      3221      3537      3538
 -1      1679    8    0    1
 -2       801       899       898      3538      3539      3534
 -1      1680    8    0    1
 -2       802       803       900      3224      3540      3541
 -1      1681    8    0    1
 -2       802       900       899      3541      3542      3537
 -1      1682    8    0    1
 -2       803       804       901      3227      3543      3544
 -1      1683    8    0    1
 -2       803       901       900      3544      3545      3540
 -1      1684    8    0    1
 -2       804       805       902      3230      3546      3547
 -1      1685    8    0    1
 -2       804       902       901      3547      3548      3543
 -1      1686    8    0    1
 -2       805       806       903      3233      3549      3550
 -1      1687    8    0    1
 -2       805       903       902      3550      3551      3546
 -1      1688    8    0    1
 -2       806       807       904      3236      3552      3553
 -1      1689    8    0    1
 -2       806       904       903      3553      3554      3549
 -1      1690    8    0    1
 -2       807       808       905      3239      3555      3556
 -1      1691    8    0    1
 -2       807       905       904      3556      3557      3552
 -1      1692    8    0    1
 -2       808       809       906      3242      3558      3559
 -1      1693    8    0    1
 -2       808       906       905      3559      3560      3555
 -1      1694    8    0    1
 -2       809       810       907      3245      3561      3562
 -1      1695    8    0    1
 -2       809       907       906      3562      3563      3558
 -1      1696    8    0    1
 -2       810       811       908      3248      3564      3565
 -1      1697    8    0    1
 -2       810       908       907      3565      3566      3561
 -1      1698    8    0    1
 -2       811       812       909      3251      3567      3568
 -1      1699    8    0    1
 -2       811       909       908      3568      3569      3564
 -1      1700    8    0    1
 -2       812       813       910      3254      3570      3571
 -1      1701    8    0    1
 -2       812       910       909      3571      3572      3567
 -1      1702    8    0    1
 -2       813       814       911      3257      3573      3574
 -1      1703    8    0    1
 -2       813       911       910      3574      3575      3570
 -1      1704    8    0    1
 -2       814       815       912      3260      3576      3577
 -1      1705    8    0    1
 -2       814       912       911      3577      3578      3573
 -1      1706    8    0    1
 -2       815       816       913      3263      3579      3580
 -1      1707    8    0    1
 -2       815       913       912      3580      3581      3576
 -1      1708    8    0    1
 -2       744       742       914      3035      3582      3583
 -1      1709    8    0    1
 -2       817       744       914      3267      3583      3584
 -1      1710    8    0    1
 -2       742       847       914      3352      3585      3582
 -1      1711    8    0    1
 -2       820       821       915      3276      3586      3587
 -1      1712    8    0    1
 -2       829       795       916      3297      3588      3589
 -1      1713    8    0    1
 -2       795       895       916      3526      3590      3588
 -1      1714    8    0    1
 -2       745       824       830      3387      3300      3591
 -1      1715    8    0    1
 -2       723       842       850      3380      3592      3373
 -1      1716    8    0    1
 -2       708       743       764      3030      3593      3331
 -1      1717    8    0    1
 -2       747       740       917      3053      3594      3595
 -1      1718    8    0    1
 -2       747       917       855      3595      3596      3393
 -1      1719    8    0    1
 -2       835       709       762      3314      3324      3367
 -1      1720    8    0    1
 -2       722       739       846      3358      3421      3348
 -1      1721    8    0    1
 -2       753       836       918      3318      3597      3598
 -1      1722    8    0    1
 -2       753       918       860      3598      3599      3416
 -1      1723    8    0    1
 -2       834       826       794      3394      3600      3409
 -1      1724    8    0    1
 -2       837       840       919      3408      3601      3602
 -1      1725    8    0    1
 -2       825       766       765      3445      3113      3523
 -1      1726    8    0    1
 -2       748       746       920      3406      3603      3604
 -1      1727    8    0    1
 -2       838       752       921      3407      3605      3606
 -1      1728    8    0    1
 -2       839       832       922      3357      3607      3608
 -1      1729    8    0    1
 -2       794       826       923      3600      3609      3610
 -1      1730    8    0    1
 -2       831       794       923      3305      3610      3611
 -1      1731    8    0    1
 -2       826       823       923      3386      3612      3609
 -1      1732    8    0    1
 -2       822       760       854      3442      3441      3390
 -1      1733    8    0    1
 -2       751       861       924      3419      3613      3614
 -1      1734    8    0    1
 -2       751       924       857      3614      3615      3399
 -1      1735    8    0    1
 -2       832       862       922      3423      3616      3607
 -1      1736    8    0    1
 -2       741       844       925      3341      3617      3618
 -1      1737    8    0    1
 -2       741       925       861      3618      3619      3418
 -1      1738    8    0    1
 -2       823       868       923      3444      3620      3612
 -1      1739    8    0    1
 -2       845       818       926      3345      3621      3622
 -1      1740    8    0    1
 -2       836       846       927      3350      3623      3624
 -1      1741    8    0    1
 -2       918       836       927      3597      3624      3625
 -1      1742    8    0    1
 -2       846       843       927      3420      3626      3623
 -1      1743    8    0    1
 -2       854       759       867      3440      3438      3627
 -1      1744    8    0    1
 -2       868       838       921      3443      3606      3628
 -1      1745    8    0    1
 -2       818       849       926      3369      3629      3621
 -1      1746    8    0    1
 -2       793       892       928      3516      3630      3631
 -1      1747    8    0    1
 -2       793       928       848      3631      3632      3359
 -1      1748    8    0    1
 -2       791       790       929      3189      3633      3634
 -1      1749    8    0    1
 -2       859       791       929      3413      3634      3635
 -1      1750    8    0    1
 -2       790       891       929      3513      3636      3633
 -1      1751    8    0    1
 -2       767       839       869      3517      3637      3447
 -1      1752    8    0    1
 -2       721       848       858      3361      3638      3404
 -1      1753    8    0    1
 -2       842       852       930      3415      3639      3640
 -1      1754    8    0    1
 -2       827       859       929      3412      3635      3641
 -1      1755    8    0    1
 -2       748       920       849      3604      3642      3370
 -1      1756    8    0    1
 -2       745       830       931      3591      3643      3644
 -1      1757    8    0    1
 -2       844       745       931      3342      3644      3645
 -1      1758    8    0    1
 -2       830       829       931      3301      3646      3643
 -1      1759    8    0    1
 -2       914       847       913      3585      3647      3648
 -1      1760    8    0    1
 -2       816       817       914      3266      3584      3649
 -1      1761    8    0    1
 -2       915       821       932      3586      3650      3651
 -1      1762    8    0    1
 -2       821       828       932      3293      3652      3650
 -1      1763    8    0    1
 -2       853       820       933      3384      3653      3654
 -1      1764    8    0    1
 -2       820       915       933      3587      3655      3653
 -1      1765    8    0    1
 -2       829       916       931      3589      3656      3646
 -1      1766    8    0    1
 -2       746       854       920      3389      3657      3603
 -1      1767    8    0    1
 -2       913       847       934      3647      3658      3659
 -1      1768    8    0    1
 -2       841       819       935      3335      3660      3661
 -1      1769    8    0    1
 -2       917       740       841      3594      3334      3662
 -1      1770    8    0    1
 -2       847       851       934      3376      3663      3658
 -1      1771    8    0    1
 -2       856       833       936      3398      3664      3665
 -1      1772    8    0    1
 -2       792       831       937      3304      3666      3667
 -1      1773    8    0    1
 -2       892       792       937      3515      3667      3668
 -1      1774    8    0    1
 -2       831       923       937      3611      3669      3666
 -1      1775    8    0    1
 -2       850       842       938      3592      3670      3671
 -1      1776    8    0    1
 -2       842       930       938      3640      3672      3670
 -1      1777    8    0    1
 -2       833       858       939      3403      3673      3674
 -1      1778    8    0    1
 -2       833       939       936      3674      3675      3664
 -1      1779    8    0    1
 -2       828       827       940      3294      3676      3677
 -1      1780    8    0    1
 -2       932       828       940      3652      3677      3678
 -1      1781    8    0    1
 -2       827       929       940      3641      3679      3676
 -1      1782    8    0    1
 -2       919       840       941      3601      3680      3681
 -1      1783    8    0    1
 -2       840       857       941      3401      3682      3680
 -1      1784    8    0    1
 -2       921       752       845      3605      3344      3683
 -1      1785    8    0    1
 -2       862       837       919      3422      3602      3684
 -1      1786    8    0    1
 -2       843       855       942      3392      3685      3686
 -1      1787    8    0    1
 -2       843       942       927      3686      3687      3626
 -1      1788    8    0    1
 -2       839       922       869      3608      3688      3637
 -1      1789    8    0    1
 -2       819       850       943      3372      3689      3690
 -1      1790    8    0    1
 -2       935       819       943      3660      3690      3691
 -1      1791    8    0    1
 -2       850       938       943      3671      3692      3689
 -1      1792    8    0    1
 -2       816       914       913      3649      3648      3579
 -1      1793    8    0    1
 -2       869       922       870      3688      3693      3451
 -1      1794    8    0    1
 -2       918       927       944      3625      3694      3695
 -1      1795    8    0    1
 -2       927       942       944      3687      3696      3694
 -1      1796    8    0    1
 -2       863       860       945      3427      3697      3698
 -1      1797    8    0    1
 -2       864       863       946      3430      3699      3700
 -1      1798    8    0    1
 -2       863       945       946      3698      3701      3699
 -1      1799    8    0    1
 -2       865       864       947      3433      3702      3703
 -1      1800    8    0    1
 -2       864       946       947      3700      3704      3702
 -1      1801    8    0    1
 -2       866       865       948      3436      3705      3706
 -1      1802    8    0    1
 -2       865       947       948      3703      3707      3705
 -1      1803    8    0    1
 -2       867       866       949      3439      3708      3709
 -1      1804    8    0    1
 -2       866       948       949      3706      3710      3708
 -1      1805    8    0    1
 -2       737       765       743      3524      3711      3031
 -1      1806    8    0    1
 -2       929       891       940      3636      3712      3679
 -1      1807    8    0    1
 -2       871       870       950      3454      3713      3714
 -1      1808    8    0    1
 -2       872       871       951      3457      3715      3716
 -1      1809    8    0    1
 -2       871       950       951      3714      3717      3715
 -1      1810    8    0    1
 -2       873       872       952      3460      3718      3719
 -1      1811    8    0    1
 -2       872       951       952      3716      3720      3718
 -1      1812    8    0    1
 -2       874       873       953      3463      3721      3722
 -1      1813    8    0    1
 -2       873       952       953      3719      3723      3721
 -1      1814    8    0    1
 -2       875       874       954      3466      3724      3725
 -1      1815    8    0    1
 -2       874       953       954      3722      3726      3724
 -1      1816    8    0    1
 -2       876       875       955      3469      3727      3728
 -1      1817    8    0    1
 -2       875       954       955      3725      3729      3727
 -1      1818    8    0    1
 -2       877       876       956      3472      3730      3731
 -1      1819    8    0    1
 -2       876       955       956      3728      3732      3730
 -1      1820    8    0    1
 -2       878       877       957      3475      3733      3734
 -1      1821    8    0    1
 -2       877       956       957      3731      3735      3733
 -1      1822    8    0    1
 -2       879       878       958      3478      3736      3737
 -1      1823    8    0    1
 -2       878       957       958      3734      3738      3736
 -1      1824    8    0    1
 -2       880       879       959      3481      3739      3740
 -1      1825    8    0    1
 -2       879       958       959      3737      3741      3739
 -1      1826    8    0    1
 -2       881       880       960      3484      3742      3743
 -1      1827    8    0    1
 -2       880       959       960      3740      3744      3742
 -1      1828    8    0    1
 -2       882       881       961      3487      3745      3746
 -1      1829    8    0    1
 -2       881       960       961      3743      3747      3745
 -1      1830    8    0    1
 -2       883       882       962      3490      3748      3749
 -1      1831    8    0    1
 -2       882       961       962      3746      3750      3748
 -1      1832    8    0    1
 -2       884       883       963      3493      3751      3752
 -1      1833    8    0    1
 -2       883       962       963      3749      3753      3751
 -1      1834    8    0    1
 -2       885       884       964      3496      3754      3755
 -1      1835    8    0    1
 -2       884       963       964      3752      3756      3754
 -1      1836    8    0    1
 -2       886       885       965      3499      3757      3758
 -1      1837    8    0    1
 -2       885       964       965      3755      3759      3757
 -1      1838    8    0    1
 -2       887       886       966      3502      3760      3761
 -1      1839    8    0    1
 -2       886       965       966      3758      3762      3760
 -1      1840    8    0    1
 -2       888       887       967      3505      3763      3764
 -1      1841    8    0    1
 -2       887       966       967      3761      3765      3763
 -1      1842    8    0    1
 -2       889       888       968      3508      3766      3767
 -1      1843    8    0    1
 -2       888       967       968      3764      3768      3766
 -1      1844    8    0    1
 -2       890       889       969      3511      3769      3770
 -1      1845    8    0    1
 -2       889       968       969      3767      3771      3769
 -1      1846    8    0    1
 -2       891       890       970      3514      3772      3773
 -1      1847    8    0    1
 -2       890       969       970      3770      3774      3772
 -1      1848    8    0    1
 -2       849       920       971      3642      3775      3776
 -1      1849    8    0    1
 -2       930       852       856      3639      3397      3777
 -1      1850    8    0    1
 -2       854       867       920      3627      3778      3657
 -1      1851    8    0    1
 -2       896       897       972      3533      3779      3780
 -1      1852    8    0    1
 -2       893       896       973      3530      3781      3782
 -1      1853    8    0    1
 -2       896       972       973      3780      3783      3781
 -1      1854    8    0    1
 -2       844       931       925      3645      3784      3617
 -1      1855    8    0    1
 -2       897       898       974      3536      3785      3786
 -1      1856    8    0    1
 -2       897       974       972      3786      3787      3779
 -1      1857    8    0    1
 -2       898       899       975      3539      3788      3789
 -1      1858    8    0    1
 -2       898       975       974      3789      3790      3785
 -1      1859    8    0    1
 -2       899       900       976      3542      3791      3792
 -1      1860    8    0    1
 -2       899       976       975      3792      3793      3788
 -1      1861    8    0    1
 -2       900       901       977      3545      3794      3795
 -1      1862    8    0    1
 -2       900       977       976      3795      3796      3791
 -1      1863    8    0    1
 -2       901       902       978      3548      3797      3798
 -1      1864    8    0    1
 -2       901       978       977      3798      3799      3794
 -1      1865    8    0    1
 -2       902       903       979      3551      3800      3801
 -1      1866    8    0    1
 -2       902       979       978      3801      3802      3797
 -1      1867    8    0    1
 -2       903       904       980      3554      3803      3804
 -1      1868    8    0    1
 -2       903       980       979      3804      3805      3800
 -1      1869    8    0    1
 -2       904       905       981      3557      3806      3807
 -1      1870    8    0    1
 -2       904       981       980      3807      3808      3803
 -1      1871    8    0    1
 -2       905       906       982      3560      3809      3810
 -1      1872    8    0    1
 -2       905       982       981      3810      3811      3806
 -1      1873    8    0    1
 -2       906       907       983      3563      3812      3813
 -1      1874    8    0    1
 -2       906       983       982      3813      3814      3809
 -1      1875    8    0    1
 -2       907       908       984      3566      3815      3816
 -1      1876    8    0    1
 -2       907       984       983      3816      3817      3812
 -1      1877    8    0    1
 -2       908       909       985      3569      3818      3819
 -1      1878    8    0    1
 -2       908       985       984      3819      3820      3815
 -1      1879    8    0    1
 -2       909       910       986      3572      3821      3822
 -1      1880    8    0    1
 -2       909       986       985      3822      3823      3818
 -1      1881    8    0    1
 -2       910       911       987      3575      3824      3825
 -1      1882    8    0    1
 -2       910       987       986      3825      3826      3821
 -1      1883    8    0    1
 -2       911       912       988      3578      3827      3828
 -1      1884    8    0    1
 -2       911       988       987      3828      3829      3824
 -1      1885    8    0    1
 -2       912       913       934      3581      3659      3830
 -1      1886    8    0    1
 -2       870       922       950      3693      3831      3713
 -1      1887    8    0    1
 -2       764       743       765      3593      3711      3356
 -1      1888    8    0    1
 -2       868       921       989      3628      3832      3833
 -1      1889    8    0    1
 -2       916       895       990      3590      3834      3835
 -1      1890    8    0    1
 -2       923       868       937      3620      3836      3669
 -1      1891    8    0    1
 -2       860       918       991      3599      3837      3838
 -1      1892    8    0    1
 -2       945       860       991      3697      3838      3839
 -1      1893    8    0    1
 -2       918       944       991      3695      3840      3837
 -1      1894    8    0    1
 -2       856       936       930      3665      3841      3777
 -1      1895    8    0    1
 -2       841       935       992      3661      3842      3843
 -1      1896    8    0    1
 -2       841       992       917      3843      3844      3662
 -1      1897    8    0    1
 -2       855       917       993      3596      3845      3846
 -1      1898    8    0    1
 -2       942       855       993      3685      3846      3847
 -1      1899    8    0    1
 -2       917       992       993      3844      3848      3845
 -1      1900    8    0    1
 -2       931       916       925      3656      3849      3784
 -1      1901    8    0    1
 -2       845       926       994      3622      3850      3851
 -1      1902    8    0    1
 -2       895       894       995      3527      3852      3853
 -1      1903    8    0    1
 -2       895       995       990      3853      3854      3834
 -1      1904    8    0    1
 -2       894       893       996      3522      3855      3856
 -1      1905    8    0    1
 -2       893       973       996      3782      3857      3855
 -1      1906    8    0    1
 -2       930       936       997      3841      3858      3859
 -1      1907    8    0    1
 -2       930       997       938      3859      3860      3672
 -1      1908    8    0    1
 -2       926       849       971      3629      3776      3861
 -1      1909    8    0    1
 -2       862       919       998      3684      3862      3863
 -1      1910    8    0    1
 -2       922       862       950      3616      3864      3831
 -1      1911    8    0    1
 -2       851       853       999      3383      3865      3866
 -1      1912    8    0    1
 -2       853       933       999      3654      3867      3865
 -1      1913    8    0    1
 -2       858       848      1000      3638      3868      3869
 -1      1914    8    0    1
 -2       939       858      1000      3673      3869      3870
 -1      1915    8    0    1
 -2       848       928      1000      3632      3871      3868
 -1      1916    8    0    1
 -2       934       851       999      3663      3866      3872
 -1      1917    8    0    1
 -2       921       845      1001      3683      3873      3874
 -1      1918    8    0    1
 -2       989       921      1001      3832      3874      3875
 -1      1919    8    0    1
 -2       845       994      1001      3851      3876      3873
 -1      1920    8    0    1
 -2       912       934       988      3830      3877      3827
 -1      1921    8    0    1
 -2       934       999      1002      3872      3878      3879
 -1      1922    8    0    1
 -2       934      1002       988      3879      3880      3877
 -1      1923    8    0    1
 -2       924       861      1003      3613      3881      3882
 -1      1924    8    0    1
 -2       861       925      1003      3619      3883      3881
 -1      1925    8    0    1
 -2       928       892      1004      3630      3884      3885
 -1      1926    8    0    1
 -2       935       943      1005      3691      3886      3887
 -1      1927    8    0    1
 -2       862       998       950      3863      3888      3864
 -1      1928    8    0    1
 -2       971       920       949      3775      3889      3890
 -1      1929    8    0    1
 -2       926       971      1006      3861      3891      3892
 -1      1930    8    0    1
 -2       925       916       990      3849      3835      3893
 -1      1931    8    0    1
 -2       919       941      1007      3681      3894      3895
 -1      1932    8    0    1
 -2       919      1007       998      3895      3896      3862
 -1      1933    8    0    1
 -2       915       932      1008      3651      3897      3898
 -1      1934    8    0    1
 -2       941       857      1009      3682      3899      3900
 -1      1935    8    0    1
 -2       857       924      1009      3615      3901      3899
 -1      1936    8    0    1
 -2       894       996       995      3856      3902      3852
 -1      1937    8    0    1
 -2       933       915      1010      3655      3903      3904
 -1      1938    8    0    1
 -2       915      1008      1010      3898      3905      3903
 -1      1939    8    0    1
 -2       940       891       970      3712      3773      3906
 -1      1940    8    0    1
 -2       937       868       989      3836      3833      3907
 -1      1941    8    0    1
 -2       992       935      1011      3842      3908      3909
 -1      1942    8    0    1
 -2       935      1005      1011      3887      3910      3908
 -1      1943    8    0    1
 -2       892       937       989      3668      3907      3911
 -1      1944    8    0    1
 -2       920       867       949      3778      3709      3889
 -1      1945    8    0    1
 -2       936       939      1012      3675      3912      3913
 -1      1946    8    0    1
 -2       936      1012       997      3913      3914      3858
 -1      1947    8    0    1
 -2       994       926      1013      3850      3915      3916
 -1      1948    8    0    1
 -2       926      1006      1013      3892      3917      3915
 -1      1949    8    0    1
 -2      1004       892       989      3884      3911      3918
 -1      1950    8    0    1
 -2       972       974      1014      3787      3919      3920
 -1      1951    8    0    1
 -2       944       942      1015      3696      3921      3922
 -1      1952    8    0    1
 -2       942       993      1015      3847      3923      3921
 -1      1953    8    0    1
 -2       947       946      1016      3704      3924      3925
 -1      1954    8    0    1
 -2       951       950      1017      3717      3926      3927
 -1      1955    8    0    1
 -2       950       998      1017      3888      3928      3926
 -1      1956    8    0    1
 -2       952       951      1018      3720      3929      3930
 -1      1957    8    0    1
 -2       951      1017      1018      3927      3931      3929
 -1      1958    8    0    1
 -2       953       952      1019      3723      3932      3933
 -1      1959    8    0    1
 -2       952      1018      1019      3930      3934      3932
 -1      1960    8    0    1
 -2       954       953      1020      3726      3935      3936
 -1      1961    8    0    1
 -2       953      1019      1020      3933      3937      3935
 -1      1962    8    0    1
 -2       955       954      1021      3729      3938      3939
 -1      1963    8    0    1
 -2       954      1020      1021      3936      3940      3938
 -1      1964    8    0    1
 -2       956       955      1022      3732      3941      3942
 -1      1965    8    0    1
 -2       955      1021      1022      3939      3943      3941
 -1      1966    8    0    1
 -2       957       956      1023      3735      3944      3945
 -1      1967    8    0    1
 -2       956      1022      1023      3942      3946      3944
 -1      1968    8    0    1
 -2       958       957      1024      3738      3947      3948
 -1      1969    8    0    1
 -2       957      1023      1024      3945      3949      3947
 -1      1970    8    0    1
 -2       959       958      1025      3741      3950      3951
 -1      1971    8    0    1
 -2       958      1024      1025      3948      3952      3950
 -1      1972    8    0    1
 -2       960       959      1026      3744      3953      3954
 -1      1973    8    0    1
 -2       959      1025      1026      3951      3955      3953
 -1      1974    8    0    1
 -2       961       960      1027      3747      3956      3957
 -1      1975    8    0    1
 -2       960      1026      1027      3954      3958      3956
 -1      1976    8    0    1
 -2       962       961      1028      3750      3959      3960
 -1      1977    8    0    1
 -2       961      1027      1028      3957      3961      3959
 -1      1978    8    0    1
 -2       963       962      1029      3753      3962      3963
 -1      1979    8    0    1
 -2       962      1028      1029      3960      3964      3962
 -1      1980    8    0    1
 -2       964       963      1030      3756      3965      3966
 -1      1981    8    0    1
 -2       963      1029      1030      3963      3967      3965
 -1      1982    8    0    1
 -2       965       964      1031      3759      3968      3969
 -1      1983    8    0    1
 -2       964      1030      1031      3966      3970      3968
 -1      1984    8    0    1
 -2       966       965      1032      3762      3971      3972
 -1      1985    8    0    1
 -2       965      1031      1032      3969      3973      3971
 -1      1986    8    0    1
 -2       967       966      1033      3765      3974      3975
 -1      1987    8    0    1
 -2       966      1032      1033      3972      3976      3974
 -1      1988    8    0    1
 -2       968       967      1034      3768      3977      3978
 -1      1989    8    0    1
 -2       967      1033      1034      3975      3979      3977
 -1      1990    8    0    1
 -2       969       968      1035      3771      3980      3981
 -1      1991    8    0    1
 -2       968      1034      1035      3978      3982      3980
 -1      1992    8    0    1
 -2       970       969      1035      3774      3981      3983
 -1      1993    8    0    1
 -2      1004       989      1001      3918      3875      3984
 -1      1994    8    0    1
 -2       925       990      1003      3893      3985      3883
 -1      1995    8    0    1
 -2       973       972      1036      3783      3986      3987
 -1      1996    8    0    1
 -2       972      1014      1036      3920      3988      3986
 -1      1997    8    0    1
 -2       974       975      1037      3790      3989      3990
 -1      1998    8    0    1
 -2       974      1037      1014      3990      3991      3919
 -1      1999    8    0    1
 -2       938       997      1038      3860      3992      3993
 -1      2000    8    0    1
 -2       938      1038       943      3993      3994      3692
 -1      2001    8    0    1
 -2       975       976      1039      3793      3995      3996
 -1      2002    8    0    1
 -2       975      1039      1037      3996      3997      3989
 -1      2003    8    0    1
 -2       976       977      1040      3796      3998      3999
 -1      2004    8    0    1
 -2       976      1040      1039      3999      4000      3995
 -1      2005    8    0    1
 -2       977       978      1041      3799      4001      4002
 -1      2006    8    0    1
 -2       977      1041      1040      4002      4003      3998
 -1      2007    8    0    1
 -2       978       979      1042      3802      4004      4005
 -1      2008    8    0    1
 -2       978      1042      1041      4005      4006      4001
 -1      2009    8    0    1
 -2       979       980      1043      3805      4007      4008
 -1      2010    8    0    1
 -2       979      1043      1042      4008      4009      4004
 -1      2011    8    0    1
 -2       980       981      1044      3808      4010      4011
 -1      2012    8    0    1
 -2       980      1044      1043      4011      4012      4007
 -1      2013    8    0    1
 -2       981       982      1045      3811      4013      4014
 -1      2014    8    0    1
 -2       981      1045      1044      4014      4015      4010
 -1      2015    8    0    1
 -2       982       983      1046      3814      4016      4017
 -1      2016    8    0    1
 -2       982      1046      1045      4017      4018      4013
 -1      2017    8    0    1
 -2       983       984      1047      3817      4019      4020
 -1      2018    8    0    1
 -2       983      1047      1046      4020      4021      4016
 -1      2019    8    0    1
 -2       984       985      1048      3820      4022      4023
 -1      2020    8    0    1
 -2       984      1048      1047      4023      4024      4019
 -1      2021    8    0    1
 -2       985       986      1049      3823      4025      4026
 -1      2022    8    0    1
 -2       985      1049      1048      4026      4027      4022
 -1      2023    8    0    1
 -2       986       987      1050      3826      4028      4029
 -1      2024    8    0    1
 -2       986      1050      1049      4029      4030      4025
 -1      2025    8    0    1
 -2       987       988      1051      3829      4031      4032
 -1      2026    8    0    1
 -2      1050       987      1051      4028      4032      4033
 -1      2027    8    0    1
 -2       988      1002      1051      3880      4034      4031
 -1      2028    8    0    1
 -2       995       996      1052      3902      4035      4036
 -1      2029    8    0    1
 -2       932       940       970      3678      3906      4037
 -1      2030    8    0    1
 -2       946       945      1053      3701      4038      4039
 -1      2031    8    0    1
 -2       946      1053      1016      4039      4040      3924
 -1      2032    8    0    1
 -2       990       995      1054      3854      4041      4042
 -1      2033    8    0    1
 -2       995      1052      1054      4036      4043      4041
 -1      2034    8    0    1
 -2       996       973      1055      3857      4044      4045
 -1      2035    8    0    1
 -2       996      1055      1052      4045      4046      4035
 -1      2036    8    0    1
 -2       928      1004      1056      3885      4047      4048
 -1      2037    8    0    1
 -2       928      1056      1000      4048      4049      3871
 -1      2038    8    0    1
 -2       971       949      1057      3890      4050      4051
 -1      2039    8    0    1
 -2      1006       971      1057      3891      4051      4052
 -1      2040    8    0    1
 -2       949       948      1057      3710      4053      4050
 -1      2041    8    0    1
 -2       999       933      1058      3867      4054      4055
 -1      2042    8    0    1
 -2      1002       999      1058      3878      4055      4056
 -1      2043    8    0    1
 -2       933      1010      1058      3904      4057      4054
 -1      2044    8    0    1
 -2       932       970      1008      4037      4058      3897
 -1      2045    8    0    1
 -2      1008       970      1035      4058      3983      4059
 -1      2046    8    0    1
 -2       944      1015      1059      3922      4060      4061
 -1      2047    8    0    1
 -2       944      1059       991      4061      4062      3840
 -1      2048    8    0    1
 -2       990      1054      1003      4042      4063      3985
 -1      2049    8    0    1
 -2       973      1036      1055      3987      4064      4044
 -1      2050    8    0    1
 -2      1005       943      1038      3886      3994      4065
 -1      2051    8    0    1
 -2      1004      1001      1060      3984      4066      4067
 -1      2052    8    0    1
 -2       948       947      1061      3707      4068      4069
 -1      2053    8    0    1
 -2       997      1012      1062      3914      4070      4071
 -1      2054    8    0    1
 -2       997      1062      1038      4071      4072      3992
 -1      2055    8    0    1
 -2      1007       941      1063      3894      4073      4074
 -1      2056    8    0    1
 -2       941      1009      1063      3900      4075      4073
 -1      2057    8    0    1
 -2      1008      1035      1064      4059      4076      4077
 -1      2058    8    0    1
 -2      1008      1064      1010      4077      4078      3905
 -1      2059    8    0    1
 -2       924      1003      1065      3882      4079      4080
 -1      2060    8    0    1
 -2      1009       924      1065      3901      4080      4081
 -1      2061    8    0    1
 -2      1003      1054      1065      4063      4082      4079
 -1      2062    8    0    1
 -2       998      1007      1017      3896      4083      3928
 -1      2063    8    0    1
 -2      1011      1005      1066      3910      4084      4085
 -1      2064    8    0    1
 -2       993       992      1015      3848      4086      3923
 -1      2065    8    0    1
 -2       947      1016      1061      3925      4087      4068
 -1      2066    8    0    1
 -2       945       991      1059      3839      4062      4088
 -1      2067    8    0    1
 -2      1053       945      1059      4038      4088      4089
 -1      2068    8    0    1
 -2       939      1000      1067      3870      4090      4091
 -1      2069    8    0    1
 -2      1012       939      1067      3912      4091      4092
 -1      2070    8    0    1
 -2      1000      1056      1067      4049      4093      4090
 -1      2071    8    0    1
 -2      1013      1006      1061      3917      4094      4095
 -1      2072    8    0    1
 -2      1005      1038      1068      4065      4096      4097
 -1      2073    8    0    1
 -2      1066      1005      1068      4084      4097      4098
 -1      2074    8    0    1
 -2      1038      1062      1068      4072      4099      4096
 -1      2075    8    0    1
 -2      1056      1004      1060      4047      4067      4100
 -1      2076    8    0    1
 -2       994      1013      1069      3916      4101      4102
 -1      2077    8    0    1
 -2      1001       994      1060      3876      4103      4066
 -1      2078    8    0    1
 -2       992      1011      1015      3909      4104      4086
 -1      2079    8    0    1
 -2       994      1069      1060      4102      4105      4103
 -1      2080    8    0    1
 -2      1015      1011      1070      4104      4106      4107
 -1      2081    8    0    1
 -2      1059      1015      1070      4060      4107      4108
 -1      2082    8    0    1
 -2      1011      1066      1070      4085      4109      4106
 -1      2083    8    0    1
 -2       948      1061      1057      4069      4110      4053
 -1      2084    8    0    1
 -2      1056      1060      1071      4100      4111      4112
 -1      2085    8    0    1
 -2      1067      1056      1071      4093      4112      4113
 -1      2086    8    0    1
 -2      1060      1069      1071      4105      4114      4111
 -1      2087    8    0    1
 -2      1014      1037      1072      3991      4115      4116
 -1      2088    8    0    1
 -2      1018      1017      1073      3931      4117      4118
 -1      2089    8    0    1
 -2      1017      1007      1073      4083      4119      4117
 -1      2090    8    0    1
 -2      1053      1059      1070      4089      4108      4120
 -1      2091    8    0    1
 -2      1019      1018      1074      3934      4121      4122
 -1      2092    8    0    1
 -2      1020      1019      1075      3937      4123      4124
 -1      2093    8    0    1
 -2      1019      1074      1075      4122      4125      4123
 -1      2094    8    0    1
 -2      1021      1020      1076      3940      4126      4127
 -1      2095    8    0    1
 -2      1020      1075      1076      4124      4128      4126
 -1      2096    8    0    1
 -2      1022      1021      1077      3943      4129      4130
 -1      2097    8    0    1
 -2      1021      1076      1077      4127      4131      4129
 -1      2098    8    0    1
 -2      1023      1022      1078      3946      4132      4133
 -1      2099    8    0    1
 -2      1022      1077      1078      4130      4134      4132
 -1      2100    8    0    1
 -2      1024      1023      1079      3949      4135      4136
 -1      2101    8    0    1
 -2      1023      1078      1079      4133      4137      4135
 -1      2102    8    0    1
 -2      1025      1024      1080      3952      4138      4139
 -1      2103    8    0    1
 -2      1024      1079      1080      4136      4140      4138
 -1      2104    8    0    1
 -2      1026      1025      1081      3955      4141      4142
 -1      2105    8    0    1
 -2      1025      1080      1081      4139      4143      4141
 -1      2106    8    0    1
 -2      1027      1026      1082      3958      4144      4145
 -1      2107    8    0    1
 -2      1026      1081      1082      4142      4146      4144
 -1      2108    8    0    1
 -2      1028      1027      1083      3961      4147      4148
 -1      2109    8    0    1
 -2      1027      1082      1083      4145      4149      4147
 -1      2110    8    0    1
 -2      1029      1028      1084      3964      4150      4151
 -1      2111    8    0    1
 -2      1028      1083      1084      4148      4152      4150
 -1      2112    8    0    1
 -2      1030      1029      1085      3967      4153      4154
 -1      2113    8    0    1
 -2      1029      1084      1085      4151      4155      4153
 -1      2114    8    0    1
 -2      1031      1030      1086      3970      4156      4157
 -1      2115    8    0    1
 -2      1030      1085      1086      4154      4158      4156
 -1      2116    8    0    1
 -2      1032      1031      1087      3973      4159      4160
 -1      2117    8    0    1
 -2      1031      1086      1087      4157      4161      4159
 -1      2118    8    0    1
 -2      1033      1032      1088      3976      4162      4163
 -1      2119    8    0    1
 -2      1032      1087      1088      4160      4164      4162
 -1      2120    8    0    1
 -2      1034      1033      1089      3979      4165      4166
 -1      2121    8    0    1
 -2      1033      1088      1089      4163      4167      4165
 -1      2122    8    0    1
 -2      1035      1034      1090      3982      4168      4169
 -1      2123    8    0    1
 -2      1064      1035      1090      4076      4169      4170
 -1      2124    8    0    1
 -2      1034      1089      1090      4166      4171      4168
 -1      2125    8    0    1
 -2      1036      1014      1091      3988      4172      4173
 -1      2126    8    0    1
 -2      1014      1072      1091      4116      4174      4172
 -1      2127    8    0    1
 -2      1039      1040      1092      4000      4175      4176
 -1      2128    8    0    1
 -2      1040      1041      1093      4003      4177      4178
 -1      2129    8    0    1
 -2      1040      1093      1092      4178      4179      4175
 -1      2130    8    0    1
 -2      1041      1042      1094      4006      4180      4181
 -1      2131    8    0    1
 -2      1041      1094      1093      4181      4182      4177
 -1      2132    8    0    1
 -2      1042      1043      1095      4009      4183      4184
 -1      2133    8    0    1
 -2      1042      1095      1094      4184      4185      4180
 -1      2134    8    0    1
 -2      1043      1044      1096      4012      4186      4187
 -1      2135    8    0    1
 -2      1043      1096      1095      4187      4188      4183
 -1      2136    8    0    1
 -2      1044      1045      1097      4015      4189      4190
 -1      2137    8    0    1
 -2      1044      1097      1096      4190      4191      4186
 -1      2138    8    0    1
 -2      1045      1046      1098      4018      4192      4193
 -1      2139    8    0    1
 -2      1045      1098      1097      4193      4194      4189
 -1      2140    8    0    1
 -2      1046      1047      1099      4021      4195      4196
 -1      2141    8    0    1
 -2      1046      1099      1098      4196      4197      4192
 -1      2142    8    0    1
 -2      1047      1048      1100      4024      4198      4199
 -1      2143    8    0    1
 -2      1047      1100      1099      4199      4200      4195
 -1      2144    8    0    1
 -2      1048      1049      1101      4027      4201      4202
 -1      2145    8    0    1
 -2      1048      1101      1100      4202      4203      4198
 -1      2146    8    0    1
 -2      1049      1050      1102      4030      4204      4205
 -1      2147    8    0    1
 -2      1049      1102      1101      4205      4206      4201
 -1      2148    8    0    1
 -2      1013      1061      1103      4095      4207      4208
 -1      2149    8    0    1
 -2      1061      1016      1103      4087      4209      4207
 -1      2150    8    0    1
 -2      1052      1055      1104      4046      4210      4211
 -1      2151    8    0    1
 -2      1057      1061      1006      4110      4094      4052
 -1      2152    8    0    1
 -2      1054      1052      1105      4043      4212      4213
 -1      2153    8    0    1
 -2      1052      1104      1105      4211      4214      4212
 -1      2154    8    0    1
 -2      1069      1013      1103      4101      4208      4215
 -1      2155    8    0    1
 -2      1016      1053      1106      4040      4216      4217
 -1      2156    8    0    1
 -2      1103      1016      1106      4209      4217      4218
 -1      2157    8    0    1
 -2      1053      1070      1106      4120      4219      4216
 -1      2158    8    0    1
 -2      1055      1036      1107      4064      4220      4221
 -1      2159    8    0    1
 -2      1036      1091      1107      4173      4222      4220
 -1      2160    8    0    1
 -2      1037      1039      1108      3997      4223      4224
 -1      2161    8    0    1
 -2      1072      1037      1108      4115      4224      4225
 -1      2162    8    0    1
 -2      1039      1092      1108      4176      4226      4223
 -1      2163    8    0    1
 -2      1012      1067      1109      4092      4227      4228
 -1      2164    8    0    1
 -2      1067      1071      1109      4113      4229      4227
 -1      2165    8    0    1
 -2      1070      1066      1106      4109      4230      4219
 -1      2166    8    0    1
 -2      1071      1069      1110      4114      4231      4232
 -1      2167    8    0    1
 -2      1109      1071      1110      4229      4232      4233
 -1      2168    8    0    1
 -2      1069      1103      1110      4215      4234      4231
 -1      2169    8    0    1
 -2      1073      1007      1063      4119      4074      4235
 -1      2170    8    0    1
 -2      1002      1058      1111      4056      4236      4237
 -1      2171    8    0    1
 -2      1002      1111      1051      4237      4238      4034
 -1      2172    8    0    1
 -2      1018      1073      1074      4118      4239      4121
 -1      2173    8    0    1
 -2      1063      1009      1112      4075      4240      4241
 -1      2174    8    0    1
 -2      1009      1065      1112      4081      4242      4240
 -1      2175    8    0    1
 -2      1065      1054      1105      4082      4213      4243
 -1      2176    8    0    1
 -2      1102      1050      1113      4204      4244      4245
 -1      2177    8    0    1
 -2      1050      1051      1113      4033      4246      4244
 -1      2178    8    0    1
 -2      1104      1055      1107      4210      4221      4247
 -1      2179    8    0    1
 -2      1012      1109      1062      4228      4248      4070
 -1      2180    8    0    1
 -2      1075      1074      1114      4125      4249      4250
 -1      2181    8    0    1
 -2      1076      1075      1107      4128      4251      4252
 -1      2182    8    0    1
 -2      1077      1076      1091      4131      4253      4254
 -1      2183    8    0    1
 -2      1078      1077      1072      4134      4255      4256
 -1      2184    8    0    1
 -2      1079      1078      1108      4137      4257      4258
 -1      2185    8    0    1
 -2      1080      1079      1092      4140      4259      4260
 -1      2186    8    0    1
 -2      1081      1080      1093      4143      4261      4262
 -1      2187    8    0    1
 -2      1082      1081      1094      4146      4263      4264
 -1      2188    8    0    1
 -2      1083      1082      1095      4149      4265      4266
 -1      2189    8    0    1
 -2      1084      1083      1096      4152      4267      4268
 -1      2190    8    0    1
 -2      1085      1084      1097      4155      4269      4270
 -1      2191    8    0    1
 -2      1086      1085      1098      4158      4271      4272
 -1      2192    8    0    1
 -2      1087      1086      1099      4161      4273      4274
 -1      2193    8    0    1
 -2      1088      1087      1100      4164      4275      4276
 -1      2194    8    0    1
 -2      1089      1088      1101      4167      4277      4278
 -1      2195    8    0    1
 -2      1094      1095      1082      4185      4265      4264
 -1      2196    8    0    1
 -2      1093      1094      1081      4182      4263      4262
 -1      2197    8    0    1
 -2      1091      1072      1077      4174      4255      4254
 -1      2198    8    0    1
 -2      1092      1093      1080      4179      4261      4260
 -1      2199    8    0    1
 -2      1095      1096      1083      4188      4267      4266
 -1      2200    8    0    1
 -2      1096      1097      1084      4191      4269      4268
 -1      2201    8    0    1
 -2      1097      1098      1085      4194      4271      4270
 -1      2202    8    0    1
 -2      1098      1099      1086      4197      4273      4272
 -1      2203    8    0    1
 -2      1099      1100      1087      4200      4275      4274
 -1      2204    8    0    1
 -2      1100      1101      1088      4203      4277      4276
 -1      2205    8    0    1
 -2      1101      1102      1089      4206      4279      4278
 -1      2206    8    0    1
 -2      1103      1106      1110      4218      4280      4234
 -1      2207    8    0    1
 -2      1091      1076      1107      4253      4252      4222
 -1      2208    8    0    1
 -2      1074      1073      1115      4239      4281      4282
 -1      2209    8    0    1
 -2      1114      1074      1115      4249      4282      4283
 -1      2210    8    0    1
 -2      1073      1063      1115      4235      4284      4281
 -1      2211    8    0    1
 -2      1010      1064      1111      4078      4285      4286
 -1      2212    8    0    1
 -2      1065      1105      1112      4243      4287      4242
 -1      2213    8    0    1
 -2      1062      1109      1116      4248      4288      4289
 -1      2214    8    0    1
 -2      1068      1062      1116      4099      4289      4290
 -1      2215    8    0    1
 -2      1109      1110      1116      4233      4291      4288
 -1      2216    8    0    1
 -2      1092      1079      1108      4259      4258      4226
 -1      2217    8    0    1
 -2      1066      1068      1116      4098      4290      4292
 -1      2218    8    0    1
 -2      1078      1072      1108      4256      4225      4257
 -1      2219    8    0    1
 -2      1051      1111      1113      4238      4293      4246
 -1      2220    8    0    1
 -2      1106      1066      1116      4230      4292      4294
 -1      2221    8    0    1
 -2      1106      1116      1110      4294      4291      4280
 -1      2222    8    0    1
 -2      1113      1111      1064      4293      4285      4295
 -1      2223    8    0    1
 -2      1115      1063      1112      4284      4241      4296
 -1      2224    8    0    1
 -2      1089      1102      1117      4279      4297      4298
 -1      2225    8    0    1
 -2      1104      1107      1114      4247      4299      4300
 -1      2226    8    0    1
 -2      1107      1075      1114      4251      4250      4299
 -1      2227    8    0    1
 -2      1112      1105      1115      4287      4301      4296
 -1      2228    8    0    1
 -2      1010      1111      1058      4286      4236      4057
 -1      2229    8    0    1
 -2      1105      1104      1115      4214      4302      4301
 -1      2230    8    0    1
 -2      1115      1104      1114      4302      4300      4283
 -1      2231    8    0    1
 -2      1117      1102      1113      4297      4245      4303
 -1      2232    8    0    1
 -2      1089      1117      1090      4298      4304      4171
 -1      2233    8    0    1
 -2      1064      1090      1117      4170      4304      4305
 -1      2234    8    0    1
 -2      1113      1064      1117      4295      4305      4303
 -3
    1PSTEP                         1           1           1          
  100CL  101 1.000000000        4305                     0    1           1
 -4  DISP        4    1
 -5  D1          1    2    1    0
 -5  D2          1    2    2    0
 -5  D3          1    2    3    0
 -5  ALL         1    2    0    0    1ALL
 -1         1 6.84359E-03-4.08533E-04-3.09143E-14
 -1         2 7.66967E-03 2.38269E-04-3.31995E-14
 -1         3 1.55032E-02 1.87684E-03-1.65203E-13
 -1         4 1.49053E-02 4.45740E-04-1.70586E-13
 -1         5 0.00000E+00 0.00000E+00 0.00000E+00
 -1         6 0.00000E+00 0.00000E+00 0.00000E+00
 -1         7 0.00000E+00 0.00000E+00 0.00000E+00
 -1         8 0.00000E+00 0.00000E+00 0.00000E+00
 -1         9 0.00000E+00 0.00000E+00 0.00000E+00
 -1        10 0.00000E+00 0.00000E+00 0.00000E+00
 -1        11 0.00000E+00 0.00000E+00 0.00000E+00
 -1        12 0.00000E+00 0.00000E+00 0.00000E+00
 -1        13 0.00000E+00 0.00000E+00 0.00000E+00
 -1        14 0.00000E+00 0.00000E+00 0.00000E+00
 -1        15 0.00000E+00 0.00000E+00 0.00000E+00
 -1        16 0.00000E+00 0.00000E+00 0.00000E+00
 -1        17 0.00000E+00 0.00000E+00 0.00000E+00
 -1        18 0.00000E+00 0.00000E+00 0.00000E+00
 -1        19 0.00000E+00 0.00000E+00 0.00000E+00
 -1        20 0.00000E+00 0.00000E+00 0.00000E+00
 -1        21 0.00000E+00 0.00000E+00 0.00000E+00
 -1        22 0.00000E+00 0.00000E+00 0.00000E+00
 -1        23 4.09534E-04-2.51716E-04 4.27582E-17
 -1        24 7.05510E-04-3.81164E-04-1.29464E-16
 -1        25 9.84031E-04-4.67937E-04-5.08376E-16
 -1        26 1.26098E-03-5.27203E-04-1.08980E-15
 -1        27 1.54137E-03-5.68804E-04-1.86730E-15
 -1        28 1.82799E-03-5.99116E-04-2.83781E-15
 -1        29 2.12256E-03-6.23287E-04-3.99831E-15
 -1        30 2.42606E-03-6.45982E-04-5.34251E-15
 -1        31 2.73863E-03-6.71680E-04-6.86718E-15
 -1        32 3.05933E-03-7.04633E-04-8.56994E-15
 -1        33 3.38568E-03-7.48447E-04-1.04446E-14
 -1        34 3.71339E-03-8.05186E-04-1.24871E-14
 -1        35 4.03639E-03-8.74037E-04-1.46965E-14
 -1        36 4.34770E-03-9.49865E-04-1.70699E-14
 -1        37 4.64143E-03-1.02249E-03-1.96060E-14
 -1        38 4.91554E-03-1.07787E-03-2.23058E-14
 -1        39 5.17392E-03-1.10174E-03-2.51702E-14
 -1        40 5.42619E-03-1.08484E-03-2.82021E-14
 -1        41 5.68451E-03-1.02684E-03-3.13878E-14
 -1        42 5.95889E-03-9.36601E-04-3.47249E-14
 -1        43 6.25379E-03-8.28349E-04-3.82062E-14
 -1        44 6.56769E-03-7.16525E-04-4.18221E-14
 -1        45 6.89508E-03-6.11965E-04-4.55602E-14
 -1        46 7.22923E-03-5.20596E-04-4.94144E-14
 -1        47 7.56420E-03-4.44104E-04-5.33764E-14
 -1        48 7.89580E-03-3.81402E-04-5.74427E-14
 -1        49 8.22165E-03-3.30044E-04-6.16110E-14
 -1        50 8.54083E-03-2.87231E-04-6.58785E-14
 -1        51 8.85337E-03-2.50371E-04-7.02331E-14
 -1        52 9.15988E-03-2.17327E-04-7.46585E-14
 -1        53 9.46122E-03-1.86468E-04-7.91455E-14
 -1        54 9.75833E-03-1.56624E-04-8.36766E-14
 -1        55 1.00521E-02-1.27007E-04-8.82539E-14
 -1        56 1.03432E-02-9.71162E-05-9.28737E-14
 -1        57 1.06325E-02-6.66693E-05-9.75356E-14
 -1        58 1.09203E-02-3.55309E-05-1.02228E-13
 -1        59 1.12072E-02-3.66572E-06-1.06948E-13
 -1        60 1.14934E-02 2.88994E-05-1.11684E-13
 -1        61 1.17791E-02 6.21014E-05-1.16435E-13
 -1        62 1.20646E-02 9.58599E-05-1.21222E-13
 -1        63 1.23500E-02 1.30088E-04-1.26052E-13
 -1        64 1.26353E-02 1.64702E-04-1.30914E-13
 -1        65 1.29206E-02 1.99622E-04-1.35813E-13
 -1        66 1.32060E-02 2.34776E-04-1.40750E-13
 -1        67 1.34914E-02 2.70100E-04-1.45709E-13
 -1        68 1.37769E-02 3.05536E-04-1.50690E-13
 -1        69 1.40625E-02 3.41035E-04-1.55703E-13
 -1        70 1.43481E-02 3.76550E-04-1.60728E-13
 -1        71 1.46338E-02 4.12047E-04-1.65778E-13
 -1        72 4.11455E-04 2.51763E-04 8.70547E-17
 -1        73 7.05160E-04 3.82306E-04-6.96600E-18
 -1        74 9.84803E-04 4.67072E-04-2.78562E-16
 -1        75 1.26294E-03 5.24834E-04-7.29390E-16
 -1        76 1.54518E-03 5.64620E-04-1.35904E-15
 -1        77 1.83498E-03 5.92742E-04-2.16452E-15
 -1        78 2.13498E-03 6.14512E-04-3.14458E-15
 -1        79 2.44739E-03 6.35138E-04-4.29581E-15
 -1        80 2.77402E-03 6.60289E-04-5.61762E-15
 -1        81 3.11580E-03 6.96406E-04-7.10677E-15
 -1        82 3.47197E-03 7.50596E-04-8.76252E-15
 -1        83 3.83876E-03 8.29684E-04-1.05822E-14
 -1        84 4.20810E-03 9.37861E-04-1.25593E-14
 -1        85 4.56737E-03 1.07264E-03-1.46988E-14
 -1        86 4.90199E-03 1.22028E-03-1.70018E-14
 -1        87 5.20201E-03 1.35443E-03-1.94778E-14
 -1        88 5.47026E-03 1.44276E-03-2.21336E-14
 -1        89 5.72514E-03 1.46193E-03-2.49698E-14
 -1        90 5.99263E-03 1.41123E-03-2.79940E-14
 -1        91 6.29215E-03 1.31306E-03-3.11943E-14
 -1        92 6.62770E-03 1.19984E-03-3.45582E-14
 -1        93 6.99002E-03 1.09885E-03-3.80800E-14
 -1        94 7.36468E-03 1.02502E-03-4.17537E-14
 -1        95 7.73894E-03 9.81880E-04-4.55475E-14
 -1        96 8.10467E-03 9.66106E-04-4.94550E-14
 -1        97 8.45810E-03 9.71724E-04-5.34661E-14
 -1        98 8.79854E-03 9.92642E-04-5.75659E-14
 -1        99 9.12696E-03 1.02376E-03-6.17496E-14
 -1       100 9.44510E-03 1.06120E-03-6.60185E-14
 -1       101 9.75484E-03 1.10224E-03-7.03639E-14
 -1       102 1.00579E-02 1.14502E-03-7.47651E-14
 -1       103 1.03560E-02 1.18835E-03-7.92255E-14
 -1       104 1.06501E-02 1.23151E-03-8.37297E-14
 -1       105 1.09414E-02 1.27407E-03-8.82826E-14
 -1       106 1.12307E-02 1.31584E-03-9.29002E-14
 -1       107 1.15185E-02 1.35676E-03-9.75720E-14
 -1       108 1.18053E-02 1.39683E-03-1.02297E-13
 -1       109 1.20914E-02 1.43613E-03-1.07070E-13
 -1       110 1.23771E-02 1.47475E-03-1.11876E-13
 -1       111 1.26626E-02 1.51278E-03-1.16685E-13
 -1       112 1.29479E-02 1.55032E-03-1.21523E-13
 -1       113 1.32332E-02 1.58747E-03-1.26373E-13
 -1       114 1.35185E-02 1.62430E-03-1.31232E-13
 -1       115 1.38039E-02 1.66090E-03-1.36098E-13
 -1       116 1.40893E-02 1.69732E-03-1.40961E-13
 -1       117 1.43748E-02 1.73363E-03-1.45832E-13
 -1       118 1.46604E-02 1.76988E-03-1.50712E-13
 -1       119 1.49461E-02 1.80612E-03-1.55617E-13
 -1       120 1.52318E-02 1.84237E-03-1.60539E-13
 -1       121 1.54675E-02 1.79255E-03-1.65542E-13
 -1       122 1.54318E-02 1.70825E-03-1.65904E-13
 -1       123 1.53960E-02 1.62390E-03-1.66245E-13
 -1       124 1.53603E-02 1.53950E-03-1.66552E-13
 -1       125 1.53247E-02 1.45504E-03-1.66836E-13
 -1       126 1.52897E-02 1.37196E-03-1.67138E-13
 -1       127 1.52542E-02 1.28742E-03-1.67449E-13
 -1       128 1.52188E-02 1.20285E-03-1.67770E-13
 -1       129 1.51835E-02 1.11828E-03-1.68097E-13
 -1       130 1.51483E-02 1.03372E-03-1.68411E-13
 -1       131 1.51133E-02 9.49176E-04-1.68721E-13
 -1       132 1.50789E-02 8.66102E-04-1.69069E-13
 -1       133 1.50440E-02 7.81644E-04-1.69399E-13
 -1       134 1.50092E-02 6.97242E-04-1.69699E-13
 -1       135 1.49744E-02 6.12898E-04-1.70002E-13
 -1       136 1.49396E-02 5.28595E-04-1.70299E-13
 -1       137 7.63380E-03 4.14501E-04-3.28923E-14
 -1       138 7.48911E-03 5.90246E-04-3.22031E-14
 -1       139 7.26598E-03 7.40429E-04-3.12863E-14
 -1       140 6.92451E-03 8.84810E-04-3.00004E-14
 -1       141 6.55485E-03 9.84956E-04-2.87095E-14
 -1       142 6.11975E-03 1.05464E-03-2.72731E-14
 -1       143 5.61683E-03 1.08336E-03-2.56931E-14
 -1       144 5.15277E-03 1.06411E-03-2.43186E-14
 -1       145 4.68028E-03 9.98877E-04-2.29748E-14
 -1       146 4.27030E-03 9.00973E-04-2.18643E-14
 -1       147 3.91084E-03 7.72864E-04-2.09313E-14
 -1       148 3.60613E-03 6.14536E-04-2.01842E-14
 -1       149 3.39398E-03 4.42638E-04-1.97043E-14
 -1       150 3.28473E-03 2.77072E-04-1.95039E-14
 -1       151 3.26412E-03 9.84256E-05-1.95582E-14
 -1       152 3.34291E-03-7.29931E-05-1.98829E-14
 -1       153 3.51836E-03-2.33078E-04-2.04769E-14
 -1       154 3.83615E-03-3.97203E-04-2.14866E-14
 -1       155 4.16317E-03-5.03191E-04-2.25024E-14
 -1       156 4.63160E-03-5.94781E-04-2.39555E-14
 -1       157 5.06591E-03-6.33730E-04-2.53041E-14
 -1       158 5.54410E-03-6.34943E-04-2.68038E-14
 -1       159 6.00077E-03-5.96567E-04-2.82417E-14
 -1       160 6.44921E-03-5.18492E-04-2.96607E-14
 -1       161 7.17328E-03-2.74112E-04-3.19419E-14
 -1       162 7.43746E-03-1.11571E-04-3.27216E-14
 -1       163 7.60844E-03 6.71256E-05-3.31500E-14
 -1       164 2.43731E-04-1.16599E-04-4.55467E-17
 -1       165 2.28417E-04-8.43099E-05-7.22858E-17
 -1       166 2.21449E-04-6.18873E-05-8.64990E-17
 -1       167 2.17018E-04-4.46166E-05-9.38716E-17
 -1       168 2.13864E-04-3.08473E-05-9.74190E-17
 -1       169 2.11567E-04-1.90800E-05-9.87607E-17
 -1       170 2.10137E-04-8.79617E-06-9.84049E-17
 -1       171 2.09607E-04 7.03999E-07-9.73749E-17
 -1       172 2.10019E-04 1.01213E-05-9.52709E-17
 -1       173 2.11387E-04 2.01852E-05-9.17642E-17
 -1       174 2.13667E-04 3.14684E-05-8.66786E-17
 -1       175 2.16995E-04 4.52380E-05-7.89367E-17
 -1       176 2.21626E-04 6.24764E-05-6.69461E-17
 -1       177 2.28730E-04 8.51396E-05-4.75558E-17
 -1       178 2.42865E-04 1.18099E-04-1.51280E-17
 -1       179 3.00214E-04 1.76083E-04 1.98443E-17
 -1       180 4.74146E-04-2.47818E-04-1.22227E-16
 -1       181 7.78699E-04-3.54796E-04-4.34989E-16
 -1       182 1.07182E-03-4.26676E-04-9.39925E-16
 -1       183 1.36176E-03-4.75772E-04-1.63662E-15
 -1       184 1.65267E-03-5.09882E-04-2.52234E-15
 -1       185 1.94715E-03-5.34885E-04-3.59425E-15
 -1       186 2.24681E-03-5.55817E-04-4.84868E-15
 -1       187 2.55247E-03-5.77431E-04-6.28122E-15
 -1       188 2.86420E-03-6.04364E-04-7.88925E-15
 -1       189 3.18115E-03-6.40951E-04-9.66950E-15
 -1       190 3.50138E-03-6.90575E-04-1.16169E-14
 -1       191 3.82183E-03-7.54466E-04-1.37300E-14
 -1       192 4.13851E-03-8.30079E-04-1.60079E-14
 -1       193 4.44736E-03-9.09613E-04-1.84465E-14
 -1       194 4.74561E-03-9.79855E-04-2.10502E-14
 -1       195 5.03343E-03-1.02467E-03-2.38179E-14
 -1       196 5.31469E-03-1.03023E-03-2.67517E-14
 -1       197 5.59602E-03-9.90791E-04-2.98475E-14
 -1       198 5.88417E-03-9.11426E-04-3.30975E-14
 -1       199 6.18333E-03-8.05696E-04-3.64940E-14
 -1       200 6.49400E-03-6.89950E-04-4.00311E-14
 -1       201 6.81368E-03-5.77982E-04-4.36965E-14
 -1       202 7.13845E-03-4.78368E-04-4.74828E-14
 -1       203 7.46443E-03-3.94506E-04-5.13808E-14
 -1       204 7.78856E-03-3.26092E-04-5.53833E-14
 -1       205 8.10887E-03-2.70811E-04-5.94882E-14
 -1       206 8.42435E-03-2.25643E-04-6.36926E-14
 -1       207 8.73476E-03-1.87643E-04-6.79895E-14
 -1       208 9.04033E-03-1.54319E-04-7.23630E-14
 -1       209 9.34157E-03-1.23736E-04-7.68015E-14
 -1       210 9.63911E-03-9.44893E-05-8.12975E-14
 -1       211 9.93360E-03-6.56222E-05-8.58355E-14
 -1       212 1.02257E-02-3.65238E-05-9.04212E-14
 -1       213 1.05158E-02-6.83946E-06-9.50484E-14
 -1       214 1.08045E-02 2.36059E-05-9.97169E-14
 -1       215 1.10921E-02 5.48667E-05-1.04417E-13
 -1       216 1.13790E-02 8.69214E-05-1.09140E-13
 -1       217 1.16653E-02 1.19704E-04-1.13881E-13
 -1       218 1.19513E-02 1.53127E-04-1.18650E-13
 -1       219 1.22370E-02 1.87092E-04-1.23457E-13
 -1       220 1.25226E-02 2.21507E-04-1.28301E-13
 -1       221 1.28082E-02 2.56280E-04-1.33174E-13
 -1       222 1.30937E-02 2.91331E-04-1.38080E-13
 -1       223 1.33792E-02 3.26590E-04-1.43021E-13
 -1       224 1.36648E-02 3.61991E-04-1.47982E-13
 -1       225 1.39504E-02 3.97480E-04-1.52968E-13
 -1       226 1.42360E-02 4.33007E-04-1.57981E-13
 -1       227 1.45217E-02 4.68528E-04-1.63008E-13
 -1       228 6.12064E-04 3.09296E-04-1.04090E-16
 -1       229 9.09286E-04 3.98399E-04-3.94572E-16
 -1       230 1.19995E-03 4.58209E-04-8.57435E-16
 -1       231 1.49040E-03 4.98485E-04-1.49488E-15
 -1       232 1.78459E-03 5.25922E-04-2.30625E-15
 -1       233 2.08530E-03 5.46000E-04-3.29050E-15
 -1       234 2.39465E-03 5.63998E-04-4.44470E-15
 -1       235 2.71421E-03 5.85638E-04-5.76573E-15
 -1       236 3.04484E-03 6.17491E-04-7.25167E-15
 -1       237 3.38627E-03 6.67009E-04-8.90117E-15
 -1       238 3.73644E-03 7.41753E-04-1.07131E-14
 -1       239 4.09087E-03 8.47189E-04-1.26842E-14
 -1       240 4.44240E-03 9.82509E-04-1.48150E-14
 -1       241 4.78247E-03 1.13532E-03-1.71087E-14
 -1       242 5.10449E-03 1.27884E-03-1.95727E-14
 -1       243 5.40865E-03 1.37768E-03-2.22161E-14
 -1       244 5.70427E-03 1.40401E-03-2.50422E-14
 -1       245 6.00585E-03 1.35445E-03-2.80525E-14
 -1       246 6.32466E-03 1.25236E-03-3.12401E-14
 -1       247 6.66312E-03 1.13318E-03-3.45936E-14
 -1       248 7.01596E-03 1.02687E-03-3.81013E-14
 -1       249 7.37478E-03 9.49613E-04-4.17567E-14
 -1       250 7.73200E-03 9.04985E-04-4.55323E-14
 -1       251 8.08258E-03 8.89187E-04-4.94213E-14
 -1       252 8.42401E-03 8.95678E-04-5.34189E-14
 -1       253 8.75568E-03 9.17909E-04-5.75068E-14
 -1       254 9.07811E-03 9.50467E-04-6.16769E-14
 -1       255 9.39241E-03 9.89306E-04-6.59301E-14
 -1       256 9.69990E-03 1.03159E-03-7.02602E-14
 -1       257 1.00018E-02 1.07545E-03-7.46536E-14
 -1       258 1.02994E-02 1.11967E-03-7.91009E-14
 -1       259 1.05936E-02 1.16354E-03-8.36008E-14
 -1       260 1.08852E-02 1.20668E-03-8.81503E-14
 -1       261 1.11748E-02 1.24889E-03-9.27590E-14
 -1       262 1.14631E-02 1.29015E-03-9.74215E-14
 -1       263 1.17504E-02 1.33048E-03-1.02131E-13
 -1       264 1.20369E-02 1.36997E-03-1.06886E-13
 -1       265 1.23231E-02 1.40872E-03-1.11676E-13
 -1       266 1.26089E-02 1.44684E-03-1.16481E-13
 -1       267 1.28945E-02 1.48445E-03-1.21311E-13
 -1       268 1.31800E-02 1.52163E-03-1.26159E-13
 -1       269 1.34655E-02 1.55849E-03-1.31016E-13
 -1       270 1.37510E-02 1.59510E-03-1.35879E-13
 -1       271 1.40365E-02 1.63152E-03-1.40748E-13
 -1       272 1.43221E-02 1.66783E-03-1.45625E-13
 -1       273 1.46077E-02 1.70407E-03-1.50515E-13
 -1       274 1.48933E-02 1.74029E-03-1.55422E-13
 -1       275 1.51790E-02 1.77653E-03-1.60341E-13
 -1       276 1.52022E-02 1.71898E-03-1.61467E-13
 -1       277 1.51665E-02 1.63465E-03-1.61801E-13
 -1       278 1.51307E-02 1.55030E-03-1.62119E-13
 -1       279 1.50950E-02 1.46590E-03-1.62423E-13
 -1       280 1.50600E-02 1.38291E-03-1.62718E-13
 -1       281 1.50244E-02 1.29845E-03-1.63020E-13
 -1       282 1.49890E-02 1.21398E-03-1.63326E-13
 -1       283 1.49536E-02 1.12950E-03-1.63637E-13
 -1       284 1.49184E-02 1.04502E-03-1.63947E-13
 -1       285 1.48833E-02 9.60552E-04-1.64257E-13
 -1       286 1.48489E-02 8.77532E-04-1.64572E-13
 -1       287 1.48140E-02 7.93107E-04-1.64888E-13
 -1       288 1.47792E-02 7.08715E-04-1.65193E-13
 -1       289 1.47444E-02 6.24359E-04-1.65486E-13
 -1       290 1.46330E-02 5.46434E-04-1.64250E-13
 -1       291 7.68796E-03 2.94611E-04-3.45558E-14
 -1       292 7.55728E-03 3.91839E-04-3.41298E-14
 -1       293 7.31072E-03 5.37559E-04-3.28848E-14
 -1       294 6.96095E-03 6.95188E-04-3.16799E-14
 -1       295 6.58786E-03 8.82751E-04-2.99993E-14
 -1       296 6.19655E-03 1.03669E-03-2.84154E-14
 -1       297 5.79873E-03 1.14944E-03-2.65982E-14
 -1       298 5.41789E-03 1.15586E-03-2.48295E-14
 -1       299 5.04055E-03 1.07841E-03-2.32143E-14
 -1       300 4.63488E-03 9.26384E-04-2.18641E-14
 -1       301 4.25501E-03 7.41687E-04-2.06611E-14
 -1       302 3.86920E-03 5.59086E-04-1.97677E-14
 -1       303 3.54381E-03 3.94020E-04-1.90882E-14
 -1       304 3.32829E-03 2.69253E-04-1.87175E-14
 -1       305 3.23393E-03 1.68750E-04-1.85767E-14
 -1       306 3.27799E-03 7.58313E-05-1.87873E-14
 -1       307 3.45912E-03-2.40602E-05-1.91823E-14
 -1       308 3.78482E-03-1.66566E-04-1.99856E-14
 -1       309 4.14128E-03-3.63623E-04-2.13827E-14
 -1       310 4.55098E-03-5.30291E-04-2.27212E-14
 -1       311 4.94546E-03-6.60909E-04-2.43984E-14
 -1       312 5.32149E-03-7.16228E-04-2.60582E-14
 -1       313 5.70077E-03-6.81484E-04-2.77906E-14
 -1       314 6.08743E-03-5.71331E-04-2.94948E-14
 -1       315 6.47202E-03-4.01151E-04-3.12135E-14
 -1       316 6.87333E-03-2.25621E-04-3.24764E-14
 -1       317 7.22995E-03-5.42169E-05-3.35746E-14
 -1       318 7.51307E-03 1.01408E-04-3.45067E-14
 -1       319 7.67125E-03 2.01286E-04-3.46115E-14
 -1       320 4.60914E-04-1.43872E-04-2.92735E-16
 -1       321 4.81909E-04-1.93135E-04-2.49560E-16
 -1       322 4.38529E-04-7.53503E-05-3.31247E-16
 -1       323 4.31839E-04-4.98266E-05-3.37709E-16
 -1       324 4.27293E-04-2.78148E-05-3.39474E-16
 -1       325 4.24890E-04-7.94001E-06-3.37648E-16
 -1       326 4.24727E-04 1.11139E-05-3.32738E-16
 -1       327 4.26880E-04 3.06905E-05-3.24193E-16
 -1       328 4.31286E-04 5.18210E-05-3.11935E-16
 -1       329 4.38174E-04 7.67717E-05-2.93978E-16
 -1       330 4.47841E-04 1.07066E-04-2.68252E-16
 -1       331 4.61575E-04 1.45283E-04-2.30420E-16
 -1       332 4.83901E-04 1.95885E-04-1.73876E-16
 -1       333 5.40693E-04 2.48444E-04-1.49027E-16
 -1       334 8.40447E-04 3.39106E-04-4.49595E-16
 -1       335 8.79605E-04-3.22402E-04-7.73073E-16
 -1       336 1.17454E-03-3.80212E-04-1.39517E-15
 -1       337 1.46835E-03-4.19877E-04-2.20190E-15
 -1       338 1.76304E-03-4.47488E-04-3.19041E-15
 -1       339 2.06025E-03-4.68268E-04-4.35857E-15
 -1       340 2.36125E-03-4.87055E-04-5.70340E-15
 -1       341 2.66692E-03-5.08599E-04-7.22065E-15
 -1       342 2.97771E-03-5.37589E-04-8.90854E-15
 -1       343 3.29351E-03-5.78324E-04-1.07633E-14
 -1       344 3.61341E-03-6.33864E-04-1.27820E-14
 -1       345 3.93538E-03-7.04561E-04-1.49635E-14
 -1       346 4.25620E-03-7.86099E-04-1.73057E-14
 -1       347 4.57201E-03-8.67850E-04-1.98114E-14
 -1       348 4.87998E-03-9.33205E-04-2.24826E-14
 -1       349 5.18048E-03-9.63843E-04-2.53196E-14
 -1       350 5.47783E-03-9.47053E-04-2.83220E-14
 -1       351 5.77837E-03-8.82386E-04-3.14846E-14
 -1       352 6.08668E-03-7.81895E-04-3.47983E-14
 -1       353 6.40346E-03-6.63965E-04-3.82567E-14
 -1       354 6.72607E-03-5.45700E-04-4.18485E-14
 -1       355 7.05072E-03-4.38505E-04-4.55666E-14
 -1       356 7.37416E-03-3.47543E-04-4.94004E-14
 -1       357 7.69429E-03-2.73343E-04-5.33406E-14
 -1       358 8.01010E-03-2.13817E-04-5.73833E-14
 -1       359 8.32131E-03-1.65841E-04-6.15265E-14
 -1       360 8.62807E-03-1.26223E-04-6.57637E-14
 -1       361 8.93079E-03-9.21798E-05-7.00851E-14
 -1       362 9.22998E-03-6.15084E-05-7.44775E-14
 -1       363 9.52615E-03-3.25812E-05-7.89309E-14
 -1       364 9.81982E-03-4.26774E-06-8.34323E-14
 -1       365 1.01115E-02 2.41678E-05-8.79825E-14
 -1       366 1.04015E-02 5.31654E-05-9.25761E-14
 -1       367 1.06903E-02 8.29542E-05-9.72145E-14
 -1       368 1.09781E-02 1.13620E-04-1.01892E-13
 -1       369 1.12653E-02 1.45155E-04-1.06596E-13
 -1       370 1.15519E-02 1.77499E-04-1.11329E-13
 -1       371 1.18381E-02 2.10561E-04-1.16083E-13
 -1       372 1.21241E-02 2.44236E-04-1.20870E-13
 -1       373 1.24099E-02 2.78424E-04-1.25689E-13
 -1       374 1.26956E-02 3.13024E-04-1.30543E-13
 -1       375 1.29813E-02 3.47950E-04-1.35429E-13
 -1       376 1.32669E-02 3.83121E-04-1.40343E-13
 -1       377 1.35525E-02 4.18470E-04-1.45282E-13
 -1       378 1.38382E-02 4.53934E-04-1.50245E-13
 -1       379 1.41238E-02 4.89461E-04-1.55233E-13
 -1       380 1.43784E-02 5.17957E-04-1.59736E-13
 -1       381 1.13582E-03 4.00923E-04-9.17669E-16
 -1       382 1.42974E-03 4.42367E-04-1.55691E-15
 -1       383 1.72530E-03 4.70030E-04-2.36791E-15
 -1       384 2.02490E-03 4.89408E-04-3.34992E-15
 -1       385 2.33049E-03 5.05751E-04-4.50057E-15
 -1       386 2.64362E-03 5.24692E-04-5.81622E-15
 -1       387 2.96546E-03 5.52707E-04-7.29406E-15
 -1       388 3.29670E-03 5.97255E-04-8.93475E-15
 -1       389 3.63713E-03 6.66269E-04-1.07354E-14
 -1       390 3.98511E-03 7.66334E-04-1.26939E-14
 -1       391 4.33673E-03 8.98845E-04-1.48116E-14
 -1       392 4.68547E-03 1.05420E-03-1.70897E-14
 -1       393 5.02397E-03 1.20698E-03-1.95365E-14
 -1       394 5.34887E-03 1.31894E-03-2.21630E-14
 -1       395 5.66555E-03 1.35579E-03-2.49726E-14
 -1       396 5.98588E-03 1.30954E-03-2.79662E-14
 -1       397 6.31911E-03 1.20445E-03-3.11389E-14
 -1       398 6.66566E-03 1.08008E-03-3.44792E-14
 -1       399 7.01942E-03 9.69299E-04-3.79729E-14
 -1       400 7.37310E-03 8.89205E-04-4.16098E-14
 -1       401 7.72157E-03 8.43157E-04-4.53712E-14
 -1       402 8.06227E-03 8.26895E-04-4.92434E-14
 -1       403 8.39442E-03 8.33511E-04-5.32237E-14
 -1       404 8.71829E-03 8.56211E-04-5.72962E-14
 -1       405 9.03464E-03 8.89413E-04-6.14529E-14
 -1       406 9.34448E-03 9.28963E-04-6.56914E-14
 -1       407 9.64884E-03 9.71958E-04-7.00102E-14
 -1       408 9.94870E-03 1.01647E-03-7.43933E-14
 -1       409 1.02450E-02 1.06128E-03-7.88306E-14
 -1       410 1.05384E-02 1.10565E-03-8.33224E-14
 -1       411 1.08296E-02 1.14921E-03-8.78648E-14
 -1       412 1.11192E-02 1.19177E-03-9.24659E-14
 -1       413 1.14075E-02 1.23331E-03-9.71177E-14
 -1       414 1.16949E-02 1.27386E-03-1.01815E-13
 -1       415 1.19816E-02 1.31352E-03-1.06559E-13
 -1       416 1.22679E-02 1.35240E-03-1.11333E-13
 -1       417 1.25539E-02 1.39062E-03-1.16133E-13
 -1       418 1.28397E-02 1.42829E-03-1.20959E-13
 -1       419 1.31253E-02 1.46553E-03-1.25804E-13
 -1       420 1.34109E-02 1.50242E-03-1.30663E-13
 -1       421 1.36965E-02 1.53904E-03-1.35523E-13
 -1       422 1.39821E-02 1.57548E-03-1.40393E-13
 -1       423 1.42677E-02 1.61179E-03-1.45273E-13
 -1       424 1.45533E-02 1.64802E-03-1.50167E-13
 -1       425 1.48390E-02 1.68424E-03-1.55074E-13
 -1       426 1.50206E-02 1.70160E-03-1.58272E-13
 -1       427 1.48654E-02 1.47677E-03-1.58002E-13
 -1       428 1.49012E-02 1.56112E-03-1.57692E-13
 -1       429 1.49609E-02 1.63136E-03-1.57986E-13
 -1       430 1.48303E-02 1.39383E-03-1.58299E-13
 -1       431 1.47947E-02 1.30944E-03-1.58593E-13
 -1       432 1.47592E-02 1.22504E-03-1.58888E-13
 -1       433 1.47238E-02 1.14064E-03-1.59190E-13
 -1       434 1.46885E-02 1.05623E-03-1.59493E-13
 -1       435 1.46534E-02 9.71828E-04-1.59796E-13
 -1       436 1.46189E-02 8.88861E-04-1.60095E-13
 -1       437 1.45840E-02 8.04476E-04-1.60402E-13
 -1       438 1.45491E-02 7.20108E-04-1.60699E-13
 -1       439 1.45143E-02 6.35762E-04-1.60991E-13
 -1       440 7.40672E-03 4.16346E-04-3.49453E-14
 -1       441 7.71261E-03 2.55552E-04-3.61193E-14
 -1       442 7.66522E-03 3.08525E-04-3.63257E-14
 -1       443 7.12353E-03 5.42977E-04-3.36912E-14
 -1       444 6.69052E-03 7.62192E-04-3.17059E-14
 -1       445 4.47723E-04-1.05802E-04-3.17553E-16
 -1       446 5.98208E-03 1.11456E-03-2.79511E-14
 -1       447 5.58024E-03 1.20092E-03-2.54592E-14
 -1       448 5.29535E-03 1.16340E-03-2.38214E-14
 -1       449 4.88323E-03 9.98726E-04-2.19369E-14
 -1       450 4.55158E-03 8.25508E-04-2.07394E-14
 -1       451 4.11139E-03 5.80073E-04-1.93292E-14
 -1       452 3.73609E-03 4.00759E-04-1.85403E-14
 -1       453 3.43232E-03 2.67785E-04-1.79642E-14
 -1       454 3.25579E-03 1.86281E-04-1.76292E-14
 -1       455 3.21779E-03 1.28718E-04-1.74827E-14
 -1       456 3.31782E-03 7.71402E-05-1.78442E-14
 -1       457 3.60564E-03-3.14068E-05-1.84116E-14
 -1       458 4.06113E-03-2.42897E-04-2.00146E-14
 -1       459 4.39961E-03-4.14767E-04-2.12846E-14
 -1       460 4.81889E-03-6.17953E-04-2.32626E-14
 -1       461 5.14788E-03-7.26553E-04-2.50098E-14
 -1       462 5.50121E-03-7.41216E-04-2.71498E-14
 -1       463 5.83160E-03-6.52181E-04-2.91888E-14
 -1       464 6.18371E-03-4.88824E-04-3.09996E-14
 -1       465 6.62566E-03-2.50067E-04-3.30771E-14
 -1       466 7.00361E-03-6.57195E-05-3.43372E-14
 -1       467 7.34498E-03 8.89813E-05-3.54844E-14
 -1       468 7.62627E-03 2.03476E-04-3.62855E-14
 -1       469 6.37050E-03 9.32849E-04-3.00620E-14
 -1       470 3.81471E-03-1.20374E-04-1.84171E-14
 -1       471 9.48390E-04 3.03901E-04-7.87998E-16
 -1       472 6.52635E-04-5.67737E-05-7.17857E-16
 -1       473 6.62369E-04-9.13058E-05-7.10335E-16
 -1       474 6.44228E-04 2.55458E-06-7.10762E-16
 -1       475 6.45884E-04 3.09237E-05-6.97640E-16
 -1       476 6.51471E-04 6.03827E-05-6.78043E-16
 -1       477 6.61232E-04 9.39045E-05-6.49691E-16
 -1       478 6.75300E-04 1.33158E-04-6.10589E-16
 -1       479 6.94467E-04 1.80547E-04-5.56314E-16
 -1       480 1.24206E-03 3.52009E-04-1.37399E-15
 -1       481 9.91618E-04-2.86947E-04-1.14739E-15
 -1       482 6.20155E-03 1.02680E-03-2.96814E-14
 -1       483 1.28381E-03-3.31269E-04-1.87860E-15
 -1       484 1.57677E-03-3.61971E-04-2.78803E-15
 -1       485 1.87106E-03-3.83566E-04-3.87398E-15
 -1       486 2.16765E-03-4.00542E-04-5.13373E-15
 -1       487 2.46773E-03-4.17391E-04-6.56429E-15
 -1       488 2.77253E-03-4.38725E-04-8.16218E-15
 -1       489 3.08332E-03-4.69229E-04-9.92529E-15
 -1       490 3.40108E-03-5.13306E-04-1.18516E-14
 -1       491 3.72589E-03-5.74133E-04-1.39383E-14
 -1       492 4.05606E-03-6.51804E-04-1.61849E-14
 -1       493 4.38748E-03-7.40574E-04-1.85919E-14
 -1       494 4.71429E-03-8.26086E-04-2.11643E-14
 -1       495 5.03246E-03-8.86201E-04-2.39033E-14
 -1       496 5.34335E-03-8.98590E-04-2.68099E-14
 -1       497 5.65406E-03-8.53064E-04-2.98836E-14
 -1       498 5.97193E-03-7.58570E-04-3.31155E-14
 -1       499 6.29888E-03-6.37118E-04-3.64963E-14
 -1       500 6.63103E-03-5.11407E-04-4.00159E-14
 -1       501 6.96261E-03-3.96618E-04-4.36654E-14
 -1       502 7.28935E-03-2.99428E-04-4.74349E-14
 -1       503 7.60937E-03-2.20563E-04-5.13138E-14
 -1       504 7.92263E-03-1.57711E-04-5.52942E-14
 -1       505 8.22995E-03-1.07472E-04-5.93777E-14
 -1       506 8.53243E-03-6.64252E-05-6.35562E-14
 -1       507 8.83106E-03-3.16038E-05-6.78209E-14
 -1       508 9.12669E-03-6.43629E-07-7.21665E-14
 -1       509 9.41996E-03 2.82225E-05-7.65773E-14
 -1       510 9.71141E-03 5.62432E-05-8.10433E-14
 -1       511 1.00014E-02 8.42497E-05-8.55572E-14
 -1       512 1.02903E-02 1.12754E-04-9.01168E-14
 -1       513 1.05784E-02 1.42038E-04-9.47195E-14
 -1       514 1.08657E-02 1.72222E-04-9.93663E-14
 -1       515 1.11526E-02 2.03319E-04-1.04054E-13
 -1       516 1.14391E-02 2.35277E-04-1.08773E-13
 -1       517 1.17253E-02 2.68011E-04-1.13515E-13
 -1       518 1.20114E-02 3.01416E-04-1.18284E-13
 -1       519 1.22973E-02 3.35384E-04-1.23083E-13
 -1       520 1.25831E-02 3.69812E-04-1.27919E-13
 -1       521 1.28688E-02 4.04607E-04-1.32784E-13
 -1       522 1.31545E-02 4.39684E-04-1.37674E-13
 -1       523 1.34402E-02 4.74969E-04-1.42594E-13
 -1       524 1.37259E-02 5.10400E-04-1.47534E-13
 -1       525 1.40116E-02 5.45918E-04-1.52497E-13
 -1       526 1.83130E-03 4.05672E-04-3.05075E-15
 -1       527 2.12918E-03 4.21105E-04-4.14052E-15
 -1       528 2.43104E-03 4.35626E-04-5.39407E-15
 -1       529 2.73841E-03 4.54908E-04-6.80878E-15
 -1       530 3.05311E-03 4.85589E-04-8.38354E-15
 -1       531 3.37738E-03 5.35388E-04-1.01164E-14
 -1       532 3.71361E-03 6.12622E-04-1.20061E-14
 -1       533 4.06315E-03 7.24306E-04-1.40503E-14
 -1       534 4.42386E-03 8.71495E-04-1.62510E-14
 -1       535 4.78774E-03 1.04065E-03-1.86145E-14
 -1       536 5.14347E-03 1.19578E-03-2.11531E-14
 -1       537 5.48634E-03 1.28524E-03-2.38744E-14
 -1       538 5.82599E-03 1.27446E-03-2.67829E-14
 -1       539 6.17613E-03 1.17728E-03-2.98774E-14
 -1       540 6.53816E-03 1.04273E-03-3.31449E-14
 -1       541 6.90307E-03 9.16239E-04-3.65731E-14
 -1       542 7.26029E-03 8.22250E-04-4.01431E-14
 -1       543 7.60497E-03 7.65492E-04-4.38438E-14
 -1       544 7.93724E-03 7.41385E-04-4.76596E-14
 -1       545 8.25919E-03 7.42484E-04-5.15833E-14
 -1       546 8.57314E-03 7.61533E-04-5.56031E-14
 -1       547 8.88093E-03 7.92548E-04-5.97114E-14
 -1       548 9.18394E-03 8.31006E-04-6.39043E-14
 -1       549 9.48316E-03 8.73682E-04-6.81787E-14
 -1       550 9.77933E-03 9.18380E-04-7.25279E-14
 -1       551 1.00731E-02 9.63677E-04-7.69336E-14
 -1       552 1.03648E-02 1.00870E-03-8.13957E-14
 -1       553 1.06550E-02 1.05295E-03-8.59098E-14
 -1       554 1.09440E-02 1.09619E-03-9.04761E-14
 -1       555 1.12321E-02 1.13836E-03-9.50978E-14
 -1       556 1.15194E-02 1.17946E-03-9.97691E-14
 -1       557 1.18062E-02 1.21960E-03-1.04483E-13
 -1       558 1.20926E-02 1.25888E-03-1.09232E-13
 -1       559 1.23788E-02 1.29743E-03-1.14011E-13
 -1       560 1.26647E-02 1.33536E-03-1.18821E-13
 -1       561 1.29505E-02 1.37280E-03-1.23656E-13
 -1       562 1.32363E-02 1.40984E-03-1.28508E-13
 -1       563 1.35220E-02 1.44658E-03-1.33370E-13
 -1       564 1.38076E-02 1.48309E-03-1.38235E-13
 -1       565 1.40933E-02 1.51944E-03-1.43109E-13
 -1       566 1.43790E-02 1.55569E-03-1.48000E-13
 -1       567 1.46647E-02 1.59190E-03-1.52909E-13
 -1       568 1.45650E-02 1.32039E-03-1.54181E-13
 -1       569 1.45295E-02 1.23605E-03-1.54470E-13
 -1       570 1.46358E-02 1.48762E-03-1.53586E-13
 -1       571 1.46004E-02 1.40401E-03-1.53891E-13
 -1       572 1.44940E-02 1.15171E-03-1.54761E-13
 -1       573 1.44587E-02 1.06737E-03-1.55055E-13
 -1       574 1.44235E-02 9.83028E-04-1.55352E-13
 -1       575 1.43890E-02 9.00118E-04-1.55641E-13
 -1       576 1.43540E-02 8.15780E-04-1.55930E-13
 -1       577 1.43191E-02 7.31446E-04-1.56222E-13
 -1       578 1.42843E-02 6.47121E-04-1.56509E-13
 -1       579 7.74383E-03 2.79223E-04-3.80606E-14
 -1       580 7.57635E-03 3.49871E-04-3.73324E-14
 -1       581 7.71669E-03 2.49028E-04-3.82280E-14
 -1       582 1.53603E-03 3.84266E-04-2.12817E-15
 -1       583 7.29705E-03 4.62353E-04-3.62168E-14
 -1       584 6.94038E-03 6.26756E-04-3.41579E-14
 -1       585 7.22386E-04-2.20303E-04-6.49949E-16
 -1       586 7.51548E-03 1.79687E-04-3.75392E-14
 -1       587 3.38074E-03 4.58909E-05-1.67683E-14
 -1       588 3.18791E-03 1.47044E-04-1.63641E-14
 -1       589 6.46539E-04-2.60770E-05-7.17766E-16
 -1       590 5.77714E-03 1.20338E-03-2.67188E-14
 -1       591 3.90978E-03 4.42992E-04-1.78854E-14
 -1       592 5.43706E-03 1.20998E-03-2.43105E-14
 -1       593 5.08535E-03 1.09360E-03-2.21049E-14
 -1       594 4.73059E-03 9.00406E-04-2.05610E-14
 -1       595 4.36979E-03 6.88228E-04-1.91193E-14
 -1       596 3.56416E-03 2.89235E-04-1.70488E-14
 -1       597 3.31678E-03 1.99278E-04-1.67424E-14
 -1       598 3.23977E-03 9.60595E-05-1.64262E-14
 -1       599 4.97072E-03-6.89251E-04-2.36833E-14
 -1       600 4.23167E-03-3.24261E-04-1.98897E-14
 -1       601 4.62168E-03-5.29302E-04-2.16878E-14
 -1       602 5.32611E-03-7.67624E-04-2.61347E-14
 -1       603 5.63841E-03-7.24395E-04-2.83923E-14
 -1       604 6.00769E-03-5.67702E-04-3.10755E-14
 -1       605 6.37264E-03-3.63331E-04-3.31602E-14
 -1       606 6.82622E-03-1.15942E-04-3.51470E-14
 -1       607 7.17395E-03 4.72574E-05-3.63822E-14
 -1       608 6.52852E-03 8.48753E-04-3.17729E-14
 -1       609 7.16283E-04 2.59171E-04-4.24072E-16
 -1       610 5.99474E-03 1.15529E-03-2.83949E-14
 -1       611 6.75823E-04-1.31382E-04-6.93293E-16
 -1       612 7.72410E-03 3.13068E-04-3.90800E-14
 -1       613 3.53346E-03-2.46244E-05-1.67617E-14
 -1       614 1.42041E-02 5.68281E-04-1.55874E-13
 -1       615 8.73529E-04 5.86558E-05-1.18230E-15
 -1       616 8.68217E-04 2.15659E-05-1.20843E-15
 -1       617 9.02119E-04 1.43544E-04-1.09409E-15
 -1       618 9.25554E-04 1.96231E-04-1.02588E-15
 -1       619 1.06063E-03 2.66168E-04-1.17242E-15
 -1       620 1.34989E-03 3.02153E-04-1.87103E-15
 -1       621 7.38927E-03 1.33471E-04-3.87364E-14
 -1       622 7.53822E-03 4.00378E-04-3.88445E-14
 -1       623 1.39461E-03-2.80653E-04-2.39080E-15
 -1       624 1.68433E-03-3.03067E-04-3.39649E-15
 -1       625 1.97568E-03-3.18912E-04-4.57393E-15
 -1       626 2.26944E-03-3.31961E-04-5.92002E-15
 -1       627 2.56700E-03-3.46254E-04-7.43126E-15
 -1       628 2.87032E-03-3.66192E-04-9.10562E-15
 -1       629 3.18178E-03-3.96602E-04-1.09411E-14
 -1       630 3.50376E-03-4.42566E-04-1.29348E-14
 -1       631 3.83738E-03-5.08475E-04-1.50859E-14
 -1       632 4.18073E-03-5.95445E-04-1.73958E-14
 -1       633 4.52750E-03-6.96654E-04-1.98675E-14
 -1       634 4.86714E-03-7.89676E-04-2.25055E-14
 -1       635 5.19606E-03-8.43133E-04-2.53121E-14
 -1       636 5.51835E-03-8.27261E-04-2.82926E-14
 -1       637 5.84622E-03-7.41338E-04-3.14411E-14
 -1       638 6.18571E-03-6.12356E-04-3.47446E-14
 -1       639 6.53215E-03-4.74399E-04-3.81938E-14
 -1       640 6.87603E-03-3.49662E-04-4.17764E-14
 -1       641 7.21049E-03-2.46555E-04-4.54807E-14
 -1       642 7.53333E-03-1.64698E-04-4.92997E-14
 -1       643 7.84551E-03-1.00427E-04-5.32189E-14
 -1       644 8.14928E-03-4.94555E-05-5.72421E-14
 -1       645 8.44699E-03-7.95866E-06-6.13621E-14
 -1       646 8.74058E-03 2.71625E-05-6.55719E-14
 -1       647 9.03144E-03 5.82959E-05-6.98689E-14
 -1       648 9.32055E-03 8.72112E-05-7.42366E-14
 -1       649 9.60853E-03 1.15167E-04-7.86647E-14
 -1       650 9.89578E-03 1.43017E-04-8.31434E-14
 -1       651 1.01825E-02 1.71299E-04-8.76664E-14
 -1       652 1.04690E-02 2.00322E-04-9.22366E-14
 -1       653 1.07552E-02 2.30231E-04-9.68501E-14
 -1       654 1.10413E-02 2.61057E-04-1.01511E-13
 -1       655 1.13273E-02 2.92763E-04-1.06214E-13
 -1       656 1.16132E-02 3.25268E-04-1.10945E-13
 -1       657 1.18991E-02 3.58474E-04-1.15699E-13
 -1       658 1.21849E-02 3.92273E-04-1.20485E-13
 -1       659 1.24707E-02 4.26564E-04-1.25304E-13
 -1       660 1.27564E-02 4.61249E-04-1.30144E-13
 -1       661 1.30422E-02 4.96243E-04-1.35018E-13
 -1       662 1.33279E-02 5.31470E-04-1.39911E-13
 -1       663 1.36136E-02 5.66865E-04-1.44832E-13
 -1       664 1.38994E-02 6.02372E-04-1.49774E-13
 -1       665 2.22220E-03 3.54691E-04-4.95989E-15
 -1       666 5.49338E-03-7.71601E-04-2.75880E-14
 -1       667 1.93038E-03 3.42370E-04-3.76623E-15
 -1       668 2.81469E-03 3.87067E-04-7.82511E-15
 -1       669 3.12027E-03 4.18772E-04-9.49358E-15
 -1       670 3.43766E-03 4.70786E-04-1.13153E-14
 -1       671 3.77273E-03 5.52681E-04-1.32901E-14
 -1       672 4.13050E-03 6.74498E-04-1.54152E-14
 -1       673 4.50995E-03 8.41221E-04-1.76971E-14
 -1       674 4.89856E-03 1.03438E-03-2.01455E-14
 -1       675 5.64728E-03 1.24775E-03-2.55731E-14
 -1       676 6.79382E-03 8.57266E-04-3.51705E-14
 -1       677 7.16278E-03 7.48585E-04-3.86815E-14
 -1       678 7.50884E-03 6.84338E-04-4.23230E-14
 -1       679 7.83456E-03 6.56219E-04-4.60824E-14
 -1       680 8.14587E-03 6.54463E-04-4.99508E-14
 -1       681 8.44802E-03 6.71123E-04-5.39204E-14
 -1       682 8.74467E-03 7.00170E-04-5.79784E-14
 -1       683 9.03805E-03 7.37155E-04-6.21251E-14
 -1       684 9.32942E-03 7.78868E-04-6.63530E-14
 -1       685 9.61946E-03 8.23056E-04-7.06629E-14
 -1       686 9.90856E-03 8.68198E-04-7.50409E-14
 -1       687 1.01969E-02 9.13316E-04-7.94706E-14
 -1       688 1.04847E-02 9.57824E-04-8.39557E-14
 -1       689 1.07720E-02 1.00141E-03-8.84940E-14
 -1       690 1.10590E-02 1.04395E-03-9.30828E-14
 -1       691 1.13456E-02 1.08543E-03-9.77264E-14
 -1       692 1.16319E-02 1.12591E-03-1.02413E-13
 -1       693 1.19181E-02 1.16549E-03-1.07137E-13
 -1       694 1.22041E-02 1.20430E-03-1.11899E-13
 -1       695 1.24900E-02 1.24246E-03-1.16691E-13
 -1       696 1.27759E-02 1.28008E-03-1.21508E-13
 -1       697 1.30617E-02 1.31726E-03-1.26351E-13
 -1       698 1.33474E-02 1.35410E-03-1.31209E-13
 -1       699 1.36332E-02 1.39069E-03-1.36071E-13
 -1       700 1.39189E-02 1.42709E-03-1.40944E-13
 -1       701 1.42046E-02 1.46336E-03-1.45832E-13
 -1       702 1.44202E-02 1.47551E-03-1.49706E-13
 -1       703 1.42289E-02 1.07844E-03-1.50646E-13
 -1       704 1.40918E-02 6.24740E-04-1.53134E-13
 -1       705 1.42998E-02 1.24700E-03-1.50076E-13
 -1       706 1.41936E-02 9.94165E-04-1.50933E-13
 -1       707 1.42643E-02 1.16272E-03-1.50361E-13
 -1       708 5.79163E-03-6.82724E-04-3.00136E-14
 -1       709 4.76291E-03-6.35135E-04-2.20521E-14
 -1       710 1.41590E-02 9.11317E-04-1.51211E-13
 -1       711 1.41240E-02 8.27036E-04-1.51493E-13
 -1       712 1.40891E-02 7.42749E-04-1.51774E-13
 -1       713 4.38767E-03-4.47165E-04-1.99035E-14
 -1       714 6.65676E-03-2.19594E-04-3.59041E-14
 -1       715 1.63980E-03 3.26258E-04-2.73608E-15
 -1       716 3.22367E-03 6.48385E-05-1.52728E-14
 -1       717 8.78714E-04-2.09259E-04-1.02815E-15
 -1       718 7.16073E-03 5.61361E-04-3.66260E-14
 -1       719 3.36298E-03 2.18893E-04-1.55454E-14
 -1       720 7.80252E-03 2.76412E-04-4.04071E-14
 -1       721 2.51635E-03 3.67825E-04-6.31334E-15
 -1       722 1.13543E-03-2.49659E-04-1.63975E-15
 -1       723 8.84805E-04 9.84884E-05-1.14489E-15
 -1       724 7.67398E-03 2.29434E-04-3.98869E-14
 -1       725 8.87095E-04-9.39024E-05-1.22564E-15
 -1       726 4.55271E-03 8.08164E-04-1.89526E-14
 -1       727 3.10482E-03 1.13887E-04-1.48076E-14
 -1       728 5.26596E-03 1.19010E-03-2.26983E-14
 -1       729 4.93233E-03 1.03024E-03-2.07741E-14
 -1       730 5.13269E-03-7.60679E-04-2.46915E-14
 -1       731 4.09115E-03 5.43004E-04-1.73050E-14
 -1       732 3.70302E-03 3.51147E-04-1.63429E-14
 -1       733 3.18789E-03 1.60380E-04-1.51869E-14
 -1       734 3.95532E-03-2.25412E-04-1.79694E-14
 -1       735 6.77754E-03 7.52031E-04-3.41128E-14
 -1       736 7.04925E-03-1.20339E-05-3.74833E-14
 -1       737 6.22343E-03-4.66014E-04-3.32839E-14
 -1       738 6.39539E-03 9.61713E-04-3.14612E-14
 -1       739 9.03925E-04-1.40559E-04-1.20833E-15
 -1       740 8.68911E-04-1.48569E-05-1.22456E-15
 -1       741 7.71687E-03 3.57376E-04-4.06178E-14
 -1       742 1.43351E-02 1.33057E-03-1.49789E-13
 -1       743 6.01083E-03-6.02637E-04-3.21713E-14
 -1       744 1.43776E-02 1.40304E-03-1.49750E-13
 -1       745 7.43631E-03 4.85408E-04-3.92634E-14
 -1       746 3.65581E-03-1.25138E-04-1.63251E-14
 -1       747 8.75329E-04-5.26235E-05-1.23040E-15
 -1       748 3.32751E-03 1.10080E-05-1.52585E-14
 -1       749 1.39942E-02 6.72553E-04-1.50776E-13
 -1       750 1.20762E-03 2.31825E-04-1.68747E-15
 -1       751 7.86076E-03 3.08097E-04-4.19722E-14
 -1       752 3.04959E-03 1.31733E-04-1.37133E-14
 -1       753 1.78968E-03-2.43539E-04-4.02646E-15
 -1       754 2.07626E-03-2.53735E-04-5.28947E-15
 -1       755 2.36527E-03-2.62318E-04-6.71694E-15
 -1       756 2.65849E-03-2.72796E-04-8.30505E-15
 -1       757 2.95879E-03-2.89372E-04-1.00524E-14
 -1       758 3.27005E-03-3.17363E-04-1.19564E-14
 -1       759 3.59656E-03-3.63580E-04-1.40133E-14
 -1       760 3.94147E-03-4.35498E-04-1.62253E-14
 -1       761 4.30185E-03-5.37531E-04-1.85961E-14
 -1       762 5.02791E-03-7.72018E-04-2.38405E-14
 -1       763 5.36874E-03-8.08028E-04-2.67271E-14
 -1       764 5.70846E-03-7.44713E-04-2.97871E-14
 -1       765 6.06523E-03-6.03960E-04-3.30071E-14
 -1       766 6.42893E-03-4.46432E-04-3.63851E-14
 -1       767 6.78955E-03-3.05981E-04-3.99021E-14
 -1       768 7.13383E-03-1.95441E-04-4.35449E-14
 -1       769 7.46096E-03-1.11378E-04-4.73020E-14
 -1       770 7.77259E-03-4.73901E-05-5.11631E-14
 -1       771 8.07278E-03 2.69508E-06-5.51293E-14
 -1       772 8.36542E-03 4.34691E-05-5.91927E-14
 -1       773 8.65347E-03 7.82016E-05-6.33499E-14
 -1       774 8.93898E-03 1.09215E-04-6.75943E-14
 -1       775 9.22326E-03 1.38160E-04-7.19191E-14
 -1       776 9.50711E-03 1.66199E-04-7.63074E-14
 -1       777 9.79095E-03 1.94124E-04-8.07511E-14
 -1       778 1.00750E-02 2.22446E-04-8.52440E-14
 -1       779 1.03593E-02 2.51466E-04-8.97800E-14
 -1       780 1.06440E-02 2.81333E-04-9.43636E-14
 -1       781 1.09289E-02 3.12088E-04-9.89936E-14
 -1       782 1.12140E-02 3.43705E-04-1.03673E-13
 -1       783 1.14993E-02 3.76114E-04-1.08389E-13
 -1       784 1.17848E-02 4.09223E-04-1.13132E-13
 -1       785 1.20704E-02 4.42931E-04-1.17903E-13
 -1       786 1.23560E-02 4.77138E-04-1.22705E-13
 -1       787 1.26417E-02 5.11752E-04-1.27530E-13
 -1       788 1.29274E-02 5.46689E-04-1.32383E-13
 -1       789 1.32131E-02 5.81873E-04-1.37258E-13
 -1       790 1.34989E-02 6.17241E-04-1.42159E-13
 -1       791 1.37465E-02 6.44866E-04-1.46458E-13
 -1       792 3.16602E-03 3.50320E-04-1.06243E-14
 -1       793 2.87358E-03 3.20692E-04-8.86574E-15
 -1       794 3.80310E-03 4.82269E-04-1.45854E-14
 -1       795 8.05411E-03 5.68006E-04-4.83259E-14
 -1       796 8.34128E-03 5.84749E-04-5.22441E-14
 -1       797 8.62400E-03 6.12860E-04-5.62557E-14
 -1       798 8.90526E-03 6.48452E-04-6.03579E-14
 -1       799 9.18654E-03 6.88755E-04-6.45399E-14
 -1       800 9.46845E-03 7.31756E-04-6.88064E-14
 -1       801 9.75117E-03 7.76015E-04-7.31478E-14
 -1       802 1.00346E-02 8.20549E-04-7.75485E-14
 -1       803 1.03188E-02 8.64720E-04-8.20038E-14
 -1       804 1.06033E-02 9.08156E-04-8.65146E-14
 -1       805 1.08883E-02 9.50672E-04-9.10764E-14
 -1       806 1.11735E-02 9.92211E-04-9.56888E-14
 -1       807 1.14589E-02 1.03280E-03-1.00351E-13
 -1       808 1.17445E-02 1.07251E-03-1.05052E-13
 -1       809 1.20301E-02 1.11146E-03-1.09792E-13
 -1       810 1.23158E-02 1.14974E-03-1.14568E-13
 -1       811 1.26015E-02 1.18746E-03-1.19367E-13
 -1       812 1.28872E-02 1.22474E-03-1.24195E-13
 -1       813 1.31730E-02 1.26166E-03-1.29042E-13
 -1       814 1.34587E-02 1.29830E-03-1.33904E-13
 -1       815 1.37444E-02 1.33474E-03-1.38774E-13
 -1       816 1.40302E-02 1.37104E-03-1.43656E-13
 -1       817 1.42039E-02 1.38705E-03-1.46701E-13
 -1       818 3.03934E-03 7.47080E-05-1.35414E-14
 -1       819 1.09696E-03 4.79358E-05-1.82196E-15
 -1       820 1.39637E-02 1.00523E-03-1.46539E-13
 -1       821 1.39291E-02 9.22462E-04-1.46814E-13
 -1       822 4.08257E-03-3.61702E-04-1.77998E-14
 -1       823 3.45727E-03 2.78016E-04-1.46954E-14
 -1       824 7.13522E-03 6.59757E-04-3.76601E-14
 -1       825 6.50217E-03-3.54113E-04-3.61478E-14
 -1       826 3.80503E-03 4.34604E-04-1.54810E-14
 -1       827 1.38591E-02 7.54029E-04-1.47359E-13
 -1       828 1.38940E-02 8.38253E-04-1.47087E-13
 -1       829 7.75697E-03 5.68450E-04-4.45110E-14
 -1       830 7.45961E-03 5.95801E-04-4.10349E-14
 -1       831 3.47233E-03 3.99916E-04-1.25317E-14
 -1       832 7.31807E-03 7.21688E-05-4.05118E-14
 -1       833 2.02252E-03 2.81604E-04-4.51566E-15
 -1       834 4.25033E-03 6.80042E-04-1.67727E-14
 -1       835 4.52128E-03-5.70727E-04-2.02580E-14
 -1       836 1.50464E-03-2.28670E-04-2.93025E-15
 -1       837 7.61146E-03 1.87565E-04-4.16991E-14
 -1       838 3.18564E-03 1.83910E-04-1.39641E-14
 -1       839 6.97525E-03-9.29794E-05-3.89510E-14
 -1       840 7.84125E-03 2.62580E-04-4.28252E-14
 -1       841 1.09405E-03 4.84806E-06-1.85203E-15
 -1       842 1.20233E-03 1.66862E-04-1.87623E-15
 -1       843 1.13109E-03-1.36669E-04-1.85714E-15
 -1       844 7.63977E-03 4.24597E-04-4.10494E-14
 -1       845 2.92728E-03 9.71503E-05-1.24999E-14
 -1       846 1.24975E-03-2.06834E-04-2.09411E-15
 -1       847 1.40700E-02 1.25751E-03-1.45690E-13
 -1       848 2.58797E-03 3.02923E-04-7.25991E-15
 -1       849 3.09448E-03 3.58334E-05-1.35263E-14
 -1       850 1.10808E-03 9.26211E-05-1.77779E-15
 -1       851 1.40344E-02 1.17329E-03-1.45983E-13
 -1       852 1.49111E-03 2.56642E-04-2.51384E-15
 -1       853 1.39990E-02 1.08926E-03-1.46260E-13
 -1       854 3.78797E-03-2.55822E-04-1.61547E-14
 -1       855 1.11180E-03-8.52998E-05-1.87046E-15
 -1       856 1.75713E-03 2.71493E-04-3.44225E-15
 -1       857 7.95806E-03 2.96360E-04-4.44276E-14
 -1       858 2.30500E-03 2.91379E-04-5.80960E-15
 -1       859 1.38028E-02 6.99446E-04-1.46909E-13
 -1       860 1.89238E-03-1.83655E-04-4.67641E-15
 -1       861 7.89384E-03 3.50925E-04-4.34394E-14
 -1       862 7.57687E-03 1.34141E-04-4.34572E-14
 -1       863 2.17244E-03-1.88212E-04-6.02052E-15
 -1       864 2.45432E-03-1.91592E-04-7.52440E-15
 -1       865 2.74020E-03-1.96661E-04-9.18566E-15
 -1       866 3.03382E-03-2.07452E-04-1.10019E-14
 -1       867 3.34065E-03-2.30151E-04-1.29687E-14
 -1       868 3.22459E-03 2.34169E-04-1.30221E-14
 -1       869 7.08549E-03-1.26297E-04-4.16117E-14
 -1       870 7.41459E-03-4.28110E-05-4.53090E-14
 -1       871 7.72213E-03 1.71194E-05-4.91127E-14
 -1       872 8.01515E-03 6.30107E-05-5.30209E-14
 -1       873 8.29965E-03 1.00661E-04-5.70301E-14
 -1       874 8.57967E-03 1.33492E-04-6.11335E-14
 -1       875 8.85781E-03 1.63584E-04-6.53247E-14
 -1       876 9.13562E-03 1.92265E-04-6.96016E-14
 -1       877 9.41397E-03 2.20425E-04-7.39486E-14
 -1       878 9.69325E-03 2.48659E-04-7.83559E-14
 -1       879 9.97362E-03 2.77353E-04-8.28146E-14
 -1       880 1.02550E-02 3.06734E-04-8.73199E-14
 -1       881 1.05374E-02 3.36915E-04-9.18733E-14
 -1       882 1.08206E-02 3.67925E-04-9.64750E-14
 -1       883 1.11045E-02 3.99737E-04-1.01124E-13
 -1       884 1.13889E-02 4.32286E-04-1.05818E-13
 -1       885 1.16737E-02 4.65490E-04-1.10547E-13
 -1       886 1.19588E-02 4.99259E-04-1.15307E-13
 -1       887 1.22442E-02 5.33502E-04-1.20096E-13
 -1       888 1.25297E-02 5.68134E-04-1.24908E-13
 -1       889 1.28153E-02 6.03077E-04-1.29741E-13
 -1       890 1.31010E-02 6.38264E-04-1.34600E-13
 -1       891 1.33867E-02 6.73635E-04-1.39478E-13
 -1       892 2.91497E-03 2.56474E-04-9.93000E-15
 -1       893 8.78304E-03 5.65720E-04-5.85979E-14
 -1       894 8.51646E-03 5.31273E-04-5.45402E-14
 -1       895 8.25156E-03 5.02883E-04-5.05754E-14
 -1       896 9.05236E-03 6.04282E-04-6.27376E-14
 -1       897 9.32466E-03 6.45465E-04-6.69595E-14
 -1       898 9.59974E-03 6.88099E-04-7.12612E-14
 -1       899 9.87722E-03 7.31301E-04-7.56306E-14
 -1       900 1.01567E-02 7.74448E-04-8.00564E-14
 -1       901 1.04378E-02 8.17134E-04-8.45386E-14
 -1       902 1.07201E-02 8.59124E-04-8.90748E-14
 -1       903 1.10034E-02 9.00311E-04-9.36614E-14
 -1       904 1.12874E-02 9.40675E-04-9.82943E-14
 -1       905 1.15719E-02 9.80257E-04-1.02973E-13
 -1       906 1.18568E-02 1.01913E-03-1.07693E-13
 -1       907 1.21421E-02 1.05738E-03-1.12450E-13
 -1       908 1.24275E-02 1.09510E-03-1.17232E-13
 -1       909 1.27130E-02 1.13239E-03-1.22042E-13
 -1       910 1.29987E-02 1.16933E-03-1.26878E-13
 -1       911 1.32844E-02 1.20599E-03-1.31734E-13
 -1       912 1.35701E-02 1.24244E-03-1.36605E-13
 -1       913 1.38558E-02 1.27874E-03-1.41481E-13
 -1       914 1.41369E-02 1.32227E-03-1.46199E-13
 -1       915 1.36990E-02 9.32827E-04-1.42432E-13
 -1       916 7.98551E-03 4.83552E-04-4.67074E-14
 -1       917 1.09921E-03-3.88183E-05-1.86845E-15
 -1       918 1.61324E-03-1.75611E-04-3.49526E-15
 -1       919 7.85718E-03 2.27977E-04-4.52960E-14
 -1       920 3.35646E-03-7.33471E-05-1.43702E-14
 -1       921 2.98883E-03 1.53427E-04-1.23701E-14
 -1       922 7.27394E-03-4.96078E-06-4.21010E-14
 -1       923 3.48364E-03 3.39541E-04-1.36085E-14
 -1       924 8.04141E-03 3.34248E-04-4.59337E-14
 -1       925 7.85914E-03 4.04805E-04-4.38863E-14
 -1       926 2.88650E-03 5.35544E-05-1.19016E-14
 -1       927 1.37086E-03-1.57963E-04-2.61495E-15
 -1       928 2.64761E-03 2.41716E-04-8.23292E-15
 -1       929 1.35947E-02 6.86521E-04-1.43187E-13
 -1       930 1.51070E-03 1.88310E-04-2.86370E-15
 -1       931 7.68105E-03 4.96700E-04-4.27753E-14
 -1       932 1.36638E-02 8.48713E-04-1.42703E-13
 -1       933 1.37342E-02 1.01675E-03-1.42161E-13
 -1       934 1.37925E-02 1.18971E-03-1.41317E-13
 -1       935 1.32181E-03 3.07792E-05-2.59307E-15
 -1       936 1.84133E-03 2.16331E-04-4.08415E-15
 -1       937 3.19033E-03 2.87710E-04-1.17020E-14
 -1       938 1.40683E-03 1.07896E-04-2.75283E-15
 -1       939 2.11444E-03 2.24948E-04-5.32136E-15
 -1       940 1.36292E-02 7.67631E-04-1.42945E-13
 -1       941 8.01944E-03 2.71802E-04-4.69428E-14
 -1       942 1.34559E-03-1.00050E-04-2.63162E-15
 -1       943 1.36095E-03 6.82767E-05-2.67822E-15
 -1       944 1.58135E-03-1.12360E-04-3.51454E-15
 -1       945 1.99285E-03-1.23853E-04-5.34418E-15
 -1       946 2.26427E-03-1.22968E-04-6.76421E-15
 -1       947 2.53571E-03-1.20577E-04-8.34066E-15
 -1       948 2.80926E-03-1.18703E-04-1.00715E-14
 -1       949 3.08927E-03-1.21055E-04-1.19521E-14
 -1       950 7.69389E-03 8.54677E-05-4.70716E-14
 -1       951 7.97315E-03 1.24449E-04-5.09230E-14
 -1       952 8.24488E-03 1.56896E-04-5.48777E-14
 -1       953 8.51381E-03 1.86549E-04-5.89265E-14
 -1       954 8.78258E-03 2.15044E-04-6.30679E-14
 -1       955 9.05259E-03 2.43212E-04-6.72913E-14
 -1       956 9.32449E-03 2.71528E-04-7.15965E-14
 -1       957 9.59853E-03 3.00287E-04-7.59655E-14
 -1       958 9.87466E-03 3.29669E-04-8.03912E-14
 -1       959 1.01527E-02 3.59772E-04-8.48670E-14
 -1       960 1.04325E-02 3.90633E-04-8.93930E-14
 -1       961 1.07137E-02 4.22242E-04-9.39672E-14
 -1       962 1.09960E-02 4.54555E-04-9.85880E-14
 -1       963 1.12793E-02 4.87511E-04-1.03254E-13
 -1       964 1.15632E-02 5.21033E-04-1.07962E-13
 -1       965 1.18478E-02 5.55045E-04-1.12708E-13
 -1       966 1.21327E-02 5.89467E-04-1.17486E-13
 -1       967 1.24179E-02 6.24229E-04-1.22282E-13
 -1       968 1.27034E-02 6.59264E-04-1.27102E-13
 -1       969 1.29890E-02 6.94515E-04-1.31944E-13
 -1       970 1.32746E-02 7.29932E-04-1.36804E-13
 -1       971 3.04390E-03-3.98055E-05-1.22977E-14
 -1       972 9.18538E-03 5.64825E-04-6.51224E-14
 -1       973 8.92354E-03 5.26118E-04-6.09430E-14
 -1       974 9.45219E-03 6.05092E-04-6.93831E-14
 -1       975 9.72314E-03 6.46211E-04-7.37194E-14
 -1       976 9.99748E-03 6.87621E-04-7.81151E-14
 -1       977 1.02746E-02 7.28910E-04-8.25694E-14
 -1       978 1.05538E-02 7.69809E-04-8.70771E-14
 -1       979 1.08348E-02 8.10163E-04-9.16348E-14
 -1       980 1.11170E-02 8.49905E-04-9.62439E-14
 -1       981 1.14003E-02 8.89029E-04-1.00898E-13
 -1       982 1.16843E-02 9.27571E-04-1.05596E-13
 -1       983 1.19689E-02 9.65589E-04-1.10334E-13
 -1       984 1.22539E-02 1.00315E-03-1.15104E-13
 -1       985 1.25391E-02 1.04033E-03-1.19895E-13
 -1       986 1.28246E-02 1.07720E-03-1.24715E-13
 -1       987 1.31102E-02 1.11382E-03-1.29562E-13
 -1       988 1.33959E-02 1.15024E-03-1.34426E-13
 -1       989 2.97635E-03 1.98046E-04-1.13291E-14
 -1       990 8.17580E-03 4.27793E-04-4.89120E-14
 -1       991 1.78691E-03-1.18989E-04-4.38364E-15
 -1       992 1.32376E-03-1.73863E-05-2.62396E-15
 -1       993 1.33177E-03-5.74483E-05-2.63349E-15
 -1       994 2.74082E-03 8.19256E-05-1.06741E-14
 -1       995 8.41810E-03 4.56654E-04-5.28304E-14
 -1       996 8.66751E-03 4.89776E-04-5.68449E-14
 -1       997 1.72304E-03 1.31027E-04-3.96787E-15
 -1       998 7.82160E-03 1.71465E-04-4.68364E-14
 -1       999 1.37695E-02 1.10069E-03-1.41885E-13
 -1      1000 2.38223E-03 2.32401E-04-6.70094E-15
 -1      1001 2.82454E-03 1.33888E-04-1.10178E-14
 -1      1002 1.33729E-02 1.06141E-03-1.34992E-13
 -1      1003 8.04872E-03 3.76018E-04-4.64035E-14
 -1      1004 2.69858E-03 1.86153E-04-9.23200E-15
 -1      1005 1.56309E-03 4.71413E-05-3.51264E-15
 -1      1006 2.76175E-03-5.79649E-06-1.04881E-14
 -1      1007 8.01175E-03 2.28635E-04-4.85179E-14
 -1      1008 1.34340E-02 8.59820E-04-1.38332E-13
 -1      1009 8.14952E-03 3.12845E-04-4.84927E-14
 -1      1010 1.34691E-02 9.43635E-04-1.38066E-13
 -1      1011 1.56323E-03-4.50526E-06-3.55719E-15
 -1      1012 1.98486E-03 1.38351E-04-5.19346E-15
 -1      1013 2.58226E-03 3.20055E-05-9.34894E-15
 -1      1014 9.30557E-03 5.27209E-04-6.75138E-14
 -1      1015 1.56284E-03-6.57547E-05-3.51651E-15
 -1      1016 2.35290E-03-5.92599E-05-7.51828E-15
 -1      1017 8.07271E-03 1.98399E-04-5.06864E-14
 -1      1018 8.32464E-03 2.24165E-04-5.46332E-14
 -1      1019 8.57944E-03 2.50414E-04-5.86772E-14
 -1      1020 8.83798E-03 2.77598E-04-6.28065E-14
 -1      1021 9.10047E-03 3.05792E-04-6.70189E-14
 -1      1022 9.36678E-03 3.34951E-04-7.13155E-14
 -1      1023 9.63661E-03 3.65006E-04-7.56775E-14
 -1      1024 9.90957E-03 3.95882E-04-8.00927E-14
 -1      1025 1.01852E-02 4.27507E-04-8.45653E-14
 -1      1026 1.04632E-02 4.59811E-04-8.90873E-14
 -1      1027 1.07430E-02 4.92721E-04-9.36554E-14
 -1      1028 1.10243E-02 5.26167E-04-9.82702E-14
 -1      1029 1.13069E-02 5.60077E-04-1.02931E-13
 -1      1030 1.15903E-02 5.94385E-04-1.07638E-13
 -1      1031 1.18745E-02 6.29028E-04-1.12385E-13
 -1      1032 1.21592E-02 6.63948E-04-1.17160E-13
 -1      1033 1.24442E-02 6.99094E-04-1.21955E-13
 -1      1034 1.27296E-02 7.34420E-04-1.26773E-13
 -1      1035 1.30151E-02 7.69887E-04-1.31609E-13
 -1      1036 9.04678E-03 4.90025E-04-6.32916E-14
 -1      1037 9.57017E-03 5.65548E-04-7.18128E-14
 -1      1038 1.67160E-03 8.85561E-05-3.88814E-15
 -1      1039 9.83946E-03 6.04552E-04-7.61791E-14
 -1      1040 1.01125E-02 6.43823E-04-8.06050E-14
 -1      1041 1.03886E-02 6.83068E-04-8.50863E-14
 -1      1042 1.06671E-02 7.22091E-04-8.96188E-14
 -1      1043 1.09475E-02 7.60782E-04-9.41965E-14
 -1      1044 1.12294E-02 7.99088E-04-9.88269E-14
 -1      1045 1.15124E-02 8.37003E-04-1.03503E-13
 -1      1046 1.17962E-02 8.74547E-04-1.08223E-13
 -1      1047 1.20807E-02 9.11759E-04-1.12978E-13
 -1      1048 1.23655E-02 9.48681E-04-1.17759E-13
 -1      1049 1.26508E-02 9.85362E-04-1.22563E-13
 -1      1050 1.29362E-02 1.02185E-03-1.27392E-13
 -1      1051 1.31545E-02 1.04168E-03-1.31185E-13
 -1      1052 8.55249E-03 4.21320E-04-5.50936E-14
 -1      1053 2.09251E-03-6.50468E-05-6.02578E-15
 -1      1054 8.32148E-03 3.90631E-04-5.11255E-14
 -1      1055 8.79515E-03 4.54557E-04-5.91525E-14
 -1      1056 2.45198E-03 1.78293E-04-7.60903E-15
 -1      1057 2.78384E-03-5.88724E-05-1.02874E-14
 -1      1058 1.34210E-02 1.00255E-03-1.36530E-13
 -1      1059 1.76384E-03-6.96008E-05-4.38464E-15
 -1      1060 2.58042E-03 1.20771E-04-9.06346E-15
 -1      1061 2.60957E-03-5.13269E-05-9.16466E-15
 -1      1062 1.93020E-03 9.52926E-05-5.10535E-15
 -1      1063 8.17488E-03 2.78318E-04-5.01027E-14
 -1      1064 1.30502E-02 8.53446E-04-1.31343E-13
 -1      1065 8.24105E-03 3.50087E-04-4.98084E-14
 -1      1066 1.78611E-03 2.54713E-05-4.54365E-15
 -1      1067 2.21811E-03 1.58016E-04-6.34809E-15
 -1      1068 1.85470E-03 6.01764E-05-4.82620E-15
 -1      1069 2.52641E-03 8.28239E-05-8.89709E-15
 -1      1070 1.77012E-03-2.09760E-05-4.47246E-15
 -1      1071 2.37092E-03 1.17728E-04-7.58011E-15
 -1      1072 9.41542E-03 4.89059E-04-6.99090E-14
 -1      1073 8.24686E-03 2.51118E-04-5.24140E-14
 -1      1074 8.51591E-03 2.93664E-04-5.64600E-14
 -1      1075 8.76270E-03 3.20248E-04-6.05437E-14
 -1      1076 9.01639E-03 3.48851E-04-6.47079E-14
 -1      1077 9.27610E-03 3.79009E-04-6.89569E-14
 -1      1078 9.54087E-03 4.10408E-04-7.32814E-14
 -1      1079 9.80990E-03 4.42779E-04-7.76656E-14
 -1      1080 1.00825E-02 4.75908E-04-8.21057E-14
 -1      1081 1.03581E-02 5.09631E-04-8.65985E-14
 -1      1082 1.06361E-02 5.43819E-04-9.11423E-14
 -1      1083 1.09160E-02 5.78376E-04-9.57286E-14
 -1      1084 1.11975E-02 6.13223E-04-1.00364E-13
 -1      1085 1.14802E-02 6.48300E-04-1.05047E-13
 -1      1086 1.17637E-02 6.83561E-04-1.09777E-13
 -1      1087 1.20480E-02 7.18966E-04-1.14540E-13
 -1      1088 1.23328E-02 7.54486E-04-1.19325E-13
 -1      1089 1.26179E-02 7.90095E-04-1.24135E-13
 -1      1090 1.28340E-02 8.21742E-04-1.27731E-13
 -1      1091 9.15603E-03 4.54037E-04-6.56419E-14
 -1      1092 9.95008E-03 5.61888E-04-7.86424E-14
 -1      1093 1.02234E-02 5.98994E-04-8.30974E-14
 -1      1094 1.04997E-02 6.36237E-04-8.76070E-14
 -1      1095 1.07783E-02 6.73469E-04-9.21579E-14
 -1      1096 1.10588E-02 7.10599E-04-9.67598E-14
 -1      1097 1.13408E-02 7.47580E-04-1.01411E-13
 -1      1098 1.16238E-02 7.84394E-04-1.06110E-13
 -1      1099 1.19077E-02 8.21042E-04-1.10848E-13
 -1      1100 1.21922E-02 8.57537E-04-1.15620E-13
 -1      1101 1.24771E-02 8.93898E-04-1.20415E-13
 -1      1102 1.27624E-02 9.30145E-04-1.25229E-13
 -1      1103 2.34623E-03 2.08864E-05-7.69350E-15
 -1      1104 8.66021E-03 3.88998E-04-5.73599E-14
 -1      1105 8.42843E-03 3.60004E-04-5.33445E-14
 -1      1106 2.06373E-03-1.88237E-06-5.98251E-15
 -1      1107 8.90378E-03 4.20483E-04-6.14602E-14
 -1      1108 9.68046E-03 5.25141E-04-7.42462E-14
 -1      1109 2.15145E-03 9.87346E-05-6.31076E-15
 -1      1110 2.24087E-03 5.96865E-05-6.99366E-15
 -1      1111 1.32026E-02 9.82958E-04-1.32722E-13
 -1      1112 8.29460E-03 3.18264E-04-5.14479E-14
 -1      1113 1.29806E-02 9.49863E-04-1.29009E-13
 -1      1114 8.68246E-03 3.57857E-04-5.82842E-14
 -1      1115 8.42526E-03 3.16096E-04-5.41469E-14
 -1      1116 2.05019E-03 5.96342E-05-5.86220E-15
 -1      1117 1.29258E-02 8.75587E-04-1.28824E-13
 -1      1118 0.00000E+00 0.00000E+00 0.00000E+00
 -1      1119 0.00000E+00 0.00000E+00 0.00000E+00
 -1      1120 0.00000E+00 0.00000E+00 0.00000E+00
 -1      1121 0.00000E+00 0.00000E+00 0.00000E+00
 -1      1122 0.00000E+00 0.00000E+00 0.00000E+00
 -1      1123 0.00000E+00 0.00000E+00 0.00000E+00
 -1      1124 0.00000E+00 0.00000E+00 0.00000E+00
 -1      1125 0.00000E+00 0.00000E+00 0.00000E+00
 -1      1126 0.00000E+00 0.00000E+00 0.00000E+00
 -1      1127 0.00000E+00 0.00000E+00 0.00000E+00
 -1      1128 0.00000E+00 0.00000E+00 0.00000E+00
 -1      1129 0.00000E+00 0.00000E+00 0.00000E+00
 -1      1130 0.00000E+00 0.00000E+00 0.00000E+00
 -1      1131 0.00000E+00 0.00000E+00 0.00000E+00
 -1      1132 0.00000E+00 0.00000E+00 0.00000E+00
 -1      1133 0.00000E+00 0.00000E+00 0.00000E+00
 -1      1134 0.00000E+00 0.00000E+00 0.00000E+00
 -1      1135 2.10287E-04-1.44684E-04 1.76860E-17
 -1      1136 5.51938E-04-3.23414E-04-7.19368E-17
 -1      1137 8.40237E-04-4.33613E-04-3.42757E-16
 -1      1138 1.12034E-03-5.04838E-04-8.24387E-16
 -1      1139 1.40045E-03-5.53105E-04-1.50525E-15
 -1      1140 1.68469E-03-5.87056E-04-2.37932E-15
 -1      1141 1.97563E-03-6.12509E-04-3.44440E-15
 -1      1142 2.27480E-03-6.34292E-04-4.69660E-15
 -1      1143 2.58281E-03-6.56974E-04-6.13053E-15
 -1      1144 2.89931E-03-6.85033E-04-7.74367E-15
 -1      1145 3.22263E-03-7.22641E-04-9.53180E-15
 -1      1146 3.54944E-03-7.72997E-04-1.14909E-14
 -1      1147 3.87465E-03-8.37124E-04-1.36162E-14
 -1      1148 4.19181E-03-9.12290E-04-1.59069E-14
 -1      1149 4.49446E-03-9.90642E-04-1.83625E-14
 -1      1150 4.77854E-03-1.05923E-03-2.09799E-14
 -1      1151 5.04484E-03-1.10254E-03-2.37621E-14
 -1      1152 5.30011E-03-1.10749E-03-2.67107E-14
 -1      1153 5.55534E-03-1.06871E-03-2.98171E-14
 -1      1154 5.82175E-03-9.90959E-04-3.30772E-14
 -1      1155 6.10655E-03-8.87060E-04-3.64862E-14
 -1      1156 6.41110E-03-7.72715E-04-4.00348E-14
 -1      1157 6.73176E-03-6.61432E-04-4.37103E-14
 -1      1158 7.06240E-03-5.61819E-04-4.75047E-14
 -1      1159 7.39674E-03-4.77450E-04-5.14114E-14
 -1      1160 7.72980E-03-4.08209E-04-5.54262E-14
 -1      1161 8.05834E-03-3.51939E-04-5.95429E-14
 -1      1162 8.38074E-03-3.05731E-04-6.37576E-14
 -1      1163 8.69655E-03-2.66721E-04-6.80687E-14
 -1      1164 9.00609E-03-2.32466E-04-7.24568E-14
 -1      1165 9.31006E-03-2.01060E-04-7.69087E-14
 -1      1166 9.60935E-03-1.71110E-04-8.14203E-14
 -1      1167 9.90484E-03-1.41658E-04-8.59700E-14
 -1      1168 1.01974E-02-1.12087E-04-9.05687E-14
 -1      1169 1.04876E-02-8.20281E-05-9.52098E-14
 -1      1170 1.07762E-02-5.12936E-05-9.98858E-14
 -1      1171 1.10636E-02-1.98144E-05-1.04590E-13
 -1      1172 1.13502E-02 1.24013E-05-1.09321E-13
 -1      1173 1.16362E-02 4.52997E-05-1.14065E-13
 -1      1174 1.19218E-02 7.88024E-05-1.18832E-13
 -1      1175 1.22073E-02 1.12822E-04-1.23640E-13
 -1      1176 1.24926E-02 1.47270E-04-1.28486E-13
 -1      1177 1.27779E-02 1.82062E-04-1.33371E-13
 -1      1178 1.30633E-02 2.17123E-04-1.38290E-13
 -1      1179 1.33487E-02 2.52384E-04-1.43238E-13
 -1      1180 1.36342E-02 2.87783E-04-1.48206E-13
 -1      1181 1.39197E-02 3.23268E-04-1.53202E-13
 -1      1182 1.42053E-02 3.58789E-04-1.58217E-13
 -1      1183 1.44910E-02 3.94304E-04-1.63253E-13
 -1      1184 1.47696E-02 4.28901E-04-1.68187E-13
 -1      1185 2.26595E-04 1.56585E-04 4.45336E-17
 -1      1186 5.53826E-04 3.26899E-04 1.98816E-17
 -1      1187 8.41244E-04 4.33745E-04-1.63308E-16
 -1      1188 1.12201E-03 5.03241E-04-5.26760E-16
 -1      1189 1.40350E-03 5.49819E-04-1.06883E-15
 -1      1190 1.69028E-03 5.81684E-04-1.78687E-15
 -1      1191 1.98562E-03 6.04615E-04-2.67996E-15
 -1      1192 2.29206E-03 6.23727E-04-3.74425E-15
 -1      1193 2.61164E-03 6.44366E-04-4.98023E-15
 -1      1194 2.94574E-03 6.72632E-04-6.38567E-15
 -1      1195 3.29444E-03 7.15576E-04-7.95902E-15
 -1      1196 3.65557E-03 7.80808E-04-9.69738E-15
 -1      1197 4.02343E-03 8.74885E-04-1.15956E-14
 -1      1198 4.38790E-03 9.99865E-04-1.36535E-14
 -1      1199 4.73537E-03 1.14824E-03-1.58750E-14
 -1      1200 5.05317E-03 1.29884E-03-1.82655E-14
 -1      1201 5.33714E-03 1.41894E-03-2.08323E-14
 -1      1202 5.59782E-03 1.47644E-03-2.35787E-14
 -1      1203 5.85809E-03 1.45717E-03-2.65083E-14
 -1      1204 6.14139E-03 1.37380E-03-2.96182E-14
 -1      1205 6.45934E-03 1.25808E-03-3.29004E-14
 -1      1206 6.80877E-03 1.14346E-03-3.63418E-14
 -1      1207 7.17743E-03 1.05232E-03-3.99346E-14
 -1      1208 7.55171E-03 9.93224E-04-4.36690E-14
 -1      1209 7.92139E-03 9.64963E-04-4.75205E-14
 -1      1210 8.28068E-03 9.61782E-04-5.14772E-14
 -1      1211 8.62745E-03 9.76974E-04-5.55278E-14
 -1      1212 8.96183E-03 1.00463E-03-5.96669E-14
 -1      1213 9.28516E-03 1.04018E-03-6.38936E-14
 -1      1214 9.59919E-03 1.08035E-03-6.82026E-14
 -1      1215 9.90573E-03 1.12290E-03-7.25732E-14
 -1      1216 1.02064E-02 1.16638E-03-7.70045E-14
 -1      1217 1.05026E-02 1.20990E-03-8.14879E-14
 -1      1218 1.07954E-02 1.25292E-03-8.60126E-14
 -1      1219 1.10858E-02 1.29517E-03-9.05972E-14
 -1      1220 1.13744E-02 1.33655E-03-9.52427E-14
 -1      1221 1.16617E-02 1.37705E-03-9.99380E-14
 -1      1222 1.19482E-02 1.41673E-03-1.04690E-13
 -1      1223 1.22342E-02 1.45566E-03-1.09477E-13
 -1      1224 1.25198E-02 1.49395E-03-1.14283E-13
 -1      1225 1.28052E-02 1.53171E-03-1.19104E-13
 -1      1226 1.30906E-02 1.56902E-03-1.23951E-13
 -1      1227 1.33759E-02 1.60599E-03-1.28806E-13
 -1      1228 1.36612E-02 1.64268E-03-1.33668E-13
 -1      1229 1.39466E-02 1.67916E-03-1.38532E-13
 -1      1230 1.42321E-02 1.71551E-03-1.43399E-13
 -1      1231 1.45176E-02 1.75178E-03-1.48271E-13
 -1      1232 1.48032E-02 1.78800E-03-1.53164E-13
 -1      1233 1.50889E-02 1.82424E-03-1.58078E-13
 -1      1234 1.53675E-02 1.85959E-03-1.62872E-13
 -1      1235 1.54853E-02 1.83469E-03-1.65371E-13
 -1      1236 1.54496E-02 1.75040E-03-1.65721E-13
 -1      1237 1.54139E-02 1.66607E-03-1.66075E-13
 -1      1238 1.53782E-02 1.58170E-03-1.66399E-13
 -1      1239 1.53425E-02 1.49727E-03-1.66695E-13
 -1      1240 1.53071E-02 1.41350E-03-1.66984E-13
 -1      1241 1.52719E-02 1.32969E-03-1.67293E-13
 -1      1242 1.52364E-02 1.24514E-03-1.67614E-13
 -1      1243 1.52011E-02 1.16057E-03-1.67937E-13
 -1      1244 1.51659E-02 1.07600E-03-1.68255E-13
 -1      1245 1.51308E-02 9.91449E-04-1.68560E-13
 -1      1246 1.50961E-02 9.07642E-04-1.68891E-13
 -1      1247 1.50615E-02 8.23876E-04-1.69241E-13
 -1      1248 1.50266E-02 7.39446E-04-1.69550E-13
 -1      1249 1.49918E-02 6.55072E-04-1.69847E-13
 -1      1250 1.49570E-02 5.70749E-04-1.70152E-13
 -1      1251 1.49224E-02 4.87174E-04-1.70452E-13
 -1      1252 7.70369E-03 3.13401E-04-3.31004E-14
 -1      1253 7.59746E-03 4.68410E-04-3.26071E-14
 -1      1254 7.38598E-03 6.24262E-04-3.17995E-14
 -1      1255 7.07889E-03 7.82705E-04-3.07114E-14
 -1      1256 6.70508E-03 9.28959E-04-2.94275E-14
 -1      1257 6.30368E-03 1.04087E-03-2.80698E-14
 -1      1258 5.85096E-03 1.11115E-03-2.65593E-14
 -1      1259 5.39117E-03 1.12069E-03-2.50730E-14
 -1      1260 4.94390E-03 1.06525E-03-2.36990E-14
 -1      1261 4.51214E-03 9.58442E-04-2.24588E-14
 -1      1262 4.12014E-03 8.18557E-04-2.14163E-14
 -1      1263 3.76520E-03 6.56610E-04-2.05563E-14
 -1      1264 3.47856E-03 4.88239E-04-1.99300E-14
 -1      1265 3.29665E-03 3.32361E-04-1.95837E-14
 -1      1266 3.22049E-03 1.83760E-04-1.95026E-14
 -1      1267 3.25633E-03 3.41956E-05-1.96971E-14
 -1      1268 3.40463E-03-1.15056E-04-2.01677E-14
 -1      1269 3.67748E-03-2.78015E-04-2.09768E-14
 -1      1270 4.02765E-03-4.29448E-04-2.20230E-14
 -1      1271 4.43120E-03-5.56752E-04-2.32667E-14
 -1      1272 4.87593E-03-6.46844E-04-2.46906E-14
 -1      1273 5.31103E-03-6.79646E-04-2.61270E-14
 -1      1274 5.75487E-03-6.56859E-04-2.76034E-14
 -1      1275 6.19161E-03-5.79337E-04-2.90244E-14
 -1      1276 6.61191E-03-4.57681E-04-3.03509E-14
 -1      1277 6.98903E-03-3.12331E-04-3.14869E-14
 -1      1278 7.31278E-03-1.53082E-04-3.23915E-14
 -1      1279 7.55795E-03 1.11949E-05-3.29924E-14
 -1      1280 7.68994E-03 1.65541E-04-3.32220E-14
 -1      1281 1.67438E-04-1.06577E-04-1.13841E-17
 -1      1282 1.14234E-04-5.24980E-05-4.40728E-17
 -1      1283 1.19145E-04-6.36419E-05-3.49520E-17
 -1      1284 1.09864E-04-3.80738E-05-5.87909E-17
 -1      1285 1.11894E-04-4.45311E-05-5.43727E-17
 -1      1286 2.29941E-04-9.79221E-05-1.28207E-16
 -1      1287 1.07672E-04-2.78262E-05-6.67462E-17
 -1      1288 1.08845E-04-3.26136E-05-6.45507E-17
 -1      1289 2.21837E-04-7.14947E-05-1.54458E-16
 -1      1290 1.06143E-04-1.98156E-05-7.11237E-17
 -1      1291 1.06959E-04-2.36311E-05-7.00530E-17
 -1      1292 2.17120E-04-5.20735E-05-1.69271E-16
 -1      1293 1.05013E-04-1.33758E-05-7.32108E-17
 -1      1294 1.05604E-04-1.64736E-05-7.27771E-17
 -1      1295 2.13797E-04-3.68389E-05-1.77226E-16
 -1      1296 1.04185E-04-7.85954E-06-7.42678E-17
 -1      1297 1.04595E-04-1.05468E-05-7.42272E-17
 -1      1298 2.11316E-04-2.42953E-05-1.81401E-16
 -1      1299 1.03700E-04-3.02035E-06-7.41594E-17
 -1      1300 1.03917E-04-5.42026E-06-7.43221E-17
 -1      1301 2.09586E-04-1.35166E-05-1.82729E-16
 -1      1302 1.03589E-04 1.49742E-06-7.34547E-17
 -1      1303 1.03601E-04-7.90745E-07-7.37122E-17
 -1      1304 2.08664E-04-3.89268E-06-1.81916E-16
 -1      1305 1.03866E-04 6.06123E-06-7.17606E-17
 -1      1306 1.03668E-04 3.70313E-06-7.22485E-17
 -1      1307 2.08605E-04 5.28374E-06-1.79286E-16
 -1      1308 1.04533E-04 1.10571E-05-6.91179E-17
 -1      1309 1.04125E-04 8.43770E-06-6.99310E-17
 -1      1310 2.09436E-04 1.47419E-05-1.74543E-16
 -1      1311 1.05558E-04 1.67872E-05-6.53096E-17
 -1      1312 1.04952E-04 1.37603E-05-6.65023E-17
 -1      1313 2.11134E-04 2.51540E-05-1.67509E-16
 -1      1314 1.06991E-04 2.39060E-05-5.97124E-17
 -1      1315 1.06139E-04 2.01261E-05-6.16504E-17
 -1      1316 2.13692E-04 3.74144E-05-1.57467E-16
 -1      1317 1.08937E-04 3.29323E-05-5.13099E-17
 -1      1318 1.07727E-04 2.81176E-05-5.44676E-17
 -1      1319 2.17202E-04 5.26430E-05-1.42993E-16
 -1      1320 1.11968E-04 4.49898E-05-3.81504E-17
 -1      1321 1.09948E-04 3.84667E-05-4.37476E-17
 -1      1322 2.22056E-04 7.22046E-05-1.21675E-16
 -1      1323 1.18536E-04 6.34887E-05-1.70084E-17
 -1      1324 1.13983E-04 5.30477E-05-2.71593E-17
 -1      1325 2.30127E-04 9.91702E-05-8.98668E-17
 -1      1326 1.57882E-04 1.06319E-04 1.58836E-17
 -1      1327 1.37142E-04 8.20664E-05-4.51299E-18
 -1      1328 2.59733E-04 1.42912E-04-5.18384E-17
 -1      1329 3.36467E-04 2.11722E-04 2.76472E-18
 -1      1330 4.24349E-04-2.49907E-04-9.02869E-17
 -1      1331 5.79931E-04-3.19039E-04-1.82146E-16
 -1      1332 7.30416E-04-3.73769E-04-3.29354E-16
 -1      1333 8.77697E-04-4.17349E-04-5.26909E-16
 -1      1334 6.21224E-04-3.09278E-04-3.07941E-16
 -1      1335 1.02272E-03-4.52950E-04-7.72874E-16
 -1      1336 1.16647E-03-4.81797E-04-1.06878E-15
 -1      1337 9.22386E-04-3.98224E-04-7.16143E-16
 -1      1338 1.30985E-03-5.05795E-04-1.41278E-15
 -1      1339 1.45340E-03-5.25546E-04-1.80520E-15
 -1      1340 1.21577E-03-4.56930E-04-1.31702E-15
 -1      1341 1.59766E-03-5.42197E-04-2.24491E-15
 -1      1342 1.74295E-03-5.56252E-04-2.73184E-15
 -1      1343 1.50717E-03-4.96633E-04-2.10816E-15
 -1      1344 1.88957E-03-5.68500E-04-3.26574E-15
 -1      1345 2.03771E-03-5.79456E-04-3.84614E-15
 -1      1346 1.80033E-03-5.24436E-04-3.08644E-15
 -1      1347 2.18754E-03-5.89783E-04-4.47205E-15
 -1      1348 2.33912E-03-6.00003E-04-5.14402E-15
 -1      1349 2.09761E-03-5.45763E-04-4.24877E-15
 -1      1350 2.49252E-03-6.10756E-04-5.86078E-15
 -1      1351 2.64770E-03-6.22555E-04-6.62130E-15
 -1      1352 2.40030E-03-5.65489E-04-5.59189E-15
 -1      1353 2.80457E-03-6.36049E-04-7.42649E-15
 -1      1354 2.96296E-03-6.51697E-04-8.27538E-15
 -1      1355 2.70889E-03-5.88369E-04-7.11199E-15
 -1      1356 3.12265E-03-6.70117E-04-9.16669E-15
 -1      1357 3.28330E-03-6.91631E-04-1.01011E-14
 -1      1358 3.02299E-03-6.19061E-04-8.80528E-15
 -1      1359 3.44451E-03-7.16699E-04-1.10776E-14
 -1      1360 3.60576E-03-7.45371E-04-1.20963E-14
 -1      1361 3.34125E-03-6.61727E-04-1.06685E-14
 -1      1362 3.76650E-03-7.77731E-04-1.31556E-14
 -1      1363 3.92611E-03-8.13376E-04-1.42559E-14
 -1      1364 3.66125E-03-7.19078E-04-1.26983E-14
 -1      1365 4.08394E-03-8.51745E-04-1.53982E-14
 -1      1366 4.23938E-03-8.91831E-04-1.65813E-14
 -1      1367 3.97959E-03-7.90842E-04-1.48941E-14
 -1      1368 4.39189E-03-9.32243E-04-1.78052E-14
 -1      1369 4.54109E-03-9.71355E-04-1.90698E-14
 -1      1370 4.29232E-03-8.71965E-04-1.72524E-14
 -1      1371 4.68678E-03-1.00707E-03-2.03748E-14
 -1      1372 4.82905E-03-1.03746E-03-2.17210E-14
 -1      1373 4.59602E-03-9.51474E-04-1.97731E-14
 -1      1374 4.96823E-03-1.06030E-03-2.31079E-14
 -1      1375 5.10497E-03-1.07393E-03-2.45375E-14
 -1      1376 4.88928E-03-1.01352E-03-2.24586E-14
 -1      1377 5.24012E-03-1.07687E-03-2.60083E-14
 -1      1378 5.37475E-03-1.06845E-03-2.75192E-14
 -1      1379 5.17402E-03-1.04159E-03-2.53093E-14
 -1      1380 5.50993E-03-1.04860E-03-2.90688E-14
 -1      1381 5.64675E-03-1.01794E-03-3.06569E-14
 -1      1382 5.45549E-03-1.02474E-03-2.83237E-14
 -1      1383 5.78608E-03-9.77871E-04-3.22842E-14
 -1      1384 5.92863E-03-9.30007E-04-3.39489E-14
 -1      1385 5.74043E-03-9.62565E-04-3.14949E-14
 -1      1386 6.07478E-03-8.76567E-04-3.56498E-14
 -1      1387 6.22468E-03-8.19521E-04-3.73866E-14
 -1      1388 6.03433E-03-8.65486E-04-3.48179E-14
 -1      1389 6.37817E-03-7.61016E-04-3.91568E-14
 -1      1390 6.53490E-03-7.02749E-04-4.09604E-14
 -1      1391 6.33941E-03-7.49990E-04-3.82831E-14
 -1      1392 6.69439E-03-6.46197E-04-4.27963E-14
 -1      1393 6.85605E-03-5.92472E-04-4.46610E-14
 -1      1394 6.65458E-03-6.32351E-04-4.18847E-14
 -1      1395 7.01925E-03-5.42235E-04-4.65550E-14
 -1      1396 7.18339E-03-4.95998E-04-4.84777E-14
 -1      1397 6.97660E-03-5.24255E-04-4.56091E-14
 -1      1398 7.34792E-03-4.53779E-04-5.04288E-14
 -1      1399 7.51235E-03-4.15653E-04-5.24065E-14
 -1      1400 7.30166E-03-4.31591E-04-4.94501E-14
 -1      1401 7.67627E-03-3.81268E-04-5.44103E-14
 -1      1402 7.83935E-03-3.50441E-04-5.64405E-14
 -1      1403 7.62638E-03-3.55516E-04-5.33990E-14
 -1      1404 8.00135E-03-3.22690E-04-5.84954E-14
 -1      1405 8.16210E-03-2.97716E-04-6.05754E-14
 -1      1406 7.94833E-03-2.94291E-04-5.74521E-14
 -1      1407 8.32151E-03-2.75052E-04-6.26801E-14
 -1      1408 8.47950E-03-2.54379E-04-6.48083E-14
 -1      1409 8.26606E-03-2.44913E-04-6.16060E-14
 -1      1410 8.63608E-03-2.35308E-04-6.69587E-14
 -1      1411 8.79127E-03-2.17552E-04-6.91309E-14
 -1      1412 8.57893E-03-2.04186E-04-6.58547E-14
 -1      1413 8.94513E-03-2.00819E-04-7.13204E-14
 -1      1414 9.09771E-03-1.84870E-04-7.35249E-14
 -1      1415 8.88692E-03-1.69280E-04-7.01870E-14
 -1      1416 9.24912E-03-1.69506E-04-7.57473E-14
 -1      1417 9.39944E-03-1.54538E-04-7.79862E-14
 -1      1418 9.19037E-03-1.37937E-04-7.45912E-14
 -1      1419 9.54876E-03-1.39842E-04-8.02366E-14
 -1      1420 9.69717E-03-1.25278E-04-8.24980E-14
 -1      1421 9.48983E-03-1.08485E-04-7.90577E-14
 -1      1422 9.84477E-03-1.10774E-04-8.47709E-14
 -1      1423 9.99165E-03-9.62321E-05-8.70540E-14
 -1      1424 9.78593E-03-7.97608E-05-8.35738E-14
 -1      1425 1.01379E-02-8.16175E-05-8.93496E-14
 -1      1426 1.02836E-02-6.68647E-05-9.16570E-14
 -1      1427 1.00793E-02-5.10036E-05-8.81360E-14
 -1      1428 1.04287E-02-5.19640E-05-9.39744E-14
 -1      1429 1.05735E-02-3.68742E-05-9.63012E-14
 -1      1430 1.03705E-02-2.17555E-05-9.27417E-14
 -1      1431 1.07179E-02-2.16007E-05-9.86357E-14
 -1      1432 1.08620E-02-6.12036E-06-1.00979E-13
 -1      1433 1.06599E-02 8.22661E-06-9.73884E-14
 -1      1434 1.10058E-02 9.55292E-06-1.03329E-13
 -1      1435 1.11494E-02 2.54299E-05-1.05685E-13
 -1      1436 1.09482E-02 3.90396E-05-1.02070E-13
 -1      1437 1.12928E-02 4.14926E-05-1.08049E-13
 -1      1438 1.14360E-02 5.77434E-05-1.10420E-13
 -1      1439 1.12355E-02 7.06861E-05-1.06781E-13
 -1      1440 1.15791E-02 7.41632E-05-1.12792E-13
 -1      1441 1.17221E-02 9.07492E-05-1.15167E-13
 -1      1442 1.15221E-02 1.03112E-04-1.11516E-13
 -1      1443 1.18650E-02 1.07483E-04-1.17553E-13
 -1      1444 1.20079E-02 1.24358E-04-1.19948E-13
 -1      1445 1.18083E-02 1.36232E-04-1.16272E-13
 -1      1446 1.21507E-02 1.41358E-04-1.22348E-13
 -1      1447 1.22935E-02 1.58476E-04-1.24760E-13
 -1      1448 1.20941E-02 1.69949E-04-1.21058E-13
 -1      1449 1.24362E-02 1.75696E-04-1.27184E-13
 -1      1450 1.25790E-02 1.93011E-04-1.29616E-13
 -1      1451 1.23798E-02 2.04165E-04-1.25883E-13
 -1      1452 1.27217E-02 2.10407E-04-1.32054E-13
 -1      1453 1.28644E-02 2.27878E-04-1.34504E-13
 -1      1454 1.26654E-02 2.38783E-04-1.30743E-13
 -1      1455 1.30071E-02 2.45411E-04-1.36962E-13
 -1      1456 1.31499E-02 2.62999E-04-1.39424E-13
 -1      1457 1.29509E-02 2.73720E-04-1.35633E-13
 -1      1458 1.32926E-02 2.80633E-04-1.41893E-13
 -1      1459 1.34353E-02 2.98307E-04-1.44372E-13
 -1      1460 1.32365E-02 3.08897E-04-1.40556E-13
 -1      1461 1.35781E-02 3.16012E-04-1.46856E-13
 -1      1462 1.37209E-02 3.33741E-04-1.49342E-13
 -1      1463 1.35220E-02 3.44247E-04-1.45506E-13
 -1      1464 1.38637E-02 3.51488E-04-1.51839E-13
 -1      1465 1.40065E-02 3.69248E-04-1.54341E-13
 -1      1466 1.38076E-02 3.79711E-04-1.50479E-13
 -1      1467 1.41493E-02 3.87013E-04-1.56847E-13
 -1      1468 1.42921E-02 4.04778E-04-1.59356E-13
 -1      1469 1.40932E-02 4.15234E-04-1.55478E-13
 -1      1470 1.44349E-02 4.22540E-04-1.61872E-13
 -1      1471 1.45778E-02 4.40292E-04-1.64396E-13
 -1      1472 1.43789E-02 4.50770E-04-1.60496E-13
 -1      1473 1.47867E-02 4.70330E-04-1.68045E-13
 -1      1474 1.47306E-02 4.98579E-04-1.66655E-13
 -1      1475 6.49311E-04 3.50474E-04-1.03297E-16
 -1      1476 4.96305E-04 2.88482E-04-2.79453E-17
 -1      1477 4.50225E-04 2.50624E-04-6.84945E-17
 -1      1478 9.43563E-04 4.37949E-04-3.86139E-16
 -1      1479 7.97879E-04 3.98637E-04-2.22885E-16
 -1      1480 7.56841E-04 3.62513E-04-2.72785E-16
 -1      1481 1.23129E-03 4.95592E-04-8.44770E-16
 -1      1482 1.08765E-03 4.69668E-04-5.93167E-16
 -1      1483 1.05295E-03 4.35334E-04-6.50765E-16
 -1      1484 1.51956E-03 5.34211E-04-1.47850E-15
 -1      1485 1.37498E-03 5.16820E-04-1.13952E-15
 -1      1486 1.34491E-03 4.83360E-04-1.20185E-15
 -1      1487 1.81278E-03 5.60578E-04-2.28673E-15
 -1      1488 1.66531E-03 5.48571E-04-1.86061E-15
 -1      1489 1.63800E-03 5.15257E-04-1.92645E-15
 -1      1490 2.11398E-03 5.80067E-04-3.26779E-15
 -1      1491 1.96221E-03 5.70840E-04-2.75569E-15
 -1      1492 1.93589E-03 5.37092E-04-2.82379E-15
 -1      1493 2.42540E-03 5.97861E-04-4.41886E-15
 -1      1494 2.26828E-03 5.88808E-04-3.82231E-15
 -1      1495 2.24116E-03 5.54130E-04-3.89226E-15
 -1      1496 2.74863E-03 6.19660E-04-5.73996E-15
 -1      1497 2.58544E-03 6.07854E-04-5.05847E-15
 -1      1498 2.55570E-03 5.71787E-04-5.12936E-15
 -1      1499 3.08439E-03 6.52101E-04-7.22744E-15
 -1      1500 2.91492E-03 6.34116E-04-6.46294E-15
 -1      1501 2.88069E-03 5.96231E-04-6.53297E-15
 -1      1502 3.43193E-03 7.02789E-04-8.88092E-15
 -1      1503 3.25678E-03 6.74755E-04-8.03361E-15
 -1      1504 3.21639E-03 6.34699E-04-8.10150E-15
 -1      1505 3.78821E-03 7.79493E-04-1.06952E-14
 -1      1506 3.60925E-03 7.37635E-04-9.76743E-15
 -1      1507 3.56167E-03 6.95247E-04-9.83202E-15
 -1      1508 4.14718E-03 8.87781E-04-1.26698E-14
 -1      1509 3.96787E-03 8.29816E-04-1.16633E-14
 -1      1510 3.91341E-03 7.85357E-04-1.17235E-14
 -1      1511 4.49976E-03 1.02656E-03-1.48052E-14
 -1      1512 4.32498E-03 9.54153E-04-1.37166E-14
 -1      1513 4.26606E-03 9.08603E-04-1.37743E-14
 -1      1514 4.83566E-03 1.18253E-03-1.71046E-14
 -1      1515 4.67047E-03 1.10402E-03-1.59340E-14
 -1      1516 4.61196E-03 1.05928E-03-1.59859E-14
 -1      1517 5.14781E-03 1.32762E-03-1.95778E-14
 -1      1518 4.99493E-03 1.25861E-03-1.83192E-14
 -1      1519 4.94341E-03 1.21713E-03-1.83657E-14
 -1      1520 5.43780E-03 1.42551E-03-2.22279E-14
 -1      1521 5.29501E-03 1.38429E-03-2.08803E-14
 -1      1522 5.25677E-03 1.34792E-03-2.09206E-14
 -1      1523 5.71792E-03 1.44862E-03-2.50605E-14
 -1      1524 5.57790E-03 1.44682E-03-2.36214E-14
 -1      1525 5.55653E-03 1.41537E-03-2.36559E-14
 -1      1526 6.00608E-03 1.39460E-03-2.80748E-14
 -1      1527 5.85983E-03 1.42988E-03-2.65454E-14
 -1      1528 5.85496E-03 1.40103E-03-2.65741E-14
 -1      1529 6.31604E-03 1.28823E-03-3.12659E-14
 -1      1530 6.15780E-03 1.34561E-03-2.96485E-14
 -1      1531 6.16537E-03 1.31638E-03-2.96719E-14
 -1      1532 6.65120E-03 1.16588E-03-3.46214E-14
 -1      1533 6.48067E-03 1.22692E-03-3.29231E-14
 -1      1534 6.49445E-03 1.19539E-03-3.29409E-14
 -1      1535 7.00559E-03 1.05805E-03-3.81348E-14
 -1      1536 6.82661E-03 1.10896E-03-3.63593E-14
 -1      1537 6.84030E-03 1.07471E-03-3.63704E-14
 -1      1538 7.36921E-03 9.80653E-04-4.17886E-14
 -1      1539 7.18692E-03 1.01526E-03-3.99448E-14
 -1      1540 7.19588E-03 9.78869E-04-3.99490E-14
 -1      1541 7.73270E-03 9.36680E-04-4.55751E-14
 -1      1542 7.55149E-03 9.54735E-04-4.36673E-14
 -1      1543 7.55336E-03 9.17091E-04-4.36632E-14
 -1      1544 8.08964E-03 9.21788E-04-4.94734E-14
 -1      1545 7.91230E-03 9.26044E-04-4.75103E-14
 -1      1546 7.90672E-03 8.87943E-04-4.74958E-14
 -1      1547 8.43672E-03 9.29090E-04-5.34677E-14
 -1      1548 8.26455E-03 9.23110E-04-5.14581E-14
 -1      1549 8.25234E-03 8.85120E-04-5.14365E-14
 -1      1550 8.77296E-03 9.51895E-04-5.75594E-14
 -1      1551 8.60620E-03 9.38921E-04-5.55039E-14
 -1      1552 8.58872E-03 9.01383E-04-5.54758E-14
 -1      1553 9.09886E-03 9.84773E-04-6.17367E-14
 -1      1554 8.93714E-03 9.67348E-04-5.96374E-14
 -1      1555 8.91576E-03 9.30425E-04-5.96040E-14
 -1      1556 9.41567E-03 1.02373E-03-6.59967E-14
 -1      1557 9.25831E-03 1.00368E-03-6.38561E-14
 -1      1558 9.23422E-03 9.67417E-04-6.38156E-14
 -1      1559 9.72487E-03 1.06598E-03-7.03313E-14
 -1      1560 9.57112E-03 1.04457E-03-6.81557E-14
 -1      1561 9.54526E-03 1.00893E-03-6.81075E-14
 -1      1562 1.00279E-02 1.10972E-03-7.47247E-14
 -1      1563 9.87707E-03 1.08775E-03-7.25206E-14
 -1      1564 9.85012E-03 1.05268E-03-7.24662E-14
 -1      1565 1.03262E-02 1.15378E-03-7.91807E-14
 -1      1566 1.01776E-02 1.13176E-03-7.69457E-14
 -1      1567 1.01500E-02 1.09717E-03-7.68861E-14
 -1      1568 1.06207E-02 1.19747E-03-8.36796E-14
 -1      1569 1.04738E-02 1.17570E-03-8.14246E-14
 -1      1570 1.04460E-02 1.14151E-03-8.13601E-14
 -1      1571 1.09124E-02 1.24043E-03-8.82323E-14
 -1      1572 1.07669E-02 1.21906E-03-8.59493E-14
 -1      1573 1.07390E-02 1.18519E-03-8.58828E-14
 -1      1574 1.12021E-02 1.28249E-03-9.28445E-14
 -1      1575 1.10575E-02 1.26158E-03-9.05307E-14
 -1      1576 1.10297E-02 1.22797E-03-9.04617E-14
 -1      1577 1.14904E-02 1.32360E-03-9.75093E-14
 -1      1578 1.13464E-02 1.30316E-03-9.51706E-14
 -1      1579 1.13188E-02 1.26975E-03-9.50972E-14
 -1      1580 1.17775E-02 1.36381E-03-1.02227E-13
 -1      1581 1.16341E-02 1.34382E-03-9.98611E-14
 -1      1582 1.16066E-02 1.31055E-03-9.97815E-14
 -1      1583 1.20640E-02 1.40320E-03-1.06988E-13
 -1      1584 1.19208E-02 1.38360E-03-1.04603E-13
 -1      1585 1.18936E-02 1.35046E-03-1.04515E-13
 -1      1586 1.23500E-02 1.44187E-03-1.11781E-13
 -1      1587 1.22070E-02 1.42262E-03-1.09381E-13
 -1      1588 1.21799E-02 1.38956E-03-1.09285E-13
 -1      1589 1.26356E-02 1.47993E-03-1.16590E-13
 -1      1590 1.24928E-02 1.46097E-03-1.14184E-13
 -1      1591 1.24659E-02 1.42797E-03-1.14083E-13
 -1      1592 1.29212E-02 1.51748E-03-1.21421E-13
 -1      1593 1.27784E-02 1.49876E-03-1.19002E-13
 -1      1594 1.27516E-02 1.46580E-03-1.18900E-13
 -1      1595 1.32066E-02 1.55463E-03-1.26271E-13
 -1      1596 1.30639E-02 1.53610E-03-1.23844E-13
 -1      1597 1.30372E-02 1.50317E-03-1.23739E-13
 -1      1598 1.34920E-02 1.59146E-03-1.31129E-13
 -1      1599 1.33493E-02 1.57308E-03-1.28698E-13
 -1      1600 1.33227E-02 1.54017E-03-1.28592E-13
 -1      1601 1.37775E-02 1.62804E-03-1.35990E-13
 -1      1602 1.36347E-02 1.60978E-03-1.33559E-13
 -1      1603 1.36082E-02 1.57687E-03-1.33452E-13
 -1      1604 1.40629E-02 1.66446E-03-1.40862E-13
 -1      1605 1.39202E-02 1.64627E-03-1.38425E-13
 -1      1606 1.38937E-02 1.61337E-03-1.38317E-13
 -1      1607 1.43485E-02 1.70075E-03-1.45730E-13
 -1      1608 1.42057E-02 1.68261E-03-1.43296E-13
 -1      1609 1.41793E-02 1.64971E-03-1.43189E-13
 -1      1610 1.46341E-02 1.73699E-03-1.50618E-13
 -1      1611 1.44913E-02 1.71887E-03-1.48172E-13
 -1      1612 1.44649E-02 1.68597E-03-1.48072E-13
 -1      1613 1.49197E-02 1.77320E-03-1.55521E-13
 -1      1614 1.47769E-02 1.75509E-03-1.53066E-13
 -1      1615 1.47505E-02 1.72218E-03-1.52969E-13
 -1      1616 1.52054E-02 1.80945E-03-1.60436E-13
 -1      1617 1.50625E-02 1.79132E-03-1.57979E-13
 -1      1618 1.50362E-02 1.75841E-03-1.57879E-13
 -1      1619 1.53496E-02 1.81745E-03-1.63041E-13
 -1      1620 1.53170E-02 1.71360E-03-1.63678E-13
 -1      1621 1.53349E-02 1.75575E-03-1.63505E-13
 -1      1622 1.52812E-02 1.62926E-03-1.64019E-13
 -1      1623 1.52991E-02 1.67144E-03-1.63851E-13
 -1      1624 1.51843E-02 1.67681E-03-1.61631E-13
 -1      1625 1.52455E-02 1.54488E-03-1.64333E-13
 -1      1626 1.52634E-02 1.58708E-03-1.64179E-13
 -1      1627 1.51486E-02 1.59247E-03-1.61959E-13
 -1      1628 1.52098E-02 1.46046E-03-1.64632E-13
 -1      1629 1.52277E-02 1.50268E-03-1.64486E-13
 -1      1630 1.51128E-02 1.50809E-03-1.62271E-13
 -1      1631 1.51748E-02 1.37743E-03-1.64928E-13
 -1      1632 1.51923E-02 1.41895E-03-1.64778E-13
 -1      1633 1.50775E-02 1.42440E-03-1.62570E-13
 -1      1634 1.51393E-02 1.29294E-03-1.65234E-13
 -1      1635 1.51570E-02 1.33519E-03-1.65081E-13
 -1      1636 1.50422E-02 1.34068E-03-1.62868E-13
 -1      1637 1.51038E-02 1.20843E-03-1.65548E-13
 -1      1638 1.51215E-02 1.25068E-03-1.65389E-13
 -1      1639 1.50066E-02 1.25622E-03-1.63172E-13
 -1      1640 1.50685E-02 1.12390E-03-1.65864E-13
 -1      1641 1.50862E-02 1.16617E-03-1.65707E-13
 -1      1642 1.49713E-02 1.17174E-03-1.63479E-13
 -1      1643 1.50333E-02 1.03939E-03-1.66178E-13
 -1      1644 1.50509E-02 1.08164E-03-1.66022E-13
 -1      1645 1.49360E-02 1.08726E-03-1.63792E-13
 -1      1646 1.49983E-02 9.54885E-04-1.66490E-13
 -1      1647 1.50158E-02 9.97133E-04-1.66335E-13
 -1      1648 1.49008E-02 1.00279E-03-1.64104E-13
 -1      1649 1.49639E-02 8.71840E-04-1.66814E-13
 -1      1650 1.49811E-02 9.13359E-04-1.66648E-13
 -1      1651 1.48661E-02 9.19045E-04-1.64414E-13
 -1      1652 1.49290E-02 7.87398E-04-1.67142E-13
 -1      1653 1.49464E-02 8.29614E-04-1.66980E-13
 -1      1654 1.48314E-02 8.35323E-04-1.64732E-13
 -1      1655 1.48942E-02 7.02999E-04-1.67443E-13
 -1      1656 1.49116E-02 7.45193E-04-1.67298E-13
 -1      1657 1.47966E-02 7.50915E-04-1.65044E-13
 -1      1658 1.48594E-02 6.18643E-04-1.67744E-13
 -1      1659 1.48768E-02 6.60816E-04-1.67592E-13
 -1      1660 1.47618E-02 6.66540E-04-1.65343E-13
 -1      1661 1.47863E-02 5.37528E-04-1.67276E-13
 -1      1662 1.48037E-02 5.79684E-04-1.67126E-13
 -1      1663 1.46887E-02 5.85400E-04-1.64873E-13
 -1      1664 1.45774E-02 5.07483E-04-1.63635E-13
 -1      1665 7.70169E-03 3.15928E-04-3.37350E-14
 -1      1666 7.72791E-03 2.70254E-04-3.38883E-14
 -1      1667 7.53568E-03 4.27198E-04-3.31828E-14
 -1      1668 7.63016E-03 3.71210E-04-3.35297E-14
 -1      1669 7.27087E-03 5.80208E-04-3.21098E-14
 -1      1670 7.40386E-03 5.12336E-04-3.25711E-14
 -1      1671 6.89627E-03 7.52244E-04-3.08773E-14
 -1      1672 7.07820E-03 6.63862E-04-3.15207E-14
 -1      1673 6.52106E-03 9.32987E-04-2.94099E-14
 -1      1674 6.69470E-03 8.56049E-04-3.00557E-14
 -1      1675 6.12310E-03 1.07886E-03-2.79113E-14
 -1      1676 6.30221E-03 1.01513E-03-2.86312E-14
 -1      1677 5.71061E-03 1.17136E-03-2.62188E-14
 -1      1678 5.89693E-03 1.13961E-03-2.70101E-14
 -1      1679 5.32438E-03 1.15891E-03-2.46468E-14
 -1      1680 5.49732E-03 1.17404E-03-2.53339E-14
 -1      1681 4.92868E-03 1.06066E-03-2.31645E-14
 -1      1682 5.11431E-03 1.11767E-03-2.38314E-14
 -1      1683 4.52091E-03 9.02764E-04-2.19243E-14
 -1      1684 4.70225E-03 9.80357E-04-2.24771E-14
 -1      1685 4.13602E-03 7.15046E-04-2.08416E-14
 -1      1686 4.31493E-03 8.02649E-04-2.13056E-14
 -1      1687 3.75445E-03 5.32501E-04-2.00085E-14
 -1      1688 3.92429E-03 6.17844E-04-2.03779E-14
 -1      1689 3.44946E-03 3.73301E-04-1.94175E-14
 -1      1690 3.57892E-03 4.42437E-04-1.96554E-14
 -1      1691 3.26400E-03 2.53652E-04-1.91224E-14
 -1      1692 3.33400E-03 3.03987E-04-1.92219E-14
 -1      1693 3.20096E-03 1.50877E-04-1.90764E-14
 -1      1694 3.21347E-03 1.96189E-04-1.90494E-14
 -1      1695 3.27762E-03 4.98334E-05-1.93462E-14
 -1      1696 3.22492E-03 9.69952E-05-1.91863E-14
 -1      1697 3.48774E-03-6.24835E-05-1.98498E-14
 -1      1698 3.37673E-03-5.51902E-06-1.95572E-14
 -1      1699 3.84700E-03-2.25082E-04-2.07672E-14
 -1      1700 3.66634E-03-1.40094E-04-2.02714E-14
 -1      1701 4.20088E-03-4.12029E-04-2.19896E-14
 -1      1702 4.03631E-03-3.38498E-04-2.14849E-14
 -1      1703 4.63449E-03-5.80630E-04-2.33965E-14
 -1      1704 4.42864E-03-5.00497E-04-2.26746E-14
 -1      1705 5.02342E-03-6.91299E-04-2.49187E-14
 -1      1706 4.85028E-03-6.50626E-04-2.42467E-14
 -1      1707 5.41265E-03-7.27103E-04-2.65053E-14
 -1      1708 5.23247E-03-7.21258E-04-2.57535E-14
 -1      1709 5.79965E-03-6.75671E-04-2.80881E-14
 -1      1710 5.62271E-03-7.08593E-04-2.73692E-14
 -1      1711 6.20078E-03-5.50927E-04-2.96324E-14
 -1      1712 6.01280E-03-6.17251E-04-2.89269E-14
 -1      1713 6.59262E-03-3.75288E-04-3.11043E-14
 -1      1714 6.40880E-03-4.59028E-04-3.04757E-14
 -1      1715 6.98881E-03-2.00376E-04-3.22388E-14
 -1      1716 6.81515E-03-2.83245E-04-3.17221E-14
 -1      1717 7.33605E-03-3.20049E-05-3.31677E-14
 -1      1718 7.18217E-03-1.07672E-04-3.27757E-14
 -1      1719 7.59465E-03 1.15601E-04-3.38408E-14
 -1      1720 7.48716E-03 5.63759E-05-3.36237E-14
 -1      1721 7.71885E-03 2.17142E-04-3.39136E-14
 -1      1722 7.67989E-03 1.71204E-04-3.38866E-14
 -1      1723 6.74267E-03 7.65126E-04-3.08785E-14
 -1      1724 7.12681E-03 5.73249E-04-3.23116E-14
 -1      1725 1.53233E-02 1.78453E-03-1.62941E-13
 -1      1726 1.51906E-02 1.74775E-03-1.60900E-13
 -1      1727 7.66819E-03 3.17384E-04-3.43568E-14
 -1      1728 7.45454E-03 4.18049E-04-3.35268E-14
 -1      1729 7.73333E-03 2.49061E-04-3.45926E-14
 -1      1730 6.34803E-03 9.63709E-04-2.92628E-14
 -1      1731 5.96279E-03 1.12492E-03-2.75682E-14
 -1      1732 5.60688E-03 1.20068E-03-2.57767E-14
 -1      1733 5.24776E-03 1.15952E-03-2.40828E-14
 -1      1734 4.87918E-03 1.02177E-03-2.25962E-14
 -1      1735 4.48427E-03 8.25330E-04-2.13080E-14
 -1      1736 4.08668E-03 6.15802E-04-2.02483E-14
 -1      1737 3.70199E-03 4.30636E-04-1.94510E-14
 -1      1738 3.40430E-03 2.92366E-04-1.89172E-14
 -1      1739 3.23169E-03 2.00077E-04-1.86563E-14
 -1      1740 3.20355E-03 1.32536E-04-1.86916E-14
 -1      1741 3.33103E-03 5.87479E-05-1.90015E-14
 -1      1742 3.61133E-03-5.04484E-05-1.96108E-14
 -1      1743 3.98193E-03-2.28409E-04-2.07174E-14
 -1      1744 4.38650E-03-4.35614E-04-2.21006E-14
 -1      1745 4.78290E-03-6.15945E-04-2.36149E-14
 -1      1746 5.15489E-03-7.28494E-04-2.52909E-14
 -1      1747 5.50254E-03-7.43640E-04-2.69881E-14
 -1      1748 5.86397E-03-6.58188E-04-2.86987E-14
 -1      1749 6.24169E-03-4.92533E-04-3.03947E-14
 -1      1750 6.63758E-03-2.90060E-04-3.18754E-14
 -1      1751 7.04142E-03-9.86507E-05-3.30468E-14
 -1      1752 7.39149E-03 6.84267E-05-3.40543E-14
 -1      1753 7.63645E-03 1.76628E-04-3.45690E-14
 -1      1754 2.88166E-04-1.67811E-04-7.99464E-17
 -1      1755 3.35861E-04-1.00466E-04-2.44935E-16
 -1      1756 3.41049E-04-1.17095E-04-2.30705E-16
 -1      1757 3.47734E-04-1.36743E-04-2.13290E-16
 -1      1758 3.57620E-04-1.59669E-04-1.88692E-16
 -1      1759 4.65519E-04-1.67286E-04-3.35032E-16
 -1      1760 3.22917E-04-5.10945E-05-2.72948E-16
 -1      1761 3.25405E-04-6.13517E-05-2.68814E-16
 -1      1762 3.18943E-04-3.27138E-05-2.77773E-16
 -1      1763 3.20771E-04-4.14891E-05-2.75753E-16
 -1      1764 4.32822E-04-6.17722E-05-4.04529E-16
 -1      1765 3.16322E-04-1.68356E-05-2.78572E-16
 -1      1766 3.17467E-04-2.45100E-05-2.78545E-16
 -1      1767 4.27444E-04-3.82248E-05-4.09530E-16
 -1      1768 3.15110E-04-2.39053E-06-2.76553E-16
 -1      1769 3.15536E-04-9.48277E-06-2.77895E-16
 -1      1770 4.24078E-04-1.75530E-05-4.09612E-16
 -1      1771 3.15383E-04 1.16653E-05-2.71877E-16
 -1      1772 3.15056E-04 4.63535E-06-2.74669E-16
 -1      1773 4.22822E-04 1.60678E-06-4.05708E-16
 -1      1774 3.17180E-04 2.64098E-05-2.63949E-16
 -1      1775 3.16087E-04 1.89000E-05-2.68313E-16
 -1      1776 4.23777E-04 2.06071E-05-3.97821E-16
 -1      1777 3.20432E-04 4.26865E-05-2.52646E-16
 -1      1778 3.18615E-04 3.42796E-05-2.59029E-16
 -1      1779 4.26950E-04 4.06748E-05-3.85651E-16
 -1      1780 3.25283E-04 6.23264E-05-2.36532E-16
 -1      1781 3.22644E-04 5.20711E-05-2.45558E-16
 -1      1782 4.32351E-04 6.34472E-05-3.68412E-16
 -1      1783 3.31947E-04 8.66968E-05-2.13086E-16
 -1      1784 3.28338E-04 7.38699E-05-2.26192E-16
 -1      1785 4.40165E-04 9.08736E-05-3.43733E-16
 -1      1786 3.41520E-04 1.18325E-04-1.78568E-16
 -1      1787 3.36194E-04 1.01529E-04-1.97880E-16
 -1      1788 4.50894E-04 1.25018E-04-3.08347E-16
 -1      1789 3.58468E-04 1.62352E-04-1.27326E-16
 -1      1790 3.48619E-04 1.38582E-04-1.56017E-16
 -1      1791 4.66820E-04 1.69417E-04-2.57322E-16
 -1      1792 4.13772E-04 2.18538E-04-9.13034E-17
 -1      1793 3.84495E-04 1.87308E-04-1.14898E-16
 -1      1794 5.04955E-04 2.22502E-04-2.11663E-16
 -1      1795 5.67695E-04 2.80836E-04-1.74597E-16
 -1      1796 3.45184E-04-1.78792E-04-1.38520E-16
 -1      1797 8.70641E-04 3.72376E-04-4.71818E-16
 -1      1798 7.19926E-04 3.31153E-04-3.02113E-16
 -1      1799 6.86208E-04 3.00622E-04-3.25871E-16
 -1      1800 4.66740E-04-2.18914E-04-2.45545E-16
 -1      1801 8.22765E-04-3.42526E-04-6.54045E-16
 -1      1802 9.72336E-04-3.77913E-04-9.12627E-16
 -1      1803 1.12012E-03-4.07082E-04-1.21792E-15
 -1      1804 1.26745E-03-4.30789E-04-1.57066E-15
 -1      1805 1.02499E-03-3.56696E-04-1.11644E-15
 -1      1806 1.41427E-03-4.50514E-04-1.96956E-15
 -1      1807 1.56124E-03-4.66661E-04-2.41511E-15
 -1      1808 1.32050E-03-4.04040E-04-1.82970E-15
 -1      1809 1.70855E-03-4.80305E-04-2.90658E-15
 -1      1810 1.85652E-03-4.91844E-04-3.44352E-15
 -1      1811 1.61539E-03-4.36181E-04-2.72620E-15
 -1      1812 2.00535E-03-5.02133E-04-4.02595E-15
 -1      1813 2.15520E-03-5.11591E-04-4.65302E-15
 -1      1814 1.91168E-03-4.58885E-04-3.80368E-15
 -1      1815 2.30623E-03-5.20990E-04-5.32473E-15
 -1      1816 2.45846E-03-5.30777E-04-6.04061E-15
 -1      1817 2.21092E-03-4.77215E-04-5.05946E-15
 -1      1818 2.61205E-03-5.41697E-04-6.79955E-15
 -1      1819 2.76683E-03-5.54213E-04-7.60190E-15
 -1      1820 2.51425E-03-4.96006E-04-6.48972E-15
 -1      1821 2.92301E-03-5.69033E-04-8.44725E-15
 -1      1822 3.08019E-03-5.86597E-04-9.33432E-15
 -1      1823 2.82237E-03-5.20086E-04-8.09179E-15
 -1      1824 3.23861E-03-6.07486E-04-1.02635E-14
 -1      1825 3.39761E-03-6.32018E-04-1.12341E-14
 -1      1826 3.13554E-03-5.54164E-04-9.86266E-15
 -1      1827 3.55748E-03-6.60474E-04-1.22461E-14
 -1      1828 3.71726E-03-6.92876E-04-1.32994E-14
 -1      1829 3.45334E-03-6.02260E-04-1.17981E-14
 -1      1830 3.87725E-03-7.28955E-04-1.43934E-14
 -1      1831 4.03632E-03-7.68193E-04-1.55282E-14
 -1      1832 3.77444E-03-6.66504E-04-1.38978E-14
 -1      1833 4.19467E-03-8.09532E-04-1.67039E-14
 -1      1834 4.35129E-03-8.51708E-04-1.79200E-14
 -1      1835 4.09627E-03-7.45271E-04-1.61595E-14
 -1      1836 4.50618E-03-8.92821E-04-1.91765E-14
 -1      1837 4.65890E-03-9.30854E-04-2.04740E-14
 -1      1838 4.41517E-03-8.31102E-04-1.85841E-14
 -1      1839 4.80920E-03-9.63418E-04-2.18132E-14
 -1      1840 4.95772E-03-9.88306E-04-2.31931E-14
 -1      1841 4.72737E-03-9.09623E-04-2.11723E-14
 -1      1842 5.10399E-03-1.00341E-03-2.46158E-14
 -1      1843 5.24971E-03-1.00720E-03-2.60797E-14
 -1      1844 5.03127E-03-9.61822E-04-2.39262E-14
 -1      1845 5.39435E-03-9.98800E-04-2.75828E-14
 -1      1846 5.54010E-03-9.78142E-04-2.91258E-14
 -1      1847 5.32924E-03-9.70480E-04-2.68452E-14
 -1      1848 5.68642E-03-9.46008E-04-3.07092E-14
 -1      1849 5.83509E-03-9.03857E-04-3.23309E-14
 -1      1850 5.62721E-03-9.28186E-04-2.99266E-14
 -1      1851 5.98565E-03-8.53742E-04-3.39894E-14
 -1      1852 6.13880E-03-7.97883E-04-3.56843E-14
 -1      1853 5.93124E-03-8.41454E-04-3.31649E-14
 -1      1854 6.29428E-03-7.38708E-04-3.74145E-14
 -1      1855 6.45174E-03-6.78279E-04-3.91795E-14
 -1      1856 6.24408E-03-7.27190E-04-3.65491E-14
 -1      1857 6.61116E-03-6.18576E-04-4.09770E-14
 -1      1858 6.77157E-03-5.60969E-04-4.28071E-14
 -1      1859 6.56434E-03-6.04707E-04-4.00747E-14
 -1      1860 6.93316E-03-5.06627E-04-4.46664E-14
 -1      1861 7.09482E-03-4.56157E-04-4.65548E-14
 -1      1862 6.88843E-03-4.89054E-04-4.37271E-14
 -1      1863 7.25683E-03-4.09949E-04-4.84736E-14
 -1      1864 7.41825E-03-3.68077E-04-5.04193E-14
 -1      1865 7.21265E-03-3.88551E-04-4.75015E-14
 -1      1866 7.57935E-03-3.30394E-04-5.23917E-14
 -1      1867 7.73948E-03-2.96678E-04-5.43894E-14
 -1      1868 7.53438E-03-3.05677E-04-5.13874E-14
 -1      1869 7.89883E-03-2.66507E-04-5.64135E-14
 -1      1870 8.05704E-03-2.39550E-04-5.84625E-14
 -1      1871 7.85219E-03-2.39216E-04-5.53789E-14
 -1      1872 8.21422E-03-2.15304E-04-6.05365E-14
 -1      1873 8.37023E-03-1.93436E-04-6.26343E-14
 -1      1874 8.16552E-03-1.86198E-04-5.94713E-14
 -1      1875 8.52513E-03-1.73477E-04-6.47545E-14
 -1      1876 8.67891E-03-1.55136E-04-6.68970E-14
 -1      1877 8.47437E-03-1.43220E-04-6.36590E-14
 -1      1878 8.83161E-03-1.38033E-04-6.90602E-14
 -1      1879 8.98330E-03-1.21932E-04-7.12406E-14
 -1      1880 8.77904E-03-1.07156E-04-6.79357E-14
 -1      1881 9.13400E-03-1.06552E-04-7.34387E-14
 -1      1882 9.28383E-03-9.17143E-05-7.56532E-14
 -1      1883 9.07996E-03-7.54472E-05-7.22906E-14
 -1      1884 9.43279E-03-7.72253E-05-7.78815E-14
 -1      1885 9.58102E-03-6.29545E-05-8.01239E-14
 -1      1886 9.37765E-03-4.61607E-05-7.67107E-14
 -1      1887 9.72852E-03-4.87802E-05-8.23807E-14
 -1      1888 9.87543E-03-3.46111E-05-8.46467E-14
 -1      1889 9.67261E-03-1.79239E-05-8.11893E-14
 -1      1890 1.00217E-02-2.03784E-05-8.69232E-14
 -1      1891 1.01676E-02-6.02130E-06-8.92122E-14
 -1      1892 9.96532E-03 1.01779E-05-8.57147E-14
 -1      1893 1.03129E-02 8.49186E-06-9.15121E-14
 -1      1894 1.04579E-02 2.31991E-05-9.38229E-14
 -1      1895 1.02562E-02 3.87107E-05-9.02870E-14
 -1      1896 1.06025E-02 3.81077E-05-9.61441E-14
 -1      1897 1.07468E-02 5.32393E-05-9.84730E-14
 -1      1898 1.05457E-02 6.79880E-05-9.49004E-14
 -1      1899 1.08909E-02 6.85860E-05-1.00813E-13
 -1      1900 1.10347E-02 8.41580E-05-1.03160E-13
 -1      1901 1.08341E-02 9.81489E-05-9.95571E-14
 -1      1902 1.11784E-02 9.99390E-05-1.05513E-13
 -1      1903 1.13219E-02 1.15932E-04-1.07874E-13
 -1      1904 1.11216E-02 1.29218E-04-1.04247E-13
 -1      1905 1.14652E-02 1.32116E-04-1.10240E-13
 -1      1906 1.16084E-02 1.48489E-04-1.12612E-13
 -1      1907 1.14085E-02 1.61150E-04-1.08965E-13
 -1      1908 1.17515E-02 1.65030E-04-1.14991E-13
 -1      1909 1.18946E-02 1.81735E-04-1.17376E-13
 -1      1910 1.16949E-02 1.93860E-04-1.13710E-13
 -1      1911 1.20376E-02 1.98582E-04-1.19771E-13
 -1      1912 1.21805E-02 2.15566E-04-1.22171E-13
 -1      1913 1.19810E-02 2.27244E-04-1.18481E-13
 -1      1914 1.23234E-02 2.32667E-04-1.24582E-13
 -1      1915 1.24662E-02 2.49880E-04-1.27003E-13
 -1      1916 1.22670E-02 2.61196E-04-1.23285E-13
 -1      1917 1.26091E-02 2.67187E-04-1.29432E-13
 -1      1918 1.27519E-02 2.84581E-04-1.31868E-13
 -1      1919 1.25527E-02 2.95612E-04-1.28122E-13
 -1      1920 1.28947E-02 3.02050E-04-1.34311E-13
 -1      1921 1.30375E-02 3.19585E-04-1.36763E-13
 -1      1922 1.28384E-02 3.30397E-04-1.32990E-13
 -1      1923 1.31803E-02 3.37175E-04-1.39224E-13
 -1      1924 1.33231E-02 3.54814E-04-1.41688E-13
 -1      1925 1.31241E-02 3.65466E-04-1.37890E-13
 -1      1926 1.34659E-02 3.72492E-04-1.44158E-13
 -1      1927 1.36087E-02 3.90203E-04-1.46637E-13
 -1      1928 1.34097E-02 4.00746E-04-1.42817E-13
 -1      1929 1.37515E-02 4.07938E-04-1.49123E-13
 -1      1930 1.38943E-02 4.25692E-04-1.51613E-13
 -1      1931 1.36954E-02 4.36170E-04-1.47767E-13
 -1      1932 1.40371E-02 4.43457E-04-1.54111E-13
 -1      1933 1.41799E-02 4.61228E-04-1.56612E-13
 -1      1934 1.39810E-02 4.71681E-04-1.52744E-13
 -1      1935 1.43072E-02 4.75477E-04-1.58862E-13
 -1      1936 1.44501E-02 4.93245E-04-1.61374E-13
 -1      1937 1.45057E-02 5.32202E-04-1.61995E-13
 -1      1938 1.42511E-02 5.03706E-04-1.57488E-13
 -1      1939 1.16674E-03 4.32756E-04-9.38323E-16
 -1      1940 1.01901E-03 4.05707E-04-6.83332E-16
 -1      1941 9.85964E-04 3.76122E-04-7.10600E-16
 -1      1942 1.46076E-03 4.72600E-04-1.57676E-15
 -1      1943 1.31361E-03 4.54804E-04-1.23572E-15
 -1      1944 1.28206E-03 4.26241E-04-1.26427E-15
 -1      1945 1.75675E-03 4.98963E-04-2.38754E-15
 -1      1946 1.60825E-03 4.87139E-04-1.96062E-15
 -1      1947 1.57762E-03 4.59107E-04-1.98946E-15
 -1      1948 2.05764E-03 5.17412E-04-3.36948E-15
 -1      1949 1.90640E-03 5.08875E-04-2.85708E-15
 -1      1950 1.87566E-03 4.80862E-04-2.88537E-15
 -1      1951 2.36554E-03 5.33210E-04-4.52051E-15
 -1      1952 2.21057E-03 5.25325E-04-3.92419E-15
 -1      1953 2.17850E-03 4.96838E-04-3.95091E-15
 -1      1954 2.68202E-03 5.52063E-04-5.83835E-15
 -1      1955 2.52260E-03 5.41897E-04-5.15892E-15
 -1      1956 2.48792E-03 5.12418E-04-5.18338E-15
 -1      1957 3.00800E-03 5.80623E-04-7.32033E-15
 -1      1958 2.84377E-03 5.64723E-04-6.55881E-15
 -1      1959 2.80528E-03 5.33669E-04-6.58016E-15
 -1      1960 3.34361E-03 6.26634E-04-8.96566E-15
 -1      1961 3.17466E-03 6.01014E-04-8.12240E-15
 -1      1962 3.13151E-03 5.67735E-04-8.13935E-15
 -1      1963 3.68775E-03 6.98340E-04-1.07705E-14
 -1      1964 3.51485E-03 6.58904E-04-9.84840E-15
 -1      1965 3.46692E-03 6.22783E-04-9.85990E-15
 -1      1966 4.03757E-03 8.02423E-04-1.27363E-14
 -1      1967 3.86243E-03 7.46236E-04-1.17336E-14
 -1      1968 3.81085E-03 7.06971E-04-1.17400E-14
 -1      1969 4.38800E-03 9.39682E-04-1.48597E-14
 -1      1970 4.21342E-03 8.67403E-04-1.37776E-14
 -1      1971 4.16090E-03 8.25573E-04-1.37772E-14
 -1      1972 4.73201E-03 1.09901E-03-1.71471E-14
 -1      1973 4.56158E-03 1.01802E-03-1.59828E-14
 -1      1974 4.51209E-03 9.75673E-04-1.59748E-14
 -1      1975 5.06280E-03 1.25296E-03-1.96063E-14
 -1      1976 4.89942E-03 1.17891E-03-1.83551E-14
 -1      1977 4.85696E-03 1.13953E-03-1.83394E-14
 -1      1978 5.37852E-03 1.36241E-03-2.22413E-14
 -1      1979 5.22202E-03 1.31537E-03-2.09007E-14
 -1      1980 5.18879E-03 1.28223E-03-2.08768E-14
 -1      1981 5.68614E-03 1.39460E-03-2.50602E-14
 -1      1982 5.53206E-03 1.38888E-03-2.36280E-14
 -1      1983 5.50789E-03 1.36241E-03-2.35950E-14
 -1      1984 5.99831E-03 1.34340E-03-2.80610E-14
 -1      1985 5.84035E-03 1.37807E-03-2.65383E-14
 -1      1986 5.82414E-03 1.35538E-03-2.64967E-14
 -1      1987 6.32490E-03 1.23437E-03-3.12383E-14
 -1      1988 6.15932E-03 1.29370E-03-2.96278E-14
 -1      1989 6.15009E-03 1.27080E-03-2.95794E-14
 -1      1990 6.66689E-03 1.10693E-03-3.45811E-14
 -1      1991 6.49425E-03 1.17078E-03-3.28898E-14
 -1      1992 6.49088E-03 1.14555E-03-3.28344E-14
 -1      1993 7.01881E-03 9.94340E-04-3.80811E-14
 -1      1994 6.84227E-03 1.04765E-03-3.63121E-14
 -1      1995 6.84226E-03 1.01988E-03-3.62505E-14
 -1      1996 7.37338E-03 9.13633E-04-4.17183E-14
 -1      1997 7.19641E-03 9.49793E-04-3.98833E-14
 -1      1998 7.19661E-03 9.20287E-04-3.98134E-14
 -1      1999 7.72482E-03 8.67891E-04-4.54846E-14
 -1      2000 7.54995E-03 8.86688E-04-4.35866E-14
 -1      2001 7.54762E-03 8.56250E-04-4.35096E-14
 -1      2002 8.06958E-03 8.52444E-04-4.93665E-14
 -1      2003 7.89830E-03 8.56839E-04-4.74111E-14
 -1      2004 7.89180E-03 8.25990E-04-4.73248E-14
 -1      2005 8.40603E-03 8.60013E-04-5.33464E-14
 -1      2006 8.23895E-03 8.53786E-04-5.13446E-14
 -1      2007 8.22783E-03 8.22847E-04-5.12496E-14
 -1      2008 8.73384E-03 8.83565E-04-5.74254E-14
 -1      2009 8.57102E-03 8.70136E-04-5.53758E-14
 -1      2010 8.55558E-03 8.39305E-04-5.52736E-14
 -1      2011 9.05353E-03 9.17418E-04-6.15891E-14
 -1      2012 8.89465E-03 8.99453E-04-5.94971E-14
 -1      2013 8.87558E-03 8.68854E-04-5.93880E-14
 -1      2014 9.36600E-03 9.57403E-04-6.58344E-14
 -1      2015 9.21058E-03 9.36813E-04-6.37014E-14
 -1      2016 9.18869E-03 9.06514E-04-6.35859E-14
 -1      2017 9.67234E-03 1.00065E-03-7.01552E-14
 -1      2018 9.51985E-03 9.78727E-04-6.79857E-14
 -1      2019 9.49587E-03 9.48754E-04-6.78631E-14
 -1      2020 9.97364E-03 1.04527E-03-7.45390E-14
 -1      2021 9.82354E-03 1.02285E-03-7.23391E-14
 -1      2022 9.79809E-03 9.93203E-04-7.22110E-14
 -1      2023 1.02709E-02 1.09009E-03-7.89825E-14
 -1      2024 1.01227E-02 1.06769E-03-7.67539E-14
 -1      2025 1.00963E-02 1.03834E-03-7.66213E-14
 -1      2026 1.05650E-02 1.13443E-03-8.34766E-14
 -1      2027 1.04183E-02 1.11234E-03-8.12240E-14
 -1      2028 1.03912E-02 1.08326E-03-8.10860E-14
 -1      2029 1.08566E-02 1.17791E-03-8.80239E-14
 -1      2030 1.07111E-02 1.15628E-03-8.57433E-14
 -1      2031 1.06836E-02 1.12743E-03-8.56024E-14
 -1      2032 1.11464E-02 1.22038E-03-9.26282E-14
 -1      2033 1.10017E-02 1.19927E-03-9.03189E-14
 -1      2034 1.09741E-02 1.17061E-03-9.01743E-14
 -1      2035 1.14349E-02 1.26182E-03-9.72826E-14
 -1      2036 1.12908E-02 1.24122E-03-9.49495E-14
 -1      2037 1.12631E-02 1.21272E-03-9.48006E-14
 -1      2038 1.17223E-02 1.30228E-03-1.01985E-13
 -1      2039 1.15787E-02 1.28216E-03-9.96263E-14
 -1      2040 1.15510E-02 1.25379E-03-9.94719E-14
 -1      2041 1.20091E-02 1.34186E-03-1.06732E-13
 -1      2042 1.18658E-02 1.32217E-03-1.04355E-13
 -1      2043 1.18381E-02 1.29389E-03-1.04192E-13
 -1      2044 1.22953E-02 1.38067E-03-1.11511E-13
 -1      2045 1.21523E-02 1.36135E-03-1.09118E-13
 -1      2046 1.21247E-02 1.33315E-03-1.08951E-13
 -1      2047 1.25813E-02 1.41883E-03-1.16316E-13
 -1      2048 1.24383E-02 1.39982E-03-1.13911E-13
 -1      2049 1.24108E-02 1.37168E-03-1.13739E-13
 -1      2050 1.28670E-02 1.45646E-03-1.21140E-13
 -1      2051 1.27242E-02 1.43771E-03-1.18725E-13
 -1      2052 1.26967E-02 1.40960E-03-1.18551E-13
 -1      2053 1.31526E-02 1.49365E-03-1.25986E-13
 -1      2054 1.30098E-02 1.47510E-03-1.23561E-13
 -1      2055 1.29825E-02 1.44703E-03-1.23384E-13
 -1      2056 1.34382E-02 1.53051E-03-1.30843E-13
 -1      2057 1.32954E-02 1.51212E-03-1.28413E-13
 -1      2058 1.32681E-02 1.48407E-03-1.28235E-13
 -1      2059 1.37238E-02 1.56712E-03-1.35704E-13
 -1      2060 1.35810E-02 1.54884E-03-1.33275E-13
 -1      2061 1.35537E-02 1.52081E-03-1.33096E-13
 -1      2062 1.40093E-02 1.60353E-03-1.40575E-13
 -1      2063 1.38665E-02 1.58534E-03-1.38138E-13
 -1      2064 1.38393E-02 1.55732E-03-1.37960E-13
 -1      2065 1.42949E-02 1.63983E-03-1.45451E-13
 -1      2066 1.41521E-02 1.62169E-03-1.43012E-13
 -1      2067 1.41249E-02 1.59367E-03-1.42833E-13
 -1      2068 1.45805E-02 1.67606E-03-1.50344E-13
 -1      2069 1.44377E-02 1.65795E-03-1.47896E-13
 -1      2070 1.44105E-02 1.62993E-03-1.47719E-13
 -1      2071 1.48662E-02 1.71226E-03-1.55249E-13
 -1      2072 1.47233E-02 1.69416E-03-1.52796E-13
 -1      2073 1.46962E-02 1.66614E-03-1.52620E-13
 -1      2074 1.50998E-02 1.73906E-03-1.59303E-13
 -1      2075 1.49570E-02 1.72094E-03-1.56844E-13
 -1      2076 1.49298E-02 1.69291E-03-1.56670E-13
 -1      2077 1.51114E-02 1.71028E-03-1.59866E-13
 -1      2078 1.49802E-02 1.47133E-03-1.60214E-13
 -1      2079 1.49981E-02 1.51352E-03-1.60060E-13
 -1      2080 1.50159E-02 1.55570E-03-1.59903E-13
 -1      2081 1.50338E-02 1.59787E-03-1.59745E-13
 -1      2082 1.48833E-02 1.51894E-03-1.57850E-13
 -1      2083 1.50637E-02 1.63300E-03-1.59891E-13
 -1      2084 1.50815E-02 1.67516E-03-1.59726E-13
 -1      2085 1.49907E-02 1.66648E-03-1.58126E-13
 -1      2086 1.49310E-02 1.59624E-03-1.57839E-13
 -1      2087 1.49451E-02 1.38837E-03-1.60511E-13
 -1      2088 1.49626E-02 1.42985E-03-1.60362E-13
 -1      2089 1.48478E-02 1.43530E-03-1.58156E-13
 -1      2090 1.49095E-02 1.30395E-03-1.60809E-13
 -1      2091 1.49273E-02 1.34616E-03-1.60660E-13
 -1      2092 1.48125E-02 1.35163E-03-1.58451E-13
 -1      2093 1.48740E-02 1.21952E-03-1.61110E-13
 -1      2094 1.48918E-02 1.26173E-03-1.60960E-13
 -1      2095 1.47769E-02 1.26724E-03-1.58747E-13
 -1      2096 1.48387E-02 1.13508E-03-1.61414E-13
 -1      2097 1.48563E-02 1.17730E-03-1.61260E-13
 -1      2098 1.47415E-02 1.18284E-03-1.59044E-13
 -1      2099 1.48034E-02 1.05064E-03-1.61722E-13
 -1      2100 1.48210E-02 1.09286E-03-1.61568E-13
 -1      2101 1.47061E-02 1.09844E-03-1.59347E-13
 -1      2102 1.47683E-02 9.66204E-04-1.62030E-13
 -1      2103 1.47859E-02 1.00842E-03-1.61875E-13
 -1      2104 1.46709E-02 1.01403E-03-1.59649E-13
 -1      2105 1.47339E-02 8.83212E-04-1.62334E-13
 -1      2106 1.47511E-02 9.24706E-04-1.62182E-13
 -1      2107 1.46361E-02 9.30346E-04-1.59951E-13
 -1      2108 1.46990E-02 7.98807E-04-1.62646E-13
 -1      2109 1.47164E-02 8.41007E-04-1.62491E-13
 -1      2110 1.46014E-02 8.46670E-04-1.60253E-13
 -1      2111 1.46641E-02 7.14426E-04-1.62947E-13
 -1      2112 1.46815E-02 7.56613E-04-1.62797E-13
 -1      2113 1.45665E-02 7.62293E-04-1.60555E-13
 -1      2114 1.46293E-02 6.30072E-04-1.63240E-13
 -1      2115 1.46467E-02 6.72245E-04-1.63094E-13
 -1      2116 1.45317E-02 6.77935E-04-1.60849E-13
 -1      2117 7.35468E-03 4.19988E-04-3.39385E-14
 -1      2118 7.49312E-03 3.63406E-04-3.45631E-14
 -1      2119 7.73969E-03 2.61568E-04-3.53502E-14
 -1      2120 7.73042E-03 2.43702E-04-3.53766E-14
 -1      2121 7.63739E-03 3.07861E-04-3.52427E-14
 -1      2122 7.70899E-03 2.84960E-04-3.54567E-14
 -1      2123 7.01635E-03 5.71026E-04-3.27157E-14
 -1      2124 7.19616E-03 4.90176E-04-3.33232E-14
 -1      2125 7.26687E-03 4.36723E-04-3.43466E-14
 -1      2126 6.59262E-03 7.99480E-04-3.08972E-14
 -1      2127 6.77728E-03 6.93324E-04-3.17373E-14
 -1      2128 3.28272E-04-7.29499E-05-2.63122E-16
 -1      2129 3.31690E-04-8.57992E-05-2.55059E-16
 -1      2130 4.50412E-04-1.23732E-04-3.71678E-16
 -1      2131 4.40252E-04-8.96145E-05-3.92834E-16
 -1      2132 5.87152E-03 1.16425E-03-2.73378E-14
 -1      2133 6.03338E-03 1.09461E-03-2.82503E-14
 -1      2134 5.51282E-03 1.22141E-03-2.52122E-14
 -1      2135 5.66161E-03 1.21427E-03-2.60944E-14
 -1      2136 5.21123E-03 1.15291E-03-2.35838E-14
 -1      2137 5.36160E-03 1.20064E-03-2.43903E-14
 -1      2138 5.44590E-03 1.22288E-03-2.46957E-14
 -1      2139 4.81864E-03 9.68229E-04-2.19611E-14
 -1      2140 4.99340E-03 1.06039E-03-2.26317E-14
 -1      2141 4.45828E-03 7.62580E-04-2.07505E-14
 -1      2142 4.63979E-03 8.70886E-04-2.13522E-14
 -1      2143 4.75874E-03 9.16322E-04-2.13859E-14
 -1      2144 4.02689E-03 5.24564E-04-1.95874E-14
 -1      2145 4.22094E-03 6.25363E-04-2.00301E-14
 -1      2146 3.64431E-03 3.49463E-04-1.88434E-14
 -1      2147 3.81896E-03 4.27065E-04-1.91798E-14
 -1      2148 3.35676E-03 2.35198E-04-1.83610E-14
 -1      2149 3.47665E-03 2.79226E-04-1.85456E-14
 -1      2150 3.20680E-03 1.71615E-04-1.81177E-14
 -1      2151 3.25998E-03 1.94478E-04-1.81878E-14
 -1      2152 3.21304E-03 1.28767E-04-1.81499E-14
 -1      2153 3.18823E-03 1.45155E-04-1.80463E-14
 -1      2154 3.36687E-03 7.33840E-05-1.85315E-14
 -1      2155 3.27142E-03 1.02940E-04-1.83370E-14
 -1      2156 3.22875E-03 1.23078E-04-1.76855E-14
 -1      2157 3.70364E-03-4.67472E-05-1.92262E-14
 -1      2158 3.53383E-03 1.71308E-05-1.88310E-14
 -1      2159 4.14241E-03-2.65334E-04-2.07399E-14
 -1      2160 3.95392E-03-1.63921E-04-2.00451E-14
 -1      2161 4.51914E-03-4.63291E-04-2.20525E-14
 -1      2162 4.32988E-03-3.63066E-04-2.13887E-14
 -1      2163 4.26213E-03-3.06340E-04-2.06922E-14
 -1      2164 4.91376E-03-6.62668E-04-2.38899E-14
 -1      2165 4.74269E-03-5.79863E-04-2.30531E-14
 -1      2166 5.23852E-03-7.60579E-04-2.55983E-14
 -1      2167 5.09081E-03-7.24761E-04-2.47694E-14
 -1      2168 5.57173E-03-7.50312E-04-2.75375E-14
 -1      2169 5.42429E-03-7.70101E-04-2.66692E-14
 -1      2170 5.90339E-03-6.31860E-04-2.93995E-14
 -1      2171 5.74701E-03-7.00628E-04-2.85488E-14
 -1      2172 6.26979E-03-4.37598E-04-3.11513E-14
 -1      2173 6.09475E-03-5.39957E-04-3.02941E-14
 -1      2174 6.70033E-03-2.01407E-04-3.28122E-14
 -1      2175 6.50734E-03-3.03411E-04-3.21762E-14
 -1      2176 7.09616E-03-1.19852E-05-3.39829E-14
 -1      2177 6.91007E-03-1.00050E-04-3.34308E-14
 -1      2178 7.44026E-03 1.35420E-04-3.50168E-14
 -1      2179 7.28404E-03 7.21246E-05-3.45471E-14
 -1      2180 7.68157E-03 2.19276E-04-3.54611E-14
 -1      2181 7.59525E-03 1.93497E-04-3.54078E-14
 -1      2182 6.24387E-03 9.91571E-04-2.92935E-14
 -1      2183 6.41648E-03 8.96442E-04-3.00890E-14
 -1      2184 6.49285E-03 8.36199E-04-3.09278E-14
 -1      2185 6.88666E-03 6.18198E-04-3.27310E-14
 -1      2186 6.18706E-04-2.74166E-04-3.97496E-16
 -1      2187 6.13607E-03 1.04139E-03-2.90551E-14
 -1      2188 6.75716E-04-2.64581E-04-5.31652E-16
 -1      2189 7.57341E-03 3.23871E-04-3.56556E-14
 -1      2190 7.73513E-03 2.73116E-04-3.62398E-14
 -1      2191 1.45737E-02 5.91101E-04-1.62622E-13
 -1      2192 7.71381E-03 2.41850E-04-3.62181E-14
 -1      2193 7.52047E-03 1.83391E-04-3.59036E-14
 -1      2194 7.17640E-03 5.49501E-05-3.49342E-14
 -1      2195 6.79010E-03-1.25393E-04-3.37362E-14
 -1      2196 6.36816E-03-3.60976E-04-3.20696E-14
 -1      2197 5.96991E-03-5.88847E-04-3.01373E-14
 -1      2198 5.64916E-03-7.34217E-04-2.82183E-14
 -1      2199 5.33022E-03-7.77568E-04-2.61296E-14
 -1      2200 4.64585E-03-5.21281E-04-2.23154E-14
 -1      2201 3.43568E-03 5.98214E-05-1.81566E-14
 -1      2202 3.18695E-03 1.51220E-04-1.75757E-14
 -1      2203 3.30569E-03 1.97036E-04-1.78169E-14
 -1      2204 3.56775E-03 2.90547E-04-1.82770E-14
 -1      2205 4.36291E-03 6.80599E-04-2.00696E-14
 -1      2206 5.12277E-03 1.11468E-03-2.29268E-14
 -1      2207 5.76421E-03 1.20163E-03-2.67511E-14
 -1      2208 3.93612E-03 4.49645E-04-1.89662E-14
 -1      2209 3.83471E-03-9.09704E-05-1.92404E-14
 -1      2210 3.72102E-03-4.14573E-05-1.84551E-14
 -1      2211 3.95472E-03-1.43875E-04-1.92496E-14
 -1      2212 5.01413E-03-7.00879E-04-2.41877E-14
 -1      2213 1.03907E-03 3.54382E-04-9.05661E-16
 -1      2214 8.90270E-04 3.24491E-04-6.62610E-16
 -1      2215 5.36950E-04-4.09806E-05-5.81132E-16
 -1      2216 5.39948E-04-5.45820E-05-5.79479E-16
 -1      2217 5.43660E-04-6.91948E-05-5.76267E-16
 -1      2218 5.48023E-04-8.49373E-05-5.70982E-16
 -1      2219 6.54901E-04-7.33443E-05-7.82021E-16
 -1      2220 5.32030E-04 7.94316E-06-5.72865E-16
 -1      2221 5.32152E-04-3.83590E-06-5.76945E-16
 -1      2222 5.34080E-04 3.18953E-05-5.60600E-16
 -1      2223 5.32673E-04 1.98069E-05-5.67539E-16
 -1      2224 6.42585E-04 1.66113E-05-7.71613E-16
 -1      2225 5.39118E-04 5.72993E-05-5.42779E-16
 -1      2226 5.36235E-04 4.42811E-05-5.52564E-16
 -1      2227 6.46164E-04 4.52250E-05-7.54022E-16
 -1      2228 5.47348E-04 8.68502E-05-5.17015E-16
 -1      2229 5.42854E-04 7.15140E-05-5.30934E-16
 -1      2230 6.53689E-04 7.64434E-05-7.28340E-16
 -1      2231 5.58952E-04 1.22244E-04-4.81061E-16
 -1      2232 5.52733E-04 1.03711E-04-5.00671E-16
 -1      2233 6.65343E-04 1.12667E-04-6.92399E-16
 -1      2234 5.74885E-04 1.66144E-04-4.30740E-16
 -1      2235 5.66349E-04 1.42985E-04-4.58238E-16
 -1      2236 6.81434E-04 1.56001E-04-6.43067E-16
 -1      2237 1.33506E-03 3.98833E-04-1.51752E-15
 -1      2238 1.18711E-03 3.79034E-04-1.19020E-15
 -1      2239 1.09333E-03 3.32138E-04-1.11064E-15
 -1      2240 9.32265E-04-3.07289E-04-1.01254E-15
 -1      2241 1.08000E-03-3.34932E-04-1.32801E-15
 -1      2242 6.06647E-03 1.08513E-03-2.88690E-14
 -1      2243 6.23917E-03 9.83494E-04-2.99293E-14
 -1      2244 1.22731E-03-3.57932E-04-1.68841E-15
 -1      2245 1.37470E-03-3.76756E-04-2.09476E-15
 -1      2246 1.13577E-03-3.12624E-04-1.54721E-15
 -1      2247 1.52200E-03-3.92396E-04-2.54584E-15
 -1      2248 1.66956E-03-4.05249E-04-3.04207E-15
 -1      2249 1.42917E-03-3.49177E-04-2.36603E-15
 -1      2250 1.81744E-03-4.16181E-04-3.58245E-15
 -1      2251 1.96587E-03-4.25588E-04-4.16719E-15
 -1      2252 1.72326E-03-3.74135E-04-3.36231E-15
 -1      2253 2.11500E-03-4.34241E-04-4.79551E-15
 -1      2254 2.26495E-03-4.42579E-04-5.46754E-15
 -1      2255 2.01893E-03-3.92155E-04-4.53373E-15
 -1      2256 2.41591E-03-4.51322E-04-6.18231E-15
 -1      2257 2.56793E-03-4.60965E-04-6.93988E-15
 -1      2258 2.31733E-03-4.07785E-04-5.87761E-15
 -1      2259 2.72125E-03-4.72193E-04-7.73974E-15
 -1      2260 2.87579E-03-4.85557E-04-8.58170E-15
 -1      2261 2.61972E-03-4.25646E-04-7.39111E-15
 -1      2262 3.03190E-03-5.01663E-04-9.46514E-15
 -1      2263 3.18926E-03-5.21074E-04-1.03896E-14
 -1      2264 2.92747E-03-4.50511E-04-9.07147E-15
 -1      2265 3.34832E-03-5.44221E-04-1.13548E-14
 -1      2266 3.50849E-03-5.71542E-04-1.23608E-14
 -1      2267 3.24183E-03-4.87159E-04-1.09157E-14
 -1      2268 3.67022E-03-6.03118E-04-1.34071E-14
 -1      2269 3.83258E-03-6.38993E-04-1.44933E-14
 -1      2270 3.56356E-03-5.39770E-04-1.29214E-14
 -1      2271 3.99589E-03-6.78673E-04-1.56205E-14
 -1      2272 4.15893E-03-7.21379E-04-1.67887E-14
 -1      2273 3.89200E-03-6.10521E-04-1.50873E-14
 -1      2274 4.32176E-03-7.65812E-04-1.79970E-14
 -1      2275 4.48322E-03-8.10060E-04-1.92455E-14
 -1      2276 4.22419E-03-6.97088E-04-1.74143E-14
 -1      2277 4.64299E-03-8.52042E-04-2.05358E-14
 -1      2278 4.80068E-03-8.88594E-04-2.18674E-14
 -1      2279 4.55454E-03-7.89571E-04-1.99041E-14
 -1      2280 4.95572E-03-9.17415E-04-2.32405E-14
 -1      2281 5.10923E-03-9.35476E-04-2.46558E-14
 -1      2282 4.87698E-03-8.68331E-04-2.25596E-14
 -1      2283 5.26058E-03-9.41032E-04-2.61124E-14
 -1      2284 5.41220E-03-9.32726E-04-2.76093E-14
 -1      2285 5.18952E-03-9.08814E-04-2.53818E-14
 -1      2286 5.56350E-03-9.10493E-04-2.91472E-14
 -1      2287 5.71694E-03-8.75538E-04-3.07256E-14
 -1      2288 5.49736E-03-8.92369E-04-2.83712E-14
 -1      2289 5.87191E-03-8.29467E-04-3.23422E-14
 -1      2290 6.02965E-03-7.75307E-04-3.39966E-14
 -1      2291 5.80956E-03-8.18320E-04-3.15224E-14
 -1      2292 6.18956E-03-7.15431E-04-3.56879E-14
 -1      2293 6.35136E-03-6.52972E-04-3.74142E-14
 -1      2294 6.13177E-03-7.04312E-04-3.48281E-14
 -1      2295 6.51472E-03-5.90058E-04-3.91740E-14
 -1      2296 6.67850E-03-5.28796E-04-4.09673E-14
 -1      2297 6.46249E-03-5.75242E-04-3.82774E-14
 -1      2298 6.84272E-03-4.70581E-04-4.27927E-14
 -1      2299 7.00616E-03-4.16268E-04-4.46479E-14
 -1      2300 6.79576E-03-4.51348E-04-4.18602E-14
 -1      2301 7.16915E-03-3.66476E-04-4.65326E-14
 -1      2302 7.33072E-03-3.21259E-04-4.84462E-14
 -1      2303 7.12588E-03-3.43585E-04-4.55680E-14
 -1      2304 7.49131E-03-2.80662E-04-5.03876E-14
 -1      2305 7.65032E-03-2.44328E-04-5.23546E-14
 -1      2306 7.44970E-03-2.55106E-04-4.93902E-14
 -1      2307 7.80816E-03-2.11977E-04-5.43480E-14
 -1      2308 7.96452E-03-1.83134E-04-5.63670E-14
 -1      2309 7.76639E-03-1.84571E-04-5.33202E-14
 -1      2310 8.11971E-03-1.57381E-04-5.84098E-14
 -1      2311 8.27363E-03-1.34272E-04-6.04778E-14
 -1      2312 8.07655E-03-1.28712E-04-5.73522E-14
 -1      2313 8.42647E-03-1.13371E-04-6.25685E-14
 -1      2314 8.57825E-03-9.43113E-05-6.46806E-14
 -1      2315 8.38127E-03-8.38653E-05-6.14803E-14
 -1      2316 8.72908E-03-7.67110E-05-6.68172E-14
 -1      2317 8.87904E-03-6.02884E-05-6.89726E-14
 -1      2318 8.68167E-03-4.66960E-05-6.57008E-14
 -1      2319 9.02819E-03-4.47405E-05-7.11464E-14
 -1      2320 9.17664E-03-2.98620E-05-7.33378E-14
 -1      2321 8.97868E-03-1.44698E-05-7.00059E-14
 -1      2322 9.32440E-03-1.54314E-05-7.55444E-14
 -1      2323 9.47159E-03-1.30451E-06-7.77660E-14
 -1      2324 9.27307E-03 1.49027E-05-7.43813E-14
 -1      2325 9.61822E-03 1.26686E-05-7.99997E-14
 -1      2326 9.76439E-03 2.65852E-05-8.22497E-14
 -1      2327 9.56541E-03 4.29286E-05-7.88169E-14
 -1      2328 9.91010E-03 4.05383E-05-8.45105E-14
 -1      2329 1.00555E-02 5.45904E-05-8.67802E-14
 -1      2330 9.85614E-03 7.06341E-05-8.33059E-14
 -1      2331 1.02004E-02 6.87920E-05-8.90635E-14
 -1      2332 1.03451E-02 8.31809E-05-9.13573E-14
 -1      2333 1.01456E-02 9.86726E-05-8.78436E-14
 -1      2334 1.04895E-02 9.77777E-05-9.36622E-14
 -1      2335 1.06337E-02 1.12603E-04-9.59767E-14
 -1      2336 1.04341E-02 1.27422E-04-9.24248E-14
 -1      2337 1.07777E-02 1.27657E-04-9.83028E-14
 -1      2338 1.09215E-02 1.42950E-04-1.00638E-13
 -1      2339 1.07219E-02 1.57064E-04-9.70502E-14
 -1      2340 1.10651E-02 1.58469E-04-1.02981E-13
 -1      2341 1.12086E-02 1.74216E-04-1.05332E-13
 -1      2342 1.10090E-02 1.87653E-04-1.01715E-13
 -1      2343 1.13520E-02 1.90174E-04-1.07690E-13
 -1      2344 1.14952E-02 2.06339E-04-1.10056E-13
 -1      2345 1.12957E-02 2.19157E-04-1.06416E-13
 -1      2346 1.16384E-02 2.22690E-04-1.12427E-13
 -1      2347 1.17815E-02 2.39222E-04-1.14805E-13
 -1      2348 1.15821E-02 2.51498E-04-1.11145E-13
 -1      2349 1.19246E-02 2.55914E-04-1.17193E-13
 -1      2350 1.20676E-02 2.72758E-04-1.19587E-13
 -1      2351 1.18683E-02 2.84574E-04-1.15902E-13
 -1      2352 1.22106E-02 2.89736E-04-1.21987E-13
 -1      2353 1.23535E-02 3.06838E-04-1.24395E-13
 -1      2354 1.21543E-02 3.18274E-04-1.20690E-13
 -1      2355 1.24964E-02 3.24049E-04-1.26813E-13
 -1      2356 1.26393E-02 3.41360E-04-1.29239E-13
 -1      2357 1.24401E-02 3.52489E-04-1.25506E-13
 -1      2358 1.27822E-02 3.58755E-04-1.31673E-13
 -1      2359 1.29250E-02 3.76229E-04-1.34113E-13
 -1      2360 1.27259E-02 3.87119E-04-1.30357E-13
 -1      2361 1.30679E-02 3.93767E-04-1.36560E-13
 -1      2362 1.32107E-02 4.11363E-04-1.39016E-13
 -1      2363 1.30116E-02 4.22073E-04-1.35234E-13
 -1      2364 1.33535E-02 4.29006E-04-1.41477E-13
 -1      2365 1.34964E-02 4.46691E-04-1.43941E-13
 -1      2366 1.32974E-02 4.57272E-04-1.40136E-13
 -1      2367 1.36392E-02 4.64406E-04-1.46415E-13
 -1      2368 1.37820E-02 4.82148E-04-1.48896E-13
 -1      2369 1.35831E-02 4.92647E-04-1.45066E-13
 -1      2370 1.39249E-02 4.99908E-04-1.51381E-13
 -1      2371 1.40677E-02 5.17680E-04-1.53872E-13
 -1      2372 1.38688E-02 5.28136E-04-1.50021E-13
 -1      2373 1.92917E-03 4.47013E-04-3.25022E-15
 -1      2374 1.77971E-03 4.38391E-04-2.75375E-15
 -1      2375 2.23116E-03 4.61478E-04-4.36919E-15
 -1      2376 2.07955E-03 4.54548E-04-3.78891E-15
 -1      2377 1.98031E-03 4.13368E-04-3.62282E-15
 -1      2378 2.53863E-03 4.76645E-04-5.65231E-15
 -1      2379 2.38410E-03 4.68645E-04-4.99008E-15
 -1      2380 2.28028E-03 4.26551E-04-4.79381E-15
 -1      2381 2.85299E-03 4.98702E-04-7.09822E-15
 -1      2382 2.69487E-03 4.86413E-04-6.35511E-15
 -1      2383 2.58479E-03 4.41462E-04-6.12734E-15
 -1      2384 3.17566E-03 5.34963E-04-8.70524E-15
 -1      2385 3.01328E-03 5.14569E-04-7.88140E-15
 -1      2386 2.89555E-03 4.64304E-04-7.62160E-15
 -1      2387 3.50794E-03 5.93765E-04-1.04712E-14
 -1      2388 3.34070E-03 5.60988E-04-9.56863E-15
 -1      2389 3.21471E-03 5.02453E-04-9.27540E-15
 -1      2390 3.85062E-03 6.83371E-04-1.23945E-14
 -1      2391 3.67829E-03 6.34199E-04-1.14131E-14
 -1      2392 3.54485E-03 5.64408E-04-1.10862E-14
 -1      2393 4.20277E-03 8.08946E-04-1.44749E-14
 -1      2394 4.02614E-03 7.41532E-04-1.34153E-14
 -1      2395 3.88843E-03 6.58846E-04-1.30524E-14
 -1      2396 4.55978E-03 9.66468E-04-1.67156E-14
 -1      2397 4.38160E-03 8.84475E-04-1.55750E-14
 -1      2398 4.24564E-03 7.91379E-04-1.51756E-14
 -1      2399 4.91272E-03 1.13518E-03-1.91249E-14
 -1      2400 4.73765E-03 1.05175E-03-1.78985E-14
 -1      2401 4.61113E-03 9.57620E-04-1.74587E-14
 -1      2402 5.25251E-03 1.27429E-03-2.17076E-14
 -1      2403 5.08419E-03 1.21183E-03-2.03942E-14
 -1      2404 4.97294E-03 1.13252E-03-1.99108E-14
 -1      2405 5.57940E-03 1.33783E-03-2.44745E-14
 -1      2406 5.41590E-03 1.31784E-03-2.30678E-14
 -1      2407 5.31965E-03 1.26672E-03-2.25410E-14
 -1      2408 5.90670E-03 1.30518E-03-2.74261E-14
 -1      2409 5.74112E-03 1.33302E-03-2.59276E-14
 -1      2410 5.65453E-03 1.30895E-03-2.53567E-14
 -1      2411 6.24687E-03 1.19775E-03-3.05563E-14
 -1      2412 6.07428E-03 1.25773E-03-2.89692E-14
 -1      2413 5.99444E-03 1.24645E-03-2.83580E-14
 -1      2414 6.60114E-03 1.06265E-03-3.38578E-14
 -1      2415 6.42311E-03 1.13072E-03-3.21870E-14
 -1      2416 6.35067E-03 1.11690E-03-3.15382E-14
 -1      2417 6.95985E-03 9.39859E-04-3.73147E-14
 -1      2418 6.78092E-03 9.97894E-04-3.55668E-14
 -1      2419 6.71734E-03 9.75780E-04-3.48842E-14
 -1      2420 7.31435E-03 8.50500E-04-4.09127E-14
 -1      2421 7.13842E-03 8.90579E-04-3.90974E-14
 -1      2422 7.08100E-03 8.60100E-04-3.83805E-14
 -1      2423 7.65998E-03 7.98258E-04-4.46393E-14
 -1      2424 7.48866E-03 8.19984E-04-4.27606E-14
 -1      2425 7.43316E-03 7.83392E-04-4.20146E-14
 -1      2426 7.99583E-03 7.78259E-04-4.84825E-14
 -1      2427 7.82925E-03 7.84697E-04-4.65459E-14
 -1      2428 7.77179E-03 7.43769E-04-4.57702E-14
 -1      2429 8.32266E-03 7.82874E-04-5.24271E-14
 -1      2430 8.16035E-03 7.77959E-04-5.04427E-14
 -1      2431 8.09859E-03 7.33929E-04-4.96375E-14
 -1      2432 8.64169E-03 8.04727E-04-5.64731E-14
 -1      2433 8.48308E-03 7.92035E-04-5.44395E-14
 -1      2434 8.41614E-03 7.45821E-04-5.36077E-14
 -1      2435 8.95414E-03 8.37810E-04-6.06055E-14
 -1      2436 8.79865E-03 8.20159E-04-5.85282E-14
 -1      2437 8.72672E-03 7.72500E-04-5.76717E-14
 -1      2438 9.26106E-03 8.77671E-04-6.48209E-14
 -1      2439 9.10820E-03 8.57105E-04-6.27031E-14
 -1      2440 9.03195E-03 8.08592E-04-6.18230E-14
 -1      2441 9.56337E-03 9.21204E-04-6.91144E-14
 -1      2442 9.41270E-03 8.99124E-04-6.69578E-14
 -1      2443 9.33301E-03 8.50210E-04-6.60542E-14
 -1      2444 9.86189E-03 9.66346E-04-7.34747E-14
 -1      2445 9.71303E-03 9.43671E-04-7.12863E-14
 -1      2446 9.63071E-03 8.94678E-04-7.03638E-14
 -1      2447 1.01573E-02 1.01179E-03-7.78960E-14
 -1      2448 1.00099E-02 9.89094E-04-7.56773E-14
 -1      2449 9.92571E-03 9.40233E-04-7.47380E-14
 -1      2450 1.04503E-02 1.05678E-03-8.23737E-14
 -1      2451 1.03041E-02 1.03438E-03-8.01287E-14
 -1      2452 1.02185E-02 9.85777E-04-7.91710E-14
 -1      2453 1.07413E-02 1.10088E-03-8.69016E-14
 -1      2454 1.05960E-02 1.07896E-03-8.46303E-14
 -1      2455 1.05096E-02 1.03067E-03-8.36605E-14
 -1      2456 1.10309E-02 1.14391E-03-9.14850E-14
 -1      2457 1.08863E-02 1.12254E-03-8.91871E-14
 -1      2458 1.07993E-02 1.07458E-03-8.82009E-14
 -1      2459 1.13192E-02 1.18584E-03-9.61208E-14
 -1      2460 1.11752E-02 1.16502E-03-9.37967E-14
 -1      2461 1.10878E-02 1.11738E-03-9.27942E-14
 -1      2462 1.16068E-02 1.22672E-03-1.00801E-13
 -1      2463 1.14631E-02 1.20641E-03-9.84548E-14
 -1      2464 1.13756E-02 1.15906E-03-9.74393E-14
 -1      2465 1.18936E-02 1.26664E-03-1.05529E-13
 -1      2466 1.17503E-02 1.24679E-03-1.03160E-13
 -1      2467 1.16627E-02 1.19971E-03-1.02130E-13
 -1      2468 1.21801E-02 1.30573E-03-1.10289E-13
 -1      2469 1.20369E-02 1.28628E-03-1.07906E-13
 -1      2470 1.19493E-02 1.23942E-03-1.06862E-13
 -1      2471 1.24662E-02 1.34411E-03-1.15080E-13
 -1      2472 1.23232E-02 1.32500E-03-1.12681E-13
 -1      2473 1.22356E-02 1.27832E-03-1.11626E-13
 -1      2474 1.27521E-02 1.38191E-03-1.19897E-13
 -1      2475 1.26092E-02 1.36308E-03-1.17487E-13
 -1      2476 1.25217E-02 1.31654E-03-1.16423E-13
 -1      2477 1.30379E-02 1.41924E-03-1.24735E-13
 -1      2478 1.28950E-02 1.40063E-03-1.22313E-13
 -1      2479 1.28076E-02 1.35421E-03-1.21244E-13
 -1      2480 1.33236E-02 1.45619E-03-1.29586E-13
 -1      2481 1.31807E-02 1.43776E-03-1.27158E-13
 -1      2482 1.30934E-02 1.39142E-03-1.26084E-13
 -1      2483 1.36092E-02 1.49286E-03-1.34447E-13
 -1      2484 1.34664E-02 1.47456E-03-1.32016E-13
 -1      2485 1.33791E-02 1.42829E-03-1.30937E-13
 -1      2486 1.38949E-02 1.52932E-03-1.39317E-13
 -1      2487 1.37521E-02 1.51111E-03-1.36883E-13
 -1      2488 1.36648E-02 1.46490E-03-1.35801E-13
 -1      2489 1.41805E-02 1.56564E-03-1.44194E-13
 -1      2490 1.40377E-02 1.54749E-03-1.41755E-13
 -1      2491 1.39505E-02 1.50131E-03-1.40675E-13
 -1      2492 1.44662E-02 1.60187E-03-1.49087E-13
 -1      2493 1.43233E-02 1.58376E-03-1.46638E-13
 -1      2494 1.42361E-02 1.53760E-03-1.45557E-13
 -1      2495 1.47518E-02 1.63807E-03-1.53992E-13
 -1      2496 1.46090E-02 1.61997E-03-1.51537E-13
 -1      2497 1.45218E-02 1.57381E-03-1.50453E-13
 -1      2498 1.49000E-02 1.65780E-03-1.56530E-13
 -1      2499 1.46798E-02 1.31492E-03-1.56390E-13
 -1      2500 1.46977E-02 1.35710E-03-1.56245E-13
 -1      2501 1.46443E-02 1.23055E-03-1.56684E-13
 -1      2502 1.46621E-02 1.27274E-03-1.56538E-13
 -1      2503 1.45472E-02 1.27822E-03-1.54334E-13
 -1      2504 1.47506E-02 1.48220E-03-1.55797E-13
 -1      2505 1.47685E-02 1.52437E-03-1.55639E-13
 -1      2506 1.47153E-02 1.39892E-03-1.56096E-13
 -1      2507 1.47329E-02 1.44038E-03-1.55947E-13
 -1      2508 1.46181E-02 1.44582E-03-1.53740E-13
 -1      2509 1.45827E-02 1.36220E-03-1.54039E-13
 -1      2510 1.46089E-02 1.14618E-03-1.56980E-13
 -1      2511 1.46266E-02 1.18837E-03-1.56832E-13
 -1      2512 1.45117E-02 1.19388E-03-1.54626E-13
 -1      2513 1.45736E-02 1.06181E-03-1.57280E-13
 -1      2514 1.45912E-02 1.10400E-03-1.57130E-13
 -1      2515 1.44763E-02 1.10954E-03-1.54920E-13
 -1      2516 1.45384E-02 9.77437E-04-1.57579E-13
 -1      2517 1.45560E-02 1.01962E-03-1.57429E-13
 -1      2518 1.44410E-02 1.02520E-03-1.55215E-13
 -1      2519 1.45039E-02 8.94498E-04-1.57870E-13
 -1      2520 1.45211E-02 9.35967E-04-1.57724E-13
 -1      2521 1.44062E-02 9.41573E-04-1.55504E-13
 -1      2522 1.44690E-02 8.10136E-04-1.58170E-13
 -1      2523 1.44864E-02 8.52316E-04-1.58021E-13
 -1      2524 1.43714E-02 8.57948E-04-1.55793E-13
 -1      2525 1.44341E-02 7.25783E-04-1.58466E-13
 -1      2526 1.44515E-02 7.67958E-04-1.58320E-13
 -1      2527 1.43365E-02 7.73611E-04-1.56087E-13
 -1      2528 1.43993E-02 6.41445E-04-1.58752E-13
 -1      2529 1.44167E-02 6.83612E-04-1.58607E-13
 -1      2530 1.43017E-02 6.89280E-04-1.56375E-13
 -1      2531 7.73708E-03 2.76114E-04-3.72107E-14
 -1      2532 7.75622E-03 2.66774E-04-3.71059E-14
 -1      2533 7.50371E-03 3.43148E-04-3.61587E-14
 -1      2534 7.64030E-03 3.05213E-04-3.68525E-14
 -1      2535 7.74376E-03 2.55796E-04-3.71879E-14
 -1      2536 7.69913E-03 2.46830E-04-3.72705E-14
 -1      2537 7.76738E-03 2.65906E-04-3.81641E-14
 -1      2538 1.63107E-03 4.27848E-04-2.29950E-15
 -1      2539 1.48289E-03 4.14976E-04-1.88722E-15
 -1      2540 1.68343E-03 3.96563E-04-2.61763E-15
 -1      2541 1.44464E-02 5.76854E-04-1.60367E-13
 -1      2542 7.19992E-03 4.59802E-04-3.49817E-14
 -1      2543 7.34283E-03 4.02276E-04-3.56132E-14
 -1      2544 6.79017E-03 6.62646E-04-3.29654E-14
 -1      2545 7.00191E-03 5.51397E-04-3.39666E-14
 -1      2546 7.11415E-03 5.11249E-04-3.52193E-14
 -1      2547 5.98116E-04-2.11836E-04-4.88270E-16
 -1      2548 7.95055E-04-2.70909E-04-7.73497E-16
 -1      2549 8.53492E-04-2.56426E-04-9.40247E-16
 -1      2550 5.86791E-04-1.83603E-04-5.15674E-16
 -1      2551 7.59062E-03 2.16744E-04-3.69331E-14
 -1      2552 7.44294E-03 1.74575E-04-3.65309E-14
 -1      2553 3.48134E-03 4.64934E-05-1.76156E-14
 -1      2554 3.33895E-03 8.94762E-05-1.73374E-14
 -1      2555 3.16996E-03 1.42682E-04-1.69451E-14
 -1      2556 3.19263E-03 1.52052E-04-1.70174E-14
 -1      2557 5.33028E-04-1.58046E-05-5.79764E-16
 -1      2558 5.34626E-04-2.80953E-05-5.81281E-16
 -1      2559 6.47102E-04-4.09495E-05-7.86182E-16
 -1      2560 6.42931E-04-1.15705E-05-7.82442E-16
 -1      2561 5.67766E-03 1.23353E-03-2.61479E-14
 -1      2562 5.84648E-03 1.18733E-03-2.73943E-14
 -1      2563 3.84237E-03 3.82536E-04-1.82494E-14
 -1      2564 4.03014E-03 4.72542E-04-1.86380E-14
 -1      2565 5.38496E-03 1.21773E-03-2.41277E-14
 -1      2566 5.50372E-03 1.23860E-03-2.49442E-14
 -1      2567 5.02970E-03 1.06350E-03-2.20800E-14
 -1      2568 5.20482E-03 1.15546E-03-2.30138E-14
 -1      2569 4.69015E-03 8.58466E-04-2.07033E-14
 -1      2570 4.84071E-03 9.54513E-04-2.12966E-14
 -1      2571 4.28248E-03 6.08293E-04-1.92701E-14
 -1      2572 4.49615E-03 7.38130E-04-1.99688E-14
 -1      2573 3.49341E-03 2.42594E-04-1.75348E-14
 -1      2574 3.65037E-03 2.99040E-04-1.78180E-14
 -1      2575 3.26050E-03 1.73657E-04-1.72087E-14
 -1      2576 3.35485E-03 1.98393E-04-1.73748E-14
 -1      2577 3.25921E-03 1.12028E-04-1.71588E-14
 -1      2578 3.20158E-03 1.24111E-04-1.69811E-14
 -1      2579 3.28721E-03 9.36230E-05-1.66305E-14
 -1      2580 5.07621E-03-7.32335E-04-2.44013E-14
 -1      2581 4.93608E-03-6.70695E-04-2.35325E-14
 -1      2582 4.34792E-03-3.50157E-04-2.06324E-14
 -1      2583 4.18321E-03-2.59051E-04-2.00024E-14
 -1      2584 4.75167E-03-5.78404E-04-2.25247E-14
 -1      2585 4.55777E-03-4.67362E-04-2.15414E-14
 -1      2586 4.82650E-03-6.25692E-04-2.27271E-14
 -1      2587 5.40475E-03-7.87744E-04-2.67013E-14
 -1      2588 5.25853E-03-7.78799E-04-2.56299E-14
 -1      2589 5.70482E-03-7.14721E-04-2.88448E-14
 -1      2590 5.56442E-03-7.63701E-04-2.78271E-14
 -1      2591 6.04828E-03-5.35484E-04-3.10875E-14
 -1      2592 5.89479E-03-6.25660E-04-3.01777E-14
 -1      2593 6.45200E-03-2.91200E-04-3.31601E-14
 -1      2594 6.24410E-03-4.19400E-04-3.21160E-14
 -1      2595 6.15757E-03-4.71532E-04-3.21539E-14
 -1      2596 6.88489E-03-5.66203E-05-3.47749E-14
 -1      2597 6.69947E-03-1.53005E-04-3.41396E-14
 -1      2598 7.25370E-03 1.05771E-04-3.59629E-14
 -1      2599 7.07773E-03 3.30037E-05-3.53845E-14
 -1      2600 6.41431E-03 8.81415E-04-3.09644E-14
 -1      2601 6.56520E-03 7.89517E-04-3.17886E-14
 -1      2602 7.73065E-04 3.00690E-04-4.89368E-16
 -1      2603 6.23103E-04 2.57953E-04-3.22279E-16
 -1      2604 5.95498E-04 2.31391E-04-3.35100E-16
 -1      2605 8.29159E-04 2.85442E-04-6.42498E-16
 -1      2606 5.87463E-03 1.20115E-03-2.76068E-14
 -1      2607 5.95707E-03 1.15127E-03-2.82380E-14
 -1      2608 6.06605E-03 1.10750E-03-2.90929E-14
 -1      2609 6.66197E-04-1.10521E-04-7.68835E-16
 -1      2610 5.53131E-04-1.02087E-04-5.63433E-16
 -1      2611 5.58981E-04-1.20851E-04-5.53092E-16
 -1      2612 1.38820E-03 3.71179E-04-1.78007E-15
 -1      2613 5.81514E-04 2.00584E-04-3.75974E-16
 -1      2614 6.33461E-03 9.39533E-04-3.07696E-14
 -1      2615 7.36197E-03 1.50531E-04-3.69874E-14
 -1      2616 7.65498E-03 2.37853E-04-3.79053E-14
 -1      2617 6.57080E-03-2.22369E-04-3.41845E-14
 -1      2618 7.45074E-03 3.73008E-04-3.68044E-14
 -1      2619 5.80183E-03-6.74027E-04-2.97679E-14
 -1      2620 1.48128E-02 1.61163E-03-1.55443E-13
 -1      2621 1.47829E-02 1.57651E-03-1.55298E-13
 -1      2622 6.99650E-04 2.18328E-04-5.48945E-16
 -1      2623 7.70990E-03 2.89727E-04-3.77211E-14
 -1      2624 7.76035E-03 2.85029E-04-3.85944E-14
 -1      2625 7.67306E-03 3.08271E-04-3.82302E-14
 -1      2626 4.45725E-03-4.20141E-04-2.08283E-14
 -1      2627 6.71098E-03 7.18258E-04-3.30004E-14
 -1      2628 5.77348E-04-1.58682E-04-5.36883E-16
 -1      2629 3.57793E-03 7.96554E-06-1.76189E-14
 -1      2630 3.45083E-03 3.65872E-05-1.68036E-14
 -1      2631 3.67218E-03-3.87154E-05-1.76194E-14
 -1      2632 5.16476E-03-7.64682E-04-2.49473E-14
 -1      2633 3.21265E-03 1.56209E-04-1.65808E-14
 -1      2634 3.41649E-03 2.12560E-04-1.69243E-14
 -1      2635 4.15950E-03 5.37364E-04-1.85371E-14
 -1      2636 4.58105E-03 7.87469E-04-1.98784E-14
 -1      2637 4.94208E-03 1.01444E-03-2.13761E-14
 -1      2638 5.27752E-03 1.18805E-03-2.32475E-14
 -1      2639 3.16348E-03 1.28912E-04-1.64265E-14
 -1      2640 3.73315E-03 3.28349E-04-1.74977E-14
 -1      2641 5.60665E-03 1.24687E-03-2.55556E-14
 -1      2642 4.04088E-03-1.94928E-04-1.91898E-14
 -1      2643 1.42912E-02 5.43118E-04-1.57807E-13
 -1      2644 1.43592E-02 6.02020E-04-1.58436E-13
 -1      2645 1.42442E-02 6.07695E-04-1.56197E-13
 -1      2646 1.41639E-02 5.28863E-04-1.55561E-13
 -1      2647 5.47528E-03-7.83544E-04-2.73053E-14
 -1      2648 6.99002E-03-1.68373E-06-3.57950E-14
 -1      2649 1.46502E-02 1.53977E-03-1.53250E-13
 -1      2650 1.41078E-02 5.57091E-04-1.54190E-13
 -1      2651 7.60231E-04 6.06171E-05-9.76419E-16
 -1      2652 7.56836E-04 4.38122E-05-9.89755E-16
 -1      2653 7.54601E-04 2.72689E-05-1.00080E-15
 -1      2654 7.53627E-04 1.10530E-05-1.00974E-15
 -1      2655 8.68038E-04 3.98350E-05-1.25938E-15
 -1      2656 7.86520E-04 1.40214E-04-8.93437E-16
 -1      2657 7.78070E-04 1.17998E-04-9.19295E-16
 -1      2658 8.07677E-04 1.91062E-04-8.28832E-16
 -1      2659 7.96431E-04 1.64482E-04-8.63743E-16
 -1      2660 9.10775E-04 1.69109E-04-1.11937E-15
 -1      2661 1.14853E-03 3.09642E-04-1.32664E-15
 -1      2662 1.00207E-03 2.86870E-04-1.02639E-15
 -1      2663 1.44137E-03 3.43475E-04-2.05210E-15
 -1      2664 1.29483E-03 3.28374E-04-1.66829E-15
 -1      2665 1.20359E-03 2.86822E-04-1.55331E-15
 -1      2666 7.45761E-03 1.82947E-04-3.81652E-14
 -1      2667 7.28502E-03 1.23867E-04-3.75829E-14
 -1      2668 7.42490E-03 4.00678E-04-3.75551E-14
 -1      2669 7.55955E-03 3.51230E-04-3.81160E-14
 -1      2670 1.33785E-03-3.07156E-04-2.18689E-15
 -1      2671 1.48383E-03-3.21344E-04-2.64349E-15
 -1      2672 1.62999E-03-3.33120E-04-3.14381E-15
 -1      2673 1.77652E-03-3.42844E-04-3.68753E-15
 -1      2674 1.53816E-03-2.93305E-04-2.92718E-15
 -1      2675 1.92344E-03-3.51185E-04-4.27401E-15
 -1      2676 2.07092E-03-3.58545E-04-4.90364E-15
 -1      2677 1.82901E-03-3.11458E-04-4.01710E-15
 -1      2678 2.21909E-03-3.65559E-04-5.57596E-15
 -1      2679 2.36813E-03-3.72703E-04-6.29019E-15
 -1      2680 2.12167E-03-3.24805E-04-5.27723E-15
 -1      2681 2.51826E-03-3.80581E-04-7.04618E-15
 -1      2682 2.66963E-03-3.89773E-04-7.84354E-15
 -1      2683 2.41731E-03-3.37304E-04-6.70502E-15
 -1      2684 2.82259E-03-4.00839E-04-8.68199E-15
 -1      2685 2.97721E-03-4.14486E-04-9.56144E-15
 -1      2686 2.71768E-03-3.53229E-04-8.29718E-15
 -1      2687 3.13399E-03-4.31185E-04-1.04810E-14
 -1      2688 3.29279E-03-4.51748E-04-1.14409E-14
 -1      2689 3.02511E-03-3.77289E-04-1.00515E-14
 -1      2690 3.45422E-03-4.76480E-04-1.24404E-14
 -1      2691 3.61776E-03-5.06113E-04-1.34797E-14
 -1      2692 3.34225E-03-4.14681E-04-1.19652E-14
 -1      2693 3.78397E-03-5.40650E-04-1.45592E-14
 -1      2694 3.95174E-03-5.80267E-04-1.56783E-14
 -1      2695 3.67118E-03-4.70680E-04-1.40371E-14
 -1      2696 4.12143E-03-6.24395E-04-1.68379E-14
 -1      2697 4.29122E-03-6.71928E-04-1.80379E-14
 -1      2698 4.01177E-03-5.48882E-04-1.62672E-14
 -1      2699 4.46092E-03-7.21476E-04-1.92777E-14
 -1      2700 4.62873E-03-7.69709E-04-2.05593E-14
 -1      2701 4.35940E-03-6.47304E-04-1.86578E-14
 -1      2702 4.79410E-03-8.14259E-04-2.18840E-14
 -1      2703 4.95665E-03-8.50018E-04-2.32494E-14
 -1      2704 4.70443E-03-7.52598E-04-2.12126E-14
 -1      2705 5.11535E-03-8.74435E-04-2.46570E-14
 -1      2706 5.27278E-03-8.83194E-04-2.61066E-14
 -1      2707 5.03719E-03-8.34182E-04-2.39365E-14
 -1      2708 5.42816E-03-8.75104E-04-2.75992E-14
 -1      2709 5.58542E-03-8.50081E-04-2.91324E-14
 -1      2710 5.35742E-03-8.56552E-04-2.68293E-14
 -1      2711 5.74385E-03-8.09146E-04-3.07057E-14
 -1      2712 5.90597E-03-7.56333E-04-3.23194E-14
 -1      2713 5.67716E-03-8.02241E-04-2.98919E-14
 -1      2714 6.07092E-03-6.94093E-04-3.39712E-14
 -1      2715 6.23868E-03-6.27788E-04-3.56603E-14
 -1      2716 6.00881E-03-6.86665E-04-3.31169E-14
 -1      2717 6.40849E-03-5.59730E-04-3.73839E-14
 -1      2718 6.57851E-03-4.93457E-04-3.91408E-14
 -1      2719 6.35330E-03-5.45133E-04-3.64917E-14
 -1      2720 6.74854E-03-4.30565E-04-4.09316E-14
 -1      2721 6.91684E-03-3.72178E-04-4.27542E-14
 -1      2722 6.70116E-03-4.08855E-04-4.00054E-14
 -1      2723 7.08369E-03-3.19034E-04-4.46059E-14
 -1      2724 7.24791E-03-2.71041E-04-4.64865E-14
 -1      2725 7.04248E-03-2.92911E-04-4.36465E-14
 -1      2726 7.41007E-03-2.28329E-04-4.83967E-14
 -1      2727 7.56960E-03-1.90210E-04-5.03334E-14
 -1      2728 7.37229E-03-2.00112E-04-4.74059E-14
 -1      2729 7.72711E-03-1.56528E-04-5.22966E-14
 -1      2730 7.88243E-03-1.26532E-04-5.42847E-14
 -1      2731 7.69020E-03-1.27579E-04-5.12753E-14
 -1      2732 8.03606E-03-9.99175E-05-5.62974E-14
 -1      2733 8.18803E-03-7.60530E-05-5.83350E-14
 -1      2734 7.99814E-03-7.07840E-05-5.52459E-14
 -1      2735 8.33870E-03-5.45897E-05-6.03973E-14
 -1      2736 8.48818E-03-3.50529E-05-6.24813E-14
 -1      2737 8.29867E-03-2.54114E-05-5.93161E-14
 -1      2738 8.63668E-03-1.71099E-05-6.45895E-14
 -1      2739 8.78436E-03-4.22051E-07-6.67190E-14
 -1      2740 8.59408E-03 1.21085E-05-6.34822E-14
 -1      2741 8.93133E-03 1.52943E-05-6.88678E-14
 -1      2742 9.07772E-03 3.02716E-05-7.10360E-14
 -1      2743 8.88610E-03 4.45600E-05-6.77341E-14
 -1      2744 9.22359E-03 4.47328E-05-7.32220E-14
 -1      2745 9.36905E-03 5.88323E-05-7.54221E-14
 -1      2746 9.17594E-03 7.40327E-05-7.20645E-14
 -1      2747 9.51413E-03 7.27329E-05-7.76357E-14
 -1      2748 9.65892E-03 8.65332E-05-7.98638E-14
 -1      2749 9.46439E-03 1.02036E-04-7.64585E-14
 -1      2750 9.80342E-03 1.00343E-04-8.21052E-14
 -1      2751 9.94771E-03 1.14223E-04-8.43597E-14
 -1      2752 9.75196E-03 1.29612E-04-8.09082E-14
 -1      2753 1.00918E-02 1.28240E-04-8.66266E-14
 -1      2754 1.02357E-02 1.42428E-04-8.89025E-14
 -1      2755 1.00390E-02 1.57440E-04-8.54106E-14
 -1      2756 1.03794E-02 1.56822E-04-9.11906E-14
 -1      2757 1.05231E-02 1.71438E-04-9.34896E-14
 -1      2758 1.03256E-02 1.85927E-04-8.99591E-14
 -1      2759 1.06666E-02 1.86288E-04-9.58002E-14
 -1      2760 1.08100E-02 2.01378E-04-9.81202E-14
 -1      2761 1.06119E-02 2.15283E-04-9.45525E-14
 -1      2762 1.09533E-02 2.16704E-04-1.00451E-13
 -1      2763 1.10966E-02 2.32264E-04-1.02793E-13
 -1      2764 1.08981E-02 2.45582E-04-9.91890E-14
 -1      2765 1.12398E-02 2.48047E-04-1.05142E-13
 -1      2766 1.13829E-02 2.64045E-04-1.07499E-13
 -1      2767 1.11842E-02 2.76810E-04-1.03868E-13
 -1      2768 1.15260E-02 2.80244E-04-1.09864E-13
 -1      2769 1.16691E-02 2.96632E-04-1.12235E-13
 -1      2770 1.14702E-02 3.08899E-04-1.08582E-13
 -1      2771 1.18121E-02 3.13194E-04-1.14613E-13
 -1      2772 1.19551E-02 3.29918E-04-1.17001E-13
 -1      2773 1.17561E-02 3.41753E-04-1.13326E-13
 -1      2774 1.20980E-02 3.46788E-04-1.19394E-13
 -1      2775 1.22410E-02 3.63793E-04-1.21794E-13
 -1      2776 1.20419E-02 3.75262E-04-1.18098E-13
 -1      2777 1.23839E-02 3.80916E-04-1.24202E-13
 -1      2778 1.25268E-02 3.98150E-04-1.26619E-13
 -1      2779 1.23277E-02 4.09319E-04-1.22899E-13
 -1      2780 1.26697E-02 4.15477E-04-1.29042E-13
 -1      2781 1.28126E-02 4.32891E-04-1.31472E-13
 -1      2782 1.26135E-02 4.43821E-04-1.27729E-13
 -1      2783 1.29554E-02 4.50378E-04-1.33909E-13
 -1      2784 1.30983E-02 4.67931E-04-1.36351E-13
 -1      2785 1.28993E-02 4.78675E-04-1.32585E-13
 -1      2786 1.32412E-02 4.85539E-04-1.38802E-13
 -1      2787 1.33840E-02 5.03194E-04-1.41258E-13
 -1      2788 1.31850E-02 5.13801E-04-1.37469E-13
 -1      2789 1.35269E-02 5.20888E-04-1.43718E-13
 -1      2790 1.36698E-02 5.38614E-04-1.46188E-13
 -1      2791 1.34707E-02 5.49127E-04-1.42375E-13
 -1      2792 1.38126E-02 5.56365E-04-1.48662E-13
 -1      2793 1.39555E-02 5.74134E-04-1.51141E-13
 -1      2794 1.37565E-02 5.84592E-04-1.47305E-13
 -1      2795 2.32613E-03 3.92221E-04-5.22519E-15
 -1      2796 2.17729E-03 3.86234E-04-4.59386E-15
 -1      2797 5.55152E-03-7.73142E-04-2.80429E-14
 -1      2798 5.41382E-03-7.96552E-04-2.69111E-14
 -1      2799 2.02925E-03 3.80146E-04-4.00329E-15
 -1      2800 1.88172E-03 3.73474E-04-3.45341E-15
 -1      2801 2.07583E-03 3.47552E-04-4.39118E-15
 -1      2802 2.93321E-03 4.30213E-04-8.15045E-15
 -1      2803 2.77911E-03 4.17027E-04-7.35962E-15
 -1      2804 3.24851E-03 4.69520E-04-9.85065E-15
 -1      2805 3.08959E-03 4.47283E-04-8.98104E-15
 -1      2806 2.96619E-03 3.96202E-04-8.68538E-15
 -1      2807 3.57676E-03 5.33485E-04-1.17050E-14
 -1      2808 3.41090E-03 4.97663E-04-1.07586E-14
 -1      2809 3.27737E-03 4.35728E-04-1.04303E-14
 -1      2810 3.92233E-03 6.31539E-04-1.37140E-14
 -1      2811 3.74751E-03 5.77393E-04-1.26906E-14
 -1      2812 3.60404E-03 5.00503E-04-1.23284E-14
 -1      2813 4.28704E-03 7.70911E-04-1.58777E-14
 -1      2814 4.10311E-03 6.95645E-04-1.47765E-14
 -1      2815 3.95284E-03 6.01647E-04-1.43783E-14
 -1      2816 4.66407E-03 9.47636E-04-1.82030E-14
 -1      2817 4.47539E-03 8.55665E-04-1.70194E-14
 -1      2818 4.32650E-03 7.49407E-04-1.65823E-14
 -1      2819 5.03780E-03 1.13201E-03-2.06990E-14
 -1      2820 4.85295E-03 1.04296E-03-1.94288E-14
 -1      2821 4.71645E-03 9.40926E-04-1.89478E-14
 -1      2822 5.73511E-03 1.27959E-03-2.62311E-14
 -1      2823 5.56245E-03 1.28760E-03-2.47744E-14
 -1      2824 6.07493E-03 1.17491E-03-2.91908E-14
 -1      2825 5.89290E-03 1.23521E-03-2.76454E-14
 -1      2826 6.84087E-03 8.83673E-04-3.59144E-14
 -1      2827 6.65333E-03 9.51218E-04-3.42002E-14
 -1      2828 7.20641E-03 7.80203E-04-3.94512E-14
 -1      2829 7.02657E-03 8.26738E-04-3.76652E-14
 -1      2830 6.97497E-03 7.91160E-04-3.69500E-14
 -1      2831 7.55306E-03 7.18919E-04-4.31166E-14
 -1      2832 7.38246E-03 7.44875E-04-4.12684E-14
 -1      2833 7.33618E-03 7.04051E-04-4.05235E-14
 -1      2834 7.88262E-03 6.92867E-04-4.69021E-14
 -1      2835 7.71989E-03 7.02228E-04-4.49958E-14
 -1      2836 7.67321E-03 6.59518E-04-4.42219E-14
 -1      2837 8.19949E-03 6.93107E-04-5.07929E-14
 -1      2838 8.04243E-03 6.90308E-04-4.88344E-14
 -1      2839 7.99162E-03 6.46690E-04-4.80333E-14
 -1      2840 8.50769E-03 7.11782E-04-5.47863E-14
 -1      2841 8.35447E-03 7.00592E-04-5.27772E-14
 -1      2842 8.29785E-03 6.56132E-04-5.19498E-14
 -1      2843 8.81011E-03 7.42695E-04-5.88693E-14
 -1      2844 8.65947E-03 7.26028E-04-5.68167E-14
 -1      2845 8.59675E-03 6.80685E-04-5.59634E-14
 -1      2846 9.10856E-03 7.81248E-04-6.30384E-14
 -1      2847 8.95971E-03 7.61238E-04-6.09438E-14
 -1      2848 8.89139E-03 7.15080E-04-6.00671E-14
 -1      2849 9.40415E-03 8.24163E-04-6.72891E-14
 -1      2850 9.25663E-03 8.02311E-04-6.51540E-14
 -1      2851 9.18353E-03 7.55511E-04-6.42546E-14
 -1      2852 9.69758E-03 8.69196E-04-7.16122E-14
 -1      2853 9.55107E-03 8.46514E-04-6.94415E-14
 -1      2854 9.47412E-03 7.99286E-04-6.85213E-14
 -1      2855 9.98930E-03 9.14877E-04-7.60003E-14
 -1      2856 9.84360E-03 8.92019E-04-7.37999E-14
 -1      2857 9.76364E-03 8.44559E-04-7.28614E-14
 -1      2858 1.02797E-02 9.60296E-04-8.04481E-14
 -1      2859 1.01346E-02 9.37658E-04-7.82172E-14
 -1      2860 1.00524E-02 8.90125E-04-7.72645E-14
 -1      2861 1.05689E-02 1.00493E-03-8.49464E-14
 -1      2862 1.04244E-02 9.82734E-04-8.26901E-14
 -1      2863 1.03405E-02 9.35241E-04-8.17213E-14
 -1      2864 1.08573E-02 1.04853E-03-8.94985E-14
 -1      2865 1.07132E-02 1.02687E-03-8.72159E-14
 -1      2866 1.06281E-02 9.79491E-04-8.62319E-14
 -1      2867 1.11449E-02 1.09101E-03-9.41053E-14
 -1      2868 1.10012E-02 1.06991E-03-9.17971E-14
 -1      2869 1.09152E-02 1.02268E-03-9.07980E-14
 -1      2870 1.14321E-02 1.13239E-03-9.87573E-14
 -1      2871 1.12886E-02 1.11183E-03-9.64243E-14
 -1      2872 1.12021E-02 1.06477E-03-9.54130E-14
 -1      2873 1.17188E-02 1.17275E-03-1.03457E-13
 -1      2874 1.15754E-02 1.15269E-03-1.01103E-13
 -1      2875 1.14886E-02 1.10579E-03-1.00076E-13
 -1      2876 1.20051E-02 1.21222E-03-1.08193E-13
 -1      2877 1.18620E-02 1.19259E-03-1.05820E-13
 -1      2878 1.17749E-02 1.14584E-03-1.04781E-13
 -1      2879 1.22913E-02 1.25091E-03-1.12962E-13
 -1      2880 1.21482E-02 1.23165E-03-1.10572E-13
 -1      2881 1.20610E-02 1.18504E-03-1.09523E-13
 -1      2882 1.25773E-02 1.28896E-03-1.17763E-13
 -1      2883 1.24343E-02 1.27001E-03-1.15359E-13
 -1      2884 1.23470E-02 1.22351E-03-1.14298E-13
 -1      2885 1.28631E-02 1.32649E-03-1.22589E-13
 -1      2886 1.27202E-02 1.30779E-03-1.20174E-13
 -1      2887 1.26329E-02 1.26138E-03-1.19104E-13
 -1      2888 1.31489E-02 1.36360E-03-1.27430E-13
 -1      2889 1.30060E-02 1.34509E-03-1.25008E-13
 -1      2890 1.29187E-02 1.29876E-03-1.23933E-13
 -1      2891 1.34347E-02 1.40038E-03-1.32288E-13
 -1      2892 1.32918E-02 1.38203E-03-1.29859E-13
 -1      2893 1.32045E-02 1.33576E-03-1.28779E-13
 -1      2894 1.37204E-02 1.43692E-03-1.37155E-13
 -1      2895 1.35775E-02 1.41868E-03-1.34719E-13
 -1      2896 1.34903E-02 1.37246E-03-1.33640E-13
 -1      2897 1.40061E-02 1.47329E-03-1.42033E-13
 -1      2898 1.38632E-02 1.45512E-03-1.39595E-13
 -1      2899 1.37760E-02 1.40893E-03-1.38510E-13
 -1      2900 1.42918E-02 1.50954E-03-1.46919E-13
 -1      2901 1.41489E-02 1.49143E-03-1.44474E-13
 -1      2902 1.40617E-02 1.44526E-03-1.43391E-13
 -1      2903 1.45424E-02 1.53371E-03-1.51308E-13
 -1      2904 1.43996E-02 1.51562E-03-1.48858E-13
 -1      2905 1.43124E-02 1.46945E-03-1.47771E-13
 -1      2906 1.45280E-02 1.48157E-03-1.51649E-13
 -1      2907 1.43437E-02 1.07291E-03-1.52858E-13
 -1      2908 1.43614E-02 1.11507E-03-1.52713E-13
 -1      2909 1.40517E-02 5.85318E-04-1.52826E-13
 -1      2910 1.41479E-02 5.96505E-04-1.54510E-13
 -1      2911 1.39956E-02 6.13543E-04-1.51461E-13
 -1      2912 1.44146E-02 1.24153E-03-1.52278E-13
 -1      2913 1.44324E-02 1.28369E-03-1.52131E-13
 -1      2914 1.43085E-02 9.88604E-04-1.53148E-13
 -1      2915 1.43261E-02 1.03076E-03-1.53003E-13
 -1      2916 1.42112E-02 1.03630E-03-1.50799E-13
 -1      2917 1.43791E-02 1.15722E-03-1.52566E-13
 -1      2918 1.43968E-02 1.19938E-03-1.52422E-13
 -1      2919 1.42820E-02 1.20486E-03-1.50223E-13
 -1      2920 1.42465E-02 1.12058E-03-1.50511E-13
 -1      2921 5.87136E-03-6.43451E-04-3.05911E-14
 -1      2922 5.70283E-03-7.23324E-04-2.92494E-14
 -1      2923 4.88563E-03-6.73212E-04-2.29153E-14
 -1      2924 4.72694E-03-5.89725E-04-2.19255E-14
 -1      2925 1.42740E-02 9.05723E-04-1.53429E-13
 -1      2926 1.42912E-02 9.47163E-04-1.53290E-13
 -1      2927 1.41763E-02 9.52740E-04-1.51083E-13
 -1      2928 1.42390E-02 8.21411E-04-1.53719E-13
 -1      2929 1.42565E-02 8.63567E-04-1.53575E-13
 -1      2930 1.41415E-02 8.69174E-04-1.51365E-13
 -1      2931 1.42041E-02 7.37097E-04-1.54007E-13
 -1      2932 1.42215E-02 7.79254E-04-1.53862E-13
 -1      2933 1.41065E-02 7.84888E-04-1.51647E-13
 -1      2934 4.52853E-03-4.81808E-04-2.08393E-14
 -1      2935 4.34449E-03-3.77129E-04-1.99502E-14
 -1      2936 6.70921E-03-1.49591E-04-3.55638E-14
 -1      2937 6.49383E-03-2.75554E-04-3.45609E-14
 -1      2938 1.73470E-03 3.65464E-04-2.94467E-15
 -1      2939 1.58789E-03 3.55718E-04-2.47758E-15
 -1      2940 1.49385E-03 3.15918E-04-2.33395E-15
 -1      2941 1.78449E-03 3.34788E-04-3.28069E-15
 -1      2942 3.28789E-03 7.76980E-05-1.60492E-14
 -1      2943 3.21856E-03 9.62130E-05-1.58818E-14
 -1      2944 7.97789E-04-2.17048E-04-8.90753E-16
 -1      2945 9.31275E-04-2.47646E-04-1.14963E-15
 -1      2946 7.03884E-03 5.66768E-04-3.54241E-14
 -1      2947 7.21608E-03 4.87646E-04-3.64601E-14
 -1      2948 3.32921E-03 1.86566E-04-1.61724E-14
 -1      2949 3.45133E-03 2.22715E-04-1.63216E-14
 -1      2950 7.79621E-03 2.74033E-04-3.92531E-14
 -1      2951 7.78318E-03 2.69028E-04-3.93358E-14
 -1      2952 2.62676E-03 4.06884E-04-6.60831E-15
 -1      2953 2.47585E-03 3.98893E-04-5.89660E-15
 -1      2954 2.36872E-03 3.58608E-04-5.66378E-15
 -1      2955 2.66467E-03 3.72885E-04-7.09552E-15
 -1      2956 1.06139E-03-2.70230E-04-1.44420E-15
 -1      2957 1.20683E-03-2.90490E-04-1.81727E-15
 -1      2958 1.26314E-03-2.66964E-04-2.05492E-15
 -1      2959 1.00442E-03-2.31429E-04-1.37574E-15
 -1      2960 7.70848E-04 9.75603E-05-9.41115E-16
 -1      2961 7.64928E-04 7.84995E-05-9.60224E-16
 -1      2962 8.76328E-04 7.80013E-05-1.22631E-15
 -1      2963 8.90556E-04 1.20236E-04-1.18055E-15
 -1      2964 7.71684E-03 2.51889E-04-3.90771E-14
 -1      2965 7.61283E-03 2.28876E-04-3.87314E-14
 -1      2966 7.66590E-04-7.43841E-05-1.02137E-15
 -1      2967 7.72510E-04-9.41016E-05-1.01645E-15
 -1      2968 4.49633E-03 7.39852E-04-1.90863E-14
 -1      2969 4.66812E-03 8.49131E-04-1.97990E-14
 -1      2970 3.14511E-03 1.17407E-04-1.56419E-14
 -1      2971 3.12380E-03 1.29038E-04-1.56117E-14
 -1      2972 5.19905E-03 1.16416E-03-2.24573E-14
 -1      2973 5.35588E-03 1.22497E-03-2.35556E-14
 -1      2974 4.86920E-03 9.74781E-04-2.07213E-14
 -1      2975 5.02804E-03 1.07479E-03-2.14879E-14
 -1      2976 5.11937E-03 1.13466E-03-2.17752E-14
 -1      2977 4.76736E-03 9.26334E-04-1.99001E-14
 -1      2978 5.23335E-03-7.89038E-04-2.54636E-14
 -1      2979 5.07490E-03-7.47176E-04-2.42404E-14
 -1      2980 5.54892E-03 1.25725E-03-2.49963E-14
 -1      2981 5.70130E-03 1.25002E-03-2.62012E-14
 -1      2982 4.02571E-03 4.68153E-04-1.76382E-14
 -1      2983 4.24850E-03 5.91589E-04-1.82438E-14
 -1      2984 3.63845E-03 2.91299E-04-1.67311E-14
 -1      2985 3.81203E-03 3.63716E-04-1.71432E-14
 -1      2986 3.16447E-03 1.45529E-04-1.58031E-14
 -1      2987 3.23251E-03 1.59850E-04-1.59882E-14
 -1      2988 3.24972E-03 1.70150E-04-1.54004E-14
 -1      2989 4.11012E-03-2.51293E-04-1.89652E-14
 -1      2990 3.90931E-03-1.50171E-04-1.82411E-14
 -1      2991 1.41880E-02 6.35924E-04-1.54826E-13
 -1      2992 6.63223E-03 7.84925E-04-3.29815E-14
 -1      2993 6.83088E-03 6.72646E-04-3.41822E-14
 -1      2994 7.09657E-03 4.55150E-05-3.69678E-14
 -1      2995 6.92548E-03-3.50415E-05-3.63419E-14
 -1      2996 8.14514E-04 2.40188E-04-7.27554E-16
 -1      2997 6.26335E-03-4.13430E-04-3.32674E-14
 -1      2998 6.09391E-03-5.19851E-04-3.22175E-14
 -1      2999 6.56889E-04-1.58622E-04-6.87357E-16
 -1      3000 6.27560E-03 9.95581E-04-3.06192E-14
 -1      3001 6.42905E-03 9.03708E-04-3.16688E-14
 -1      3002 7.79532E-04-1.15188E-04-1.00867E-15
 -1      3003 7.87564E-04-1.37904E-04-9.97303E-16
 -1      3004 8.92716E-04-1.16505E-04-1.28180E-15
 -1      3005 8.65758E-04 3.41202E-06-1.28120E-15
 -1      3006 7.53880E-04-5.14051E-06-1.01637E-15
 -1      3007 7.55336E-04-2.15312E-05-1.02121E-15
 -1      3008 7.22218E-03 8.94096E-05-3.81408E-14
 -1      3009 7.80332E-03 2.84887E-04-3.97711E-14
 -1      3010 5.80729E-03 1.23418E-03-2.70189E-14
 -1      3011 7.55698E-03 2.07835E-04-3.93378E-14
 -1      3012 7.64119E-03 3.58110E-04-3.97589E-14
 -1      3013 7.65298E-03 3.30535E-04-3.89928E-14
 -1      3014 7.73288E-03 3.19265E-04-3.98762E-14
 -1      3015 3.51662E-03 2.54059E-04-1.59781E-14
 -1      3016 3.90310E-03 4.19822E-04-1.68600E-14
 -1      3017 1.43174E-02 1.28879E-03-1.49934E-13
 -1      3018 1.44500E-02 1.32549E-03-1.51985E-13
 -1      3019 1.44677E-02 1.36729E-03-1.51837E-13
 -1      3020 5.31646E-03-8.01925E-04-2.61688E-14
 -1      3021 3.13139E-03 1.02315E-04-1.50782E-14
 -1      3022 5.46107E-03 1.25735E-03-2.41643E-14
 -1      3023 5.38688E-03 1.26026E-03-2.33375E-14
 -1      3024 5.21090E-03 1.20692E-03-2.19778E-14
 -1      3025 6.58453E-03 8.99473E-04-3.33411E-14
 -1      3026 6.44906E-03 1.00247E-03-3.23583E-14
 -1      3027 6.25612E-03 1.08429E-03-3.07258E-14
 -1      3028 6.95846E-03 6.35581E-04-3.54029E-14
 -1      3029 5.98242E-03-5.92459E-04-3.16737E-14
 -1      3030 5.88748E-03-6.54401E-04-3.11303E-14
 -1      3031 6.09398E-03-5.42890E-04-3.27711E-14
 -1      3032 1.44890E-02 1.40353E-03-1.51818E-13
 -1      3033 1.45067E-02 1.44533E-03-1.51669E-13
 -1      3034 1.43989E-02 1.43928E-03-1.49731E-13
 -1      3035 1.43563E-02 1.36681E-03-1.49769E-13
 -1      3036 4.96502E-03-7.20977E-04-2.34025E-14
 -1      3037 4.59947E-03-5.47102E-04-2.10128E-14
 -1      3038 4.19129E-03-3.23079E-04-1.89704E-14
 -1      3039 1.42054E-02 6.78080E-04-1.54690E-13
 -1      3040 7.35675E-03 4.48114E-04-3.77654E-14
 -1      3041 7.48609E-03 4.23178E-04-3.90880E-14
 -1      3042 7.29931E-03 5.00401E-04-3.79725E-14
 -1      3043 6.41621E-03-3.38048E-04-3.46233E-14
 -1      3044 3.80941E-03-1.53418E-04-1.71814E-14
 -1      3045 3.75076E-03-9.39296E-05-1.74038E-14
 -1      3046 3.60232E-03-5.37459E-05-1.65878E-14
 -1      3047 6.56568E-03 8.51394E-04-3.28227E-14
 -1      3048 6.83656E-03-9.58401E-05-3.67274E-14
 -1      3049 7.77437E-03 2.63628E-04-4.01738E-14
 -1      3050 7.57968E-04-3.83397E-05-1.02350E-15
 -1      3051 7.61720E-04-5.59115E-05-1.02345E-15
 -1      3052 8.78468E-04-7.26584E-05-1.29310E-15
 -1      3053 8.69358E-04-3.33734E-05-1.29245E-15
 -1      3054 4.34251E-03 6.61493E-04-1.81628E-14
 -1      3055 7.72539E-04-1.68411E-04-9.17750E-16
 -1      3056 5.63084E-03-7.54858E-04-2.88360E-14
 -1      3057 3.42291E-03 1.63735E-05-1.60413E-14
 -1      3058 3.35292E-03 5.00835E-05-1.60461E-14
 -1      3059 3.26350E-03 5.49530E-05-1.53056E-14
 -1      3060 1.40430E-02 6.48640E-04-1.51965E-13
 -1      3061 1.41566E-02 7.01988E-04-1.53506E-13
 -1      3062 1.40416E-02 7.07641E-04-1.51287E-13
 -1      3063 1.39467E-02 6.37450E-04-1.50283E-13
 -1      3064 6.17365E-03 1.07442E-03-2.99607E-14
 -1      3065 8.73388E-04 2.25936E-04-8.90821E-16
 -1      3066 9.89587E-04 2.30635E-04-1.15542E-15
 -1      3067 1.13261E-03 2.50306E-04-1.47420E-15
 -1      3068 1.06423E-03 2.15858E-04-1.39091E-15
 -1      3069 1.27613E-03 2.66617E-04-1.83417E-15
 -1      3070 1.04977E-03 1.86211E-04-1.43563E-15
 -1      3071 7.81134E-03 2.99003E-04-4.05475E-14
 -1      3072 7.85324E-03 2.89683E-04-4.12161E-14
 -1      3073 7.81658E-03 3.18419E-04-4.13253E-14
 -1      3074 3.10705E-03 1.31653E-04-1.50341E-14
 -1      3075 3.05484E-03 1.22516E-04-1.42937E-14
 -1      3076 3.10119E-03 1.38048E-04-1.44783E-14
 -1      3077 1.73627E-03-2.73281E-04-3.76328E-15
 -1      3078 1.88078E-03-2.79989E-04-4.35149E-15
 -1      3079 2.02569E-03-2.85735E-04-4.98194E-15
 -1      3080 2.17122E-03-2.90908E-04-5.65426E-15
 -1      3081 1.93163E-03-2.48438E-04-4.69060E-15
 -1      3082 2.31750E-03-2.95994E-04-6.36709E-15
 -1      3083 2.46478E-03-3.01500E-04-7.12146E-15
 -1      3084 2.21942E-03-2.56824E-04-6.03395E-15
 -1      3085 2.61336E-03-3.07885E-04-7.91661E-15
 -1      3086 2.76355E-03-3.15833E-04-8.75184E-15
 -1      3087 2.51041E-03-2.65199E-04-7.54042E-15
 -1      3088 2.91580E-03-3.25758E-04-9.62698E-15
 -1      3089 3.07043E-03-3.38613E-04-1.05418E-14
 -1      3090 2.80707E-03-2.77402E-04-9.20751E-15
 -1      3091 3.22810E-03-3.54751E-04-1.14960E-14
 -1      3092 3.38894E-03-3.75444E-04-1.24888E-14
 -1      3093 3.11297E-03-2.98191E-04-1.10322E-14
 -1      3094 3.55375E-03-4.01002E-04-1.35215E-14
 -1      3095 3.72209E-03-4.32729E-04-1.45928E-14
 -1      3096 3.43264E-03-3.33907E-04-1.30123E-14
 -1      3097 3.89507E-03-4.70502E-04-1.57036E-14
 -1      3098 4.07055E-03-5.15347E-04-1.68543E-14
 -1      3099 3.77065E-03-3.92303E-04-1.51472E-14
 -1      3100 4.24948E-03-5.66546E-04-1.80445E-14
 -1      3101 4.42833E-03-6.22431E-04-1.92750E-14
 -1      3102 4.12777E-03-4.81235E-04-1.74378E-14
 -1      3103 4.95425E-03-7.90144E-04-2.32222E-14
 -1      3104 5.12094E-03-8.24043E-04-2.46224E-14
 -1      3105 5.28240E-03-8.40381E-04-2.60685E-14
 -1      3106 5.44433E-03-8.32705E-04-2.75557E-14
 -1      3107 5.60558E-03-8.02089E-04-2.90853E-14
 -1      3108 5.77160E-03-7.52792E-04-3.06568E-14
 -1      3109 5.94275E-03-6.85288E-04-3.22665E-14
 -1      3110 6.11715E-03-6.12085E-04-3.39175E-14
 -1      3111 6.29498E-03-5.34679E-04-3.56045E-14
 -1      3112 6.47327E-03-4.60122E-04-3.73272E-14
 -1      3113 6.23726E-03-5.27665E-04-3.47196E-14
 -1      3114 6.65167E-03-3.90126E-04-3.90835E-14
 -1      3115 6.82714E-03-3.26039E-04-4.08730E-14
 -1      3116 6.60314E-03-3.71037E-04-3.81648E-14
 -1      3117 7.00005E-03-2.68996E-04-4.26934E-14
 -1      3118 7.16861E-03-2.18362E-04-4.45423E-14
 -1      3119 6.95961E-03-2.43569E-04-4.17424E-14
 -1      3120 7.33373E-03-1.74155E-04-4.64213E-14
 -1      3121 7.49483E-03-1.35177E-04-4.83281E-14
 -1      3122 7.29774E-03-1.46390E-04-4.54404E-14
 -1      3123 7.65272E-03-1.01220E-04-5.02603E-14
 -1      3124 7.80747E-03-7.11163E-05-5.22190E-14
 -1      3125 7.61796E-03-7.35234E-05-4.92500E-14
 -1      3126 7.95974E-03-4.46091E-05-5.42021E-14
 -1      3127 8.10984E-03-2.08185E-05-5.62109E-14
 -1      3128 7.92394E-03-1.77414E-05-5.31618E-14
 -1      3129 8.25822E-03 5.23094E-07-5.82438E-14
 -1      3130 8.40520E-03 2.00103E-05-6.03009E-14
 -1      3131 8.22012E-03 2.66065E-05-5.71763E-14
 -1      3132 8.55107E-03 3.79027E-05-6.23815E-14
 -1      3133 8.69611E-03 5.45943E-05-6.44843E-14
 -1      3134 8.51014E-03 6.34783E-05-6.12859E-14
 -1      3135 8.84047E-03 7.03160E-05-6.66080E-14
 -1      3136 8.98435E-03 8.53230E-05-6.87521E-14
 -1      3137 8.79662E-03 9.56435E-05-6.54851E-14
 -1      3138 9.12785E-03 9.98072E-05-7.09130E-14
 -1      3139 9.27111E-03 1.13931E-04-7.30936E-14
 -1      3140 9.08129E-03 1.25063E-04-6.97672E-14
 -1      3141 9.41415E-03 1.27843E-04-7.52898E-14
 -1      3142 9.55709E-03 1.41642E-04-7.74974E-14
 -1      3143 9.36519E-03 1.53119E-04-7.41214E-14
 -1      3144 9.69991E-03 1.55438E-04-7.97210E-14
 -1      3145 9.84271E-03 1.69287E-04-8.19568E-14
 -1      3146 9.64893E-03 1.80770E-04-7.85362E-14
 -1      3147 9.98545E-03 1.83261E-04-8.42047E-14
 -1      3148 1.01282E-02 1.97390E-04-8.64659E-14
 -1      3149 9.93281E-03 2.08648E-04-8.30033E-14
 -1      3150 1.02709E-02 2.11718E-04-8.87378E-14
 -1      3151 1.04137E-02 2.26255E-04-9.10206E-14
 -1      3152 1.02170E-02 2.37144E-04-8.75187E-14
 -1      3153 1.05564E-02 2.41023E-04-9.33154E-14
 -1      3154 1.06992E-02 2.56022E-04-9.56212E-14
 -1      3155 1.05015E-02 2.66466E-04-9.20812E-14
 -1      3156 1.08420E-02 2.71257E-04-9.79390E-14
 -1      3157 1.09848E-02 2.86723E-04-1.00266E-13
 -1      3158 1.07863E-02 2.96698E-04-9.66899E-14
 -1      3159 1.11276E-02 3.02413E-04-1.02603E-13
 -1      3160 1.12704E-02 3.18319E-04-1.04952E-13
 -1      3161 1.10713E-02 3.27837E-04-1.01342E-13
 -1      3162 1.14132E-02 3.34429E-04-1.07309E-13
 -1      3163 1.15561E-02 3.50731E-04-1.09673E-13
 -1      3164 1.13565E-02 3.59825E-04-1.06036E-13
 -1      3165 1.16989E-02 3.67212E-04-1.12045E-13
 -1      3166 1.18418E-02 3.83859E-04-1.14424E-13
 -1      3167 1.16420E-02 3.92573E-04-1.10765E-13
 -1      3168 1.19846E-02 4.00657E-04-1.16809E-13
 -1      3169 1.21275E-02 4.17594E-04-1.19203E-13
 -1      3170 1.19275E-02 4.25982E-04-1.15521E-13
 -1      3171 1.22704E-02 4.34656E-04-1.21604E-13
 -1      3172 1.24132E-02 4.51833E-04-1.24012E-13
 -1      3173 1.22131E-02 4.59946E-04-1.20308E-13
 -1      3174 1.25561E-02 4.69110E-04-1.26427E-13
 -1      3175 1.26990E-02 4.86478E-04-1.28845E-13
 -1      3176 1.24988E-02 4.94367E-04-1.25124E-13
 -1      3177 1.28419E-02 5.03925E-04-1.31273E-13
 -1      3178 1.29847E-02 5.21443E-04-1.33707E-13
 -1      3179 1.27845E-02 5.29155E-04-1.29961E-13
 -1      3180 1.31276E-02 5.39021E-04-1.36147E-13
 -1      3181 1.32705E-02 5.56652E-04-1.38591E-13
 -1      3182 1.30702E-02 5.64228E-04-1.34827E-13
 -1      3183 1.34134E-02 5.74326E-04-1.41043E-13
 -1      3184 1.35562E-02 5.92038E-04-1.43499E-13
 -1      3185 1.33560E-02 5.99517E-04-1.39712E-13
 -1      3186 1.36801E-02 6.05846E-04-1.45653E-13
 -1      3187 1.38229E-02 6.23608E-04-1.48121E-13
 -1      3188 1.38703E-02 6.58692E-04-1.48624E-13
 -1      3189 1.36227E-02 6.31028E-04-1.44313E-13
 -1      3190 3.30005E-03 4.00875E-04-1.10141E-14
 -1      3191 3.14544E-03 3.78861E-04-1.01009E-14
 -1      3192 2.99425E-03 3.62238E-04-9.22533E-15
 -1      3193 2.84554E-03 3.49302E-04-8.38771E-15
 -1      3194 3.01731E-03 3.27979E-04-9.77076E-15
 -1      3195 3.97472E-03 5.67784E-04-1.50432E-14
 -1      3196 3.79568E-03 5.09869E-04-1.39797E-14
 -1      3197 5.09510E-03 1.13434E-03-2.14517E-14
 -1      3198 6.76312E-03 7.98601E-04-3.46900E-14
 -1      3199 8.09783E-03 6.05385E-04-4.91656E-14
 -1      3200 7.94684E-03 6.02971E-04-4.72340E-14
 -1      3201 8.39293E-03 6.23032E-04-5.31080E-14
 -1      3202 8.24625E-03 6.12486E-04-5.11252E-14
 -1      3203 8.19965E-03 5.69351E-04-5.03016E-14
 -1      3204 8.68277E-03 6.52501E-04-5.71422E-14
 -1      3205 8.53825E-03 6.36599E-04-5.51135E-14
 -1      3206 8.48386E-03 5.93651E-04-5.42659E-14
 -1      3207 8.97017E-03 6.89607E-04-6.12649E-14
 -1      3208 8.82662E-03 6.70304E-04-5.91932E-14
 -1      3209 8.76525E-03 6.26895E-04-5.83219E-14
 -1      3210 9.25658E-03 7.31333E-04-6.54710E-14
 -1      3211 9.11340E-03 7.10031E-04-6.33569E-14
 -1      3212 9.04611E-03 6.65909E-04-6.24630E-14
 -1      3213 9.54267E-03 7.75534E-04-6.97548E-14
 -1      3214 9.39961E-03 7.53217E-04-6.76048E-14
 -1      3215 9.32745E-03 7.08378E-04-6.66878E-14
 -1      3216 9.82872E-03 8.20728E-04-7.41101E-14
 -1      3217 9.68567E-03 7.98067E-04-7.19236E-14
 -1      3218 9.60962E-03 7.52624E-04-7.09892E-14
 -1      3219 1.01148E-02 8.65943E-04-7.85240E-14
 -1      3220 9.97174E-03 8.43370E-04-7.63090E-14
 -1      3221 9.89265E-03 7.97477E-04-7.53575E-14
 -1      3222 1.04009E-02 9.10582E-04-8.29951E-14
 -1      3223 1.02578E-02 8.88356E-04-8.07542E-14
 -1      3224 1.01764E-02 8.42157E-04-7.97846E-14
 -1      3225 1.06870E-02 9.54318E-04-8.75179E-14
 -1      3226 1.05439E-02 9.32573E-04-8.52499E-14
 -1      3227 1.04608E-02 8.86189E-04-8.42684E-14
 -1      3228 1.09731E-02 9.97009E-04-9.20962E-14
 -1      3229 1.08300E-02 9.75797E-04-8.97985E-14
 -1      3230 1.07456E-02 9.29320E-04-8.88040E-14
 -1      3231 1.12591E-02 1.03864E-03-9.67191E-14
 -1      3232 1.11161E-02 1.01795E-03-9.44030E-14
 -1      3233 1.10307E-02 9.71446E-04-9.33910E-14
 -1      3234 1.15451E-02 1.07925E-03-1.01393E-13
 -1      3235 1.14021E-02 1.05907E-03-9.90499E-14
 -1      3236 1.13161E-02 1.01257E-03-9.80272E-14
 -1      3237 1.18310E-02 1.11896E-03-1.06104E-13
 -1      3238 1.16881E-02 1.09921E-03-1.03745E-13
 -1      3239 1.16016E-02 1.05275E-03-1.02708E-13
 -1      3240 1.21169E-02 1.15787E-03-1.10853E-13
 -1      3241 1.19740E-02 1.13851E-03-1.08474E-13
 -1      3242 1.18872E-02 1.09209E-03-1.07428E-13
 -1      3243 1.24028E-02 1.19611E-03-1.15635E-13
 -1      3244 1.22598E-02 1.17707E-03-1.13240E-13
 -1      3245 1.21728E-02 1.13070E-03-1.12184E-13
 -1      3246 1.26886E-02 1.23379E-03-1.20445E-13
 -1      3247 1.25457E-02 1.21501E-03-1.18036E-13
 -1      3248 1.24586E-02 1.16870E-03-1.16970E-13
 -1      3249 1.29744E-02 1.27103E-03-1.25275E-13
 -1      3250 1.28315E-02 1.25246E-03-1.22858E-13
 -1      3251 1.27443E-02 1.20619E-03-1.21783E-13
 -1      3252 1.32601E-02 1.30791E-03-1.30129E-13
 -1      3253 1.31173E-02 1.28951E-03-1.27701E-13
 -1      3254 1.30300E-02 1.24328E-03-1.26621E-13
 -1      3255 1.35459E-02 1.34452E-03-1.34989E-13
 -1      3256 1.34030E-02 1.32624E-03-1.32557E-13
 -1      3257 1.33158E-02 1.28004E-03-1.31476E-13
 -1      3258 1.38316E-02 1.38093E-03-1.39864E-13
 -1      3259 1.36888E-02 1.36275E-03-1.37424E-13
 -1      3260 1.36016E-02 1.31657E-03-1.36341E-13
 -1      3261 1.41174E-02 1.41721E-03-1.44747E-13
 -1      3262 1.39745E-02 1.39909E-03-1.42305E-13
 -1      3263 1.38873E-02 1.35292E-03-1.41216E-13
 -1      3264 1.43120E-02 1.43129E-03-1.48207E-13
 -1      3265 1.42042E-02 1.42522E-03-1.46270E-13
 -1      3266 1.41170E-02 1.37906E-03-1.45180E-13
 -1      3267 1.42907E-02 1.39506E-03-1.48226E-13
 -1      3268 3.11551E-03 8.18560E-05-1.44339E-14
 -1      3269 3.05742E-03 1.00010E-04-1.42077E-14
 -1      3270 9.82957E-04 5.41883E-05-1.54645E-15
 -1      3271 9.79890E-04 3.39485E-05-1.56266E-15
 -1      3272 1.40786E-02 9.99708E-04-1.48741E-13
 -1      3273 1.40963E-02 1.04183E-03-1.48600E-13
 -1      3274 1.40440E-02 9.16894E-04-1.49017E-13
 -1      3275 1.40613E-02 9.58301E-04-1.48879E-13
 -1      3276 1.39464E-02 9.63847E-04-1.46681E-13
 -1      3277 4.24809E-03-3.93214E-04-1.88862E-14
 -1      3278 4.04136E-03-2.83793E-04-1.79353E-14
 -1      3279 3.40641E-03 2.28461E-04-1.51563E-14
 -1      3280 3.57524E-03 2.89268E-04-1.55464E-14
 -1      3281 6.95303E-03 7.48239E-04-3.64504E-14
 -1      3282 6.94924E-03 6.86236E-04-3.59116E-14
 -1      3283 7.13254E-03 5.96356E-04-3.71840E-14
 -1      3284 7.13911E-03 6.96522E-04-3.82120E-14
 -1      3285 6.55456E-03-2.81779E-04-3.60688E-14
 -1      3286 6.34778E-03-4.04644E-04-3.47463E-14
 -1      3287 3.76599E-03 3.73125E-04-1.59524E-14
 -1      3288 3.95406E-03 4.66146E-04-1.64222E-14
 -1      3289 1.39740E-02 7.48384E-04-1.49574E-13
 -1      3290 1.39915E-02 7.90516E-04-1.49435E-13
 -1      3291 1.40090E-02 8.32645E-04-1.49296E-13
 -1      3292 1.40265E-02 8.74771E-04-1.49157E-13
 -1      3293 1.39115E-02 8.80355E-04-1.46955E-13
 -1      3294 1.38765E-02 7.96136E-04-1.47231E-13
 -1      3295 7.79247E-03 6.05585E-04-4.53284E-14
 -1      3296 7.63377E-03 6.15321E-04-4.34493E-14
 -1      3297 7.90817E-03 5.58630E-04-4.64354E-14
 -1      3298 7.47872E-03 6.32529E-04-4.17123E-14
 -1      3299 7.30809E-03 6.59822E-04-3.98910E-14
 -1      3300 7.29738E-03 6.11772E-04-3.93703E-14
 -1      3301 7.61062E-03 5.69611E-04-4.27934E-14
 -1      3302 3.62379E-03 4.64958E-04-1.29540E-14
 -1      3303 3.45920E-03 4.28624E-04-1.19650E-14
 -1      3304 3.31633E-03 3.64360E-04-1.16026E-14
 -1      3305 3.63582E-03 4.26059E-04-1.35830E-14
 -1      3306 7.34758E-03 1.23140E-04-3.96527E-14
 -1      3307 7.18297E-03 5.46151E-05-3.90193E-14
 -1      3308 2.12032E-03 3.15749E-04-4.78716E-15
 -1      3309 1.97659E-03 3.10642E-04-4.18587E-15
 -1      3310 5.42689E-03-8.09125E-04-2.72094E-14
 -1      3311 5.26191E-03-8.09491E-04-2.57523E-14
 -1      3312 4.19501E-03 6.00869E-04-1.70870E-14
 -1      3313 4.41516E-03 7.31891E-04-1.78942E-14
 -1      3314 4.65710E-03-6.06513E-04-2.11971E-14
 -1      3315 4.47851E-03-5.10905E-04-2.01331E-14
 -1      3316 1.44839E-03-2.55162E-04-2.71303E-15
 -1      3317 1.59220E-03-2.65113E-04-3.21677E-15
 -1      3318 1.64566E-03-2.36746E-04-3.51216E-15
 -1      3319 7.65205E-03 2.24390E-04-4.08175E-14
 -1      3320 7.50971E-03 1.82829E-04-4.02371E-14
 -1      3321 7.47536E-03 1.50897E-04-4.11346E-14
 -1      3322 8.88017E-04-1.74046E-04-1.18305E-15
 -1      3323 5.08917E-03-7.81107E-04-2.43178E-14
 -1      3324 4.91811E-03-7.23185E-04-2.29890E-14
 -1      3325 3.17384E-03 1.59735E-04-1.46075E-14
 -1      3326 3.26129E-03 1.83142E-04-1.47815E-14
 -1      3327 6.99423E-03-3.59241E-05-3.82537E-14
 -1      3328 6.80700E-03-1.38217E-04-3.74510E-14
 -1      3329 7.84034E-03 2.73419E-04-4.16395E-14
 -1      3330 7.77385E-03 2.57398E-04-4.13732E-14
 -1      3331 5.73518E-03-7.28750E-04-2.99507E-14
 -1      3332 5.59765E-03-7.77128E-04-2.87284E-14
 -1      3333 9.78583E-04 1.40253E-05-1.57555E-15
 -1      3334 9.79049E-04-5.89051E-06-1.58552E-15
 -1      3335 1.09234E-03 2.63085E-05-1.89868E-15
 -1      3336 1.20223E-03 1.98472E-04-1.83958E-15
 -1      3337 1.05002E-03 1.56742E-04-1.51611E-15
 -1      3338 1.00583E-03-1.14738E-04-1.58809E-15
 -1      3339 1.01557E-03-1.40198E-04-1.57779E-15
 -1      3340 7.59072E-03 3.94509E-04-3.99738E-14
 -1      3341 7.68594E-03 3.74878E-04-4.08658E-14
 -1      3342 7.54436E-03 4.36867E-04-4.01864E-14
 -1      3343 3.00770E-03 1.07194E-04-1.36706E-14
 -1      3344 2.97219E-03 1.13358E-04-1.31406E-14
 -1      3345 2.96578E-03 8.99231E-05-1.30561E-14
 -1      3346 4.42235E-03-5.52815E-04-1.94687E-14
 -1      3347 4.54029E-03-6.38683E-04-2.01210E-14
 -1      3348 1.19086E-03-2.29126E-04-1.92085E-15
 -1      3349 1.31945E-03-2.43092E-04-2.29995E-15
 -1      3350 1.37535E-03-2.18734E-04-2.55218E-15
 -1      3351 1.41848E-02 1.25227E-03-1.47886E-13
 -1      3352 1.42025E-02 1.29405E-03-1.47739E-13
 -1      3353 5.20438E-03-8.16674E-04-2.53104E-14
 -1      3354 4.71986E-03-6.99955E-04-2.14201E-14
 -1      3355 5.53425E-03-8.02792E-04-2.82835E-14
 -1      3356 5.87568E-03-6.90730E-04-3.14222E-14
 -1      3357 7.14349E-03 8.81360E-06-3.97629E-14
 -1      3358 1.01406E-03-1.91899E-04-1.48223E-15
 -1      3359 2.72892E-03 3.06706E-04-8.08912E-15
 -1      3360 2.69871E-03 3.39535E-04-7.58931E-15
 -1      3361 2.55308E-03 3.31922E-04-6.82940E-15
 -1      3362 4.93239E-03 1.04098E-03-2.05105E-14
 -1      3363 4.39405E-03 7.56492E-04-1.72778E-14
 -1      3364 4.19997E-03 6.69962E-04-1.61348E-14
 -1      3365 4.75511E-03 9.30934E-04-1.95949E-14
 -1      3366 4.55198E-03 8.21511E-04-1.83736E-14
 -1      3367 4.79479E-03-6.93294E-04-2.20577E-14
 -1      3368 3.15286E-03 6.23305E-05-1.44287E-14
 -1      3369 3.05339E-03 6.41983E-05-1.35749E-14
 -1      3370 3.19779E-03 3.85995E-05-1.44205E-14
 -1      3371 9.87828E-04 7.49452E-05-1.52704E-15
 -1      3372 1.09934E-03 6.98493E-05-1.86102E-15
 -1      3373 9.94399E-04 9.66409E-05-1.50369E-15
 -1      3374 1.41493E-02 1.16802E-03-1.48173E-13
 -1      3375 1.41670E-02 1.21014E-03-1.48029E-13
 -1      3376 1.40521E-02 1.21541E-03-1.45839E-13
 -1      3377 1.41969E-03 2.80002E-04-2.23583E-15
 -1      3378 1.34773E-03 2.45640E-04-2.13345E-15
 -1      3379 1.56343E-03 2.90767E-04-2.67887E-15
 -1      3380 1.03899E-03 1.31285E-04-1.55004E-15
 -1      3381 1.41139E-02 1.08386E-03-1.48459E-13
 -1      3382 1.41316E-02 1.12598E-03-1.48315E-13
 -1      3383 1.40167E-02 1.13127E-03-1.46124E-13
 -1      3384 1.39813E-02 1.04725E-03-1.46404E-13
 -1      3385 4.31823E-03-4.62917E-04-1.90546E-14
 -1      3386 3.62737E-03 3.33110E-04-1.51268E-14
 -1      3387 7.28001E-03 5.54378E-04-3.84994E-14
 -1      3388 3.88522E-03-2.25507E-04-1.71019E-14
 -1      3389 3.73313E-03-1.77864E-04-1.62883E-14
 -1      3390 3.94192E-03-2.97228E-04-1.70127E-14
 -1      3391 9.97409E-04-9.08314E-05-1.59435E-15
 -1      3392 1.11860E-03-1.10259E-04-1.92625E-15
 -1      3393 9.90502E-04-6.82382E-05-1.59700E-15
 -1      3394 4.03902E-03 5.40151E-04-1.61640E-14
 -1      3395 1.84189E-03 3.05563E-04-3.65624E-15
 -1      3396 1.69820E-03 2.98523E-04-3.13364E-15
 -1      3397 1.62296E-03 2.64599E-04-3.01175E-15
 -1      3398 1.88885E-03 2.76102E-04-4.01106E-15
 -1      3399 7.92759E-03 2.99709E-04-4.32268E-14
 -1      3400 7.88963E-03 2.86687E-04-4.24315E-14
 -1      3401 7.91737E-03 2.82822E-04-4.36535E-14
 -1      3402 2.26415E-03 3.20670E-04-5.42836E-15
 -1      3403 2.16273E-03 2.84830E-04-5.19104E-15
 -1      3404 2.40838E-03 3.25844E-04-6.10913E-15
 -1      3405 6.72355E-03-2.12502E-04-3.75784E-14
 -1      3406 3.48283E-03-3.29961E-05-1.58301E-14
 -1      3407 3.09189E-03 1.47266E-04-1.38792E-14
 -1      3408 7.75255E-03 2.40650E-04-4.22912E-14
 -1      3409 4.02917E-03 5.62520E-04-1.57027E-14
 -1      3410 1.38985E-02 6.85992E-04-1.48850E-13
 -1      3411 1.39459E-02 7.21081E-04-1.49351E-13
 -1      3412 1.38309E-02 7.26727E-04-1.47143E-13
 -1      3413 1.37746E-02 6.72143E-04-1.46694E-13
 -1      3414 3.30219E-03 2.10138E-04-1.43675E-14
 -1      3415 1.34194E-03 2.10236E-04-2.24354E-15
 -1      3416 1.83998E-03-2.13108E-04-4.40274E-15
 -1      3417 1.98165E-03-2.16873E-04-5.03341E-15
 -1      3418 7.81821E-03 3.41300E-04-4.20511E-14
 -1      3419 7.89066E-03 3.21731E-04-4.27349E-14
 -1      3420 1.18705E-03-1.70378E-04-2.03596E-15
 -1      3421 1.07284E-03-1.73836E-04-1.68302E-15
 -1      3422 7.59554E-03 1.74011E-04-4.26053E-14
 -1      3423 7.45264E-03 1.19693E-04-4.20044E-14
 -1      3424 4.21131E-03-4.49400E-04-1.82453E-14
 -1      3425 2.12365E-03-2.19924E-04-5.70462E-15
 -1      3426 2.26624E-03-2.22624E-04-6.41640E-15
 -1      3427 2.03073E-03-1.85268E-04-5.38010E-15
 -1      3428 2.40954E-03-2.25308E-04-7.16916E-15
 -1      3429 2.55396E-03-2.28483E-04-7.96172E-15
 -1      3430 2.31157E-03-1.88272E-04-6.80289E-15
 -1      3431 2.69978E-03-2.32456E-04-8.79330E-15
 -1      3432 2.84759E-03-2.38028E-04-9.66456E-15
 -1      3433 2.59521E-03-1.91244E-04-8.38433E-15
 -1      3434 2.99790E-03-2.45462E-04-1.05745E-14
 -1      3435 3.15141E-03-2.56063E-04-1.15229E-14
 -1      3436 2.88478E-03-1.97480E-04-1.01225E-14
 -1      3437 3.30906E-03-2.70085E-04-1.25092E-14
 -1      3438 3.47131E-03-2.89716E-04-1.35340E-14
 -1      3439 3.18526E-03-2.11861E-04-1.20133E-14
 -1      3440 3.70361E-03-3.04956E-04-1.51250E-14
 -1      3441 3.87998E-03-3.41993E-04-1.62434E-14
 -1      3442 4.02453E-03-3.93662E-04-1.70592E-14
 -1      3443 3.19790E-03 1.96399E-04-1.35308E-14
 -1      3444 3.33328E-03 2.39603E-04-1.38857E-14
 -1      3445 6.45066E-03-4.00135E-04-3.63091E-14
 -1      3446 6.63691E-03-3.22410E-04-3.80479E-14
 -1      3447 6.92825E-03-2.10574E-04-4.07892E-14
 -1      3448 7.10264E-03-1.56759E-04-4.26088E-14
 -1      3449 7.27118E-03-1.11954E-04-4.44579E-14
 -1      3450 7.43377E-03-7.31893E-05-4.63339E-14
 -1      3451 7.25062E-03-7.47178E-05-4.34762E-14
 -1      3452 7.59157E-03-4.04317E-05-4.82381E-14
 -1      3453 7.74512E-03-1.16614E-05-5.01662E-14
 -1      3454 7.57026E-03-5.35594E-06-4.72277E-14
 -1      3455 7.89526E-03 1.33080E-05-5.21208E-14
 -1      3456 8.04271E-03 3.58133E-05-5.41017E-14
 -1      3457 7.87057E-03 4.53841E-05-5.10823E-14
 -1      3458 8.18802E-03 5.59836E-05-5.61074E-14
 -1      3459 8.33177E-03 7.45814E-05-5.81366E-14
 -1      3460 8.15899E-03 8.56068E-05-5.50411E-14
 -1      3461 8.47429E-03 9.17586E-05-6.01902E-14
 -1      3462 8.61602E-03 1.07960E-04-6.22664E-14
 -1      3463 8.44082E-03 1.19774E-04-5.90971E-14
 -1      3464 8.75712E-03 1.23337E-04-6.43624E-14
 -1      3465 8.89791E-03 1.38146E-04-6.64808E-14
 -1      3466 8.71950E-03 1.50469E-04-6.32434E-14
 -1      3467 9.03847E-03 1.52528E-04-6.86197E-14
 -1      3468 9.17898E-03 1.66630E-04-7.07759E-14
 -1      3469 8.99715E-03 1.79291E-04-6.74734E-14
 -1      3470 9.31948E-03 1.80574E-04-7.29506E-14
 -1      3471 9.46008E-03 1.94440E-04-7.51411E-14
 -1      3472 9.27498E-03 2.07290E-04-7.17833E-14
 -1      3473 9.60078E-03 2.08325E-04-7.73470E-14
 -1      3474 9.74166E-03 2.22270E-04-7.95654E-14
 -1      3475 9.55363E-03 2.35171E-04-7.61582E-14
 -1      3476 9.88268E-03 2.36345E-04-8.17968E-14
 -1      3477 1.00239E-02 2.50568E-04-8.40393E-14
 -1      3478 9.83335E-03 2.63401E-04-8.05919E-14
 -1      3479 1.01653E-02 2.64984E-04-8.62934E-14
 -1      3480 1.03068E-02 2.79596E-04-8.85611E-14
 -1      3481 1.01142E-02 2.92269E-04-8.50725E-14
 -1      3482 1.04485E-02 2.94431E-04-9.08413E-14
 -1      3483 1.05904E-02 3.09483E-04-9.31322E-14
 -1      3484 1.03961E-02 3.21931E-04-8.96029E-14
 -1      3485 1.07323E-02 3.24762E-04-9.54351E-14
 -1      3486 1.08745E-02 3.40258E-04-9.77502E-14
 -1      3487 1.06789E-02 3.52447E-04-9.41835E-14
 -1      3488 1.10167E-02 3.55972E-04-1.00075E-13
 -1      3489 1.11590E-02 3.71891E-04-1.02410E-13
 -1      3490 1.09624E-02 3.83806E-04-9.88090E-14
 -1      3491 1.13014E-02 3.88008E-04-1.04757E-13
 -1      3492 1.14439E-02 4.04309E-04-1.07112E-13
 -1      3493 1.12465E-02 4.15956E-04-1.03479E-13
 -1      3494 1.15865E-02 4.20785E-04-1.09477E-13
 -1      3495 1.17291E-02 4.37421E-04-1.11850E-13
 -1      3496 1.15312E-02 4.48818E-04-1.08190E-13
 -1      3497 1.18718E-02 4.54207E-04-1.14226E-13
 -1      3498 1.20145E-02 4.71129E-04-1.16613E-13
 -1      3499 1.18162E-02 4.82300E-04-1.12934E-13
 -1      3500 1.21572E-02 4.88175E-04-1.19006E-13
 -1      3501 1.23000E-02 5.05334E-04-1.21406E-13
 -1      3502 1.21014E-02 5.16308E-04-1.17705E-13
 -1      3503 1.24428E-02 5.22594E-04-1.23812E-13
 -1      3504 1.25856E-02 5.39945E-04-1.26225E-13
 -1      3505 1.23869E-02 5.50752E-04-1.22503E-13
 -1      3506 1.27284E-02 5.57375E-04-1.28645E-13
 -1      3507 1.28713E-02 5.74877E-04-1.31069E-13
 -1      3508 1.26724E-02 5.85548E-04-1.27327E-13
 -1      3509 1.30141E-02 5.92441E-04-1.33499E-13
 -1      3510 1.31570E-02 6.10060E-04-1.35934E-13
 -1      3511 1.29581E-02 6.20623E-04-1.32173E-13
 -1      3512 1.32999E-02 6.27725E-04-1.38376E-13
 -1      3513 1.34427E-02 6.45430E-04-1.40823E-13
 -1      3514 1.32438E-02 6.55912E-04-1.37041E-13
 -1      3515 3.03480E-03 2.94054E-04-1.03213E-14
 -1      3516 2.89428E-03 2.83048E-04-9.43901E-15
 -1      3517 6.85548E-03-1.97302E-04-3.94728E-14
 -1      3518 8.84387E-03 6.03688E-04-5.95003E-14
 -1      3519 8.70680E-03 5.85070E-04-5.74506E-14
 -1      3520 8.57007E-03 5.67792E-04-5.54244E-14
 -1      3521 8.43319E-03 5.52147E-04-5.34188E-14
 -1      3522 8.65103E-03 5.44813E-04-5.65835E-14
 -1      3523 6.26263E-03-4.86397E-04-3.46050E-14
 -1      3524 6.11867E-03-5.43167E-04-3.31941E-14
 -1      3525 8.29617E-03 5.38435E-04-5.14372E-14
 -1      3526 8.15812E-03 5.27244E-04-4.94790E-14
 -1      3527 8.38612E-03 5.11992E-04-5.25743E-14
 -1      3528 9.11902E-03 6.43845E-04-6.36624E-14
 -1      3529 8.98118E-03 6.23333E-04-6.15714E-14
 -1      3530 8.91838E-03 5.82324E-04-6.06810E-14
 -1      3531 9.39601E-03 6.86536E-04-6.79054E-14
 -1      3532 9.25724E-03 6.64943E-04-6.57731E-14
 -1      3533 9.18879E-03 6.22955E-04-6.48618E-14
 -1      3534 9.67486E-03 7.30475E-04-7.22217E-14
 -1      3535 9.53519E-03 7.08398E-04-7.00558E-14
 -1      3536 9.46222E-03 6.65442E-04-6.91226E-14
 -1      3537 9.95533E-03 7.74741E-04-7.66046E-14
 -1      3538 9.81489E-03 7.52599E-04-7.44064E-14
 -1      3539 9.73835E-03 7.08798E-04-7.34564E-14
 -1      3540 1.02372E-02 8.18716E-04-8.10455E-14
 -1      3541 1.00961E-02 7.96784E-04-7.88168E-14
 -1      3542 1.00167E-02 7.52298E-04-7.78536E-14
 -1      3543 1.05200E-02 8.62023E-04-8.55429E-14
 -1      3544 1.03785E-02 8.40462E-04-8.32887E-14
 -1      3545 1.02970E-02 7.95450E-04-8.23072E-14
 -1      3546 1.08038E-02 9.04463E-04-9.00893E-14
 -1      3547 1.06618E-02 8.83354E-04-8.78091E-14
 -1      3548 1.05787E-02 8.37954E-04-8.68161E-14
 -1      3549 1.10881E-02 9.45966E-04-9.46877E-14
 -1      3550 1.09458E-02 9.25330E-04-9.23825E-14
 -1      3551 1.08615E-02 8.79654E-04-9.13756E-14
 -1      3552 1.13728E-02 9.86545E-04-9.93336E-14
 -1      3553 1.12304E-02 9.66367E-04-9.70055E-14
 -1      3554 1.11452E-02 9.20501E-04-9.59844E-14
 -1      3555 1.16579E-02 1.02627E-03-1.04025E-13
 -1      3556 1.15154E-02 1.00651E-03-1.01675E-13
 -1      3557 1.14295E-02 9.60517E-04-1.00641E-13
 -1      3558 1.19433E-02 1.06523E-03-1.08752E-13
 -1      3559 1.18006E-02 1.04584E-03-1.06384E-13
 -1      3560 1.17142E-02 9.99766E-04-1.05340E-13
 -1      3561 1.22288E-02 1.10353E-03-1.13512E-13
 -1      3562 1.20860E-02 1.08445E-03-1.11128E-13
 -1      3563 1.19993E-02 1.03834E-03-1.10075E-13
 -1      3564 1.25144E-02 1.14127E-03-1.18307E-13
 -1      3565 1.23716E-02 1.12246E-03-1.15907E-13
 -1      3566 1.22847E-02 1.07632E-03-1.14844E-13
 -1      3567 1.28000E-02 1.17857E-03-1.23124E-13
 -1      3568 1.26572E-02 1.15997E-03-1.20713E-13
 -1      3569 1.25702E-02 1.11382E-03-1.19643E-13
 -1      3570 1.30858E-02 1.21551E-03-1.27967E-13
 -1      3571 1.29429E-02 1.19708E-03-1.25541E-13
 -1      3572 1.28558E-02 1.15093E-03-1.24465E-13
 -1      3573 1.33715E-02 1.25216E-03-1.32822E-13
 -1      3574 1.32286E-02 1.23386E-03-1.30393E-13
 -1      3575 1.31415E-02 1.18772E-03-1.29309E-13
 -1      3576 1.36572E-02 1.28861E-03-1.37691E-13
 -1      3577 1.35144E-02 1.27041E-03-1.35253E-13
 -1      3578 1.34272E-02 1.22426E-03-1.34169E-13
 -1      3579 1.39430E-02 1.32490E-03-1.42570E-13
 -1      3580 1.38001E-02 1.30677E-03-1.40129E-13
 -1      3581 1.37129E-02 1.26063E-03-1.39040E-13
 -1      3582 1.42360E-02 1.32644E-03-1.47993E-13
 -1      3583 1.42572E-02 1.36266E-03-1.47975E-13
 -1      3584 1.41704E-02 1.35467E-03-1.46452E-13
 -1      3585 1.41034E-02 1.28990E-03-1.45947E-13
 -1      3586 1.38140E-02 9.27651E-04-1.44625E-13
 -1      3587 1.38313E-02 9.69018E-04-1.44491E-13
 -1      3588 8.01887E-03 5.18800E-04-4.75457E-14
 -1      3589 7.87692E-03 5.14400E-04-4.56401E-14
 -1      3590 8.12175E-03 4.85831E-04-4.86585E-14
 -1      3591 7.43696E-03 5.28611E-04-4.01820E-14
 -1      3592 1.15074E-03 1.27922E-04-1.88914E-15
 -1      3593 5.84349E-03-6.92096E-04-3.10147E-14
 -1      3594 9.81241E-04-2.60494E-05-1.59246E-15
 -1      3595 9.85060E-04-4.67299E-05-1.59623E-15
 -1      3596 1.10253E-03-6.15071E-05-1.93167E-15
 -1      3597 1.55757E-03-2.02149E-04-3.26516E-15
 -1      3598 1.69867E-03-2.08289E-04-3.81330E-15
 -1      3599 1.75112E-03-1.79710E-04-4.11953E-15
 -1      3600 3.81196E-03 4.45690E-04-1.50741E-14
 -1      3601 7.85863E-03 2.53177E-04-4.40850E-14
 -1      3602 7.74433E-03 2.19794E-04-4.35130E-14
 -1      3603 3.50206E-03-8.08102E-05-1.53754E-14
 -1      3604 3.34306E-03-1.66425E-05-1.48565E-14
 -1      3605 3.00711E-03 1.36838E-04-1.30747E-14
 -1      3606 3.07431E-03 1.58715E-04-1.31959E-14
 -1      3607 7.28828E-03 4.62493E-05-4.13357E-14
 -1      3608 7.12327E-03-3.33163E-05-4.05476E-14
 -1      3609 3.64108E-03 3.67300E-04-1.45707E-14
 -1      3610 3.64178E-03 3.94064E-04-1.41352E-14
 -1      3611 3.48151E-03 3.59800E-04-1.31100E-14
 -1      3612 3.47354E-03 2.94215E-04-1.41895E-14
 -1      3613 7.98282E-03 3.35988E-04-4.47136E-14
 -1      3614 7.95824E-03 3.16565E-04-4.39693E-14
 -1      3615 8.01383E-03 3.13216E-04-4.52107E-14
 -1      3616 7.42848E-03 8.02358E-05-4.28091E-14
 -1      3617 7.75871E-03 4.00551E-04-4.24920E-14
 -1      3618 7.79000E-03 3.68504E-04-4.22729E-14
 -1      3619 7.88593E-03 3.67604E-04-4.36953E-14
 -1      3620 3.34567E-03 2.70581E-04-1.33559E-14
 -1      3621 2.95565E-03 6.88447E-05-1.27503E-14
 -1      3622 2.89300E-03 7.86441E-05-1.22423E-14
 -1      3623 1.30864E-03-1.82812E-04-2.40816E-15
 -1      3624 1.43476E-03-1.92112E-04-2.82992E-15
 -1      3625 1.49005E-03-1.67031E-04-3.09625E-15
 -1      3626 1.24870E-03-1.47748E-04-2.27937E-15
 -1      3627 3.56328E-03-2.29179E-04-1.45697E-14
 -1      3628 3.08633E-03 1.80155E-04-1.27383E-14
 -1      3629 2.97715E-03 5.19419E-05-1.27436E-14
 -1      3630 2.77838E-03 2.43637E-04-9.10743E-15
 -1      3631 2.75548E-03 2.74782E-04-8.59537E-15
 -1      3632 2.61724E-03 2.68279E-04-7.78937E-15
 -1      3633 1.35468E-02 6.51864E-04-1.42680E-13
 -1      3634 1.36706E-02 6.65684E-04-1.44829E-13
 -1      3635 1.36987E-02 6.92967E-04-1.45055E-13
 -1      3636 1.34907E-02 6.80057E-04-1.41337E-13
 -1      3637 7.02073E-03-1.00355E-04-4.03094E-14
 -1      3638 2.44516E-03 2.93945E-04-6.56171E-15
 -1      3639 1.49872E-03 2.21439E-04-2.74370E-15
 -1      3640 1.35470E-03 1.78512E-04-2.39931E-15
 -1      3641 1.37269E-02 7.20250E-04-1.45280E-13
 -1      3642 3.21000E-03-8.36891E-07-1.39902E-14
 -1      3643 7.57235E-03 5.32844E-04-4.19354E-14
 -1      3644 7.55906E-03 4.75674E-04-4.10381E-14
 -1      3645 7.65919E-03 4.48592E-04-4.19417E-14
 -1      3646 7.71681E-03 5.23888E-04-4.36730E-14
 -1      3647 1.39629E-02 1.26815E-03-1.43587E-13
 -1      3648 1.39964E-02 1.30053E-03-1.43839E-13
 -1      3649 1.40835E-02 1.34667E-03-1.44930E-13
 -1      3650 1.37964E-02 8.85569E-04-1.44761E-13
 -1      3651 1.36814E-02 8.90768E-04-1.42573E-13
 -1      3652 1.37789E-02 8.43484E-04-1.44899E-13
 -1      3653 1.38489E-02 1.01101E-03-1.44351E-13
 -1      3654 1.38666E-02 1.05300E-03-1.44213E-13
 -1      3655 1.37165E-02 9.74791E-04-1.42300E-13
 -1      3656 7.83938E-03 4.77992E-04-4.47573E-14
 -1      3657 3.56888E-03-1.44299E-04-1.52946E-14
 -1      3658 1.39312E-02 1.22362E-03-1.43504E-13
 -1      3659 1.38241E-02 1.23423E-03-1.41400E-13
 -1      3660 1.20699E-03 3.99916E-05-2.24998E-15
 -1      3661 1.20544E-03 1.71611E-05-2.26747E-15
 -1      3662 1.09353E-03-1.67172E-05-1.92206E-15
 -1      3663 1.39134E-02 1.18152E-03-1.43647E-13
 -1      3664 1.92884E-03 2.47093E-04-4.35082E-15
 -1      3665 1.79810E-03 2.42816E-04-3.81056E-15
 -1      3666 3.32633E-03 3.31007E-04-1.21581E-14
 -1      3667 3.17913E-03 3.11698E-04-1.12038E-14
 -1      3668 3.04815E-03 2.63381E-04-1.08418E-14
 -1      3669 3.33192E-03 3.00079E-04-1.26799E-14
 -1      3670 1.30230E-03 1.37920E-04-2.35341E-15
 -1      3671 1.25530E-03 1.00657E-04-2.29698E-15
 -1      3672 1.45397E-03 1.46255E-04-2.86895E-15
 -1      3673 2.20621E-03 2.55273E-04-5.61386E-15
 -1      3674 2.06768E-03 2.51400E-04-4.96257E-15
 -1      3675 1.97651E-03 2.19705E-04-4.73237E-15
 -1      3676 1.37441E-02 7.60824E-04-1.45157E-13
 -1      3677 1.37616E-02 8.02921E-04-1.45023E-13
 -1      3678 1.36465E-02 8.08167E-04-1.42829E-13
 -1      3679 1.36119E-02 7.27068E-04-1.43074E-13
 -1      3680 7.93566E-03 2.71495E-04-4.48982E-14
 -1      3681 7.95063E-03 2.56053E-04-4.61476E-14
 -1      3682 8.00175E-03 2.87105E-04-4.57137E-14
 -1      3683 2.93150E-03 1.20810E-04-1.24808E-14
 -1      3684 7.73185E-03 1.95509E-04-4.44044E-14
 -1      3685 1.22635E-03-9.28575E-05-2.29463E-15
 -1      3686 1.23663E-03-1.19573E-04-2.28923E-15
 -1      3687 1.35541E-03-1.28146E-04-2.68329E-15
 -1      3688 7.17425E-03-5.63963E-05-4.18878E-14
 -1      3689 1.23232E-03 8.14720E-05-2.26375E-15
 -1      3690 1.22654E-03 5.78829E-05-2.28917E-15
 -1      3691 1.33835E-03 4.92515E-05-2.69382E-15
 -1      3692 1.38087E-03 8.75870E-05-2.77302E-15
 -1      3693 7.33849E-03-1.66371E-05-4.37266E-14
 -1      3694 1.47469E-03-1.35889E-04-3.10806E-15
 -1      3695 1.59453E-03-1.42894E-04-3.56318E-15
 -1      3696 1.46128E-03-1.06264E-04-3.11424E-15
 -1      3697 1.94106E-03-1.52894E-04-5.06093E-15
 -1      3698 2.07905E-03-1.53787E-04-5.73097E-15
 -1      3699 2.21705E-03-1.54093E-04-6.44135E-15
 -1      3700 2.35541E-03-1.54026E-04-7.19157E-15
 -1      3701 2.12656E-03-1.22480E-04-6.08572E-15
 -1      3702 2.49414E-03-1.53798E-04-7.98100E-15
 -1      3703 2.63386E-03-1.53879E-04-8.80917E-15
 -1      3704 2.39767E-03-1.19870E-04-7.58265E-15
 -1      3705 2.77469E-03-1.54444E-04-9.67557E-15
 -1      3706 2.91769E-03-1.56387E-04-1.05807E-14
 -1      3707 2.66967E-03-1.16330E-04-9.23514E-15
 -1      3708 3.06303E-03-1.59745E-04-1.15231E-14
 -1      3709 3.21255E-03-1.66323E-04-1.25028E-14
 -1      3710 2.94583E-03-1.14491E-04-1.10392E-14
 -1      3711 6.02518E-03-6.10254E-04-3.26334E-14
 -1      3712 1.35079E-02 7.20601E-04-1.41217E-13
 -1      3713 7.55615E-03 3.11590E-05-4.62189E-14
 -1      3714 7.70558E-03 5.63709E-05-4.81200E-14
 -1      3715 7.85078E-03 7.78782E-05-5.00469E-14
 -1      3716 7.99329E-03 9.74670E-05-5.19986E-14
 -1      3717 7.83639E-03 1.11094E-04-4.90118E-14
 -1      3718 8.13335E-03 1.15079E-04-5.39765E-14
 -1      3719 8.27213E-03 1.31681E-04-5.59790E-14
 -1      3720 8.11130E-03 1.44471E-04-5.29147E-14
 -1      3721 8.40972E-03 1.47264E-04-5.80053E-14
 -1      3722 8.54687E-03 1.62315E-04-6.00552E-14
 -1      3723 8.38102E-03 1.74231E-04-5.69169E-14
 -1      3724 8.68359E-03 1.76867E-04-6.21254E-14
 -1      3725 8.82035E-03 1.91151E-04-6.42173E-14
 -1      3726 8.64934E-03 2.02503E-04-6.10105E-14
 -1      3727 8.95712E-03 2.05230E-04-6.63322E-14
 -1      3728 9.09419E-03 2.19212E-04-6.84662E-14
 -1      3729 8.91830E-03 2.30306E-04-6.51915E-14
 -1      3730 9.23150E-03 2.33171E-04-7.06167E-14
 -1      3731 9.36923E-03 2.47153E-04-7.27858E-14
 -1      3732 9.18893E-03 2.58177E-04-6.94532E-14
 -1      3733 9.50730E-03 2.61226E-04-7.49720E-14
 -1      3734 9.64581E-03 2.75403E-04-7.71735E-14
 -1      3735 9.46167E-03 2.86448E-04-7.37883E-14
 -1      3736 9.78469E-03 2.89742E-04-7.93868E-14
 -1      3737 9.92400E-03 3.04236E-04-8.16138E-14
 -1      3738 9.73660E-03 3.15325E-04-7.81844E-14
 -1      3739 1.00637E-02 3.18931E-04-8.38545E-14
 -1      3740 1.02037E-02 3.33810E-04-8.61049E-14
 -1      3741 1.00136E-02 3.44928E-04-8.26360E-14
 -1      3742 1.03441E-02 3.48905E-04-8.83688E-14
 -1      3743 1.04848E-02 3.64194E-04-9.06459E-14
 -1      3744 1.02925E-02 3.75311E-04-8.71375E-14
 -1      3745 1.06257E-02 3.79697E-04-9.29339E-14
 -1      3746 1.07669E-02 3.95393E-04-9.52356E-14
 -1      3747 1.05729E-02 4.06478E-04-9.16866E-14
 -1      3748 1.09084E-02 4.11291E-04-9.75458E-14
 -1      3749 1.10501E-02 4.27369E-04-9.98681E-14
 -1      3750 1.08546E-02 4.38394E-04-9.62849E-14
 -1      3751 1.11919E-02 4.43630E-04-1.02204E-13
 -1      3752 1.13339E-02 4.60054E-04-1.04547E-13
 -1      3753 1.11375E-02 4.71001E-04-1.00929E-13
 -1      3754 1.14761E-02 4.76639E-04-1.06901E-13
 -1      3755 1.16183E-02 4.93367E-04-1.09266E-13
 -1      3756 1.14211E-02 5.04225E-04-1.05616E-13
 -1      3757 1.17607E-02 5.10233E-04-1.11638E-13
 -1      3758 1.19032E-02 5.27220E-04-1.14016E-13
 -1      3759 1.17054E-02 5.37985E-04-1.10341E-13
 -1      3760 1.20457E-02 5.44322E-04-1.16402E-13
 -1      3761 1.21883E-02 5.61526E-04-1.18794E-13
 -1      3762 1.19901E-02 5.72202E-04-1.15099E-13
 -1      3763 1.23310E-02 5.78824E-04-1.21195E-13
 -1      3764 1.24737E-02 5.96204E-04-1.23598E-13
 -1      3765 1.22752E-02 6.06797E-04-1.19885E-13
 -1      3766 1.26165E-02 6.13660E-04-1.26008E-13
 -1      3767 1.27593E-02 6.31182E-04-1.28426E-13
 -1      3768 1.25606E-02 6.41701E-04-1.24693E-13
 -1      3769 1.29021E-02 6.48762E-04-1.30850E-13
 -1      3770 1.30449E-02 6.66394E-04-1.33275E-13
 -1      3771 1.28461E-02 6.76851E-04-1.29524E-13
 -1      3772 1.31878E-02 6.84069E-04-1.35711E-13
 -1      3773 1.33306E-02 7.01784E-04-1.38150E-13
 -1      3774 1.31317E-02 7.12193E-04-1.34380E-13
 -1      3775 3.19152E-03-4.36066E-05-1.33581E-14
 -1      3776 3.06655E-03 6.92252E-06-1.29519E-14
 -1      3777 1.62975E-03 2.28233E-04-3.20414E-15
 -1      3778 3.36096E-03-1.44458E-04-1.37180E-14
 -1      3779 9.25542E-03 6.03053E-04-6.60637E-14
 -1      3780 9.12152E-03 5.82534E-04-6.39539E-14
 -1      3781 8.98875E-03 5.62537E-04-6.18632E-14
 -1      3782 8.85702E-03 5.43051E-04-5.97930E-14
 -1      3783 9.05509E-03 5.43700E-04-6.30462E-14
 -1      3784 7.77830E-03 4.36862E-04-4.33641E-14
 -1      3785 9.52608E-03 6.44963E-04-7.03424E-14
 -1      3786 9.39026E-03 6.23860E-04-6.81932E-14
 -1      3787 9.31906E-03 5.83680E-04-6.72660E-14
 -1      3788 9.80010E-03 6.87496E-04-7.46923E-14
 -1      3789 9.66269E-03 6.66172E-04-7.25096E-14
 -1      3790 9.58770E-03 6.24755E-04-7.15642E-14
 -1      3791 1.00769E-02 7.30077E-04-7.91010E-14
 -1      3792 9.93817E-03 7.08795E-04-7.68887E-14
 -1      3793 9.86020E-03 6.66311E-04-7.59276E-14
 -1      3794 1.03559E-02 7.72306E-04-8.35706E-14
 -1      3795 1.02161E-02 7.51243E-04-8.13281E-14
 -1      3796 1.01358E-02 7.07879E-04-8.03513E-14
 -1      3797 1.06367E-02 8.13941E-04-8.80895E-14
 -1      3798 1.04961E-02 7.93200E-04-8.58244E-14
 -1      3799 1.04140E-02 7.49133E-04-8.48324E-14
 -1      3800 1.09188E-02 8.54859E-04-9.26621E-14
 -1      3801 1.07776E-02 8.34488E-04-9.03698E-14
 -1      3802 1.06941E-02 7.89872E-04-8.93652E-14
 -1      3803 1.12020E-02 8.95025E-04-9.72820E-14
 -1      3804 1.10603E-02 8.75032E-04-9.49657E-14
 -1      3805 1.09757E-02 8.29996E-04-9.39484E-14
 -1      3806 1.14859E-02 9.34462E-04-1.01948E-13
 -1      3807 1.13438E-02 9.14829E-04-9.96088E-14
 -1      3808 1.12585E-02 8.69477E-04-9.85788E-14
 -1      3809 1.17704E-02 9.73231E-04-1.06656E-13
 -1      3810 1.16281E-02 9.53924E-04-1.04297E-13
 -1      3811 1.15421E-02 9.08339E-04-1.03254E-13
 -1      3812 1.20553E-02 1.01141E-03-1.11397E-13
 -1      3813 1.19128E-02 9.92389E-04-1.09023E-13
 -1      3814 1.18265E-02 9.46633E-04-1.07970E-13
 -1      3815 1.23406E-02 1.04909E-03-1.16175E-13
 -1      3816 1.21979E-02 1.03031E-03-1.13783E-13
 -1      3817 1.21113E-02 9.84429E-04-1.12723E-13
 -1      3818 1.26260E-02 1.08634E-03-1.20978E-13
 -1      3819 1.24833E-02 1.06776E-03-1.18573E-13
 -1      3820 1.23964E-02 1.02180E-03-1.17505E-13
 -1      3821 1.29116E-02 1.12326E-03-1.25805E-13
 -1      3822 1.27688E-02 1.10484E-03-1.23389E-13
 -1      3823 1.26818E-02 1.05882E-03-1.22313E-13
 -1      3824 1.31972E-02 1.15990E-03-1.30653E-13
 -1      3825 1.30544E-02 1.14161E-03-1.28225E-13
 -1      3826 1.29673E-02 1.09555E-03-1.27144E-13
 -1      3827 1.34829E-02 1.19634E-03-1.35515E-13
 -1      3828 1.33401E-02 1.17815E-03-1.33082E-13
 -1      3829 1.32530E-02 1.13206E-03-1.31995E-13
 -1      3830 1.36813E-02 1.21612E-03-1.38960E-13
 -1      3831 7.48978E-03 5.43715E-05-4.45908E-14
 -1      3832 2.97470E-03 1.68143E-04-1.18884E-14
 -1      3833 3.09204E-03 2.05744E-04-1.22025E-14
 -1      3834 8.21592E-03 4.59421E-04-4.97716E-14
 -1      3835 8.09013E-03 4.46427E-04-4.78384E-14
 -1      3836 3.20724E-03 2.51187E-04-1.23983E-14
 -1      3837 1.69873E-03-1.47300E-04-3.98543E-15
 -1      3838 1.83653E-03-1.49732E-04-4.58501E-15
 -1      3839 1.88786E-03-1.20885E-04-4.90535E-15
 -1      3840 1.68211E-03-1.15449E-04-3.99195E-15
 -1      3841 1.67407E-03 2.02354E-04-3.49991E-15
 -1      3842 1.31925E-03 6.86519E-06-2.66821E-15
 -1      3843 1.20622E-03-5.63591E-06-2.28115E-15
 -1      3844 1.20926E-03-2.88329E-05-2.29084E-15
 -1      3845 1.21291E-03-4.78618E-05-2.29444E-15
 -1      3846 1.21978E-03-7.23873E-05-2.29704E-15
 -1      3847 1.33592E-03-7.82233E-05-2.69164E-15
 -1      3848 1.32480E-03-3.70423E-05-2.68786E-15
 -1      3849 7.92136E-03 4.35396E-04-4.53225E-14
 -1      3850 2.80021E-03 7.01112E-05-1.13240E-14
 -1      3851 2.82761E-03 8.97175E-05-1.16122E-14
 -1      3852 8.46910E-03 4.89570E-04-5.37119E-14
 -1      3853 8.34187E-03 4.73797E-04-5.17297E-14
 -1      3854 8.30010E-03 4.37550E-04-5.08869E-14
 -1      3855 8.72657E-03 5.24350E-04-5.77442E-14
 -1      3856 8.59716E-03 5.06423E-04-5.57173E-14
 -1      3857 8.79670E-03 5.05534E-04-5.89075E-14
 -1      3858 1.77675E-03 1.71414E-04-4.08483E-15
 -1      3859 1.61519E-03 1.59371E-04-3.45061E-15
 -1      3860 1.56276E-03 1.19362E-04-3.38824E-15
 -1      3861 2.94807E-03 1.81896E-05-1.21476E-14
 -1      3862 7.84397E-03 2.07811E-04-4.60956E-14
 -1      3863 7.70435E-03 1.62770E-04-4.51652E-14
 -1      3864 7.63062E-03 1.17855E-04-4.52834E-14
 -1      3865 1.38842E-02 1.09499E-03-1.44074E-13
 -1      3866 1.39019E-02 1.13699E-03-1.43933E-13
 -1      3867 1.37518E-02 1.05872E-03-1.42024E-13
 -1      3868 2.48085E-03 2.63315E-04-7.02795E-15
 -1      3869 2.34290E-03 2.59022E-04-6.29867E-15
 -1      3870 2.24672E-03 2.26615E-04-6.03990E-15
 -1      3871 2.51280E-03 2.33600E-04-7.49482E-15
 -1      3872 1.37809E-02 1.14520E-03-1.41602E-13
 -1      3873 2.86039E-03 1.12800E-04-1.17923E-14
 -1      3874 2.89781E-03 1.38976E-04-1.17261E-14
 -1      3875 2.88547E-03 1.58504E-04-1.12184E-14
 -1      3876 2.76651E-03 1.06203E-04-1.08915E-14
 -1      3877 1.35941E-02 1.17002E-03-1.37868E-13
 -1      3878 1.35711E-02 1.08108E-03-1.38437E-13
 -1      3879 1.35826E-02 1.12555E-03-1.38155E-13
 -1      3880 1.33843E-02 1.10583E-03-1.34712E-13
 -1      3881 7.97757E-03 3.56517E-04-4.49443E-14
 -1      3882 8.05658E-03 3.49713E-04-4.62021E-14
 -1      3883 7.96666E-03 3.80760E-04-4.51725E-14
 -1      3884 2.79825E-03 2.14202E-04-9.62530E-15
 -1      3885 2.67038E-03 2.09343E-04-8.77454E-15
 -1      3886 1.45966E-03 5.79839E-05-3.13799E-15
 -1      3887 1.44025E-03 3.87016E-05-3.09297E-15
 -1      3888 7.76015E-03 1.36930E-04-4.69856E-14
 -1      3889 3.22427E-03-8.87744E-05-1.31832E-14
 -1      3890 3.06423E-03-7.28908E-05-1.21719E-14
 -1      3891 2.89256E-03-1.48997E-05-1.14208E-14
 -1      3892 2.81990E-03 2.84229E-05-1.12311E-14
 -1      3893 8.02306E-03 4.07300E-04-4.64069E-14
 -1      3894 8.02392E-03 2.55593E-04-4.77619E-14
 -1      3895 7.93836E-03 2.33714E-04-4.69258E-14
 -1      3896 7.92487E-03 2.07267E-04-4.77047E-14
 -1      3897 1.35488E-02 8.54271E-04-1.40523E-13
 -1      3898 1.35664E-02 8.96303E-04-1.40389E-13
 -1      3899 8.05962E-03 3.04655E-04-4.64750E-14
 -1      3900 8.09636E-03 2.94326E-04-4.77478E-14
 -1      3901 8.10906E-03 3.22346E-04-4.72405E-14
 -1      3902 8.54478E-03 4.69924E-04-5.48513E-14
 -1      3903 1.35840E-02 9.38243E-04-1.40253E-13
 -1      3904 1.36016E-02 9.80182E-04-1.40116E-13
 -1      3905 1.34515E-02 9.01726E-04-1.38208E-13
 -1      3906 1.34519E-02 7.48754E-04-1.39879E-13
 -1      3907 3.07355E-03 2.31655E-04-1.15606E-14
 -1      3908 1.43935E-03 1.38751E-05-3.11430E-15
 -1      3909 1.44143E-03-1.12272E-05-3.13085E-15
 -1      3910 1.55915E-03 2.14229E-05-3.59295E-15
 -1      3911 2.94441E-03 2.20381E-04-1.06654E-14
 -1      3912 2.04335E-03 1.78710E-04-5.31404E-15
 -1      3913 1.91052E-03 1.75416E-04-4.67958E-15
 -1      3914 1.85216E-03 1.34146E-04-4.61233E-15
 -1      3915 2.73189E-03 4.44973E-05-1.06338E-14
 -1      3916 2.65451E-03 5.85976E-05-1.00483E-14
 -1      3917 2.66270E-03 1.66901E-05-9.95720E-15
 -1      3918 2.83382E-03 1.86306E-04-1.02987E-14
 -1      3919 9.37985E-03 5.64659E-04-6.84706E-14
 -1      3920 9.24800E-03 5.44917E-04-6.63408E-14
 -1      3921 1.45241E-03-8.35431E-05-3.11697E-15
 -1      3922 1.56924E-03-8.83125E-05-3.57250E-15
 -1      3923 1.44506E-03-6.16093E-05-3.11638E-15
 -1      3924 2.30625E-03-8.92392E-05-7.18943E-15
 -1      3925 2.43867E-03-8.63132E-05-7.97562E-15
 -1      3926 7.89395E-03 1.52570E-04-4.88964E-14
 -1      3927 8.02629E-03 1.67015E-04-5.08345E-14
 -1      3928 7.95101E-03 1.90703E-04-4.87758E-14
 -1      3929 8.15717E-03 1.80883E-04-5.27975E-14
 -1      3930 8.28794E-03 1.94369E-04-5.47846E-14
 -1      3931 8.20160E-03 2.14719E-04-5.26735E-14
 -1      3932 8.41838E-03 2.07791E-04-5.67957E-14
 -1      3933 8.54929E-03 2.21160E-04-5.88301E-14
 -1      3934 8.45404E-03 2.39377E-04-5.66695E-14
 -1      3935 8.68050E-03 2.34667E-04-6.08855E-14
 -1      3936 8.81240E-03 2.48238E-04-6.29620E-14
 -1      3937 8.71002E-03 2.65323E-04-6.07542E-14
 -1      3938 8.94489E-03 2.62007E-04-6.50613E-14
 -1      3939 9.07815E-03 2.75891E-04-6.71809E-14
 -1      3940 8.97003E-03 2.92557E-04-6.49254E-14
 -1      3941 9.21210E-03 2.90001E-04-6.93187E-14
 -1      3942 9.34683E-03 3.04255E-04-7.14741E-14
 -1      3943 9.23407E-03 3.20934E-04-6.91787E-14
 -1      3944 9.48226E-03 3.18742E-04-7.36475E-14
 -1      3945 9.61842E-03 3.33391E-04-7.58365E-14
 -1      3946 9.50189E-03 3.50342E-04-7.35047E-14
 -1      3947 9.75523E-03 3.48271E-04-7.80410E-14
 -1      3948 9.89269E-03 3.63320E-04-8.02567E-14
 -1      3949 9.77312E-03 3.80671E-04-7.78910E-14
 -1      3950 1.00307E-02 3.78593E-04-8.24866E-14
 -1      3951 1.01694E-02 3.94035E-04-8.47309E-14
 -1      3952 1.00473E-02 4.11827E-04-8.23362E-14
 -1      3953 1.03085E-02 4.09688E-04-8.69866E-14
 -1      3954 1.04480E-02 4.25505E-04-8.92548E-14
 -1      3955 1.03241E-02 4.43726E-04-8.68329E-14
 -1      3956 1.05880E-02 4.41515E-04-9.15347E-14
 -1      3957 1.07284E-02 4.57681E-04-9.38266E-14
 -1      3958 1.06029E-02 4.76289E-04-9.13785E-14
 -1      3959 1.08692E-02 4.74018E-04-9.61290E-14
 -1      3960 1.10102E-02 4.90498E-04-9.84422E-14
 -1      3961 1.08835E-02 5.09439E-04-9.59694E-14
 -1      3962 1.11515E-02 5.07128E-04-1.00770E-13
 -1      3963 1.12930E-02 5.23885E-04-1.03107E-13
 -1      3964 1.11654E-02 5.43100E-04-1.00607E-13
 -1      3965 1.14348E-02 5.40771E-04-1.05454E-13
 -1      3966 1.15767E-02 5.57767E-04-1.07813E-13
 -1      3967 1.14484E-02 5.77200E-04-1.05291E-13
 -1      3968 1.17188E-02 5.74872E-04-1.10179E-13
 -1      3969 1.18611E-02 5.92071E-04-1.12554E-13
 -1      3970 1.17323E-02 6.11672E-04-1.10016E-13
 -1      3971 1.20034E-02 6.09360E-04-1.14939E-13
 -1      3972 1.21459E-02 6.26726E-04-1.17327E-13
 -1      3973 1.20167E-02 6.46453E-04-1.14774E-13
 -1      3974 1.22884E-02 6.44166E-04-1.19723E-13
 -1      3975 1.24310E-02 6.61669E-04-1.22124E-13
 -1      3976 1.23016E-02 6.81488E-04-1.19560E-13
 -1      3977 1.25737E-02 6.79231E-04-1.24532E-13
 -1      3978 1.27164E-02 6.96843E-04-1.26942E-13
 -1      3979 1.25868E-02 7.16728E-04-1.24368E-13
 -1      3980 1.28592E-02 7.14502E-04-1.29359E-13
 -1      3981 1.30020E-02 7.32199E-04-1.31784E-13
 -1      3982 1.28723E-02 7.52130E-04-1.29195E-13
 -1      3983 1.31448E-02 7.49933E-04-1.34213E-13
 -1      3984 2.75686E-03 1.54654E-04-1.01543E-14
 -1      3985 8.11606E-03 3.96142E-04-4.76835E-14
 -1      3986 9.11762E-03 5.25557E-04-6.42310E-14
 -1      3987 8.98874E-03 5.06487E-04-6.21408E-14
 -1      3988 9.17672E-03 5.07561E-04-6.54158E-14
 -1      3989 9.64721E-03 6.04695E-04-7.27835E-14
 -1      3990 9.51293E-03 5.84567E-04-7.06168E-14
 -1      3991 9.43810E-03 5.45605E-04-6.96742E-14
 -1      3992 1.69384E-03 1.09050E-04-3.98333E-15
 -1      3993 1.53745E-03 9.85450E-05-3.35196E-15
 -1      3994 1.51416E-03 7.82847E-05-3.31191E-15
 -1      3995 9.91875E-03 6.45154E-04-7.71639E-14
 -1      3996 9.78250E-03 6.24879E-04-7.49680E-14
 -1      3997 9.70484E-03 5.84502E-04-7.40055E-14
 -1      3998 1.01936E-02 6.85643E-04-8.16019E-14
 -1      3999 1.00558E-02 6.65400E-04-7.93750E-14
 -1      4000 9.97590E-03 6.23816E-04-7.84018E-14
 -1      4001 1.04712E-02 7.25885E-04-8.60962E-14
 -1      4002 1.03321E-02 7.05797E-04-8.38423E-14
 -1      4003 1.02504E-02 6.63209E-04-8.28543E-14
 -1      4004 1.07509E-02 7.65711E-04-9.06389E-14
 -1      4005 1.06108E-02 7.45849E-04-8.83612E-14
 -1      4006 1.05277E-02 7.02442E-04-8.73597E-14
 -1      4007 1.10322E-02 8.05036E-04-9.52341E-14
 -1      4008 1.08913E-02 7.85433E-04-9.29313E-14
 -1      4009 1.08071E-02 7.41368E-04-9.19145E-14
 -1      4010 1.13147E-02 8.43836E-04-9.98760E-14
 -1      4011 1.11733E-02 8.24497E-04-9.75503E-14
 -1      4012 1.10883E-02 7.79914E-04-9.65211E-14
 -1      4013 1.15982E-02 8.82130E-04-1.04562E-13
 -1      4014 1.14564E-02 8.63041E-04-1.02213E-13
 -1      4015 1.13707E-02 8.18054E-04-1.01173E-13
 -1      4016 1.18824E-02 9.19960E-04-1.09287E-13
 -1      4017 1.17402E-02 9.01098E-04-1.06921E-13
 -1      4018 1.16541E-02 8.55801E-04-1.05869E-13
 -1      4019 1.21672E-02 9.57384E-04-1.14047E-13
 -1      4020 1.20247E-02 9.38718E-04-1.11662E-13
 -1      4021 1.19383E-02 8.93187E-04-1.10604E-13
 -1      4022 1.24522E-02 9.94462E-04-1.18837E-13
 -1      4023 1.23097E-02 9.75962E-04-1.16440E-13
 -1      4024 1.22230E-02 9.30257E-04-1.15373E-13
 -1      4025 1.27376E-02 1.03125E-03-1.23647E-13
 -1      4026 1.25949E-02 1.01289E-03-1.21237E-13
 -1      4027 1.25081E-02 9.67058E-04-1.20166E-13
 -1      4028 1.30231E-02 1.06781E-03-1.28480E-13
 -1      4029 1.28803E-02 1.04956E-03-1.26061E-13
 -1      4030 1.27934E-02 1.00364E-03-1.24980E-13
 -1      4031 1.32751E-02 1.09594E-03-1.32806E-13
 -1      4032 1.31323E-02 1.07777E-03-1.30379E-13
 -1      4033 1.30453E-02 1.03179E-03-1.29290E-13
 -1      4034 1.32636E-02 1.05157E-03-1.33091E-13
 -1      4035 8.61338E-03 4.52510E-04-5.59936E-14
 -1      4036 8.49253E-03 4.35602E-04-5.39877E-14
 -1      4037 1.34692E-02 7.89266E-04-1.39757E-13
 -1      4038 2.04033E-03-9.33216E-05-5.73494E-15
 -1      4039 2.17361E-03-9.16141E-05-6.44276E-15
 -1      4040 2.22035E-03-6.12755E-05-6.80254E-15
 -1      4041 8.37447E-03 4.19612E-04-5.20037E-14
 -1      4042 8.25892E-03 4.04034E-04-5.00443E-14
 -1      4043 8.43965E-03 4.03564E-04-5.31235E-14
 -1      4044 8.86167E-03 4.87979E-04-6.00686E-14
 -1      4045 8.73641E-03 4.69876E-04-5.80197E-14
 -1      4046 8.67551E-03 4.36078E-04-5.71348E-14
 -1      4047 2.57238E-03 1.78813E-04-8.44753E-15
 -1      4048 2.54321E-03 2.05417E-04-7.96809E-15
 -1      4049 2.41463E-03 2.02145E-04-7.19852E-15
 -1      4050 2.92784E-03-8.15569E-05-1.11510E-14
 -1      4051 2.91071E-03-4.37959E-05-1.13173E-14
 -1      4052 2.76740E-03-2.75457E-05-1.04346E-14
 -1      4053 2.79340E-03-8.42447E-05-1.02273E-14
 -1      4054 1.35775E-02 1.00968E-03-1.39346E-13
 -1      4055 1.35952E-02 1.05161E-03-1.39209E-13
 -1      4056 1.33969E-02 1.03200E-03-1.35765E-13
 -1      4057 1.34450E-02 9.73104E-04-1.37303E-13
 -1      4058 1.33542E-02 7.94856E-04-1.37579E-13
 -1      4059 1.32245E-02 8.14800E-04-1.34972E-13
 -1      4060 1.66117E-03-6.74749E-05-3.99382E-15
 -1      4061 1.67078E-03-9.10261E-05-3.99473E-15
 -1      4062 1.77238E-03-9.32695E-05-4.43985E-15
 -1      4063 8.19134E-03 3.78791E-04-4.87748E-14
 -1      4064 8.92197E-03 4.70880E-04-6.12341E-14
 -1      4065 1.61389E-03 6.73744E-05-3.75470E-15
 -1      4066 2.69836E-03 1.24750E-04-1.00619E-14
 -1      4067 2.62840E-03 1.49028E-04-9.19761E-15
 -1      4068 2.57052E-03-8.29277E-05-8.80032E-15
 -1      4069 2.70269E-03-7.93938E-05-9.66229E-15
 -1      4070 1.95345E-03 1.15800E-04-5.20174E-15
 -1      4071 1.82429E-03 1.12648E-04-4.57254E-15
 -1      4072 1.79898E-03 9.16137E-05-4.52938E-15
 -1      4073 8.10211E-03 2.77628E-04-4.85440E-14
 -1      4074 8.10268E-03 2.57907E-04-4.93373E-14
 -1      4075 8.17219E-03 2.97913E-04-4.93275E-14
 -1      4076 1.30326E-02 8.11666E-04-1.31484E-13
 -1      4077 1.32420E-02 8.56654E-04-1.34840E-13
 -1      4078 1.32596E-02 8.98501E-04-1.34705E-13
 -1      4079 8.15980E-03 3.58383E-04-4.81287E-14
 -1      4080 8.14742E-03 3.39606E-04-4.78869E-14
 -1      4081 8.20439E-03 3.30554E-04-4.91785E-14
 -1      4082 8.28804E-03 3.67865E-04-5.04927E-14
 -1      4083 8.04519E-03 2.18049E-04-4.96272E-14
 -1      4084 1.67199E-03 3.64433E-05-4.06687E-15
 -1      4085 1.67232E-03 1.02233E-05-4.09158E-15
 -1      4086 1.43931E-03-4.03574E-05-3.11261E-15
 -1      4087 2.47841E-03-5.34818E-05-8.37057E-15
 -1      4088 1.87396E-03-9.50710E-05-4.90770E-15
 -1      4089 1.92633E-03-6.72292E-05-5.22683E-15
 -1      4090 2.29381E-03 1.91686E-04-6.57697E-15
 -1      4091 2.16384E-03 1.88911E-04-5.87707E-15
 -1      4092 2.09877E-03 1.46917E-04-5.80649E-15
 -1      4093 2.33177E-03 1.65943E-04-7.01280E-15
 -1      4094 2.68313E-03-2.54111E-05-9.86402E-15
 -1      4095 2.58657E-03-5.06655E-06-9.30962E-15
 -1      4096 1.76040E-03 7.41909E-05-4.39895E-15
 -1      4097 1.70699E-03 5.33818E-05-4.19852E-15
 -1      4098 1.81696E-03 4.26935E-05-4.73807E-15
 -1      4099 1.88873E-03 7.72483E-05-5.01778E-15
 -1      4100 2.51114E-03 1.46010E-04-8.37197E-15
 -1      4101 2.54350E-03 5.84761E-05-9.17086E-15
 -1      4102 2.62885E-03 8.17688E-05-9.81099E-15
 -1      4103 2.65068E-03 9.96586E-05-9.90068E-15
 -1      4104 1.55896E-03-3.44429E-05-3.59562E-15
 -1      4105 2.54503E-03 1.00584E-04-9.02751E-15
 -1      4106 1.66403E-03-1.24206E-05-4.05702E-15
 -1      4107 1.66419E-03-4.35311E-05-4.03770E-15
 -1      4108 1.76344E-03-4.44807E-05-4.48434E-15
 -1      4109 1.77420E-03 2.65484E-06-4.56358E-15
 -1      4110 2.69235E-03-5.15009E-05-9.76485E-15
 -1      4111 2.47238E-03 1.17605E-04-8.35222E-15
 -1      4112 2.40374E-03 1.45145E-04-7.64608E-15
 -1      4113 2.29118E-03 1.35869E-04-7.00086E-15
 -1      4114 2.44280E-03 9.87414E-05-8.27436E-15
 -1      4115 9.49406E-03 5.26382E-04-7.08788E-14
 -1      4116 9.36264E-03 5.07780E-04-6.87315E-14
 -1      4117 8.16602E-03 2.29090E-04-5.15743E-14
 -1      4118 8.28828E-03 2.40508E-04-5.35469E-14
 -1      4119 8.13299E-03 2.43155E-04-5.04804E-14
 -1      4120 1.92635E-03-4.17247E-05-5.27510E-15
 -1      4121 8.42647E-03 2.61943E-04-5.55721E-14
 -1      4122 8.55032E-03 2.74230E-04-5.75924E-14
 -1      4123 8.67559E-03 2.87148E-04-5.96337E-14
 -1      4124 8.80238E-03 3.00494E-04-6.16960E-14
 -1      4125 8.64093E-03 3.07695E-04-5.85138E-14
 -1      4126 8.93047E-03 3.14328E-04-6.37794E-14
 -1      4127 9.05996E-03 3.28490E-04-6.58849E-14
 -1      4128 8.89057E-03 3.34922E-04-6.26365E-14
 -1      4129 9.19064E-03 3.43044E-04-6.80117E-14
 -1      4130 9.32254E-03 3.57881E-04-7.01545E-14
 -1      4131 9.14684E-03 3.64121E-04-6.68435E-14
 -1      4132 9.45550E-03 3.73033E-04-7.23156E-14
 -1      4133 9.58950E-03 3.88417E-04-7.44925E-14
 -1      4134 9.40878E-03 3.94803E-04-7.11284E-14
 -1      4135 9.72443E-03 4.04060E-04-7.66853E-14
 -1      4136 9.86024E-03 4.19896E-04-7.88931E-14
 -1      4137 9.67547E-03 4.26635E-04-7.54803E-14
 -1      4138 9.99684E-03 4.35946E-04-8.11129E-14
 -1      4139 1.01342E-02 4.52160E-04-8.33482E-14
 -1      4140 9.94616E-03 4.59355E-04-7.98918E-14
 -1      4141 1.02722E-02 4.68551E-04-8.55963E-14
 -1      4142 1.04108E-02 4.85080E-04-8.78556E-14
 -1      4143 1.02202E-02 4.92764E-04-8.43592E-14
 -1      4144 1.05499E-02 5.01758E-04-9.01260E-14
 -1      4145 1.06896E-02 5.18554E-04-9.24097E-14
 -1      4146 1.04969E-02 5.26711E-04-8.88763E-14
 -1      4147 1.08297E-02 5.35473E-04-9.47064E-14
 -1      4148 1.09702E-02 5.52492E-04-9.70117E-14
 -1      4149 1.07759E-02 5.61079E-04-9.34419E-14
 -1      4150 1.11110E-02 5.69613E-04-9.93299E-14
 -1      4151 1.12521E-02 5.86820E-04-1.01660E-13
 -1      4152 1.10566E-02 5.95779E-04-9.80541E-14
 -1      4153 1.13935E-02 6.04110E-04-1.04002E-13
 -1      4154 1.15352E-02 6.21471E-04-1.06355E-13
 -1      4155 1.13386E-02 6.30742E-04-1.02714E-13
 -1      4156 1.16770E-02 6.38901E-04-1.08716E-13
 -1      4157 1.18190E-02 6.56390E-04-1.11088E-13
 -1      4158 1.16218E-02 6.65912E-04-1.07417E-13
 -1      4159 1.19612E-02 6.73934E-04-1.13468E-13
 -1      4160 1.21035E-02 6.91527E-04-1.15854E-13
 -1      4161 1.19058E-02 7.01246E-04-1.12162E-13
 -1      4162 1.22459E-02 7.09163E-04-1.18247E-13
 -1      4163 1.23884E-02 7.26840E-04-1.20646E-13
 -1      4164 1.21903E-02 7.36711E-04-1.16935E-13
 -1      4165 1.25310E-02 7.44551E-04-1.23048E-13
 -1      4166 1.26737E-02 7.62293E-04-1.25457E-13
 -1      4167 1.24753E-02 7.72277E-04-1.21730E-13
 -1      4168 1.27817E-02 7.78064E-04-1.27260E-13
 -1      4169 1.29245E-02 7.95855E-04-1.29676E-13
 -1      4170 1.29420E-02 8.37584E-04-1.29544E-13
 -1      4171 1.27259E-02 8.05908E-04-1.25935E-13
 -1      4172 9.23273E-03 4.89521E-04-6.66017E-14
 -1      4173 9.10446E-03 4.71486E-04-6.44914E-14
 -1      4174 9.28618E-03 4.71056E-04-6.77876E-14
 -1      4175 1.00318E-02 6.02232E-04-7.96393E-14
 -1      4176 9.89579E-03 5.83103E-04-7.74275E-14
 -1      4177 1.03063E-02 6.40530E-04-8.41068E-14
 -1      4178 1.01686E-02 6.21363E-04-8.18659E-14
 -1      4179 1.00866E-02 5.80259E-04-8.08776E-14
 -1      4180 1.05835E-02 6.78769E-04-8.86224E-14
 -1      4181 1.04446E-02 6.59656E-04-8.63581E-14
 -1      4182 1.03614E-02 6.17498E-04-8.53583E-14
 -1      4183 1.08629E-02 7.16818E-04-9.31910E-14
 -1      4184 1.07230E-02 6.97815E-04-9.09008E-14
 -1      4185 1.06388E-02 6.54784E-04-8.98876E-14
 -1      4186 1.11441E-02 7.54609E-04-9.78067E-14
 -1      4187 1.10033E-02 7.35743E-04-9.54921E-14
 -1      4188 1.09184E-02 6.92000E-04-9.44657E-14
 -1      4189 1.14265E-02 7.92116E-04-1.02470E-13
 -1      4190 1.12851E-02 7.73395E-04-1.00134E-13
 -1      4191 1.11996E-02 7.29078E-04-9.90935E-14
 -1      4192 1.17099E-02 8.29342E-04-1.07178E-13
 -1      4193 1.15681E-02 8.10761E-04-1.04820E-13
 -1      4194 1.14821E-02 7.65990E-04-1.03769E-13
 -1      4195 1.19941E-02 8.66308E-04-1.11920E-13
 -1      4196 1.18519E-02 8.47854E-04-1.09544E-13
 -1      4197 1.17656E-02 8.02730E-04-1.08486E-13
 -1      4198 1.22788E-02 9.03044E-04-1.16699E-13
 -1      4199 1.21364E-02 8.84701E-04-1.14305E-13
 -1      4200 1.20498E-02 8.39305E-04-1.13238E-13
 -1      4201 1.25639E-02 9.39585E-04-1.21493E-13
 -1      4202 1.24213E-02 9.21336E-04-1.19094E-13
 -1      4203 1.23345E-02 8.75734E-04-1.18020E-13
 -1      4204 1.28492E-02 9.75966E-04-1.26313E-13
 -1      4205 1.27065E-02 9.57793E-04-1.23902E-13
 -1      4206 1.26196E-02 9.12038E-04-1.22823E-13
 -1      4207 2.46528E-03-1.08726E-05-8.46656E-15
 -1      4208 2.46100E-03 2.72787E-05-8.54884E-15
 -1      4209 2.34169E-03-1.62803E-05-7.66039E-15
 -1      4210 8.73180E-03 4.20188E-04-5.82776E-14
 -1      4211 8.61251E-03 4.03989E-04-5.62515E-14
 -1      4212 8.49640E-03 3.88691E-04-5.42429E-14
 -1      4213 8.38373E-03 3.73677E-04-5.22581E-14
 -1      4214 8.54654E-03 3.73592E-04-5.53640E-14
 -1      4215 2.42904E-03 5.26359E-05-8.33647E-15
 -1      4216 2.07270E-03-3.18316E-05-6.05879E-15
 -1      4217 2.20047E-03-2.82896E-05-6.78244E-15
 -1      4218 2.20315E-03 9.76853E-06-6.86240E-15
 -1      4219 1.91525E-03-1.14633E-05-5.25429E-15
 -1      4220 8.97808E-03 4.53944E-04-6.23991E-14
 -1      4221 8.85375E-03 4.36739E-04-6.03263E-14
 -1      4222 9.03074E-03 4.36656E-04-6.35641E-14
 -1      4223 9.76077E-03 5.64083E-04-7.52297E-14
 -1      4224 9.62681E-03 5.45127E-04-7.30449E-14
 -1      4225 9.54813E-03 5.06730E-04-7.20865E-14
 -1      4226 9.81528E-03 5.43248E-04-7.64520E-14
 -1      4227 2.17847E-03 1.26596E-04-6.38217E-15
 -1      4228 2.06510E-03 1.17413E-04-5.79040E-15
 -1      4229 2.25793E-03 1.07249E-04-6.98004E-15
 -1      4230 1.92151E-03 1.21375E-05-5.29226E-15
 -1      4231 2.38119E-03 7.07706E-05-7.96611E-15
 -1      4232 2.29793E-03 8.80081E-05-7.33648E-15
 -1      4233 2.19088E-03 7.86666E-05-6.69873E-15
 -1      4234 2.28722E-03 4.08462E-05-7.38952E-15
 -1      4235 8.21531E-03 2.67710E-04-5.12822E-14
 -1      4236 1.33117E-02 9.92767E-04-1.34630E-13
 -1      4237 1.32877E-02 1.02218E-03-1.33862E-13
 -1      4238 1.31785E-02 1.01234E-03-1.31960E-13
 -1      4239 8.38514E-03 2.74142E-04-5.44496E-14
 -1      4240 8.22739E-03 3.16019E-04-4.99901E-14
 -1      4241 8.24291E-03 3.00009E-04-5.08001E-14
 -1      4242 8.27775E-03 3.34123E-04-5.06540E-14
 -1      4243 8.33927E-03 3.53911E-04-5.15921E-14
 -1      4244 1.29583E-02 9.85872E-04-1.28206E-13
 -1      4245 1.28714E-02 9.40020E-04-1.27122E-13
 -1      4246 1.30675E-02 9.95751E-04-1.30100E-13
 -1      4247 8.78339E-03 4.03961E-04-5.94230E-14
 -1      4248 2.03856E-03 9.64002E-05-5.74267E-15
 -1      4249 8.60481E-03 3.26693E-04-5.73955E-14
 -1      4250 8.72606E-03 3.40161E-04-5.94348E-14
 -1      4251 8.84091E-03 3.71050E-04-6.10322E-14
 -1      4252 8.96546E-03 3.85989E-04-6.31076E-14
 -1      4253 9.09189E-03 4.01639E-04-6.52059E-14
 -1      4254 9.22013E-03 4.17568E-04-6.73251E-14
 -1      4255 9.34990E-03 4.33990E-04-6.94603E-14
 -1      4256 9.48114E-03 4.50619E-04-7.16137E-14
 -1      4257 9.61365E-03 4.67601E-04-7.37846E-14
 -1      4258 9.74735E-03 4.84725E-04-7.59726E-14
 -1      4259 9.88211E-03 5.02098E-04-7.81745E-14
 -1      4260 1.00178E-02 5.19562E-04-8.03896E-14
 -1      4261 1.01544E-02 5.37196E-04-8.26196E-14
 -1      4262 1.02918E-02 5.54884E-04-8.48642E-14
 -1      4263 1.04299E-02 5.72687E-04-8.71190E-14
 -1      4264 1.05686E-02 5.90516E-04-8.93858E-14
 -1      4265 1.07079E-02 6.08419E-04-9.16664E-14
 -1      4266 1.08476E-02 6.26333E-04-9.39588E-14
 -1      4267 1.09878E-02 6.44292E-04-9.62612E-14
 -1      4268 1.11284E-02 6.62252E-04-9.85761E-14
 -1      4269 1.12694E-02 6.80237E-04-1.00905E-13
 -1      4270 1.14106E-02 6.98218E-04-1.03244E-13
 -1      4271 1.15521E-02 7.16213E-04-1.05594E-13
 -1      4272 1.16938E-02 7.34201E-04-1.07954E-13
 -1      4273 1.18358E-02 7.52195E-04-1.10323E-13
 -1      4274 1.19779E-02 7.70181E-04-1.12702E-13
 -1      4275 1.21201E-02 7.88169E-04-1.15087E-13
 -1      4276 1.22625E-02 8.06149E-04-1.17480E-13
 -1      4277 1.24049E-02 8.24128E-04-1.19877E-13
 -1      4278 1.25475E-02 8.42102E-04-1.22279E-13
 -1      4279 1.26901E-02 8.60072E-04-1.24686E-13
 -1      4280 2.14710E-03 2.95125E-05-6.53324E-15
 -1      4281 8.34448E-03 2.86258E-04-5.33052E-14
 -1      4282 8.47416E-03 3.06323E-04-5.53251E-14
 -1      4283 8.55639E-03 3.36878E-04-5.62260E-14
 -1      4284 8.30442E-03 2.98302E-04-5.21385E-14
 -1      4285 1.31263E-02 9.18173E-04-1.32042E-13
 -1      4286 1.33358E-02 9.63343E-04-1.35399E-13
 -1      4287 8.36776E-03 3.38832E-04-5.24170E-14
 -1      4288 2.09616E-03 7.86796E-05-6.13602E-15
 -1      4289 1.98630E-03 7.69773E-05-5.52942E-15
 -1      4290 1.95000E-03 5.95801E-05-5.38351E-15
 -1      4291 2.14267E-03 5.93970E-05-6.46548E-15
 -1      4292 1.91563E-03 4.22193E-05-5.23634E-15
 -1      4293 1.30915E-02 9.66417E-04-1.30870E-13
 -1      4294 2.05036E-03 2.94076E-05-5.97703E-15
 -1      4295 1.30153E-02 9.01687E-04-1.30184E-13
 -1      4296 8.36410E-03 3.17954E-04-5.28163E-14
 -1      4297 1.28440E-02 9.02917E-04-1.27032E-13
 -1      4298 1.27718E-02 8.32787E-04-1.26480E-13
 -1      4299 8.79615E-03 3.88443E-04-5.98897E-14
 -1      4300 8.67567E-03 3.73382E-04-5.78457E-14
 -1      4301 8.43453E-03 3.38564E-04-5.37718E-14
 -1      4302 8.54885E-03 3.52078E-04-5.57731E-14
 -1      4303 1.29531E-02 9.12719E-04-1.28923E-13
 -1      4304 1.28799E-02 8.48653E-04-1.28284E-13
 -1      4305 1.29880E-02 8.64529E-04-1.30090E-13
 -3
    1PSTEP                         2           1           1          
  100CL  101 1.000000000        4305                     0    1           1
 -4  STRESS      6    1
 -5  SXX         1    4    1    1
 -5  SYY         1    4    2    2
 -5  SZZ         1    4    3    3
 -5  SXY         1    4    1    2
 -5  SYZ         1    4    2    3
 -5  SZX         1    4    3    1
 -1         1 1.75308E+01 1.08230E+01 5.77784E-01-1.35937E+01-2.44360E-12 3.03868E-12
 -1         2-6.82069E-01-2.46338E+01-3.35890E+00-9.45935E-02 1.78250E-13 3.94962E-14
 -1         3 2.00000E+01 2.08807E-04-1.42091E-04 2.02986E-04-2.42124E-13-2.29600E-13
 -1         4 2.00000E+01 1.76943E-04-1.62177E-04-1.75389E-04 2.20966E-13-3.29920E-14
 -1         5 3.24274E+01 6.08798E+00 2.63582E+00 6.11171E+00-5.72875E-14 4.12333E-12
 -1         6 3.53242E+01 1.20852E+01 4.95971E+00-8.47907E+00-2.57530E-13 3.69148E-12
 -1         7 2.10571E+01 6.15912E+00-9.02854E-02-4.51889E+00-3.67761E-14 5.21735E-13
 -1         8 1.99413E+01 6.01018E+00 6.96246E-02-2.98107E+00-4.71845E-14-4.11017E-13
 -1         9 1.93554E+01 5.83404E+00 5.82586E-02-2.17939E+00-3.73937E-14-9.03480E-13
 -1        10 1.90079E+01 5.72377E+00 5.20880E-02-1.59058E+00-2.49453E-14-1.13636E-12
 -1        11 1.87611E+01 5.64604E+00 4.45055E-02-1.12095E+00-1.79631E-14-1.23631E-12
 -1        12 1.85800E+01 5.58945E+00 3.74102E-02-7.39967E-01-7.54431E-15-1.27335E-12
 -1        13 1.84527E+01 5.55007E+00 3.17955E-02-4.10620E-01-2.18879E-15-1.27457E-12
 -1        14 1.83853E+01 5.52931E+00 2.85043E-02-1.17658E-01 5.70117E-15-1.26016E-12
 -1        15 1.83818E+01 5.52823E+00 2.80032E-02 1.61075E-01 1.04021E-14-1.23466E-12
 -1        16 1.84441E+01 5.54737E+00 3.04807E-02 4.48662E-01 1.50834E-14-1.19112E-12
 -1        17 1.85714E+01 5.58648E+00 3.58338E-02 7.69459E-01 2.29539E-14-1.11329E-12
 -1        18 1.87579E+01 5.64464E+00 4.33247E-02 1.14177E+00 2.77365E-14-9.97296E-13
 -1        19 1.90153E+01 5.72550E+00 5.16418E-02 1.60751E+00 4.16785E-14-8.01049E-13
 -1        20 1.93718E+01 5.83938E+00 5.81971E-02 2.19973E+00 5.15595E-14-4.67345E-13
 -1        21 1.99525E+01 6.02793E+00 6.60991E-02 2.99942E+00 5.59067E-14 1.60349E-13
 -1        22 2.14033E+01 6.42663E+00 1.61249E-01 4.30874E+00 7.42462E-15 1.40045E-12
 -1        23 2.31356E+01-1.39171E+00-9.47823E-01-6.53569E-01-1.70079E-13 2.81045E-12
 -1        24 1.98180E+01-9.96639E-02-3.04116E-01 7.09290E-02-4.82088E-14 2.03774E-12
 -1        25 1.94094E+01-5.75471E-02-6.78364E-02 6.42711E-02-2.12354E-14 1.26501E-12
 -1        26 1.94963E+01-2.46096E-02-9.51765E-03 3.73573E-02-1.56628E-14 7.26301E-13
 -1        27 1.98379E+01-1.47937E-02-3.21010E-03 2.89445E-02-9.26711E-15 4.04411E-13
 -1        28 2.03356E+01-8.81743E-03-3.12505E-03 2.52297E-02-4.20226E-15 1.76092E-13
 -1        29 2.09293E+01-4.12004E-03-1.54367E-03 2.38186E-02-1.94083E-14-1.11450E-13
 -1        30 2.15653E+01 7.14022E-04 2.67327E-03 2.29934E-02-8.48117E-17-2.76010E-13
 -1        31 2.21771E+01 6.40914E-03 1.00137E-02 2.09988E-02 6.60512E-15-4.15521E-13
 -1        32 2.26740E+01 1.30192E-02 2.06379E-02 1.56309E-02-3.56476E-14-5.98449E-13
 -1        33 2.29375E+01 1.96251E-02 3.32963E-02 4.36841E-03 2.21704E-14-6.65725E-13
 -1        34 2.28359E+01 2.40383E-02 4.40039E-02-1.45824E-02-1.78492E-14-7.23919E-13
 -1        35 2.22654E+01 2.30284E-02 4.56490E-02-4.00879E-02 2.41994E-14-7.77029E-13
 -1        36 2.12213E+01 1.38053E-02 3.05712E-02-6.54814E-02-1.55723E-14-7.96144E-13
 -1        37 1.98713E+01-3.44920E-03-3.47995E-03-7.82693E-02-4.33369E-14-8.41112E-13
 -1        38 1.85712E+01-2.35644E-02-4.64708E-02-6.61825E-02 1.08566E-14-9.43259E-13
 -1        39 1.77603E+01-3.75865E-02-7.78177E-02-2.72419E-02-4.32551E-14-1.22594E-12
 -1        40 1.77563E+01-3.82506E-02-7.92947E-02 2.42123E-02 1.58322E-14-1.15379E-12
 -1        41 1.85737E+01-2.52208E-02-5.00170E-02 6.49287E-02-2.65898E-14-1.25281E-12
 -1        42 1.99163E+01-5.42751E-03-7.36341E-03 7.93641E-02-1.17702E-14-1.39570E-12
 -1        43 2.13487E+01 1.21206E-02 2.75590E-02 6.83689E-02-3.36522E-14-1.38597E-12
 -1        44 2.25075E+01 2.18715E-02 4.38066E-02 4.40083E-02 2.51782E-14-1.22206E-12
 -1        45 2.32134E+01 2.33717E-02 4.28631E-02 1.89782E-02-7.54258E-15-1.07529E-12
 -1        46 2.34631E+01 1.93518E-02 3.23854E-02 4.52827E-04-4.41707E-14-1.12480E-12
 -1        47 2.33560E+01 1.31113E-02 1.96198E-02-1.00780E-02 3.32436E-14-8.91464E-13
 -1        48 2.30221E+01 7.02576E-03 8.81389E-03-1.42145E-02 4.87227E-14-7.91536E-13
 -1        49 2.25771E+01 2.24043E-03 1.35107E-03-1.43408E-02 2.38060E-14-8.01255E-13
 -1        50 2.21053E+01-9.84460E-04-3.00106E-03-1.24563E-02-4.60558E-14-8.08582E-13
 -1        51 2.16594E+01-2.84744E-03-5.05554E-03-9.87410E-03 4.88573E-14-8.09268E-13
 -1        52 2.12668E+01-3.69898E-03-5.64106E-03-7.31654E-03-6.99247E-14-8.03457E-13
 -1        53 2.09381E+01-3.88086E-03-5.39729E-03-5.11043E-03 3.21714E-14-1.08907E-12
 -1        54 2.06732E+01-3.66505E-03-4.75234E-03-3.35518E-03 5.28051E-14-8.90575E-13
 -1        55 2.04665E+01-3.24469E-03-3.96629E-03-2.03595E-03-9.76877E-14-9.26631E-13
 -1        56 2.03097E+01-2.74603E-03-3.18393E-03-1.09009E-03 6.18059E-14-1.00593E-12
 -1        57 2.01941E+01-2.24546E-03-2.47737E-03-4.42202E-04-2.25731E-16-6.85193E-13
 -1        58 2.01114E+01-1.78496E-03-1.87569E-03-2.07660E-05 1.27139E-14-6.10636E-13
 -1        59 2.00542E+01-1.38416E-03-1.38392E-03 2.35272E-04-7.03464E-14-7.90914E-13
 -1        60 2.00163E+01-1.04888E-03-9.94656E-04 3.74978E-04 5.50296E-14-6.06293E-13
 -1        61 1.99926E+01-7.76963E-04-6.94892E-04 4.36199E-04-1.38217E-14-2.96167E-13
 -1        62 1.99792E+01-5.62039E-04-4.69874E-04 4.47217E-04-8.22703E-15-5.86250E-13
 -1        63 1.99731E+01-3.95857E-04-3.05131E-04 4.28578E-04 1.19388E-14-8.02239E-13
 -1        64 1.99718E+01-2.69666E-04-1.87437E-04 3.94763E-04-1.52777E-14-1.21032E-12
 -1        65 1.99738E+01-1.74949E-04-1.05034E-04 3.55605E-04-1.19310E-14-1.05953E-12
 -1        66 1.99777E+01-1.03703E-04-4.72484E-05 3.17313E-04 4.17329E-14-8.86073E-13
 -1        67 1.99826E+01-4.84759E-05-3.41271E-06 2.82917E-04 1.17861E-13-5.48721E-13
 -1        68 1.99880E+01-2.29578E-06 3.89738E-05 2.51811E-04 5.73117E-14-9.06363E-14
 -1        69 1.99930E+01 3.99786E-05 9.44241E-05 2.16129E-04-2.60222E-14 1.47263E-14
 -1        70 1.99972E+01 6.62950E-05 1.55973E-04 1.40931E-04 5.81636E-14-6.23707E-14
 -1        71 1.99997E+01-1.39225E-05 1.17113E-04 1.08247E-05-2.94742E-14-9.62975E-14
 -1        72 2.11767E+01-4.03810E-01-9.84108E-01-3.26894E-01 4.61055E-14 3.78732E-12
 -1        73 1.98063E+01-6.67043E-02-2.85888E-01-5.70778E-02 4.14022E-14 2.89227E-12
 -1        74 1.94645E+01-2.30873E-02-6.48226E-02-2.06021E-02 1.02268E-14 2.17287E-12
 -1        75 1.95948E+01-1.36895E-02-1.48296E-02-1.51218E-02 9.05146E-15 1.73568E-12
 -1        76 2.00125E+01-9.79823E-03-8.24174E-03-1.30710E-02 8.13054E-15 1.45813E-12
 -1        77 2.06361E+01-7.49415E-03-9.49492E-03-1.33647E-02 1.72312E-14 1.25349E-12
 -1        78 2.14302E+01-5.27190E-03-1.03485E-02-1.60401E-02-2.14868E-14 1.20197E-12
 -1        79 2.23687E+01-1.99377E-03-8.58632E-03-2.13096E-02 3.89300E-14 1.01334E-12
 -1        80 2.34097E+01 3.39690E-03-1.91461E-03-2.91396E-02 5.74027E-15 7.85068E-13
 -1        81 2.44671E+01 1.15886E-02 1.29649E-02-3.82112E-02 3.07093E-14 6.41745E-13
 -1        82 2.53778E+01 2.19490E-02 3.88095E-02-4.41827E-02 3.31701E-15 5.08514E-13
 -1        83 2.58803E+01 3.09425E-02 7.32338E-02-3.79352E-02-4.76203E-15 5.48152E-13
 -1        84 2.56409E+01 3.13979E-02 1.01729E-01-6.87259E-03-1.68615E-15 6.37998E-13
 -1        85 2.43898E+01 1.58960E-02 9.53721E-02 5.53534E-02 1.90865E-14 6.39322E-13
 -1        86 2.21879E+01-1.42978E-02 2.78947E-02 1.30313E-01 3.02237E-14 6.24500E-13
 -1        87 1.96790E+01-4.30301E-02-8.74309E-02 1.67594E-01-3.10516E-14 4.22239E-13
 -1        88 1.79783E+01-5.01922E-02-1.80647E-01 1.19552E-01-4.42541E-14 4.79696E-13
 -1        89 1.80116E+01-3.20069E-02-1.77269E-01 6.27454E-04 4.34947E-14 2.10314E-13
 -1        90 1.97819E+01-3.22161E-03-8.11866E-02-1.10900E-01-6.01537E-15-1.64868E-14
 -1        91 2.23671E+01 1.95970E-02 3.28938E-02-1.51069E-01-6.17453E-16-3.35343E-13
 -1        92 2.46526E+01 2.88020E-02 9.60454E-02-1.22992E-01-7.15387E-14-4.71616E-13
 -1        93 2.59966E+01 2.63957E-02 1.00064E-01-6.75947E-02 6.70837E-14-3.83648E-13
 -1        94 2.63391E+01 1.81399E-02 7.09410E-02-1.92946E-02-1.18488E-14-8.87001E-13
 -1        95 2.59532E+01 9.21992E-03 3.63434E-02 9.90221E-03 1.34956E-14-5.72382E-13
 -1        96 2.51741E+01 2.34312E-03 1.04154E-02 2.25135E-02-3.93355E-14-1.84266E-13
 -1        97 2.42627E+01-1.92654E-03-4.45277E-03 2.49402E-02-7.91817E-14-2.37206E-14
 -1        98 2.33776E+01-4.06216E-03-1.09701E-02 2.24869E-02 2.84772E-15-9.15240E-15
 -1        99 2.25967E+01-4.78142E-03-1.25632E-02 1.83634E-02 4.58073E-14-7.43646E-13
 -1       100 2.19464E+01-4.69086E-03-1.17526E-02 1.41590E-02-1.88392E-14-7.77271E-13
 -1       101 2.14254E+01-4.20500E-03-1.00206E-02 1.05108E-02-4.71417E-15-4.31394E-13
 -1       102 2.10197E+01-3.57296E-03-8.11627E-03 7.58163E-03-2.40495E-15-2.59436E-13
 -1       103 2.07108E+01-2.92997E-03-6.36632E-03 5.33148E-03-3.33152E-14-1.59808E-13
 -1       104 2.04803E+01-2.34141E-03-4.88234E-03 3.65153E-03-2.51050E-14 3.71149E-13
 -1       105 2.03117E+01-1.83310E-03-3.67739E-03 2.42363E-03 4.12611E-14 1.30312E-13
 -1       106 2.01910E+01-1.40996E-03-2.72484E-03 1.54264E-03-5.80190E-14-2.43891E-13
 -1       107 2.01066E+01-1.06674E-03-1.98591E-03 9.22411E-04 3.17260E-14-1.56798E-13
 -1       108 2.00495E+01-7.93933E-04-1.42144E-03 4.95190E-04 5.12848E-14-7.82713E-13
 -1       109 2.00123E+01-5.80803E-04-9.96439E-04 2.08792E-04 5.22864E-14-6.48057E-13
 -1       110 1.99896E+01-4.16901E-04-6.81241E-04 2.35240E-05-1.02693E-13-4.46704E-13
 -1       111 1.99770E+01-2.92710E-04-4.51347E-04-9.05838E-05 9.78857E-14-4.80129E-13
 -1       112 1.99716E+01-1.99864E-04-2.86786E-04-1.56036E-04-4.74270E-14-7.79346E-13
 -1       113 1.99708E+01-1.31128E-04-1.71335E-04-1.89648E-04 1.34050E-13-4.09100E-13
 -1       114 1.99732E+01-8.02590E-05-9.17086E-05-2.03927E-04-1.87336E-13-1.24066E-13
 -1       115 1.99774E+01-4.17586E-05-3.65052E-05-2.08176E-04 1.40858E-13 1.47597E-13
 -1       116 1.99825E+01-1.06933E-05 5.50730E-06-2.09117E-04-6.73821E-14 5.29628E-13
 -1       117 1.99880E+01 1.74174E-05 4.76677E-05-2.10632E-04-9.67555E-14 6.09205E-13
 -1       118 1.99931E+01 4.50256E-05 1.04670E-04-2.11505E-04 1.29710E-13 1.05905E-13
 -1       119 1.99973E+01 6.83663E-05 1.72766E-04-1.89932E-04 1.63254E-14-7.51866E-13
 -1       120 1.99997E+01-4.91272E-05 9.06753E-05-5.92853E-05 9.85976E-14-5.61097E-13
 -1       121 1.99998E+01-2.74902E-04 8.00275E-05-2.70082E-05-6.49681E-13-9.24854E-14
 -1       122 1.99999E+01-2.56347E-03 1.28915E-04-1.50876E-04-8.40358E-13-7.71906E-14
 -1       123 1.99998E+01-6.35940E-03 3.46059E-05-1.85860E-04 1.32574E-13 6.01595E-14
 -1       124 1.99998E+01-1.04870E-02-3.62514E-05-1.68654E-04 6.37414E-13-5.34901E-14
 -1       125 1.99998E+01-1.42427E-02-7.31150E-05-1.31716E-04 5.28728E-13 8.24009E-15
 -1       126 1.99997E+01-1.71987E-02-8.95075E-05-9.28816E-05-4.87278E-13-2.60697E-13
 -1       127 1.99997E+01-1.92528E-02-9.38753E-05-5.34881E-05-6.64550E-13 1.55123E-13
 -1       128 1.99997E+01-2.02720E-02-9.42712E-05-1.64745E-05-5.48190E-13 1.69543E-13
 -1       129 1.99997E+01-2.02357E-02-9.36409E-05 1.92551E-05-7.30692E-14-1.31810E-13
 -1       130 1.99997E+01-1.91509E-02-9.21815E-05 5.55471E-05 2.64718E-13 3.26501E-14
 -1       131 1.99997E+01-1.70507E-02-8.64238E-05 9.51327E-05-7.27241E-13-6.43902E-14
 -1       132 1.99998E+01-1.40763E-02-7.10934E-05 1.31967E-04-1.50481E-12 2.76389E-13
 -1       133 1.99998E+01-1.03265E-02-3.42937E-05 1.67272E-04-1.40137E-13 1.13746E-13
 -1       134 1.99998E+01-6.22385E-03 4.10031E-05 1.94289E-04-5.75041E-14 6.51966E-14
 -1       135 1.99999E+01-2.55548E-03 1.08460E-04 2.07700E-04-1.66234E-13-1.76942E-13
 -1       136 1.99999E+01-3.41548E-04 7.10312E-05-1.80526E-05-2.85591E-13 1.79117E-14
 -1       137-1.55915E+00-2.00457E+01-3.11518E+00-3.98900E+00 1.21519E-12 2.42181E-13
 -1       138-1.50355E+00-8.36675E+00-2.31511E+00-2.89013E+00 2.47663E-12 1.28117E-12
 -1       139 3.19641E+00 3.56281E+00-1.10293E+00 3.69480E+00 2.99455E-12 2.19175E-12
 -1       140 1.73841E+01 1.04944E+01 4.54860E-01 1.33702E+01 2.71055E-12 3.34155E-12
 -1       141 3.66763E+01 9.56233E+00 1.91025E+00 1.81167E+01 1.68865E-12 3.19605E-12
 -1       142 5.60004E+01 4.82277E+00 3.10931E+00 1.45878E+01 5.44342E-13 1.84514E-12
 -1       143 6.69465E+01 1.22050E+00 3.72425E+00 3.15483E+00 8.98413E-14-5.17239E-13
 -1       144 6.33370E+01 2.48360E+00 3.52666E+00-9.92496E+00 4.96713E-13-2.51921E-12
 -1       145 4.73156E+01 7.39524E+00 2.61124E+00-1.77575E+01 1.60369E-12-3.93113E-12
 -1       146 2.70787E+01 1.09694E+01 1.25370E+00-1.69393E+01 2.94531E-12-4.38993E-12
 -1       147 1.00896E+01 8.67862E+00-2.13986E-01-9.36173E+00 3.63848E-12-3.60234E-12
 -1       148 2.01199E-01-1.06351E+00-1.66798E+00-1.80797E-01 3.69565E-12-2.32248E-12
 -1       149-1.94224E+00-1.40487E+01-2.74628E+00 4.37084E+00 2.92472E-12-1.05634E-12
 -1       150-1.04139E+00-2.30021E+01-3.30768E+00 2.88590E+00 9.80244E-13-2.06517E-13
 -1       151-8.37384E-01-2.41544E+01-3.36213E+00-1.59631E+00-1.38523E-12-1.75786E-13
 -1       152-1.71250E+00-1.62317E+01-2.83443E+00-4.13045E+00-3.47128E-12-1.13545E-12
 -1       153-4.08578E-01-3.61192E+00-1.80501E+00-7.58731E-01-4.44522E-12-2.49559E-12
 -1       154 9.11482E+00 8.10689E+00-2.55486E-01 8.69398E+00-4.11160E-12-3.73240E-12
 -1       155 2.47102E+01 1.11511E+01 1.16868E+00 1.63690E+01-2.94620E-12-4.21602E-12
 -1       156 4.70602E+01 7.40267E+00 2.57574E+00 1.76865E+01-1.37226E-12-3.27793E-12
 -1       157 6.20025E+01 2.31276E+00 3.34117E+00 9.80906E+00-3.19584E-13-1.77108E-12
 -1       158 6.55416E+01 9.77819E-01 3.50686E+00-3.29026E+00-7.90965E-14 3.94795E-13
 -1       159 5.58053E+01 4.47438E+00 3.01178E+00-1.45439E+01-8.53533E-13 2.87975E-12
 -1       160 3.67319E+01 9.70785E+00 1.93491E+00-1.83454E+01-1.81774E-12 3.59085E-12
 -1       161 4.06342E+00 4.97393E+00-8.63762E-01-4.67688E+00-2.78033E-12 2.18692E-12
 -1       162-1.37252E+00-7.47793E+00-2.18219E+00 2.57390E+00-2.88652E-12 1.24847E-12
 -1       163-1.41447E+00-1.96750E+01-3.05084E+00 3.81560E+00-1.61726E-12 5.45813E-13
 -1       164 2.13405E+01 3.65673E+00-5.35613E-02-3.31209E+00-5.73349E-13 3.94858E-14
 -1       165 2.02831E+01 4.21378E+00-4.32969E-02-2.46740E+00-5.02317E-13-5.22735E-13
 -1       166 1.96839E+01 4.52006E+00-3.03687E-02-1.83290E+00-3.87943E-13-8.37682E-13
 -1       167 1.92943E+01 4.68659E+00-2.25473E-02-1.32515E+00-2.75973E-13-9.95995E-13
 -1       168 1.90110E+01 4.79385E+00-1.78982E-02-9.14388E-01-1.67460E-13-1.05789E-12
 -1       169 1.88035E+01 4.86475E+00-1.53461E-02-5.63105E-01-8.07870E-14-1.08059E-12
 -1       170 1.86737E+01 4.90750E+00-1.39974E-02-2.57346E-01 1.64664E-14-1.06003E-12
 -1       171 1.86254E+01 4.92463E+00-1.35535E-02 2.36262E-02 1.05320E-13-1.04476E-12
 -1       172 1.86623E+01 4.91587E+00-1.39361E-02 3.01395E-01 1.80947E-13-1.02222E-12
 -1       173 1.87861E+01 4.87878E+00-1.52313E-02 5.98574E-01 2.61077E-13-9.70352E-13
 -1       174 1.89920E+01 4.80988E+00-1.77724E-02 9.32683E-01 3.46368E-13-8.76564E-13
 -1       175 1.92909E+01 4.69669E+00-2.24106E-02 1.34055E+00 4.48599E-13-7.30042E-13
 -1       176 1.97024E+01 4.51566E+00-3.11460E-02 1.84701E+00 5.44216E-13-4.98667E-13
 -1       177 2.03187E+01 4.19686E+00-4.43437E-02 2.48460E+00 5.99684E-13-8.21843E-14
 -1       178 2.14711E+01 3.43237E+00-5.57194E-02 3.22841E+00 5.64646E-13 6.68327E-13
 -1       179 2.26915E+01 1.10823E+00-3.30144E-01 2.78854E+00 4.06362E-13 1.65680E-12
 -1       180 2.23252E+01 8.36783E-01 1.21735E-03-1.73664E+00-5.00926E-13 7.59039E-13
 -1       181 2.09919E+01 1.88631E-01-8.74790E-03-5.45764E-01-4.45767E-13 5.14909E-13
 -1       182 2.04355E+01 1.10962E-01 1.42796E-02-5.40788E-02-3.28779E-13 3.19057E-13
 -1       183 2.03426E+01 6.21276E-02 1.04599E-02 1.95570E-01-2.28542E-13 1.26536E-13
 -1       184 2.04946E+01 3.89362E-02 5.44693E-03 3.42741E-01-1.54667E-13 1.12965E-14
 -1       185 2.07969E+01 2.24184E-02 2.35855E-03 4.32041E-01-1.74059E-13-6.46122E-14
 -1       186 2.11849E+01 4.93412E-03 4.39933E-04 4.73606E-01-9.48356E-14-1.07788E-13
 -1       187 2.16035E+01-1.80978E-02-1.03970E-03 4.61284E-01-6.26739E-14-1.88799E-13
 -1       188 2.19933E+01-4.92528E-02-2.30088E-03 3.79581E-01-7.89598E-14-1.71165E-13
 -1       189 2.22857E+01-8.75916E-02-3.19586E-03 2.10848E-01-5.64741E-14-1.88560E-13
 -1       190 2.24048E+01-1.25611E-01-3.39510E-03-5.23597E-02-5.25751E-14-2.85436E-13
 -1       191 2.22817E+01-1.46620E-01-2.63438E-03-3.88313E-01-3.42001E-15-2.76996E-13
 -1       192 2.18831E+01-1.26954E-01-1.03518E-03-7.26539E-01-3.61547E-14-3.41030E-13
 -1       193 2.12500E+01-4.84732E-02 9.74365E-04-9.45543E-01-1.06547E-13-3.49297E-13
 -1       194 2.05265E+01 7.83884E-02 2.40076E-03-9.12773E-01-1.44357E-13-4.38477E-13
 -1       195 1.99405E+01 2.03820E-01 2.90999E-03-5.69090E-01-1.42712E-13-5.23169E-13
 -1       196 1.97165E+01 2.60071E-01 2.93445E-03 1.26403E-04-6.96630E-14-5.55301E-13
 -1       197 1.99551E+01 2.12220E-01 2.88232E-03 5.79735E-01-6.66277E-14-6.60960E-13
 -1       198 2.05711E+01 9.05306E-02 2.46252E-03 9.49084E-01-9.82567E-14-7.18566E-13
 -1       199 2.13469E+01-3.75130E-02 1.18353E-03 1.01024E+00 2.33515E-15-7.84513E-13
 -1       200 2.20528E+01-1.19218E-01-7.24168E-04 8.14268E-01 1.20967E-13-7.34292E-13
 -1       201 2.25391E+01-1.42083E-01-2.43058E-03 4.90990E-01-3.19948E-14-7.58506E-13
 -1       202 2.27584E+01-1.22885E-01-3.27740E-03 1.63627E-01 6.89405E-14-6.73623E-13
 -1       203 2.27389E+01-8.56718E-02-3.22988E-03-9.46923E-02 1.61190E-13-4.35246E-13
 -1       204 2.25451E+01-4.80035E-02-2.53687E-03-2.61169E-01 8.60978E-14-3.42187E-13
 -1       205 2.22473E+01-1.82955E-02-1.59169E-03-3.44487E-01-8.37232E-15-3.78279E-13
 -1       206 2.19047E+01 1.58099E-03-6.93919E-04-3.66026E-01-1.71667E-14-4.78077E-13
 -1       207 2.15601E+01 1.29786E-02 2.25022E-06-3.48100E-01 6.18001E-15-3.58988E-13
 -1       208 2.12404E+01 1.82197E-02 4.60529E-04-3.08788E-01-6.02789E-14-3.46484E-13
 -1       209 2.09598E+01 1.94898E-02 7.09774E-04-2.60783E-01-7.32208E-14-3.72520E-13
 -1       210 2.07235E+01 1.84663E-02 8.03154E-04-2.12071E-01-1.05727E-14-2.92095E-13
 -1       211 2.05311E+01 1.62982E-02 7.94034E-04-1.67130E-01-3.19143E-14-4.23082E-13
 -1       212 2.03789E+01 1.37103E-02 7.25684E-04-1.28074E-01 5.31985E-14-4.57171E-13
 -1       213 2.02614E+01 1.11256E-02 6.29102E-04-9.55404E-02 1.15321E-13-4.57507E-13
 -1       214 2.01731E+01 8.76710E-03 5.24504E-04-6.93152E-02-8.72045E-15-6.12943E-13
 -1       215 2.01084E+01 6.73318E-03 4.23926E-04-4.87486E-02-5.08261E-14-5.38153E-13
 -1       216 2.00623E+01 5.04812E-03 3.33712E-04-3.30118E-02-6.26198E-14-6.58558E-13
 -1       217 2.00306E+01 3.69528E-03 2.56503E-04-2.12492E-02 2.44864E-13-3.33737E-13
 -1       218 2.00098E+01 2.63769E-03 1.92674E-04-1.26619E-02-1.69634E-13-1.42274E-13
 -1       219 1.99970E+01 1.83033E-03 1.41306E-04-6.54890E-03-2.70315E-13-2.44018E-13
 -1       220 1.99899E+01 1.22710E-03 1.00811E-04-2.32126E-03-2.51239E-13-6.20143E-13
 -1       221 1.99869E+01 7.84358E-04 6.93150E-05 4.96879E-04 1.26163E-13-6.40027E-13
 -1       222 1.99865E+01 4.62125E-04 4.48997E-05 2.27497E-03 2.04286E-13-3.79845E-13
 -1       223 1.99880E+01 2.23485E-04 2.58417E-05 3.28409E-03 2.25171E-13-8.13241E-14
 -1       224 1.99904E+01 3.29526E-05 1.09755E-05 3.70343E-03 3.55186E-13-9.41353E-14
 -1       225 1.99932E+01-1.47665E-04 6.76721E-07 3.62324E-03 5.65007E-14-1.10406E-13
 -1       226 1.99959E+01-3.64977E-04-4.61651E-06 3.04482E-03-4.40888E-14 5.73576E-15
 -1       227 1.99981E+01-6.46274E-04-1.08836E-06 1.93191E-03 1.04876E-13 1.62899E-13
 -1       228 2.14204E+01 2.71297E-01-4.82706E-02 9.60984E-01 4.43649E-13 1.41048E-12
 -1       229 2.05653E+01 1.32696E-01 9.55697E-03 2.34281E-01 3.48969E-13 1.10185E-12
 -1       230 2.03380E+01 7.26294E-02 1.32309E-02-9.24885E-02 2.41816E-13 8.16170E-13
 -1       231 2.04649E+01 4.91373E-02 7.90948E-03-2.87574E-01 1.62930E-13 6.31707E-13
 -1       232 2.08263E+01 3.94895E-02 3.91577E-03-4.29243E-01 1.19849E-13 5.11693E-13
 -1       233 2.13590E+01 3.37197E-02 1.61787E-03-5.43732E-01 3.83941E-14 3.93929E-13
 -1       234 2.20208E+01 2.60184E-02 1.00927E-04-6.34507E-01 1.21179E-13 3.03767E-13
 -1       235 2.27674E+01 1.04944E-02-1.03745E-03-6.87598E-01 8.01321E-14 2.72713E-13
 -1       236 2.35336E+01-1.98034E-02-1.54966E-03-6.70590E-01 5.70326E-14 1.80437E-13
 -1       237 2.42164E+01-7.10810E-02-6.98276E-04-5.32999E-01-5.73933E-15 2.94212E-13
 -1       238 2.46670E+01-1.41921E-01 2.25823E-03-2.18686E-01-2.91299E-14 3.78175E-13
 -1       239 2.47066E+01-2.10334E-01 6.53389E-03 2.94596E-01-3.03230E-14 3.42571E-13
 -1       240 2.41917E+01-2.22896E-01 8.49316E-03 9.22554E-01-2.66800E-15 4.04838E-13
 -1       241 2.31380E+01-1.14192E-01 2.86701E-03 1.41071E+00 5.59999E-14 3.45389E-13
 -1       242 2.18538E+01 1.19715E-01-1.17336E-02 1.39875E+00 6.30667E-14 3.73550E-13
 -1       243 2.09189E+01 3.52044E-01-2.51536E-02 7.00625E-01 6.00388E-14 2.11585E-13
 -1       244 2.08643E+01 3.97726E-01-2.37192E-02-4.01914E-01 1.93503E-13-8.48280E-15
 -1       245 2.17444E+01 2.18392E-01-8.56703E-03-1.28885E+00 1.39153E-13-1.58660E-13
 -1       246 2.30857E+01-3.24887E-02 6.78815E-03-1.52596E+00 1.34648E-13-2.40299E-13
 -1       247 2.42798E+01-1.90797E-01 1.05361E-02-1.17061E+00-3.04114E-14-2.85136E-13
 -1       248 2.49648E+01-2.18209E-01 6.51867E-03-5.60652E-01 1.73646E-15-2.28257E-13
 -1       249 2.50859E+01-1.65397E-01 9.49998E-04-1.59381E-03 1.08805E-13-1.12551E-13
 -1       250 2.47747E+01-9.35561E-02-2.46580E-03 3.70425E-01-8.40070E-14-2.13041E-13
 -1       251 2.42099E+01-3.53705E-02-3.26023E-03 5.52722E-01-2.65814E-13-1.78186E-13
 -1       252 2.35434E+01 1.31660E-03-2.53169E-03 5.97659E-01-7.83716E-14 7.80530E-14
 -1       253 2.28782E+01 2.01193E-02-1.37665E-03 5.62294E-01 7.94365E-14-6.68844E-14
 -1       254 2.22722E+01 2.72225E-02-3.88715E-04 4.89349E-01 2.86757E-13-4.01903E-15
 -1       255 2.17511E+01 2.77824E-02 2.60906E-04 4.05294E-01-5.37978E-14-8.83107E-14
 -1       256 2.13207E+01 2.52003E-02 6.04924E-04 3.24319E-01-1.35948E-13-1.10628E-13
 -1       257 2.09754E+01 2.14421E-02 7.35058E-04 2.52848E-01-7.54412E-14-1.52961E-13
 -1       258 2.07051E+01 1.75324E-02 7.37245E-04 1.92920E-01-1.65904E-13-2.21512E-15
 -1       259 2.04976E+01 1.39465E-02 6.73207E-04 1.44337E-01-8.26125E-14 2.76168E-14
 -1       260 2.03413E+01 1.08631E-02 5.81583E-04 1.05907E-01 7.48988E-14 4.69668E-14
 -1       261 2.02259E+01 8.31259E-03 4.84307E-04 7.60958E-02 6.60394E-14 8.61163E-14
 -1       262 2.01424E+01 6.25745E-03 3.92679E-04 5.33641E-02 1.39497E-13-3.37242E-13
 -1       263 2.00833E+01 4.63400E-03 3.11730E-04 3.63110E-02 1.65536E-13-3.25346E-13
 -1       264 2.00428E+01 3.37288E-03 2.43012E-04 2.37283E-02-1.24084E-13-1.83786E-13
 -1       265 2.00160E+01 2.40840E-03 1.86254E-04 1.46076E-02-3.84747E-14 7.46516E-15
 -1       266 1.99993E+01 1.68210E-03 1.40310E-04 8.12691E-03 1.73435E-13-1.27121E-13
 -1       267 1.99898E+01 1.14368E-03 1.03677E-04 3.62862E-03 1.05070E-14 4.91237E-14
 -1       268 1.99853E+01 7.50562E-04 7.47667E-05 5.96918E-04-8.76534E-14-2.91365E-13
 -1       269 1.99842E+01 4.66883E-04 5.20388E-05-1.36364E-03-3.85566E-13 2.10280E-13
 -1       270 1.99853E+01 2.62096E-04 3.41369E-05-2.54629E-03 8.42749E-14 2.64279E-13
 -1       271 1.99877E+01 1.08772E-04 2.02512E-05-3.15540E-03-1.10412E-13 1.82165E-13
 -1       272 1.99908E+01-2.00367E-05 1.10624E-05-3.31327E-03 1.53418E-13-4.67494E-14
 -1       273 1.99940E+01-1.51822E-04 9.52729E-06-3.06212E-03 2.89701E-13-3.09651E-13
 -1       274 1.99968E+01-3.31591E-04 1.13565E-05-2.36385E-03 3.48584E-13-1.39518E-13
 -1       275 1.99988E+01-5.26877E-04 8.80076E-06-1.18231E-03-1.22479E-13-3.47531E-13
 -1       276 1.99992E+01-1.82087E-03-4.24221E-06-1.93729E-03 2.33974E-13-1.17861E-13
 -1       277 1.99996E+01-3.96070E-03-3.23900E-06-2.82493E-03 2.40009E-13 5.25842E-13
 -1       278 1.99998E+01-6.41989E-03-1.82413E-06-3.05537E-03 5.10640E-13 2.40923E-13
 -1       279 2.00000E+01-8.84159E-03 2.47028E-06-2.79614E-03 2.78875E-13-4.72563E-13
 -1       280 2.00001E+01-1.09030E-02 7.17995E-06-2.25057E-03-1.33470E-13-7.34032E-13
 -1       281 2.00001E+01-1.24912E-02 1.06486E-05-1.54251E-03-8.34300E-14-2.33728E-13
 -1       282 2.00001E+01-1.34615E-02 1.26662E-05-7.67100E-04 2.56372E-13 1.25810E-13
 -1       283 2.00001E+01-1.37720E-02 1.32714E-05 2.77192E-05 9.86392E-14 2.49799E-13
 -1       284 2.00001E+01-1.34140E-02 1.25760E-05 8.17350E-04 6.75726E-14 8.75049E-14
 -1       285 2.00001E+01-1.24044E-02 1.04484E-05 1.57890E-03-1.82672E-13-4.63913E-13
 -1       286 2.00001E+01-1.08254E-02 6.75899E-06 2.25739E-03-2.23380E-13-3.60347E-13
 -1       287 2.00000E+01-8.72437E-03 2.17816E-06 2.79084E-03-3.78962E-14 7.60821E-13
 -1       288 1.99998E+01-6.31761E-03-3.12359E-06 3.03351E-03 1.34120E-13 1.50233E-13
 -1       289 1.99995E+01-3.86944E-03-6.81656E-06 2.74409E-03-6.73302E-15 1.55128E-13
 -1       290 1.99990E+01-2.09580E-03-1.18084E-05 2.72371E-03-5.95560E-14-2.30259E-13
 -1       291-8.59195E-01-1.03814E+01-8.94079E-01 9.95286E-01 2.60902E-15 5.77496E-13
 -1       292 3.33681E+00-7.97390E+00-6.23460E-01 3.97279E+00 2.04531E-13 1.01254E-12
 -1       293 9.53973E+00-5.05612E+00-5.20274E-01 5.39856E+00 8.75355E-13 1.04591E-12
 -1       294 2.00849E+01-1.67875E+00-9.57858E-02 6.86877E+00 9.04471E-13 1.32117E-12
 -1       295 3.02435E+01 2.41600E+00 3.40499E-01 7.30609E+00 1.25214E-12 1.02351E-12
 -1       296 3.89594E+01 4.63700E+00 6.12292E-01 4.86493E+00 1.06818E-12 3.39201E-13
 -1       297 4.31816E+01 6.84702E+00 6.87908E-01 1.64334E+00 1.06781E-12-3.11293E-13
 -1       298 4.64877E+01 6.85273E+00 9.61307E-01-9.82241E-01 1.07223E-12-6.54372E-13
 -1       299 4.24850E+01 5.88718E+00 7.84523E-01-3.77996E+00 1.17820E-12-1.08624E-12
 -1       300 3.55125E+01 3.92347E+00 5.81559E-01-6.99800E+00 1.45314E-12-1.73234E-12
 -1       301 2.55865E+01 7.35964E-01 1.37825E-01-7.28253E+00 1.41318E-12-1.82049E-12
 -1       302 1.47673E+01-2.62582E+00-3.02265E-01-6.54516E+00 1.54921E-12-1.69442E-12
 -1       303 6.05956E+00-6.83187E+00-7.05960E-01-4.43045E+00 1.23160E-12-1.25028E-12
 -1       304 8.10716E-01-1.00000E+01-9.32309E-01-2.27434E+00 5.75984E-13-1.18291E-12
 -1       305-1.25398E+00-1.07676E+01-9.40554E-01-2.24438E-01-1.28706E-13-1.17070E-12
 -1       306 1.49166E-01-9.86612E+00-8.44134E-01 2.22437E+00-8.23022E-13-1.28933E-12
 -1       307 5.68450E+00-6.97961E+00-5.08745E-01 5.15901E+00-1.10817E-12-1.27346E-12
 -1       308 1.54921E+01-4.34759E+00-1.92268E-01 6.84749E+00-1.17359E-12-1.15448E-12
 -1       309 2.38768E+01 9.87566E-01 1.24193E-01 7.64073E+00-1.70816E-12-1.69520E-12
 -1       310 3.42758E+01 3.73938E+00 4.85301E-01 6.43639E+00-1.50313E-12-1.30845E-12
 -1       311 4.29248E+01 5.94077E+00 8.93923E-01 4.78352E+00-1.14074E-12-9.38749E-13
 -1       312 4.59389E+01 6.83498E+00 9.68562E-01 1.00876E+00-1.00722E-12-3.36661E-13
 -1       313 4.54673E+01 6.40254E+00 9.98073E-01-2.95508E+00-1.26409E-12 4.76535E-13
 -1       314 3.93959E+01 5.22722E+00 7.58553E-01-6.13085E+00-9.93927E-13 1.16854E-12
 -1       315 3.00629E+01 2.31589E+00 3.07385E-01-6.86754E+00-7.74172E-13 1.31006E-12
 -1       316 1.94676E+01-2.91407E-01-4.51415E-02-7.40359E+00-1.02751E-12 1.16263E-12
 -1       317 9.79883E+00-4.43628E+00-4.82839E-01-5.66528E+00-1.18022E-12 9.82409E-13
 -1       318 3.17321E+00-8.00283E+00-6.81036E-01-3.95669E+00-7.00079E-13 9.66741E-13
 -1       319-8.54155E-01-1.08667E+01-9.83082E-01-1.23387E+00-3.35565E-13 8.45532E-13
 -1       320 2.04041E+01 3.05752E+00-1.78774E-02-1.71144E+00-5.16819E-13-4.79905E-13
 -1       321 2.11296E+01 2.20108E+00-1.68214E-02-2.00811E+00-5.97030E-13-1.48196E-13
 -1       322 1.94886E+01 3.86321E+00-1.44805E-02-9.48134E-01-2.69010E-13-7.95739E-13
 -1       323 1.91915E+01 4.08018E+00-1.18847E-02-6.20811E-01-1.53146E-13-8.42324E-13
 -1       324 1.89852E+01 4.22024E+00-1.03825E-02-3.38330E-01-2.96188E-14-8.41336E-13
 -1       325 1.88747E+01 4.29355E+00-9.66375E-03-8.73179E-02 8.03191E-14-8.26428E-13
 -1       326 1.88659E+01 4.30231E+00-9.62929E-03 1.49341E-01 1.85861E-13-8.15445E-13
 -1       327 1.89628E+01 4.24367E+00-1.02805E-02 3.90931E-01 2.78345E-13-7.85739E-13
 -1       328 1.91610E+01 4.11362E+00-1.17644E-02 6.52318E-01 3.73249E-13-7.17504E-13
 -1       329 1.94677E+01 3.89316E+00-1.42734E-02 9.59167E-01 4.86461E-13-5.94491E-13
 -1       330 1.98861E+01 3.55187E+00-1.80514E-02 1.31543E+00 5.84360E-13-4.20492E-13
 -1       331 2.04467E+01 3.02055E+00-2.19648E-02 1.69941E+00 6.57958E-13-1.76744E-13
 -1       332 2.11430E+01 2.13382E+00-2.90035E-02 1.94314E+00 6.62203E-13 3.06928E-13
 -1       333 2.15343E+01 1.17726E+00-2.26470E-02 1.60922E+00 5.96849E-13 7.33810E-13
 -1       334 2.09965E+01 5.12105E-01 9.48487E-03 5.84515E-01 4.95408E-13 5.64405E-13
 -1       335 2.09966E+01 7.04785E-01 1.31050E-02-6.47761E-01-4.78610E-13-4.50357E-14
 -1       336 2.07348E+01 3.89605E-01 7.66437E-03-2.88570E-02-3.76807E-13-7.82696E-14
 -1       337 2.06715E+01 2.39753E-01 4.64039E-03 3.45881E-01-2.52149E-13-1.02338E-13
 -1       338 2.07581E+01 1.48793E-01 2.24362E-03 5.84517E-01-1.94879E-13-1.65879E-13
 -1       339 2.09542E+01 7.36574E-02 7.39480E-04 7.27217E-01-1.55830E-13-1.50392E-13
 -1       340 2.12242E+01-9.57739E-03-4.75709E-04 7.81569E-01-9.35047E-14-1.35829E-13
 -1       341 2.15358E+01-1.15448E-01-1.72830E-03 7.35043E-01-5.37958E-14-1.55119E-13
 -1       342 2.18546E+01-2.48395E-01-3.03021E-03 5.64077E-01-1.10504E-13-1.61484E-13
 -1       343 2.21390E+01-3.94993E-01-4.09203E-03 2.47031E-01-3.95458E-14-1.80669E-13
 -1       344 2.23353E+01-5.13123E-01-4.40922E-03-2.13487E-01-4.13810E-14-1.39909E-13
 -1       345 2.23806E+01-5.28601E-01-3.53948E-03-7.58800E-01-1.35514E-13-2.33102E-13
 -1       346 2.22222E+01-3.57656E-01-1.63125E-03-1.24608E+00-6.08952E-14-2.37569E-13
 -1       347 2.18650E+01 2.94003E-02 1.50149E-03-1.45833E+00-1.63930E-13-1.60994E-13
 -1       348 2.14259E+01 5.21314E-01 3.60996E-03-1.20275E+00-1.92525E-13-2.18529E-13
 -1       349 2.11141E+01 8.87762E-01 4.38767E-03-4.69036E-01-1.68304E-13-2.86310E-13
 -1       350 2.11186E+01 9.04083E-01 4.34811E-03 4.83304E-01-1.08707E-13-3.27837E-13
 -1       351 2.14463E+01 5.62894E-01 3.55581E-03 1.24942E+00-1.11512E-13-2.73775E-13
 -1       352 2.19214E+01 7.26293E-02 1.65616E-03 1.55066E+00-9.56677E-14-4.03098E-13
 -1       353 2.23282E+01-3.22887E-01-1.08055E-03 1.37839E+00-2.83916E-14-3.83369E-13
 -1       354 2.25440E+01-5.07134E-01-3.37425E-03 9.18341E-01 2.25486E-14-5.97712E-13
 -1       355 2.25574E+01-5.01482E-01-4.22859E-03 3.87547E-01 1.35317E-13-4.59046E-13
 -1       356 2.24169E+01-3.89087E-01-4.00406E-03-6.68792E-02 2.32791E-13-4.36524E-13
 -1       357 2.21825E+01-2.47023E-01-3.02661E-03-3.84198E-01 2.01371E-13-4.16105E-13
 -1       358 2.19035E+01-1.20999E-01-1.84598E-03-5.63540E-01 9.91585E-14-3.76504E-13
 -1       359 2.16138E+01-2.83560E-02-8.07729E-04-6.32381E-01 9.87714E-14-1.40604E-13
 -1       360 2.13351E+01 3.04842E-02-5.02799E-05-6.25104E-01 3.13884E-15-7.92620E-14
 -1       361 2.10803E+01 6.22389E-02 4.24539E-04-5.72238E-01-1.09027E-13-2.03956E-13
 -1       362 2.08560E+01 7.50308E-02 6.70905E-04-4.96847E-01-5.82560E-14-2.97095E-13
 -1       363 2.06644E+01 7.58760E-02 7.56464E-04-4.14545E-01 8.90976E-14-3.08686E-13
 -1       364 2.05052E+01 6.99919E-02 7.41134E-04-3.34911E-01-9.41863E-15-7.77472E-14
 -1       365 2.03759E+01 6.09108E-02 6.70253E-04-2.63149E-01-4.69428E-14 1.16449E-13
 -1       366 2.02732E+01 5.08515E-02 5.74729E-04-2.01530E-01 2.17304E-14 2.54751E-14
 -1       367 2.01933E+01 4.11022E-02 4.73879E-04-1.50501E-01-7.47318E-14-2.67750E-14
 -1       368 2.01325E+01 3.23334E-02 3.78702E-04-1.09460E-01-6.88663E-14-1.40831E-13
 -1       369 2.00873E+01 2.48258E-02 2.94657E-04-7.72731E-02-1.17586E-13-1.53120E-13
 -1       370 2.00545E+01 1.86277E-02 2.23740E-04-5.26038E-02 2.70241E-13 7.64995E-14
 -1       371 2.00313E+01 1.36580E-02 1.65918E-04-3.41114E-02 1.76899E-13-1.67397E-13
 -1       372 2.00155E+01 9.77143E-03 1.20057E-04-2.05586E-02-1.24196E-13-5.54643E-14
 -1       373 2.00052E+01 6.79788E-03 8.45064E-05-1.08657E-02-3.25139E-13 2.11548E-13
 -1       374 1.99991E+01 4.56516E-03 5.74368E-05-4.12965E-03-1.36154E-13 3.76156E-13
 -1       375 1.99958E+01 2.91029E-03 3.70217E-05 3.76575E-04 1.69783E-13 3.09594E-13
 -1       376 1.99945E+01 1.68288E-03 2.15474E-05 3.21394E-03 4.36002E-13 2.10680E-13
 -1       377 1.99946E+01 7.43192E-04 9.49473E-06 4.79061E-03 1.56280E-13 4.71428E-14
 -1       378 1.99954E+01-3.95420E-05 2.71821E-07 5.37444E-03 7.89480E-16-3.07265E-14
 -1       379 1.99966E+01-7.96712E-04-9.06716E-06 5.12453E-03-5.19754E-14 3.74171E-14
 -1       380 1.99977E+01-1.45246E-03-1.72558E-05 4.20058E-03-6.47664E-14-5.60804E-15
 -1       381 2.07077E+01 2.78009E-01 1.16643E-02-4.60065E-03 3.77837E-13 4.38582E-13
 -1       382 2.06822E+01 1.86506E-01 7.30216E-03-3.73075E-01 2.55495E-13 3.06755E-13
 -1       383 2.08672E+01 1.44338E-01 4.08222E-03-6.35898E-01 1.61888E-13 2.29853E-13
 -1       384 2.12104E+01 1.18411E-01 2.31554E-03-8.40806E-01 1.23782E-13 1.28986E-13
 -1       385 2.16744E+01 8.85049E-02 9.81274E-04-9.99711E-01 1.16116E-13 6.60199E-14
 -1       386 2.22276E+01 3.56591E-02-5.88962E-04-1.09727E+00 1.28760E-13 6.45119E-14
 -1       387 2.28338E+01-6.09720E-02-2.62781E-03-1.09141E+00 6.94097E-14 8.86062E-14
 -1       388 2.34436E+01-2.19060E-01-4.91861E-03-9.14462E-01-8.43160E-14 1.89407E-13
 -1       389 2.39837E+01-4.34344E-01-6.71208E-03-4.88028E-01-6.76351E-14 2.10804E-13
 -1       390 2.43473E+01-6.44595E-01-6.80047E-03 2.29042E-01-3.01573E-14 2.57790E-13
 -1       391 2.43963E+01-6.97597E-01-5.99664E-03 1.14425E+00-3.75351E-15 2.80833E-13
 -1       392 2.40217E+01-3.94346E-01-5.27399E-03 1.92569E+00 6.57484E-14 2.83077E-13
 -1       393 2.32925E+01 3.06355E-01-7.55518E-03 2.04287E+00 1.80407E-14 2.79095E-13
 -1       394 2.25952E+01 1.05025E+00-1.25893E-02 1.13856E+00 1.56472E-13 2.14224E-13
 -1       395 2.24570E+01 1.25071E+00-9.32733E-03-4.56046E-01 3.42009E-13 2.41493E-14
 -1       396 2.30093E+01 7.29105E-01-4.71680E-03-1.80221E+00 3.14236E-13-1.63277E-13
 -1       397 2.38571E+01-7.21878E-02-2.85925E-04-2.18647E+00 1.54667E-13-3.62753E-13
 -1       398 2.44705E+01-5.90084E-01-4.44036E-03-1.67425E+00 2.95710E-14-4.39774E-13
 -1       399 2.46567E+01-6.98291E-01-8.04927E-03-7.70946E-01-1.08260E-13-3.17783E-13
 -1       400 2.44641E+01-5.41320E-01-8.80489E-03 6.07104E-02 9.61969E-14-2.25920E-13
 -1       401 2.40383E+01-3.13875E-01-7.16227E-03 6.19274E-01-8.42078E-14-2.79180E-13
 -1       402 2.35039E+01-1.24083E-01-4.43514E-03 8.98726E-01-3.27689E-13-2.47895E-13
 -1       403 2.29443E+01-1.07738E-03-1.85742E-03 9.72402E-01-2.02023E-13-1.82948E-13
 -1       404 2.24100E+01 6.41296E-02-1.09355E-05 9.22144E-01 1.60517E-13-1.89570E-13
 -1       405 2.19286E+01 9.03479E-02 1.04378E-03 8.10955E-01 1.44636E-13 9.60966E-14
 -1       406 2.15122E+01 9.40618E-02 1.50242E-03 6.79274E-01 2.85224E-14 1.70503E-13
 -1       407 2.11632E+01 8.65226E-02 1.58864E-03 5.49801E-01 3.50547E-14 2.05158E-13
 -1       408 2.08783E+01 7.44423E-02 1.47619E-03 4.33536E-01-4.74967E-15 2.36434E-13
 -1       409 2.06506E+01 6.14418E-02 1.27788E-03 3.34560E-01-8.19501E-14 8.59787E-14
 -1       410 2.04721E+01 4.92782E-02 1.05820E-03 2.53226E-01-5.58532E-15-1.54752E-13
 -1       411 2.03348E+01 3.86711E-02 8.49867E-04 1.88083E-01-1.28494E-13-1.24948E-13
 -1       412 2.02311E+01 2.98006E-02 6.66977E-04 1.36958E-01 2.07681E-13-8.19705E-14
 -1       413 2.01541E+01 2.25877E-02 5.13565E-04 9.75331E-02 2.94800E-13 5.51313E-14
 -1       414 2.00981E+01 1.68448E-02 3.88713E-04 6.76246E-02 1.54705E-13 1.23977E-13
 -1       415 2.00584E+01 1.23512E-02 2.89344E-04 4.53013E-02-1.82952E-13-1.51935E-14
 -1       416 2.00311E+01 8.89066E-03 2.11672E-04 2.89207E-02-1.21728E-14-1.34906E-13
 -1       417 2.00129E+01 6.26622E-03 1.51907E-04 1.71228E-02 5.07586E-14-1.12698E-13
 -1       418 2.00016E+01 4.30593E-03 1.06562E-04 8.80595E-03 1.29001E-13 1.82775E-13
 -1       419 1.99951E+01 2.86258E-03 7.25494E-05 3.09555E-03-1.06055E-13 2.32067E-14
 -1       420 1.99920E+01 1.81123E-03 4.71858E-05-6.86718E-04-3.70679E-13 9.23816E-14
 -1       421 1.99912E+01 1.04535E-03 2.81378E-05-3.05095E-03-8.44001E-14 6.83460E-14
 -1       422 1.99918E+01 4.71079E-04 1.34542E-05-4.36234E-03-1.24901E-14 8.06602E-14
 -1       423 1.99934E+01-8.37548E-07 2.33443E-06-4.85714E-03 2.63806E-13-7.47121E-14
 -1       424 1.99953E+01-4.50557E-04-5.18722E-06-4.65298E-03 3.30807E-13-6.55252E-14
 -1       425 1.99972E+01-9.59272E-04-8.24661E-06-3.78055E-03 1.47699E-13 1.23981E-13
 -1       426 1.99983E+01-1.40657E-03-1.08094E-05-2.97806E-03 1.45447E-13 2.25727E-13
 -1       427 2.00002E+01-5.12269E-03 1.66210E-06-4.62637E-03 1.72129E-13-8.09343E-14
 -1       428 1.99995E+01-3.68756E-03-8.69899E-06-4.74430E-03 2.47309E-13 4.53172E-13
 -1       429 1.99988E+01-2.60343E-03-1.50220E-05-4.13787E-03 3.98906E-13 9.02245E-14
 -1       430 2.00007E+01-6.32611E-03 7.21776E-06-3.95715E-03 1.49269E-13-1.19792E-12
 -1       431 2.00009E+01-7.27505E-03 1.05302E-05-2.95546E-03 2.29790E-13-4.42540E-13
 -1       432 2.00010E+01-7.90753E-03 1.25252E-05-1.79308E-03 1.95291E-13 2.91107E-13
 -1       433 2.00010E+01-8.21354E-03 1.33809E-05-5.70024E-04-4.04871E-14 8.34248E-14
 -1       434 2.00010E+01-8.19423E-03 1.33346E-05 6.61344E-04 1.34989E-13 1.55621E-13
 -1       435 2.00010E+01-7.85317E-03 1.23686E-05 1.86803E-03-1.93834E-13-4.93735E-13
 -1       436 2.00009E+01-7.20861E-03 1.02317E-05 2.98388E-03-1.87401E-13-6.73941E-13
 -1       437 2.00006E+01-6.25312E-03 6.64557E-06 3.95486E-03 4.12968E-14 6.32137E-13
 -1       438 2.00002E+01-5.02769E-03 1.09443E-06 4.60459E-03 1.01723E-13 4.10373E-13
 -1       439 1.99995E+01-3.63407E-03-9.85311E-06 4.74705E-03-8.19185E-14-1.71216E-13
 -1       440 1.18477E+01-5.59713E+00 1.08840E-02 6.89681E+00-3.41158E-13 9.38506E-13
 -1       441 8.85820E-01-4.75616E+00-1.01371E-01-3.27916E-01-2.84938E-13 7.42212E-13
 -1       442 4.26415E+00-3.90279E+00 6.12046E-02 4.17357E+00-2.30684E-13 7.82457E-13
 -1       443 1.93644E+01-5.75892E+00-2.86489E-02 6.41515E+00-6.45178E-14 5.39138E-13
 -1       444 2.80845E+01-3.27997E+00 1.71797E-02 3.49697E+00 2.07875E-13-2.13274E-13
 -1       445 1.98934E+01 3.53737E+00-1.70328E-02-1.33439E+00-4.10170E-13-6.96023E-13
 -1       446 3.41331E+01 4.79309E+00-5.02142E-02-1.08081E+00 9.36071E-13-7.83568E-13
 -1       447 3.52111E+01 7.91275E+00 1.29607E-03-2.64320E-01 1.17684E-12-5.48958E-13
 -1       448 3.56485E+01 7.12055E+00 4.00330E-02 4.76901E-01 1.10520E-12-4.78770E-13
 -1       449 3.48158E+01 3.16049E+00 6.93068E-02-6.25857E-01 1.04439E-12-5.09481E-13
 -1       450 3.14324E+01-5.23570E-01 7.26504E-02-2.77607E+00 7.49692E-13-7.16288E-13
 -1       451 2.39353E+01-4.56352E+00-2.98110E-02-5.43790E+00 4.46282E-13-8.13738E-13
 -1       452 1.51735E+01-5.83076E+00-7.26155E-02-6.93671E+00 2.99788E-13-1.05106E-12
 -1       453 6.98313E+00-5.76214E+00-1.13055E-01-5.94416E+00 3.59851E-14-1.06272E-12
 -1       454 2.17832E+00-4.83942E+00-7.42941E-02-2.84087E+00-2.64372E-14-1.34263E-12
 -1       455 1.93428E+00-3.81115E+00 3.63190E-03 1.87167E+00 1.31700E-14-1.36044E-12
 -1       456 5.39414E+00-4.69941E+00 2.21664E-03 5.41594E+00-1.12410E-14-1.22165E-12
 -1       457 1.45096E+01-5.39085E+00 6.94157E-02 7.37949E+00 1.05221E-13-6.44877E-13
 -1       458 2.41740E+01-4.31992E+00 1.79871E-02 5.25309E+00-4.92745E-13-3.80820E-13
 -1       459 2.96174E+01-1.58180E+00-2.73504E-02 2.71323E+00-7.54712E-13-1.81827E-13
 -1       460 3.41629E+01 3.80186E+00 5.92081E-02 6.94339E-01-1.13341E-12-2.43153E-13
 -1       461 3.50677E+01 7.13524E+00 2.35525E-02-2.24480E-01-1.15173E-12-2.21691E-13
 -1       462 3.57191E+01 7.98582E+00 3.96469E-02 1.49124E-01-1.30648E-12-2.75512E-13
 -1       463 3.44000E+01 5.64650E+00 4.74286E-03 2.64732E-01-8.85764E-13-5.38861E-13
 -1       464 3.26991E+01 1.68465E+00 4.47465E-02-1.47011E+00-4.33834E-13-1.58068E-13
 -1       465 2.68661E+01-3.02728E+00-1.46087E-02-4.27928E+00 2.60347E-14 3.75297E-13
 -1       466 1.93534E+01-5.03608E+00-2.73477E-02-6.64651E+00-2.17465E-13 2.10880E-13
 -1       467 1.10782E+01-5.54360E+00-4.36052E-02-7.03871E+00-1.14742E-13 4.67869E-13
 -1       468 3.58010E+00-4.65554E+00-5.20934E-02-4.40691E+00-5.34989E-14 1.06330E-12
 -1       469 3.23024E+01 1.88320E-01-1.01408E-02 1.11655E+00 6.24380E-13-4.20206E-13
 -1       470 2.12642E+01-5.81068E+00 3.68817E-02 5.95836E+00 2.98109E-13-3.20682E-13
 -1       471 2.08924E+01 9.35872E-01 4.43390E-03 4.52033E-01 5.18913E-13 7.92457E-14
 -1       472 1.92963E+01 3.48687E+00-4.43118E-03-3.21886E-01-7.65382E-14-7.52931E-13
 -1       473 1.95813E+01 3.23145E+00-5.06262E-03-5.42855E-01-1.92418E-13-7.37661E-13
 -1       474 1.90378E+01 3.70563E+00-3.87688E-03 4.18448E-02 1.22193E-13-7.45547E-13
 -1       475 1.90840E+01 3.67161E+00-3.99231E-03 2.04809E-01 2.15683E-13-7.36734E-13
 -1       476 1.92481E+01 3.53824E+00-4.40452E-03 3.73148E-01 3.17244E-13-6.86701E-13
 -1       477 1.95300E+01 3.29107E+00-5.31603E-03 5.63374E-01 4.19589E-13-5.78930E-13
 -1       478 1.99191E+01 2.91162E+00-6.20137E-03 7.75615E-01 4.98321E-13-4.49897E-13
 -1       479 2.04065E+01 2.36268E+00-5.48060E-03 9.87991E-01 5.81344E-13-2.81099E-13
 -1       480 2.07722E+01 6.08925E-01 5.65044E-03-1.66827E-01 3.84225E-13 4.90515E-14
 -1       481 2.07696E+01 1.07246E+00 2.89550E-03-4.31957E-01-4.20642E-13-2.70963E-13
 -1       482 3.06395E+01 1.13852E+00-1.32897E-01-1.88065E+00 6.61700E-13-7.88716E-13
 -1       483 2.07030E+01 6.73882E-01 2.58148E-03 1.27441E-01-3.08879E-13-2.30727E-13
 -1       484 2.06904E+01 4.37471E-01 1.32838E-03 5.23977E-01-2.53427E-13-2.15911E-13
 -1       485 2.07579E+01 2.67281E-01 5.76092E-04 7.95650E-01-1.95678E-13-2.18900E-13
 -1       486 2.09063E+01 1.06342E-01 3.19803E-05 9.62058E-01-1.19292E-13-2.25945E-13
 -1       487 2.11334E+01-8.18098E-02-5.01495E-04 1.02093E+00-8.10410E-14-2.42029E-13
 -1       488 2.14376E+01-3.18886E-01-1.12062E-03 9.51939E-01-8.29124E-14-2.27795E-13
 -1       489 2.18133E+01-6.03586E-01-1.76220E-03 7.22998E-01-8.27192E-14-1.65877E-13
 -1       490 2.22375E+01-8.92195E-01-2.10941E-03 3.04010E-01 5.86304E-15-9.79989E-14
 -1       491 2.26504E+01-1.07659E+00-1.83146E-03-3.02674E-01-8.07434E-14 1.04784E-14
 -1       492 2.29442E+01-9.87671E-01-1.41498E-03-1.01277E+00-1.23468E-13 6.47655E-14
 -1       493 2.29853E+01-4.61660E-01-3.19286E-03-1.60821E+00-1.01201E-13-4.28270E-14
 -1       494 2.27384E+01 4.78424E-01-1.79375E-03-1.73516E+00-2.14402E-13 3.46381E-15
 -1       495 2.23549E+01 1.47189E+00-3.82297E-03-1.16566E+00-2.41467E-13-1.60652E-14
 -1       496 2.21694E+01 1.92382E+00-6.30648E-03 5.42489E-03-2.46248E-13-1.06355E-13
 -1       497 2.23530E+01 1.53369E+00-4.82847E-03 1.19887E+00-1.63399E-13-3.13620E-13
 -1       498 2.27496E+01 5.72186E-01-2.17189E-03 1.83838E+00-2.00030E-13-4.41814E-13
 -1       499 2.30377E+01-3.82006E-01-1.32877E-03 1.75849E+00-4.67587E-14-4.06448E-13
 -1       500 2.30352E+01-9.35672E-01-1.73496E-03 1.20264E+00-1.64992E-14-3.49990E-13
 -1       501 2.27775E+01-1.05018E+00-1.75419E-03 5.08916E-01 1.68474E-13-2.20235E-13
 -1       502 2.23886E+01-8.80816E-01-2.08665E-03-9.38952E-02 2.00536E-13-3.02064E-13
 -1       503 2.19791E+01-6.03396E-01-1.75192E-03-5.16964E-01 1.75258E-13-3.75156E-13
 -1       504 2.16071E+01-3.32748E-01-1.15163E-03-7.59780E-01 9.34127E-14-4.64574E-13
 -1       505 2.12923E+01-1.20456E-01-5.74188E-04-8.58734E-01 1.56553E-13-5.83419E-13
 -1       506 2.10333E+01 2.32278E-02-1.50444E-04-8.57774E-01 5.24639E-14-5.21493E-13
 -1       507 2.08219E+01 1.07682E-01 1.20598E-04-7.95308E-01-8.81228E-14-4.34274E-13
 -1       508 2.06495E+01 1.48218E-01 2.68796E-04-7.00514E-01-6.92625E-14-1.61200E-13
 -1       509 2.05087E+01 1.59461E-01 3.30356E-04-5.93631E-01-9.15621E-15-7.64533E-14
 -1       510 2.03940E+01 1.52997E-01 3.36614E-04-4.87597E-01 9.34968E-14-3.27057E-14
 -1       511 2.03012E+01 1.37096E-01 3.11338E-04-3.89921E-01 9.29828E-14-8.63238E-14
 -1       512 2.02267E+01 1.17226E-01 2.70917E-04-3.04328E-01-2.67473E-14 2.35283E-14
 -1       513 2.01677E+01 9.67584E-02 2.25746E-04-2.32055E-01-3.64899E-14 1.24214E-13
 -1       514 2.01216E+01 7.76061E-02 1.81887E-04-1.72816E-01-2.72820E-13 1.02636E-13
 -1       515 2.00861E+01 6.07159E-02 1.42485E-04-1.25470E-01-7.35840E-14 2.24418E-13
 -1       516 2.00593E+01 4.64291E-02 1.08846E-04-8.84770E-02 8.32148E-14 2.19267E-13
 -1       517 2.00395E+01 3.47269E-02 8.11800E-05-6.01826E-02 3.40455E-14-1.08361E-13
 -1       518 2.00250E+01 2.53933E-02 5.90918E-05-3.89917E-02 6.39417E-14 3.91927E-14
 -1       519 2.00149E+01 1.81178E-02 4.18891E-05-2.34643E-02-4.51227E-14 1.65488E-13
 -1       520 2.00080E+01 1.25581E-02 2.87753E-05-1.23594E-02-1.98191E-14 6.53345E-13
 -1       521 2.00035E+01 8.37614E-03 1.89020E-05-4.64937E-03-8.43386E-14 5.02656E-13
 -1       522 2.00007E+01 5.25544E-03 1.14805E-05 4.87226E-04 2.07267E-13 4.90920E-13
 -1       523 1.99992E+01 2.90518E-03 5.84941E-06 3.68111E-03 9.26530E-14 3.86033E-13
 -1       524 1.99986E+01 1.05606E-03 1.80544E-06 5.38691E-03 4.20621E-14 2.91772E-13
 -1       525 1.99985E+01-5.34059E-04-1.53975E-06 5.90933E-03 2.43517E-14 7.19245E-14
 -1       526 2.08632E+01 3.51648E-01 1.83692E-03-9.62070E-01 2.06346E-13-2.99807E-14
 -1       527 2.10652E+01 2.77840E-01 1.03742E-03-1.23846E+00 1.68863E-13-8.55365E-14
 -1       528 2.13602E+01 1.78736E-01 2.26302E-04-1.44832E+00 1.11872E-13-1.02923E-13
 -1       529 2.17502E+01 9.54551E-03-9.32788E-04-1.56631E+00 2.30619E-14-2.91241E-14
 -1       530 2.22499E+01-2.75618E-01-2.56364E-03-1.53582E+00-6.15858E-14 6.41271E-14
 -1       531 2.28811E+01-7.02691E-01-4.45668E-03-1.26869E+00-6.55331E-14 1.54716E-14
 -1       532 2.36466E+01-1.22201E+00-5.97304E-03-6.61875E-01-5.57563E-14 4.06941E-14
 -1       533 2.44702E+01-1.61732E+00-5.92810E-03 3.39222E-01-6.84641E-14 1.17550E-13
 -1       534 2.51097E+01-1.45102E+00-1.15151E-02 1.58410E+00-2.05949E-14 1.95630E-13
 -1       535 2.52486E+01-3.05663E-01-2.19527E-02 2.50574E+00 1.14665E-14 2.42162E-13
 -1       536 2.48253E+01 1.58887E+00-4.17700E-02 2.24167E+00 8.98153E-14 2.56095E-13
 -1       537 2.44072E+01 2.90569E+00-5.63187E-02 4.82844E-01 4.36460E-13 6.31420E-14
 -1       538 2.45739E+01 2.39189E+00-5.24226E-02-1.69508E+00 5.16014E-13-1.64909E-13
 -1       539 2.50897E+01 5.84013E-01-4.30920E-02-2.73446E+00 3.65361E-13-3.58064E-13
 -1       540 2.53633E+01-1.05405E+00-6.66029E-03-2.26327E+00 1.12115E-13-4.04582E-13
 -1       541 2.49383E+01-1.63727E+00-1.00547E-02-1.05337E+00-4.79200E-14-4.25049E-13
 -1       542 2.41828E+01-1.42999E+00-7.27605E-03 9.47184E-02-6.87494E-14-4.21517E-13
 -1       543 2.34032E+01-9.25227E-01-5.43372E-03 8.75533E-01-1.82826E-14-1.77548E-13
 -1       544 2.27338E+01-4.41844E-01-3.55702E-03 1.27938E+00-1.88403E-13-1.01284E-13
 -1       545 2.21975E+01-9.77036E-02-1.66558E-03 1.40403E+00-2.79854E-13-3.16587E-13
 -1       546 2.17703E+01 1.04159E-01-2.25711E-04 1.35567E+00-5.63902E-14-3.75785E-13
 -1       547 2.14240E+01 2.00422E-01 6.06501E-04 1.21619E+00-6.21159E-14-2.35512E-13
 -1       548 2.11382E+01 2.30390E-01 9.84545E-04 1.03990E+00 3.19219E-14-9.60934E-14
 -1       549 2.09006E+01 2.23764E-01 1.07886E-03 8.59193E-01-8.03212E-14 4.56761E-14
 -1       550 2.07035E+01 1.99736E-01 1.01899E-03 6.91437E-01-3.22141E-14 1.01815E-13
 -1       551 2.05414E+01 1.69514E-01 8.89749E-04 5.44487E-01 8.15717E-14 6.62865E-14
 -1       552 2.04099E+01 1.39087E-01 7.40333E-04 4.20628E-01 5.12664E-14-1.17699E-14
 -1       553 2.03048E+01 1.11327E-01 5.96165E-04 3.19112E-01-1.12282E-13 1.85722E-13
 -1       554 2.02221E+01 8.73534E-02 4.68534E-04 2.37716E-01 3.50232E-14 2.13247E-13
 -1       555 2.01583E+01 6.73656E-02 3.61014E-04 1.73655E-01 3.29619E-13 2.65821E-13
 -1       556 2.01098E+01 5.11142E-02 2.73318E-04 1.24076E-01 1.45306E-13 3.88126E-14
 -1       557 2.00737E+01 3.81597E-02 2.03449E-04 8.63181E-02 1.67929E-13 4.93629E-14
 -1       558 2.00473E+01 2.80079E-02 1.48816E-04 5.80239E-02 1.50462E-13-2.47414E-13
 -1       559 2.00286E+01 2.01767E-02 1.06790E-04 3.71801E-02 1.10907E-14-3.34846E-13
 -1       560 2.00157E+01 1.42264E-02 7.49416E-05 2.21098E-02-3.79072E-14-3.27801E-13
 -1       561 2.00072E+01 9.77004E-03 5.11302E-05 1.14482E-02-4.85996E-14 5.38850E-14
 -1       562 2.00018E+01 6.47292E-03 3.35070E-05 4.10935E-03-1.85761E-13 2.39339E-14
 -1       563 1.99988E+01 4.04840E-03 2.04841E-05-7.48757E-04-1.63039E-13-8.01871E-14
 -1       564 1.99974E+01 2.25033E-03 1.06209E-05-3.75820E-03-6.32637E-14-5.27799E-14
 -1       565 1.99970E+01 8.60246E-04 3.16234E-06-5.37109E-03 1.58334E-13 1.28332E-13
 -1       566 1.99973E+01-3.26106E-04-4.92800E-06-5.89830E-03 2.02867E-13 3.46345E-13
 -1       567 1.99980E+01-1.46828E-03-9.24481E-06-5.50271E-03 1.58366E-13 4.60157E-13
 -1       568 2.00018E+01-3.12407E-03 4.02242E-06-3.96567E-03 6.35713E-13-6.68791E-13
 -1       569 2.00021E+01-3.21269E-03 4.96415E-06-2.68082E-03 6.09432E-13-2.83853E-13
 -1       570 2.00001E+01-2.45782E-03-3.24837E-06-5.67730E-03-7.85943E-15 1.17654E-13
 -1       571 2.00012E+01-2.89339E-03 2.78501E-06-5.02679E-03 2.13138E-14-5.78813E-13
 -1       572 2.00022E+01-3.22234E-03 5.74497E-06-1.31499E-03 1.71323E-13-2.09803E-14
 -1       573 2.00022E+01-3.20621E-03 5.98327E-06 6.31945E-05 4.40780E-14 2.43901E-13
 -1       574 2.00021E+01-3.18699E-03 5.78020E-06 1.42961E-03-6.39629E-14-3.39661E-13
 -1       575 2.00020E+01-3.15013E-03 4.94892E-06 2.74238E-03-8.26259E-14-5.64993E-13
 -1       576 2.00017E+01-3.04719E-03 3.40497E-06 3.98949E-03 1.94200E-13-7.85683E-14
 -1       577 2.00011E+01-2.79206E-03 1.22114E-06 5.02485E-03 5.44867E-14 6.78783E-13
 -1       578 2.00000E+01-2.33561E-03-2.30715E-06 5.59387E-03-1.47696E-13 3.73456E-15
 -1       579 4.76102E+00-1.45784E+00 1.68963E-01 1.29336E+00-2.28215E-13 6.76181E-13
 -1       580 1.09636E+01-3.31674E+00 1.43723E-01 6.02056E+00-4.69375E-13 7.56228E-13
 -1       581 5.17016E+00-1.54651E+00 1.74928E-01-2.61364E+00 6.52603E-14 6.16021E-13
 -1       582 2.07621E+01 4.43605E-01 3.17993E-03-6.15716E-01 2.66651E-13-3.13334E-15
 -1       583 1.87004E+01-5.19040E+00 9.40625E-02 6.10595E+00-5.33400E-13 3.36085E-13
 -1       584 2.49279E+01-5.55562E+00 3.67423E-03 3.74552E+00-3.91950E-13-4.20098E-13
 -1       585 2.07207E+01 1.82702E+00-6.11465E-03-1.08428E+00-4.95151E-13-3.74595E-13
 -1       586 9.83312E+00-3.60924E+00 1.21304E-01-6.40666E+00 3.36994E-13 6.81344E-13
 -1       587 1.21064E+01-3.33040E+00 1.52795E-01 6.37370E+00 4.36359E-13-6.03094E-13
 -1       588 4.78791E+00-1.37940E+00 1.75759E-01-1.03382E+00 1.35014E-14-1.26041E-12
 -1       589 1.91114E+01 3.64328E+00-4.02087E-03-1.29125E-01 3.20287E-14-7.46739E-13
 -1       590 2.91368E+01 5.56771E+00-2.11186E-01-1.68350E+00 8.73093E-13-5.83558E-13
 -1       591 2.16613E+01-5.90936E+00 3.11572E-02-5.69191E+00-1.69115E-13-4.65664E-13
 -1       592 3.01607E+01 6.66904E+00-1.78758E-01 6.36961E-01 9.79231E-13-3.20037E-13
 -1       593 3.05712E+01 3.82677E+00-1.64837E-01 2.17428E+00 7.69773E-13 1.57444E-14
 -1       594 3.09793E+01-3.08466E-01-9.46788E-02 8.37569E-01 4.90635E-13 3.16691E-14
 -1       595 2.83801E+01-4.07863E+00-2.29958E-02-1.80414E+00 2.56566E-14-7.05130E-14
 -1       596 1.43219E+01-4.79806E+00 1.11202E-01-6.85707E+00-3.13971E-13-8.51368E-13
 -1       597 7.49651E+00-3.03433E+00 1.42515E-01-5.12941E+00-2.31502E-13-1.00800E-12
 -1       598 7.66957E+00-1.83441E+00 1.94781E-01 4.55106E+00 3.43107E-13-1.10113E-12
 -1       599 3.01986E+01 4.43902E+00-1.54754E-01-1.71646E+00-8.96949E-13 3.83998E-14
 -1       600 2.73226E+01-4.19383E+00-3.34626E-02 2.41355E+00-2.20331E-13 1.74021E-13
 -1       601 2.99807E+01-1.09954E-01-9.50329E-02-6.70514E-01-6.25739E-13 2.00916E-13
 -1       602 2.98100E+01 7.28527E+00-1.75936E-01-4.02302E-01-1.05285E-12-2.88462E-13
 -1       603 3.04861E+01 6.50830E+00-1.59686E-01 1.24995E+00-8.57106E-13-6.41941E-13
 -1       604 2.98757E+01 2.12535E+00-1.48138E-01 1.76977E+00-3.32047E-13-9.09106E-13
 -1       605 2.91085E+01-2.12171E+00-5.50905E-02-4.42660E-01 8.23152E-14-6.47135E-13
 -1       606 2.43452E+01-5.25653E+00-2.72700E-03-4.47940E+00 2.63185E-13-1.10120E-14
 -1       607 1.78471E+01-5.38575E+00 7.37922E-02-6.79342E+00 2.02019E-13 4.51245E-14
 -1       608 2.94121E+01-2.83224E+00-6.45909E-02 7.77257E-02 1.07264E-13-6.85750E-13
 -1       609 2.10395E+01 1.35397E+00-6.03430E-04 1.10913E+00 5.99424E-13 1.71503E-13
 -1       610 2.80728E+01 2.85625E+00-1.14184E-01-2.74750E+00 7.25690E-13-6.44040E-13
 -1       611 1.99441E+01 2.86004E+00-8.71367E-03-7.78788E-01-3.14829E-13-6.61949E-13
 -1       612 8.94189E+00-1.21752E+00 1.58480E-01 3.90214E+00-3.73736E-13 5.93969E-13
 -1       613 1.71872E+01-4.28064E+00 7.87242E-02 6.21078E+00 4.51066E-13-4.21142E-13
 -1       614 1.99987E+01-1.55818E-03-5.33173E-06 5.69714E-03-7.22273E-14 8.48740E-14
 -1       615 1.92575E+01 3.05987E+00-1.36100E-03 1.56524E-01 2.25326E-13-6.09465E-13
 -1       616 1.91476E+01 3.15534E+00-1.21547E-03 9.14856E-02 1.43670E-13-6.69296E-13
 -1       617 1.98495E+01 2.48629E+00-5.71610E-04 3.16185E-01 4.08970E-13-4.60710E-13
 -1       618 2.02624E+01 1.99940E+00-1.30867E-03 3.89239E-01 4.74372E-13-3.08909E-13
 -1       619 2.06215E+01 1.27791E+00 2.53113E-03 1.81014E-01 4.49717E-13-1.75034E-13
 -1       620 2.05704E+01 9.26931E-01 1.09404E-03-3.82366E-01 3.33455E-13-1.87757E-13
 -1       621 1.56771E+01-3.83178E+00 1.04038E-01-6.34263E+00 4.61763E-13 1.45710E-13
 -1       622 1.59756E+01-3.08715E+00 9.37190E-02 5.41465E+00-3.44121E-13 4.82586E-13
 -1       623 2.05152E+01 9.03608E-01 7.10706E-04 3.35313E-01-2.45809E-13-3.29831E-13
 -1       624 2.05245E+01 6.09207E-01 2.96680E-04 7.13417E-01-2.11848E-13-2.61034E-13
 -1       625 2.05809E+01 3.62020E-01 1.10328E-04 9.93685E-01-1.42752E-13-2.15336E-13
 -1       626 2.07117E+01 1.01990E-01-4.99278E-05 1.18093E+00-1.02393E-13-2.30898E-13
 -1       627 2.09447E+01-2.15627E-01-2.50101E-04 1.26486E+00-4.61044E-14-1.94749E-13
 -1       628 2.13109E+01-6.16587E-01-5.20605E-04 1.21658E+00-1.86334E-16-1.36652E-13
 -1       629 2.18360E+01-1.08824E+00-8.44354E-04 9.87413E-01 1.46044E-14-2.41033E-14
 -1       630 2.25139E+01-1.54138E+00-5.30380E-04 5.17507E-01 3.82778E-14 2.29413E-14
 -1       631 2.32574E+01-1.76505E+00 9.28560E-05-2.21365E-01-5.91579E-14 5.57587E-14
 -1       632 2.38712E+01-1.44659E+00-4.17513E-03-1.13707E+00-1.33656E-13 1.88948E-13
 -1       633 2.41126E+01-2.67272E-01-6.62492E-03-1.93130E+00-1.01949E-13 1.98829E-13
 -1       634 2.37979E+01 1.51163E+00-3.49446E-02-1.91642E+00-2.56968E-13 2.01623E-13
 -1       635 2.34196E+01 2.96926E+00-3.03934E-02-8.20104E-01-3.50692E-13 9.68611E-14
 -1       636 2.34095E+01 3.03083E+00-3.10006E-02 8.23632E-01-4.19431E-13-5.77525E-14
 -1       637 2.37912E+01 1.64711E+00-2.09721E-02 1.97013E+00-2.59939E-13-1.36109E-13
 -1       638 2.40918E+01-1.59289E-01-1.23323E-02 2.04856E+00-1.42624E-13-2.67715E-13
 -1       639 2.39062E+01-1.34449E+00-5.51177E-03 1.34652E+00-1.53549E-14-3.13863E-13
 -1       640 2.33253E+01-1.72529E+00-4.35528E-04 4.39704E-01 1.54049E-13-2.48588E-13
 -1       641 2.25772E+01-1.52266E+00-7.86600E-04-3.01787E-01 1.20685E-13-3.44589E-13
 -1       642 2.18901E+01-1.08945E+00-7.33546E-04-7.80673E-01 1.51041E-13-4.38743E-13
 -1       643 2.13426E+01-6.37812E-01-5.14613E-04-1.02714E+00 4.73213E-14-3.95185E-13
 -1       644 2.09450E+01-2.70593E-01-2.17903E-04-1.10641E+00 2.48767E-14-4.48881E-13
 -1       645 2.06701E+01-1.30572E-02-4.21770E-05-1.07910E+00 1.44092E-13-5.01890E-13
 -1       646 2.04837E+01 1.45841E-01 5.36587E-05-9.90100E-01 9.52636E-14-4.74699E-13
 -1       647 2.03570E+01 2.29105E-01 9.90742E-05-8.70325E-01 6.50414E-14-2.17816E-13
 -1       648 2.02691E+01 2.60054E-01 1.15149E-04-7.40162E-01 5.65439E-14-4.30753E-14
 -1       649 2.02062E+01 2.57896E-01 1.14073E-04-6.12474E-01 7.37146E-14 5.26140E-14
 -1       650 2.01596E+01 2.36844E-01 1.03745E-04-4.94816E-01 7.74618E-14-6.13396E-14
 -1       651 2.01240E+01 2.06671E-01 8.92955E-05-3.91059E-01 1.99860E-14-1.70033E-14
 -1       652 2.00961E+01 1.73672E-01 7.38526E-05-3.02597E-01-6.91435E-14-4.98559E-14
 -1       653 2.00741E+01 1.41629E-01 5.91840E-05-2.29231E-01-2.15406E-13 5.99666E-14
 -1       654 2.00566E+01 1.12594E-01 4.61730E-05-1.69820E-01-1.24621E-13 1.60934E-13
 -1       655 2.00427E+01 8.74876E-02 3.51547E-05-1.22735E-01-9.52521E-14 1.43181E-14
 -1       656 2.00317E+01 6.65270E-02 2.61424E-05-8.61657E-02-4.82643E-14-5.75002E-14
 -1       657 2.00232E+01 4.95150E-02 1.89742E-05-5.83170E-02 1.19706E-13-1.37502E-13
 -1       658 2.00166E+01 3.60355E-02 1.34042E-05-3.75304E-02 1.19229E-13-6.11559E-14
 -1       659 2.00116E+01 2.55759E-02 9.17889E-06-2.23439E-02 1.66188E-13-1.66883E-13
 -1       660 2.00079E+01 1.76001E-02 6.07231E-06-1.15184E-02-7.45146E-14 1.17516E-14
 -1       661 2.00051E+01 1.15939E-02 3.63363E-06-4.04140E-03 1.37282E-13 6.03778E-13
 -1       662 2.00031E+01 7.08317E-03 1.71875E-06 8.91444E-04 1.25062E-13 4.62445E-13
 -1       663 2.00018E+01 3.63377E-03 2.36414E-06 3.89728E-03-7.83347E-14 4.86944E-13
 -1       664 2.00008E+01 8.44442E-04-1.91133E-06 5.39677E-03-1.69222E-13 1.75111E-13
 -1       665 2.06295E+01 4.50486E-01 2.80396E-04-1.52649E+00 1.30185E-13-1.51226E-13
 -1       666 2.69770E+01 5.99691E+00-1.55535E-01 7.41472E-01-7.05686E-13-4.40156E-13
 -1       667 2.05566E+01 5.86115E-01 5.32633E-04-1.21112E+00 2.02670E-13-1.74758E-13
 -1       668 2.10685E+01-8.07422E-02-5.25659E-04-1.95646E+00-6.10326E-14-1.11731E-13
 -1       669 2.15607E+01-6.20709E-01-1.21656E-03-1.99483E+00-8.28328E-14-1.49952E-13
 -1       670 2.23718E+01-1.39775E+00-1.54268E-03-1.79308E+00-9.15863E-14-5.33667E-14
 -1       671 2.35864E+01-2.28833E+00-2.04104E-03-1.18818E+00-1.65979E-13 2.97180E-14
 -1       672 2.51349E+01-2.85185E+00-5.54932E-03-3.15657E-02-1.63591E-13 2.90971E-13
 -1       673 2.65706E+01-2.12913E+00-2.98997E-02 1.60973E+00-6.59152E-14 4.46022E-13
 -1       674 2.72287E+01 6.01673E-01-9.50638E-02 2.73082E+00 1.60465E-13 3.68094E-13
 -1       675 2.66857E+01 4.81233E+00-1.44862E-01-7.65099E-01 7.48353E-13-3.77673E-13
 -1       676 2.58736E+01-2.71858E+00-1.37521E-02-8.65486E-01-1.53241E-14-4.88707E-13
 -1       677 2.43516E+01-2.60128E+00 3.38874E-03 5.61112E-01-1.96287E-13-3.33412E-13
 -1       678 2.29550E+01-1.79072E+00 1.02951E-03 1.40893E+00-1.98098E-13-2.00435E-13
 -1       679 2.19589E+01-9.30123E-01-9.56773E-04 1.76380E+00-8.02300E-14-7.45418E-14
 -1       680 2.13310E+01-2.89534E-01-8.19628E-04 1.81853E+00-1.83887E-13-1.17955E-13
 -1       681 2.09518E+01 1.06950E-01-2.05889E-04 1.71002E+00-1.21091E-13-1.92296E-13
 -1       682 2.07207E+01 3.12833E-01 1.58888E-04 1.52337E+00-1.68969E-13-1.40217E-13
 -1       683 2.05703E+01 3.93314E-01 3.24607E-04 1.30805E+00-5.56895E-14-9.20968E-14
 -1       684 2.04622E+01 4.00275E-01 3.75971E-04 1.09228E+00-9.21489E-14 5.65236E-14
 -1       685 2.03772E+01 3.68941E-01 3.64567E-04 8.91543E-01 1.97692E-14 1.23393E-14
 -1       686 2.03064E+01 3.21039E-01 3.23623E-04 7.13471E-01-1.88672E-14 1.15690E-13
 -1       687 2.02460E+01 2.68977E-01 2.72690E-04 5.60794E-01 1.35974E-13 2.28279E-13
 -1       688 2.01945E+01 2.19279E-01 2.21949E-04 4.33295E-01 5.52944E-14 8.60356E-14
 -1       689 2.01511E+01 1.74969E-01 1.76143E-04 3.29100E-01-1.21184E-13-2.30076E-13
 -1       690 2.01153E+01 1.37094E-01 1.37002E-04 2.45532E-01 8.49263E-14-2.48060E-14
 -1       691 2.00862E+01 1.05655E-01 1.04704E-04 1.79640E-01 3.15701E-13 1.01920E-13
 -1       692 2.00631E+01 8.01335E-02 7.87079E-05 1.28517E-01 1.70437E-13 5.60494E-14
 -1       693 2.00451E+01 5.97973E-02 5.81885E-05 8.94806E-02 3.17324E-13 9.58473E-14
 -1       694 2.00314E+01 4.38592E-02 4.22601E-05 6.01552E-02 1.13110E-13 6.05080E-14
 -1       695 2.00212E+01 3.15605E-02 3.00814E-05 3.85027E-02-6.13391E-14-5.35615E-14
 -1       696 2.00138E+01 2.22095E-02 2.09044E-05 2.28192E-02 2.36597E-15-1.09516E-13
 -1       697 2.00085E+01 1.51940E-02 1.40820E-05 1.17129E-02-6.61028E-14-4.14099E-13
 -1       698 2.00048E+01 9.98122E-03 9.04124E-06 4.07491E-03-1.30243E-13-4.32596E-13
 -1       699 2.00024E+01 6.11274E-03 5.07268E-06-9.52573E-04-8.23429E-14-5.39236E-13
 -1       700 2.00009E+01 3.19847E-03 2.73272E-06-4.01731E-03-1.82399E-14-4.08608E-13
 -1       701 2.00001E+01 8.76057E-04 4.69601E-06-5.58117E-03-1.34778E-13-3.27355E-13
 -1       702 2.00001E+01-7.16156E-04 2.17439E-07-5.91315E-03-1.47791E-13-2.91111E-14
 -1       703 2.00034E+01 1.81798E-03 1.75752E-06-5.38367E-04 4.17500E-13-6.40803E-14
 -1       704 2.00004E+01-8.04399E-04-5.79487E-06 5.72701E-03-8.50778E-15 7.11069E-15
 -1       705 2.00031E+01 9.33679E-04 3.36255E-07-3.10382E-03 3.46599E-13-3.54556E-13
 -1       706 2.00033E+01 1.83647E-03 1.82502E-06 6.93669E-04 1.83555E-13-7.55517E-14
 -1       707 2.00033E+01 1.48730E-03 1.12771E-06-1.80435E-03 3.82159E-13-2.58094E-13
 -1       708 2.74417E+01 3.90972E+00-1.48080E-01 2.09680E+00-4.70075E-13-8.31699E-13
 -1       709 2.76252E+01 1.31166E+00-1.09227E-01-2.16287E+00-4.96395E-13 2.21132E-13
 -1       710 2.00033E+01 1.54841E-03 1.29394E-06 1.90960E-03 1.50375E-13-6.97725E-13
 -1       711 2.00030E+01 1.01656E-03 2.18304E-07 3.16514E-03 2.30235E-13-1.79418E-13
 -1       712 2.00024E+01 3.86543E-04 1.10170E-07 4.37352E-03 3.18551E-13 2.06276E-13
 -1       713 2.75343E+01-2.64162E+00-5.04623E-02-3.46995E-01-1.62573E-13 2.79551E-13
 -1       714 2.62965E+01-4.20561E+00-1.87606E-02-1.47418E+00 3.16077E-13-5.26629E-13
 -1       715 2.05421E+01 7.23772E-01 8.43590E-04-8.35655E-01 2.29763E-13-1.88630E-13
 -1       716 1.19836E+01-1.41976E+00 1.23278E-01 4.77470E+00 3.97168E-13-7.24566E-13
 -1       717 2.04557E+01 1.84902E+00-8.70578E-05-6.06205E-01-3.64289E-13-4.36960E-13
 -1       718 2.28151E+01-4.91011E+00 1.65473E-02 3.81566E+00-3.84996E-13-2.02547E-13
 -1       719 1.29689E+01-2.53964E+00 1.21979E-01-5.58397E+00-3.53724E-13-6.92515E-13
 -1       720 7.84930E+00 1.01905E-01 1.68321E-01-5.47907E-01-1.17048E-13 3.48103E-13
 -1       721 2.07847E+01 2.52387E-01 1.91974E-05-1.78225E+00 3.21889E-14-1.14261E-13
 -1       722 2.05057E+01 1.28658E+00-6.15667E-05-9.50312E-02-3.24071E-13-3.69246E-13
 -1       723 1.94956E+01 2.83973E+00-1.12773E-03 2.32642E-01 3.18540E-13-5.59365E-13
 -1       724 9.82940E+00-1.30855E+00 1.40043E-01-4.57355E+00 3.05134E-13 5.59323E-13
 -1       725 1.95811E+01 2.74918E+00-1.31230E-03-1.82812E-01-1.09505E-13-6.49195E-13
 -1       726 2.85590E+01-2.56602E+00-5.11585E-02 9.55735E-01 4.54949E-14 2.29566E-13
 -1       727 8.85970E+00 1.57075E-01 1.44109E-01 1.33809E+00 1.69481E-13-1.03285E-12
 -1       728 2.71530E+01 4.06254E+00-1.22585E-01 1.95544E+00 5.01529E-13-5.07962E-14
 -1       729 2.86711E+01 1.22490E+00-1.42174E-01 2.58128E+00 3.49207E-13 3.10391E-13
 -1       730 2.71639E+01 5.11289E+00-1.46341E-01-1.57145E+00-7.86926E-13-4.52416E-14
 -1       731 2.53620E+01-5.18389E+00 6.45692E-04-2.83340E+00-2.89583E-13-4.38104E-14
 -1       732 1.96444E+01-4.85963E+00 7.27732E-02-5.64920E+00-4.50012E-13-5.04088E-13
 -1       733 9.14029E+00-6.63282E-01 1.47847E-01-3.21368E+00-1.22777E-13-8.90815E-13
 -1       734 2.44806E+01-4.98835E+00-4.69623E-03 3.19440E+00 2.26385E-13 1.43562E-13
 -1       735 2.69270E+01-4.29938E+00-3.17452E-02 7.73573E-01-2.18428E-13-5.37032E-13
 -1       736 2.18921E+01-5.15301E+00 4.22492E-02-4.93191E+00 4.26048E-13-2.70223E-13
 -1       737 2.78232E+01-7.37932E-01-5.49511E-02 1.55766E+00-8.43145E-14-8.05439E-13
 -1       738 2.83732E+01-1.32742E+00-8.20338E-02-2.07795E+00 2.79580E-13-7.95402E-13
 -1       739 1.99257E+01 2.39747E+00-1.06033E-03-3.21668E-01-2.23597E-13-6.11745E-13
 -1       740 1.91722E+01 3.13116E+00-1.18580E-03 2.10940E-02 6.35902E-14-6.71288E-13
 -1       741 1.35258E+01-1.37891E+00 9.98137E-02 4.50721E+00-2.64549E-13 6.62848E-13
 -1       742 2.00025E+01 2.86029E-04-1.31003E-08-4.35150E-03 1.61975E-13-2.48228E-13
 -1       743 2.63858E+01 1.16708E+00-9.62771E-02 2.30567E+00-2.08479E-13-7.73609E-13
 -1       744 2.00015E+01-3.36397E-04-4.66201E-07-5.28578E-03-9.28911E-14-2.86536E-14
 -1       745 2.00985E+01-3.59453E+00 3.23267E-02 4.32734E+00-3.46414E-13-1.52890E-13
 -1       746 2.13781E+01-4.37643E+00 4.74501E-02 4.54418E+00 3.72627E-13-2.24695E-13
 -1       747 1.93229E+01 2.99402E+00-1.26970E-03-6.82091E-02-9.89911E-15-6.49673E-13
 -1       748 1.56661E+01-2.56932E+00 6.54957E-02 5.35597E+00 3.92936E-13-4.79162E-13
 -1       749 2.00019E+01 7.50265E-04-6.71982E-07 4.97757E-03-1.31178E-13 2.62464E-13
 -1       750 2.02772E+01 1.48407E+00-2.12230E-04-1.45392E-01 3.57207E-13-2.72416E-13
 -1       751 1.04362E+01 3.33665E-01 9.10489E-02 1.75409E+00-2.20173E-13 4.45699E-13
 -1       752 1.08794E+01 4.96940E-01 7.23457E-02-1.27001E+00-3.99594E-14-8.12787E-13
 -1       753 2.02312E+01 7.45986E-01 2.30832E-05 8.93222E-01-1.51586E-13-3.35641E-13
 -1       754 2.02637E+01 4.31701E-01 6.44190E-05 1.18492E+00-1.01919E-13-2.34543E-13
 -1       755 2.03769E+01 7.34955E-02-4.21173E-06 1.41485E+00-3.42833E-14-1.60143E-13
 -1       756 2.06265E+01-3.81375E-01-1.24644E-05 1.57050E+00 2.83781E-14-1.76308E-13
 -1       757 2.10801E+01-9.65566E-01-1.55509E-04 1.61476E+00 5.43429E-14-1.44464E-13
 -1       758 2.18129E+01-1.66201E+00-1.80345E-04 1.46803E+00 1.15056E-13-5.63357E-14
 -1       759 2.28543E+01-2.33147E+00-2.09395E-03 9.94923E-01 2.76287E-14 8.07861E-15
 -1       760 2.40773E+01-2.57739E+00-3.51376E-03 9.49926E-02 4.23264E-14 1.68142E-13
 -1       761 2.50913E+01-1.82505E+00-2.50154E-02-1.09725E+00-8.68160E-14 2.65661E-13
 -1       762 2.52384E+01 3.27667E+00-6.87544E-02-1.88607E+00-5.04950E-13 4.01424E-14
 -1       763 2.47478E+01 4.62227E+00-8.59249E-02-2.32105E-02-5.49540E-13-3.03548E-13
 -1       764 2.50099E+01 3.38092E+00-6.63583E-02 1.85968E+00-3.34295E-13-4.28419E-13
 -1       765 2.54702E+01 6.03079E-01-5.50143E-02 2.36077E+00-2.19493E-13-4.49108E-13
 -1       766 2.50664E+01-1.56060E+00-1.19017E-02 1.43635E+00-1.32143E-13-3.04621E-13
 -1       767 2.41233E+01-2.45605E+00-5.86188E-03 2.27814E-01 1.12308E-13-3.59060E-13
 -1       768 2.28976E+01-2.24713E+00 1.66769E-03-7.11410E-01 2.06990E-13-2.61628E-13
 -1       769 2.18491E+01-1.64610E+00-3.79788E-04-1.21686E+00 1.90256E-13-1.18827E-13
 -1       770 2.10793E+01-9.89133E-01-4.85056E-04-1.40282E+00 6.12380E-14-1.12614E-13
 -1       771 2.05760E+01-4.50705E-01-1.06232E-04-1.40201E+00 9.35164E-14-2.97363E-14
 -1       772 2.02726E+01-6.82693E-02 2.75886E-05-1.30492E+00 8.80316E-14-1.84047E-13
 -1       773 2.01042E+01 1.73618E-01 6.85836E-05-1.16312E+00 1.93217E-13-3.50206E-13
 -1       774 2.00197E+01 3.06672E-01 7.17482E-05-1.00564E+00 1.34204E-13-1.75607E-13
 -1       775 1.99839E+01 3.63041E-01 6.55729E-05-8.48613E-01 9.99121E-14-1.16417E-13
 -1       776 1.99743E+01 3.69431E-01 5.68484E-05-7.01129E-01 5.17858E-14-8.33974E-14
 -1       777 1.99770E+01 3.46002E-01 4.77599E-05-5.68111E-01-1.96788E-14-7.46888E-14
 -1       778 1.99845E+01 3.06983E-01 3.92322E-05-4.51830E-01-1.49879E-14-3.56347E-13
 -1       779 1.99926E+01 2.61855E-01 3.15872E-05-3.52792E-01-3.64939E-14-5.08772E-13
 -1       780 1.99996E+01 2.16553E-01 2.49390E-05-2.70348E-01-1.09530E-14-4.80544E-13
 -1       781 2.00048E+01 1.74503E-01 1.93090E-05-2.03126E-01-9.69789E-14-1.04445E-13
 -1       782 2.00081E+01 1.37430E-01 1.46570E-05-1.49369E-01-1.54356E-13-3.71390E-15
 -1       783 2.00099E+01 1.05953E-01 1.08996E-05-1.07170E-01-1.75027E-13-3.13668E-14
 -1       784 2.00105E+01 8.00124E-02 7.92605E-06-7.46409E-02-6.32530E-14-9.26533E-14
 -1       785 2.00102E+01 5.91619E-02 5.60558E-06-5.00256E-02 1.26847E-13-8.79299E-14
 -1       786 2.00093E+01 4.27641E-02 3.80305E-06-3.17564E-02 6.22092E-14-2.30549E-13
 -1       787 2.00081E+01 3.01090E-02 2.49153E-06-1.84829E-02 1.61768E-13 3.86115E-14
 -1       788 2.00068E+01 2.04828E-02 1.74824E-06-9.08420E-03 2.67049E-13 1.93068E-13
 -1       789 2.00054E+01 1.32319E-02 1.07839E-06-2.65815E-03 1.19719E-13 1.76726E-13
 -1       790 2.00041E+01 7.74156E-03 2.88452E-06 1.50181E-03 2.57946E-15-1.17001E-13
 -1       791 2.00029E+01 3.88253E-03-7.84602E-07 3.76880E-03-6.96940E-14 2.89126E-14
 -1       792 2.05706E+01-9.83864E-01 1.25174E-03-2.60278E+00-1.95481E-13-1.91109E-13
 -1       793 2.01132E+01-1.78533E-01-1.51769E-04-2.34263E+00-5.55393E-14-2.15305E-13
 -1       794 2.33533E+01-3.51058E+00 1.68339E-02-2.34414E+00-3.13502E-13 2.38416E-14
 -1       795 2.02217E+01-4.90078E-01-1.48730E-04 2.30620E+00-1.62645E-13-1.01113E-13
 -1       796 1.99247E+01 1.10305E-01 1.36159E-04 2.02439E+00-1.47776E-14-2.21198E-13
 -1       797 1.98351E+01 4.32893E-01 1.70959E-04 1.73841E+00-1.54044E-13-4.51923E-14
 -1       798 1.98411E+01 5.71599E-01 1.67964E-04 1.47007E+00-2.39362E-13-1.58776E-13
 -1       799 1.98818E+01 5.99069E-01 1.54239E-04 1.22554E+00-1.56193E-13-5.77761E-14
 -1       800 1.99276E+01 5.65219E-01 1.32796E-04 1.00693E+00-1.31006E-13-1.30861E-14
 -1       801 1.99662E+01 5.01891E-01 1.09150E-04 8.15059E-01 3.20209E-14 8.24533E-14
 -1       802 1.99942E+01 4.28209E-01 8.77270E-05 6.49788E-01 2.06415E-15-4.71455E-14
 -1       803 2.00122E+01 3.54946E-01 6.94513E-05 5.10066E-01 1.03557E-13 1.04446E-13
 -1       804 2.00223E+01 2.87649E-01 5.42726E-05 3.94061E-01 1.51442E-13 2.44819E-13
 -1       805 2.00267E+01 2.28734E-01 4.18733E-05 2.99403E-01-6.79538E-14-2.39396E-14
 -1       806 2.00273E+01 1.78825E-01 3.18839E-05 2.23439E-01 1.62000E-13-1.68477E-13
 -1       807 2.00257E+01 1.37581E-01 2.39411E-05 1.63456E-01 9.52217E-14 1.54709E-13
 -1       808 2.00228E+01 1.04178E-01 1.77074E-05 1.16843E-01 7.10348E-14 1.64017E-13
 -1       809 2.00195E+01 7.75977E-02 1.28773E-05 8.11978E-02 5.67601E-14 2.69933E-13
 -1       810 2.00162E+01 5.67864E-02 9.17304E-06 5.43910E-02 5.01884E-14 2.82066E-13
 -1       811 2.00130E+01 4.07394E-02 6.35412E-06 3.45880E-02 3.44502E-15-1.08971E-14
 -1       812 2.00102E+01 2.85419E-02 4.25507E-06 2.02484E-02 2.01168E-13-2.29779E-13
 -1       813 2.00078E+01 1.93812E-02 2.83550E-06 1.01096E-02 7.07469E-15-2.93476E-13
 -1       814 2.00057E+01 1.25445E-02 2.24992E-06 3.16651E-03-2.77766E-13-1.67954E-13
 -1       815 2.00040E+01 7.43526E-03 1.17957E-06-1.33845E-03-1.35054E-13-1.57042E-13
 -1       816 2.00027E+01 3.51279E-03 1.21348E-06-4.01005E-03-2.18084E-14-1.10066E-13
 -1       817 2.00020E+01 1.55259E-03-7.25351E-06-4.87625E-03-1.06917E-13-1.91699E-14
 -1       818 1.24619E+01 1.24273E-01 5.99228E-02 2.68184E+00 2.10358E-13-7.29753E-13
 -1       819 1.91936E+01 2.65621E+00-6.11619E-04 3.90001E-02 1.41726E-13-5.77392E-13
 -1       820 2.00043E+01 7.48571E-03 7.84301E-07 9.54995E-05 1.89465E-13-1.45976E-13
 -1       821 2.00042E+01 7.16580E-03 1.71494E-07 8.79384E-04 1.37505E-13-4.27225E-13
 -1       822 2.54133E+01-3.66333E+00-1.48132E-02 7.52559E-01 3.06738E-14 1.70905E-13
 -1       823 1.76346E+01-2.98069E+00 5.82222E-02-5.07507E+00-3.59402E-13-5.64883E-13
 -1       824 2.42517E+01-3.81317E+00 2.01196E-02 1.80069E+00-2.92591E-13-2.94297E-13
 -1       825 2.60995E+01-2.62790E+00-1.79671E-02 6.18301E-01 2.78146E-14-5.66164E-13
 -1       826 2.27270E+01-4.34651E+00 2.22990E-02-3.57001E+00-3.70081E-13-7.30492E-14
 -1       827 2.00038E+01 4.83678E-03 2.31271E-06 2.83964E-03 1.90470E-13-1.33523E-13
 -1       828 2.00042E+01 6.22670E-03-1.90180E-06 1.77326E-03 2.84866E-13-4.34533E-13
 -1       829 2.09138E+01-1.45076E+00 4.31569E-03 2.51206E+00-1.93458E-13-6.03929E-14
 -1       830 2.22044E+01-2.66423E+00 3.19732E-03 2.41817E+00-3.60237E-13-1.78100E-13
 -1       831 2.15536E+01-2.15047E+00 5.43319E-03-2.70218E+00-2.25640E-13-5.35275E-14
 -1       832 1.95475E+01-3.69134E+00 4.25980E-02-4.79830E+00 3.63877E-13-1.68832E-13
 -1       833 2.00280E+01 8.14496E-01 6.50140E-05-1.36834E+00 1.21182E-13-2.09698E-13
 -1       834 2.62211E+01-3.61835E+00-1.09738E-02-1.87602E-01-2.10967E-13 2.14803E-13
 -1       835 2.63874E+01-8.95686E-01-4.30300E-02-1.80749E+00-2.15058E-13 2.81417E-13
 -1       836 2.02337E+01 1.07908E+00-3.67673E-06 5.39326E-01-1.74333E-13-3.85619E-13
 -1       837 1.47265E+01-1.81766E+00 7.21072E-02-4.95602E+00 2.99262E-13 2.97352E-13
 -1       838 1.32369E+01-7.74402E-01 7.36855E-02-3.98133E+00-2.18226E-13-6.47715E-13
 -1       839 2.36824E+01-4.33461E+00 2.16155E-03-2.63650E+00 3.47196E-13-2.18078E-13
 -1       840 1.12928E+01 2.39204E-01 7.66942E-02-2.47601E+00 1.26678E-14 9.09169E-14
 -1       841 1.91578E+01 2.68558E+00-3.85066E-04 8.51487E-02 8.89227E-14-6.13736E-13
 -1       842 1.98095E+01 1.95419E+00-3.67073E-04-1.52468E-01 2.78047E-13-4.14293E-13
 -1       843 1.98211E+01 2.05492E+00-7.10680E-04 7.44923E-02-1.52149E-13-5.28416E-13
 -1       844 1.73754E+01-2.19875E+00 4.76457E-02 4.40011E+00-3.18482E-13 2.89537E-13
 -1       845 1.26709E+01 8.94047E-01 3.59724E-02 6.04029E-01 5.05477E-14-7.73885E-13
 -1       846 2.02184E+01 1.46247E+00-9.46676E-06 1.66501E-01-2.32774E-13-4.45668E-13
 -1       847 2.00040E+01 4.72158E-03-1.35017E-06-2.78561E-03 1.29788E-14-3.66526E-13
 -1       848 1.99570E+01 3.21941E-01 1.25117E-04-2.03576E+00-3.05170E-14-2.06447E-13
 -1       849 1.45415E+01-7.18831E-01 3.17904E-02 3.80410E+00 3.22082E-13-5.84445E-13
 -1       850 1.93751E+01 2.49541E+00-6.58267E-04-1.31552E-02 2.11693E-13-5.11016E-13
 -1       851 2.00043E+01 6.14018E-03 1.19129E-07-1.67175E-03 2.36211E-13-6.19204E-14
 -1       852 2.02150E+01 1.16287E+00-1.25142E-04-6.26247E-01 2.45899E-13-2.37271E-13
 -1       853 2.00043E+01 7.11989E-03-4.08066E-08-7.13696E-04 3.76510E-13-1.45267E-13
 -1       854 2.36032E+01-3.86622E+00 2.41153E-02 2.29921E+00 2.00173E-13 1.11430E-13
 -1       855 1.95003E+01 2.37221E+00-4.75994E-04 1.08061E-01-3.32419E-14-5.62082E-13
 -1       856 2.01229E+01 9.69583E-01-2.12165E-04-1.01879E+00 2.16056E-13-2.25182E-13
 -1       857 1.19549E+01 8.67768E-01 4.38209E-02-4.26858E-01-8.49483E-14 2.03507E-13
 -1       858 1.99567E+01 6.20456E-01 1.13769E-04-1.71125E+00 5.89103E-14-2.01884E-13
 -1       859 2.00035E+01 4.50673E-03 1.44838E-05 3.29500E-03-1.92701E-14-1.62749E-13
 -1       860 1.98284E+01 8.61601E-01 3.65172E-04 1.04178E+00-7.08079E-14-3.19233E-13
 -1       861 1.34939E+01-3.28953E-03 4.00351E-02 2.93251E+00-2.23636E-13 5.31349E-13
 -1       862 1.78795E+01-2.12918E+00 2.10789E-02-4.17790E+00 2.63775E-13-3.49200E-14
 -1       863 1.98010E+01 4.98723E-01 1.20580E-05 1.36123E+00-4.35071E-15-2.99520E-13
 -1       864 1.98582E+01 6.09872E-02-2.80509E-05 1.67093E+00-2.05591E-14-2.82914E-13
 -1       865 2.00817E+01-5.19174E-01 3.66957E-04 1.96416E+00 6.86551E-14-2.77998E-13
 -1       866 2.05781E+01-1.28453E+00 1.39153E-03 2.20261E+00 1.50574E-13-1.66242E-13
 -1       867 2.15201E+01-2.25343E+00-5.42638E-05 2.27241E+00 1.84590E-13-6.66355E-14
 -1       868 1.67772E+01-1.29684E+00 3.13112E-02-4.03483E+00-2.27597E-13-5.13313E-13
 -1       869 2.31205E+01-3.15270E+00-1.82559E-05-1.65785E+00 3.53819E-13-2.28062E-13
 -1       870 2.15660E+01-2.27218E+00-6.45171E-04-2.03256E+00 2.50641E-13-2.09988E-13
 -1       871 2.05544E+01-1.33099E+00-2.46449E-04-2.02267E+00 1.65238E-13-1.27260E-13
 -1       872 1.99815E+01-5.99307E-01 6.07667E-04-1.82629E+00 1.02790E-13-2.08718E-13
 -1       873 1.96908E+01-8.88808E-02 4.14768E-04-1.58100E+00 3.55744E-14-3.77252E-13
 -1       874 1.95766E+01 2.32714E-01 2.84515E-04-1.33783E+00 4.37811E-14-1.72296E-13
 -1       875 1.95628E+01 4.11852E-01 1.75166E-04-1.11604E+00 2.13938E-13-9.10769E-14
 -1       876 1.96009E+01 4.91144E-01 1.09470E-04-9.20126E-01 8.71249E-14-2.70967E-13
 -1       877 1.96615E+01 5.04487E-01 6.79989E-05-7.49774E-01 7.52781E-14-3.16330E-13
 -1       878 1.97276E+01 4.77392E-01 4.16713E-05-6.03446E-01 2.65147E-14-1.91202E-13
 -1       879 1.97899E+01 4.28148E-01 2.50992E-05-4.79256E-01-4.89064E-14-1.69816E-13
 -1       880 1.98442E+01 3.69246E-01 1.46126E-05-3.75218E-01-7.91521E-14-2.55813E-13
 -1       881 1.98889E+01 3.08779E-01 7.95223E-06-2.89276E-01-1.12283E-13-2.91121E-13
 -1       882 1.99242E+01 2.51638E-01 3.76110E-06-2.19324E-01 1.66141E-13-2.44395E-13
 -1       883 1.99511E+01 2.00468E-01 1.19344E-06-1.63247E-01 3.76210E-14 4.53386E-14
 -1       884 1.99708E+01 1.56402E-01-3.02590E-07-1.18986E-01-2.41165E-13-5.45046E-14
 -1       885 1.99848E+01 1.19602E-01-1.09641E-06-8.46032E-02-1.36227E-13 2.25373E-14
 -1       886 1.99942E+01 8.96458E-02-1.44729E-06-5.83280E-02 2.36019E-13 3.46543E-13
 -1       887 2.00002E+01 6.57963E-02-1.56929E-06-3.85955E-02 7.06910E-14 3.48800E-13
 -1       888 2.00036E+01 4.71807E-02-1.55820E-06-2.40555E-02-4.20716E-14 1.29718E-13
 -1       889 2.00053E+01 3.28933E-02-2.04943E-06-1.35622E-02 1.86605E-13-2.99530E-14
 -1       890 2.00057E+01 2.20133E-02-2.84913E-06-6.20906E-03 9.72764E-14-4.93136E-14
 -1       891 2.00053E+01 1.38187E-02-9.73043E-06-1.24776E-03-7.48722E-14-2.11731E-13
 -1       892 1.87128E+01-1.68638E-01 6.05881E-04-2.69541E+00-1.59227E-13-2.87714E-13
 -1       893 1.89659E+01 7.67555E-01 1.18877E-04 1.50029E+00-2.05162E-13 3.46561E-14
 -1       894 1.87424E+01 5.92189E-01 2.96063E-04 1.83264E+00-2.19369E-13 4.02785E-14
 -1       895 1.85758E+01 1.96432E-01 3.51644E-04 2.26795E+00-1.39038E-13-6.56134E-14
 -1       896 1.91887E+01 8.08234E-01 7.99559E-05 1.23461E+00-2.35579E-13-1.64177E-13
 -1       897 1.93852E+01 7.71653E-01 5.79870E-05 1.01425E+00-1.88136E-13-1.66213E-13
 -1       898 1.95473E+01 6.95120E-01 3.74928E-05 8.27288E-01-1.00780E-13-3.12473E-13
 -1       899 1.96753E+01 6.02047E-01 2.40668E-05 6.67588E-01 8.05308E-14-1.82510E-13
 -1       900 1.97732E+01 5.06525E-01 1.59951E-05 5.31757E-01-6.09452E-14-1.95485E-13
 -1       901 1.98461E+01 4.16461E-01 1.09854E-05 4.17452E-01-6.49343E-14-1.57747E-13
 -1       902 1.98992E+01 3.35817E-01 7.68777E-06 3.22602E-01 7.92650E-14 1.21512E-13
 -1       903 1.99370E+01 2.66131E-01 5.41379E-06 2.45112E-01 1.19554E-13 1.14581E-13
 -1       904 1.99633E+01 2.07507E-01 3.80163E-06 1.82815E-01 1.07753E-13 8.78723E-14
 -1       905 1.99812E+01 1.59251E-01 2.64460E-06 1.33541E-01 3.29820E-14-1.93288E-14
 -1       906 1.99928E+01 1.20272E-01 1.81536E-06 9.52018E-02-9.24194E-14 1.93725E-13
 -1       907 2.00001E+01 8.93164E-02 1.21805E-06 6.58645E-02 3.09256E-14 6.91681E-14
 -1       908 2.00042E+01 6.51223E-02 7.33783E-07 4.38035E-02 3.83623E-14 1.24659E-13
 -1       909 2.00063E+01 4.64963E-02 3.39463E-07 2.75233E-02 2.28209E-13 1.08147E-13
 -1       910 2.00069E+01 3.23530E-02-1.90459E-07 1.57626E-02-1.20256E-14 2.36121E-13
 -1       911 2.00066E+01 2.17104E-02-8.18321E-07 7.48368E-03-2.60317E-13 4.00667E-13
 -1       912 2.00057E+01 1.36903E-02-1.31452E-05 1.84176E-03-1.66376E-13 3.44153E-13
 -1       913 2.00046E+01 7.76787E-03 6.95677E-06-1.76318E-03-1.56490E-13 1.44155E-13
 -1       914 2.00032E+01 3.00226E-03 2.40647E-06-3.86151E-03-1.77805E-13 2.99453E-14
 -1       915 2.00046E+01 1.40076E-02-3.25424E-06 8.89447E-05 1.56269E-13-3.75038E-13
 -1       916 1.86041E+01-5.44302E-01 2.04381E-03 2.82981E+00-2.28401E-13-8.53127E-14
 -1       917 1.92675E+01 2.58604E+00-6.27998E-04 1.11236E-01 3.43457E-14-6.08211E-13
 -1       918 1.98809E+01 1.21434E+00 2.10006E-04 7.04033E-01-9.06522E-14-3.84417E-13
 -1       919 1.48053E+01-2.66513E-01 2.73278E-02-3.25583E+00 6.93022E-15 1.43516E-13
 -1       920 1.91276E+01-2.77974E+00 2.16294E-02 4.31066E+00 3.15148E-13-3.28593E-13
 -1       921 1.37937E+01 4.24850E-01 3.73935E-02-2.39749E+00-1.21087E-13-6.43096E-13
 -1       922 2.14502E+01-3.26375E+00 1.35013E-02-3.13554E+00 2.77899E-13-2.73517E-13
 -1       923 2.02382E+01-2.69366E+00 2.30810E-02-3.78245E+00-3.01547E-13-2.37450E-13
 -1       924 1.34240E+01 8.99105E-01 2.39900E-02 1.14240E+00 2.05215E-14 4.13653E-13
 -1       925 1.62634E+01-7.28662E-01 2.00504E-02 3.49059E+00-2.98533E-13 3.67479E-13
 -1       926 1.44475E+01 5.21858E-01 2.19980E-02 2.10182E+00 1.84863E-13-5.71454E-13
 -1       927 1.98708E+01 1.59690E+00 1.13143E-04 3.91436E-01-1.33667E-13-4.78535E-13
 -1       928 1.88290E+01 4.40077E-01 1.17993E-04-2.18064E+00-5.11517E-14-3.06477E-13
 -1       929 2.00045E+01 8.61552E-03-5.28238E-07 1.42270E-03 4.46827E-14-2.07410E-13
 -1       930 1.96899E+01 1.56031E+00 7.96925E-04-5.95689E-01 2.00403E-13-3.56408E-13
 -1       931 1.96708E+01-1.91225E+00 2.10191E-02 3.40013E+00-3.16551E-13-3.02564E-13
 -1       932 2.00048E+01 1.29212E-02-4.09994E-06 2.67102E-04 1.94952E-13-3.02712E-13
 -1       933 2.00047E+01 1.39606E-02-4.71427E-06 7.85183E-05 2.47428E-13-2.10397E-13
 -1       934 2.00052E+01 1.08827E-02-4.37230E-06-5.18048E-04 1.69858E-13-2.01693E-15
 -1       935 1.90659E+01 2.30718E+00 3.34419E-04 4.18627E-02 9.07492E-14-5.62213E-13
 -1       936 1.95652E+01 1.21600E+00 2.38361E-04-1.06303E+00 1.67830E-13-3.18728E-13
 -1       937 1.91030E+01-1.18635E+00 9.21819E-03-3.28577E+00-2.70329E-13-2.70084E-13
 -1       938 1.92430E+01 2.03904E+00-3.51641E-04-2.73157E-01 1.64436E-13-4.40358E-13
 -1       939 1.93287E+01 1.02541E+00 7.32129E-04-1.41443E+00 9.31168E-14-3.18560E-13
 -1       940 2.00048E+01 1.10972E-02 1.23082E-05 6.78302E-04 1.30164E-13-1.80957E-13
 -1       941 1.41830E+01 6.46519E-01 1.85822E-02-1.89022E+00-1.90613E-13-1.13451E-15
 -1       942 1.95176E+01 1.92151E+00 2.00383E-04 3.56821E-01-7.52666E-14-4.53555E-13
 -1       943 1.91128E+01 2.20527E+00 1.37130E-04-1.01498E-01 1.21944E-13-4.82077E-13
 -1       944 1.94770E+01 1.53920E+00-1.78993E-04 6.25896E-01-4.42234E-14-4.32751E-13
 -1       945 1.93073E+01 9.75624E-01-1.55532E-04 1.12553E+00-7.19442E-15-3.84539E-13
 -1       946 1.91610E+01 6.01182E-01 1.55192E-04 1.48983E+00-1.56865E-14-3.73645E-13
 -1       947 1.90723E+01 1.25380E-01-5.29065E-04 1.91224E+00 6.60153E-14-3.26350E-13
 -1       948 1.91386E+01-5.41904E-01-5.74065E-04 2.41484E+00 1.86166E-13-2.80622E-13
 -1       949 1.95528E+01-1.46507E+00 6.73856E-03 2.98648E+00 2.15851E-13-2.05809E-13
 -1       950 1.95175E+01-1.53745E+00 8.19338E-03-2.86024E+00 1.92820E-13-3.85302E-13
 -1       951 1.90060E+01-6.31912E-01-1.24964E-04-2.33885E+00 1.01158E-13-5.14112E-13
 -1       952 1.88560E+01-2.18277E-02-4.85343E-04-1.86298E+00 7.00036E-14-3.47933E-13
 -1       953 1.88841E+01 3.49429E-01-4.77844E-04-1.47792E+00 2.01774E-13-2.08554E-13
 -1       954 1.89965E+01 5.52799E-01-4.26371E-04-1.17354E+00 2.40470E-13-1.46712E-13
 -1       955 1.91424E+01 6.41406E-01-3.46689E-04-9.32861E-01-2.52919E-14-1.54605E-13
 -1       956 1.92939E+01 6.54153E-01-2.58804E-04-7.40592E-01 3.33114E-14-2.61959E-13
 -1       957 1.94362E+01 6.19558E-01-1.90644E-04-5.85693E-01 1.50056E-13-3.98500E-13
 -1       958 1.95619E+01 5.58309E-01-1.39039E-04-4.60183E-01 4.33573E-15-2.84897E-13
 -1       959 1.96683E+01 4.84819E-01-9.93888E-05-3.58349E-01-8.43480E-14-2.55966E-13
 -1       960 1.97555E+01 4.08711E-01-6.91563E-05-2.75977E-01 5.32732E-14-2.49466E-13
 -1       961 1.98248E+01 3.36031E-01-4.64637E-05-2.09782E-01 7.33012E-14-1.27913E-13
 -1       962 1.98785E+01 2.70231E-01-2.97479E-05-1.57072E-01 1.68544E-13-3.75464E-13
 -1       963 1.99191E+01 2.12942E-01-1.77014E-05-1.15558E-01-9.78654E-14-4.91716E-13
 -1       964 1.99490E+01 1.64578E-01-9.23423E-06-8.32649E-02-8.20168E-14 3.02756E-14
 -1       965 1.99703E+01 1.24784E-01-3.42154E-06-5.84827E-02 1.11809E-13 1.06021E-13
 -1       966 1.99849E+01 9.27651E-02 3.18869E-07-3.97445E-02 2.43231E-14-1.74742E-13
 -1       967 1.99945E+01 6.75019E-02 5.33945E-07-2.58107E-02-2.60696E-14-3.52635E-13
 -1       968 2.00004E+01 4.79224E-02 1.44672E-06-1.56421E-02 8.00491E-14-1.56574E-13
 -1       969 2.00036E+01 3.30531E-02 2.71232E-05-8.42312E-03 7.69780E-14-3.80157E-13
 -1       970 2.00050E+01 2.15333E-02-1.66089E-05-3.38700E-03-2.77700E-14-3.31882E-13
 -1       971 1.75554E+01-1.00724E+00 1.54638E-02 3.43101E+00 2.30801E-13-4.02889E-13
 -1       972 1.87908E+01 9.69825E-01-1.01873E-05 8.89669E-01-6.40268E-14-3.02992E-13
 -1       973 1.84223E+01 1.01478E+00-2.49006E-05 1.08489E+00-1.06280E-13-1.09903E-13
 -1       974 1.90859E+01 8.81618E-01-2.19931E-05 7.31566E-01-2.00492E-13-2.60299E-13
 -1       975 1.93190E+01 7.73040E-01-2.37750E-05 5.98453E-01-1.75219E-13-1.17199E-13
 -1       976 1.95003E+01 6.59234E-01-2.12937E-05 4.84603E-01-6.62736E-14 8.48320E-14
 -1       977 1.96396E+01 5.49507E-01-1.78436E-05 3.87203E-01-7.57869E-14 8.56977E-14
 -1       978 1.97451E+01 4.49120E-01-1.45698E-05 3.04671E-01-4.81783E-14 1.17644E-13
 -1       979 1.98240E+01 3.60628E-01-1.17214E-05 2.35751E-01 1.15884E-14 1.61295E-13
 -1       980 1.98820E+01 2.84818E-01-9.29282E-06 1.79150E-01 1.20875E-13 1.59556E-13
 -1       981 1.99240E+01 2.21374E-01-7.24753E-06 1.33470E-01 1.43334E-13 1.47288E-13
 -1       982 1.99537E+01 1.69338E-01-5.54428E-06 9.72446E-02-2.15141E-13 8.42754E-14
 -1       983 1.99742E+01 1.27427E-01-4.13734E-06 6.90187E-02-2.50541E-15 7.72237E-14
 -1       984 1.99880E+01 9.42309E-02-3.01465E-06 4.74144E-02-3.45123E-14 1.00143E-14
 -1       985 1.99967E+01 6.83499E-02-2.25617E-06 3.11852E-02 1.30957E-13 1.90449E-13
 -1       986 2.00019E+01 4.84724E-02-2.33004E-06 1.92353E-02-9.90339E-14 4.91509E-13
 -1       987 2.00046E+01 3.34068E-02 3.58711E-07 1.06645E-02-2.84172E-13 9.28557E-13
 -1       988 2.00056E+01 2.20426E-02 1.22401E-05 4.65160E-03 7.27006E-14 5.79493E-13
 -1       989 1.64893E+01-3.69613E-02 1.21803E-02-2.93707E+00-1.90265E-13-4.80655E-13
 -1       990 1.67974E+01 4.58455E-01 3.47621E-03 2.25163E+00-2.21637E-13 1.50383E-13
 -1       991 1.93999E+01 1.25139E+00 2.86892E-04 8.67344E-01-3.86251E-14-4.30280E-13
 -1       992 1.91245E+01 2.25424E+00 2.11877E-04 1.93135E-01 4.69418E-14-5.66253E-13
 -1       993 1.92855E+01 2.12275E+00 1.11566E-03 2.92091E-01-2.09048E-14-5.60636E-13
 -1       994 1.47739E+01 1.12817E+00 1.21292E-02 3.86770E-01 9.25975E-14-5.99777E-13
 -1       995 1.74287E+01 8.16789E-01 6.74187E-04 1.70861E+00-2.17782E-13 1.24580E-13
 -1       996 1.79693E+01 9.81969E-01-3.69113E-05 1.34246E+00-1.05267E-13-1.00481E-13
 -1       997 1.89931E+01 1.67249E+00-9.93448E-06-6.01210E-01 1.30882E-13-3.87330E-13
 -1       998 1.73643E+01-8.87677E-01 3.46241E-03-3.23984E+00 2.91919E-14-4.18424E-14
 -1       999 2.00049E+01 1.27992E-02-2.03490E-06-4.90659E-05 1.92213E-13-1.72257E-15
 -1      1000 1.90672E+01 7.95782E-01 4.82742E-04-1.77084E+00 9.27825E-15-3.16875E-13
 -1      1001 1.47635E+01 9.15497E-01 1.11214E-02-1.47949E+00-5.52542E-14-5.69461E-13
 -1      1002 2.00044E+01 2.57298E-02-6.39255E-06 3.43162E-03 3.65659E-13-1.93519E-13
 -1      1003 1.50120E+01 4.97295E-01 2.15302E-02 2.24342E+00 5.70182E-16 3.72488E-13
 -1      1004 1.73648E+01 6.66942E-01 2.74458E-03-2.09770E+00-1.01662E-13-3.61512E-13
 -1      1005 1.88596E+01 1.98903E+00-3.02526E-04-2.95763E-02 9.27992E-14-4.81154E-13
 -1      1006 1.67187E+01 2.87527E-01 3.73760E-03 2.25534E+00 1.70710E-13-4.61962E-13
 -1      1007 1.61917E+01 8.48309E-02 1.23520E-02-2.54003E+00 1.48944E-14-8.64868E-15
 -1      1008 2.00044E+01 2.14845E-02-9.58950E-06-9.92550E-04 9.73658E-14-4.69091E-13
 -1      1009 1.43239E+01 1.10328E+00 8.55343E-03-4.97829E-01-9.23712E-14 3.71945E-13
 -1      1010 2.00042E+01 2.23567E-02 8.96143E-06 1.18679E-04 2.19239E-13-3.50411E-13
 -1      1011 1.89041E+01 1.94747E+00-4.55585E-05 2.58717E-01 3.26200E-14-5.11137E-13
 -1      1012 1.85767E+01 1.48500E+00-4.09488E-04-8.36267E-01 8.82765E-14-3.49037E-13
 -1      1013 1.63712E+01 1.00490E+00 6.89091E-04 1.20055E+00 1.32000E-13-5.36481E-13
 -1      1014 1.86310E+01 1.03763E+00-2.20932E-04 5.13537E-01-2.10836E-13 1.89546E-13
 -1      1015 1.91872E+01 1.75884E+00-6.61473E-04 5.06205E-01-3.87464E-14-4.98543E-13
 -1      1016 1.83035E+01 7.72690E-01 9.16230E-04 1.49887E+00 6.88603E-14-4.12743E-13
 -1      1017 1.75093E+01-6.95705E-02 4.24905E-03-2.38258E+00 9.14883E-14-1.91706E-13
 -1      1018 1.78030E+01 4.05906E-01-2.95714E-04-1.75433E+00 1.48661E-13-1.25865E-13
 -1      1019 1.81344E+01 6.73498E-01-9.18476E-05-1.30845E+00 2.21646E-13-1.04067E-13
 -1      1020 1.84537E+01 7.98755E-01-2.78028E-04-9.84701E-01 1.15985E-13-1.10618E-13
 -1      1021 1.87431E+01 8.31356E-01-2.30738E-04-7.48659E-01 1.06063E-13-2.42708E-13
 -1      1022 1.89974E+01 8.02785E-01-1.10681E-04-5.72575E-01-8.55766E-14-2.38621E-13
 -1      1023 1.92144E+01 7.37291E-01-6.39530E-05-4.39196E-01 7.00085E-14-5.05953E-13
 -1      1024 1.93956E+01 6.52314E-01-4.39051E-05-3.36612E-01 1.82003E-13-4.86124E-13
 -1      1025 1.95440E+01 5.60069E-01-3.47209E-05-2.56941E-01 8.49930E-14-3.24726E-13
 -1      1026 1.96631E+01 4.68823E-01-3.02777E-05-1.94779E-01-7.47279E-15-6.22810E-14
 -1      1027 1.97569E+01 3.83783E-01-2.76431E-05-1.46262E-01-1.62016E-14-1.70924E-13
 -1      1028 1.98294E+01 3.07854E-01-2.54539E-05-1.08511E-01-4.32018E-14-2.39054E-13
 -1      1029 1.98841E+01 2.42285E-01-2.31812E-05-7.93078E-02-3.95989E-14-2.97958E-13
 -1      1030 1.99246E+01 1.87195E-01-2.07076E-05-5.69005E-02 1.72723E-13-2.85809E-13
 -1      1031 1.99538E+01 1.41991E-01-1.80978E-05-3.98798E-02 1.12994E-13-4.64197E-13
 -1      1032 1.99741E+01 1.05668E-01-1.57376E-05-2.71004E-02-1.45384E-13-5.36611E-13
 -1      1033 1.99878E+01 7.70100E-02-1.15563E-05-1.76331E-02-4.60994E-14-3.93044E-13
 -1      1034 1.99965E+01 5.48496E-02-4.32774E-06-1.08162E-02 1.69724E-13-5.85888E-13
 -1      1035 2.00017E+01 3.77176E-02-1.94234E-06-5.92165E-03-5.23003E-14-5.43794E-13
 -1      1036 1.82051E+01 1.13209E+00-1.48050E-04 6.09470E-01-2.84203E-15-4.70189E-14
 -1      1037 1.89645E+01 9.20568E-01-1.56202E-04 4.32173E-01-2.45017E-13 8.85805E-15
 -1      1038 1.88282E+01 1.83139E+00-3.07445E-05-3.05338E-01 1.05906E-13-4.14099E-13
 -1      1039 1.92246E+01 7.95732E-01-1.22935E-04 3.60227E-01-2.19069E-13-1.87988E-14
 -1      1040 1.94266E+01 6.72591E-01-9.74057E-05 2.95819E-01-1.44641E-13 4.13086E-14
 -1      1041 1.95824E+01 5.57282E-01-7.79908E-05 2.38748E-01-1.71667E-13 6.44722E-14
 -1      1042 1.97013E+01 4.53410E-01-6.27241E-05 1.89134E-01-1.24469E-13 3.00412E-14
 -1      1043 1.97911E+01 3.62658E-01-5.02865E-05 1.46937E-01 8.64077E-14-9.81749E-14
 -1      1044 1.98579E+01 2.85356E-01-3.99765E-05 1.11839E-01 1.40909E-13 1.61232E-13
 -1      1045 1.99067E+01 2.20937E-01-3.14108E-05 8.32672E-02 1.81195E-14 3.14521E-13
 -1      1046 1.99417E+01 1.68292E-01-2.43297E-05 6.04864E-02 4.23938E-15 1.28997E-13
 -1      1047 1.99662E+01 1.26036E-01-1.85337E-05 4.26838E-02-4.39720E-14-9.90912E-14
 -1      1048 1.99828E+01 9.26813E-02-1.43542E-05 2.90421E-02-3.74796E-14 8.72670E-14
 -1      1049 1.99936E+01 6.67469E-02-9.39614E-06 1.88070E-02-1.95050E-13 4.02849E-13
 -1      1050 2.00000E+01 4.70093E-02-7.24824E-06 1.13325E-02-4.06693E-13 4.31392E-13
 -1      1051 2.00028E+01 3.53622E-02-5.29586E-08 6.75500E-03-9.74620E-15 6.92406E-14
 -1      1052 1.69371E+01 1.18144E+00 4.39081E-04 9.04502E-01-1.28988E-13 6.88674E-14
 -1      1053 1.86712E+01 1.10930E+00 5.85591E-04 1.09082E+00-6.60035E-15-4.45793E-13
 -1      1054 1.59629E+01 1.07318E+00-2.20910E-03 1.17977E+00-1.53076E-13 2.29069E-13
 -1      1055 1.76547E+01 1.18888E+00-7.71685E-05 7.30980E-01-6.67898E-14 5.97035E-14
 -1      1056 1.79688E+01 1.00526E+00 7.45450E-05-1.62449E+00-2.06355E-14-3.53476E-13
 -1      1057 1.79907E+01-1.94323E-01-4.11686E-03 2.51088E+00 2.12463E-13-3.21362E-13
 -1      1058 2.00040E+01 2.48000E-02 3.88732E-05 1.57993E-03 2.00185E-13 5.47925E-14
 -1      1059 1.90490E+01 1.48888E+00-1.49503E-05 7.13583E-01-1.33538E-14-4.93436E-13
 -1      1060 1.62921E+01 1.21324E+00 1.16623E-03-9.90069E-01-1.37574E-14-4.34603E-13
 -1      1061 1.79128E+01 3.33678E-01 8.08459E-04 2.03915E+00 1.57011E-13-3.69388E-13
 -1      1062 1.83854E+01 1.63021E+00-2.10525E-04-4.31776E-01 6.94223E-14-3.95580E-13
 -1      1063 1.55489E+01 7.86070E-01 4.93593E-03-1.55349E+00 1.26063E-13-1.26227E-13
 -1      1064 2.00003E+01 4.05928E-02 8.32430E-07-1.97534E-03 1.15771E-13-6.18602E-13
 -1      1065 1.50012E+01 1.18145E+00 4.66983E-03 4.82775E-01 2.44338E-14 4.61880E-13
 -1      1066 1.85473E+01 1.75585E+00 1.19835E-04 1.74611E-01 4.95719E-14-4.71551E-13
 -1      1067 1.82589E+01 1.27655E+00-2.20740E-04-1.18665E+00 7.75158E-14-3.30867E-13
 -1      1068 1.84264E+01 1.71461E+00 1.88201E-04-9.77026E-02 7.25470E-14-4.23976E-13
 -1      1069 1.62047E+01 1.31003E+00-1.24922E-03-5.59909E-02 3.13833E-14-4.55459E-13
 -1      1070 1.87339E+01 1.66497E+00 1.14889E-04 4.82808E-01 1.04804E-14-4.45693E-13
 -1      1071 1.72549E+01 1.34802E+00 1.36410E-03-8.26223E-01 1.40203E-14-3.79619E-13
 -1      1072 1.86530E+01 1.02216E+00-2.46137E-04 1.64570E-01-1.82253E-13 1.89290E-13
 -1      1073 1.68524E+01 5.59173E-01 2.05624E-03-1.77032E+00 1.86946E-13-2.26195E-14
 -1      1074 1.72421E+01 9.28346E-01 1.61004E-04-1.08713E+00 2.03384E-13-2.88780E-14
 -1      1075 1.78091E+01 1.00781E+00 1.57531E-03-7.73957E-01 1.04818E-13 2.15544E-14
 -1      1076 1.82549E+01 1.01105E+00-3.80156E-05-5.58798E-01-3.53650E-14-1.16052E-13
 -1      1077 1.86302E+01 9.59090E-01 2.33763E-04-4.04359E-01-8.00600E-14-3.57175E-13
 -1      1078 1.89353E+01 8.74338E-01 2.02391E-04-2.93896E-01-8.48015E-14-2.85198E-13
 -1      1079 1.91826E+01 7.72343E-01 1.44737E-04-2.14238E-01 1.77781E-13-2.27265E-13
 -1      1080 1.93816E+01 6.64293E-01 9.78290E-05-1.56393E-01 9.00299E-14-4.18502E-13
 -1      1081 1.95401E+01 5.58179E-01 6.52599E-05-1.14110E-01 8.85387E-14-5.34054E-13
 -1      1082 1.96646E+01 4.59274E-01 4.36617E-05-8.30362E-02 1.01053E-13-4.55366E-13
 -1      1083 1.97608E+01 3.70646E-01 2.94418E-05-6.01117E-02-4.60957E-15-2.87751E-13
 -1      1084 1.98341E+01 2.93696E-01 1.99985E-05-4.31650E-02-2.41994E-14-2.33524E-13
 -1      1085 1.98887E+01 2.28630E-01 1.36242E-05-3.06375E-02 3.76040E-14-2.60455E-13
 -1      1086 1.99287E+01 1.74865E-01 9.22810E-06-2.13979E-02-6.99340E-14-4.16902E-13
 -1      1087 1.99571E+01 1.31345E-01 6.25456E-06-1.46177E-02-1.81363E-13-6.61975E-13
 -1      1088 1.99767E+01 9.67909E-02 6.31536E-06-9.69046E-03-6.50145E-14-7.07314E-13
 -1      1089 1.99897E+01 6.96799E-02-1.32714E-05-5.92959E-03-1.15846E-13-8.37409E-13
 -1      1090 1.99963E+01 5.37207E-02 8.03143E-05-3.64983E-03-5.50639E-14-8.44317E-13
 -1      1091 1.82383E+01 1.13455E+00-1.70181E-04 1.62104E-01-1.15405E-13 1.02281E-13
 -1      1092 1.92303E+01 7.71885E-01-1.13128E-04 1.40797E-01-1.02143E-13-2.02650E-14
 -1      1093 1.94286E+01 6.49360E-01-7.41939E-05 1.22062E-01 4.95151E-15-5.90133E-14
 -1      1094 1.95825E+01 5.35873E-01-4.73891E-05 1.02273E-01-3.10021E-14-3.11305E-13
 -1      1095 1.97007E+01 4.34338E-01-2.87232E-05 8.31363E-02-2.00084E-14-5.43092E-13
 -1      1096 1.97903E+01 3.46064E-01-1.58286E-05 6.57183E-02 2.23395E-14-5.84627E-13
 -1      1097 1.98572E+01 2.71177E-01-7.13099E-06 5.05697E-02 9.60001E-14-5.29724E-13
 -1      1098 1.99063E+01 2.09008E-01-1.50380E-06 3.78670E-02 9.48339E-14-4.73504E-13
 -1      1099 1.99415E+01 1.58396E-01 1.84515E-06 2.75395E-02-3.54439E-14-2.69460E-13
 -1      1100 1.99662E+01 1.17932E-01 3.38924E-06 1.93730E-02-7.52571E-14-7.77016E-15
 -1      1101 1.99829E+01 8.61222E-02 4.25636E-06 1.30922E-02-1.68804E-13 2.12903E-13
 -1      1102 1.99938E+01 6.14181E-02 4.60364E-05 8.36947E-03-2.10888E-13 6.86857E-15
 -1      1103 1.72654E+01 1.25390E+00 1.72024E-04 8.09639E-01 6.28348E-14-4.50579E-13
 -1      1104 1.70246E+01 1.26180E+00 7.44491E-05 1.47286E-01 1.73724E-14 4.26255E-14
 -1      1105 1.60772E+01 1.24889E+00 2.99682E-04 1.10895E-01 5.34586E-14 3.29484E-13
 -1      1106 1.81426E+01 1.43194E+00-1.01001E-03 6.31764E-01 5.09666E-14-3.96380E-13
 -1      1107 1.77021E+01 1.22565E+00 4.80527E-04 1.54604E-01-1.18605E-13 1.57353E-14
 -1      1108 1.89766E+01 8.98527E-01-1.70670E-04 1.56040E-01-1.76511E-13 6.71164E-14
 -1      1109 1.78326E+01 1.50164E+00-5.49770E-04-5.09979E-01 6.81792E-14-4.08892E-13
 -1      1110 1.74098E+01 1.46208E+00-2.38213E-03 8.48417E-02 4.66636E-14-4.28771E-13
 -1      1111 2.00022E+01 3.43617E-02-1.17005E-05 3.17191E-03 1.67372E-13-1.82570E-13
 -1      1112 1.55331E+01 1.13613E+00 5.12507E-03-6.35973E-01 1.51338E-13 2.46024E-13
 -1      1113 1.99988E+01 4.67259E-02 1.12666E-05 5.06518E-03-1.03005E-13-2.34955E-13
 -1      1114 1.71827E+01 1.18898E+00-5.40879E-03-3.53482E-01 1.78957E-13 9.39332E-15
 -1      1115 1.64174E+01 1.10435E+00 9.24897E-04-7.93721E-01 1.85008E-13 2.78109E-15
 -1      1116 1.79783E+01 1.58337E+00 5.07937E-04-3.01785E-02 7.26829E-14-4.21359E-13
 -1      1117 1.99973E+01 4.92886E-02-5.85563E-05 3.03460E-05 5.86464E-14-1.81990E-13
 -1      1118 2.78978E+01 9.05366E+00 2.28088E+00-6.52481E+00-7.34968E-14 2.06379E-12
 -1      1119 2.07885E+01 6.30654E+00 2.33248E-01-3.65034E+00-3.79974E-14 1.56687E-13
 -1      1120 1.96812E+01 5.93198E+00 9.20273E-02-2.56494E+00-2.67009E-14-6.32289E-13
 -1      1121 1.91933E+01 5.77809E+00 6.70032E-02-1.87880E+00-1.68685E-14-9.98176E-13
 -1      1122 1.88902E+01 5.68369E+00 5.53759E-02-1.35144E+00-1.03424E-14-1.16555E-12
 -1      1123 1.86743E+01 5.61611E+00 4.60500E-02-9.27178E-01-6.77236E-15-1.23189E-12
 -1      1124 1.85191E+01 5.56731E+00 3.86151E-02-5.72992E-01-3.85282E-15-1.25120E-12
 -1      1125 1.84212E+01 5.53640E+00 3.34521E-02-2.62875E-01 3.29597E-17-1.24720E-12
 -1      1126 1.83857E+01 5.52509E+00 3.13181E-02 2.18591E-02 3.67913E-15-1.22773E-12
 -1      1127 1.84153E+01 5.53436E+00 3.25415E-02 3.03845E-01 6.80272E-15-1.19285E-12
 -1      1128 1.85106E+01 5.56434E+00 3.71694E-02 6.06780E-01 8.27290E-15-1.13048E-12
 -1      1129 1.86692E+01 5.61429E+00 4.50502E-02 9.52288E-01 1.20320E-14-1.03557E-12
 -1      1130 1.88932E+01 5.68446E+00 5.50090E-02 1.36995E+00 1.69274E-14-8.76337E-13
 -1      1131 1.92053E+01 5.78165E+00 6.68173E-02 1.89725E+00 2.27179E-14-6.11284E-13
 -1      1132 1.96917E+01 5.93370E+00 8.72764E-02 2.58863E+00 2.98372E-14-1.31129E-13
 -1      1133 2.07062E+01 6.26590E+00 1.80076E-01 3.61415E+00 3.25018E-14 7.89244E-13
 -1      1134 2.52131E+01 7.98600E+00 1.40682E+00 5.66677E+00 6.45040E-14 2.65776E-12
 -1      1135 2.86381E+01 3.52126E+00 1.18438E+00-4.10290E+00-2.92794E-13 3.27238E-12
 -1      1136 2.05054E+01-1.81936E-01-6.19566E-01-8.53274E-02-9.73527E-14 2.58578E-12
 -1      1137 1.94251E+01-9.82530E-02-2.33596E-01 6.81554E-02-3.65749E-14 1.65186E-12
 -1      1138 1.93692E+01-5.19237E-02-6.28009E-02 4.47998E-02-3.07298E-14 9.78113E-13
 -1      1139 1.96206E+01-2.99526E-02-2.21054E-02 3.24043E-02-1.57504E-14 5.72535E-13
 -1      1140 2.00586E+01-1.86056E-02-1.29683E-02 2.68867E-02-9.76888E-15 3.05887E-13
 -1      1141 2.06168E+01-1.07149E-02-7.92058E-03 2.45196E-02-1.51262E-14 3.77823E-14
 -1      1142 2.12439E+01-3.25824E-03-9.90189E-04 2.33935E-02-1.74735E-14-1.93713E-13
 -1      1143 2.18832E+01 5.49817E-03 9.62170E-03 2.18515E-02-9.63379E-15-3.37477E-13
 -1      1144 2.24575E+01 1.64157E-02 2.47510E-02 1.79674E-02-1.10944E-14-5.19525E-13
 -1      1145 2.28612E+01 2.90879E-02 4.36434E-02 9.44823E-03-9.03357E-15-6.62623E-13
 -1      1146 2.29642E+01 4.10209E-02 6.22562E-02-5.77617E-03 8.66928E-15-6.90347E-13
 -1      1147 2.26387E+01 4.70245E-02 7.20056E-02-2.79655E-02-1.04240E-14-7.72937E-13
 -1      1148 2.18169E+01 4.00213E-02 6.13237E-02-5.32436E-02-5.73456E-15-7.97237E-13
 -1      1149 2.05716E+01 1.50153E-02 2.22506E-02-7.21311E-02-4.96012E-15-8.28365E-13
 -1      1150 1.91724E+01-2.45474E-02-3.93466E-02-7.23388E-02-7.70803E-15-9.02042E-13
 -1      1151 1.80457E+01-6.32666E-02-9.91277E-02-4.67686E-02-1.36878E-14-1.07728E-12
 -1      1152 1.76068E+01-8.05618E-02-1.25639E-01-1.49104E-03-1.31839E-16-1.25654E-12
 -1      1153 1.80402E+01-6.58918E-02-1.03170E-01 4.46735E-02-1.86040E-14-1.16791E-12
 -1      1154 1.91890E+01-2.83867E-02-4.52919E-02 7.23224E-02-9.53924E-15-1.34980E-12
 -1      1155 2.06511E+01 1.14738E-02 1.67507E-02 7.41734E-02-1.40519E-14-1.38393E-12
 -1      1156 2.19967E+01 3.75060E-02 5.74491E-02 5.67036E-02-1.02431E-14-1.36988E-12
 -1      1157 2.29454E+01 4.55283E-02 6.96509E-02 3.21964E-02 2.33893E-14-1.09820E-12
 -1      1158 2.34140E+01 4.02656E-02 6.07656E-02 1.04732E-02-5.16592E-14-1.09597E-12
 -1      1159 2.34639E+01 2.88342E-02 4.24602E-02-4.15706E-03 1.48419E-14-1.03562E-12
 -1      1160 2.32206E+01 1.67480E-02 2.36932E-02-1.16935E-02 2.00762E-14-7.98125E-13
 -1      1161 2.28126E+01 6.84198E-03 8.89925E-03-1.40463E-02 2.82535E-14-7.73107E-13
 -1      1162 2.23413E+01-5.86523E-05-9.08071E-04-1.33515E-02-1.52596E-15-8.60718E-13
 -1      1163 2.18748E+01-4.21449E-03-6.43056E-03-1.12439E-02-2.43099E-14-8.16874E-13
 -1      1164 2.14519E+01-6.27958E-03-8.88165E-03-8.74360E-03 3.34601E-14-7.84211E-13
 -1      1165 2.10901E+01-6.93120E-03-9.39040E-03-6.38853E-03-3.10075E-14-1.05219E-12
 -1      1166 2.07938E+01-6.72181E-03-8.80731E-03-4.40658E-03 2.75122E-14-1.02563E-12
 -1      1167 2.05593E+01-6.04981E-03-7.70165E-03-2.85235E-03-1.68829E-14-8.70280E-13
 -1      1168 2.03791E+01-5.17916E-03-6.42313E-03-1.69582E-03 1.28859E-14-1.00347E-12
 -1      1169 2.02446E+01-4.27215E-03-5.16951E-03-8.73482E-04 4.06975E-14-8.60055E-13
 -1      1170 2.01469E+01-3.42036E-03-4.04094E-03-3.14960E-04 2.04547E-14-6.30633E-13
 -1      1171 2.00783E+01-2.66896E-03-3.07828E-03 4.45481E-05-3.24238E-14-7.55600E-13
 -1      1172 2.00318E+01-2.03427E-03-2.28830E-03 2.59620E-04 1.01354E-14-7.63346E-13
 -1      1173 2.00019E+01-1.51563E-03-1.65963E-03 3.73795E-04 2.91976E-14-3.74495E-13
 -1      1174 1.99841E+01-1.10321E-03-1.17235E-03 4.20503E-04-3.11734E-15-3.87415E-13
 -1      1175 1.99749E+01-7.82864E-04-8.03623E-04 4.24632E-04 3.79698E-14-6.83166E-13
 -1      1176 1.99716E+01-5.39034E-04-5.30762E-04 4.04176E-04-2.09311E-14-9.50478E-13
 -1      1177 1.99722E+01-3.56388E-04-3.32651E-04 3.71721E-04-2.56660E-15-1.18777E-12
 -1      1178 1.99754E+01-2.20537E-04-1.90043E-04 3.35641E-04 8.24991E-15-8.78314E-13
 -1      1179 1.99800E+01-1.18153E-04-8.48552E-05 3.00810E-04 6.95546E-14-6.93943E-13
 -1      1180 1.99853E+01-3.68458E-05 1.39459E-06 2.68597E-04 3.16848E-14-1.89758E-13
 -1      1181 1.99906E+01 3.47477E-05 8.89691E-05 2.35222E-04 5.91497E-14-1.43198E-13
 -1      1182 1.99954E+01 1.04524E-04 1.90037E-04 1.83435E-04-2.91584E-15 1.98569E-14
 -1      1183 1.99988E+01 1.78841E-04 2.62403E-04 7.63097E-05 1.20561E-15-2.76046E-13
 -1      1184 1.99999E+01-3.20875E-05-3.05504E-05-4.80242E-05 1.07782E-13-2.99450E-14
 -1      1185 2.76137E+01 5.15347E-01 3.07038E-01 1.92829E+00-5.04805E-14 4.18687E-12
 -1      1186 2.03883E+01-7.04380E-02-5.74531E-01 1.20493E-01 2.37865E-14 3.38843E-12
 -1      1187 1.95267E+01-4.61910E-02-1.94028E-01 1.80229E-02 2.70617E-14 2.55193E-12
 -1      1188 1.94588E+01-2.93930E-02-5.81928E-02 2.94403E-03 9.36924E-15 1.96991E-12
 -1      1189 1.97515E+01-2.27042E-02-2.68158E-02-1.70464E-03 1.56201E-14 1.60974E-12
 -1      1190 2.02797E+01-1.95144E-02-2.24499E-02-3.80802E-03 1.21524E-14 1.37828E-12
 -1      1191 2.09917E+01-1.70481E-02-2.24729E-02-6.35182E-03 3.48029E-16 1.24195E-12
 -1      1192 2.18612E+01-1.32260E-02-2.06215E-02-1.06956E-02-1.41814E-15 1.16762E-12
 -1      1193 2.28587E+01-5.70887E-03-1.32906E-02-1.77808E-02 1.55646E-14 8.68770E-13
 -1      1194 2.39262E+01 8.07402E-03 4.04554E-03-2.79327E-02 2.47014E-14 7.52252E-13
 -1      1195 2.49456E+01 2.97240E-02 3.61087E-02-3.96560E-02 2.58318E-14 5.55798E-13
 -1      1196 2.57079E+01 5.68800E-02 8.33640E-02-4.75932E-02 4.61957E-15 4.99744E-13
 -1      1197 2.59063E+01 7.88430E-02 1.33568E-01-4.11039E-02-1.60783E-14 6.25056E-13
 -1      1198 2.52080E+01 7.58917E-02 1.54769E-01-7.60417E-03 3.67935E-15 6.23779E-13
 -1      1199 2.34598E+01 3.11421E-02 1.05561E-01 5.48239E-02 4.49120E-15 6.54685E-13
 -1      1200 2.09846E+01-4.51774E-02-2.56444E-02 1.21166E-01 1.78726E-14 5.18419E-13
 -1      1201 1.87043E+01-1.05919E-01-1.79600E-01 1.43753E-01-5.45683E-14 4.56468E-13
 -1      1202 1.77489E+01-1.05850E-01-2.50836E-01 9.24087E-02 1.38015E-14 3.68646E-13
 -1      1203 1.86636E+01-5.22717E-02-1.87934E-01-7.40285E-03-6.76195E-15 6.92085E-14
 -1      1204 2.09582E+01 8.24611E-03-4.66229E-02-9.22742E-02 2.17133E-14-1.48354E-13
 -1      1205 2.35180E+01 4.17063E-02 7.32682E-02-1.21346E-01 6.06069E-15-3.77171E-13
 -1      1206 2.54026E+01 4.67009E-02 1.21052E-01-1.00163E-01-9.13245E-15-4.01387E-13
 -1      1207 2.62582E+01 3.60780E-02 1.08755E-01-5.85299E-02 5.71071E-14-6.45241E-13
 -1      1208 2.62177E+01 2.18597E-02 7.08748E-02-2.07113E-02-4.07833E-14-7.86869E-13
 -1      1209 2.56087E+01 9.94160E-03 3.37749E-02 3.91721E-03 5.67688E-15-3.85175E-13
 -1      1210 2.47412E+01 1.87757E-03 7.96736E-03 1.60826E-02-2.53910E-14-6.94098E-14
 -1      1211 2.38277E+01-2.77477E-03-6.31832E-03 1.98789E-02-6.70701E-14 1.12410E-14
 -1      1212 2.29858E+01-5.00776E-03-1.24728E-02 1.91544E-02 2.89414E-14-3.72643E-13
 -1      1213 2.22657E+01-5.73329E-03-1.39286E-02 1.64920E-02 1.23139E-14-7.96507E-13
 -1      1214 2.16782E+01-5.61385E-03-1.30734E-02 1.33276E-02-1.49511E-16-6.92849E-13
 -1      1215 2.12146E+01-5.07600E-03-1.12970E-02 1.03429E-02-6.76510E-15-3.01902E-13
 -1      1216 2.08579E+01-4.37327E-03-9.31429E-03 7.79781E-03 3.13291E-14-3.07059E-13
 -1      1217 2.05891E+01-3.64633E-03-7.45202E-03 5.74350E-03-5.63419E-14 1.87792E-13
 -1      1218 2.03905E+01-2.96706E-03-5.83484E-03 4.14091E-03-2.16399E-14 3.23267E-13
 -1      1219 2.02468E+01-2.36743E-03-4.49000E-03 2.92007E-03 1.42299E-14-1.61854E-13
 -1      1220 2.01451E+01-1.85726E-03-3.40190E-03 2.00739E-03-1.83925E-14-1.47577E-13
 -1      1221 2.00751E+01-1.43461E-03-2.53880E-03 1.33661E-03 1.00791E-13-5.75314E-13
 -1      1222 2.00286E+01-1.09184E-03-1.86526E-03 8.52038E-04 2.28160E-14-6.63551E-13
 -1      1223 1.99992E+01-8.18906E-04-1.34754E-03 5.08541E-04 2.87194E-14-6.83130E-13
 -1      1224 1.99819E+01-6.05157E-04-9.55598E-04 2.70280E-04-7.25754E-14-3.46813E-13
 -1      1225 1.99733E+01-4.40265E-04-6.63526E-04 1.09122E-04 3.44690E-14-7.92840E-13
 -1      1226 1.99705E+01-3.14597E-04-4.49325E-04 3.14201E-06 3.88897E-14-5.29207E-13
 -1      1227 1.99715E+01-2.19302E-04-2.94306E-04-6.46920E-05 1.18970E-14-2.78897E-13
 -1      1228 1.99749E+01-1.46097E-04-1.82185E-04-1.07653E-04-4.88305E-15 3.64989E-14
 -1      1229 1.99796E+01-8.67615E-05-9.74906E-05-1.36175E-04-2.28975E-14 2.69919E-13
 -1      1230 1.99850E+01-3.26240E-05-2.32470E-05-1.58236E-04-6.87308E-14 6.30742E-13
 -1      1231 1.99905E+01 2.59029E-05 6.05465E-05-1.78709E-04-1.27387E-14 4.22420E-13
 -1      1232 1.99953E+01 9.49275E-05 1.67259E-04-1.92883E-04 9.54566E-14-2.91037E-13
 -1      1233 1.99988E+01 1.46467E-04 2.42341E-04-1.59929E-04 8.82103E-14-7.55715E-13
 -1      1234 1.99999E+01-3.50452E-05-3.66240E-05 3.90541E-05-4.26189E-14-3.60450E-13
 -1      1235 1.99998E+01 9.93932E-05-3.97973E-05 2.56262E-05-3.88776E-13-1.41840E-13
 -1      1236 1.99999E+01-1.05973E-03 2.18351E-04-6.48474E-05-1.01807E-12-8.45551E-14
 -1      1237 1.99999E+01-4.31507E-03 1.22705E-04-1.69232E-04-4.14860E-13 7.38789E-16
 -1      1238 1.99998E+01-8.43065E-03-5.01684E-06-1.78003E-04 5.15919E-13-3.25902E-14
 -1      1239 1.99997E+01-1.24749E-02-8.91205E-05-1.51435E-04 8.77263E-13-3.19663E-14
 -1      1240 1.99997E+01-1.58858E-02-1.33370E-04-1.12284E-04-2.30629E-13-1.43972E-13
 -1      1241 1.99997E+01-1.84178E-02-1.50975E-04-7.43113E-05-5.09638E-13-7.91148E-14
 -1      1242 1.99997E+01-1.99650E-02-1.56793E-04-3.55961E-05-5.70838E-13 4.73336E-14
 -1      1243 1.99997E+01-2.04580E-02-1.57141E-04 1.38189E-06-4.01417E-13-6.26639E-14
 -1      1244 1.99997E+01-1.98934E-02-1.54790E-04 3.80800E-05 4.66154E-14-4.04637E-14
 -1      1245 1.99997E+01-1.82882E-02-1.47224E-04 7.59870E-05 1.43063E-13-4.55616E-14
 -1      1246 1.99997E+01-1.57206E-02-1.28254E-04 1.14950E-04-1.50605E-12 2.83734E-14
 -1      1247 1.99997E+01-1.23057E-02-8.54227E-05 1.50945E-04-7.87739E-13 8.88231E-14
 -1      1248 1.99998E+01-8.27777E-03-2.26501E-07 1.78853E-04 5.04558E-14 1.07009E-13
 -1      1249 1.99999E+01-4.14847E-03 1.47251E-04 1.98496E-04-2.39459E-13-4.39712E-14
 -1      1250 2.00000E+01-1.06952E-03 2.21643E-04 5.96458E-05-2.11859E-13-1.94653E-13
 -1      1251 1.99997E+01 9.67414E-05-5.14734E-05-1.85087E-05-4.42592E-14 9.10937E-14
 -1      1252-1.12588E+00-2.42015E+01-3.73673E+00-2.35629E+00 6.52034E-13 1.37137E-13
 -1      1253-1.94799E+00-1.53349E+01-3.12475E+00-4.11008E+00 1.82809E-12 7.72493E-13
 -1      1254 2.22106E-01-2.70790E+00-1.96222E+00-2.73425E-01 2.92455E-12 1.82609E-12
 -1      1255 9.79177E+00 7.62564E+00-2.87189E-01 8.51952E+00 2.86526E-12 2.88836E-12
 -1      1256 2.73896E+01 1.08490E+01 1.51471E+00 1.64539E+01 2.35800E-12 3.49587E-12
 -1      1257 4.79414E+01 7.93534E+00 3.17979E+00 1.72995E+01 1.10717E-12 2.67142E-12
 -1      1258 6.39885E+01 3.43012E+00 4.21508E+00 9.43208E+00 3.03813E-13 6.70131E-13
 -1      1259 6.81572E+01 1.97769E+00 4.51133E+00-3.61537E+00 2.50695E-13-1.66334E-12
 -1      1260 5.72586E+01 5.42963E+00 3.73767E+00-1.45957E+01 1.02141E-12-3.28271E-12
 -1      1261 3.80708E+01 9.91381E+00 2.38746E+00-1.82236E+01 2.33702E-12-4.33764E-12
 -1      1262 1.84982E+01 1.05621E+01 7.04121E-01-1.34851E+01 3.42393E-12-4.18510E-12
 -1      1263 4.58992E+00 4.14877E+00-9.87456E-01-4.50706E+00 3.76477E-12-3.02403E-12
 -1      1264-1.31821E+00-8.16656E+00-2.48069E+00 2.78359E+00 3.41394E-12-1.76481E-12
 -1      1265-1.68157E+00-1.99435E+01-3.46936E+00 4.17159E+00 2.08711E-12-6.86340E-13
 -1      1266-9.60283E-01-2.54076E+01-3.82968E+00 7.34414E-01-2.41987E-13-1.81709E-13
 -1      1267-1.39045E+00-2.18997E+01-3.59003E+00-3.39002E+00-2.49378E-12-6.46816E-13
 -1      1268-1.55114E+00-1.08248E+01-2.68660E+00-3.23058E+00-4.18199E-12-1.91958E-12
 -1      1269 3.61198E+00 2.43903E+00-1.17156E+00 3.54224E+00-4.42668E-12-3.27749E-12
 -1      1270 1.66619E+01 1.03865E+01 5.96777E-01 1.28304E+01-3.62776E-12-4.16067E-12
 -1      1271 3.66180E+01 1.00306E+01 2.26816E+00 1.79142E+01-2.22788E-12-3.87379E-12
 -1      1272 5.65069E+01 5.17061E+00 3.59985E+00 1.45018E+01-8.07576E-13-2.62801E-12
 -1      1273 6.61044E+01 1.78451E+00 4.10019E+00 3.45124E+00-1.36599E-13-7.10099E-13
 -1      1274 6.28609E+01 2.88588E+00 3.91212E+00-9.41712E+00-4.30656E-13 1.66744E-12
 -1      1275 4.76167E+01 7.56273E+00 2.96972E+00-1.73473E+01-1.40765E-12 3.54672E-12
 -1      1276 2.74102E+01 1.10890E+01 1.56673E+00-1.65226E+01-2.19103E-12 3.39773E-12
 -1      1277 1.04637E+01 8.56024E+00-4.00267E-02-9.23411E+00-2.62568E-12 2.62146E-12
 -1      1278 7.55559E-01-1.38106E+00-1.71535E+00-4.72399E-01-2.92211E-12 1.85829E-12
 -1      1279-1.72049E+00-1.46407E+01-2.97877E+00 3.84792E+00-2.50155E-12 9.75109E-13
 -1      1280-1.02272E+00-2.39668E+01-3.69030E+00 2.16636E+00-5.65437E-13 2.69399E-13
 -1      1281 2.24227E+01 1.85044E+00-7.14033E-01-2.65713E+00-1.08497E-13 1.63253E-12
 -1      1282 2.06482E+01 4.70151E+00-4.20174E-02-3.02206E+00-2.91697E-13-2.19158E-13
 -1      1283 2.11444E+01 4.80722E+00-9.94447E-02-3.90138E+00-3.76560E-13 1.94712E-13
 -1      1284 1.97809E+01 5.02084E+00-1.73007E-02-2.31336E+00-2.74100E-13-7.92689E-13
 -1      1285 2.01131E+01 5.12567E+00 1.01428E-02-2.72603E+00-3.18370E-13-5.48679E-13
 -1      1286 2.08368E+01 3.94666E+00-2.12212E-02-2.75985E+00-5.03063E-13-1.93234E-13
 -1      1287 1.93237E+01 5.11752E+00-4.83401E-03-1.71105E+00-2.11074E-13-1.07223E-12
 -1      1288 1.95339E+01 5.19007E+00 1.66513E-02-2.00824E+00-2.44832E-13-9.48772E-13
 -1      1289 1.99896E+01 4.39488E+00-2.14220E-02-2.13631E+00-4.24348E-13-6.64975E-13
 -1      1290 1.90118E+01 5.16258E+00-4.59028E-04-1.22305E+00-1.48721E-13-1.19945E-12
 -1      1291 1.91607E+01 5.21301E+00 1.56338E-02-1.45961E+00-1.71901E-13-1.14533E-12
 -1      1292 1.94937E+01 4.61413E+00-1.83008E-02-1.57476E+00-3.16612E-13-9.09085E-13
 -1      1293 1.87844E+01 5.18905E+00 1.16899E-03-8.27218E-01-8.58185E-14-1.25500E-12
 -1      1294 1.88932E+01 5.22523E+00 1.32807E-02-1.01928E+00-1.07858E-13-1.22904E-12
 -1      1295 1.91557E+01 4.74604E+00-1.47995E-02-1.11607E+00-2.11949E-13-1.01535E-12
 -1      1296 1.86206E+01 5.20629E+00 1.86754E-03-4.86513E-01-3.86644E-14-1.26717E-12
 -1      1297 1.86965E+01 5.23103E+00 1.03139E-02-6.52979E-01-5.17485E-14-1.26738E-12
 -1      1298 1.89091E+01 4.83229E+00-1.27202E-02-7.36309E-01-1.14657E-13-1.06646E-12
 -1      1299 1.85253E+01 5.21888E+00 2.79460E-03-1.86785E-01 1.80528E-14-1.24708E-12
 -1      1300 1.85656E+01 5.23187E+00 7.40637E-03-3.35353E-01 8.70831E-16-1.25383E-12
 -1      1301 1.87399E+01 4.88767E+00-1.15548E-02-4.08699E-01-3.53927E-14-1.05828E-12
 -1      1302 1.85025E+01 5.22832E+00 4.33847E-03 9.33837E-02 6.77008E-14-1.22586E-12
 -1      1303 1.85050E+01 5.22909E+00 4.89326E-03-4.82128E-02 5.35774E-14-1.24188E-12
 -1      1304 1.86505E+01 4.91694E+00-1.10078E-02-1.16260E-01 5.85455E-14-1.04787E-12
 -1      1305 1.85551E+01 5.23469E+00 6.64578E-03 3.76290E-01 1.11892E-13-1.18985E-12
 -1      1306 1.85186E+01 5.22288E+00 2.94935E-03 2.30339E-01 9.79165E-14-1.21564E-12
 -1      1307 1.86448E+01 4.92118E+00-1.09506E-02 1.62143E-01 1.35677E-13-1.02841E-12
 -1      1308 1.86833E+01 5.23662E+00 9.58169E-03 6.85353E-01 1.60233E-13-1.12258E-12
 -1      1309 1.86080E+01 5.21233E+00 1.58135E-03 5.23122E-01 1.41990E-13-1.16417E-12
 -1      1310 1.87254E+01 4.89909E+00-1.13975E-02 4.48597E-01 2.10711E-13-9.87309E-13
 -1      1311 1.88824E+01 5.23257E+00 1.29347E-02 1.03868E+00 2.10568E-13-1.01476E-12
 -1      1312 1.87706E+01 5.19542E+00 4.69420E-04 8.51114E-01 1.91555E-13-1.07799E-12
 -1      1313 1.88915E+01 4.84780E+00-1.23374E-02 7.63271E-01 2.88236E-13-9.14969E-13
 -1      1314 1.91639E+01 5.21923E+00 1.59342E-02 1.47569E+00 2.75811E-13-8.38628E-13
 -1      1315 1.90078E+01 5.16644E+00-1.33900E-03 1.24135E+00 2.46997E-13-9.43978E-13
 -1      1316 1.91447E+01 4.75978E+00-1.43794E-02 1.13285E+00 3.77394E-13-7.96432E-13
 -1      1317 1.95517E+01 5.19225E+00 1.68456E-02 2.02537E+00 3.39104E-13-5.50650E-13
 -1      1318 1.93340E+01 5.11613E+00-6.17377E-03 1.72647E+00 3.06869E-13-7.25794E-13
 -1      1319 1.95021E+01 4.61881E+00-1.77542E-02 1.58804E+00 4.72384E-13-6.05568E-13
 -1      1320 2.01528E+01 5.13891E+00 1.66870E-02 2.74602E+00 3.76116E-13-2.77278E-14
 -1      1321 1.98040E+01 5.01605E+00-1.81944E-02 2.33694E+00 3.39270E-13-3.43316E-13
 -1      1322 2.00180E+01 4.38608E+00-2.11949E-02 2.15584E+00 5.43796E-13-2.74523E-13
 -1      1323 2.13763E+01 4.90114E+00 1.82536E-02 3.78912E+00 3.19023E-13 9.50448E-13
 -1      1324 2.06399E+01 4.74413E+00-4.05742E-02 3.11257E+00 3.13125E-13 3.55223E-13
 -1      1325 2.08899E+01 3.91488E+00-1.68568E-02 2.84219E+00 5.58747E-13 3.09364E-13
 -1      1326 2.71905E+01 3.16177E+00 8.87767E-01 4.41378E+00 1.50296E-13 2.78150E-12
 -1      1327 2.22417E+01 3.51247E+00-1.73832E-01 3.67041E+00 1.53003E-13 1.51468E-12
 -1      1328 2.24146E+01 2.53768E+00-2.60925E-02 3.18139E+00 5.08881E-13 1.19318E-12
 -1      1329 2.16431E+01 3.46669E-01-7.56103E-01 1.05670E+00 2.67508E-13 2.68185E-12
 -1      1330 2.22620E+01 1.22716E-01-3.97244E-01-1.15173E+00-3.08933E-13 1.74885E-12
 -1      1331 2.10857E+01 2.97466E-01-1.58651E-01-6.91683E-01-2.86424E-13 1.38276E-12
 -1      1332 2.05795E+01 1.52859E-01-7.09704E-02-2.89790E-01-2.35541E-13 1.23308E-12
 -1      1333 2.02487E+01 9.21822E-02-1.25071E-02-2.19263E-01-2.22725E-13 8.90611E-13
 -1      1334 2.14183E+01 3.58794E-01-1.03369E-01-1.05357E+00-5.06581E-13 6.49546E-13
 -1      1335 2.00026E+01 6.85169E-02 3.79038E-03-1.88222E-02-1.80996E-13 7.74054E-13
 -1      1336 1.99931E+01 4.63185E-02 1.39910E-02 1.55347E-03-1.68095E-13 5.23540E-13
 -1      1337 2.05702E+01 1.35544E-01-3.63707E-02-2.80241E-01-3.97141E-13 4.33775E-13
 -1      1338 1.99585E+01 3.85478E-02 1.28622E-02 1.04250E-01-1.19599E-13 4.24411E-13
 -1      1339 2.01027E+01 2.63664E-02 1.10761E-02 1.17640E-01-1.12150E-13 2.57100E-13
 -1      1340 2.03245E+01 6.46516E-02-1.04632E-02 7.69791E-02-2.82630E-13 2.34247E-13
 -1      1341 2.01902E+01 2.42366E-02 7.85822E-03 1.77830E-01-8.40755E-14 1.96444E-13
 -1      1342 2.04207E+01 1.60005E-02 6.04276E-03 1.86891E-01-7.21949E-14 9.07312E-14
 -1      1343 2.03792E+01 3.67176E-02-5.95676E-03 2.72244E-01-1.98635E-13 6.58848E-14
 -1      1344 2.05821E+01 1.51180E-02 3.43344E-03 2.23272E-01-8.95790E-14 3.55271E-14
 -1      1345 2.08630E+01 7.88348E-03 2.90770E-03 2.28828E-01-9.34346E-14-9.60482E-14
 -1      1346 2.06219E+01 2.17355E-02-4.61202E-03 3.89773E-01-1.63883E-13-2.39210E-14
 -1      1347 2.10665E+01 6.56736E-03 1.06437E-03 2.45488E-01-5.83105E-14-1.13874E-13
 -1      1348 2.13685E+01-1.12887E-03 1.23508E-03 2.47005E-01-4.52198E-14-1.92920E-13
 -1      1349 2.09790E+01 8.76216E-03-2.97195E-03 4.55294E-01-1.37667E-13-7.36225E-14
 -1      1350 2.15865E+01-3.99570E-03 1.89477E-04 2.41231E-01-3.14783E-14-2.40828E-13
 -1      1351 2.18755E+01-1.28898E-02 5.23519E-04 2.37132E-01-2.79683E-14-2.82049E-13
 -1      1352 2.13939E+01-7.22956E-03-5.20248E-04 4.70506E-01-8.43965E-14-1.65016E-13
 -1      1353 2.20779E+01-1.81611E-02 5.45924E-04 2.02338E-01-3.78716E-14-2.99611E-13
 -1      1354 2.23093E+01-2.81387E-02 7.25453E-04 1.90339E-01-6.58458E-14-3.77138E-13
 -1      1355 2.18112E+01-2.91179E-02 2.95667E-03 4.24348E-01-7.14888E-14-1.82237E-13
 -1      1356 2.24604E+01-3.60812E-02 2.17224E-03 1.19097E-01-4.91764E-14-3.94931E-13
 -1      1357 2.25780E+01-4.56435E-02 1.93847E-03 9.70032E-02-8.16664E-15-4.26941E-13
 -1      1358 2.21673E+01-5.74532E-02 7.58932E-03 2.99832E-01-8.23430E-14-1.95639E-13
 -1      1359 2.26379E+01-5.51721E-02 4.92148E-03-1.37189E-02-1.03806E-14-4.78099E-13
 -1      1360 2.25819E+01-6.08566E-02 3.94029E-03-4.63213E-02-3.33657E-14-5.17281E-13
 -1      1361 2.23882E+01-8.85058E-02 1.30346E-02 8.36387E-02-4.73102E-14-2.32221E-13
 -1      1362 2.25137E+01-6.86913E-02 7.90074E-03-1.87170E-01-3.12250E-14-4.90663E-13
 -1      1363 2.22404E+01-6.52381E-02 5.73043E-03-2.26318E-01-4.94830E-15-5.35526E-13
 -1      1364 2.23968E+01-1.11963E-01 1.79140E-02-2.18181E-01-3.60476E-14-2.87830E-13
 -1      1365 2.20256E+01-6.59914E-02 9.19689E-03-3.67449E-01 2.10656E-14-5.35665E-13
 -1      1366 2.15388E+01-4.84216E-02 5.54911E-03-4.02526E-01-2.78033E-14-5.42733E-13
 -1      1367 2.21353E+01-1.10988E-01 1.94871E-02-5.60391E-01-7.34742E-15-3.20219E-13
 -1      1368 2.11986E+01-3.70082E-02 6.69309E-03-4.92980E-01-5.05373E-14-5.72556E-13
 -1      1369 2.05799E+01-5.20792E-03 1.70675E-03-5.07658E-01-7.51506E-14-6.13176E-13
 -1      1370 2.16004E+01-6.89907E-02 1.43350E-02-8.46394E-01-9.88038E-14-3.20348E-13
 -1      1371 2.01910E+01 1.75539E-02-3.25128E-04-4.92625E-01-8.25139E-14-6.39086E-13
 -1      1372 1.96028E+01 5.46268E-02-5.47613E-03-4.72774E-01-5.67944E-14-6.92578E-13
 -1      1373 2.08837E+01 1.56698E-02 7.82469E-04-9.45637E-01-1.14948E-13-4.00333E-13
 -1      1374 1.92873E+01 7.89956E-02-9.09892E-03-3.28338E-01-7.74034E-14-7.42465E-13
 -1      1375 1.89240E+01 1.05102E-01-1.25109E-02-2.73502E-01-1.10549E-13-8.59673E-13
 -1      1376 2.01822E+01 1.17573E-01-1.76110E-02-7.57223E-01-1.38134E-13-4.98629E-13
 -1      1377 1.88028E+01 1.16441E-01-1.44839E-02-3.57649E-02-4.67473E-14-8.89958E-13
 -1      1378 1.88025E+01 1.17558E-01-1.45751E-02 3.49431E-02-1.26843E-14-8.56822E-13
 -1      1379 1.97434E+01 1.89555E-01-3.17733E-02-2.91798E-01-1.13288E-13-5.51565E-13
 -1      1380 1.89300E+01 1.08049E-01-1.30337E-02 2.77007E-01-3.21323E-14-9.06089E-13
 -1      1381 1.92991E+01 8.35573E-02-9.69626E-03 3.34185E-01-5.13305E-14-9.40605E-13
 -1      1382 1.97491E+01 1.92971E-01-3.24240E-02 2.96191E-01-6.83620E-14-6.12083E-13
 -1      1383 1.96292E+01 5.99936E-02-6.24418E-03 4.89255E-01-6.63766E-14-9.85628E-13
 -1      1384 2.02391E+01 2.31690E-02-9.84276E-04 5.12422E-01-6.23655E-14-1.08536E-12
 -1      1385 2.02078E+01 1.25704E-01-1.92587E-02 7.80262E-01-8.20550E-14-6.89759E-13
 -1      1386 2.06546E+01 1.96585E-04 1.08021E-03 5.39361E-01-4.78415E-15-1.09997E-12
 -1      1387 2.13131E+01-3.23637E-02 6.32030E-03 5.27555E-01-1.58957E-14-1.11394E-12
 -1      1388 2.09500E+01 2.51727E-02-8.29585E-04 9.96347E-01-5.70060E-14-7.60465E-13
 -1      1389 2.16908E+01-4.42327E-02 5.18146E-03 4.46774E-01 1.72822E-14-1.04398E-12
 -1      1390 2.22327E+01-6.29689E-02 9.16491E-03 4.13653E-01 6.25489E-14-9.83963E-13
 -1      1391 2.17301E+01-6.12079E-02 1.31982E-02 9.23067E-01 5.78738E-14-8.10792E-13
 -1      1392 2.24928E+01-6.25378E-02 5.50339E-03 2.78869E-01 1.33244E-14-9.67362E-13
 -1      1393 2.28315E+01-6.71115E-02 7.97397E-03 2.40797E-01-1.26158E-14-9.54795E-13
 -1      1394 2.23465E+01-1.05791E-01 1.88458E-02 6.56063E-01 3.93669E-14-7.33467E-13
 -1      1395 2.29496E+01-5.91441E-02 3.64755E-03 1.03635E-01 2.56522E-14-8.66564E-13
 -1      1396 2.30772E+01-5.43933E-02 4.94103E-03 7.16705E-02 2.34535E-15-8.99681E-13
 -1      1397 2.27011E+01-1.08736E-01 1.76398E-02 3.25468E-01 9.06393E-15-7.10961E-13
 -1      1398 2.30692E+01-4.44194E-02 1.43149E-03-3.68974E-02 6.45191E-14-7.82159E-13
 -1      1399 2.30272E+01-3.57656E-02 1.95201E-03-5.85070E-02 1.03826E-13-6.66375E-13
 -1      1400 2.27913E+01-8.62833E-02 1.29649E-02 3.02834E-02 1.09638E-13-5.83178E-13
 -1      1401 2.29278E+01-2.72523E-02-1.31389E-04-1.28648E-01 6.13563E-14-6.52363E-13
 -1      1402 2.27748E+01-1.84103E-02-6.47033E-05-1.40269E-01 5.40657E-14-5.83159E-13
 -1      1403 2.26706E+01-5.56421E-02 7.68471E-03-1.82332E-01 1.38392E-13-4.26417E-13
 -1      1404 2.26213E+01-1.26167E-02-8.28251E-04-1.75498E-01 3.40325E-14-6.05722E-13
 -1      1405 2.24115E+01-5.36999E-03-1.03899E-03-1.79509E-01 1.18898E-14-6.21784E-13
 -1      1406 2.24113E+01-2.78683E-02 3.30245E-03-3.06412E-01 2.10843E-14-3.14205E-13
 -1      1407 2.22351E+01-2.18472E-03-8.87909E-04-1.88767E-01-8.91299E-15-6.36691E-13
 -1      1408 2.20093E+01 3.00305E-03-1.27255E-03-1.87842E-01-1.56337E-14-6.44288E-13
 -1      1409 2.20805E+01-7.40000E-03 2.56826E-04-3.57757E-01-3.44322E-14-4.47444E-13
 -1      1410 2.18323E+01 4.23339E-03-6.25141E-04-1.80508E-01-1.77561E-14-5.74425E-13
 -1      1411 2.16164E+01 7.56189E-03-1.10961E-03-1.76850E-01 2.38681E-14-5.53639E-13
 -1      1412 2.17298E+01 5.48327E-03-1.57066E-03-3.58598E-01 2.52131E-14-4.96493E-13
 -1      1413 2.14527E+01 7.54699E-03-2.77107E-04-1.60527E-01-3.57496E-14-5.71316E-13
 -1      1414 2.12610E+01 9.44279E-03-8.00343E-04-1.55686E-01-5.74841E-14-5.57167E-13
 -1      1415 2.13934E+01 1.23066E-02-2.48497E-03-3.29254E-01-4.71497E-14-3.27003E-13
 -1      1416 2.11177E+01 8.74964E-03 2.75525E-05-1.35711E-01-1.07809E-13-5.89841E-13
 -1      1417 2.09561E+01 9.64531E-03-4.86040E-04-1.30657E-01-2.80015E-14-6.77046E-13
 -1      1418 2.10913E+01 1.49554E-02-2.79225E-03-2.85109E-01-5.61153E-14-4.12396E-13
 -1      1419 2.08358E+01 8.66130E-03 2.41949E-04-1.10383E-01 4.22634E-14-6.59856E-13
 -1      1420 2.07047E+01 8.91142E-03-2.28183E-04-1.05662E-01 4.15772E-14-5.38808E-13
 -1      1421 2.08325E+01 1.50415E-02-2.73404E-03-2.36451E-01-2.31243E-14-4.03414E-13
 -1      1422 2.06070E+01 7.87258E-03 3.65199E-04-8.69646E-02 4.60563E-14-6.72066E-13
 -1      1423 2.05042E+01 7.73823E-03-4.22071E-05-8.28372E-02-4.90263E-14-6.81819E-13
 -1      1424 2.06186E+01 1.37367E-02-2.47947E-03-1.89458E-01-3.19393E-14-3.01797E-13
 -1      1425 2.04271E+01 6.77268E-03 4.15651E-04-6.65995E-02-1.09080E-14-6.97435E-13
 -1      1426 2.03486E+01 6.43325E-03 7.81569E-05-6.31518E-02 7.40450E-14-7.53943E-13
 -1      1427 2.04472E+01 1.18112E-02-2.13835E-03-1.47382E-01 2.49150E-15-4.49737E-13
 -1      1428 2.02893E+01 5.59954E-03 4.15705E-04-4.96369E-02 9.53001E-14-7.12753E-13
 -1      1429 2.02312E+01 5.17171E-03 1.46758E-04-4.68546E-02 8.78326E-14-6.12885E-13
 -1      1430 2.03135E+01 9.73135E-03-1.77755E-03-1.11563E-01 5.46650E-14-4.15766E-13
 -1      1431 2.01868E+01 4.48695E-03 3.85010E-04-3.59705E-02-3.32615E-14-6.43830E-13
 -1      1432 2.01449E+01 4.04253E-03 1.78103E-04-3.37882E-02-8.21462E-15-6.04034E-13
 -1      1433 2.02118E+01 7.75598E-03-1.43498E-03-8.21902E-02 7.40830E-14-5.88064E-13
 -1      1434 2.01124E+01 3.50126E-03 3.38392E-04-2.52614E-02-1.94298E-14-5.50521E-13
 -1      1435 2.00832E+01 3.08139E-03 1.84559E-04-2.35923E-02-5.33099E-14-6.48408E-13
 -1      1436 2.01364E+01 6.01093E-03-1.12982E-03-5.88175E-02-2.59846E-14-5.85270E-13
 -1      1437 2.00602E+01 2.66726E-03 2.85980E-04-1.70751E-02-3.33890E-14-6.87546E-13
 -1      1438 2.00407E+01 2.29293E-03 1.75639E-04-1.58287E-02 1.55751E-14-6.55752E-13
 -1      1439 2.00820E+01 4.54179E-03-8.69592E-04-4.06959E-02-5.84885E-14-6.53266E-13
 -1      1440 2.00250E+01 1.98563E-03 2.34112E-04-1.09633E-02 1.49436E-13-4.70966E-13
 -1      1441 2.00126E+01 1.66502E-03 1.58175E-04-1.00546E-02 1.13998E-13-3.60308E-13
 -1      1442 2.00439E+01 3.34849E-03-6.54912E-04-2.69775E-02 7.90132E-14-5.36586E-13
 -1      1443 2.00023E+01 1.44409E-03 1.86349E-04-6.50756E-03-9.51091E-14-2.40335E-13
 -1      1444 1.99952E+01 1.17754E-03 1.36795E-04-5.86163E-03-1.69909E-13-4.75723E-13
 -1      1445 2.00183E+01 2.40715E-03-4.82550E-04-1.68321E-02 9.65613E-14-1.48424E-13
 -1      1446 1.99889E+01 1.02427E-03 1.44362E-04-3.34061E-03-1.47388E-13-4.01145E-13
 -1      1447 1.99855E+01 8.07673E-04 1.14444E-04-2.89450E-03-1.43493E-13-5.98646E-13
 -1      1448 2.00020E+01 1.68331E-03-3.47387E-04-9.50806E-03-2.42496E-13-1.93165E-13
 -1      1449 1.99821E+01 7.05871E-04 1.08596E-04-1.15431E-03-1.19625E-13-7.81652E-13
 -1      1450 1.99811E+01 5.32707E-04 9.28372E-05-8.56856E-04-1.23889E-13-9.49737E-13
 -1      1451 1.99924E+01 1.13949E-03-2.43599E-04-4.35977E-03-2.91810E-13-5.00938E-13
 -1      1452 1.99798E+01 4.68806E-04 7.87720E-05 3.00408E-04 6.30367E-14-9.78920E-13
 -1      1453 1.99805E+01 3.31501E-04 7.28494E-05 4.89303E-04 8.85882E-14-9.17485E-13
 -1      1454 1.99877E+01 7.39287E-04-1.65352E-04-8.54726E-04-7.32955E-14-6.26104E-13
 -1      1455 1.99804E+01 2.94243E-04 5.42715E-05 1.21707E-03 1.51023E-14-7.23240E-13
 -1      1456 1.99822E+01 1.84825E-04 5.49063E-05 1.32746E-03 5.83410E-14-6.13850E-13
 -1      1457 1.99862E+01 4.49018E-04-1.07155E-04 1.42960E-03 1.76614E-13-5.12523E-13
 -1      1458 1.99830E+01 1.64626E-04 3.45896E-05 1.73807E-03 1.51186E-13-5.97085E-13
 -1      1459 1.99853E+01 7.50178E-05 3.95664E-05 1.79078E-03 1.81833E-13-4.11300E-13
 -1      1460 1.99870E+01 2.37776E-04-6.39183E-05 2.81333E-03 2.14076E-13-2.09563E-13
 -1      1461 1.99866E+01 6.31277E-05 2.00317E-05 1.95812E-03 3.06643E-13-3.65928E-13
 -1      1462 1.99891E+01-1.48069E-05 2.84006E-05 1.96508E-03 2.14705E-13-5.00094E-14
 -1      1463 1.99890E+01 7.63825E-05-3.07202E-05 3.52148E-03 3.01652E-13-9.24702E-14
 -1      1464 1.99906E+01-2.74916E-05 1.29427E-05 1.92552E-03 6.30170E-14-1.16871E-13
 -1      1465 1.99930E+01-1.01838E-04 2.50065E-05 1.88870E-03 3.09238E-14-3.92346E-15
 -1      1466 1.99917E+01-6.51284E-05-2.50986E-06 3.68915E-03 1.58813E-13-1.03632E-13
 -1      1467 1.99944E+01-1.26779E-04 1.78943E-05 1.64150E-03-1.02194E-14-3.92471E-14
 -1      1468 1.99964E+01-2.03275E-04 2.85378E-05 1.54953E-03 6.51312E-14 1.12052E-14
 -1      1469 1.99946E+01-2.21739E-04 2.45290E-05 3.36003E-03-9.54270E-15-1.02433E-13
 -1      1470 1.99975E+01-2.58734E-04 3.09665E-05 1.06063E-03 5.42201E-14 7.51919E-14
 -1      1471 1.99987E+01-2.97655E-04 2.75915E-05 9.15043E-04-9.03079E-16 9.38845E-14
 -1      1472 1.99971E+01-4.39494E-04 4.87207E-05 2.51141E-03 6.02913E-14 1.18272E-13
 -1      1473 1.99997E+01-1.97175E-04 4.90983E-05 8.64919E-05-1.32416E-13 8.46459E-14
 -1      1474 1.99992E+01-6.51907E-04 4.43820E-05 9.46427E-04-4.64417E-14 6.46055E-14
 -1      1475 2.07278E+01 7.42217E-02-1.46342E-01 3.78246E-01 2.59924E-13 2.12579E-12
 -1      1476 2.18353E+01 2.17101E-01-2.27202E-01 6.08812E-01 2.16202E-13 2.51196E-12
 -1      1477 2.20700E+01 8.54904E-01-8.96310E-02 1.85231E+00 4.25493E-13 1.63293E-12
 -1      1478 2.00709E+01 3.53465E-02-1.94087E-02 7.82194E-02 1.85756E-13 1.62037E-12
 -1      1479 2.03415E+01 1.17435E-01-5.89634E-02 1.32149E-01 1.93543E-13 1.93383E-12
 -1      1480 2.08705E+01 1.83584E-01-5.65898E-02 5.82623E-01 3.96835E-13 1.28362E-12
 -1      1481 1.99972E+01 2.09871E-02 5.11354E-03-7.21769E-02 1.26462E-13 1.25783E-12
 -1      1482 1.99698E+01 6.03291E-02 2.90362E-03-3.98419E-02 1.24651E-13 1.45624E-12
 -1      1483 2.03834E+01 7.81464E-02-1.48216E-02 7.56280E-02 2.95189E-13 9.83668E-13
 -1      1484 2.02601E+01 1.52449E-02 5.09229E-03-1.64429E-01 9.08006E-14 1.03050E-12
 -1      1485 2.00732E+01 3.89540E-02 1.18902E-02-1.40704E-01 8.54412E-14 1.16260E-12
 -1      1486 2.03528E+01 4.41759E-02-6.56855E-03-1.84403E-01 1.98275E-13 7.42724E-13
 -1      1487 2.07483E+01 1.28309E-02 2.10192E-03-2.33347E-01 7.36290E-14 8.59670E-13
 -1      1488 2.04532E+01 3.05500E-02 8.81830E-03-2.13043E-01 6.36557E-14 9.54362E-13
 -1      1489 2.06066E+01 3.12735E-02-7.00224E-03-3.53234E-01 1.45737E-13 5.79247E-13
 -1      1490 2.14089E+01 1.09798E-02 1.74490E-04-2.90482E-01 1.65115E-14 7.80223E-13
 -1      1491 2.10278E+01 2.63450E-02 5.33500E-03-2.71694E-01 2.80097E-14 8.10459E-13
 -1      1492 2.10590E+01 2.53684E-02-8.12063E-03-4.81819E-01 7.37166E-14 4.76711E-13
 -1      1493 2.22057E+01 7.81602E-03-4.07865E-04-3.36386E-01 9.23380E-14 6.60007E-13
 -1      1494 2.17543E+01 2.21494E-02 3.05959E-03-3.19368E-01 4.67129E-14 7.31738E-13
 -1      1495 2.16604E+01 2.02549E-02-8.47576E-03-5.85241E-01 7.25544E-14 3.68873E-13
 -1      1496 2.30934E+01 1.27312E-03 7.77713E-04-3.62681E-01 4.60759E-14 5.11112E-13
 -1      1497 2.25947E+01 1.42931E-02 1.73305E-03-3.50043E-01 6.81653E-14 6.18134E-13
 -1      1498 2.23709E+01 1.13167E-02-7.46613E-03-6.58740E-01 1.05963E-13 3.13666E-13
 -1      1499 2.39942E+01-1.10168E-02 4.90235E-03-3.51017E-01 3.89528E-14 4.19286E-13
 -1      1500 2.34922E+01-1.43305E-03 1.45471E-03-3.48518E-01 2.08809E-14 4.77347E-13
 -1      1501 2.31390E+01-6.57474E-03-3.96586E-03-6.79744E-01 6.06327E-14 2.25585E-13
 -1      1502 2.47737E+01-3.07360E-02 1.33755E-02-2.73073E-01 9.76866E-15 4.05228E-13
 -1      1503 2.43478E+01-2.91774E-02 2.94347E-03-2.90074E-01 3.10941E-14 4.43520E-13
 -1      1504 2.38844E+01-3.88568E-02 3.60729E-03-6.07269E-01 4.60135E-14 2.30600E-13
 -1      1505 2.52289E+01-5.60103E-02 2.60452E-02-9.75947E-02-6.50521E-17 4.34355E-13
 -1      1506 2.50016E+01-6.97879E-02 7.05227E-03-1.45294E-01-1.05757E-14 4.47175E-13
 -1      1507 2.44825E+01-8.80222E-02 1.62379E-02-3.87596E-01-2.77105E-14 3.69517E-13
 -1      1508 2.51117E+01-7.67275E-02 3.78442E-02 1.86904E-01-9.74741E-15 4.71755E-13
 -1      1509 2.52333E+01-1.14162E-01 1.32120E-02 1.02557E-01-2.59931E-14 4.35335E-13
 -1      1510 2.47652E+01-1.45477E-01 3.19785E-02 2.09769E-02-3.87641E-14 3.43092E-13
 -1      1511 2.42302E+01-7.24214E-02 3.64760E-02 5.30985E-01 1.20893E-14 5.02348E-13
 -1      1512 2.48142E+01-1.36574E-01 1.71593E-02 4.22876E-01-1.90282E-14 4.99496E-13
 -1      1513 2.45561E+01-1.81468E-01 4.28188E-02 5.92342E-01-2.11168E-14 3.76484E-13
 -1      1514 2.26352E+01-2.30744E-02 8.29983E-03 7.90198E-01 4.00617E-14 4.69541E-13
 -1      1515 2.36414E+01-1.00657E-01 1.08278E-02 7.01780E-01 3.56434E-14 5.05665E-13
 -1      1516 2.37677E+01-1.44676E-01 3.65695E-02 1.16182E+00 2.42254E-14 4.05845E-13
 -1      1517 2.07962E+01 6.28984E-02-4.44839E-02 7.65745E-01 2.95562E-14 3.88772E-13
 -1      1518 2.19272E+01 8.28852E-03-1.13675E-02 7.58125E-01 7.00880E-14 4.83627E-13
 -1      1519 2.25465E+01 1.22592E-03 6.51792E-03 1.41843E+00 5.97578E-14 3.53131E-13
 -1      1520 1.95285E+01 1.32599E-01-8.98453E-02 3.63148E-01 7.54258E-15 3.32637E-13
 -1      1521 2.02868E+01 1.43600E-01-4.06831E-02 4.65537E-01-4.80865E-15 3.30111E-13
 -1      1522 2.13537E+01 2.12301E-01-3.44101E-02 1.07390E+00 4.04954E-14 3.09530E-13
 -1      1523 1.95268E+01 1.28850E-01-8.71297E-02-2.51229E-01 1.08231E-13 1.04451E-13
 -1      1524 1.95051E+01 2.12240E-01-5.37146E-02-8.55721E-02 9.30506E-14 2.19463E-13
 -1      1525 2.07938E+01 3.50269E-01-5.67384E-02 1.64735E-01 1.51677E-13 7.87231E-14
 -1      1526 2.08167E+01 5.49820E-02-3.56668E-02-7.31252E-01 3.39494E-14-1.20903E-13
 -1      1527 2.00154E+01 1.63574E-01-3.61642E-02-5.97019E-01 8.76955E-14 8.66668E-15
 -1      1528 2.11948E+01 2.92493E-01-4.82621E-02-8.48580E-01 1.70877E-13-4.72122E-14
 -1      1529 2.27299E+01-2.82093E-02 2.47113E-02-8.44920E-01 5.16481E-14-3.03216E-13
 -1      1530 2.15569E+01 4.43916E-02-7.98135E-04-8.02267E-01 8.34411E-14-1.31034E-13
 -1      1531 2.23399E+01 8.37806E-02-2.14096E-02-1.41916E+00 1.37069E-13-2.27908E-13
 -1      1532 2.44347E+01-7.21217E-02 5.49815E-02-6.35218E-01-6.27614E-14-3.82451E-13
 -1      1533 2.33880E+01-5.83022E-02 2.62961E-02-6.73356E-01 5.03417E-15-3.07254E-13
 -1      1534 2.36546E+01-1.18376E-01 1.15310E-03-1.35612E+00 7.17447E-14-2.52569E-13
 -1      1535 2.54380E+01-7.26715E-02 5.26502E-02-2.95605E-01 5.45839E-14-3.21410E-13
 -1      1536 2.48130E+01-1.01251E-01 3.25213E-02-3.67774E-01-3.95690E-14-3.57561E-13
 -1      1537 2.46315E+01-2.07106E-01 1.16138E-02-8.66778E-01-4.41158E-14-2.78362E-13
 -1      1538 2.56757E+01-5.08455E-02 3.38731E-02 6.91698E-03 3.14835E-14-5.23422E-13
 -1      1539 2.55097E+01-9.32112E-02 2.41048E-02-5.99582E-02 1.00715E-13-2.77570E-13
 -1      1540 2.50538E+01-1.89134E-01 1.28100E-02-2.78916E-01 9.00304E-14-1.58808E-13
 -1      1541 2.53396E+01-2.63029E-02 1.43757E-02 2.02684E-01-1.99007E-14-4.03020E-13
 -1      1542 2.55154E+01-6.30595E-02 1.15639E-02 1.57569E-01-5.36914E-14-4.94692E-13
 -1      1543 2.49625E+01-1.23444E-01 9.69797E-03 1.86647E-01-1.16348E-14-1.71924E-13
 -1      1544 2.46798E+01-7.97301E-03 1.21568E-03 2.94850E-01-1.56527E-13-1.94546E-13
 -1      1545 2.50455E+01-3.23552E-02 1.82924E-03 2.71537E-01-1.03742E-13-3.41113E-13
 -1      1546 2.45191E+01-5.80172E-02 5.87383E-03 4.62705E-01-1.41337E-13-2.39257E-13
 -1      1547 2.38996E+01 2.87765E-03-5.31591E-03 3.14324E-01-5.13565E-14 1.02141E-14
 -1      1548 2.43335E+01-9.86619E-03-3.28055E-03 3.06638E-01-2.48079E-14-2.87270E-14
 -1      1549 2.38949E+01-1.19825E-02 2.93939E-03 5.75404E-01-1.70443E-13-2.06501E-14
 -1      1550 2.31299E+01 8.02821E-03-7.39600E-03 2.92621E-01 4.89331E-14 7.38992E-16
 -1      1551 2.35554E+01 3.59350E-03-4.84122E-03 2.94114E-01-5.62041E-14-7.13665E-15
 -1      1552 2.32209E+01 1.38338E-02 1.10941E-03 5.79763E-01-7.31602E-14 3.04617E-14
 -1      1553 2.24391E+01 9.65378E-03-7.18027E-03 2.52491E-01 1.72679E-13-3.64481E-13
 -1      1554 2.28176E+01 1.02134E-02-4.50506E-03 2.58450E-01 1.71704E-13-4.79113E-14
 -1      1555 2.25790E+01 2.50814E-02 9.43776E-05 5.25544E-01 2.40857E-13-3.30270E-14
 -1      1556 2.18544E+01 9.40789E-03-6.06304E-03 2.07608E-01-5.20562E-14-4.24738E-13
 -1      1557 2.21716E+01 1.25167E-02-3.48221E-03 2.15145E-01-2.48477E-14-4.65740E-13
 -1      1558 2.20114E+01 2.76877E-02-4.24922E-04 4.47150E-01 8.45496E-14-6.67170E-14
 -1      1559 2.13787E+01 8.32346E-03-4.76428E-03 1.65071E-01-9.63747E-14-2.39701E-13
 -1      1560 2.16342E+01 1.24357E-02-2.40687E-03 1.72625E-01-8.79123E-14-4.21163E-13
 -1      1561 2.15333E+01 2.59191E-02-6.64724E-04 3.64781E-01-7.21029E-14-8.46502E-14
 -1      1562 2.10027E+01 6.97247E-03-3.58761E-03 1.27943E-01-7.80790E-14-1.63967E-13
 -1      1563 2.12027E+01 1.12128E-02-1.52402E-03 1.34777E-01-3.97555E-14-2.50784E-13
 -1      1564 2.11443E+01 2.23512E-02-7.50197E-04 2.88681E-01-6.72348E-14-1.41210E-13
 -1      1565 2.07124E+01 5.64013E-03-2.62525E-03 9.70755E-02-1.11520E-13-7.87827E-14
 -1      1566 2.08653E+01 9.56596E-03-8.80076E-04 1.02917E-01-4.44464E-14-1.33974E-13
 -1      1567 2.08361E+01 1.83630E-02-7.50041E-04 2.23063E-01-7.22731E-14-7.22285E-14
 -1      1568 2.04926E+01 4.45055E-03-1.87816E-03 7.22250E-02-7.85802E-14 2.25291E-13
 -1      1569 2.06072E+01 7.87441E-03-4.43391E-04 7.70426E-02-1.26621E-13 2.18434E-14
 -1      1570 2.05973E+01 1.46110E-02-7.02750E-04 1.68850E-01-2.17214E-13 4.10957E-14
 -1      1571 2.03295E+01 3.44399E-03-1.31541E-03 5.26846E-02 6.07959E-14 1.44866E-13
 -1      1572 2.04137E+01 6.31866E-03-1.63348E-04 5.65582E-02 4.26391E-14 1.69021E-13
 -1      1573 2.04158E+01 1.13561E-02-6.31167E-04 1.25356E-01 1.61949E-14 4.07306E-14
 -1      1574 2.02108E+01 2.62024E-03-8.99895E-04 3.76090E-02-3.56681E-15-1.18041E-13
 -1      1575 2.02714E+01 4.96990E-03 6.51425E-06 4.06630E-02 8.86381E-14 6.69133E-14
 -1      1576 2.02804E+01 8.65933E-03-5.49527E-04 9.12278E-02 8.27986E-14 1.52205E-13
 -1      1577 2.01264E+01 1.96163E-03-5.97923E-04 2.61729E-02 7.23721E-14-1.92865E-13
 -1      1578 2.01689E+01 3.84277E-03 1.02245E-04 2.85408E-02 8.71639E-15-2.27401E-13
 -1      1579 2.01815E+01 6.49029E-03-4.66813E-04 6.49371E-02 8.19722E-14-1.50667E-13
 -1      1580 2.00678E+01 1.44462E-03-3.81819E-04 1.76379E-02 1.12609E-13-5.65775E-13
 -1      1581 2.00968E+01 2.92471E-03 1.49743E-04 1.94458E-02 1.50956E-13-2.55614E-13
 -1      1582 2.01107E+01 4.78265E-03-3.88540E-04 4.50197E-02 1.96667E-13-3.59813E-13
 -1      1583 2.00286E+01 1.04520E-03-2.29834E-04 1.13740E-02-3.38821E-14-3.58884E-13
 -1      1584 2.00477E+01 2.19178E-03 1.66864E-04 1.27340E-02-5.94900E-14-4.20832E-13
 -1      1585 2.00613E+01 3.46138E-03-3.17832E-04 3.01752E-02-1.81412E-14-2.76093E-13
 -1      1586 2.00036E+01 7.41319E-04-1.25245E-04 6.86006E-03-1.09954E-13-2.26841E-13
 -1      1587 2.00154E+01 1.61663E-03 1.65611E-04 7.86779E-03-2.14481E-14-3.45403E-13
 -1      1588 2.00280E+01 2.45498E-03-2.56173E-04 1.92979E-02-3.11456E-14-1.17429E-13
 -1      1589 1.99888E+01 5.13664E-04-5.53175E-05 3.67378E-03 1.41350E-13-2.93164E-13
 -1      1590 1.99954E+01 1.17244E-03 1.53909E-04 4.40887E-03 1.33991E-15-2.73228E-13
 -1      1591 2.00066E+01 1.70020E-03-2.03940E-04 1.14739E-02 3.51404E-14-8.65506E-14
 -1      1592 1.99811E+01 3.45749E-04-1.04059E-05 1.47930E-03-6.71094E-15-3.83815E-13
 -1      1593 1.99842E+01 8.34656E-04 1.36885E-04 2.00673E-03 1.09695E-13-2.24816E-13
 -1      1594 1.99937E+01 1.14312E-03-1.60775E-04 5.96400E-03 1.47455E-13-1.59531E-14
 -1      1595 1.99784E+01 2.23673E-04 1.67854E-05 1.45121E-05-3.12643E-14-3.23608E-13
 -1      1596 1.99790E+01 5.81502E-04 1.17768E-04 3.86167E-04-1.26851E-13-4.86625E-13
 -1      1597 1.99868E+01 7.38729E-04-1.25850E-04 2.18163E-03-7.36031E-14-2.16156E-13
 -1      1598 1.99789E+01 1.35725E-04 3.17973E-05-9.20484E-04-2.76065E-13 1.88194E-14
 -1      1599 1.99780E+01 3.93948E-04 9.84982E-05-6.64218E-04-1.06014E-13-8.23930E-14
 -1      1600 1.99842E+01 4.49787E-04-9.80253E-05-3.29138E-04-2.06325E-13 2.43318E-14
 -1      1601 1.99815E+01 7.18535E-05 3.90302E-05-1.47291E-03 1.83573E-13 1.95840E-13
 -1      1602 1.99796E+01 2.55265E-04 8.01904E-05-1.30185E-03-5.08192E-14 1.45868E-13
 -1      1603 1.99844E+01 2.45410E-04-7.58929E-05-1.91320E-03-1.83225E-13 3.10963E-13
 -1      1604 1.99852E+01 2.28535E-05 4.27114E-05-1.74410E-03-9.07525E-14 2.98381E-13
 -1      1605 1.99828E+01 1.50069E-04 6.36704E-05-1.63762E-03-2.99149E-14 2.18217E-13
 -1      1606 1.99862E+01 9.93152E-05-5.75331E-05-2.82029E-03-1.69048E-15 1.84135E-13
 -1      1607 1.99894E+01-2.03351E-05 4.83077E-05-1.79252E-03 3.22512E-14 3.09134E-13
 -1      1608 1.99869E+01 6.29816E-05 5.04190E-05-1.73998E-03 3.44044E-14 3.35974E-13
 -1      1609 1.99891E+01-1.24617E-05-3.98053E-05-3.21506E-03 1.30555E-15 7.64106E-14
 -1      1610 1.99936E+01-6.74438E-05 6.19105E-05-1.63373E-03 1.93532E-13-9.73191E-14
 -1      1611 1.99911E+01-2.26230E-05 4.34426E-05-1.63600E-03 8.52437E-14 1.31314E-13
 -1      1612 1.99923E+01-1.14550E-04-1.79332E-05-3.18154E-03 2.04167E-13-2.34013E-13
 -1      1613 1.99970E+01-1.29728E-04 7.92987E-05-1.23612E-03 1.89656E-13-4.56519E-13
 -1      1614 1.99950E+01-1.26451E-04 4.45842E-05-1.31231E-03 2.51944E-13-3.43842E-14
 -1      1615 1.99954E+01-2.35707E-04 1.15673E-05-2.72439E-03 2.78503E-13-1.30456E-13
 -1      1616 1.99991E+01-2.18094E-04 3.81836E-05-5.83250E-04-6.50179E-14-4.37458E-13
 -1      1617 1.99980E+01-2.47472E-04 4.44929E-05-7.34331E-04-4.66692E-14-5.39215E-13
 -1      1618 1.99979E+01-4.09961E-04 4.06423E-05-1.79423E-03 1.49520E-13-3.38997E-13
 -1      1619 1.99996E+01-2.25386E-04 3.55948E-05-1.16818E-04-1.93159E-13-2.94437E-13
 -1      1620 1.99996E+01-2.27505E-03 3.36127E-05-1.07321E-03-2.86872E-13-1.08715E-13
 -1      1621 1.99995E+01-1.14859E-03 1.11678E-05-8.98196E-04-2.95682E-13-1.19745E-13
 -1      1622 1.99997E+01-5.16546E-03 4.64602E-06-1.50766E-03 9.26336E-14 2.49450E-13
 -1      1623 1.99997E+01-3.39723E-03 2.00935E-05-1.45278E-03-2.49074E-13 1.98293E-13
 -1      1624 1.99994E+01-2.78570E-03 3.40936E-05-2.41150E-03 2.16397E-13 1.60851E-13
 -1      1625 1.99998E+01-8.39370E-03-1.09140E-05-1.59356E-03 4.94722E-13 4.22068E-14
 -1      1626 1.99998E+01-6.45577E-03 4.39659E-06-1.60480E-03 4.10282E-13 1.87375E-13
 -1      1627 1.99997E+01-5.15877E-03 8.45143E-06-2.97120E-03 4.40948E-13 3.71422E-13
 -1      1628 1.99999E+01-1.14483E-02-1.46529E-05-1.43597E-03 4.14266E-13-2.71451E-13
 -1      1629 1.99999E+01-9.66578E-03-3.87125E-06-1.48619E-03 4.39526E-13-1.81055E-13
 -1      1630 1.99999E+01-7.66877E-03-1.59972E-05-2.94694E-03 4.05268E-13-1.05385E-13
 -1      1631 1.99999E+01-1.39415E-02-1.27191E-05-1.13929E-03-3.17746E-13-4.15630E-13
 -1      1632 1.99999E+01-1.25264E-02-4.51308E-06-1.20711E-03 6.47018E-14-3.79985E-13
 -1      1633 2.00000E+01-9.96260E-03-3.12046E-05-2.53438E-03 5.31284E-15-8.29227E-13
 -1      1634 2.00000E+01-1.57618E-02-9.04040E-06-7.64544E-04-3.15415E-13 9.33438E-15
 -1      1635 1.99999E+01-1.47728E-02-3.94693E-06-8.41960E-04-2.44919E-13-2.27928E-13
 -1      1636 2.00000E+01-1.18182E-02-3.73932E-05-1.90294E-03-1.04561E-13-4.19762E-13
 -1      1637 2.00000E+01-1.67609E-02-5.55669E-06-3.59267E-04-8.50741E-14 1.01023E-13
 -1      1638 1.99999E+01-1.62682E-02-2.98812E-06-4.38858E-04-2.09052E-13 2.22011E-13
 -1      1639 2.00001E+01-1.31121E-02-3.98501E-05-1.15736E-03 8.51252E-14 9.95516E-14
 -1      1640 2.00000E+01-1.69058E-02-3.38409E-06 5.41509E-05 3.91122E-14 7.06721E-14
 -1      1641 2.00000E+01-1.69228E-02-3.43759E-06-2.53832E-05-2.72030E-13 2.44779E-13
 -1      1642 2.00001E+01-1.37579E-02-4.02034E-05-3.70163E-04 1.44590E-13 5.97711E-14
 -1      1643 1.99999E+01-1.61956E-02-2.74502E-06 4.64361E-04 4.54739E-14 1.33331E-13
 -1      1644 2.00000E+01-1.67192E-02-5.49617E-06 3.85892E-04 8.89397E-15 7.07619E-14
 -1      1645 2.00001E+01-1.37332E-02-3.98943E-05 4.23571E-04 1.19479E-13 1.64225E-13
 -1      1646 1.99999E+01-1.46581E-02-3.46014E-06 8.59563E-04-2.90647E-13-3.17341E-13
 -1      1647 1.99999E+01-1.56689E-02-9.11106E-06 7.84217E-04 6.57717E-14-1.88453E-13
 -1      1648 2.00001E+01-1.30426E-02-3.89324E-05 1.20111E-03-9.67991E-14-1.44535E-13
 -1      1649 1.99999E+01-1.24098E-02-4.77766E-06 1.21027E-03-7.48364E-13 1.20396E-13
 -1      1650 1.99999E+01-1.38328E-02-1.28251E-05 1.14522E-03-5.10969E-13-2.08722E-13
 -1      1651 2.00000E+01-1.17301E-02-3.63154E-05 1.92429E-03-2.58197E-13-6.55910E-13
 -1      1652 1.99999E+01-9.52834E-03-3.66324E-06 1.48199E-03-9.63875E-14 3.43344E-13
 -1      1653 1.99999E+01-1.13091E-02-1.48573E-05 1.43404E-03-7.06103E-13 5.81416E-13
 -1      1654 2.00000E+01-9.86128E-03-2.94940E-05 2.53609E-03-1.58153E-13 4.98449E-13
 -1      1655 1.99998E+01-6.34573E-03 2.33988E-06 1.59730E-03 6.76560E-14 1.22144E-13
 -1      1656 1.99998E+01-8.26448E-03-1.11012E-05 1.58271E-03-1.30780E-13 1.98260E-13
 -1      1657 1.99999E+01-7.55481E-03-1.49732E-05 2.93178E-03-2.83359E-14 3.37920E-13
 -1      1658 1.99997E+01-3.37389E-03 2.20540E-06 1.42732E-03-1.23101E-13 5.18017E-14
 -1      1659 1.99997E+01-5.07514E-03 1.70818E-06 1.48039E-03-1.02636E-13 1.79200E-13
 -1      1660 1.99997E+01-5.05520E-03 7.05039E-06 2.94082E-03 1.39101E-13 1.20138E-13
 -1      1661 1.99994E+01-1.36970E-03-1.61780E-05 1.23203E-03-2.05767E-13-1.87777E-13
 -1      1662 1.99995E+01-2.46761E-03 5.03612E-07 1.48846E-03-6.12584E-14-2.18507E-13
 -1      1663 1.99994E+01-2.84691E-03 5.90783E-05 2.73296E-03 2.50992E-14-4.15475E-14
 -1      1664 1.99986E+01-1.28033E-03 2.11006E-05 2.32923E-03 1.99820E-14-8.94452E-14
 -1      1665-6.85503E-01-1.46275E+01-1.65192E+00-1.13548E+00 6.15341E-13 4.16778E-13
 -1      1666-6.30585E-01-1.67218E+01-1.84789E+00 1.86786E-01 7.63278E-14 3.04978E-13
 -1      1667 1.70249E+00-7.99979E+00-1.13637E+00 7.26731E-01 1.25644E-12 1.07528E-12
 -1      1668 8.30504E-01-1.30168E+01-1.62101E+00 5.63660E-02 7.22089E-13 5.97605E-13
 -1      1669 6.75763E+00-5.78554E-01-5.98363E-01 4.31379E+00 1.96865E-12 1.50124E-12
 -1      1670 3.73974E+00-6.05503E+00-1.34028E+00 1.48036E+00 1.62981E-12 1.16090E-12
 -1      1671 1.87386E+01 4.38665E+00 2.39275E-01 9.63570E+00 1.78357E-12 2.24365E-12
 -1      1672 1.16326E+01 8.69633E-01-6.85310E-01 5.77129E+00 1.85463E-12 1.74427E-12
 -1      1673 3.26760E+01 6.19013E+00 9.89811E-01 1.24107E+01 1.50480E-12 2.04992E-12
 -1      1674 2.36078E+01 5.96551E+00 1.37293E-01 1.05816E+01 1.90326E-12 2.16094E-12
 -1      1675 4.60198E+01 4.70866E+00 1.45630E+00 9.67302E+00 8.50431E-13 1.08680E-12
 -1      1676 3.75348E+01 6.18666E+00 8.55986E-01 1.13160E+01 1.28947E-12 1.67266E-12
 -1      1677 5.35749E+01 3.84913E+00 1.71435E+00 2.70052E+00 6.20615E-13-2.90712E-13
 -1      1678 4.88289E+01 4.97531E+00 1.37353E+00 7.50032E+00 7.77794E-13 6.94000E-13
 -1      1679 5.39370E+01 4.10167E+00 1.76484E+00-4.96496E+00 7.41351E-13-1.53388E-12
 -1      1680 5.54492E+01 3.59745E+00 1.82756E+00 6.25442E-01 5.84810E-13-6.54438E-13
 -1      1681 4.45037E+01 5.75237E+00 1.27309E+00-1.03945E+01 1.34059E-12-2.42517E-12
 -1      1682 5.15065E+01 4.13840E+00 1.74793E+00-6.98467E+00 8.87276E-13-1.77003E-12
 -1      1683 3.10857E+01 6.77484E+00 6.11949E-01-1.20122E+01 2.13074E-12-2.98916E-12
 -1      1684 4.03553E+01 5.81037E+00 1.36445E+00-1.21737E+01 1.58973E-12-2.76223E-12
 -1      1685 1.78717E+01 4.27514E+00-2.15141E-01-8.66364E+00 2.43972E-12-2.71960E-12
 -1      1686 2.59784E+01 5.86015E+00 6.46941E-01-1.16161E+01 2.18958E-12-3.02092E-12
 -1      1687 7.25365E+00-1.60359E+00-1.02807E+00-3.74483E+00 2.56550E-12-1.99296E-12
 -1      1688 1.25511E+01 3.07479E+00-1.54854E-01-7.59276E+00 2.57860E-12-2.54996E-12
 -1      1689 1.86877E+00-9.74716E+00-1.60737E+00-2.00507E-01 2.04536E-12-1.16587E-12
 -1      1690 3.72520E+00-3.88678E+00-9.44637E-01-2.23134E+00 2.43228E-12-1.71940E-12
 -1      1691-1.19562E-01-1.56080E+01-1.87220E+00 4.35382E-01 7.80986E-13-7.16344E-13
 -1      1692 4.97602E-02-1.16874E+01-1.52918E+00 8.16646E-01 1.69031E-12-1.06530E-12
 -1      1693-7.33094E-01-1.67025E+01-1.82307E+00-5.51210E-01-7.16566E-13-6.50702E-13
 -1      1694-7.64587E-01-1.62423E+01-1.80329E+00 9.96639E-01 3.72480E-13-6.53727E-13
 -1      1695-2.12761E-01-1.26131E+01-1.50915E+00-7.06579E-01-2.08811E-12-1.13072E-12
 -1      1696-3.33657E-01-1.61245E+01-1.84256E+00 8.32628E-02-1.10661E-12-7.45570E-13
 -1      1697 3.31582E+00-5.18713E+00-8.68707E-01 2.22555E+00-2.71105E-12-1.76015E-12
 -1      1698 1.83627E+00-1.07170E+01-1.48602E+00 7.29052E-01-2.24110E-12-1.24495E-12
 -1      1699 1.26321E+01 1.74423E+00-8.12203E-02 7.32234E+00-2.64411E-12-2.29716E-12
 -1      1700 7.50125E+00-3.44424E+00-9.14680E-01 3.60582E+00-2.67364E-12-1.81877E-12
 -1      1701 2.38456E+01 6.37544E+00 6.50473E-01 1.16274E+01-2.37099E-12-2.90123E-12
 -1      1702 1.62207E+01 4.47564E+00-2.16409E-01 8.54280E+00-2.83018E-12-2.69051E-12
 -1      1703 3.97015E+01 5.72719E+00 1.33060E+00 1.17934E+01-1.50457E-12-2.29117E-12
 -1      1704 2.95154E+01 6.60415E+00 5.18422E-01 1.14558E+01-2.11520E-12-2.71427E-12
 -1      1705 5.12819E+01 4.12752E+00 1.78369E+00 7.50527E+00-7.56548E-13-1.38178E-12
 -1      1706 4.45458E+01 5.82437E+00 1.31696E+00 1.09518E+01-1.17621E-12-2.03526E-12
 -1      1707 5.47596E+01 3.53641E+00 1.82856E+00-6.72568E-01-5.39291E-13-2.18159E-14
 -1      1708 5.31774E+01 3.99947E+00 1.72863E+00 4.89141E+00-6.32522E-13-9.89986E-13
 -1      1709 5.00674E+01 4.69834E+00 1.58918E+00-8.31132E+00-9.94482E-13 1.57485E-12
 -1      1710 5.44239E+01 3.47296E+00 1.87187E+00-3.48042E+00-6.92058E-13 4.92717E-13
 -1      1711 3.78074E+01 6.67812E+00 9.92194E-01-1.21748E+01-1.34232E-12 2.37366E-12
 -1      1712 4.65607E+01 5.04315E+00 1.65683E+00-1.04167E+01-9.83130E-13 2.03904E-12
 -1      1713 2.38813E+01 5.84489E+00 1.91794E-01-1.04134E+01-1.55376E-12 2.09033E-12
 -1      1714 3.27230E+01 6.07597E+00 9.92984E-01-1.21472E+01-1.32389E-12 2.31060E-12
 -1      1715 1.15405E+01 2.27488E+00-5.89729E-01-6.41742E+00-1.82976E-12 1.64968E-12
 -1      1716 1.82751E+01 5.34583E+00 2.72570E-01-1.00840E+01-1.72695E-12 2.10487E-12
 -1      1717 3.96671E+00-5.36877E+00-1.27196E+00-1.80734E+00-1.96798E-12 1.10745E-12
 -1      1718 7.32871E+00 3.57418E-01-4.81761E-01-4.92872E+00-1.99751E-12 1.54365E-12
 -1      1719 7.81353E-01-1.29351E+01-1.65564E+00-1.31455E-01-1.17861E-12 8.33653E-13
 -1      1720 1.63899E+00-7.62800E+00-1.13159E+00-8.50743E-01-1.76770E-12 1.01144E-12
 -1      1721-6.19096E-01-1.69702E+01-1.89650E+00-3.88388E-01-7.54952E-14 4.06980E-13
 -1      1722-6.51541E-01-1.47489E+01-1.69827E+00 9.76050E-01-8.85347E-13 6.58307E-13
 -1      1723 2.53440E+01 5.70002E-01 2.50238E-01 7.05481E+00 1.09401E-12 1.29285E-12
 -1      1724 1.47529E+01-3.40786E+00-3.45651E-01 6.27070E+00 1.01230E-12 1.18416E-12
 -1      1725 1.99994E+01-5.09972E-04 5.83089E-05-5.94848E-04-3.77318E-13-1.92205E-13
 -1      1726 1.99990E+01-1.11569E-03 3.15582E-05-1.54905E-03-2.13134E-14-1.40150E-13
 -1      1727 7.35656E-01-9.88285E+00-1.08698E+00 2.44525E+00 1.65035E-13 8.06022E-13
 -1      1728 6.03100E+00-7.27966E+00-8.66096E-01 4.46536E+00 4.95270E-13 1.13753E-12
 -1      1729-1.34930E+00-1.16128E+01-1.33096E+00-1.32143E-01-1.55778E-13 6.49814E-13
 -1      1730 3.56386E+01 4.08878E+00 9.13594E-01 6.39113E+00 1.18341E-12 7.39409E-13
 -1      1731 4.24914E+01 6.44667E+00 1.23374E+00 3.35027E+00 1.06404E-12-1.01585E-14
 -1      1732 4.62822E+01 7.67150E+00 1.45618E+00 4.24244E-01 1.10556E-12-4.70957E-13
 -1      1733 4.58385E+01 7.14905E+00 1.47050E+00-2.45723E+00 1.09834E-12-9.02556E-13
 -1      1734 4.01732E+01 5.43559E+00 1.14605E+00-5.60725E+00 1.32551E-12-1.45106E-12
 -1      1735 3.09627E+01 2.68742E+00 5.86590E-01-7.21248E+00 1.49725E-12-1.89249E-12
 -1      1736 2.03921E+01-8.05014E-01 1.44760E-02-7.04388E+00 1.52400E-12-1.86429E-12
 -1      1737 1.01780E+01-5.00987E+00-6.31108E-01-5.43382E+00 1.44529E-12-1.53311E-12
 -1      1738 3.01477E+00-9.06052E+00-1.10325E+00-3.24992E+00 9.62341E-13-1.24296E-12
 -1      1739-6.98833E-01-1.13131E+01-1.31308E+00-1.19916E+00 2.32758E-13-1.21336E-12
 -1      1740-1.10072E+00-1.12633E+01-1.29128E+00 9.64041E-01-5.05040E-13-1.26216E-12
 -1      1741 2.43206E+00-9.05936E+00-9.79443E-01 3.65573E+00-1.06304E-12-1.35425E-12
 -1      1742 1.03780E+01-5.84382E+00-4.54853E-01 6.11258E+00-1.22902E-12-1.30601E-12
 -1      1743 1.93261E+01-1.94726E+00-1.54977E-01 6.91340E+00-1.55376E-12-1.49347E-12
 -1      1744 2.97593E+01 2.71395E+00 5.68182E-01 7.30575E+00-1.63358E-12-1.56142E-12
 -1      1745 3.94777E+01 5.45521E+00 1.11033E+00 5.77139E+00-1.38171E-12-1.20881E-12
 -1      1746 4.57640E+01 7.07940E+00 1.48956E+00 2.95980E+00-1.04816E-12-6.94611E-13
 -1      1747 4.71462E+01 7.28609E+00 1.56356E+00-9.89455E-01-1.15141E-12 1.03834E-13
 -1      1748 4.36265E+01 6.48556E+00 1.39227E+00-4.69484E+00-1.17970E-12 8.60645E-13
 -1      1749 3.53178E+01 4.23598E+00 8.39805E-01-6.58504E+00-8.73746E-13 1.37523E-12
 -1      1750 2.52791E+01 1.33012E+00 3.51516E-01-7.36332E+00-9.26814E-13 1.33227E-12
 -1      1751 1.45624E+01-2.41310E+00-2.87905E-01-6.54336E+00-1.13720E-12 1.06276E-12
 -1      1752 6.14882E+00-6.86612E+00-8.25941E-01-4.66026E+00-1.00187E-12 9.38381E-13
 -1      1753 6.72071E-01-1.00910E+01-1.14289E+00-2.55584E+00-5.34128E-13 1.07747E-12
 -1      1754 2.30817E+01 1.95770E+00-2.64004E-02-2.53074E+00-3.77413E-13 1.30859E-12
 -1      1755 2.00366E+01 3.75374E+00-3.67670E-02-1.77395E+00-4.41758E-13-5.89164E-13
 -1      1756 2.03384E+01 3.58765E+00-3.70377E-02-2.07419E+00-5.18349E-13-4.37324E-13
 -1      1757 2.06915E+01 3.17692E+00-4.60550E-02-2.24088E+00-5.31922E-13-2.44291E-13
 -1      1758 2.09467E+01 2.79099E+00-1.36001E-01-2.53003E+00-5.84206E-13 1.78330E-14
 -1      1759 2.07462E+01 2.71197E+00-2.78616E-03-1.84908E+00-5.51317E-13-3.08926E-13
 -1      1760 1.92401E+01 4.32129E+00-2.10444E-02-9.34300E-01-2.20396E-13-8.40170E-13
 -1      1761 1.93978E+01 4.27234E+00-1.45639E-02-1.13603E+00-2.79288E-13-8.15459E-13
 -1      1762 1.89904E+01 4.46759E+00-1.68359E-02-5.94280E-01-1.12959E-13-8.72556E-13
 -1      1763 1.91072E+01 4.43695E+00-1.10801E-02-7.67769E-01-1.66116E-13-8.62881E-13
 -1      1764 1.93451E+01 3.98434E+00-7.57324E-03-7.82080E-01-2.11762E-13-8.22510E-13
 -1      1765 1.88252E+01 4.56076E+00-1.39496E-02-2.99323E-01-4.70999E-15-8.61143E-13
 -1      1766 1.88986E+01 4.54286E+00-1.00685E-02-4.50903E-01-5.95804E-14-8.68125E-13
 -1      1767 1.90919E+01 4.15915E+00-6.93554E-03-4.77832E-01-8.69242E-14-8.45175E-13
 -1      1768 1.87485E+01 4.60739E+00-1.19551E-02-3.26645E-02 9.52124E-14-8.47834E-13
 -1      1769 1.87761E+01 4.60038E+00-1.03250E-02-1.72186E-01 4.74904E-14-8.60180E-13
 -1      1770 1.89329E+01 4.26410E+00-6.38157E-03-2.11801E-01 2.32852E-14-8.38720E-13
 -1      1771 1.87653E+01 4.60845E+00-1.07203E-02 2.25060E-01 1.85682E-13-8.34397E-13
 -1      1772 1.87448E+01 4.61223E+00-1.15503E-02 8.72264E-02 1.48556E-13-8.45400E-13
 -1      1773 1.88732E+01 4.30485E+00-6.05891E-03 3.12116E-02 1.31656E-13-8.26128E-13
 -1      1774 1.88781E+01 4.56105E+00-1.03846E-02 4.94782E-01 2.74913E-13-7.92767E-13
 -1      1775 1.88087E+01 4.57699E+00-1.36467E-02 3.47730E-01 2.27619E-13-8.16961E-13
 -1      1776 1.89174E+01 4.28082E+00-6.07079E-03 2.69460E-01 2.20336E-13-8.02637E-13
 -1      1777 1.90824E+01 4.46131E+00-1.12033E-02 7.92468E-01 3.64811E-13-7.17985E-13
 -1      1778 1.89666E+01 4.49108E+00-1.67790E-02 6.28022E-01 3.15305E-13-7.64193E-13
 -1      1779 1.90661E+01 4.18849E+00-6.31674E-03 5.20170E-01 3.22295E-13-7.54471E-13
 -1      1780 1.93866E+01 4.29199E+00-1.41240E-02 1.14934E+00 4.74391E-13-5.86546E-13
 -1      1781 1.92193E+01 4.34361E+00-2.13766E-02 9.49735E-01 4.15108E-13-6.61282E-13
 -1      1782 1.93194E+01 4.01771E+00-6.91163E-03 8.03427E-01 4.20083E-13-6.59098E-13
 -1      1783 1.97999E+01 4.02133E+00-2.19143E-02 1.57854E+00 5.71049E-13-3.96582E-13
 -1      1784 1.95744E+01 4.11095E+00-2.85079E-02 1.33357E+00 5.13363E-13-5.05512E-13
 -1      1785 1.96844E+01 3.74571E+00-7.06526E-03 1.13465E+00 5.24825E-13-5.06734E-13
 -1      1786 2.03669E+01 3.56253E+00-4.14047E-02 2.07762E+00 6.35866E-13-7.12382E-14
 -1      1787 2.00533E+01 3.73998E+00-4.09280E-02 1.78141E+00 5.91050E-13-2.67078E-13
 -1      1788 2.01768E+01 3.32837E+00-4.31505E-03 1.50679E+00 6.11014E-13-2.96610E-13
 -1      1789 2.12896E+01 2.67042E+00-5.36396E-02 2.51557E+00 6.12662E-13 5.30076E-13
 -1      1790 2.07578E+01 3.10215E+00-5.00994E-02 2.24649E+00 6.15630E-13 1.71474E-13
 -1      1791 2.08458E+01 2.64575E+00 3.36266E-03 1.83978E+00 6.49931E-13 6.86291E-14
 -1      1792 2.20876E+01 1.19489E+00-1.18650E-01 2.06574E+00 5.11008E-13 1.24477E-12
 -1      1793 2.16480E+01 2.23927E+00-4.22759E-04 2.43242E+00 5.69367E-13 7.73909E-13
 -1      1794 2.13594E+01 1.68526E+00-1.87728E-02 1.79177E+00 6.35754E-13 5.20799E-13
 -1      1795 2.14077E+01 7.72266E-01-5.71244E-02 1.26081E+00 5.29507E-13 1.08094E-12
 -1      1796 2.21223E+01 2.42190E+00 8.74954E-02-2.78125E+00-5.11554E-13 4.82975E-13
 -1      1797 2.07597E+01 3.14862E-01-4.82250E-03 3.77783E-01 4.28105E-13 8.41393E-13
 -1      1798 2.11894E+01 4.48692E-01-1.00626E-02 7.64696E-01 4.55920E-13 9.87697E-13
 -1      1799 2.12558E+01 8.48200E-01 1.52442E-04 1.08958E+00 5.41067E-13 6.60824E-13
 -1      1800 2.18694E+01 1.72616E+00 7.79102E-02-2.04236E+00-5.47014E-13 3.00586E-13
 -1      1801 2.10667E+01 5.12895E-01 3.31624E-02-6.25469E-01-4.48815E-13 2.32800E-13
 -1      1802 2.07464E+01 3.74975E-01 1.11704E-02-3.24120E-01-3.89926E-13 1.23282E-13
 -1      1803 2.06292E+01 2.87316E-01 2.76366E-02-6.22175E-02-3.48496E-13 1.16056E-13
 -1      1804 2.05628E+01 2.14615E-01 1.33588E-02 9.48036E-02-2.98220E-13 1.82051E-14
 -1      1805 2.08116E+01 5.22136E-01-7.86100E-03-3.20595E-01-4.31436E-13-5.62866E-14
 -1      1806 2.05351E+01 1.72099E-01 1.69677E-02 2.57692E-01-2.40280E-13 1.39559E-14
 -1      1807 2.05983E+01 1.34164E-01 9.44213E-03 3.51753E-01-1.91947E-13-5.03382E-14
 -1      1808 2.06615E+01 2.99365E-01-7.52075E-03 1.65786E-01-3.25958E-13-9.19295E-14
 -1      1809 2.06439E+01 1.07615E-01 9.14245E-03 4.55462E-01-1.79468E-13-7.01162E-14
 -1      1810 2.07863E+01 8.13444E-02 5.58055E-03 5.12823E-01-1.74245E-13-1.15719E-13
 -1      1811 2.06857E+01 1.83417E-01-6.41631E-03 4.69785E-01-2.34318E-13-1.28600E-13
 -1      1812 2.08863E+01 5.88109E-02 4.64783E-03 5.74516E-01-1.70525E-13-8.37056E-14
 -1      1813 2.10728E+01 3.31967E-02 2.03428E-03 6.02304E-01-1.19963E-13-1.27206E-13
 -1      1814 2.08370E+01 1.03935E-01-5.19209E-03 6.59639E-01-1.75451E-13-1.65079E-13
 -1      1815 2.12103E+01 7.92378E-03 2.02131E-03 6.24834E-01-1.01816E-13-1.23796E-13
 -1      1816 2.14111E+01-2.36416E-02-1.89185E-03 6.20449E-01-6.58829E-14-1.60354E-13
 -1      1817 2.10782E+01 2.77290E-02-3.85097E-03 7.58448E-01-1.37661E-13-1.49159E-13
 -1      1818 2.15708E+01-5.57932E-02 2.94339E-04 5.97669E-01-6.35566E-14-1.50929E-13
 -1      1819 2.17553E+01-9.69339E-02-6.47641E-03 5.53032E-01-5.37487E-14-1.44161E-13
 -1      1820 2.13767E+01-6.39044E-02-2.44644E-03 7.63352E-01-6.90946E-14-1.44827E-13
 -1      1821 2.19204E+01-1.37170E-01-1.02897E-03 4.73858E-01-8.97398E-14-1.46392E-13
 -1      1822 2.20543E+01-1.86870E-01-1.13044E-02 3.79562E-01-8.30087E-14-1.53168E-13
 -1      1823 2.16998E+01-1.80119E-01-8.13911E-04 6.55894E-01-8.23397E-14-1.70808E-13
 -1      1824 2.22036E+01-2.31038E-01-2.25968E-03 2.33971E-01-4.68245E-14-1.88292E-13
 -1      1825 2.22507E+01-2.80075E-01-1.50594E-02 8.61200E-02-3.38219E-14-1.96737E-13
 -1      1826 2.20099E+01-3.16227E-01 1.40223E-03 4.12735E-01-9.40888E-14-1.81732E-13
 -1      1827 2.23560E+01-3.15296E-01-3.71458E-03-1.24445E-01-4.62816E-14-1.85616E-13
 -1      1828 2.22860E+01-3.43149E-01-1.55783E-02-3.13824E-01 8.03697E-15-1.94951E-13
 -1      1829 2.22591E+01-4.44454E-01 4.55969E-03 2.30323E-02-4.23971E-14-1.49742E-13
 -1      1830 2.23125E+01-3.46678E-01-5.64240E-03-5.61795E-01-5.20799E-14-2.43092E-13
 -1      1831 2.21153E+01-3.24124E-01-1.06945E-02-7.53822E-01-9.02715E-14-2.94835E-13
 -1      1832 2.23873E+01-5.07282E-01 8.41254E-03-4.84311E-01-8.77055E-14-2.00882E-13
 -1      1833 2.20325E+01-2.70151E-01-7.74954E-03-9.73077E-01-6.67821E-14-3.28094E-13
 -1      1834 2.17345E+01-1.74364E-01-5.63589E-06-1.10002E+00-1.00941E-13-2.58339E-13
 -1      1835 2.23325E+01-4.27337E-01 1.12571E-02-1.00971E+00-9.42514E-14-2.51967E-13
 -1      1836 2.15424E+01-5.35388E-02-7.77651E-03-1.19210E+00-1.17312E-13-2.56961E-13
 -1      1837 2.12135E+01 1.03174E-01 1.25372E-02-1.17767E+00-1.41963E-13-2.76070E-13
 -1      1838 2.20645E+01-1.52128E-01 9.66680E-03-1.37159E+00-1.26613E-13-1.83293E-13
 -1      1839 2.09749E+01 2.56358E-01-3.50992E-03-1.05776E+00-1.82228E-13-3.13345E-13
 -1      1840 2.07160E+01 4.12348E-01 1.97414E-02-8.66671E-01-1.44993E-13-3.29639E-13
 -1      1841 2.16413E+01 2.75077E-01 1.20508E-03-1.35676E+00-1.77676E-13-1.95829E-13
 -1      1842 2.05453E+01 5.26333E-01 5.69935E-03-5.32903E-01-1.32458E-13-3.94240E-13
 -1      1843 2.04489E+01 5.96558E-01 1.68060E-02-2.11633E-01-1.13638E-13-3.97603E-13
 -1      1844 2.12363E+01 6.86630E-01-1.16336E-02-8.56825E-01-1.72196E-13-2.74625E-13
 -1      1845 2.04504E+01 6.01608E-01 1.59258E-02 2.19200E-01-1.16868E-13-4.60572E-13
 -1      1846 2.05566E+01 5.42006E-01 6.84179E-03 5.46347E-01-7.54570E-14-4.77880E-13
 -1      1847 2.10682E+01 8.69095E-01-1.83339E-02 6.30182E-03-1.55877E-13-2.91951E-13
 -1      1848 2.07342E+01 4.35648E-01 1.95235E-02 8.94588E-01-9.23272E-14-4.53577E-13
 -1      1849 2.10092E+01 2.84458E-01-2.66607E-03 1.10056E+00-7.94399E-14-4.80317E-13
 -1      1850 2.12468E+01 7.14533E-01-1.25748E-02 8.85699E-01-8.54091E-14-2.74296E-13
 -1      1851 2.12657E+01 1.31665E-01 1.31572E-02 1.24108E+00-1.00534E-13-4.91264E-13
 -1      1852 2.16204E+01-2.64536E-02-7.09796E-03 1.27135E+00-5.03554E-14-5.12636E-13
 -1      1853 2.16772E+01 3.15915E-01 2.57270E-05 1.42661E+00-1.03050E-13-3.77073E-13
 -1      1854 2.18374E+01-1.49991E-01 8.43274E-04 1.19751E+00-1.36423E-14-5.32104E-13
 -1      1855 2.21711E+01-2.49695E-01-7.04417E-03 1.08356E+00 1.02099E-13-5.79237E-13
 -1      1856 2.21437E+01-1.13878E-01 9.29411E-03 1.48436E+00-8.62780E-14-4.03307E-13
 -1      1857 2.22831E+01-3.07959E-01-1.01579E-02 8.76886E-01 6.75206E-14-6.38321E-13
 -1      1858 2.25233E+01-3.34487E-01-5.14550E-03 6.93074E-01-2.44804E-14-6.49510E-13
 -1      1859 2.24662E+01-3.99777E-01 1.11536E-02 1.15640E+00 1.63459E-14-4.92063E-13
 -1      1860 2.25263E+01-3.34131E-01-1.55518E-02 4.51951E-01 2.05938E-14-5.62552E-13
 -1      1861 2.26439E+01-3.08657E-01-3.18366E-03 2.67142E-01 1.15149E-13-5.22041E-13
 -1      1862 2.25800E+01-4.90672E-01 8.59555E-03 6.51617E-01 5.31966E-14-5.65919E-13
 -1      1863 2.25664E+01-2.75370E-01-1.54657E-02 5.96085E-02 1.40698E-13-5.56900E-13
 -1      1864 2.25687E+01-2.27650E-01-1.87157E-03-8.59710E-02 1.94389E-13-4.39124E-13
 -1      1865 2.25097E+01-4.35511E-01 4.90321E-03 1.54366E-01 1.95295E-13-4.17583E-13
 -1      1866 2.24442E+01-1.85037E-01-1.20886E-02-2.31270E-01 1.79426E-13-3.95750E-13
 -1      1867 2.23590E+01-1.36781E-01-9.79924E-04-3.25189E-01 1.60759E-13-3.19620E-13
 -1      1868 2.23144E+01-3.12063E-01 1.96404E-03-2.32441E-01 2.33607E-13-4.47738E-13
 -1      1869 2.22138E+01-9.87967E-02-7.65049E-03-4.07478E-01 7.36308E-14-3.23372E-13
 -1      1870 2.20740E+01-6.05212E-02-3.16521E-04-4.54559E-01 3.33600E-14-3.54244E-13
 -1      1871 2.20506E+01-1.81204E-01 1.01331E-04-4.79777E-01 1.38904E-13-4.50527E-13
 -1      1872 2.19254E+01-3.24548E-02-3.59356E-03-4.86358E-01 2.23127E-14-2.61738E-13
 -1      1873 2.17602E+01-6.64383E-03 2.08863E-04-4.98442E-01 3.20867E-14-3.09466E-13
 -1      1874 2.17607E+01-7.42572E-02-9.50122E-04-6.02240E-01 9.91667E-14-2.42472E-13
 -1      1875 2.16189E+01 1.13433E-02-5.33863E-04-4.95533E-01 9.93975E-15-2.57188E-13
 -1      1876 2.14501E+01 2.62555E-02 6.09282E-04-4.85064E-01 1.87227E-14-2.12961E-13
 -1      1877 2.14725E+01-1.56818E-04-1.50532E-03-6.31457E-01 6.85390E-14-1.08758E-13
 -1      1878 2.13220E+01 3.61511E-02 1.44979E-03-4.61442E-01-6.41071E-14-2.55127E-13
 -1      1879 2.11636E+01 4.30267E-02 8.81181E-04-4.38595E-01-5.10833E-14-2.20224E-13
 -1      1880 2.12031E+01 4.41368E-02-1.76616E-03-6.00152E-01-4.58953E-14-2.03401E-13
 -1      1881 2.10516E+01 4.72390E-02 2.53252E-03-4.04796E-01-4.95329E-14-3.17183E-13
 -1      1882 2.09114E+01 4.88454E-02 1.02961E-03-3.76796E-01-2.46254E-14-3.20046E-13
 -1      1883 2.09621E+01 6.59064E-02-1.84377E-03-5.35161E-01-1.12507E-13-2.58248E-13
 -1      1884 2.08163E+01 4.94541E-02 2.96161E-03-3.39915E-01 1.67607E-14-3.36215E-13
 -1      1885 2.06975E+01 4.79640E-02 1.07363E-03-3.11369E-01 3.73797E-14-3.03170E-13
 -1      1886 2.07537E+01 7.25850E-02-1.80132E-03-4.55765E-01 2.28783E-14-3.08119E-13
 -1      1887 2.06186E+01 4.65165E-02 2.96691E-03-2.75732E-01-8.27107E-14-2.16904E-13
 -1      1888 2.05214E+01 4.34508E-02 1.03983E-03-2.49265E-01-7.47719E-14-1.60806E-13
 -1      1889 2.05784E+01 7.01681E-02-1.68001E-03-3.74482E-01 5.21375E-14-2.59635E-13
 -1      1890 2.04575E+01 4.09973E-02 2.72808E-03-2.17204E-01-7.42470E-14-1.35895E-13
 -1      1891 2.03802E+01 3.73358E-02 9.55239E-04-1.94089E-01 2.39072E-14-1.70174E-13
 -1      1892 2.04345E+01 6.29329E-02-1.51068E-03-2.98628E-01-4.40529E-14 1.19820E-13
 -1      1893 2.03296E+01 3.45394E-02 2.37144E-03-1.66608E-01 4.17676E-14-1.99690E-13
 -1      1894 2.02697E+01 3.08663E-02 8.42921E-04-1.47258E-01 3.15119E-14-1.98592E-13
 -1      1895 2.03192E+01 5.36821E-02-1.31751E-03-2.31884E-01 3.06570E-14 7.21731E-14
 -1      1896 2.02304E+01 2.81157E-02 1.97864E-03-1.24542E-01 2.31575E-14-2.56863E-13
 -1      1897 2.01852E+01 2.47467E-02 7.20342E-04-1.08866E-01 1.54705E-14-2.89186E-13
 -1      1898 2.02287E+01 4.41189E-02-1.11895E-03-1.75567E-01-4.69250E-14-3.97254E-14
 -1      1899 2.01553E+01 2.22485E-02 1.59814E-03-9.06301E-02 2.07773E-14-3.67929E-13
 -1      1900 2.01220E+01 1.93277E-02 5.99484E-04-7.82741E-02-8.39736E-15-2.68075E-13
 -1      1901 2.01592E+01 3.51903E-02-9.28102E-04-1.29573E-01-4.50330E-14-1.18854E-13
 -1      1902 2.00999E+01 1.71726E-02 1.25562E-03-6.39996E-02-1.33631E-13-3.55125E-13
 -1      1903 2.00760E+01 1.47404E-02 4.87734E-04-5.44951E-02-1.41355E-13-4.12178E-13
 -1      1904 2.01069E+01 2.73532E-02-7.53393E-04-9.30133E-02-1.00110E-13-1.16561E-13
 -1      1905 2.00600E+01 1.29496E-02 9.62002E-04-4.35767E-02 1.17904E-13-2.85826E-13
 -1      1906 2.00435E+01 1.09869E-02 3.88987E-04-3.64322E-02 2.65647E-13-1.22721E-13
 -1      1907 2.00684E+01 2.07632E-02-5.99378E-04-6.46436E-02 1.05627E-13-6.49298E-14
 -1      1908 2.00322E+01 9.54229E-03 7.19247E-04-2.82652E-02 2.27948E-13-1.58515E-13
 -1      1909 2.00212E+01 8.00017E-03 3.04656E-04-2.30170E-02 6.05883E-14-5.46538E-14
 -1      1910 2.00410E+01 1.54011E-02-4.67700E-04-4.31188E-02 1.95382E-13 1.64146E-14
 -1      1911 2.00135E+01 6.86352E-03 5.24265E-04-1.70456E-02-7.79732E-14-3.25016E-14
 -1      1912 2.00067E+01 5.68008E-03 2.34488E-04-1.32833E-02-1.35897E-13-3.68553E-14
 -1      1913 2.00219E+01 1.11553E-02-3.57972E-04-2.71463E-02 3.36062E-14-2.47663E-13
 -1      1914 2.00018E+01 4.80486E-03 3.71439E-04-9.02378E-03-3.15730E-13 8.97157E-15
 -1      1915 1.99979E+01 3.91571E-03 1.77169E-04-6.40055E-03-3.06689E-13-7.18941E-14
 -1      1916 2.00093E+01 7.87162E-03-2.68512E-04-1.55662E-02-2.38077E-13 9.85940E-14
 -1      1917 1.99950E+01 3.25383E-03 2.54193E-04-3.44944E-03-2.48661E-13-7.17636E-14
 -1      1918 1.99932E+01 2.59741E-03 1.30741E-04-1.68326E-03-6.18638E-14-5.32299E-14
 -1      1919 2.00014E+01 5.38395E-03-1.96905E-04-7.38674E-03-2.44239E-13 2.30825E-13
 -1      1920 1.99917E+01 2.10278E-03 1.65924E-04 2.83551E-04 1.68180E-13-1.16333E-13
 -1      1921 1.99913E+01 1.62250E-03 9.28657E-05 1.41289E-03 3.37824E-13-5.54060E-14
 -1      1922 1.99969E+01 3.52994E-03-1.40450E-04-1.79322E-03 3.90883E-15 3.68786E-13
 -1      1923 1.99908E+01 1.25212E-03 1.00593E-04 2.64486E-03 3.77106E-13-2.56898E-14
 -1      1924 1.99914E+01 8.96176E-04 6.10092E-05 3.30035E-03 3.25449E-13 2.20785E-13
 -1      1925 1.99948E+01 2.15803E-03-9.64888E-05 1.85781E-03 3.51084E-13 2.86297E-13
 -1      1926 1.99914E+01 6.09562E-04 5.31271E-05 3.97811E-03 1.77481E-13 1.85158E-13
 -1      1927 1.99925E+01 3.29716E-04 3.28008E-05 4.26938E-03 2.09976E-13 4.66443E-14
 -1      1928 1.99943E+01 1.12779E-03-6.25963E-05 4.05044E-03 2.76018E-13 1.71161E-13
 -1      1929 1.99930E+01 8.84061E-05 1.97796E-05 4.51075E-03 9.90813E-14-1.05603E-13
 -1      1930 1.99943E+01-1.58999E-04 8.63214E-06 4.49657E-03 1.58211E-14-1.33749E-13
 -1      1931 1.99949E+01 3.08627E-04-3.63444E-05 5.12289E-03 5.81007E-14-6.20234E-14
 -1      1932 1.99949E+01-4.01717E-04-3.30111E-06 4.37289E-03-5.12139E-15-1.23015E-13
 -1      1933 1.99962E+01-6.54555E-04-1.15485E-05 4.06075E-03-7.16577E-14 2.50857E-14
 -1      1934 1.99960E+01-4.14957E-04-1.63865E-05 5.28435E-03-2.62207E-14 1.13700E-15
 -1      1935 1.99968E+01-8.64935E-04-1.02482E-05 3.62139E-03-5.54266E-14 1.20421E-14
 -1      1936 1.99979E+01-1.14199E-03-2.97340E-05 3.02274E-03 8.63588E-14 7.69804E-16
 -1      1937 1.99984E+01-1.72778E-03-1.74407E-06 3.48947E-03-7.75641E-14-8.45535E-14
 -1      1938 1.99972E+01-1.13367E-03-4.37507E-06 4.68176E-03-3.31894E-14 8.60972E-15
 -1      1939 2.05232E+01 1.76768E-01 1.13082E-02-6.71306E-02 3.16892E-13 6.28806E-13
 -1      1940 2.06530E+01 2.32501E-01 1.83168E-02 1.30207E-01 3.57003E-13 7.64644E-13
 -1      1941 2.08052E+01 3.83367E-01-3.61260E-03 2.83797E-01 4.40339E-13 5.11913E-13
 -1      1942 2.05812E+01 1.20788E-01 1.04568E-02-3.43819E-01 2.14913E-13 4.65148E-13
 -1      1943 2.05255E+01 1.46250E-01 1.61730E-02-2.18425E-01 2.42539E-13 5.63351E-13
 -1      1944 2.06498E+01 2.21528E-01-4.38467E-03-1.90031E-01 3.11516E-13 3.87588E-13
 -1      1945 2.08569E+01 9.49355E-02 8.05859E-03-5.43459E-01 1.42116E-13 3.70078E-13
 -1      1946 2.06797E+01 1.08688E-01 1.05635E-02-4.49233E-01 1.62741E-13 4.19907E-13
 -1      1947 2.07396E+01 1.54957E-01-5.55334E-03-5.03975E-01 2.22411E-13 2.75325E-13
 -1      1948 2.12953E+01 7.81572E-02 6.15267E-03-7.01608E-01 7.92855E-14 2.52323E-13
 -1      1949 2.10311E+01 8.86049E-02 6.59777E-03-6.23729E-01 1.10268E-13 3.49390E-13
 -1      1950 2.10109E+01 1.21910E-01-6.00733E-03-7.37196E-01 1.35354E-13 1.95572E-13
 -1      1951 2.18565E+01 5.73228E-02 3.98753E-03-8.24932E-01 1.18555E-13 1.94307E-13
 -1      1952 2.15288E+01 7.01790E-02 3.91005E-03-7.61416E-01 7.18379E-14 2.37613E-13
 -1      1953 2.14201E+01 9.50451E-02-5.99949E-03-9.19460E-01 1.17283E-13 9.44956E-14
 -1      1954 2.25017E+01 1.97017E-02 7.39488E-04-8.97817E-01 8.44380E-14 1.69063E-13
 -1      1955 2.21347E+01 4.05366E-02 1.52328E-03-8.57086E-01 1.12359E-13 1.87697E-13
 -1      1956 2.19343E+01 5.50469E-02-5.86148E-03-1.04923E+00 1.28422E-13 7.07047E-14
 -1      1957 2.31790E+01-4.86103E-02-3.93532E-03-8.81953E-01 7.18889E-14 1.14997E-13
 -1      1958 2.28073E+01-1.42301E-02-1.12918E-03-8.83707E-01 7.25461E-14 1.68046E-13
 -1      1959 2.25213E+01-1.74312E-02-5.49300E-03-1.09818E+00 1.08460E-13 8.55648E-14
 -1      1960 2.38120E+01-1.58387E-01-9.41012E-03-7.17280E-01-5.81549E-14 2.37190E-13
 -1      1961 2.34879E+01-1.07686E-01-4.11279E-03-7.92496E-01 2.59428E-15 1.64514E-13
 -1      1962 2.31397E+01-1.40937E-01-4.32687E-03-1.01169E+00-2.72352E-16 1.21798E-13
 -1      1963 2.42928E+01-3.03330E-01-1.34170E-02-3.36375E-01-5.88609E-14 3.13556E-13
 -1      1964 2.40870E+01-2.43688E-01-7.01911E-03-5.20202E-01-5.83249E-14 2.71560E-13
 -1      1965 2.37290E+01-3.21443E-01-1.34475E-03-7.15959E-01-7.39443E-14 2.18892E-13
 -1      1966 2.44871E+01-4.35460E-01-1.23034E-02 2.90207E-01-1.82580E-14 3.22945E-13
 -1      1967 2.44779E+01-3.95307E-01-9.07231E-03-1.80576E-02-4.39440E-14 3.10526E-13
 -1      1968 2.41984E+01-5.25568E-01 4.53188E-03-1.47949E-01-5.94039E-14 2.37926E-13
 -1      1969 2.42651E+01-4.48269E-01-4.51393E-03 1.06743E+00 1.36297E-14 3.49269E-13
 -1      1970 2.45077E+01-4.79439E-01-1.03569E-02 6.82827E-01-1.29497E-14 3.26617E-13
 -1      1971 2.44212E+01-6.46270E-01 1.26181E-02 6.73673E-01-4.43048E-15 2.74980E-13
 -1      1972 2.35807E+01-2.17748E-01 4.94431E-03 1.69299E+00 7.07477E-14 3.27422E-13
 -1      1973 2.40602E+01-3.64167E-01-1.05819E-02 1.38498E+00 3.18669E-14 3.60968E-13
 -1      1974 2.42636E+01-5.15589E-01 1.66614E-02 1.54350E+00 1.88278E-14 2.89109E-13
 -1      1975 2.26016E+01 2.54339E-01 2.67654E-03 1.71941E+00 3.40951E-14 3.17680E-13
 -1      1976 2.31869E+01 2.73497E-02-9.04698E-03 1.70709E+00 4.32649E-14 2.91017E-13
 -1      1977 2.36925E+01-2.34035E-02 8.23566E-03 2.02373E+00 4.82565E-14 2.84436E-13
 -1      1978 2.17831E+01 7.10628E-01-1.63780E-02 8.91618E-01 1.12094E-13 2.28561E-13
 -1      1979 2.22324E+01 5.48665E-01-4.44699E-03 1.28462E+00 7.42011E-14 3.06373E-13
 -1      1980 2.29375E+01 6.67557E-01-1.56763E-02 1.64029E+00 6.37927E-14 2.46924E-13
 -1      1981 2.16585E+01 7.89969E-01-3.15144E-02-4.62864E-01 2.47143E-13-7.17655E-15
 -1      1982 2.17296E+01 8.34148E-01 4.68848E-03 1.59874E-01 2.11928E-13 1.17588E-13
 -1      1983 2.24875E+01 1.11217E+00-3.30977E-02 3.55725E-01 2.81018E-13 1.10843E-13
 -1      1984 2.23588E+01 4.23268E-01-2.55976E-02-1.56739E+00 2.12703E-13-1.58814E-13
 -1      1985 2.19896E+01 6.42010E-01 8.56222E-03-1.07451E+00 2.48721E-13-1.02720E-13
 -1      1986 2.27028E+01 9.65328E-01-2.16986E-02-1.16238E+00 3.12639E-13-9.02282E-14
 -1      1987 2.34637E+01-7.94984E-02-1.91882E-03-1.86334E+00 1.16444E-13-3.10446E-13
 -1      1988 2.28375E+01 1.42510E-01 3.47868E-03-1.73178E+00 1.42605E-13-2.76210E-13
 -1      1989 2.34277E+01 3.34936E-01-9.50342E-04-2.04317E+00 2.48803E-13-2.59719E-13
 -1      1990 2.43918E+01-3.91540E-01 1.47691E-02-1.41930E+00-6.48266E-15-3.61955E-13
 -1      1991 2.37921E+01-2.88164E-01-7.48115E-03-1.60135E+00 7.74172E-14-3.01099E-13
 -1      1992 2.41700E+01-3.10125E-01 6.58061E-03-1.95162E+00 9.26915E-14-4.19258E-13
 -1      1993 2.48387E+01-4.43486E-01 1.81159E-02-6.57817E-01-7.14567E-14-2.97422E-13
 -1      1994 2.44653E+01-4.58815E-01-1.53669E-02-9.72075E-01-8.59833E-14-2.95352E-13
 -1      1995 2.45739E+01-6.30058E-01 9.24980E-04-1.21987E+00-5.43888E-14-3.99220E-13
 -1      1996 2.47995E+01-3.36554E-01 1.22714E-02 3.90824E-02 1.06496E-13-1.67151E-13
 -1      1997 2.47039E+01-4.07601E-01-1.62552E-02-2.50156E-01 4.34253E-14-1.72278E-13
 -1      1998 2.45678E+01-6.15514E-01-5.54563E-03-3.41715E-01-6.17562E-16-2.31488E-13
 -1      1999 2.44207E+01-1.91480E-01 4.69571E-03 5.03203E-01-1.22933E-13-2.41283E-13
 -1      2000 2.45505E+01-2.64898E-01-1.27881E-02 3.07718E-01 1.38275E-14-1.43285E-13
 -1      2001 2.42577E+01-4.28171E-01-7.14786E-03 3.52951E-01 1.95677E-14-2.87418E-13
 -1      2002 2.38614E+01-7.28047E-02-4.75278E-04 7.31538E-01-2.97975E-13-1.84012E-13
 -1      2003 2.41295E+01-1.25990E-01-7.90905E-03 6.32271E-01-1.98943E-13-2.05204E-13
 -1      2004 2.37770E+01-2.21057E-01-5.54627E-03 7.67720E-01-1.91651E-13-3.00224E-13
 -1      2005 2.32419E+01 3.18461E-03-2.79320E-03 7.88158E-01-1.43132E-13-2.46227E-14
 -1      2006 2.35700E+01-2.74650E-02-3.35890E-03 7.59880E-01-2.62454E-13-1.52810E-13
 -1      2007 2.32281E+01-6.47527E-02-3.21130E-03 9.40153E-01-2.80158E-13-1.67958E-13
 -1      2008 2.26391E+01 4.29832E-02-3.22945E-03 7.43183E-01 1.31095E-13-1.99072E-13
 -1      2009 2.29722E+01 2.92997E-02 3.97798E-05 7.57630E-01 1.10013E-14-4.10813E-14
 -1      2010 2.26784E+01 2.95036E-02-1.45278E-03 9.49020E-01-1.87842E-14-1.66341E-13
 -1      2011 2.20945E+01 5.86104E-02-2.78931E-03 6.49657E-01 2.33379E-13 6.66511E-14
 -1      2012 2.24008E+01 5.54283E-02 2.14571E-03 6.85134E-01 1.69723E-13-8.05194E-14
 -1      2013 2.21678E+01 7.52826E-02-5.18778E-04 8.66683E-01 1.56725E-13-8.61002E-14
 -1      2014 2.16261E+01 6.03853E-02-2.09092E-03 5.40956E-01-1.37468E-14 9.30331E-14
 -1      2015 2.18911E+01 6.27748E-02 3.18145E-03 5.83622E-01 1.14144E-13 1.17407E-13
 -1      2016 2.17168E+01 9.02533E-02-1.85821E-04 7.44482E-01 6.34239E-14 1.49964E-13
 -1      2017 2.12373E+01 5.52884E-02-1.42640E-03 4.35357E-01-5.99208E-14 3.17532E-14
 -1      2018 2.14571E+01 6.01184E-02 3.47951E-03 4.77500E-01-8.94337E-15 7.71021E-14
 -1      2019 2.13329E+01 8.83567E-02-1.66235E-04 6.13634E-01 3.28229E-14 1.43325E-13
 -1      2020 2.09232E+01 4.74616E-02-8.95972E-04 3.41410E-01-4.26933E-14-4.19319E-15
 -1      2021 2.10999E+01 5.29645E-02 3.33763E-03 3.79318E-01-5.76358E-14-8.97232E-15
 -1      2022 2.10155E+01 7.86165E-02-2.59845E-04 4.90750E-01 2.26418E-14 2.02383E-13
 -1      2023 2.06751E+01 3.91304E-02-5.10052E-04 2.62051E-01-1.11330E-13-3.48026E-14
 -1      2024 2.08138E+01 4.44100E-02 2.97347E-03 2.94348E-01-9.64918E-14-7.28860E-14
 -1      2025 2.07592E+01 6.62048E-02-3.61036E-04 3.83228E-01-4.65142E-14 1.84259E-13
 -1      2026 2.04829E+01 3.13693E-02-2.46166E-04 1.97272E-01-3.64860E-14-2.70911E-13
 -1      2027 2.05895E+01 3.60344E-02 2.52645E-03 2.23831E-01-1.49877E-13-1.68981E-13
 -1      2028 2.05565E+01 5.37960E-02-4.28167E-04 2.93209E-01-3.95602E-14-7.47113E-15
 -1      2029 2.03367E+01 2.46142E-02-7.50024E-05 1.45697E-01-1.27058E-14-6.17911E-14
 -1      2030 2.04171E+01 2.85442E-02 2.07660E-03 1.66987E-01-2.67194E-14-1.10892E-13
 -1      2031 2.03992E+01 4.26081E-02-4.53766E-04 2.20107E-01-5.16633E-14-1.61389E-13
 -1      2032 2.02275E+01 1.89695E-02 2.97794E-05 1.05443E-01 7.88851E-14 6.66875E-14
 -1      2033 2.02870E+01 2.21784E-02 1.66458E-03 1.22168E-01 4.84519E-14 2.41504E-14
 -1      2034 2.02792E+01 3.30723E-02-4.44877E-04 1.62094E-01 3.73562E-15-3.68945E-14
 -1      2035 2.01476E+01 1.43808E-02 8.89466E-05 7.45641E-02 2.47934E-13-1.69173E-13
 -1      2036 2.01907E+01 1.69418E-02 1.30731E-03 8.74777E-02 1.68625E-13-2.34587E-14
 -1      2037 2.01895E+01 2.52257E-02-4.12508E-04 1.16921E-01 2.62066E-13-7.32082E-14
 -1      2038 2.00904E+01 1.07272E-02 1.17850E-04 5.12592E-02 1.70270E-13-1.82345E-13
 -1      2039 2.01209E+01 1.27338E-02 1.00848E-03 6.10712E-02 1.85225E-13-1.41124E-13
 -1      2040 2.01236E+01 1.89261E-02-3.66916E-04 8.23367E-02 2.36216E-13 2.20553E-13
 -1      2041 2.00504E+01 7.86815E-03 1.27411E-04 3.39563E-02-1.62061E-13-1.59064E-13
 -1      2042 2.00714E+01 9.41493E-03 7.64945E-04 4.12943E-02-2.22725E-14-1.94311E-13
 -1      2043 2.00763E+01 1.39648E-02-3.16009E-04 5.62854E-02-1.12421E-15-1.74268E-14
 -1      2044 2.00235E+01 5.66602E-03 1.25181E-04 2.13306E-02-2.72064E-15 1.02771E-14
 -1      2045 2.00374E+01 6.83986E-03 5.70508E-04 2.67287E-02-1.15240E-13-1.44623E-13
 -1      2046 2.00432E+01 1.01219E-02-2.65198E-04 3.69834E-02-1.30285E-13-1.09225E-13
 -1      2047 2.00061E+01 3.99569E-03 1.16235E-04 1.22930E-02 9.06335E-14-9.59542E-14
 -1      2048 2.00149E+01 4.87261E-03 4.17937E-04 1.61941E-02 7.24734E-14-9.73939E-14
 -1      2049 2.00208E+01 7.19125E-03-2.17803E-04 2.29323E-02 6.70232E-14-1.40017E-13
 -1      2050 1.99957E+01 2.74774E-03 1.03846E-04 5.96677E-03 4.14637E-14 1.60188E-13
 -1      2051 2.00007E+01 3.39241E-03 3.00043E-04 8.73009E-03 1.48006E-13 1.04956E-13
 -1      2052 2.00063E+01 4.99023E-03-1.75576E-04 1.29035E-02 3.83632E-14 7.89486E-14
 -1      2053 1.99902E+01 1.82833E-03 8.99821E-05 1.65982E-03-4.87242E-14-1.87733E-13
 -1      2054 1.99926E+01 2.29491E-03 2.10167E-04 3.57073E-03-6.14243E-14-2.06271E-14
 -1      2055 1.99976E+01 3.36174E-03-1.39184E-04 5.91085E-03 5.12099E-14 4.71431E-14
 -1      2056 1.99881E+01 1.15761E-03 7.56337E-05-1.16150E-03-4.21087E-13 9.03587E-14
 -1      2057 1.99888E+01 1.49106E-03 1.42373E-04 1.18188E-04-2.18805E-13-3.67968E-14
 -1      2058 1.99930E+01 2.17253E-03-1.08575E-04 1.17935E-03-2.56867E-13 9.07587E-14
 -1      2059 1.99883E+01 6.67094E-04 6.10299E-05-2.89574E-03-8.76377E-15 1.10320E-13
 -1      2060 1.99878E+01 9.04996E-04 9.14835E-05-2.08162E-03-2.13308E-13 9.17474E-14
 -1      2061 1.99912E+01 1.30981E-03-8.32756E-05-1.88410E-03-2.34392E-13 5.07500E-14
 -1      2062 1.99899E+01 2.95647E-04 4.59187E-05-3.82450E-03-2.36043E-14 8.57383E-14
 -1      2063 1.99887E+01 4.70562E-04 5.31447E-05-3.35954E-03 3.21122E-14 1.06602E-13
 -1      2064 1.99912E+01 6.76258E-04-6.25939E-05-3.71649E-03-3.25347E-14 8.76768E-14
 -1      2065 1.99922E+01-1.49443E-05 3.07934E-05-4.12371E-03 1.99269E-13-1.75489E-13
 -1      2066 1.99906E+01 1.26492E-04 2.41599E-05-3.93794E-03 6.37534E-14 4.28221E-14
 -1      2067 1.99924E+01 1.83759E-04-4.53299E-05-4.61868E-03 1.04283E-13 2.63088E-14
 -1      2068 1.99947E+01-3.20710E-04 1.69739E-05-3.87100E-03 3.02987E-13-2.07894E-13
 -1      2069 1.99931E+01-1.85372E-04 3.45249E-06-3.93961E-03 2.62742E-13-1.55421E-13
 -1      2070 1.99942E+01-2.50124E-04-2.89976E-05-4.76603E-03 3.18874E-13-1.34117E-13
 -1      2071 1.99970E+01-6.77582E-04 2.09755E-06-3.05285E-03 2.67870E-13-1.13012E-14
 -1      2072 1.99956E+01-5.17565E-04-6.54004E-06-3.40689E-03 2.44842E-13-3.07171E-14
 -1      2073 1.99962E+01-7.06028E-04-1.37867E-05-4.24270E-03 2.00210E-13 7.97734E-14
 -1      2074 1.99985E+01-1.02741E-03-1.49456E-05-2.03871E-03-1.44944E-14-4.90090E-14
 -1      2075 1.99975E+01-8.47823E-04-9.74841E-06-2.66523E-03 2.33504E-13 3.29967E-14
 -1      2076 1.99977E+01-1.13890E-03 4.11434E-06-3.38156E-03 2.02230E-13 1.13877E-13
 -1      2077 1.99988E+01-1.59897E-03 9.64181E-06-2.45661E-03 1.47893E-13 1.48594E-13
 -1      2078 2.00002E+01-6.95167E-03 7.29269E-06-3.69391E-03 3.40807E-13-2.63292E-13
 -1      2079 2.00000E+01-5.77625E-03 1.53964E-06-3.84085E-03 3.24281E-13 1.21809E-13
 -1      2080 1.99997E+01-5.03021E-03 3.67679E-06-3.89979E-03 3.86819E-13 3.64312E-13
 -1      2081 1.99995E+01-3.85356E-03-1.29209E-05-3.76643E-03 2.91291E-13 6.17264E-13
 -1      2082 1.99999E+01-4.41595E-03-9.70735E-06-4.72860E-03 1.72425E-13 2.22695E-13
 -1      2083 1.99992E+01-3.29461E-03 5.47708E-07-3.47363E-03 3.66621E-13 4.03939E-13
 -1      2084 1.99989E+01-2.24784E-03-1.96067E-05-2.99631E-03 3.89317E-13-4.32003E-14
 -1      2085 1.99985E+01-2.02216E-03-1.76743E-05-3.54638E-03 2.96732E-13 1.42957E-14
 -1      2086 1.99992E+01-3.16869E-03-9.23662E-06-4.46260E-03 3.14400E-13 3.16937E-13
 -1      2087 2.00004E+01-8.57408E-03 1.26245E-05-3.08122E-03-3.04823E-14-1.02145E-12
 -1      2088 2.00003E+01-7.55992E-03 1.96912E-05-3.38942E-03 1.75670E-13-7.56450E-13
 -1      2089 2.00004E+01-5.76215E-03-1.19844E-05-4.31002E-03 1.50977E-13-7.13471E-13
 -1      2090 2.00005E+01-9.83567E-03 1.84663E-05-2.22308E-03 3.77416E-15-4.63087E-13
 -1      2091 2.00005E+01-9.05014E-03 2.96322E-05-2.62566E-03 4.41371E-14-4.95594E-13
 -1      2092 2.00008E+01-6.85661E-03-1.37712E-05-3.46713E-03 2.33015E-13-7.31168E-13
 -1      2093 2.00006E+01-1.06330E-02 2.40158E-05-1.25267E-03 1.97199E-13 1.94350E-13
 -1      2094 2.00006E+01-1.01493E-02 3.37632E-05-1.69465E-03 1.20354E-13 4.85342E-14
 -1      2095 2.00009E+01-7.65703E-03-1.41019E-05-2.37878E-03 2.74944E-13-1.54382E-13
 -1      2096 2.00006E+01-1.09393E-02 2.89332E-05-2.43149E-04 4.38508E-14 1.21398E-13
 -1      2097 2.00006E+01-1.07836E-02 3.29858E-05-6.96882E-04 1.64712E-13 2.28264E-14
 -1      2098 2.00010E+01-8.13039E-03-1.35380E-05-1.18275E-03 4.19639E-14 7.71706E-14
 -1      2099 2.00006E+01-1.07512E-02 3.24592E-05 7.67164E-04 1.48689E-13-1.43921E-15
 -1      2100 2.00006E+01-1.09294E-02 2.91719E-05 3.16420E-04 1.54394E-13 2.27100E-13
 -1      2101 2.00010E+01-8.27430E-03-1.30764E-05 4.61036E-05 4.35654E-14 2.20803E-13
 -1      2102 2.00005E+01-1.00805E-02 3.31435E-05 1.74933E-03-2.38245E-13-3.53231E-13
 -1      2103 2.00006E+01-1.05825E-02 2.36955E-05 1.31561E-03-4.56676E-14-2.16089E-13
 -1      2104 2.00010E+01-8.09242E-03-1.30964E-05 1.26668E-03-1.88274E-14-2.83521E-13
 -1      2105 2.00005E+01-8.97857E-03 2.88565E-05 2.64149E-03-3.17525E-13-7.66193E-13
 -1      2106 2.00005E+01-9.76114E-03 1.77496E-05 2.25699E-03-1.93618E-13-5.35687E-13
 -1      2107 2.00009E+01-7.59333E-03-1.33005E-05 2.43065E-03-1.59967E-13-5.27879E-13
 -1      2108 2.00003E+01-7.46845E-03 1.82632E-05 3.38552E-03 1.89602E-14 7.98041E-13
 -1      2109 2.00004E+01-8.49974E-03 1.17450E-05 3.08383E-03-8.97038E-14 2.23436E-13
 -1      2110 2.00007E+01-6.78363E-03-1.30807E-05 3.47949E-03-1.15334E-13-7.65181E-14
 -1      2111 2.00000E+01-5.67666E-03 6.48498E-07 3.81525E-03 1.66735E-13 2.17131E-13
 -1      2112 2.00001E+01-6.84697E-03 6.40355E-06 3.68012E-03 8.83859E-14 5.42656E-13
 -1      2113 2.00004E+01-5.67563E-03-1.16370E-05 4.29973E-03 7.48390E-14 6.18200E-13
 -1      2114 1.99994E+01-3.77180E-03-1.94161E-05 3.76513E-03-2.85736E-14-4.65466E-14
 -1      2115 1.99998E+01-4.94484E-03 8.91777E-06 3.86557E-03 1.34723E-13-9.62161E-15
 -1      2116 1.99999E+01-4.32514E-03-3.91790E-06 4.68686E-03 2.14954E-14 8.73420E-14
 -1      2117 1.10459E+01-5.37358E+00-1.41994E-01 6.31018E+00 2.49023E-13 9.54153E-13
 -1      2118 7.53744E+00-6.47536E+00-2.79779E-01 5.41016E+00-6.52811E-14 9.93927E-13
 -1      2119 8.89279E-02-7.31160E+00-4.07685E-01 5.01009E-01-1.68379E-13 5.79481E-13
 -1      2120 1.25746E-01-7.57819E+00-4.50305E-01-1.01885E+00-3.34857E-13 7.02549E-13
 -1      2121 3.92117E+00-5.72571E+00-1.58677E-01 4.29093E+00-1.28231E-14 8.87734E-13
 -1      2122 1.76098E+00-6.77903E+00-3.40003E-01 2.44445E+00-1.68476E-13 6.76958E-13
 -1      2123 1.96784E+01-3.68382E+00-5.31057E-03 6.66787E+00 4.68015E-13 8.76854E-13
 -1      2124 1.45248E+01-5.41462E+00-3.23521E-01 5.95927E+00 3.91021E-13 7.91311E-13
 -1      2125 1.56182E+01-5.83620E+00-5.01169E-02 6.65169E+00-2.29705E-13 7.30124E-13
 -1      2126 2.90327E+01-5.24043E-01 1.76220E-01 5.30496E+00 7.66165E-13 3.77920E-13
 -1      2127 2.40553E+01-2.63166E+00-1.62067E-01 5.11462E+00 5.13589E-13 5.72653E-13
 -1      2128 1.95786E+01 4.10373E+00-2.63215E-02-1.32498E+00-3.36692E-13-7.62950E-13
 -1      2129 1.97868E+01 4.01807E+00-2.20918E-02-1.57394E+00-4.06987E-13-6.86656E-13
 -1      2130 2.01401E+01 3.31267E+00-1.78835E-02-1.52347E+00-4.50981E-13-5.98261E-13
 -1      2131 1.96941E+01 3.72864E+00-5.70714E-03-1.13222E+00-3.30768E-13-7.44987E-13
 -1      2132 3.80916E+01 5.70979E+00 1.60888E-01 5.72082E-01 9.97646E-13-5.83922E-13
 -1      2133 3.64346E+01 4.43364E+00 1.44375E-01 1.51607E+00 9.87932E-13-2.06890E-13
 -1      2134 4.04492E+01 7.23935E+00 3.56023E-01-2.86761E-01 1.14297E-12-5.97744E-13
 -1      2135 3.87154E+01 7.16765E+00 1.38222E-01 4.07308E-01 1.09535E-12-4.74509E-13
 -1      2136 3.87970E+01 6.28138E+00 2.47607E-01-1.26295E+00 1.07991E-12-7.68496E-13
 -1      2137 4.04926E+01 6.80413E+00 3.25418E-01-5.16438E-01 1.08857E-12-5.80785E-13
 -1      2138 3.59967E+01 7.91885E+00 3.01936E-01 1.15823E-01 1.15652E-12-5.04506E-13
 -1      2139 3.51259E+01 3.18140E+00 1.87935E-01-3.57127E+00 1.18383E-12-1.07836E-12
 -1      2140 3.80985E+01 4.46786E+00 2.90146E-01-2.39516E+00 1.13154E-12-8.25284E-13
 -1      2141 2.84003E+01-6.36083E-02-3.11181E-02-4.94407E+00 1.06770E-12-1.24645E-12
 -1      2142 3.32341E+01 1.72034E+00 3.09644E-01-4.92842E+00 1.12521E-12-1.25633E-12
 -1      2143 3.36012E+01 1.57368E+00 2.73977E-01-1.74337E+00 9.20476E-13-6.20726E-13
 -1      2144 1.94288E+01-3.76646E+00-2.53113E-01-5.98803E+00 9.32865E-13-1.25433E-12
 -1      2145 2.46286E+01-1.89347E+00 8.06453E-02-6.37396E+00 9.50018E-13-1.28192E-12
 -1      2146 1.05387E+01-6.21378E+00-4.31442E-01-5.66380E+00 7.22089E-13-1.13197E-12
 -1      2147 1.50865E+01-4.23448E+00-1.11702E-01-6.77173E+00 9.46021E-13-1.30274E-12
 -1      2148 3.85403E+00-7.59486E+00-4.92660E-01-4.02830E+00 3.03091E-13-1.10062E-12
 -1      2149 6.76655E+00-6.18468E+00-2.82296E-01-5.35679E+00 6.28608E-13-1.10684E-12
 -1      2150 5.04922E-01-7.43091E+00-4.13773E-01-1.37982E+00-7.40796E-14-1.23651E-12
 -1      2151 1.70303E+00-7.20966E+00-3.84075E-01-2.80783E+00 2.88825E-13-1.23623E-12
 -1      2152 1.22726E+00-6.53669E+00-2.88547E-01 2.28650E+00-3.75755E-13-1.27898E-12
 -1      2153 4.33254E-01-6.90534E+00-3.55629E-01 6.32136E-01-5.61860E-14-1.27792E-12
 -1      2154 5.51798E+00-5.78269E+00-1.95616E-01 5.37471E+00-5.60441E-13-1.17972E-12
 -1      2155 2.82567E+00-7.06597E+00-3.83810E-01 3.66506E+00-3.57936E-13-1.25638E-12
 -1      2156 3.52779E+00-4.58485E+00-1.17888E-01 3.58535E+00-3.60822E-15-1.32849E-12
 -1      2157 1.48470E+01-5.02167E+00-9.95480E-02 7.07828E+00-5.03375E-13-8.59923E-13
 -1      2158 1.01549E+01-6.20518E+00-2.71963E-01 6.14478E+00-4.73677E-13-9.45972E-13
 -1      2159 2.42439E+01-1.81396E+00 1.52816E-01 6.46027E+00-1.10695E-12-9.86933E-13
 -1      2160 1.99393E+01-4.13817E+00-7.22561E-02 6.20553E+00-8.49654E-13-7.67664E-13
 -1      2161 3.15918E+01 1.07032E+00 1.91579E-01 4.57218E+00-1.13420E-12-6.82010E-13
 -1      2162 2.69747E+01-6.69450E-01-5.93514E-02 5.08336E+00-1.13920E-12-8.92175E-13
 -1      2163 2.71626E+01-2.97963E+00 6.79642E-02 4.01001E+00-6.34076E-13-3.40006E-13
 -1      2164 3.80522E+01 4.90141E+00 3.87433E-01 2.85584E+00-1.19027E-12-5.76705E-13
 -1      2165 3.39600E+01 3.47800E+00 7.53595E-02 3.35032E+00-1.29588E-12-7.28306E-13
 -1      2166 3.98352E+01 6.89200E+00 3.07356E-01 6.57039E-01-1.05888E-12-3.11667E-13
 -1      2167 3.86556E+01 6.20925E+00 2.62722E-01 1.84518E+00-1.11899E-12-5.42677E-13
 -1      2168 4.00610E+01 6.98580E+00 3.14041E-01-1.03199E+00-1.27648E-12 6.72240E-14
 -1      2169 4.02049E+01 7.25684E+00 2.92758E-01 2.59484E-01-1.19871E-12-2.38101E-13
 -1      2170 3.66494E+01 5.00959E+00 1.59151E-01-2.48823E+00-9.50406E-13 2.20268E-13
 -1      2171 3.92132E+01 5.98752E+00 3.28677E-01-1.47577E+00-1.10922E-12-2.16493E-14
 -1      2172 3.11777E+01 1.78142E+00 9.47567E-03-4.01916E+00-5.65062E-13 6.64802E-13
 -1      2173 3.56108E+01 3.45688E+00 3.26023E-01-3.81805E+00-6.92842E-13 5.03264E-13
 -1      2174 2.32861E+01-1.97195E+00-1.36722E-01-5.77318E+00-4.54137E-13 7.33191E-13
 -1      2175 2.81405E+01-3.43628E-01 1.17657E-01-5.58889E+00-4.06564E-13 8.47877E-13
 -1      2176 1.45700E+01-4.73011E+00-3.16983E-01-6.19376E+00-6.46594E-13 6.09346E-13
 -1      2177 1.94134E+01-2.71282E+00 3.66273E-03-6.99815E+00-6.41709E-13 5.75595E-13
 -1      2178 7.08791E+00-6.51470E+00-3.47884E-01-5.43760E+00-4.01623E-13 6.99774E-13
 -1      2179 1.07133E+01-5.01360E+00-1.64409E-01-6.49758E+00-6.55698E-13 7.23206E-13
 -1      2180 1.40512E+00-7.46809E+00-4.69914E-01-2.66411E+00-1.90598E-13 1.00153E-12
 -1      2181 3.51169E+00-6.13115E+00-2.54167E-01-4.36747E+00-3.67040E-13 1.01397E-12
 -1      2182 3.50335E+01 2.32594E+00 1.62110E-01 3.00276E+00 8.81951E-13-1.29896E-14
 -1      2183 3.12282E+01 8.81414E-01-1.14146E-03 3.94463E+00 9.32282E-13 2.64344E-13
 -1      2184 3.05446E+01-1.33623E+00 1.67690E-01 2.28381E+00 4.36512E-13-2.79055E-13
 -1      2185 2.39469E+01-4.62595E+00 3.38845E-02 5.07537E+00 1.01308E-13 2.30094E-13
 -1      2186 2.11921E+01 1.10417E+00-1.85267E-02-1.32019E+00-5.25299E-13 1.73372E-13
 -1      2187 3.39376E+01 2.80197E+00 2.09106E-01 9.48030E-02 8.17679E-13-5.73652E-13
 -1      2188 2.10688E+01 1.34142E+00-1.99243E-02-1.31021E+00-5.49075E-13-7.15122E-14
 -1      2189 7.72440E+00-5.14885E+00-8.51221E-02 5.61948E+00-2.68729E-13 9.88654E-13
 -1      2190 2.26632E+00-4.56156E+00-1.40429E-01 1.96507E+00-2.26610E-13 7.38076E-13
 -1      2191 1.99992E+01-2.92999E-03-1.72591E-05 3.75500E-03-7.86150E-14-1.50101E-13
 -1      2192 2.02217E+00-4.99554E+00-2.01921E-01-2.39410E+00-1.88585E-13 9.19542E-13
 -1      2193 7.11517E+00-5.39128E+00-1.29667E-01-5.79433E+00-8.29337E-14 8.47461E-13
 -1      2194 1.52260E+01-5.46830E+00-6.81675E-02-6.86459E+00-1.79190E-13 3.38334E-13
 -1      2195 2.33929E+01-3.98047E+00 7.19296E-02-5.56102E+00-9.79772E-14 3.29681E-13
 -1      2196 3.02186E+01-5.70162E-01 1.56953E-01-2.89237E+00-2.22308E-13 2.21156E-13
 -1      2197 3.41664E+01 3.97580E+00 2.61638E-01-6.15267E-01-6.73239E-13-3.85247E-13
 -1      2198 3.57142E+01 7.22171E+00 3.03650E-01 2.04066E-01-1.09862E-12-3.59657E-13
 -1      2199 3.61070E+01 7.97601E+00 3.08736E-01-3.82540E-02-1.23690E-12-2.61596E-13
 -1      2200 3.23390E+01 1.25890E+00 1.72571E-01 1.70234E+00-9.72535E-13-2.50189E-13
 -1      2201 9.81455E+00-5.18569E+00-2.23906E-03 6.58309E+00-3.11418E-14-9.46410E-13
 -1      2202 1.78847E+00-4.68176E+00-1.66901E-01-4.44222E-01-3.15303E-14-1.40843E-12
 -1      2203 4.34803E+00-5.64105E+00-2.22250E-01-4.39598E+00 7.77156E-15-1.22335E-12
 -1      2204 1.09701E+01-6.02928E+00-1.60743E-01-6.48609E+00 1.85518E-13-1.10544E-12
 -1      2205 2.79611E+01-2.54354E+00 1.04019E-01-4.08906E+00 6.20615E-13-8.03579E-13
 -1      2206 3.59884E+01 5.46538E+00 2.91225E-01-7.52710E-02 1.07264E-12-5.41622E-13
 -1      2207 3.53238E+01 6.69618E+00 1.83162E-01-6.90499E-01 1.04039E-12-6.71241E-13
 -1      2208 1.97213E+01-5.24476E+00-1.37265E-02-6.29206E+00 4.11005E-13-9.66477E-13
 -1      2209 1.88391E+01-5.12708E+00 3.11220E-04 6.44090E+00-3.33900E-13-6.90947E-13
 -1      2210 1.81987E+01-5.35744E+00 1.76280E-01 6.76731E+00 1.77192E-13-4.93584E-13
 -1      2211 2.23127E+01-5.51173E+00-1.79170E-01 5.59769E+00-7.28306E-14-3.18245E-13
 -1      2212 3.52461E+01 5.83967E+00 3.04557E-01 2.38180E-01-1.14403E-12-2.41474E-13
 -1      2213 2.08210E+01 5.88411E-01 7.88812E-03 2.12282E-01 4.49083E-13 2.62620E-13
 -1      2214 2.09805E+01 7.61611E-01 2.07958E-02 5.38889E-01 5.03360E-13 3.26836E-13
 -1      2215 1.91349E+01 3.84615E+00-1.14216E-02-3.33359E-01-4.65061E-14-8.04207E-13
 -1      2216 1.92466E+01 3.77899E+00-7.79489E-03-4.69234E-01-1.16773E-13-8.03954E-13
 -1      2217 1.93793E+01 3.64585E+00-1.37045E-02-5.86009E-01-1.67704E-13-7.91860E-13
 -1      2218 1.95368E+01 3.53889E+00-1.01100E-02-7.42303E-01-2.35039E-13-7.70444E-13
 -1      2219 1.94445E+01 3.37528E+00 1.47189E-03-4.30944E-01-1.30857E-13-7.45845E-13
 -1      2220 1.89501E+01 3.99894E+00-8.55703E-03 9.32171E-02 1.59939E-13-7.87689E-13
 -1      2221 1.89561E+01 3.99542E+00-7.82474E-03-2.06923E-02 9.66929E-14-7.89634E-13
 -1      2222 1.90236E+01 3.95283E+00-8.01072E-03 2.95560E-01 2.52385E-13-7.65281E-13
 -1      2223 1.89724E+01 3.98143E+00-9.18746E-03 1.79718E-01 1.96583E-13-7.80707E-13
 -1      2224 1.90660E+01 3.70145E+00 1.59504E-03 1.23337E-01 1.67984E-13-7.48133E-13
 -1      2225 1.92060E+01 3.82043E+00-8.39744E-03 5.10019E-01 3.49182E-13-7.09748E-13
 -1      2226 1.91004E+01 3.88320E+00-1.12054E-02 3.85248E-01 2.96434E-13-7.46546E-13
 -1      2227 1.91722E+01 3.61941E+00 2.00041E-03 2.88173E-01 2.64599E-13-7.09880E-13
 -1      2228 1.95004E+01 3.58359E+00-1.03438E-02 7.57535E-01 4.60529E-13-5.91453E-13
 -1      2229 1.93384E+01 3.69183E+00-1.39313E-02 6.12492E-01 3.92758E-13-6.55533E-13
 -1      2230 1.93960E+01 3.43303E+00 2.48132E-03 4.67185E-01 3.59626E-13-6.37726E-13
 -1      2231 1.98991E+01 3.21539E+00-1.53196E-02 1.03865E+00 5.48562E-13-4.35435E-13
 -1      2232 1.96860E+01 3.38746E+00-1.70535E-02 8.73537E-01 4.90218E-13-5.28137E-13
 -1      2233 1.97332E+01 3.12527E+00 3.17525E-03 6.68401E-01 4.55713E-13-5.15922E-13
 -1      2234 2.03973E+01 2.66592E+00-2.53273E-02 1.32503E+00 6.31730E-13-2.39040E-13
 -1      2235 2.01367E+01 2.93821E+00-1.93025E-02 1.15504E+00 5.75954E-13-3.46393E-13
 -1      2236 2.01681E+01 2.67560E+00 6.47467E-03 8.78182E-01 5.31032E-13-3.51665E-13
 -1      2237 2.07471E+01 3.86669E-01 9.56839E-03-2.81155E-01 3.10686E-13 1.74375E-13
 -1      2238 2.07741E+01 4.68351E-01 2.02744E-02-7.40906E-02 3.73685E-13 2.54778E-13
 -1      2239 2.07931E+01 7.60976E-01-4.55663E-03 1.30780E-01 4.57822E-13 7.53135E-14
 -1      2240 2.08885E+01 9.20244E-01 1.43558E-02-5.57657E-01-4.42233E-13-1.60775E-13
 -1      2241 2.07556E+01 7.06070E-01-1.60045E-03-2.21768E-01-3.93277E-13-1.77504E-13
 -1      2242 3.21099E+01 2.89902E+00-1.45787E-01-1.45390E+00 8.03219E-13-7.79932E-13
 -1      2243 3.16290E+01 6.84633E-01-5.25440E-02-5.22319E-01 6.11303E-13-6.81954E-13
 -1      2244 2.07408E+01 5.59749E-01 1.61574E-02 3.59845E-02-3.44208E-13-1.46822E-13
 -1      2245 2.06966E+01 4.42370E-01 2.71264E-03 2.42782E-01-2.78833E-13-1.65368E-13
 -1      2246 2.07175E+01 8.60977E-01-2.84718E-03-1.43053E-01-3.75755E-13-2.48807E-13
 -1      2247 2.06996E+01 3.58973E-01 1.12010E-02 4.25104E-01-2.54211E-13-1.42961E-13
 -1      2248 2.07322E+01 2.84071E-01 2.66720E-03 5.58371E-01-2.24899E-13-1.83104E-13
 -1      2249 2.06742E+01 5.45323E-01-5.34281E-03 3.32100E-01-2.78920E-13-2.12197E-13
 -1      2250 2.07722E+01 2.23801E-01 7.34688E-03 6.82845E-01-1.90094E-13-1.78153E-13
 -1      2251 2.08613E+01 1.62155E-01 1.41871E-03 7.63980E-01-1.58910E-13-1.93761E-13
 -1      2252 2.07048E+01 3.44803E-01-5.54548E-03 6.64583E-01-2.34484E-13-2.11628E-13
 -1      2253 2.09414E+01 1.04444E-01 5.36977E-03 8.39036E-01-1.33066E-13-1.89864E-13
 -1      2254 2.10674E+01 3.80894E-02-7.19677E-04 8.72840E-01-9.82661E-14-1.85037E-13
 -1      2255 2.08161E+01 1.80702E-01-5.33441E-03 8.83267E-01-1.61549E-13-2.33316E-13
 -1      2256 2.11882E+01-3.00885E-02 4.74057E-03 8.96585E-01-8.84170E-14-1.79600E-13
 -1      2257 2.13333E+01-1.12840E-01-3.81557E-03 8.77500E-01-5.47006E-14-2.09172E-13
 -1      2258 2.10064E+01 7.09814E-03-5.25325E-03 9.96482E-01-1.06582E-13-2.30938E-13
 -1      2259 2.14952E+01-1.98944E-01 4.92045E-03 8.39351E-01-6.62304E-14-2.08842E-13
 -1      2260 2.16410E+01-3.02640E-01-7.76289E-03 7.56009E-01-8.30271E-14-2.19356E-13
 -1      2261 2.12735E+01-2.05045E-01-5.42346E-03 9.92723E-01-7.62142E-14-2.41095E-13
 -1      2262 2.18415E+01-4.05478E-01 5.25115E-03 6.39964E-01-1.04874E-13-1.86282E-13
 -1      2263 2.19669E+01-5.21761E-01-1.18895E-02 4.81485E-01-7.73426E-14-1.71340E-13
 -1      2264 2.16147E+01-4.65689E-01-5.48515E-03 8.45456E-01-8.37430E-14-1.99065E-13
 -1      2265 2.21931E+01-6.24417E-01 4.70178E-03 2.73452E-01-9.04832E-15-1.48257E-13
 -1      2266 2.22737E+01-7.23196E-01-1.44960E-02 4.02465E-02-1.13377E-14-1.31804E-13
 -1      2267 2.20177E+01-7.51624E-01-4.42520E-03 5.22765E-01-4.57501E-14-1.29594E-13
 -1      2268 2.24912E+01-7.85534E-01 1.74206E-03-2.56473E-01-7.53612E-14-8.17746E-14
 -1      2269 2.25023E+01-8.10399E-01-1.29237E-02-5.36694E-01-1.08317E-13-1.24999E-13
 -1      2270 2.24439E+01-9.85369E-01-7.25647E-04 8.84669E-03-4.66320E-14-4.77389E-14
 -1      2271 2.26497E+01-7.71085E-01-5.12211E-03-8.77496E-01-1.13299E-13-1.01542E-13
 -1      2272 2.25758E+01-6.52763E-01-4.83674E-03-1.13441E+00-6.95221E-14-9.60748E-14
 -1      2273 2.28107E+01-1.02696E+00 5.94767E-03-6.55678E-01-1.03293E-13 3.38732E-14
 -1      2274 2.25800E+01-4.55791E-01-1.55541E-02-1.41043E+00-8.74294E-14-1.31890E-13
 -1      2275 2.24329E+01-1.59793E-01 9.21547E-03-1.53303E+00-1.51391E-13-9.95536E-14
 -1      2276 2.29938E+01-7.11808E-01 1.17388E-02-1.32252E+00-1.10511E-13 8.40755E-15
 -1      2277 2.22717E+01 1.83971E-01-2.11563E-02-1.58042E+00-2.09354E-13-8.58931E-14
 -1      2278 2.21044E+01 5.74275E-01 2.13130E-02-1.45972E+00-2.08637E-13-1.23245E-13
 -1      2279 2.28892E+01 2.53929E-02 1.01198E-02-1.70229E+00-1.68027E-13-2.22429E-14
 -1      2280 2.18748E+01 9.29463E-01-1.69241E-02-1.17615E+00-2.11421E-13-1.32220E-13
 -1      2281 2.17615E+01 1.22906E+00 1.88839E-02-7.99236E-01-2.05253E-13-1.63418E-13
 -1      2282 2.25609E+01 9.83406E-01 1.22447E-03-1.49141E+00-2.24419E-13-1.53436E-14
 -1      2283 2.16489E+01 1.39198E+00-8.66948E-05-2.40727E-01-2.27087E-13-2.23473E-13
 -1      2284 2.16532E+01 1.40515E+00 1.65751E-03 2.54350E-01-1.78175E-13-2.18404E-13
 -1      2285 2.22497E+01 1.68629E+00-1.72369E-02-5.97709E-01-2.44011E-13-6.91101E-14
 -1      2286 2.17607E+01 1.26546E+00 1.73101E-02 8.24214E-01-1.13683E-13-3.18836E-13
 -1      2287 2.18850E+01 9.87121E-01-1.56022E-02 1.21782E+00-1.00258E-13-2.79655E-13
 -1      2288 2.22461E+01 1.71715E+00-1.86128E-02 6.18456E-01-1.99447E-13-1.79579E-13
 -1      2289 2.21213E+01 6.41046E-01 2.11759E-02 1.53268E+00-1.97764E-13-3.68919E-13
 -1      2290 2.23077E+01 2.50081E-01-2.09349E-02 1.67704E+00-1.41530E-13-4.50695E-13
 -1      2291 2.25608E+01 1.05764E+00-2.34395E-03 1.55626E+00-1.89515E-13-3.90199E-13
 -1      2292 2.24879E+01-9.74967E-02 1.04066E-02 1.65371E+00-5.46235E-14-4.52598E-13
 -1      2293 2.26580E+01-4.00171E-01-1.49564E-02 1.55226E+00-2.69461E-14-4.05039E-13
 -1      2294 2.29241E+01 1.11915E-01 1.18710E-02 1.83054E+00-1.20430E-13-4.64475E-13
 -1      2295 2.26756E+01-6.07235E-01-4.04778E-03 1.29523E+00-6.01357E-14-3.81185E-13
 -1      2296 2.27762E+01-7.36598E-01-5.56643E-03 1.05163E+00 2.99283E-15-4.68952E-13
 -1      2297 2.30655E+01-6.45455E-01 1.25084E-02 1.49416E+00-3.38517E-14-3.59033E-13
 -1      2298 2.26477E+01-7.84909E-01-1.28338E-02 7.19598E-01 8.19913E-14-4.33814E-13
 -1      2299 2.26650E+01-7.67763E-01 1.72612E-03 4.46196E-01 1.59331E-13-3.90883E-13
 -1      2300 2.29215E+01-9.86546E-01 6.66856E-03 8.54841E-01 6.16378E-14-2.87557E-13
 -1      2301 2.24600E+01-7.11078E-01-1.48201E-02 1.51936E-01 1.68784E-13-4.01144E-13
 -1      2302 2.24066E+01-6.16858E-01 4.72006E-03-7.88111E-02 2.07427E-13-3.83472E-13
 -1      2303 2.25846E+01-9.65975E-01-9.41106E-05 1.99697E-01 2.01288E-13-2.38015E-13
 -1      2304 2.21879E+01-5.18246E-01-1.24574E-02-2.88094E-01 2.33759E-13-3.97431E-13
 -1      2305 2.20868E+01-4.06112E-01 5.06550E-03-4.47781E-01 2.21037E-13-3.78334E-13
 -1      2306 2.21782E+01-7.44975E-01-3.65935E-03-3.14271E-01 1.79613E-13-3.77167E-13
 -1      2307 2.18884E+01-3.08189E-01-8.48185E-03-5.69480E-01 1.13153E-13-4.80401E-13
 -1      2308 2.17611E+01-2.11087E-01 4.17893E-03-6.58829E-01 1.08930E-13-4.19422E-13
 -1      2309 2.17853E+01-4.71484E-01-4.54411E-03-6.45845E-01 1.17644E-13-4.41998E-13
 -1      2310 2.15946E+01-1.33530E-01-4.60992E-03-7.09814E-01 1.62179E-13-3.98171E-13
 -1      2311 2.14579E+01-6.30717E-02 3.00937E-03-7.43080E-01 1.50120E-13-3.40630E-13
 -1      2312 2.14423E+01-2.29671E-01-4.04471E-03-8.14667E-01 1.43921E-13-4.87996E-13
 -1      2313 2.13228E+01-1.01935E-02-1.57278E-03-7.44756E-01 1.00464E-13-3.35923E-13
 -1      2314 2.11881E+01 3.41523E-02 1.99218E-03-7.39341E-01 4.63346E-14-2.77415E-13
 -1      2315 2.11563E+01-5.12572E-02-3.20276E-03-8.61754E-01 9.58109E-14-6.26754E-13
 -1      2316 2.10795E+01 6.55074E-02 5.05430E-04-7.10660E-01-4.62842E-14-3.02841E-13
 -1      2317 2.09542E+01 8.91520E-02 1.25547E-03-6.81986E-01-5.93959E-14-3.45903E-13
 -1      2318 2.09220E+01 6.31322E-02-2.46352E-03-8.28540E-01-3.49625E-14-4.51052E-13
 -1      2319 2.08671E+01 1.04479E-01 1.75474E-03-6.37368E-01-9.87349E-14-1.98856E-13
 -1      2320 2.07553E+01 1.13658E-01 7.74654E-04-5.97140E-01-4.92293E-14-2.12198E-13
 -1      2321 2.07307E+01 1.25840E-01-1.93001E-03-7.48839E-01-7.21722E-14-3.04901E-13
 -1      2322 2.06852E+01 1.18272E-01 2.37653E-03-5.46546E-01-3.60712E-14-2.00556E-13
 -1      2323 2.05887E+01 1.18318E-01 4.81550E-04-5.02752E-01 3.49137E-14-2.24819E-13
 -1      2324 2.05745E+01 1.51890E-01-1.57083E-03-6.47292E-01-2.35940E-14-9.49953E-14
 -1      2325 2.05323E+01 1.16441E-01 2.56613E-03-4.52511E-01 6.58141E-14-2.13218E-13
 -1      2326 2.04514E+01 1.11328E-01 3.10751E-04-4.10101E-01 7.72578E-14-1.34172E-13
 -1      2327 2.04471E+01 1.54432E-01-1.32474E-03-5.40403E-01 3.43210E-14-3.74516E-14
 -1      2328 2.04063E+01 1.05972E-01 2.48365E-03-3.63855E-01 7.17354E-14-9.82455E-14
 -1      2329 2.03401E+01 9.84054E-02 2.13623E-04-3.25551E-01 2.43285E-14 3.74980E-14
 -1      2330 2.03437E+01 1.43414E-01-1.14146E-03-4.38315E-01 8.81131E-14-1.09760E-13
 -1      2331 2.03042E+01 9.15596E-02 2.24832E-03-2.85085E-01-2.82735E-14 1.96205E-14
 -1      2332 2.02513E+01 8.32571E-02 1.58276E-04-2.52101E-01 6.92290E-15 4.92585E-14
 -1      2333 2.02605E+01 1.25707E-01-9.89729E-04-3.46580E-01 4.45763E-14-4.66895E-14
 -1      2334 2.02230E+01 7.61467E-02 1.94264E-03-2.17997E-01 3.20520E-15 4.94632E-14
 -1      2335 2.01816E+01 6.81149E-02 1.25461E-04-1.90594E-01-6.73186E-14 5.03101E-14
 -1      2336 2.01942E+01 1.05726E-01-8.53892E-04-2.67631E-01-2.73433E-14 5.74032E-14
 -1      2337 2.01597E+01 6.14347E-02 1.61993E-03-1.62697E-01-1.95194E-13 2.22607E-14
 -1      2338 2.01280E+01 5.42040E-02 1.04311E-04-1.40581E-01-1.86004E-13-5.19363E-14
 -1      2339 2.01420E+01 8.61045E-02-7.28077E-04-2.01907E-01-1.96851E-13 1.35444E-13
 -1      2340 2.01112E+01 4.82997E-02 1.31207E-03-1.18335E-01-1.45695E-13 2.15724E-14
 -1      2341 2.00875E+01 4.20958E-02 8.90610E-05-1.00927E-01-7.35392E-14 2.10133E-14
 -1      2342 2.01017E+01 6.82626E-02-6.11410E-04-1.48673E-01-1.57659E-13 1.53251E-13
 -1      2343 2.00748E+01 3.70947E-02 1.03607E-03-8.35853E-02 3.87147E-14 7.36320E-14
 -1      2344 2.00575E+01 3.19587E-02 7.68395E-05-7.01917E-02 1.66892E-13 1.55235E-13
 -1      2345 2.00709E+01 5.28385E-02-5.04904E-04-1.06572E-01 4.97277E-15 2.35138E-13
 -1      2346 2.00481E+01 2.78586E-02 7.99150E-04-5.69603E-02 1.28607E-13 3.12516E-15
 -1      2347 2.00358E+01 2.37275E-02 6.62988E-05-4.68783E-02 6.99195E-14-8.71294E-14
 -1      2348 2.00479E+01 3.99898E-02-4.09778E-04-7.39975E-02 9.75557E-14 4.06976E-14
 -1      2349 2.00291E+01 2.04547E-02 6.02413E-04-3.69950E-02 1.35439E-13-1.32133E-13
 -1      2350 2.00206E+01 1.72128E-02 5.68085E-05-2.95721E-02 5.52012E-15-3.52616E-14
 -1      2351 2.00311E+01 2.95976E-02-3.26741E-04-4.93191E-02-5.48237E-15-5.61856E-14
 -1      2352 2.00159E+01 1.46599E-02 4.43460E-04-2.23512E-02-1.80772E-13 5.69456E-14
 -1      2353 2.00103E+01 1.21702E-02 4.79918E-05-1.70149E-02-1.96357E-13 1.23562E-13
 -1      2354 2.00191E+01 2.13987E-02-2.55823E-04-3.10166E-02-7.78548E-15 1.41852E-13
 -1      2355 2.00071E+01 1.02180E-02 3.18099E-04-1.18675E-02-1.68745E-13 2.96557E-13
 -1      2356 2.00037E+01 8.34104E-03 3.95087E-05-8.13677E-03-1.64740E-14 4.26109E-13
 -1      2357 2.00107E+01 1.50681E-02-1.96448E-04-1.77482E-02-2.60532E-14 3.79510E-13
 -1      2358 2.00017E+01 6.87112E-03 2.21411E-04-4.57644E-03 1.92743E-14 4.04133E-13
 -1      2359 1.99998E+01 5.47452E-03 3.09609E-05-2.06231E-03 4.50428E-14 3.71596E-13
 -1      2360 2.00052E+01 1.02680E-02-1.47535E-04-8.37962E-03-3.49786E-14 5.90856E-13
 -1      2361 1.99985E+01 4.37580E-03 1.48505E-04 2.98489E-04 1.28637E-13 4.15107E-13
 -1      2362 1.99977E+01 3.33784E-03 2.18596E-05 1.89778E-03 3.15895E-13 2.96259E-13
 -1      2363 2.00017E+01 6.67322E-03-1.07915E-04-1.98672E-03 4.79680E-14 5.06341E-13
 -1      2364 1.99971E+01 2.50756E-03 9.50563E-05 3.35541E-03 2.33289E-13 1.98217E-13
 -1      2365 1.99970E+01 1.71615E-03 1.14644E-05 4.26160E-03 1.11233E-13 1.37832E-13
 -1      2366 1.99997E+01 3.98272E-03-7.64130E-05 2.15567E-03 1.72936E-13 4.15972E-13
 -1      2367 1.99967E+01 1.05811E-03 5.72671E-05 5.02847E-03 1.02955E-13 7.32054E-14
 -1      2368 1.99970E+01 4.14751E-04 1.53320E-06 5.38900E-03 1.05080E-13 1.24544E-13
 -1      2369 1.99987E+01 1.91753E-03-5.22091E-05 4.59119E-03-1.05029E-14 3.72968E-13
 -1      2370 1.99971E+01-1.73591E-04 2.74281E-05 5.61120E-03 5.94888E-14 1.29851E-13
 -1      2371 1.99976E+01-7.30324E-04-4.29013E-06 5.50460E-03-3.53746E-14 1.28197E-13
 -1      2372 1.99985E+01 2.39788E-04-3.26846E-05 5.70001E-03 6.00543E-14 1.57832E-13
 -1      2373 2.10469E+01 2.32394E-01 7.06744E-03-9.09902E-01 1.65262E-13 2.86361E-14
 -1      2374 2.08824E+01 2.58832E-01 7.62364E-03-7.94104E-01 1.82556E-13 1.06343E-13
 -1      2375 2.13758E+01 1.78927E-01 5.17607E-03-1.12591E+00 1.24635E-13-3.46877E-14
 -1      2376 2.11501E+01 2.07442E-01 4.73893E-03-1.03624E+00 1.46044E-13 3.40667E-15
 -1      2377 2.09442E+01 3.07048E-01-5.61741E-03-1.10293E+00 1.87176E-13-6.76269E-14
 -1      2378 2.17953E+01 9.78873E-02 1.97087E-03-1.27727E+00 1.18624E-13-3.19766E-14
 -1      2379 2.15261E+01 1.44685E-01 3.37288E-03-1.22127E+00 1.21640E-13-2.91058E-14
 -1      2380 2.11963E+01 2.21959E-01-5.52107E-03-1.34659E+00 1.44934E-13-9.02107E-14
 -1      2381 2.22880E+01-4.37891E-02-3.26818E-03-1.32980E+00 3.93770E-14 4.17609E-14
 -1      2382 2.19953E+01 3.88293E-02 3.15515E-03-1.32874E+00 9.12232E-14 2.69906E-14
 -1      2383 2.15404E+01 8.84902E-02-6.27774E-03-1.51234E+00 7.10460E-14-7.40973E-14
 -1      2384 2.28365E+01-2.77060E-01-1.08584E-02-1.22101E+00-7.19021E-14 1.21899E-13
 -1      2385 2.25465E+01-1.43603E-01 4.00387E-03-1.30903E+00-7.04124E-15 9.73054E-14
 -1      2386 2.19843E+01-1.38973E-01-8.21338E-03-1.55940E+00-1.50206E-14 1.94332E-14
 -1      2387 2.34156E+01-6.08481E-01-1.99037E-02-8.67639E-01-6.15428E-14 9.46688E-14
 -1      2388 2.31654E+01-4.26356E-01 5.59888E-03-1.08422E+00-6.89370E-14 1.22242E-13
 -1      2389 2.25466E+01-4.96614E-01-1.09875E-02-1.41540E+00-6.19641E-14 3.52217E-14
 -1      2390 2.39747E+01-9.71178E-01-2.68094E-02-1.98301E-01-4.99722E-14 1.40765E-13
 -1      2391 2.38143E+01-7.88858E-01 6.39628E-03-5.64963E-01-5.61903E-14 1.19977E-13
 -1      2392 2.32427E+01-9.71728E-01-1.26529E-02-9.83576E-01-4.97510E-14 9.52214E-15
 -1      2393 2.44118E+01-1.16195E+00-2.50096E-02 7.65698E-01-2.83593E-14 1.90292E-13
 -1      2394 2.43978E+01-1.10503E+00 2.74500E-03 2.92442E-01-4.48114E-14 1.57135E-13
 -1      2395 2.40443E+01-1.42868E+00-9.03456E-03-1.80853E-01-6.46675E-14 6.85793E-14
 -1      2396 2.45625E+01-8.54509E-01-1.01230E-02 1.77424E+00 2.48784E-14 2.37472E-13
 -1      2397 2.47265E+01-1.09711E+00-1.33533E-02 1.35929E+00-2.66627E-14 2.41793E-13
 -1      2398 2.48046E+01-1.52854E+00 2.71129E-03 9.57766E-01-4.57995E-14 1.69733E-13
 -1      2399 2.42997E+01 1.43668E-01 1.04646E-02 2.27145E+00 4.16958E-14 2.71557E-13
 -1      2400 2.45982E+01-4.46210E-01-3.75281E-02 2.19105E+00 5.18578E-14 2.60732E-13
 -1      2401 2.52294E+01-8.57048E-01 7.80969E-03 2.08060E+00 4.54931E-15 2.25707E-13
 -1      2402 2.37615E+01 1.44210E+00 7.12741E-03 1.65753E+00 1.35003E-13 2.35407E-13
 -1      2403 2.40399E+01 8.07719E-01-5.38148E-02 2.11372E+00 6.02712E-14 2.65094E-13
 -1      2404 2.50946E+01 6.68746E-01-1.03683E-02 2.45657E+00 6.09929E-14 2.42516E-13
 -1      2405 2.34648E+01 2.05631E+00-2.33636E-02-1.81904E-02 4.13940E-13 6.36843E-14
 -1      2406 2.35214E+01 1.90094E+00-4.02660E-02 8.04256E-01 3.13208E-13 1.57881E-13
 -1      2407 2.46360E+01 2.26467E+00-4.90826E-02 1.43098E+00 2.55698E-13 1.99599E-13
 -1      2408 2.37807E+01 1.41063E+00-5.48950E-02-1.72311E+00 3.96246E-13-1.63889E-13
 -1      2409 2.35815E+01 1.87917E+00-8.77665E-04-1.04963E+00 4.29351E-13-3.04565E-14
 -1      2410 2.45229E+01 2.65570E+00-5.72786E-02-6.28897E-01 4.82649E-13-3.54933E-14
 -1      2411 2.44415E+01 9.82661E-02-5.13843E-02-2.40065E+00 2.47515E-13-3.22898E-13
 -1      2412 2.41176E+01 7.79954E-01 1.50677E-02-2.23848E+00 3.64132E-13-2.10725E-13
 -1      2413 2.49334E+01 1.49216E+00-1.64098E-02-2.30293E+00 4.45904E-13-2.98058E-13
 -1      2414 2.48520E+01-8.56427E-01-2.01486E-02-1.93345E+00 7.92177E-14-4.08856E-13
 -1      2415 2.45892E+01-4.50733E-01 3.15884E-03-2.20811E+00 1.62708E-13-3.47750E-13
 -1      2416 2.52913E+01-2.02291E-01 7.71277E-04-2.58309E+00 2.25264E-13-4.06161E-13
 -1      2417 2.47677E+01-1.14619E+00 2.85608E-05-9.10085E-01-1.07386E-13-3.53494E-13
 -1      2418 2.46606E+01-1.09086E+00-2.27605E-02-1.36882E+00-1.42490E-14-4.13320E-13
 -1      2419 2.51525E+01-1.33710E+00-6.20158E-03-1.67044E+00 3.85874E-14-4.58794E-13
 -1      2420 2.43154E+01-9.39524E-01 7.86197E-03 6.86540E-02-2.85362E-15-3.31091E-13
 -1      2421 2.43792E+01-1.08581E+00-2.84873E-02-3.42173E-01-4.86096E-14-3.75556E-13
 -1      2422 2.45503E+01-1.54069E+00-8.77206E-03-4.61295E-01-5.18704E-14-4.12492E-13
 -1      2423 2.37228E+01-5.75877E-01 7.39424E-03 7.38008E-01-3.04427E-14-2.43524E-13
 -1      2424 2.39064E+01-7.65204E-01-2.29482E-02 4.64824E-01 5.28926E-14-2.25319E-13
 -1      2425 2.37716E+01-1.18799E+00-1.32459E-02 5.04648E-01-4.89864E-14-3.21668E-13
 -1      2426 2.31254E+01-2.52038E-01 4.72379E-03 1.08276E+00-2.83555E-13-2.83779E-13
 -1      2427 2.33723E+01-4.05196E-01-1.43272E-02 9.47078E-01-1.23831E-13-2.53878E-13
 -1      2428 2.30478E+01-6.92119E-01-1.24697E-02 1.09259E+00-9.33992E-14-9.96554E-14
 -1      2429 2.25790E+01-3.12009E-02 2.56783E-03 1.18469E+00-2.61870E-13-2.74997E-13
 -1      2430 2.28470E+01-1.29397E-01-6.42511E-03 1.15040E+00-3.40860E-13-2.77175E-13
 -1      2431 2.24503E+01-2.75708E-01-9.04729E-03 1.35142E+00-2.60771E-13-1.84621E-13
 -1      2432 2.20987E+01 9.30347E-02 1.37708E-03 1.13695E+00 2.23188E-14-2.88610E-13
 -1      2433 2.23602E+01 4.11493E-02-7.28700E-04 1.16432E+00-1.19995E-13-3.63857E-13
 -1      2434 2.19730E+01-1.03732E-03-5.74187E-03 1.38530E+00-1.57586E-13-3.56092E-13
 -1      2435 2.16846E+01 1.48509E-01 8.48019E-04 1.01228E+00 2.01442E-14-7.54520E-14
 -1      2436 2.19237E+01 1.27838E-01 2.71769E-03 1.07045E+00 5.57553E-14-1.87693E-13
 -1      2437 2.15886E+01 1.48765E-01-3.55403E-03 1.28848E+00-5.95529E-14-2.68877E-13
 -1      2438 2.13329E+01 1.62198E-01 6.70681E-04 8.58478E-01 2.27691E-14 6.28330E-15
 -1      2439 2.15418E+01 1.59746E-01 4.42089E-03 9.27322E-01 5.02877E-14 6.58642E-15
 -1      2440 2.12735E+01 2.12154E-01-2.38216E-03 1.12882E+00-1.53968E-14-2.01517E-13
 -1      2441 2.10389E+01 1.53622E-01 6.34309E-04 7.03400E-01-4.08480E-14 1.41541E-13
 -1      2442 2.12153E+01 1.60455E-01 4.96942E-03 7.71398E-01-5.25903E-15 8.34551E-14
 -1      2443 2.10122E+01 2.23960E-01-1.82854E-03 9.49324E-01-4.29149E-15-8.45305E-14
 -1      2444 2.07969E+01 1.35026E-01 6.30194E-04 5.61378E-01-6.78032E-14 2.51556E-13
 -1      2445 2.09418E+01 1.45716E-01 4.83670E-03 6.22795E-01-9.40632E-15 2.18296E-13
 -1      2446 2.07951E+01 2.08790E-01-1.57351E-03 7.74600E-01-5.86554E-14 8.17951E-14
 -1      2447 2.06011E+01 1.13372E-01 6.15236E-04 4.38439E-01 2.77450E-14 1.30159E-13
 -1      2448 2.07174E+01 1.24912E-01 4.35417E-03 4.91038E-01 6.17787E-14 2.18954E-13
 -1      2449 2.06159E+01 1.81890E-01-1.42929E-03 6.17053E-01 8.58005E-15 1.13439E-13
 -1      2450 2.04452E+01 9.22655E-02 5.79345E-04 3.35911E-01 4.67935E-14 5.85722E-14
 -1      2451 2.05368E+01 1.03147E-01 3.73177E-03 3.79388E-01-2.64686E-15 6.28196E-14
 -1      2452 2.04697E+01 1.51851E-01-1.30751E-03 4.81626E-01 4.08467E-14-2.56289E-14
 -1      2453 2.03232E+01 7.33572E-02 5.25928E-04 2.52680E-01-1.33648E-13 5.96698E-14
 -1      2454 2.03939E+01 8.29289E-02 3.09105E-03 2.87700E-01 1.45023E-15 9.72205E-14
 -1      2455 2.03521E+01 1.23075E-01-1.17739E-03 3.69003E-01 1.96014E-14 7.18704E-14
 -1      2456 2.02293E+01 5.72229E-02 4.62234E-04 1.86536E-01 1.90709E-13 2.75347E-14
 -1      2457 2.02830E+01 6.52953E-02 2.49548E-03 2.14171E-01-8.23640E-14 6.12890E-14
 -1      2458 2.02590E+01 9.75318E-02-1.03551E-03 2.77651E-01-1.06143E-13 2.09720E-13
 -1      2459 2.01583E+01 4.38886E-02 3.95208E-04 1.34914E-01 2.70606E-13 1.44694E-13
 -1      2460 2.01983E+01 5.05043E-02 1.97318E-03 1.56338E-01 3.14053E-13 3.98901E-14
 -1      2461 2.01864E+01 7.58597E-02-8.88578E-04 2.05038E-01 2.10231E-13 2.86960E-13
 -1      2462 2.01056E+01 3.31225E-02 3.30090E-04 9.52867E-02 1.29998E-13 1.50664E-13
 -1      2463 2.01348E+01 3.84283E-02 1.53211E-03 1.11625E-01 1.81507E-13 1.57998E-13
 -1      2464 2.01309E+01 5.80209E-02-7.44943E-04 1.48330E-01 1.99317E-13 9.34499E-14
 -1      2465 2.00673E+01 2.45919E-02 2.70242E-04 6.53514E-02-3.17390E-14 1.55485E-14
 -1      2466 2.00881E+01 2.87714E-02 1.16958E-03 7.76125E-02 1.38885E-13 1.05635E-13
 -1      2467 2.00893E+01 4.36644E-02-6.11295E-04 1.04763E-01 2.07654E-13 5.16498E-14
 -1      2468 2.00401E+01 1.79435E-02 2.17427E-04 4.31065E-02 6.54722E-14-2.05548E-13
 -1      2469 2.00545E+01 2.11828E-02 8.77835E-04 5.21553E-02-5.17266E-14-5.32312E-15
 -1      2470 2.00586E+01 3.23212E-02-4.91802E-04 7.18255E-02 1.43849E-13-8.97527E-14
 -1      2471 2.00215E+01 1.28417E-02 1.72207E-04 2.68643E-02 4.73003E-14-2.27781E-13
 -1      2472 2.00311E+01 1.53138E-02 6.47198E-04 3.34226E-02 8.46088E-14-2.29665E-13
 -1      2473 2.00365E+01 2.35045E-02-3.88345E-04 4.73315E-02 1.05750E-13-3.10915E-13
 -1      2474 2.00091E+01 8.98520E-03 1.34292E-04 1.52360E-02 2.29019E-14-8.30611E-14
 -1      2475 2.00152E+01 1.08436E-02 4.67778E-04 1.98924E-02-5.73002E-14-1.30435E-13
 -1      2476 2.00210E+01 1.67563E-02-3.01091E-04 2.94364E-02-7.09083E-14-2.78217E-13
 -1      2477 2.00014E+01 6.11075E-03 1.02812E-04 7.10344E-03-9.84943E-14 1.42503E-13
 -1      2478 2.00050E+01 7.48846E-03 3.30317E-04 1.03277E-02 8.17681E-14 9.11151E-14
 -1      2479 2.00106E+01 1.16673E-02-2.29084E-04 1.66204E-02 7.51657E-15-2.08548E-13
 -1      2480 1.99971E+01 3.99207E-03 7.65250E-05 1.58630E-03-2.31084E-13 1.26188E-13
 -1      2481 1.99989E+01 5.00299E-03 2.26572E-04 3.74474E-03-1.88469E-13 1.44098E-13
 -1      2482 2.00039E+01 7.88080E-03-1.70713E-04 7.65953E-03-1.63340E-13 1.17014E-13
 -1      2483 1.99951E+01 2.43545E-03 5.39997E-05-1.98935E-03-1.79911E-13 1.14956E-13
 -1      2484 1.99957E+01 3.17691E-03 1.49417E-04-6.20039E-04-2.35500E-13 4.54195E-14
 -1      2485 1.99999E+01 5.09066E-03-1.24053E-04 1.59109E-03-1.54295E-13-5.10940E-14
 -1      2486 1.99947E+01 1.27283E-03 3.35947E-05-4.12013E-03-5.54373E-14 1.56881E-13
 -1      2487 1.99945E+01 1.82984E-03 9.28763E-05-3.34046E-03-1.18382E-13 8.31216E-14
 -1      2488 1.99978E+01 3.03451E-03-8.72426E-05-2.32051E-03-1.31611E-13-1.46107E-13
 -1      2489 1.99952E+01 3.54208E-04 1.56205E-05-5.14755E-03 2.27780E-13 4.87552E-14
 -1      2490 1.99945E+01 8.02069E-04 5.21512E-05-4.82737E-03 8.37627E-14 1.37746E-13
 -1      2491 1.99970E+01 1.48328E-03-5.87296E-05-4.61705E-03 7.76398E-14 1.48024E-13
 -1      2492 1.99963E+01-4.67684E-04-1.52473E-06-5.28151E-03 3.14516E-13 1.40666E-13
 -1      2493 1.99954E+01-6.04137E-05 2.14147E-05-5.35409E-03 2.83415E-13 1.57663E-13
 -1      2494 1.99970E+01 2.42825E-04-3.49772E-05-5.67324E-03 1.56508E-13 2.14295E-13
 -1      2495 1.99975E+01-1.28820E-03-1.92079E-05-4.62492E-03 4.28864E-14 1.72771E-13
 -1      2496 1.99966E+01-8.61863E-04 7.31331E-06-5.04720E-03 1.88573E-13 1.54171E-13
 -1      2497 1.99976E+01-9.24152E-04-1.81758E-05-5.73827E-03 1.87937E-13 3.89530E-13
 -1      2498 1.99980E+01-1.70699E-03-2.95045E-06-3.95967E-03 2.26045E-13 2.77621E-14
 -1      2499 2.00014E+01-5.18206E-03 8.13746E-06-3.44909E-03 4.49025E-13-5.23346E-13
 -1      2500 2.00012E+01-4.71711E-03 1.51067E-05-3.96403E-03 4.88356E-13-9.70551E-13
 -1      2501 2.00016E+01-5.54482E-03 8.84792E-06-2.22729E-03 3.92957E-13 2.25259E-14
 -1      2502 2.00015E+01-5.22871E-03 1.95882E-05-2.82430E-03 4.58381E-13-3.59075E-13
 -1      2503 2.00019E+01-3.17549E-03-5.14395E-07-3.32956E-03 5.80456E-13-3.97299E-13
 -1      2504 2.00003E+01-3.76157E-03 1.26653E-05-5.12918E-03 3.33270E-14 5.70009E-14
 -1      2505 1.99997E+01-3.07040E-03-1.63834E-05-5.20924E-03 1.40505E-13 2.56782E-13
 -1      2506 2.00010E+01-4.58862E-03 9.04848E-06-4.47825E-03 1.16037E-13-1.00859E-12
 -1      2507 2.00007E+01-4.00485E-03 5.41664E-06-4.82133E-03 1.95241E-14-3.05484E-13
 -1      2508 2.00006E+01-2.68591E-03-5.58183E-06-5.36124E-03-8.56930E-14-2.12495E-13
 -1      2509 2.00015E+01-3.02061E-03-4.30846E-06-4.50914E-03 4.64909E-13-7.85511E-13
 -1      2510 2.00016E+01-5.70317E-03 1.17266E-05-9.34232E-04 1.04084E-14 3.52179E-14
 -1      2511 2.00016E+01-5.54769E-03 1.96235E-05-1.56175E-03 9.45392E-14 1.95527E-13
 -1      2512 2.00021E+01-3.21935E-03 3.37917E-06-1.99931E-03 3.72265E-13-1.21450E-13
 -1      2513 2.00016E+01-5.68464E-03 1.56678E-05 3.69895E-04 3.98366E-14 2.13742E-13
 -1      2514 2.00016E+01-5.69334E-03 1.64329E-05-2.61475E-04-2.40004E-14 2.22296E-13
 -1      2515 2.00022E+01-3.21250E-03 5.95162E-06-6.25566E-04 1.50570E-13 1.14600E-13
 -1      2516 2.00016E+01-5.50431E-03 1.88949E-05 1.65587E-03-1.31780E-13-4.70932E-13
 -1      2517 2.00016E+01-5.67533E-03 1.21479E-05 1.03712E-03-1.47395E-14-3.50259E-14
 -1      2518 2.00022E+01-3.19433E-03 6.12839E-06 7.47304E-04-5.82771E-14-1.66901E-14
 -1      2519 2.00014E+01-5.16515E-03 1.88718E-05 2.86830E-03-1.16508E-13-5.04362E-13
 -1      2520 2.00015E+01-5.48750E-03 8.67604E-06 2.29627E-03-1.51208E-13-5.97948E-13
 -1      2521 2.00021E+01-3.16843E-03 4.28095E-06 2.08779E-03-6.38534E-14-5.79001E-13
 -1      2522 2.00012E+01-4.64183E-03 1.35708E-05 3.97285E-03 7.64808E-14 1.58615E-13
 -1      2523 2.00013E+01-5.10959E-03 7.55651E-06 3.47468E-03 4.78691E-14-3.18701E-13
 -1      2524 2.00019E+01-3.10282E-03 3.59640E-07 3.37140E-03 1.25136E-13-2.95421E-13
 -1      2525 2.00006E+01-3.92846E-03-2.87339E-08 4.80232E-03 1.04209E-14 6.20609E-13
 -1      2526 2.00009E+01-4.50644E-03 9.99062E-06 4.46860E-03 8.76974E-15 6.01480E-13
 -1      2527 2.00014E+01-2.92533E-03 1.10356E-06 4.52126E-03 5.88519E-14 2.47815E-13
 -1      2528 1.99997E+01-3.00092E-03-1.22907E-05 5.13416E-03-1.85931E-13-1.08564E-13
 -1      2529 2.00002E+01-3.67179E-03 8.56334E-06 5.08983E-03-4.38527E-14 1.72603E-13
 -1      2530 2.00006E+01-2.59428E-03-7.84840E-06 5.32186E-03 1.56043E-14 3.15496E-13
 -1      2531 4.36042E+00-2.61866E+00 9.09741E-02 2.64688E+00-2.52437E-13 6.47316E-13
 -1      2532 2.95708E+00-3.05432E+00 5.77875E-02 4.36737E-01-2.25089E-13 7.46014E-13
 -1      2533 1.12371E+01-4.51375E+00 5.12271E-02 6.52172E+00-3.91742E-13 8.86957E-13
 -1      2534 7.64569E+00-3.53081E+00 1.11040E-01 5.09987E+00-3.43614E-13 8.19789E-13
 -1      2535 3.10433E+00-3.03084E+00 5.18244E-02-1.40910E+00-9.68635E-14 6.96887E-13
 -1      2536 4.35015E+00-2.99823E+00 7.05988E-02-3.57074E+00-6.16174E-15 7.95697E-13
 -1      2537 5.03829E+00-1.61639E+00 1.72675E-01-6.38655E-01-6.64278E-14 6.20115E-13
 -1      2538 2.08292E+01 2.89463E-01 8.42420E-03-6.35666E-01 2.10704E-13 1.18345E-13
 -1      2539 2.07464E+01 3.30888E-01 1.27838E-02-4.87063E-01 2.53927E-13 1.52090E-13
 -1      2540 2.07875E+01 3.87926E-01-5.97259E-03-7.92264E-01 2.43390E-13-8.61442E-15
 -1      2541 1.99987E+01-2.45723E-03 3.14614E-06 4.50690E-03-1.03627E-13-3.70814E-14
 -1      2542 1.88893E+01-5.54004E+00 3.94624E-03 6.36002E+00-3.29320E-13 4.08781E-13
 -1      2543 1.54745E+01-5.25751E+00 8.17075E-02 6.42701E+00-5.02570E-13 5.83825E-13
 -1      2544 2.61995E+01-4.60850E+00-7.05306E-02 3.70668E+00-9.64229E-14-3.35398E-13
 -1      2545 2.22967E+01-5.54664E+00 8.42055E-03 4.99889E+00-2.59293E-13 3.26683E-14
 -1      2546 2.18910E+01-5.48552E+00 6.48898E-02 4.96835E+00-4.60132E-13-4.45234E-14
 -1      2547 2.09037E+01 1.98892E+00-1.15814E-02-1.49685E+00-5.27708E-13-2.77297E-13
 -1      2548 2.08446E+01 1.26095E+00-6.61239E-03-8.69380E-01-4.92670E-13-2.12627E-13
 -1      2549 2.07478E+01 1.46559E+00 5.54585E-03-7.58054E-01-4.59090E-13-3.06166E-13
 -1      2550 2.05804E+01 2.45372E+00-9.95598E-04-1.41093E+00-5.06763E-13-4.14885E-13
 -1      2551 6.76952E+00-4.01223E+00 5.63487E-02-5.35353E+00 1.65812E-13 8.62310E-13
 -1      2552 1.03069E+01-4.65148E+00-6.23663E-03-6.80651E+00 1.08469E-13 5.63050E-13
 -1      2553 1.30318E+01-4.45087E+00 6.07908E-02 6.88860E+00 2.75280E-13-6.12843E-13
 -1      2554 8.92181E+00-3.89371E+00 1.12181E-01 5.90721E+00 2.33980E-13-9.10827E-13
 -1      2555 3.27059E+00-2.57583E+00 6.69323E-02 4.45285E-01 1.52378E-14-1.28586E-12
 -1      2556 3.61516E+00-3.04470E+00 8.35277E-02-2.03526E+00 9.39526E-15-1.30279E-12
 -1      2557 1.89891E+01 3.96250E+00-9.73358E-03-1.10909E-01 5.82392E-14-7.95469E-13
 -1      2558 1.90501E+01 3.92812E+00-7.24989E-03-2.31929E-01-5.88359E-15-8.04557E-13
 -1      2559 1.92088E+01 3.57815E+00 1.19236E-03-2.24260E-01-1.97487E-14-7.50128E-13
 -1      2560 1.90794E+01 3.68669E+00 1.31816E-03-4.29057E-02 7.06963E-14-7.46880E-13
 -1      2561 3.20288E+01 6.67144E+00-1.34071E-01-8.56010E-01 1.01119E-12-5.46015E-13
 -1      2562 3.15214E+01 5.22087E+00-1.59855E-01-1.48984E+00 8.78519E-13-6.85785E-13
 -1      2563 1.85809E+01-5.75458E+00 1.38106E-02-6.22842E+00 4.25771E-14-7.59171E-13
 -1      2564 2.25121E+01-5.37707E+00-8.42295E-02-5.65771E+00 1.58873E-13-6.26346E-13
 -1      2565 3.27137E+01 6.84245E+00-1.10111E-01 7.07817E-01 1.06815E-12-3.70967E-13
 -1      2566 3.23823E+01 7.18155E+00-1.76511E-01 7.75874E-02 1.08369E-12-4.11578E-13
 -1      2567 3.27091E+01 3.47256E+00-6.24148E-02 1.01429E+00 8.56121E-13-2.20546E-13
 -1      2568 3.27222E+01 5.31556E+00-1.80967E-01 1.22418E+00 9.39249E-13-2.28068E-13
 -1      2569 3.11517E+01-4.43828E-01-4.79954E-02-7.90073E-01 5.91971E-13-3.19689E-13
 -1      2570 3.24587E+01 1.23811E+00-1.41691E-01 4.52756E-02 7.78599E-13-2.02172E-13
 -1      2571 2.63697E+01-4.22458E+00 3.84607E-03-3.49865E+00 2.15550E-13-4.15418E-13
 -1      2572 2.95885E+01-2.51968E+00-6.78189E-02-2.31840E+00 3.63085E-13-3.91021E-13
 -1      2573 1.08011E+01-5.12424E+00 3.07366E-02-6.38287E+00-1.55764E-13-9.58900E-13
 -1      2574 1.46325E+01-5.39772E+00-7.73627E-03-6.98413E+00-2.36478E-14-9.76233E-13
 -1      2575 4.83720E+00-3.82171E+00 4.04729E-02-3.92889E+00-1.44718E-13-1.14259E-12
 -1      2576 7.22620E+00-4.38964E+00 1.66495E-02-5.62864E+00-8.90399E-14-1.01635E-12
 -1      2577 6.62633E+00-3.20771E+00 1.01301E-01 5.05035E+00 1.46216E-13-1.16862E-12
 -1      2578 4.90955E+00-2.69265E+00 1.35639E-01 3.21609E+00 1.97620E-13-1.22768E-12
 -1      2579 1.00016E+01-2.72351E+00 1.61544E-01 5.45901E+00 3.79211E-13-8.87845E-13
 -1      2580 3.23023E+01 5.64282E+00-1.64004E-01-8.64415E-01-1.02990E-12-8.45990E-14
 -1      2581 3.21094E+01 4.08331E+00-7.73898E-02-7.23274E-01-9.77135E-13-9.22873E-14
 -1      2582 2.81724E+01-3.02749E+00-1.17098E-01 2.68928E+00-5.12645E-13-1.52656E-14
 -1      2583 2.58832E+01-4.19453E+00 2.06771E-02 3.67182E+00-3.31762E-13-1.44607E-13
 -1      2584 3.17476E+01 1.65322E+00-1.10849E-01 8.88486E-02-8.90329E-13-2.02616E-14
 -1      2585 2.98592E+01-7.29011E-01-5.06643E-02 9.11324E-01-6.89740E-13 4.00791E-14
 -1      2586 3.03729E+01 2.24976E+00-3.76251E-02-1.22456E+00-7.69870E-13 7.69385E-14
 -1      2587 3.25647E+01 7.55134E+00-1.23155E-01 2.62399E-02-1.15075E-12-3.28036E-13
 -1      2588 3.22769E+01 7.19074E+00-1.22269E-01-4.63829E-01-1.10756E-12-2.47871E-13
 -1      2589 3.23272E+01 6.08997E+00-1.12157E-01 8.61780E-01-8.39717E-13-5.90583E-13
 -1      2590 3.28856E+01 7.13643E+00-1.24561E-01 5.48844E-01-1.05616E-12-4.64018E-13
 -1      2591 3.12699E+01 1.89073E+00-7.64186E-02 3.72458E-01-4.23064E-13-6.51090E-13
 -1      2592 3.18077E+01 3.70642E+00-1.75497E-01 9.00401E-01-5.74429E-13-7.35134E-13
 -1      2593 2.81598E+01-2.47389E+00-7.63100E-03-2.20027E+00 7.30249E-14-1.38556E-13
 -1      2594 3.05236E+01-4.31712E-01-1.15902E-01-9.98001E-01-2.02581E-13-4.56635E-13
 -1      2595 2.97944E+01 1.01435E-01-1.02407E-02 6.82758E-01-1.64917E-13-8.18706E-13
 -1      2596 2.20180E+01-5.05814E+00 1.91181E-02-5.45303E+00 5.13478E-14 1.13243E-13
 -1      2597 2.52640E+01-4.29649E+00-1.09284E-01-4.46687E+00 1.57707E-13 1.82604E-13
 -1      2598 1.46196E+01-5.33612E+00 4.80835E-02-6.82938E+00 3.35842E-14 1.94969E-13
 -1      2599 1.84110E+01-5.32042E+00-3.49016E-02-6.78183E+00-4.91829E-14 1.04868E-13
 -1      2600 3.05674E+01-1.48457E+00-1.17038E-01 7.12109E-01 3.51620E-13-5.68712E-13
 -1      2601 2.88043E+01-2.99768E+00-2.37341E-02 1.61867E+00 1.44176E-13-4.91218E-13
 -1      2602 2.10269E+01 9.14921E-01-3.08301E-03 8.34618E-01 5.48535E-13 3.65136E-13
 -1      2603 2.12915E+01 1.27637E+00-4.62935E-03 1.35527E+00 5.86732E-13 4.37839E-13
 -1      2604 2.10679E+01 1.74252E+00-1.55419E-02 1.51438E+00 6.31046E-13 2.38747E-13
 -1      2605 2.09331E+01 1.13398E+00-9.85793E-03 7.63666E-01 5.68988E-13 1.39638E-13
 -1      2606 2.85391E+01 4.16780E+00-1.76775E-01-2.22411E+00 8.12822E-13-6.14619E-13
 -1      2607 3.07818E+01 3.64252E+00-1.30153E-01-2.02513E+00 8.17818E-13-7.01994E-13
 -1      2608 2.94816E+01 2.18646E+00-5.04437E-02-2.37737E+00 7.14317E-13-6.68826E-13
 -1      2609 1.97739E+01 3.06649E+00 1.88316E-03-6.61284E-01-2.55952E-13-6.96918E-13
 -1      2610 1.97136E+01 3.34447E+00-1.74699E-02-8.71820E-01-2.84443E-13-7.34926E-13
 -1      2611 1.99156E+01 3.17154E+00-1.71354E-02-1.04808E+00-3.66291E-13-6.88096E-13
 -1      2612 2.07367E+01 5.13767E-01-5.61470E-03-3.96927E-01 3.28145E-13 2.18167E-14
 -1      2613 2.07777E+01 2.17247E+00-1.28955E-02 1.43825E+00 6.22548E-13-6.98747E-15
 -1      2614 3.02923E+01-8.12742E-01-2.64302E-02-9.58518E-01 3.98959E-13-7.37521E-13
 -1      2615 1.38719E+01-4.59326E+00 1.13452E-01-6.71598E+00 2.39614E-13 3.50123E-13
 -1      2616 7.37531E+00-2.61670E+00 1.54721E-01-4.54586E+00 2.36533E-13 7.40880E-13
 -1      2617 2.70727E+01-3.75004E+00 2.80100E-02-2.50201E+00 2.04364E-13-2.26097E-13
 -1      2618 1.48218E+01-4.33983E+00 1.17671E-01 6.23315E+00-5.01266E-13 5.52405E-13
 -1      2619 3.04167E+01 4.45177E+00-8.46634E-02 1.57819E+00-5.85643E-13-7.64194E-13
 -1      2620 1.99984E+01-2.00115E-03-1.61479E-05-4.83595E-03 2.29395E-13 2.45148E-13
 -1      2621 1.99989E+01-2.49712E-03 1.03029E-05-5.10545E-03 2.39344E-13 4.07996E-13
 -1      2622 2.07521E+01 1.91727E+00 1.18222E-02 1.07979E+00 5.88776E-13-6.22783E-14
 -1      2623 6.98944E+00-2.49233E+00 1.55922E-01 4.04697E+00-2.84051E-13 6.92807E-13
 -1      2624 6.74261E+00-1.33855E+00 1.30215E-01 2.71876E+00-3.04007E-13 6.46067E-13
 -1      2625 9.89534E+00-2.29158E+00 1.28784E-01 4.83689E+00-4.62200E-13 6.68160E-13
 -1      2626 2.89237E+01-2.15850E+00-6.45659E-03 8.22586E-01-4.24938E-13 1.95260E-13
 -1      2627 2.74245E+01-4.26703E+00 2.24028E-02 1.94880E+00-1.37584E-13-5.09426E-13
 -1      2628 2.03234E+01 2.70458E+00-8.96346E-03-1.24426E+00-4.52635E-13-5.42207E-13
 -1      2629 1.61395E+01-4.86188E+00 1.21586E-01 6.76707E+00 3.10696E-13-5.61884E-13
 -1      2630 1.47565E+01-3.80913E+00 1.41589E-01 6.42572E+00 3.94518E-13-5.15490E-13
 -1      2631 1.89277E+01-5.08975E+00-2.29616E-03 5.96285E+00 4.02081E-13-3.80845E-13
 -1      2632 3.03013E+01 6.04526E+00-7.64439E-02-1.11014E+00-9.70696E-13-1.34781E-13
 -1      2633 6.06669E+00-2.27478E+00 1.54223E-01-3.08090E+00-1.43094E-13-1.14841E-12
 -1      2634 1.09082E+01-3.99581E+00 1.21708E-01-6.09948E+00-2.47746E-13-9.44106E-13
 -1      2635 2.53207E+01-5.09535E+00 4.84540E-02-3.83983E+00-5.90916E-14-2.91711E-13
 -1      2636 2.98908E+01-2.17288E+00 1.71900E-02-4.38343E-01 2.40717E-13-5.26801E-14
 -1      2637 3.11991E+01 1.92803E+00-3.93275E-03 1.54452E+00 6.47066E-13 2.84217E-14
 -1      2638 3.06428E+01 5.39870E+00-8.04372E-02 1.42466E+00 8.86707E-13-1.48964E-13
 -1      2639 5.94458E+00-1.62372E+00 1.74360E-01 1.87542E+00 1.80161E-13-1.22174E-12
 -1      2640 1.80788E+01-5.41712E+00 1.08730E-01-6.32501E+00-2.48468E-13-7.20809E-13
 -1      2641 2.99318E+01 6.26733E+00-1.07372E-01-5.55634E-01 9.24844E-13-4.36824E-13
 -1      2642 2.44640E+01-5.09777E+00 3.37759E-02 4.33880E+00 5.60663E-15-1.24331E-13
 -1      2643 1.99982E+01-1.56167E-03-1.76918E-05 4.93778E-03-9.11973E-14 9.04724E-14
 -1      2644 1.99991E+01-2.56508E-03-4.12060E-06 5.25608E-03-6.87395E-14-6.96994E-14
 -1      2645 1.99994E+01-1.90061E-03 9.64769E-06 5.65139E-03-1.58469E-13 7.43089E-14
 -1      2646 1.99976E+01-1.11866E-03 3.61518E-06 5.38302E-03-1.05107E-13 1.04152E-13
 -1      2647 3.03955E+01 7.07310E+00-7.56954E-02 4.20575E-01-9.60121E-13-4.34944E-13
 -1      2648 2.12499E+01-5.33962E+00 7.90731E-02-5.69333E+00 2.12219E-13-4.42701E-15
 -1      2649 1.99991E+01-1.95537E-03-5.46149E-06-5.64184E-03 1.57918E-13 4.04751E-13
 -1      2650 1.99986E+01-1.08201E-03-2.50243E-05 5.80838E-03-1.79073E-14 2.60704E-14
 -1      2651 1.92519E+01 3.29080E+00-5.32355E-03 2.60865E-01 2.78516E-13-6.45105E-13
 -1      2652 1.91669E+01 3.35700E+00-6.48217E-03 1.84852E-01 2.19196E-13-6.75449E-13
 -1      2653 1.91129E+01 3.40574E+00-5.66274E-03 1.44413E-01 1.84727E-13-7.05533E-13
 -1      2654 1.90910E+01 3.42343E+00-5.19128E-03 7.00360E-02 1.35791E-13-7.06755E-13
 -1      2655 1.92093E+01 3.12460E+00 5.81185E-03 1.24199E-01 1.85651E-13-6.47226E-13
 -1      2656 1.98782E+01 2.68666E+00-7.73605E-03 5.37876E-01 4.58858E-13-4.59450E-13
 -1      2657 1.96830E+01 2.87474E+00-9.21229E-03 4.43865E-01 4.07839E-13-5.15959E-13
 -1      2658 2.03232E+01 2.16033E+00-8.26918E-03 6.73330E-01 5.25466E-13-3.00528E-13
 -1      2659 2.00926E+01 2.43997E+00-7.78997E-03 5.91926E-01 4.78385E-13-3.75232E-13
 -1      2660 2.00639E+01 2.26807E+00 7.40213E-03 3.55679E-01 4.38359E-13-3.85430E-13
 -1      2661 2.06984E+01 9.29715E-01 5.95455E-05 2.99624E-05 4.19003E-13-7.10026E-14
 -1      2662 2.07685E+01 1.12261E+00 9.28564E-03 3.22870E-01 4.74109E-13-5.59265E-14
 -1      2663 2.06732E+01 6.75976E-01 2.33812E-03-5.02860E-01 3.06303E-13-9.40867E-14
 -1      2664 2.06851E+01 7.86337E-01 9.86769E-03-2.65556E-01 3.61957E-13-6.99873E-14
 -1      2665 2.05821E+01 1.09676E+00-1.59359E-03-1.08260E-01 4.02514E-13-1.70346E-13
 -1      2666 1.29174E+01-3.62901E+00 1.49696E-01-6.32863E+00 3.94254E-13 3.50248E-13
 -1      2667 1.64867E+01-4.73692E+00-5.10062E-03-6.62636E+00 3.48388E-13 8.62643E-14
 -1      2668 1.70935E+01-4.15435E+00 5.09954E-02 5.76936E+00-4.36789E-13 4.40814E-13
 -1      2669 1.36336E+01-3.18226E+00 1.37968E-01 5.70352E+00-4.17416E-13 5.85226E-13
 -1      2670 2.06206E+01 8.05628E-01 7.75898E-03 2.24040E-01-2.69929E-13-2.87172E-13
 -1      2671 2.06058E+01 6.58703E-01-9.01130E-04 4.32599E-01-2.40417E-13-2.88539E-13
 -1      2672 2.06200E+01 5.39555E-01 6.97234E-03 6.11980E-01-2.31280E-13-2.54320E-13
 -1      2673 2.06453E+01 4.28834E-01-5.38225E-06 7.56847E-01-2.04456E-13-2.53408E-13
 -1      2674 2.05079E+01 7.50464E-01-3.20953E-03 5.29324E-01-2.32239E-13-2.89177E-13
 -1      2675 2.06815E+01 3.29555E-01 6.02119E-03 8.88596E-01-1.68126E-13-2.29047E-13
 -1      2676 2.07478E+01 2.25004E-01 4.57465E-05 9.79872E-01-1.23804E-13-2.23330E-13
 -1      2677 2.05389E+01 4.80264E-01-4.49084E-03 8.57612E-01-1.80620E-13-2.31020E-13
 -1      2678 2.08215E+01 1.19923E-01 6.15373E-03 1.06541E+00-1.07635E-13-2.22578E-13
 -1      2679 2.09264E+01-9.68290E-04-8.50997E-04 1.10279E+00-8.41657E-14-2.35191E-13
 -1      2680 2.06306E+01 2.26093E-01-5.72087E-03 1.09138E+00-1.27122E-13-2.26064E-13
 -1      2681 2.10534E+01-1.29669E-01 7.49000E-03 1.13593E+00-6.59277E-14-2.15766E-13
 -1      2682 2.11944E+01-2.82171E-01-2.80915E-03 1.11036E+00-5.60048E-14-2.12467E-13
 -1      2683 2.08088E+01-6.41211E-02-7.45763E-03 1.22779E+00-8.06673E-14-2.04619E-13
 -1      2684 2.13916E+01-4.43377E-01 9.78175E-03 1.07565E+00-4.62044E-14-1.69469E-13
 -1      2685 2.15639E+01-6.30307E-01-5.96917E-03 9.71994E-01-3.37819E-14-1.46574E-13
 -1      2686 2.11028E+01-4.25784E-01-9.76083E-03 1.24733E+00-2.06809E-14-1.76157E-13
 -1      2687 2.18444E+01-8.15964E-01 1.21995E-02 8.44888E-01-2.68310E-14-8.88954E-14
 -1      2688 2.20355E+01-1.01514E+00-1.00225E-02 6.47724E-01 9.64181E-15-6.69852E-14
 -1      2689 2.15424E+01-8.65313E-01-1.20373E-02 1.11135E+00 4.02450E-15-7.70640E-14
 -1      2690 2.23936E+01-1.18552E+00 1.29540E-02 4.00743E-01 5.35590E-15-2.34157E-14
 -1      2691 2.25758E+01-1.33193E+00-1.30187E-02 1.07772E-01-2.18358E-14 2.17713E-15
 -1      2692 2.21415E+01-1.33013E+00-1.21855E-02 7.65190E-01 2.73821E-14 1.43753E-14
 -1      2693 2.29612E+01-1.40196E+00 8.43761E-03-2.66760E-01-6.51462E-14 4.98946E-14
 -1      2694 2.30913E+01-1.38230E+00-1.17512E-02-6.20023E-01-1.11148E-13 7.88097E-14
 -1      2695 2.28618E+01-1.66600E+00-6.55135E-03 1.60686E-01-7.46864E-15 1.27358E-14
 -1      2696 2.33927E+01-1.23087E+00-6.46085E-03-1.06656E+00-1.42890E-13 1.17648E-13
 -1      2697 2.34183E+01-9.21429E-01-7.09619E-03-1.37608E+00-1.04658E-13 6.37411E-14
 -1      2698 2.35659E+01-1.60592E+00 3.58097E-03-6.75037E-01-1.06662E-13 1.05013E-13
 -1      2699 2.34990E+01-4.36494E-01-2.76701E-02-1.73606E+00-8.56528E-14 6.54854E-14
 -1      2700 2.34130E+01 2.01483E-01 1.23183E-02-1.82141E+00-1.60885E-13 9.39760E-14
 -1      2701 2.40216E+01-8.74386E-01 5.00382E-03-1.54760E+00-1.02270E-13 2.18825E-13
 -1      2702 2.32168E+01 8.57576E-01-5.21155E-02-1.77065E+00-2.28796E-13 1.08940E-13
 -1      2703 2.31157E+01 1.56805E+00 1.62231E-02-1.51889E+00-2.61433E-13 9.51837E-14
 -1      2704 2.39838E+01 6.99258E-01 2.38974E-03-1.97324E+00-1.92527E-13 1.96078E-13
 -1      2705 2.28538E+01 2.14285E+00-3.69953E-02-9.83214E-01-3.15198E-13 5.44082E-14
 -1      2706 2.28013E+01 2.47237E+00-4.92077E-03-3.93326E-01-3.07582E-13-1.89844E-14
 -1      2707 2.36699E+01 2.24217E+00-1.41353E-02-1.42911E+00-3.06546E-13 1.77677E-13
 -1      2708 2.27909E+01 2.49623E+00-8.18666E-03 4.01340E-01-3.45718E-13-7.96826E-14
 -1      2709 2.28542E+01 2.21115E+00-3.39967E-02 1.00526E+00-3.06241E-13-1.97378E-13
 -1      2710 2.34167E+01 3.00404E+00-4.17561E-02-1.75085E-03-3.81115E-13-1.47018E-16
 -1      2711 2.30912E+01 1.68395E+00 1.43076E-02 1.57223E+00-2.43298E-13-2.66490E-13
 -1      2712 2.32216E+01 9.99815E-01-4.38498E-02 1.87638E+00-2.12047E-13-2.81875E-13
 -1      2713 2.36249E+01 2.34765E+00-2.57072E-02 1.44571E+00-3.13131E-13-1.19661E-13
 -1      2714 2.34291E+01 3.02663E-01 1.20294E-02 1.94689E+00-1.59406E-13-3.57047E-13
 -1      2715 2.35221E+01-3.41568E-01-3.05469E-02 1.87701E+00-8.79265E-14-3.49046E-13
 -1      2716 2.39915E+01 7.71104E-01 4.07575E-03 2.06567E+00-2.26391E-13-1.89054E-13
 -1      2717 2.34701E+01-8.23712E-01-2.79596E-03 1.55872E+00-4.25940E-14-3.16442E-13
 -1      2718 2.34539E+01-1.16163E+00-9.57076E-03 1.26385E+00 1.77573E-14-3.12034E-13
 -1      2719 2.40391E+01-7.45151E-01 7.64772E-03 1.71503E+00-7.07047E-14-3.24920E-13
 -1      2720 2.31717E+01-1.33133E+00-1.13422E-02 8.26558E-01 8.70545E-14-2.85015E-13
 -1      2721 2.30549E+01-1.36974E+00 6.82359E-03 4.78513E-01 1.78744E-13-2.03329E-13
 -1      2722 2.36262E+01-1.53130E+00 6.23638E-03 8.93958E-01 7.11333E-14-3.03365E-13
 -1      2723 2.26731E+01-1.30931E+00-1.31688E-02 1.04496E-01 1.35354E-13-2.51587E-13
 -1      2724 2.25001E+01-1.17326E+00 1.20231E-02-1.88140E-01 1.61930E-13-3.14909E-13
 -1      2725 2.29308E+01-1.63266E+00-4.87030E-03 5.50167E-02 1.27001E-13-2.47834E-13
 -1      2726 2.21388E+01-1.00969E+00-1.02408E-02-4.38174E-01 2.24639E-13-3.73158E-13
 -1      2727 2.19531E+01-8.18807E-01 1.15830E-02-6.39110E-01 1.70231E-13-3.82100E-13
 -1      2728 2.22062E+01-1.31861E+00-9.94079E-03-5.52827E-01 1.46701E-13-4.51338E-13
 -1      2729 2.16625E+01-6.40382E-01-6.34755E-03-7.73566E-01 9.42031E-14-4.18701E-13
 -1      2730 2.14902E+01-4.63915E-01 8.90535E-03-8.85960E-01 1.02972E-13-4.28526E-13
 -1      2731 2.15899E+01-8.74474E-01-1.02813E-02-9.12673E-01 8.60575E-14-4.04171E-13
 -1      2732 2.12784E+01-3.15198E-01-3.03791E-03-9.34462E-01 5.12445E-14-4.80165E-13
 -1      2733 2.11296E+01-1.80949E-01 5.96284E-03-9.77497E-01 6.47721E-14-5.34891E-13
 -1      2734 2.11236E+01-4.61853E-01-8.13370E-03-1.07245E+00 3.21071E-14-4.39505E-13
 -1      2735 2.09836E+01-7.49356E-02-7.76138E-04-9.70057E-01 1.36431E-13-5.73745E-13
 -1      2736 2.08589E+01 1.40758E-02 3.52090E-03-9.65252E-01 9.54216E-14-5.52337E-13
 -1      2737 2.07938E+01-1.46873E-01-5.68418E-03-1.09618E+00 9.77424E-14-4.03425E-13
 -1      2738 2.07607E+01 8.03739E-02 6.37230E-04-9.24959E-01 8.10647E-14-5.06346E-13
 -1      2739 2.06573E+01 1.31674E-01 1.78088E-03-8.90789E-01-6.85093E-15-4.27311E-13
 -1      2740 2.05681E+01 6.31920E-02-3.71517E-03-1.03648E+00 1.22105E-13-5.30939E-13
 -1      2741 2.05917E+01 1.67040E-01 1.45742E-03-8.33823E-01 4.16737E-15-3.32056E-13
 -1      2742 2.05059E+01 1.90811E-01 6.60931E-04-7.84286E-01 2.48261E-14-2.15242E-13
 -1      2743 2.04148E+01 1.85430E-01-2.35540E-03-9.31053E-01 6.83227E-14-3.42847E-13
 -1      2744 2.04615E+01 2.04617E-01 1.87303E-03-7.21376E-01-2.20965E-14-1.48093E-13
 -1      2745 2.03905E+01 2.10155E-01 4.47063E-06-6.66216E-01 4.17041E-14-3.97208E-15
 -1      2746 2.03095E+01 2.43207E-01-1.49848E-03-8.05413E-01 4.63603E-14-1.49229E-13
 -1      2747 2.03596E+01 2.10261E-01 2.01558E-03-6.04115E-01 5.19802E-14 6.05609E-15
 -1      2748 2.03011E+01 2.04816E-01-3.37762E-04-5.49608E-01 1.02340E-13 7.60581E-14
 -1      2749 2.02352E+01 2.57974E-01-9.89332E-04-6.76075E-01 7.89549E-14 2.93767E-15
 -1      2750 2.02789E+01 1.97073E-01 1.97863E-03-4.92262E-01 5.90436E-14-3.33458E-14
 -1      2751 2.02310E+01 1.85807E-01-4.81715E-04-4.42079E-01 7.74764E-14-2.31591E-14
 -1      2752 2.01810E+01 2.46574E-01-6.97183E-04-5.53171E-01 4.60668E-14-1.97707E-14
 -1      2753 2.02146E+01 1.74238E-01 1.83115E-03-3.91501E-01 3.62254E-14 2.40992E-14
 -1      2754 2.01758E+01 1.60574E-01-5.09069E-04-3.47479E-01-4.43985E-14-6.76242E-15
 -1      2755 2.01402E+01 2.21083E-01-5.29920E-04-4.42357E-01 8.32193E-14-6.12656E-15
 -1      2756 2.01633E+01 1.47768E-01 1.62370E-03-3.04396E-01-5.28876E-14 8.65993E-16
 -1      2757 2.01323E+01 1.33828E-01-4.73779E-04-2.67155E-01-5.53686E-15-4.97528E-14
 -1      2758 2.01087E+01 1.89581E-01-4.29499E-04-3.46223E-01-5.69730E-14-5.24558E-14
 -1      2759 2.01226E+01 1.21334E-01 1.39216E-03-2.31477E-01-1.66632E-13 2.14421E-14
 -1      2760 2.00981E+01 1.08329E-01-4.09625E-04-2.00880E-01-2.76104E-13 3.56354E-14
 -1      2761 2.00839E+01 1.57130E-01-3.62535E-04-2.65336E-01-1.11659E-13-4.66422E-14
 -1      2762 2.00906E+01 9.69880E-02 1.16066E-03-1.72042E-01-1.70357E-13 1.24362E-13
 -1      2763 2.00716E+01 8.55213E-02-3.36639E-04-1.47523E-01-6.35767E-14 2.28179E-13
 -1      2764 2.00643E+01 1.26655E-01-3.11451E-04-1.99003E-01-1.54639E-13 1.16559E-13
 -1      2765 2.00656E+01 7.57106E-02 9.44245E-04-1.24715E-01-5.93889E-14 1.28297E-13
 -1      2766 2.00512E+01 6.59991E-02-2.65922E-04-1.05501E-01-2.03021E-14 1.23154E-13
 -1      2767 2.00487E+01 9.96460E-02-2.67910E-04-1.45824E-01-1.22338E-13 3.84199E-14
 -1      2768 2.00466E+01 5.78107E-02 7.51211E-04-8.78278E-02-9.60871E-16 6.73302E-14
 -1      2769 2.00358E+01 4.98396E-02-2.02995E-04-7.30848E-02 2.43295E-14-7.86708E-14
 -1      2770 2.00364E+01 7.66721E-02-2.28517E-04-1.04069E-01-8.55110E-14 1.28679E-14
 -1      2771 2.00322E+01 4.31984E-02 5.85090E-04-5.96595E-02 6.68367E-14-1.28040E-13
 -1      2772 2.00243E+01 3.68241E-02-1.50049E-04-4.85794E-02 7.34694E-14-9.08401E-14
 -1      2773 2.00268E+01 5.77414E-02-1.92253E-04-7.19288E-02 3.60245E-14-2.81872E-14
 -1      2774 2.00215E+01 3.15669E-02 4.46251E-04-3.85858E-02 4.81125E-14 6.42421E-15
 -1      2775 2.00159E+01 2.65832E-02-1.07401E-04-3.04358E-02 7.45533E-14 9.86518E-14
 -1      2776 2.00193E+01 4.25466E-02-1.59069E-04-4.76733E-02 1.06159E-13-1.15302E-13
 -1      2777 2.00138E+01 2.25084E-02 3.33176E-04-2.31564E-02 1.86838E-13 3.47145E-14
 -1      2778 2.00099E+01 1.86872E-02-7.44865E-05-1.73023E-02 1.51703E-13 2.94178E-13
 -1      2779 2.00136E+01 3.06224E-02-1.29230E-04-2.97404E-02 1.23384E-13-1.13635E-13
 -1      2780 2.00083E+01 1.55839E-02 2.43316E-04-1.21311E-02-7.52524E-14 3.82016E-13
 -1      2781 2.00057E+01 1.26992E-02-5.02517E-05-8.04610E-03-1.54102E-13 3.28154E-13
 -1      2782 2.00094E+01 2.14439E-02-1.02998E-04-1.67790E-02 5.06155E-14-9.42188E-14
 -1      2783 2.00046E+01 1.03647E-02 1.73471E-04-4.48853E-03-1.38815E-14 5.22863E-13
 -1      2784 2.00030E+01 8.20557E-03-3.35450E-05-1.74984E-03 2.50242E-13 6.08747E-13
 -1      2785 2.00062E+01 1.44870E-02-8.00831E-05-7.66369E-03 3.92790E-14 2.51277E-13
 -1      2786 2.00022E+01 6.45264E-03 1.20616E-04 5.85097E-04 1.93357E-13 4.60071E-13
 -1      2787 2.00012E+01 4.82658E-03-2.29046E-05 2.30364E-03 1.18861E-13 4.50187E-13
 -1      2788 2.00039E+01 9.25707E-03-6.10132E-05-1.48661E-03 1.74314E-13 6.32422E-13
 -1      2789 2.00007E+01 3.48470E-03 8.25431E-05 3.71460E-03-6.89072E-15 4.49974E-13
 -1      2790 2.00002E+01 2.21338E-03-1.66220E-05 4.65376E-03-4.78232E-14 3.64257E-13
 -1      2791 2.00023E+01 5.30409E-03-4.51663E-05 2.45981E-03-1.32155E-15 4.87600E-13
 -1      2792 1.99998E+01 1.10923E-03 5.20767E-05 5.34490E-03-7.18437E-14 2.74980E-13
 -1      2793 1.99997E+01 8.35823E-05-5.24143E-06 5.65552E-03-6.87799E-14 1.51656E-13
 -1      2794 2.00012E+01 2.18493E-03-4.07980E-05 4.71116E-03-1.09875E-13 3.00834E-13
 -1      2795 2.10010E+01 3.09308E-01 3.45103E-03-1.48945E+00 1.19977E-13-1.14967E-13
 -1      2796 2.08571E+01 3.74375E-01 3.27591E-03-1.37754E+00 1.63485E-13-1.04987E-13
 -1      2797 2.86741E+01 6.24899E+00-1.59645E-01 1.06628E+00-7.83262E-13-5.50601E-13
 -1      2798 2.83350E+01 6.65371E+00-1.68692E-01 1.11074E-01-9.00557E-13-3.67843E-13
 -1      2799 2.08173E+01 4.27933E-01 3.89857E-03-1.22749E+00 1.86665E-13-1.21019E-13
 -1      2800 2.07204E+01 4.79287E-01 4.26173E-03-1.08093E+00 2.04526E-13-9.32045E-14
 -1      2801 2.05809E+01 5.13844E-01-3.95849E-03-1.37121E+00 1.65412E-13-1.80177E-13
 -1      2802 2.16672E+01-1.96132E-01-1.10887E-03-1.74925E+00-6.57118E-14-2.46589E-14
 -1      2803 2.14261E+01-1.43920E-02 6.99243E-03-1.75354E+00-2.34116E-14-5.10696E-14
 -1      2804 2.22306E+01-6.92316E-01-6.54687E-03-1.63735E+00-8.85327E-14-5.04841E-14
 -1      2805 2.19318E+01-4.13666E-01 1.26605E-02-1.75238E+00-7.52062E-14-3.07070E-14
 -1      2806 2.12772E+01-3.63393E-01-1.51303E-02-1.98314E+00-7.03702E-14-1.53848E-13
 -1      2807 2.30178E+01-1.35482E+00-1.47026E-02-1.23617E+00-7.59141E-14-2.71103E-14
 -1      2808 2.26648E+01-9.97814E-01 2.06137E-02-1.51044E+00-7.40536E-14-4.80692E-15
 -1      2809 2.19048E+01-1.03210E+00-2.38647E-02-1.90787E+00-8.62458E-14-9.50889E-14
 -1      2810 2.40320E+01-2.00122E+00-2.26724E-02-4.32370E-01-1.35615E-13 9.75474E-14
 -1      2811 2.36613E+01-1.69032E+00 2.64133E-02-8.98518E-01-1.16583E-13 8.01490E-14
 -1      2812 2.28940E+01-1.87932E+00-3.14152E-02-1.51445E+00-1.17851E-13-4.49181E-14
 -1      2813 2.51306E+01-2.15355E+00-2.54277E-02 7.94311E-01-6.23330E-14 2.32177E-13
 -1      2814 2.48337E+01-2.18794E+00 1.66064E-02 1.80768E-01-9.58305E-14 2.24208E-13
 -1      2815 2.42828E+01-2.60021E+00-2.56676E-02-6.44495E-01-1.74399E-13 1.51532E-13
 -1      2816 2.59143E+01-1.10728E+00-2.17729E-02 2.07106E+00-4.11338E-14 3.30257E-13
 -1      2817 2.58088E+01-1.82811E+00-3.21318E-02 1.57845E+00-6.70193E-14 3.15163E-13
 -1      2818 2.58344E+01-2.51662E+00-1.19826E-02 7.76378E-01-1.15543E-13 3.67239E-13
 -1      2819 2.60151E+01 1.28911E+00-3.13615E-02 2.48633E+00 1.30160E-13 2.77669E-13
 -1      2820 2.61581E+01-3.80670E-02-9.56873E-02 2.56271E+00 5.65797E-14 3.00262E-13
 -1      2821 2.69797E+01-7.82530E-01-3.13902E-02 2.23652E+00 4.52555E-14 4.49162E-13
 -1      2822 2.55320E+01 3.52464E+00-1.20291E-01-1.22355E+00 6.34715E-13-2.64953E-13
 -1      2823 2.54686E+01 3.86721E+00-1.04726E-01-1.60415E-01 5.68129E-13-1.78643E-13
 -1      2824 2.63590E+01 1.49490E+00-1.53786E-01-2.64120E+00 5.12791E-13-5.02761E-13
 -1      2825 2.62028E+01 2.80414E+00-7.06353E-02-2.17124E+00 6.13398E-13-4.60833E-13
 -1      2826 2.54493E+01-2.14710E+00 7.98921E-03-9.55494E-01-2.36681E-14-4.82800E-13
 -1      2827 2.56490E+01-1.87889E+00-1.22490E-02-1.53204E+00 4.98564E-14-4.49597E-13
 -1      2828 2.43055E+01-1.94889E+00 2.82480E-02 2.99537E-01-1.57074E-13-3.65141E-13
 -1      2829 2.46451E+01-2.15632E+00-2.40907E-02-2.38075E-01-9.37922E-14-3.87135E-13
 -1      2830 2.50308E+01-2.72379E+00-3.99513E-02-1.16700E-01-1.09420E-13-4.18777E-13
 -1      2831 2.32198E+01-1.29684E+00 2.50984E-02 1.11739E+00-1.20512E-13-2.44872E-13
 -1      2832 2.35740E+01-1.65987E+00-1.90109E-02 7.59764E-01-1.24775E-13-2.63857E-13
 -1      2833 2.35598E+01-2.24480E+00-3.06224E-02 1.01376E+00-1.85837E-13-2.10684E-13
 -1      2834 2.23774E+01-6.44292E-01 1.62797E-02 1.50576E+00-1.43515E-13-8.77746E-14
 -1      2835 2.26905E+01-9.64271E-01-1.00118E-02 1.32610E+00-6.10284E-14-1.11174E-13
 -1      2836 2.23834E+01-1.38748E+00-2.60734E-02 1.60423E+00-1.36376E-13-1.77849E-13
 -1      2837 2.17829E+01-1.68971E-01 8.66074E-03 1.60233E+00-1.93929E-13-2.34814E-13
 -1      2838 2.20405E+01-3.87892E-01-3.59462E-03 1.55248E+00-1.60075E-13-6.94668E-14
 -1      2839 2.15996E+01-6.26183E-01-1.82097E-02 1.80067E+00-1.56377E-13-7.91468E-14
 -1      2840 2.13710E+01 1.18101E-01 3.78457E-03 1.52813E+00-1.06469E-13-2.86139E-13
 -1      2841 2.15806E+01-7.00932E-03 4.72000E-04 1.55877E+00-1.57190E-13-2.54697E-13
 -1      2842 2.11168E+01-9.91922E-02-1.03710E-02 1.76909E+00-1.44697E-13-1.29647E-13
 -1      2843 2.10772E+01 2.61702E-01 1.00263E-03 1.36733E+00-1.09698E-13-1.68798E-13
 -1      2844 2.12501E+01 2.03894E-01 2.75485E-03 1.44061E+00-3.97819E-14-2.03886E-13
 -1      2845 2.08243E+01 2.06262E-01-5.18212E-03 1.61877E+00-1.30412E-13-1.71658E-13
 -1      2846 2.08565E+01 3.12684E-01-3.74779E-04 1.17259E+00 1.03197E-14-6.08763E-14
 -1      2847 2.10011E+01 2.96623E-01 3.85084E-03 1.26321E+00-4.72201E-14-1.44687E-13
 -1      2848 2.06399E+01 3.51381E-01-2.38543E-03 1.41624E+00-1.33121E-13-1.29066E-13
 -1      2849 2.06826E+01 3.10656E-01-9.26111E-04 9.74805E-01-6.81007E-14 3.92615E-14
 -1      2850 2.08041E+01 3.17606E-01 4.22751E-03 1.06738E+00 1.55601E-14 1.96707E-15
 -1      2851 2.05133E+01 3.95811E-01-1.09009E-03 1.19981E+00-6.47583E-14-6.53855E-14
 -1      2852 2.05411E+01 2.82007E-01-1.04313E-03 7.90745E-01 4.56619E-14-4.95678E-14
 -1      2853 2.06428E+01 2.99907E-01 4.16327E-03 8.76851E-01-1.84641E-14 3.41630E-14
 -1      2854 2.04177E+01 3.83783E-01-5.96553E-04 9.91088E-01-5.66842E-14 4.32552E-14
 -1      2855 2.04245E+01 2.42670E-01-9.58843E-04 6.28320E-01-5.94501E-15 5.02227E-14
 -1      2856 2.05087E+01 2.64420E-01 3.84262E-03 7.04027E-01 8.40582E-15 1.81116E-14
 -1      2857 2.03398E+01 3.44136E-01-4.70563E-04 8.01475E-01 1.91243E-14 2.67982E-14
 -1      2858 2.03285E+01 2.01516E-01-8.00238E-04 4.90111E-01 6.49697E-14 7.11383E-14
 -1      2859 2.03973E+01 2.23262E-01 3.39254E-03 5.54196E-01 9.02199E-14 1.07640E-13
 -1      2860 2.02741E+01 2.94101E-01-4.77940E-04 6.36055E-01 6.72280E-14 2.11099E-13
 -1      2861 2.02502E+01 1.63048E-01-6.30772E-04 3.75662E-01-1.74047E-14 6.61459E-14
 -1      2862 2.03054E+01 1.82905E-01 2.89786E-03 4.28418E-01 9.90851E-14 4.94592E-14
 -1      2863 2.02180E+01 2.43206E-01-5.09115E-04 4.96017E-01 1.18338E-13 1.95142E-13
 -1      2864 2.01872E+01 1.29229E-01-4.78287E-04 2.82931E-01-5.34420E-14-2.51573E-14
 -1      2865 2.02308E+01 1.46438E-01 2.41163E-03 3.25413E-01-1.15048E-13 4.25911E-14
 -1      2866 2.01707E+01 1.96234E-01-5.22177E-04 3.80270E-01-4.47242E-14-8.57232E-14
 -1      2867 2.01373E+01 1.00624E-01-3.52052E-04 2.09184E-01 2.56285E-13 1.20440E-13
 -1      2868 2.01712E+01 1.15038E-01 1.96397E-03 2.42758E-01 8.23463E-14 1.24953E-13
 -1      2869 2.01312E+01 1.55210E-01-5.08022E-04 2.86509E-01-4.22713E-14-1.55231E-13
 -1      2870 2.00985E+01 7.70803E-02-2.52498E-04 1.51515E-01 2.02378E-13 3.49087E-14
 -1      2871 2.01243E+01 8.88551E-02 1.56936E-03 1.77604E-01 3.40790E-13 1.80839E-13
 -1      2872 2.00989E+01 1.20645E-01-4.71080E-04 2.11904E-01 2.38363E-13 6.92015E-14
 -1      2873 2.00688E+01 5.81069E-02-1.76438E-04 1.07136E-01 1.88159E-13 4.44160E-14
 -1      2874 2.00882E+01 6.75366E-02 1.23239E-03 1.27086E-01 1.85292E-13 7.42615E-14
 -1      2875 2.00731E+01 9.22671E-02-4.19629E-04 1.53515E-01 2.27105E-13 1.35974E-14
 -1      2876 2.00466E+01 4.30873E-02-1.19674E-04 7.35272E-02 2.62146E-13-1.38440E-13
 -1      2877 2.00608E+01 5.05100E-02 9.51666E-04 8.85368E-02 2.98994E-13 7.18031E-14
 -1      2878 2.00528E+01 6.94405E-02-3.61540E-04 1.08542E-01 2.62430E-13 9.48904E-14
 -1      2879 2.00303E+01 3.13882E-02-7.81661E-05 4.84911E-02 7.26965E-14-2.15664E-13
 -1      2880 2.00405E+01 3.71390E-02 7.22572E-04 5.95951E-02 1.81579E-13-1.49425E-13
 -1      2881 2.00372E+01 5.13990E-02-3.02811E-04 7.44541E-02 2.01314E-13 1.02598E-13
 -1      2882 2.00187E+01 2.24140E-02-4.84938E-05 3.01708E-02-2.16756E-14-2.54083E-13
 -1      2883 2.00258E+01 2.68021E-02 5.38975E-04 3.82353E-02-4.10556E-14-1.80076E-13
 -1      2884 2.00254E+01 3.73663E-02-2.47391E-04 4.90438E-02 9.03436E-15 5.08909E-15
 -1      2885 2.00106E+01 1.56292E-02-2.79838E-05 1.70323E-02-2.63254E-14-1.49010E-13
 -1      2886 2.00154E+01 1.89297E-02 3.94330E-04 2.27660E-02 1.38642E-14-2.87321E-13
 -1      2887 2.00168E+01 2.66157E-02-1.97530E-04 3.04409E-02-5.90789E-14-5.36490E-14
 -1      2888 2.00053E+01 1.05644E-02-1.47011E-05 7.83762E-03-8.81256E-14-2.70710E-13
 -1      2889 2.00083E+01 1.30167E-02 2.82327E-04 1.18071E-02-5.56088E-14-1.19403E-13
 -1      2890 2.00106E+01 1.84950E-02-1.54238E-04 1.70984E-02-3.77708E-14-2.02100E-13
 -1      2891 2.00019E+01 6.81377E-03-7.23129E-06 1.61259E-03-1.72374E-13-2.70958E-13
 -1      2892 2.00037E+01 8.62388E-03 1.97188E-04 4.25910E-03-1.63194E-13-2.99099E-13
 -1      2893 2.00062E+01 1.24326E-02-1.17673E-04 7.76739E-03-1.02115E-13-5.04893E-13
 -1      2894 2.00000E+01 4.02910E-03-4.49307E-06-2.38692E-03-6.46054E-14-4.55816E-13
 -1      2895 2.00009E+01 5.37294E-03 1.33684E-04-7.30735E-04-8.92074E-14-3.98665E-13
 -1      2896 2.00033E+01 7.93468E-03-8.73435E-05 1.46582E-03-7.55795E-14-4.46678E-13
 -1      2897 1.99990E+01 1.91038E-03-4.51966E-06-4.70992E-03 5.36055E-14-1.87560E-13
 -1      2898 1.99993E+01 2.93952E-03 8.74709E-05-3.80373E-03-8.71166E-15-3.24736E-13
 -1      2899 2.00014E+01 4.57692E-03-6.30704E-05-2.55745E-03-5.27202E-14-5.27698E-13
 -1      2900 1.99987E+01 2.06818E-04 2.37022E-06-5.71951E-03 1.87034E-14 1.46045E-13
 -1      2901 1.99986E+01 1.01567E-03 4.90260E-05-5.42257E-03-1.50849E-14 8.52511E-15
 -1      2902 2.00003E+01 2.00351E-03-3.89811E-05-4.86257E-03-7.21313E-14-2.73504E-13
 -1      2903 1.99990E+01-1.18963E-03-8.87504E-06-5.73137E-03 4.84349E-14 3.79157E-13
 -1      2904 1.99987E+01-4.34615E-04 1.37382E-05-5.89527E-03-2.48127E-14 2.57616E-13
 -1      2905 2.00000E+01 5.17367E-05-2.30153E-05-5.76757E-03-1.64207E-13-2.34581E-13
 -1      2906 2.00001E+01-1.60216E-03-6.29362E-07-5.80751E-03-6.96903E-14 9.32157E-14
 -1      2907 2.00028E+01-7.14003E-04-4.50096E-06-2.48701E-04 2.63097E-13 7.78511E-14
 -1      2908 2.00028E+01-7.17272E-04 2.25557E-06-9.16937E-04 3.40853E-13-9.69571E-14
 -1      2909 1.99995E+01-5.99275E-04 2.62670E-05 5.78758E-03-1.38279E-15 8.56565E-14
 -1      2910 1.99995E+01-1.23341E-03-1.66815E-06 5.70563E-03-1.02238E-14 8.54131E-14
 -1      2911 2.00005E+01-4.07529E-05-3.66394E-05 5.58935E-03-1.33243E-13 9.04526E-14
 -1      2912 2.00026E+01-1.15336E-03-8.24036E-06-2.89857E-03 4.71084E-13-3.40975E-13
 -1      2913 2.00024E+01-1.10358E-03 8.61071E-06-3.52862E-03 4.74791E-13-4.47035E-13
 -1      2914 2.00027E+01-6.92065E-04 1.20023E-06 1.05164E-03 4.77693E-14-1.89981E-13
 -1      2915 2.00028E+01-7.03481E-04-3.49205E-06 3.89187E-04 1.08935E-13 1.50166E-13
 -1      2916 2.00034E+01 1.90168E-03 2.84992E-05 7.84420E-05 2.87678E-13-7.29487E-14
 -1      2917 2.00027E+01-8.86772E-04-8.36621E-06-1.56923E-03 3.08083E-13-1.33232E-13
 -1      2918 2.00027E+01-8.73294E-04 6.63107E-06-2.23478E-03 5.30229E-13-3.29463E-13
 -1      2919 2.00032E+01 1.26403E-03 1.77700E-05-2.45434E-03 3.36848E-13-3.05784E-13
 -1      2920 2.00034E+01 1.72152E-03 2.57109E-05-1.16889E-03 3.58340E-13-9.85836E-14
 -1      2921 2.86911E+01 3.16816E+00-1.20506E-01 1.93988E+00-4.14668E-13-8.58383E-13
 -1      2922 2.89031E+01 5.09753E+00-1.74088E-01 1.61627E+00-6.67189E-13-7.43988E-13
 -1      2923 2.86681E+01 2.65566E+00-2.16625E-01-1.83894E+00-7.06851E-13 1.20251E-13
 -1      2924 2.88493E+01 7.31564E-01-5.71017E-02-1.51952E+00-5.54945E-13 1.94136E-13
 -1      2925 2.00026E+01-8.12690E-04 5.91531E-06 2.31697E-03 5.25697E-15-6.48692E-13
 -1      2926 2.00027E+01-8.39257E-04-7.90337E-06 1.67904E-03 8.39717E-14-5.73695E-13
 -1      2927 2.00033E+01 1.76150E-03 2.62019E-05 1.30043E-03 1.98494E-13-3.60347E-13
 -1      2928 2.00024E+01-1.02700E-03 5.87412E-06 3.56924E-03 2.28697E-13-8.48209E-14
 -1      2929 2.00025E+01-1.07985E-03-8.44397E-06 2.95851E-03 1.13897E-13-2.77611E-13
 -1      2930 2.00032E+01 1.33914E-03 1.93642E-05 2.53588E-03 1.38837E-13-3.98950E-13
 -1      2931 2.00017E+01-1.25297E-03-5.48265E-06 4.68644E-03 2.11244E-13 4.76830E-13
 -1      2932 2.00021E+01-1.33625E-03-6.41055E-06 4.17213E-03 2.33435E-13 8.84888E-14
 -1      2933 2.00027E+01 7.55276E-04 1.47375E-05 3.77706E-03 2.72236E-13-6.55037E-15
 -1      2934 2.84676E+01-1.61718E+00-1.81543E-01-4.13835E-01-3.86337E-13 2.26957E-13
 -1      2935 2.75876E+01-3.19913E+00 3.58476E-02 8.78727E-01-1.72362E-13 2.78125E-13
 -1      2936 2.55880E+01-4.54492E+00 7.99923E-02-2.84123E+00 2.99170E-13-2.66204E-13
 -1      2937 2.73428E+01-3.41526E+00-1.63782E-01-1.05775E+00 2.24661E-13-5.67518E-13
 -1      2938 2.07096E+01 5.32137E-01 3.53791E-03-9.02382E-01 2.16245E-13-1.00879E-13
 -1      2939 2.06647E+01 5.97201E-01 6.72689E-03-7.18401E-01 2.47771E-13-8.95226E-14
 -1      2940 2.05422E+01 8.19440E-01-3.12934E-03-6.12384E-01 2.79734E-13-1.85449E-13
 -1      2941 2.05363E+01 6.49650E-01-3.59059E-03-1.02600E+00 2.23432E-13-1.86067E-13
 -1      2942 1.18999E+01-2.43014E+00 8.06591E-02 5.56041E+00 4.15418E-13-6.49897E-13
 -1      2943 1.00063E+01-1.62568E+00 1.81650E-01 4.59141E+00 3.90965E-13-8.79213E-13
 -1      2944 2.05737E+01 1.83098E+00-8.98870E-03-8.41192E-01-4.24643E-13-4.10277E-13
 -1      2945 2.05952E+01 1.46517E+00-4.24805E-03-5.12614E-01-4.01786E-13-3.57159E-13
 -1      2946 2.36715E+01-5.34558E+00-5.49827E-02 3.89292E+00-3.56104E-13-3.09091E-13
 -1      2947 2.08277E+01-4.94172E+00 7.10182E-02 4.92052E+00-3.86385E-13 3.99819E-14
 -1      2948 1.03747E+01-2.71381E+00 1.48676E-01-5.30909E+00-2.85522E-13-8.37164E-13
 -1      2949 1.33925E+01-3.73329E+00 3.95074E-02-6.25964E+00-3.15803E-13-7.22700E-13
 -1      2950 6.36923E+00-6.18641E-01 1.97025E-01 4.02592E-01-1.59353E-13 5.66408E-13
 -1      2951 6.49006E+00-7.05753E-01 1.52497E-01-1.57795E+00-5.49005E-14 4.00791E-13
 -1      2952 2.12740E+01 1.21196E-01 1.96459E-03-1.67632E+00 2.07990E-14-7.75955E-14
 -1      2953 2.10838E+01 2.28966E-01 4.03839E-03-1.60984E+00 7.71889E-14-1.00979E-13
 -1      2954 2.06928E+01 3.46751E-01-5.39365E-03-1.65719E+00 8.67998E-14-1.25900E-13
 -1      2955 2.09048E+01 7.88383E-02-8.80940E-03-1.87368E+00-1.46317E-14-1.09949E-13
 -1      2956 2.06422E+01 1.19077E+00 4.97469E-03-2.67127E-01-3.62941E-13-3.22682E-13
 -1      2957 2.06025E+01 9.70347E-01-2.70203E-03 1.90112E-02-3.11495E-13-3.09161E-13
 -1      2958 2.05023E+01 1.09503E+00-1.86394E-04 1.24282E-01-2.92748E-13-3.36124E-13
 -1      2959 2.04725E+01 1.57486E+00 8.14631E-04-3.39471E-01-3.53750E-13-3.94677E-13
 -1      2960 1.95102E+01 3.05608E+00-6.23034E-03 3.90526E-01 3.77707E-13-5.68942E-13
 -1      2961 1.93653E+01 3.17855E+00-8.03034E-03 3.06532E-01 3.16212E-13-6.19805E-13
 -1      2962 1.93856E+01 2.97015E+00 7.17895E-03 1.93950E-01 2.63479E-13-5.82870E-13
 -1      2963 1.96824E+01 2.68502E+00 8.06349E-03 2.72993E-01 3.59358E-13-5.06977E-13
 -1      2964 7.48744E+00-1.42240E+00 1.40965E-01-3.58734E+00 2.09256E-13 6.24001E-13
 -1      2965 9.69335E+00-2.48817E+00 8.08028E-02-5.51623E+00 3.30569E-13 6.52589E-13
 -1      2966 1.94327E+01 3.10808E+00-7.68254E-03-2.56885E-01-9.12623E-14-7.03350E-13
 -1      2967 1.95804E+01 2.98226E+00-5.13728E-03-3.58688E-01-1.57598E-13-6.94445E-13
 -1      2968 2.85786E+01-3.14401E+00 2.18119E-02-2.82715E-01 4.26681E-14 8.74023E-14
 -1      2969 2.94875E+01-1.66572E+00-1.74959E-01 7.57529E-01 2.38882E-13 1.03681E-13
 -1      2970 7.96700E+00-8.58258E-01 9.87065E-02 2.91613E+00 2.66481E-13-1.02640E-12
 -1      2971 6.91460E+00-5.13300E-01 1.91765E-01 1.66451E-01 1.17076E-13-1.16301E-12
 -1      2972 2.87985E+01 4.03041E+00-1.34817E-01 2.12107E+00 6.54837E-13 1.25039E-14
 -1      2973 2.84971E+01 5.26381E+00-1.97961E-01 1.21408E+00 7.30666E-13-2.07268E-13
 -1      2974 2.99255E+01 6.30235E-01-6.53167E-02 1.85341E+00 4.32626E-13 1.72667E-13
 -1      2975 2.94050E+01 2.37338E+00-2.29316E-01 2.26004E+00 5.84505E-13 1.46716E-13
 -1      2976 2.80549E+01 2.79119E+00-7.66665E-02 2.28049E+00 4.44839E-13 1.43031E-13
 -1      2977 2.88000E+01-5.52924E-01-3.40053E-02 1.88528E+00 1.93991E-13 2.64358E-13
 -1      2978 2.83589E+01 6.06990E+00-2.16145E-01-9.13075E-01-9.14852E-13-1.73736E-13
 -1      2979 2.87100E+01 4.89022E+00-1.09194E-01-1.73411E+00-8.31529E-13 1.30729E-14
 -1      2980 2.83742E+01 5.77857E+00-1.47627E-01-9.99006E-03 8.47211E-13-3.74069E-13
 -1      2981 2.79724E+01 5.15584E+00-1.71813E-01-1.30954E+00 8.15570E-13-4.97713E-13
 -1      2982 2.37808E+01-5.35700E+00 1.02937E-01-4.14375E+00-2.21781E-13-1.99799E-13
 -1      2983 2.65024E+01-4.86525E+00-1.42648E-01-2.42797E+00-1.17947E-13-5.21527E-14
 -1      2984 1.71452E+01-4.71546E+00 1.40573E-01-6.16061E+00-3.88592E-13-6.45914E-13
 -1      2985 2.03474E+01-5.52042E+00-5.50379E-02-5.74921E+00-3.11973E-13-4.58678E-13
 -1      2986 6.87943E+00-1.02424E+00 1.09012E-01-2.14325E+00-5.74575E-14-1.04097E-12
 -1      2987 8.31920E+00-1.84633E+00 1.30061E-01-4.19369E+00-1.73084E-13-9.48658E-13
 -1      2988 1.11516E+01-1.59893E+00 1.76378E-01-4.41464E+00-2.51320E-13-8.19733E-13
 -1      2989 2.56293E+01-4.79058E+00-1.10279E-01 2.93649E+00-4.81559E-15 1.77754E-13
 -1      2990 2.29816E+01-5.13838E+00 7.89695E-02 4.51975E+00 2.55504E-13-1.07074E-13
 -1      2991 2.00002E+01-1.56035E-03-1.26042E-05 5.67600E-03-1.34060E-15 5.93717E-15
 -1      2992 2.79248E+01-3.74658E+00-1.40470E-01 5.28300E-01-7.70668E-14-6.12649E-13
 -1      2993 2.61036E+01-4.71046E+00 5.21703E-02 2.15995E+00-2.88269E-13-4.64614E-13
 -1      2994 2.00854E+01-5.12304E+00 1.27038E-01-5.73402E+00 3.52440E-13-1.11612E-13
 -1      2995 2.27729E+01-5.36057E+00-9.58422E-02-4.78980E+00 3.22339E-13-2.06803E-13
 -1      2996 2.06812E+01 1.64203E+00-5.37289E-04 7.43142E-01 5.47332E-13-1.11075E-13
 -1      2997 2.85653E+01-1.29458E+00-1.44413E-03 6.91088E-01-2.15522E-14-7.77781E-13
 -1      2998 2.85691E+01 5.45960E-01-1.82534E-01 1.58715E+00-2.11067E-13-8.46073E-13
 -1      2999 2.02097E+01 2.66618E+00-3.10089E-03-9.90318E-01-3.88770E-13-5.56354E-13
 -1      3000 2.93074E+01-3.01574E-01-2.04905E-01-1.82107E+00 4.59244E-13-7.44280E-13
 -1      3001 2.90063E+01-1.86590E+00-8.60201E-03-1.06249E+00 1.77927E-13-7.38729E-13
 -1      3002 1.97463E+01 2.80470E+00-7.52642E-03-4.34765E-01-2.05183E-13-6.66643E-13
 -1      3003 1.99295E+01 2.63389E+00-4.34913E-03-5.41150E-01-2.76267E-13-6.30615E-13
 -1      3004 1.97585E+01 2.59282E+00 6.08912E-03-2.49494E-01-1.68705E-13-6.18913E-13
 -1      3005 1.91663E+01 3.15921E+00 5.53815E-03 5.69100E-02 1.02106E-13-6.61485E-13
 -1      3006 1.91004E+01 3.41035E+00-6.30282E-03 2.76091E-02 9.40122E-14-7.04521E-13
 -1      3007 1.91419E+01 3.38103E+00-4.33933E-03-5.11451E-02 4.59880E-14-7.09203E-13
 -1      3008 1.89002E+01-4.53216E+00 1.07022E-01-5.71997E+00 4.17416E-13-5.16844E-14
 -1      3009 8.15396E+00-5.49009E-01 1.65798E-01 1.69529E+00-2.41362E-13 5.36515E-13
 -1      3010 2.74938E+01 3.96732E+00-1.07785E-01-1.76617E+00 7.56575E-13-5.36626E-13
 -1      3011 1.27758E+01-2.54305E+00 1.74828E-01-5.54703E+00 3.99486E-13 4.11990E-13
 -1      3012 1.47180E+01-2.28875E+00 8.33583E-02 4.92001E+00-3.22492E-13 5.39638E-13
 -1      3013 1.23791E+01-2.32626E+00 1.29221E-01 5.24504E+00-3.74298E-13 6.76972E-13
 -1      3014 1.12255E+01-1.29200E+00 1.07725E-01 4.24122E+00-3.22249E-13 6.21100E-13
 -1      3015 1.63181E+01-3.70987E+00 1.36902E-01-5.74428E+00-4.03774E-13-6.26138E-13
 -1      3016 2.27066E+01-5.06008E+00 8.34113E-02-4.30250E+00-3.47500E-13-2.71512E-13
 -1      3017 2.00028E+01 6.42597E-04 5.84569E-06-3.73418E-03 3.09017E-13-3.91921E-13
 -1      3018 2.00022E+01-1.41684E-03-4.25537E-06-4.16358E-03 4.34470E-13-4.88602E-13
 -1      3019 2.00018E+01-1.30839E-03 9.44684E-06-4.68474E-03 1.51567E-13-3.73660E-13
 -1      3020 2.71641E+01 5.71250E+00-1.25634E-01-4.35144E-01-7.92422E-13-2.23467E-13
 -1      3021 1.02793E+01-6.38440E-01 1.38412E-01 3.15844E+00 2.81740E-13-8.92064E-13
 -1      3022 2.69688E+01 4.57555E+00-1.17591E-01 5.97265E-01 6.26582E-13-2.05724E-13
 -1      3023 2.57276E+01 3.58596E+00-7.17539E-02 1.18739E+00 4.53956E-13-7.31186E-15
 -1      3024 2.58766E+01 2.60267E+00-1.31458E-01 2.03593E+00 2.42806E-13 1.14622E-13
 -1      3025 2.69256E+01-2.19873E+00-7.21160E-02-1.43189E+00 1.14953E-13-6.59577E-13
 -1      3026 2.67048E+01-1.27295E+00-6.07461E-02-2.19648E+00 2.02480E-13-6.06008E-13
 -1      3027 2.67222E+01-8.36900E-02-4.13797E-02-2.52067E+00 3.76775E-13-6.05491E-13
 -1      3028 2.50692E+01-4.71098E+00 2.50033E-02 2.35434E+00-3.03688E-13-3.29556E-13
 -1      3029 2.80970E+01 1.58188E+00-9.76400E-02 2.06154E+00-2.49842E-13-8.43908E-13
 -1      3030 2.68448E+01 2.54565E+00-1.20265E-01 2.23988E+00-3.49887E-13-8.23432E-13
 -1      3031 2.72020E+01 3.26424E-01-2.79070E-02 1.95044E+00-1.33893E-13-7.71806E-13
 -1      3032 2.00014E+01-1.61494E-03-8.82129E-07-5.15932E-03-5.37586E-14-2.61205E-13
 -1      3033 2.00008E+01-1.42024E-03 4.27172E-06-5.46411E-03-8.89522E-14-8.62467E-14
 -1      3034 2.00008E+01-4.92718E-04 2.85787E-06-5.58826E-03-1.18698E-13-1.34348E-13
 -1      3035 2.00020E+01-4.14846E-06 2.11709E-06-4.82401E-03 3.60533E-14-3.75074E-14
 -1      3036 2.75567E+01 3.33469E+00-6.07498E-02-2.00527E+00-6.31994E-13 7.05130E-14
 -1      3037 2.77554E+01-7.54830E-01-6.73835E-02-1.28849E+00-3.32588E-13 2.42611E-13
 -1      3038 2.62195E+01-3.96164E+00-1.28402E-02 1.49117E+00 2.95527E-14 2.31461E-13
 -1      3039 2.00008E+01-1.67338E-03 2.24669E-05 5.35417E-03 8.23173E-14 2.59625E-13
 -1      3040 1.95042E+01-4.34593E+00 8.19022E-02 5.11317E+00-3.78128E-13 8.28365E-14
 -1      3041 1.80728E+01-3.32710E+00 6.56980E-02 4.94370E+00-2.92759E-13 1.72168E-13
 -1      3042 2.12777E+01-4.30905E+00-2.93608E-02 4.08764E+00-3.68854E-13-2.11109E-13
 -1      3043 2.72662E+01-2.59527E+00-2.42277E-02 7.81133E-02 1.34722E-13-6.74710E-13
 -1      3044 2.28409E+01-4.64979E+00 2.35737E-02 3.76603E+00 3.27186E-13-4.06654E-14
 -1      3045 2.12683E+01-5.06296E+00 2.79540E-02 5.21038E+00 3.51885E-13-2.99700E-13
 -1      3046 1.94689E+01-4.22250E+00 1.24069E-01 5.40651E+00 4.14162E-13-3.26815E-13
 -1      3047 2.78948E+01-2.91554E+00-2.61920E-02-6.20794E-01-2.48534E-14-6.80123E-13
 -1      3048 2.43086E+01-4.74285E+00 3.79487E-02-3.27399E+00 3.79675E-13-3.76615E-13
 -1      3049 8.74652E+00-5.78497E-01 1.75609E-01-2.55378E+00 8.80199E-14 3.71758E-13
 -1      3050 1.92113E+01 3.30987E+00-7.05072E-03-1.02748E-01 2.03680E-14-6.86187E-13
 -1      3051 1.93103E+01 3.23408E+00-4.22981E-03-1.92037E-01-5.09528E-14-6.97672E-13
 -1      3052 1.94585E+01 2.88783E+00 5.19563E-03-1.24433E-01-6.15043E-14-6.61284E-13
 -1      3053 1.92537E+01 3.07804E+00 5.19487E-03-2.24810E-02 2.87476E-14-6.62528E-13
 -1      3054 2.71936E+01-3.98213E+00 8.59321E-03-9.31796E-01-1.24449E-13 8.37386E-14
 -1      3055 2.02135E+01 2.36480E+00 7.17548E-04-7.08041E-01-3.30946E-13-5.54787E-13
 -1      3056 2.73355E+01 4.96289E+00-1.29679E-01 1.46248E+00-5.62161E-13-6.32529E-13
 -1      3057 1.62047E+01-3.52414E+00-1.38960E-02 5.79743E+00 4.04600E-13-4.60923E-13
 -1      3058 1.41008E+01-2.86327E+00 1.55889E-01 5.78355E+00 4.05398E-13-5.36182E-13
 -1      3059 1.38607E+01-1.98093E+00 1.01653E-01 5.11816E+00 3.79793E-13-5.83283E-13
 -1      3060 2.00011E+01-7.70950E-05-1.17831E-05 5.34570E-03-1.20157E-13 9.31710E-14
 -1      3061 2.00015E+01-1.01288E-03-1.21456E-05 5.05128E-03 1.09057E-14 4.60782E-13
 -1      3062 2.00022E+01 6.80469E-04 3.73158E-05 4.66983E-03 1.15407E-13 2.67422E-13
 -1      3063 2.00014E+01 9.42100E-04 5.17520E-05 5.12886E-03-2.03664E-13 1.92475E-13
 -1      3064 2.84771E+01 8.11422E-01-5.96287E-02-2.57831E+00 5.05290E-13-6.94028E-13
 -1      3065 2.05168E+01 1.79250E+00-4.03437E-03 5.84325E-01 5.17374E-13-2.15650E-13
 -1      3066 2.04398E+01 1.64549E+00 1.17560E-03 2.87523E-01 4.64934E-13-2.43788E-13
 -1      3067 2.04517E+01 1.38937E+00 2.51537E-03 1.84325E-02 4.04688E-13-2.33355E-13
 -1      3068 2.02695E+01 1.73771E+00-8.99291E-04 1.19120E-01 4.23782E-13-2.87907E-13
 -1      3069 2.04193E+01 1.20232E+00-2.21850E-03-2.68058E-01 3.42817E-13-2.25025E-13
 -1      3070 2.00597E+01 1.97199E+00-4.76932E-03 9.74558E-02 3.83112E-13-3.68564E-13
 -1      3071 9.63780E+00-3.92408E-01 1.34861E-01 2.80853E+00-3.11737E-13 5.21583E-13
 -1      3072 9.04026E+00 1.75113E-01 8.66445E-02 6.70324E-01-1.34164E-13 4.17277E-13
 -1      3073 1.18478E+01-4.95683E-01 1.13569E-01 3.19510E+00-2.56441E-13 6.03725E-13
 -1      3074 8.86527E+00-1.86510E-01 1.76999E-01-9.23020E-01 2.50164E-14-1.00214E-12
 -1      3075 9.80120E+00 2.94889E-01 7.83154E-02-6.73854E-02 7.34378E-14-9.28563E-13
 -1      3076 1.00142E+01-5.65018E-02 1.13851E-01-2.18993E+00-6.31023E-14-8.62532E-13
 -1      3077 2.03863E+01 6.89089E-01 4.21413E-03 7.98880E-01-1.79009E-13-2.83046E-13
 -1      3078 2.04094E+01 5.47060E-01 1.24081E-04 9.45006E-01-1.46763E-13-2.68375E-13
 -1      3079 2.04328E+01 4.08845E-01 4.78060E-03 1.08414E+00-1.38503E-13-2.29981E-13
 -1      3080 2.04933E+01 2.60150E-01 1.09921E-03 1.18537E+00-1.06369E-13-2.58499E-13
 -1      3081 2.02365E+01 5.84809E-01-3.83465E-03 1.04165E+00-1.39380E-13-2.79687E-13
 -1      3082 2.05583E+01 1.02188E-01 6.29275E-03 1.29124E+00-7.19382E-14-1.82126E-13
 -1      3083 2.06691E+01-7.92289E-02 1.36975E-03 1.34369E+00-4.14826E-14-1.86211E-13
 -1      3084 2.03030E+01 2.46431E-01-6.42759E-03 1.30260E+00-6.05871E-14-1.81233E-13
 -1      3085 2.08052E+01-2.78530E-01 9.31715E-03 1.40817E+00-1.25589E-14-1.68756E-13
 -1      3086 2.09797E+01-5.11218E-01 5.49581E-04 1.39931E+00 1.47538E-14-1.49674E-13
 -1      3087 2.04746E+01-1.63817E-01-1.02101E-02 1.49629E+00-1.35117E-14-1.95361E-13
 -1      3088 2.12231E+01-7.61685E-01 1.39884E-02 1.40179E+00 2.74765E-14-1.17652E-13
 -1      3089 2.14705E+01-1.04718E+00-2.50430E-03 1.30936E+00 2.90085E-14-8.40542E-14
 -1      3090 2.08123E+01-6.88738E-01-1.52268E-02 1.59839E+00 4.73158E-14-1.55226E-13
 -1      3091 2.18584E+01-1.33189E+00 1.96961E-02 1.20933E+00 7.05699E-14-3.87097E-14
 -1      3092 2.21721E+01-1.63078E+00-7.78148E-03 1.00340E+00 9.93179E-14-4.95350E-15
 -1      3093 2.13869E+01-1.33740E+00-2.14541E-02 1.55297E+00 7.52185E-14-1.17860E-13
 -1      3094 2.27147E+01-1.87956E+00 2.35118E-02 7.43120E-01 2.68224E-14 2.95727E-15
 -1      3095 2.30579E+01-2.07483E+00-1.15291E-02 4.03531E-01-1.04517E-14 2.26173E-14
 -1      3096 2.22491E+01-2.03027E+00-2.94847E-02 1.25138E+00 5.69605E-14-2.34942E-14
 -1      3097 2.36899E+01-2.14165E+00 1.62186E-02-6.89024E-02-1.02197E-14 1.06522E-13
 -1      3098 2.39767E+01-2.02460E+00-1.41053E-02-5.19396E-01-5.28679E-14 1.72642E-13
 -1      3099 2.34262E+01-2.45786E+00-9.43218E-03 5.52559E-01 3.16691E-14 8.55717E-14
 -1      3100 2.44885E+01-1.66294E+00-1.19892E-02-1.10895E+00-9.08245E-14 2.75591E-13
 -1      3101 2.46325E+01-1.05908E+00-2.25165E-02-1.50502E+00-9.41512E-14 2.56213E-13
 -1      3102 2.45935E+01-2.20524E+00 1.85422E-03-5.21767E-01-1.42247E-16 2.25561E-13
 -1      3103 2.43945E+01 2.22612E+00-1.14526E-01-1.87405E+00-3.65437E-13 1.12159E-13
 -1      3104 2.43008E+01 3.25222E+00-1.12823E-02-1.32222E+00-4.16632E-13 7.95379E-14
 -1      3105 2.40395E+01 3.73664E+00-7.42700E-02-4.10492E-01-4.45706E-13-1.24001E-13
 -1      3106 2.40676E+01 3.78366E+00-5.98361E-02 4.00228E-01-4.69548E-13-1.76915E-13
 -1      3107 2.42048E+01 3.29721E+00-2.68320E-02 1.32560E+00-3.76366E-13-2.21503E-13
 -1      3108 2.43440E+01 2.35767E+00-8.57336E-02 1.87199E+00-2.75949E-13-2.54017E-13
 -1      3109 2.46367E+01 1.28262E+00 3.95330E-03 2.13925E+00-2.81171E-13-2.72343E-13
 -1      3110 2.47267E+01 1.05400E-01-5.56319E-02 2.14170E+00-2.05710E-13-3.19619E-13
 -1      3111 2.45723E+01-8.17239E-01-1.58290E-02 1.72922E+00-1.37435E-13-2.60571E-13
 -1      3112 2.44665E+01-1.50443E+00-2.26383E-02 1.37749E+00-6.57321E-14-3.15460E-13
 -1      3113 2.52869E+01-5.69075E-01-4.56642E-02 1.89737E+00-1.79846E-13-3.61294E-13
 -1      3114 2.40265E+01-1.89784E+00-5.54498E-03 7.54337E-01 3.92043E-14-2.99016E-13
 -1      3115 2.37086E+01-2.06218E+00 6.80216E-03 3.10063E-01 1.50345E-13-3.23769E-13
 -1      3116 2.46428E+01-2.08280E+00 1.15999E-02 8.16697E-01-1.66414E-14-2.88266E-13
 -1      3117 2.31050E+01-2.01296E+00-1.26248E-02-1.47303E-01 1.43564E-13-2.78115E-13
 -1      3118 2.27640E+01-1.83748E+00 2.17744E-02-4.90900E-01 1.60680E-13-2.99748E-13
 -1      3119 2.34003E+01-2.37202E+00-2.89488E-02-2.65616E-01 1.89453E-13-3.75445E-13
 -1      3120 2.22134E+01-1.61393E+00-1.04358E-02-7.69250E-01 1.66879E-13-2.61459E-13
 -1      3121 2.18992E+01-1.32669E+00 1.87908E-02-9.82273E-01 1.45263E-13-2.88415E-13
 -1      3122 2.23121E+01-1.97700E+00-2.09042E-02-9.82437E-01 1.98738E-13-1.69497E-13
 -1      3123 2.14903E+01-1.05894E+00-4.45153E-03-1.10024E+00 6.25857E-14-2.68794E-13
 -1      3124 2.12336E+01-7.85172E-01 1.29910E-02-1.20285E+00 3.21211E-14-2.58704E-13
 -1      3125 2.14120E+01-1.34020E+00-1.96838E-02-1.32018E+00 1.12089E-13-1.01549E-13
 -1      3126 2.09658E+01-5.55135E-01-6.33590E-04-1.22002E+00 7.02520E-14-2.48476E-13
 -1      3127 2.07753E+01-3.43285E-01 7.96128E-03-1.24626E+00 8.19720E-14-2.59571E-13
 -1      3128 2.07912E+01-7.33789E-01-1.40352E-02-1.40754E+00 1.01844E-13-1.47506E-13
 -1      3129 2.06143E+01-1.74866E-01 1.12994E-03-1.20875E+00 6.72633E-14-2.78546E-13
 -1      3130 2.04800E+01-3.08911E-02 4.25497E-03-1.18716E+00 1.11106E-13-3.62334E-13
 -1      3131 2.04016E+01-2.67871E-01-9.01350E-03-1.35595E+00 6.46420E-14-1.04329E-14
 -1      3132 2.03913E+01 7.81016E-02 1.80571E-03-1.12265E+00 1.44495E-13-4.05580E-13
 -1      3133 2.02984E+01 1.64563E-01 1.80770E-03-1.07380E+00 1.23667E-13-3.50467E-13
 -1      3134 2.01755E+01 4.80783E-02-5.33322E-03-1.23506E+00 1.28136E-13-3.44481E-13
 -1      3135 2.02548E+01 2.26023E-01 1.99223E-03-9.98521E-01 9.35313E-14-3.23556E-13
 -1      3136 2.01902E+01 2.69636E-01 3.08535E-04-9.36422E-01 6.52472E-14-1.83912E-13
 -1      3137 2.00553E+01 2.37858E-01-2.90830E-03-1.08463E+00 1.75179E-13-2.88502E-13
 -1      3138 2.01729E+01 2.97026E-01 1.97980E-03-8.59699E-01 4.17339E-14-1.48693E-13
 -1      3139 2.01269E+01 3.11434E-01-5.38011E-04-7.93554E-01 8.85363E-14-5.58363E-14
 -1      3140 1.99988E+01 3.33880E-01-1.42896E-03-9.26927E-01 8.28700E-14-1.14084E-13
 -1      3141 2.01236E+01 3.16409E-01 1.88439E-03-7.20724E-01 5.59322E-14-4.24181E-14
 -1      3142 2.00898E+01 3.12495E-01-9.59187E-04-6.56371E-01 5.49338E-14 8.10805E-15
 -1      3143 1.99780E+01 3.65947E-01-5.85142E-04-7.74412E-01 8.32805E-14-7.96389E-14
 -1      3144 2.00933E+01 3.03999E-01 1.74528E-03-5.90357E-01-1.51581E-14-1.69597E-14
 -1      3145 2.00675E+01 2.89727E-01-1.11388E-03-5.31245E-01 2.98875E-14-5.05260E-14
 -1      3146 1.99755E+01 3.57744E-01-1.42864E-04-6.34020E-01 1.69934E-14-1.08410E-13
 -1      3147 2.00735E+01 2.74112E-01 1.57909E-03-4.73429E-01 7.64534E-14-2.45413E-13
 -1      3148 2.00533E+01 2.54943E-01-1.10994E-03-4.21332E-01 5.97499E-14-2.28356E-13
 -1      3149 1.99810E+01 3.26633E-01 6.06179E-05-5.09312E-01-4.50918E-15-1.96438E-13
 -1      3150 2.00597E+01 2.36440E-01 1.39702E-03-3.72085E-01 1.45867E-14-2.73112E-13
 -1      3151 2.00435E+01 2.15903E-01-1.01888E-03-3.27631E-01-8.39323E-14-2.59257E-13
 -1      3152 1.99889E+01 2.84570E-01 1.31551E-04-4.01651E-01-1.39403E-14-4.40089E-13
 -1      3153 2.00491E+01 1.97155E-01 1.20909E-03-2.86673E-01-6.60292E-14-2.18868E-13
 -1      3154 2.00361E+01 1.77374E-01-8.86783E-04-2.49747E-01-9.11251E-14-9.46325E-14
 -1      3155 1.99964E+01 2.39321E-01 1.35269E-04-3.10947E-01-3.87531E-14-5.67107E-13
 -1      3156 2.00405E+01 1.59906E-01 1.02440E-03-2.16404E-01-1.81131E-13 3.40813E-14
 -1      3157 2.00301E+01 1.42037E-01-7.42263E-04-1.86439E-01-1.24287E-13 6.33909E-14
 -1      3158 2.00023E+01 1.95599E-01 1.09741E-04-2.36174E-01-7.63114E-14-2.82441E-13
 -1      3159 2.00333E+01 1.26615E-01 8.50301E-04-1.59827E-01-1.89267E-13-2.28745E-15
 -1      3160 2.00249E+01 1.11174E-01-6.02162E-04-1.36020E-01-1.65071E-13-2.33135E-14
 -1      3161 2.00065E+01 1.55994E-01 7.56539E-05-1.75756E-01-9.47311E-14-9.68392E-14
 -1      3162 2.00271E+01 9.80791E-02 6.91978E-04-1.15178E-01-1.37248E-13-2.01793E-14
 -1      3163 2.00204E+01 8.51782E-02-4.75539E-04-9.66371E-02-9.52106E-14-9.35221E-14
 -1      3164 2.00090E+01 1.21685E-01 4.32955E-05-1.27851E-01-1.88226E-13 3.56135E-14
 -1      3165 2.00218E+01 7.43942E-02 5.52420E-04-8.06120E-02-5.89901E-14-3.46482E-14
 -1      3166 2.00165E+01 6.39070E-02-3.66451E-04-6.64502E-02 3.65435E-14-9.38232E-14
 -1      3167 2.00101E+01 9.29519E-02 1.69877E-05-9.05585E-02-1.11832E-13-1.95642E-14
 -1      3168 2.00172E+01 5.52494E-02 4.32713E-04-5.43575E-02 8.04804E-14-1.54337E-13
 -1      3169 2.00132E+01 4.69221E-02-2.75837E-04-4.37520E-02 8.75008E-14-1.36917E-13
 -1      3170 2.00102E+01 6.95420E-02-2.15580E-06-6.20517E-02 3.05520E-14-1.26233E-13
 -1      3171 2.00134E+01 4.01235E-02 3.32535E-04-3.48045E-02 9.64188E-14-1.60978E-13
 -1      3172 2.00103E+01 3.36456E-02-2.02825E-04-2.70278E-02 1.11878E-14-2.25787E-13
 -1      3173 2.00096E+01 5.09115E-02-1.45959E-05-4.06669E-02 1.15155E-13-1.42935E-13
 -1      3174 2.00102E+01 2.84078E-02 2.50840E-04-2.05491E-02 7.61211E-14-3.31251E-14
 -1      3175 2.00079E+01 2.34534E-02-1.46040E-04-1.49823E-02 3.70162E-14 2.60428E-14
 -1      3176 2.00086E+01 3.63846E-02-2.16078E-05-2.49446E-02 6.80810E-14-1.32115E-13
 -1      3177 2.00076E+01 1.94770E-02 1.85997E-04-1.04135E-02 1.29596E-13 9.94808E-14
 -1      3178 2.00059E+01 1.57348E-02-1.02989E-04-6.55019E-03 1.73227E-13 2.55314E-13
 -1      3179 2.00073E+01 2.52453E-02-2.50230E-05-1.36477E-02 2.27306E-13 1.92532E-13
 -1      3180 2.00055E+01 1.27437E-02 1.34915E-04-3.44035E-03 8.21177E-15 4.27247E-13
 -1      3181 2.00042E+01 9.92889E-03-7.11198E-05-8.75796E-04 1.08044E-13 2.99752E-13
 -1      3182 2.00060E+01 1.68164E-02-2.32699E-05-5.76775E-03 1.77669E-13 1.76397E-13
 -1      3183 2.00037E+01 7.66424E-03 9.49407E-05 1.13055E-03 5.35723E-14 2.17903E-13
 -1      3184 2.00029E+01 5.53126E-03-4.15390E-05 2.70088E-03-3.13557E-14 2.84998E-13
 -1      3185 2.00046E+01 1.04626E-02-2.07034E-05-4.95941E-04 8.03802E-14-5.78312E-14
 -1      3186 2.00024E+01 3.95033E-03 6.93622E-05 3.77342E-03-8.20485E-14 3.58779E-13
 -1      3187 2.00018E+01 2.25555E-03-2.28857E-05 4.59238E-03-1.42146E-13 1.59801E-13
 -1      3188 2.00023E+01 2.22277E-03-4.53164E-05 4.40955E-03-9.23292E-14 1.58947E-13
 -1      3189 2.00034E+01 5.74709E-03-4.22903E-05 2.68606E-03-1.07064E-14-1.00384E-13
 -1      3190 2.15076E+01-1.21373E+00 6.05609E-03-2.21489E+00-1.61786E-13-1.16334E-13
 -1      3191 2.11116E+01-7.67505E-01 1.82375E-02-2.27721E+00-1.36680E-13-1.56089E-13
 -1      3192 2.08601E+01-4.07769E-01 7.25307E-03-2.17821E+00-7.28833E-14-1.91630E-13
 -1      3193 2.06144E+01-1.12094E-01 7.92919E-03-2.13940E+00-5.00152E-14-1.65695E-13
 -1      3194 2.02855E+01-6.00900E-01-2.13326E-02-2.47557E+00-1.20657E-13-2.21359E-13
 -1      3195 2.42662E+01-3.24542E+00-1.84990E-02-1.20872E+00-2.73028E-13 1.06763E-13
 -1      3196 2.35544E+01-2.80021E+00 4.82353E-02-1.69544E+00-2.29428E-13 2.43165E-14
 -1      3197 2.72755E+01 2.34538E+00-8.67783E-02 2.45182E+00 3.25295E-13 1.38417E-13
 -1      3198 2.64686E+01-3.36833E+00 3.10141E-02-1.86144E-01-1.15014E-13-5.33719E-13
 -1      3199 2.08069E+01-3.67431E-01 1.12840E-02 2.04904E+00-2.08710E-13-1.31104E-13
 -1      3200 2.11181E+01-7.23294E-01 6.82956E-03 2.04804E+00-9.96592E-14-5.47949E-14
 -1      3201 2.04518E+01 1.17385E-01 3.73038E-03 1.86168E+00-8.24211E-14-2.23921E-13
 -1      3202 2.06444E+01-9.30040E-02 6.88489E-03 1.92733E+00-1.25196E-13-1.90457E-13
 -1      3203 2.00366E+01-2.00473E-01-1.41956E-02 2.16576E+00-1.15028E-13-1.78549E-13
 -1      3204 2.02824E+01 3.74820E-01-9.55249E-05 1.62928E+00-2.07336E-13-1.59257E-13
 -1      3205 2.04019E+01 2.70151E-01 5.63576E-03 1.72629E+00-8.26605E-14-1.56150E-13
 -1      3206 1.98663E+01 2.68510E-01-5.77100E-03 1.88074E+00-5.55224E-14-1.27577E-13
 -1      3207 2.02058E+01 4.81101E-01-1.83878E-03 1.38915E+00-1.90488E-13-1.19810E-13
 -1      3208 2.02850E+01 4.44034E-01 4.49607E-03 1.49719E+00-2.61137E-13-1.92273E-13
 -1      3209 1.98358E+01 5.02443E-01-1.49829E-03 1.60333E+00-2.00777E-13-1.83232E-13
 -1      3210 2.01704E+01 4.96766E-01-2.46185E-03 1.15958E+00-1.60139E-13-3.68119E-14
 -1      3211 2.02282E+01 4.98903E-01 3.72379E-03 1.26678E+00-9.15040E-14-4.68966E-14
 -1      3212 1.98637E+01 5.86735E-01 4.16613E-04 1.34680E+00-2.06416E-13-6.66611E-14
 -1      3213 2.01503E+01 4.63571E-01-2.51364E-03 9.49993E-01-6.13613E-14 3.73832E-14
 -1      3214 2.01964E+01 4.86004E-01 3.21586E-03 1.04961E+00-8.87455E-14 3.48484E-14
 -1      3215 1.99082E+01 5.83713E-01 1.06840E-03 1.11517E+00-1.36541E-13-1.35271E-13
 -1      3216 2.01343E+01 4.07877E-01-2.29584E-03 7.64906E-01-8.98203E-15 1.11661E-13
 -1      3217 2.01731E+01 4.38944E-01 2.83877E-03 8.53502E-01 1.50750E-14 1.04333E-13
 -1      3218 1.99501E+01 5.34869E-01 1.11348E-03 9.09900E-01-7.43599E-14 5.05404E-14
 -1      3219 2.01185E+01 3.45215E-01-1.97177E-03 6.05766E-01 9.21702E-14 6.58038E-14
 -1      3220 2.01518E+01 3.78185E-01 2.51066E-03 6.82024E-01 3.20807E-14 5.96083E-14
 -1      3221 1.99826E+01 4.65992E-01 9.15687E-04 7.31341E-01 3.52289E-15-2.67107E-16
 -1      3222 2.01022E+01 2.84087E-01-1.62815E-03 4.72001E-01 8.32821E-14 1.89939E-13
 -1      3223 2.01307E+01 3.15368E-01 2.19704E-03 5.35960E-01 1.50145E-13 1.53963E-13
 -1      3224 2.00048E+01 3.92167E-01 6.57408E-04 5.78899E-01 7.36230E-14-2.44101E-14
 -1      3225 2.00859E+01 2.28692E-01-1.30763E-03 3.61777E-01-1.57575E-15-5.49896E-15
 -1      3226 2.01100E+01 2.56587E-01 1.89120E-03 4.14276E-01 1.07774E-13 1.48832E-13
 -1      3227 2.00182E+01 3.21606E-01 4.20609E-04 4.51120E-01 1.26861E-13 2.15211E-13
 -1      3228 2.00704E+01 1.80710E-01-1.02798E-03 2.72574E-01-2.80391E-14-7.35968E-14
 -1      3229 2.00904E+01 2.04619E-01 1.59807E-03 3.14860E-01-9.31236E-14-1.29584E-13
 -1      3230 2.00249E+01 2.58299E-01 2.33950E-04 3.45893E-01 4.19303E-14 1.38443E-13
 -1      3231 2.00564E+01 1.40422E-01-7.93733E-04 2.01586E-01 2.70835E-13-2.37398E-14
 -1      3232 2.00727E+01 1.60344E-01 1.32528E-03 2.35065E-01 1.08481E-13-7.96080E-14
 -1      3233 2.00270E+01 2.03756E-01 1.00360E-04 2.60694E-01 1.44607E-14-1.27762E-13
 -1      3234 2.00442E+01 1.07386E-01-6.02845E-04 1.45995E-01 1.39316E-13 7.12363E-14
 -1      3235 2.00572E+01 1.23623E-01 1.07912E-03 1.72072E-01 2.52473E-13 9.25209E-14
 -1      3236 2.00263E+01 1.58102E-01 1.22425E-05 1.92833E-01 1.85366E-13-2.48975E-14
 -1      3237 2.00338E+01 8.08160E-02-4.50475E-04 1.03148E-01 1.58188E-13 1.78597E-13
 -1      3238 2.00440E+01 9.38070E-02 8.63210E-04 1.23138E-01 1.36923E-13 1.97705E-13
 -1      3239 2.00239E+01 1.20740E-01-4.08840E-05 1.39641E-01 9.15558E-14 1.87512E-13
 -1      3240 2.00254E+01 5.98100E-02-3.30929E-04 7.06510E-02 1.11659E-13 2.27939E-13
 -1      3241 2.00332E+01 7.00317E-02 6.78552E-04 8.57269E-02 1.82609E-13 2.41441E-13
 -1      3242 2.00208E+01 9.07355E-02-6.89519E-05 9.86068E-02 4.91169E-14 1.67654E-13
 -1      3243 2.00187E+01 4.34641E-02-2.38626E-04 4.64171E-02-1.67868E-14 1.34060E-13
 -1      3244 2.00245E+01 5.13820E-02 5.24142E-04 5.75933E-02 2.04661E-14 1.92726E-13
 -1      3245 2.00175E+01 6.70433E-02-8.01034E-05 6.74640E-02 3.25785E-14 2.70781E-13
 -1      3246 2.00134E+01 3.09343E-02-1.68533E-04 2.86742E-02 6.22066E-15-7.26742E-14
 -1      3247 2.00177E+01 3.69769E-02 3.97649E-04 3.68041E-02-1.06309E-14-2.86171E-14
 -1      3248 2.00142E+01 4.86272E-02-8.04823E-05 4.42299E-02 5.63480E-14 2.36312E-13
 -1      3249 2.00093E+01 2.14616E-02-1.16369E-04 1.59543E-02 3.85676E-14-3.81296E-13
 -1      3250 2.00124E+01 2.60113E-02 2.96103E-04 2.17385E-02 1.21276E-13-1.50570E-13
 -1      3251 2.00113E+01 3.45227E-02-7.45512E-05 2.72173E-02 7.07014E-14-8.92209E-14
 -1      3252 2.00063E+01 1.43772E-02-7.87639E-05 7.07074E-03-5.15789E-14-3.83043E-13
 -1      3253 2.00085E+01 1.77696E-02 2.16396E-04 1.10703E-02-2.78226E-14-4.31047E-13
 -1      3254 2.00087E+01 2.38627E-02-6.54280E-05 1.50256E-02 1.47364E-13-3.63790E-13
 -1      3255 2.00041E+01 9.10004E-03-5.25554E-05 1.09262E-03-1.55821E-13-3.29173E-13
 -1      3256 2.00055E+01 1.16244E-02 1.55131E-04 3.74337E-03-1.26012E-13-3.70874E-13
 -1      3257 2.00065E+01 1.58834E-02-5.45513E-05 6.52198E-03-1.55615E-13-2.35044E-13
 -1      3258 2.00025E+01 5.14627E-03-3.43634E-05-2.69090E-03-7.13029E-14-2.97027E-13
 -1      3259 2.00034E+01 7.04144E-03 1.08298E-04-1.05659E-03-1.22315E-13-2.70997E-13
 -1      3260 2.00047E+01 9.93363E-03-4.06393E-05 8.26571E-04-1.90030E-13-1.02201E-13
 -1      3261 2.00014E+01 2.10347E-03-6.62364E-06-4.79812E-03-2.18762E-14-2.50626E-13
 -1      3262 2.00019E+01 3.53964E-03 6.96929E-05-3.95997E-03 2.09368E-15-1.10623E-13
 -1      3263 2.00032E+01 5.42923E-03-3.44008E-05-2.75819E-03-1.11587E-13-1.84042E-13
 -1      3264 2.00011E+01 3.88924E-04 7.12618E-06-5.37680E-03-1.03577E-13-1.11354E-13
 -1      3265 2.00011E+01 1.28919E-03 2.21754E-05-5.20748E-03-1.24154E-13-2.66992E-13
 -1      3266 2.00023E+01 2.53206E-03-2.26145E-05-4.45155E-03-3.75535E-14-3.42946E-14
 -1      3267 2.00018E+01 5.71124E-04-1.49952E-05-5.08061E-03-1.16955E-13 5.95026E-15
 -1      3268 1.21096E+01-6.69883E-01 6.12984E-02 3.70843E+00 2.95031E-13-7.42600E-13
 -1      3269 1.07247E+01 1.40121E-01 9.74643E-02 2.07034E+00 1.82227E-13-8.66154E-13
 -1      3270 1.92217E+01 2.84778E+00-5.14368E-03 9.44101E-02 1.88945E-13-5.92189E-13
 -1      3271 1.91687E+01 2.89823E+00-3.76430E-03 6.92723E-02 1.35625E-13-6.30467E-13
 -1      3272 2.00038E+01 4.60810E-03-1.62385E-05 3.65280E-04 2.01939E-13-1.89718E-13
 -1      3273 2.00038E+01 4.59994E-03-1.52744E-05-1.91753E-04 3.30375E-13-1.44698E-13
 -1      3274 2.00037E+01 4.31466E-03-7.19372E-06 1.36902E-03 1.82945E-13-5.70365E-13
 -1      3275 2.00038E+01 4.44385E-03-2.38943E-05 8.14746E-04 1.84554E-13-3.01820E-13
 -1      3276 2.00043E+01 7.47309E-03 5.44169E-05 4.83332E-04 1.53654E-13-2.72583E-13
 -1      3277 2.62562E+01-3.36100E+00-1.20941E-01 3.29784E-01-7.62914E-14 2.11598E-13
 -1      3278 2.50645E+01-4.19000E+00 3.42962E-02 1.92426E+00 1.13043E-13 1.50786E-13
 -1      3279 1.54185E+01-2.70813E+00 1.18092E-01-5.29692E+00-3.66512E-13-6.22349E-13
 -1      3280 1.83705E+01-4.03312E+00-2.98456E-02-5.41093E+00-3.94462E-13-5.68906E-13
 -1      3281 2.51748E+01-3.33508E+00-3.23697E-03 4.60541E-01-1.55723E-13-3.77883E-13
 -1      3282 2.53065E+01-4.16764E+00-7.53860E-02 1.35951E+00-2.37520E-13-4.05884E-13
 -1      3283 2.37544E+01-4.24287E+00 1.00503E-01 2.72682E+00-3.67959E-13-2.22114E-13
 -1      3284 2.44207E+01-3.09916E+00 6.91424E-02 1.11641E+00-2.38039E-13-3.38774E-13
 -1      3285 2.64186E+01-3.19070E+00 9.16735E-02-2.91083E-01 1.83586E-13-5.59955E-13
 -1      3286 2.67484E+01-1.90726E+00-1.37612E-01 1.01338E+00-7.73687E-15-6.44478E-13
 -1      3287 2.14350E+01-4.44732E+00 1.30051E-01-4.46679E+00-4.08062E-13-2.62327E-13
 -1      3288 2.37483E+01-4.92737E+00-1.00642E-01-3.28283E+00-3.28168E-13-7.68708E-14
 -1      3289 2.00031E+01 2.54000E-03-1.01012E-05 3.60714E-03 2.12612E-13-7.37726E-14
 -1      3290 2.00034E+01 2.88115E-03-2.58653E-05 3.01832E-03 2.53424E-13-1.91456E-13
 -1      3291 2.00036E+01 3.58812E-03 3.43592E-07 2.45006E-03 2.74882E-13-3.54246E-13
 -1      3292 2.00037E+01 3.83515E-03-2.75254E-05 1.86908E-03 2.71176E-13-5.71928E-13
 -1      3293 2.00043E+01 6.82909E-03 4.62055E-05 1.32194E-03 2.26166E-13-5.03519E-13
 -1      3294 2.00040E+01 5.63822E-03 3.32888E-05 2.29868E-03 2.83476E-13-1.67202E-13
 -1      3295 2.14948E+01-1.14420E+00 2.62518E-02 2.10857E+00-1.11818E-13-6.83690E-14
 -1      3296 2.19758E+01-1.65140E+00 6.46016E-03 1.97977E+00-1.97072E-13-1.27623E-13
 -1      3297 2.04946E+01-1.00219E+00-2.73958E-02 2.41675E+00-1.62795E-13-4.38334E-14
 -1      3298 2.26626E+01-2.14695E+00 4.59246E-02 1.88457E+00-2.98862E-13-1.81980E-13
 -1      3299 2.33346E+01-2.69441E+00 2.49621E-03 1.53367E+00-2.73481E-13-2.27776E-13
 -1      3300 2.30404E+01-3.32649E+00-5.80853E-02 2.14680E+00-3.00965E-13-2.26347E-13
 -1      3301 2.14159E+01-2.09598E+00-4.11602E-02 2.48360E+00-2.87848E-13-1.28704E-13
 -1      3302 2.26156E+01-2.27393E+00-3.06945E-03-1.97166E+00-1.91267E-13-4.90406E-14
 -1      3303 2.20413E+01-1.70938E+00 3.52072E-02-2.20699E+00-1.55254E-13-4.54003E-14
 -1      3304 2.09596E+01-1.60115E+00-3.33301E-02-2.66279E+00-2.19131E-13-1.32078E-13
 -1      3305 2.23041E+01-2.88176E+00-3.66851E-02-2.55928E+00-2.53813E-13 1.01481E-14
 -1      3306 1.78098E+01-3.66300E+00 1.19416E-01-5.48214E+00 4.01540E-13 2.61041E-14
 -1      3307 2.04092E+01-4.52244E+00-5.31740E-02-4.91411E+00 3.69232E-13-2.27637E-13
 -1      3308 2.03323E+01 6.29860E-01 2.99290E-03-1.44854E+00 1.15192E-13-1.94186E-13
 -1      3309 2.02975E+01 7.06861E-01 1.23139E-03-1.28687E+00 1.54673E-13-1.87404E-13
 -1      3310 2.57985E+01 5.25124E+00-1.39098E-01 3.91301E-01-6.09332E-13-3.70075E-13
 -1      3311 2.59032E+01 5.03472E+00-8.94851E-02-7.72483E-01-6.94542E-13-1.61456E-13
 -1      3312 2.59882E+01-4.20772E+00 6.98643E-02-1.34451E+00-2.85048E-13 9.68878E-14
 -1      3313 2.71502E+01-3.23568E+00-8.86730E-02 3.16807E-01-7.80279E-14 2.30378E-13
 -1      3314 2.68118E+01-1.15948E-01-2.03230E-01-1.87313E+00-3.38576E-13 2.66336E-13
 -1      3315 2.70877E+01-1.54856E+00 5.27795E-02-1.13037E+00-1.87940E-13 2.90434E-13
 -1      3316 2.03799E+01 1.00106E+00 3.35162E-03 4.33430E-01-2.07091E-13-3.55969E-13
 -1      3317 2.03800E+01 8.36020E-01-1.15226E-03 6.27345E-01-1.86449E-13-3.29595E-13
 -1      3318 2.02260E+01 9.09104E-01-1.98558E-03 7.19362E-01-1.65218E-13-3.56478E-13
 -1      3319 1.23428E+01-1.55961E+00 9.77315E-02-4.76691E+00 2.93085E-13 4.30142E-13
 -1      3320 1.50101E+01-2.88843E+00 1.87434E-02-5.66524E+00 3.83041E-13 2.47816E-13
 -1      3321 1.72366E+01-2.76234E+00 9.62091E-02-4.94500E+00 3.33067E-13 1.16469E-13
 -1      3322 2.01890E+01 2.14047E+00 4.62464E-04-4.68169E-01-2.88118E-13-5.39129E-13
 -1      3323 2.60560E+01 3.91536E+00-1.97148E-01-1.64497E+00-6.37934E-13-2.91121E-14
 -1      3324 2.65510E+01 2.62486E+00 8.40223E-03-2.12396E+00-5.08468E-13 1.33199E-13
 -1      3325 1.12266E+01-7.45342E-01 8.55800E-02-3.59517E+00-1.72411E-13-7.39075E-13
 -1      3326 1.29861E+01-1.70170E+00 4.18611E-02-4.77540E+00-2.77799E-13-6.67216E-13
 -1      3327 2.29815E+01-4.57891E+00 1.04730E-01-3.69952E+00 4.10574E-13-2.39673E-13
 -1      3328 2.46217E+01-4.47527E+00-1.40229E-01-2.18304E+00 2.94161E-13-3.67480E-13
 -1      3329 9.54527E+00 1.46387E-01 9.15325E-02-1.55914E+00-4.54463E-14 1.77788E-13
 -1      3330 1.04954E+01-5.07904E-01 9.15831E-02-3.49999E+00 1.56354E-13 2.82607E-13
 -1      3331 2.61982E+01 3.61505E+00-1.09116E-01 2.03339E+00-3.98001E-13-6.23911E-13
 -1      3332 2.58765E+01 4.64066E+00-1.23852E-01 1.29312E+00-4.92745E-13-4.42198E-13
 -1      3333 1.91475E+01 2.91086E+00-5.22884E-03 8.38614E-02 1.15849E-13-6.31864E-13
 -1      3334 1.91642E+01 2.90090E+00-3.34062E-03 5.66449E-02 7.09667E-14-6.34758E-13
 -1      3335 1.91815E+01 2.68978E+00 6.99864E-03 6.25673E-02 1.11308E-13-6.00467E-13
 -1      3336 2.00487E+01 1.73536E+00 4.90596E-03-1.44834E-01 3.10954E-13-3.47645E-13
 -1      3337 1.98355E+01 2.20619E+00-1.85381E-03 7.98634E-02 3.57714E-13-4.30363E-13
 -1      3338 1.96970E+01 2.39203E+00-4.74713E-03-6.02620E-02-1.25124E-13-5.71998E-13
 -1      3339 1.98702E+01 2.21246E+00-4.28940E-03-1.19289E-01-1.89389E-13-5.78589E-13
 -1      3340 1.67874E+01-2.61804E+00 1.01451E-01 4.92242E+00-3.12216E-13 4.13336E-13
 -1      3341 1.54691E+01-1.82531E+00 6.36620E-02 4.52059E+00-3.10970E-13 4.93550E-13
 -1      3342 1.86769E+01-2.89432E+00 3.85731E-02 4.33343E+00-3.10307E-13 6.73905E-14
 -1      3343 1.10696E+01 5.02127E-01 1.05702E-01 9.80103E-01 1.02209E-13-8.70658E-13
 -1      3344 1.17088E+01 6.98326E-01 2.63869E-02-2.74942E-01 9.05092E-16-7.86107E-13
 -1      3345 1.25679E+01 4.86192E-01 4.09458E-02 1.59644E+00 1.41461E-13-7.45362E-13
 -1      3346 2.56568E+01-1.46746E+00-5.75952E-02-1.37702E+00-1.66976E-13 2.53464E-13
 -1      3347 2.51451E+01-5.78837E-01-4.76878E-02-1.86675E+00-1.69136E-13 2.27145E-13
 -1      3348 2.03619E+01 1.37786E+00 6.58755E-05 3.25851E-02-2.80610E-13-4.07521E-13
 -1      3349 2.03643E+01 1.17802E+00-2.05885E-03 2.52274E-01-2.48246E-13-3.90446E-13
 -1      3350 2.02223E+01 1.27075E+00-2.58614E-04 3.56429E-01-2.10359E-13-4.03647E-13
 -1      3351 2.00035E+01 2.79500E-03-2.24240E-05-2.96786E-03 1.31205E-13-4.27973E-13
 -1      3352 2.00033E+01 2.47363E-03 5.51244E-06-3.57109E-03 8.05687E-14-3.94481E-13
 -1      3353 2.49976E+01 4.01878E+00-7.18121E-02-9.75475E-01-5.51760E-13-1.20735E-13
 -1      3354 2.51397E+01 5.98265E-01-3.21000E-03-1.97501E+00-2.50362E-13 2.14464E-13
 -1      3355 2.49126E+01 4.03372E+00-7.40676E-02 9.33448E-01-4.16514E-13-3.82633E-13
 -1      3356 2.53255E+01 2.02287E+00-3.63420E-02 2.15662E+00-2.72504E-13-4.34031E-13
 -1      3357 2.17385E+01-4.02476E+00 6.44870E-02-3.80740E+00 3.56021E-13-2.17741E-13
 -1      3358 2.02226E+01 1.84235E+00-1.26035E-03-2.20710E-01-2.76709E-13-5.05228E-13
 -1      3359 2.00077E+01 6.42310E-02-1.05979E-02-2.18997E+00-3.47864E-14-2.09660E-13
 -1      3360 2.05259E+01 1.17276E-01 6.20809E-03-2.00035E+00-4.98862E-14-1.60175E-13
 -1      3361 2.03829E+01 2.96290E-01 3.13786E-03-1.90388E+00-9.90886E-15-1.45743E-13
 -1      3362 2.78596E+01 7.95173E-01-1.79984E-01 2.60372E+00 2.33848E-13 3.48749E-13
 -1      3363 2.63536E+01-2.87840E+00-3.36171E-02 6.46675E-01-8.06473E-14 3.26707E-13
 -1      3364 2.57031E+01-3.18606E+00 2.50354E-02-1.23026E-01-1.92148E-13 2.83143E-13
 -1      3365 2.80114E+01-7.88338E-01-4.61914E-02 1.91582E+00 1.24394E-13 3.11827E-13
 -1      3366 2.74846E+01-2.36584E+00-5.14242E-02 1.32323E+00-6.41501E-15 3.54279E-13
 -1      3367 2.59731E+01 1.29300E+00-2.98982E-02-2.01709E+00-3.60587E-13 1.56611E-13
 -1      3368 1.34530E+01-1.01110E+00 1.19301E-01 4.17713E+00 3.56265E-13-6.61499E-13
 -1      3369 1.35001E+01-3.07712E-01 4.44521E-02 3.28989E+00 2.55697E-13-6.57703E-13
 -1      3370 1.48385E+01-1.70602E+00-3.65123E-02 4.56894E+00 3.58453E-13-5.00829E-13
 -1      3371 1.93136E+01 2.76745E+00-4.59817E-03 7.69930E-02 2.10636E-13-5.53947E-13
 -1      3372 1.92891E+01 2.59436E+00 6.37114E-03 1.24059E-02 1.76950E-13-5.42122E-13
 -1      3373 1.94330E+01 2.65308E+00-5.48009E-03 1.10466E-01 2.67159E-13-5.39276E-13
 -1      3374 2.00038E+01 3.75878E-03-2.79199E-05-1.76137E-03 3.04269E-13-9.60989E-14
 -1      3375 2.00037E+01 3.50654E-03 1.76712E-06-2.36818E-03 2.82635E-13-1.21545E-13
 -1      3376 2.00042E+01 5.52233E-03 2.60704E-05-2.22471E-03 5.19794E-14-1.60239E-13
 -1      3377 2.04005E+01 1.05481E+00 3.20958E-03-5.00644E-01 2.76503E-13-2.26838E-13
 -1      3378 2.02431E+01 1.32242E+00-2.88662E-04-3.92319E-01 3.05183E-13-2.48957E-13
 -1      3379 2.03801E+01 9.40167E-01 4.78629E-05-7.32705E-01 2.36499E-13-2.18928E-13
 -1      3380 1.96467E+01 2.38781E+00-4.27278E-03 5.26261E-02 3.00240E-13-4.80884E-13
 -1      3381 2.00038E+01 4.41238E-03-2.45921E-05-6.56054E-04 3.42919E-13-6.45372E-14
 -1      3382 2.00038E+01 4.26281E-03-5.58041E-06-1.23325E-03 3.70229E-13-2.30130E-13
 -1      3383 2.00044E+01 6.76277E-03 4.83574E-05-1.18417E-03 3.54584E-13-7.84743E-14
 -1      3384 2.00044E+01 7.45289E-03 5.47798E-05-3.05157E-04 2.50259E-13-1.71688E-13
 -1      3385 2.60816E+01-2.41507E+00-2.80940E-03-4.78777E-01-9.66085E-14 2.36519E-13
 -1      3386 2.02878E+01-3.68941E+00 6.96766E-02-4.38645E+00-3.68483E-13-3.31698E-13
 -1      3387 2.23193E+01-3.75649E+00 4.10413E-02 3.12621E+00-3.54470E-13-1.84931E-13
 -1      3388 2.40016E+01-4.47072E+00-1.16162E-02 2.77947E+00 2.11681E-13 8.81795E-14
 -1      3389 2.26065E+01-4.02605E+00 8.19794E-02 3.36926E+00 2.71824E-13-3.90655E-14
 -1      3390 2.44683E+01-3.72106E+00 1.25133E-02 1.48614E+00 1.24375E-13 1.22482E-13
 -1      3391 1.95406E+01 2.55248E+00-3.11863E-03-3.53554E-02-7.51472E-14-6.13164E-13
 -1      3392 1.96668E+01 2.22857E+00 5.19474E-03 9.22268E-02-9.83943E-14-5.37732E-13
 -1      3393 1.94058E+01 2.67405E+00-5.09575E-03 1.45988E-02-1.51255E-14-6.15179E-13
 -1      3394 2.46595E+01-4.09477E+00 6.12765E-03-1.87503E+00-3.21989E-13 4.80293E-14
 -1      3395 2.03434E+01 7.74489E-01 1.49923E-03-1.11568E+00 2.13574E-13-2.06972E-13
 -1      3396 2.03395E+01 8.54856E-01 1.94829E-03-9.23617E-01 2.26075E-13-2.14202E-13
 -1      3397 2.01658E+01 1.06770E+00-2.32584E-04-8.25983E-01 2.34121E-13-2.17639E-13
 -1      3398 2.00729E+01 8.91898E-01-8.40620E-04-1.19517E+00 1.70432E-13-2.20259E-13
 -1      3399 1.11471E+01 6.09535E-01 5.03834E-02 5.65182E-01-1.45332E-13 2.82475E-13
 -1      3400 1.01855E+01 4.91557E-01 1.30550E-01-4.92916E-01-7.05382E-14 2.68049E-13
 -1      3401 1.15603E+01 5.41272E-01 3.88220E-02-1.34901E+00-7.18002E-15 1.53051E-13
 -1      3402 2.02998E+01 5.41812E-01 1.28743E-03-1.61574E+00 9.22911E-14-1.61395E-13
 -1      3403 1.99869E+01 7.16053E-01-2.08599E-03-1.54064E+00 9.97529E-14-2.08281E-13
 -1      3404 2.03778E+01 4.34228E-01 4.61087E-03-1.74859E+00 4.27478E-14-1.45118E-13
 -1      3405 2.51244E+01-3.55667E+00 2.69096E-02-9.88508E-01 1.76675E-13-4.06584E-13
 -1      3406 1.85896E+01-3.56631E+00 7.07619E-02 5.09233E+00 3.87683E-13-3.99528E-13
 -1      3407 1.21307E+01-7.71628E-02 1.32603E-01-2.61962E+00-1.22468E-13-7.27710E-13
 -1      3408 1.29515E+01-7.28442E-01 1.14643E-01-3.76860E+00 1.74007E-13 2.55740E-13
 -1      3409 2.47020E+01-3.69243E+00-3.72878E-02-1.31123E+00-2.81417E-13 7.71310E-14
 -1      3410 2.00027E+01 2.49699E-03-1.58507E-05 4.13880E-03-6.49490E-14 1.09834E-14
 -1      3411 2.00029E+01 2.35622E-03-2.28143E-05 3.88675E-03 1.18825E-13-5.56999E-14
 -1      3412 2.00037E+01 4.76731E-03 3.42209E-05 3.06581E-03 2.33529E-14-1.28284E-13
 -1      3413 2.00033E+01 4.31583E-03 5.76586E-05 3.48953E-03-2.62202E-14-5.79928E-14
 -1      3414 1.54688E+01-1.82105E+00 1.16578E-01-4.57287E+00-3.11882E-13-6.09596E-13
 -1      3415 2.00097E+01 1.54600E+00-2.70189E-03-3.81135E-01 2.61922E-13-3.24140E-13
 -1      3416 2.00340E+01 8.09282E-01 1.66245E-03 9.64368E-01-1.11815E-13-3.31446E-13
 -1      3417 2.00496E+01 6.44117E-01 1.92258E-03 1.11469E+00-7.39498E-14-2.67148E-13
 -1      3418 1.34286E+01-6.78934E-01 5.98831E-02 3.68176E+00-2.41411E-13 6.08305E-13
 -1      3419 1.19505E+01 1.23269E-01 4.79258E-02 2.40219E+00-2.30795E-13 5.28869E-13
 -1      3420 2.00251E+01 1.76742E+00 3.34999E-03 1.16784E-01-1.92907E-13-5.09564E-13
 -1      3421 2.00771E+01 1.91909E+00-4.55662E-04-8.24443E-02-2.24946E-13-5.21439E-13
 -1      3422 1.64004E+01-1.94040E+00 6.64533E-02-4.52519E+00 2.91692E-13 7.38472E-14
 -1      3423 1.84955E+01-3.01992E+00-5.16054E-02-4.52258E+00 3.24043E-13-9.61176E-14
 -1      3424 2.53510E+01-2.67797E+00 2.16498E-03-2.20310E-01-4.33594E-14 2.16114E-13
 -1      3425 2.00409E+01 4.71869E-01 2.72694E-03 1.26919E+00-4.65402E-14-2.37588E-13
 -1      3426 2.00975E+01 2.84943E-01 3.79104E-03 1.39147E+00-2.04502E-14-2.22647E-13
 -1      3427 1.98065E+01 6.77508E-01-2.76963E-03 1.20218E+00-3.32369E-14-2.95888E-13
 -1      3428 2.01319E+01 7.69620E-02 4.86764E-03 1.53620E+00-3.22293E-14-2.25193E-13
 -1      3429 2.02570E+01-1.61759E-01 5.63920E-03 1.62699E+00 7.49840E-15-2.36878E-13
 -1      3430 1.98122E+01 2.74323E-01-6.62302E-03 1.51634E+00-2.46494E-14-2.98071E-13
 -1      3431 2.03782E+01-4.33122E-01 9.38618E-03 1.75552E+00 5.51488E-14-2.13477E-13
 -1      3432 2.06034E+01-7.47960E-01 6.71136E-03 1.79934E+00 6.89641E-14-2.28393E-13
 -1      3433 1.99368E+01-2.40518E-01-1.23728E-02 1.81842E+00 3.64375E-14-2.70847E-13
 -1      3434 2.08697E+01-1.09488E+00 1.74689E-02 1.88846E+00 9.86177E-14-1.71499E-13
 -1      3435 2.12296E+01-1.49256E+00 6.06899E-03 1.85216E+00 1.32655E-13-1.30998E-13
 -1      3436 2.02749E+01-9.22491E-01-1.95830E-02 2.08506E+00 9.23703E-14-2.32795E-13
 -1      3437 2.17235E+01-1.89691E+00 3.18216E-02 1.84795E+00 1.20069E-13-6.02970E-14
 -1      3438 2.22420E+01-2.33335E+00 7.85415E-03 1.67328E+00 9.56882E-14-2.75308E-14
 -1      3439 2.09356E+01-1.80564E+00-3.57966E-02 2.24767E+00 1.73374E-13-1.27206E-13
 -1      3440 2.32034E+01-3.00682E+00 1.81533E-02 1.53912E+00 1.21245E-13 9.54122E-14
 -1      3441 2.38709E+01-3.19576E+00-3.82116E-03 1.13802E+00 9.62496E-14 1.47060E-13
 -1      3442 2.47408E+01-3.12224E+00-9.12219E-03 4.32329E-01 5.77192E-14 1.90332E-13
 -1      3443 1.50484E+01-1.04892E+00 5.08002E-02-4.00333E+00-2.29133E-13-5.77177E-13
 -1      3444 1.70373E+01-2.18697E+00-1.67437E-02-4.55026E+00-2.79939E-13-5.35127E-13
 -1      3445 2.55378E+01-2.00212E+00-5.21876E-03 1.04344E+00-8.42069E-14-4.68783E-13
 -1      3446 2.49155E+01-2.66272E+00-7.20389E-02 3.61232E-01 2.56739E-14-4.22915E-13
 -1      3447 2.37660E+01-2.78930E+00 1.85907E-02-6.58323E-01 2.29072E-13-3.67662E-13
 -1      3448 2.31016E+01-2.64608E+00 3.93263E-02-1.14713E+00 3.00105E-13-2.52512E-13
 -1      3449 2.22704E+01-2.29615E+00-2.32576E-03-1.38717E+00 2.41720E-13-1.88696E-13
 -1      3450 2.17714E+01-1.90245E+00 2.92966E-02-1.59496E+00 2.48101E-13-1.57381E-13
 -1      3451 2.22345E+01-2.72186E+00-2.38888E-02-1.86373E+00 3.11627E-13-2.00160E-13
 -1      3452 2.12315E+01-1.51175E+00 2.01017E-03-1.63632E+00 1.43602E-13-1.03975E-13
 -1      3453 2.08575E+01-1.12998E+00 1.68371E-02-1.69317E+00 1.01718E-13-4.64607E-14
 -1      3454 2.09729E+01-1.84599E+00-3.41531E-02-2.04719E+00 2.03444E-13-1.77992E-13
 -1      3455 2.05538E+01-8.01155E-01 6.17528E-03-1.62450E+00 1.03390E-13-1.26505E-13
 -1      3456 2.03022E+01-5.10830E-01 8.88636E-03-1.60302E+00 1.26780E-13-7.84701E-14
 -1      3457 2.02137E+01-9.83527E-01-1.94069E-02-1.92652E+00 1.17510E-13-1.59026E-13
 -1      3458 2.01489E+01-2.70799E-01 6.04188E-03-1.49767E+00 5.51812E-14-1.51346E-13
 -1      3459 1.99945E+01-7.31528E-02 3.91745E-03-1.43732E+00 8.53625E-14-2.13725E-13
 -1      3460 1.98057E+01-3.54164E-01-1.11252E-02-1.70362E+00 7.96177E-14-3.29493E-13
 -1      3461 1.99341E+01 8.36668E-02 4.95762E-03-1.32490E+00 7.11690E-14-2.14578E-13
 -1      3462 1.98464E+01 2.04111E-01 1.06497E-03-1.24810E+00 1.44817E-13-2.46204E-13
 -1      3463 1.96186E+01 6.72994E-02-5.81281E-03-1.45830E+00 3.47568E-14-2.90966E-13
 -1      3464 1.98389E+01 2.94915E-01 3.76241E-03-1.14145E+00 2.22317E-13-2.55504E-13
 -1      3465 1.97933E+01 3.58013E-01-4.83154E-04-1.06025E+00 2.01923E-13-1.57618E-13
 -1      3466 1.95637E+01 3.20662E-01-2.60197E-03-1.22566E+00 1.25644E-13-9.79358E-14
 -1      3467 1.98132E+01 4.01230E-01 2.81197E-03-9.63804E-01 1.12743E-13-2.37792E-13
 -1      3468 1.97924E+01 4.24800E-01-1.25497E-03-8.84692E-01 9.54523E-14-1.95493E-13
 -1      3469 1.95807E+01 4.51493E-01-7.62418E-04-1.01689E+00 1.63624E-13-2.13540E-13
 -1      3470 1.98242E+01 4.36079E-01 2.14321E-03-7.99624E-01 8.84831E-14-2.51378E-13
 -1      3471 1.98168E+01 4.34231E-01-1.57728E-03-7.26189E-01 5.92550E-14-2.09971E-13
 -1      3472 1.96325E+01 4.98596E-01 2.22990E-04-8.33861E-01 6.48658E-14-2.36154E-13
 -1      3473 1.98517E+01 4.25671E-01 1.68547E-03-6.52493E-01 3.84114E-14-2.16961E-13
 -1      3474 1.98508E+01 4.08877E-01-1.63907E-03-5.86647E-01 3.23283E-14-1.62558E-13
 -1      3475 1.96969E+01 4.92015E-01 6.86410E-04-6.75626E-01 5.13614E-14-2.52626E-13
 -1      3476 1.98839E+01 3.89245E-01 1.36652E-03-5.23810E-01-2.36080E-14-1.03397E-13
 -1      3477 1.98856E+01 3.64855E-01-1.55412E-03-4.66391E-01-5.06025E-14-1.81140E-13
 -1      3478 1.97613E+01 4.53869E-01 8.44163E-04-5.40464E-01-3.47510E-14-1.54469E-13
 -1      3479 1.99147E+01 3.40159E-01 1.13234E-03-4.13640E-01-9.61698E-14-2.27899E-13
 -1      3480 1.99170E+01 3.13064E-01-1.39295E-03-3.64760E-01-5.36766E-14-3.56600E-13
 -1      3481 1.98194E+01 3.99686E-01 8.34433E-04-4.26443E-01-5.77346E-14-1.99931E-13
 -1      3482 1.99411E+01 2.87199E-01 9.48242E-04-3.21166E-01-1.15574E-13-3.56526E-13
 -1      3483 1.99430E+01 2.60464E-01-1.19956E-03-2.80447E-01-6.81082E-14-3.97706E-13
 -1      3484 1.98686E+01 3.39837E-01 7.42185E-04-3.31544E-01-1.03659E-13-3.08227E-13
 -1      3485 1.99623E+01 2.35787E-01 7.94699E-04-2.44985E-01 6.47290E-14-3.69137E-13
 -1      3486 1.99635E+01 2.11177E-01-1.00110E-03-2.11736E-01 4.55842E-14-2.12592E-13
 -1      3487 1.99082E+01 2.80860E-01 6.17805E-04-2.53687E-01 5.67323E-14-2.61917E-13
 -1      3488 1.99783E+01 1.88969E-01 6.61919E-04-1.83348E-01-6.13251E-14-5.06696E-14
 -1      3489 1.99788E+01 1.67360E-01-8.13622E-04-1.56706E-01-7.29342E-14-9.91957E-15
 -1      3490 1.99389E+01 2.26544E-01 4.89720E-04-1.90761E-01 1.06569E-13-1.08802E-13
 -1      3491 1.99898E+01 1.48189E-01 5.45510E-04-1.34342E-01-1.74047E-13-1.73431E-14
 -1      3492 1.99898E+01 1.29874E-01-6.45820E-04-1.13378E-01-2.33242E-13-6.00823E-14
 -1      3493 1.99618E+01 1.78789E-01 3.72665E-04-1.40675E-01-9.69770E-14-8.72850E-15
 -1      3494 1.99977E+01 1.13846E-01 4.43658E-04-9.60453E-02-1.76449E-13-1.15423E-14
 -1      3495 1.99972E+01 9.87584E-02-5.01473E-04-7.98421E-02-1.02158E-13 9.27123E-15
 -1      3496 1.99784E+01 1.38246E-01 2.73061E-04-1.01431E-01-2.04226E-13-1.14687E-13
 -1      3497 2.00027E+01 8.57080E-02 3.55520E-04-6.66316E-02 6.99362E-14 5.64192E-14
 -1      3498 2.00019E+01 7.35760E-02-3.81243E-04-5.43334E-02 2.35171E-13 1.14541E-13
 -1      3499 1.99899E+01 1.04783E-01 1.92493E-04-7.11700E-02 4.75141E-14 2.49856E-13
 -1      3500 2.00055E+01 6.31890E-02 2.80358E-04-4.44418E-02 1.49837E-13 1.60516E-13
 -1      3501 2.00045E+01 5.36384E-02-2.83743E-04-3.52841E-02 9.43085E-14 8.79238E-14
 -1      3502 1.99974E+01 7.78179E-02 1.29991E-04-4.82257E-02 1.62869E-13 3.47730E-13
 -1      3503 2.00067E+01 4.55357E-02 2.17327E-04-2.80191E-02 3.95333E-14-2.61113E-15
 -1      3504 2.00057E+01 3.81564E-02-2.06142E-04-2.13414E-02 9.07979E-14 9.80188E-14
 -1      3505 2.00020E+01 5.65413E-02 8.34285E-05-3.11401E-02-4.24231E-15 2.27232E-13
 -1      3506 2.00069E+01 3.19422E-02 1.66304E-04-1.61171E-02 2.69036E-13 2.40981E-14
 -1      3507 2.00059E+01 2.63157E-02-1.48779E-04-1.13660E-02 2.46038E-13 1.71235E-13
 -1      3508 2.00045E+01 4.00604E-02 4.92944E-05-1.86674E-02 9.52315E-14 6.62661E-14
 -1      3509 2.00064E+01 2.15964E-02 1.26470E-04-7.72239E-03 1.73667E-13 7.67179E-14
 -1      3510 2.00055E+01 1.73585E-02-1.01969E-04-4.46657E-03 1.71529E-13 1.08422E-13
 -1      3511 2.00055E+01 2.74376E-02 1.71369E-05-9.76372E-03 1.27649E-13-2.58728E-14
 -1      3512 2.00055E+01 1.37828E-02 8.50350E-05-2.00612E-03 5.10351E-14 1.05459E-14
 -1      3513 2.00047E+01 1.06219E-02-5.05509E-05 9.00267E-05-4.29373E-14-1.19665E-13
 -1      3514 2.00054E+01 1.79444E-02 1.21665E-05-3.63066E-03-2.97355E-16-1.22124E-13
 -1      3515 1.96707E+01-5.66399E-01 1.88027E-02-2.67015E+00-1.59458E-13-2.38705E-13
 -1      3516 1.94341E+01-1.66934E-01 4.13216E-03-2.51115E+00-1.01981E-13-2.42881E-13
 -1      3517 2.41094E+01-3.27023E+00 3.22757E-02-1.05817E+00 2.01963E-13-3.21799E-13
 -1      3518 1.93994E+01 6.62736E-01-4.53629E-03 1.48757E+00-1.85483E-13-2.21844E-14
 -1      3519 1.94040E+01 6.06841E-01 6.12938E-03 1.61893E+00-1.88859E-13 6.32827E-14
 -1      3520 1.92888E+01 5.05366E-01-3.90336E-03 1.78653E+00-2.03261E-13 7.84304E-14
 -1      3521 1.93450E+01 3.61595E-01 1.04151E-02 1.93079E+00-9.24823E-14-5.17654E-14
 -1      3522 1.88616E+01 6.83925E-01 1.76184E-03 1.66304E+00-2.03372E-13 2.17000E-14
 -1      3523 2.58871E+01-1.00395E+00-3.51982E-02 1.57009E+00-9.35719E-14-5.28005E-13
 -1      3524 2.66949E+01 1.30739E-01 5.09232E-04 2.02984E+00-1.47986E-13-6.75071E-13
 -1      3525 1.92621E+01 1.48568E-01-9.40997E-04 2.14250E+00-8.64205E-14-1.07668E-13
 -1      3526 1.94248E+01-1.36031E-01 1.55121E-02 2.29629E+00-1.46798E-13-9.71272E-14
 -1      3527 1.86562E+01 3.95982E-01-2.07719E-03 2.04367E+00-1.85033E-13-4.62846E-16
 -1      3528 1.95299E+01 6.97586E-01-4.34737E-03 1.23271E+00-2.10098E-13-6.02669E-14
 -1      3529 1.95149E+01 6.94258E-01 3.75434E-03 1.35096E+00-2.32319E-13-8.14429E-14
 -1      3530 1.90880E+01 7.92626E-01 3.17176E-03 1.36525E+00-2.15374E-13-6.11270E-14
 -1      3531 1.96512E+01 6.63098E-01-3.89137E-03 1.01298E+00-1.80658E-13-5.67285E-14
 -1      3532 1.96323E+01 6.88577E-01 2.51015E-03 1.11842E+00-1.43538E-13-5.39860E-14
 -1      3533 1.92976E+01 7.94306E-01 3.39149E-03 1.12292E+00-2.08668E-13-1.96849E-13
 -1      3534 1.97522E+01 5.93791E-01-3.36493E-03 8.23164E-01-1.87921E-14-6.61352E-14
 -1      3535 1.97362E+01 6.32942E-01 1.88861E-03 9.15901E-01-1.05339E-13-9.24984E-14
 -1      3536 1.94754E+01 7.37043E-01 3.06881E-03 9.19588E-01-1.30691E-13-2.55434E-13
 -1      3537 1.98310E+01 5.10977E-01-2.83939E-03 6.60267E-01 1.99014E-14-1.07267E-13
 -1      3538 1.98199E+01 5.54589E-01 1.57037E-03 7.40481E-01 1.03343E-13-5.70104E-14
 -1      3539 1.96187E+01 6.51479E-01 2.55370E-03 7.46416E-01-2.66738E-14-2.45148E-13
 -1      3540 1.98898E+01 4.27117E-01-2.34939E-03 5.22122E-01 1.74435E-14-8.28052E-14
 -1      3541 1.98833E+01 4.69900E-01 1.37999E-03 5.90274E-01-2.81718E-14-1.02305E-13
 -1      3542 1.97299E+01 5.56477E-01 2.01367E-03 5.98747E-01 1.25457E-14-2.17517E-13
 -1      3543 1.99319E+01 3.48943E-01-1.91152E-03 4.06662E-01 5.03976E-14 6.41337E-14
 -1      3544 1.99291E+01 3.88119E-01 1.23308E-03 4.63533E-01 1.05131E-14-4.99099E-15
 -1      3545 1.98138E+01 4.63094E-01 1.52813E-03 4.73758E-01-8.30750E-14-1.96371E-13
 -1      3546 1.99612E+01 2.79641E-01-1.53169E-03 3.11667E-01-1.38170E-15 1.28107E-13
 -1      3547 1.99610E+01 3.13976E-01 1.09474E-03 3.58300E-01 1.53387E-13 2.17420E-13
 -1      3548 1.98756E+01 3.77274E-01 1.12518E-03 3.69261E-01 6.38405E-14-2.79581E-14
 -1      3549 1.99809E+01 2.20284E-01-1.20966E-03 2.34754E-01 8.08184E-14 7.34787E-15
 -1      3550 1.99823E+01 2.49454E-01 9.55449E-04 2.72349E-01 1.93063E-14 4.52858E-14
 -1      3551 1.99201E+01 3.01755E-01 8.06965E-04 2.83177E-01 6.35708E-14 1.14455E-13
 -1      3552 1.99936E+01 1.70746E-01-9.41790E-04 1.73475E-01 8.30366E-14 1.02792E-13
 -1      3553 1.99958E+01 1.94939E-01 8.16710E-04 2.03289E-01 1.39821E-13-4.66727E-14
 -1      3554 1.99515E+01 2.37338E-01 5.64273E-04 2.13373E-01 1.16659E-13 1.19835E-13
 -1      3555 2.00013E+01 1.30265E-01-7.22690E-04 1.25428E-01 2.82203E-14 7.51604E-14
 -1      3556 2.00039E+01 1.49931E-01 6.83336E-04 1.48693E-01 2.68968E-14 2.67569E-14
 -1      3557 1.99731E+01 1.83711E-01 3.84110E-04 1.57677E-01 8.47628E-14-2.48148E-14
 -1      3558 2.00057E+01 9.77841E-02-5.46260E-04 8.83597E-02-7.02259E-14 1.13639E-13
 -1      3559 2.00083E+01 1.13490E-01 5.59952E-04 1.06222E-01-1.23659E-14 5.51526E-14
 -1      3560 1.99875E+01 1.39962E-01 2.53410E-04 1.13955E-01-2.08515E-14 1.10463E-13
 -1      3561 2.00078E+01 7.21519E-02-4.06364E-04 6.02333E-02 5.80556E-14 1.29578E-13
 -1      3562 2.00102E+01 8.44926E-02 4.49735E-04 7.37206E-02 2.57101E-14 1.77533E-13
 -1      3563 1.99967E+01 1.04905E-01 1.60627E-04 8.01937E-02-4.21487E-14 1.60414E-13
 -1      3564 2.00084E+01 5.22381E-02-2.97138E-04 3.92631E-02 2.15359E-14 9.52291E-14
 -1      3565 2.00106E+01 6.17857E-02 3.54218E-04 4.92674E-02 6.78119E-14 2.19990E-13
 -1      3566 2.00023E+01 7.72709E-02 9.62288E-05 5.45621E-02-4.05188E-15 1.19994E-13
 -1      3567 2.00081E+01 3.69933E-02-2.13219E-04 2.39270E-02 1.76225E-13 6.15487E-14
 -1      3568 2.00100E+01 4.42737E-02 2.73632E-04 3.12025E-02 7.78063E-14 2.98237E-14
 -1      3569 2.00053E+01 5.58238E-02 5.27749E-05 3.54493E-02 1.58024E-13 1.31527E-13
 -1      3570 2.00072E+01 2.54729E-02-1.50214E-04 1.29590E-02-6.90197E-14 2.92155E-15
 -1      3571 2.00088E+01 3.09568E-02 2.07665E-04 1.81273E-02 1.02604E-13-8.19169E-14
 -1      3572 2.00065E+01 3.94160E-02 2.39215E-05 2.14767E-02 1.39446E-13 1.42050E-13
 -1      3573 2.00061E+01 1.68417E-02-1.02533E-04 5.33763E-03-2.48833E-13 1.66384E-13
 -1      3574 2.00074E+01 2.09411E-02 1.55565E-04 8.89269E-03-1.02252E-13 1.14043E-13
 -1      3575 2.00067E+01 2.70078E-02 2.82889E-06 1.14901E-02-1.73146E-13 3.66320E-13
 -1      3576 2.00049E+01 1.03512E-02-6.98134E-05 2.86349E-04-1.51769E-13-4.13696E-16
 -1      3577 2.00059E+01 1.34108E-02 1.06589E-04 2.58166E-03-2.65137E-13 4.83992E-14
 -1      3578 2.00061E+01 1.76901E-02-8.80312E-06 4.55197E-03-1.93129E-13 4.08696E-13
 -1      3579 2.00036E+01 5.48524E-03-2.99427E-05-2.88945E-03-1.52050E-13-1.29266E-13
 -1      3580 2.00044E+01 7.81176E-03 7.46965E-05-1.48395E-03-1.36913E-13-2.13869E-14
 -1      3581 2.00051E+01 1.07979E-02 1.22105E-05 1.13731E-05-1.09754E-13 3.02587E-13
 -1      3582 2.00029E+01 1.60000E-03-1.36740E-05-4.10263E-03-6.60851E-14-3.20499E-14
 -1      3583 2.00024E+01 1.27801E-03 4.48284E-06-4.57151E-03-1.15893E-13 7.70419E-14
 -1      3584 2.00027E+01 2.26749E-03-2.62089E-06-4.35160E-03-1.56523E-13-7.28685E-14
 -1      3585 2.00036E+01 3.87496E-03-4.96217E-06-3.33691E-03-1.00549E-14-1.62080E-13
 -1      3586 2.00044E+01 1.05088E-02-2.29688E-05 4.38776E-04 1.01658E-13-4.01887E-13
 -1      3587 2.00044E+01 1.06538E-02-3.93249E-05 1.43026E-04 1.82296E-13-3.21745E-13
 -1      3588 1.94479E+01-4.99877E-01 1.15230E-02 2.55567E+00-1.94646E-13-9.22985E-14
 -1      3589 1.97779E+01-9.99232E-01 1.65266E-02 2.70916E+00-2.14123E-13-7.45788E-14
 -1      3590 1.85589E+01-1.89954E-01-1.30960E-02 2.54250E+00-1.76012E-13-1.00652E-13
 -1      3591 2.13086E+01-3.03824E+00 6.20693E-02 3.30199E+00-3.70486E-13-1.35710E-13
 -1      3592 1.95845E+01 2.24657E+00 2.89032E-03-7.95957E-02 2.48164E-13-4.69145E-13
 -1      3593 2.57826E+01 2.41101E+00-4.75371E-02 2.09531E+00-2.99150E-13-6.01359E-13
 -1      3594 1.92141E+01 2.84951E+00-5.25965E-03 6.15562E-02 5.18242E-14-6.39099E-13
 -1      3595 1.92955E+01 2.78286E+00-2.97271E-03 2.42685E-02 1.23245E-14-6.33623E-13
 -1      3596 1.93888E+01 2.49544E+00 5.70357E-03 1.11062E-01 6.43360E-15-5.94635E-13
 -1      3597 2.00581E+01 1.15036E+00 5.13951E-04 6.18692E-01-1.35668E-13-3.94623E-13
 -1      3598 2.00564E+01 9.76378E-01 3.08667E-04 7.98403E-01-1.24397E-13-3.75405E-13
 -1      3599 1.98505E+01 1.03470E+00-1.47352E-03 8.73836E-01-9.29685E-14-3.42760E-13
 -1      3600 2.31753E+01-3.81407E+00 8.62826E-02-2.91947E+00-3.35038E-13-1.41397E-14
 -1      3601 1.30698E+01-4.09814E-02 3.78210E-02-2.91727E+00 1.09635E-15 1.24012E-13
 -1      3602 1.46528E+01-1.02120E+00 2.43537E-02-4.08954E+00 1.66506E-13 2.36464E-13
 -1      3603 1.99224E+01-3.72002E+00-8.04330E-02 4.48453E+00 3.36720E-13-2.86847E-13
 -1      3604 1.75894E+01-2.55408E+00 1.22942E-01 4.81461E+00 3.49141E-13-3.95892E-13
 -1      3605 1.23685E+01 4.35913E-01 4.71140E-02-1.83426E+00-9.56579E-14-7.04187E-13
 -1      3606 1.34465E+01-1.98521E-01 2.23442E-02-3.16205E+00-1.51093E-13-6.55628E-13
 -1      3607 2.06940E+01-3.38106E+00 9.27619E-02-3.89977E+00 3.14387E-13-2.28998E-13
 -1      3608 2.23949E+01-3.84360E+00-2.66885E-02-2.92847E+00 3.10417E-13-1.97299E-13
 -1      3609 2.12196E+01-3.58929E+00-5.23563E-02-3.72249E+00-3.26801E-13-1.61163E-13
 -1      3610 2.18061E+01-3.15887E+00 1.57087E-02-3.13207E+00-3.13987E-13-7.66136E-14
 -1      3611 2.09749E+01-2.34222E+00 5.11345E-02-3.19228E+00-2.67378E-13-1.23035E-13
 -1      3612 1.91086E+01-2.76292E+00 8.85384E-02-4.36836E+00-3.14609E-13-3.90884E-13
 -1      3613 1.34040E+01 4.67733E-01 2.72807E-02 1.98642E+00-1.05015E-13 4.36092E-13
 -1      3614 1.21371E+01 6.50041E-01 9.07966E-02 1.42265E+00-9.55746E-14 4.03864E-13
 -1      3615 1.25907E+01 8.28958E-01-3.46980E-03 4.29399E-01-5.31710E-14 2.99188E-13
 -1      3616 1.97537E+01-2.76958E+00 2.45179E-02-3.74070E+00 2.59726E-13-1.10824E-13
 -1      3617 1.66869E+01-1.51393E+00-1.23799E-02 3.95277E+00-3.11542E-13 3.51743E-13
 -1      3618 1.50460E+01-1.03048E+00 7.97300E-02 3.91517E+00-3.10533E-13 5.21812E-13
 -1      3619 1.48999E+01-4.10039E-01 2.16403E-02 3.27321E+00-2.95243E-13 4.54851E-13
 -1      3620 1.86179E+01-1.99675E+00 6.08989E-02-3.94128E+00-2.60103E-13-4.12722E-13
 -1      3621 1.36219E+01 3.75857E-01 9.74372E-02 2.34388E+00 1.92632E-13-6.35964E-13
 -1      3622 1.35128E+01 6.41330E-01 1.61204E-03 1.40143E+00 1.18214E-13-6.70033E-13
 -1      3623 2.00421E+01 1.52996E+00-1.61652E-03 2.78863E-01-1.86441E-13-4.70870E-13
 -1      3624 2.00519E+01 1.33707E+00-1.23194E-04 4.64823E-01-1.59568E-13-4.43620E-13
 -1      3625 1.98730E+01 1.40235E+00-9.25574E-04 5.47283E-01-9.93185E-14-4.28813E-13
 -1      3626 1.98454E+01 1.82643E+00 6.63619E-05 2.30188E-01-1.45538E-13-5.00012E-13
 -1      3627 2.23432E+01-3.11320E+00-3.91580E-02 2.33182E+00 1.96516E-13 3.78968E-14
 -1      3628 1.52671E+01-3.68833E-01 6.93406E-02-3.26120E+00-1.69748E-13-5.65787E-13
 -1      3629 1.43163E+01-1.46419E-01-3.19861E-02 2.93681E+00 2.43394E-13-5.72233E-13
 -1      3630 1.87490E+01 1.32505E-01-7.98817E-03-2.43111E+00-1.02417E-13-3.06685E-13
 -1      3631 1.94899E+01 1.41417E-01 1.29995E-02-2.26737E+00-5.96083E-14-2.52930E-13
 -1      3632 1.94002E+01 3.78393E-01-1.65148E-03-2.10602E+00-3.37943E-14-2.61684E-13
 -1      3633 2.00043E+01 8.33666E-03 6.12885E-05 1.39636E-03 2.61903E-15-1.71824E-13
 -1      3634 2.00037E+01 6.13599E-03-1.22637E-05 2.58204E-03 1.19947E-14-1.20981E-13
 -1      3635 2.00039E+01 6.45649E-03-2.78586E-05 2.37700E-03 5.94452E-14-1.32173E-13
 -1      3636 2.00048E+01 1.12530E-02-3.74468E-07 7.73791E-05-2.81377E-14-2.50721E-13
 -1      3637 2.33223E+01-3.71837E+00-1.97248E-02-2.09156E+00 3.44680E-13-2.10371E-13
 -1      3638 1.99452E+01 4.68036E-01-4.75626E-03-1.87398E+00 9.91763E-15-1.92506E-13
 -1      3639 1.99480E+01 1.36866E+00 1.27248E-04-6.09404E-01 2.18550E-13-2.89658E-13
 -1      3640 1.97618E+01 1.75838E+00 4.63758E-03-3.77263E-01 2.33167E-13-3.78028E-13
 -1      3641 2.00041E+01 6.68080E-03-2.47916E-05 2.16612E-03 8.91284E-14-1.98087E-13
 -1      3642 1.68737E+01-1.69929E+00 7.74047E-02 4.18026E+00 3.07615E-13-4.59893E-13
 -1      3643 2.10146E+01-2.29907E+00 3.14272E-02 2.90763E+00-3.50418E-13-2.50351E-13
 -1      3644 1.97452E+01-2.74026E+00-9.39609E-03 3.84530E+00-3.36103E-13-2.21189E-13
 -1      3645 1.85780E+01-2.02323E+00 5.03568E-02 3.86073E+00-3.08845E-13-3.76539E-14
 -1      3646 2.03639E+01-1.63583E+00 4.24710E-02 2.90801E+00-2.76395E-13-2.12326E-13
 -1      3647 2.00043E+01 6.22505E-03-1.31723E-05-2.26508E-03-2.02791E-14-7.80855E-14
 -1      3648 2.00039E+01 5.33564E-03-4.07194E-06-2.84861E-03-1.99658E-13 2.52472E-14
 -1      3649 2.00030E+01 3.37459E-03 3.19695E-05-3.89067E-03-1.16096E-13-1.48169E-13
 -1      3650 2.00044E+01 9.96383E-03-4.65684E-05 5.98986E-04 1.79125E-13-3.76259E-13
 -1      3651 2.00048E+01 1.37236E-02 9.60219E-05 1.65011E-04 1.45285E-13-3.07592E-13
 -1      3652 2.00044E+01 9.51565E-03-1.40512E-05 9.50000E-04 1.87267E-13-4.05035E-13
 -1      3653 2.00044E+01 1.06639E-02-3.22305E-05 5.68855E-05 1.76362E-13-1.62538E-13
 -1      3654 2.00045E+01 1.04695E-02-2.64567E-05-2.49259E-04 3.20797E-13-2.71077E-13
 -1      3655 2.00048E+01 1.42697E-02 9.63118E-05 8.76274E-05 2.43559E-13-2.64320E-13
 -1      3656 1.90046E+01-1.26978E+00-3.27916E-02 3.12625E+00-2.70526E-13-1.74757E-13
 -1      3657 2.14672E+01-3.45481E+00 3.31299E-02 3.43673E+00 2.89886E-13-1.24823E-13
 -1      3658 2.00045E+01 7.83950E-03 2.73316E-06-1.63118E-03 1.02854E-13-7.10878E-14
 -1      3659 2.00048E+01 9.43801E-03-1.04269E-05-1.12963E-03 8.96756E-15 8.30910E-14
 -1      3660 1.91229E+01 2.46843E+00-6.26158E-03 3.73499E-02 1.17209E-13-5.67883E-13
 -1      3661 1.91119E+01 2.48998E+00-1.98871E-03 6.84569E-02 8.90001E-14-5.98740E-13
 -1      3662 1.92181E+01 2.65270E+00 6.27894E-03 9.93586E-02 5.71088E-14-6.10774E-13
 -1      3663 2.00046E+01 8.47615E-03-5.77231E-05-1.16144E-03 1.94938E-13-1.43062E-14
 -1      3664 1.98001E+01 1.01291E+00 2.35792E-03-1.21061E+00 1.40341E-13-2.61921E-13
 -1      3665 1.98411E+01 1.09262E+00-2.08280E-03-1.03585E+00 1.79186E-13-2.65549E-13
 -1      3666 2.03587E+01-1.67523E+00 2.14276E-02-3.02225E+00-2.50016E-13-1.82563E-13
 -1      3667 1.98840E+01-1.05550E+00 2.15644E-02-2.91334E+00-2.19652E-13-2.12242E-13
 -1      3668 1.88324E+01-7.13602E-01-2.70156E-02-2.98788E+00-2.04966E-13-2.62798E-13
 -1      3669 1.95277E+01-1.98092E+00-3.44771E-02-3.54222E+00-2.82315E-13-2.72553E-13
 -1      3670 1.95141E+01 1.99790E+00-5.26495E-03-2.30009E-01 2.11533E-13-4.41362E-13
 -1      3671 1.93229E+01 2.26816E+00 3.68659E-03-1.42802E-01 1.82367E-13-4.74037E-13
 -1      3672 1.94544E+01 1.81043E+00 1.46886E-04-4.35119E-01 1.85308E-13-4.08957E-13
 -1      3673 1.96471E+01 8.24973E-01 4.84184E-03-1.55981E+00 6.57456E-14-2.64972E-13
 -1      3674 1.96752E+01 9.19316E-01-2.90139E-03-1.38797E+00 1.05456E-13-2.65875E-13
 -1      3675 1.94541E+01 1.12319E+00 2.67971E-03-1.23879E+00 1.35536E-13-3.15339E-13
 -1      3676 2.00043E+01 7.88265E-03 2.79471E-06 1.73484E-03 2.00688E-13-1.56561E-13
 -1      3677 2.00045E+01 8.53413E-03-4.69754E-05 1.24439E-03 1.89574E-13-2.91470E-13
 -1      3678 2.00048E+01 1.21340E-02 4.27388E-05 4.63207E-04 1.28596E-13-3.10310E-13
 -1      3679 2.00046E+01 9.95919E-03 1.13706E-05 1.03977E-03 6.45770E-14-2.32406E-13
 -1      3680 1.29396E+01 4.60770E-01 7.80348E-02-2.17935E+00-1.19486E-13 3.43649E-14
 -1      3681 1.44520E+01 1.96643E-01 1.43691E-02-2.51109E+00-9.06920E-14-2.44544E-14
 -1      3682 1.30159E+01 7.31279E-01 1.18688E-02-1.23073E+00-1.49596E-13 2.04441E-13
 -1      3683 1.31058E+01 7.23804E-01 5.30270E-02-9.14586E-01-4.51180E-14-7.06022E-13
 -1      3684 1.63335E+01-1.14885E+00 6.01745E-02-3.76930E+00 1.67370E-13 7.82742E-14
 -1      3685 1.95084E+01 2.13974E+00-2.13476E-03 2.30086E-01-5.04753E-14-5.01823E-13
 -1      3686 1.96664E+01 1.98468E+00-2.73926E-03 2.22199E-01-1.08555E-13-4.89739E-13
 -1      3687 1.96972E+01 1.76951E+00 3.93374E-03 3.75777E-01-1.06901E-13-4.59021E-13
 -1      3688 2.22381E+01-3.24698E+00-1.93673E-02-2.41683E+00 3.23821E-13-2.24668E-13
 -1      3689 1.92350E+01 2.33980E+00-6.33855E-03-6.79461E-02 1.65119E-13-5.00804E-13
 -1      3690 1.91569E+01 2.42455E+00-9.93778E-04-2.95475E-02 1.28079E-13-5.24574E-13
 -1      3691 1.90981E+01 2.27050E+00 7.33465E-03-2.62439E-02 1.02540E-13-5.15805E-13
 -1      3692 1.91856E+01 2.13155E+00 5.34064E-03-1.82284E-01 1.51436E-13-4.67047E-13
 -1      3693 2.15524E+01-2.68799E+00 3.48763E-02-2.52696E+00 2.78869E-13-2.67123E-13
 -1      3694 1.96748E+01 1.56493E+00-1.66773E-03 5.12273E-01-8.00505E-14-4.56815E-13
 -1      3695 1.96825E+01 1.38346E+00 2.86776E-03 6.67262E-01-6.11387E-14-4.23573E-13
 -1      3696 1.94948E+01 1.72595E+00-1.65554E-03 4.88124E-01-5.71302E-14-4.28856E-13
 -1      3697 1.95704E+01 9.17013E-01-1.06582E-03 1.08412E+00-3.42542E-14-3.54182E-13
 -1      3698 1.95593E+01 7.39227E-01 3.50341E-03 1.24404E+00 9.23198E-15-3.47258E-13
 -1      3699 1.94853E+01 5.48048E-01-9.51207E-04 1.42355E+00-1.07658E-14-3.55272E-13
 -1      3700 1.95208E+01 3.37560E-01 7.37075E-03 1.58388E+00-2.39664E-14-3.35896E-13
 -1      3701 1.92342E+01 7.89152E-01-2.73449E-04 1.30526E+00-1.91102E-14-3.70998E-13
 -1      3702 1.94768E+01 9.25318E-02 4.58670E-04 1.78696E+00 3.28153E-14-3.05258E-13
 -1      3703 1.95982E+01-1.88030E-01 1.14479E-02 1.94671E+00 7.12157E-14-3.02599E-13
 -1      3704 1.91070E+01 3.62307E-01-3.76935E-03 1.69753E+00 2.65345E-14-3.40647E-13
 -1      3705 1.96396E+01-5.27225E-01 4.49080E-03 2.17782E+00 1.20924E-13-2.70852E-13
 -1      3706 1.98966E+01-9.07079E-01 1.49729E-02 2.31589E+00 1.66502E-13-2.11418E-13
 -1      3707 1.90793E+01-2.16536E-01-1.15488E-02 2.16096E+00 1.17322E-13-2.93235E-13
 -1      3708 2.01187E+01-1.36153E+00 1.78764E-02 2.56763E+00 1.83613E-13-1.75576E-13
 -1      3709 2.06373E+01-1.86308E+00 2.60299E-02 2.61418E+00 2.15889E-13-1.44695E-13
 -1      3710 1.93004E+01-1.00139E+00-5.99886E-03 2.69403E+00 2.03150E-13-2.50970E-13
 -1      3711 2.57551E+01 8.09456E-01-1.56766E-01 2.29521E+00-1.83846E-13-5.84663E-13
 -1      3712 2.00050E+01 1.25330E-02 7.50832E-06-2.91330E-04 5.12152E-14-2.08271E-13
 -1      3713 2.05505E+01-1.94949E+00-1.03752E-03-2.49269E+00 2.28732E-13-3.13471E-13
 -1      3714 2.00848E+01-1.39739E+00 2.10503E-02-2.41798E+00 2.20339E-13-2.90454E-13
 -1      3715 1.98310E+01-9.82117E-01 1.50370E-02-2.18353E+00 1.49917E-13-3.69248E-13
 -1      3716 1.95266E+01-6.17505E-01 3.31449E-03-2.07238E+00 1.03243E-13-3.71739E-13
 -1      3717 1.92289E+01-1.07169E+00 9.03988E-05-2.58799E+00 1.25402E-13-4.67107E-13
 -1      3718 1.94494E+01-3.04204E-01 1.22856E-02-1.84594E+00 6.75685E-14-3.41909E-13
 -1      3719 1.92885E+01-6.42914E-02-1.62387E-03-1.72008E+00 5.06125E-14-3.96142E-13
 -1      3720 1.89285E+01-3.08923E-01 2.84052E-03-2.08931E+00 8.38299E-14-4.33148E-13
 -1      3721 1.93050E+01 1.37053E-01 8.48596E-03-1.52927E+00 9.75558E-14-2.89025E-13
 -1      3722 1.92361E+01 2.81307E-01-3.32739E-03-1.40913E+00 9.87163E-14-2.40532E-13
 -1      3723 1.88781E+01 1.78541E-01 4.55278E-03-1.66158E+00 1.50293E-13-2.24617E-13
 -1      3724 1.92962E+01 3.98192E-01 5.59662E-03-1.25488E+00 1.43179E-13-1.19439E-13
 -1      3725 1.92807E+01 4.73593E-01-3.69579E-03-1.14730E+00 2.21754E-13-3.79521E-14
 -1      3726 1.89517E+01 4.62963E-01 4.87853E-03-1.31907E+00 2.22060E-13-2.03714E-13
 -1      3727 1.93576E+01 5.30638E-01 3.61623E-03-1.02345E+00 9.56454E-14-8.26327E-14
 -1      3728 1.93704E+01 5.58914E-01-3.52215E-03-9.29366E-01 3.24928E-14-2.09580E-13
 -1      3729 1.90812E+01 6.06435E-01 4.57915E-03-1.04827E+00 1.14423E-13-1.19727E-13
 -1      3730 1.94498E+01 5.75658E-01 2.35625E-03-8.29393E-01 6.55818E-15-2.21788E-13
 -1      3731 1.94756E+01 5.73214E-01-3.15291E-03-7.47999E-01 3.64046E-14-3.10856E-13
 -1      3732 1.92291E+01 6.55177E-01 4.09276E-03-8.33066E-01-7.70567E-15-1.67796E-13
 -1      3733 1.95498E+01 5.64366E-01 1.56186E-03-6.66922E-01 1.29141E-13-3.31339E-13
 -1      3734 1.95795E+01 5.43426E-01-2.73433E-03-5.97125E-01 9.75307E-14-2.91235E-13
 -1      3735 1.93747E+01 6.42608E-01 3.52067E-03-6.60415E-01 7.98988E-14-2.86452E-13
 -1      3736 1.96450E+01 5.19762E-01 1.07018E-03-5.31200E-01-1.40088E-14-2.16925E-13
 -1      3737 1.96736E+01 4.89047E-01-2.32121E-03-4.71932E-01-3.62975E-14-2.59380E-13
 -1      3738 1.95072E+01 5.93355E-01 2.94947E-03-5.20891E-01 9.11251E-14-3.76329E-13
 -1      3739 1.97290E+01 4.58107E-01 7.66547E-04-4.18382E-01-5.73437E-14-2.43522E-13
 -1      3740 1.97542E+01 4.23570E-01-1.93580E-03-3.68636E-01-7.63669E-14-2.78511E-13
 -1      3741 1.96218E+01 5.24917E-01 2.41829E-03-4.07717E-01-4.60993E-14-2.37700E-13
 -1      3742 1.97996E+01 3.90389E-01 5.74617E-04-3.25344E-01-3.61642E-14-3.38470E-13
 -1      3743 1.98205E+01 3.55889E-01-1.58758E-03-2.84137E-01-3.59418E-14-3.34222E-13
 -1      3744 1.97173E+01 4.49265E-01 1.94389E-03-3.15985E-01-6.49856E-14-3.11993E-13
 -1      3745 1.98566E+01 3.23640E-01 4.47599E-04-2.49407E-01 1.99645E-14-2.59435E-13
 -1      3746 1.98731E+01 2.91496E-01-1.28053E-03-2.15755E-01 1.45202E-13-1.92735E-13
 -1      3747 1.97944E+01 3.74198E-01 1.53278E-03-2.41982E-01 9.98348E-14-1.35411E-13
 -1      3748 1.99012E+01 2.62011E-01 3.58171E-04-1.88173E-01 1.60461E-13-2.49349E-13
 -1      3749 1.99137E+01 2.33455E-01-1.01561E-03-1.61095E-01 1.90088E-13-1.60615E-13
 -1      3750 1.98549E+01 3.04436E-01 1.18557E-03-1.82745E-01 8.07444E-14-2.32054E-13
 -1      3751 1.99350E+01 2.07632E-01 2.90931E-04-1.39443E-01-6.55461E-15-1.18606E-13
 -1      3752 1.99442E+01 1.83155E-01-7.91743E-04-1.17985E-01-2.02600E-13-1.25556E-13
 -1      3753 1.99013E+01 2.42493E-01 8.99113E-04-1.35800E-01 9.34235E-14-4.83034E-13
 -1      3754 1.99598E+01 1.61277E-01 2.37484E-04-1.01206E-01-2.22231E-13 4.03144E-14
 -1      3755 1.99663E+01 1.40891E-01-6.06336E-04-8.44649E-02-1.29291E-13 4.61731E-14
 -1      3756 1.99359E+01 1.89368E-01 6.67921E-04-9.90257E-02-1.34026E-13-3.03684E-13
 -1      3757 1.99775E+01 1.22851E-01 1.93419E-04-7.16435E-02-1.96386E-14 1.41046E-13
 -1      3758 1.99818E+01 1.06281E-01-4.55839E-04-5.87920E-02 1.49791E-13 2.66807E-13
 -1      3759 1.99609E+01 1.45071E-01 4.85216E-04-7.05882E-02 3.38278E-14 1.10739E-13
 -1      3760 1.99896E+01 9.17457E-02 1.56401E-04-4.91435E-02 1.44454E-13 1.18667E-13
 -1      3761 1.99922E+01 7.85628E-02-3.36213E-04-3.94448E-02 6.61185E-14 5.70689E-14
 -1      3762 1.99785E+01 1.09009E-01 3.43809E-04-4.89048E-02 6.74312E-14-5.11216E-14
 -1      3763 1.99974E+01 6.70887E-02 1.24936E-04-3.23071E-02-2.10990E-14-1.41206E-14
 -1      3764 1.99989E+01 5.68010E-02-2.42042E-04-2.51231E-02-7.56956E-14-1.73021E-13
 -1      3765 1.99903E+01 8.02636E-02 2.36672E-04-3.26279E-02-3.81589E-14-2.66990E-13
 -1      3766 2.00021E+01 4.79108E-02 9.86930E-05-1.99449E-02-1.41083E-14-4.66843E-14
 -1      3767 2.00027E+01 4.00144E-02-1.68966E-04-1.47287E-02 7.95496E-14-1.73179E-13
 -1      3768 1.99979E+01 5.77625E-02 1.49363E-04-2.06231E-02 5.66805E-14-1.94726E-13
 -1      3769 2.00045E+01 3.32694E-02 9.08805E-05-1.10546E-02 1.08132E-13-2.28752E-13
 -1      3770 2.00045E+01 2.71879E-02-1.42573E-04-7.31492E-03 8.50326E-14-2.14727E-13
 -1      3771 2.00022E+01 4.04334E-02 7.67445E-05-1.19796E-02 8.78627E-14-3.52453E-13
 -1      3772 2.00054E+01 2.20726E-02 9.46779E-05-4.90111E-03-3.10996E-14-1.92142E-13
 -1      3773 2.00050E+01 1.75600E-02-6.60224E-05-2.33280E-03-4.24364E-14-3.10086E-13
 -1      3774 2.00043E+01 2.69511E-02-6.78758E-05-5.87804E-03-6.04489E-15-3.81240E-13
 -1      3775 1.81566E+01-1.88975E+00-1.88364E-02 3.86368E+00 2.60503E-13-3.60583E-13
 -1      3776 1.62212E+01-8.12957E-01 7.55810E-02 3.64947E+00 2.90794E-13-4.90346E-13
 -1      3777 1.99039E+01 1.25800E+00 3.05755E-04-8.04359E-01 2.06587E-13-2.78292E-13
 -1      3778 2.05098E+01-2.49506E+00 3.01412E-02 3.21292E+00 2.73003E-13-1.69490E-13
 -1      3779 1.90789E+01 8.63271E-01-5.42077E-03 9.56285E-01-1.83867E-13-2.90927E-13
 -1      3780 1.89846E+01 8.92033E-01 1.37175E-03 1.05874E+00-1.56191E-13-2.40835E-13
 -1      3781 1.87944E+01 9.01177E-01-6.96537E-03 1.16514E+00-1.58321E-13-1.54239E-13
 -1      3782 1.86893E+01 8.97139E-01 3.04511E-03 1.28887E+00-1.64235E-13-6.55942E-14
 -1      3783 1.86271E+01 1.00023E+00 6.68722E-03 9.85438E-01-7.26138E-14-2.00574E-13
 -1      3784 1.79827E+01-1.34579E+00 3.00390E-02 3.51760E+00-2.87225E-13 7.06345E-14
 -1      3785 1.93092E+01 7.82612E-01-4.32277E-03 7.82860E-01-1.28974E-13-3.34940E-13
 -1      3786 1.92310E+01 8.28371E-01 6.61246E-04 8.70083E-01-1.40797E-13-2.73431E-13
 -1      3787 1.89546E+01 9.31982E-01 5.41676E-03 8.09476E-01-1.63068E-13-3.28404E-13
 -1      3788 1.94912E+01 6.82884E-01-3.49458E-03 6.35711E-01-8.10602E-14-1.44743E-13
 -1      3789 1.94295E+01 7.35415E-01 4.18115E-04 7.10666E-01-1.65782E-13-2.58130E-13
 -1      3790 1.92152E+01 8.32260E-01 4.33766E-03 6.64166E-01-1.88920E-13-1.98836E-13
 -1      3791 1.96321E+01 5.78992E-01-2.84031E-03 5.10264E-01-4.49666E-14-6.91880E-14
 -1      3792 1.95851E+01 6.31918E-01 3.75519E-04 5.74470E-01 4.42266E-14-5.16789E-14
 -1      3793 1.94195E+01 7.19936E-01 3.41461E-03 5.40829E-01-1.20020E-13 2.39258E-14
 -1      3794 1.97392E+01 4.79696E-01-2.30670E-03 4.03926E-01-1.12786E-13-7.51211E-14
 -1      3795 1.97045E+01 5.29341E-01 4.02571E-04 4.58338E-01-9.77247E-14-2.66023E-14
 -1      3796 1.95774E+01 6.07261E-01 2.65096E-03 4.35271E-01-7.67577E-14 4.81978E-14
 -1      3797 1.98194E+01 3.89687E-01-1.86274E-03 3.14852E-01-5.25447E-15 5.69924E-16
 -1      3798 1.97944E+01 4.34150E-01 4.33488E-04 3.60298E-01-5.18201E-14-4.46193E-14
 -1      3799 1.96980E+01 5.01484E-01 2.03166E-03 3.45351E-01-4.59381E-14 8.33636E-14
 -1      3800 1.98783E+01 3.11045E-01-1.49061E-03 2.41345E-01 1.17659E-13 4.00036E-14
 -1      3801 1.98608E+01 3.49563E-01 4.43954E-04 2.78695E-01 5.00402E-14 3.97206E-14
 -1      3802 1.97887E+01 4.06481E-01 1.53711E-03 2.69672E-01-2.82591E-14 1.85936E-13
 -1      3803 1.99210E+01 2.44227E-01-1.17935E-03 1.81661E-01 1.05476E-13 1.32787E-13
 -1      3804 1.99091E+01 2.76740E-01 4.30432E-04 2.11851E-01 1.33866E-13 1.27730E-13
 -1      3805 1.98560E+01 3.23896E-01 1.14776E-03 2.06965E-01 5.99128E-14 1.34151E-13
 -1      3806 1.99514E+01 1.88733E-01-9.21146E-04 1.34003E-01 7.33835E-14 5.61711E-14
 -1      3807 1.99435E+01 2.15589E-01 3.97816E-04 1.58000E-01 1.10928E-13 1.67029E-13
 -1      3808 1.99051E+01 2.53938E-01 8.45284E-04 1.55884E-01 1.62738E-13 1.79086E-13
 -1      3809 1.99724E+01 1.43535E-01-7.09413E-04 9.65829E-02-1.30276E-13 1.96611E-13
 -1      3810 1.99674E+01 1.65304E-01 3.53228E-04 1.15342E-01-4.83380E-14 1.60844E-13
 -1      3811 1.99403E+01 1.95949E-01 6.13291E-04 1.14992E-01-6.25933E-14 1.69125E-13
 -1      3812 1.99865E+01 1.07366E-01-5.38130E-04 6.76969E-02 8.55889E-14 8.05693E-14
 -1      3813 1.99836E+01 1.24711E-01 3.03259E-04 8.21155E-02 1.93166E-14 2.76163E-13
 -1      3814 1.99650E+01 1.48792E-01 4.37597E-04 8.28263E-02-1.39398E-13 2.57584E-14
 -1      3815 1.99957E+01 7.88933E-02-4.01783E-04 4.57865E-02-6.01863E-14-1.79733E-15
 -1      3816 1.99942E+01 9.24912E-02 2.52985E-04 5.66771E-02-1.23735E-14-2.21952E-14
 -1      3817 1.99818E+01 1.11104E-01 3.06206E-04 5.79665E-02 5.84810E-14 1.24988E-14
 -1      3818 2.00012E+01 5.68225E-02-2.94702E-04 2.94752E-02 1.96910E-13 9.53280E-14
 -1      3819 2.00006E+01 6.73208E-02 2.05712E-04 3.75479E-02 8.15491E-14 5.11609E-14
 -1      3820 1.99928E+01 8.14678E-02 2.09051E-04 3.90986E-02-4.16102E-14 1.10084E-13
 -1      3821 2.00042E+01 3.99535E-02-2.14488E-04 1.75764E-02-1.54720E-14 3.08199E-13
 -1      3822 2.00042E+01 4.79526E-02 1.63851E-04 2.34384E-02 1.37093E-13 1.93824E-13
 -1      3823 1.99996E+01 5.85216E-02 1.38599E-04 2.50536E-02 1.16619E-13 3.33681E-13
 -1      3824 2.00054E+01 2.72121E-02-1.55536E-04 9.08682E-03-2.99647E-13 5.91354E-13
 -1      3825 2.00059E+01 3.32696E-02 1.37753E-04 1.32647E-02-1.10666E-13 5.40260E-13
 -1      3826 2.00034E+01 4.09691E-02 7.78049E-05 1.48265E-02-2.71321E-13 7.44802E-13
 -1      3827 2.00055E+01 1.76307E-02-1.13972E-04 3.16881E-03-2.75784E-14 5.15922E-13
 -1      3828 2.00062E+01 2.22318E-02 1.23665E-04 6.13265E-03-1.39151E-13 5.07542E-13
 -1      3829 2.00051E+01 2.76460E-02 1.98567E-06 7.57380E-03-1.03798E-13 8.52649E-13
 -1      3830 2.00055E+01 1.25519E-02 6.50898E-05 6.76984E-04-8.88669E-15 2.03077E-13
 -1      3831 2.03140E+01-2.42588E+00-3.01183E-02-3.01724E+00 2.59234E-13-3.64007E-13
 -1      3832 1.51237E+01 1.57064E-01 2.91762E-03-2.67340E+00-1.52368E-13-5.73513E-13
 -1      3833 1.65347E+01-6.83889E-01-8.93183E-03-3.47665E+00-1.99763E-13-4.88604E-13
 -1      3834 1.76815E+01 3.04206E-01-7.74952E-03 2.27193E+00-1.97379E-13 9.96924E-15
 -1      3835 1.77253E+01-2.34743E-02 2.28374E-02 2.55695E+00-2.05130E-13 3.80754E-14
 -1      3836 1.80407E+01-1.21386E+00 4.03342E-02-3.62291E+00-2.64496E-13-3.93983E-13
 -1      3837 1.96437E+01 1.23218E+00-8.22816E-04 7.87721E-01-6.36829E-14-3.98919E-13
 -1      3838 1.96168E+01 1.05952E+00 2.46600E-03 9.54956E-01-6.29858E-14-3.77885E-13
 -1      3839 1.93534E+01 1.11648E+00 1.26712E-03 9.94637E-01-2.42115E-14-4.04315E-13
 -1      3840 1.94349E+01 1.39098E+00-2.27815E-03 7.45640E-01-3.80528E-14-4.38692E-13
 -1      3841 1.96349E+01 1.38579E+00 3.36288E-03-8.28881E-01 1.91470E-13-3.22543E-13
 -1      3842 1.90983E+01 2.29618E+00 6.05416E-03 1.20728E-01 7.08782E-14-5.66846E-13
 -1      3843 1.91360E+01 2.45866E+00-5.04930E-03 1.36289E-01 7.24755E-14-5.89469E-13
 -1      3844 1.91972E+01 2.41348E+00-2.14797E-03 1.55318E-01 3.68130E-14-5.83893E-13
 -1      3845 1.92728E+01 2.34349E+00-4.03487E-03 2.00019E-01 1.73275E-14-5.85019E-13
 -1      3846 1.93905E+01 2.23940E+00-3.11180E-03 2.04947E-01-2.26499E-14-5.55779E-13
 -1      3847 1.94065E+01 2.03233E+00 5.17945E-03 3.24439E-01-5.76585E-14-5.10103E-13
 -1      3848 1.92026E+01 2.19807E+00 3.18189E-03 2.42507E-01 1.32371E-14-5.69233E-13
 -1      3849 1.75056E+01-6.12803E-01 2.41036E-02 3.13434E+00-2.58953E-13 1.02337E-13
 -1      3850 1.45445E+01 8.26149E-01 1.46474E-03 1.18755E+00 1.50132E-13-5.77760E-13
 -1      3851 1.38703E+01 1.05340E+00 6.90993E-02 4.82720E-01 7.64235E-14-7.02244E-13
 -1      3852 1.80720E+01 6.83575E-01-1.12907E-02 1.77764E+00-2.07265E-13 1.07052E-13
 -1      3853 1.80061E+01 5.27788E-01 1.28435E-02 1.98585E+00-1.59061E-13 9.52545E-14
 -1      3854 1.71454E+01 6.39605E-01 9.37183E-03 1.96877E+00-2.56002E-13 1.53974E-13
 -1      3855 1.84549E+01 8.59805E-01-9.07190E-03 1.42784E+00-1.88424E-13-7.32198E-14
 -1      3856 1.83536E+01 7.98623E-01 6.48366E-03 1.58427E+00-1.68615E-13-1.88783E-14
 -1      3857 1.82213E+01 1.00823E+00 8.04341E-03 1.21031E+00-1.26980E-13-1.36088E-13
 -1      3858 1.92668E+01 1.45224E+00 1.04500E-03-8.34718E-01 1.58533E-13-3.74193E-13
 -1      3859 1.93319E+01 1.60886E+00-6.69000E-03-6.04006E-01 1.70367E-13-3.91939E-13
 -1      3860 1.91312E+01 1.85444E+00 3.36081E-03-4.34083E-01 1.46788E-13-4.00934E-13
 -1      3861 1.59870E+01-2.36906E-01 3.50187E-02 2.87283E+00 2.16719E-13-4.96249E-13
 -1      3862 1.61155E+01-6.25278E-01 7.06423E-03-3.27610E+00 2.26043E-14 6.98400E-14
 -1      3863 1.75463E+01-1.48328E+00-1.21570E-03-3.69222E+00 1.37219E-13-5.01196E-14
 -1      3864 1.88358E+01-1.76643E+00 4.91443E-02-3.44516E+00 2.10544E-13-1.75867E-13
 -1      3865 2.00046E+01 9.91297E-03-4.45158E-05-4.11345E-04 3.04249E-13-4.95552E-16
 -1      3866 2.00046E+01 9.44584E-03-6.36608E-06-7.87495E-04 2.44953E-13-1.38695E-13
 -1      3867 2.00049E+01 1.37056E-02 1.14020E-04 3.09982E-05 1.81309E-13-1.20074E-13
 -1      3868 1.95203E+01 5.65565E-01 7.90742E-03-1.90356E+00-9.48929E-15-2.66868E-13
 -1      3869 1.95114E+01 7.06123E-01-3.13379E-03-1.73937E+00 3.08668E-14-2.61307E-13
 -1      3870 1.92032E+01 9.10127E-01 8.02831E-04-1.59133E+00 5.33648E-14-2.98381E-13
 -1      3871 1.89478E+01 6.18649E-01-1.28132E-03-1.97198E+00-1.78220E-14-3.14751E-13
 -1      3872 2.00052E+01 1.21436E-02 1.22762E-04-2.24336E-04 2.11824E-13-5.63111E-15
 -1      3873 1.35914E+01 8.97083E-01-2.60375E-03-5.16562E-01-1.84752E-14-6.75765E-13
 -1      3874 1.43010E+01 6.67106E-01 2.66250E-02-1.91981E+00-8.47065E-14-6.29437E-13
 -1      3875 1.56506E+01 4.81651E-01 4.10748E-02-2.21002E+00-1.11588E-13-5.44776E-13
 -1      3876 1.46871E+01 1.03195E+00 3.83177E-03-4.97924E-01 4.94613E-15-5.94826E-13
 -1      3877 2.00053E+01 1.61582E-02-6.59264E-05 1.86341E-03 1.45353E-13 2.51571E-13
 -1      3878 2.00046E+01 1.88796E-02-8.34877E-05 1.57558E-03 2.50453E-13-2.81457E-14
 -1      3879 2.00048E+01 1.78622E-02-6.48708E-05 1.56254E-03 2.55013E-13-1.09175E-13
 -1      3880 2.00052E+01 2.42668E-02 1.49278E-04 4.13909E-03 2.39555E-13 1.42797E-13
 -1      3881 1.43858E+01 3.00031E-01 7.74704E-02 2.57315E+00-1.29833E-13 4.35409E-13
 -1      3882 1.41044E+01 6.31012E-01-2.01002E-02 1.75327E+00-2.70435E-14 4.00003E-13
 -1      3883 1.56050E+01-1.03374E-01 2.85358E-02 2.85560E+00-1.50541E-13 3.78329E-13
 -1      3884 1.80607E+01 2.79509E-01 2.37329E-02-2.39180E+00-1.44089E-13-3.43263E-13
 -1      3885 1.80791E+01 5.32770E-01-1.06286E-02-2.13716E+00-7.10634E-14-3.37363E-13
 -1      3886 1.89732E+01 2.08509E+00-7.60138E-03-6.67388E-02 1.07722E-13-4.79714E-13
 -1      3887 1.89689E+01 2.14576E+00 1.04535E-03 8.29796E-03 8.40965E-14-5.15429E-13
 -1      3888 1.84869E+01-1.25185E+00 2.21114E-03-3.07518E+00 8.56433E-14-1.93623E-13
 -1      3889 1.93327E+01-2.12686E+00-9.14282E-03 3.56532E+00 2.61293E-13-2.61160E-13
 -1      3890 1.85050E+01-1.26616E+00-1.68580E-02 3.21316E+00 2.11629E-13-3.06263E-13
 -1      3891 1.70349E+01-3.79643E-01-1.46205E-02 2.84296E+00 2.03500E-13-4.28806E-13
 -1      3892 1.56447E+01 4.13357E-01 2.29956E-02 2.22087E+00 1.71298E-13-5.25637E-13
 -1      3893 1.64805E+01-9.98059E-02 1.31718E-03 2.84584E+00-2.24242E-13 2.34063E-13
 -1      3894 1.51422E+01 3.17107E-01-6.74816E-03-2.25151E+00-5.38458E-14-3.63320E-14
 -1      3895 1.55937E+01-7.93125E-02 4.01193E-02-2.87906E+00-2.59688E-15 4.81247E-14
 -1      3896 1.67941E+01-3.73204E-01 2.55881E-02-2.85877E+00 3.41151E-14-2.60599E-14
 -1      3897 2.00045E+01 1.70987E-02-5.50630E-05-4.28419E-04 1.58748E-13-2.97286E-13
 -1      3898 2.00044E+01 1.76048E-02-8.25094E-05-3.96000E-04 1.03989E-13-4.27137E-13
 -1      3899 1.32842E+01 1.03504E+00 7.02307E-02-4.73581E-01-1.43164E-13 2.57971E-13
 -1      3900 1.41598E+01 8.50385E-01-1.34820E-02-1.15183E+00-1.90122E-13 2.02476E-13
 -1      3901 1.38402E+01 1.01616E+00 1.62398E-02 2.66061E-01-8.20351E-15 4.04440E-13
 -1      3902 1.77283E+01 9.11426E-01 9.36428E-03 1.51964E+00-1.30312E-13 3.44484E-15
 -1      3903 2.00043E+01 1.80112E-02-7.04878E-05 6.50616E-06 2.41635E-13-2.69690E-13
 -1      3904 2.00043E+01 1.79584E-02-9.00658E-05 1.35629E-04 2.69666E-13-1.72795E-13
 -1      3905 2.00046E+01 2.23356E-02 2.00084E-04-4.46749E-04 1.67814E-13-4.42640E-13
 -1      3906 2.00049E+01 1.62098E-02 4.05969E-06-1.23797E-03 8.44480E-14-2.37869E-13
 -1      3907 1.78538E+01-5.90227E-01 4.07579E-02-3.14918E+00-2.42072E-13-3.79356E-13
 -1      3908 1.89712E+01 2.12056E+00-5.86175E-03 1.38951E-01 6.71951E-14-5.37706E-13
 -1      3909 1.90237E+01 2.09981E+00 2.13949E-03 2.26952E-01 3.61164E-14-5.33962E-13
 -1      3910 1.88810E+01 1.98301E+00 4.88956E-03 1.15370E-01 6.57108E-14-5.03168E-13
 -1      3911 1.76365E+01-1.12719E-01 1.88782E-03-2.81125E+00-1.93938E-13-3.77872E-13
 -1      3912 1.89405E+01 1.26418E+00 2.95726E-03-1.13347E+00 9.39395E-14-3.55144E-13
 -1      3913 1.90636E+01 1.34805E+00-5.62326E-03-9.66272E-01 1.25141E-13-3.53597E-13
 -1      3914 1.88014E+01 1.58367E+00 4.87516E-03-7.18788E-01 1.09106E-13-3.62771E-13
 -1      3915 1.55057E+01 7.75447E-01 1.98940E-02 1.63018E+00 1.62915E-13-5.68253E-13
 -1      3916 1.55359E+01 1.02976E+00-2.13714E-02 8.19350E-01 1.05863E-13-5.58605E-13
 -1      3917 1.65274E+01 6.44538E-01-1.67188E-03 1.71613E+00 1.57162E-13-5.05437E-13
 -1      3918 1.69312E+01 3.17532E-01-2.36164E-04-2.49862E+00-1.57082E-13-4.07077E-13
 -1      3919 1.88482E+01 9.53191E-01-5.11006E-03 6.27402E-01-3.10768E-13-1.90093E-14
 -1      3920 1.87019E+01 1.00313E+00-1.38611E-03 6.96856E-01-1.40463E-13-6.63234E-14
 -1      3921 1.93539E+01 1.83386E+00-2.41982E-03 4.34615E-01-5.96691E-14-4.71944E-13
 -1      3922 1.93394E+01 1.65690E+00 4.31892E-03 5.67563E-01-4.45006E-14-4.61042E-13
 -1      3923 1.92396E+01 1.93742E+00 2.66798E-04 3.93911E-01-3.55073E-14-5.21318E-13
 -1      3924 1.87338E+01 6.66239E-01-8.26708E-03 1.49596E+00 3.10109E-14-3.90126E-13
 -1      3925 1.87057E+01 4.60435E-01 1.00185E-02 1.69892E+00 6.47816E-14-3.84214E-13
 -1      3926 1.84545E+01-8.04562E-01 6.00596E-03-2.66470E+00 1.27297E-13-3.14896E-13
 -1      3927 1.82167E+01-3.81794E-01-1.57032E-02-2.38063E+00 1.28329E-13-3.64658E-13
 -1      3928 1.74503E+01-4.35730E-01 1.96532E-02-2.80300E+00 4.28186E-14-1.34561E-13
 -1      3929 1.83614E+01-9.33373E-02 1.58964E-03-2.06827E+00 1.41203E-13-3.46183E-13
 -1      3930 1.82899E+01 1.67452E-01-1.68815E-02-1.82331E+00 1.04506E-13-2.69752E-13
 -1      3931 1.76906E+01 1.87615E-01 1.33887E-02-2.04995E+00 1.55822E-13-1.50038E-13
 -1      3932 1.84650E+01 3.38570E-01-3.80521E-04-1.59504E+00 1.79869E-13-2.41308E-13
 -1      3933 1.84771E+01 4.91886E-01-1.37240E-02-1.40283E+00 2.54942E-13-2.04474E-13
 -1      3934 1.80022E+01 5.59042E-01 1.25331E-02-1.51819E+00 1.63411E-13-1.17769E-13
 -1      3935 1.86458E+01 5.82375E-01-1.47888E-03-1.23559E+00 1.75488E-13-1.45611E-13
 -1      3936 1.87001E+01 6.61760E-01-1.04214E-02-1.08645E+00 1.64495E-13-2.37027E-13
 -1      3937 1.83230E+01 7.53359E-01 1.12963E-02-1.13641E+00 1.74221E-13-6.92749E-14
 -1      3938 1.88522E+01 6.96536E-01-1.99887E-03-9.62487E-01 1.48381E-13-2.57152E-13
 -1      3939 1.89238E+01 7.26227E-01-7.76568E-03-8.46279E-01 1.79842E-14-2.60923E-13
 -1      3940 1.86223E+01 8.28596E-01 9.18258E-03-8.59851E-01 1.10411E-13-2.17333E-13
 -1      3941 1.90563E+01 7.24505E-01-2.00036E-03-7.52457E-01-4.83792E-14-2.20816E-13
 -1      3942 1.91311E+01 7.21345E-01-5.73753E-03-6.60785E-01 4.20194E-14-2.65494E-13
 -1      3943 1.88899E+01 8.27509E-01 7.47660E-03-6.55567E-01-2.24822E-14-2.05017E-13
 -1      3944 1.92437E+01 6.96782E-01-1.86325E-03-5.88747E-01 1.09730E-13-3.88131E-13
 -1      3945 1.93141E+01 6.73512E-01-4.25524E-03-5.15634E-01 1.34797E-13-4.13192E-13
 -1      3946 1.91216E+01 7.77970E-01 5.98934E-03-5.02286E-01-7.55337E-15-3.80021E-13
 -1      3947 1.94078E+01 6.36190E-01-1.65175E-03-4.59584E-01 1.28551E-13-4.99654E-13
 -1      3948 1.94701E+01 6.01981E-01-3.17023E-03-4.00813E-01 1.19991E-13-4.00512E-13
 -1      3949 1.93175E+01 7.00856E-01 4.76874E-03-3.85328E-01 1.29398E-13-5.14295E-13
 -1      3950 1.95467E+01 5.58992E-01-1.41892E-03-3.56855E-01 1.49026E-14-2.93741E-13
 -1      3951 1.95995E+01 5.20240E-01-2.36594E-03-3.09461E-01 9.20650E-16-2.48574E-13
 -1      3952 1.94797E+01 6.10812E-01 3.78191E-03-2.94928E-01 1.29892E-13-4.39505E-13
 -1      3953 1.96609E+01 4.76397E-01-1.18849E-03-2.74893E-01-3.56043E-14-1.15632E-13
 -1      3954 1.97041E+01 4.37357E-01-1.76252E-03-2.36729E-01 4.91130E-14-9.93443E-14
 -1      3955 1.96113E+01 5.17961E-01 2.97952E-03-2.24539E-01 5.47133E-14-1.91020E-13
 -1      3956 1.97525E+01 3.95736E-01-9.72969E-04-2.09586E-01 1.02461E-13-1.24864E-13
 -1      3957 1.97869E+01 3.59050E-01-1.30609E-03-1.79012E-01 3.83952E-14-1.45614E-13
 -1      3958 1.97161E+01 4.28958E-01 2.32483E-03-1.69583E-01-1.29810E-14-9.63748E-14
 -1      3959 1.98243E+01 3.21428E-01-7.79440E-04-1.57801E-01-2.17058E-14-1.89834E-13
 -1      3960 1.98510E+01 2.88563E-01-9.59564E-04-1.33504E-01 6.67020E-14-3.29579E-13
 -1      3961 1.97978E+01 3.47804E-01 1.79202E-03-1.26729E-01-7.55242E-14-1.96009E-13
 -1      3962 1.98793E+01 2.55786E-01-6.11383E-04-1.17051E-01 1.83884E-14-3.61092E-13
 -1      3963 1.98994E+01 2.27383E-01-6.96653E-04-9.79349E-02-4.73065E-14-4.56634E-13
 -1      3964 1.98603E+01 2.76535E-01 1.36167E-03-9.34549E-02-2.19502E-14-2.99312E-13
 -1      3965 1.99204E+01 1.99661E-01-4.69612E-04-8.52922E-02 4.61447E-14-4.48476E-13
 -1      3966 1.99351E+01 1.75816E-01-4.98073E-04-7.04265E-02 9.84639E-14-1.98597E-13
 -1      3967 1.99070E+01 2.15804E-01 1.01796E-03-6.77968E-02 7.95058E-14-2.83978E-13
 -1      3968 1.99503E+01 1.52948E-01-3.53041E-04-6.08203E-02 7.55855E-14-2.03789E-13
 -1      3969 1.99608E+01 1.33414E-01-3.49205E-04-4.94085E-02 1.35887E-13-1.92134E-13
 -1      3970 1.99411E+01 1.65352E-01 7.47202E-04-4.81881E-02 1.06603E-13-3.88080E-13
 -1      3971 1.99715E+01 1.14958E-01-2.59415E-04-4.22023E-02-2.65181E-14-2.53038E-13
 -1      3972 1.99787E+01 9.92941E-02-2.39475E-04-3.35652E-02-6.84378E-14-3.34796E-13
 -1      3973 1.99653E+01 1.24358E-01 5.37158E-04-3.33630E-02-5.80227E-14-5.18882E-13
 -1      3974 1.99859E+01 8.46846E-02-1.85535E-04-2.82394E-02-6.45165E-14-2.98104E-13
 -1      3975 1.99906E+01 7.23605E-02-1.60253E-04-2.18029E-02-2.37250E-14-3.59609E-13
 -1      3976 1.99819E+01 9.16965E-02 3.75482E-04-2.22897E-02-7.71354E-14-4.77855E-13
 -1      3977 1.99952E+01 6.10236E-02-1.19826E-04-1.79634E-02 1.76058E-13-4.10615E-13
 -1      3978 1.99981E+01 5.15212E-02-8.92935E-05-1.32275E-02 1.40221E-13-2.36707E-13
 -1      3979 1.99928E+01 6.61078E-02 2.46451E-04-1.41836E-02 1.05742E-13-4.72064E-13
 -1      3980 2.00009E+01 4.28150E-02-6.29219E-05-1.04827E-02 2.84768E-14-4.24582E-13
 -1      3981 2.00026E+01 3.57238E-02 9.66843E-05-7.19602E-03 3.23313E-14-4.26028E-13
 -1      3982 1.99993E+01 4.63473E-02 8.71580E-05-8.35808E-03 6.70909E-15-5.79261E-13
 -1      3983 2.00033E+01 2.92212E-02-1.08700E-04-4.80542E-03 6.00457E-15-3.82219E-13
 -1      3984 1.60741E+01 7.53318E-01-1.43545E-02-1.82667E+00-7.67170E-14-4.42043E-13
 -1      3985 1.58823E+01 4.42030E-01-1.39739E-02 2.23609E+00-1.05098E-13 2.60894E-13
 -1      3986 1.84839E+01 1.04208E+00-6.88281E-03 7.55984E-01-2.10928E-14-1.30974E-13
 -1      3987 1.83020E+01 1.07435E+00-1.18496E-03 8.41014E-01-9.17715E-14-7.34905E-14
 -1      3988 1.84424E+01 1.09419E+00 8.07461E-03 5.61027E-01-1.00665E-13 4.95268E-14
 -1      3989 1.91339E+01 8.42000E-01-3.92978E-03 5.19007E-01-1.72980E-13-8.57981E-14
 -1      3990 1.90183E+01 9.00344E-01-1.21215E-03 5.78167E-01-2.28426E-13-3.86401E-14
 -1      3991 1.88164E+01 9.86138E-01 6.20046E-03 4.72421E-01-2.40837E-13 1.44972E-13
 -1      3992 1.89148E+01 1.75794E+00 3.80247E-03-4.48554E-01 1.06848E-13-3.90587E-13
 -1      3993 1.90294E+01 1.91883E+00-7.55893E-03-2.90918E-01 1.37510E-13-4.30875E-13
 -1      3994 1.89796E+01 2.01473E+00 1.37390E-03-2.01346E-01 1.20698E-13-4.50747E-13
 -1      3995 1.93564E+01 7.23672E-01-3.10825E-03 4.25247E-01-1.52487E-13 3.49429E-14
 -1      3996 1.92665E+01 7.83819E-01-9.48482E-04 4.76536E-01-1.58304E-13-8.13562E-15
 -1      3997 1.91087E+01 8.63521E-01 4.77580E-03 3.95903E-01-2.32936E-13-5.60523E-14
 -1      3998 1.95284E+01 6.07898E-01-2.50080E-03 3.43694E-01-9.76067E-14 7.55081E-14
 -1      3999 1.94595E+01 6.65683E-01-6.61073E-04 3.88125E-01-1.12477E-13 8.52541E-14
 -1      4000 1.93363E+01 7.38289E-01 3.69740E-03 3.27733E-01-1.63609E-13 2.21387E-14
 -1      4001 1.96601E+01 5.00549E-01-2.02401E-03 2.73391E-01-1.11646E-13 9.11025E-14
 -1      4002 1.96082E+01 5.53488E-01-4.13916E-04 3.11452E-01-1.02607E-13 9.66178E-14
 -1      4003 1.95126E+01 6.18098E-01 2.86285E-03 2.66979E-01-1.60748E-13 2.80238E-14
 -1      4004 1.97598E+01 4.04784E-01-1.63410E-03 2.13730E-01-9.98970E-14 1.99284E-13
 -1      4005 1.97212E+01 4.51600E-01-2.24187E-04 2.45812E-01-9.76361E-14 1.49709E-13
 -1      4006 1.96480E+01 5.07751E-01 2.20633E-03 2.13627E-01-1.37393E-13 1.11120E-14
 -1      4007 1.98344E+01 3.21870E-01-1.30892E-03 1.64022E-01 1.50815E-13 3.39720E-14
 -1      4008 1.98061E+01 3.62128E-01-9.00212E-05 1.90581E-01 5.04694E-14 7.10334E-14
 -1      4009 1.97508E+01 4.09847E-01 1.68704E-03 1.67727E-01-3.23711E-14-6.33639E-14
 -1      4010 1.98892E+01 2.51823E-01-1.03668E-03 1.23390E-01 1.51279E-13 1.02154E-13
 -1      4011 1.98690E+01 2.85642E-01-2.33638E-06 1.44975E-01 1.21727E-13 8.26339E-14
 -1      4012 1.98279E+01 3.25357E-01 1.27696E-03 1.29099E-01 1.26952E-13-5.69097E-14
 -1      4013 1.99289E+01 1.93886E-01-8.10126E-04 9.08015E-02-1.25082E-13 1.44667E-13
 -1      4014 1.99147E+01 2.21720E-01 4.97388E-05 1.08026E-01 7.34499E-14 2.08902E-13
 -1      4015 1.98848E+01 2.54138E-01 9.55019E-04 9.72926E-02 6.10168E-14 3.38877E-13
 -1      4016 1.99571E+01 1.46859E-01-6.23684E-04 6.51512E-02-1.08824E-13 3.94816E-14
 -1      4017 1.99473E+01 1.69349E-01 7.63339E-05 7.86491E-02-1.26655E-13 2.17162E-14
 -1      4018 1.99260E+01 1.95331E-01 7.04471E-04 7.16502E-02 1.59352E-14 2.01439E-13
 -1      4019 1.99764E+01 1.09348E-01-4.72299E-04 4.53354E-02 2.81075E-15 4.96035E-14
 -1      4020 1.99700E+01 1.27212E-01 8.58489E-05 5.57227E-02-8.10104E-14-2.16252E-14
 -1      4021 1.99552E+01 1.47672E-01 5.11568E-04 5.13937E-02-3.26139E-14-1.42365E-14
 -1      4022 1.99893E+01 7.99074E-02-3.52344E-04 3.03142E-02-3.31543E-14 2.34159E-13
 -1      4023 1.99853E+01 9.38722E-02 8.47935E-05 3.81597E-02-7.84295E-14 1.31252E-13
 -1      4024 1.99754E+01 1.09712E-01 3.64558E-04 3.57059E-02-2.47742E-14-2.11230E-14
 -1      4025 1.99974E+01 5.71535E-02-2.56287E-04 1.91623E-02-1.48455E-13 4.95159E-13
 -1      4026 1.99951E+01 6.79037E-02 7.82351E-05 2.49669E-02 1.51417E-14 3.27343E-13
 -1      4027 1.99888E+01 7.99511E-02 2.51964E-04 2.37938E-02-1.10928E-13 1.76540E-13
 -1      4028 2.00021E+01 3.98540E-02-1.74358E-04 1.10875E-02-3.50243E-13 6.07971E-13
 -1      4029 2.00010E+01 4.80130E-02 8.04842E-05 1.52549E-02-3.08661E-13 5.08231E-13
 -1      4030 1.99972E+01 5.69814E-02 1.67619E-04 1.49743E-02-3.33522E-13 4.78172E-13
 -1      4031 2.00042E+01 2.84255E-02-8.27417E-05 5.89367E-03 1.13135E-13 2.85669E-13
 -1      4032 2.00038E+01 3.47145E-02 1.10362E-04 8.76844E-03-8.48294E-14 5.02051E-13
 -1      4033 2.00015E+01 4.12723E-02 5.67045E-05 8.90548E-03-2.11296E-13 3.25400E-13
 -1      4034 2.00035E+01 3.04816E-02-4.05142E-05 5.00672E-03 2.27001E-13-1.16530E-13
 -1      4035 1.74259E+01 1.05979E+00-1.42736E-02 1.13687E+00-9.68976E-14-6.36503E-15
 -1      4036 1.71659E+01 1.01220E+00 3.78900E-03 1.29706E+00-1.50374E-13 4.42130E-14
 -1      4037 2.00048E+01 1.72674E-02-3.18494E-05-1.29925E-03 9.13862E-14-3.00937E-13
 -1      4038 1.89869E+01 1.03251E+00-4.98607E-03 1.11261E+00-2.09216E-14-4.23181E-13
 -1      4039 1.89191E+01 8.63870E-01 5.31885E-03 1.28839E+00-1.29200E-14-3.99010E-13
 -1      4040 1.85160E+01 9.59149E-01 1.25466E-02 1.28748E+00 2.27408E-14-4.06260E-13
 -1      4041 1.66653E+01 9.11602E-01-1.97037E-02 1.47430E+00-2.17354E-13 1.06344E-13
 -1      4042 1.63906E+01 7.91802E-01 1.83115E-02 1.70829E+00-1.85088E-13 1.94859E-13
 -1      4043 1.65092E+01 1.14935E+00 1.79111E-02 1.03797E+00-1.31577E-13 1.13431E-13
 -1      4044 1.80197E+01 1.08756E+00-9.79385E-03 9.16831E-01-1.05914E-13-5.83813E-15
 -1      4045 1.77975E+01 1.08922E+00-3.15359E-04 1.02891E+00-8.96500E-14 5.32181E-15
 -1      4046 1.73430E+01 1.20113E+00 1.52899E-02 8.15790E-01-1.09705E-13 1.05849E-13
 -1      4047 1.76846E+01 8.40807E-01 6.84553E-03-1.85416E+00-4.19173E-14-3.67944E-13
 -1      4048 1.84051E+01 7.37020E-01 1.03105E-02-1.89306E+00-3.39253E-14-3.38764E-13
 -1      4049 1.85098E+01 8.85563E-01-7.74631E-03-1.69310E+00-4.08359E-15-3.40871E-13
 -1      4050 1.87308E+01-7.98804E-01 1.05410E-02 2.76296E+00 2.24923E-13-2.75176E-13
 -1      4051 1.78222E+01-5.68015E-01 2.29209E-02 2.92459E+00 2.21861E-13-3.62215E-13
 -1      4052 1.73551E+01 2.93081E-02-5.49782E-03 2.41189E+00 1.92950E-13-3.84533E-13
 -1      4053 1.85453E+01-3.81053E-01-1.03979E-02 2.46028E+00 1.99050E-13-3.24457E-13
 -1      4054 2.00044E+01 1.90762E-02-5.46028E-05 7.37711E-04 2.62615E-13-1.01851E-14
 -1      4055 2.00044E+01 1.83944E-02-9.28945E-05 7.88711E-04 1.75763E-13 5.72309E-14
 -1      4056 2.00043E+01 2.55862E-02 1.17531E-04 2.53514E-03 2.54228E-13-1.07975E-13
 -1      4057 2.00041E+01 2.39782E-02 1.33906E-04 8.06867E-04 1.78347E-13-1.83332E-13
 -1      4058 2.00048E+01 2.21363E-02 1.52573E-04-2.20630E-03 2.37607E-14-3.23666E-13
 -1      4059 2.00030E+01 2.91996E-02-1.01259E-04-3.22781E-03 2.25546E-14-5.34975E-13
 -1      4060 1.91189E+01 1.61470E+00-3.36054E-03 6.11620E-01-2.30597E-14-4.98713E-13
 -1      4061 1.92628E+01 1.51051E+00-2.20441E-03 6.70549E-01-3.03651E-14-4.53973E-13
 -1      4062 1.92177E+01 1.37266E+00-1.73378E-04 7.91282E-01-2.32012E-14-4.66880E-13
 -1      4063 1.55169E+01 8.17881E-01 1.99021E-02 1.68705E+00-5.67400E-14 3.06890E-13
 -1      4064 1.79638E+01 1.17283E+00 1.11331E-02 6.68415E-01-4.69345E-14-2.77206E-14
 -1      4065 1.88442E+01 1.91802E+00 3.03556E-03-1.61209E-01 1.02888E-13-4.45634E-13
 -1      4066 1.56149E+01 1.08925E+00 2.76551E-02-1.22714E+00-2.97505E-14-4.76815E-13
 -1      4067 1.68232E+01 9.59362E-01 1.33012E-02-1.53673E+00-5.97374E-14-3.95865E-13
 -1      4068 1.84961E+01 2.06185E-01-1.07363E-02 1.97599E+00 1.04747E-13-3.56033E-13
 -1      4069 1.85310E+01-9.73234E-02 7.57448E-03 2.23771E+00 1.65414E-13-3.15291E-13
 -1      4070 1.84820E+01 1.55870E+00 1.10428E-03-6.23300E-01 8.13901E-14-3.69712E-13
 -1      4071 1.86809E+01 1.64297E+00-6.43192E-03-5.21666E-01 9.05974E-14-3.83301E-13
 -1      4072 1.86208E+01 1.73423E+00 3.98061E-03-3.69955E-01 8.21400E-14-3.94076E-13
 -1      4073 1.49464E+01 7.51115E-01 4.43538E-02-1.71471E+00-4.19124E-14-1.06888E-13
 -1      4074 1.58304E+01 4.44887E-01 6.07407E-03-2.03648E+00 5.93398E-14-6.87844E-14
 -1      4075 1.49006E+01 9.20914E-01-4.14894E-03-1.05716E+00 1.19410E-14 1.15876E-13
 -1      4076 2.00013E+01 3.95524E-02 1.75860E-04-4.05520E-03-1.75745E-14-6.68344E-13
 -1      4077 2.00024E+01 3.03610E-02-1.31319E-04-1.56756E-03 1.30698E-13-6.42815E-13
 -1      4078 2.00024E+01 3.10269E-02-4.10701E-05-7.50480E-04 2.09963E-13-5.23121E-13
 -1      4079 1.49413E+01 8.76594E-01 1.53169E-02 1.34296E+00 5.64002E-14 4.05190E-13
 -1      4080 1.43216E+01 1.10223E+00 5.89264E-02 7.83913E-01 4.15761E-14 4.47462E-13
 -1      4081 1.45717E+01 1.08332E+00-3.43702E-02 2.93393E-02-2.46545E-14 4.34080E-13
 -1      4082 1.54154E+01 1.09045E+00-2.79360E-02 8.35275E-01-7.16716E-14 3.63524E-13
 -1      4083 1.68361E+01-2.64008E-02-1.24083E-02-2.44716E+00 2.75779E-14-9.92817E-14
 -1      4084 1.86947E+01 1.86260E+00-5.89539E-03 6.58113E-02 7.74740E-14-4.78281E-13
 -1      4085 1.87309E+01 1.85056E+00 8.91075E-04 2.20550E-01 3.50697E-14-4.97017E-13
 -1      4086 1.91429E+01 2.00448E+00-3.50123E-03 3.38687E-01 5.98024E-15-5.27968E-13
 -1      4087 1.81410E+01 5.81075E-01 1.62797E-02 1.75427E+00 1.13555E-13-4.14367E-13
 -1      4088 1.91703E+01 1.23785E+00 1.13389E-03 9.14125E-01-8.82513E-15-4.49901E-13
 -1      4089 1.88783E+01 1.30102E+00 4.44243E-03 8.95027E-01-9.36492E-15-4.79098E-13
 -1      4090 1.86587E+01 1.04517E+00 5.82811E-03-1.48302E+00 3.92710E-14-3.37438E-13
 -1      4091 1.87859E+01 1.14236E+00-6.64335E-03-1.30869E+00 9.17719E-14-3.43633E-13
 -1      4092 1.84250E+01 1.38358E+00 2.56308E-03-1.00646E+00 8.29123E-14-3.28121E-13
 -1      4093 1.81168E+01 1.14224E+00 1.39350E-03-1.40148E+00 2.39792E-14-3.27869E-13
 -1      4094 1.74014E+01 3.40090E-01 2.97512E-02 2.13482E+00 1.71115E-13-4.04736E-13
 -1      4095 1.70724E+01 6.42758E-01-1.79855E-02 1.66089E+00 1.49770E-13-4.45372E-13
 -1      4096 1.86133E+01 1.76828E+00-5.78036E-03-2.07331E-01 9.13626E-14-4.19090E-13
 -1      4097 1.86588E+01 1.85309E+00 3.76278E-03-6.51900E-02 8.15443E-14-4.55267E-13
 -1      4098 1.84967E+01 1.73816E+00 4.22638E-03 4.31026E-02 6.50231E-14-4.44250E-13
 -1      4099 1.83931E+01 1.67335E+00-2.24045E-03-2.61972E-01 7.67108E-14-4.03942E-13
 -1      4100 1.71185E+01 1.08709E+00-1.16181E-02-1.33095E+00-2.44904E-14-3.88191E-13
 -1      4101 1.62594E+01 1.17413E+00 4.12574E-03 5.48349E-01 8.50473E-14-4.99080E-13
 -1      4102 1.55696E+01 1.23061E+00 2.52783E-02 1.50276E-01 6.47414E-14-5.30097E-13
 -1      4103 1.54680E+01 1.13898E+00-1.88288E-02-3.29306E-01 4.30420E-14-5.28112E-13
 -1      4104 1.90423E+01 1.86717E+00 3.51055E-03 3.88030E-01-3.78414E-15-5.01831E-13
 -1      4105 1.61984E+01 1.25855E+00-1.13788E-02-5.17178E-01 1.20565E-14-4.69630E-13
 -1      4106 1.88159E+01 1.79070E+00-5.61938E-03 3.72971E-01 2.22495E-14-4.76676E-13
 -1      4107 1.89644E+01 1.71371E+00 4.19410E-04 5.01615E-01-1.73668E-14-4.82299E-13
 -1      4108 1.88836E+01 1.58353E+00 3.43322E-04 6.03920E-01-5.96815E-15-4.71043E-13
 -1      4109 1.86495E+01 1.71551E+00 4.77740E-03 3.37187E-01 2.29493E-14-4.65977E-13
 -1      4110 1.79461E+01 5.08864E-02-1.17452E-02 2.26386E+00 1.78160E-13-3.30403E-13
 -1      4111 1.68368E+01 1.28835E+00 1.86072E-02-9.14134E-01-2.72980E-15-4.13032E-13
 -1      4112 1.76040E+01 1.18111E+00 3.64459E-03-1.22693E+00-1.57176E-14-3.60975E-13
 -1      4113 1.77456E+01 1.29642E+00-9.53880E-03-1.00933E+00 4.68335E-14-3.46023E-13
 -1      4114 1.66905E+01 1.31128E+00-1.79182E-02-4.63796E-01 1.90657E-14-4.21154E-13
 -1      4115 1.88046E+01 9.65158E-01-4.12777E-03 3.04844E-01-2.40767E-13 1.54569E-13
 -1      4116 1.86352E+01 1.02331E+00-4.26843E-03 3.34188E-01-1.27602E-13 2.60953E-13
 -1      4117 1.72147E+01 2.52851E-01 1.49704E-02-2.05554E+00 1.27183E-13-1.18524E-13
 -1      4118 1.73165E+01 4.55092E-01-1.39829E-02-1.76148E+00 2.01750E-13-5.86896E-14
 -1      4119 1.65492E+01 3.26339E-01 1.20985E-02-2.14532E+00 6.65606E-14-3.99813E-14
 -1      4120 1.86751E+01 1.38453E+00-6.68497E-03 7.76198E-01 1.39715E-14-4.54712E-13
 -1      4121 1.75318E+01 6.78514E-01 8.57871E-03-1.41747E+00 1.27725E-13-2.15211E-14
 -1      4122 1.76750E+01 7.74123E-01-1.33570E-02-1.21525E+00 1.39929E-13-8.03497E-15
 -1      4123 1.79791E+01 8.47056E-01 5.20407E-03-1.03634E+00 1.62146E-13 5.76937E-15
 -1      4124 1.81154E+01 8.81703E-01-1.23179E-02-8.91201E-01 1.32900E-13 3.95684E-14
 -1      4125 1.75654E+01 9.74992E-01 1.07189E-02-9.24550E-01 1.57133E-13-8.82193E-14
 -1      4126 1.83623E+01 9.05385E-01 1.77985E-03-7.63031E-01 3.34057E-14-1.26526E-13
 -1      4127 1.84934E+01 9.02830E-01-9.21763E-03-6.59453E-01 8.79739E-14-1.76353E-13
 -1      4128 1.80642E+01 1.02398E+00 1.22668E-02-6.62631E-01 1.09389E-14 2.27357E-15
 -1      4129 1.86918E+01 8.94062E-01 5.96515E-04-5.69077E-01 4.03138E-14-3.25776E-13
 -1      4130 1.88099E+01 8.66770E-01-6.76591E-03-4.92636E-01-8.41674E-14-3.05532E-13
 -1      4131 1.84805E+01 1.00059E+00 1.35316E-02-4.79423E-01-4.39704E-14-2.63198E-13
 -1      4132 1.89695E+01 8.36910E-01 2.98701E-05-4.27711E-01-1.07593E-13-3.00413E-13
 -1      4133 1.90719E+01 7.95170E-01-5.04443E-03-3.69954E-01-4.55914E-14-3.69057E-13
 -1      4134 1.88132E+01 9.29088E-01 1.10953E-02-3.47818E-01-7.54913E-14-3.37877E-13
 -1      4135 1.92003E+01 7.53132E-01-2.71255E-04-3.22655E-01 1.16610E-13-3.06008E-13
 -1      4136 1.92868E+01 7.04261E-01-3.82258E-03-2.78236E-01 2.32052E-13-2.71552E-13
 -1      4137 1.90829E+01 8.33110E-01 8.80880E-03-2.53188E-01 5.40932E-14-2.05890E-13
 -1      4138 1.93896E+01 6.56746E-01-4.13861E-04-2.43512E-01 1.68908E-13-3.33712E-13
 -1      4139 1.94610E+01 6.06007E-01-2.92515E-03-2.08949E-01 1.33429E-13-3.30612E-13
 -1      4140 1.93009E+01 7.26011E-01 6.98238E-03-1.84707E-01 1.41960E-13-3.09282E-13
 -1      4141 1.95425E+01 5.57766E-01-4.54764E-04-1.83330E-01 4.59981E-14-4.47941E-13
 -1      4142 1.96001E+01 5.08751E-01-2.24638E-03-1.56260E-01-1.68467E-15-3.98011E-13
 -1      4143 1.94756E+01 6.17277E-01 5.52921E-03-1.34815E-01 5.43842E-14-4.82144E-13
 -1      4144 1.96640E+01 4.62915E-01-4.35213E-04-1.37309E-01 8.44013E-15-3.62124E-13
 -1      4145 1.97096E+01 4.17869E-01-1.72278E-03-1.16063E-01 2.84437E-14-3.55775E-13
 -1      4146 1.96138E+01 5.13439E-01 4.35701E-03-9.82471E-02 1.03478E-13-5.31428E-13
 -1      4147 1.97589E+01 3.76305E-01-3.83969E-04-1.02037E-01-4.39718E-14-2.13725E-13
 -1      4148 1.97942E+01 3.36440E-01-1.31439E-03-8.53878E-02-5.40697E-14-1.93507E-13
 -1      4149 1.97216E+01 4.18599E-01 3.40328E-03-7.13200E-02 7.00998E-14-3.47126E-13
 -1      4150 1.98316E+01 3.00071E-01-3.19920E-04-7.50247E-02-6.11504E-14-1.91790E-13
 -1      4151 1.98584E+01 2.65845E-01-9.94592E-04-6.20376E-02-5.07479E-15-1.87513E-13
 -1      4152 1.98042E+01 3.34943E-01 2.62697E-03-5.14331E-02-4.28448E-14-2.87255E-13
 -1      4153 1.98863E+01 2.34932E-01-2.54708E-04-5.44105E-02 1.84878E-14-1.77984E-13
 -1      4154 1.99061E+01 2.06289E-01-7.44573E-04-4.43506E-02 1.06092E-13-1.95914E-13
 -1      4155 1.98665E+01 2.63242E-01 1.99901E-03-3.67308E-02 3.84831E-14-2.15923E-13
 -1      4156 1.99265E+01 1.80652E-01-1.94899E-04-3.87719E-02 1.08970E-14-3.17515E-13
 -1      4157 1.99408E+01 1.57213E-01-5.50329E-04-3.10495E-02 3.89382E-14-4.53726E-13
 -1      4158 1.99124E+01 2.03279E-01 1.49645E-03-2.58738E-02-2.39434E-14-3.77321E-13
 -1      4159 1.99553E+01 1.36409E-01-1.43628E-04-2.70046E-02 4.66752E-15-5.65854E-13
 -1      4160 1.99653E+01 1.17610E-01-4.00936E-04-2.11392E-02-1.48271E-13-5.88514E-13
 -1      4161 1.99456E+01 1.54209E-01 1.09938E-03-1.78852E-02-8.47850E-14-5.24232E-13
 -1      4162 1.99753E+01 1.01062E-01-1.01166E-04-1.82371E-02-1.00472E-13-6.08003E-13
 -1      4163 1.99820E+01 8.62598E-02-2.79104E-04-1.38353E-02-2.34145E-14-5.98284E-13
 -1      4164 1.99688E+01 1.14837E-01 7.88279E-04-1.20476E-02-1.77976E-13-5.81978E-13
 -1      4165 1.99886E+01 7.32913E-02-7.18693E-05-1.17273E-02-5.27510E-15-6.72386E-13
 -1      4166 1.99930E+01 6.18426E-02-1.64180E-04-8.54421E-03 4.90275E-14-7.97548E-13
 -1      4167 1.99843E+01 8.38026E-02 5.20608E-04-7.80911E-03-3.66391E-14-8.84978E-13
 -1      4168 1.99962E+01 5.44473E-02 8.12880E-06-7.37334E-03-3.26419E-14-8.18880E-13
 -1      4169 1.99989E+01 4.54900E-02-8.35474E-05-5.13013E-03-6.79932E-14-7.26706E-13
 -1      4170 1.99984E+01 4.70068E-02 3.37806E-05-2.73055E-03 3.58617E-14-8.30600E-13
 -1      4171 1.99932E+01 6.13968E-02 3.89996E-05-4.59240E-03-9.67074E-14-7.83349E-13
 -1      4172 1.84284E+01 1.07793E+00-5.46050E-03 3.47381E-01-1.22268E-13 1.59728E-13
 -1      4173 1.82120E+01 1.12599E+00-5.16387E-03 3.80481E-01 2.83270E-15 1.13232E-13
 -1      4174 1.84854E+01 1.09244E+00 1.32148E-02 1.64196E-01-1.71403E-13 7.94684E-14
 -1      4175 1.93261E+01 7.18121E-01-2.57825E-03 2.21881E-01-1.15762E-13 4.12950E-14
 -1      4176 1.92241E+01 7.79944E-01-2.30553E-03 2.47593E-01-1.56638E-13 1.36895E-14
 -1      4177 1.95036E+01 5.99855E-01-2.09082E-03 1.83094E-01-1.07757E-13-4.04753E-15
 -1      4178 1.94252E+01 6.58144E-01-1.67604E-03 2.06712E-01-6.38603E-14-9.86154E-15
 -1      4179 1.93474E+01 7.17570E-01 6.34822E-03 1.31557E-01-4.28835E-14-1.26447E-14
 -1      4180 1.96404E+01 4.91718E-01-1.69632E-03 1.47722E-01-9.62672E-14-1.29950E-13
 -1      4181 1.95807E+01 5.44556E-01-1.20283E-03 1.68831E-01-1.61539E-13-1.00166E-13
 -1      4182 1.95194E+01 5.98006E-01 4.98389E-03 1.12204E-01-2.46285E-14-1.97446E-13
 -1      4183 1.97447E+01 3.96053E-01-1.36637E-03 1.16542E-01 7.37852E-15-2.78506E-13
 -1      4184 1.96997E+01 4.42469E-01-8.49965E-04 1.34890E-01-4.80390E-14-2.08307E-13
 -1      4185 1.96522E+01 4.89250E-01 3.89030E-03 9.26837E-02-2.72259E-14-4.26705E-13
 -1      4186 1.98231E+01 3.13694E-01-1.08757E-03 8.98888E-02 1.02863E-13-1.73587E-13
 -1      4187 1.97898E+01 3.53414E-01-5.90161E-04 1.05421E-01 3.62059E-14-2.96258E-13
 -1      4188 1.97535E+01 3.93351E-01 3.00837E-03 7.43755E-02 1.22926E-14-5.95874E-13
 -1      4189 1.98812E+01 2.44421E-01-8.53000E-04 6.77269E-02 8.66877E-14-3.75812E-14
 -1      4190 1.98569E+01 2.77651E-01-4.01635E-04 8.05591E-02 1.31958E-13-3.04202E-14
 -1      4191 1.98298E+01 3.10979E-01 2.29840E-03 5.80796E-02 2.14997E-14-5.60783E-13
 -1      4192 1.99234E+01 1.87347E-01-6.58097E-04 4.97558E-02 3.79584E-14-1.24643E-13
 -1      4193 1.99061E+01 2.14590E-01-2.66928E-04 6.01199E-02 5.98367E-14-4.70917E-14
 -1      4194 1.98862E+01 2.41828E-01 1.73104E-03 4.41534E-02 1.05578E-13-4.91756E-13
 -1      4195 1.99534E+01 1.41197E-01-4.98915E-04 3.55180E-02-5.88048E-16-1.65626E-13
 -1      4196 1.99413E+01 1.63123E-01-1.72230E-04 4.37126E-02 4.91086E-14 6.71835E-15
 -1      4197 1.99272E+01 1.84954E-01 1.28239E-03 3.26444E-02 2.46667E-14-3.69461E-13
 -1      4198 1.99742E+01 1.04527E-01-3.71457E-04 2.44838E-02-1.45934E-14 9.20490E-14
 -1      4199 1.99660E+01 1.21872E-01-1.06740E-04 3.08331E-02-4.87169E-14-7.19594E-14
 -1      4200 1.99562E+01 1.39045E-01 9.31223E-04 2.34065E-02-4.93640E-14-1.57001E-13
 -1      4201 1.99880E+01 7.58652E-02-2.63953E-04 1.61102E-02-2.51633E-13 3.30379E-13
 -1      4202 1.99827E+01 8.93711E-02-6.13179E-05 2.09339E-02-9.81555E-14 1.71855E-13
 -1      4203 1.99761E+01 1.02620E-01 6.53666E-04 1.61925E-02-1.05910E-13 1.37116E-13
 -1      4204 1.99967E+01 5.38478E-02-1.53407E-04 9.93505E-03-3.50330E-13 2.17649E-13
 -1      4205 1.99935E+01 6.41125E-02-3.89796E-05 1.34494E-02-2.36431E-13 2.29444E-13
 -1      4206 1.99892E+01 7.41198E-02 3.86380E-04 1.07135E-02-2.10772E-13 1.23549E-13
 -1      4207 1.75091E+01 8.03687E-01-7.53947E-03 1.42548E+00 1.27757E-13-4.28524E-13
 -1      4208 1.68748E+01 1.17620E+00 3.10982E-02 9.95090E-01 1.00921E-13-4.96681E-13
 -1      4209 1.77262E+01 9.89124E-01-1.84222E-02 1.17857E+00 7.59505E-14-4.23677E-13
 -1      4210 1.73124E+01 1.21173E+00-1.06191E-02 4.47110E-01-3.62789E-14 2.47144E-14
 -1      4211 1.69511E+01 1.21554E+00-7.05603E-03 5.06706E-01-8.96368E-14 5.41585E-14
 -1      4212 1.64680E+01 1.20038E+00-1.42498E-02 5.30976E-01-3.71734E-14 1.93679E-13
 -1      4213 1.60006E+01 1.17495E+00 1.87364E-03 6.24622E-01-1.96484E-14 3.06674E-13
 -1      4214 1.66043E+01 1.28112E+00 1.92412E-02 1.32393E-01 2.73950E-14 1.72235E-13
 -1      4215 1.67120E+01 1.25938E+00-1.50846E-02 4.10314E-01 4.41960E-14-4.47013E-13
 -1      4216 1.83722E+01 1.26462E+00-9.15485E-03 8.70045E-01 3.33898E-14-4.19310E-13
 -1      4217 1.81684E+01 1.10216E+00-1.10200E-02 1.06030E+00 6.40832E-14-3.98871E-13
 -1      4218 1.77857E+01 1.36185E+00 2.39138E-02 7.13307E-01 4.28156E-14-4.07741E-13
 -1      4219 1.84719E+01 1.55407E+00 8.57586E-03 5.44629E-01 2.73882E-14-4.21322E-13
 -1      4220 1.79427E+01 1.16321E+00-8.49112E-03 3.95965E-01-1.02672E-14-1.43449E-14
 -1      4221 1.76686E+01 1.19447E+00-5.84733E-03 4.36209E-01-4.94202E-14 3.05183E-15
 -1      4222 1.80162E+01 1.19610E+00 1.53169E-02 1.56577E-01-9.31597E-14 1.03990E-13
 -1      4223 1.90976E+01 8.42161E-01-3.21817E-03 2.62900E-01-2.35048E-13 5.66438E-14
 -1      4224 1.89658E+01 9.04408E-01-3.14382E-03 2.90322E-01-2.19488E-13 5.63500E-14
 -1      4225 1.88451E+01 9.71745E-01 1.03177E-02 1.60751E-01-1.71338E-13 8.56935E-14
 -1      4226 1.91267E+01 8.44120E-01 8.07717E-03 1.48677E-01-1.67249E-13 5.36756E-14
 -1      4227 1.80514E+01 1.39841E+00 6.15148E-03-8.42529E-01 7.70343E-14-3.58655E-13
 -1      4228 1.81996E+01 1.48312E+00-6.36805E-03-6.75558E-01 8.37000E-14-3.79256E-13
 -1      4229 1.75655E+01 1.43910E+00 1.01303E-02-6.59457E-01 4.91551E-14-3.76737E-13
 -1      4230 1.83402E+01 1.58992E+00-3.85304E-03 3.89567E-01 5.28840E-14-4.39961E-13
 -1      4231 1.68776E+01 1.40036E+00 1.60749E-02 2.06026E-02 4.00429E-14-4.24799E-13
 -1      4232 1.73134E+01 1.41135E+00-7.06548E-04-3.56121E-01 3.52810E-14-4.04821E-13
 -1      4233 1.75922E+01 1.46806E+00-1.17292E-02-2.17710E-01 5.60478E-14-4.12858E-13
 -1      4234 1.73186E+01 1.34892E+00-1.09523E-02 4.32414E-01 4.98549E-14-4.35347E-13
 -1      4235 1.61826E+01 6.46815E-01-1.16678E-02-1.66411E+00 1.52287E-13-1.66106E-14
 -1      4236 2.00032E+01 2.94165E-02-8.21458E-06 2.31541E-03 1.68118E-13-1.27064E-14
 -1      4237 2.00032E+01 2.99252E-02-8.46916E-05 3.34313E-03 3.28397E-13-2.64588E-13
 -1      4238 2.00025E+01 3.50443E-02 2.72753E-05 5.01380E-03 7.54036E-14-1.84975E-13
 -1      4239 1.70482E+01 7.53010E-01 3.69272E-03-1.42303E+00 2.10626E-13 2.19448E-14
 -1      4240 1.50057E+01 1.14531E+00 3.55575E-02-5.70934E-01 6.52709E-14 3.25094E-13
 -1      4241 1.55159E+01 9.46943E-01-3.96161E-03-1.08243E+00 1.58855E-13 6.39773E-14
 -1      4242 1.52544E+01 1.15434E+00 4.41660E-03-9.71076E-02 5.21501E-14 3.67575E-13
 -1      4243 1.56137E+01 1.23366E+00 2.50567E-02 2.92088E-01 2.94064E-14 4.19313E-13
 -1      4244 1.99994E+01 4.70686E-02 3.43407E-05 8.26965E-03-2.45711E-13 8.75449E-14
 -1      4245 1.99969E+01 5.41350E-02 2.45312E-04 6.61371E-03-1.66713E-13-9.70027E-14
 -1      4246 2.00006E+01 4.08409E-02-1.06095E-04 6.01448E-03-1.24258E-13-1.40871E-13
 -1      4247 1.74225E+01 1.25061E+00 1.49271E-02 1.59728E-01-5.68192E-14 1.65261E-14
 -1      4248 1.81319E+01 1.57063E+00 6.06146E-03-4.72675E-01 6.84804E-14-4.11144E-13
 -1      4249 1.72168E+01 1.07332E+00 4.92093E-03-7.02156E-01 2.34205E-13-6.51067E-14
 -1      4250 1.74706E+01 1.08030E+00-1.28449E-02-5.68158E-01 1.47136E-13-3.45074E-14
 -1      4251 1.76998E+01 1.12929E+00-3.30695E-03-3.11912E-01-3.75589E-14 4.49456E-15
 -1      4252 1.79311E+01 1.10878E+00-1.14418E-02-2.28449E-01-9.51934E-14-6.45935E-14
 -1      4253 1.82017E+01 1.07457E+00-7.17570E-03-1.97519E-01-1.03807E-13-1.51174E-14
 -1      4254 1.83932E+01 1.03584E+00-1.13055E-02-1.33726E-01-1.37033E-13-1.39626E-13
 -1      4255 1.86045E+01 9.91427E-01-6.44660E-03-1.18585E-01-1.62912E-13-3.78479E-14
 -1      4256 1.87614E+01 9.40360E-01-8.89392E-03-7.36725E-02-1.19403E-13-7.08776E-14
 -1      4257 1.89271E+01 8.86917E-01-5.23613E-03-6.75214E-02-1.24056E-13-1.37426E-13
 -1      4258 1.90541E+01 8.29661E-01-6.87115E-03-3.57948E-02-2.90473E-14-1.58480E-13
 -1      4259 1.91842E+01 7.72464E-01-4.20983E-03-3.53387E-02-1.76843E-14-2.17504E-13
 -1      4260 1.92862E+01 7.13862E-01-5.32640E-03-1.28648E-02-3.85501E-14-3.20688E-13
 -1      4261 1.93879E+01 6.57117E-01-3.38246E-03-1.58958E-02 8.70888E-15-3.35836E-13
 -1      4262 1.94691E+01 6.00685E-01-4.13862E-03 1.05731E-04 1.02162E-13-2.70247E-13
 -1      4263 1.95480E+01 5.47293E-01-2.70510E-03-4.81169E-03 1.50839E-13-3.56542E-13
 -1      4264 1.96118E+01 4.95335E-01-3.20926E-03 6.65159E-03 7.86517E-14-3.33340E-13
 -1      4265 1.96724E+01 4.47065E-01-2.14311E-03 9.75003E-04 2.04081E-14-4.44361E-13
 -1      4266 1.97218E+01 4.00880E-01-2.47364E-03 9.23975E-03-1.14587E-14-4.60678E-13
 -1      4267 1.97679E+01 3.58610E-01-1.67581E-03 3.54756E-03 9.46845E-15-4.86239E-13
 -1      4268 1.98055E+01 3.18729E-01-1.88912E-03 9.54227E-03-6.29295E-15-4.98821E-13
 -1      4269 1.98399E+01 2.82687E-01-1.28994E-03 4.28063E-03 4.36073E-14-5.04266E-13
 -1      4270 1.98680E+01 2.49092E-01-1.42579E-03 8.65065E-03 6.62077E-14-4.82527E-13
 -1      4271 1.98933E+01 2.19060E-01-9.75312E-04 4.04900E-03 7.58140E-14-4.69081E-13
 -1      4272 1.99139E+01 1.91371E-01-1.06093E-03 7.24512E-03 3.06788E-14-4.59853E-13
 -1      4273 1.99321E+01 1.66857E-01-7.22572E-04 3.38563E-03-1.16926E-13-4.11714E-13
 -1      4274 1.99468E+01 1.44484E-01-7.75603E-04 5.72396E-03-1.67647E-13-5.11932E-13
 -1      4275 1.99595E+01 1.24847E-01-5.21187E-04 2.59764E-03-1.67151E-13-4.62918E-13
 -1      4276 1.99697E+01 1.07102E-01-5.49709E-04 4.29625E-03-9.56994E-14-3.46776E-13
 -1      4277 1.99784E+01 9.16447E-02-3.51339E-04 1.84409E-03-5.17589E-14-3.47537E-13
 -1      4278 1.99852E+01 7.78640E-02-3.36606E-04 3.03577E-03-1.33023E-13-2.86967E-13
 -1      4279 1.99909E+01 6.59851E-02-1.42044E-04 1.32411E-03-1.89396E-13-3.25651E-13
 -1      4280 1.77632E+01 1.43706E+00-8.97457E-03 3.83047E-01 3.87390E-14-4.15743E-13
 -1      4281 1.66217E+01 8.47223E-01 8.53635E-03-1.28703E+00 2.09981E-13 8.04337E-15
 -1      4282 1.68097E+01 9.89738E-01-1.37670E-02-9.48119E-01 2.33597E-13-3.61208E-14
 -1      4283 1.68425E+01 1.15726E+00 8.87003E-03-5.59958E-01 1.62770E-13 2.25380E-14
 -1      4284 1.60081E+01 9.49017E-01 6.09039E-03-1.16378E+00 1.79164E-13-3.54089E-14
 -1      4285 2.00011E+01 3.79087E-02 4.09302E-05 7.24419E-04 9.96816E-14-2.55117E-13
 -1      4286 2.00031E+01 2.81099E-02-1.01769E-04 1.50563E-03 1.23332E-13-2.08438E-13
 -1      4287 1.57567E+01 1.16386E+00-1.89766E-02-2.65462E-01 4.14228E-14 2.77676E-13
 -1      4288 1.78844E+01 1.54111E+00-5.50381E-03-2.65830E-01 6.81268E-14-4.14844E-13
 -1      4289 1.81661E+01 1.60485E+00-4.51988E-03-2.35878E-01 7.38070E-14-4.12558E-13
 -1      4290 1.82092E+01 1.64375E+00-3.47447E-04-6.37308E-02 7.44300E-14-4.11787E-13
 -1      4291 1.77198E+01 1.53091E+00 8.50226E-03 2.40417E-02 5.66435E-14-4.32427E-13
 -1      4292 1.82701E+01 1.66565E+00 1.17372E-04 7.68623E-02 6.40232E-14-4.31851E-13
 -1      4293 2.00006E+01 4.07726E-02 1.12326E-04 4.15521E-03 4.31949E-14-2.85952E-13
 -1      4294 1.80472E+01 1.51321E+00 1.61366E-04 3.07999E-01 6.19636E-14-4.18981E-13
 -1      4295 1.99992E+01 4.38809E-02-7.53369E-05 1.44372E-03 9.71344E-15-2.21544E-13
 -1      4296 1.59920E+01 1.11691E+00 3.92009E-03-7.08342E-01 1.59304E-13 1.27738E-13
 -1      4297 1.99951E+01 5.51217E-02-2.19639E-04 4.16309E-03-3.62312E-14-9.32908E-14
 -1      4298 1.99940E+01 5.95997E-02 1.58068E-04-2.57071E-03-5.34649E-14-5.27816E-13
 -1      4299 1.74473E+01 1.21485E+00 4.81095E-04-9.19899E-02 1.15620E-14 2.06439E-14
 -1      4300 1.70898E+01 1.21147E+00-1.04909E-02-1.12066E-01 1.07487E-13 3.40403E-14
 -1      4301 1.62182E+01 1.16633E+00-6.10554E-03-3.61108E-01 8.32765E-14 1.40036E-13
 -1      4302 1.67008E+01 1.18387E+00-3.62960E-03-3.01907E-01 1.22313E-13 7.89775E-14
 -1      4303 1.99976E+01 4.80300E-02-1.73521E-04 2.48142E-03-6.09922E-14-1.19268E-13
 -1      4304 1.99972E+01 5.16123E-02 1.63553E-04-1.70372E-03 5.04715E-14-4.63975E-13
 -1      4305 1.99989E+01 4.50853E-02 2.71598E-05-1.14160E-03 7.81027E-14-3.67282E-13
 -3
    1PSTEP                         3           1           1          
  100CL  101 1.000000000        4305                     0    1           1
 -4  TOSTRAIN    6    1
 -5  EXX         1    4    1    1
 -5  EYY         1    4    2    2
 -5  EZZ         1    4    3    3
 -5  EXY         1    4    1    2
 -5  EYZ         1    4    2    3
 -5  EZX         1    4    3    1
 -1         1 6.71930E-05 2.56687E-05-3.77540E-05-8.41514E-05-1.51284E-17 1.88105E-17
 -1         2 3.67416E-05-1.11531E-04 2.01707E-05-5.85579E-07 1.10341E-18 2.44581E-19
 -1         3 9.52380E-05-2.85702E-05-2.85724E-05 1.25658E-09-1.49886E-18-1.42133E-18
 -1         4 9.52379E-05-2.85703E-05-2.85724E-05-1.08574E-09 1.36788E-18-2.04236E-19
 -1         5 1.41954E-04-2.11000E-05-4.24705E-05 3.78344E-05-3.54483E-19 2.55257E-17
 -1         6 1.43861E-04 2.58358E-10-4.41101E-05-5.24895E-05-1.59454E-18 2.28525E-17
 -1         7 9.16022E-05-6.23456E-07-3.93103E-05-2.79741E-05-2.27640E-19 3.22947E-18
 -1         8 8.62733E-05 3.28208E-08-3.67421E-05-1.84542E-05-2.92068E-19-2.54439E-18
 -1         9 8.37509E-05 4.73835E-08-3.57075E-05-1.34914E-05-2.31518E-19-5.59298E-18
 -1        10 8.22628E-05 2.74556E-08-3.50830E-05-9.84646E-06-1.54451E-19-7.03458E-18
 -1        11 8.12094E-05 2.07256E-08-3.46555E-05-6.93924E-06-1.11173E-19-7.65335E-18
 -1        12 8.04379E-05 2.00820E-08-3.43497E-05-4.58075E-06-4.66927E-20-7.88264E-18
 -1        13 7.98957E-05 2.25240E-08-3.41382E-05-2.54194E-06-1.35558E-20-7.89020E-18
 -1        14 7.96094E-05 2.45835E-08-3.40280E-05-7.28361E-07 3.52941E-20-7.80100E-18
 -1        15 7.95951E-05 2.51239E-08-3.40239E-05 9.97129E-07 6.43886E-20-7.64314E-18
 -1        16 7.98606E-05 2.38316E-08-3.41284E-05 2.77743E-06 9.33788E-20-7.37358E-18
 -1        17 8.04032E-05 2.05875E-08-3.43406E-05 4.76332E-06 1.42063E-19-6.89181E-18
 -1        18 8.11978E-05 2.02890E-08-3.46545E-05 7.06808E-06 1.71723E-19-6.17374E-18
 -1        19 8.22959E-05 2.58259E-08-3.50981E-05 9.95125E-06 2.58027E-19-4.95887E-18
 -1        20 8.38217E-05 4.93826E-08-3.57389E-05 1.36174E-05 3.19159E-19-2.89309E-18
 -1        21 8.63060E-05 1.06465E-07-3.68001E-05 1.85678E-05 3.46145E-19 9.92610E-19
 -1        22 9.25093E-05-2.03535E-07-3.89892E-05 2.66732E-05 4.62692E-20 8.66945E-18
 -1        23 1.13512E-04-3.83240E-05-3.55761E-05-4.04590E-06-1.05291E-18 1.73983E-17
 -1        24 9.49481E-05-2.83515E-05-2.96172E-05 4.39085E-07-2.98417E-19 1.26146E-17
 -1        25 9.26046E-05-2.79048E-05-2.79685E-05 3.97869E-07-1.31461E-19 7.83097E-18
 -1        26 9.28881E-05-2.79554E-05-2.78620E-05 2.31260E-07-9.69538E-20 4.49616E-18
 -1        27 9.44920E-05-2.84058E-05-2.83340E-05 1.79180E-07-5.73666E-20 2.50350E-18
 -1        28 9.68534E-05-2.90884E-05-2.90532E-05 1.56184E-07-2.60140E-20 1.09010E-18
 -1        29 9.96715E-05-2.99164E-05-2.99005E-05 1.47448E-07-1.20147E-19-6.89948E-19
 -1        30 1.02687E-04-3.08079E-05-3.07958E-05 1.42340E-07-5.24794E-22-1.70864E-18
 -1        31 1.05582E-04-3.16654E-05-3.16430E-05 1.29992E-07 4.08867E-20-2.57229E-18
 -1        32 1.07923E-04-3.23589E-05-3.23117E-05 9.67626E-08-2.20671E-19-3.70470E-18
 -1        33 1.09151E-04-3.27220E-05-3.26374E-05 2.70425E-08 1.37246E-19-4.12116E-18
 -1        34 1.08645E-04-3.25711E-05-3.24475E-05-9.02720E-08-1.10498E-19-4.48139E-18
 -1        35 1.05928E-04-3.17633E-05-3.16233E-05-2.48163E-07 1.49800E-19-4.81023E-18
 -1        36 1.00991E-04-3.02941E-05-3.01903E-05-4.05361E-07-9.63988E-20-4.92847E-18
 -1        37 9.46351E-05-2.83990E-05-2.83992E-05-4.84524E-07-2.68277E-19-5.20698E-18
 -1        38 8.85342E-05-2.65761E-05-2.67179E-05-4.09701E-07 6.72159E-20-5.83927E-18
 -1        39 8.47379E-05-2.54397E-05-2.56888E-05-1.68640E-07-2.67767E-19-7.58910E-18
 -1        40 8.47216E-05-2.54350E-05-2.56890E-05 1.49886E-07 9.80060E-20-7.14251E-18
 -1        41 8.85535E-05-2.65825E-05-2.67360E-05 4.01940E-07-1.64604E-19-7.75541E-18
 -1        42 9.48576E-05-2.84671E-05-2.84791E-05 4.91302E-07-7.28618E-20-8.64003E-18
 -1        43 1.01604E-04-3.04798E-05-3.03843E-05 4.23236E-07-2.08324E-19-8.57983E-18
 -1        44 1.07085E-04-3.21120E-05-3.19762E-05 2.72432E-07 1.55866E-19-7.56516E-18
 -1        45 1.10446E-04-3.31120E-05-3.29913E-05 1.17484E-07-4.66960E-20-6.65657E-18
 -1        46 1.11655E-04-3.34729E-05-3.33922E-05 2.80322E-09-2.73437E-19-6.96303E-18
 -1        47 1.11172E-04-3.33313E-05-3.32911E-05-6.23876E-08 2.05795E-19-5.51859E-18
 -1        48 1.09607E-04-3.28679E-05-3.28568E-05-8.79945E-08 3.01619E-19-4.89998E-18
 -1        49 1.07505E-04-3.22443E-05-3.22498E-05-8.87761E-08 1.47370E-19-4.96014E-18
 -1        50 1.05269E-04-3.15795E-05-3.15919E-05-7.71105E-08-2.85107E-19-5.00551E-18
 -1        51 1.03151E-04-3.09483E-05-3.09620E-05-6.11254E-08 3.02450E-19-5.00976E-18
 -1        52 1.01284E-04-3.03907E-05-3.04027E-05-4.52929E-08-4.32868E-19-4.97378E-18
 -1        53 9.97185E-05-2.99223E-05-2.99317E-05-3.16360E-08 1.99155E-19-6.74185E-18
 -1        54 9.84559E-05-2.95438E-05-2.95505E-05-2.07701E-08 3.26889E-19-5.51308E-18
 -1        55 9.74697E-05-2.92476E-05-2.92521E-05-1.26035E-08-6.04733E-19-5.73628E-18
 -1        56 9.67213E-05-2.90224E-05-2.90251E-05-6.74818E-09 3.82608E-19-6.22716E-18
 -1        57 9.61692E-05-2.88559E-05-2.88573E-05-2.73744E-09-1.39773E-21-4.24167E-18
 -1        58 9.57738E-05-2.87364E-05-2.87370E-05-1.28551E-10 7.87047E-20-3.78013E-18
 -1        59 9.55001E-05-2.86534E-05-2.86534E-05 1.45645E-09-4.35478E-19-4.89614E-18
 -1        60 9.53185E-05-2.85982E-05-2.85979E-05 2.32129E-09 3.40659E-19-3.75324E-18
 -1        61 9.52050E-05-2.85636E-05-2.85631E-05 2.70028E-09-8.55627E-20-1.83342E-18
 -1        62 9.51407E-05-2.85438E-05-2.85432E-05 2.76849E-09-5.09294E-20-3.62917E-18
 -1        63 9.51109E-05-2.85344E-05-2.85339E-05 2.65310E-09 7.39072E-20-4.96624E-18
 -1        64 9.51046E-05-2.85322E-05-2.85317E-05 2.44377E-09-9.45761E-20-7.49243E-18
 -1        65 9.51136E-05-2.85346E-05-2.85342E-05 2.20137E-09-7.38584E-20-6.55902E-18
 -1        66 9.51320E-05-2.85400E-05-2.85396E-05 1.96432E-09 2.58346E-19-5.48521E-18
 -1        67 9.51554E-05-2.85468E-05-2.85466E-05 1.75139E-09 7.29616E-19-3.39685E-18
 -1        68 9.51807E-05-2.85543E-05-2.85540E-05 1.55883E-09 3.54787E-19-5.61082E-19
 -1        69 9.52048E-05-2.85614E-05-2.85611E-05 1.33794E-09-1.61090E-19 9.11629E-20
 -1        70 9.52246E-05-2.85674E-05-2.85668E-05 8.72428E-10 3.60060E-19-3.86104E-19
 -1        71 9.52364E-05-2.85712E-05-2.85704E-05 6.70098E-11-1.82459E-19-5.96128E-19
 -1        72 1.02824E-04-3.07694E-05-3.43617E-05-2.02363E-06 2.85291E-19 2.34456E-17
 -1        73 9.48196E-05-2.82040E-05-2.95609E-05-3.53339E-07 2.56274E-19 1.79045E-17
 -1        74 9.28135E-05-2.78237E-05-2.80821E-05-1.27537E-07 6.33050E-20 1.34511E-17
 -1        75 9.33495E-05-2.80366E-05-2.80437E-05-9.36113E-08 5.60357E-20 1.07447E-17
 -1        76 9.53232E-05-2.86241E-05-2.86145E-05-8.09157E-08 5.03294E-20 9.02649E-18
 -1        77 9.82916E-05-2.95023E-05-2.95147E-05-8.27337E-08 1.06672E-19 7.75975E-18
 -1        78 1.02071E-04-3.06249E-05-3.06563E-05-9.92960E-08-1.33014E-19 7.44079E-18
 -1        79 1.06533E-04-3.19525E-05-3.19933E-05-1.31917E-07 2.40995E-19 6.27307E-18
 -1        80 1.11473E-04-3.34236E-05-3.34565E-05-1.80388E-07 3.55349E-20 4.85993E-18
 -1        81 1.16475E-04-3.49163E-05-3.49078E-05-2.36545E-07 1.90105E-19 3.97274E-18
 -1        82 1.20760E-04-3.62049E-05-3.61006E-05-2.73512E-07 2.05364E-20 3.14796E-18
 -1        83 1.23091E-04-3.69292E-05-3.66674E-05-2.34837E-07-2.94708E-20 3.39331E-18
 -1        84 1.21910E-04-3.66257E-05-3.61903E-05-4.25446E-08-1.04274E-20 3.94957E-18
 -1        85 1.15983E-04-3.49031E-05-3.44111E-05 3.42664E-07 1.18161E-19 3.95781E-18
 -1        86 1.05637E-04-3.18049E-05-3.15437E-05 8.06702E-07 1.87103E-19 3.86596E-18
 -1        87 9.38957E-05-2.81928E-05-2.84677E-05 1.03749E-06-1.92235E-19 2.61378E-18
 -1        88 8.59408E-05-2.56642E-05-2.64718E-05 7.40082E-07-2.73952E-19 2.96943E-18
 -1        89 8.60683E-05-2.56300E-05-2.65292E-05 3.88424E-09 2.69264E-19 1.30185E-18
 -1        90 9.43200E-05-2.81592E-05-2.86418E-05-6.86527E-07-3.72430E-20-1.01909E-19
 -1        91 1.06435E-04-3.19066E-05-3.18243E-05-9.35191E-07-3.82488E-21-2.07587E-18
 -1        92 1.17215E-04-3.52181E-05-3.48018E-05-7.61381E-07-4.42858E-19-2.91964E-18
 -1        93 1.23613E-04-3.71552E-05-3.66992E-05-4.18443E-07 4.15278E-19-2.37500E-18
 -1        94 1.25297E-04-3.76423E-05-3.73155E-05-1.19443E-07-7.33511E-20-5.49096E-18
 -1        95 1.23522E-04-3.70840E-05-3.69161E-05 6.12994E-08 8.35457E-20-3.54332E-18
 -1        96 1.19859E-04-3.59668E-05-3.59168E-05 1.39369E-07-2.43505E-19-1.14069E-18
 -1        97 1.15546E-04-3.46638E-05-3.46794E-05 1.54392E-07-4.90173E-19-1.46788E-19
 -1        98 1.11343E-04-3.34002E-05-3.34430E-05 1.39205E-07 1.76297E-20-5.66586E-20
 -1        99 1.07628E-04-3.22858E-05-3.23339E-05 1.13678E-07 2.83568E-19-4.60352E-18
 -1       100 1.04530E-04-3.13575E-05-3.14012E-05 8.76507E-08-1.16624E-19-4.81168E-18
 -1       101 1.02046E-04-3.06134E-05-3.06494E-05 6.50666E-08-2.91817E-20-2.67054E-18
 -1       102 1.00110E-04-3.00335E-05-3.00617E-05 4.69339E-08-1.48880E-20-1.60603E-18
 -1       103 9.86361E-05-2.95917E-05-2.96130E-05 3.30044E-08-2.06237E-19-9.89287E-19
 -1       104 9.75356E-05-2.92618E-05-2.92775E-05 2.26047E-08-1.55412E-19 2.29759E-18
 -1       105 9.67304E-05-2.90202E-05-2.90316E-05 1.50034E-08 2.55425E-19 8.06693E-19
 -1       106 9.61535E-05-2.88471E-05-2.88552E-05 9.54966E-09-3.59165E-19-1.50980E-18
 -1       107 9.57503E-05-2.87260E-05-2.87317E-05 5.71016E-09 1.96399E-19-9.70651E-19
 -1       108 9.54768E-05-2.86438E-05-2.86477E-05 3.06546E-09 3.17477E-19-4.84537E-18
 -1       109 9.52989E-05-2.85903E-05-2.85929E-05 1.29252E-09 3.23678E-19-4.01178E-18
 -1       110 9.51899E-05-2.85575E-05-2.85592E-05 1.45625E-10-6.35720E-19-2.76531E-18
 -1       111 9.51298E-05-2.85394E-05-2.85403E-05-5.60757E-10 6.05959E-19-2.97223E-18
 -1       112 9.51034E-05-2.85314E-05-2.85319E-05-9.65938E-10-2.93596E-19-4.82452E-18
 -1       113 9.50997E-05-2.85302E-05-2.85304E-05-1.17401E-09 8.29831E-19-2.53252E-18
 -1       114 9.51106E-05-2.85334E-05-2.85334E-05-1.26241E-09-1.15970E-18-7.68028E-19
 -1       115 9.51304E-05-2.85392E-05-2.85392E-05-1.28871E-09 8.71980E-19 9.13693E-19
 -1       116 9.51548E-05-2.85465E-05-2.85464E-05-1.29454E-09-4.17127E-19 3.27865E-18
 -1       117 9.51807E-05-2.85542E-05-2.85540E-05-1.30391E-09-5.98963E-19 3.77127E-18
 -1       118 9.52052E-05-2.85615E-05-2.85612E-05-1.30932E-09 8.02966E-19 6.55605E-19
 -1       119 9.52251E-05-2.85676E-05-2.85669E-05-1.17577E-09 1.01062E-19-4.65441E-18
 -1       120 9.52364E-05-2.85713E-05-2.85704E-05-3.67004E-10 6.10366E-19-3.47346E-18
 -1       121 9.52375E-05-2.85726E-05-2.85704E-05-1.67194E-10-4.02183E-18-5.72529E-19
 -1       122 9.52409E-05-2.85836E-05-2.85670E-05-9.33995E-10-5.20222E-18-4.77847E-19
 -1       123 9.52463E-05-2.86015E-05-2.85619E-05-1.15056E-09 8.20695E-19 3.72416E-19
 -1       124 9.52521E-05-2.86210E-05-2.85563E-05-1.04405E-09 3.94589E-18-3.31129E-19
 -1       125 9.52574E-05-2.86388E-05-2.85511E-05-8.15388E-10 3.27308E-18 5.10101E-20
 -1       126 9.52616E-05-2.86528E-05-2.85469E-05-5.74981E-10-3.01648E-18-1.61384E-18
 -1       127 9.52645E-05-2.86626E-05-2.85440E-05-3.31117E-10-4.11388E-18 9.60285E-19
 -1       128 9.52659E-05-2.86675E-05-2.85425E-05-1.01985E-10-3.39356E-18 1.04955E-18
 -1       129 9.52659E-05-2.86673E-05-2.85426E-05 1.19198E-10-4.52333E-19-8.15965E-19
 -1       130 9.52643E-05-2.86621E-05-2.85441E-05 3.43863E-10 1.63873E-18 2.02119E-19
 -1       131 9.52614E-05-2.86521E-05-2.85471E-05 5.88917E-10-4.50197E-18-3.98606E-19
 -1       132 9.52572E-05-2.86380E-05-2.85513E-05 8.16939E-10-9.31546E-18 1.71098E-18
 -1       133 9.52519E-05-2.86202E-05-2.85565E-05 1.03549E-09-8.67514E-19 7.04145E-19
 -1       134 9.52461E-05-2.86009E-05-2.85621E-05 1.20274E-09-3.55978E-19 4.03598E-19
 -1       135 9.52409E-05-2.85836E-05-2.85671E-05 1.28576E-09-1.02907E-18-1.09535E-18
 -1       136 9.52379E-05-2.85730E-05-2.85704E-05-1.11754E-10-1.76794E-18 1.10882E-19
 -1       137 2.56625E-05-8.87783E-05 1.60299E-05-2.46938E-05 7.52271E-18 1.49920E-18
 -1       138 8.10003E-06-3.43864E-05 3.07610E-06-1.78913E-05 1.53292E-17 7.93056E-18
 -1       139 1.17069E-05 1.39751E-05-1.49081E-05 2.28726E-05 1.85373E-17 1.35682E-17
 -1       140 6.71395E-05 2.44890E-05-3.76603E-05 8.27679E-05 1.67780E-17 2.06845E-17
 -1       141 1.58260E-04-9.58877E-06-5.69588E-05 1.12151E-04 1.04526E-17 1.97858E-17
 -1       142 2.55337E-04-6.14769E-05-7.20840E-05 9.03055E-05 3.36976E-18 1.14210E-17
 -1       143 3.11729E-04-9.51462E-05-7.96469E-05 1.95299E-05 5.55865E-19-3.20178E-18
 -1       144 2.93019E-04-8.36929E-05-7.72358E-05-6.14402E-05 3.07489E-18-1.55951E-17
 -1       145 2.11017E-04-3.61086E-05-6.57239E-05-1.09927E-04 9.92776E-18-2.43361E-17
 -1       146 1.11485E-04 1.17603E-05-4.83845E-05-1.04862E-04 1.82315E-17-2.71758E-17
 -1       147 3.59532E-05 2.72188E-05-2.78307E-05-5.79536E-05 2.25243E-17-2.23007E-17
 -1       148 4.86021E-06-2.96892E-06-6.71087E-06-1.11922E-06 2.28779E-17-1.43775E-17
 -1       149 1.47440E-05-6.02005E-05 9.76661E-06 2.70576E-05 1.81074E-17-6.53941E-18
 -1       150 3.26265E-05-1.03321E-04 1.85970E-05 1.78651E-05 6.06793E-18-1.27851E-18
 -1       151 3.53218E-05-1.09022E-04 1.96924E-05-9.88191E-06-8.57536E-18-1.08828E-18
 -1       152 1.90825E-05-7.07981E-05 1.21372E-05-2.55695E-05-2.14892E-17-7.02926E-18
 -1       153 5.79285E-06-1.40373E-05-2.85171E-06-4.69690E-06-2.75184E-17-1.54484E-17
 -1       154 3.21876E-05 2.59481E-05-2.58190E-05 5.38199E-05-2.54538E-17-2.31049E-17
 -1       155 1.00068E-04 1.61304E-05-4.56652E-05 1.01332E-04-1.82375E-17-2.60988E-17
 -1       156 2.09841E-04-3.56577E-05-6.55387E-05 1.09488E-04-8.49468E-18-2.02911E-17
 -1       157 2.87173E-04-8.23350E-05-7.59687E-05 6.07227E-05-1.97834E-18-1.09634E-17
 -1       158 3.05696E-04-9.39844E-05-7.83284E-05-2.03682E-05-4.89770E-19 2.44380E-18
 -1       159 2.55045E-04-6.27179E-05-7.17720E-05-9.00338E-05-5.28406E-18 1.78267E-17
 -1       160 1.58281E-04-9.01041E-06-5.71286E-05-1.13567E-04-1.12533E-17 2.22283E-17
 -1       161 1.34779E-05 1.91145E-05-1.70237E-05-2.89521E-05-1.72109E-17 1.35377E-17
 -1       162 7.26435E-06-3.05310E-05 2.25211E-06 1.59337E-05-1.78690E-17 7.72981E-18
 -1       163 2.57299E-05-8.73113E-05 1.56000E-05 2.36204E-05-1.00109E-17 3.37889E-18
 -1       164 9.64740E-05-1.29969E-05-3.59654E-05-2.05034E-05-3.54936E-18 2.44395E-19
 -1       165 9.06282E-05-8.84832E-06-3.52017E-05-1.52744E-05-3.10960E-18-3.23601E-18
 -1       166 8.73192E-05-6.55242E-06-3.47218E-05-1.13465E-05-2.40155E-18-5.18564E-18
 -1       167 8.52147E-05-5.21397E-06-3.43658E-05-8.20332E-06-1.70839E-18-6.16567E-18
 -1       168 8.37055E-05-4.30506E-06-3.40921E-05-5.66050E-06-1.03666E-18-6.54889E-18
 -1       169 8.26126E-05-3.67468E-06-3.38848E-05-3.48589E-06-5.00113E-19-6.68938E-18
 -1       170 8.19317E-05-3.28769E-06-3.37541E-05-1.59310E-06 1.01935E-19-6.56211E-18
 -1       171 8.16764E-05-3.13765E-06-3.37074E-05 1.46257E-07 6.51982E-19-6.46756E-18
 -1       172 8.18653E-05-3.23161E-06-3.37495E-05 1.86578E-06 1.12015E-18-6.32807E-18
 -1       173 8.25095E-05-3.58317E-06-3.38794E-05 3.70546E-06 1.61619E-18-6.00694E-18
 -1       174 8.35925E-05-4.20193E-06-3.40874E-05 5.77375E-06 2.14419E-18-5.42635E-18
 -1       175 8.51840E-05-5.16126E-06-3.43748E-05 8.29862E-06 2.77705E-18-4.51930E-18
 -1       176 8.74146E-05-6.59866E-06-3.47456E-05 1.14339E-05 3.36897E-18-3.08697E-18
 -1       177 9.08234E-05-8.97830E-06-3.52333E-05 1.53809E-05 3.71231E-18-5.08736E-19
 -1       178 9.74194E-05-1.42488E-05-3.58417E-05 1.99854E-05 3.49545E-18 4.13723E-18
 -1       179 1.06943E-04-2.66675E-05-3.55717E-05 1.72624E-05 2.51562E-18 1.02565E-17
 -1       180 1.05113E-04-2.79102E-05-3.30827E-05-1.07506E-05-3.10099E-18 4.69878E-18
 -1       181 9.97045E-05-2.90777E-05-3.02996E-05-3.37854E-06-2.75949E-18 3.18751E-18
 -1       182 9.71329E-05-2.86856E-05-2.92841E-05-3.34774E-07-2.03530E-18 1.97512E-18
 -1       183 9.67660E-05-2.87800E-05-2.90999E-05 1.21067E-06-1.41478E-18 7.83320E-19
 -1       184 9.75298E-05-2.91003E-05-2.93077E-05 2.12173E-06-9.57458E-19 6.99348E-20
 -1       185 9.89973E-05-2.96064E-05-2.97306E-05 2.67454E-06-1.07751E-18-3.99983E-19
 -1       186 1.00873E-04-3.02413E-05-3.02692E-05 2.93184E-06-5.87078E-19-6.67252E-19
 -1       187 1.02901E-04-3.09468E-05-3.08412E-05 2.85557E-06-3.87980E-19-1.16876E-18
 -1       188 1.04804E-04-3.16502E-05-3.13596E-05 2.34979E-06-4.88798E-19-1.05960E-18
 -1       189 1.06252E-04-3.22492E-05-3.17268E-05 1.30525E-06-3.49601E-19-1.16728E-18
 -1       190 1.06874E-04-3.26002E-05-3.18436E-05-3.24132E-07-3.25464E-19-1.76698E-18
 -1       191 1.06317E-04-3.25254E-05-3.16341E-05-2.40384E-06-2.11692E-20-1.71474E-18
 -1       192 1.04388E-04-3.18646E-05-3.10851E-05-4.49762E-06-2.23814E-19-2.11113E-18
 -1       193 1.01258E-04-3.05894E-05-3.02833E-05-5.85336E-06-6.59577E-19-2.16232E-18
 -1       194 9.76298E-05-2.89537E-05-2.94241E-05-5.65050E-06-8.93640E-19-2.71437E-18
 -1       195 9.46596E-05-2.75201E-05-2.87638E-05-3.52294E-06-8.83439E-19-3.23866E-18
 -1       196 9.35121E-05-2.69321E-05-2.85239E-05 7.82498E-10-4.31259E-19-3.43757E-18
 -1       197 9.47171E-05-2.75009E-05-2.87968E-05 3.58884E-06-4.12452E-19-4.09166E-18
 -1       198 9.78246E-05-2.89597E-05-2.95048E-05 5.87528E-06-6.08259E-19-4.44827E-18
 -1       199 1.01704E-04-3.06758E-05-3.04363E-05 6.25386E-06 1.44546E-20-4.85651E-18
 -1       200 1.05185E-04-3.20707E-05-3.13372E-05 5.04070E-06 7.48838E-19-4.54561E-18
 -1       201 1.07536E-04-3.28719E-05-3.20073E-05 3.03946E-06-1.98063E-19-4.69552E-18
 -1       202 1.08554E-04-3.30925E-05-3.23520E-05 1.01293E-06 4.26779E-19-4.17005E-18
 -1       203 1.08407E-04-3.28875E-05-3.23771E-05-5.86190E-07 9.97838E-19-2.69438E-18
 -1       204 1.07430E-04-3.24323E-05-3.21508E-05-1.61676E-06 5.32984E-19-2.11830E-18
 -1       205 1.05968E-04-3.18667E-05-3.17633E-05-2.13254E-06-5.18287E-20-2.34173E-18
 -1       206 1.04307E-04-3.12838E-05-3.12979E-05-2.26587E-06-1.06270E-19-2.95952E-18
 -1       207 1.02648E-04-3.07383E-05-3.08186E-05-2.15491E-06 3.82571E-20-2.22231E-18
 -1       208 1.01118E-04-3.02573E-05-3.03672E-05-1.91155E-06-3.73156E-19-2.14490E-18
 -1       209 9.97796E-05-2.98507E-05-2.99670E-05-1.61437E-06-4.53271E-19-2.30608E-18
 -1       210 9.86559E-05-2.95182E-05-2.96276E-05-1.31282E-06-6.54519E-20-1.80821E-18
 -1       211 9.77429E-05-2.92537E-05-2.93497E-05-1.03461E-06-1.97565E-19-2.61908E-18
 -1       212 9.70215E-05-2.90484E-05-2.91288E-05-7.92841E-07 3.29323E-19-2.83011E-18
 -1       213 9.64662E-05-2.88928E-05-2.89578E-05-5.91441E-07 7.13893E-19-2.83219E-18
 -1       214 9.60492E-05-2.87777E-05-2.88288E-05-4.29094E-07-5.39841E-20-3.79441E-18
 -1       215 9.57441E-05-2.86948E-05-2.87339E-05-3.01777E-07-3.14638E-19-3.33142E-18
 -1       216 9.55272E-05-2.86369E-05-2.86661E-05-2.04359E-07-3.87646E-19-4.07679E-18
 -1       217 9.53784E-05-2.85980E-05-2.86193E-05-1.31542E-07 1.51582E-18-2.06599E-18
 -1       218 9.52807E-05-2.85731E-05-2.85883E-05-7.83834E-08-1.05011E-18-8.80743E-19
 -1       219 9.52208E-05-2.85586E-05-2.85690E-05-4.05408E-08-1.67338E-18-1.51059E-18
 -1       220 9.51881E-05-2.85513E-05-2.85583E-05-1.43697E-08-1.55529E-18-3.83898E-18
 -1       221 9.51743E-05-2.85490E-05-2.85534E-05 3.07592E-09 7.81010E-19-3.96207E-18
 -1       222 9.51733E-05-2.85501E-05-2.85527E-05 1.40831E-08 1.26463E-18-2.35142E-18
 -1       223 9.51805E-05-2.85532E-05-2.85544E-05 2.03301E-08 1.39391E-18-5.03435E-19
 -1       224 9.51922E-05-2.85575E-05-2.85577E-05 2.29260E-08 2.19877E-18-5.82743E-19
 -1       225 9.52058E-05-2.85624E-05-2.85615E-05 2.24296E-08 3.49766E-19-6.83465E-19
 -1       226 9.52189E-05-2.85672E-05-2.85650E-05 1.88489E-08-2.72931E-19 3.55071E-20
 -1       227 9.52300E-05-2.85718E-05-2.85678E-05 1.19595E-08 6.49235E-19 1.00842E-18
 -1       228 1.01683E-04-2.92397E-05-3.12180E-05 5.94895E-06 2.74642E-18 8.73150E-18
 -1       229 9.77267E-05-2.87608E-05-2.95230E-05 1.45031E-06 2.16027E-18 6.82098E-18
 -1       230 9.67249E-05-2.87273E-05-2.90950E-05-5.72548E-07 1.49696E-18 5.05246E-18
 -1       231 9.73703E-05-2.90128E-05-2.92681E-05-1.78022E-06 1.00861E-18 3.91057E-18
 -1       232 9.91107E-05-2.95694E-05-2.97896E-05-2.65722E-06 7.41926E-19 3.16763E-18
 -1       233 1.01659E-04-3.03546E-05-3.05534E-05-3.36596E-06 2.37677E-19 2.43861E-18
 -1       234 1.04824E-04-3.13346E-05-3.14950E-05-3.92790E-06 7.50160E-19 1.88046E-18
 -1       235 1.08403E-04-3.24735E-05-3.25448E-05-4.25656E-06 4.96056E-19 1.68822E-18
 -1       236 1.12095E-04-3.37115E-05-3.35985E-05-4.15127E-06 3.53063E-19 1.11699E-18
 -1       237 1.15419E-04-3.49323E-05-3.44966E-05-3.29952E-06-3.55307E-20 1.82131E-18
 -1       238 1.17661E-04-3.59176E-05-3.50250E-05-1.35377E-06-1.80335E-19 2.34108E-18
 -1       239 1.17942E-04-3.63061E-05-3.49636E-05 1.82369E-06-1.87701E-19 2.12067E-18
 -1       240 1.15505E-04-3.56331E-05-3.42007E-05 5.71105E-06-1.65205E-20 2.50611E-18
 -1       241 1.10340E-04-3.36022E-05-3.28775E-05 8.73299E-06 3.46669E-19 2.13810E-18
 -1       242 1.03912E-04-3.06329E-05-3.14467E-05 8.65895E-06 3.90419E-19 2.31248E-18
 -1       243 9.91467E-05-2.81718E-05-3.05068E-05 4.33720E-06 3.71695E-19 1.30980E-18
 -1       244 9.88193E-05-2.78783E-05-3.04872E-05-2.48804E-06 1.19788E-18-5.25094E-20
 -1       245 1.03245E-04-3.00112E-05-3.14162E-05-7.97862E-06 8.61416E-19-9.82201E-19
 -1       246 1.09968E-04-3.31439E-05-3.29008E-05-9.44642E-06 8.33530E-19-1.48755E-18
 -1       247 1.15876E-04-3.56090E-05-3.43627E-05-7.24664E-06-1.88256E-19-1.76512E-18
 -1       248 1.19182E-04-3.67124E-05-3.53212E-05-3.47071E-06 1.07401E-20-1.41301E-18
 -1       249 1.19692E-04-3.66260E-05-3.55962E-05-9.86647E-09 6.73553E-19-6.96749E-19
 -1       250 1.18112E-04-3.58344E-05-3.52705E-05 2.29311E-06-5.20042E-19-1.31881E-18
 -1       251 1.15340E-04-3.47494E-05-3.45506E-05 3.42161E-06-1.64551E-18-1.10305E-18
 -1       252 1.12113E-04-3.36236E-05-3.36474E-05 3.69979E-06-4.85158E-19 4.83186E-19
 -1       253 1.08917E-04-3.25853E-05-3.27184E-05 3.48087E-06 4.91749E-19-4.14047E-19
 -1       254 1.06020E-04-3.16872E-05-3.18581E-05 3.02930E-06 1.77516E-18-2.48750E-20
 -1       255 1.03537E-04-3.09411E-05-3.11115E-05 2.50896E-06-3.33035E-19-5.46684E-19
 -1       256 1.01490E-04-3.03390E-05-3.04912E-05 2.00769E-06-8.41581E-19-6.84843E-19
 -1       257 9.98514E-05-2.98639E-05-2.99921E-05 1.56525E-06-4.67018E-19-9.46902E-19
 -1       258 9.85694E-05-2.94962E-05-2.96002E-05 1.19426E-06-1.02703E-18-1.37125E-20
 -1       259 9.75865E-05-2.92168E-05-2.92989E-05 8.93518E-07-5.11410E-19 1.70961E-19
 -1       260 9.68470E-05-2.90081E-05-2.90718E-05 6.55614E-07 4.63660E-19 2.90747E-19
 -1       261 9.63012E-05-2.88553E-05-2.89037E-05 4.71069E-07 4.08815E-19 5.33101E-19
 -1       262 9.59066E-05-2.87456E-05-2.87819E-05 3.30349E-07 8.63551E-19-2.08769E-18
 -1       263 9.56279E-05-2.86689E-05-2.86956E-05 2.24782E-07 1.02474E-18-2.01405E-18
 -1       264 9.54368E-05-2.86169E-05-2.86363E-05 1.46889E-07-7.68139E-19-1.13773E-18
 -1       265 9.53108E-05-2.85832E-05-2.85969E-05 9.04281E-08-2.38177E-19 4.62129E-20
 -1       266 9.52322E-05-2.85626E-05-2.85722E-05 5.03094E-08 1.07365E-18-7.86941E-19
 -1       267 9.51876E-05-2.85515E-05-2.85580E-05 2.24629E-08 6.50435E-20 3.04099E-19
 -1       268 9.51667E-05-2.85469E-05-2.85511E-05 3.69521E-09-5.42616E-19-1.80369E-18
 -1       269 9.51620E-05-2.85467E-05-2.85492E-05-8.44160E-09-2.38684E-18 1.30173E-18
 -1       270 9.51676E-05-2.85492E-05-2.85506E-05-1.57627E-08 5.21702E-19 1.63601E-18
 -1       271 9.51795E-05-2.85534E-05-2.85540E-05-1.95334E-08-6.83502E-19 1.12769E-18
 -1       272 9.51945E-05-2.85585E-05-2.85583E-05-2.05107E-08 9.49733E-19-2.89401E-19
 -1       273 9.52098E-05-2.85636E-05-2.85626E-05-1.89560E-08 1.79339E-18-1.91689E-18
 -1       274 9.52233E-05-2.85685E-05-2.85663E-05-1.46333E-08 2.15790E-18-8.63680E-19
 -1       275 9.52332E-05-2.85723E-05-2.85689E-05-7.31908E-09-7.58202E-19-2.15138E-18
 -1       276 9.52370E-05-2.85790E-05-2.85677E-05-1.19928E-08 1.44841E-18-7.29614E-19
 -1       277 9.52417E-05-2.85897E-05-2.85652E-05-1.74877E-08 1.48577E-18 3.25521E-18
 -1       278 9.52465E-05-2.86018E-05-2.85620E-05-1.89142E-08 3.16110E-18 1.49143E-18
 -1       279 9.52507E-05-2.86135E-05-2.85588E-05-1.73095E-08 1.72637E-18-2.92539E-18
 -1       280 9.52540E-05-2.86235E-05-2.85559E-05-1.39321E-08-8.26244E-19-4.54401E-18
 -1       281 9.52564E-05-2.86311E-05-2.85537E-05-9.54889E-09-5.16472E-19-1.44689E-18
 -1       282 9.52579E-05-2.86357E-05-2.85523E-05-4.74871E-09 1.58707E-18 7.78827E-19
 -1       283 9.52583E-05-2.86372E-05-2.85519E-05 1.71595E-10 6.10623E-19 1.54638E-18
 -1       284 9.52578E-05-2.86355E-05-2.85524E-05 5.05978E-09 4.18307E-19 5.41697E-19
 -1       285 9.52563E-05-2.86307E-05-2.85538E-05 9.77414E-09-1.13083E-18-2.87185E-18
 -1       286 9.52538E-05-2.86231E-05-2.85560E-05 1.39743E-08-1.38283E-18-2.23072E-18
 -1       287 9.52504E-05-2.86129E-05-2.85589E-05 1.72766E-08-2.34596E-19 4.70984E-18
 -1       288 9.52463E-05-2.86013E-05-2.85622E-05 1.87788E-08 8.30269E-19 9.30016E-19
 -1       289 9.52414E-05-2.85892E-05-2.85653E-05 1.69872E-08-4.16806E-20 9.60315E-19
 -1       290 9.52363E-05-2.85799E-05-2.85670E-05 1.68610E-08-3.68680E-19-1.42541E-18
 -1       291 1.20165E-05-4.69308E-05 1.18005E-05 6.16129E-06 1.59877E-20 3.57511E-18
 -1       292 2.81715E-05-4.18472E-05 3.65556E-06 2.45934E-05 1.26631E-18 6.26820E-18
 -1       293 5.33936E-05-3.69617E-05-8.88265E-06 3.34196E-05 5.41889E-18 6.47472E-18
 -1       294 9.81775E-05-3.65499E-05-2.67506E-05 4.25210E-05 5.59973E-18 8.17895E-18
 -1       295 1.40079E-04-3.21866E-05-4.50349E-05 4.52282E-05 7.75109E-18 6.33581E-18
 -1       296 1.78022E-04-3.44501E-05-5.93649E-05 3.01162E-05 6.61260E-18 2.09979E-18
 -1       297 1.94862E-04-3.00659E-05-6.81937E-05 1.01730E-05 6.60993E-18-1.92711E-18
 -1       298 2.10207E-04-3.51522E-05-7.16230E-05-6.08054E-06 6.63788E-18-4.05099E-18
 -1       299 1.92778E-04-3.37794E-05-6.53672E-05-2.33997E-05 7.29359E-18-6.72438E-18
 -1       300 1.62671E-04-3.28798E-05-5.35678E-05-4.33209E-05 8.99549E-18-1.07243E-17
 -1       301 1.20592E-04-3.32444E-05-3.69472E-05-4.50823E-05 8.74816E-18-1.12700E-17
 -1       302 7.45037E-05-3.31683E-05-1.87844E-05-4.05176E-05 9.59032E-18-1.04888E-17
 -1       303 3.96234E-05-4.01807E-05-2.25842E-06-2.74266E-05 7.62393E-18-7.73984E-18
 -1       304 1.94781E-05-4.74453E-05 8.68798E-06-1.40792E-05 3.56622E-18-7.32281E-18
 -1       305 1.07546E-05-4.81393E-05 1.26949E-05-1.38938E-06-7.96754E-19-7.24711E-18
 -1       306 1.60107E-05-4.59887E-05 9.86168E-06 1.37699E-05-5.09511E-18-7.98138E-18
 -1       307 3.77667E-05-4.06302E-05-5.72452E-07 3.19367E-05-6.86033E-18-7.88339E-18
 -1       308 8.02573E-05-4.25597E-05-1.68363E-05 4.23892E-05-7.26521E-18-7.14663E-18
 -1       309 1.12111E-04-2.95844E-05-3.49291E-05 4.72998E-05-1.05741E-17-1.04949E-17
 -1       310 1.57183E-04-3.18521E-05-5.19964E-05 3.98443E-05-9.30511E-18-8.10018E-18
 -1       311 1.94640E-04-3.43088E-05-6.55512E-05 2.96123E-05-7.06166E-18-5.81022E-18
 -1       312 2.07609E-04-3.44632E-05-7.07791E-05 6.24469E-06-6.23501E-18-2.08407E-18
 -1       313 2.05939E-04-3.58909E-05-6.93471E-05-1.82934E-05-7.82531E-18 2.95053E-18
 -1       314 1.79048E-04-3.24719E-05-6.01351E-05-3.79529E-05-6.15277E-18 7.23324E-18
 -1       315 1.39409E-04-3.23581E-05-4.47917E-05-4.25134E-05-4.79251E-18 8.11076E-18
 -1       316 9.31839E-05-2.91341E-05-2.76096E-05-4.58318E-05-6.36037E-18 7.19724E-18
 -1       317 5.36884E-05-3.44337E-05-9.96002E-06-3.50708E-05-7.30566E-18 6.08159E-18
 -1       318 2.75161E-05-4.16690E-05 3.65643E-06-2.44938E-05-4.33321E-18 5.98461E-18
 -1       319 1.28608E-05-4.91214E-05 1.20627E-05-7.63827E-06-2.07745E-18 5.23435E-18
 -1       320 9.28199E-05-1.45635E-05-3.36017E-05-1.05946E-05-3.19935E-18-2.97085E-18
 -1       321 9.74968E-05-1.96798E-05-3.34097E-05-1.24311E-05-3.69591E-18-9.17416E-19
 -1       322 8.73045E-05-9.42389E-06-3.34286E-05-5.86940E-06-1.66530E-18-4.92598E-18
 -1       323 8.55762E-05-7.97001E-06-3.33018E-05-3.84312E-06-9.48049E-19-5.21437E-18
 -1       324 8.43918E-05-7.01054E-06-3.32001E-05-2.09442E-06-1.83354E-19-5.20826E-18
 -1       325 8.37598E-05-6.50463E-06-3.31436E-05-5.40539E-07 4.97213E-19-5.11597E-18
 -1       326 8.37054E-05-6.45039E-06-3.31434E-05 9.24489E-07 1.15057E-18-5.04799E-18
 -1       327 8.42512E-05-6.86703E-06-3.32010E-05 2.42005E-06 1.72308E-18-4.86409E-18
 -1       328 8.53831E-05-7.76742E-06-3.33055E-05 4.03816E-06 2.31059E-18-4.44169E-18
 -1       329 8.71619E-05-9.25172E-06-3.34406E-05 5.93770E-06 3.01143E-18-3.68018E-18
 -1       330 8.96472E-05-1.14692E-05-3.35687E-05 8.14312E-06 3.61747E-18-2.60304E-18
 -1       331 9.30817E-05-1.47947E-05-3.36293E-05 1.05202E-05 4.07307E-18-1.09413E-18
 -1       332 9.76742E-05-2.00018E-05-3.33907E-05 1.20289E-05 4.09935E-18 1.90001E-18
 -1       333 1.00895E-04-2.51249E-05-3.25529E-05 9.96183E-06 3.69480E-18 4.54263E-18
 -1       334 9.92382E-05-2.75699E-05-3.06814E-05 3.61843E-06 3.06679E-18 3.49393E-18
 -1       335 9.89583E-05-2.66578E-05-3.09396E-05-4.00995E-06-2.96282E-18-2.78789E-19
 -1       336 9.81694E-05-2.77768E-05-3.01412E-05-1.78639E-07-2.33262E-18-4.84533E-19
 -1       337 9.80865E-05-2.83956E-05-2.98511E-05 2.14117E-06-1.56092E-18-6.33524E-19
 -1       338 9.86325E-05-2.89492E-05-2.98564E-05 3.61844E-06-1.20639E-18-1.02687E-18
 -1       339 9.96757E-05-2.95849E-05-3.00363E-05 4.50182E-06-9.64660E-19-9.30997E-19
 -1       340 1.01082E-04-3.03652E-05-3.03089E-05 4.83829E-06-5.78839E-19-8.40846E-19
 -1       341 1.02719E-04-3.13127E-05-3.06087E-05 4.55027E-06-3.33022E-19-9.60262E-19
 -1       342 1.04429E-04-3.23994E-05-3.08804E-05 3.49191E-06-6.84076E-19-9.99665E-19
 -1       343 1.05994E-04-3.35022E-05-3.10823E-05 1.52924E-06-2.44803E-19-1.11843E-18
 -1       344 1.07098E-04-3.43447E-05-3.11955E-05-1.32159E-06-2.56166E-19-8.66100E-19
 -1       345 1.07334E-04-3.44843E-05-3.12339E-05-4.69734E-06-8.38902E-19-1.44301E-18
 -1       346 1.06333E-04-3.34468E-05-3.12429E-05-7.71383E-06-3.76973E-19-1.47066E-18
 -1       347 1.04075E-04-3.10978E-05-3.12705E-05-9.02778E-06-1.01480E-18-9.96634E-19
 -1       348 1.01278E-04-2.81311E-05-3.13360E-05-7.44560E-06-1.19182E-18-1.35280E-18
 -1       349 9.92689E-05-2.59418E-05-3.14103E-05-2.90356E-06-1.04188E-18-1.77239E-18
 -1       350 9.92670E-05-2.58705E-05-3.14403E-05 2.99188E-06-6.72951E-19-2.02947E-18
 -1       351 1.01316E-04-2.79621E-05-3.14247E-05 7.73450E-06-6.90315E-19-1.69479E-18
 -1       352 1.04282E-04-3.09728E-05-3.14122E-05 9.59935E-06-5.92230E-19-2.49537E-18
 -1       353 1.06788E-04-3.34335E-05-3.14413E-05 8.53288E-06-1.75758E-19-2.37324E-18
 -1       354 1.08082E-04-3.46158E-05-3.14973E-05 5.68497E-06 1.39587E-19-3.70012E-18
 -1       355 1.08139E-04-3.46069E-05-3.15286E-05 2.39910E-06 8.37676E-19-2.84171E-18
 -1       356 1.07309E-04-3.38712E-05-3.14873E-05-4.14014E-07 1.44109E-18-2.70229E-18
 -1       357 1.05988E-04-3.28613E-05-3.13509E-05-2.37837E-06 1.24658E-18-2.57589E-18
 -1       358 1.04478E-04-3.18642E-05-3.11266E-05-3.48858E-06 6.13839E-19-2.33074E-18
 -1       359 1.02964E-04-3.10107E-05-3.08401E-05-3.91474E-06 6.11442E-19-8.70408E-19
 -1       360 1.01552E-04-3.03335E-05-3.05225E-05-3.86969E-06 1.94312E-20-4.90670E-19
 -1       361 1.00293E-04-2.98189E-05-3.02016E-05-3.54243E-06-6.74926E-19-1.26259E-18
 -1       362 9.92060E-05-2.94379E-05-2.98982E-05-3.07572E-06-3.60633E-19-1.83916E-18
 -1       363 9.82926E-05-2.91604E-05-2.96254E-05-2.56623E-06 5.51557E-19-1.91091E-18
 -1       364 9.75427E-05-2.89609E-05-2.93896E-05-2.07326E-06-5.83055E-20-4.81292E-19
 -1       365 9.69400E-05-2.88193E-05-2.91922E-05-1.62901E-06-2.90598E-19 7.20872E-19
 -1       366 9.64655E-05-2.87204E-05-2.90316E-05-1.24757E-06 1.34522E-19 1.57703E-19
 -1       367 9.60993E-05-2.86526E-05-2.89041E-05-9.31675E-07-4.62625E-19-1.65750E-19
 -1       368 9.58225E-05-2.86074E-05-2.88052E-05-6.77611E-07-4.26316E-19-8.71809E-19
 -1       369 9.56179E-05-2.85784E-05-2.87302E-05-4.78357E-07-7.27916E-19-9.47885E-19
 -1       370 9.54705E-05-2.85608E-05-2.86748E-05-3.25643E-07 1.67292E-18 4.73568E-19
 -1       371 9.53672E-05-2.85513E-05-2.86348E-05-2.11166E-07 1.09509E-18-1.03626E-18
 -1       372 9.52977E-05-2.85472E-05-2.86069E-05-1.27268E-07-7.68829E-19-3.43351E-19
 -1       373 9.52532E-05-2.85467E-05-2.85882E-05-6.72641E-08-2.01276E-18 1.30958E-18
 -1       374 9.52271E-05-2.85484E-05-2.85763E-05-2.55645E-08-8.42859E-19 2.32859E-18
 -1       375 9.52139E-05-2.85516E-05-2.85694E-05 2.33118E-09 1.05104E-18 1.91653E-18
 -1       376 9.52097E-05-2.85556E-05-2.85659E-05 1.98958E-08 2.69906E-18 1.30421E-18
 -1       377 9.52112E-05-2.85602E-05-2.85647E-05 2.96562E-08 9.67446E-19 2.91837E-19
 -1       378 9.52163E-05-2.85651E-05-2.85648E-05 3.32704E-08 4.88725E-21-1.90212E-19
 -1       379 9.52232E-05-2.85704E-05-2.85655E-05 3.17233E-08-3.21752E-19 2.31630E-19
 -1       380 9.52295E-05-2.85751E-05-2.85662E-05 2.60036E-08-4.00935E-19-3.47165E-20
 -1       381 9.81945E-05-2.82753E-05-2.99241E-05-2.84802E-08 2.33899E-18 2.71502E-18
 -1       382 9.82097E-05-2.86683E-05-2.97776E-05-2.30951E-06 1.58164E-18 1.89896E-18
 -1       383 9.91556E-05-2.91288E-05-2.99970E-05-3.93651E-06 1.00216E-18 1.42290E-18
 -1       384 1.00829E-04-2.97400E-05-3.04586E-05-5.20499E-06 7.66273E-19 7.98485E-19
 -1       385 1.03084E-04-3.05434E-05-3.10852E-05-6.18869E-06 7.18815E-19 4.08693E-19
 -1       386 1.05796E-04-3.15830E-05-3.18074E-05-6.79264E-06 7.97088E-19 3.99357E-19
 -1       387 1.08823E-04-3.29063E-05-3.25451E-05-6.75636E-06 4.29680E-19 5.48517E-19
 -1       388 1.11956E-04-3.45270E-05-3.32014E-05-5.66096E-06-5.21963E-19 1.17252E-18
 -1       389 1.14838E-04-3.63212E-05-3.36740E-05-3.02113E-06-4.18691E-19 1.30498E-18
 -1       390 1.16870E-04-3.78416E-05-3.38934E-05 1.41788E-06-1.86691E-19 1.59584E-18
 -1       391 1.17178E-04-3.81652E-05-3.38839E-05 7.08344E-06-2.32338E-20 1.73849E-18
 -1       392 1.14960E-04-3.61871E-05-3.37785E-05 1.19209E-05 4.07016E-19 1.75241E-18
 -1       393 1.10490E-04-3.18053E-05-3.37486E-05 1.26464E-05 1.11679E-19 1.72772E-18
 -1       394 1.06114E-04-2.72596E-05-3.38391E-05 7.04825E-06 9.68668E-19 1.32614E-18
 -1       395 1.05165E-04-2.61124E-05-3.39126E-05-2.82314E-06 2.11719E-18 1.49490E-19
 -1       396 1.08533E-04-2.93917E-05-3.39344E-05-1.11566E-05 1.94528E-18-1.01076E-18
 -1       397 1.13709E-04-3.44250E-05-3.39799E-05-1.35353E-05 9.57467E-19-2.24562E-18
 -1       398 1.17376E-04-3.77615E-05-3.41361E-05-1.03644E-05 1.83060E-19-2.72241E-18
 -1       399 1.18422E-04-3.85376E-05-3.42646E-05-4.77252E-06-6.70175E-19-1.96722E-18
 -1       400 1.17282E-04-3.75138E-05-3.42173E-05 3.75826E-07 5.95517E-19-1.39855E-18
 -1       401 1.14927E-04-3.58249E-05-3.39262E-05 3.83360E-06-5.21284E-19-1.72825E-18
 -1       402 1.12107E-04-3.41615E-05-3.34208E-05 5.56354E-06-2.02855E-18-1.53458E-18
 -1       403 1.09263E-04-3.27801E-05-3.27849E-05 6.01963E-06-1.25062E-18-1.13253E-18
 -1       404 1.06623E-04-3.17090E-05-3.21060E-05 5.70851E-06 9.93678E-19-1.17353E-18
 -1       405 1.04291E-04-3.08978E-05-3.14506E-05 5.02020E-06 8.95366E-19 5.94882E-19
 -1       406 1.02302E-04-3.02859E-05-3.08589E-05 4.20503E-06 1.76566E-19 1.05550E-18
 -1       407 1.00651E-04-2.98235E-05-3.03492E-05 3.40353E-06 2.17006E-19 1.27003E-18
 -1       408 9.93120E-05-2.94737E-05-2.99254E-05 2.68379E-06-2.94017E-20 1.46364E-18
 -1       409 9.82465E-05-2.92101E-05-2.95825E-05 2.07108E-06-5.07311E-19 5.32249E-19
 -1       410 9.74145E-05-2.90128E-05-2.93113E-05 1.56759E-06-3.45761E-20-9.57991E-19
 -1       411 9.67761E-05-2.88668E-05-2.91010E-05 1.16432E-06-7.95439E-19-7.73489E-19
 -1       412 9.62949E-05-2.87606E-05-2.89409E-05 8.47834E-07 1.28565E-18-5.07437E-19
 -1       413 9.59388E-05-2.86847E-05-2.88214E-05 6.03776E-07 1.82495E-18 3.41289E-19
 -1       414 9.56808E-05-2.86320E-05-2.87338E-05 4.18629E-07 9.57699E-19 7.67475E-19
 -1       415 9.54983E-05-2.85965E-05-2.86712E-05 2.80437E-07-1.13256E-18-9.40550E-20
 -1       416 9.53731E-05-2.85738E-05-2.86275E-05 1.79033E-07-7.53549E-20-8.35132E-19
 -1       417 9.52906E-05-2.85603E-05-2.85981E-05 1.05998E-07 3.14220E-19-6.97655E-19
 -1       418 9.52393E-05-2.85533E-05-2.85793E-05 5.45130E-08 7.98576E-19 1.13146E-18
 -1       419 9.52104E-05-2.85508E-05-2.85681E-05 1.91629E-08-6.56530E-19 1.43660E-19
 -1       420 9.51971E-05-2.85514E-05-2.85623E-05-4.25111E-09-2.29468E-18 5.71886E-19
 -1       421 9.51945E-05-2.85539E-05-2.85602E-05-1.88868E-08-5.22477E-19 4.23094E-19
 -1       422 9.51986E-05-2.85576E-05-2.85604E-05-2.70049E-08-7.73196E-20 4.99325E-19
 -1       423 9.52066E-05-2.85620E-05-2.85620E-05-3.00680E-08 1.63308E-18-4.62504E-19
 -1       424 9.52162E-05-2.85668E-05-2.85640E-05-2.88042E-08 2.04785E-18-4.05632E-19
 -1       425 9.52260E-05-2.85719E-05-2.85660E-05-2.34034E-08 9.14325E-19 7.67502E-19
 -1       426 9.52319E-05-2.85757E-05-2.85670E-05-1.84356E-08 9.00389E-19 1.39736E-18
 -1       427 9.52465E-05-2.85962E-05-2.85644E-05-2.86395E-08 1.06556E-18-5.01022E-19
 -1       428 9.52411E-05-2.85883E-05-2.85655E-05-2.93695E-08 1.53096E-18 2.80535E-18
 -1       429 9.52363E-05-2.85821E-05-2.85661E-05-2.56154E-08 2.46942E-18 5.58532E-19
 -1       430 9.52503E-05-2.86025E-05-2.85633E-05-2.44966E-08 9.24048E-19-7.41572E-18
 -1       431 9.52527E-05-2.86074E-05-2.85623E-05-1.82957E-08 1.42251E-18-2.73953E-18
 -1       432 9.52541E-05-2.86105E-05-2.85615E-05-1.11000E-08 1.20894E-18 1.80209E-18
 -1       433 9.52547E-05-2.86120E-05-2.85611E-05-3.52872E-09-2.50635E-19 5.16439E-19
 -1       434 9.52546E-05-2.86119E-05-2.85611E-05 4.09403E-09 8.35647E-19 9.63368E-19
 -1       435 9.52539E-05-2.86102E-05-2.85615E-05 1.15640E-08-1.19992E-18-3.05646E-18
 -1       436 9.52525E-05-2.86070E-05-2.85623E-05 1.84716E-08-1.16010E-18-4.17201E-18
 -1       437 9.52501E-05-2.86021E-05-2.85634E-05 2.44824E-08 2.55647E-19 3.91323E-18
 -1       438 9.52462E-05-2.85957E-05-2.85645E-05 2.85046E-08 6.29717E-19 2.54040E-18
 -1       439 9.52409E-05-2.85880E-05-2.85656E-05 2.93865E-08-5.07115E-19-1.05991E-18
 -1       440 6.43978E-05-4.35938E-05-8.87750E-06 4.26945E-05-2.11144E-18 5.80977E-18
 -1       441 1.11575E-05-2.37690E-05 5.04634E-06-2.02995E-06-1.76388E-18 4.59462E-18
 -1       442 2.57934E-05-2.47638E-05-2.24783E-07 2.58364E-05-1.42804E-18 4.84376E-18
 -1       443 1.00479E-04-5.50459E-05-1.95728E-05 3.97129E-05-3.99376E-19 3.33747E-18
 -1       444 1.38397E-04-5.57642E-05-3.53533E-05 2.16479E-05 1.28659E-18-1.32042E-18
 -1       445 8.97013E-05-1.15502E-05-3.35536E-05-8.26049E-06-2.53915E-18-4.30871E-18
 -1       446 1.55763E-04-2.58656E-05-5.58480E-05-6.69075E-06 5.79476E-18-4.85096E-18
 -1       447 1.56366E-04-1.26236E-05-6.15993E-05-1.63627E-06 7.28565E-18-3.39828E-18
 -1       448 1.59525E-04-1.70762E-05-6.09080E-05 2.95225E-06 6.84191E-18-2.96377E-18
 -1       449 1.61176E-04-3.47860E-05-5.39219E-05-3.87435E-06 6.46524E-18-3.15403E-18
 -1       450 1.50322E-04-4.75004E-05-4.38095E-05-1.71852E-05 4.64092E-18-4.43379E-18
 -1       451 1.20540E-04-5.58818E-05-2.78160E-05-3.36632E-05 2.76281E-18-5.03762E-18
 -1       452 8.06881E-05-4.93382E-05-1.36926E-05-4.29415E-05 1.85606E-18-6.50655E-18
 -1       453 4.16461E-05-3.72532E-05-2.28263E-06-3.67972E-05 2.22981E-19-6.57869E-18
 -1       454 1.73926E-05-2.60506E-05 3.44778E-06-1.75864E-05-1.63477E-19-8.31183E-18
 -1       455 1.46502E-05-2.09168E-05 2.69853E-06 1.15865E-05 8.16857E-20-8.42184E-18
 -1       456 3.23966E-05-3.00872E-05-9.81918E-07 3.35272E-05-6.97743E-20-7.56252E-18
 -1       457 7.66953E-05-4.64979E-05-1.26962E-05 4.56826E-05 6.51051E-19-3.99217E-18
 -1       458 1.21260E-04-5.51310E-05-2.82772E-05 3.25191E-05-3.05054E-18-2.35745E-18
 -1       459 1.43334E-04-4.98039E-05-4.01811E-05 1.67962E-05-4.67200E-18-1.12560E-18
 -1       460 1.57165E-04-3.07847E-05-5.39535E-05 4.29829E-06-7.01645E-18-1.50507E-18
 -1       461 1.56762E-04-1.61531E-05-6.01778E-05-1.38964E-06-7.12990E-18-1.37278E-18
 -1       462 1.58626E-04-1.30562E-05-6.22468E-05 9.23147E-07-8.08758E-18-1.70553E-18
 -1       463 1.55736E-04-2.22616E-05-5.71867E-05 1.63882E-06-5.48316E-18-3.33572E-18
 -1       464 1.53240E-04-3.87548E-05-4.89066E-05-9.10071E-06-2.68568E-18-9.78535E-19
 -1       465 1.32280E-04-5.27749E-05-3.41251E-05-2.64908E-05 1.61095E-19 2.32288E-18
 -1       466 9.93924E-05-5.15899E-05-2.05835E-05-4.11451E-05-1.34604E-18 1.30554E-18
 -1       467 6.07351E-05-4.21618E-05-8.11421E-06-4.35730E-05-7.10555E-19 2.89624E-18
 -1       468 2.37733E-05-2.72092E-05 1.28828E-06-2.72809E-05-3.31508E-19 6.58250E-18
 -1       469 1.53567E-04-4.52351E-05-4.64636E-05 6.91197E-06 3.86521E-18-2.60103E-18
 -1       470 1.09506E-04-5.81000E-05-2.19008E-05 3.68851E-05 1.84553E-18-1.98515E-18
 -1       471 9.81442E-05-2.53960E-05-3.11621E-05 2.79830E-06 3.21232E-18 4.90570E-19
 -1       472 8.69123E-05-1.09557E-05-3.25685E-05-1.99263E-06-4.73808E-19-4.66100E-18
 -1       473 8.86350E-05-1.25782E-05-3.26137E-05-3.36053E-06-1.19116E-18-4.56648E-18
 -1       474 8.53678E-05-9.54541E-06-3.25090E-05 2.59039E-07 7.56434E-19-4.61529E-18
 -1       475 8.56367E-05-9.77329E-06-3.25270E-05 1.26787E-06 1.33518E-18-4.56073E-18
 -1       476 8.66091E-05-1.06422E-05-3.25728E-05 2.30996E-06 1.96389E-18-4.25100E-18
 -1       477 8.83059E-05-1.22206E-05-3.26268E-05 3.48755E-06 2.59745E-18-3.58385E-18
 -1       478 9.07020E-05-1.45821E-05-3.26448E-05 4.80143E-06 3.08484E-18-2.78507E-18
 -1       479 9.38062E-05-1.78934E-05-3.25534E-05 6.11614E-06 3.59880E-18-1.74013E-18
 -1       480 9.80373E-05-2.67830E-05-3.05176E-05-1.03274E-06 2.37853E-18 3.03654E-19
 -1       481 9.73667E-05-2.45681E-05-3.11892E-05-2.67402E-06-2.60397E-18-1.67739E-18
 -1       482 1.44466E-04-3.81594E-05-4.60301E-05-1.16421E-05 4.09620E-18-4.88251E-18
 -1       483 9.76192E-05-2.63704E-05-3.05261E-05 7.88920E-07-1.91211E-18-1.42831E-18
 -1       484 9.78991E-05-2.74765E-05-3.01764E-05 3.24367E-06-1.56883E-18-1.33659E-18
 -1       485 9.84645E-05-2.83822E-05-3.00332E-05 4.92545E-06-1.21134E-18-1.35509E-18
 -1       486 9.94018E-05-2.93598E-05-3.00179E-05 5.95560E-06-7.38473E-19-1.39871E-18
 -1       487 1.00753E-04-3.05795E-05-3.00761E-05 6.32001E-06-5.01682E-19-1.49828E-18
 -1       488 1.02541E-04-3.21421E-05-3.01750E-05 5.89296E-06-5.13267E-19-1.41016E-18
 -1       489 1.04737E-04-3.40335E-05-3.03079E-05 4.47570E-06-5.12071E-19-1.02686E-18
 -1       490 1.07170E-04-3.60134E-05-3.05033E-05 1.88197E-06 3.62946E-20-6.06660E-19
 -1       491 1.09400E-04-3.74817E-05-3.08284E-05-1.87370E-06-4.99840E-19 6.48662E-20
 -1       492 1.10671E-04-3.74787E-05-3.13733E-05-6.26953E-06-7.64323E-19 4.00930E-19
 -1       493 1.10118E-04-3.50300E-05-3.21919E-05-9.95559E-06-6.26482E-19-2.65123E-19
 -1       494 1.07597E-04-3.02026E-05-3.31754E-05-1.07415E-05-1.32726E-18 2.14422E-20
 -1       495 1.04355E-04-2.49211E-05-3.40565E-05-7.21599E-06-1.49480E-18-9.94492E-20
 -1       496 1.02829E-04-2.25005E-05-3.44489E-05 3.35827E-08-1.52439E-18-6.58387E-19
 -1       497 1.04259E-04-2.46227E-05-3.41468E-05 7.42159E-06-1.01152E-18-1.94146E-18
 -1       498 1.07517E-04-2.97717E-05-3.33272E-05 1.13804E-05-1.23828E-18-2.73504E-18
 -1       499 1.10251E-04-3.47281E-05-3.23716E-05 1.08859E-05-2.89459E-19-2.51610E-18
 -1       500 1.11030E-04-3.73605E-05-3.15790E-05 7.44489E-06-1.02138E-19-2.16660E-18
 -1       501 1.09967E-04-3.75376E-05-3.10474E-05 3.15043E-06 1.04294E-18-1.36336E-18
 -1       502 1.07874E-04-3.61751E-05-3.07354E-05-5.81256E-07 1.24141E-18-1.86992E-18
 -1       503 1.05527E-04-3.42695E-05-3.05450E-05-3.20025E-06 1.08493E-18-2.32240E-18
 -1       504 1.03368E-04-3.24502E-05-3.03975E-05-4.70340E-06 5.78269E-19-2.87593E-18
 -1       505 1.01565E-04-3.09903E-05-3.02482E-05-5.31597E-06 9.69137E-19-3.61164E-18
 -1       506 1.00126E-04-2.99367E-05-3.00815E-05-5.31003E-06 3.24776E-19-3.22829E-18
 -1       507 9.89981E-05-2.92330E-05-2.98989E-05-4.92333E-06-5.45522E-19-2.68836E-18
 -1       508 9.81187E-05-2.87938E-05-2.97097E-05-4.33652E-06-4.28768E-19-9.97903E-19
 -1       509 9.74321E-05-2.85393E-05-2.95243E-05-3.67486E-06-5.66814E-20-4.73282E-19
 -1       510 9.68953E-05-2.84062E-05-2.93513E-05-3.01846E-06 5.78789E-19-2.02464E-19
 -1       511 9.64760E-05-2.83493E-05-2.91961E-05-2.41380E-06 5.75608E-19-5.34385E-19
 -1       512 9.61499E-05-2.83375E-05-2.90615E-05-1.88394E-06-1.65578E-19 1.45651E-19
 -1       513 9.58983E-05-2.83506E-05-2.89482E-05-1.43653E-06-2.25890E-19 7.68944E-19
 -1       514 9.57061E-05-2.83759E-05-2.88552E-05-1.06981E-06-1.68888E-18 6.35368E-19
 -1       515 9.55614E-05-2.84056E-05-2.87806E-05-7.76718E-07-4.55520E-19 1.38926E-18
 -1       516 9.54541E-05-2.84353E-05-2.87220E-05-5.47715E-07 5.15139E-19 1.35736E-18
 -1       517 9.53762E-05-2.84625E-05-2.86770E-05-3.72559E-07 2.10758E-19-6.70804E-19
 -1       518 9.53210E-05-2.84864E-05-2.86432E-05-2.41377E-07 3.95830E-19 2.42621E-19
 -1       519 9.52831E-05-2.85065E-05-2.86184E-05-1.45255E-07-2.79331E-19 1.02445E-18
 -1       520 9.52581E-05-2.85230E-05-2.86006E-05-7.65108E-08-1.22690E-19 4.04452E-18
 -1       521 9.52426E-05-2.85365E-05-2.85883E-05-2.87818E-08-5.22096E-19 3.11168E-18
 -1       522 9.52340E-05-2.85474E-05-2.85799E-05 3.01616E-09 1.28308E-18 3.03903E-18
 -1       523 9.52303E-05-2.85565E-05-2.85744E-05 2.27878E-08 5.73566E-19 2.38973E-18
 -1       524 9.52299E-05-2.85644E-05-2.85709E-05 3.33475E-08 2.60385E-19 1.80620E-18
 -1       525 9.52319E-05-2.85719E-05-2.85686E-05 3.65816E-08 1.50749E-19 4.45247E-19
 -1       526 9.88434E-05-2.81326E-05-3.02981E-05-5.95567E-06 1.27738E-18-1.85594E-19
 -1       527 9.99120E-05-2.87715E-05-3.04851E-05-7.66667E-06 1.04534E-18-5.29512E-19
 -1       528 1.01459E-04-2.96637E-05-3.07688E-05-8.96581E-06 6.92539E-19-6.37143E-19
 -1       529 1.03560E-04-3.10249E-05-3.10898E-05-9.69622E-06 1.42764E-19-1.80292E-19
 -1       530 1.06349E-04-3.30944E-05-3.14040E-05-9.50748E-06-3.81245E-19 3.96977E-19
 -1       531 1.09968E-04-3.60271E-05-3.17047E-05-7.85380E-06-4.05680E-19 9.57759E-20
 -1       532 1.14357E-04-3.95914E-05-3.20635E-05-4.09732E-06-3.45160E-19 2.51917E-19
 -1       533 1.18844E-04-4.26505E-05-3.26752E-05 2.09995E-06-4.23834E-19 7.27691E-19
 -1       534 1.21660E-04-4.27643E-05-3.38530E-05 9.80632E-06-1.27491E-19 1.21105E-18
 -1       535 1.20699E-04-3.74936E-05-3.57373E-05 1.55117E-05 7.09787E-20 1.49911E-18
 -1       536 1.16005E-04-2.78389E-05-3.79334E-05 1.38770E-05 5.56004E-19 1.58535E-18
 -1       537 1.12154E-04-2.09504E-05-3.92867E-05 2.98903E-06 2.70180E-18 3.90872E-19
 -1       538 1.13677E-04-2.36408E-05-3.87722E-05-1.04934E-05 3.19437E-18-1.02085E-18
 -1       539 1.18702E-04-3.29998E-05-3.68819E-05-1.69276E-05 2.26174E-18-2.21658E-18
 -1       540 1.22293E-04-4.12431E-05-3.47592E-05-1.40107E-05 6.94040E-19-2.50457E-18
 -1       541 1.21107E-04-4.34082E-05-3.33350E-05-6.52085E-06-2.96647E-19-2.63126E-18
 -1       542 1.17210E-04-4.13460E-05-3.25387E-05 5.86352E-07-4.25594E-19-2.60939E-18
 -1       543 1.12773E-04-3.78312E-05-3.21372E-05 5.41997E-06-1.13181E-19-1.09911E-18
 -1       544 1.08893E-04-3.45758E-05-3.18626E-05 7.91996E-06-1.16631E-18-6.26995E-19
 -1       545 1.05844E-04-3.21735E-05-3.15790E-05 8.69163E-06-1.73243E-18-1.95982E-18
 -1       546 1.03519E-04-3.06041E-05-3.12502E-05 8.39223E-06-3.49082E-19-2.32629E-18
 -1       547 1.01732E-04-2.96521E-05-3.08891E-05 7.52879E-06-3.84526E-19-1.45793E-18
 -1       548 1.00328E-04-2.91018E-05-3.05219E-05 6.43745E-06 1.97613E-19-5.94864E-19
 -1       549 9.92057E-05-2.87941E-05-3.01726E-05 5.31881E-06-4.97226E-19 2.82757E-19
 -1       550 9.83012E-05-2.86267E-05-2.98569E-05 4.28032E-06-1.99420E-19 6.30285E-19
 -1       551 9.75727E-05-2.85389E-05-2.95828E-05 3.37063E-06 5.04968E-19 4.10345E-19
 -1       552 9.69901E-05-2.84957E-05-2.93521E-05 2.60389E-06 3.17363E-19-7.28614E-20
 -1       553 9.65295E-05-2.84775E-05-2.91630E-05 1.97545E-06-6.95080E-19 1.14970E-18
 -1       554 9.61705E-05-2.84735E-05-2.90113E-05 1.47158E-06 2.16810E-19 1.32010E-18
 -1       555 9.58951E-05-2.84773E-05-2.88921E-05 1.07501E-06 2.04050E-18 1.64556E-18
 -1       556 9.56875E-05-2.84853E-05-2.88000E-05 7.68092E-07 8.99513E-19 2.40268E-19
 -1       557 9.55341E-05-2.84953E-05-2.87302E-05 5.34350E-07 1.03956E-18 3.05580E-19
 -1       558 9.54233E-05-2.85059E-05-2.86784E-05 3.59196E-07 9.31431E-19-1.53161E-18
 -1       559 9.53455E-05-2.85164E-05-2.86406E-05 2.30162E-07 6.86571E-20-2.07286E-18
 -1       560 9.52926E-05-2.85263E-05-2.86139E-05 1.36870E-07-2.34664E-19-2.02925E-18
 -1       561 9.52583E-05-2.85352E-05-2.85954E-05 7.08699E-08-3.00855E-19 3.33574E-19
 -1       562 9.52376E-05-2.85433E-05-2.85832E-05 2.54389E-08-1.14995E-18 1.48162E-19
 -1       563 9.52266E-05-2.85505E-05-2.85754E-05-4.63516E-09-1.00929E-18-4.96397E-19
 -1       564 9.52224E-05-2.85570E-05-2.85709E-05-2.32650E-08-3.91633E-19-3.26733E-19
 -1       565 9.52226E-05-2.85631E-05-2.85684E-05-3.32496E-08 9.80164E-19 7.94439E-19
 -1       566 9.52257E-05-2.85691E-05-2.85671E-05-3.65133E-08 1.25584E-18 2.14404E-18
 -1       567 9.52307E-05-2.85755E-05-2.85665E-05-3.40644E-08 9.80360E-19 2.84859E-18
 -1       568 9.52511E-05-2.85889E-05-2.85695E-05-2.45494E-08 3.93537E-18-4.14013E-18
 -1       569 9.52526E-05-2.85897E-05-2.85698E-05-1.65955E-08 3.77268E-18-1.75719E-18
 -1       570 9.52421E-05-2.85833E-05-2.85681E-05-3.51452E-08-4.86536E-20 7.28335E-19
 -1       571 9.52478E-05-2.85869E-05-2.85690E-05-3.11182E-08 1.31943E-19-3.58313E-18
 -1       572 9.52531E-05-2.85899E-05-2.85699E-05-8.14038E-09 1.06057E-18-1.29878E-19
 -1       573 9.52531E-05-2.85898E-05-2.85699E-05 3.91204E-10 2.72864E-19 1.50986E-18
 -1       574 9.52529E-05-2.85897E-05-2.85699E-05 8.84997E-09-3.95961E-19-2.10266E-18
 -1       575 9.52522E-05-2.85893E-05-2.85698E-05 1.69767E-08-5.11493E-19-3.49758E-18
 -1       576 9.52507E-05-2.85884E-05-2.85695E-05 2.46968E-08 1.20219E-18-4.86375E-19
 -1       577 9.52475E-05-2.85863E-05-2.85690E-05 3.11062E-08 3.37298E-19 4.20199E-18
 -1       578 9.52416E-05-2.85826E-05-2.85682E-05 3.46287E-08-9.14311E-19 2.31187E-20
 -1       579 2.45128E-05-1.39849E-05-3.91425E-06 8.00654E-06-1.41276E-18 4.18551E-18
 -1       580 5.67405E-05-3.16616E-05-1.02397E-05 3.72701E-05-2.90564E-18 4.68118E-18
 -1       581 2.65792E-05-1.50002E-05-4.34365E-06-1.61797E-05 4.04008E-19 3.81345E-18
 -1       582 9.82291E-05-2.75523E-05-3.02788E-05-3.81158E-06 1.65070E-18-1.93961E-20
 -1       583 9.63299E-05-5.15654E-05-1.88521E-05 3.77987E-05-3.30189E-18 2.08055E-18
 -1       584 1.26635E-04-6.20718E-05-2.76571E-05 2.31866E-05-2.42641E-18-2.60068E-18
 -1       585 9.60688E-05-2.08922E-05-3.22402E-05-6.71221E-06-3.06522E-18-2.31892E-18
 -1       586 5.18071E-05-3.14075E-05-8.31362E-06-3.96603E-05 2.08603E-18 4.21785E-18
 -1       587 6.21887E-05-3.33721E-05-1.18095E-05 3.94563E-05 2.70137E-18-3.73340E-18
 -1       588 2.45190E-05-1.36595E-05-4.03235E-06-6.39985E-06 8.36048E-20-7.80244E-18
 -1       589 8.58076E-05-9.94725E-06-3.25258E-05-7.99344E-07 1.98273E-19-4.62267E-18
 -1       590 1.31095E-04-1.48094E-05-5.05836E-05-1.04217E-05 5.40471E-18-3.61241E-18
 -1       591 1.11546E-04-5.91290E-05-2.23543E-05-3.52356E-05-1.04699E-18-2.88257E-18
 -1       592 1.34351E-04-1.10741E-05-5.34652E-05 3.94309E-06 6.06211E-18-1.98116E-18
 -1       593 1.40346E-04-2.52149E-05-4.99248E-05 1.34598E-05 4.76530E-18 9.77264E-20
 -1       594 1.48096E-04-4.55898E-05-4.42664E-05 5.18495E-06 3.03727E-18 1.96300E-19
 -1       595 1.41003E-04-5.99322E-05-3.48259E-05-1.11685E-05 1.58792E-19-4.36169E-19
 -1       596 7.48948E-05-4.34665E-05-1.30759E-05-4.24485E-05-1.94399E-18-5.27040E-18
 -1       597 3.98288E-05-2.53621E-05-5.69591E-06-3.17535E-05-1.43323E-18-6.24020E-18
 -1       598 3.88641E-05-1.99701E-05-7.40841E-06 2.81732E-05 2.12407E-18-6.81655E-18
 -1       599 1.37683E-04-2.17816E-05-5.02192E-05-1.06257E-05-5.55257E-18 2.37752E-19
 -1       600 1.36147E-04-5.89551E-05-3.32005E-05 1.49411E-05-1.36401E-18 1.07732E-18
 -1       601 1.43058E-04-4.32174E-05-4.31251E-05-4.15080E-06-3.87369E-18 1.24371E-18
 -1       602 1.31796E-04-7.64261E-06-5.38311E-05-2.49044E-06-6.51771E-18-1.78572E-18
 -1       603 1.36102E-04-1.23315E-05-5.36095E-05 7.73781E-06-5.30581E-18-3.97401E-18
 -1       604 1.39441E-04-3.23472E-05-4.64212E-05 1.09557E-05-2.05548E-18-5.62790E-18
 -1       605 1.41721E-04-5.16082E-05-3.88148E-05-2.74027E-06 5.09556E-19-4.00604E-18
 -1       606 1.23443E-04-5.98061E-05-2.72826E-05-2.77297E-05 1.62937E-18-6.81862E-20
 -1       607 9.25747E-05-5.12477E-05-1.74505E-05-4.20545E-05 1.25070E-18 2.79296E-19
 -1       608 1.44196E-04-5.54119E-05-3.82788E-05 4.81159E-07 6.63959E-19-4.24501E-18
 -1       609 9.82546E-05-2.36081E-05-3.19935E-05 6.86603E-06 3.71072E-18 1.06169E-18
 -1       610 1.29763E-04-2.63396E-05-4.47280E-05-1.70083E-05 4.49248E-18-3.98685E-18
 -1       611 9.08988E-05-1.48600E-05-3.26189E-05-4.82107E-06-1.94894E-18-4.09778E-18
 -1       612 4.40934E-05-1.87983E-05-1.02801E-05 2.41561E-05-2.31358E-18 3.67692E-18
 -1       613 8.78466E-05-4.50496E-05-1.80631E-05 3.84477E-05 2.79230E-18-2.60711E-18
 -1       614 9.52340E-05-2.85769E-05-2.85673E-05 3.52680E-08-4.47121E-19 5.25411E-19
 -1       615 8.73329E-05-1.29379E-05-3.18884E-05 9.68957E-07 1.39488E-18-3.77288E-18
 -1       616 8.66730E-05-1.23265E-05-3.18671E-05 5.66340E-07 8.89388E-19-4.14326E-18
 -1       617 9.09703E-05-1.65161E-05-3.19110E-05 1.95733E-06 2.53172E-18-2.85202E-18
 -1       618 9.36331E-05-1.94235E-05-3.18088E-05 2.40957E-06 2.93659E-18-1.91229E-18
 -1       619 9.63683E-05-2.33776E-05-3.12728E-05 1.12056E-06 2.78396E-18-1.08355E-18
 -1       620 9.66283E-05-2.49738E-05-3.07052E-05-2.36703E-06 2.06424E-18-1.16231E-18
 -1       621 7.99784E-05-4.07911E-05-1.64265E-05-3.92639E-05 2.85852E-18 9.02037E-19
 -1       622 8.03507E-05-3.76569E-05-1.79658E-05 3.35193E-05-2.13030E-18 2.98759E-18
 -1       623 9.63998E-05-2.50056E-05-3.05950E-05 2.07575E-06-1.52167E-18-2.04181E-18
 -1       624 9.68650E-05-2.64201E-05-3.01896E-05 4.41639E-06-1.31144E-18-1.61592E-18
 -1       625 9.74872E-05-2.76776E-05-2.99180E-05 6.15138E-06-8.83705E-19-1.33303E-18
 -1       626 9.84816E-05-2.91024E-05-2.97341E-05 7.31054E-06-6.33862E-19-1.42937E-18
 -1       627 1.00045E-04-3.09474E-05-2.96141E-05 7.83009E-06-2.85408E-19-1.20559E-18
 -1       628 1.02362E-04-3.33796E-05-2.95658E-05 7.53119E-06-1.15330E-21-8.45943E-19
 -1       629 1.05537E-04-3.63751E-05-2.96436E-05 6.11256E-06 9.04085E-20-1.49210E-19
 -1       630 1.09412E-04-3.95019E-05-2.99633E-05 3.20362E-06 2.36960E-19 1.42017E-19
 -1       631 1.13271E-04-4.16300E-05-3.07029E-05-1.37035E-06-3.66213E-19 3.45173E-19
 -1       632 1.15745E-04-4.09843E-05-3.20551E-05-7.03902E-06-8.27394E-19 1.16968E-18
 -1       633 1.15213E-04-3.57098E-05-3.40963E-05-1.19556E-05-6.31109E-19 1.23084E-18
 -1       634 1.11214E-04-2.67489E-05-3.63229E-05-1.18635E-05-1.59075E-18 1.24815E-18
 -1       635 1.07324E-04-1.92738E-05-3.78432E-05-5.07683E-06-2.17095E-18 5.99613E-19
 -1       636 1.07189E-04-1.89654E-05-3.79196E-05 5.09867E-06-2.59650E-18-3.57516E-19
 -1       637 1.10968E-04-2.61141E-05-3.64403E-05 1.21960E-05-1.60914E-18-8.42574E-19
 -1       638 1.14968E-04-3.51578E-05-3.42480E-05 1.26816E-05-8.82912E-19-1.65728E-18
 -1       639 1.15768E-04-4.05462E-05-3.22573E-05 8.33561E-06-9.50522E-20-1.94296E-18
 -1       640 1.13538E-04-4.15369E-05-3.08592E-05 2.72198E-06 9.53637E-19-1.53888E-18
 -1       641 1.09687E-04-3.95028E-05-3.00817E-05-1.86821E-06 7.47095E-19-2.13317E-18
 -1       642 1.05796E-04-3.64583E-05-2.97187E-05-4.83274E-06 9.35013E-19-2.71603E-18
 -1       643 1.02543E-04-3.35258E-05-2.95806E-05-6.35851E-06 2.92941E-19-2.44639E-18
 -1       644 1.00125E-04-3.12097E-05-2.95359E-05-6.84919E-06 1.53998E-19-2.77879E-18
 -1       645 9.84477E-05-2.95908E-05-2.95102E-05-6.68014E-06 8.91999E-19-3.10694E-18
 -1       646 9.73331E-05-2.85681E-05-2.94705E-05-6.12919E-06 5.89727E-19-2.93861E-18
 -1       647 9.66108E-05-2.79906E-05-2.94083E-05-5.38773E-06 4.02637E-19-1.34838E-18
 -1       648 9.61481E-05-2.77177E-05-2.93269E-05-4.58196E-06 3.50034E-19-2.66657E-19
 -1       649 9.58516E-05-2.76381E-05-2.92339E-05-3.79150E-06 4.56328E-19 3.25706E-19
 -1       650 9.56596E-05-2.76718E-05-2.91373E-05-3.06314E-06 4.79525E-19-3.79721E-19
 -1       651 9.55331E-05-2.77645E-05-2.90434E-05-2.42084E-06 1.23723E-19-1.05258E-19
 -1       652 9.54477E-05-2.78819E-05-2.89565E-05-1.87322E-06-4.28031E-19-3.08632E-19
 -1       653 9.53885E-05-2.80029E-05-2.88793E-05-1.41905E-06-1.33347E-18 3.71222E-19
 -1       654 9.53466E-05-2.81162E-05-2.88129E-05-1.05127E-06-7.71462E-19 9.96255E-19
 -1       655 9.53163E-05-2.82158E-05-2.87572E-05-7.59791E-07-5.89656E-19 8.86356E-20
 -1       656 9.52941E-05-2.83000E-05-2.87117E-05-5.33406E-07-2.98779E-19-3.55954E-19
 -1       657 9.52777E-05-2.83688E-05-2.86752E-05-3.61010E-07 7.41035E-19-8.51204E-19
 -1       658 9.52656E-05-2.84236E-05-2.86465E-05-2.32331E-07 7.38084E-19-3.78584E-19
 -1       659 9.52568E-05-2.84662E-05-2.86245E-05-1.38319E-07 1.02878E-18-1.03309E-18
 -1       660 9.52504E-05-2.84989E-05-2.86078E-05-7.13046E-08-4.61281E-19 7.27480E-20
 -1       661 9.52459E-05-2.85235E-05-2.85953E-05-2.50182E-08 8.49843E-19 3.73767E-18
 -1       662 9.52429E-05-2.85422E-05-2.85860E-05 5.51846E-09 7.74196E-19 2.86275E-18
 -1       663 9.52413E-05-2.85566E-05-2.85791E-05 2.41260E-08-4.84929E-19 3.01441E-18
 -1       664 9.52408E-05-2.85686E-05-2.85738E-05 3.34086E-08-1.04757E-18 1.08402E-18
 -1       665 9.75917E-05-2.73259E-05-3.01129E-05-9.44971E-06 8.05905E-19-9.36164E-19
 -1       666 1.20117E-04-9.75964E-06-4.78462E-05 4.59007E-06-4.36852E-18-2.72477E-18
 -1       667 9.70505E-05-2.65763E-05-3.02013E-05-7.49740E-06 1.25462E-18-1.08183E-18
 -1       668 1.00442E-04-3.04815E-05-2.99850E-05-1.21114E-05-3.77821E-19-6.91669E-19
 -1       669 1.03558E-04-3.37550E-05-2.99200E-05-1.23489E-05-5.12778E-19-9.28272E-19
 -1       670 1.08532E-04-3.86135E-05-2.99703E-05-1.11000E-05-5.66963E-19-3.30367E-19
 -1       671 1.15588E-04-4.45888E-05-3.04355E-05-7.35537E-06-1.02749E-18 1.83967E-19
 -1       672 1.23772E-04-4.94793E-05-3.18594E-05-1.95407E-07-1.01271E-18 1.80125E-18
 -1       673 1.29611E-04-4.80540E-05-3.50588E-05 9.96501E-06-4.08055E-19 2.76109E-18
 -1       674 1.28937E-04-3.58973E-05-4.02104E-05 1.69051E-05 9.93437E-19 2.27865E-18
 -1       675 1.20407E-04-1.49997E-05-4.56870E-05-4.73633E-06 4.63263E-18-2.33797E-18
 -1       676 1.27111E-04-4.98883E-05-3.31441E-05-5.35777E-06-9.48677E-20-3.02534E-18
 -1       677 1.19671E-04-4.71799E-05-3.10557E-05 3.47355E-06-1.21511E-18-2.06398E-18
 -1       678 1.11866E-04-4.13217E-05-3.02298E-05 8.72193E-06-1.22633E-18-1.24079E-18
 -1       679 1.05897E-04-3.57977E-05-3.00457E-05 1.09188E-05-4.96664E-19-4.61451E-19
 -1       680 1.01991E-04-3.18505E-05-3.00632E-05 1.12576E-05-1.13835E-18-7.30196E-19
 -1       681 9.96181E-05-2.94216E-05-3.00849E-05 1.05858E-05-7.49610E-19-1.19040E-18
 -1       682 9.82229E-05-2.81115E-05-3.00471E-05 9.43036E-06-1.04600E-18-8.68010E-19
 -1       683 9.73912E-05-2.75136E-05-2.99464E-05 8.09747E-06-3.44745E-19-5.70123E-19
 -1       684 9.68668E-05-2.73262E-05-2.98018E-05 6.76173E-06-5.70445E-19 3.49908E-19
 -1       685 9.65069E-05-2.73540E-05-2.96357E-05 5.51908E-06 1.22381E-19 7.63859E-20
 -1       686 9.62380E-05-2.74808E-05-2.94662E-05 4.41672E-06-1.16797E-19 7.16176E-19
 -1       687 9.60247E-05-2.76424E-05-2.93058E-05 3.47158E-06 8.41746E-19 1.41316E-18
 -1       688 9.58505E-05-2.78054E-05-2.91614E-05 2.68230E-06 3.42299E-19 5.32601E-19
 -1       689 9.57075E-05-2.79544E-05-2.90364E-05 2.03729E-06-7.50184E-19-1.42428E-18
 -1       690 9.55910E-05-2.80835E-05-2.89313E-05 1.51996E-06 5.25734E-19-1.53561E-19
 -1       691 9.54975E-05-2.81916E-05-2.88450E-05 1.11206E-06 1.95434E-18 6.30932E-19
 -1       692 9.54241E-05-2.82801E-05-2.87757E-05 7.95581E-07 1.05509E-18 3.46973E-19
 -1       693 9.53676E-05-2.83513E-05-2.87211E-05 5.53928E-07 1.96439E-18 5.93340E-19
 -1       694 9.53251E-05-2.84076E-05-2.86788E-05 3.72389E-07 7.00207E-19 3.74573E-19
 -1       695 9.52940E-05-2.84515E-05-2.86467E-05 2.38350E-07-3.79718E-19-3.31571E-19
 -1       696 9.52718E-05-2.84853E-05-2.86227E-05 1.41262E-07 1.46465E-20-6.77959E-19
 -1       697 9.52566E-05-2.85112E-05-2.86051E-05 7.25083E-08-4.09208E-19-2.56347E-18
 -1       698 9.52468E-05-2.85308E-05-2.85925E-05 2.52256E-08-8.06264E-19-2.67798E-18
 -1       699 9.52408E-05-2.85458E-05-2.85836E-05-5.89688E-09-5.09742E-19-3.33813E-18
 -1       700 9.52378E-05-2.85575E-05-2.85773E-05-2.48690E-08-1.12914E-19-2.52948E-18
 -1       701 9.52371E-05-2.85673E-05-2.85727E-05-3.45501E-08-8.34343E-19-2.02649E-18
 -1       702 9.52396E-05-2.85750E-05-2.85705E-05-3.66052E-08-9.14897E-19-1.80212E-19
 -1       703 9.52515E-05-2.85676E-05-2.85788E-05-3.33275E-09 2.58453E-18-3.96688E-19
 -1       704 9.52409E-05-2.85758E-05-2.85708E-05 3.54529E-08-5.26672E-20 4.40186E-20
 -1       705 9.52516E-05-2.85714E-05-2.85772E-05-1.92141E-08 2.14561E-18-2.19487E-18
 -1       706 9.52514E-05-2.85675E-05-2.85788E-05 4.29414E-09 1.13629E-18-4.67701E-19
 -1       707 9.52518E-05-2.85691E-05-2.85783E-05-1.11698E-08 2.36575E-18-1.59773E-18
 -1       708 1.25301E-04-2.03732E-05-4.54929E-05 1.29802E-05-2.91009E-18-5.14860E-18
 -1       709 1.29831E-04-3.30626E-05-4.18585E-05-1.33892E-05-3.07304E-18 1.36883E-18
 -1       710 9.52514E-05-2.85687E-05-2.85783E-05 1.18213E-08 9.30893E-19-4.31925E-18
 -1       711 9.52510E-05-2.85709E-05-2.85772E-05 1.95937E-08 1.42527E-18-1.11068E-18
 -1       712 9.52490E-05-2.85730E-05-2.85754E-05 2.70742E-08 1.97198E-18 1.27695E-18
 -1       713 1.34962E-04-5.18418E-05-3.58013E-05-2.14807E-06-1.00640E-18 1.73059E-18
 -1       714 1.31256E-04-5.75664E-05-3.16478E-05-9.12588E-06 1.95666E-18-3.26000E-18
 -1       715 9.67846E-05-2.59006E-05-3.03759E-05-5.17310E-06 1.42234E-18-1.16771E-18
 -1       716 5.89167E-05-2.40563E-05-1.45041E-05 2.95577E-05 2.45865E-18-4.48544E-18
 -1       717 9.47669E-05-2.04175E-05-3.18643E-05-3.75270E-06-2.25512E-18-2.70499E-18
 -1       718 1.15634E-04-5.59981E-05-2.54997E-05 2.36208E-05-2.38331E-18-1.25389E-18
 -1       719 6.52103E-05-3.07947E-05-1.43180E-05-3.45675E-05-2.18974E-18-4.28699E-18
 -1       720 3.69916E-05-1.09685E-05-1.05573E-05-3.39181E-06-7.24567E-19 2.15506E-18
 -1       721 9.86144E-05-2.84907E-05-3.00530E-05-1.10330E-05 1.99264E-19-7.07331E-19
 -1       722 9.58082E-05-2.31672E-05-3.11321E-05-5.88288E-07-2.00615E-18-2.28581E-18
 -1       723 8.87812E-05-1.43268E-05-3.19130E-05 1.44016E-06 1.97191E-18-3.46274E-18
 -1       724 4.84760E-05-2.04733E-05-1.15058E-05-2.83124E-05 1.88894E-18 3.46262E-18
 -1       725 8.93178E-05-1.48798E-05-3.19067E-05-1.13169E-06-6.77890E-19-4.01883E-18
 -1       726 1.39734E-04-5.29447E-05-3.73765E-05 5.91646E-06 2.81625E-19 1.42114E-18
 -1       727 4.17588E-05-1.21146E-05-1.21949E-05 8.28344E-06 1.04918E-18-6.39380E-18
 -1       728 1.23672E-04-1.92695E-05-4.51774E-05 1.21051E-05 3.10480E-18-3.14461E-19
 -1       729 1.34982E-04-3.49227E-05-4.33856E-05 1.59794E-05 2.16171E-18 1.92160E-18
 -1       730 1.22257E-04-1.42494E-05-4.68065E-05-9.72802E-06-4.87139E-18-2.80103E-19
 -1       731 1.28176E-04-6.09176E-05-2.88228E-05-1.75401E-05-1.79259E-18-2.71196E-19
 -1       732 1.00383E-04-5.13085E-05-2.07746E-05-3.49713E-05-2.78584E-18-3.12054E-18
 -1       733 4.42615E-05-1.64273E-05-1.14060E-05-1.98942E-05-7.60040E-19-5.51434E-18
 -1       734 1.23707E-04-5.87197E-05-2.78685E-05 1.97749E-05 1.40136E-18 8.88763E-19
 -1       735 1.34411E-04-5.88951E-05-3.24764E-05 4.78879E-06-1.35216E-18-3.32450E-18
 -1       736 1.11549E-04-5.58729E-05-2.37118E-05-3.05309E-05 2.63742E-18-1.67281E-18
 -1       737 1.33624E-04-4.31829E-05-3.89549E-05 9.64268E-06-5.21905E-19-4.98601E-18
 -1       738 1.37124E-04-4.67370E-05-3.90275E-05-1.28635E-05 1.73074E-18-4.92393E-18
 -1       739 9.14611E-05-1.70473E-05-3.18954E-05-1.99128E-06-1.38417E-18-3.78699E-18
 -1       740 8.68249E-05-1.24769E-05-3.18676E-05 1.30582E-07 3.93654E-19-4.15559E-18
 -1       741 6.62360E-05-2.60314E-05-1.68774E-05 2.79018E-05-1.63769E-18 4.10325E-18
 -1       742 9.52498E-05-2.85737E-05-2.85755E-05-2.69379E-08 1.00270E-18-1.53665E-18
 -1       743 1.24117E-04-3.19989E-05-3.98197E-05 1.42732E-05-1.29063E-18-4.78902E-18
 -1       744 9.52459E-05-2.85752E-05-2.85732E-05-3.27215E-08-5.75040E-19-1.77380E-19
 -1       745 1.00796E-04-4.58751E-05-2.34231E-05 2.67883E-05-2.14445E-18-9.46493E-19
 -1       746 1.07985E-04-5.14481E-05-2.40622E-05 2.81306E-05 2.30675E-18-1.39094E-18
 -1       747 8.77386E-05-1.33452E-05-3.18874E-05-4.22247E-07-6.12803E-20-4.02178E-18
 -1       748 7.81771E-05-3.47085E-05-1.83977E-05 3.31560E-05 2.43248E-18-2.96626E-18
 -1       749 9.52460E-05-2.85705E-05-2.85752E-05 3.08135E-08-8.12054E-19 1.62477E-18
 -1       750 9.44383E-05-2.19001E-05-3.10885E-05-9.00046E-07 2.21128E-18-1.68638E-18
 -1       751 4.90894E-05-1.34500E-05-1.49519E-05 1.08587E-05-1.36295E-18 2.75910E-18
 -1       752 5.09935E-05-1.32790E-05-1.59074E-05-7.86199E-06-2.47373E-19-5.03153E-18
 -1       753 9.52734E-05-2.53495E-05-2.99673E-05 5.52947E-06-9.38390E-19-2.07778E-18
 -1       754 9.58770E-05-2.68925E-05-2.95645E-05 7.33521E-06-6.30930E-19-1.45193E-18
 -1       755 9.69278E-05-2.87599E-05-2.92149E-05 8.75862E-06-2.12230E-19-9.91363E-19
 -1       756 9.87661E-05-3.12824E-05-2.89216E-05 9.72212E-06 1.75675E-19-1.09143E-18
 -1       757 1.01761E-04-3.47122E-05-2.87359E-05 9.99613E-06 3.36406E-19-8.94300E-19
 -1       758 1.06245E-04-3.90753E-05-2.87878E-05 9.08780E-06 7.12253E-19-3.48745E-19
 -1       759 1.12164E-04-4.37483E-05-2.93283E-05 6.15904E-06 1.71032E-19 5.00113E-20
 -1       760 1.18341E-04-4.66645E-05-3.07309E-05 5.88049E-07 2.62021E-19 1.04088E-18
 -1       761 1.22125E-04-4.44997E-05-3.33566E-05-6.79248E-06-5.37432E-19 1.64456E-18
 -1       762 1.15600E-04-2.03535E-05-4.10633E-05-1.16757E-05-3.12592E-18 2.48512E-19
 -1       763 1.11366E-04-1.32204E-05-4.23664E-05-1.43684E-07-3.40195E-18-1.87911E-18
 -1       764 1.14360E-04-1.95340E-05-4.08743E-05 1.15123E-05-2.06943E-18-2.65215E-18
 -1       765 1.20504E-04-3.34356E-05-3.75095E-05 1.46143E-05-1.35873E-18-2.78019E-18
 -1       766 1.21610E-04-4.32236E-05-3.36364E-05 8.89169E-06-8.18062E-19-1.88575E-18
 -1       767 1.18390E-04-4.61489E-05-3.09811E-05 1.41028E-06 6.95230E-19-2.22276E-18
 -1       768 1.12244E-04-4.34138E-05-2.94927E-05-4.40397E-06 1.28137E-18-1.61961E-18
 -1       769 1.06396E-04-3.90511E-05-2.88633E-05-7.53295E-06 1.17778E-18-7.35597E-19
 -1       770 1.01792E-04-3.48228E-05-2.87026E-05-8.68413E-06 3.79094E-19-6.97135E-19
 -1       771 9.86248E-05-3.15403E-05-2.87509E-05-8.67911E-06 5.78912E-19-1.84081E-19
 -1       772 9.66339E-05-2.92860E-05-2.88633E-05-8.07807E-06 5.44957E-19-1.13934E-18
 -1       773 9.54861E-05-2.78936E-05-2.89680E-05-7.20028E-06 1.19611E-18-2.16794E-18
 -1       774 9.48938E-05-2.71394E-05-2.90374E-05-6.22537E-06 8.30786E-19-1.08709E-18
 -1       775 9.46429E-05-2.68198E-05-2.90668E-05-5.25332E-06 6.18504E-19-7.20677E-19
 -1       776 9.45877E-05-2.67755E-05-2.90621E-05-4.34033E-06 3.20579E-19-5.16269E-19
 -1       777 9.46343E-05-2.68910E-05-2.90327E-05-3.51688E-06-1.21821E-19-4.62359E-19
 -1       778 9.47256E-05-2.70875E-05-2.89876E-05-2.79704E-06-9.27823E-20-2.20595E-18
 -1       779 9.48290E-05-2.73140E-05-2.89348E-05-2.18395E-06-2.25915E-19-3.14954E-18
 -1       780 9.49269E-05-2.75397E-05-2.88801E-05-1.67358E-06-6.78040E-20-2.97480E-18
 -1       781 9.50116E-05-2.77473E-05-2.88275E-05-1.25745E-06-6.00346E-19-6.46567E-19
 -1       782 9.50805E-05-2.79287E-05-2.87793E-05-9.24668E-07-9.55538E-19-2.29908E-20
 -1       783 9.51340E-05-2.80811E-05-2.87369E-05-6.63432E-07-1.08350E-18-1.94175E-19
 -1       784 9.51737E-05-2.82054E-05-2.87007E-05-4.62063E-07-3.91566E-19-5.73568E-19
 -1       785 9.52021E-05-2.83043E-05-2.86705E-05-3.09682E-07 7.85243E-19-5.44328E-19
 -1       786 9.52214E-05-2.83811E-05-2.86458E-05-1.96587E-07 3.85105E-19-1.42721E-18
 -1       787 9.52338E-05-2.84397E-05-2.86261E-05-1.14418E-07 1.00142E-18 2.39024E-19
 -1       788 9.52412E-05-2.84836E-05-2.86104E-05-5.62355E-08 1.65316E-18 1.19519E-18
 -1       789 9.52449E-05-2.85161E-05-2.85980E-05-1.64552E-08 7.41119E-19 1.09402E-18
 -1       790 9.52463E-05-2.85404E-05-2.85883E-05 9.29692E-09 1.59681E-20-7.24291E-19
 -1       791 9.52463E-05-2.85571E-05-2.85811E-05 2.33306E-08-4.31439E-19 1.78983E-19
 -1       792 9.93591E-05-3.40735E-05-2.79751E-05-1.61125E-05-1.21012E-18-1.18306E-18
 -1       793 9.60324E-05-2.95831E-05-2.84788E-05-1.45020E-05-3.43813E-19-1.33284E-18
 -1       794 1.16197E-04-5.01030E-05-2.82666E-05-1.45114E-05-1.94074E-18 1.47592E-19
 -1       795 9.69943E-05-3.12217E-05-2.81888E-05 1.42765E-05-1.00685E-18-6.25936E-19
 -1       796 9.47217E-05-2.79388E-05-2.86208E-05 1.25319E-05-9.14814E-20-1.36932E-18
 -1       797 9.38341E-05-2.62747E-05-2.89534E-05 1.07616E-05-9.53604E-19-2.79761E-19
 -1       798 9.36646E-05-2.56228E-05-2.91602E-05 9.10044E-06-1.48176E-18-9.82896E-19
 -1       799 9.38191E-05-2.55501E-05-2.92576E-05 7.58665E-06-9.66912E-19-3.57662E-19
 -1       800 9.40855E-05-2.57766E-05-2.92748E-05 6.23338E-06-8.10988E-19-8.10085E-20
 -1       801 9.43598E-05-2.61333E-05-2.92396E-05 5.04561E-06 1.98224E-19 5.10426E-19
 -1       802 9.45986E-05-2.65242E-05-2.91745E-05 4.02250E-06 1.27781E-20-2.91853E-19
 -1       803 9.47892E-05-2.68988E-05-2.90957E-05 3.15755E-06 6.41069E-19 6.46569E-19
 -1       804 9.49334E-05-2.72336E-05-2.90140E-05 2.43943E-06 9.37498E-19 1.51554E-18
 -1       805 9.50384E-05-2.75204E-05-2.89361E-05 1.85344E-06-4.20666E-19-1.48198E-19
 -1       806 9.51126E-05-2.77589E-05-2.88658E-05 1.38319E-06 1.00286E-18-1.04295E-18
 -1       807 9.51637E-05-2.79530E-05-2.88045E-05 1.01187E-06 5.89468E-19 9.57721E-19
 -1       808 9.51980E-05-2.81080E-05-2.87528E-05 7.23314E-07 4.39739E-19 1.01535E-18
 -1       809 9.52202E-05-2.82298E-05-2.87101E-05 5.02653E-07 3.51372E-19 1.67102E-18
 -1       810 9.52339E-05-2.83241E-05-2.86756E-05 3.36706E-07 3.10690E-19 1.74613E-18
 -1       811 9.52419E-05-2.83960E-05-2.86482E-05 2.14116E-07 2.13263E-20-6.74582E-20
 -1       812 9.52459E-05-2.84501E-05-2.86268E-05 1.25347E-07 1.24533E-18-1.42244E-18
 -1       813 9.52475E-05-2.84903E-05-2.86102E-05 6.25831E-08 4.37957E-20-1.81676E-18
 -1       814 9.52475E-05-2.85199E-05-2.85975E-05 1.96022E-08-1.71951E-18-1.03972E-18
 -1       815 9.52467E-05-2.85418E-05-2.85878E-05-8.28566E-09-8.36049E-19-9.72167E-19
 -1       816 9.52457E-05-2.85585E-05-2.85802E-05-2.48241E-08-1.35004E-19-6.81362E-19
 -1       817 9.52456E-05-2.85669E-05-2.85766E-05-3.01863E-08-6.61870E-19-1.18671E-19
 -1       818 5.90794E-05-1.72966E-05-1.76950E-05 1.66019E-05 1.30221E-18-4.51749E-18
 -1       819 8.76045E-05-1.47700E-05-3.12170E-05 2.41429E-07 8.77352E-19-3.57433E-18
 -1       820 9.52477E-05-2.85419E-05-2.85882E-05 5.91188E-10 1.17288E-18-9.03662E-19
 -1       821 9.52481E-05-2.85434E-05-2.85877E-05 5.44381E-09 8.51222E-19-2.64472E-18
 -1       822 1.26270E-04-5.37279E-05-3.11419E-05 4.65870E-06 1.89883E-19 1.05799E-18
 -1       823 8.81493E-05-3.94693E-05-2.06569E-05-3.14171E-05-2.22490E-18-3.49683E-18
 -1       824 1.20903E-04-5.28319E-05-2.91020E-05 1.11472E-05-1.81128E-18-1.82185E-18
 -1       825 1.28063E-04-4.97731E-05-3.36164E-05 3.82758E-06 1.72187E-19-3.50481E-18
 -1       826 1.14401E-04-5.31966E-05-2.61516E-05-2.21001E-05-2.29096E-18-4.52180E-19
 -1       827 9.52494E-05-2.85539E-05-2.85838E-05 1.75787E-08 1.17910E-18-8.26570E-19
 -1       828 9.52490E-05-2.85477E-05-2.85863E-05 1.09773E-08 1.76346E-18-2.68997E-18
 -1       829 1.01656E-04-3.67915E-05-2.77839E-05 1.55509E-05-1.19760E-18-3.73855E-19
 -1       830 1.09537E-04-4.44120E-05-2.78993E-05 1.49696E-05-2.23004E-18-1.10252E-18
 -1       831 1.05700E-04-4.10389E-05-2.76928E-05-1.67278E-05-1.39682E-18-3.31366E-19
 -1       832 9.82957E-05-4.55636E-05-2.24488E-05-2.97038E-05 2.25257E-18-1.04517E-18
 -1       833 9.42076E-05-2.47329E-05-2.97746E-05-8.47070E-06 7.50175E-19-1.29813E-18
 -1       834 1.30047E-04-5.46733E-05-3.23419E-05-1.16134E-06-1.30597E-18 1.32973E-18
 -1       835 1.26995E-04-4.18999E-05-3.66216E-05-1.11892E-05-1.33130E-18 1.74208E-18
 -1       836 9.48094E-05-2.37668E-05-3.04468E-05 3.33868E-06-1.07920E-18-2.38716E-18
 -1       837 7.26198E-05-2.97964E-05-1.80978E-05-3.06801E-05 1.85258E-18 1.84072E-18
 -1       838 6.40341E-05-2.27028E-05-1.74527E-05-2.46463E-05-1.35094E-18-4.00963E-18
 -1       839 1.18962E-04-5.44761E-05-2.76294E-05-1.63212E-05 2.14932E-18-1.35000E-18
 -1       840 5.33238E-05-1.51030E-05-1.61090E-05-1.53277E-05 7.84101E-20 5.62840E-19
 -1       841 8.73914E-05-1.45792E-05-3.12066E-05 5.27111E-07 5.50474E-19-3.79932E-18
 -1       842 9.15397E-05-1.89931E-05-3.10927E-05-9.43848E-07 1.72124E-18-2.56467E-18
 -1       843 9.14517E-05-1.85296E-05-3.12549E-05 4.61143E-07-9.41875E-19-3.27115E-18
 -1       844 8.58129E-05-3.53603E-05-2.14540E-05 2.72387E-05-1.97158E-18 1.79235E-18
 -1       845 5.90089E-05-1.38953E-05-1.92072E-05 3.73923E-06 3.12921E-19-4.79072E-18
 -1       846 9.41891E-05-2.19193E-05-3.09728E-05 1.03072E-06-1.44098E-18-2.75890E-18
 -1       847 9.52503E-05-2.85546E-05-2.85839E-05-1.72442E-08 8.03451E-20-2.26897E-18
 -1       848 9.45735E-05-2.69772E-05-2.89694E-05-1.26023E-05-1.88915E-19-1.27801E-18
 -1       849 7.02266E-05-2.42420E-05-1.95953E-05 2.35492E-05 1.99383E-18-3.61799E-18
 -1       850 8.86983E-05-1.57948E-05-3.12467E-05-8.14370E-08 1.31048E-18-3.16343E-18
 -1       851 9.52499E-05-2.85484E-05-2.85864E-05-1.03489E-08 1.46226E-18-3.83317E-19
 -1       852 9.46008E-05-2.33409E-05-3.05404E-05-3.87677E-06 1.52223E-18-1.46882E-18
 -1       853 9.52485E-05-2.85437E-05-2.85878E-05-4.41812E-09 2.33078E-18-8.99269E-19
 -1       854 1.17885E-04-5.21639E-05-2.80809E-05 1.42332E-05 1.23918E-18 6.89802E-19
 -1       855 8.94705E-05-1.65607E-05-3.12487E-05 6.68951E-07-2.05784E-19-3.47956E-18
 -1       856 9.44384E-05-2.41296E-05-3.01331E-05-6.30677E-06 1.33749E-18-1.39398E-18
 -1       857 5.56256E-05-1.30087E-05-1.81094E-05-2.64245E-06-5.25865E-19 1.25981E-18
 -1       858 9.41455E-05-2.55552E-05-2.93954E-05-1.05935E-05 3.64682E-19-1.24976E-18
 -1       859 9.52482E-05-2.85550E-05-2.85828E-05 2.03976E-08-1.19291E-19-1.00749E-18
 -1       860 9.31897E-05-2.42240E-05-2.95554E-05 6.44913E-06-4.38335E-19-1.97621E-18
 -1       861 6.42042E-05-1.93499E-05-1.90817E-05 1.81536E-05-1.38443E-18 3.28924E-18
 -1       862 8.81521E-05-3.57112E-05-2.24001E-05-2.58632E-05 1.63290E-18-2.16199E-19
 -1       863 9.35781E-05-2.59123E-05-2.89996E-05 8.42665E-06-2.69332E-20-1.85417E-18
 -1       864 9.44755E-05-2.80783E-05-2.84560E-05 1.03439E-05-1.27270E-19-1.75138E-18
 -1       865 9.63685E-05-3.11610E-05-2.79448E-05 1.21591E-05 4.25009E-19-1.72094E-18
 -1       866 9.98240E-05-3.55161E-05-2.75556E-05 1.36352E-05 9.32127E-19-1.02912E-18
 -1       867 1.05696E-04-4.14735E-05-2.75240E-05 1.40673E-05 1.14271E-18-4.12498E-19
 -1       868 8.16993E-05-3.01876E-05-2.19657E-05-2.49775E-05-1.40895E-18-3.17763E-18
 -1       869 1.14602E-04-4.80421E-05-2.85255E-05-1.02629E-05 2.19032E-18-1.41181E-18
 -1       870 1.05942E-04-4.16276E-05-2.75657E-05-1.25825E-05 1.55159E-18-1.29993E-18
 -1       871 9.97797E-05-3.57011E-05-2.74631E-05-1.25213E-05 1.02290E-18-7.87800E-19
 -1       872 9.60053E-05-3.13997E-05-2.76860E-05-1.13056E-05 6.36320E-19-1.29207E-18
 -1       873 9.38920E-05-2.85535E-05-2.80007E-05-9.78715E-06 2.20222E-19-2.33537E-18
 -1       874 9.28891E-05-2.68588E-05-2.82977E-05-8.28181E-06 2.71026E-19-1.06659E-18
 -1       875 9.25676E-05-2.59859E-05-2.85344E-05-6.90883E-06 1.32438E-18-5.63810E-19
 -1       876 9.26358E-05-2.56627E-05-2.87024E-05-5.69602E-06 5.39344E-19-1.67741E-18
 -1       877 9.29054E-05-2.56856E-05-2.88082E-05-4.64146E-06 4.66007E-19-1.95823E-18
 -1       878 9.32588E-05-2.59090E-05-2.88641E-05-3.73562E-06 1.64139E-19-1.18363E-18
 -1       879 9.36261E-05-2.62326E-05-2.88829E-05-2.96682E-06-3.02754E-19-1.05124E-18
 -1       880 9.39686E-05-2.65906E-05-2.88763E-05-2.32278E-06-4.89989E-19-1.58361E-18
 -1       881 9.42679E-05-2.69424E-05-2.88538E-05-1.79075E-06-6.95087E-19-1.80218E-18
 -1       882 9.45177E-05-2.72649E-05-2.88226E-05-1.35772E-06 1.02849E-18-1.51292E-18
 -1       883 9.47188E-05-2.75469E-05-2.87879E-05-1.01058E-06 2.32892E-19 2.80668E-19
 -1       884 9.48757E-05-2.77850E-05-2.87532E-05-7.36583E-07-1.49292E-18-3.37410E-19
 -1       885 9.49947E-05-2.79801E-05-2.87205E-05-5.23734E-07-8.43310E-19 1.39517E-19
 -1       886 9.50824E-05-2.81363E-05-2.86912E-05-3.61078E-07 1.46107E-18 2.14526E-18
 -1       887 9.51450E-05-2.82584E-05-2.86657E-05-2.38924E-07 4.37611E-19 2.15924E-18
 -1       888 9.51881E-05-2.83520E-05-2.86440E-05-1.48915E-07-2.60443E-19 8.03014E-19
 -1       889 9.52162E-05-2.84223E-05-2.86260E-05-8.39562E-08 1.15518E-18-1.85423E-19
 -1       890 9.52338E-05-2.84747E-05-2.86110E-05-3.84370E-08 6.02187E-19-3.05275E-19
 -1       891 9.52434E-05-2.85131E-05-2.85987E-05-7.72422E-09-4.63494E-19-1.31071E-18
 -1       892 8.93484E-05-2.75364E-05-2.64887E-05-1.66859E-05-9.85690E-19-1.78108E-18
 -1       893 8.92170E-05-2.34392E-05-2.81900E-05 9.28749E-06-1.27005E-18 2.14539E-19
 -1       894 8.84030E-05-2.39553E-05-2.76194E-05 1.13449E-05-1.35800E-18 2.49343E-19
 -1       895 8.81752E-05-2.56020E-05-2.68158E-05 1.40397E-05-8.60710E-19-4.06179E-19
 -1       896 9.02199E-05-2.35638E-05-2.85666E-05 7.64284E-06-1.45835E-18-1.01633E-18
 -1       897 9.12080E-05-2.40187E-05-2.87952E-05 6.27869E-06-1.16465E-18-1.02894E-18
 -1       898 9.20893E-05-2.46147E-05-2.89176E-05 5.12131E-06-6.23878E-19-1.93436E-18
 -1       899 9.28318E-05-2.52407E-05-2.89675E-05 4.13269E-06 4.98524E-19-1.12982E-18
 -1       900 9.34343E-05-2.58354E-05-2.89709E-05 3.29183E-06-3.77280E-19-1.21015E-18
 -1       901 9.39101E-05-2.63684E-05-2.89464E-05 2.58423E-06-4.01974E-19-9.76527E-19
 -1       902 9.42782E-05-2.68283E-05-2.89071E-05 1.99706E-06 4.90688E-19 7.52216E-19
 -1       903 9.45579E-05-2.72141E-05-2.88616E-05 1.51736E-06 7.40094E-19 7.09311E-19
 -1       904 9.47671E-05-2.75309E-05-2.88155E-05 1.13171E-06 6.67044E-19 5.43971E-19
 -1       905 9.49209E-05-2.77862E-05-2.87720E-05 8.26684E-07 2.04174E-19-1.19655E-19
 -1       906 9.50322E-05-2.79885E-05-2.87330E-05 5.89345E-07-5.72120E-19 1.19925E-18
 -1       907 9.51109E-05-2.81462E-05-2.86991E-05 4.07733E-07 1.91444E-19 4.28184E-19
 -1       908 9.51652E-05-2.82674E-05-2.86705E-05 2.71164E-07 2.37481E-19 7.71701E-19
 -1       909 9.52015E-05-2.83590E-05-2.86468E-05 1.70382E-07 1.41272E-18 6.69479E-19
 -1       910 9.52246E-05-2.84272E-05-2.86275E-05 9.75781E-08-7.44442E-20 1.46170E-18
 -1       911 9.52384E-05-2.84774E-05-2.86118E-05 4.63275E-08-1.61149E-18 2.48032E-18
 -1       912 9.52458E-05-2.85144E-05-2.85992E-05 1.14014E-08-1.02995E-18 2.13047E-18
 -1       913 9.52487E-05-2.85410E-05-2.85890E-05-1.09149E-08-9.68746E-19 8.92389E-19
 -1       914 9.52491E-05-2.85617E-05-2.85803E-05-2.39046E-08-1.10070E-18 1.85376E-19
 -1       915 9.52401E-05-2.85113E-05-2.85981E-05 5.50610E-10 9.67379E-19-2.32167E-18
 -1       916 8.93655E-05-2.91721E-05-2.57900E-05 1.75179E-05-1.41391E-18-5.28123E-19
 -1       917 8.80566E-05-1.52097E-05-3.12223E-05 6.88607E-07 2.12616E-19-3.76511E-18
 -1       918 9.29360E-05-2.26190E-05-3.01351E-05 4.35830E-06-5.61180E-19-2.37972E-18
 -1       919 7.08429E-05-2.24585E-05-2.06395E-05-2.01551E-05 4.29059E-20 8.88438E-19
 -1       920 9.50238E-05-4.05929E-05-2.32511E-05 2.66850E-05 1.95091E-18-2.03415E-18
 -1       921 6.50238E-05-1.77356E-05-2.01341E-05-1.48416E-05-7.49584E-19-3.98107E-18
 -1       922 1.06787E-04-4.62042E-05-2.59164E-05-1.94105E-05 1.72033E-18-1.69320E-18
 -1       923 1.00188E-04-4.17716E-05-2.49537E-05-2.34151E-05-1.86673E-18-1.46992E-18
 -1       924 6.26052E-05-1.49300E-05-2.03474E-05 7.07198E-06 1.27041E-19 2.56074E-18
 -1       925 7.84570E-05-2.67319E-05-2.20970E-05 2.16084E-05-1.84806E-18 2.27488E-18
 -1       926 6.80206E-05-1.81857E-05-2.12800E-05 1.30113E-05 1.14439E-18-3.53757E-18
 -1       927 9.23412E-05-2.07827E-05-3.06675E-05 2.42318E-06-8.27461E-19-2.96236E-18
 -1       928 8.90332E-05-2.48032E-05-2.75267E-05-1.34992E-05-3.16653E-19-1.89724E-18
 -1       929 9.52471E-05-2.85368E-05-2.85901E-05 8.80720E-09 2.76607E-19-1.28397E-18
 -1       930 9.15311E-05-2.06995E-05-3.03536E-05-3.68760E-06 1.24059E-18-2.20634E-18
 -1       931 9.63722E-05-3.72371E-05-2.52692E-05 2.10484E-05-1.95959E-18-1.87302E-18
 -1       932 9.52423E-05-2.85167E-05-2.85967E-05 1.65349E-09 1.20684E-18-1.87393E-18
 -1       933 9.52405E-05-2.85116E-05-2.85981E-05 4.86065E-10 1.53169E-18-1.30246E-18
 -1       934 9.52471E-05-2.85270E-05-2.85944E-05-3.20696E-09 1.05150E-18-1.24857E-20
 -1       935 8.74935E-05-1.62509E-05-3.05314E-05 2.59150E-07 5.61781E-19-3.48037E-18
 -1       936 9.14300E-05-2.21601E-05-2.96862E-05-6.58067E-06 1.03895E-18-1.97307E-18
 -1       937 9.26483E-05-3.29525E-05-2.55513E-05-2.03405E-05-1.67347E-18-1.67195E-18
 -1       938 8.87208E-05-1.77798E-05-3.04045E-05-1.69097E-06 1.01794E-18-2.72602E-18
 -1       939 9.05754E-05-2.27306E-05-2.90738E-05-8.75601E-06 5.76437E-19-1.97204E-18
 -1       940 9.52453E-05-2.85255E-05-2.85941E-05 4.19901E-09 8.05776E-19-1.12021E-18
 -1       941 6.65878E-05-1.72093E-05-2.10965E-05-1.17014E-05-1.17999E-18-7.02111E-21
 -1       942 9.01959E-05-1.87326E-05-3.06264E-05 2.20889E-06-4.65936E-19-2.80772E-18
 -1       943 8.78629E-05-1.68030E-05-3.04538E-05-6.28318E-07 7.54889E-19-2.98428E-18
 -1       944 9.05490E-05-2.04945E-05-3.00240E-05 3.87459E-06-2.73764E-19-2.67893E-18
 -1       945 9.05459E-05-2.29358E-05-2.89763E-05 6.96758E-06-4.45370E-20-2.38048E-18
 -1       946 9.03840E-05-2.45104E-05-2.82310E-05 9.22278E-06-9.71060E-20-2.31304E-18
 -1       947 9.06423E-05-2.66484E-05-2.74278E-05 1.18376E-05 4.08666E-19-2.02026E-18
 -1       948 9.19114E-05-2.99206E-05-2.65695E-05 1.49490E-05 1.15246E-18-1.73719E-18
 -1       949 9.51921E-05-3.49188E-05-2.58076E-05 1.84878E-05 1.33622E-18-1.27406E-18
 -1       950 9.51253E-05-3.52151E-05-2.56468E-05-1.77063E-05 1.19364E-18-2.38520E-18
 -1       951 9.14076E-05-3.01603E-05-2.62493E-05-1.44786E-05 6.26217E-19-3.18260E-18
 -1       952 8.98222E-05-2.70404E-05-2.69082E-05-1.15327E-05 4.33355E-19-2.15387E-18
 -1       953 8.94259E-05-2.53127E-05-2.74788E-05-9.14902E-06 1.24908E-18-1.29105E-18
 -1       954 8.96703E-05-2.45048E-05-2.79296E-05-7.26475E-06 1.48862E-18-9.08218E-19
 -1       955 9.02383E-05-2.42914E-05-2.82642E-05-5.77486E-06-1.56569E-19-9.57079E-19
 -1       956 9.09418E-05-2.44474E-05-2.84985E-05-4.58462E-06 2.06213E-19-1.62165E-18
 -1       957 9.16687E-05-2.48155E-05-2.86520E-05-3.62572E-06 9.28915E-19-2.46690E-18
 -1       958 9.23546E-05-2.52868E-05-2.87439E-05-2.84875E-06 2.68404E-20-1.76365E-18
 -1       959 9.29663E-05-2.57888E-05-2.87907E-05-2.21835E-06-5.22154E-19-1.58455E-18
 -1       960 9.34899E-05-2.62758E-05-2.88063E-05-1.70843E-06 3.29786E-19-1.54431E-18
 -1       961 9.39238E-05-2.67209E-05-2.88014E-05-1.29865E-06 4.53770E-19-7.91845E-19
 -1       962 9.42737E-05-2.71111E-05-2.87841E-05-9.72352E-07 1.04337E-18-2.32430E-18
 -1       963 9.45488E-05-2.74419E-05-2.87602E-05-7.15361E-07-6.05834E-19-3.04395E-18
 -1       964 9.47600E-05-2.77148E-05-2.87337E-05-5.15449E-07-5.07723E-19 1.87421E-19
 -1       965 9.49182E-05-2.79347E-05-2.87072E-05-3.62036E-07 6.92154E-19 6.56322E-19
 -1       966 9.50338E-05-2.81081E-05-2.86824E-05-2.46038E-07 1.50571E-19-1.08174E-18
 -1       967 9.51157E-05-2.82422E-05-2.86601E-05-1.59780E-07-1.61383E-19-2.18298E-18
 -1       968 9.51717E-05-2.83439E-05-2.86405E-05-9.68318E-08 4.95542E-19-9.69265E-19
 -1       969 9.52081E-05-2.84193E-05-2.86237E-05-5.21431E-08 4.76530E-19-2.35335E-18
 -1       970 9.52310E-05-2.84760E-05-2.86094E-05-2.09672E-08-1.71910E-19-2.05451E-18
 -1       971 8.50138E-05-2.98976E-05-2.35665E-05 2.12396E-05 1.42878E-18-2.49408E-18
 -1       972 8.80946E-05-2.22258E-05-2.82295E-05 5.50748E-06-3.96356E-19-1.87566E-18
 -1       973 8.62755E-05-2.14853E-05-2.77673E-05 6.71598E-06-6.57926E-19-6.80353E-19
 -1       974 8.96259E-05-2.30674E-05-2.85252E-05 4.52874E-06-1.24114E-18-1.61137E-18
 -1       975 9.08907E-05-2.39173E-05-2.87030E-05 3.70471E-06-1.08469E-18-7.25518E-19
 -1       976 9.19170E-05-2.47184E-05-2.87995E-05 2.99993E-06-4.10265E-19 5.25150E-19
 -1       977 9.27370E-05-2.54399E-05-2.88417E-05 2.39697E-06-4.69157E-19 5.30510E-19
 -1       978 9.33829E-05-2.60687E-05-2.88490E-05 1.88606E-06-2.98247E-19 7.28273E-19
 -1       979 9.38848E-05-2.66027E-05-2.88352E-05 1.45941E-06 7.17376E-20 9.98494E-19
 -1       980 9.42693E-05-2.70466E-05-2.88098E-05 1.10903E-06 7.48271E-19 9.87730E-19
 -1       981 9.45597E-05-2.74086E-05-2.87791E-05 8.26242E-07 8.87307E-19 9.11780E-19
 -1       982 9.47757E-05-2.76989E-05-2.87472E-05 6.01991E-07-1.33182E-18 5.21705E-19
 -1       983 9.49334E-05-2.79278E-05-2.87167E-05 4.27258E-07-1.55097E-20 4.78051E-19
 -1       984 9.50462E-05-2.81055E-05-2.86889E-05 2.93518E-07-2.13648E-19 6.19933E-20
 -1       985 9.51249E-05-2.82413E-05-2.86644E-05 1.93051E-07 8.10689E-19 1.17897E-18
 -1       986 9.51780E-05-2.83434E-05-2.86434E-05 1.19076E-07-6.13067E-19 3.04268E-18
 -1       987 9.52123E-05-2.84189E-05-2.86257E-05 6.60182E-08-1.75916E-18 5.74821E-18
 -1       988 9.52332E-05-2.84745E-05-2.86108E-05 2.87956E-08 4.50051E-19 3.58734E-18
 -1       989 7.85558E-05-2.37495E-05-2.34453E-05-1.81819E-05-1.17783E-18-2.97549E-18
 -1       990 7.93277E-05-2.18181E-05-2.46347E-05 1.39387E-05-1.37204E-18 9.30939E-19
 -1       991 9.05923E-05-2.17555E-05-2.95005E-05 5.36927E-06-2.39108E-19-2.66364E-18
 -1       992 8.78482E-05-1.65865E-05-3.05400E-05 1.19560E-06 2.90592E-19-3.50537E-18
 -1       993 8.88016E-05-1.74440E-05-3.05779E-05 1.80818E-06-1.29411E-19-3.47060E-18
 -1       994 6.87230E-05-1.57507E-05-2.26595E-05 2.39429E-06 5.73219E-19-3.71291E-18
 -1       995 8.18262E-05-2.10097E-05-2.60618E-05 1.05771E-05-1.34818E-18 7.71206E-19
 -1       996 8.41655E-05-2.09944E-05-2.70735E-05 8.31046E-06-6.51654E-19-6.22026E-19
 -1       997 8.80540E-05-1.91688E-05-2.95223E-05-3.72178E-06 8.10224E-19-2.39776E-18
 -1       998 8.39501E-05-2.90381E-05-2.35215E-05-2.00562E-05 1.80712E-19-2.59020E-19
 -1       999 9.52433E-05-2.85175E-05-2.85968E-05-3.03741E-10 1.18989E-18-1.06635E-20
 -1      1000 8.96587E-05-2.34501E-05-2.83734E-05-1.09623E-05 5.74362E-20-1.96161E-18
 -1      1001 6.89785E-05-1.67471E-05-2.23456E-05-9.15875E-06-3.42048E-19-3.52523E-18
 -1      1002 9.52222E-05-2.84551E-05-2.86145E-05 2.12434E-08 2.26361E-18-1.19797E-18
 -1      1003 7.07447E-05-1.91085E-05-2.20537E-05 1.38878E-05 3.53289E-21 2.30588E-18
 -1      1004 8.17328E-05-2.16348E-05-2.57465E-05-1.29858E-05-6.29336E-19-2.23793E-18
 -1      1005 8.69665E-05-1.74703E-05-2.97852E-05-1.83092E-07 5.74472E-19-2.97857E-18
 -1      1006 7.91966E-05-2.25200E-05-2.42768E-05 1.39616E-05 1.05677E-18-2.85978E-18
 -1      1007 7.69645E-05-2.27447E-05-2.31934E-05-1.57240E-05 9.22062E-20-5.35401E-20
 -1      1008 9.52282E-05-2.84754E-05-2.86084E-05-6.14436E-09 6.02741E-19-2.90389E-18
 -1      1009 6.66208E-05-1.52213E-05-2.19981E-05-3.08180E-06-5.71820E-19 2.30253E-18
 -1      1010 9.52259E-05-2.84709E-05-2.86093E-05 7.34680E-10 1.35719E-18-2.16921E-18
 -1      1011 8.72376E-05-1.77322E-05-2.97882E-05 1.60158E-06 2.01933E-19-3.16418E-18
 -1      1012 8.63397E-05-1.94661E-05-2.86615E-05-5.17689E-06 5.46474E-19-2.16070E-18
 -1      1013 7.65217E-05-1.86032E-05-2.48198E-05 7.43198E-06 8.17142E-19-3.32107E-18
 -1      1014 8.72368E-05-2.16743E-05-2.80990E-05 3.17904E-06-1.30518E-18 1.17338E-18
 -1      1015 8.88558E-05-1.90339E-05-2.99260E-05 3.13365E-06-2.39859E-19-3.08622E-18
 -1      1016 8.60546E-05-2.24698E-05-2.72474E-05 9.27874E-06 4.26279E-19-2.55508E-18
 -1      1017 8.34712E-05-2.53507E-05-2.48937E-05-1.47493E-05 5.66355E-19-1.18676E-18
 -1      1018 8.41968E-05-2.34996E-05-2.60142E-05-1.08601E-05 9.20284E-19-7.79163E-19
 -1      1019 8.53925E-05-2.26991E-05-2.68689E-05-8.09996E-06 1.37210E-18-6.44222E-19
 -1      1020 8.67340E-05-2.25584E-05-2.75048E-05-6.09577E-06 7.18002E-19-6.84778E-19
 -1      1021 8.80656E-05-2.28167E-05-2.79646E-05-4.63456E-06 6.56578E-19-1.50248E-18
 -1      1022 8.93173E-05-2.33162E-05-2.82866E-05-3.54451E-06-5.29760E-19-1.47718E-18
 -1      1023 9.04441E-05-2.39382E-05-2.85028E-05-2.71884E-06 4.33386E-19-3.13209E-18
 -1      1024 9.14284E-05-2.46017E-05-2.86401E-05-2.08379E-06 1.12669E-18-3.00934E-18
 -1      1025 9.22666E-05-2.52529E-05-2.87203E-05-1.59058E-06 5.26147E-19-2.01021E-18
 -1      1026 9.29642E-05-2.58577E-05-2.87601E-05-1.20578E-06-4.62600E-20-3.85549E-19
 -1      1027 9.35325E-05-2.63966E-05-2.87726E-05-9.05432E-07-1.00296E-19-1.05810E-18
 -1      1028 9.39858E-05-2.68617E-05-2.87676E-05-6.71734E-07-2.67440E-19-1.47986E-18
 -1      1029 9.43403E-05-2.72521E-05-2.87521E-05-4.90953E-07-2.45136E-19-1.84450E-18
 -1      1030 9.46117E-05-2.75723E-05-2.87312E-05-3.52241E-07 1.06923E-18-1.76929E-18
 -1      1031 9.48151E-05-2.78292E-05-2.87083E-05-2.46875E-07 6.99489E-19-2.87360E-18
 -1      1032 9.49640E-05-2.80313E-05-2.86855E-05-1.67765E-07-8.99998E-19-3.32187E-18
 -1      1033 9.50701E-05-2.81873E-05-2.86641E-05-1.09157E-07-2.85377E-19-2.43313E-18
 -1      1034 9.51431E-05-2.83053E-05-2.86448E-05-6.69572E-08 1.05067E-18-3.62693E-18
 -1      1035 9.51922E-05-2.83942E-05-2.86277E-05-3.66578E-08-3.23764E-19-3.36634E-18
 -1      1036 8.50739E-05-2.06162E-05-2.76253E-05 3.77291E-06-1.75936E-20-2.91069E-19
 -1      1037 8.89923E-05-2.27083E-05-2.84080E-05 2.67536E-06-1.51677E-18 5.48356E-20
 -1      1038 8.70421E-05-1.81765E-05-2.95139E-05-1.89019E-06 6.55611E-19-2.56347E-18
 -1      1039 9.04089E-05-2.36743E-05-2.86010E-05 2.22998E-06-1.35614E-18-1.16374E-19
 -1      1040 9.15468E-05-2.45493E-05-2.87135E-05 1.83126E-06-8.95397E-19 2.55720E-19
 -1      1041 9.24534E-05-2.53210E-05-2.87713E-05 1.47796E-06-1.06270E-18 3.99114E-19
 -1      1042 9.31683E-05-2.59856E-05-2.87928E-05 1.17083E-06-7.70520E-19 1.85969E-19
 -1      1043 9.37254E-05-2.65460E-05-2.87913E-05 9.09612E-07 5.34905E-19-6.07749E-19
 -1      1044 9.41537E-05-2.70095E-05-2.87762E-05 6.92335E-07 8.72292E-19 9.98106E-19
 -1      1045 9.44783E-05-2.73860E-05-2.87539E-05 5.15464E-07 1.12169E-19 1.94704E-18
 -1      1046 9.47202E-05-2.76867E-05-2.87287E-05 3.74440E-07 2.62438E-20 7.98551E-19
 -1      1047 9.48972E-05-2.79230E-05-2.87033E-05 2.64233E-07-2.72208E-19-6.13422E-19
 -1      1048 9.50238E-05-2.81055E-05-2.86793E-05 1.79785E-07-2.32016E-19 5.40224E-19
 -1      1049 9.51121E-05-2.82444E-05-2.86576E-05 1.16424E-07-1.20745E-18 2.49383E-18
 -1      1050 9.51709E-05-2.83476E-05-2.86386E-05 7.01536E-08-2.51762E-18 2.67053E-18
 -1      1051 9.52008E-05-2.84070E-05-2.86259E-05 4.18167E-08-6.03336E-20 4.28632E-19
 -1      1052 7.89646E-05-1.85706E-05-2.58816E-05 5.59930E-06-7.98498E-19 4.26324E-19
 -1      1053 8.73251E-05-2.13916E-05-2.82551E-05 6.75268E-06-4.08582E-20-2.75967E-18
 -1      1054 7.44839E-05-1.76906E-05-2.43478E-05 7.30336E-06-9.47614E-19 1.41804E-18
 -1      1055 8.23718E-05-1.95596E-05-2.69198E-05 4.52511E-06-4.13461E-19 3.69593E-19
 -1      1056 8.41297E-05-2.08829E-05-2.71055E-05-1.00564E-05-1.27743E-19-2.18818E-18
 -1      1057 8.59533E-05-2.66204E-05-2.54429E-05 1.55435E-05 1.31525E-18-1.98938E-18
 -1      1058 9.52218E-05-2.84592E-05-2.86124E-05 9.78052E-09 1.23924E-18 3.39191E-19
 -1      1059 8.85827E-05-2.01230E-05-2.93399E-05 4.41742E-06-8.26666E-20-3.05460E-18
 -1      1060 7.58466E-05-1.74988E-05-2.50021E-05-6.12900E-06-8.51599E-20-2.69040E-18
 -1      1061 8.48212E-05-2.40019E-05-2.60625E-05 1.26233E-05 9.71973E-19-2.28669E-18
 -1      1062 8.52209E-05-1.85016E-05-2.85947E-05-2.67290E-06 4.29757E-19-2.44883E-18
 -1      1063 7.29122E-05-1.84765E-05-2.33121E-05-9.61686E-06 7.80390E-19-7.81407E-19
 -1      1064 9.51817E-05-2.83786E-05-2.86299E-05-1.22283E-08 7.16678E-19-3.82944E-18
 -1      1065 6.97398E-05-1.58110E-05-2.30958E-05 2.98861E-06 1.51256E-19 2.85926E-18
 -1      1066 8.58121E-05-1.81352E-05-2.90040E-05 1.08093E-06 3.06874E-19-2.91913E-18
 -1      1067 8.51239E-05-2.00050E-05-2.79089E-05-7.34591E-06 4.79860E-19-2.04822E-18
 -1      1068 8.52952E-05-1.81589E-05-2.87720E-05-6.04825E-07 4.49100E-19-2.62462E-18
 -1      1069 7.52954E-05-1.69095E-05-2.50269E-05-3.46611E-07 1.94278E-19-2.81951E-18
 -1      1070 8.68305E-05-1.88345E-05-2.91407E-05 2.98881E-06 6.48799E-20-2.75905E-18
 -1      1071 8.02386E-05-1.82327E-05-2.65691E-05-5.11472E-06 8.67930E-20-2.35002E-18
 -1      1072 8.73638E-05-2.17793E-05-2.81085E-05 1.01877E-06-1.12823E-18 1.17180E-18
 -1      1073 7.94480E-05-2.14151E-05-2.48639E-05-1.09591E-05 1.15728E-18-1.40025E-19
 -1      1074 8.07789E-05-2.02111E-05-2.59570E-05-6.72984E-06 1.25904E-18-1.78769E-19
 -1      1075 8.33631E-05-2.06447E-05-2.68737E-05-4.79116E-06 6.48872E-19 1.33431E-19
 -1      1076 8.54839E-05-2.12639E-05-2.75230E-05-3.45923E-06-2.18926E-19-7.18416E-19
 -1      1077 8.73446E-05-2.20478E-05-2.79835E-05-2.50317E-06-4.95610E-19-2.21109E-18
 -1      1078 8.89185E-05-2.28871E-05-2.82985E-05-1.81936E-06-5.24961E-19-1.76551E-18
 -1      1079 9.02421E-05-2.37261E-05-2.85064E-05-1.32624E-06 1.10055E-18-1.40688E-18
 -1      1080 9.13444E-05-2.45249E-05-2.86366E-05-9.68144E-07 5.57328E-19-2.59073E-18
 -1      1081 9.22505E-05-2.52565E-05-2.87115E-05-7.06396E-07 5.48097E-19-3.30605E-18
 -1      1082 9.29846E-05-2.59053E-05-2.87481E-05-5.14034E-07 6.25564E-19-2.81893E-18
 -1      1083 9.35697E-05-2.64648E-05-2.87591E-05-3.72120E-07-2.85356E-20-1.78132E-18
 -1      1084 9.40284E-05-2.69359E-05-2.87539E-05-2.67212E-07-1.49806E-19-1.44563E-18
 -1      1085 9.43816E-05-2.73238E-05-2.87390E-05-1.89661E-07 2.32787E-19-1.61234E-18
 -1      1086 9.46485E-05-2.76368E-05-2.87193E-05-1.32463E-07-4.32924E-19-2.58082E-18
 -1      1087 9.48461E-05-2.78847E-05-2.86977E-05-9.04904E-08-1.12273E-18-4.09794E-18
 -1      1088 9.49887E-05-2.80772E-05-2.86763E-05-5.99886E-08-4.02471E-19-4.37861E-18
 -1      1089 9.50893E-05-2.82248E-05-2.86563E-05-3.67070E-08-7.17140E-19-5.18396E-18
 -1      1090 9.51436E-05-2.83104E-05-2.86425E-05-2.25942E-08-3.40871E-19-5.22673E-18
 -1      1091 8.52283E-05-2.06518E-05-2.76763E-05 1.00350E-06-7.14409E-19 6.33168E-19
 -1      1092 9.04704E-05-2.37961E-05-2.85751E-05 8.71604E-07-6.32315E-19-1.25450E-19
 -1      1093 9.15896E-05-2.46629E-05-2.86832E-05 7.55623E-07 3.06520E-20-3.65321E-19
 -1      1094 9.24845E-05-2.54231E-05-2.87407E-05 6.33116E-07-1.91918E-19-1.92713E-18
 -1      1095 9.31922E-05-2.60755E-05-2.87644E-05 5.14653E-07-1.23861E-19-3.36200E-18
 -1      1096 9.37450E-05-2.66239E-05-2.87663E-05 4.06827E-07 1.38292E-19-3.61912E-18
 -1      1097 9.41707E-05-2.70761E-05-2.87548E-05 3.13050E-07 5.94287E-19-3.27925E-18
 -1      1098 9.44933E-05-2.74423E-05-2.87361E-05 2.34415E-07 5.87067E-19-2.93122E-18
 -1      1099 9.47335E-05-2.77337E-05-2.87142E-05 1.70482E-07-2.19415E-19-1.66809E-18
 -1      1100 9.49087E-05-2.79616E-05-2.86916E-05 1.19928E-07-4.65878E-19-4.81010E-20
 -1      1101 9.50336E-05-2.81369E-05-2.86700E-05 8.10469E-08-1.04498E-18 1.31797E-18
 -1      1102 9.51209E-05-2.82702E-05-2.86501E-05 5.18110E-08-1.30550E-18 4.25197E-20
 -1      1103 8.04249E-05-1.86942E-05-2.64554E-05 5.01205E-06 3.88974E-19-2.78930E-18
 -1      1104 7.92670E-05-1.83124E-05-2.61231E-05 9.11772E-07 1.07543E-19 2.63872E-19
 -1      1105 7.47733E-05-1.70207E-05-2.47501E-05 6.86491E-07 3.30936E-19 2.03966E-18
 -1      1106 8.43491E-05-1.90978E-05-2.79684E-05 3.91092E-06 3.15508E-19-2.45378E-18
 -1      1107 8.25443E-05-1.94530E-05-2.70374E-05 9.57070E-07-7.34222E-19 9.74096E-20
 -1      1108 8.90814E-05-2.28305E-05-2.83939E-05 9.65960E-07-1.09269E-18 4.15483E-19
 -1      1109 8.27730E-05-1.83238E-05-2.76230E-05-3.15701E-06 4.22065E-19-2.53124E-18
 -1      1110 8.08186E-05-1.79055E-05-2.69712E-05 5.25211E-07 2.88869E-19-2.65430E-18
 -1      1111 9.51996E-05-2.84110E-05-2.86237E-05 1.96357E-08 1.03611E-18-1.13019E-18
 -1      1112 7.23367E-05-1.67873E-05-2.37888E-05-3.93697E-06 9.36859E-19 1.52300E-18
 -1      1113 9.51656E-05-2.83472E-05-2.86364E-05 3.13559E-08-6.37651E-19-1.45448E-18
 -1      1114 8.01317E-05-1.88772E-05-2.62711E-05-2.18822E-06 1.10783E-18 5.81503E-20
 -1      1115 7.65991E-05-1.81959E-05-2.50267E-05-4.91351E-06 1.14529E-18 1.72161E-20
 -1      1116 8.33481E-05-1.81441E-05-2.79428E-05-1.86819E-07 4.49941E-19-2.60841E-18
 -1      1117 9.51549E-05-2.83328E-05-2.86383E-05 1.87856E-10 3.63049E-19-1.12660E-18
 -1      1118 1.16654E-04 2.58358E-10-4.19265E-05-4.03917E-05-4.55280E-19 1.27760E-17
 -1      1119 8.96502E-05 7.55521E-11-3.75965E-05-2.25973E-05-2.35263E-19 9.69747E-19
 -1      1120 8.51143E-05 4.37786E-11-3.61521E-05-1.58782E-05-1.65330E-19-3.91419E-18
 -1      1121 8.30464E-05 3.24568E-11-3.53543E-05-1.16307E-05-1.04344E-19-6.17918E-18
 -1      1122 8.17548E-05 2.58680E-11-3.48419E-05-8.36604E-06-6.40304E-20-7.21528E-18
 -1      1123 8.08364E-05 2.13645E-11-3.44813E-05-5.73967E-06-4.19017E-20-7.62599E-18
 -1      1124 8.01776E-05 1.82188E-11-3.42252E-05-3.54710E-06-2.38228E-20-7.74556E-18
 -1      1125 7.97630E-05 1.62706E-11-3.40658E-05-1.62732E-06 1.91906E-22-7.72073E-18
 -1      1126 7.96130E-05 1.55130E-11-3.40091E-05 1.35318E-07 2.27772E-20-7.60021E-18
 -1      1127 7.97392E-05 1.59871E-11-3.40588E-05 1.88095E-06 4.21134E-20-7.38432E-18
 -1      1128 8.01436E-05 1.77584E-11-3.42158E-05 3.75626E-06 5.12058E-20-6.99822E-18
 -1      1129 8.08164E-05 2.08752E-11-3.44763E-05 5.89512E-06 7.44595E-20-6.41068E-18
 -1      1130 8.17682E-05 2.56269E-11-3.48489E-05 8.48063E-06 1.04820E-19-5.42494E-18
 -1      1131 8.30991E-05 3.26422E-11-3.53775E-05 1.17449E-05 1.40607E-19-3.78414E-18
 -1      1132 8.51686E-05 4.42245E-11-3.61921E-05 1.60249E-05 1.84812E-19-8.11788E-19
 -1      1133 8.93925E-05 7.07863E-11-3.76741E-05 2.23733E-05 2.01488E-19 4.88582E-18
 -1      1134 1.06644E-04 1.67261E-10-4.07281E-05 3.50800E-05 3.99376E-19 1.64525E-17
 -1      1135 1.29650E-04-2.58357E-05-4.03021E-05-2.53989E-05-1.81265E-18 2.02576E-17
 -1      1136 9.87898E-05-2.92747E-05-3.19838E-05-5.28217E-07-6.02664E-19 1.60072E-17
 -1      1137 9.29745E-05-2.78843E-05-2.87221E-05 4.21914E-07-2.26370E-19 1.02258E-17
 -1      1138 9.23980E-05-2.78278E-05-2.78951E-05 2.77332E-07-1.90218E-19 6.05502E-18
 -1      1139 9.35057E-05-2.81405E-05-2.80919E-05 2.00598E-07-9.75014E-20 3.54433E-18
 -1      1140 9.55624E-05-2.87252E-05-2.86903E-05 1.66441E-07-6.04735E-20 1.89354E-18
 -1      1141 9.82018E-05-2.94923E-05-2.94750E-05 1.51788E-07-9.36393E-20 2.33887E-19
 -1      1142 1.01168E-04-3.03626E-05-3.03485E-05 1.44817E-07-1.08169E-19-1.19919E-18
 -1      1143 1.04184E-04-3.12493E-05-3.12237E-05 1.35271E-07-5.96372E-20-2.08915E-18
 -1      1144 1.06881E-04-3.20393E-05-3.19877E-05 1.11227E-07-6.86808E-20-3.21613E-18
 -1      1145 1.08759E-04-3.25826E-05-3.24925E-05 5.84890E-08-5.59174E-20-4.10196E-18
 -1      1146 1.09206E-04-3.26996E-05-3.25682E-05-3.57572E-08 5.36675E-20-4.27357E-18
 -1      1147 1.07633E-04-3.22199E-05-3.20652E-05-1.73120E-07-6.45366E-20-4.78489E-18
 -1      1148 1.03745E-04-3.10640E-05-3.09321E-05-3.29604E-07-3.54993E-20-4.93524E-18
 -1      1149 9.79068E-05-2.93483E-05-2.93035E-05-4.46526E-07-3.07049E-20-5.12794E-18
 -1      1150 9.13886E-05-2.74499E-05-2.75415E-05-4.47812E-07-4.77151E-20-5.58406E-18
 -1      1151 8.61640E-05-2.59393E-05-2.61613E-05-2.89520E-07-8.47231E-20-6.66888E-18
 -1      1152 8.41367E-05-2.53568E-05-2.56358E-05-9.23025E-09-8.20563E-22-7.77854E-18
 -1      1153 8.61471E-05-2.59381E-05-2.61688E-05 2.76550E-07-1.15173E-19-7.22996E-18
 -1      1154 9.14816E-05-2.74834E-05-2.75880E-05 4.47710E-07-5.90475E-20-8.35566E-18
 -1      1155 9.82984E-05-2.94709E-05-2.94382E-05 4.59169E-07-8.69871E-20-8.56726E-18
 -1      1156 1.04611E-04-3.13274E-05-3.12039E-05 3.51023E-07-6.34150E-20-8.48023E-18
 -1      1157 1.09099E-04-3.26619E-05-3.25126E-05 1.99311E-07 1.44796E-19-6.79837E-18
 -1      1158 1.11351E-04-3.33437E-05-3.32168E-05 6.48342E-08-3.19791E-19-6.78458E-18
 -1      1159 1.11631E-04-3.34433E-05-3.33589E-05-2.57342E-08 9.18750E-20-6.41101E-18
 -1      1160 1.10517E-04-3.31264E-05-3.30834E-05-7.23882E-08 1.24286E-19-4.94080E-18
 -1      1161 1.08609E-04-3.25695E-05-3.25568E-05-8.69531E-08 1.74902E-19-4.78589E-18
 -1      1162 1.06389E-04-3.19151E-05-3.19204E-05-8.26522E-08-9.44656E-21-5.32823E-18
 -1      1163 1.04181E-04-3.12606E-05-3.12743E-05-6.96049E-08-1.50490E-19-5.05685E-18
 -1      1164 1.02173E-04-3.06627E-05-3.06788E-05-5.41271E-08 2.07134E-19-4.85466E-18
 -1      1165 1.00453E-04-3.01484E-05-3.01636E-05-3.95480E-08-1.91953E-19-6.51355E-18
 -1      1166 9.90403E-05-2.97249E-05-2.97378E-05-2.72788E-08 1.70312E-19-6.34911E-18
 -1      1167 9.79209E-05-2.93882E-05-2.93984E-05-1.76574E-08-1.04513E-19-5.38745E-18
 -1      1168 9.70600E-05-2.91285E-05-2.91362E-05-1.04980E-08 7.97700E-20-6.21198E-18
 -1      1169 9.64163E-05-2.89338E-05-2.89393E-05-5.40727E-09 2.51936E-19-5.32415E-18
 -1      1170 9.59485E-05-2.87919E-05-2.87957E-05-1.94975E-09 1.26624E-19-3.90392E-18
 -1      1171 9.56191E-05-2.86916E-05-2.86941E-05 2.75774E-10-2.00719E-19-4.67753E-18
 -1      1172 9.53958E-05-2.86233E-05-2.86249E-05 1.60717E-09 6.27427E-20-4.72548E-18
 -1      1173 9.52518E-05-2.85790E-05-2.85799E-05 2.31397E-09 1.80747E-19-2.31830E-18
 -1      1174 9.51657E-05-2.85523E-05-2.85527E-05 2.60311E-09-1.92978E-20-2.39828E-18
 -1      1175 9.51208E-05-2.85381E-05-2.85383E-05 2.62868E-09 2.35051E-19-4.22912E-18
 -1      1176 9.51043E-05-2.85327E-05-2.85326E-05 2.50204E-09-1.29573E-19-5.88391E-18
 -1      1177 9.51069E-05-2.85330E-05-2.85328E-05 2.30113E-09-1.58884E-20-7.35288E-18
 -1      1178 9.51215E-05-2.85370E-05-2.85368E-05 2.07777E-09 5.10709E-20-5.43718E-18
 -1      1179 9.51430E-05-2.85433E-05-2.85431E-05 1.86216E-09 4.30576E-19-4.29584E-18
 -1      1180 9.51679E-05-2.85505E-05-2.85503E-05 1.66274E-09 1.96144E-19-1.17469E-18
 -1      1181 9.51931E-05-2.85579E-05-2.85576E-05 1.45614E-09 3.66165E-19-8.86462E-19
 -1      1182 9.52156E-05-2.85646E-05-2.85641E-05 1.13555E-09-1.80505E-20 1.22924E-19
 -1      1183 9.52318E-05-2.85693E-05-2.85687E-05 4.72393E-10 7.46331E-21-1.70885E-18
 -1      1184 9.52378E-05-2.85714E-05-2.85714E-05-2.97293E-10 6.67224E-19-1.85374E-19
 -1      1185 1.30319E-04-3.74327E-05-3.87222E-05 1.19370E-05-3.12608E-19 2.59196E-17
 -1      1186 9.80085E-05-2.86408E-05-3.17614E-05 7.45906E-07 1.47251E-19 2.09759E-17
 -1      1187 9.33274E-05-2.78380E-05-2.87532E-05 1.11570E-07 1.67514E-19 1.57977E-17
 -1      1188 9.27861E-05-2.78551E-05-2.80334E-05 1.82250E-08 5.79953E-20 1.21947E-17
 -1      1189 9.41255E-05-2.82862E-05-2.83117E-05-1.05525E-08 9.67007E-20 9.96508E-18
 -1      1190 9.66300E-05-2.90319E-05-2.90500E-05-2.35735E-08 7.52271E-20 8.53222E-18
 -1      1191 1.00017E-04-3.00373E-05-3.00708E-05-3.93208E-08 2.15398E-21 7.68833E-18
 -1      1192 1.04149E-04-3.12638E-05-3.13096E-05-6.62110E-08-8.77887E-21 7.22816E-18
 -1      1193 1.08878E-04-3.26635E-05-3.27105E-05-1.10071E-07 9.63525E-20 5.37808E-18
 -1      1194 1.13917E-04-3.41476E-05-3.41726E-05-1.72917E-07 1.52913E-19 4.65680E-18
 -1      1195 1.18695E-04-3.55466E-05-3.55071E-05-2.45489E-07 1.59916E-19 3.44062E-18
 -1      1196 1.22218E-04-3.65738E-05-3.64098E-05-2.94625E-07 2.86006E-20 3.09367E-18
 -1      1197 1.23060E-04-3.68244E-05-3.64856E-05-2.54452E-07-9.95198E-20 3.86938E-18
 -1      1198 1.19708E-04-3.58711E-05-3.53828E-05-4.70735E-08 2.28037E-20 3.86152E-18
 -1      1199 1.11518E-04-3.35165E-05-3.30558E-05 3.39386E-07 2.78164E-20 4.05284E-18
 -1      1200 1.00028E-04-3.01565E-05-3.00356E-05 7.50074E-07 1.10640E-19 3.20920E-18
 -1      1201 8.94758E-05-2.69682E-05-2.74243E-05 8.89896E-07-3.37821E-19 2.82560E-18
 -1      1202 8.50281E-05-2.55013E-05-2.63988E-05 5.72054E-07 8.54444E-20 2.28209E-18
 -1      1203 8.92174E-05-2.66427E-05-2.74825E-05-4.58272E-08-4.18620E-20 4.28387E-19
 -1      1204 9.98558E-05-2.98344E-05-3.01741E-05-5.71221E-07 1.34414E-19-9.18078E-19
 -1      1205 1.11826E-04-3.35032E-05-3.33078E-05-7.51192E-07 3.75242E-20-2.33495E-18
 -1      1206 1.20725E-04-3.62400E-05-3.57797E-05-6.20057E-07-5.65394E-20-2.48488E-18
 -1      1207 1.24832E-04-3.74953E-05-3.70454E-05-3.62328E-07 3.53517E-19-3.99440E-18
 -1      1208 1.24714E-04-3.74510E-05-3.71475E-05-1.28213E-07-2.52472E-19-4.87109E-18
 -1      1209 1.21884E-04-3.65848E-05-3.64373E-05 2.42494E-08 3.51452E-20-2.38440E-18
 -1      1210 1.17801E-04-3.53470E-05-3.53093E-05 9.95588E-08-1.57183E-19-4.29657E-19
 -1      1211 1.13478E-04-3.40438E-05-3.40657E-05 1.23060E-07-4.15197E-19 6.96155E-20
 -1      1212 1.09481E-04-3.28429E-05-3.28891E-05 1.18575E-07 1.79162E-19-2.30684E-18
 -1      1213 1.06055E-04-3.18155E-05-3.18662E-05 1.02093E-07 7.62288E-20-4.93075E-18
 -1      1214 1.03256E-04-3.09770E-05-3.10231E-05 8.25044E-08-9.26442E-22-4.28907E-18
 -1      1215 1.01045E-04-3.03146E-05-3.03532E-05 6.40278E-08-4.18781E-20-1.86891E-18
 -1      1216 9.93427E-05-2.98045E-05-2.98350E-05 4.82722E-08 1.93941E-19-1.90084E-18
 -1      1217 9.80590E-05-2.94197E-05-2.94432E-05 3.55550E-08-3.48784E-19 1.16253E-18
 -1      1218 9.71103E-05-2.91351E-05-2.91529E-05 2.56342E-08-1.33961E-19 2.00118E-18
 -1      1219 9.64232E-05-2.89289E-05-2.89420E-05 1.80766E-08 8.80894E-20-1.00195E-18
 -1      1220 9.59368E-05-2.87828E-05-2.87923E-05 1.24267E-08-1.13858E-19-9.13572E-19
 -1      1221 9.56016E-05-2.86820E-05-2.86888E-05 8.27427E-09 6.23944E-19-3.56146E-18
 -1      1222 9.53785E-05-2.86148E-05-2.86196E-05 5.27452E-09 1.41242E-19-4.10770E-18
 -1      1223 9.52372E-05-2.85722E-05-2.85755E-05 3.14811E-09 1.77787E-19-4.22890E-18
 -1      1224 9.51543E-05-2.85471E-05-2.85493E-05 1.67316E-09-4.49276E-19-2.14694E-18
 -1      1225 9.51125E-05-2.85344E-05-2.85358E-05 6.75518E-10 2.13379E-19-4.90806E-18
 -1      1226 9.50985E-05-2.85301E-05-2.85309E-05 1.94505E-11 2.40746E-19-3.27604E-18
 -1      1227 9.51029E-05-2.85313E-05-2.85317E-05-4.00474E-10 7.36481E-20-1.72650E-18
 -1      1228 9.51189E-05-2.85360E-05-2.85362E-05-6.66424E-10-3.02284E-20 2.25946E-19
 -1      1229 9.51414E-05-2.85426E-05-2.85427E-05-8.42986E-10-1.41746E-19 1.67092E-18
 -1      1230 9.51670E-05-2.85502E-05-2.85501E-05-9.79557E-10-4.25477E-19 3.90459E-18
 -1      1231 9.51926E-05-2.85578E-05-2.85576E-05-1.10629E-09-7.88584E-20 2.61498E-18
 -1      1232 9.52154E-05-2.85645E-05-2.85641E-05-1.19404E-09 5.90922E-19-1.80166E-18
 -1      1233 9.52318E-05-2.85694E-05-2.85688E-05-9.90034E-10 5.46064E-19-4.67824E-18
 -1      1234 9.52378E-05-2.85714E-05-2.85714E-05 2.41763E-10-2.63831E-19-2.23136E-18
 -1      1235 9.52368E-05-2.85705E-05-2.85714E-05 1.58639E-10-2.40671E-18-8.78055E-19
 -1      1236 9.52390E-05-2.85767E-05-2.85688E-05-4.01436E-10-6.30234E-18-5.23436E-19
 -1      1237 9.52435E-05-2.85920E-05-2.85645E-05-1.04763E-09-2.56818E-18 4.57345E-21
 -1      1238 9.52492E-05-2.86113E-05-2.85591E-05-1.10192E-09 3.19379E-18-2.01749E-19
 -1      1239 9.52548E-05-2.86303E-05-2.85537E-05-9.37452E-10 5.43067E-18-1.97887E-19
 -1      1240 9.52596E-05-2.86465E-05-2.85490E-05-6.95089E-10-1.42771E-18-8.91257E-19
 -1      1241 9.52632E-05-2.86585E-05-2.85454E-05-4.60023E-10-3.15490E-18-4.89758E-19
 -1      1242 9.52654E-05-2.86658E-05-2.85432E-05-2.20357E-10-3.53376E-18 2.93017E-19
 -1      1243 9.52661E-05-2.86682E-05-2.85425E-05 8.55458E-12-2.48496E-18-3.87920E-19
 -1      1244 9.52653E-05-2.86655E-05-2.85433E-05 2.35733E-10 2.88571E-19-2.50490E-19
 -1      1245 9.52630E-05-2.86579E-05-2.85456E-05 4.70396E-10 8.85628E-19-2.82048E-19
 -1      1246 9.52594E-05-2.86457E-05-2.85492E-05 7.11598E-10-9.32317E-18 1.75645E-19
 -1      1247 9.52546E-05-2.86295E-05-2.85539E-05 9.34418E-10-4.87648E-18 5.49858E-19
 -1      1248 9.52490E-05-2.86106E-05-2.85593E-05 1.10719E-09 3.12345E-19 6.62435E-19
 -1      1249 9.52433E-05-2.85912E-05-2.85646E-05 1.22879E-09-1.48236E-18-2.72203E-19
 -1      1250 9.52392E-05-2.85768E-05-2.85688E-05 3.69236E-10-1.31151E-18-1.20500E-18
 -1      1251 9.52368E-05-2.85705E-05-2.85714E-05-1.14578E-10-2.73985E-19 5.63914E-19
 -1      1252 3.45504E-05-1.08299E-04 1.83880E-05-1.45865E-05 4.03611E-18 8.48859E-19
 -1      1253 1.70948E-05-6.57765E-05 9.81010E-06-2.54434E-05 1.13164E-17 4.78214E-18
 -1      1254 7.72924E-06-1.04089E-05-5.79278E-06-1.69263E-06 1.80994E-17 1.13053E-17
 -1      1255 3.61440E-05 2.27346E-05-2.62496E-05 5.27399E-05 1.77369E-17 1.78775E-17
 -1      1256 1.12764E-04 1.03702E-05-4.74137E-05 1.01858E-04 1.45961E-17 2.16366E-17
 -1      1257 2.12414E-04-3.52430E-05-6.46821E-05 1.07092E-04 6.85334E-18 1.65375E-17
 -1      1258 2.93785E-04-8.10998E-05-7.62405E-05 5.83891E-05 1.88070E-18 4.14792E-18
 -1      1259 3.15288E-04-9.43946E-05-7.87101E-05-2.23809E-05 1.55187E-18-1.02961E-17
 -1      1260 2.59564E-04-6.12822E-05-7.17562E-05-9.03546E-05 6.32331E-18-2.03203E-17
 -1      1261 1.63716E-04-1.05889E-05-5.71806E-05-1.12813E-04 1.44682E-17-2.68543E-17
 -1      1262 7.19922E-05 2.28638E-05-3.81618E-05-8.34791E-05 2.11953E-17-2.59090E-17
 -1      1263 1.73406E-05 1.46097E-05-1.71860E-05-2.79008E-05 2.33053E-17-1.87194E-17
 -1      1264 8.93316E-06-3.34614E-05 1.73687E-06 1.72318E-05 2.11352E-17-1.09255E-17
 -1      1265 2.54395E-05-8.76106E-05 1.43722E-05 2.58242E-05 1.29223E-17-4.24872E-18
 -1      1266 3.71948E-05-1.14146E-04 1.94319E-05 4.54637E-06-1.49777E-18-1.12475E-18
 -1      1267 2.97927E-05-9.71694E-05 1.61763E-05-2.09858E-05-1.54380E-17-4.00408E-18
 -1      1268 1.19156E-05-4.54926E-05 4.88651E-06-1.99988E-05-2.58879E-17-1.18843E-17
 -1      1269 1.53892E-05 8.12810E-06-1.42231E-05 2.19282E-05-2.74049E-17-2.02890E-17
 -1      1270 6.36519E-05 2.48044E-05-3.57988E-05 7.94262E-05-2.24582E-17-2.57566E-17
 -1      1271 1.56802E-04-7.78698E-06-5.58401E-05 1.10898E-04-1.37914E-17-2.39812E-17
 -1      1272 2.56551E-04-6.12448E-05-7.09686E-05 8.97729E-05-4.99919E-18-1.62673E-17
 -1      1273 3.06376E-04-9.17946E-05-7.74595E-05 2.13648E-05-8.45551E-19-4.39568E-18
 -1      1274 2.89626E-04-8.16478E-05-7.52949E-05-5.82964E-05-2.66598E-18 1.03224E-17
 -1      1275 2.11700E-04-3.62534E-05-6.46863E-05-1.07388E-04-8.71512E-18 2.19542E-17
 -1      1276 1.12445E-04 1.14090E-05-4.75381E-05-1.02283E-04-1.35661E-17 2.10335E-17
 -1      1277 3.76555E-05 2.58720E-05-2.73677E-05-5.71635E-05-1.62529E-17 1.62292E-17
 -1      1278 8.02135E-06-5.20537E-06-7.27476E-06-2.92437E-06-1.80892E-17 1.15036E-17
 -1      1279 1.69779E-05-6.30045E-05 9.18854E-06 2.38205E-05-1.54872E-17 6.03680E-18
 -1      1280 3.46401E-05-1.07395E-04 1.81265E-05 1.34108E-05-3.49909E-18 1.66783E-18
 -1      1281 1.05152E-04-2.22008E-05-3.80761E-05-1.64489E-05-6.71485E-19 1.01064E-17
 -1      1282 9.16683E-05-7.04923E-06-3.64139E-05-1.87080E-05-1.80577E-18-1.35674E-18
 -1      1283 9.39624E-05-7.17276E-06-3.75473E-05-2.41514E-05-2.33103E-18 1.20517E-18
 -1      1284 8.70468E-05-4.32493E-06-3.55134E-05-1.43208E-05-1.69685E-18-4.90715E-18
 -1      1285 8.84400E-05-4.33963E-06-3.60071E-05-1.68754E-05-1.97083E-18-3.39655E-18
 -1      1286 9.36153E-05-1.09430E-05-3.55061E-05-1.70848E-05-3.11420E-18-1.19617E-18
 -1      1287 8.47136E-05-3.22919E-06-3.49390E-05-1.05922E-05-1.30665E-18-6.63760E-18
 -1      1288 8.55805E-05-3.21476E-06-3.52407E-05-1.24319E-05-1.51561E-18-5.87335E-18
 -1      1289 8.89406E-05-7.59792E-06-3.49369E-05-1.32248E-05-2.62693E-18-4.11653E-18
 -1      1290 8.31577E-05-2.57530E-06-3.45369E-05-7.57128E-06-9.20645E-19-7.42514E-18
 -1      1291 8.37719E-05-2.57089E-06-3.47451E-05-9.03567E-06-1.06416E-18-7.09008E-18
 -1      1292 8.62619E-05-5.84999E-06-3.45270E-05-9.74850E-06-1.95997E-18-5.62766E-18
 -1      1293 8.20347E-05-2.12673E-06-3.42422E-05-5.12088E-06-5.31262E-19-7.76905E-18
 -1      1294 8.24842E-05-2.12725E-06-3.43917E-05-6.30981E-06-6.67674E-19-7.60837E-18
 -1      1295 8.44587E-05-4.74397E-06-3.42158E-05-6.90899E-06-1.31206E-18-6.28549E-18
 -1      1296 8.12292E-05-1.81164E-06-3.40295E-05-3.01175E-06-2.39366E-19-7.84439E-18
 -1      1297 8.15433E-05-1.81432E-06-3.41331E-05-4.04225E-06-3.20337E-19-7.84570E-18
 -1      1298 8.31584E-05-3.98399E-06-3.39769E-05-4.55810E-06-7.09784E-19-6.60193E-18
 -1      1299 8.07563E-05-1.61695E-06-3.39070E-05-1.15629E-06 1.11755E-19-7.71999E-18
 -1      1300 8.09227E-05-1.61914E-06-3.39611E-05-2.07599E-06 5.37998E-21-7.76180E-18
 -1      1301 8.22718E-05-3.48015E-06-3.38087E-05-2.53004E-06-2.19095E-19-6.55128E-18
 -1      1302 8.06321E-05-1.54162E-06-3.38806E-05 5.78089E-07 4.19099E-19-7.58865E-18
 -1      1303 8.06420E-05-1.54230E-06-3.38826E-05-2.98460E-07 3.31671E-19-7.68782E-18
 -1      1304 8.18035E-05-3.21386E-06-3.37202E-05-7.19702E-07 3.62425E-19-6.48682E-18
 -1      1305 8.08699E-05-1.58966E-06-3.39537E-05 2.32941E-06 6.92674E-19-7.36575E-18
 -1      1306 8.07185E-05-1.58852E-06-3.39024E-05 1.42591E-06 6.06148E-19-7.52539E-18
 -1      1307 8.17702E-05-3.18562E-06-3.37179E-05 1.00374E-06 8.39904E-19-6.36631E-18
 -1      1308 8.14733E-05-1.76776E-06-3.41256E-05 4.24266E-06 9.91929E-19-6.94931E-18
 -1      1309 8.11612E-05-1.76452E-06-3.40216E-05 3.23838E-06 8.78982E-19-7.20679E-18
 -1      1310 8.21862E-05-3.40528E-06-3.38036E-05 2.77703E-06 1.30440E-18-6.11194E-18
 -1      1311 8.24227E-05-2.07637E-06-3.43884E-05 6.42991E-06 1.30350E-18-6.28186E-18
 -1      1312 8.19612E-05-2.07577E-06-3.42350E-05 5.26880E-06 1.18581E-18-6.67326E-18
 -1      1313 8.30515E-05-3.88542E-06-3.39720E-05 4.72501E-06 1.78432E-18-5.66410E-18
 -1      1314 8.37780E-05-2.54632E-06-3.47572E-05 9.13524E-06 1.70741E-18-5.19153E-18
 -1      1315 8.31347E-05-2.55004E-06-3.45410E-05 7.68455E-06 1.52903E-18-5.84367E-18
 -1      1316 8.43862E-05-4.66343E-06-3.42178E-05 7.01290E-06 2.33625E-18-4.93029E-18
 -1      1317 8.56619E-05-3.23012E-06-3.52683E-05 1.25380E-05 2.09927E-18-3.40875E-18
 -1      1318 8.47669E-05-3.24869E-06-3.49582E-05 1.06877E-05 1.89968E-18-4.49303E-18
 -1      1319 8.62944E-05-5.84054E-06-3.45430E-05 9.83075E-06 2.92430E-18-3.74873E-18
 -1      1320 8.86006E-05-4.34254E-06-3.60516E-05 1.69992E-05 2.32828E-18-1.71683E-19
 -1      1321 8.71652E-05-4.37956E-06-3.55439E-05 1.44668E-05 2.10027E-18-2.12526E-18
 -1      1322 8.90882E-05-7.68077E-06-3.49639E-05 1.33457E-05 3.36636E-18-1.69941E-18
 -1      1323 9.47640E-05-7.22483E-06-3.74522E-05 2.34565E-05 1.97528E-18 5.88365E-18
 -1      1324 9.15658E-05-6.83650E-06-3.64561E-05 1.92683E-05 1.93828E-18 2.19895E-18
 -1      1325 9.39069E-05-1.11763E-05-3.55156E-05 1.75945E-05 3.45891E-18 1.91498E-18
 -1      1326 1.23694E-04-2.50558E-05-3.91330E-05 2.73234E-05 9.30466E-19 1.72189E-17
 -1      1327 1.01143E-04-1.47995E-05-3.76194E-05 2.27216E-05 9.47195E-19 9.37655E-18
 -1      1328 1.03148E-04-1.98994E-05-3.57704E-05 1.96943E-05 3.15031E-18 7.38634E-18
 -1      1329 1.03647E-04-2.81878E-05-3.50145E-05 6.54148E-06 1.65590E-18 1.66025E-17
 -1      1330 1.06402E-04-3.06510E-05-3.38698E-05-7.12978E-06-1.91260E-18 1.08261E-17
 -1      1331 1.00210E-04-2.84793E-05-3.13029E-05-4.28185E-06-1.77310E-18 8.56001E-18
 -1      1332 9.78808E-05-2.85700E-05-2.99557E-05-1.79394E-06-1.45811E-18 7.63335E-18
 -1      1333 9.63086E-05-2.84699E-05-2.91180E-05-1.35734E-06-1.37878E-18 5.51323E-18
 -1      1334 1.01627E-04-2.87414E-05-3.16024E-05-6.52207E-06-3.13598E-18 4.02094E-18
 -1      1335 9.51474E-05-2.82543E-05-2.86550E-05-1.16518E-07-1.12045E-18 4.79169E-18
 -1      1336 9.51192E-05-2.83610E-05-2.85612E-05 9.61672E-09-1.04057E-18 3.24096E-18
 -1      1337 9.78119E-05-2.86887E-05-2.97529E-05-1.73482E-06-2.45854E-18 2.68525E-18
 -1      1338 9.49671E-05-2.83470E-05-2.85060E-05 6.45360E-07-7.40380E-19 2.62731E-18
 -1      1339 9.56738E-05-2.86084E-05-2.87031E-05 7.28245E-07-6.94269E-19 1.59156E-18
 -1      1340 9.67060E-05-2.87122E-05-2.91772E-05 4.76537E-07-1.74960E-18 1.45011E-18
 -1      1341 9.60979E-05-2.87389E-05-2.88403E-05 1.10085E-06-5.20465E-19 1.21606E-18
 -1      1342 9.72097E-05-2.91048E-05-2.91664E-05 1.15694E-06-4.46922E-19 5.61675E-19
 -1      1343 9.69997E-05-2.89297E-05-2.91939E-05 1.68532E-06-1.22965E-18 4.07866E-19
 -1      1344 9.79833E-05-2.93359E-05-2.94082E-05 1.38216E-06-5.54538E-19 2.19937E-19
 -1      1345 9.93321E-05-2.97709E-05-2.98017E-05 1.41656E-06-5.78404E-19-5.94604E-19
 -1      1346 9.81752E-05-2.93498E-05-2.95129E-05 2.41288E-06-1.01451E-18-1.48082E-19
 -1      1347 1.00306E-04-3.00653E-05-3.00993E-05 1.51969E-06-3.60970E-19-7.04943E-19
 -1      1348 1.01755E-04-3.05335E-05-3.05189E-05 1.52908E-06-2.79933E-19-1.19425E-18
 -1      1349 9.98918E-05-2.99240E-05-2.99967E-05 2.81848E-06-8.52222E-19-4.55757E-19
 -1      1350 1.02798E-04-3.08572E-05-3.08313E-05 1.49333E-06-1.94864E-19-1.49086E-18
 -1      1351 1.04187E-04-3.13129E-05-3.12298E-05 1.46796E-06-1.73138E-19-1.74601E-18
 -1      1352 1.01887E-04-3.05964E-05-3.05549E-05 2.91266E-06-5.22455E-19-1.02153E-18
 -1      1353 1.05158E-04-3.16272E-05-3.15113E-05 1.25257E-06-2.34444E-19-1.85475E-18
 -1      1354 1.06274E-04-3.20054E-05-3.18267E-05 1.17829E-06-4.07615E-19-2.33466E-18
 -1      1355 1.03900E-04-3.13018E-05-3.11032E-05 2.62692E-06-4.42548E-19-1.12814E-18
 -1      1356 1.07003E-04-3.22612E-05-3.20244E-05 7.37268E-07-3.04426E-19-2.44483E-18
 -1      1357 1.07577E-04-3.24745E-05-3.21799E-05 6.00496E-07-5.05540E-20-2.64297E-18
 -1      1358 1.05630E-04-3.19520E-05-3.15494E-05 1.85610E-06-5.09745E-19-1.21110E-18
 -1      1359 1.07871E-04-3.26096E-05-3.22376E-05-8.49265E-08-6.42554E-20-2.95966E-18
 -1      1360 1.07614E-04-3.25553E-05-3.21542E-05-2.86751E-07-2.06550E-19-3.20221E-18
 -1      1361 1.06718E-04-3.24232E-05-3.17946E-05 5.17763E-07-2.92862E-19-1.43756E-18
 -1      1362 1.07295E-04-3.25008E-05-3.20266E-05-1.15867E-06-1.93282E-19-3.03745E-18
 -1      1363 1.05991E-04-3.20908E-05-3.16515E-05-1.40102E-06-3.06388E-20-3.31519E-18
 -1      1364 1.06786E-04-3.25542E-05-3.17502E-05-1.35065E-06-2.23147E-19-1.78180E-18
 -1      1365 1.04965E-04-3.17926E-05-3.13271E-05-2.27468E-06 1.30403E-19-3.31603E-18
 -1      1366 1.02627E-04-3.10082E-05-3.06741E-05-2.49183E-06-1.72116E-19-3.35978E-18
 -1      1367 1.05537E-04-3.21782E-05-3.13705E-05-3.46909E-06-4.54751E-20-1.98231E-18
 -1      1368 1.00989E-04-3.04696E-05-3.01990E-05-3.05178E-06-3.12851E-19-3.54438E-18
 -1      1369 9.80047E-05-2.94271E-05-2.93843E-05-3.14265E-06-4.65220E-19-3.79593E-18
 -1      1370 1.02937E-04-3.12068E-05-3.06909E-05-5.23958E-06-6.11641E-19-1.98310E-18
 -1      1371 9.61231E-05-2.87603E-05-2.88709E-05-3.04958E-06-5.10797E-19-3.95628E-18
 -1      1372 9.32766E-05-2.77361E-05-2.81082E-05-2.92670E-06-3.51578E-19-4.28739E-18
 -1      1373 9.94225E-05-2.97603E-05-2.98525E-05-5.85394E-06-7.11587E-19-2.47825E-18
 -1      1374 9.17445E-05-2.71641E-05-2.77095E-05-2.03257E-06-4.79156E-19-4.59621E-18
 -1      1375 8.99821E-05-2.65159E-05-2.72440E-05-1.69311E-06-6.84350E-19-5.32176E-18
 -1      1376 9.59629E-05-2.82467E-05-2.90835E-05-4.68757E-06-8.55113E-19-3.08676E-18
 -1      1377 8.93915E-05-2.62860E-05-2.70965E-05-2.21402E-07-2.89381E-19-5.50922E-18
 -1      1378 8.93884E-05-2.62800E-05-2.70980E-05 2.16314E-07-7.85226E-20-5.30411E-18
 -1      1379 9.37907E-05-2.72568E-05-2.86269E-05-1.80637E-06-7.01317E-19-3.41445E-18
 -1      1380 9.00073E-05-2.65098E-05-2.72593E-05 1.71480E-06-1.98901E-19-5.60913E-18
 -1      1381 9.17949E-05-2.71584E-05-2.77357E-05 2.06877E-06-3.17750E-19-5.82280E-18
 -1      1382 9.38140E-05-2.72478E-05-2.86431E-05 1.83357E-06-4.23212E-19-3.78909E-18
 -1      1383 9.33957E-05-2.77472E-05-2.81572E-05 3.02872E-06-4.10897E-19-6.10152E-18
 -1      1384 9.63448E-05-2.88012E-05-2.89507E-05 3.17214E-06-3.86072E-19-6.71888E-18
 -1      1385 9.60757E-05-2.82422E-05-2.91396E-05 4.83019E-06-5.07948E-19-4.26993E-18
 -1      1386 9.83533E-05-2.95072E-05-2.95017E-05 3.33890E-06-2.96164E-20-6.80946E-18
 -1      1387 1.01528E-04-3.06105E-05-3.03710E-05 3.26582E-06-9.84014E-20-6.89585E-18
 -1      1388 9.97271E-05-2.98075E-05-2.99685E-05 6.16786E-06-3.52897E-19-4.70765E-18
 -1      1389 1.03345E-04-3.12049E-05-3.08990E-05 2.76574E-06 1.06978E-19-6.46270E-18
 -1      1390 1.05947E-04-3.20740E-05-3.16274E-05 2.56071E-06 3.87200E-19-6.09120E-18
 -1      1391 1.03545E-04-3.13533E-05-3.08927E-05 5.71423E-06 3.58268E-19-5.01920E-18
 -1      1392 1.07190E-04-3.24383E-05-3.20171E-05 1.72633E-06 8.24798E-20-5.98842E-18
 -1      1393 1.08806E-04-3.29473E-05-3.24825E-05 1.49065E-06-7.81057E-20-5.91061E-18
 -1      1394 1.06536E-04-3.24542E-05-3.16827E-05 4.06134E-06 2.43694E-19-4.54051E-18
 -1      1395 1.09363E-04-3.30720E-05-3.26833E-05 6.41553E-07 1.58799E-19-5.36446E-18
 -1      1396 1.09962E-04-3.32334E-05-3.28661E-05 4.43675E-07 1.45286E-20-5.56946E-18
 -1      1397 1.08231E-04-3.29732E-05-3.21908E-05 2.01480E-06 5.61159E-20-4.40119E-18
 -1      1398 1.09915E-04-3.31695E-05-3.28857E-05-2.28412E-07 3.99399E-19-4.84194E-18
 -1      1399 1.09702E-04-3.30691E-05-3.28356E-05-3.62186E-07 6.42726E-19-4.12517E-18
 -1      1400 1.08635E-04-3.29884E-05-3.23740E-05 1.87469E-07 6.78712E-19-3.61015E-18
 -1      1401 1.09219E-04-3.28836E-05-3.27157E-05-7.96395E-07 3.79823E-19-4.03844E-18
 -1      1402 1.08478E-04-3.26230E-05-3.25095E-05-8.68333E-07 3.34697E-19-3.61005E-18
 -1      1403 1.08024E-04-3.26625E-05-3.22705E-05-1.12872E-06 8.56708E-19-2.63972E-18
 -1      1404 1.07740E-04-3.23751E-05-3.23021E-05-1.08642E-06 2.10677E-19-3.74970E-18
 -1      1405 1.06731E-04-3.20406E-05-3.20138E-05-1.11124E-06 7.36025E-20-3.84913E-18
 -1      1406 1.06756E-04-3.21536E-05-3.19606E-05-1.89683E-06 1.30522E-19-1.94508E-18
 -1      1407 1.05886E-04-3.17736E-05-3.17656E-05-1.16856E-06-5.51757E-20-3.94142E-18
 -1      1408 1.04804E-04-3.14257E-05-3.14522E-05-1.16283E-06-9.67798E-20-3.98844E-18
 -1      1409 1.05156E-04-3.15792E-05-3.15318E-05-2.21469E-06-2.13153E-19-2.76989E-18
 -1      1410 1.03958E-04-3.11679E-05-3.11980E-05-1.11743E-06-1.09919E-19-3.55597E-18
 -1      1411 1.02926E-04-3.08430E-05-3.08967E-05-1.09479E-06 1.47754E-19-3.42728E-18
 -1      1412 1.03469E-04-3.10142E-05-3.10578E-05-2.21989E-06 1.56081E-19-3.07353E-18
 -1      1413 1.02145E-04-3.06103E-05-3.06587E-05-9.93741E-07-2.21306E-19-3.53671E-18
 -1      1414 1.01231E-04-3.03268E-05-3.03902E-05-9.63769E-07-3.55855E-19-3.44913E-18
 -1      1415 1.01859E-04-3.04999E-05-3.05914E-05-2.03824E-06-2.91878E-19-2.02430E-18
 -1      1416 1.00548E-04-3.01265E-05-3.01805E-05-8.40116E-07-6.67386E-19-3.65140E-18
 -1      1417 9.97778E-05-2.98906E-05-2.99533E-05-8.08829E-07-1.73342E-19-4.19124E-18
 -1      1418 1.00418E-04-3.00553E-05-3.01651E-05-1.76496E-06-3.47383E-19-2.55293E-18
 -1      1419 9.92052E-05-2.97245E-05-2.97766E-05-6.83323E-07 2.61630E-19-4.08482E-18
 -1      1420 9.85815E-05-2.95354E-05-2.95920E-05-6.54096E-07 2.57381E-19-3.33548E-18
 -1      1421 9.91846E-05-2.96851E-05-2.97952E-05-1.46374E-06-1.43152E-19-2.49733E-18
 -1      1422 9.81169E-05-2.94016E-05-2.94481E-05-5.38352E-07 2.85109E-19-4.16041E-18
 -1      1423 9.76278E-05-2.92547E-05-2.93029E-05-5.12802E-07-3.03496E-19-4.22078E-18
 -1      1424 9.81678E-05-2.93862E-05-2.94866E-05-1.17284E-06-1.97719E-19-1.86827E-18
 -1      1425 9.72614E-05-2.91498E-05-2.91892E-05-4.12283E-07-6.75261E-20-4.31746E-18
 -1      1426 9.68889E-05-2.90389E-05-2.90783E-05-3.90940E-07 4.58374E-19-4.66726E-18
 -1      1427 9.73539E-05-2.91510E-05-2.92374E-05-9.12363E-07 1.54220E-20-2.78408E-18
 -1      1428 9.66073E-05-2.89587E-05-2.89908E-05-3.07276E-07 5.89953E-19-4.41228E-18
 -1      1429 9.63314E-05-2.88773E-05-2.89084E-05-2.90052E-07 5.43725E-19-3.79405E-18
 -1      1430 9.67197E-05-2.89704E-05-2.90417E-05-6.90627E-07 3.38404E-19-2.57379E-18
 -1      1431 9.61204E-05-2.88174E-05-2.88428E-05-2.22675E-07-2.05905E-19-3.98562E-18
 -1      1432 9.59219E-05-2.87594E-05-2.87833E-05-2.09165E-07-5.08526E-20-3.73926E-18
 -1      1433 9.62377E-05-2.88350E-05-2.88919E-05-5.08797E-07 4.58608E-19-3.64039E-18
 -1      1434 9.57680E-05-2.87158E-05-2.87354E-05-1.56380E-07-1.20280E-19-3.40799E-18
 -1      1435 9.56298E-05-2.86759E-05-2.86939E-05-1.46048E-07-3.30014E-19-4.01395E-18
 -1      1436 9.58806E-05-2.87360E-05-2.87802E-05-3.64109E-07-1.60857E-19-3.62310E-18
 -1      1437 9.55207E-05-2.86452E-05-2.86599E-05-1.05703E-07-2.06694E-19-4.25624E-18
 -1      1438 9.54284E-05-2.86189E-05-2.86320E-05-9.79873E-08 9.64174E-20-4.05942E-18
 -1      1439 9.56231E-05-2.86656E-05-2.86991E-05-2.51927E-07-3.62072E-19-4.04403E-18
 -1      1440 9.53538E-05-2.85980E-05-2.86088E-05-6.78683E-08 9.25077E-19-2.91550E-18
 -1      1441 9.52956E-05-2.85817E-05-2.85911E-05-6.22427E-08 7.05702E-19-2.23048E-18
 -1      1442 9.54432E-05-2.86172E-05-2.86420E-05-1.67004E-07 4.89130E-19-3.32172E-18
 -1      1443 9.52469E-05-2.85682E-05-2.85760E-05-4.02849E-08-5.88771E-19-1.48779E-18
 -1      1444 9.52133E-05-2.85591E-05-2.85656E-05-3.62863E-08-1.05182E-18-2.94495E-18
 -1      1445 9.53224E-05-2.85854E-05-2.86033E-05-1.04199E-07 5.97760E-19-9.18814E-19
 -1      1446 9.51838E-05-2.85510E-05-2.85564E-05-2.06800E-08-9.12403E-19-2.48328E-18
 -1      1447 9.51675E-05-2.85470E-05-2.85513E-05-1.79183E-08-8.88288E-19-3.70591E-18
 -1      1448 9.52455E-05-2.85657E-05-2.85783E-05-5.88594E-08-1.50117E-18-1.19578E-18
 -1      1449 9.51516E-05-2.85426E-05-2.85463E-05-7.14574E-09-7.40535E-19-4.83880E-18
 -1      1450 9.51473E-05-2.85421E-05-2.85448E-05-5.30435E-09-7.66931E-19-5.87932E-18
 -1      1451 9.52007E-05-2.85548E-05-2.85634E-05-2.69890E-08-1.80644E-18-3.10105E-18
 -1      1452 9.51409E-05-2.85404E-05-2.85428E-05 1.85967E-09 3.90227E-19-6.05998E-18
 -1      1453 9.51445E-05-2.85420E-05-2.85436E-05 3.02902E-09 5.48403E-19-5.67967E-18
 -1      1454 9.51786E-05-2.85501E-05-2.85557E-05-5.29116E-09-4.53734E-19-3.87588E-18
 -1      1455 9.51445E-05-2.85422E-05-2.85437E-05 7.53425E-09 9.34905E-20-4.47720E-18
 -1      1456 9.51528E-05-2.85451E-05-2.85460E-05 8.21761E-09 3.61158E-19-3.80002E-18
 -1      1457 9.51721E-05-2.85495E-05-2.85529E-05 8.84991E-09 1.09333E-18-3.17276E-18
 -1      1458 9.51569E-05-2.85464E-05-2.85472E-05 1.07595E-08 9.35911E-19-3.69624E-18
 -1      1459 9.51679E-05-2.85501E-05-2.85503E-05 1.10858E-08 1.12564E-18-2.54614E-18
 -1      1460 9.51759E-05-2.85516E-05-2.85535E-05 1.74158E-08 1.32523E-18-1.29730E-18
 -1      1461 9.51742E-05-2.85520E-05-2.85523E-05 1.21217E-08 1.89826E-18-2.26527E-18
 -1      1462 9.51862E-05-2.85560E-05-2.85557E-05 1.21648E-08 1.32912E-18-3.09582E-19
 -1      1463 9.51858E-05-2.85554E-05-2.85560E-05 2.17996E-08 1.86737E-18-5.72435E-19
 -1      1464 9.51933E-05-2.85581E-05-2.85579E-05 1.19199E-08 3.90105E-19-7.23485E-19
 -1      1465 9.52048E-05-2.85619E-05-2.85611E-05 1.16919E-08 1.91433E-19-2.42880E-20
 -1      1466 9.51989E-05-2.85599E-05-2.85596E-05 2.28376E-08 9.83127E-19-6.41533E-19
 -1      1467 9.52117E-05-2.85641E-05-2.85632E-05 1.01617E-08-6.32626E-20-2.42959E-19
 -1      1468 9.52211E-05-2.85673E-05-2.85658E-05 9.59232E-09 4.03193E-19 6.93656E-20
 -1      1469 9.52126E-05-2.85648E-05-2.85633E-05 2.08002E-08-5.90739E-20-6.34109E-19
 -1      1470 9.52267E-05-2.85692E-05-2.85674E-05 6.56582E-09 3.35648E-19 4.65474E-19
 -1      1471 9.52325E-05-2.85711E-05-2.85691E-05 5.66455E-09-5.59046E-21 5.81190E-19
 -1      1472 9.52249E-05-2.85695E-05-2.85664E-05 1.55468E-08 3.73232E-19 7.32159E-19
 -1      1473 9.52367E-05-2.85720E-05-2.85704E-05 5.35426E-10-8.19718E-19 5.23999E-19
 -1      1474 9.52351E-05-2.85734E-05-2.85691E-05 5.85884E-09-2.87496E-19 3.99939E-19
 -1      1475 9.88069E-05-2.90487E-05-3.04141E-05 2.34152E-06 1.60910E-18 1.31596E-17
 -1      1476 1.03992E-04-2.98349E-05-3.25853E-05 3.76884E-06 1.33831E-18 1.55501E-17
 -1      1477 1.04002E-04-2.73295E-05-3.31766E-05 1.14667E-05 2.63395E-18 1.01087E-17
 -1      1478 9.55528E-05-2.84766E-05-2.88156E-05 4.84215E-07 1.14990E-18 1.00309E-17
 -1      1479 9.67808E-05-2.84159E-05-2.95078E-05 8.18065E-07 1.19810E-18 1.19713E-17
 -1      1480 9.92019E-05-2.88599E-05-3.03467E-05 3.60671E-06 2.45666E-18 7.94623E-18
 -1      1481 9.51875E-05-2.84748E-05-2.85731E-05-4.46809E-07 7.82857E-19 7.78659E-18
 -1      1482 9.50037E-05-2.82451E-05-2.86006E-05-2.46641E-07 7.71640E-19 9.01481E-18
 -1      1483 9.69732E-05-2.87258E-05-2.93013E-05 4.68174E-07 1.82734E-18 6.08936E-18
 -1      1484 9.64475E-05-2.88776E-05-2.89405E-05-1.01789E-06 5.62089E-19 6.37927E-18
 -1      1485 9.55141E-05-2.85075E-05-2.86750E-05-8.71023E-07 5.28922E-19 7.19703E-18
 -1      1486 9.68642E-05-2.88556E-05-2.91698E-05-1.14154E-06 1.22742E-18 4.59783E-18
 -1      1487 9.87800E-05-2.95823E-05-2.96487E-05-1.44453E-06 4.55800E-19 5.32176E-18
 -1      1488 9.73397E-05-2.90859E-05-2.92204E-05-1.31884E-06 3.94059E-19 5.90795E-18
 -1      1489 9.80922E-05-2.92791E-05-2.95161E-05-2.18669E-06 9.02176E-19 3.58581E-18
 -1      1490 1.01931E-04-3.05322E-05-3.05991E-05-1.79822E-06 1.02213E-19 4.82997E-18
 -1      1491 1.00087E-04-2.99219E-05-3.00520E-05-1.68192E-06 1.73394E-19 5.01715E-18
 -1      1492 1.00256E-04-2.99519E-05-3.01592E-05-2.98269E-06 4.56346E-19 2.95108E-18
 -1      1493 1.05731E-04-3.16846E-05-3.17356E-05-2.08239E-06 5.71617E-19 4.08574E-18
 -1      1494 1.03556E-04-3.09765E-05-3.10947E-05-1.97704E-06 2.89176E-19 4.52980E-18
 -1      1495 1.03128E-04-3.08349E-05-3.10128E-05-3.62292E-06 4.49147E-19 2.28352E-18
 -1      1496 1.09966E-04-3.29857E-05-3.29887E-05-2.24517E-06 2.85231E-19 3.16401E-18
 -1      1497 1.07571E-04-3.22126E-05-3.22904E-05-2.16694E-06 4.21976E-19 3.82656E-18
 -1      1498 1.06522E-04-3.18938E-05-3.20101E-05-4.07791E-06 6.55961E-19 1.94174E-18
 -1      1499 1.14267E-04-3.43368E-05-3.42383E-05-2.17296E-06 2.41138E-19 2.59560E-18
 -1      1500 1.11867E-04-3.35691E-05-3.35513E-05-2.15749E-06 1.29264E-19 2.95506E-18
 -1      1501 1.10201E-04-3.30814E-05-3.30653E-05-4.20794E-06 3.75345E-19 1.39647E-18
 -1      1502 1.17995E-04-3.55565E-05-3.52835E-05-1.69045E-06 6.04735E-20 2.50855E-18
 -1      1503 1.15979E-04-3.49257E-05-3.47268E-05-1.79570E-06 1.92492E-19 2.74562E-18
 -1      1504 1.13785E-04-3.43107E-05-3.40478E-05-3.75928E-06 2.84841E-19 1.42752E-18
 -1      1505 1.20180E-04-3.63452E-05-3.58372E-05-6.04158E-07-4.10282E-22 2.68886E-18
 -1      1506 1.19145E-04-3.60589E-05-3.55833E-05-8.99438E-07-6.54598E-20 2.76822E-18
 -1      1507 1.16686E-04-3.54173E-05-3.47719E-05-2.39940E-06-1.71531E-19 2.28749E-18
 -1      1508 1.19635E-04-3.62933E-05-3.55840E-05 1.15702E-06-6.03246E-20 2.92041E-18
 -1      1509 1.20303E-04-3.66100E-05-3.58215E-05 6.34875E-07-1.60910E-19 2.69493E-18
 -1      1510 1.18092E-04-3.61173E-05-3.50187E-05 1.29857E-07-2.39975E-19 2.12391E-18
 -1      1511 1.15433E-04-3.50115E-05-3.43374E-05 3.28705E-06 7.48433E-20 3.10988E-18
 -1      1512 1.18333E-04-3.61237E-05-3.51720E-05 2.61781E-06-1.17777E-19 3.09215E-18
 -1      1513 1.17132E-04-3.60055E-05-3.46170E-05 3.66688E-06-1.30721E-19 2.33061E-18
 -1      1514 1.07808E-04-3.24578E-05-3.22636E-05 4.89170E-06 2.48002E-19 2.90681E-18
 -1      1515 1.12707E-04-3.42683E-05-3.35781E-05 4.34435E-06 2.20652E-19 3.13037E-18
 -1      1516 1.13334E-04-3.46951E-05-3.35731E-05 7.19221E-06 1.49971E-19 2.51238E-18
 -1      1517 9.90033E-05-2.93458E-05-3.00106E-05 4.74033E-06 1.82966E-19 2.40669E-18
 -1      1518 1.04419E-04-3.12688E-05-3.13905E-05 4.69316E-06 4.33879E-19 2.99394E-18
 -1      1519 1.07353E-04-3.22127E-05-3.21800E-05 8.78078E-06 3.69932E-19 2.18606E-18
 -1      1520 9.29318E-05-2.71381E-05-2.85151E-05 2.24806E-06 4.66927E-20 2.05914E-18
 -1      1521 9.64567E-05-2.82392E-05-2.93800E-05 2.88189E-06-2.97653E-20 2.04357E-18
 -1      1522 1.01430E-04-2.94451E-05-3.09724E-05 6.64797E-06 2.50669E-19 1.91615E-18
 -1      1523 9.29249E-05-2.71573E-05-2.84943E-05-1.55523E-06 6.70003E-19 6.46604E-19
 -1      1524 9.26548E-05-2.67770E-05-2.84234E-05-5.29732E-07 5.76062E-19 1.35857E-18
 -1      1525 9.85987E-05-2.79564E-05-3.04760E-05 1.01979E-06 9.39015E-19 4.87335E-19
 -1      1526 9.90996E-05-2.94254E-05-2.99866E-05-4.52680E-06 2.10157E-19-7.48565E-19
 -1      1527 9.51294E-05-2.77628E-05-2.89993E-05-3.69583E-06 5.42895E-19 5.35748E-20
 -1      1528 1.00579E-04-2.88165E-05-3.09260E-05-5.25311E-06 1.05781E-18-2.92253E-19
 -1      1529 1.08243E-04-3.26410E-05-3.23134E-05-5.23046E-06 3.19727E-19-1.87703E-18
 -1      1530 1.02590E-04-3.05831E-05-3.08629E-05-4.96641E-06 5.16537E-19-8.11034E-19
 -1      1531 1.06291E-04-3.14846E-05-3.21357E-05-8.78527E-06 8.48528E-19-1.41087E-18
 -1      1532 1.16380E-04-3.53288E-05-3.45419E-05-3.93230E-06-3.88517E-19-2.36756E-18
 -1      1533 1.11417E-04-3.37266E-05-3.32029E-05-4.16839E-06 3.11615E-20-1.90201E-18
 -1      1534 1.12808E-04-3.43576E-05-3.36176E-05-8.39503E-06 4.44136E-19-1.56352E-18
 -1      1535 1.21162E-04-3.67612E-05-3.59854E-05-1.82994E-06 3.37893E-19-1.98968E-18
 -1      1536 1.18256E-04-3.59758E-05-3.51477E-05-2.27669E-06-2.44965E-19-2.21346E-18
 -1      1537 1.17572E-04-3.61907E-05-3.48367E-05-5.36577E-06-2.73115E-19-1.72317E-18
 -1      1538 1.22290E-04-3.69701E-05-3.64457E-05 4.28194E-08 1.94897E-19-3.24024E-18
 -1      1539 1.21573E-04-3.69207E-05-3.61945E-05-3.71170E-07 6.23463E-19-1.71831E-18
 -1      1540 1.19556E-04-3.67101E-05-3.54599E-05-1.72663E-06 5.57321E-19-9.83104E-19
 -1      1541 1.20682E-04-3.63453E-05-3.60934E-05 1.25471E-06-1.23197E-19-2.49488E-18
 -1      1542 1.21575E-04-3.67673E-05-3.63054E-05 9.75425E-07-3.32368E-19-3.06237E-18
 -1      1543 1.19032E-04-3.62624E-05-3.54382E-05 1.15543E-06-7.20243E-20-1.06430E-18
 -1      1544 1.17532E-04-3.52965E-05-3.52397E-05 1.82526E-06-9.68974E-19-1.20434E-18
 -1      1545 1.19308E-04-3.59359E-05-3.57243E-05 1.68095E-06-6.42210E-19-2.11164E-18
 -1      1546 1.16832E-04-3.53120E-05-3.49165E-05 2.86436E-06-8.74945E-19-1.48110E-18
 -1      1547 1.13811E-04-3.41211E-05-3.41718E-05 1.94582E-06-3.17922E-19 6.32231E-20
 -1      1548 1.15893E-04-3.48044E-05-3.47637E-05 1.89824E-06-1.53573E-19-1.77850E-19
 -1      1549 1.13798E-04-3.41968E-05-3.41044E-05 3.56202E-06-1.05513E-18-1.27836E-19
 -1      1550 1.10141E-04-3.29938E-05-3.30893E-05 1.81146E-06 3.02920E-19 4.57927E-21
 -1      1551 1.12170E-04-3.36266E-05-3.36788E-05 1.82071E-06-3.47930E-19-4.41516E-20
 -1      1552 1.10554E-04-3.31084E-05-3.31871E-05 3.58901E-06-4.52896E-19 1.88571E-19
 -1      1553 1.06849E-04-3.19996E-05-3.21038E-05 1.56304E-06 1.06897E-18-2.25632E-18
 -1      1554 1.08647E-04-3.25415E-05-3.26326E-05 1.59993E-06 1.06293E-18-2.96594E-19
 -1      1555 1.07483E-04-3.21364E-05-3.22911E-05 3.25337E-06 1.49101E-18-2.04453E-19
 -1      1556 1.04064E-04-3.11672E-05-3.12629E-05 1.28519E-06-3.22253E-19-2.62932E-18
 -1      1557 1.05566E-04-3.16092E-05-3.17082E-05 1.33185E-06-1.53819E-19-2.88315E-18
 -1      1558 1.04777E-04-3.13124E-05-3.14864E-05 2.76807E-06 5.23403E-19-4.13010E-19
 -1      1559 1.01798E-04-3.04946E-05-3.05756E-05 1.02187E-06-5.96606E-19-1.48387E-18
 -1      1560 1.03006E-04-3.08434E-05-3.09353E-05 1.06863E-06-5.44219E-19-2.60719E-18
 -1      1561 1.02503E-04-3.06374E-05-3.08020E-05 2.25817E-06-4.46355E-19-5.24022E-19
 -1      1562 1.00008E-04-2.99656E-05-3.00309E-05 7.92031E-07-4.83346E-19-1.01503E-18
 -1      1563 1.00951E-04-3.02340E-05-3.03128E-05 8.34337E-07-2.46106E-19-1.55247E-18
 -1      1564 1.00656E-04-3.00986E-05-3.02416E-05 1.78707E-06-4.16216E-19-8.74153E-19
 -1      1565 9.86260E-05-2.95585E-05-2.96096E-05 6.00943E-07-6.90360E-19-4.87704E-19
 -1      1566 9.93460E-05-2.97607E-05-2.98254E-05 6.37108E-07-2.75145E-19-8.29361E-19
 -1      1567 9.91946E-05-2.96774E-05-2.97957E-05 1.38087E-06-4.47407E-19-4.47128E-19
 -1      1568 9.75803E-05-2.92513E-05-2.92905E-05 4.47107E-07-4.86449E-19 1.39466E-18
 -1      1569 9.81189E-05-2.94007E-05-2.94522E-05 4.76931E-07-7.83845E-19 1.35221E-19
 -1      1570 9.80626E-05-2.93542E-05-2.94490E-05 1.04526E-06-1.34466E-18 2.54402E-19
 -1      1571 9.68042E-05-2.90239E-05-2.90533E-05 3.26143E-07 3.76356E-19 8.96789E-19
 -1      1572 9.71992E-05-2.91321E-05-2.91722E-05 3.50122E-07 2.63957E-19 1.04633E-18
 -1      1573 9.72028E-05-2.91105E-05-2.91847E-05 7.76015E-07 1.00253E-19 2.52142E-19
 -1      1574 9.62395E-05-2.88588E-05-2.88806E-05 2.32818E-07-2.20803E-20-7.30732E-19
 -1      1575 9.65233E-05-2.89355E-05-2.89662E-05 2.51723E-07 5.48713E-19 4.14226E-19
 -1      1576 9.65620E-05-2.89300E-05-2.89870E-05 5.64744E-07 5.12563E-19 9.42224E-19
 -1      1577 9.58379E-05-2.87417E-05-2.87576E-05 1.62023E-07 4.48018E-19-1.19392E-18
 -1      1578 9.60367E-05-2.87946E-05-2.88177E-05 1.76681E-07 5.39578E-20-1.40772E-18
 -1      1579 9.60936E-05-2.87991E-05-2.88422E-05 4.01992E-07 5.07446E-19-9.32703E-19
 -1      1580 9.55596E-05-2.86609E-05-2.86722E-05 1.09187E-07 6.97104E-19-3.50242E-18
 -1      1581 9.56949E-05-2.86961E-05-2.87132E-05 1.20379E-07 9.34490E-19-1.58237E-18
 -1      1582 9.57587E-05-2.87062E-05-2.87382E-05 2.78694E-07 1.21746E-18-2.22741E-18
 -1      1583 9.53733E-05-2.86070E-05-2.86149E-05 7.04105E-08-2.09747E-19-2.22166E-18
 -1      1584 9.54617E-05-2.86293E-05-2.86419E-05 7.88296E-08-3.68271E-19-2.60515E-18
 -1      1585 9.55255E-05-2.86421E-05-2.86655E-05 1.86799E-07-1.12303E-19-1.70915E-18
 -1      1586 9.52543E-05-2.85729E-05-2.85782E-05 4.24671E-08-6.80665E-19-1.40425E-18
 -1      1587 9.53089E-05-2.85860E-05-2.85949E-05 4.87054E-08-1.32774E-19-2.13821E-18
 -1      1588 9.53683E-05-2.85994E-05-2.86162E-05 1.19463E-07-1.92806E-19-7.26942E-19
 -1      1589 9.51839E-05-2.85528E-05-2.85564E-05 2.27424E-08 8.75023E-19-1.81482E-18
 -1      1590 9.52144E-05-2.85595E-05-2.85658E-05 2.72930E-08 8.29476E-21-1.69141E-18
 -1      1591 9.52672E-05-2.85724E-05-2.85842E-05 7.10289E-08 2.17536E-19-5.35789E-19
 -1      1592 9.51476E-05-2.85428E-05-2.85450E-05 9.15758E-09-4.15437E-20-2.37600E-18
 -1      1593 9.51613E-05-2.85450E-05-2.85494E-05 1.24226E-08 6.79062E-19-1.39172E-18
 -1      1594 9.52066E-05-2.85567E-05-2.85648E-05 3.69200E-08 9.12814E-19-9.87575E-20
 -1      1595 9.51347E-05-2.85395E-05-2.85407E-05 8.98367E-11-1.93541E-19-2.00329E-18
 -1      1596 9.51372E-05-2.85388E-05-2.85417E-05 2.39056E-09-7.85266E-19-3.01244E-18
 -1      1597 9.51746E-05-2.85489E-05-2.85543E-05 1.35053E-08-4.55638E-19-1.33811E-18
 -1      1598 9.51373E-05-2.85407E-05-2.85413E-05-5.69824E-09-1.70897E-18 1.16502E-19
 -1      1599 9.51325E-05-2.85382E-05-2.85401E-05-4.11183E-09-6.56278E-19-5.10052E-19
 -1      1600 9.51624E-05-2.85466E-05-2.85500E-05-2.03752E-09-1.27725E-18 1.50626E-19
 -1      1601 9.51496E-05-2.85447E-05-2.85449E-05-9.11804E-09 1.13641E-18 1.21234E-18
 -1      1602 9.51404E-05-2.85412E-05-2.85423E-05-8.05905E-09-3.14595E-19 9.02995E-19
 -1      1603 9.51633E-05-2.85478E-05-2.85498E-05-1.18436E-08-1.13425E-18 1.92501E-18
 -1      1604 9.51675E-05-2.85502E-05-2.85501E-05-1.07968E-08-5.61801E-19 1.84712E-18
 -1      1605 9.51560E-05-2.85463E-05-2.85468E-05-1.01376E-08-1.85187E-19 1.35086E-18
 -1      1606 9.51725E-05-2.85512E-05-2.85522E-05-1.74589E-08-1.04649E-20 1.13988E-18
 -1      1607 9.51877E-05-2.85565E-05-2.85561E-05-1.10966E-08 1.99650E-19 1.91369E-18
 -1      1608 9.51754E-05-2.85524E-05-2.85525E-05-1.07713E-08 2.12980E-19 2.07984E-18
 -1      1609 9.51863E-05-2.85559E-05-2.85560E-05-1.99027E-08 8.08200E-21 4.73018E-19
 -1      1610 9.52074E-05-2.85626E-05-2.85618E-05-1.01135E-08 1.19805E-18-6.02451E-19
 -1      1611 9.51958E-05-2.85589E-05-2.85585E-05-1.01276E-08 5.27699E-19 8.12897E-19
 -1      1612 9.52018E-05-2.85610E-05-2.85604E-05-1.96952E-08 1.26389E-18-1.44865E-18
 -1      1613 9.52238E-05-2.85679E-05-2.85666E-05-7.65217E-09 1.17406E-18-2.82607E-18
 -1      1614 9.52145E-05-2.85650E-05-2.85639E-05-8.12382E-09 1.55965E-18-2.12855E-19
 -1      1615 9.52165E-05-2.85660E-05-2.85645E-05-1.68653E-08 1.72406E-18-8.07583E-19
 -1      1616 9.52342E-05-2.85713E-05-2.85697E-05-3.61060E-09-4.02492E-19-2.70808E-18
 -1      1617 9.52290E-05-2.85699E-05-2.85681E-05-4.54586E-09-2.88905E-19-3.33800E-18
 -1      1618 9.52286E-05-2.85704E-05-2.85676E-05-1.11071E-08 9.25601E-19-2.09856E-18
 -1      1619 9.52367E-05-2.85720E-05-2.85704E-05-7.23161E-10-1.19575E-18-1.82271E-18
 -1      1620 9.52393E-05-2.85817E-05-2.85674E-05-6.64369E-09-1.77587E-18-6.72998E-19
 -1      1621 9.52374E-05-2.85762E-05-2.85690E-05-5.56026E-09-1.83041E-18-7.41281E-19
 -1      1622 9.52442E-05-2.85957E-05-2.85636E-05-9.33316E-09 5.73446E-19 1.54421E-18
 -1      1623 9.52413E-05-2.85871E-05-2.85660E-05-8.99342E-09-1.54189E-18 1.22753E-18
 -1      1624 9.52393E-05-2.85839E-05-2.85665E-05-1.49284E-08 1.33960E-18 9.95742E-19
 -1      1625 9.52494E-05-2.86112E-05-2.85593E-05-9.86492E-09 3.06257E-18 2.61280E-19
 -1      1626 9.52463E-05-2.86019E-05-2.85619E-05-9.93450E-09 2.53984E-18 1.15994E-18
 -1      1627 9.52441E-05-2.85956E-05-2.85636E-05-1.83932E-08 2.72968E-18 2.29928E-18
 -1      1628 9.52540E-05-2.86258E-05-2.85550E-05-8.88932E-09 2.56450E-18-1.68041E-18
 -1      1629 9.52513E-05-2.86173E-05-2.85574E-05-9.20025E-09 2.72088E-18-1.12082E-18
 -1      1630 9.52485E-05-2.86078E-05-2.85604E-05-1.82430E-08 2.50880E-18-6.52381E-19
 -1      1631 9.52577E-05-2.86377E-05-2.85515E-05-7.05276E-09-1.96700E-18-2.57295E-18
 -1      1632 9.52556E-05-2.86309E-05-2.85534E-05-7.47260E-09 4.00535E-19-2.35229E-18
 -1      1633 9.52523E-05-2.86188E-05-2.85573E-05-1.56890E-08 3.28890E-20-5.13331E-18
 -1      1634 9.52604E-05-2.86464E-05-2.85489E-05-4.73289E-09-1.95257E-18 5.77843E-20
 -1      1635 9.52589E-05-2.86417E-05-2.85503E-05-5.21213E-09-1.51617E-18-1.41098E-18
 -1      1636 9.52552E-05-2.86277E-05-2.85548E-05-1.17801E-08-6.47285E-19-2.59853E-18
 -1      1637 9.52618E-05-2.86512E-05-2.85474E-05-2.22404E-09-5.26649E-19 6.25377E-19
 -1      1638 9.52611E-05-2.86488E-05-2.85481E-05-2.71674E-09-1.29413E-18 1.37435E-18
 -1      1639 9.52572E-05-2.86339E-05-2.85530E-05-7.16462E-09 5.26966E-19 6.16272E-19
 -1      1640 9.52620E-05-2.86519E-05-2.85472E-05 3.35220E-10 2.42123E-19 4.37494E-19
 -1      1641 9.52620E-05-2.86519E-05-2.85472E-05-1.57134E-10-1.68400E-18 1.51530E-18
 -1      1642 9.52581E-05-2.86370E-05-2.85521E-05-2.29148E-09 8.95080E-19 3.70011E-19
 -1      1643 9.52610E-05-2.86485E-05-2.85482E-05 2.87462E-09 2.81505E-19 8.25384E-19
 -1      1644 9.52618E-05-2.86510E-05-2.85475E-05 2.38885E-09 5.50579E-20 4.38050E-19
 -1      1645 9.52581E-05-2.86369E-05-2.85521E-05 2.62211E-09 7.39631E-19 1.01663E-18
 -1      1646 9.52587E-05-2.86411E-05-2.85504E-05 5.32110E-09-1.79925E-18-1.96449E-18
 -1      1647 9.52602E-05-2.86460E-05-2.85490E-05 4.85468E-09 4.07158E-19-1.16661E-18
 -1      1648 9.52570E-05-2.86336E-05-2.85531E-05 7.43544E-09-5.99233E-19-8.94743E-19
 -1      1649 9.52554E-05-2.86304E-05-2.85536E-05 7.49216E-09-4.63273E-18 7.45309E-19
 -1      1650 9.52576E-05-2.86372E-05-2.85516E-05 7.08948E-09-3.16314E-18-1.29209E-18
 -1      1651 9.52550E-05-2.86273E-05-2.85549E-05 1.19123E-08-1.59836E-18-4.06040E-18
 -1      1652 9.52510E-05-2.86166E-05-2.85576E-05 9.17422E-09-5.96685E-19 2.12546E-18
 -1      1653 9.52538E-05-2.86251E-05-2.85552E-05 8.87738E-09-4.37111E-18 3.59924E-18
 -1      1654 9.52521E-05-2.86183E-05-2.85575E-05 1.56996E-08-9.79042E-19 3.08564E-18
 -1      1655 9.52461E-05-2.86013E-05-2.85620E-05 9.88807E-09 4.18823E-19 7.56130E-19
 -1      1656 9.52492E-05-2.86105E-05-2.85594E-05 9.79773E-09-8.09588E-19 1.22733E-18
 -1      1657 9.52484E-05-2.86072E-05-2.85605E-05 1.81491E-08-1.75412E-19 2.09188E-18
 -1      1658 9.52413E-05-2.85870E-05-2.85661E-05 8.83579E-09-7.62055E-19 3.20677E-19
 -1      1659 9.52441E-05-2.85952E-05-2.85638E-05 9.16432E-09-6.35365E-19 1.10933E-18
 -1      1660 9.52439E-05-2.85951E-05-2.85637E-05 1.82050E-08 8.61100E-19 7.43710E-19
 -1      1661 9.52372E-05-2.85771E-05-2.85687E-05 7.62682E-09-1.27379E-18-1.16243E-18
 -1      1662 9.52391E-05-2.85824E-05-2.85671E-05 9.21430E-09-3.79219E-19-1.35266E-18
 -1      1663 9.52391E-05-2.85842E-05-2.85662E-05 1.69183E-08 1.55376E-19-2.57199E-19
 -1      1664 9.52330E-05-2.85755E-05-2.85674E-05 1.44191E-08 1.23698E-19-5.53708E-19
 -1      1665 1.99920E-05-6.63156E-05 1.40094E-05-7.02919E-06 3.80826E-18 2.58006E-18
 -1      1666 2.35253E-05-7.60867E-05 1.59896E-05 1.15629E-06 4.72644E-19 1.88782E-18
 -1      1667 2.11588E-05-3.89030E-05 3.58485E-06 4.49881E-06 7.77661E-18 6.65588E-18
 -1      1668 2.48659E-05-6.08553E-05 9.68987E-06 3.48932E-07 4.47064E-18 3.69942E-18
 -1      1669 3.38605E-05-1.15540E-05-1.16766E-05 2.67044E-05 1.21871E-17 9.29365E-18
 -1      1670 2.83730E-05-3.22613E-05-3.07474E-06 9.16416E-06 1.00873E-17 7.18665E-18
 -1      1671 8.26228E-05-6.22240E-06-3.18966E-05 5.96495E-05 1.10402E-17 1.38896E-17
 -1      1672 5.51302E-05-1.14979E-05-2.11238E-05 3.57270E-05 1.14824E-17 1.07971E-17
 -1      1673 1.45343E-04-1.86172E-05-5.08097E-05 7.68282E-05 9.31524E-18 1.26911E-17
 -1      1674 1.03700E-04-5.51434E-06-4.15938E-05 6.55054E-05 1.17814E-17 1.33755E-17
 -1      1675 2.10335E-04-4.54008E-05-6.55345E-05 5.98806E-05 5.26452E-18 6.72798E-18
 -1      1676 1.68676E-04-2.53837E-05-5.83831E-05 7.00512E-05 7.98223E-18 1.03541E-17
 -1      1677 2.47171E-04-6.06555E-05-7.38708E-05 1.67175E-05 3.84172E-18-1.79973E-18
 -1      1678 2.23449E-04-4.80258E-05-7.03225E-05 4.64305E-05 4.81485E-18 4.29530E-18
 -1      1679 2.48462E-04-6.00423E-05-7.45084E-05-3.07355E-05 4.58965E-18-9.49566E-18
 -1      1680 2.56294E-04-6.46932E-05-7.56496E-05 3.87178E-06 3.62022E-18-4.05107E-18
 -1      1681 2.01886E-04-3.80032E-05-6.57321E-05-6.43467E-05 8.29907E-18-1.50128E-17
 -1      1682 2.36860E-04-5.63711E-05-7.11692E-05-4.32385E-05 5.49259E-18-1.09572E-17
 -1      1683 1.37475E-04-1.30213E-05-5.11725E-05-7.43611E-05 1.31900E-17-1.85034E-17
 -1      1684 1.81918E-04-3.19312E-05-5.94536E-05-7.53607E-05 9.84168E-18-1.71007E-17
 -1      1685 7.93032E-05-4.86581E-06-3.26628E-05-5.36321E-05 1.51043E-17-1.68356E-17
 -1      1686 1.14411E-04-1.01308E-05-4.24030E-05-7.19093E-05 1.35542E-17-1.87008E-17
 -1      1687 3.83007E-05-1.65298E-05-1.29671E-05-2.31823E-05 1.58810E-17-1.23370E-17
 -1      1688 5.55957E-05-3.06705E-06-2.30601E-05-4.70028E-05 1.59623E-17-1.57853E-17
 -1      1689 2.51197E-05-4.67885E-05 3.60069E-06-1.24123E-06 1.26631E-17-7.21757E-18
 -1      1690 2.46411E-05-2.24807E-05-4.26745E-06-1.38131E-05 1.50569E-17-1.06447E-17
 -1      1691 2.44024E-05-7.14785E-05 1.35527E-05 2.69522E-06 4.83402E-18-4.43464E-18
 -1      1692 1.91177E-05-5.35406E-05 9.34333E-06 5.05543E-06 1.04642E-17-6.59473E-18
 -1      1693 2.29742E-05-7.58841E-05 1.62267E-05-3.41225E-06-4.43591E-18-4.02807E-18
 -1      1694 2.21385E-05-7.36759E-05 1.57085E-05 6.16967E-06 2.30584E-18-4.04712E-18
 -1      1695 1.91614E-05-5.76023E-05 1.11362E-05-4.37406E-06-1.29274E-17-6.99977E-18
 -1      1696 2.40784E-05-7.36745E-05 1.47376E-05 5.15436E-07-6.85080E-18-4.61548E-18
 -1      1697 2.44408E-05-2.81965E-05-1.46340E-06 1.37772E-05-1.67823E-17-1.08962E-17
 -1      1698 2.61770E-05-5.15337E-05 5.61049E-06 4.51318E-06-1.38736E-17-7.70705E-18
 -1      1699 5.77773E-05-9.62400E-06-2.09244E-05 4.53288E-05-1.63689E-17-1.42200E-17
 -1      1700 4.19473E-05-2.58105E-05-1.01514E-05 2.23218E-05-1.65502E-17-1.12588E-17
 -1      1701 1.03514E-04-4.63518E-06-4.00755E-05 7.19788E-05-1.46774E-17-1.79622E-17
 -1      1702 7.11567E-05-1.55065E-06-3.05967E-05 5.28840E-05-1.75217E-17-1.66561E-17
 -1      1703 1.78972E-04-3.13449E-05-5.85619E-05 7.30067E-05-9.31376E-18-1.41844E-17
 -1      1704 1.30374E-04-1.14571E-05-4.91306E-05 7.09169E-05-1.30939E-17-1.68026E-17
 -1      1705 2.35755E-04-5.61532E-05-7.06626E-05 4.64612E-05-4.68335E-18-8.55334E-18
 -1      1706 2.01921E-04-3.77831E-05-6.56861E-05 6.77967E-05-7.28131E-18-1.25996E-17
 -1      1707 2.53096E-04-6.40003E-05-7.45726E-05-4.16351E-06-3.33858E-18-1.34996E-19
 -1      1708 2.45043E-04-5.93921E-05-7.34496E-05 3.02802E-05-3.91562E-18-6.12828E-18
 -1      1709 2.29434E-04-5.14220E-05-7.06692E-05-5.14510E-05-6.15634E-18 9.75020E-18
 -1      1710 2.51526E-04-6.38847E-05-7.37962E-05-2.15455E-05-4.28387E-18 3.05017E-18
 -1      1711 1.69077E-04-2.36274E-05-5.88260E-05-7.53675E-05-8.31003E-18 1.46935E-17
 -1      1712 2.12146E-04-4.48672E-05-6.58301E-05-6.44840E-05-6.08614E-18 1.26208E-17
 -1      1713 1.05097E-04-6.55726E-06-4.15526E-05-6.44638E-05-9.62060E-18 1.29418E-17
 -1      1714 1.45726E-04-1.92326E-05-5.06987E-05-7.51967E-05-8.19631E-18 1.43030E-17
 -1      1715 5.25472E-05-4.81116E-06-2.25444E-05-3.97269E-05-1.13274E-17 1.02118E-17
 -1      1716 7.89979E-05-1.04032E-06-3.24462E-05-6.24250E-05-1.06904E-17 1.30308E-17
 -1      1717 2.83759E-05-2.94152E-05-4.05399E-06-1.11883E-05-1.21829E-17 6.85631E-18
 -1      1718 3.50762E-05-8.07936E-06-1.32743E-05-3.05111E-05-1.23633E-17 9.55538E-18
 -1      1719 2.45646E-05-6.03467E-05 9.47849E-06-8.13771E-07-7.29634E-18 5.16068E-18
 -1      1720 2.03184E-05-3.70486E-05 3.16721E-06-5.26650E-06-1.09420E-17 6.26148E-18
 -1      1721 2.40043E-05-7.72166E-05 1.60966E-05-2.40431E-06-4.67668E-19 2.51929E-18
 -1      1722 2.03934E-05-6.68761E-05 1.39137E-05 6.04221E-06-5.47988E-18 4.07529E-18
 -1      1723 1.19514E-04-3.38488E-05-3.58283E-05 4.36727E-05 6.77160E-18 8.00361E-18
 -1      1724 7.56139E-05-3.68096E-05-1.78531E-05 3.88186E-05 6.26635E-18 7.33065E-18
 -1      1725 9.52361E-05-2.85732E-05-2.85696E-05-3.68239E-09-2.33578E-18-1.18984E-18
 -1      1726 9.52351E-05-2.85754E-05-2.85683E-05-9.58936E-09-1.31940E-19-8.67594E-19
 -1      1727 1.91743E-05-4.65593E-05 7.89131E-06 1.51372E-05 1.02152E-18 4.98987E-18
 -1      1728 4.03558E-05-4.20435E-05-2.34046E-06 2.76427E-05 3.06626E-18 7.04191E-18
 -1      1729 1.20658E-05-5.14700E-05 1.21794E-05-8.18028E-07-9.64294E-19 4.02214E-18
 -1      1730 1.62562E-04-3.27471E-05-5.24030E-05 3.95641E-05 7.32578E-18 4.57737E-18
 -1      1731 1.91368E-04-3.17661E-05-6.40365E-05 2.07397E-05 6.58695E-18-6.22569E-20
 -1      1732 2.07352E-04-3.16667E-05-7.01425E-05 2.62627E-06 6.84445E-18-2.91538E-18
 -1      1733 2.05965E-04-3.35412E-05-6.86941E-05-1.52114E-05 6.79998E-18-5.58745E-18
 -1      1734 1.81899E-04-3.31437E-05-5.96980E-05-3.47116E-05 8.20526E-18-8.98194E-18
 -1      1735 1.42764E-04-3.22732E-05-4.52783E-05-4.46487E-05 9.26908E-18-1.17145E-17
 -1      1736 9.82348E-05-3.29857E-05-2.79127E-05-4.36050E-05 9.43425E-18-1.15408E-17
 -1      1737 5.65254E-05-3.74950E-05-1.03884E-05-3.36379E-05 8.94636E-18-9.48995E-18
 -1      1738 2.88757E-05-4.58761E-05 3.38321E-06-2.01186E-05 5.95803E-18-7.69466E-18
 -1      1739 1.47096E-05-5.09977E-05 1.09071E-05-7.42336E-06 1.44080E-18-7.51106E-18
 -1      1740 1.26935E-05-5.02174E-05 1.15139E-05 5.96787E-06-3.12661E-18-7.81303E-18
 -1      1741 2.59224E-05-4.52150E-05 4.80355E-06 2.26307E-05-6.58145E-18-8.38351E-18
 -1      1742 5.84171E-05-4.20036E-05-8.64335E-06 3.78398E-05-7.60720E-18-8.08514E-18
 -1      1743 9.50321E-05-3.66599E-05-2.55649E-05 4.27972E-05-9.61933E-18-9.24452E-18
 -1      1744 1.37022E-04-3.04015E-05-4.36848E-05 4.52261E-05-1.01131E-17-9.66634E-18
 -1      1745 1.78610E-04-3.20057E-05-5.89025E-05 3.57276E-05-8.55342E-18-7.48269E-18
 -1      1746 2.05683E-04-3.37937E-05-6.83974E-05 1.83226E-05-6.48870E-18-4.30039E-18
 -1      1747 2.11864E-04-3.48897E-05-7.03150E-05-6.12520E-06-7.12736E-18 6.42898E-19
 -1      1748 1.96491E-04-3.34289E-05-6.49588E-05-2.90633E-05-7.30291E-18 5.32826E-18
 -1      1749 1.60929E-04-3.14824E-05-5.25063E-05-4.07645E-05-5.40873E-18 8.51183E-18
 -1      1750 1.17974E-04-3.02813E-05-3.63393E-05-4.55825E-05-5.73780E-18 8.24841E-18
 -1      1751 7.32032E-05-3.18831E-05-1.87271E-05-4.05065E-05-7.03884E-18 6.57975E-18
 -1      1752 4.02687E-05-4.02999E-05-2.90834E-06-2.88492E-05-6.20198E-18 5.80906E-18
 -1      1753 1.92487E-05-4.73797E-05 8.01326E-06-1.58219E-05-3.30639E-18 6.67017E-18
 -1      1754 1.07154E-04-2.36138E-05-3.58964E-05-1.56665E-05-2.33641E-18 8.10060E-18
 -1      1755 9.01022E-05-1.06962E-05-3.41612E-05-1.09816E-05-2.73469E-18-3.64727E-18
 -1      1756 9.17770E-05-1.19178E-05-3.43564E-05-1.28402E-05-3.20883E-18-2.70722E-18
 -1      1757 9.40583E-05-1.43653E-05-3.43171E-05-1.38721E-05-3.29285E-18-1.51222E-18
 -1      1758 9.59535E-05-1.64392E-05-3.45587E-05-1.56621E-05-3.61653E-18 1.10432E-19
 -1      1759 9.49210E-05-1.67192E-05-3.35249E-05-1.14467E-05-3.41291E-18-1.91239E-18
 -1      1760 8.54761E-05-6.87817E-06-3.37593E-05-5.78376E-06-1.36436E-18-5.20106E-18
 -1      1761 8.62880E-05-7.34589E-06-3.38839E-05-7.03259E-06-1.72892E-18-5.04810E-18
 -1      1762 8.40723E-05-5.83086E-06-3.35916E-05-3.67888E-06-6.99272E-19-5.40153E-18
 -1      1763 8.46641E-05-6.15184E-06-3.36873E-05-4.75286E-06-1.02834E-18-5.34167E-18
 -1      1764 8.64385E-05-8.65199E-06-3.33639E-05-4.84144E-06-1.31091E-18-5.09171E-18
 -1      1765 8.31481E-05-5.15525E-06-3.34749E-05-1.85296E-06-2.91556E-20-5.33088E-18
 -1      1766 8.35179E-05-5.35097E-06-3.35357E-05-2.79130E-06-3.68828E-19-5.37411E-18
 -1      1767 8.49819E-05-7.45873E-06-3.32488E-05-2.95801E-06-5.38103E-19-5.23202E-18
 -1      1768 8.27135E-05-4.82650E-06-3.34224E-05-2.02209E-07 5.89410E-19-5.24851E-18
 -1      1769 8.28529E-05-4.90172E-06-3.34442E-05-1.06591E-06 2.93989E-19-5.32493E-18
 -1      1770 8.40744E-05-6.73268E-06-3.31690E-05-1.31115E-06 1.44147E-19-5.19206E-18
 -1      1771 8.27903E-05-4.84720E-06-3.34421E-05 1.39323E-06 1.14946E-18-5.16531E-18
 -1      1772 8.26886E-05-4.79882E-06-3.34222E-05 5.39973E-07 9.19635E-19-5.23341E-18
 -1      1773 8.37314E-05-6.45380E-06-3.31404E-05 1.93215E-07 8.15013E-19-5.11412E-18
 -1      1774 8.33945E-05-5.23453E-06-3.35339E-05 3.06294E-06 1.70184E-18-4.90759E-18
 -1      1775 8.30460E-05-5.05484E-06-3.34731E-05 2.15262E-06 1.40907E-18-5.05738E-18
 -1      1776 8.39763E-05-6.63138E-06-3.31693E-05 1.66809E-06 1.36398E-18-4.96870E-18
 -1      1777 8.45113E-05-6.00022E-06-3.36872E-05 4.90575E-06 2.25836E-18-4.44467E-18
 -1      1778 8.39254E-05-5.68509E-06-3.35909E-05 3.88775E-06 1.95189E-18-4.73069E-18
 -1      1779 8.48165E-05-7.28308E-06-3.32509E-05 3.22010E-06 1.99516E-18-4.67053E-18
 -1      1780 8.62061E-05-7.23696E-06-3.38939E-05 7.11499E-06 2.93671E-18-3.63099E-18
 -1      1781 8.53456E-05-6.74168E-06-3.37630E-05 5.87931E-06 2.56972E-18-4.09366E-18
 -1      1782 8.62676E-05-8.45737E-06-3.33717E-05 4.97360E-06 2.60052E-18-4.08012E-18
 -1      1783 8.85719E-05-9.10510E-06-3.41347E-05 9.77194E-06 3.53508E-18-2.45503E-18
 -1      1784 8.73794E-05-8.34678E-06-3.39720E-05 8.25540E-06 3.17797E-18-3.12934E-18
 -1      1785 8.83944E-05-1.02738E-05-3.35053E-05 7.02401E-06 3.24892E-18-3.13692E-18
 -1      1786 9.19552E-05-1.20720E-05-3.43821E-05 1.28614E-05 3.93631E-18-4.40987E-19
 -1      1787 9.02074E-05-1.07796E-05-3.41852E-05 1.10278E-05 3.65888E-18-1.65338E-18
 -1      1788 9.13313E-05-1.29685E-05-3.35993E-05 9.32776E-06 3.78247E-18-1.83618E-18
 -1      1789 9.76408E-05-1.76208E-05-3.44840E-05 1.55726E-05 3.79267E-18 3.28135E-18
 -1      1790 9.44867E-05-1.48103E-05-3.43243E-05 1.39068E-05 3.81104E-18 1.06149E-18
 -1      1791 9.54811E-05-1.71857E-05-3.35433E-05 1.13891E-05 4.02338E-18 4.24813E-19
 -1      1792 1.03641E-04-2.56942E-05-3.38257E-05 1.27879E-05 3.16340E-18 7.70588E-18
 -1      1793 9.98872E-05-2.02618E-05-3.41266E-05 1.50578E-05 3.52470E-18 4.79087E-18
 -1      1794 9.93308E-05-2.24616E-05-3.30104E-05 1.10919E-05 3.93562E-18 3.22397E-18
 -1      1795 1.00920E-04-2.68234E-05-3.19577E-05 7.80504E-06 3.27791E-18 6.69153E-18
 -1      1796 1.01760E-04-2.01955E-05-3.46466E-05-1.72172E-05-3.16679E-18 2.98992E-18
 -1      1797 9.84129E-05-2.81505E-05-3.01295E-05 2.33866E-06 2.65021E-18 5.20863E-18
 -1      1798 1.00275E-04-2.81196E-05-3.09595E-05 4.73383E-06 2.82231E-18 6.11432E-18
 -1      1799 1.00006E-04-2.63266E-05-3.15764E-05 6.74503E-06 3.34946E-18 4.09078E-18
 -1      1800 1.01563E-04-2.31334E-05-3.33369E-05-1.26432E-05-3.38625E-18 1.86077E-18
 -1      1801 9.95373E-05-2.77002E-05-3.06700E-05-3.87195E-06-2.77837E-18 1.44114E-18
 -1      1802 9.82407E-05-2.78681E-05-3.01202E-05-2.00645E-06-2.41383E-18 7.63177E-19
 -1      1803 9.77841E-05-2.81415E-05-2.97491E-05-3.85156E-07-2.15736E-18 7.18456E-19
 -1      1804 9.75922E-05-2.83725E-05-2.96183E-05 5.86879E-07-1.84611E-18 1.12702E-19
 -1      1805 9.83680E-05-2.72332E-05-3.05141E-05-1.98464E-06-2.67078E-18-3.48445E-19
 -1      1806 9.75159E-05-2.85405E-05-2.95009E-05 1.59523E-06-1.48745E-18 8.63907E-20
 -1      1807 9.78818E-05-2.88007E-05-2.95728E-05 2.17752E-06-1.18824E-18-3.11615E-19
 -1      1808 9.79710E-05-2.80801E-05-2.99799E-05 1.02630E-06-2.01784E-18-5.69094E-19
 -1      1809 9.81377E-05-2.89920E-05-2.96015E-05 2.81953E-06-1.11099E-18-4.34050E-19
 -1      1810 9.88583E-05-2.93154E-05-2.97844E-05 3.17462E-06-1.07866E-18-7.16362E-19
 -1      1811 9.82505E-05-2.86684E-05-2.98436E-05 2.90820E-06-1.45054E-18-7.96095E-19
 -1      1812 9.93681E-05-2.95642E-05-2.98995E-05 3.55653E-06-1.05563E-18-5.18176E-19
 -1      1813 1.00296E-04-2.99488E-05-3.01417E-05 3.72855E-06-7.42629E-19-7.87464E-19
 -1      1814 9.90826E-05-2.92648E-05-2.99403E-05 4.08348E-06-1.08612E-18-1.02192E-18
 -1      1815 1.00987E-04-3.02656E-05-3.03021E-05 3.86802E-06-6.30290E-19-7.66353E-19
 -1      1816 1.01994E-04-3.06972E-05-3.05626E-05 3.84087E-06-4.07847E-19-9.92668E-19
 -1      1817 1.00338E-04-2.99742E-05-3.01697E-05 4.69516E-06-8.52186E-19-9.23366E-19
 -1      1818 1.02797E-04-3.10815E-05-3.07343E-05 3.69985E-06-3.93447E-19-9.34320E-19
 -1      1819 1.03745E-04-3.15314E-05-3.09714E-05 3.42353E-06-3.32732E-19-8.92429E-19
 -1      1820 1.01888E-04-3.08389E-05-3.04584E-05 4.72551E-06-4.27728E-19-8.96550E-19
 -1      1821 1.04580E-04-3.19666E-05-3.11238E-05 2.93341E-06-5.55528E-19-9.06239E-19
 -1      1822 1.05304E-04-3.23798E-05-3.12930E-05 2.34967E-06-5.13871E-19-9.48182E-19
 -1      1823 1.03591E-04-3.18562E-05-3.07462E-05 4.06030E-06-5.09725E-19-1.05738E-18
 -1      1824 1.06065E-04-3.28164E-05-3.14002E-05 1.44839E-06-2.89871E-19-1.16562E-18
 -1      1825 1.06377E-04-3.30989E-05-3.14583E-05 5.33124E-07-2.09373E-19-1.21790E-18
 -1      1826 1.05259E-04-3.29505E-05-3.09843E-05 2.55502E-06-5.82454E-19-1.12501E-18
 -1      1827 1.06913E-04-3.34332E-05-3.15044E-05-7.70374E-07-2.86509E-19-1.14905E-18
 -1      1828 1.06636E-04-3.34489E-05-3.14211E-05-1.94272E-06 4.97500E-20-1.20684E-18
 -1      1829 1.06624E-04-3.39216E-05-3.11420E-05 1.42581E-07-2.62461E-19-9.26976E-19
 -1      1830 1.06753E-04-3.35177E-05-3.14066E-05-3.47778E-06-3.22402E-19-1.50486E-18
 -1      1831 1.05789E-04-3.31214E-05-3.11811E-05-4.66651E-06-5.58830E-19-1.82516E-18
 -1      1832 1.07319E-04-3.44095E-05-3.12171E-05-2.99812E-06-5.42938E-19-1.24355E-18
 -1      1833 1.05314E-04-3.27503E-05-3.11259E-05-6.02381E-06-4.13412E-19-2.03105E-18
 -1      1834 1.03746E-04-3.18795E-05-3.08002E-05-6.80963E-06-6.24872E-19-1.59924E-18
 -1      1835 1.06940E-04-3.39546E-05-3.12395E-05-6.25056E-06-5.83467E-19-1.55980E-18
 -1      1836 1.02670E-04-3.10187E-05-3.07354E-05-7.37969E-06-7.26220E-19-1.59071E-18
 -1      1837 1.00851E-04-2.98316E-05-3.03927E-05-7.29036E-06-8.78823E-19-1.70901E-18
 -1      1838 1.05272E-04-3.22589E-05-3.12573E-05-8.49079E-06-7.83797E-19-1.13468E-18
 -1      1839 9.95193E-05-2.87384E-05-3.03471E-05-6.54803E-06-1.12808E-18-1.93976E-18
 -1      1840 9.80306E-05-2.76590E-05-3.00894E-05-5.36511E-06-8.97557E-19-2.04062E-18
 -1      1841 1.02659E-04-2.96080E-05-3.13034E-05-8.39902E-06-1.09989E-18-1.21228E-18
 -1      1842 9.70748E-05-2.68522E-05-3.00752E-05-3.29892E-06-8.19974E-19-2.44054E-18
 -1      1843 9.64996E-05-2.63960E-05-2.99849E-05-1.31011E-06-7.03494E-19-2.46135E-18
 -1      1844 1.00161E-04-2.70513E-05-3.13739E-05-5.30416E-06-1.06598E-18-1.70007E-18
 -1      1845 9.65007E-05-2.63728E-05-2.99985E-05 1.35695E-06-7.23472E-19-2.85116E-18
 -1      1846 9.71044E-05-2.67953E-05-3.01082E-05 3.38215E-06-4.67119E-19-2.95831E-18
 -1      1847 9.91095E-05-2.59327E-05-3.14263E-05 3.90113E-08-9.64949E-19-1.80732E-18
 -1      1848 9.80838E-05-2.75736E-05-3.01496E-05 5.53792E-06-5.71549E-19-2.80786E-18
 -1      1849 9.96412E-05-2.86548E-05-3.04322E-05 6.81296E-06-4.91772E-19-2.97339E-18
 -1      1850 1.00172E-04-2.69320E-05-3.14332E-05 5.48290E-06-5.28721E-19-1.69802E-18
 -1      1851 1.01058E-04-2.97714E-05-3.05050E-05 7.68285E-06-6.22354E-19-3.04117E-18
 -1      1852 1.03002E-04-3.10021E-05-3.08822E-05 7.87027E-06-3.11724E-19-3.17346E-18
 -1      1853 1.02774E-04-2.94632E-05-3.14187E-05 8.83139E-06-6.37928E-19-2.33426E-18
 -1      1854 1.04201E-04-3.19117E-05-3.09780E-05 7.41313E-06-8.44518E-20-3.29398E-18
 -1      1855 1.05944E-04-3.28520E-05-3.13499E-05 6.70775E-06 6.32042E-19-3.58575E-18
 -1      1856 1.05596E-04-3.21894E-05-3.14269E-05 9.18887E-06-5.34101E-19-2.49666E-18
 -1      1857 1.06565E-04-3.32850E-05-3.14415E-05 5.42834E-06 4.17981E-19-3.95150E-18
 -1      1858 1.07739E-04-3.37616E-05-3.17228E-05 4.29046E-06-1.51556E-19-4.02078E-18
 -1      1859 1.07537E-04-3.40142E-05-3.14704E-05 7.15870E-06 1.01187E-19-3.04610E-18
 -1      1860 1.07768E-04-3.37493E-05-3.17772E-05 2.79779E-06 1.27485E-19-3.48247E-18
 -1      1861 1.08273E-04-3.38136E-05-3.19226E-05 1.65374E-06 7.12825E-19-3.23168E-18
 -1      1862 1.08212E-04-3.46059E-05-3.15152E-05 4.03382E-06 3.29314E-19-3.50331E-18
 -1      1863 1.07874E-04-3.35269E-05-3.19180E-05 3.69005E-07 8.70995E-19-3.44748E-18
 -1      1864 1.07798E-04-3.33224E-05-3.19248E-05-5.32202E-07 1.20335E-18-2.71838E-18
 -1      1865 1.07804E-04-3.42376E-05-3.15113E-05 9.55600E-07 1.20897E-18-2.58504E-18
 -1      1866 1.07159E-04-3.29271E-05-3.18564E-05-1.43167E-06 1.11073E-18-2.44988E-18
 -1      1867 1.06668E-04-3.25914E-05-3.17508E-05-2.01307E-06 9.95168E-19-1.97860E-18
 -1      1868 1.06702E-04-3.33665E-05-3.14226E-05-1.43892E-06 1.44614E-18-2.77171E-18
 -1      1869 1.05932E-04-3.21935E-05-3.16293E-05-2.52248E-06 4.55810E-19-2.00182E-18
 -1      1870 1.05201E-04-3.18220E-05-3.14493E-05-2.81394E-06 2.06516E-19-2.19294E-18
 -1      1871 1.05262E-04-3.23639E-05-3.12415E-05-2.97005E-06 8.59881E-19-2.78898E-18
 -1      1872 1.04458E-04-3.14715E-05-3.12928E-05-3.01079E-06 1.38126E-19-1.62028E-18
 -1      1873 1.03629E-04-3.11179E-05-3.10755E-05-3.08560E-06 1.98632E-19-1.91574E-18
 -1      1874 1.03730E-04-3.14389E-05-3.09851E-05-3.72815E-06 6.13890E-19-1.50102E-18
 -1      1875 1.02932E-04-3.08294E-05-3.09029E-05-3.06758E-06 6.15322E-20-1.59212E-18
 -1      1876 1.02105E-04-3.05188E-05-3.06776E-05-3.00277E-06 1.15902E-19-1.31833E-18
 -1      1877 1.02252E-04-3.06735E-05-3.06819E-05-3.90902E-06 4.24289E-19-6.73263E-19
 -1      1878 1.01480E-04-3.02899E-05-3.05048E-05-2.85655E-06-3.96854E-19-1.57936E-18
 -1      1879 1.00716E-04-3.00301E-05-3.02910E-05-2.71511E-06-3.16229E-19-1.36329E-18
 -1      1880 1.00907E-04-3.00775E-05-3.03617E-05-3.71523E-06-2.84114E-19-1.25915E-18
 -1      1881 1.00175E-04-2.98524E-05-3.01291E-05-2.50588E-06-3.06633E-19-1.96352E-18
 -1      1882 9.95070E-05-2.96423E-05-2.99383E-05-2.33255E-06-1.52443E-19-1.98124E-18
 -1      1883 9.97282E-05-2.96294E-05-3.00488E-05-3.31290E-06-6.96473E-19-1.59868E-18
 -1      1884 9.90501E-05-2.95062E-05-2.97940E-05-2.10424E-06 1.03757E-19-2.08133E-18
 -1      1885 9.84893E-05-2.93409E-05-2.96312E-05-1.92752E-06 2.31397E-19-1.87677E-18
 -1      1886 9.87259E-05-2.92999E-05-2.97604E-05-2.82140E-06 1.41627E-19-1.90740E-18
 -1      1887 9.81132E-05-2.92379E-05-2.95075E-05-1.70691E-06-5.12019E-19-1.34274E-18
 -1      1888 9.76572E-05-2.91108E-05-2.93733E-05-1.54307E-06-4.62873E-19-9.95463E-19
 -1      1889 9.78943E-05-2.90611E-05-2.95059E-05-2.31822E-06 3.22756E-19-1.60727E-18
 -1      1890 9.73542E-05-2.90337E-05-2.92706E-05-1.34459E-06-4.59624E-19-8.41255E-19
 -1      1891 9.69937E-05-2.89381E-05-2.91633E-05-1.20150E-06 1.47996E-19-1.05346E-18
 -1      1892 9.72196E-05-2.88904E-05-2.92893E-05-1.84865E-06-2.72708E-19 7.41740E-19
 -1      1893 9.67548E-05-2.88812E-05-2.90803E-05-1.03138E-06 2.58562E-19-1.23618E-18
 -1      1894 9.64770E-05-2.88109E-05-2.89968E-05-9.11596E-07 1.95075E-19-1.22938E-18
 -1      1895 9.66834E-05-2.87699E-05-2.91104E-05-1.43547E-06 1.89783E-19 4.46786E-19
 -1      1896 9.62922E-05-2.87695E-05-2.89313E-05-7.70974E-07 1.43356E-19-1.59011E-18
 -1      1897 9.60835E-05-2.87191E-05-2.88679E-05-6.73932E-07 9.57693E-20-1.79020E-18
 -1      1898 9.62657E-05-2.86865E-05-2.89665E-05-1.08685E-06-2.90488E-19-2.45919E-19
 -1      1899 9.59437E-05-2.86897E-05-2.88175E-05-5.61043E-07 1.28621E-19-2.27766E-18
 -1      1900 9.57908E-05-2.86546E-05-2.87705E-05-4.84554E-07-5.19838E-20-1.65951E-18
 -1      1901 9.59470E-05-2.86299E-05-2.88535E-05-8.02116E-07-2.78776E-19-7.35760E-19
 -1      1902 9.56873E-05-2.86341E-05-2.87326E-05-3.96188E-07-8.27238E-19-2.19839E-18
 -1      1903 9.55785E-05-2.86106E-05-2.86988E-05-3.37351E-07-8.75058E-19-2.55158E-18
 -1      1904 9.57090E-05-2.85928E-05-2.87668E-05-5.75797E-07-6.19730E-19-7.21568E-19
 -1      1905 9.55038E-05-2.85968E-05-2.86710E-05-2.69761E-07 7.29884E-19-1.76940E-18
 -1      1906 9.54289E-05-2.85818E-05-2.86474E-05-2.25533E-07 1.64448E-18-7.59703E-19
 -1      1907 9.55352E-05-2.85695E-05-2.87017E-05-4.00175E-07 6.53878E-19-4.01946E-19
 -1      1908 9.53766E-05-2.85730E-05-2.86276E-05-1.74975E-07 1.41111E-18-9.81284E-19
 -1      1909 9.53274E-05-2.85641E-05-2.86118E-05-1.42486E-07 3.75071E-19-3.38333E-19
 -1      1910 9.54119E-05-2.85560E-05-2.86542E-05-2.66926E-07 1.20951E-18 1.01614E-19
 -1      1911 9.52920E-05-2.85588E-05-2.85981E-05-1.05520E-07-4.82691E-19-2.01200E-19
 -1      1912 9.52618E-05-2.85544E-05-2.85881E-05-8.22299E-08-8.41265E-19-2.28152E-19
 -1      1913 9.53271E-05-2.85491E-05-2.86204E-05-1.68048E-07 2.08038E-19-1.53315E-18
 -1      1914 9.52391E-05-2.85516E-05-2.85790E-05-5.58615E-08-1.95452E-18 5.55383E-20
 -1      1915 9.52224E-05-2.85501E-05-2.85732E-05-3.96225E-08-1.89855E-18-4.45059E-19
 -1      1916 9.52715E-05-2.85468E-05-2.85972E-05-9.63621E-08-1.47381E-18 6.10344E-19
 -1      1917 9.52090E-05-2.85491E-05-2.85677E-05-2.13536E-08-1.53933E-18-4.44251E-19
 -1      1918 9.52019E-05-2.85496E-05-2.85648E-05-1.04202E-08-3.82966E-19-3.29518E-19
 -1      1919 9.52373E-05-2.85475E-05-2.85820E-05-4.57275E-08-1.51195E-18 1.42892E-18
 -1      1920 9.51951E-05-2.85497E-05-2.85617E-05 1.75532E-09 1.04111E-18-7.20157E-19
 -1      1921 9.51944E-05-2.85515E-05-2.85609E-05 8.74649E-09 2.09129E-18-3.42989E-19
 -1      1922 9.52184E-05-2.85500E-05-2.85727E-05-1.11009E-08 2.41976E-20 2.28296E-18
 -1      1923 9.51922E-05-2.85524E-05-2.85595E-05 1.63729E-08 2.33447E-18-1.59032E-19
 -1      1924 9.51956E-05-2.85549E-05-2.85601E-05 2.04307E-08 2.01469E-18 1.36677E-18
 -1      1925 9.52104E-05-2.85536E-05-2.85675E-05 1.15007E-08 2.17337E-18 1.77232E-18
 -1      1926 9.51963E-05-2.85563E-05-2.85598E-05 2.46264E-08 1.09869E-18 1.14622E-18
 -1      1927 9.52020E-05-2.85592E-05-2.85611E-05 2.64295E-08 1.29985E-18 2.88751E-19
 -1      1928 9.52096E-05-2.85579E-05-2.85652E-05 2.50742E-08 1.70868E-18 1.05957E-18
 -1      1929 9.52045E-05-2.85610E-05-2.85614E-05 2.79237E-08 6.13360E-19-6.53731E-19
 -1      1930 9.52112E-05-2.85640E-05-2.85630E-05 2.78359E-08 9.79399E-20-8.27972E-19
 -1      1931 9.52133E-05-2.85626E-05-2.85647E-05 3.17131E-08 3.59671E-19-3.83954E-19
 -1      1932 9.52145E-05-2.85661E-05-2.85636E-05 2.70703E-08-3.17038E-20-7.61520E-19
 -1      1933 9.52211E-05-2.85691E-05-2.85652E-05 2.51380E-08-4.43595E-19 1.55292E-19
 -1      1934 9.52196E-05-2.85676E-05-2.85652E-05 3.27126E-08-1.62319E-19 7.03856E-21
 -1      1935 9.52241E-05-2.85710E-05-2.85657E-05 2.24181E-08-3.43117E-19 7.45463E-20
 -1      1936 9.52297E-05-2.85738E-05-2.85669E-05 1.87122E-08 5.34602E-19 4.76548E-21
 -1      1937 9.52328E-05-2.85773E-05-2.85666E-05 2.16015E-08-4.80159E-19-5.23427E-19
 -1      1938 9.52264E-05-2.85728E-05-2.85658E-05 2.89823E-08-2.05458E-19 5.32983E-20
 -1      1939 9.74607E-05-2.84932E-05-2.95175E-05-4.15570E-07 1.96170E-18 3.89262E-18
 -1      1940 9.79891E-05-2.84233E-05-2.97492E-05 8.06045E-07 2.20999E-18 4.73351E-18
 -1      1941 9.85299E-05-2.78910E-05-3.02866E-05 1.75684E-06 2.72591E-18 3.16899E-18
 -1      1942 9.78183E-05-2.88415E-05-2.95245E-05-2.12840E-06 1.33041E-18 2.87949E-18
 -1      1943 9.75087E-05-2.86489E-05-2.94541E-05-1.35216E-06 1.50143E-18 3.48740E-18
 -1      1944 9.80223E-05-2.84386E-05-2.98371E-05-1.17638E-06 1.92844E-18 2.39934E-18
 -1      1945 9.91714E-05-2.93550E-05-2.98928E-05-3.36427E-06 8.79769E-19 2.29096E-18
 -1      1946 9.83046E-05-2.90400E-05-2.96475E-05-2.78097E-06 1.00745E-18 2.59943E-18
 -1      1947 9.85467E-05-2.88822E-05-2.98759E-05-3.11984E-06 1.37684E-18 1.70439E-18
 -1      1948 1.01286E-04-3.00584E-05-3.05042E-05-4.34329E-06 4.90819E-19 1.56200E-18
 -1      1949 1.00012E-04-2.96320E-05-3.01397E-05-3.86118E-06 6.82609E-19 2.16289E-18
 -1      1950 9.98862E-05-2.94264E-05-3.02183E-05-4.56359E-06 8.37904E-19 1.21068E-18
 -1      1951 1.03991E-04-3.09564E-05-3.12865E-05-5.10672E-06 7.33916E-19 1.20286E-18
 -1      1952 1.02412E-04-3.04268E-05-3.08371E-05-4.71353E-06 4.44714E-19 1.47094E-18
 -1      1953 1.01873E-04-3.01389E-05-3.07644E-05-5.69190E-06 7.26038E-19 5.84971E-19
 -1      1954 1.07122E-04-3.20525E-05-3.21699E-05-5.55791E-06 5.22712E-19 1.04658E-18
 -1      1955 1.05343E-04-3.14301E-05-3.16716E-05-5.30577E-06 6.95555E-19 1.16193E-18
 -1      1956 1.04379E-04-3.10642E-05-3.14412E-05-6.49521E-06 7.94995E-19 4.37694E-19
 -1      1957 1.10451E-04-3.33387E-05-3.30621E-05-5.45971E-06 4.45023E-19 7.11891E-19
 -1      1958 1.08628E-04-3.26481E-05-3.25670E-05-5.47057E-06 4.49097E-19 1.04029E-18
 -1      1959 1.07277E-04-3.22484E-05-3.21745E-05-6.79826E-06 6.71421E-19 5.29687E-19
 -1      1960 1.13630E-04-3.47579E-05-3.38357E-05-4.44030E-06-3.60009E-19 1.46831E-18
 -1      1961 1.12007E-04-3.40610E-05-3.34198E-05-4.90593E-06 1.60605E-20 1.01842E-18
 -1      1962 1.10397E-04-3.37217E-05-3.28760E-05-6.26285E-06-1.69076E-21 7.53992E-19
 -1      1963 1.16133E-04-3.61293E-05-3.43346E-05-2.08232E-06-3.64383E-19 1.94106E-18
 -1      1964 1.15058E-04-3.55604E-05-3.40953E-05-3.22030E-06-3.61054E-19 1.68109E-18
 -1      1965 1.13456E-04-3.54273E-05-3.34458E-05-4.43213E-06-4.57742E-19 1.35504E-18
 -1      1966 1.17245E-04-3.70376E-05-3.44181E-05 1.79652E-06-1.13013E-19 1.99918E-18
 -1      1967 1.17139E-04-3.68379E-05-3.44470E-05-1.11785E-07-2.72043E-19 1.92230E-18
 -1      1968 1.15975E-04-3.70783E-05-3.37967E-05-9.15877E-07-3.67738E-19 1.47288E-18
 -1      1969 1.16195E-04-3.67925E-05-3.40455E-05 6.60792E-06 8.43857E-20 2.16213E-18
 -1      1970 1.17403E-04-3.72793E-05-3.43755E-05 4.22703E-06-8.01770E-20 2.02191E-18
 -1      1971 1.17197E-04-3.79830E-05-3.39041E-05 4.17036E-06-2.74359E-20 1.70225E-18
 -1      1972 1.12593E-04-3.47307E-05-3.33521E-05 1.04804E-05 4.37962E-19 2.02695E-18
 -1      1973 1.15108E-04-3.60908E-05-3.39019E-05 8.57367E-06 1.97279E-19 2.23458E-18
 -1      1974 1.16253E-04-3.71412E-05-3.38463E-05 9.55498E-06 1.16546E-19 1.78973E-18
 -1      1975 1.07260E-04-3.10807E-05-3.26387E-05 1.06439E-05 2.11063E-19 1.96663E-18
 -1      1976 1.10388E-04-3.29810E-05-3.32064E-05 1.05677E-05 2.67838E-19 1.80159E-18
 -1      1977 1.12843E-04-3.39696E-05-3.37737E-05 1.25279E-05 2.98728E-19 1.76081E-18
 -1      1978 1.02737E-04-2.77114E-05-3.22120E-05 5.51954E-06 6.93879E-19 1.41490E-18
 -1      1979 1.05091E-04-2.91415E-05-3.25655E-05 7.95241E-06 4.59330E-19 1.89661E-18
 -1      1980 1.08295E-04-2.95666E-05-3.37961E-05 1.01541E-05 3.94929E-19 1.52858E-18
 -1      1981 1.02052E-04-2.71339E-05-3.22193E-05-2.86535E-06 1.52995E-18-4.44163E-20
 -1      1982 1.02276E-04-2.70768E-05-3.22116E-05 9.89696E-07 1.31192E-18 7.27922E-19
 -1      1983 1.05542E-04-2.67817E-05-3.38715E-05 2.20211E-06 1.73962E-18 6.86166E-19
 -1      1984 1.05902E-04-2.98890E-05-3.26676E-05-9.70292E-06 1.31671E-18-9.83114E-19
 -1      1985 1.03783E-04-2.83687E-05-3.22901E-05-6.65173E-06 1.53972E-18-6.35857E-19
 -1      1986 1.06760E-04-2.78047E-05-3.39149E-05-7.19571E-06 1.93536E-18-5.58559E-19
 -1      1987 1.11848E-04-3.38954E-05-3.34152E-05-1.15350E-05 7.20838E-19-1.92184E-18
 -1      1988 1.08541E-04-3.19513E-05-3.28120E-05-1.07206E-05 8.82794E-19-1.70984E-18
 -1      1989 1.11084E-04-3.18719E-05-3.39512E-05-1.26482E-05 1.54020E-18-1.60779E-18
 -1      1990 1.16690E-04-3.67311E-05-3.42158E-05-8.78616E-06-4.01216E-20-2.24068E-18
 -1      1991 1.13718E-04-3.53502E-05-3.36127E-05-9.91312E-06 4.79242E-19-1.86395E-18
 -1      1992 1.15529E-04-3.60147E-05-3.40541E-05-1.20815E-05 5.73805E-19-2.59540E-18
 -1      1993 1.18887E-04-3.76216E-05-3.47640E-05-4.07220E-06-4.42363E-19-1.84118E-18
 -1      1994 1.17179E-04-3.71133E-05-3.43682E-05-6.01760E-06-5.32254E-19-1.82835E-18
 -1      1995 1.17917E-04-3.81072E-05-3.42011E-05-7.55160E-06-3.36696E-19-2.47136E-18
 -1      1996 1.18556E-04-3.70480E-05-3.48886E-05 2.41939E-07 6.59256E-19-1.03474E-18
 -1      1997 1.18243E-04-3.72091E-05-3.47865E-05-1.54858E-06 2.68801E-19-1.06648E-18
 -1      1998 1.17877E-04-3.80200E-05-3.42440E-05-2.11538E-06-3.83812E-21-1.43302E-18
 -1      1999 1.16556E-04-3.58053E-05-3.45909E-05 3.11506E-06-7.61013E-19-1.49366E-18
 -1      2000 1.17304E-04-3.63154E-05-3.47547E-05 1.90492E-06 8.55834E-20-8.86999E-19
 -1      2001 1.16135E-04-3.66826E-05-3.40762E-05 2.18494E-06 1.21139E-19-1.77925E-18
 -1      2002 1.13730E-04-3.44337E-05-3.39859E-05 4.52857E-06-1.84461E-18-1.13911E-18
 -1      2003 1.15094E-04-3.50594E-05-3.43285E-05 3.91406E-06-1.23156E-18-1.27030E-18
 -1      2004 1.13547E-04-3.50118E-05-3.36777E-05 4.75255E-06-1.18641E-18-1.85853E-18
 -1      2005 1.10675E-04-3.31836E-05-3.32206E-05 4.87908E-06-8.86054E-19-1.52430E-19
 -1      2006 1.12282E-04-3.37975E-05-3.36482E-05 4.70402E-06-1.62471E-18-9.45970E-19
 -1      2007 1.10707E-04-3.34868E-05-3.31058E-05 5.82000E-06-1.73431E-18-1.03974E-18
 -1      2008 1.07748E-04-3.21322E-05-3.24183E-05 4.60066E-06 8.11542E-19-1.23235E-18
 -1      2009 1.09349E-04-3.26779E-05-3.28591E-05 4.69009E-06 6.81030E-20-2.54312E-19
 -1      2010 1.07952E-04-3.22552E-05-3.24468E-05 5.87489E-06-1.16284E-19-1.02973E-18
 -1      2011 1.05132E-04-3.12805E-05-3.16606E-05 4.02169E-06 1.44472E-18 4.12599E-19
 -1      2012 1.06588E-04-3.17403E-05-3.20702E-05 4.24130E-06 1.05066E-18-4.98452E-19
 -1      2013 1.05454E-04-3.13091E-05-3.17783E-05 5.36518E-06 9.70200E-19-5.33002E-19
 -1      2014 1.02898E-04-3.06039E-05-3.09907E-05 3.34878E-06-8.51020E-20 5.75918E-19
 -1      2015 1.04149E-04-3.09786E-05-3.13475E-05 3.61290E-06 7.06602E-19 7.26802E-19
 -1      2016 1.03285E-04-3.05940E-05-3.11538E-05 4.60870E-06 3.92625E-19 9.28351E-19
 -1      2017 1.01053E-04-3.00737E-05-3.04248E-05 2.69507E-06-3.70939E-19 1.96567E-19
 -1      2018 1.02086E-04-3.03716E-05-3.07223E-05 2.95596E-06-5.53649E-20 4.77298E-19
 -1      2019 1.01459E-04-3.00546E-05-3.06026E-05 3.79869E-06 2.03189E-19 8.87249E-19
 -1      2020 9.95679E-05-2.96630E-05-2.99624E-05 2.11349E-06-2.64292E-19-2.59576E-20
 -1      2021 1.00395E-04-2.98953E-05-3.02025E-05 2.34816E-06-3.56791E-19-5.55427E-20
 -1      2022 9.99617E-05-2.96473E-05-3.01356E-05 3.03798E-06 1.40166E-19 1.25285E-18
 -1      2023 9.83976E-05-2.93488E-05-2.95942E-05 1.62222E-06-6.89186E-19-2.15444E-19
 -1      2024 9.90456E-05-2.95267E-05-2.97833E-05 1.82216E-06-5.97330E-19-4.51198E-19
 -1      2025 9.87591E-05-2.93402E-05-2.97523E-05 2.37236E-06-2.87943E-19 1.14065E-18
 -1      2026 9.74930E-05-2.91115E-05-2.93072E-05 1.22121E-06-2.25866E-19-1.67707E-18
 -1      2027 9.79901E-05-2.92456E-05-2.94530E-05 1.38562E-06-9.27810E-19-1.04607E-18
 -1      2028 9.78117E-05-2.91096E-05-2.94453E-05 1.81510E-06-2.44897E-19-4.62499E-20
 -1      2029 9.68063E-05-2.89351E-05-2.90879E-05 9.01936E-07-7.86558E-20-3.82516E-19
 -1      2030 9.71805E-05-2.90343E-05-2.91982E-05 1.03373E-06-1.65404E-19-6.86474E-19
 -1      2031 9.70786E-05-2.89381E-05-2.92047E-05 1.36257E-06-3.19821E-19-9.99077E-19
 -1      2032 9.62944E-05-2.88062E-05-2.89234E-05 6.52744E-07 4.88336E-19 4.12828E-19
 -1      2033 9.65708E-05-2.88782E-05-2.90052E-05 7.56280E-07 2.99941E-19 1.49503E-19
 -1      2034 9.65212E-05-2.88122E-05-2.90197E-05 1.00344E-06 2.31255E-20-2.28394E-19
 -1      2035 9.59203E-05-2.87139E-05-2.88024E-05 4.61587E-07 1.53483E-18-1.04726E-18
 -1      2036 9.61203E-05-2.87651E-05-2.88619E-05 5.41529E-07 1.04387E-18-1.45220E-19
 -1      2037 9.61049E-05-2.87214E-05-2.88801E-05 7.23798E-07 1.62231E-18-4.53193E-19
 -1      2038 9.56529E-05-2.86496E-05-2.87153E-05 3.17319E-07 1.05405E-18-1.12880E-18
 -1      2039 9.57942E-05-2.86850E-05-2.87575E-05 3.78060E-07 1.14663E-18-8.73627E-19
 -1      2040 9.58001E-05-2.86573E-05-2.87768E-05 5.09703E-07 1.46229E-18 1.36533E-18
 -1      2041 9.54667E-05-2.86062E-05-2.86541E-05 2.10206E-07-1.00323E-18-9.84679E-19
 -1      2042 9.55638E-05-2.86298E-05-2.86833E-05 2.55631E-07-1.37877E-19-1.20288E-18
 -1      2043 9.55818E-05-2.86134E-05-2.87018E-05 3.48433E-07-6.95928E-21-1.07880E-19
 -1      2044 9.53416E-05-2.85781E-05-2.86124E-05 1.32046E-07-1.68420E-20 6.36203E-20
 -1      2045 9.54056E-05-2.85931E-05-2.86319E-05 1.65463E-07-7.13388E-19-8.95283E-19
 -1      2046 9.54296E-05-2.85845E-05-2.86488E-05 2.28945E-07-8.06528E-19-6.76153E-19
 -1      2047 9.52613E-05-2.85613E-05-2.85853E-05 7.60996E-08 5.61064E-19-5.94002E-19
 -1      2048 9.53013E-05-2.85701E-05-2.85976E-05 1.00249E-07 4.48645E-19-6.02915E-19
 -1      2049 9.53271E-05-2.85666E-05-2.86124E-05 1.41962E-07 4.14906E-19-8.66770E-19
 -1      2050 9.52135E-05-2.85523E-05-2.85687E-05 3.69371E-08 2.56680E-19 9.91643E-19
 -1      2051 9.52363E-05-2.85568E-05-2.85759E-05 5.40434E-08 9.16227E-19 6.49730E-19
 -1      2052 9.52613E-05-2.85564E-05-2.85884E-05 7.98788E-08 2.37487E-19 4.88730E-19
 -1      2053 9.51887E-05-2.85489E-05-2.85596E-05 1.02751E-08-3.01626E-19-1.16216E-18
 -1      2054 9.51995E-05-2.85503E-05-2.85632E-05 2.21045E-08-3.80246E-19-1.27692E-19
 -1      2055 9.52221E-05-2.85518E-05-2.85735E-05 3.65910E-08 3.17014E-19 2.91838E-19
 -1      2056 9.51798E-05-2.85491E-05-2.85558E-05-7.19026E-09-2.60673E-18 5.59363E-19
 -1      2057 9.51824E-05-2.85485E-05-2.85569E-05 7.31641E-10-1.35451E-18-2.27789E-19
 -1      2058 9.52017E-05-2.85509E-05-2.85650E-05 7.30075E-09-1.59013E-18 5.61840E-19
 -1      2059 9.51813E-05-2.85516E-05-2.85554E-05-1.79260E-08-5.42519E-20 6.82934E-19
 -1      2060 9.51786E-05-2.85498E-05-2.85549E-05-1.28862E-08-1.32048E-18 5.67960E-19
 -1      2061 9.51944E-05-2.85525E-05-2.85611E-05-1.16635E-08-1.45100E-18 3.14167E-19
 -1      2062 9.51893E-05-2.85556E-05-2.85571E-05-2.36755E-08-1.46122E-19 5.30761E-19
 -1      2063 9.51834E-05-2.85531E-05-2.85557E-05-2.07972E-08 1.98790E-19 6.59918E-19
 -1      2064 9.51955E-05-2.85556E-05-2.85602E-05-2.30068E-08-2.01405E-19 5.42761E-19
 -1      2065 9.52007E-05-2.85603E-05-2.85601E-05-2.55277E-08 1.23357E-18-1.08636E-18
 -1      2066 9.51933E-05-2.85575E-05-2.85581E-05-2.43777E-08 3.94664E-19 2.65089E-19
 -1      2067 9.52019E-05-2.85597E-05-2.85611E-05-2.85919E-08 6.45564E-19 1.62864E-19
 -1      2068 9.52132E-05-2.85654E-05-2.85633E-05-2.39633E-08 1.87564E-18-1.28696E-18
 -1      2069 9.52055E-05-2.85625E-05-2.85613E-05-2.43881E-08 1.62650E-18-9.62130E-19
 -1      2070 9.52110E-05-2.85643E-05-2.85630E-05-2.95040E-08 1.97398E-18-8.30251E-19
 -1      2071 9.52246E-05-2.85703E-05-2.85661E-05-1.88986E-08 1.65824E-18-6.99601E-20
 -1      2072 9.52180E-05-2.85676E-05-2.85645E-05-2.10903E-08 1.51569E-18-1.90154E-19
 -1      2073 9.52210E-05-2.85693E-05-2.85650E-05-2.62644E-08 1.23940E-18 4.93835E-19
 -1      2074 9.52325E-05-2.85742E-05-2.85679E-05-1.26206E-08-8.97271E-20-3.03389E-19
 -1      2075 9.52274E-05-2.85719E-05-2.85667E-05-1.64990E-08 1.44550E-18 2.04265E-19
 -1      2076 9.52289E-05-2.85736E-05-2.85665E-05-2.09335E-08 1.25190E-18 7.04955E-19
 -1      2077 9.52345E-05-2.85773E-05-2.85673E-05-1.52076E-08 9.15526E-19 9.19867E-19
 -1      2078 9.52488E-05-2.86048E-05-2.85617E-05-2.28671E-08 2.10975E-18-1.62990E-18
 -1      2079 9.52462E-05-2.85989E-05-2.85631E-05-2.37767E-08 2.00745E-18 7.54054E-19
 -1      2080 9.52440E-05-2.85950E-05-2.85639E-05-2.41416E-08 2.39459E-18 2.25527E-18
 -1      2081 9.52410E-05-2.85890E-05-2.85652E-05-2.33160E-08 1.80323E-18 3.82116E-18
 -1      2082 9.52438E-05-2.85922E-05-2.85650E-05-2.92723E-08 1.06739E-18 1.37859E-18
 -1      2083 9.52392E-05-2.85860E-05-2.85656E-05-2.15034E-08 2.26956E-18 2.50057E-18
 -1      2084 9.52363E-05-2.85806E-05-2.85668E-05-1.85486E-08 2.41006E-18-2.67431E-19
 -1      2085 9.52341E-05-2.85790E-05-2.85665E-05-2.19538E-08 1.83691E-18 8.84973E-20
 -1      2086 9.52389E-05-2.85854E-05-2.85658E-05-2.76256E-08 1.94629E-18 1.96199E-18
 -1      2087 9.52523E-05-2.86129E-05-2.85597E-05-1.90742E-08-1.88700E-19-6.32326E-18
 -1      2088 9.52503E-05-2.86079E-05-2.85610E-05-2.09821E-08 1.08748E-18-4.68279E-18
 -1      2089 9.52484E-05-2.85995E-05-2.85639E-05-2.66811E-08 9.34618E-19-4.41673E-18
 -1      2090 9.52546E-05-2.86190E-05-2.85580E-05-1.37619E-08 2.33638E-20-2.86673E-18
 -1      2091 9.52533E-05-2.86153E-05-2.85590E-05-1.62541E-08 2.73230E-19-3.06796E-18
 -1      2092 9.52515E-05-2.86051E-05-2.85628E-05-2.14632E-08 1.44248E-18-4.52627E-18
 -1      2093 9.52560E-05-2.86229E-05-2.85570E-05-7.75461E-09 1.22076E-18 1.20312E-18
 -1      2094 9.52552E-05-2.86206E-05-2.85576E-05-1.04907E-08 7.45046E-19 3.00450E-19
 -1      2095 9.52534E-05-2.86092E-05-2.85619E-05-1.47258E-08 1.70203E-18-9.55697E-19
 -1      2096 9.52565E-05-2.86244E-05-2.85565E-05-1.50521E-09 2.71457E-19 7.51509E-19
 -1      2097 9.52563E-05-2.86237E-05-2.85567E-05-4.31403E-09 1.01965E-18 1.41306E-19
 -1      2098 9.52544E-05-2.86115E-05-2.85613E-05-7.32176E-09 2.59776E-19 4.77723E-19
 -1      2099 9.52562E-05-2.86235E-05-2.85567E-05 4.74911E-09 9.20456E-19-8.90941E-21
 -1      2100 9.52565E-05-2.86244E-05-2.85565E-05 1.95879E-09 9.55775E-19 1.40585E-18
 -1      2101 9.52546E-05-2.86122E-05-2.85611E-05 2.85403E-10 2.69690E-19 1.36688E-18
 -1      2102 9.52551E-05-2.86203E-05-2.85577E-05 1.08292E-08-1.47485E-18-2.18667E-18
 -1      2103 9.52559E-05-2.86227E-05-2.85570E-05 8.14427E-09-2.82704E-19-1.33769E-18
 -1      2104 9.52543E-05-2.86113E-05-2.85613E-05 7.84135E-09-1.16550E-19-1.75513E-18
 -1      2105 9.52531E-05-2.86149E-05-2.85591E-05 1.63521E-08-1.96563E-18-4.74310E-18
 -1      2106 9.52545E-05-2.86187E-05-2.85581E-05 1.39719E-08-1.19859E-18-3.31616E-18
 -1      2107 9.52532E-05-2.86088E-05-2.85619E-05 1.50469E-08-9.90270E-19-3.26782E-18
 -1      2108 9.52501E-05-2.86074E-05-2.85611E-05 2.09580E-08 1.17372E-19 4.94026E-18
 -1      2109 9.52521E-05-2.86125E-05-2.85598E-05 1.90904E-08-5.55309E-19 1.38318E-18
 -1      2110 9.52513E-05-2.86048E-05-2.85628E-05 2.15397E-08-7.13974E-19-4.73684E-19
 -1      2111 9.52460E-05-2.85984E-05-2.85633E-05 2.36182E-08 1.03217E-18 1.34414E-18
 -1      2112 9.52485E-05-2.86042E-05-2.85618E-05 2.27817E-08 5.47151E-19 3.35930E-18
 -1      2113 9.52481E-05-2.85990E-05-2.85640E-05 2.66174E-08 4.63289E-19 3.82696E-18
 -1      2114 9.52407E-05-2.85885E-05-2.85653E-05 2.33080E-08-1.76884E-19-2.88146E-19
 -1      2115 9.52440E-05-2.85946E-05-2.85640E-05 2.39297E-08 8.33999E-19-5.95624E-20
 -1      2116 9.52436E-05-2.85918E-05-2.85651E-05 2.90139E-08 1.33067E-19 5.40689E-19
 -1      2117 6.04788E-05-4.11654E-05-8.77943E-06 3.90630E-05 1.54075E-18 5.90668E-18
 -1      2118 4.55428E-05-4.12031E-05-2.84954E-06 3.34914E-05-4.04035E-19 6.15285E-18
 -1      2119 1.14510E-05-3.43618E-05 8.37674E-06 3.10148E-06-1.04249E-18 3.58718E-18
 -1      2120 1.20681E-05-3.56230E-05 8.50204E-06-6.30717E-06-2.07290E-18 4.34951E-18
 -1      2121 2.70785E-05-3.26403E-05 1.82231E-06 2.65629E-05-8.00446E-20 5.49619E-18
 -1      2122 1.85557E-05-3.43111E-05 5.54959E-06 1.51323E-05-1.04270E-18 4.19112E-18
 -1      2123 9.89768E-05-4.56464E-05-2.28747E-05 4.12773E-05 2.89728E-18 5.42821E-18
 -1      2124 7.73628E-05-4.60714E-05-1.45551E-05 3.68907E-05 2.42040E-18 4.89882E-18
 -1      2125 8.27816E-05-5.00316E-05-1.42130E-05 4.11772E-05-1.42174E-18 4.51987E-18
 -1      2126 1.38748E-04-4.42224E-05-3.98875E-05 3.28403E-05 4.74338E-18 2.33908E-18
 -1      2127 1.18540E-04-4.66649E-05-3.13769E-05 3.16619E-05 3.17934E-18 3.54483E-18
 -1      2128 8.74064E-05-8.39022E-06-3.39572E-05-8.20229E-06-2.08428E-18-4.72303E-18
 -1      2129 8.85143E-05-9.10163E-06-3.41121E-05-9.74346E-06-2.51944E-18-4.25070E-18
 -1      2130 9.11983E-05-1.29714E-05-3.35891E-05-9.43100E-06-2.79179E-18-3.70352E-18
 -1      2131 8.84628E-05-1.03708E-05-3.34882E-05-7.00898E-06-2.04761E-18-4.61180E-18
 -1      2132 1.73002E-04-2.74569E-05-6.18073E-05 3.54146E-06 6.17487E-18-3.61492E-18
 -1      2133 1.66958E-04-3.11431E-05-5.76957E-05 9.38521E-06 6.11600E-18-1.28071E-18
 -1      2134 1.81765E-04-2.38201E-05-6.64312E-05-1.77519E-06 7.07611E-18-3.70032E-18
 -1      2135 1.73922E-04-2.13735E-05-6.48889E-05 2.52143E-06 6.78008E-18-2.93751E-18
 -1      2136 1.75420E-04-2.58666E-05-6.32185E-05-7.81829E-06 6.68605E-18-4.75863E-18
 -1      2137 1.82637E-04-2.59108E-05-6.60171E-05-3.19700E-06 6.73857E-18-3.59523E-18
 -1      2138 1.59669E-04-1.41464E-05-6.12987E-05 7.16999E-07 7.15955E-18-3.12301E-18
 -1      2139 1.62453E-04-3.52988E-05-5.38298E-05-2.21079E-05 7.32834E-18-6.67589E-18
 -1      2140 1.74624E-04-3.35654E-05-5.94274E-05-1.48272E-05 7.00454E-18-5.10888E-18
 -1      2141 1.35375E-04-4.08303E-05-4.06292E-05-3.06062E-05 6.60940E-18-7.71647E-18
 -1      2142 1.55358E-04-3.97275E-05-4.84604E-05-3.05093E-05 6.96568E-18-7.77746E-18
 -1      2143 1.57366E-04-4.08994E-05-4.89452E-05-1.07923E-05 5.69820E-18-3.84214E-18
 -1      2144 9.82604E-05-4.53294E-05-2.35801E-05-3.70687E-05 5.77507E-18-7.76475E-18
 -1      2145 1.19869E-04-4.43155E-05-3.20948E-05-3.94578E-05 5.88053E-18-7.93585E-18
 -1      2146 5.96776E-05-4.40284E-05-8.23298E-06-3.50616E-05 4.46979E-18-7.00729E-18
 -1      2147 7.80495E-05-4.15568E-05-1.60348E-05-4.19202E-05 5.85723E-18-8.06439E-18
 -1      2148 2.99061E-05-4.09680E-05 2.99805E-06-2.49371E-05 1.87660E-18-6.81374E-18
 -1      2149 4.14602E-05-3.87141E-05-2.17551E-06-3.31611E-05 3.89085E-18-6.85186E-18
 -1      2150 1.36111E-05-3.55155E-05 7.92392E-06-8.54172E-06-4.58774E-19-7.65506E-18
 -1      2151 1.89579E-05-3.62159E-05 6.03769E-06-1.73818E-05 1.78809E-18-7.65252E-18
 -1      2152 1.55944E-05-3.24681E-05 6.21087E-06 1.41546E-05-2.32638E-18-7.91722E-18
 -1      2153 1.24359E-05-3.29934E-05 7.55236E-06 3.91323E-06-3.47773E-19-7.91171E-18
 -1      2154 3.48165E-05-3.51400E-05-5.53343E-07 3.32720E-05-3.46902E-18-7.30312E-18
 -1      2155 2.40981E-05-3.71359E-05 4.22990E-06 2.26885E-05-2.21584E-18-7.77724E-18
 -1      2156 2.35172E-05-2.67039E-05 9.48705E-07 2.21950E-05-2.22346E-20-8.22300E-18
 -1      2157 7.80161E-05-4.49805E-05-1.45102E-05 4.38179E-05-3.11539E-18-5.32323E-18
 -1      2158 5.76099E-05-4.36670E-05-6.93757E-06 3.80391E-05-2.93328E-18-5.85602E-18
 -1      2159 1.17820E-04-4.34903E-05-3.13151E-05 3.99921E-05-6.85250E-18-6.10965E-18
 -1      2160 1.00964E-04-4.80870E-05-2.29171E-05 3.84152E-05-5.25965E-18-4.75164E-18
 -1      2161 1.48635E-04-4.03081E-05-4.57479E-05 2.83040E-05-7.02127E-18-4.22161E-18
 -1      2162 1.29492E-04-4.16384E-05-3.78616E-05 3.14684E-05-7.05240E-18-5.52350E-18
 -1      2163 1.33505E-04-5.30896E-05-3.42235E-05 2.48239E-05-3.92494E-18-2.10445E-18
 -1      2164 1.73646E-04-3.15738E-05-5.95174E-05 1.76790E-05-7.36813E-18-3.56982E-18
 -1      2165 1.56638E-04-3.20600E-05-5.31239E-05 2.07401E-05-8.02214E-18-4.50791E-18
 -1      2166 1.79407E-04-2.45275E-05-6.52896E-05 4.06739E-06-6.55476E-18-1.92965E-18
 -1      2167 1.74829E-04-2.60298E-05-6.28416E-05 1.14226E-05-6.92725E-18-3.35933E-18
 -1      2168 1.80338E-04-2.44129E-05-6.57143E-05-6.38850E-06-7.90197E-18 4.16317E-19
 -1      2169 1.80667E-04-2.32974E-05-6.64083E-05 1.60633E-06-7.42043E-18-1.47389E-18
 -1      2170 1.67137E-04-2.87284E-05-5.87550E-05-1.54033E-05-5.88307E-18 1.36457E-18
 -1      2171 1.77706E-04-2.79764E-05-6.30073E-05-9.13572E-06-6.86668E-18-1.34043E-19
 -1      2172 1.45907E-04-3.60702E-05-4.70394E-05-2.48805E-05-3.49793E-18 4.11616E-18
 -1      2173 1.64171E-04-3.48770E-05-5.42585E-05-2.36355E-05-4.28906E-18 3.11454E-18
 -1      2174 1.13899E-04-4.24608E-05-3.10999E-05-3.57388E-05-2.81173E-18 4.53798E-18
 -1      2175 1.34325E-04-4.20052E-05-3.91496E-05-3.45979E-05-2.51653E-18 5.24949E-18
 -1      2176 7.65909E-05-4.28857E-05-1.55664E-05-3.83423E-05-4.00138E-18 3.77268E-18
 -1      2177 9.63151E-05-4.06569E-05-2.38406E-05-4.33219E-05-3.97301E-18 3.56347E-18
 -1      2178 4.35557E-05-4.06510E-05-2.47546E-06-3.36613E-05-2.48562E-18 4.33173E-18
 -1      2179 5.84127E-05-3.89441E-05-8.92528E-06-4.02231E-05-4.05898E-18 4.47710E-18
 -1      2180 1.80311E-05-3.68984E-05 6.42370E-06-1.64921E-05-1.17928E-18 6.20028E-18
 -1      2181 2.58442E-05-3.38496E-05 2.53177E-06-2.70367E-05-2.27301E-18 6.27694E-18
 -1      2182 1.63272E-04-3.92036E-05-5.25987E-05 1.85885E-05 5.45976E-18-8.04681E-20
 -1      2183 1.47448E-04-4.04129E-05-4.58764E-05 2.44192E-05 5.77136E-18 1.63689E-18
 -1      2184 1.47120E-04-5.02377E-05-4.09277E-05 1.41379E-05 2.70214E-18-1.72668E-18
 -1      2185 1.20593E-04-5.62867E-05-2.74400E-05 3.14189E-05 6.26381E-19 1.42407E-18
 -1      2186 9.93638E-05-2.49900E-05-3.19400E-05-8.17257E-06-3.25181E-18 1.07326E-18
 -1      2187 1.57306E-04-3.54384E-05-5.14894E-05 5.86876E-07 5.06134E-18-3.55076E-18
 -1      2188 9.84398E-05-2.36821E-05-3.21095E-05-8.11085E-06-3.39904E-18-4.42707E-19
 -1      2189 4.42600E-05-3.54316E-05-4.08469E-06 3.47873E-05-1.66400E-18 6.12066E-18
 -1      2190 1.75091E-05-2.47587E-05 2.61019E-06 1.21647E-05-1.40279E-18 4.56890E-18
 -1      2191 9.52383E-05-2.85842E-05-2.85661E-05 2.32453E-08-4.86665E-19-9.29196E-19
 -1      2192 1.70543E-05-2.63886E-05 3.28614E-06-1.48206E-05-1.16732E-18 5.69248E-18
 -1      2193 4.17688E-05-3.56520E-05-3.08017E-06-3.58697E-05-5.14149E-19 5.24610E-18
 -1      2194 8.04138E-05-4.76935E-05-1.42641E-05-4.24951E-05-1.10961E-18 2.09461E-18
 -1      2195 1.16978E-04-5.24758E-05-2.73895E-05-3.44253E-05-6.06264E-19 2.04071E-18
 -1      2196 1.44489E-04-4.61088E-05-4.16076E-05-1.79051E-05-1.37622E-18 1.36838E-18
 -1      2197 1.56644E-04-3.02505E-05-5.32430E-05-3.80879E-06-4.16740E-18-2.38440E-18
 -1      2198 1.59317E-04-1.70650E-05-5.98911E-05 1.26326E-06-6.80040E-18-2.22643E-18
 -1      2199 1.60103E-04-1.40415E-05-6.15055E-05-2.36811E-07-7.65675E-18-1.61953E-18
 -1      2200 1.51950E-04-4.04503E-05-4.71752E-05 1.05383E-05-6.02055E-18-1.54795E-18
 -1      2201 5.41473E-05-3.87114E-05-6.62332E-06 4.07525E-05-1.93124E-19-5.85893E-18
 -1      2202 1.54432E-05-2.46106E-05 3.33851E-06-2.74994E-06-1.95109E-19-8.71936E-18
 -1      2203 2.90810E-05-3.27561E-05 7.88832E-07-2.72132E-05 4.78574E-20-7.57269E-18
 -1      2204 6.10813E-05-4.41527E-05-7.82372E-06-4.01520E-05 1.14942E-18-6.84318E-18
 -1      2205 1.36633E-04-5.22051E-05-3.58155E-05-2.53132E-05 3.84172E-18-4.97420E-18
 -1      2206 1.63150E-04-2.58024E-05-5.78329E-05-4.65964E-07 6.64031E-18-3.35319E-18
 -1      2207 1.58381E-04-1.88376E-05-5.91563E-05-4.27452E-06 6.44042E-18-4.15533E-18
 -1      2208 1.01423E-04-5.31288E-05-2.07462E-05-3.89509E-05 2.54491E-18-5.98323E-18
 -1      2209 9.70338E-05-5.13281E-05-1.95871E-05 3.98723E-05-2.06718E-18-4.27741E-18
 -1      2210 9.40621E-05-5.17616E-05-1.75052E-05 4.18928E-05 1.09670E-18-3.05554E-18
 -1      2211 1.14381E-04-5.78656E-05-2.48545E-05 3.46524E-05-4.51257E-19-1.96999E-18
 -1      2212 1.59061E-04-2.29787E-05-5.72437E-05 1.47445E-06-7.08225E-18-1.49480E-18
 -1      2213 9.82959E-05-2.69536E-05-3.05474E-05 1.31413E-06 2.78005E-18 1.62574E-18
 -1      2214 9.87895E-05-2.63752E-05-3.09612E-05 3.33598E-06 3.11602E-18 2.02328E-18
 -1      2215 8.56405E-05-9.00432E-06-3.28845E-05-2.06365E-06-2.87895E-19-4.97843E-18
 -1      2216 8.62631E-05-9.48883E-06-3.29308E-05-2.90478E-06-7.22878E-19-4.97685E-18
 -1      2217 8.70934E-05-1.03039E-05-3.29583E-05-3.62768E-06-1.03817E-18-4.90198E-18
 -1      2218 8.79911E-05-1.10434E-05-3.30134E-05-4.59521E-06-1.45500E-18-4.76942E-18
 -1      2219 8.77688E-05-1.17072E-05-3.25926E-05-2.66775E-06-8.10067E-19-4.61713E-18
 -1      2220 8.45381E-05-8.01678E-06-3.28251E-05 5.77059E-07 9.90100E-19-4.87616E-18
 -1      2221 8.45708E-05-8.04320E-06-3.28252E-05-1.28095E-07 5.98575E-19-4.88820E-18
 -1      2222 8.49533E-05-8.34218E-06-3.28617E-05 1.82965E-06 1.56238E-18-4.73746E-18
 -1      2223 8.46700E-05-8.13110E-06-3.28349E-05 1.11254E-06 1.21694E-18-4.83294E-18
 -1      2224 8.55003E-05-9.61343E-06-3.25173E-05 7.63513E-07 1.03990E-18-4.63130E-18
 -1      2225 8.60115E-05-9.23265E-06-3.29349E-05 3.15726E-06 2.16160E-18-4.39367E-18
 -1      2226 8.54229E-05-8.77887E-06-3.28871E-05 2.38487E-06 1.83507E-18-4.62147E-18
 -1      2227 8.61227E-05-1.01564E-05-3.25499E-05 1.78393E-06 1.63799E-18-4.39450E-18
 -1      2228 8.77544E-05-1.07782E-05-3.30264E-05 4.68950E-06 2.85089E-18-3.66137E-18
 -1      2229 8.68333E-05-1.00262E-05-3.29666E-05 3.79162E-06 2.43136E-18-4.05806E-18
 -1      2230 8.74542E-05-1.13644E-05-3.26011E-05 2.89209E-06 2.22626E-18-3.94783E-18
 -1      2231 9.01861E-05-1.30940E-05-3.30937E-05 6.42977E-06 3.39586E-18-2.69554E-18
 -1      2232 8.89281E-05-1.19678E-05-3.30433E-05 5.40761E-06 3.03468E-18-3.26941E-18
 -1      2233 8.94986E-05-1.33126E-05-3.26399E-05 4.13772E-06 2.82108E-18-3.19380E-18
 -1      2234 9.33578E-05-1.64080E-05-3.30681E-05 8.20255E-06 3.91071E-18-1.47976E-18
 -1      2235 9.17190E-05-1.47476E-05-3.30560E-05 7.15028E-06 3.56543E-18-2.14433E-18
 -1      2236 9.22070E-05-1.60799E-05-3.26030E-05 5.43636E-06 3.28734E-18-2.17697E-18
 -1      2237 9.82295E-05-2.78110E-05-3.01455E-05-1.74048E-06 1.92329E-18 1.07946E-18
 -1      2238 9.82263E-05-2.74760E-05-3.02498E-05-4.58656E-07 2.31328E-18 1.57720E-18
 -1      2239 9.79342E-05-2.60742E-05-3.08133E-05 8.09588E-07 2.83414E-18 4.66229E-19
 -1      2240 9.81340E-05-2.54791E-05-3.10870E-05-3.45216E-06-2.73763E-18-9.95274E-19
 -1      2241 9.78299E-05-2.62864E-05-3.06672E-05-1.37285E-06-2.43457E-18-1.09884E-18
 -1      2242 1.48971E-04-3.18582E-05-5.07070E-05-9.00033E-06 4.97251E-18-4.82809E-18
 -1      2243 1.49712E-04-4.18491E-05-4.64126E-05-3.23340E-06 3.78412E-18-4.22161E-18
 -1      2244 9.79430E-05-2.69873E-05-3.03524E-05 2.22761E-07-2.13082E-18-9.08903E-19
 -1      2245 9.79194E-05-2.74639E-05-3.01856E-05 1.50294E-06-1.72611E-18-1.02371E-18
 -1      2246 9.74287E-05-2.54924E-05-3.08399E-05-8.85563E-07-2.32609E-18-1.54024E-18
 -1      2247 9.80409E-05-2.78775E-05-3.00304E-05 2.63159E-06-1.57369E-18-8.84997E-19
 -1      2248 9.83152E-05-2.82685E-05-3.00105E-05 3.45658E-06-1.39223E-18-1.13350E-18
 -1      2249 9.76774E-05-2.69302E-05-3.03391E-05 2.05586E-06-1.72665E-18-1.31360E-18
 -1      2250 9.85853E-05-2.86194E-05-2.99594E-05 4.22713E-06-1.17677E-18-1.10285E-18
 -1      2251 9.91058E-05-2.90317E-05-3.00267E-05 4.72940E-06-9.83726E-19-1.19947E-18
 -1      2252 9.81097E-05-2.79285E-05-3.00973E-05 4.11408E-06-1.45157E-18-1.31008E-18
 -1      2253 9.95640E-05-2.94266E-05-3.00399E-05 5.19403E-06-8.23743E-19-1.17535E-18
 -1      2254 1.00268E-04-2.99139E-05-3.01542E-05 5.40329E-06-6.08314E-19-1.14546E-18
 -1      2255 9.88740E-05-2.88693E-05-3.00209E-05 5.46784E-06-1.00006E-18-1.44434E-18
 -1      2256 1.00933E-04-3.04189E-05-3.02033E-05 5.55029E-06-5.47343E-19-1.11181E-18
 -1      2257 1.01754E-04-3.10081E-05-3.03331E-05 5.43214E-06-3.38623E-19-1.29487E-18
 -1      2258 1.00028E-04-2.99678E-05-3.00443E-05 6.16870E-06-6.59794E-19-1.42961E-18
 -1      2259 1.02635E-04-3.16619E-05-3.03999E-05 5.19598E-06-4.09997E-19-1.29283E-18
 -1      2260 1.03496E-04-3.23457E-05-3.05203E-05 4.68006E-06-5.13977E-19-1.35792E-18
 -1      2261 1.01603E-04-3.13594E-05-3.01236E-05 6.14543E-06-4.71802E-19-1.49249E-18
 -1      2262 1.04579E-04-3.31405E-05-3.05979E-05 3.96168E-06-6.49221E-19-1.15317E-18
 -1      2263 1.05367E-04-3.38488E-05-3.06925E-05 2.98062E-06-4.78789E-19-1.06067E-18
 -1      2264 1.03600E-04-3.30879E-05-3.02390E-05 5.23377E-06-5.18409E-19-1.23231E-18
 -1      2265 1.06567E-04-3.46845E-05-3.07900E-05 1.69280E-06-5.60084E-20-9.17780E-19
 -1      2266 1.07119E-04-3.52427E-05-3.08555E-05 2.49145E-07-7.01912E-20-8.15930E-19
 -1      2267 1.05926E-04-3.50267E-05-3.04012E-05 3.23616E-06-2.83217E-19-8.02247E-19
 -1      2268 1.08221E-04-3.58735E-05-3.09999E-05-1.58769E-06-4.66522E-19-5.06225E-19
 -1      2269 1.08330E-04-3.59867E-05-3.10499E-05-3.32239E-06-6.70532E-19-7.73800E-19
 -1      2270 1.08285E-04-3.67540E-05-3.06585E-05 5.47652E-08-2.88675E-19-2.95527E-19
 -1      2271 1.08964E-04-3.60212E-05-3.12795E-05-5.43212E-06-7.01373E-19-6.28590E-19
 -1      2272 1.08443E-04-3.53526E-05-3.13416E-05-7.02251E-06-4.30374E-19-5.94749E-19
 -1      2273 1.10081E-04-3.74855E-05-3.10913E-05-4.05896E-06-6.39434E-19 2.09692E-19
 -1      2274 1.08197E-04-3.44053E-05-3.16800E-05-8.73126E-06-5.41231E-19-8.16464E-19
 -1      2275 1.07038E-04-3.28210E-05-3.17748E-05-9.49016E-06-9.37182E-19-6.16286E-19
 -1      2276 1.10494E-04-3.62546E-05-3.17755E-05-8.18704E-06-6.84115E-19 5.20479E-20
 -1      2277 1.05823E-04-3.09104E-05-3.21802E-05-9.78353E-06-1.29600E-18-5.31722E-19
 -1      2278 1.04408E-04-2.88735E-05-3.22966E-05-9.03637E-06-1.29156E-18-7.62948E-19
 -1      2279 1.08945E-04-3.25924E-05-3.26870E-05-1.05380E-05-1.04016E-18-1.37699E-19
 -1      2280 1.02862E-04-2.67995E-05-3.26581E-05-7.28092E-06-1.30879E-18-8.18508E-19
 -1      2281 1.01843E-04-2.52621E-05-3.27537E-05-4.94765E-06-1.27062E-18-1.01164E-18
 -1      2282 1.06026E-04-2.75488E-05-3.36290E-05-9.23251E-06-1.38927E-18-9.49835E-20
 -1      2283 1.01101E-04-2.42984E-05-3.29159E-05-1.49022E-06-1.40578E-18-1.38340E-18
 -1      2284 1.01101E-04-2.42443E-05-3.29326E-05 1.57455E-06-1.10299E-18-1.35202E-18
 -1      2285 1.03567E-04-2.37308E-05-3.42764E-05-3.70010E-06-1.51054E-18-4.27823E-19
 -1      2286 1.01790E-04-2.50854E-05-3.28121E-05 5.10228E-06-7.03745E-19-1.97374E-18
 -1      2287 1.02826E-04-2.65414E-05-3.27488E-05 7.53887E-06-6.20644E-19-1.73119E-18
 -1      2288 1.03507E-04-2.35767E-05-3.43218E-05 3.82854E-06-1.23466E-18-1.11168E-18
 -1      2289 1.04394E-04-2.85796E-05-3.24169E-05 9.48800E-06-1.22426E-18-2.28378E-18
 -1      2290 1.05900E-04-3.06474E-05-3.23251E-05 1.03817E-05-8.76139E-19-2.79001E-18
 -1      2291 1.05925E-04-2.71899E-05-3.37517E-05 9.63400E-06-1.17319E-18-2.41551E-18
 -1      2292 1.07210E-04-3.26047E-05-3.19367E-05 1.02373E-05-3.38145E-19-2.80180E-18
 -1      2293 1.08488E-04-3.42528E-05-3.18682E-05 9.60926E-06-1.66809E-19-2.50738E-18
 -1      2294 1.08986E-04-3.22328E-05-3.28521E-05 1.13319E-05-7.45519E-19-2.87532E-18
 -1      2295 1.08852E-04-3.52795E-05-3.15455E-05 8.01811E-06-3.72266E-19-2.35972E-18
 -1      2296 1.09518E-04-3.60371E-05-3.15117E-05 6.51010E-06 1.85255E-20-2.90304E-18
 -1      2297 1.10740E-04-3.60422E-05-3.19691E-05 9.24954E-06-2.09559E-19-2.22258E-18
 -1      2298 1.08986E-04-3.60731E-05-3.12936E-05 4.45465E-06 5.07571E-19-2.68552E-18
 -1      2299 1.09023E-04-3.60370E-05-3.12735E-05 2.76216E-06 9.86335E-19-2.41975E-18
 -1      2300 1.10550E-04-3.74524E-05-3.13039E-05 5.29187E-06 3.81567E-19-1.78011E-18
 -1      2301 1.07989E-04-3.54506E-05-3.11404E-05 9.40559E-07 1.04485E-18-2.48327E-18
 -1      2302 1.07573E-04-3.49536E-05-3.11057E-05-4.87878E-07 1.28407E-18-2.37387E-18
 -1      2303 1.08926E-04-3.68635E-05-3.08842E-05 1.23622E-06 1.24607E-18-1.47343E-18
 -1      2304 1.06415E-04-3.41470E-05-3.10160E-05-1.78344E-06 1.44708E-18-2.46029E-18
 -1      2305 1.05748E-04-3.34937E-05-3.09483E-05-2.77198E-06 1.36832E-18-2.34207E-18
 -1      2306 1.06680E-04-3.52255E-05-3.06364E-05-1.94549E-06 1.11189E-18-2.33484E-18
 -1      2307 1.04683E-04-3.27245E-05-3.08692E-05-3.52535E-06 7.00466E-19-2.97391E-18
 -1      2308 1.03920E-04-3.20985E-05-3.07659E-05-4.07846E-06 6.74332E-19-2.59642E-18
 -1      2309 1.04420E-04-3.33606E-05-3.04700E-05-3.99809E-06 7.28273E-19-2.73617E-18
 -1      2310 1.03029E-04-3.14787E-05-3.06806E-05-4.39409E-06 1.00397E-18-2.46487E-18
 -1      2311 1.02266E-04-3.09588E-05-3.05497E-05-4.60002E-06 9.29316E-19-2.10866E-18
 -1      2312 1.02440E-04-3.17197E-05-3.03230E-05-5.04318E-06 8.90941E-19-3.02093E-18
 -1      2313 1.01554E-04-3.05074E-05-3.04540E-05-4.61039E-06 6.21920E-19-2.07952E-18
 -1      2314 1.00844E-04-3.01089E-05-3.03080E-05-4.57687E-06 2.86833E-19-1.71733E-18
 -1      2315 1.00822E-04-3.04628E-05-3.01653E-05-5.33467E-06 5.93115E-19-3.87990E-18
 -1      2316 1.00285E-04-2.98024E-05-3.02048E-05-4.39932E-06-2.86521E-19-1.87473E-18
 -1      2317 9.96529E-05-2.95119E-05-3.00560E-05-4.22182E-06-3.67689E-19-2.14131E-18
 -1      2318 9.95419E-05-2.95844E-05-2.99905E-05-5.12906E-06-2.16435E-19-2.79223E-18
 -1      2319 9.92154E-05-2.93151E-05-2.99510E-05-3.94561E-06-6.11216E-19-1.23101E-18
 -1      2320 9.86711E-05-2.91103E-05-2.98091E-05-3.69658E-06-3.04753E-19-1.31361E-18
 -1      2321 9.85406E-05-2.90133E-05-2.98042E-05-4.63567E-06-4.46780E-19-1.88748E-18
 -1      2322 9.83285E-05-2.89905E-05-2.97079E-05-3.38338E-06-2.23298E-19-1.24154E-18
 -1      2323 9.78717E-05-2.88497E-05-2.95792E-05-3.11228E-06 2.16133E-19-1.39174E-18
 -1      2324 9.77590E-05-2.86666E-05-2.96166E-05-4.00705E-06-1.46058E-19-5.88066E-19
 -1      2325 9.76030E-05-2.87811E-05-2.94860E-05-2.80126E-06 4.07420E-19-1.31992E-18
 -1      2326 9.72282E-05-2.86866E-05-2.93739E-05-2.53872E-06 4.78263E-19-8.30591E-19
 -1      2327 9.71484E-05-2.84729E-05-2.94371E-05-3.34535E-06 2.12463E-19-2.31843E-19
 -1      2328 9.70178E-05-2.86507E-05-2.92914E-05-2.25243E-06 4.44076E-19-6.08186E-19
 -1      2329 9.67167E-05-2.85890E-05-2.91968E-05-2.01531E-06 1.50604E-19 2.32131E-19
 -1      2330 9.66716E-05-2.83779E-05-2.92728E-05-2.71338E-06 5.45462E-19-6.79466E-19
 -1      2331 9.65526E-05-2.85732E-05-2.91261E-05-1.76481E-06-1.75027E-19 1.21460E-19
 -1      2332 9.63155E-05-2.85342E-05-2.90486E-05-1.56063E-06 4.28566E-20 3.04934E-19
 -1      2333 9.63002E-05-2.83435E-05-2.91278E-05-2.14550E-06 2.75948E-19-2.89030E-19
 -1      2334 9.61886E-05-2.85302E-05-2.89896E-05-1.34950E-06 1.98416E-20 3.06201E-19
 -1      2335 9.60055E-05-2.85067E-05-2.89276E-05-1.17987E-06-4.16734E-19 3.11443E-19
 -1      2336 9.60128E-05-2.83441E-05-2.90039E-05-1.65676E-06-1.69268E-19 3.55353E-19
 -1      2337 9.59084E-05-2.85093E-05-2.88796E-05-1.00717E-06-1.20835E-18 1.37804E-19
 -1      2338 9.57700E-05-2.84963E-05-2.88312E-05-8.70266E-07-1.15145E-18-3.21511E-19
 -1      2339 9.57925E-05-2.83633E-05-2.89008E-05-1.24990E-06-1.21860E-18 8.38463E-19
 -1      2340 9.56967E-05-2.85021E-05-2.87930E-05-7.32549E-07-9.01920E-19 1.33543E-19
 -1      2341 9.55943E-05-2.84961E-05-2.87561E-05-6.24786E-07-4.55243E-19 1.30083E-19
 -1      2342 9.56256E-05-2.83907E-05-2.88171E-05-9.20356E-07-9.75984E-19 9.48698E-19
 -1      2343 9.55399E-05-2.85032E-05-2.87264E-05-5.17433E-07 2.39663E-19 4.55817E-19
 -1      2344 9.54661E-05-2.85015E-05-2.86988E-05-4.34520E-07 1.03314E-18 9.60980E-19
 -1      2345 9.55010E-05-2.84204E-05-2.87506E-05-6.59731E-07 3.07840E-20 1.45562E-18
 -1      2346 9.54264E-05-2.85087E-05-2.86762E-05-3.52612E-07 7.96136E-19 1.93463E-20
 -1      2347 9.53747E-05-2.85097E-05-2.86562E-05-2.90199E-07 4.32835E-19-5.39373E-19
 -1      2348 9.54097E-05-2.84489E-05-2.86990E-05-4.58080E-07 6.03916E-19 2.51938E-19
 -1      2349 9.53465E-05-2.85164E-05-2.86393E-05-2.29017E-07 8.38434E-19-8.17969E-19
 -1      2350 9.53116E-05-2.85190E-05-2.86252E-05-1.83065E-07 3.41722E-20-2.18286E-19
 -1      2351 9.53443E-05-2.84744E-05-2.86597E-05-3.05309E-07-3.39385E-20-3.47815E-19
 -1      2352 9.52922E-05-2.85250E-05-2.86130E-05-1.38365E-07-1.11907E-18 3.52521E-19
 -1      2353 9.52699E-05-2.85283E-05-2.86034E-05-1.05330E-07-1.21554E-18 7.64910E-19
 -1      2354 9.52986E-05-2.84964E-05-2.86304E-05-1.92008E-07-4.81959E-20 8.78133E-19
 -1      2355 9.52570E-05-2.85334E-05-2.85947E-05-7.34656E-08-1.04461E-18 1.83583E-18
 -1      2356 9.52438E-05-2.85371E-05-2.85885E-05-5.03705E-08-1.01982E-19 2.63782E-18
 -1      2357 9.52679E-05-2.85147E-05-2.86092E-05-1.09870E-07-1.61282E-19 2.34935E-18
 -1      2358 9.52358E-05-2.85414E-05-2.85826E-05-2.83303E-08 1.19317E-19 2.50178E-18
 -1      2359 9.52292E-05-2.85451E-05-2.85788E-05-1.27667E-08 2.78836E-19 2.30036E-18
 -1      2360 9.52484E-05-2.85297E-05-2.85942E-05-5.18738E-08-2.16534E-19 3.65768E-18
 -1      2361 9.52247E-05-2.85487E-05-2.85749E-05 1.84779E-09 7.96325E-19 2.56971E-18
 -1      2362 9.52225E-05-2.85523E-05-2.85728E-05 1.17482E-08 1.95554E-18 1.83398E-18
 -1      2363 9.52369E-05-2.85419E-05-2.85839E-05-1.22988E-08 2.96945E-19 3.13449E-18
 -1      2364 9.52205E-05-2.85554E-05-2.85704E-05 2.07716E-08 1.44417E-18 1.22706E-18
 -1      2365 9.52212E-05-2.85589E-05-2.85695E-05 2.63813E-08 6.88586E-19 8.53246E-19
 -1      2366 9.52312E-05-2.85519E-05-2.85771E-05 1.33446E-08 1.07055E-18 2.57506E-18
 -1      2367 9.52209E-05-2.85618E-05-2.85680E-05 3.11286E-08 6.37344E-19 4.53176E-19
 -1      2368 9.52234E-05-2.85652E-05-2.85678E-05 3.33605E-08 6.50495E-19 7.70985E-19
 -1      2369 9.52294E-05-2.85604E-05-2.85726E-05 2.84217E-08-6.50180E-20 2.30885E-18
 -1      2370 9.52243E-05-2.85681E-05-2.85668E-05 3.47360E-08 3.68264E-19 8.03842E-19
 -1      2371 9.52276E-05-2.85714E-05-2.85670E-05 3.40761E-08-2.18986E-19 7.93599E-19
 -1      2372 9.52305E-05-2.85680E-05-2.85697E-05 3.52858E-08 3.71765E-19 9.77055E-19
 -1      2373 9.98814E-05-2.89705E-05-3.03654E-05-5.63273E-06 1.02305E-18 1.77271E-19
 -1      2374 9.90594E-05-2.86104E-05-3.01655E-05-4.91588E-06 1.13010E-18 6.58311E-19
 -1      2375 1.01526E-04-2.96922E-05-3.07678E-05-6.96990E-06 7.71549E-19-2.14734E-19
 -1      2376 1.00412E-04-2.92333E-05-3.04882E-05-6.41480E-06 9.04084E-19 2.10890E-20
 -1      2377 9.93035E-05-2.84501E-05-3.03856E-05-6.82765E-06 1.15871E-18-4.18643E-19
 -1      2378 1.03644E-04-3.06728E-05-3.12665E-05-7.90690E-06 7.34339E-19-1.97950E-19
 -1      2379 1.02294E-04-3.00675E-05-3.09423E-05-7.56022E-06 7.53012E-19-1.80180E-19
 -1      2380 1.00625E-04-2.92156E-05-3.06238E-05-8.33605E-06 8.97211E-19-5.58447E-19
 -1      2381 1.06201E-04-3.20438E-05-3.17930E-05-8.23209E-06 2.43762E-19 2.58520E-19
 -1      2382 1.04679E-04-3.12414E-05-3.14623E-05-8.22553E-06 5.64715E-19 1.67086E-19
 -1      2383 1.02456E-04-3.03416E-05-3.09282E-05-9.36209E-06 4.39809E-19-4.58698E-19
 -1      2384 1.09157E-04-3.39274E-05-3.22795E-05-7.55866E-06-4.45109E-19 7.54619E-19
 -1      2385 1.07564E-04-3.28989E-05-3.19851E-05-8.10354E-06-4.35891E-20 6.02366E-19
 -1      2386 1.04897E-04-3.20562E-05-3.12467E-05-9.65346E-06-9.29842E-20 1.20300E-19
 -1      2387 1.12400E-04-3.63199E-05-3.26763E-05-5.37110E-06-3.80980E-19 5.86043E-19
 -1      2388 1.10912E-04-3.51316E-05-3.24576E-05-6.71187E-06-4.26752E-19 7.56738E-19
 -1      2389 1.08090E-04-3.45586E-05-3.15523E-05-8.76200E-06-3.83584E-19 2.18039E-19
 -1      2390 1.15591E-04-3.88359E-05-3.29898E-05-1.22758E-06-3.09352E-19 8.71405E-19
 -1      2391 1.14519E-04-3.77860E-05-3.28630E-05-3.49739E-06-3.47846E-19 7.42712E-19
 -1      2392 1.12086E-04-3.78131E-05-3.18760E-05-6.08880E-06-3.07984E-19 5.89472E-20
 -1      2393 1.17942E-04-4.03713E-05-3.33331E-05 4.74004E-06-1.75561E-19 1.17800E-18
 -1      2394 1.17755E-04-4.01200E-05-3.32623E-05 1.81036E-06-2.77403E-19 9.72738E-19
 -1      2395 1.16551E-04-4.11393E-05-3.23511E-05-1.11957E-06-4.00336E-19 4.24539E-19
 -1      2396 1.18199E-04-3.91439E-05-3.39167E-05 1.09834E-05 1.54013E-19 1.47007E-18
 -1      2397 1.19331E-04-4.05288E-05-3.38198E-05 8.41466E-06-1.65056E-19 1.49681E-18
 -1      2398 1.20297E-04-4.27178E-05-3.32386E-05 5.92903E-06-2.83523E-19 1.05073E-18
 -1      2399 1.15493E-04-3.40447E-05-3.48693E-05 1.40614E-05 2.58120E-19 1.68106E-18
 -1      2400 1.17825E-04-3.72114E-05-3.46815E-05 1.35637E-05 3.21027E-19 1.61406E-18
 -1      2401 1.21353E-04-4.01343E-05-3.47804E-05 1.28799E-05 2.81638E-20 1.39723E-18
 -1      2402 1.11079E-04-2.70880E-05-3.59711E-05 1.02609E-05 8.35730E-19 1.45728E-18
 -1      2403 1.13399E-04-3.04196E-05-3.57529E-05 1.30849E-05 3.73092E-19 1.64103E-18
 -1      2404 1.18557E-04-3.26501E-05-3.68541E-05 1.52073E-05 3.77591E-19 1.50131E-18
 -1      2405 1.08833E-04-2.36958E-05-3.65700E-05-1.12607E-07 2.56243E-18 3.94233E-19
 -1      2406 1.09349E-04-2.44924E-05-3.65094E-05 4.97872E-06 1.93891E-18 9.77354E-19
 -1      2407 1.14149E-04-2.43400E-05-3.86633E-05 8.85847E-06 1.58289E-18 1.23560E-18
 -1      2408 1.11305E-04-2.71768E-05-3.62491E-05-1.06669E-05 2.45295E-18-1.01454E-18
 -1      2409 1.09609E-04-2.47381E-05-3.63765E-05-6.49769E-06 2.65791E-18-1.88538E-19
 -1      2410 1.13064E-04-2.23047E-05-3.90993E-05-3.89317E-06 2.98780E-18-2.19726E-19
 -1      2411 1.16321E-04-3.43751E-05-3.53015E-05-1.48612E-05 1.53223E-18-1.99890E-18
 -1      2412 1.13710E-04-3.07612E-05-3.54962E-05-1.38572E-05 2.25414E-18-1.30448E-18
 -1      2413 1.16622E-04-2.84902E-05-3.78290E-05-1.42563E-05 2.76037E-18-1.84510E-18
 -1      2414 1.19595E-04-3.95522E-05-3.43753E-05-1.19690E-05 4.90397E-19-2.53101E-18
 -1      2415 1.17731E-04-3.72782E-05-3.44684E-05-1.36692E-05 1.00724E-18-2.15274E-18
 -1      2416 1.20723E-04-3.70948E-05-3.58378E-05-1.59905E-05 1.39445E-18-2.51434E-18
 -1      2417 1.19579E-04-4.08405E-05-3.37449E-05-5.63386E-06-6.64755E-19-2.18829E-18
 -1      2418 1.19022E-04-4.03914E-05-3.37794E-05-8.47363E-06-8.82039E-20-2.55864E-18
 -1      2419 1.21693E-04-4.22904E-05-3.40515E-05-1.03408E-05 2.38876E-19-2.84015E-18
 -1      2420 1.17119E-04-3.92215E-05-3.33567E-05 4.25001E-07-1.76553E-20-2.04961E-18
 -1      2421 1.17683E-04-3.99572E-05-3.34119E-05-2.11821E-06-3.00908E-19-2.32487E-18
 -1      2422 1.19119E-04-4.23959E-05-3.29126E-05-2.85563E-06-3.21098E-19-2.55352E-18
 -1      2423 1.13778E-04-3.66426E-05-3.30319E-05 4.56862E-06-1.88458E-19-1.50752E-18
 -1      2424 1.14966E-04-3.77630E-05-3.31681E-05 2.87748E-06 3.27444E-19-1.39483E-18
 -1      2425 1.14914E-04-3.95976E-05-3.23253E-05 3.12401E-06-3.03251E-19-1.99128E-18
 -1      2426 1.10474E-04-3.42432E-05-3.26537E-05 6.70280E-06-1.75534E-18-1.75673E-18
 -1      2427 1.11896E-04-3.52981E-05-3.28784E-05 5.86286E-06-7.66571E-19-1.57162E-18
 -1      2428 1.10758E-04-3.62034E-05-3.19960E-05 6.76367E-06-5.78186E-19-6.16913E-19
 -1      2429 1.07560E-04-3.24080E-05-3.21990E-05 7.33378E-06-1.62110E-18-1.70236E-18
 -1      2430 1.08989E-04-3.32456E-05-3.24844E-05 7.12151E-06-2.11009E-18-1.71585E-18
 -1      2431 1.07313E-04-3.33719E-05-3.17211E-05 8.36594E-06-1.61430E-18-1.14289E-18
 -1      2432 1.05097E-04-3.11285E-05-3.16959E-05 7.03829E-06 1.38164E-19-1.78663E-18
 -1      2433 1.06419E-04-3.17462E-05-3.20054E-05 7.20773E-06-7.42827E-19-2.25244E-18
 -1      2434 1.04643E-04-3.13867E-05-3.14158E-05 8.57564E-06-9.75530E-19-2.20438E-18
 -1      2435 1.03046E-04-3.02720E-05-3.11861E-05 6.26651E-06 1.24701E-19-4.67084E-19
 -1      2436 1.04212E-04-3.07147E-05-3.14892E-05 6.62659E-06 3.45150E-19-1.16191E-18
 -1      2437 1.02595E-04-3.01273E-05-3.10703E-05 7.97631E-06-3.68661E-19-1.66448E-18
 -1      2438 1.01353E-04-2.97042E-05-3.07041E-05 5.31439E-06 1.40952E-19 3.88967E-20
 -1      2439 1.02346E-04-3.00197E-05-3.09812E-05 5.74057E-06 3.11305E-19 4.07738E-20
 -1      2440 1.01003E-04-2.93770E-05-3.07051E-05 6.98793E-06-9.53127E-20-1.24749E-18
 -1      2441 9.99648E-05-2.93249E-05-3.02720E-05 4.35438E-06-2.52868E-19 8.76204E-19
 -1      2442 1.00789E-04-2.95505E-05-3.05131E-05 4.77532E-06-3.25553E-20 5.16627E-19
 -1      2443 9.97407E-05-2.89483E-05-3.03461E-05 5.87677E-06-2.65661E-20-5.23284E-19
 -1      2444 9.88392E-05-2.90678E-05-2.98998E-05 3.47519E-06-4.19733E-19 1.55725E-18
 -1      2445 9.95078E-05-2.92299E-05-3.01020E-05 3.85539E-06-5.82286E-20 1.35135E-18
 -1      2446 9.87282E-05-2.87108E-05-3.00130E-05 4.79514E-06-3.63105E-19 5.06351E-19
 -1      2447 9.79376E-05-2.88912E-05-2.95892E-05 2.71415E-06 1.71755E-19 8.05749E-19
 -1      2448 9.84698E-05-2.90077E-05-2.97540E-05 3.03976E-06 3.82442E-19 1.35543E-18
 -1      2449 9.79131E-05-2.85831E-05-2.97179E-05 3.81985E-06 5.31162E-20 7.02239E-19
 -1      2450 9.72256E-05-2.87689E-05-2.93365E-05 2.07945E-06 2.89674E-19 3.62590E-19
 -1      2451 9.76415E-05-2.88524E-05-2.94678E-05 2.34859E-06-1.63848E-20 3.88883E-19
 -1      2452 9.72596E-05-2.85174E-05-2.94656E-05 2.98150E-06 2.52861E-19-1.58655E-19
 -1      2453 9.66717E-05-2.86846E-05-2.91355E-05 1.56421E-06-8.27345E-19 3.69385E-19
 -1      2454 9.69911E-05-2.87437E-05-2.92380E-05 1.78100E-06 8.97739E-21 6.01841E-19
 -1      2455 9.67405E-05-2.84866E-05-2.92558E-05 2.28431E-06 1.21342E-19 4.44912E-19
 -1      2456 9.62477E-05-2.86272E-05-2.89786E-05 1.15475E-06 1.18058E-18 1.70453E-19
 -1      2457 9.64887E-05-2.86683E-05-2.90571E-05 1.32582E-06-5.09872E-19 3.79408E-19
 -1      2458 9.63334E-05-2.84755E-05-2.90856E-05 1.71879E-06-6.57073E-19 1.29827E-18
 -1      2459 9.59287E-05-2.85892E-05-2.88584E-05 8.35184E-07 1.67518E-18 8.95724E-19
 -1      2460 9.61072E-05-2.86170E-05-2.89174E-05 9.67804E-07 1.94414E-18 2.46939E-19
 -1      2461 9.60188E-05-2.84753E-05-2.89504E-05 1.26928E-06 1.30143E-18 1.77642E-18
 -1      2462 9.56932E-05-2.85650E-05-2.87680E-05 5.89870E-07 8.04747E-19 9.32683E-19
 -1      2463 9.58227E-05-2.85831E-05-2.88115E-05 6.91012E-07 1.12361E-18 9.78082E-19
 -1      2464 9.57798E-05-2.84811E-05-2.88449E-05 9.18232E-07 1.23387E-18 5.78500E-19
 -1      2465 9.55230E-05-2.85508E-05-2.87014E-05 4.04557E-07-1.96479E-19 9.62525E-20
 -1      2466 9.56148E-05-2.85619E-05-2.87328E-05 4.80458E-07 8.59763E-19 6.53931E-19
 -1      2467 9.56016E-05-2.84901E-05-2.87642E-05 6.48533E-07 1.28548E-18 3.19737E-19
 -1      2468 9.54033E-05-2.85436E-05-2.86534E-05 2.66850E-07 4.05304E-19-1.27244E-18
 -1      2469 9.54663E-05-2.85497E-05-2.86754E-05 3.22866E-07-3.20212E-19-3.29527E-20
 -1      2470 9.54714E-05-2.85005E-05-2.87036E-05 4.44634E-07 8.90494E-19-5.55612E-19
 -1      2471 9.53217E-05-2.85412E-05-2.86196E-05 1.66303E-07 2.92811E-19-1.41007E-18
 -1      2472 9.53633E-05-2.85438E-05-2.86346E-05 2.06902E-07 5.23769E-19-1.42174E-18
 -1      2473 9.53787E-05-2.85110E-05-2.86590E-05 2.93005E-07 6.54646E-19-1.92471E-18
 -1      2474 9.52685E-05-2.85419E-05-2.85967E-05 9.43180E-08 1.41774E-19-5.14188E-19
 -1      2475 9.52945E-05-2.85422E-05-2.86065E-05 1.23143E-07-3.54715E-19-8.07457E-19
 -1      2476 9.53147E-05-2.85212E-05-2.86268E-05 1.82225E-07-4.38956E-19-1.72229E-18
 -1      2477 9.52361E-05-2.85445E-05-2.85817E-05 4.39737E-08-6.09727E-19 8.82159E-19
 -1      2478 9.52509E-05-2.85434E-05-2.85877E-05 6.39336E-08 5.06184E-19 5.64046E-19
 -1      2479 9.52722E-05-2.85307E-05-2.86043E-05 1.02888E-07 4.65312E-20-1.29101E-18
 -1      2480 9.52186E-05-2.85484E-05-2.85726E-05 9.81998E-09-1.43052E-18 7.81164E-19
 -1      2481 9.52254E-05-2.85464E-05-2.85759E-05 2.31817E-08-1.16671E-18 8.92034E-19
 -1      2482 9.52456E-05-2.85392E-05-2.85890E-05 4.74161E-08-1.01115E-18 7.24375E-19
 -1      2483 9.52113E-05-2.85529E-05-2.85677E-05-1.23150E-08-1.11373E-18 7.11630E-19
 -1      2484 9.52128E-05-2.85504E-05-2.85691E-05-3.83834E-09-1.45786E-18 2.81168E-19
 -1      2485 9.52304E-05-2.85468E-05-2.85791E-05 9.84961E-09-9.55161E-19-3.16296E-19
 -1      2486 9.52109E-05-2.85578E-05-2.85655E-05-2.55056E-08-3.43183E-19 9.71168E-19
 -1      2487 9.52090E-05-2.85549E-05-2.85657E-05-2.06791E-08-7.32838E-19 5.14562E-19
 -1      2488 9.52234E-05-2.85537E-05-2.85730E-05-1.43650E-08-8.14736E-19-9.04475E-19
 -1      2489 9.52148E-05-2.85629E-05-2.85650E-05-3.18658E-08 1.41006E-18 3.01818E-19
 -1      2490 9.52109E-05-2.85599E-05-2.85645E-05-2.98837E-08 5.18531E-19 8.52716E-19
 -1      2491 9.52218E-05-2.85600E-05-2.85695E-05-2.85817E-08 4.80628E-19 9.16342E-19
 -1      2492 9.52210E-05-2.85683E-05-2.85654E-05-3.26951E-08 1.94700E-18 8.70791E-19
 -1      2493 9.52162E-05-2.85652E-05-2.85647E-05-3.31444E-08 1.75447E-18 9.76009E-19
 -1      2494 9.52237E-05-2.85660E-05-2.85677E-05-3.51201E-08 9.68860E-19 1.32659E-18
 -1      2495 9.52282E-05-2.85740E-05-2.85661E-05-2.86305E-08 2.65487E-19 1.06953E-18
 -1      2496 9.52233E-05-2.85707E-05-2.85654E-05-3.12446E-08 1.16736E-18 9.54392E-19
 -1      2497 9.52280E-05-2.85724E-05-2.85668E-05-3.55226E-08 1.16342E-18 2.41137E-18
 -1      2498 9.52311E-05-2.85767E-05-2.85662E-05-2.45123E-08 1.39932E-18 1.71860E-19
 -1      2499 9.52520E-05-2.85981E-05-2.85659E-05-2.13515E-08 2.77968E-18-3.23976E-18
 -1      2500 9.52506E-05-2.85956E-05-2.85663E-05-2.45392E-08 3.02316E-18-6.00817E-18
 -1      2501 9.52534E-05-2.86001E-05-2.85657E-05-1.37880E-08 2.43259E-18 1.39446E-19
 -1      2502 9.52526E-05-2.85985E-05-2.85660E-05-1.74837E-08 2.83760E-18-2.22284E-18
 -1      2503 9.52518E-05-2.85893E-05-2.85696E-05-2.06115E-08 3.59330E-18-2.45947E-18
 -1      2504 9.52446E-05-2.85897E-05-2.85664E-05-3.17521E-08 2.06310E-19 3.52863E-19
 -1      2505 9.52412E-05-2.85856E-05-2.85667E-05-3.22476E-08 8.69792E-19 1.58961E-18
 -1      2506 9.52492E-05-2.85947E-05-2.85662E-05-2.77225E-08 7.18324E-19-6.24366E-18
 -1      2507 9.52469E-05-2.85914E-05-2.85666E-05-2.98463E-08 1.20863E-19-1.89109E-18
 -1      2508 9.52450E-05-2.85851E-05-2.85685E-05-3.31886E-08-5.30480E-19-1.31544E-18
 -1      2509 9.52495E-05-2.85879E-05-2.85692E-05-2.79137E-08 2.87801E-18-4.86269E-18
 -1      2510 9.52539E-05-2.86009E-05-2.85655E-05-5.78334E-09 6.44332E-20 2.18015E-19
 -1      2511 9.52536E-05-2.86001E-05-2.85657E-05-9.66796E-09 5.85243E-19 1.21041E-18
 -1      2512 9.52528E-05-2.85898E-05-2.85699E-05-1.23767E-08 2.30450E-18-7.51834E-19
 -1      2513 9.52538E-05-2.86008E-05-2.85655E-05 2.28983E-09 2.46607E-19 1.32317E-18
 -1      2514 9.52539E-05-2.86009E-05-2.85655E-05-1.61865E-09-1.48574E-19 1.37612E-18
 -1      2515 9.52531E-05-2.85899E-05-2.85699E-05-3.87255E-09 9.32099E-19 7.09431E-19
 -1      2516 9.52534E-05-2.85999E-05-2.85657E-05 1.02506E-08-8.15781E-19-2.91529E-18
 -1      2517 9.52538E-05-2.86007E-05-2.85655E-05 6.42028E-09-9.12444E-20-2.16827E-19
 -1      2518 9.52530E-05-2.85897E-05-2.85699E-05 4.62617E-09-3.60763E-19-1.03319E-19
 -1      2519 9.52523E-05-2.85981E-05-2.85660E-05 1.77562E-08-7.21237E-19-3.12224E-18
 -1      2520 9.52531E-05-2.85997E-05-2.85657E-05 1.42150E-08-9.36052E-19-3.70159E-18
 -1      2521 9.52525E-05-2.85895E-05-2.85699E-05 1.29244E-08-3.95283E-19-3.58429E-18
 -1      2522 9.52502E-05-2.85952E-05-2.85664E-05 2.45938E-08 4.73453E-19 9.81901E-19
 -1      2523 9.52517E-05-2.85977E-05-2.85660E-05 2.15099E-08 2.96332E-19-1.97291E-18
 -1      2524 9.52514E-05-2.85889E-05-2.85697E-05 2.08706E-08 7.74654E-19-1.82880E-18
 -1      2525 9.52466E-05-2.85910E-05-2.85667E-05 2.97286E-08 6.45103E-20 3.84186E-18
 -1      2526 9.52489E-05-2.85942E-05-2.85663E-05 2.76628E-08 5.42888E-20 3.72345E-18
 -1      2527 9.52491E-05-2.85874E-05-2.85693E-05 2.79888E-08 3.64321E-19 1.53409E-18
 -1      2528 9.52410E-05-2.85853E-05-2.85668E-05 3.17829E-08-1.15100E-18-6.72062E-19
 -1      2529 9.52443E-05-2.85892E-05-2.85664E-05 3.15085E-08-2.71469E-19 1.06850E-18
 -1      2530 9.52448E-05-2.85847E-05-2.85686E-05 3.29448E-08 9.65981E-20 1.95307E-18
 -1      2531 2.43749E-05-1.88290E-05-2.05502E-06 1.63854E-05-1.56278E-18 4.00689E-18
 -1      2532 1.83621E-05-1.88513E-05 4.14098E-07 2.70361E-06-1.39342E-18 4.61802E-18
 -1      2533 5.98849E-05-3.76202E-05-9.36080E-06 4.03726E-05-2.42506E-18 5.49047E-18
 -1      2534 4.12934E-05-2.78944E-05-5.34963E-06 3.15707E-05-2.12732E-18 5.07479E-18
 -1      2535 1.90383E-05-1.89414E-05 1.41797E-07-8.72299E-06-5.99593E-19 4.31394E-18
 -1      2536 2.48973E-05-2.05926E-05-1.59513E-06-2.21046E-05-3.81165E-20 4.92634E-18
 -1      2537 2.60543E-05-1.51413E-05-4.06618E-06-3.95358E-06-4.11195E-19 3.83918E-18
 -1      2538 9.87612E-05-2.83897E-05-3.01294E-05-3.93508E-06 1.30435E-18 7.32610E-19
 -1      2539 9.83016E-05-2.80804E-05-3.00496E-05-3.01515E-06 1.57193E-18 9.41510E-19
 -1      2540 9.84424E-05-2.78406E-05-3.02790E-05-4.90449E-06 1.50670E-18-5.33250E-20
 -1      2541 9.52353E-05-2.85812E-05-2.85660E-05 2.78999E-08-6.41501E-19-2.29551E-19
 -1      2542 9.78576E-05-5.33714E-05-1.90515E-05 3.93716E-05-2.03838E-18 2.53054E-18
 -1      2543 8.10819E-05-4.72589E-05-1.42065E-05 3.97862E-05-3.11115E-18 3.61418E-18
 -1      2544 1.31444E-04-5.92723E-05-3.11801E-05 2.29461E-05-5.97370E-19-2.07650E-18
 -1      2545 1.14086E-04-5.82770E-05-2.38885E-05 3.09455E-05-1.60513E-18 2.02229E-19
 -1      2546 1.11987E-04-5.74871E-05-2.31274E-05 3.07565E-05-2.84836E-18-2.75603E-19
 -1      2547 9.67168E-05-2.03748E-05-3.27589E-05-9.26619E-06-3.26674E-18-1.71660E-18
 -1      2548 9.74680E-05-2.37640E-05-3.16108E-05-5.38188E-06-3.04987E-18-1.31626E-18
 -1      2549 9.66974E-05-2.26686E-05-3.17070E-05-4.69271E-06-2.84198E-18-1.89531E-18
 -1      2550 9.44981E-05-1.77148E-05-3.29107E-05-8.73431E-06-3.13711E-18-2.56835E-18
 -1      2551 3.78871E-05-2.88571E-05-3.67066E-06-3.31409E-05 1.02576E-18 5.33821E-18
 -1      2552 5.57344E-05-3.68652E-05-8.10889E-06-4.21356E-05 6.71485E-19 3.48554E-18
 -1      2553 6.83277E-05-3.98983E-05-1.19690E-05 4.26437E-05 1.70423E-18-3.79397E-18
 -1      2554 4.78870E-05-3.14472E-05-6.64880E-06 3.65684E-05 1.44800E-18-5.63870E-18
 -1      2555 1.91584E-05-1.70338E-05-6.73792E-07 2.75653E-06 9.43648E-20-7.95999E-18
 -1      2556 2.14453E-05-1.97824E-05-4.17186E-07-1.25992E-05 5.82335E-20-8.06545E-18
 -1      2557 8.47775E-05-8.24437E-06-3.28344E-05-6.86580E-07 3.60529E-19-4.92433E-18
 -1      2558 8.51136E-05-8.49875E-06-3.28606E-05-1.43575E-06-3.64224E-20-4.98059E-18
 -1      2559 8.63574E-05-1.04041E-05-3.25472E-05-1.38827E-06-1.22254E-19-4.64365E-18
 -1      2560 8.55858E-05-9.70255E-06-3.25167E-05-2.65607E-07 4.37644E-19-4.62354E-18
 -1      2561 1.43179E-04-1.37951E-05-5.59244E-05-5.29911E-06 6.26021E-18-3.38019E-18
 -1      2562 1.42872E-04-1.99409E-05-5.32502E-05-9.22284E-06 5.43859E-18-4.24522E-18
 -1      2563 9.66814E-05-5.39666E-05-1.82575E-05-3.85569E-05 2.63427E-19-4.69966E-18
 -1      2564 1.15002E-04-5.76449E-05-2.48797E-05-3.50239E-05 9.83829E-19-3.87740E-18
 -1      2565 1.46162E-04-1.39935E-05-5.70332E-05 4.38172E-06 6.61236E-18-2.29631E-18
 -1      2566 1.44194E-04-1.18105E-05-5.73604E-05 4.80303E-07 6.70892E-18-2.54788E-18
 -1      2567 1.50886E-04-3.01021E-05-5.19853E-05 6.27893E-06 5.29989E-18-1.36521E-18
 -1      2568 1.48485E-04-2.11753E-05-5.52014E-05 7.57827E-06 5.81403E-18-1.41190E-18
 -1      2569 1.49044E-04-4.65473E-05-4.40970E-05-4.89093E-06 3.66456E-18-1.97867E-18
 -1      2570 1.52999E-04-4.02713E-05-4.88130E-05 2.80278E-07 4.81983E-18-1.25128E-18
 -1      2571 1.31599E-04-5.77935E-05-3.16175E-05-2.16583E-05 1.33418E-18-2.57180E-18
 -1      2572 1.44594E-04-5.41709E-05-3.89927E-05-1.43520E-05 2.24760E-18-2.42040E-18
 -1      2573 5.87103E-05-3.98752E-05-7.96345E-06-3.95130E-05-9.64347E-19-5.93611E-18
 -1      2574 7.74006E-05-4.65959E-05-1.32294E-05-4.32351E-05-1.45901E-19-6.04337E-18
 -1      2575 2.84361E-05-2.51668E-05-1.25797E-06-2.43217E-05-8.95526E-19-7.07336E-18
 -1      2576 4.06576E-05-3.12500E-05-3.97295E-06-3.48440E-05-5.51418E-19-6.29155E-18
 -1      2577 3.59917E-05-2.48857E-05-4.40135E-06 3.12641E-05 9.05055E-19-7.23408E-18
 -1      2578 2.70317E-05-2.00295E-05-2.52111E-06 1.99092E-05 1.22333E-18-7.59979E-18
 -1      2579 5.12864E-05-2.74878E-05-9.62796E-06 3.37939E-05 2.34755E-18-5.49608E-18
 -1      2580 1.45993E-04-1.90413E-05-5.49882E-05-5.35114E-06-6.37541E-18-5.23890E-19
 -1      2581 1.47179E-04-2.63157E-05-5.20724E-05-4.47741E-06-6.04887E-18-5.71324E-19
 -1      2582 1.38647E-04-5.44956E-05-3.64789E-05 1.66479E-05-3.17341E-18-9.44442E-20
 -1      2583 1.29216E-04-5.69795E-05-3.08854E-05 2.27303E-05-2.05384E-18-8.95314E-19
 -1      2584 1.48976E-04-3.73229E-05-4.82434E-05 5.50015E-07-5.51186E-18-1.25361E-19
 -1      2585 1.43300E-04-4.60551E-05-4.18558E-05 5.64153E-06-4.26987E-18 2.48181E-19
 -1      2586 1.41473E-04-3.26229E-05-4.67829E-05-7.58060E-06-4.76604E-18 4.76244E-19
 -1      2587 1.44459E-04-1.03864E-05-5.78951E-05 1.62437E-07-7.12355E-18-2.03071E-18
 -1      2588 1.43602E-04-1.16936E-05-5.69645E-05-2.87132E-06-6.85631E-18-1.53461E-18
 -1      2589 1.45399E-04-1.70216E-05-5.54158E-05 5.33483E-06-5.19866E-18-3.65622E-18
 -1      2590 1.46581E-04-1.28185E-05-5.77675E-05 3.39760E-06-6.53782E-18-2.87250E-18
 -1      2591 1.46313E-04-3.55587E-05-4.77363E-05 2.30569E-06-2.61892E-18-4.03039E-18
 -1      2592 1.46421E-04-2.75392E-05-5.15701E-05 5.57391E-06-3.55606E-18-4.55047E-18
 -1      2593 1.37639E-04-5.19978E-05-3.67305E-05-1.36207E-05 4.52051E-19-8.58256E-19
 -1      2594 1.46133E-04-4.54954E-05-4.35404E-05-6.17810E-06-1.25398E-18-2.82655E-18
 -1      2595 1.41748E-04-4.20658E-05-4.27571E-05 4.22660E-06-1.02089E-18-5.06822E-18
 -1      2596 1.12046E-04-5.55680E-05-2.41373E-05-3.37569E-05 3.18484E-19 7.01132E-19
 -1      2597 1.26599E-04-5.63949E-05-3.04741E-05-2.76521E-05 9.76205E-19 1.13037E-18
 -1      2598 7.71713E-05-4.63639E-05-1.30331E-05-4.22771E-05 2.07947E-19 1.20697E-18
 -1      2599 9.53220E-05-5.15870E-05-1.88671E-05-4.19827E-05-3.04508E-19 6.49171E-19
 -1      2600 1.47847E-04-5.05699E-05-4.21042E-05 4.40829E-06 2.17670E-18-3.52069E-18
 -1      2601 1.41480E-04-5.53898E-05-3.69797E-05 1.00203E-05 8.92455E-19-3.04106E-18
 -1      2602 9.88255E-05-2.56773E-05-3.13602E-05 5.16669E-06 3.39568E-18 2.26037E-18
 -1      2603 9.95716E-05-2.43320E-05-3.22619E-05 8.38979E-06 3.63213E-18 2.71043E-18
 -1      2604 9.78562E-05-2.17771E-05-3.26603E-05 9.37472E-06 3.90648E-18 1.47798E-18
 -1      2605 9.80754E-05-2.44904E-05-3.15713E-05 4.72746E-06 3.52228E-18 8.64429E-19
 -1      2606 1.30199E-04-2.06709E-05-4.75659E-05-1.37683E-05 5.03138E-18-3.80461E-18
 -1      2607 1.41562E-04-2.64428E-05-4.97974E-05-1.25365E-05 5.06293E-18-4.34538E-18
 -1      2608 1.37337E-04-3.16328E-05-4.54804E-05-1.47171E-05 4.42194E-18-4.14030E-18
 -1      2609 8.97781E-05-1.36488E-05-3.26202E-05-4.09367E-06-1.58446E-18-4.31426E-18
 -1      2610 8.91213E-05-1.22112E-05-3.30233E-05-5.39698E-06-1.76084E-18-4.54953E-18
 -1      2611 9.03299E-05-1.33238E-05-3.30632E-05-6.48812E-06-2.26752E-18-4.25964E-18
 -1      2612 9.80201E-05-2.71693E-05-3.03845E-05-2.45717E-06 2.03138E-18 1.35059E-19
 -1      2613 9.58564E-05-1.93189E-05-3.28474E-05 8.90344E-06 3.85386E-18-4.32516E-20
 -1      2614 1.45448E-04-4.71072E-05-4.22396E-05-5.93368E-06 2.46968E-18-4.56551E-18
 -1      2615 7.24564E-05-4.18517E-05-1.27150E-05-4.15751E-05 1.48337E-18 2.16735E-18
 -1      2616 3.86376E-05-2.32177E-05-6.06124E-06-2.81410E-05 1.46410E-18 4.58626E-18
 -1      2617 1.34235E-04-5.65726E-05-3.31847E-05-1.54886E-05 1.26515E-18-1.40015E-18
 -1      2618 7.66115E-05-4.20079E-05-1.44139E-05 3.85862E-05-3.10311E-18 3.41947E-18
 -1      2619 1.38603E-04-2.21325E-05-5.02152E-05 9.76978E-06-3.62530E-18-4.73100E-18
 -1      2620 9.52333E-05-2.85786E-05-2.85663E-05-2.99368E-08 1.42007E-18 1.51758E-18
 -1      2621 9.52363E-05-2.85817E-05-2.85662E-05-3.16051E-08 1.48165E-18 2.52569E-18
 -1      2622 9.60637E-05-2.05329E-05-3.23285E-05 6.68443E-06 3.64480E-18-3.85519E-19
 -1      2623 3.66208E-05-2.20759E-05-5.68195E-06 2.50527E-05-1.75844E-18 4.28874E-18
 -1      2624 3.38338E-05-1.61923E-05-7.10002E-06 1.68304E-05-1.88190E-18 3.99927E-18
 -1      2625 5.02104E-05-2.52324E-05-1.02493E-05 2.99427E-05-2.86117E-18 4.13606E-18
 -1      2626 1.40825E-04-5.15890E-05-3.82668E-05 5.09220E-06-2.63065E-18 1.20872E-18
 -1      2627 1.36657E-04-5.95290E-05-3.29754E-05 1.20640E-05-8.51903E-19-3.15361E-18
 -1      2628 9.29270E-05-1.61416E-05-3.29397E-05-7.70257E-06-2.80202E-18-3.35652E-18
 -1      2629 8.36266E-05-4.63819E-05-1.55319E-05 4.18914E-05 1.92319E-18-3.47829E-18
 -1      2630 7.55086E-05-3.94218E-05-1.49649E-05 3.97782E-05 2.44242E-18-3.19130E-18
 -1      2631 9.74063E-05-5.12732E-05-1.97794E-05 3.69129E-05 2.48901E-18-2.35764E-18
 -1      2632 1.35765E-04-1.43914E-05-5.22877E-05-6.87228E-06-6.00885E-18-8.34433E-19
 -1      2633 3.19184E-05-1.97193E-05-4.68262E-06-1.90722E-05-8.85785E-19-7.10957E-18
 -1      2634 5.74781E-05-3.47846E-05-9.29523E-06-3.77587E-05-1.53376E-18-5.84474E-18
 -1      2635 1.27785E-04-6.05053E-05-2.86627E-05-2.37704E-05-3.65706E-19-1.80556E-18
 -1      2636 1.45417E-04-5.30727E-05-3.95152E-05-2.71355E-06 1.49016E-18-3.26108E-19
 -1      2637 1.45819E-04-3.53835E-05-4.73432E-05 9.56130E-06 4.00572E-18 1.76395E-19
 -1      2638 1.38321E-04-1.79525E-05-5.18709E-05 8.81930E-06 5.48920E-18-9.21995E-19
 -1      2639 3.03780E-05-1.64733E-05-5.34237E-06 1.16098E-05 1.11522E-18-7.56316E-18
 -1      2640 9.36729E-05-5.17780E-05-1.75703E-05-3.91548E-05-1.53800E-18-4.46217E-18
 -1      2641 1.33733E-04-1.27619E-05-5.22244E-05-3.43964E-06 5.72531E-18-2.70407E-18
 -1      2642 1.23729E-04-5.92719E-05-2.75052E-05 2.68592E-05 3.48342E-20-7.69424E-19
 -1      2643 9.52316E-05-2.85762E-05-2.85667E-05 3.05672E-08-5.64555E-19 5.60067E-19
 -1      2644 9.52377E-05-2.85824E-05-2.85666E-05 3.25377E-08-4.25531E-19-4.31472E-19
 -1      2645 9.52379E-05-2.85796E-05-2.85678E-05 3.49848E-08-9.80998E-19 4.60008E-19
 -1      2646 9.52285E-05-2.85734E-05-2.85664E-05 3.33235E-08-6.50659E-19 6.44748E-19
 -1      2647 1.34744E-04-9.63263E-06-5.38871E-05 2.60356E-06-5.94427E-18-2.69243E-18
 -1      2648 1.08705E-04-5.58968E-05-2.23525E-05-3.52445E-05 1.31396E-18-2.75286E-20
 -1      2649 9.52365E-05-2.85794E-05-2.85673E-05-3.49257E-08 9.77590E-19 2.50560E-18
 -1      2650 9.52328E-05-2.85745E-05-2.85679E-05 3.59566E-08-1.10855E-19 1.61388E-19
 -1      2651 8.69822E-05-1.18246E-05-3.22292E-05 1.61488E-06 1.72415E-18-3.99350E-18
 -1      2652 8.64847E-05-1.13864E-05-3.22079E-05 1.14432E-06 1.35693E-18-4.18135E-18
 -1      2653 8.61567E-05-1.10783E-05-3.21965E-05 8.93984E-07 1.14355E-18-4.36759E-18
 -1      2654 8.60261E-05-1.09633E-05-3.21881E-05 4.33556E-07 8.40612E-19-4.37516E-18
 -1      2655 8.70008E-05-1.25711E-05-3.18779E-05 7.68850E-07 1.14927E-18-4.00664E-18
 -1      2656 9.08308E-05-1.55927E-05-3.22723E-05 3.32971E-06 2.84055E-18-2.84421E-18
 -1      2657 8.96347E-05-1.44161E-05-3.22691E-05 2.74774E-06 2.52472E-18-3.19403E-18
 -1      2658 9.37027E-05-1.87340E-05-3.21587E-05 4.16824E-06 3.25288E-18-1.86041E-18
 -1      2659 9.22046E-05-1.70737E-05-3.22265E-05 3.66430E-06 2.96143E-18-2.32286E-18
 -1      2660 9.22915E-05-1.78729E-05-3.18675E-05 2.20182E-06 2.71365E-18-2.38600E-18
 -1      2661 9.72353E-05-2.51419E-05-3.08970E-05 1.85481E-10 2.59383E-18-4.39541E-19
 -1      2662 9.72808E-05-2.43368E-05-3.12289E-05 1.99872E-06 2.93495E-18-3.46212E-19
 -1      2663 9.74750E-05-2.63176E-05-3.04877E-05-3.11294E-06 1.89616E-18-5.82440E-19
 -1      2664 9.73630E-05-2.58198E-05-3.06265E-05-1.64392E-06 2.24069E-18-4.33255E-19
 -1      2665 9.64457E-05-2.41781E-05-3.09775E-05-6.70182E-07 2.49175E-18-1.05452E-18
 -1      2666 6.64817E-05-3.59482E-05-1.25562E-05-3.91772E-05 2.44062E-18 2.16840E-18
 -1      2667 8.52825E-05-4.61020E-05-1.68097E-05-4.10204E-05 2.15676E-18 5.33948E-19
 -1      2668 8.72594E-05-4.42747E-05-1.82416E-05 3.57151E-05-2.70405E-18 2.72903E-18
 -1      2669 6.92711E-05-3.48274E-05-1.42736E-05 3.53075E-05-2.58409E-18 3.62276E-18
 -1      2670 9.70313E-05-2.56327E-05-3.05719E-05 1.38691E-06-1.67099E-18-1.77773E-18
 -1      2671 9.71832E-05-2.62989E-05-3.03822E-05 2.67799E-06-1.48830E-18-1.78619E-18
 -1      2672 9.74100E-05-2.68979E-05-3.01948E-05 3.78845E-06-1.43173E-18-1.57436E-18
 -1      2673 9.76984E-05-2.74512E-05-3.01059E-05 4.68524E-06-1.26568E-18-1.56872E-18
 -1      2674 9.65893E-05-2.57188E-05-3.03844E-05 3.27677E-06-1.43767E-18-1.79014E-18
 -1      2675 9.80038E-05-2.79843E-05-2.99871E-05 5.50083E-06-1.04078E-18-1.41791E-18
 -1      2676 9.84773E-05-2.85683E-05-2.99609E-05 6.06587E-06-7.66404E-19-1.38252E-18
 -1      2677 9.71248E-05-2.70480E-05-3.00488E-05 5.30903E-06-1.11812E-18-1.43012E-18
 -1      2678 9.89697E-05-2.91827E-05-2.98870E-05 6.59537E-06-6.66310E-19-1.37787E-18
 -1      2679 9.96521E-05-2.98982E-05-2.98975E-05 6.82679E-06-5.21026E-19-1.45595E-18
 -1      2680 9.79259E-05-2.83874E-05-2.98225E-05 6.75615E-06-7.86946E-19-1.39944E-18
 -1      2681 1.00429E-04-3.07045E-05-2.98554E-05 7.03193E-06-4.08124E-19-1.33569E-18
 -1      2682 1.01333E-04-3.16173E-05-2.98880E-05 6.87367E-06-3.46696E-19-1.31527E-18
 -1      2683 9.91918E-05-3.00216E-05-2.96708E-05 7.60058E-06-4.99369E-19-1.26669E-18
 -1      2684 1.02484E-04-3.26847E-05-2.98795E-05 6.65876E-06-2.86027E-19-1.04910E-18
 -1      2685 1.03594E-04-3.37985E-05-2.99336E-05 6.01711E-06-2.09126E-19-9.07366E-19
 -1      2686 1.01112E-04-3.21605E-05-2.95851E-05 7.72156E-06-1.28025E-19-1.09050E-18
 -1      2687 1.05169E-04-3.51093E-05-2.99825E-05 5.23026E-06-1.66097E-19-5.50306E-19
 -1      2688 1.06395E-04-3.62989E-05-3.00768E-05 4.00972E-06 5.96877E-20-4.14669E-19
 -1      2689 1.03836E-04-3.48782E-05-2.95960E-05 6.87976E-06 2.49126E-20-4.77063E-19
 -1      2690 1.08311E-04-3.76547E-05-3.02356E-05 2.48079E-06 3.31561E-20-1.44956E-19
 -1      2691 1.09425E-04-3.85751E-05-3.04104E-05 6.67159E-07-1.35175E-19 1.34766E-20
 -1      2692 1.07353E-04-3.79473E-05-2.97885E-05 4.73689E-06 1.69509E-19 8.89906E-20
 -1      2693 1.11330E-04-3.94898E-05-3.07588E-05-1.65137E-06-4.03286E-19 3.08871E-19
 -1      2694 1.11950E-04-3.95532E-05-3.10688E-05-3.83824E-06-6.88060E-19 4.87870E-19
 -1      2695 1.11255E-04-4.05836E-05-3.03109E-05 9.94723E-07-4.62270E-20 7.88402E-20
 -1      2696 1.13162E-04-3.92702E-05-3.16906E-05-6.60252E-06-8.84559E-19 7.28298E-19
 -1      2697 1.12842E-04-3.78323E-05-3.21721E-05-8.51859E-06-6.47887E-19 3.94587E-19
 -1      2698 1.14508E-04-4.13180E-05-3.13544E-05-4.17880E-06-6.60286E-19 6.50080E-19
 -1      2699 1.12563E-04-3.56091E-05-3.30783E-05-1.07470E-05-5.30226E-19 4.05388E-19
 -1      2700 1.11185E-04-3.25053E-05-3.36763E-05-1.12754E-05-9.95952E-19 5.81757E-19
 -1      2701 1.15631E-04-3.84875E-05-3.30437E-05-9.58037E-06-6.33094E-19 1.35463E-18
 -1      2702 1.09406E-04-2.90088E-05-3.46402E-05-1.09611E-05-1.41636E-18 6.74394E-19
 -1      2703 1.07812E-04-2.55787E-05-3.51853E-05-9.40267E-06-1.61840E-18 5.89240E-19
 -1      2704 1.13206E-04-3.09362E-05-3.52501E-05-1.22153E-05-1.19183E-18 1.21380E-18
 -1      2705 1.05819E-04-2.23914E-05-3.58857E-05-6.08656E-06-1.95121E-18 3.36816E-19
 -1      2706 1.05053E-04-2.07931E-05-3.61287E-05-2.43488E-06-1.90408E-18-1.17521E-19
 -1      2707 1.09531E-04-2.31169E-05-3.70845E-05-8.84688E-06-1.89766E-18 1.09991E-18
 -1      2708 1.04974E-04-2.06599E-05-3.61634E-05 2.48448E-06-2.14016E-18-4.93273E-19
 -1      2709 1.05719E-04-2.20710E-05-3.59695E-05 6.22302E-06-1.89577E-18-1.22186E-18
 -1      2710 1.07276E-04-1.90879E-05-3.79428E-05-1.08386E-08-2.35933E-18-9.11553E-22
 -1      2711 1.07532E-04-2.49891E-05-3.53249E-05 9.73286E-06-1.50610E-18-1.64970E-18
 -1      2712 1.09213E-04-2.83501E-05-3.48108E-05 1.16157E-05-1.31267E-18-1.74494E-18
 -1      2713 1.09182E-04-2.25338E-05-3.72260E-05 8.94964E-06-1.93841E-18-7.40763E-19
 -1      2714 1.11117E-04-3.20460E-05-3.38452E-05 1.20522E-05-9.86800E-19-2.21029E-18
 -1      2715 1.12542E-04-3.51859E-05-3.32605E-05 1.16196E-05-5.44305E-19-2.16076E-18
 -1      2716 1.13138E-04-3.06074E-05-3.53557E-05 1.27875E-05-1.40147E-18-1.17032E-18
 -1      2717 1.12943E-04-3.74472E-05-3.23653E-05 9.64919E-06-2.63675E-19-1.95892E-18
 -1      2718 1.13358E-04-3.90235E-05-3.18917E-05 7.82384E-06 1.09924E-19-1.93164E-18
 -1      2719 1.15526E-04-3.79009E-05-3.32407E-05 1.06168E-05-4.37691E-19-2.01141E-18
 -1      2720 1.12260E-04-3.94259E-05-3.12546E-05 5.11679E-06 5.38908E-19-1.76438E-18
 -1      2721 1.11732E-04-3.94679E-05-3.09463E-05 2.96222E-06 1.10651E-18-1.25871E-18
 -1      2722 1.14684E-04-4.10525E-05-3.15344E-05 5.53403E-06 4.40349E-19-1.87797E-18
 -1      2723 1.09856E-04-3.86061E-05-3.05824E-05 6.46881E-07 8.37904E-19-1.55745E-18
 -1      2724 1.08802E-04-3.77472E-05-3.04097E-05-1.16468E-06 1.00242E-18-1.94943E-18
 -1      2725 1.11534E-04-4.05259E-05-3.04491E-05 3.40580E-07 7.86193E-19-1.53421E-18
 -1      2726 1.06880E-04-3.64203E-05-3.02332E-05-2.71250E-06 1.39062E-18-2.31003E-18
 -1      2727 1.05692E-04-3.52771E-05-3.01366E-05-3.95639E-06 1.05381E-18-2.36538E-18
 -1      2728 1.07641E-04-3.79879E-05-2.98867E-05-3.42227E-06 9.08147E-19-2.79400E-18
 -1      2729 1.04078E-04-3.39867E-05-3.00618E-05-4.78874E-06 5.83162E-19-2.59196E-18
 -1      2730 1.02984E-04-3.29221E-05-2.99951E-05-5.48451E-06 6.37443E-19-2.65278E-18
 -1      2731 1.04073E-04-3.49922E-05-2.96425E-05-5.64988E-06 5.32737E-19-2.50201E-18
 -1      2732 1.01781E-04-3.18944E-05-2.99620E-05-5.78476E-06 3.17228E-19-2.97245E-18
 -1      2733 1.00867E-04-3.10554E-05-2.98983E-05-6.05117E-06 4.00969E-19-3.31123E-18
 -1      2734 1.01260E-04-3.23642E-05-2.95555E-05-6.63899E-06 1.98758E-19-2.72075E-18
 -1      2735 1.00030E-04-3.03322E-05-2.98732E-05-6.00512E-06 8.44575E-19-3.55175E-18
 -1      2736 9.93028E-05-2.97364E-05-2.98017E-05-5.97537E-06 5.90705E-19-3.41923E-18
 -1      2737 9.92360E-05-3.03967E-05-2.95227E-05-6.78589E-06 6.05071E-19-2.49739E-18
 -1      2738 9.87449E-05-2.92764E-05-2.97700E-05-5.72594E-06 5.01829E-19-3.13452E-18
 -1      2739 9.81772E-05-2.88859E-05-2.96900E-05-5.51441E-06-4.24106E-20-2.64526E-18
 -1      2740 9.78583E-05-2.90768E-05-2.94909E-05-6.41629E-06 7.55886E-19-3.28677E-18
 -1      2741 9.78148E-05-2.86233E-05-2.96483E-05-5.16176E-06 2.57977E-20-2.05559E-18
 -1      2742 9.73736E-05-2.83864E-05-2.95636E-05-4.85511E-06 1.53685E-19-1.33245E-18
 -1      2743 9.69519E-05-2.82777E-05-2.94401E-05-5.76366E-06 4.22950E-19-2.12239E-18
 -1      2744 9.71406E-05-2.82590E-05-2.95141E-05-4.46566E-06-1.36788E-19-9.16765E-19
 -1      2745 9.67972E-05-2.81285E-05-2.94294E-05-4.12420E-06 2.58168E-19-2.45891E-20
 -1      2746 9.63666E-05-2.78533E-05-2.93681E-05-4.98589E-06 2.86992E-19-9.23796E-19
 -1      2747 9.66473E-05-2.80868E-05-2.93759E-05-3.73976E-06 3.21782E-19 3.74901E-20
 -1      2748 9.63796E-05-2.80257E-05-2.92957E-05-3.40234E-06 6.33534E-19 4.70836E-19
 -1      2749 9.59909E-05-2.76775E-05-2.92807E-05-4.18523E-06 4.88768E-19 1.81855E-20
 -1      2750 9.62820E-05-2.80343E-05-2.92420E-05-3.04734E-06 3.65508E-19-2.06426E-19
 -1      2751 9.60733E-05-2.80159E-05-2.91692E-05-2.73668E-06 4.79616E-19-1.43366E-19
 -1      2752 9.57488E-05-2.76549E-05-2.91856E-05-3.42439E-06 2.85175E-19-1.22390E-19
 -1      2753 9.60085E-05-2.80509E-05-2.91182E-05-2.42358E-06 2.24253E-19 1.49186E-19
 -1      2754 9.58465E-05-2.80572E-05-2.90544E-05-2.15106E-06-2.74848E-19-4.18625E-20
 -1      2755 9.55907E-05-2.77182E-05-2.90901E-05-2.73840E-06 5.15167E-19-3.79262E-20
 -1      2756 9.58023E-05-2.81034E-05-2.90081E-05-1.88436E-06-3.27399E-19 5.36101E-21
 -1      2757 9.56774E-05-2.81224E-05-2.89538E-05-1.65382E-06-3.42759E-20-3.07993E-19
 -1      2758 9.54854E-05-2.78233E-05-2.89996E-05-2.14329E-06-3.52690E-19-3.24726E-19
 -1      2759 9.56465E-05-2.81708E-05-2.89133E-05-1.43295E-06-1.03153E-18 1.32737E-19
 -1      2760 9.55512E-05-2.81952E-05-2.88683E-05-1.24354E-06-1.70922E-18 2.20600E-19
 -1      2761 9.54137E-05-2.79425E-05-2.89175E-05-1.64255E-06-6.91221E-19-2.88737E-19
 -1      2762 9.55291E-05-2.82406E-05-2.88338E-05-1.06502E-06-1.05459E-18 7.69858E-19
 -1      2763 9.54573E-05-2.82660E-05-2.87975E-05-9.13236E-07-3.93570E-19 1.41254E-18
 -1      2764 9.53636E-05-2.80597E-05-2.88456E-05-1.23192E-06-9.57290E-19 7.21556E-19
 -1      2765 9.54412E-05-2.83060E-05-2.87689E-05-7.72048E-07-3.67645E-19 7.94218E-19
 -1      2766 9.53880E-05-2.83299E-05-2.87401E-05-6.53103E-07-1.25680E-19 7.62385E-19
 -1      2767 9.53279E-05-2.81661E-05-2.87846E-05-9.02723E-07-7.57330E-19 2.37837E-19
 -1      2768 9.53761E-05-2.83637E-05-2.87169E-05-5.43696E-07-5.94828E-21 4.16806E-19
 -1      2769 9.53375E-05-2.83849E-05-2.86947E-05-4.52429E-07 1.50611E-19-4.87010E-19
 -1      2770 9.53021E-05-2.82580E-05-2.87340E-05-6.44238E-07-5.29354E-19 7.96587E-20
 -1      2771 9.53286E-05-2.84125E-05-2.86763E-05-3.69321E-07 4.13751E-19-7.92628E-19
 -1      2772 9.53012E-05-2.84305E-05-2.86594E-05-3.00730E-07 4.54810E-19-5.62343E-19
 -1      2773 9.52833E-05-2.83344E-05-2.86931E-05-4.45274E-07 2.23009E-19-1.74492E-19
 -1      2774 9.52947E-05-2.84524E-05-2.86451E-05-2.38865E-07 2.97840E-19 3.97689E-20
 -1      2775 9.52758E-05-2.84674E-05-2.86326E-05-1.88412E-07 4.61520E-19 6.10701E-19
 -1      2776 9.52695E-05-2.83962E-05-2.86606E-05-2.95120E-07 6.57173E-19-7.13773E-19
 -1      2777 9.52710E-05-2.84844E-05-2.86217E-05-1.43349E-07 1.15662E-18 2.14899E-19
 -1      2778 9.52586E-05-2.84965E-05-2.86126E-05-1.07110E-07 9.39111E-19 1.82110E-18
 -1      2779 9.52595E-05-2.84449E-05-2.86353E-05-1.84108E-07 7.63806E-19-7.03457E-19
 -1      2780 9.52551E-05-2.85094E-05-2.86044E-05-7.50974E-08-4.65848E-19 2.36486E-18
 -1      2781 9.52474E-05-2.85191E-05-2.85980E-05-4.98092E-08-9.53966E-19 2.03143E-18
 -1      2782 9.52522E-05-2.84825E-05-2.86159E-05-1.03870E-07 3.13334E-19-5.83259E-19
 -1      2783 9.52449E-05-2.85289E-05-2.85920E-05-2.77861E-08-8.59331E-20 3.23677E-18
 -1      2784 9.52406E-05-2.85366E-05-2.85876E-05-1.08323E-08 1.54912E-18 3.76844E-18
 -1      2785 9.52471E-05-2.85112E-05-2.86014E-05-4.74419E-08 2.43156E-19 1.55553E-18
 -1      2786 9.52390E-05-2.85439E-05-2.85831E-05 3.62203E-09 1.19697E-18 2.84806E-18
 -1      2787 9.52371E-05-2.85502E-05-2.85802E-05 1.42606E-08 7.35808E-19 2.78687E-18
 -1      2788 9.52436E-05-2.85329E-05-2.85905E-05-9.20282E-09 1.07909E-18 3.91499E-18
 -1      2789 9.52361E-05-2.85559E-05-2.85769E-05 2.29951E-08-4.26569E-20 2.78555E-18
 -1      2790 9.52359E-05-2.85612E-05-2.85750E-05 2.88090E-08-2.96048E-19 2.25492E-18
 -1      2791 9.52415E-05-2.85494E-05-2.85825E-05 1.52274E-08-8.18100E-21 3.01847E-18
 -1      2792 9.52356E-05-2.85660E-05-2.85725E-05 3.30875E-08-4.44747E-19 1.70226E-18
 -1      2793 9.52365E-05-2.85706E-05-2.85711E-05 3.50104E-08-4.25781E-19 9.38825E-19
 -1      2794 9.52406E-05-2.85626E-05-2.85764E-05 2.91643E-08-6.80179E-19 1.86231E-18
 -1      2795 9.95579E-05-2.85334E-05-3.04268E-05-9.22042E-06 7.42714E-19-7.11701E-19
 -1      2796 9.87799E-05-2.80177E-05-3.03150E-05-8.52765E-06 1.01205E-18-6.49918E-19
 -1      2797 1.27844E-04-1.09779E-05-5.06503E-05 6.60077E-06-4.84884E-18-3.40857E-18
 -1      2798 1.25664E-04-8.55331E-06-5.07872E-05 6.87598E-07-5.57475E-18-2.27712E-18
 -1      2799 9.85133E-05-2.77069E-05-3.03318E-05-7.59873E-06 1.15555E-18-7.49168E-19
 -1      2800 9.79778E-05-2.73244E-05-3.02650E-05-6.69146E-06 1.26611E-18-5.76980E-19
 -1      2801 9.72756E-05-2.69487E-05-3.01541E-05-8.48844E-06 1.02398E-18-1.11538E-18
 -1      2802 1.03459E-04-3.18855E-05-3.06782E-05-1.08287E-05-4.06788E-19-1.52649E-19
 -1      2803 1.02039E-04-3.06872E-05-3.05548E-05-1.08552E-05-1.44929E-19-3.16145E-19
 -1      2804 1.06858E-04-3.50454E-05-3.08002E-05-1.01360E-05-5.48058E-19-3.12520E-19
 -1      2805 1.05010E-04-3.33191E-05-3.06799E-05-1.08481E-05-4.65563E-19-1.90090E-19
 -1      2806 1.01861E-04-3.21048E-05-2.99489E-05-1.22766E-05-4.35626E-19-9.52393E-19
 -1      2807 1.11565E-04-3.93131E-05-3.10171E-05-7.65245E-06-4.69944E-19-1.67825E-19
 -1      2808 1.09324E-04-3.71592E-05-3.08547E-05-9.35033E-06-4.58428E-19-2.97586E-20
 -1      2809 1.05817E-04-3.61732E-05-2.99318E-05-1.18107E-05-5.33905E-19-5.88647E-19
 -1      2810 1.17329E-04-4.38287E-05-3.15805E-05-2.67658E-06-8.39532E-19 6.03866E-19
 -1      2811 1.15050E-04-4.18887E-05-3.12613E-05-5.56225E-06-7.21705E-19 4.96159E-19
 -1      2812 1.11749E-04-4.16100E-05-3.01706E-05-9.37517E-06-7.29557E-19-2.78065E-19
 -1      2813 1.22782E-04-4.61196E-05-3.29454E-05 4.91716E-06-3.85873E-19 1.43729E-18
 -1      2814 1.21358E-04-4.59192E-05-3.22720E-05 1.11904E-06-5.93234E-19 1.38795E-18
 -1      2815 1.19384E-04-4.70350E-05-3.10973E-05-3.98973E-06-1.07962E-18 9.38049E-19
 -1      2816 1.25015E-04-4.22621E-05-3.55424E-05 1.28209E-05-2.54626E-19 2.04443E-18
 -1      2817 1.25556E-04-4.55290E-05-3.44111E-05 9.77135E-06-4.14887E-19 1.95101E-18
 -1      2818 1.26633E-04-4.88730E-05-3.33681E-05 4.80615E-06-7.15268E-19 2.27338E-18
 -1      2819 1.22084E-04-3.09809E-05-3.91553E-05 1.53916E-05 8.05740E-19 1.71885E-18
 -1      2820 1.24754E-04-3.74133E-05-3.77700E-05 1.58644E-05 3.50248E-19 1.85879E-18
 -1      2821 1.29638E-04-4.22240E-05-3.75740E-05 1.38451E-05 2.80236E-19 2.78049E-18
 -1      2822 1.16718E-04-1.95184E-05-4.20823E-05-7.57434E-06 3.92923E-18-1.64019E-18
 -1      2823 1.15904E-04-1.78188E-05-4.24069E-05-9.93047E-07 3.51688E-18-1.10589E-18
 -1      2824 1.23603E-04-3.03174E-05-4.05236E-05-1.63503E-05 3.17441E-18-3.11234E-18
 -1      2825 1.20870E-04-2.39787E-05-4.17749E-05-1.34410E-05 3.79720E-18-2.85275E-18
 -1      2826 1.24243E-04-4.65919E-05-3.32508E-05-5.91497E-06-1.46517E-19-2.98876E-18
 -1      2827 1.24840E-04-4.55710E-05-3.40157E-05-9.48408E-06 3.08624E-19-2.78322E-18
 -1      2828 1.18484E-04-4.40430E-05-3.18035E-05 1.85427E-06-9.72360E-19-2.26039E-18
 -1      2829 1.20472E-04-4.54411E-05-3.22415E-05-1.47380E-06-5.80621E-19-2.39655E-18
 -1      2830 1.23143E-04-4.86717E-05-3.20574E-05-7.22428E-07-6.77360E-19-2.59242E-18
 -1      2831 1.12387E-04-3.93824E-05-3.11990E-05 6.91720E-06-7.46029E-19-1.51587E-18
 -1      2832 1.14656E-04-4.15542E-05-3.13965E-05 4.70330E-06-7.72415E-19-1.63340E-18
 -1      2833 1.15440E-04-4.43027E-05-3.05958E-05 6.27566E-06-1.15043E-18-1.30424E-18
 -1      2834 1.07456E-04-3.50591E-05-3.09698E-05 9.32138E-06-8.88428E-19-5.43368E-19
 -1      2835 1.09442E-04-3.69924E-05-3.10851E-05 8.20918E-06-3.77800E-19-6.88214E-19
 -1      2836 1.08607E-04-3.85461E-05-3.01184E-05 9.93095E-06-8.44232E-19-1.10097E-18
 -1      2837 1.03957E-04-3.19354E-05-3.08358E-05 9.91917E-06-1.20052E-18-1.45361E-18
 -1      2838 1.05514E-04-3.33283E-05-3.09494E-05 9.61060E-06-9.90944E-19-4.30034E-19
 -1      2839 1.03776E-04-3.38123E-05-3.00487E-05 1.11470E-05-9.68045E-19-4.89956E-19
 -1      2840 1.01593E-04-2.99730E-05-3.06807E-05 9.45988E-06-6.59094E-19-1.77134E-18
 -1      2841 1.02774E-04-3.08635E-05-3.08171E-05 9.64952E-06-9.73081E-19-1.57669E-18
 -1      2842 1.00713E-04-3.06243E-05-3.00745E-05 1.09515E-05-8.95744E-19-8.02574E-19
 -1      2843 9.99923E-05-2.88655E-05-3.04794E-05 8.46440E-06-6.79081E-19-1.04494E-18
 -1      2844 1.00896E-04-2.93902E-05-3.06354E-05 8.91803E-06-2.46269E-19-1.26215E-18
 -1      2845 9.88761E-05-2.87594E-05-3.00683E-05 1.00210E-05-8.07315E-19-1.06264E-18
 -1      2846 9.88706E-05-2.83055E-05-3.02435E-05 7.25887E-06 6.38840E-20-3.76853E-19
 -1      2847 9.95760E-05-2.85946E-05-3.04070E-05 7.81984E-06-2.92315E-19-8.95680E-19
 -1      2848 9.77867E-05-2.78089E-05-2.99989E-05 8.76721E-06-8.24082E-19-7.98983E-19
 -1      2849 9.80460E-05-2.80659E-05-2.99948E-05 6.03451E-06-4.21575E-19 2.43047E-19
 -1      2850 9.86075E-05-2.82138E-05-3.01538E-05 6.60759E-06 9.63252E-20 1.21770E-20
 -1      2851 9.71187E-05-2.74184E-05-2.98754E-05 7.42742E-06-4.00885E-19-4.04767E-19
 -1      2852 9.74134E-05-2.80000E-05-2.97523E-05 4.89509E-06 2.82670E-19-3.06849E-19
 -1      2853 9.78647E-05-2.80675E-05-2.98983E-05 5.42813E-06-1.14301E-19 2.11485E-19
 -1      2854 9.66795E-05-2.73397E-05-2.97192E-05 6.13531E-06-3.50901E-19 2.67770E-19
 -1      2855 9.69143E-05-2.80209E-05-2.95291E-05 3.88960E-06-3.68025E-20 3.10903E-19
 -1      2856 9.72773E-05-2.80445E-05-2.96576E-05 4.35826E-06 5.20363E-20 1.12119E-19
 -1      2857 9.63653E-05-2.74175E-05-2.95508E-05 4.96151E-06 1.18388E-19 1.65894E-19
 -1      2858 9.65158E-05-2.80800E-05-2.93324E-05 3.03402E-06 4.02194E-19 4.40380E-19
 -1      2859 9.68060E-05-2.80806E-05-2.94417E-05 3.43074E-06 5.58504E-19 6.66345E-19
 -1      2860 9.61238E-05-2.75618E-05-2.93854E-05 3.93748E-06 4.16174E-19 1.30681E-18
 -1      2861 9.61976E-05-2.81516E-05-2.91648E-05 2.32552E-06-1.07744E-19 4.09475E-19
 -1      2862 9.64271E-05-2.81409E-05-2.92552E-05 2.65211E-06 6.13383E-19 3.06176E-19
 -1      2863 9.59297E-05-2.77241E-05-2.92328E-05 3.07058E-06 7.32569E-19 1.20802E-18
 -1      2864 9.59457E-05-2.82228E-05-2.90258E-05 1.75148E-06-3.30832E-19-1.55736E-19
 -1      2865 9.61246E-05-2.82073E-05-2.90989E-05 2.01446E-06-7.12203E-19 2.63659E-19
 -1      2866 9.57712E-05-2.78800E-05-2.90980E-05 2.35405E-06-2.76864E-19-5.30668E-19
 -1      2867 9.57487E-05-2.82879E-05-2.89130E-05 1.29495E-06 1.58653E-18 7.45584E-19
 -1      2868 9.58861E-05-2.82710E-05-2.89709E-05 1.50279E-06 5.09763E-19 7.73516E-19
 -1      2869 9.56418E-05-2.80190E-05-2.89830E-05 1.77363E-06-2.61679E-19-9.60952E-19
 -1      2870 9.55973E-05-2.83447E-05-2.88234E-05 9.37947E-07 1.25281E-18 2.16102E-19
 -1      2871 9.57009E-05-2.83281E-05-2.88685E-05 1.09946E-06 2.10965E-18 1.11948E-18
 -1      2872 9.55375E-05-2.81376E-05-2.88874E-05 1.31179E-06 1.47558E-18 4.28390E-19
 -1      2873 9.54830E-05-2.83928E-05-2.87536E-05 6.63225E-07 1.16479E-18 2.74956E-19
 -1      2874 9.55596E-05-2.83775E-05-2.87880E-05 7.86721E-07 1.14705E-18 4.59714E-19
 -1      2875 9.54550E-05-2.82359E-05-2.88097E-05 9.50329E-07 1.40589E-18 8.41742E-20
 -1      2876 9.53986E-05-2.84326E-05-2.87001E-05 4.55168E-07 1.62281E-18-8.57011E-19
 -1      2877 9.54540E-05-2.84191E-05-2.87259E-05 5.48085E-07 1.85092E-18 4.44495E-19
 -1      2878 9.53909E-05-2.83157E-05-2.87478E-05 6.71927E-07 1.62457E-18 5.87417E-19
 -1      2879 9.53377E-05-2.84652E-05-2.86599E-05 3.00183E-07 4.50026E-19-1.33506E-18
 -1      2880 9.53767E-05-2.84534E-05-2.86789E-05 3.68922E-07 1.12406E-18-9.25012E-19
 -1      2881 9.53422E-05-2.83794E-05-2.86994E-05 4.60906E-07 1.24623E-18 6.35128E-19
 -1      2882 9.52952E-05-2.84913E-05-2.86304E-05 1.86771E-07-1.34182E-19-1.57289E-18
 -1      2883 9.53217E-05-2.84814E-05-2.86439E-05 2.36695E-07-2.54154E-19-1.11475E-18
 -1      2884 9.53062E-05-2.84295E-05-2.86623E-05 3.03605E-07 5.59270E-20 3.15038E-20
 -1      2885 9.52665E-05-2.85122E-05-2.86091E-05 1.05438E-07-1.62967E-19-9.22440E-19
 -1      2886 9.52837E-05-2.85038E-05-2.86186E-05 1.40932E-07 8.58262E-20-1.77866E-18
 -1      2887 9.52803E-05-2.84684E-05-2.86344E-05 1.88443E-07-3.65727E-19-3.32113E-19
 -1      2888 9.52482E-05-2.85286E-05-2.85941E-05 4.85186E-08-5.45540E-19-1.67582E-18
 -1      2889 9.52586E-05-2.85217E-05-2.86005E-05 7.30918E-08-3.44245E-19-7.39159E-19
 -1      2890 9.52622E-05-2.84982E-05-2.86137E-05 1.05847E-07-2.33819E-19-1.25109E-18
 -1      2891 9.52375E-05-2.85417E-05-2.85839E-05 9.98272E-09-1.06708E-18-1.67736E-18
 -1      2892 9.52430E-05-2.85359E-05-2.85881E-05 2.63658E-08-1.01025E-18-1.85156E-18
 -1      2893 9.52502E-05-2.85210E-05-2.85986E-05 4.80839E-08-6.32143E-19-3.12553E-18
 -1      2894 9.52321E-05-2.85522E-05-2.85771E-05-1.47762E-08-3.99938E-19-2.82172E-18
 -1      2895 9.52343E-05-2.85473E-05-2.85797E-05-4.52360E-09-5.52236E-19-2.46793E-18
 -1      2896 9.52426E-05-2.85382E-05-2.85879E-05 9.07412E-09-4.67873E-19-2.76515E-18
 -1      2897 9.52306E-05-2.85609E-05-2.85727E-05-2.91566E-08 3.31844E-19-1.16109E-18
 -1      2898 9.52305E-05-2.85566E-05-2.85742E-05-2.35469E-08-5.39293E-20-2.01027E-18
 -1      2899 9.52385E-05-2.85516E-05-2.85803E-05-1.58319E-08-3.26363E-19-3.26670E-18
 -1      2900 9.52316E-05-2.85686E-05-2.85699E-05-3.54065E-08 1.15783E-19 9.04089E-19
 -1      2901 9.52301E-05-2.85647E-05-2.85707E-05-3.35683E-08-9.33826E-20 5.27745E-20
 -1      2902 9.52368E-05-2.85623E-05-2.85749E-05-3.01016E-08-4.46527E-19-1.69312E-18
 -1      2903 9.52350E-05-2.85756E-05-2.85683E-05-3.54799E-08 2.99835E-19 2.34716E-18
 -1      2904 9.52327E-05-2.85717E-05-2.85689E-05-3.64945E-08-1.53602E-19 1.59476E-18
 -1      2905 9.52383E-05-2.85712E-05-2.85717E-05-3.57040E-08-1.01652E-18-1.45217E-18
 -1      2906 9.52410E-05-2.85792E-05-2.85693E-05-3.59512E-08-4.31416E-19 5.77050E-19
 -1      2907 9.52523E-05-2.85788E-05-2.85744E-05-1.53958E-09 1.62870E-18 4.81935E-19
 -1      2908 9.52523E-05-2.85788E-05-2.85743E-05-5.67628E-09 2.11004E-18-6.00211E-19
 -1      2909 9.52365E-05-2.85736E-05-2.85697E-05 3.58279E-08-8.56016E-21 5.30254E-19
 -1      2910 9.52375E-05-2.85766E-05-2.85690E-05 3.53206E-08-6.32905E-20 5.28748E-19
 -1      2911 9.52407E-05-2.85723E-05-2.85723E-05 3.46008E-08-8.24838E-19 5.59945E-19
 -1      2912 9.52521E-05-2.85806E-05-2.85735E-05-1.79435E-08 2.91623E-18-2.11080E-18
 -1      2913 9.52513E-05-2.85802E-05-2.85733E-05-2.18438E-08 2.93918E-18-2.76736E-18
 -1      2914 9.52521E-05-2.85786E-05-2.85743E-05 6.51014E-09 2.95715E-19-1.17607E-18
 -1      2915 9.52522E-05-2.85787E-05-2.85744E-05 2.40925E-09 6.74361E-19 9.29600E-19
 -1      2916 9.52515E-05-2.85672E-05-2.85788E-05 4.85593E-10 1.78087E-18-4.51587E-19
 -1      2917 9.52524E-05-2.85796E-05-2.85741E-05-9.71427E-09 1.90718E-18-8.24769E-19
 -1      2918 9.52522E-05-2.85795E-05-2.85740E-05-1.38344E-08 3.28237E-18-2.03953E-18
 -1      2919 9.52517E-05-2.85701E-05-2.85778E-05-1.51935E-08 2.08525E-18-1.89295E-18
 -1      2920 9.52517E-05-2.85681E-05-2.85786E-05-7.23597E-09 2.21829E-18-6.10279E-19
 -1      2921 1.32271E-04-2.57287E-05-4.60871E-05 1.20088E-05-2.56715E-18-5.31386E-18
 -1      2922 1.30600E-04-1.67675E-05-4.94013E-05 1.00055E-05-4.13013E-18-4.60564E-18
 -1      2923 1.33030E-04-2.79989E-05-4.57797E-05-1.13839E-05-4.37577E-18 7.44436E-19
 -1      2924 1.36414E-04-3.76480E-05-4.25302E-05-9.40656E-06-3.43535E-18 1.20173E-18
 -1      2925 9.52518E-05-2.85791E-05-2.85740E-05 1.43432E-08 3.25432E-20-4.01571E-18
 -1      2926 9.52521E-05-2.85793E-05-2.85741E-05 1.03941E-08 5.19825E-19-3.55144E-18
 -1      2927 9.52514E-05-2.85678E-05-2.85786E-05 8.05026E-09 1.22877E-18-2.23072E-18
 -1      2928 9.52508E-05-2.85797E-05-2.85733E-05 2.20953E-08 1.41574E-18-5.25082E-19
 -1      2929 9.52517E-05-2.85802E-05-2.85735E-05 1.83146E-08 7.05075E-19-1.71854E-18
 -1      2930 9.52512E-05-2.85696E-05-2.85778E-05 1.56983E-08 8.59467E-19-2.46969E-18
 -1      2931 9.52481E-05-2.85799E-05-2.85721E-05 2.90113E-08 1.30770E-18 2.95180E-18
 -1      2932 9.52500E-05-2.85808E-05-2.85725E-05 2.58275E-08 1.44507E-18 5.47788E-19
 -1      2933 9.52500E-05-2.85718E-05-2.85764E-05 2.33818E-08 1.68527E-18-4.05499E-20
 -1      2934 1.38130E-04-4.81096E-05-3.92223E-05-2.56184E-06-2.39160E-18 1.40502E-18
 -1      2935 1.35888E-04-5.46960E-05-3.46699E-05 5.43974E-06-1.06698E-18 1.72170E-18
 -1      2936 1.28226E-04-5.83110E-05-2.96806E-05-1.75886E-05 1.85198E-18-1.64780E-18
 -1      2937 1.35317E-04-5.50903E-05-3.49621E-05-6.54800E-06 1.39072E-18-3.51318E-18
 -1      2938 9.78520E-05-2.70562E-05-3.03285E-05-5.58618E-06 1.33866E-18-6.24488E-19
 -1      2939 9.75406E-05-2.66868E-05-3.03421E-05-4.44724E-06 1.53382E-18-5.54188E-19
 -1      2940 9.66537E-05-2.54394E-05-3.05315E-05-3.79095E-06 1.73169E-18-1.14802E-18
 -1      2941 9.68689E-05-2.62389E-05-3.02827E-05-6.35145E-06 1.38315E-18-1.15184E-18
 -1      2942 6.00227E-05-2.86872E-05-1.31442E-05 3.44216E-05 2.57159E-18-4.02319E-18
 -1      2943 4.97118E-05-2.22955E-05-1.11073E-05 2.84230E-05 2.42024E-18-5.44272E-18
 -1      2944 9.53672E-05-2.06592E-05-3.20495E-05-5.20738E-06-2.62873E-18-2.53981E-18
 -1      2945 9.59853E-05-2.24386E-05-3.15350E-05-3.17333E-06-2.48725E-18-2.21099E-18
 -1      2946 1.20436E-04-5.91930E-05-2.64416E-05 2.40990E-05-2.20440E-18-1.91343E-18
 -1      2947 1.06138E-04-5.33873E-05-2.23561E-05 3.04603E-05-2.39181E-18 2.47492E-19
 -1      2948 5.30679E-05-2.79563E-05-1.02362E-05-3.28658E-05-1.76755E-18-5.18247E-18
 -1      2949 6.90505E-05-3.69661E-05-1.36107E-05-3.87502E-05-1.95516E-18-4.47403E-18
 -1      2950 3.09320E-05-1.23263E-05-7.27691E-06 2.49224E-06-9.86463E-19 3.50608E-18
 -1      2951 3.16954E-05-1.28501E-05-7.53711E-06-9.76828E-06-3.39872E-19 2.48138E-18
 -1      2952 1.01129E-04-2.98171E-05-3.05552E-05-1.03772E-05 1.28755E-19-4.80353E-19
 -1      2953 1.00066E-04-2.90352E-05-3.04276E-05-9.96569E-06 4.77836E-19-6.25106E-19
 -1      2954 9.80496E-05-2.79023E-05-3.00822E-05-1.02588E-05 5.37332E-19-7.79383E-19
 -1      2955 9.94465E-05-2.94759E-05-3.00185E-05-1.15990E-05-9.05775E-20-6.80637E-19
 -1      2956 9.65882E-05-2.38257E-05-3.11663E-05-1.65364E-06-2.24678E-18-1.99755E-18
 -1      2957 9.67247E-05-2.48075E-05-3.08312E-05 1.17688E-07-1.92830E-18-1.91386E-18
 -1      2958 9.60658E-05-2.40743E-05-3.08542E-05 7.69367E-07-1.81225E-18-2.08077E-18
 -1      2959 9.52370E-05-2.17482E-05-3.14923E-05-2.10149E-06-2.18988E-18-2.44324E-18
 -1      2960 8.85488E-05-1.33100E-05-3.22672E-05 2.41754E-06 2.33819E-18-3.52202E-18
 -1      2961 8.76863E-05-1.25173E-05-3.22437E-05 1.89758E-06 1.95750E-18-3.83689E-18
 -1      2962 8.80591E-05-1.35604E-05-3.19026E-05 1.20064E-06 1.63106E-18-3.60824E-18
 -1      2963 8.98787E-05-1.53435E-05-3.19151E-05 1.68996E-06 2.22460E-18-3.13843E-18
 -1      2964 3.74851E-05-1.76710E-05-7.99309E-06-2.22073E-05 1.29533E-18 3.86289E-18
 -1      2965 4.95979E-05-2.58115E-05-9.90833E-06-3.41481E-05 2.04622E-18 4.03971E-18
 -1      2966 8.81076E-05-1.29496E-05-3.22377E-05-1.59024E-06-5.64957E-19-4.35407E-18
 -1      2967 8.89870E-05-1.37634E-05-3.22569E-05-2.22045E-06-9.75604E-19-4.29894E-18
 -1      2968 1.40549E-04-5.58291E-05-3.62312E-05-1.75014E-06 2.64096E-19 5.41254E-19
 -1      2969 1.43046E-04-4.98070E-05-4.05785E-05 4.68947E-06 1.47881E-18 6.41733E-19
 -1      2970 3.90232E-05-1.56094E-05-9.68531E-06 1.80523E-05 1.64965E-18-6.35381E-18
 -1      2971 3.33860E-05-1.25962E-05-8.23155E-06 1.03041E-06 7.24762E-19-7.19978E-18
 -1      2972 1.31571E-04-2.17557E-05-4.75404E-05 1.31304E-05 4.05369E-18 7.73976E-20
 -1      2973 1.28464E-04-1.53616E-05-4.91726E-05 7.51572E-06 4.52316E-18-1.28310E-18
 -1      2974 1.41695E-04-3.96562E-05-4.39620E-05 1.14735E-05 2.67821E-18 1.06896E-18
 -1      2975 1.36961E-04-3.03777E-05-4.64896E-05 1.39907E-05 3.61842E-18 9.08337E-19
 -1      2976 1.29717E-04-2.66776E-05-4.44310E-05 1.41173E-05 2.75381E-18 8.85467E-19
 -1      2977 1.37982E-04-4.37273E-05-4.05149E-05 1.16708E-05 1.20088E-18 1.63647E-18
 -1      2978 1.26680E-04-1.12997E-05-5.02133E-05-5.65237E-06-5.66326E-18-1.07552E-18
 -1      2979 1.29884E-04-1.75715E-05-4.85202E-05-1.07350E-05-5.14742E-18 8.08916E-20
 -1      2980 1.27071E-04-1.28066E-05-4.94926E-05-6.18432E-08 5.24462E-18-2.31566E-18
 -1      2981 1.26082E-04-1.51635E-05-4.81442E-05-8.10666E-06 5.04874E-18-3.08103E-18
 -1      2982 1.20748E-04-5.96292E-05-2.58296E-05-2.56518E-05-1.37304E-18-1.23677E-18
 -1      2983 1.33356E-04-6.08246E-05-3.15895E-05-1.50303E-05-7.30248E-19-3.22931E-19
 -1      2984 8.81792E-05-4.71485E-05-1.70873E-05-3.81371E-05-2.40568E-18-3.99842E-18
 -1      2985 1.04857E-04-5.52768E-05-2.14435E-05-3.55904E-05-1.93155E-18-2.83944E-18
 -1      2986 3.40667E-05-1.48608E-05-7.84546E-06-1.32678E-05-3.55648E-19-6.44401E-18
 -1      2987 4.20671E-05-2.08624E-05-8.62763E-06-2.59610E-05-1.07160E-18-5.87290E-18
 -1      2988 5.51350E-05-2.37968E-05-1.28068E-05-2.73287E-05-1.55579E-18-5.07447E-18
 -1      2989 1.29046E-04-5.92681E-05-3.02948E-05 1.81783E-05-2.98579E-20 1.10051E-18
 -1      2990 1.16664E-04-5.74122E-05-2.51143E-05 2.79794E-05 1.58173E-18-6.62803E-19
 -1      2991 9.52411E-05-2.85791E-05-2.85695E-05 3.51371E-08-8.29898E-21 3.67539E-20
 -1      2992 1.38528E-04-5.75327E-05-3.52092E-05 3.27043E-06-4.77091E-19-3.79259E-18
 -1      2993 1.30958E-04-5.97962E-05-3.03132E-05 1.33711E-05-1.78454E-18-2.87615E-18
 -1      2994 1.02782E-04-5.32703E-05-2.07698E-05-3.54963E-05 2.18175E-18-6.90947E-19
 -1      2995 1.16237E-04-5.79224E-05-2.53312E-05-2.96512E-05 1.99550E-18-1.28018E-18
 -1      2996 9.61369E-05-2.17246E-05-3.18929E-05 4.60040E-06 3.38824E-18-6.87599E-19
 -1      2997 1.37877E-04-4.69702E-05-3.89651E-05 4.27817E-06-1.33514E-19-4.81464E-18
 -1      2998 1.35524E-04-3.79524E-05-4.24621E-05 9.82522E-06-1.30655E-18-5.23763E-18
 -1      2999 9.24323E-05-1.61705E-05-3.26946E-05-6.13054E-06-2.40667E-18-3.44409E-18
 -1      3000 1.40282E-04-4.30110E-05-4.24126E-05-1.12733E-05 2.84296E-18-4.60733E-18
 -1      3001 1.40803E-04-5.03105E-05-3.88130E-05-6.57731E-06 1.10141E-18-4.57292E-18
 -1      3002 9.00343E-05-1.48426E-05-3.22516E-05-2.69140E-06-1.27018E-18-4.12684E-18
 -1      3003 9.11459E-05-1.59221E-05-3.22541E-05-3.34998E-06-1.71022E-18-3.90381E-18
 -1      3004 9.03756E-05-1.58884E-05-3.19015E-05-1.54449E-06-1.04436E-18-3.83136E-18
 -1      3005 8.67468E-05-1.23444E-05-3.18672E-05 3.52300E-07 6.32085E-19-4.09491E-18
 -1      3006 8.60914E-05-1.10375E-05-3.21882E-05 1.70913E-07 5.81980E-19-4.36132E-18
 -1      3007 8.63280E-05-1.12392E-05-3.21963E-05-3.16612E-07 2.84688E-19-4.39031E-18
 -1      3008 9.63226E-05-4.87349E-05-2.00161E-05-3.54094E-05 2.58398E-18-3.19967E-19
 -1      3009 3.93758E-05-1.44997E-05-1.00747E-05 1.04946E-05-1.49417E-18 3.32132E-18
 -1      3010 1.25409E-04-2.02308E-05-4.54577E-05-1.09334E-05 4.68377E-18-3.32196E-18
 -1      3011 6.42205E-05-3.06107E-05-1.37858E-05-3.43388E-05 2.47312E-18 2.55052E-18
 -1      3012 7.32363E-05-3.20436E-05-1.73591E-05 3.04572E-05-1.99648E-18 3.34070E-18
 -1      3013 6.20865E-05-2.89464E-05-1.37458E-05 3.24693E-05-2.31701E-18 4.19070E-18
 -1      3014 5.51467E-05-2.23427E-05-1.36778E-05 2.62552E-05-1.99479E-18 3.84500E-18
 -1      3015 8.28097E-05-4.11733E-05-1.73599E-05-3.55598E-05-2.49959E-18-3.87602E-18
 -1      3016 1.15236E-04-5.66528E-05-2.48121E-05-2.66345E-05-2.15125E-18-1.68078E-18
 -1      3017 9.52507E-05-2.85724E-05-2.85764E-05-2.31163E-08 1.91296E-18-2.42618E-18
 -1      3018 9.52505E-05-2.85813E-05-2.85725E-05-2.57746E-08 2.68958E-18-3.02468E-18
 -1      3019 9.52487E-05-2.85803E-05-2.85721E-05-2.90008E-08 9.38269E-19-2.31313E-18
 -1      3020 1.21372E-04-1.14240E-05-4.75648E-05-2.69375E-06-4.90527E-18-1.38339E-18
 -1      3021 4.96632E-05-1.79226E-05-1.31135E-05 1.95522E-05 1.74409E-18-5.52223E-18
 -1      3022 1.22054E-04-1.65705E-05-4.56233E-05 3.69735E-06 3.87888E-18-1.27351E-18
 -1      3023 1.17492E-04-1.95753E-05-4.22182E-05 7.35050E-06 2.81035E-18-4.52501E-20
 -1      3024 1.19691E-04-2.43850E-05-4.13106E-05 1.26034E-05 1.50311E-18 7.09549E-19
 -1      3025 1.31461E-04-4.88323E-05-3.56675E-05-8.86408E-06 7.11587E-19-4.08307E-18
 -1      3026 1.29071E-04-4.41246E-05-3.66205E-05-1.35973E-05 1.25348E-18-3.75146E-18
 -1      3027 1.27427E-04-3.85140E-05-3.82520E-05-1.56041E-05 2.33241E-18-3.74827E-18
 -1      3028 1.26071E-04-5.82821E-05-2.89641E-05 1.45745E-05-1.87994E-18-2.04011E-18
 -1      3029 1.31675E-04-3.24664E-05-4.28634E-05 1.27619E-05-1.54679E-18-5.22423E-18
 -1      3030 1.24367E-04-2.60557E-05-4.25590E-05 1.38659E-05-2.16608E-18-5.09744E-18
 -1      3031 1.29107E-04-3.72658E-05-3.94593E-05 1.20741E-05-8.28822E-19-4.77785E-18
 -1      3032 9.52470E-05-2.85811E-05-2.85711E-05-3.19387E-08-3.32791E-19-1.61698E-18
 -1      3033 9.52439E-05-2.85793E-05-2.85705E-05-3.38255E-08-5.50656E-19-5.33908E-19
 -1      3034 9.52427E-05-2.85749E-05-2.85719E-05-3.45940E-08-7.34798E-19-8.31681E-19
 -1      3035 9.52478E-05-2.85744E-05-2.85743E-05-2.98629E-08 2.23187E-19-2.32188E-19
 -1      3036 1.26545E-04-2.34005E-05-4.44199E-05-1.24136E-05-3.91245E-18 4.36487E-19
 -1      3037 1.33343E-04-4.31487E-05-3.88931E-05-7.97637E-06-2.05898E-18 1.50200E-18
 -1      3038 1.30533E-04-5.63031E-05-3.18582E-05 9.23105E-06 1.82853E-19 1.43297E-18
 -1      3039 9.52444E-05-2.85806E-05-2.85701E-05 3.31449E-08 5.09583E-19 1.60720E-18
 -1      3040 9.89687E-05-4.86751E-05-2.12647E-05 3.16530E-05-2.34078E-18 5.12826E-19
 -1      3041 9.07203E-05-4.17555E-05-2.07525E-05 3.06039E-05-1.81228E-18 1.06589E-18
 -1      3042 1.07520E-04-5.08740E-05-2.43807E-05 2.53044E-05-2.28339E-18-1.30687E-18
 -1      3043 1.33581E-04-5.12755E-05-3.53596E-05 4.83559E-07 8.33983E-19-4.17677E-18
 -1      3044 1.15375E-04-5.48053E-05-2.58750E-05 2.33135E-05 2.02544E-18-2.51721E-19
 -1      3045 1.08471E-04-5.45326E-05-2.30174E-05 3.22547E-05 2.17846E-18-1.85529E-18
 -1      3046 9.85640E-05-4.80971E-05-2.11898E-05 3.34689E-05 2.56381E-18-2.02311E-18
 -1      3047 1.37035E-04-5.36957E-05-3.58093E-05-3.84301E-06-1.53862E-19-4.21018E-18
 -1      3048 1.22476E-04-5.73658E-05-2.77703E-05-2.02676E-05 2.35036E-18-2.33143E-18
 -1      3049 4.22256E-05-1.55006E-05-1.08324E-05-1.58091E-05 5.44907E-19 2.30171E-18
 -1      3050 8.67641E-05-1.16734E-05-3.22067E-05-6.36057E-07 1.26088E-19-4.24782E-18
 -1      3051 8.73398E-05-1.21798E-05-3.22264E-05-1.18880E-06-3.15422E-19-4.31892E-18
 -1      3052 8.85266E-05-1.40537E-05-3.18986E-05-7.70300E-07-3.80741E-19-4.09366E-18
 -1      3053 8.72798E-05-1.28554E-05-3.18778E-05-1.39168E-07 1.77961E-19-4.10136E-18
 -1      3054 1.35170E-04-5.78228E-05-3.31183E-05-5.76826E-06-7.70376E-19 5.18331E-19
 -1      3055 9.28755E-05-1.76165E-05-3.22513E-05-4.38311E-06-2.04871E-18-3.43440E-18
 -1      3056 1.23265E-04-1.52327E-05-4.67581E-05 9.05343E-06-3.48014E-18-3.91565E-18
 -1      3057 8.22194E-05-3.99113E-05-1.81812E-05 3.58889E-05 2.50457E-18-2.85344E-18
 -1      3058 7.10144E-05-3.40013E-05-1.53113E-05 3.58029E-05 2.50960E-18-3.31931E-18
 -1      3059 6.86882E-05-2.93793E-05-1.64871E-05 3.16838E-05 2.35115E-18-3.61080E-18
 -1      3060 9.52436E-05-2.85734E-05-2.85730E-05 3.30924E-08-7.43829E-19 5.76773E-19
 -1      3061 9.52466E-05-2.85784E-05-2.85722E-05 3.12698E-08 6.75115E-20 2.85246E-18
 -1      3062 9.52475E-05-2.85714E-05-2.85754E-05 2.89085E-08 7.14426E-19 1.65547E-18
 -1      3063 9.52434E-05-2.85690E-05-2.85746E-05 3.17501E-08-1.26078E-18 1.19151E-18
 -1      3064 1.34531E-04-3.67325E-05-4.21247E-05-1.59609E-05 3.12809E-18-4.29636E-18
 -1      3065 9.51441E-05-2.07682E-05-3.18896E-05 3.61725E-06 3.20279E-18-1.33497E-18
 -1      3066 9.49801E-05-2.13658E-05-3.15449E-05 1.77990E-06 2.87816E-18-1.50916E-18
 -1      3067 9.54004E-05-2.26042E-05-3.11895E-05 1.14106E-07 2.50521E-18-1.44458E-18
 -1      3068 9.40403E-05-2.06803E-05-3.14432E-05 7.37411E-07 2.62341E-18-1.78228E-18
 -1      3069 9.55205E-05-2.34420E-05-3.08986E-05-1.65941E-06 2.12220E-18-1.39301E-18
 -1      3070 9.27122E-05-1.92595E-05-3.14966E-05 6.03298E-07 2.37165E-18-2.28159E-18
 -1      3071 4.62622E-05-1.58295E-05-1.25655E-05 1.73861E-05-1.92970E-18 3.22889E-18
 -1      3072 4.26749E-05-1.22046E-05-1.27522E-05 4.14963E-06-8.30516E-19 2.58303E-18
 -1      3073 5.69638E-05-1.94480E-05-1.56765E-05 1.97792E-05-1.58745E-18 3.73732E-18
 -1      3074 4.22291E-05-1.38057E-05-1.15554E-05-5.71393E-06 1.54868E-19-6.20335E-18
 -1      3075 4.61392E-05-1.27094E-05-1.40501E-05-4.17147E-07 4.54612E-19-5.74818E-18
 -1      3076 4.76049E-05-1.47377E-05-1.36832E-05-1.35567E-05-3.90641E-19-5.33927E-18
 -1      3077 9.60871E-05-2.58479E-05-3.00876E-05 4.94545E-06-1.10815E-18-1.75219E-18
 -1      3078 9.64057E-05-2.65514E-05-2.99372E-05 5.85004E-06-9.08535E-19-1.66137E-18
 -1      3079 9.67082E-05-2.72497E-05-2.97510E-05 6.71137E-06-8.57401E-19-1.42369E-18
 -1      3080 9.72140E-05-2.80389E-05-2.96426E-05 7.33802E-06-6.58474E-19-1.60023E-18
 -1      3081 9.55342E-05-2.61190E-05-2.97629E-05 6.44832E-06-8.62830E-19-1.73139E-18
 -1      3082 9.77415E-05-2.88913E-05-2.94850E-05 7.99337E-06-4.45332E-19-1.12745E-18
 -1      3083 9.85353E-05-2.99065E-05-2.94075E-05 8.31809E-06-2.56797E-19-1.15274E-18
 -1      3084 9.63383E-05-2.78217E-05-2.93870E-05 8.06371E-06-3.75063E-19-1.12192E-18
 -1      3085 9.94570E-05-3.10614E-05-2.92795E-05 8.71723E-06-7.77459E-20-1.04468E-18
 -1      3086 1.00633E-04-3.24062E-05-2.92381E-05 8.66240E-06 9.13340E-20-9.26557E-19
 -1      3087 9.77469E-05-3.00150E-05-2.90641E-05 9.26272E-06-8.36441E-20-1.20938E-18
 -1      3088 1.02131E-04-3.39658E-05-2.91640E-05 8.67773E-06 1.70092E-19-7.28324E-19
 -1      3089 1.03740E-04-3.56551E-05-2.91881E-05 8.10559E-06 1.79575E-19-5.20336E-19
 -1      3090 1.00112E-04-3.29898E-05-2.88205E-05 9.89479E-06 2.92910E-19-9.60927E-19
 -1      3091 1.05962E-04-3.75968E-05-2.92298E-05 7.48634E-06 4.36862E-19-2.39633E-19
 -1      3092 1.07922E-04-3.94290E-05-2.93819E-05 6.21150E-06 6.14827E-19-3.06644E-20
 -1      3093 1.03784E-04-3.68906E-05-2.87443E-05 9.61360E-06 4.65635E-19-7.29606E-19
 -1      3094 1.10817E-04-4.14335E-05-2.96526E-05 4.60027E-06 1.66045E-19 1.83072E-20
 -1      3095 1.12780E-04-4.28035E-05-3.00307E-05 2.49805E-06-6.47021E-20 1.40019E-19
 -1      3096 1.08890E-04-4.14102E-05-2.90244E-05 7.74663E-06 3.52611E-19-1.45439E-19
 -1      3097 1.15846E-04-4.40642E-05-3.07060E-05-4.26539E-07-6.32636E-20 6.59423E-19
 -1      3098 1.17087E-04-4.38732E-05-3.14273E-05-3.21531E-06-3.27278E-19 1.06874E-18
 -1      3099 1.15078E-04-4.51567E-05-2.99997E-05 3.42060E-06 1.96048E-19 5.29728E-19
 -1      3100 1.19005E-04-4.28852E-05-3.26651E-05-6.86494E-06-5.62247E-19 1.70604E-18
 -1      3101 1.18843E-04-4.02003E-05-3.37835E-05-9.31678E-06-5.82831E-19 1.58608E-18
 -1      3102 1.20260E-04-4.56374E-05-3.19744E-05-3.22998E-06-8.86738E-22 1.39632E-18
 -1      3103 1.13148E-04-2.40851E-05-3.85748E-05-1.16012E-05-2.26217E-18 6.94322E-19
 -1      3104 1.11088E-04-1.92126E-05-3.94152E-05-8.18520E-06-2.57922E-18 4.92371E-19
 -1      3105 1.09242E-04-1.64425E-05-4.00338E-05-2.54114E-06-2.75916E-18-7.67620E-19
 -1      3106 1.09288E-04-1.62795E-05-4.00725E-05 2.47760E-06-2.90675E-18-1.09518E-18
 -1      3107 1.10589E-04-1.88390E-05-3.94164E-05 8.20607E-06-2.32992E-18-1.37121E-18
 -1      3108 1.12678E-04-2.34277E-05-3.85536E-05 1.15885E-05-1.70828E-18-1.57250E-18
 -1      3109 1.15480E-04-2.90932E-05-3.70088E-05 1.32430E-05-1.74055E-18-1.68597E-18
 -1      3110 1.17675E-04-3.47425E-05-3.57394E-05 1.32581E-05-1.27346E-18-1.97860E-18
 -1      3111 1.18201E-04-3.89722E-05-3.40111E-05 1.07047E-05-8.50792E-19-1.61306E-18
 -1      3112 1.18689E-04-4.20838E-05-3.29108E-05 8.52735E-06-4.06913E-19-1.95286E-18
 -1      3113 1.21292E-04-3.87688E-05-3.55286E-05 1.17456E-05-1.11335E-18-2.23655E-18
 -1      3114 1.17131E-04-4.33530E-05-3.16388E-05 4.66971E-06 2.42688E-19-1.85105E-18
 -1      3115 1.15834E-04-4.36991E-05-3.08911E-05 1.91944E-06 9.30704E-19-2.00428E-18
 -1      3116 1.20306E-04-4.51387E-05-3.21734E-05 5.05574E-06-1.03045E-19-1.78450E-18
 -1      3117 1.12917E-04-4.25746E-05-3.01916E-05-9.11878E-07 8.88729E-19-1.72167E-18
 -1      3118 1.10994E-04-4.13009E-05-2.97913E-05-3.03890E-06 9.94685E-19-1.85558E-18
 -1      3119 1.14860E-04-4.46830E-05-3.01783E-05-1.64429E-06 1.17281E-18-2.32419E-18
 -1      3120 1.08098E-04-3.94038E-05-2.94774E-05-4.76202E-06 1.03306E-18-1.61856E-18
 -1      3121 1.06150E-04-3.76290E-05-2.92998E-05-6.08074E-06 8.99246E-19-1.78542E-18
 -1      3122 1.09102E-04-4.12588E-05-2.91497E-05-6.08175E-06 1.23029E-18-1.04927E-18
 -1      3123 1.03854E-04-3.57367E-05-2.92089E-05-6.81103E-06 3.87434E-19-1.66397E-18
 -1      3124 1.02215E-04-3.40911E-05-2.91501E-05-7.44623E-06 1.98845E-19-1.60150E-18
 -1      3125 1.03905E-04-3.69424E-05-2.87677E-05-8.17257E-06 6.93886E-19-6.28637E-19
 -1      3126 1.00631E-04-3.25937E-05-2.91611E-05-7.55251E-06 4.34893E-19-1.53818E-18
 -1      3127 9.94091E-05-3.13251E-05-2.91507E-05-7.71496E-06 5.07446E-19-1.60687E-18
 -1      3128 1.00074E-04-3.31759E-05-2.87203E-05-8.71334E-06 6.30462E-19-9.13130E-19
 -1      3129 9.84116E-05-3.02833E-05-2.91938E-05-7.48275E-06 4.16392E-19-1.72433E-18
 -1      3130 9.75620E-05-2.94104E-05-2.91928E-05-7.34907E-06 6.87797E-19-2.24302E-18
 -1      3131 9.75460E-05-3.04078E-05-2.88054E-05-8.39400E-06 4.00165E-19-6.45846E-20
 -1      3132 9.69872E-05-2.87611E-05-2.92334E-05-6.94972E-06 8.94493E-19-2.51073E-18
 -1      3133 9.64215E-05-2.82167E-05-2.92242E-05-6.64735E-06 7.65560E-19-2.16956E-18
 -1      3134 9.60126E-05-2.85855E-05-2.89162E-05-7.64564E-06 7.93221E-19-2.13250E-18
 -1      3135 9.61257E-05-2.78620E-05-2.92488E-05-6.18132E-06 5.79003E-19-2.00297E-18
 -1      3136 9.57583E-05-2.75596E-05-2.92269E-05-5.79690E-06 4.03911E-19-1.13850E-18
 -1      3137 9.51656E-05-2.75136E-05-2.90040E-05-6.71439E-06 1.08444E-18-1.78597E-18
 -1      3138 9.56341E-05-2.74068E-05-2.92333E-05-5.32195E-06 2.58353E-19-9.20483E-19
 -1      3139 9.53982E-05-2.72689E-05-2.92002E-05-4.91248E-06 5.48082E-19-3.45653E-19
 -1      3140 9.47575E-05-2.69778E-05-2.90535E-05-5.73812E-06 5.13005E-19-7.06237E-19
 -1      3141 9.53722E-05-2.72440E-05-2.91911E-05-4.46163E-06 3.46247E-19-2.62588E-19
 -1      3142 9.52206E-05-2.72102E-05-2.91507E-05-4.06325E-06 3.40067E-19 5.01927E-20
 -1      3143 9.46116E-05-2.67966E-05-2.90656E-05-4.79398E-06 5.15546E-19-4.93003E-19
 -1      3144 9.52456E-05-2.72596E-05-2.91307E-05-3.65459E-06-9.38358E-20-1.04989E-19
 -1      3145 9.51472E-05-2.72866E-05-2.90870E-05-3.28866E-06 1.85018E-19-3.12780E-19
 -1      3146 9.46106E-05-2.68327E-05-2.90482E-05-3.92489E-06 1.05197E-19-6.71111E-19
 -1      3147 9.51945E-05-2.73735E-05-2.90606E-05-2.93075E-06 4.73283E-19-1.51922E-18
 -1      3148 9.51294E-05-2.74320E-05-2.90171E-05-2.60825E-06 3.69880E-19-1.41363E-18
 -1      3149 9.46809E-05-2.69890E-05-2.90106E-05-3.15288E-06-2.79139E-20-1.21605E-18
 -1      3150 9.51824E-05-2.75328E-05-2.89878E-05-2.30338E-06 9.02983E-20-1.69070E-18
 -1      3151 9.51384E-05-2.76040E-05-2.89469E-05-2.02819E-06-5.19581E-19-1.60492E-18
 -1      3152 9.47784E-05-2.72006E-05-2.89614E-05-2.48641E-06-8.62968E-20-2.72436E-18
 -1      3153 9.51885E-05-2.77045E-05-2.89175E-05-1.77464E-06-4.08752E-19-1.35490E-18
 -1      3154 9.51579E-05-2.77771E-05-2.88806E-05-1.54605E-06-5.64108E-19-5.85820E-19
 -1      3155 9.48788E-05-2.74268E-05-2.89075E-05-1.92491E-06-2.39900E-19-3.51066E-18
 -1      3156 9.52011E-05-2.78693E-05-2.88529E-05-1.33964E-06-1.12129E-18 2.10979E-19
 -1      3157 9.51794E-05-2.79369E-05-2.88208E-05-1.15414E-06-7.69394E-19 3.92420E-19
 -1      3158 9.49697E-05-2.76435E-05-2.88537E-05-1.46203E-06-4.72404E-19-1.74844E-18
 -1      3159 9.52145E-05-2.80173E-05-2.87958E-05-9.89406E-07-1.17165E-18-1.41603E-20
 -1      3160 9.51987E-05-2.80767E-05-2.87687E-05-8.42031E-07-1.02187E-18-1.44321E-19
 -1      3161 9.50461E-05-2.78380E-05-2.88032E-05-1.08801E-06-5.86430E-19-5.99481E-19
 -1      3162 9.52259E-05-2.81441E-05-2.87469E-05-7.13007E-07-8.49628E-19-1.24920E-19
 -1      3163 9.52144E-05-2.81943E-05-2.87246E-05-5.98230E-07-5.89399E-19-5.78947E-19
 -1      3164 9.51069E-05-2.80049E-05-2.87579E-05-7.91460E-07-1.16521E-18 2.20465E-19
 -1      3165 9.52346E-05-2.82490E-05-2.87062E-05-4.99027E-07-3.65177E-19-2.14489E-19
 -1      3166 9.52261E-05-2.82902E-05-2.86881E-05-4.11358E-07 2.26222E-19-5.80810E-19
 -1      3167 9.51533E-05-2.81432E-05-2.87185E-05-5.60600E-07-6.92291E-19-1.21112E-19
 -1      3168 9.52405E-05-2.83335E-05-2.86729E-05-3.36499E-07 4.98212E-19-9.55420E-19
 -1      3169 9.52343E-05-2.83664E-05-2.86586E-05-2.70846E-07 5.41672E-19-8.47582E-19
 -1      3170 9.51873E-05-2.82548E-05-2.86853E-05-3.84129E-07 1.89132E-19-7.81444E-19
 -1      3171 9.52440E-05-2.84000E-05-2.86463E-05-2.15456E-07 5.96878E-19-9.96532E-19
 -1      3172 9.52395E-05-2.84257E-05-2.86352E-05-1.67315E-07 6.92581E-20-1.39773E-18
 -1      3173 9.52111E-05-2.83427E-05-2.86579E-05-2.51747E-07 7.12867E-19-8.84838E-19
 -1      3174 9.52457E-05-2.84511E-05-2.86254E-05-1.27209E-07 4.71226E-19-2.05060E-19
 -1      3175 9.52424E-05-2.84708E-05-2.86169E-05-9.27473E-08 2.29148E-19 1.61217E-19
 -1      3176 9.52270E-05-2.84104E-05-2.86358E-05-1.54419E-07 4.21454E-19-8.17852E-19
 -1      3177 9.52461E-05-2.84898E-05-2.86092E-05-6.44643E-08 8.02258E-19 6.15834E-19
 -1      3178 9.52438E-05-2.85048E-05-2.86028E-05-4.05488E-08 1.07236E-18 1.58051E-18
 -1      3179 9.52369E-05-2.84616E-05-2.86181E-05-8.44855E-08 1.40713E-18 1.19187E-18
 -1      3180 9.52457E-05-2.85187E-05-2.85968E-05-2.12974E-08 5.08348E-20 2.64486E-18
 -1      3181 9.52441E-05-2.85301E-05-2.85920E-05-5.42159E-09 6.68845E-19 1.85561E-18
 -1      3182 9.52425E-05-2.84998E-05-2.86041E-05-3.57051E-08 1.09986E-18 1.09198E-18
 -1      3183 9.52448E-05-2.85404E-05-2.85873E-05 6.99865E-09 3.31638E-19 1.34893E-18
 -1      3184 9.52440E-05-2.85491E-05-2.85836E-05 1.67197E-08-1.94107E-19 1.76427E-18
 -1      3185 9.52452E-05-2.85282E-05-2.85931E-05-3.07011E-09 4.97592E-19-3.58003E-19
 -1      3186 9.52439E-05-2.85562E-05-2.85802E-05 2.33593E-08-5.07919E-19 2.22101E-18
 -1      3187 9.52436E-05-2.85633E-05-2.85774E-05 2.84290E-08-8.79952E-19 9.89247E-19
 -1      3188 9.52459E-05-2.85641E-05-2.85781E-05 2.72972E-08-5.71562E-19 9.83956E-19
 -1      3189 9.52460E-05-2.85488E-05-2.85846E-05 1.66280E-08-6.62778E-20-6.21424E-19
 -1      3190 1.04142E-04-3.65135E-05-2.89624E-05-1.37112E-05-1.00153E-18-7.20168E-19
 -1      3191 1.01602E-04-3.38402E-05-2.89761E-05-1.40970E-05-8.46118E-19-9.66265E-19
 -1      3192 9.99059E-05-3.17522E-05-2.91831E-05-1.34841E-05-4.51184E-19-1.18628E-18
 -1      3193 9.83125E-05-2.99942E-05-2.92512E-05-1.32439E-05-3.09619E-19-1.02573E-18
 -1      3194 9.74867E-05-3.18103E-05-2.82225E-05-1.53250E-05-7.46924E-19-1.37032E-18
 -1      3195 1.20216E-04-5.00940E-05-3.01178E-05-7.48254E-06-1.69018E-18 6.60914E-19
 -1      3196 1.16095E-04-4.70524E-05-2.94192E-05-1.04956E-05-1.42027E-18 1.50527E-19
 -1      3197 1.26657E-04-2.76725E-05-4.27287E-05 1.51779E-05 2.01382E-18 8.56827E-19
 -1      3198 1.30809E-04-5.38963E-05-3.28527E-05-1.15232E-06-7.11984E-19-3.30396E-18
 -1      3199 9.95892E-05-3.14899E-05-2.91455E-05 1.26845E-05-1.29201E-18-8.11594E-19
 -1      3200 1.01586E-04-3.36227E-05-2.91029E-05 1.26784E-05-6.16938E-19-3.39205E-19
 -1      3201 9.72164E-05-2.86632E-05-2.93668E-05 1.15247E-05-5.10225E-19-1.38618E-18
 -1      3202 9.84297E-05-2.99447E-05-2.93263E-05 1.19311E-05-7.75026E-19-1.17902E-18
 -1      3203 9.57189E-05-2.95580E-05-2.84049E-05 1.34071E-05-7.12082E-19-1.10531E-18
 -1      3204 9.60475E-05-2.71898E-05-2.95107E-05 1.00860E-05-1.28351E-18-9.85880E-19
 -1      3205 9.67580E-05-2.78672E-05-2.95047E-05 1.06865E-05-5.11707E-19-9.66644E-19
 -1      3206 9.42261E-05-2.70936E-05-2.87915E-05 1.16427E-05-3.43710E-19-7.89764E-19
 -1      3207 9.55334E-05-2.65718E-05-2.95615E-05 8.59949E-06-1.17921E-18-7.41682E-19
 -1      3208 9.59544E-05-2.68705E-05-2.95915E-05 9.26830E-06-1.61656E-18-1.19026E-18
 -1      3209 9.37404E-05-2.59421E-05-2.90617E-05 9.92535E-06-1.24291E-18-1.13429E-18
 -1      3210 9.53433E-05-2.64458E-05-2.95362E-05 7.17836E-06-9.91336E-19-2.27883E-19
 -1      3211 9.56065E-05-2.65270E-05-2.95923E-05 7.84196E-06-5.66453E-19-2.90312E-19
 -1      3212 9.37504E-05-2.55834E-05-2.92130E-05 8.33731E-06-1.27781E-18-4.12664E-19
 -1      3213 9.52953E-05-2.65751E-05-2.94604E-05 5.88091E-06-3.79856E-19 2.31420E-19
 -1      3214 9.54744E-05-2.65423E-05-2.95310E-05 6.49761E-06-5.49376E-19 2.15728E-19
 -1      3215 9.39655E-05-2.56622E-05-2.92691E-05 6.90342E-06-8.45252E-19-8.37391E-19
 -1      3216 9.52984E-05-2.68178E-05-2.93570E-05 4.73513E-06-5.56030E-20 6.91236E-19
 -1      3217 9.54313E-05-2.67326E-05-2.94323E-05 5.28358E-06 9.33215E-20 6.45869E-19
 -1      3218 9.42348E-05-2.59548E-05-2.92590E-05 5.63272E-06-4.60323E-19 3.12869E-19
 -1      3219 9.53121E-05-2.70940E-05-2.92433E-05 3.74998E-06 5.70577E-19 4.07357E-19
 -1      3220 9.54171E-05-2.69910E-05-2.93166E-05 4.22205E-06 1.98595E-19 3.69004E-19
 -1      3221 9.44884E-05-2.63289E-05-2.92080E-05 4.52735E-06 2.18086E-20-1.65353E-21
 -1      3222 9.53210E-05-2.73622E-05-2.91310E-05 2.92191E-06 5.15556E-19 1.17581E-18
 -1      3223 9.54067E-05-2.72595E-05-2.91982E-05 3.31785E-06 9.29472E-19 9.53101E-19
 -1      3224 9.46999E-05-2.67118E-05-2.91354E-05 3.58366E-06 4.55761E-19-1.51110E-19
 -1      3225 9.53221E-05-2.76032E-05-2.90270E-05 2.23957E-06-9.75468E-21-3.40412E-20
 -1      3226 9.53925E-05-2.75094E-05-2.90861E-05 2.56457E-06 6.67173E-19 9.21340E-19
 -1      3227 9.48646E-05-2.70665E-05-2.90548E-05 2.79265E-06 7.85331E-19 1.33226E-18
 -1      3228 9.53166E-05-2.78100E-05-2.89350E-05 1.68737E-06-1.73575E-19-4.55599E-19
 -1      3229 9.53740E-05-2.77285E-05-2.89853E-05 1.94914E-06-5.76479E-19-8.02189E-19
 -1      3230 9.49871E-05-2.73773E-05-2.89748E-05 2.14124E-06 2.59569E-19 8.57025E-19
 -1      3231 9.53071E-05-2.79821E-05-2.88563E-05 1.24791E-06 1.67659E-18-1.46960E-19
 -1      3232 9.53532E-05-2.79136E-05-2.88980E-05 1.45516E-06 6.71552E-19-4.92811E-19
 -1      3233 9.50754E-05-2.76399E-05-2.89006E-05 1.61382E-06 8.95188E-20-7.90908E-19
 -1      3234 9.52958E-05-2.81223E-05-2.87908E-05 9.03778E-07 8.62431E-19 4.40987E-19
 -1      3235 9.53321E-05-2.80659E-05-2.88245E-05 1.06521E-06 1.56293E-18 5.72749E-19
 -1      3236 9.51373E-05-2.78561E-05-2.88347E-05 1.19373E-06 1.14750E-18-1.54128E-19
 -1      3237 9.52845E-05-2.82343E-05-2.87374E-05 6.38534E-07 9.79256E-19 1.10560E-18
 -1      3238 9.53124E-05-2.81888E-05-2.87642E-05 7.62281E-07 8.47619E-19 1.22389E-18
 -1      3239 9.51795E-05-2.80306E-05-2.87783E-05 8.64442E-07 5.66774E-19 1.16079E-18
 -1      3240 9.52741E-05-2.83224E-05-2.86947E-05 4.37363E-07 6.91224E-19 1.41105E-18
 -1      3241 9.52952E-05-2.82863E-05-2.87157E-05 5.30690E-07 1.13043E-18 1.49463E-18
 -1      3242 9.52075E-05-2.81689E-05-2.87311E-05 6.10423E-07 3.04057E-19 1.03786E-18
 -1      3243 9.52652E-05-2.83908E-05-2.86613E-05 2.87344E-07-1.03919E-19 8.29892E-19
 -1      3244 9.52806E-05-2.83625E-05-2.86773E-05 3.56530E-07 1.26695E-19 1.19307E-18
 -1      3245 9.52255E-05-2.82770E-05-2.86925E-05 4.17635E-07 2.01676E-19 1.67627E-18
 -1      3246 9.52579E-05-2.84430E-05-2.86355E-05 1.77507E-07 3.85089E-20-4.49888E-19
 -1      3247 9.52689E-05-2.84212E-05-2.86476E-05 2.27835E-07-6.58106E-20-1.77153E-19
 -1      3248 9.52365E-05-2.83601E-05-2.86616E-05 2.73804E-07 3.48821E-19 1.46288E-18
 -1      3249 9.52521E-05-2.84824E-05-2.86160E-05 9.87648E-08 2.38752E-19-2.36040E-18
 -1      3250 9.52597E-05-2.84657E-05-2.86249E-05 1.34572E-07 7.50753E-19-9.32102E-19
 -1      3251 9.52427E-05-2.84231E-05-2.86372E-05 1.68488E-07 4.37675E-19-5.52320E-19
 -1      3252 9.52477E-05-2.85119E-05-2.86014E-05 4.37712E-08-3.19298E-19-2.37122E-18
 -1      3253 9.52527E-05-2.84992E-05-2.86079E-05 6.85307E-08-1.72235E-19-2.66838E-18
 -1      3254 9.52457E-05-2.84702E-05-2.86183E-05 9.30155E-08 9.12252E-19-2.25203E-18
 -1      3255 9.52446E-05-2.85339E-05-2.85905E-05 6.76385E-09-9.64607E-19-2.03774E-18
 -1      3256 9.52476E-05-2.85242E-05-2.85952E-05 2.31733E-08-7.80074E-19-2.29589E-18
 -1      3257 9.52467E-05-2.85051E-05-2.86037E-05 4.03741E-08-9.63329E-19-1.45504E-18
 -1      3258 9.52426E-05-2.85504E-05-2.85825E-05-1.66579E-08-4.41399E-19-1.83874E-18
 -1      3259 9.52441E-05-2.85429E-05-2.85858E-05-6.54081E-09-7.57191E-19-1.67760E-18
 -1      3260 9.52465E-05-2.85308E-05-2.85926E-05 5.11687E-09-1.17638E-18-6.32675E-19
 -1      3261 9.52416E-05-2.85634E-05-2.85764E-05-2.97027E-08-1.35424E-19-1.55149E-18
 -1      3262 9.52420E-05-2.85574E-05-2.85789E-05-2.45141E-08 1.29609E-20-6.84810E-19
 -1      3263 9.52457E-05-2.85501E-05-2.85839E-05-1.70745E-08-6.90775E-19-1.13931E-18
 -1      3264 9.52426E-05-2.85711E-05-2.85735E-05-3.32849E-08-6.41193E-19-6.89334E-19
 -1      3265 9.52414E-05-2.85669E-05-2.85747E-05-3.22368E-08-7.68575E-19-1.65281E-18
 -1      3266 9.52454E-05-2.85626E-05-2.85784E-05-2.75572E-08-2.32474E-19-2.12300E-19
 -1      3267 9.52458E-05-2.85712E-05-2.85749E-05-3.14514E-08-7.24008E-19 3.68350E-20
 -1      3268 5.85342E-05-2.05769E-05-1.60506E-05 2.29569E-05 1.82636E-18-4.59701E-18
 -1      3269 5.07306E-05-1.47930E-05-1.50571E-05 1.28164E-05 1.12809E-18-5.36193E-18
 -1      3270 8.74709E-05-1.38913E-05-3.15523E-05 5.84443E-07 1.16966E-18-3.66593E-18
 -1      3271 8.71444E-05-1.35773E-05-3.15421E-05 4.28829E-07 8.39584E-19-3.90289E-18
 -1      3272 9.52495E-05-2.85549E-05-2.85835E-05 2.26125E-09 1.25010E-18-1.17444E-18
 -1      3273 9.52496E-05-2.85549E-05-2.85835E-05-1.18704E-09 2.04518E-18-8.95747E-19
 -1      3274 9.52497E-05-2.85562E-05-2.85830E-05 8.47489E-09 1.13252E-18-3.53083E-18
 -1      3275 9.52497E-05-2.85556E-05-2.85833E-05 5.04367E-09 1.14247E-18-1.86841E-18
 -1      3276 9.52479E-05-2.85421E-05-2.85880E-05 2.99206E-09 9.51193E-19-1.68742E-18
 -1      3277 1.30004E-04-5.33409E-05-3.32834E-05 2.04152E-06-4.72314E-19 1.30988E-18
 -1      3278 1.25291E-04-5.58077E-05-2.96573E-05 1.19121E-05 6.99775E-19 9.33430E-19
 -1      3279 7.71213E-05-3.50909E-05-1.75953E-05-3.27904E-05-2.26888E-18-3.85262E-18
 -1      3280 9.32826E-05-4.54062E-05-2.06240E-05-3.34962E-05-2.44189E-18-3.52180E-18
 -1      3281 1.24649E-04-5.18407E-05-3.12150E-05 2.85097E-06-9.64003E-19-2.33928E-18
 -1      3282 1.26569E-04-5.58904E-05-3.05574E-05 8.41604E-06-1.47037E-18-2.51263E-18
 -1      3283 1.19034E-04-5.42825E-05-2.73950E-05 1.68803E-05-2.27786E-18-1.37503E-18
 -1      3284 1.20618E-04-4.97434E-05-3.01301E-05 6.91111E-06-1.47358E-18-2.09717E-18
 -1      3285 1.30230E-04-5.30656E-05-3.27461E-05-1.80194E-06 1.13651E-18-3.46627E-18
 -1      3286 1.30294E-04-4.70976E-05-3.61426E-05 6.27328E-06-4.79103E-20-3.98958E-18
 -1      3287 1.08239E-04-5.19849E-05-2.36488E-05-2.76515E-05-2.52606E-18-1.62391E-18
 -1      3288 1.20270E-04-5.72460E-05-2.73662E-05-2.03223E-05-2.03142E-18-4.75834E-19
 -1      3289 9.52492E-05-2.85637E-05-2.85795E-05 2.23299E-08 1.31617E-18-4.56688E-19
 -1      3290 9.52502E-05-2.85625E-05-2.85805E-05 1.86848E-08 1.56882E-18-1.18520E-18
 -1      3291 9.52501E-05-2.85595E-05-2.85817E-05 1.51670E-08 1.70165E-18-2.19295E-18
 -1      3292 9.52502E-05-2.85584E-05-2.85823E-05 1.15705E-08 1.67871E-18-3.54051E-18
 -1      3293 9.52486E-05-2.85451E-05-2.85871E-05 8.18344E-09 1.40008E-18-3.11702E-18
 -1      3294 9.52492E-05-2.85504E-05-2.85851E-05 1.42299E-08 1.75485E-18-1.03506E-18
 -1      3295 1.03953E-04-3.61929E-05-2.89473E-05 1.30531E-05-6.92210E-19-4.23237E-19
 -1      3296 1.06997E-04-3.92671E-05-2.90041E-05 1.22557E-05-1.21996E-18-7.90046E-19
 -1      3297 9.90641E-05-3.40112E-05-2.79768E-05 1.49608E-05-1.00777E-18-2.71352E-19
 -1      3298 1.10919E-04-4.26644E-05-2.90895E-05 1.16664E-05-1.85010E-18-1.12654E-18
 -1      3299 1.14963E-04-4.61692E-05-2.94741E-05 9.49417E-06-1.69298E-18-1.41004E-18
 -1      3300 1.14551E-04-4.86723E-05-2.84393E-05 1.32897E-05-1.86312E-18-1.40120E-18
 -1      3301 1.05034E-04-4.05162E-05-2.77959E-05 1.53747E-05-1.78192E-18-7.96740E-19
 -1      3302 1.10946E-04-4.31319E-05-2.90742E-05-1.22055E-05-1.18403E-18-3.03590E-19
 -1      3303 1.07350E-04-3.96777E-05-2.88779E-05-1.36623E-05-9.61096E-19-2.81051E-19
 -1      3304 1.02142E-04-3.75191E-05-2.78136E-05-1.64839E-05-1.35652E-18-8.17625E-19
 -1      3305 1.10379E-04-4.55332E-05-2.79208E-05-1.58432E-05-1.57124E-18 6.28128E-20
 -1      3306 8.98710E-05-4.30561E-05-1.96411E-05-3.39371E-05 2.48572E-18 1.61624E-19
 -1      3307 1.03723E-04-5.06155E-05-2.29486E-05-3.04207E-05 2.28572E-18-1.40920E-18
 -1      3308 9.59165E-05-2.60511E-05-2.99317E-05-8.96717E-06 7.13096E-19-1.20210E-18
 -1      3309 9.56433E-05-2.56322E-05-3.00004E-05-7.96632E-06 9.57497E-19-1.16012E-18
 -1      3310 1.15547E-04-1.16503E-05-4.50191E-05 2.42234E-06-3.77205E-18-2.29093E-18
 -1      3311 1.16284E-04-1.29018E-05-4.46231E-05-4.78204E-06-4.29943E-18-9.99499E-19
 -1      3312 1.29664E-04-5.72625E-05-3.07822E-05-8.32317E-06-1.76457E-18 5.99752E-19
 -1      3313 1.34036E-04-5.40672E-05-3.45858E-05 1.96118E-06-4.83040E-19 1.42606E-18
 -1      3314 1.28131E-04-3.85643E-05-3.91047E-05-1.15956E-05-2.09593E-18 1.64878E-18
 -1      3315 1.31126E-04-4.61462E-05-3.62331E-05-6.99750E-06-1.16348E-18 1.79799E-18
 -1      3316 9.56123E-05-2.43520E-05-3.05283E-05 2.68313E-06-1.28199E-18-2.20362E-18
 -1      3317 9.58550E-05-2.51316E-05-3.03141E-05 3.88357E-06-1.15421E-18-2.04035E-18
 -1      3318 9.50182E-05-2.45623E-05-3.02024E-05 4.45319E-06-1.02278E-18-2.20677E-18
 -1      3319 6.08638E-05-2.51990E-05-1.49392E-05-2.95095E-05 1.81434E-18 2.66286E-18
 -1      3320 7.55764E-05-3.52242E-05-1.72275E-05-3.50705E-05 2.37122E-18 1.53419E-18
 -1      3321 8.58880E-05-3.79152E-05-2.02194E-05-3.06119E-05 2.06178E-18 7.20984E-19
 -1      3322 9.30794E-05-1.86493E-05-3.18970E-05-2.89819E-06-1.78359E-18-3.33746E-18
 -1      3323 1.18764E-04-1.82966E-05-4.37550E-05-1.01831E-05-3.94908E-18-1.80153E-19
 -1      3324 1.22672E-04-2.54427E-05-4.16398E-05-1.31483E-05-3.14779E-18 8.24587E-19
 -1      3325 5.44025E-05-1.97095E-05-1.45657E-05-2.22558E-05-1.06729E-18-4.57514E-18
 -1      3326 6.42098E-05-2.67147E-05-1.59212E-05-2.95620E-05-1.71969E-18-4.13045E-18
 -1      3327 1.15827E-04-5.47846E-05-2.57907E-05-2.29018E-05 2.54165E-18-1.48368E-18
 -1      3328 1.23840E-04-5.62843E-05-2.94483E-05-1.35140E-05 1.82101E-18-2.27485E-18
 -1      3329 4.51138E-05-1.30698E-05-1.34094E-05-9.65184E-06-2.81334E-19 1.10051E-18
 -1      3330 5.05729E-05-1.75429E-05-1.38318E-05-2.16666E-05 9.67947E-19 1.74955E-18
 -1      3331 1.19745E-04-2.00555E-05-4.31099E-05 1.25876E-05-2.46391E-18-3.86231E-18
 -1      3332 1.16769E-04-1.46911E-05-4.41857E-05 8.00504E-06-3.05027E-18-2.73739E-18
 -1      3333 8.70277E-05-1.34849E-05-3.15368E-05 5.19142E-07 7.17160E-19-3.91154E-18
 -1      3334 8.71186E-05-1.35588E-05-3.15374E-05 3.50659E-07 4.39318E-19-3.92946E-18
 -1      3335 8.74878E-05-1.46036E-05-3.12113E-05 3.87321E-07 6.89047E-19-3.71718E-18
 -1      3336 9.29841E-05-2.03844E-05-3.10968E-05-8.96592E-07 1.92495E-18-2.15209E-18
 -1      3337 9.13056E-05-1.78281E-05-3.14969E-05 4.94393E-07 2.21442E-18-2.66415E-18
 -1      3338 9.03850E-05-1.67412E-05-3.15784E-05-3.73051E-07-7.74575E-19-3.54094E-18
 -1      3339 9.14653E-05-1.78443E-05-3.15670E-05-7.38454E-07-1.17241E-18-3.58174E-18
 -1      3340 8.35351E-05-3.65938E-05-1.97588E-05 3.04721E-05-1.93277E-18 2.55883E-18
 -1      3341 7.61791E-05-3.08816E-05-1.91880E-05 2.79846E-05-1.92509E-18 3.05535E-18
 -1      3342 9.30171E-05-4.05188E-05-2.23628E-05 2.68260E-05-1.92091E-18 4.17164E-19
 -1      3343 5.18439E-05-1.35736E-05-1.60276E-05 6.06730E-06 6.32734E-19-5.38988E-18
 -1      3344 5.47211E-05-1.34392E-05-1.75989E-05-1.70202E-06 5.60828E-21-4.86636E-18
 -1      3345 5.90940E-05-1.56974E-05-1.84537E-05 9.88273E-06 8.75706E-19-4.61413E-18
 -1      3346 1.24354E-04-4.35583E-05-3.48305E-05-8.52441E-06-1.03366E-18 1.56904E-18
 -1      3347 1.20633E-04-3.86098E-05-3.53217E-05-1.15560E-05-1.04704E-18 1.40613E-18
 -1      3348 9.49930E-05-2.25273E-05-3.10565E-05 2.01717E-07-1.73711E-18-2.52275E-18
 -1      3349 9.52927E-05-2.34792E-05-3.07845E-05 1.56170E-06-1.53676E-18-2.41705E-18
 -1      3350 9.44816E-05-2.28374E-05-3.07056E-05 2.20647E-06-1.30222E-18-2.49876E-18
 -1      3351 9.52510E-05-2.85631E-05-2.85806E-05-1.83725E-08 8.12221E-19-2.64936E-18
 -1      3352 9.52500E-05-2.85643E-05-2.85796E-05-2.21068E-08 4.98758E-19-2.44202E-18
 -1      3353 1.13398E-04-1.64713E-05-4.17940E-05-6.03866E-06-3.41566E-18-7.47414E-19
 -1      3354 1.18863E-04-3.30603E-05-3.67838E-05-1.22263E-05-1.54986E-18 1.32762E-18
 -1      3355 1.12975E-04-1.62755E-05-4.17046E-05 5.77849E-06-2.57837E-18-2.36865E-18
 -1      3356 1.17760E-04-2.64946E-05-3.92421E-05 1.33505E-05-1.68692E-18-2.68687E-18
 -1      3357 1.09174E-04-5.03126E-05-2.49982E-05-2.35696E-05 2.20390E-18-1.34794E-18
 -1      3358 9.36678E-05-2.01145E-05-3.15273E-05-1.36630E-06-1.71296E-18-3.12760E-18
 -1      3359 9.51984E-05-2.82615E-05-2.87247E-05-1.35569E-05-2.15344E-19-1.29790E-18
 -1      3360 9.75661E-05-2.87732E-05-2.94607E-05-1.23831E-05-3.08820E-19-9.91559E-19
 -1      3361 9.66336E-05-2.77120E-05-2.95267E-05-1.17859E-05-6.13410E-20-9.02218E-19
 -1      3362 1.31786E-04-3.57558E-05-4.17924E-05 1.61183E-05 1.44769E-18 2.15903E-18
 -1      3363 1.29653E-04-5.13066E-05-3.36960E-05 4.00323E-06-4.99250E-19 2.02246E-18
 -1      3364 1.26911E-04-5.19262E-05-3.20480E-05-7.61589E-07-1.18950E-18 1.75280E-18
 -1      3365 1.34580E-04-4.37042E-05-3.91100E-05 1.18598E-05 7.70165E-19 1.93044E-18
 -1      3366 1.34332E-04-5.04562E-05-3.61288E-05 8.19145E-06-3.97047E-20 2.19318E-18
 -1      3367 1.21877E-04-3.09046E-05-3.90940E-05-1.24868E-05-2.23222E-18 9.69482E-19
 -1      3368 6.53360E-05-2.42038E-05-1.72061E-05 2.58584E-05 2.20548E-18-4.09487E-18
 -1      3369 6.46625E-05-2.08147E-05-1.86346E-05 2.03660E-05 1.58288E-18-4.07148E-18
 -1      3370 7.31487E-05-2.92696E-05-1.89345E-05 2.82839E-05 2.21901E-18-3.10035E-18
 -1      3371 8.80224E-05-1.44059E-05-3.15662E-05 4.76623E-07 1.30394E-18-3.42919E-18
 -1      3372 8.81376E-05-1.52109E-05-3.12318E-05 7.67986E-08 1.09540E-18-3.35599E-18
 -1      3373 8.87560E-05-1.51199E-05-3.15777E-05 6.83835E-07 1.65384E-18-3.33837E-18
 -1      3374 9.52508E-05-2.85589E-05-2.85823E-05-1.09037E-08 1.88357E-18-5.94898E-19
 -1      3375 9.52507E-05-2.85600E-05-2.85817E-05-1.46602E-08 1.74965E-18-7.52420E-19
 -1      3376 9.52501E-05-2.85512E-05-2.85852E-05-1.37720E-08 3.21777E-19-9.91957E-19
 -1      3377 9.56338E-05-2.41253E-05-3.06352E-05-3.09922E-06 1.71168E-18-1.40423E-18
 -1      3378 9.45068E-05-2.26210E-05-3.08092E-05-2.42864E-06 1.88923E-18-1.54116E-18
 -1      3379 9.57051E-05-2.46376E-05-3.04573E-05-4.53579E-06 1.46404E-18-1.35527E-18
 -1      3380 9.01505E-05-1.66901E-05-3.14982E-05 3.25781E-07 1.85863E-18-2.97690E-18
 -1      3381 9.52500E-05-2.85558E-05-2.85833E-05-4.06129E-09 2.12283E-18-3.99516E-19
 -1      3382 9.52502E-05-2.85566E-05-2.85830E-05-7.63439E-09 2.29189E-18-1.42462E-18
 -1      3383 9.52492E-05-2.85456E-05-2.85871E-05-7.33057E-09 2.19504E-18-4.85794E-19
 -1      3384 9.52481E-05-2.85422E-05-2.85880E-05-1.88907E-09 1.54922E-18-1.06283E-18
 -1      3385 1.27652E-04-4.87557E-05-3.38227E-05-2.96386E-06-5.98043E-19 1.46412E-18
 -1      3386 1.01780E-04-4.66507E-05-2.33802E-05-2.71542E-05-2.28111E-18-2.05331E-18
 -1      3387 1.11590E-04-4.98315E-05-2.63229E-05 1.93527E-05-2.19434E-18-1.14483E-18
 -1      3388 1.20697E-04-5.55606E-05-2.79566E-05 1.72063E-05 1.31041E-18 5.45886E-19
 -1      3389 1.13284E-04-5.15838E-05-2.61531E-05 2.08573E-05 1.68271E-18-2.41841E-19
 -1      3390 1.21813E-04-5.26918E-05-2.95793E-05 9.19991E-06 7.69933E-19 7.58240E-19
 -1      3391 8.94085E-05-1.57560E-05-3.15764E-05-2.18867E-07-4.65197E-19-3.79578E-18
 -1      3392 9.04603E-05-1.74906E-05-3.12544E-05 5.70928E-07-6.09108E-19-3.32881E-18
 -1      3393 8.85958E-05-1.49818E-05-3.15669E-05 9.03733E-08-9.36343E-20-3.80825E-18
 -1      3394 1.23267E-04-5.47356E-05-2.93491E-05-1.16073E-05-1.99323E-18 2.97322E-19
 -1      3395 9.57649E-05-2.53761E-05-3.01613E-05-6.90660E-06 1.32212E-18-1.28126E-18
 -1      3396 9.56308E-05-2.49885E-05-3.02684E-05-5.71763E-06 1.39951E-18-1.32601E-18
 -1      3397 9.45028E-05-2.37237E-05-3.03347E-05-5.11323E-06 1.44932E-18-1.34729E-18
 -1      3398 9.43121E-05-2.44272E-05-2.99536E-05-7.39865E-06 1.05505E-18-1.36351E-18
 -1      3399 5.21387E-05-1.30939E-05-1.65553E-05 3.49874E-06-8.99655E-19 1.74854E-18
 -1      3400 4.76138E-05-1.23965E-05-1.46313E-05-3.05138E-06-4.36642E-19 1.65934E-18
 -1      3401 5.42202E-05-1.39926E-05-1.71030E-05-8.35103E-06-4.44428E-20 9.47406E-19
 -1      3402 9.58898E-05-2.64215E-05-2.97676E-05-1.00022E-05 5.71326E-19-9.99113E-19
 -1      3403 9.41559E-05-2.51400E-05-2.95856E-05-9.53730E-06 6.17517E-19-1.28936E-18
 -1      3404 9.64101E-05-2.70499E-05-2.97095E-05-1.08246E-05 2.64629E-19-8.98349E-19
 -1      3405 1.24683E-04-5.28670E-05-3.06829E-05-6.11934E-06 1.09372E-18-2.51696E-18
 -1      3406 9.35157E-05-4.36401E-05-2.11249E-05 3.15239E-05 2.40001E-18-2.47320E-18
 -1      3407 5.76859E-05-1.78864E-05-1.65879E-05-1.62167E-05-7.58134E-19-4.50489E-18
 -1      3408 6.25507E-05-2.21347E-05-1.69156E-05-2.33294E-05 1.07716E-18 1.58326E-18
 -1      3409 1.22957E-04-5.28184E-05-3.01913E-05-8.11713E-06-1.74209E-18 4.77475E-19
 -1      3410 9.52473E-05-2.85633E-05-2.85789E-05 2.56211E-08-4.02065E-19 6.79927E-20
 -1      3411 9.52486E-05-2.85643E-05-2.85791E-05 2.40609E-08 7.35586E-19-3.44809E-19
 -1      3412 9.52487E-05-2.85540E-05-2.85833E-05 1.89788E-08 1.44566E-19-7.94138E-19
 -1      3413 9.52474E-05-2.85556E-05-2.85820E-05 2.16018E-08-1.62315E-19-3.59003E-19
 -1      3414 7.60959E-05-3.09365E-05-1.89416E-05-2.83083E-05-1.93071E-18-3.77364E-18
 -1      3415 9.30794E-05-2.12195E-05-3.08067E-05-2.35941E-06 1.62142E-18-2.00658E-18
 -1      3416 9.42416E-05-2.47687E-05-2.97682E-05 5.96989E-06-6.92187E-19-2.05181E-18
 -1      3417 9.45513E-05-2.55778E-05-2.95533E-05 6.90044E-06-4.57784E-19-1.65377E-18
 -1      3418 6.48299E-05-2.25022E-05-1.79286E-05 2.27918E-05-1.49446E-18 3.76559E-18
 -1      3419 5.66627E-05-1.65536E-05-1.70201E-05 1.48707E-05-1.42873E-18 3.27394E-18
 -1      3420 9.28279E-05-2.01958E-05-3.11162E-05 7.22946E-07-1.19418E-18-3.15444E-18
 -1      3421 9.28643E-05-1.95424E-05-3.14253E-05-5.10369E-07-1.39252E-18-3.22795E-18
 -1      3422 8.07744E-05-3.27641E-05-2.03408E-05-2.80131E-05 1.80574E-18 4.57080E-19
 -1      3423 9.24616E-05-4.07290E-05-2.23537E-05-2.79969E-05 2.00599E-18-5.95041E-19
 -1      3424 1.24541E-04-4.89710E-05-3.23797E-05-1.36382E-06-2.68404E-19 1.33784E-18
 -1      3425 9.47550E-05-2.63868E-05-2.92910E-05 7.85688E-06-2.88106E-19-1.47078E-18
 -1      3426 9.52901E-05-2.73593E-05-2.90998E-05 8.61383E-06-1.26597E-19-1.37829E-18
 -1      3427 9.33529E-05-2.50649E-05-2.92761E-05 7.44204E-06-2.05753E-19-1.83169E-18
 -1      3428 9.57494E-05-2.84003E-05-2.88466E-05 9.50983E-06-1.99515E-19-1.39405E-18
 -1      3429 9.66851E-05-2.97170E-05-2.86807E-05 1.00718E-05 4.64179E-20-1.46639E-18
 -1      3430 9.39611E-05-2.69873E-05-2.87265E-05 9.38686E-06-1.52592E-19-1.84520E-18
 -1      3431 9.76445E-05-3.11876E-05-2.84483E-05 1.08675E-05 3.41398E-19-1.32152E-18
 -1      3432 9.91704E-05-3.30047E-05-2.83330E-05 1.11388E-05 4.26924E-19-1.41386E-18
 -1      3433 9.52985E-05-2.96088E-05-2.81965E-05 1.12569E-05 2.25566E-19-1.67667E-18
 -1      3434 1.00919E-04-3.50525E-05-2.81666E-05 1.16904E-05 6.10489E-19-1.06166E-18
 -1      3435 1.03217E-04-3.74442E-05-2.81669E-05 1.14658E-05 8.21197E-19-8.10945E-19
 -1      3436 9.78928E-05-3.33289E-05-2.77395E-05 1.29075E-05 5.71818E-19-1.44111E-18
 -1      3437 1.06110E-04-4.01120E-05-2.81722E-05 1.14397E-05 7.43280E-19-3.73266E-19
 -1      3438 1.09236E-04-4.28967E-05-2.84035E-05 1.03584E-05 5.92354E-19-1.70424E-19
 -1      3439 1.02324E-04-3.84552E-05-2.74990E-05 1.39142E-05 1.07327E-18-7.87463E-19
 -1      3440 1.14762E-04-4.74919E-05-2.87659E-05 9.52787E-06 7.50564E-19 5.90648E-19
 -1      3441 1.18242E-04-4.93137E-05-2.95541E-05 7.04490E-06 5.95836E-19 9.10372E-19
 -1      3442 1.22287E-04-5.01988E-05-3.09271E-05 2.67632E-06 3.57317E-19 1.17826E-18
 -1      3443 7.30850E-05-2.65651E-05-1.97574E-05-2.47825E-05-1.41846E-18-3.57300E-18
 -1      3444 8.42783E-05-3.47293E-05-2.12945E-05-2.81683E-05-1.73295E-18-3.31267E-18
 -1      3445 1.24476E-04-4.60091E-05-3.36473E-05 6.45942E-06-5.21322E-19-2.90201E-18
 -1      3446 1.22552E-04-4.81703E-05-3.21328E-05 2.23620E-06 1.58925E-19-2.61805E-18
 -1      3447 1.17130E-04-4.72604E-05-2.98782E-05-4.07533E-06 1.41807E-18-2.27600E-18
 -1      3448 1.13731E-04-4.56588E-05-2.90349E-05-7.10127E-06 1.85780E-18-1.56317E-18
 -1      3449 1.09333E-04-4.27456E-05-2.85457E-05-8.58723E-06 1.49636E-18-1.16813E-18
 -1      3450 1.06349E-04-4.02031E-05-2.82447E-05-9.87355E-06 1.53587E-18-9.74263E-19
 -1      3451 1.09801E-04-4.46907E-05-2.79890E-05-1.15373E-05 1.92912E-18-1.23908E-18
 -1      3452 1.03259E-04-3.75324E-05-2.81615E-05-1.01296E-05 8.88966E-19-6.43657E-19
 -1      3453 1.00912E-04-3.52014E-05-2.81020E-05-1.04815E-05 6.29683E-19-2.87615E-19
 -1      3454 1.02557E-04-3.87030E-05-2.74868E-05-1.26731E-05 1.25942E-18-1.10186E-18
 -1      3455 9.90109E-05-3.31864E-05-2.81887E-05-1.00564E-05 6.40035E-19-7.83129E-19
 -1      3456 9.73944E-05-3.14484E-05-2.82311E-05-9.92344E-06 7.84828E-19-4.85767E-19
 -1      3457 9.76885E-05-3.35325E-05-2.75641E-05-1.19261E-05 7.27442E-19-9.84451E-19
 -1      3458 9.63254E-05-3.00823E-05-2.83685E-05-9.27132E-06 3.41597E-19-9.36903E-19
 -1      3459 9.53108E-05-2.89175E-05-2.84404E-05-8.89767E-06 5.28435E-19-1.32306E-18
 -1      3460 9.48345E-05-2.99644E-05-2.78408E-05-1.05462E-05 4.92871E-19-2.03972E-18
 -1      3461 9.47978E-05-2.80860E-05-2.85732E-05-8.20175E-06 4.40570E-19-1.32834E-18
 -1      3462 9.42136E-05-2.73816E-05-2.86385E-05-7.72630E-06 8.96485E-19-1.52412E-18
 -1      3463 9.33342E-05-2.76978E-05-2.81504E-05-9.02757E-06 2.15161E-19-1.80122E-18
 -1      3464 9.40443E-05-2.69423E-05-2.87447E-05-7.06611E-06 1.37625E-18-1.58169E-18
 -1      3465 9.37433E-05-2.65707E-05-2.87900E-05-6.56344E-06 1.25000E-18-9.75730E-19
 -1      3466 9.27059E-05-2.64174E-05-2.84186E-05-7.58740E-06 7.77794E-19-6.06269E-19
 -1      3467 9.37714E-05-2.63980E-05-2.88644E-05-5.96641E-06 6.97934E-19-1.47205E-18
 -1      3468 9.36443E-05-2.62502E-05-2.88876E-05-5.47666E-06 5.90895E-19-1.21019E-18
 -1      3469 9.25977E-05-2.58214E-05-2.86211E-05-6.29501E-06 1.01291E-18-1.32192E-18
 -1      3470 9.37751E-05-2.62468E-05-2.89331E-05-4.95005E-06 5.47753E-19-1.55615E-18
 -1      3471 9.37476E-05-2.62397E-05-2.89375E-05-4.49546E-06 3.66817E-19-1.29982E-18
 -1      3472 9.27756E-05-2.56725E-05-2.87577E-05-5.16199E-06 4.01550E-19-1.46190E-18
 -1      3473 9.39215E-05-2.63350E-05-2.89597E-05-4.03924E-06 2.37785E-19-1.34309E-18
 -1      3474 9.39458E-05-2.64089E-05-2.89502E-05-3.63163E-06 2.00127E-19-1.00631E-18
 -1      3475 9.30909E-05-2.57965E-05-2.88380E-05-4.18245E-06 3.17952E-19-1.56387E-18
 -1      3476 9.41275E-05-2.65540E-05-2.89552E-05-3.24264E-06-1.46145E-19-6.40074E-19
 -1      3477 9.41745E-05-2.66684E-05-2.89367E-05-2.88719E-06-3.13254E-19-1.12135E-18
 -1      3478 9.34519E-05-2.60704E-05-2.88748E-05-3.34573E-06-2.15125E-19-9.56237E-19
 -1      3479 9.43444E-05-2.68314E-05-2.89301E-05-2.56063E-06-5.95337E-19-1.41080E-18
 -1      3480 9.43975E-05-2.69601E-05-2.89067E-05-2.25804E-06-3.32284E-19-2.20753E-18
 -1      3481 9.38061E-05-2.64114E-05-2.88805E-05-2.63988E-06-3.57404E-19-1.23767E-18
 -1      3482 9.45460E-05-2.71210E-05-2.88931E-05-1.98817E-06-7.15460E-19-2.20706E-18
 -1      3483 9.45964E-05-2.72480E-05-2.88678E-05-1.73610E-06-4.21622E-19-2.46199E-18
 -1      3484 9.41256E-05-2.67664E-05-2.88656E-05-2.05241E-06-6.41701E-19-1.90807E-18
 -1      3485 9.47204E-05-2.73959E-05-2.88506E-05-1.51658E-06 4.00703E-19-2.28514E-18
 -1      3486 9.47640E-05-2.75122E-05-2.88257E-05-1.31075E-06 2.82188E-19-1.31604E-18
 -1      3487 9.43986E-05-2.71037E-05-2.88385E-05-1.57044E-06 3.51200E-19-1.62139E-18
 -1      3488 9.48638E-05-2.76415E-05-2.88072E-05-1.13501E-06-3.79631E-19-3.13669E-19
 -1      3489 9.48993E-05-2.77430E-05-2.87841E-05-9.70085E-07-4.51497E-19-6.14068E-20
 -1      3490 9.46226E-05-2.74060E-05-2.88054E-05-1.18090E-06 6.59714E-19-6.73535E-19
 -1      3491 9.49772E-05-2.78520E-05-2.87660E-05-8.31643E-07-1.07743E-18-1.07362E-19
 -1      3492 9.50047E-05-2.79374E-05-2.87454E-05-7.01866E-07-1.44388E-18-3.71938E-19
 -1      3493 9.48004E-05-2.76661E-05-2.87705E-05-8.70848E-07-6.00334E-19-5.40336E-20
 -1      3494 9.50638E-05-2.80266E-05-2.87286E-05-5.94566E-07-1.09230E-18-7.14522E-20
 -1      3495 9.50843E-05-2.80964E-05-2.87109E-05-4.94261E-07-6.32405E-19 5.73933E-20
 -1      3496 9.49374E-05-2.78827E-05-2.87368E-05-6.27903E-07-1.26425E-18-7.09967E-19
 -1      3497 9.51278E-05-2.81676E-05-2.86960E-05-4.12481E-07 4.32938E-19 3.49262E-19
 -1      3498 9.51424E-05-2.82232E-05-2.86810E-05-3.36350E-07 1.45582E-18 7.09061E-19
 -1      3499 9.50400E-05-2.80583E-05-2.87058E-05-4.40576E-07 2.94135E-19 1.54673E-18
 -1      3500 9.51734E-05-2.82787E-05-2.86682E-05-2.75116E-07 9.27564E-19 9.93669E-19
 -1      3501 9.51835E-05-2.83221E-05-2.86559E-05-2.18425E-07 5.83815E-19 5.44290E-19
 -1      3502 9.51145E-05-2.81974E-05-2.86783E-05-2.98540E-07 1.00824E-18 2.15262E-18
 -1      3503 9.52048E-05-2.83645E-05-2.86451E-05-1.73451E-07 2.44730E-19-1.61642E-20
 -1      3504 9.52112E-05-2.83976E-05-2.86351E-05-1.32113E-07 5.62082E-19 6.06783E-19
 -1      3505 9.51669E-05-2.83052E-05-2.86547E-05-1.92772E-07-2.62619E-20 1.40667E-18
 -1      3506 9.52251E-05-2.84294E-05-2.86261E-05-9.97727E-08 1.66546E-18 1.49179E-19
 -1      3507 9.52289E-05-2.84544E-05-2.86182E-05-7.03611E-08 1.52309E-18 1.06003E-18
 -1      3508 9.52023E-05-2.83872E-05-2.86349E-05-1.15560E-07 5.89529E-19 4.10219E-19
 -1      3509 9.52376E-05-2.84779E-05-2.86108E-05-4.78053E-08 1.07508E-18 4.74920E-19
 -1      3510 9.52395E-05-2.84964E-05-2.86045E-05-2.76502E-08 1.06185E-18 6.71185E-19
 -1      3511 9.52250E-05-2.84486E-05-2.86184E-05-6.04421E-08 7.90211E-19-1.60165E-19
 -1      3512 9.52443E-05-2.85137E-05-2.85985E-05-1.24188E-08 3.15932E-19 6.52840E-20
 -1      3513 9.52451E-05-2.85274E-05-2.85935E-05 5.57308E-10-2.65803E-19-7.40783E-19
 -1      3514 9.52384E-05-2.84938E-05-2.86048E-05-2.24755E-08-1.84077E-21-7.56008E-19
 -1      3515 9.44524E-05-3.08250E-05-2.72023E-05-1.65295E-05-9.87120E-19-1.47770E-18
 -1      3516 9.27758E-05-2.85638E-05-2.75048E-05-1.55452E-05-6.31311E-19-1.50355E-18
 -1      3517 1.19432E-04-5.00606E-05-2.96165E-05-6.55058E-06 1.25026E-18-1.99208E-18
 -1      3518 9.14377E-05-2.45510E-05-2.86817E-05 9.20876E-06-1.14823E-18-1.37332E-19
 -1      3519 9.15242E-05-2.48390E-05-2.85577E-05 1.00220E-05-1.16913E-18 3.91750E-19
 -1      3520 9.11350E-05-2.51433E-05-2.82960E-05 1.10595E-05-1.25828E-18 4.85521E-19
 -1      3521 9.15876E-05-2.59287E-05-2.81027E-05 1.19525E-05-5.72510E-19-3.20453E-19
 -1      3522 8.88376E-05-2.36909E-05-2.79138E-05 1.02950E-05-1.25897E-18 1.34333E-19
 -1      3523 1.24756E-04-4.17120E-05-3.57150E-05 9.71958E-06-5.79245E-19-3.26859E-18
 -1      3524 1.26931E-04-3.75137E-05-3.83199E-05 1.25657E-05-9.16066E-19-4.17900E-18
 -1      3525 9.15132E-05-2.68084E-05-2.77340E-05 1.32631E-05-5.34984E-19-6.66521E-19
 -1      3526 9.26713E-05-2.84197E-05-2.74815E-05 1.42151E-05-9.08746E-19-6.01266E-19
 -1      3527 8.82764E-05-2.47631E-05-2.72273E-05 1.26513E-05-1.14544E-18-2.86535E-21
 -1      3528 9.20093E-05-2.45719E-05-2.89172E-05 7.63103E-06-1.30061E-18-3.73081E-19
 -1      3529 9.19310E-05-2.45778E-05-2.88524E-05 8.36310E-06-1.43816E-18-5.04171E-19
 -1      3530 8.97583E-05-2.34987E-05-2.83858E-05 8.45156E-06-1.33327E-18-3.78405E-19
 -1      3531 9.26354E-05-2.49100E-05-2.90390E-05 6.27082E-06-1.11836E-18-3.51176E-19
 -1      3532 9.25000E-05-2.47708E-05-2.90179E-05 6.92353E-06-8.88569E-19-3.34199E-19
 -1      3533 9.07536E-05-2.37904E-05-2.86865E-05 6.95140E-06-1.29176E-18-1.21859E-18
 -1      3534 9.32147E-05-2.53851E-05-2.90818E-05 5.09578E-06-1.16332E-19-4.09408E-19
 -1      3535 9.30750E-05-2.51833E-05-2.90898E-05 5.66987E-06-6.52098E-19-5.72609E-19
 -1      3536 9.16829E-05-2.43167E-05-2.88604E-05 5.69269E-06-8.09041E-19-1.58126E-18
 -1      3537 9.37076E-05-2.58928E-05-2.90735E-05 4.08736E-06 1.23199E-19-6.64032E-19
 -1      3538 9.35858E-05-2.56754E-05-2.90989E-05 4.58393E-06 6.39743E-19-3.52921E-19
 -1      3539 9.24880E-05-2.49281E-05-2.89452E-05 4.62067E-06-1.65124E-19-1.51759E-18
 -1      3540 9.41063E-05-2.63767E-05-2.90353E-05 3.23218E-06 1.07984E-19-5.12603E-19
 -1      3541 9.40090E-05-2.61690E-05-2.90694E-05 3.65408E-06-1.74397E-19-6.33317E-19
 -1      3542 9.31540E-05-2.55385E-05-2.89709E-05 3.70653E-06 7.76638E-20-1.34654E-18
 -1      3543 9.44181E-05-2.68098E-05-2.89818E-05 2.51743E-06 3.11985E-19 3.97018E-19
 -1      3544 9.43444E-05-2.66238E-05-2.90188E-05 2.86949E-06 6.50811E-20-3.08965E-20
 -1      3545 9.36875E-05-2.61024E-05-2.89597E-05 2.93279E-06-5.14273E-19-1.21563E-18
 -1      3546 9.46561E-05-2.71822E-05-2.89228E-05 1.92937E-06-8.55344E-21 7.93041E-19
 -1      3547 9.46022E-05-2.70221E-05-2.89590E-05 2.21804E-06 9.49541E-19 1.34594E-18
 -1      3548 9.41050E-05-2.65987E-05-2.89273E-05 2.28590E-06 3.95203E-19-1.73074E-19
 -1      3549 9.48340E-05-2.74934E-05-2.88646E-05 1.45324E-06 5.00304E-19 4.54869E-20
 -1      3550 9.47959E-05-2.73596E-05-2.88979E-05 1.68597E-06 1.19515E-19 2.80341E-19
 -1      3551 9.44254E-05-2.70215E-05-2.88845E-05 1.75300E-06 3.93534E-19 7.08530E-19
 -1      3552 9.49649E-05-2.77478E-05-2.88106E-05 1.07389E-06 5.14036E-19 6.36329E-19
 -1      3553 9.49386E-05-2.76383E-05-2.88401E-05 1.25846E-06 8.65560E-19-2.88926E-19
 -1      3554 9.46673E-05-2.73728E-05-2.88385E-05 1.32088E-06 7.22175E-19 7.41837E-19
 -1      3555 9.50594E-05-2.79520E-05-2.87629E-05 7.76457E-07 1.74697E-19 4.65279E-19
 -1      3556 9.50417E-05-2.78641E-05-2.87880E-05 9.20480E-07 1.66504E-19 1.65638E-19
 -1      3557 9.48470E-05-2.76587E-05-2.87936E-05 9.76097E-07 5.24722E-19-1.53615E-19
 -1      3558 9.51263E-05-2.81131E-05-2.87219E-05 5.46989E-07-4.34732E-19 7.03478E-19
 -1      3559 9.51148E-05-2.80437E-05-2.87428E-05 6.57566E-07-7.65507E-20 3.41421E-19
 -1      3560 9.49783E-05-2.78875E-05-2.87523E-05 7.05437E-07-1.29081E-19 6.83819E-19
 -1      3561 9.51727E-05-2.82384E-05-2.86876E-05 3.72873E-07 3.59392E-19 8.02147E-19
 -1      3562 9.51656E-05-2.81844E-05-2.87046E-05 4.56365E-07 1.59158E-19 1.09902E-18
 -1      3563 9.50724E-05-2.80674E-05-2.87159E-05 4.96437E-07-2.60921E-19 9.93041E-19
 -1      3564 9.52039E-05-2.83343E-05-2.86595E-05 2.43058E-07 1.33318E-19 5.89514E-19
 -1      3565 9.51997E-05-2.82928E-05-2.86731E-05 3.04989E-07 4.19788E-19 1.36185E-18
 -1      3566 9.51384E-05-2.82069E-05-2.86846E-05 3.37765E-07-2.50831E-20 7.42823E-19
 -1      3567 9.52241E-05-2.84065E-05-2.86369E-05 1.48120E-07 1.09092E-18 3.81016E-19
 -1      3568 9.52219E-05-2.83752E-05-2.86476E-05 1.93158E-07 4.81658E-19 1.84623E-19
 -1      3569 9.51834E-05-2.83132E-05-2.86585E-05 2.19448E-07 9.78244E-19 8.14215E-19
 -1      3570 9.52364E-05-2.84602E-05-2.86189E-05 8.02222E-08-4.27265E-19 1.80858E-20
 -1      3571 9.52355E-05-2.84369E-05-2.86272E-05 1.12217E-07 6.35166E-19-5.07104E-19
 -1      3572 9.52129E-05-2.83931E-05-2.86370E-05 1.32951E-07 8.63237E-19 8.79357E-19
 -1      3573 9.52432E-05-2.84998E-05-2.86047E-05 3.30425E-08-1.54040E-18 1.03000E-18
 -1      3574 9.52432E-05-2.84825E-05-2.86112E-05 5.50500E-08-6.32989E-19 7.05982E-19
 -1      3575 9.52312E-05-2.84523E-05-2.86195E-05 7.11292E-08-1.07185E-18 2.26769E-18
 -1      3576 9.52465E-05-2.85290E-05-2.85935E-05 1.77264E-09-9.39525E-19-2.56096E-21
 -1      3577 9.52469E-05-2.85161E-05-2.85985E-05 1.59817E-08-1.64132E-18 2.99614E-19
 -1      3578 9.52417E-05-2.84958E-05-2.86054E-05 2.81788E-08-1.19556E-18 2.53002E-18
 -1      3579 9.52475E-05-2.85504E-05-2.85846E-05-1.78871E-08-9.41264E-19-8.00216E-19
 -1      3580 9.52478E-05-2.85406E-05-2.85885E-05-9.18635E-09-8.47554E-19-1.32395E-19
 -1      3581 9.52469E-05-2.85273E-05-2.85941E-05 7.04046E-11-6.79428E-19 1.87316E-18
 -1      3582 9.52495E-05-2.85679E-05-2.85779E-05-2.53972E-08-4.09098E-19-1.98404E-19
 -1      3583 9.52476E-05-2.85688E-05-2.85766E-05-2.82998E-08-7.17434E-19 4.76926E-19
 -1      3584 9.52475E-05-2.85644E-05-2.85785E-05-2.69385E-08-9.68952E-19-4.51091E-19
 -1      3585 9.52496E-05-2.85581E-05-2.85821E-05-2.06571E-08-6.22445E-20-1.00335E-18
 -1      3586 9.52442E-05-2.85277E-05-2.85929E-05 2.71623E-09 6.29309E-19-2.48787E-18
 -1      3587 9.52439E-05-2.85269E-05-2.85931E-05 8.85398E-10 1.12850E-18-1.99175E-18
 -1      3588 9.33067E-05-3.01795E-05-2.70137E-05 1.58208E-05-1.20496E-18-5.71371E-19
 -1      3589 9.55841E-05-3.30359E-05-2.67479E-05 1.67710E-05-1.32552E-18-4.61676E-19
 -1      3590 8.86660E-05-2.73986E-05-2.63038E-05 1.57393E-05-1.08960E-18-6.23085E-19
 -1      3591 1.05721E-04-4.49973E-05-2.58049E-05 2.04409E-05-2.29349E-18-8.40134E-19
 -1      3592 9.00459E-05-1.72840E-05-3.11735E-05-4.92735E-07 1.53626E-18-2.90423E-18
 -1      3593 1.19398E-04-2.52833E-05-4.05029E-05 1.29710E-05-1.85183E-18-3.72275E-18
 -1      3594 8.74327E-05-1.38721E-05-3.15445E-05 3.81062E-07 3.20817E-19-3.95632E-18
 -1      3595 8.79122E-05-1.43091E-05-3.15547E-05 1.50233E-07 7.62943E-20-3.92243E-18
 -1      3596 8.87548E-05-1.58234E-05-3.12361E-05 6.87530E-07 3.98273E-20-3.68107E-18
 -1      3597 9.38707E-05-2.31773E-05-3.02954E-05 3.83000E-06-8.39851E-19-2.44290E-18
 -1      3598 9.41112E-05-2.40029E-05-3.00453E-05 4.94249E-06-7.70076E-19-2.32393E-18
 -1      3599 9.30504E-05-2.34287E-05-2.98431E-05 5.40946E-06-5.75520E-19-2.12185E-18
 -1      3600 1.15684E-04-5.13931E-05-2.72481E-05-1.80729E-05-2.07409E-18-8.75422E-20
 -1      3601 6.22419E-05-1.89204E-05-1.84326E-05-1.80593E-05 6.78950E-21 7.67703E-19
 -1      3602 7.11994E-05-2.58303E-05-1.93578E-05-2.53162E-05 1.03079E-18 1.46381E-18
 -1      3603 1.00298E-04-4.60601E-05-2.35293E-05 2.77614E-05 2.08444E-18-1.77570E-18
 -1      3604 8.72323E-05-3.74657E-05-2.08937E-05 2.98047E-05 2.16136E-18-2.45073E-18
 -1      3605 5.82076E-05-1.56608E-05-1.80677E-05-1.13550E-05-5.92162E-19-4.35931E-18
 -1      3606 6.42826E-05-2.01865E-05-1.88193E-05-1.95746E-05-9.35349E-19-4.05866E-18
 -1      3607 1.03240E-04-4.57956E-05-2.42910E-05-2.41414E-05 1.94620E-18-1.41761E-18
 -1      3608 1.12171E-04-5.02574E-05-2.66289E-05-1.81286E-05 1.92163E-18-1.22138E-18
 -1      3609 1.06248E-04-4.73307E-05-2.54354E-05-2.30440E-05-2.02309E-18-9.97646E-19
 -1      3610 1.08329E-04-4.62163E-05-2.65641E-05-1.93890E-05-1.94374E-18-4.74267E-19
 -1      3611 1.03153E-04-4.11906E-05-2.63746E-05-1.97617E-05-1.65520E-18-7.61641E-19
 -1      3612 9.48138E-05-4.05812E-05-2.29293E-05-2.70422E-05-1.94757E-18-2.41972E-18
 -1      3613 6.31214E-05-1.69603E-05-1.96869E-05 1.22969E-05-6.50089E-19 2.69960E-18
 -1      3614 5.67374E-05-1.43730E-05-1.78350E-05 8.80691E-06-5.91646E-19 2.50002E-18
 -1      3615 5.87763E-05-1.40343E-05-1.91874E-05 2.65819E-06-3.29152E-19 1.85209E-18
 -1      3616 9.79865E-05-4.14430E-05-2.41462E-05-2.31567E-05 1.60785E-18-6.86064E-19
 -1      3617 8.16421E-05-3.10300E-05-2.17347E-05 2.44696E-05-1.92859E-18 2.17746E-18
 -1      3618 7.30056E-05-2.65152E-05-1.96424E-05 2.42367E-05-1.92235E-18 3.23019E-18
 -1      3619 7.15066E-05-2.32690E-05-2.05967E-05 2.02627E-05-1.82771E-18 2.81572E-18
 -1      3620 9.14220E-05-3.61923E-05-2.34545E-05-2.43984E-05-1.61018E-18-2.55496E-18
 -1      3621 6.41900E-05-1.78092E-05-1.95328E-05 1.45097E-05 1.19249E-18-3.93693E-18
 -1      3622 6.34280E-05-1.62523E-05-2.02124E-05 8.67553E-06 7.31817E-19-4.14785E-18
 -1      3623 9.32553E-05-2.13438E-05-3.08250E-05 1.72629E-06-1.15416E-18-2.91491E-18
 -1      3624 9.35752E-05-2.22783E-05-3.05562E-05 2.87748E-06-9.87804E-19-2.74622E-18
 -1      3625 9.26315E-05-2.17109E-05-3.03978E-05 3.38794E-06-6.14828E-19-2.65455E-18
 -1      3626 9.18924E-05-1.96533E-05-3.09594E-05 1.42498E-06-9.00947E-19-3.09531E-18
 -1      3627 1.10900E-04-4.66877E-05-2.76579E-05 1.44351E-05 1.21654E-18 2.34588E-19
 -1      3628 7.31283E-05-2.36655E-05-2.09530E-05-2.01884E-05-1.05082E-18-3.50245E-18
 -1      3629 6.84278E-05-2.11034E-05-2.03950E-05 1.81802E-05 1.50673E-18-3.54242E-18
 -1      3630 8.91030E-05-2.61419E-05-2.70116E-05-1.50497E-05-6.34009E-19-1.89853E-18
 -1      3631 9.25884E-05-2.71878E-05-2.79828E-05-1.40361E-05-3.69003E-19-1.56576E-18
 -1      3632 9.18435E-05-2.59103E-05-2.82629E-05-1.30373E-05-2.09203E-19-1.61995E-18
 -1      3633 9.52468E-05-2.85380E-05-2.85893E-05 8.64413E-09 1.62130E-20-1.06367E-18
 -1      3634 9.52470E-05-2.85475E-05-2.85855E-05 1.59840E-08 7.42527E-20-7.48932E-19
 -1      3635 9.52476E-05-2.85463E-05-2.85864E-05 1.47147E-08 3.67994E-19-8.18211E-19
 -1      3636 9.52450E-05-2.85247E-05-2.85944E-05 4.79013E-10-1.74186E-19-1.55208E-18
 -1      3637 1.16399E-04-5.09959E-05-2.80995E-05-1.29478E-05 2.13374E-18-1.30230E-18
 -1      3638 9.43152E-05-2.62576E-05-2.91844E-05-1.16009E-05 6.13946E-20-1.19170E-18
 -1      3639 9.30353E-05-2.19800E-05-3.04518E-05-3.77250E-06 1.35293E-18-1.79312E-18
 -1      3640 9.15853E-05-1.98646E-05-3.07211E-05-2.33544E-06 1.44342E-18-2.34017E-18
 -1      3641 9.52482E-05-2.85455E-05-2.85870E-05 1.34093E-08 5.51747E-19-1.22625E-18
 -1      3642 8.26679E-05-3.23077E-05-2.13091E-05 2.58778E-05 1.90425E-18-2.84694E-18
 -1      3643 1.03309E-04-4.10136E-05-2.65868E-05 1.79996E-05-2.16923E-18-1.54979E-18
 -1      3644 9.79530E-05-4.12429E-05-2.43376E-05 2.38043E-05-2.08062E-18-1.36929E-18
 -1      3645 9.12852E-05-3.62464E-05-2.34099E-05 2.38997E-05-1.91191E-18-2.33119E-19
 -1      3646 9.92471E-05-3.69416E-05-2.65521E-05 1.80019E-05-1.71101E-18-1.31440E-18
 -1      3647 9.52496E-05-2.85479E-05-2.85865E-05-1.40219E-08-1.25537E-19-4.83386E-19
 -1      3648 9.52488E-05-2.85515E-05-2.85846E-05-1.76342E-08-1.23598E-18 1.56292E-19
 -1      3649 9.52475E-05-2.85597E-05-2.85804E-05-2.40851E-08-7.18687E-19-9.17240E-19
 -1      3650 9.52450E-05-2.85302E-05-2.85922E-05 3.70801E-09 1.10887E-18-2.32922E-18
 -1      3651 9.52413E-05-2.85131E-05-2.85975E-05 1.02150E-09 8.99384E-19-1.90414E-18
 -1      3652 9.52457E-05-2.85324E-05-2.85914E-05 5.88095E-09 1.15927E-18-2.50736E-18
 -1      3653 9.52440E-05-2.85269E-05-2.85931E-05 3.52148E-10 1.09176E-18-1.00619E-18
 -1      3654 9.52445E-05-2.85279E-05-2.85929E-05-1.54303E-09 1.98589E-18-1.67810E-18
 -1      3655 9.52402E-05-2.85104E-05-2.85982E-05 5.42455E-10 1.50775E-18-1.63627E-18
 -1      3656 9.23591E-05-3.31492E-05-2.54917E-05 1.93530E-05-1.67468E-18-1.08183E-18
 -1      3657 1.07113E-04-4.71662E-05-2.55742E-05 2.12750E-05 1.79455E-18-7.72726E-19
 -1      3658 9.52484E-05-2.85406E-05-2.85891E-05-1.00978E-08 6.36715E-19-4.40068E-19
 -1      3659 9.52474E-05-2.85333E-05-2.85918E-05-6.99292E-09 5.55135E-20 5.14373E-19
 -1      3660 8.75442E-05-1.55551E-05-3.08746E-05 2.31214E-07 7.25578E-19-3.51546E-18
 -1      3661 8.74549E-05-1.54429E-05-3.08693E-05 4.23781E-07 5.50953E-19-3.70648E-18
 -1      3662 8.77163E-05-1.48315E-05-3.12141E-05 6.15077E-07 3.53531E-19-3.78098E-18
 -1      3663 9.52481E-05-2.85376E-05-2.85904E-05-7.18987E-09 1.20676E-18-8.85620E-20
 -1      3664 9.28357E-05-2.34658E-05-2.97216E-05-7.49424E-06 8.68780E-19-1.62142E-18
 -1      3665 9.29235E-05-2.31385E-05-2.99152E-05-6.41243E-06 1.10925E-18-1.64387E-18
 -1      3666 9.93087E-05-3.70917E-05-2.65886E-05-1.87091E-05-1.54773E-18-1.13015E-18
 -1      3667 9.61627E-05-3.34627E-05-2.67952E-05-1.80349E-05-1.35975E-18-1.31388E-18
 -1      3668 9.07363E-05-3.02630E-05-2.60127E-05-1.84964E-05-1.26884E-18-1.62685E-18
 -1      3669 9.58681E-05-3.72804E-05-2.52310E-05-2.19280E-05-1.74768E-18-1.68724E-18
 -1      3670 9.00778E-05-1.83560E-05-3.07565E-05-1.42387E-06 1.30949E-18-2.73224E-18
 -1      3671 8.87682E-05-1.68086E-05-3.08268E-05-8.84009E-07 1.12894E-18-2.93452E-18
 -1      3672 9.00535E-05-1.91711E-05-3.03776E-05-2.69359E-06 1.14714E-18-2.53164E-18
 -1      3673 9.23722E-05-2.41458E-05-2.92228E-05-9.65600E-06 4.06996E-19-1.64030E-18
 -1      3674 9.23823E-05-2.37256E-05-2.94346E-05-8.59218E-06 6.52824E-19-1.64589E-18
 -1      3675 9.10302E-05-2.24469E-05-2.93834E-05-7.66870E-06 8.39033E-19-1.95210E-18
 -1      3676 9.52475E-05-2.85401E-05-2.85889E-05 1.07395E-08 1.24236E-18-9.69190E-19
 -1      3677 9.52472E-05-2.85371E-05-2.85902E-05 7.70335E-09 1.17355E-18-1.80434E-18
 -1      3678 9.52437E-05-2.85206E-05-2.85955E-05 2.86747E-09 7.96072E-19-1.92097E-18
 -1      3679 9.52459E-05-2.85306E-05-2.85922E-05 6.43668E-09 3.99762E-19-1.43870E-18
 -1      3680 6.08473E-05-1.64025E-05-1.87718E-05-1.34912E-05-7.39678E-19 2.12738E-19
 -1      3681 6.85175E-05-1.97298E-05-2.08582E-05-1.55449E-05-5.61426E-19-1.51394E-19
 -1      3682 6.09190E-05-1.51289E-05-1.95824E-05-7.61883E-06-9.26058E-19 1.26561E-18
 -1      3683 6.12989E-05-1.53517E-05-1.95041E-05-5.66172E-06-2.79309E-19-4.37058E-18
 -1      3684 7.93339E-05-2.88903E-05-2.14058E-05-2.33338E-05 1.03609E-18 4.84543E-19
 -1      3685 8.98435E-05-1.76769E-05-3.09361E-05 1.42434E-06-3.12466E-19-3.10653E-18
 -1      3686 9.08183E-05-1.86401E-05-3.09432E-05 1.37552E-06-6.72010E-19-3.03172E-18
 -1      3687 9.12626E-05-1.97182E-05-3.06480E-05 2.32624E-06-6.61768E-19-2.84156E-18
 -1      3688 1.10562E-04-4.72028E-05-2.72224E-05-1.49613E-05 2.00462E-18-1.39080E-18
 -1      3689 8.82616E-05-1.63276E-05-3.08513E-05-4.20618E-07 1.02216E-18-3.10022E-18
 -1      3690 8.77612E-05-1.58201E-05-3.08354E-05-1.82913E-07 7.92869E-19-3.24737E-18
 -1      3691 8.76895E-05-1.64817E-05-3.04917E-05-1.62462E-07 6.34772E-19-3.19308E-18
 -1      3692 8.83071E-05-1.72653E-05-3.04276E-05-1.12843E-06 9.37463E-19-2.89124E-18
 -1      3693 1.06421E-04-4.36389E-05-2.67831E-05-1.56431E-05 1.72633E-18-1.65363E-18
 -1      3694 9.14562E-05-2.06524E-05-3.03504E-05 3.17122E-06-4.95551E-19-2.82790E-18
 -1      3695 9.17459E-05-2.15341E-05-3.00806E-05 4.13067E-06-3.78478E-19-2.62212E-18
 -1      3696 9.03692E-05-1.96286E-05-3.03233E-05 3.02172E-06-3.53663E-19-2.65482E-18
 -1      3697 9.18839E-05-2.35895E-05-2.92728E-05 6.71121E-06-2.12050E-19-2.19256E-18
 -1      3698 9.20783E-05-2.44267E-05-2.89812E-05 7.70121E-06 5.71501E-20-2.14969E-18
 -1      3699 9.20056E-05-2.52250E-05-2.86236E-05 8.81245E-06-6.66450E-20-2.19930E-18
 -1      3700 9.24635E-05-2.62900E-05-2.83340E-05 9.80495E-06-1.48364E-19-2.07936E-18
 -1      3701 9.04645E-05-2.37192E-05-2.86061E-05 8.08020E-06-1.18301E-19-2.29665E-18
 -1      3702 9.26139E-05-2.73841E-05-2.79540E-05 1.10622E-05 2.03143E-19-1.88969E-18
 -1      3703 9.35771E-05-2.89092E-05-2.76743E-05 1.20511E-05 4.40859E-19-1.87323E-18
 -1      3704 9.04736E-05-2.55651E-05-2.78313E-05 1.05085E-05 1.64260E-19-2.10877E-18
 -1      3705 9.42686E-05-3.05736E-05-2.72820E-05 1.34817E-05 7.48579E-19-1.67670E-18
 -1      3706 9.60201E-05-3.27645E-05-2.70566E-05 1.43364E-05 1.03073E-18-1.30878E-18
 -1      3707 9.11794E-05-2.82707E-05-2.70017E-05 1.33774E-05 7.26280E-19-1.81527E-18
 -1      3708 9.77230E-05-3.52501E-05-2.67109E-05 1.58949E-05 1.13665E-18-1.08690E-18
 -1      3709 1.00897E-04-3.83908E-05-2.66963E-05 1.61830E-05 1.33647E-18-8.95737E-19
 -1      3710 9.33459E-05-3.23320E-05-2.61700E-05 1.66773E-05 1.25760E-18-1.55363E-18
 -1      3711 1.21711E-04-3.27145E-05-3.86959E-05 1.42085E-05-1.13807E-18-3.61935E-18
 -1      3712 9.52442E-05-2.85190E-05-2.85965E-05-1.80347E-09 3.17046E-19-1.28930E-18
 -1      3713 1.00646E-04-3.86397E-05-2.65778E-05-1.54309E-05 1.41596E-18-1.94054E-18
 -1      3714 9.76080E-05-3.53769E-05-2.65960E-05-1.49684E-05 1.36401E-18-1.79805E-18
 -1      3715 9.58150E-05-3.30283E-05-2.68554E-05-1.35171E-05 9.28059E-19-2.28582E-18
 -1      3716 9.38611E-05-3.08403E-05-2.69972E-05-1.28290E-05 6.39125E-19-2.30124E-18
 -1      3717 9.30973E-05-3.25733E-05-2.59385E-05-1.60209E-05 7.76299E-19-2.89162E-18
 -1      3718 9.30332E-05-2.92510E-05-2.72918E-05-1.14273E-05 4.18280E-19-2.11658E-18
 -1      3719 9.19443E-05-2.78589E-05-2.74709E-05-1.06481E-05 3.13315E-19-2.45231E-18
 -1      3720 9.05730E-05-2.85158E-05-2.65859E-05-1.29338E-05 5.18947E-19-2.68139E-18
 -1      3721 9.17206E-05-2.69380E-05-2.77339E-05-9.46689E-06 6.03917E-19-1.78920E-18
 -1      3722 9.12034E-05-2.61358E-05-2.78979E-05-8.72318E-06 6.11101E-19-1.48901E-18
 -1      3723 8.96341E-05-2.61250E-05-2.72021E-05-1.02860E-05 9.30387E-19-1.39049E-18
 -1      3724 9.13098E-05-2.56778E-05-2.81082E-05-7.76829E-06 8.86347E-19-7.39382E-19
 -1      3725 9.11415E-05-2.52834E-05-2.82380E-05-7.10235E-06 1.37276E-18-2.34943E-19
 -1      3726 8.95776E-05-2.48762E-05-2.77119E-05-8.16569E-06 1.37466E-18-1.26109E-18
 -1      3727 9.14159E-05-2.51321E-05-2.83946E-05-6.33564E-06 5.92091E-19-5.11536E-19
 -1      3728 9.14467E-05-2.50055E-05-2.84873E-05-5.75322E-06 2.01146E-19-1.29740E-18
 -1      3729 8.99900E-05-2.43776E-05-2.81034E-05-6.48932E-06 7.08331E-19-7.41168E-19
 -1      3730 9.17924E-05-2.50476E-05-2.85966E-05-5.13434E-06 4.05982E-20-1.37297E-18
 -1      3731 9.19265E-05-2.50882E-05-2.86561E-05-4.63047E-06 2.25361E-19-1.92435E-18
 -1      3732 9.06254E-05-2.43561E-05-2.83866E-05-5.15708E-06-4.77021E-20-1.03874E-18
 -1      3733 9.22859E-05-2.52431E-05-2.87271E-05-4.12856E-06 7.99443E-19-2.05115E-18
 -1      3734 9.24633E-05-2.53791E-05-2.87601E-05-3.69649E-06 6.03762E-19-1.80288E-18
 -1      3735 9.13375E-05-2.46231E-05-2.85794E-05-4.08828E-06 4.94611E-19-1.77327E-18
 -1      3736 9.28034E-05-2.55907E-05-2.88017E-05-3.28838E-06-8.67209E-20-1.34287E-18
 -1      3737 9.29886E-05-2.57731E-05-2.88149E-05-2.92148E-06-2.24699E-19-1.60569E-18
 -1      3738 9.20396E-05-2.50462E-05-2.87010E-05-3.22456E-06 5.64108E-19-2.32965E-18
 -1      3739 9.32921E-05-2.60039E-05-2.88351E-05-2.58998E-06-3.54985E-19-1.50751E-18
 -1      3740 9.34654E-05-2.62006E-05-2.88346E-05-2.28203E-06-4.72748E-19-1.72412E-18
 -1      3741 9.26839E-05-2.55350E-05-2.87695E-05-2.52396E-06-2.85377E-19-1.47148E-18
 -1      3742 9.37252E-05-2.64270E-05-2.88401E-05-2.01403E-06-2.23873E-19-2.09529E-18
 -1      3743 9.38771E-05-2.66180E-05-2.88309E-05-1.75894E-06-2.22497E-19-2.06899E-18
 -1      3744 9.32472E-05-2.60310E-05-2.88001E-05-1.95609E-06-4.02292E-19-1.93138E-18
 -1      3745 9.40923E-05-2.68261E-05-2.88268E-05-1.54395E-06 1.23590E-19-1.60603E-18
 -1      3746 9.42193E-05-2.70003E-05-2.88127E-05-1.33563E-06 8.98870E-19-1.19312E-18
 -1      3747 9.37221E-05-2.64979E-05-2.88049E-05-1.49798E-06 6.18025E-19-8.38259E-19
 -1      3748 9.43927E-05-2.71831E-05-2.88029E-05-1.16488E-06 9.93329E-19-1.54359E-18
 -1      3749 9.44952E-05-2.73350E-05-2.87865E-05-9.97255E-07 1.17674E-18-9.94284E-19
 -1      3750 9.41106E-05-2.69162E-05-2.87934E-05-1.13128E-06 4.99846E-19-1.43652E-18
 -1      3751 9.46314E-05-2.74902E-05-2.87738E-05-8.63217E-07-4.05762E-20-7.34227E-19
 -1      3752 9.47116E-05-2.76184E-05-2.87571E-05-7.30382E-07-1.25419E-18-7.77251E-19
 -1      3753 9.44203E-05-2.72770E-05-2.87725E-05-8.40666E-07 5.78336E-19-2.99021E-18
 -1      3754 9.48160E-05-2.77464E-05-2.87433E-05-6.26512E-07-1.37571E-18 2.49565E-19
 -1      3755 9.48771E-05-2.78515E-05-2.87274E-05-5.22878E-07-8.00375E-19 2.85833E-19
 -1      3756 9.46611E-05-2.75790E-05-2.87471E-05-6.13016E-07-8.29686E-19-1.87995E-18
 -1      3757 9.49551E-05-2.79545E-05-2.87138E-05-4.43508E-07-1.21572E-19 8.73141E-19
 -1      3758 9.50002E-05-2.80387E-05-2.86994E-05-3.63951E-07 9.27275E-19 1.65166E-18
 -1      3759 9.48440E-05-2.78255E-05-2.87205E-05-4.36975E-07 2.09410E-19 6.85527E-19
 -1      3760 9.50571E-05-2.81199E-05-2.86868E-05-3.04222E-07 8.94242E-19 7.34607E-19
 -1      3761 9.50894E-05-2.81858E-05-2.86742E-05-2.44182E-07 4.09305E-19 3.53284E-19
 -1      3762 9.49795E-05-2.80221E-05-2.86948E-05-3.02744E-07 4.17431E-19-3.16467E-19
 -1      3763 9.51296E-05-2.82484E-05-2.86629E-05-1.99996E-07-1.30613E-19-8.74133E-20
 -1      3764 9.51520E-05-2.82990E-05-2.86521E-05-1.55524E-07-4.68592E-19-1.07108E-18
 -1      3765 9.50771E-05-2.81758E-05-2.86712E-05-2.01982E-07-2.36222E-19-1.65280E-18
 -1      3766 9.51794E-05-2.83464E-05-2.86424E-05-1.23468E-07-8.73374E-20-2.88998E-19
 -1      3767 9.51941E-05-2.83845E-05-2.86333E-05-9.11774E-08 4.92450E-19-1.07206E-18
 -1      3768 9.51452E-05-2.82935E-05-2.86502E-05-1.27667E-07 3.50879E-19-1.20545E-18
 -1      3769 9.52118E-05-2.84195E-05-2.86249E-05-6.84332E-08 6.69388E-19-1.41608E-18
 -1      3770 9.52209E-05-2.84482E-05-2.86174E-05-4.52828E-08 5.26392E-19-1.32926E-18
 -1      3771 9.51909E-05-2.83822E-05-2.86320E-05-7.41597E-08 5.43912E-19-2.18185E-18
 -1      3772 9.52323E-05-2.84742E-05-2.86103E-05-3.03402E-08-1.92521E-19-1.18945E-18
 -1      3773 9.52371E-05-2.84949E-05-2.86040E-05-1.44411E-08-2.62702E-19-1.91958E-18
 -1      3774 9.52202E-05-2.84491E-05-2.86164E-05-3.63879E-08-3.74208E-20-2.36006E-18
 -1      3775 8.91865E-05-3.49099E-05-2.33280E-05 2.39180E-05 1.61264E-18-2.23221E-18
 -1      3776 7.82972E-05-2.71523E-05-2.16519E-05 2.25919E-05 1.80016E-18-3.03546E-18
 -1      3777 9.29828E-05-2.24441E-05-3.02298E-05-4.97936E-06 1.27887E-18-1.72276E-18
 -1      3778 1.01187E-04-4.12241E-05-2.55919E-05 1.98895E-05 1.69003E-18-1.04923E-18
 -1      3779 8.96263E-05-2.31370E-05-2.85146E-05 5.91986E-06-1.13822E-18-1.80097E-18
 -1      3780 8.91264E-05-2.28750E-05-2.83886E-05 6.55407E-06-9.66897E-19-1.49088E-18
 -1      3781 8.82198E-05-2.25479E-05-2.81697E-05 7.21279E-06-9.80085E-19-9.54814E-19
 -1      3782 8.77107E-05-2.24312E-05-2.79661E-05 7.97874E-06-1.01670E-18-4.06058E-19
 -1      3783 8.72621E-05-2.18567E-05-2.80072E-05 6.10033E-06-4.49514E-19-1.24165E-18
 -1      3784 8.75118E-05-3.21411E-05-2.36240E-05 2.17756E-05-1.77805E-18 4.37281E-19
 -1      3785 9.08369E-05-2.38517E-05-2.87232E-05 4.84627E-06-7.98411E-19-2.07344E-18
 -1      3786 9.03918E-05-2.35292E-05-2.86531E-05 5.38623E-06-8.71598E-19-1.69267E-18
 -1      3787 8.89211E-05-2.26478E-05-2.83837E-05 5.01104E-06-1.00947E-18-2.03298E-18
 -1      3788 9.18449E-05-2.45878E-05-2.88368E-05 3.93535E-06-5.01802E-19-8.96028E-19
 -1      3789 9.14701E-05-2.42550E-05-2.88050E-05 4.39936E-06-1.02627E-18-1.59795E-18
 -1      3790 9.03057E-05-2.34933E-05-2.86185E-05 4.11150E-06-1.16950E-18-1.23089E-18
 -1      3791 9.26631E-05-2.52847E-05-2.88865E-05 3.15878E-06-2.78365E-19-4.28307E-19
 -1      3792 9.23591E-05-2.49701E-05-2.88797E-05 3.55624E-06 2.73784E-19-3.19917E-19
 -1      3793 9.14403E-05-2.43187E-05-2.87543E-05 3.34799E-06-7.42980E-19 1.48112E-19
 -1      3794 9.33143E-05-2.59113E-05-2.88951E-05 2.50050E-06-6.98197E-19-4.65035E-19
 -1      3795 9.30741E-05-2.56292E-05-2.89036E-05 2.83733E-06-6.04962E-19-1.64681E-19
 -1      3796 9.23545E-05-2.50798E-05-2.88226E-05 2.69453E-06-4.75167E-19 2.98368E-19
 -1      3797 9.38238E-05-2.64550E-05-2.88789E-05 1.94908E-06-3.25276E-20 3.52813E-21
 -1      3798 9.36380E-05-2.62109E-05-2.88958E-05 2.23042E-06-3.20791E-19-2.76215E-19
 -1      3799 9.30805E-05-2.57548E-05-2.88467E-05 2.13789E-06-2.84379E-19 5.16061E-19
 -1      3800 9.42166E-05-2.69143E-05-2.88491E-05 1.49404E-06 7.28362E-19 2.47641E-19
 -1      3801 9.40753E-05-2.67087E-05-2.88699E-05 1.72525E-06 3.09773E-19 2.45890E-19
 -1      3802 9.36489E-05-2.63361E-05-2.88429E-05 1.66940E-06-1.74937E-19 1.15103E-18
 -1      3803 9.45149E-05-2.72940E-05-2.88132E-05 1.12457E-06 6.52948E-19 8.22012E-19
 -1      3804 9.44093E-05-2.71244E-05-2.88349E-05 1.31146E-06 8.28695E-19 7.90710E-19
 -1      3805 9.40880E-05-2.68250E-05-2.88229E-05 1.28121E-06 3.70889E-19 8.30456E-19
 -1      3806 9.47382E-05-2.76019E-05-2.87759E-05 8.29545E-07 4.54279E-19 3.47726E-19
 -1      3807 9.46604E-05-2.74646E-05-2.87968E-05 9.78098E-07 6.86700E-19 1.03399E-18
 -1      3808 9.44223E-05-2.72279E-05-2.87946E-05 9.64996E-07 1.00742E-18 1.10863E-18
 -1      3809 9.49025E-05-2.78475E-05-2.87404E-05 5.97894E-07-8.06469E-19 1.21712E-18
 -1      3810 9.48463E-05-2.77382E-05-2.87594E-05 7.14020E-07-2.99236E-19 9.95703E-19
 -1      3811 9.46731E-05-2.75540E-05-2.87632E-05 7.11857E-07-3.87483E-19 1.04696E-18
 -1      3812 9.50213E-05-2.80401E-05-2.87081E-05 4.19076E-07 5.29836E-19 4.98763E-19
 -1      3813 9.49815E-05-2.79546E-05-2.87247E-05 5.08334E-07 1.19579E-19 1.70958E-18
 -1      3814 9.48582E-05-2.78135E-05-2.87319E-05 5.12734E-07-8.62941E-19 1.59457E-19
 -1      3815 9.51052E-05-2.81890E-05-2.86798E-05 2.83440E-07-3.72582E-19-1.11263E-20
 -1      3816 9.50778E-05-2.81230E-05-2.86940E-05 3.50858E-07-7.65981E-20-1.37399E-19
 -1      3817 9.49923E-05-2.80168E-05-2.87027E-05 3.58840E-07 3.62025E-19 7.73733E-20
 -1      3818 9.51630E-05-2.83021E-05-2.86557E-05 1.82465E-07 1.21897E-18 5.90126E-19
 -1      3819 9.51446E-05-2.82520E-05-2.86675E-05 2.32439E-07 5.04828E-19 3.16710E-19
 -1      3820 9.50871E-05-2.81735E-05-2.86765E-05 2.42039E-07-2.57587E-19 6.81475E-19
 -1      3821 9.52012E-05-2.83868E-05-2.86355E-05 1.08806E-07-9.57792E-20 1.90790E-18
 -1      3822 9.51895E-05-2.83494E-05-2.86452E-05 1.45095E-07 8.48672E-19 1.19986E-18
 -1      3823 9.51524E-05-2.82924E-05-2.86538E-05 1.55093E-07 7.21927E-19 2.06564E-18
 -1      3824 9.52253E-05-2.84494E-05-2.86188E-05 5.62517E-08-1.85495E-18 3.66076E-18
 -1      3825 9.52183E-05-2.84216E-05-2.86267E-05 8.21150E-08-6.85077E-19 3.34447E-18
 -1      3826 9.51957E-05-2.83813E-05-2.86344E-05 9.17832E-08-1.67961E-18 4.61068E-18
 -1      3827 9.52392E-05-2.84952E-05-2.86050E-05 1.96164E-08-1.70723E-19 3.19380E-18
 -1      3828 9.52356E-05-2.84746E-05-2.86114E-05 3.79641E-08-8.61411E-19 3.14192E-18
 -1      3829 9.52228E-05-2.84470E-05-2.86182E-05 4.68854E-08-6.42560E-19 5.27830E-18
 -1      3830 9.52464E-05-2.85197E-05-2.85970E-05 4.19085E-09-5.50128E-20 1.25714E-18
 -1      3831 1.00242E-04-4.05288E-05-2.56978E-05-1.86782E-05 1.60478E-18-2.25336E-18
 -1      3832 7.17889E-05-2.08615E-05-2.18157E-05-1.65496E-05-9.43231E-19-3.55033E-18
 -1      3833 7.97265E-05-2.68649E-05-2.26866E-05-2.15221E-05-1.23662E-18-3.02469E-18
 -1      3834 8.37742E-05-2.37996E-05-2.57308E-05 1.40643E-05-1.22187E-18 6.17151E-20
 -1      3835 8.44073E-05-2.54663E-05-2.51796E-05 1.58287E-05-1.26985E-18 2.35708E-19
 -1      3836 8.75844E-05-3.16103E-05-2.38462E-05-2.24276E-05-1.63736E-18-2.43895E-18
 -1      3837 9.17824E-05-2.21938E-05-2.98266E-05 4.87637E-06-3.94227E-19-2.46950E-18
 -1      3838 9.18961E-05-2.29822E-05-2.95258E-05 5.91163E-06-3.89912E-19-2.33929E-18
 -1      3839 9.05624E-05-2.23330E-05-2.92367E-05 6.15728E-06-1.49881E-19-2.50291E-18
 -1      3840 9.05634E-05-2.11372E-05-2.97622E-05 4.61587E-06-2.35564E-19-2.71572E-18
 -1      3841 9.15152E-05-2.14557E-05-3.00136E-05-5.13117E-06 1.18529E-18-1.99669E-18
 -1      3842 8.76552E-05-1.63577E-05-3.05347E-05 7.47364E-07 4.38770E-19-3.50905E-18
 -1      3843 8.76184E-05-1.56220E-05-3.08735E-05 8.43694E-07 4.48658E-19-3.64910E-18
 -1      3844 8.79706E-05-1.59288E-05-3.08827E-05 9.61491E-07 2.27890E-19-3.61457E-18
 -1      3845 8.84330E-05-1.63673E-05-3.08996E-05 1.23821E-06 1.07265E-19-3.62155E-18
 -1      3846 8.91412E-05-1.70325E-05-3.09147E-05 1.26872E-06-1.40214E-19-3.44054E-18
 -1      3847 8.95011E-05-1.80532E-05-3.06022E-05 2.00843E-06-3.56933E-19-3.15778E-18
 -1      3848 8.82963E-05-1.69698E-05-3.05572E-05 1.50124E-06 8.19438E-20-3.52382E-18
 -1      3849 8.42012E-05-2.79606E-05-2.40179E-05 1.94031E-05-1.60304E-18 6.33514E-19
 -1      3850 6.80774E-05-1.68460E-05-2.19511E-05 7.35147E-06 9.29384E-19-3.57662E-18
 -1      3851 6.44455E-05-1.48972E-05-2.09905E-05 2.98827E-06 4.73092E-19-4.34724E-18
 -1      3852 8.50968E-05-2.25459E-05-2.68475E-05 1.10044E-05-1.28307E-18 6.62701E-19
 -1      3853 8.49709E-05-2.32280E-05-2.64158E-05 1.22933E-05-9.84662E-19 5.89672E-19
 -1      3854 8.07178E-05-2.14611E-05-2.53626E-05 1.21877E-05-1.58478E-18 9.53172E-19
 -1      3855 8.66653E-05-2.22569E-05-2.76357E-05 8.83900E-06-1.16643E-18-4.53264E-19
 -1      3856 8.62481E-05-2.24258E-05-2.73295E-05 9.80741E-06-1.04381E-18-1.16866E-19
 -1      3857 8.53162E-05-2.12408E-05-2.74325E-05 7.49242E-06-7.86068E-19-8.42451E-19
 -1      3858 8.96706E-05-2.06101E-05-2.95937E-05-5.16730E-06 9.81393E-19-2.31643E-18
 -1      3859 8.97678E-05-1.99462E-05-2.99472E-05-3.73908E-06 1.05465E-18-2.42629E-18
 -1      3860 8.84472E-05-1.85045E-05-2.99635E-05-2.68718E-06 9.08688E-19-2.48198E-18
 -1      3861 7.64171E-05-2.40168E-05-2.23334E-05 1.77842E-05 1.34159E-18-3.07202E-18
 -1      3862 7.76237E-05-2.60098E-05-2.20953E-05-2.02806E-05 1.39932E-19 4.32371E-19
 -1      3863 8.56743E-05-3.21276E-05-2.29529E-05-2.28566E-05 8.49448E-19-3.10279E-19
 -1      3864 9.21475E-05-3.53900E-05-2.41508E-05-2.13272E-05 1.30336E-18-1.08871E-18
 -1      3865 9.52457E-05-2.85307E-05-2.85923E-05-2.54642E-09 1.88345E-18-3.06770E-21
 -1      3866 9.52466E-05-2.85330E-05-2.85916E-05-4.87497E-09 1.51638E-18-8.58585E-19
 -1      3867 9.52418E-05-2.85134E-05-2.85975E-05 1.91894E-10 1.12239E-18-7.43316E-19
 -1      3868 9.21345E-05-2.52043E-05-2.86564E-05-1.17840E-05-5.87432E-20-1.65204E-18
 -1      3869 9.19069E-05-2.45064E-05-2.88970E-05-1.07675E-05 1.91080E-19-1.61761E-18
 -1      3870 9.01425E-05-2.31004E-05-2.87295E-05-9.85112E-06 3.30353E-19-1.84712E-18
 -1      3871 8.93456E-05-2.41205E-05-2.79582E-05-1.22075E-05-1.10327E-19-1.94846E-18
 -1      3872 9.52455E-05-2.85213E-05-2.85957E-05-1.38875E-09 1.31129E-18-3.48593E-20
 -1      3873 6.34429E-05-1.51407E-05-2.07102E-05-3.19776E-06-1.14369E-19-4.18332E-18
 -1      3874 6.71091E-05-1.72914E-05-2.12563E-05-1.18845E-05-5.24373E-19-3.89654E-18
 -1      3875 7.37797E-05-2.01230E-05-2.28504E-05-1.36811E-05-6.90788E-19-3.37243E-18
 -1      3876 6.84591E-05-1.60731E-05-2.24376E-05-3.08238E-06 3.06189E-20-3.68226E-18
 -1      3877 9.52403E-05-2.85020E-05-2.86024E-05 1.15354E-08 8.99806E-19 1.55735E-18
 -1      3878 9.52333E-05-2.84880E-05-2.86054E-05 9.75358E-09 1.55043E-18-1.74235E-19
 -1      3879 9.52357E-05-2.84932E-05-2.86042E-05 9.67287E-09 1.57865E-18-6.75845E-19
 -1      3880 9.52279E-05-2.84635E-05-2.86128E-05 2.56229E-08 1.48296E-18 8.83984E-19
 -1      3881 6.79644E-05-1.92331E-05-2.06108E-05 1.59290E-05-8.03722E-19 2.69536E-18
 -1      3882 6.62911E-05-1.71156E-05-2.11463E-05 1.08536E-05-1.67418E-19 2.47626E-18
 -1      3883 7.44165E-05-2.28259E-05-2.20093E-05 1.76775E-05-9.31918E-19 2.34202E-18
 -1      3884 8.55703E-05-2.45039E-05-2.60873E-05-1.48064E-05-8.91977E-19-2.12496E-18
 -1      3885 8.53451E-05-2.32751E-05-2.66390E-05-1.32301E-05-4.39916E-19-2.08844E-18
 -1      3886 8.73808E-05-1.71648E-05-3.01195E-05-4.13145E-07 6.66849E-19-2.96966E-18
 -1      3887 8.72610E-05-1.68819E-05-3.01588E-05 5.13683E-08 5.20597E-19-3.19075E-18
 -1      3888 8.98182E-05-3.23743E-05-2.46110E-05-1.90368E-05 5.30163E-19-1.19862E-18
 -1      3889 9.51117E-05-3.77329E-05-2.46232E-05 2.20710E-05 1.61753E-18-1.61671E-18
 -1      3890 8.99521E-05-3.24410E-05-2.47072E-05 1.98910E-05 1.31008E-18-1.89591E-18
 -1      3891 8.16817E-05-2.61225E-05-2.38628E-05 1.75993E-05 1.25976E-18-2.65454E-18
 -1      3892 7.38752E-05-2.04141E-05-2.28306E-05 1.37483E-05 1.06041E-18-3.25394E-18
 -1      3893 7.86195E-05-2.40208E-05-2.33948E-05 1.76171E-05-1.38816E-18 1.44896E-18
 -1      3894 7.16622E-05-2.01120E-05-2.21168E-05-1.39379E-05-3.33327E-19-2.24927E-19
 -1      3895 7.43117E-05-2.27117E-05-2.19724E-05-1.78227E-05-1.60672E-20 2.97898E-19
 -1      3896 8.04686E-05-2.58053E-05-2.33366E-05-1.76971E-05 2.11191E-19-1.61327E-19
 -1      3897 9.52353E-05-2.84964E-05-2.86026E-05-2.65212E-09 9.82724E-19-1.84034E-18
 -1      3898 9.52340E-05-2.84938E-05-2.86032E-05-2.45143E-09 6.43743E-19-2.64418E-18
 -1      3899 6.16793E-05-1.41490E-05-2.01217E-05-2.93169E-06-8.86255E-19 1.59696E-18
 -1      3900 6.62319E-05-1.61595E-05-2.15073E-05-7.13040E-06-1.17695E-18 1.25342E-18
 -1      3901 6.44310E-05-1.49561E-05-2.11461E-05 1.64705E-06-5.07823E-20 2.50368E-18
 -1      3902 8.31050E-05-2.09994E-05-2.65836E-05 9.40727E-06-8.06691E-19 2.13255E-20
 -1      3903 9.52330E-05-2.84917E-05-2.86037E-05 4.02763E-11 1.49584E-18-1.66951E-18
 -1      3904 9.52330E-05-2.84919E-05-2.86036E-05 8.39610E-10 1.66936E-18-1.06968E-18
 -1      3905 9.52277E-05-2.84719E-05-2.86089E-05-2.76559E-09 1.03885E-18-2.74015E-18
 -1      3906 9.52384E-05-2.85013E-05-2.86016E-05-7.66365E-09 5.22774E-19-1.47252E-18
 -1      3907 8.58032E-05-2.83743E-05-2.44682E-05-1.94950E-05-1.49853E-18-2.34840E-18
 -1      3908 8.73179E-05-1.69954E-05-3.01590E-05 8.60171E-07 4.15970E-19-3.32866E-18
 -1      3909 8.75862E-05-1.71806E-05-3.01662E-05 1.40494E-06 2.23577E-19-3.30548E-18
 -1      3910 8.70696E-05-1.75369E-05-2.97824E-05 7.14196E-07 4.06781E-19-3.11485E-18
 -1      3911 8.41415E-05-2.57344E-05-2.50249E-05-1.74030E-05-1.20057E-18-2.33920E-18
 -1      3912 8.83825E-05-2.10421E-05-2.88497E-05-7.01674E-06 5.81530E-19-2.19851E-18
 -1      3913 8.88614E-05-2.08064E-05-2.91863E-05-5.98168E-06 7.74683E-19-2.18893E-18
 -1      3914 8.72609E-05-1.93247E-05-2.90983E-05-4.44964E-06 6.75416E-19-2.24573E-18
 -1      3915 7.27007E-05-1.84869E-05-2.31641E-05 1.00916E-05 1.00851E-18-3.51776E-18
 -1      3916 7.25400E-05-1.72600E-05-2.37670E-05 5.07217E-06 6.55339E-19-3.45803E-18
 -1      3917 7.77833E-05-2.05389E-05-2.45392E-05 1.06237E-05 9.72917E-19-3.12889E-18
 -1      3918 8.01715E-05-2.26750E-05-2.46422E-05-1.54676E-05-9.72417E-19-2.52000E-18
 -1      3919 8.83990E-05-2.23797E-05-2.83121E-05 3.88392E-06-1.92380E-18-1.17677E-19
 -1      3920 8.76258E-05-2.19383E-05-2.81567E-05 4.31387E-06-8.69535E-19-4.10574E-19
 -1      3921 8.95450E-05-1.89123E-05-3.02797E-05 2.69048E-06-3.69380E-19-2.92156E-18
 -1      3922 8.97190E-05-1.97438E-05-2.99741E-05 3.51348E-06-2.75480E-19-2.85407E-18
 -1      3923 8.88492E-05-1.82598E-05-3.02517E-05 2.43850E-06-2.19807E-19-3.22721E-18
 -1      3924 8.82688E-05-2.35783E-05-2.77538E-05 9.26068E-06 1.91973E-19-2.41507E-18
 -1      3925 8.84027E-05-2.45442E-05-2.73325E-05 1.05171E-05 4.01028E-19-2.37847E-18
 -1      3926 8.90196E-05-3.02035E-05-2.51857E-05-1.64957E-05 7.88026E-19-1.94936E-18
 -1      3927 8.73140E-05-2.78195E-05-2.55532E-05-1.47372E-05 7.94418E-19-2.25740E-18
 -1      3928 8.36909E-05-2.70319E-05-2.42129E-05-1.73519E-05 2.65065E-19-8.32991E-19
 -1      3929 8.75661E-05-2.66772E-05-2.60896E-05-1.28036E-05 8.74116E-19-2.14304E-18
 -1      3930 8.68796E-05-2.53069E-05-2.64480E-05-1.12872E-05 6.46942E-19-1.66989E-18
 -1      3931 8.39539E-05-2.43980E-05-2.54766E-05-1.26901E-05 9.64611E-19-9.28807E-19
 -1      3932 8.74453E-05-2.47657E-05-2.68640E-05-9.87406E-06 1.11348E-18-1.49381E-18
 -1      3933 8.73032E-05-2.40340E-05-2.71639E-05-8.68418E-06 1.57821E-18-1.26579E-18
 -1      3934 8.49084E-05-2.30733E-05-2.64564E-05-9.39833E-06 1.01159E-18-7.29046E-19
 -1      3935 8.79598E-05-2.38616E-05-2.74759E-05-7.64886E-06 1.08635E-18-9.01404E-19
 -1      3936 8.81177E-05-2.35483E-05-2.77094E-05-6.72566E-06 1.01830E-18-1.46731E-18
 -1      3937 8.61602E-05-2.26045E-05-2.71982E-05-7.03493E-06 1.07851E-18-4.28844E-19
 -1      3938 8.87803E-05-2.36121E-05-2.79363E-05-5.95825E-06 9.18547E-19-1.59190E-18
 -1      3939 8.90868E-05-2.35646E-05-2.81084E-05-5.23887E-06 1.11330E-19-1.61524E-18
 -1      3940 8.74809E-05-2.26707E-05-2.77433E-05-5.32289E-06 6.83497E-19-1.34539E-18
 -1      3941 8.97123E-05-2.37704E-05-2.82679E-05-4.65806E-06-2.99491E-19-1.36696E-18
 -1      3942 9.00782E-05-2.38870E-05-2.83880E-05-4.09057E-06 2.60119E-19-1.64353E-18
 -1      3943 8.87588E-05-2.30557E-05-2.81321E-05-4.05827E-06-1.39175E-19-1.26915E-18
 -1      3944 9.06438E-05-2.41703E-05-2.84952E-05-3.64463E-06 6.79278E-19-2.40272E-18
 -1      3945 9.10159E-05-2.43783E-05-2.85740E-05-3.19202E-06 8.34456E-19-2.55785E-18
 -1      3946 8.99353E-05-2.36205E-05-2.83994E-05-3.10939E-06-4.67597E-20-2.35251E-18
 -1      3947 9.15116E-05-2.46936E-05-2.86421E-05-2.84504E-06 7.95794E-19-3.09310E-18
 -1      3948 9.18594E-05-2.49433E-05-2.86895E-05-2.48122E-06 7.42799E-19-2.47936E-18
 -1      3949 9.09801E-05-2.42658E-05-2.85750E-05-2.38536E-06 8.01032E-19-3.18373E-18
 -1      3950 9.22828E-05-2.52599E-05-2.87291E-05-2.20910E-06 9.22540E-20-1.81840E-18
 -1      3951 9.25910E-05-2.55185E-05-2.87537E-05-1.91571E-06 5.69896E-21-1.53879E-18
 -1      3952 9.18825E-05-2.49249E-05-2.86827E-05-1.82575E-06 8.04092E-19-2.72074E-18
 -1      3953 9.29444E-05-2.58167E-05-2.87732E-05-1.70172E-06-2.20407E-19-7.15817E-19
 -1      3954 9.32069E-05-2.60636E-05-2.87820E-05-1.46546E-06 3.04033E-19-6.14988E-19
 -1      3955 9.26431E-05-2.55540E-05-2.87420E-05-1.39000E-06 3.38702E-19-1.18250E-18
 -1      3956 9.34957E-05-2.63320E-05-2.87879E-05-1.29744E-06 6.34284E-19-7.72966E-19
 -1      3957 9.37124E-05-2.65554E-05-2.87862E-05-1.10817E-06 2.37685E-19-9.01422E-19
 -1      3958 9.32700E-05-2.61265E-05-2.87676E-05-1.04980E-06-8.03585E-20-5.96606E-19
 -1      3959 9.39434E-05-2.67887E-05-2.87833E-05-9.76866E-07-1.34369E-19-1.17516E-18
 -1      3960 9.41175E-05-2.69830E-05-2.87753E-05-8.26455E-07 4.12917E-19-2.04025E-18
 -1      3961 9.37758E-05-2.66289E-05-2.87709E-05-7.84510E-07-4.67531E-19-1.21339E-18
 -1      3962 9.42987E-05-2.71801E-05-2.87673E-05-7.24601E-07 1.13833E-19-2.23533E-18
 -1      3963 9.44351E-05-2.73439E-05-2.87558E-05-6.06264E-07-2.92850E-19-2.82678E-18
 -1      3964 9.41757E-05-2.70569E-05-2.87604E-05-5.78530E-07-1.35882E-19-1.85288E-18
 -1      3965 9.45743E-05-2.75062E-05-2.87451E-05-5.27999E-07 2.85658E-19-2.77628E-18
 -1      3966 9.46788E-05-2.76408E-05-2.87323E-05-4.35974E-07 6.09538E-19-1.22941E-18
 -1      3967 9.44853E-05-2.74123E-05-2.87420E-05-4.19695E-07 4.92178E-19-1.75796E-18
 -1      3968 9.47834E-05-2.77716E-05-2.87206E-05-3.76507E-07 4.67910E-19-1.26155E-18
 -1      3969 9.48614E-05-2.78796E-05-2.87077E-05-3.05862E-07 8.41205E-19-1.18940E-18
 -1      3970 9.47202E-05-2.77009E-05-2.87199E-05-2.98307E-07 6.59925E-19-2.40240E-18
 -1      3971 9.49383E-05-2.79829E-05-2.86961E-05-2.61252E-07-1.64160E-19-1.56642E-18
 -1      3972 9.49950E-05-2.80678E-05-2.86840E-05-2.07784E-07-4.23662E-19-2.07255E-18
 -1      3973 9.48944E-05-2.79304E-05-2.86969E-05-2.06533E-07-3.59188E-19-3.21213E-18
 -1      3974 9.50501E-05-2.81477E-05-2.86731E-05-1.74815E-07-3.99388E-19-1.84540E-18
 -1      3975 9.50902E-05-2.82132E-05-2.86621E-05-1.34970E-07-1.46869E-19-2.22615E-18
 -1      3976 9.50204E-05-2.81095E-05-2.86748E-05-1.37984E-07-4.77505E-19-2.95815E-18
 -1      3977 9.51284E-05-2.82739E-05-2.86524E-05-1.11202E-07 1.08988E-18-2.54190E-18
 -1      3978 9.51555E-05-2.83232E-05-2.86427E-05-8.18846E-08 8.68036E-19-1.46533E-18
 -1      3979 9.51090E-05-2.82467E-05-2.86544E-05-8.78032E-08 6.54593E-19-2.92230E-18
 -1      3980 9.51812E-05-2.83687E-05-2.86341E-05-6.48932E-08 1.76285E-19-2.62837E-18
 -1      3981 9.51995E-05-2.84052E-05-2.86258E-05-4.45468E-08 2.00146E-19-2.63732E-18
 -1      3982 9.51684E-05-2.83498E-05-2.86362E-05-5.17405E-08 4.15325E-20-3.58590E-18
 -1      3983 9.52123E-05-2.84369E-05-2.86184E-05-2.97478E-08 3.71711E-20-2.36612E-18
 -1      3984 7.54875E-05-1.93552E-05-2.41075E-05-1.13079E-05-4.74916E-19-2.73645E-18
 -1      3985 7.50184E-05-2.05641E-05-2.33870E-05 1.38424E-05-6.50606E-19 1.61504E-18
 -1      3986 8.65399E-05-2.14335E-05-2.79271E-05 4.67990E-06-1.30575E-19-8.10794E-19
 -1      3987 8.56193E-05-2.10281E-05-2.76862E-05 5.20628E-06-5.68110E-19-4.54941E-19
 -1      3988 8.62465E-05-2.11475E-05-2.78710E-05 3.47302E-06-6.23167E-19 3.06594E-19
 -1      3989 8.99164E-05-2.33190E-05-2.85557E-05 3.21290E-06-1.07083E-18-5.31131E-19
 -1      3990 8.92788E-05-2.28799E-05-2.84610E-05 3.57913E-06-1.41407E-18-2.39201E-19
 -1      3991 8.81844E-05-2.21936E-05-2.82599E-05 2.92451E-06-1.49089E-18 8.97447E-19
 -1      3992 8.75539E-05-1.86555E-05-2.95144E-05-2.77676E-06 6.61441E-19-2.41792E-18
 -1      3993 8.78856E-05-1.80367E-05-2.99620E-05-1.80092E-06 8.51252E-19-2.66732E-18
 -1      3994 8.74988E-05-1.75217E-05-2.99853E-05-1.24643E-06 7.47179E-19-2.79034E-18
 -1      3995 9.11438E-05-2.42014E-05-2.87006E-05 2.63248E-06-9.43967E-19 2.16313E-19
 -1      3996 9.06268E-05-2.37897E-05-2.86478E-05 2.94999E-06-9.79975E-19-5.03633E-20
 -1      3997 8.97532E-05-2.31929E-05-2.85089E-05 2.45083E-06-1.44198E-18-3.46990E-19
 -1      3998 9.21273E-05-2.49993E-05-2.87780E-05 2.12763E-06-6.04232E-19 4.67431E-19
 -1      3999 9.17145E-05-2.46285E-05-2.87535E-05 2.40268E-06-6.96287E-19 5.27763E-19
 -1      4000 9.10176E-05-2.41129E-05-2.86604E-05 2.02883E-06-1.01282E-18 1.37049E-19
 -1      4001 9.29072E-05-2.56994E-05-2.88105E-05 1.69242E-06-6.91139E-19 5.63968E-19
 -1      4002 9.25821E-05-2.53754E-05-2.88043E-05 1.92803E-06-6.35188E-19 5.98110E-19
 -1      4003 9.20301E-05-2.49359E-05-2.87445E-05 1.65273E-06-9.95107E-19 1.73480E-19
 -1      4004 9.35184E-05-2.62984E-05-2.88143E-05 1.32309E-06-6.18410E-19 1.23366E-18
 -1      4005 9.32658E-05-2.60224E-05-2.88194E-05 1.52169E-06-6.04414E-19 9.26771E-19
 -1      4006 9.28335E-05-2.56539E-05-2.87835E-05 1.32246E-06-8.50530E-19 6.87888E-20
 -1      4007 9.39914E-05-2.68002E-05-2.88008E-05 1.01538E-06 9.33614E-19 2.10303E-19
 -1      4008 9.37978E-05-2.65699E-05-2.88122E-05 1.17979E-06 3.12429E-19 4.39731E-19
 -1      4009 9.34638E-05-2.62663E-05-2.87930E-05 1.03831E-06-2.00392E-19-3.92253E-19
 -1      4010 9.43524E-05-2.72126E-05-2.87779E-05 7.63842E-07 9.36487E-19 6.32380E-19
 -1      4011 9.42062E-05-2.70241E-05-2.87923E-05 8.97464E-07 7.53547E-19 5.11543E-19
 -1      4012 9.39520E-05-2.67781E-05-2.87843E-05 7.99184E-07 7.85891E-19-3.52298E-19
 -1      4013 9.46239E-05-2.75455E-05-2.87508E-05 5.62105E-07-7.74319E-19 8.95559E-19
 -1      4014 9.45152E-05-2.73939E-05-2.87661E-05 6.68732E-07 4.54690E-19 1.29320E-18
 -1      4015 9.43251E-05-2.71980E-05-2.87654E-05 6.02287E-07 3.77723E-19 2.09781E-18
 -1      4016 9.48247E-05-2.78099E-05-2.87228E-05 4.03317E-07-6.73670E-19 2.44410E-19
 -1      4017 9.47452E-05-2.76899E-05-2.87377E-05 4.86875E-07-7.84055E-19 1.34433E-19
 -1      4018 9.46058E-05-2.75366E-05-2.87414E-05 4.43549E-07 9.86465E-20 1.24700E-18
 -1      4019 9.49703E-05-2.80164E-05-2.86962E-05 2.80647E-07 1.73999E-20 3.07070E-19
 -1      4020 9.49134E-05-2.79229E-05-2.87099E-05 3.44950E-07-5.01493E-19-1.33870E-19
 -1      4021 9.48133E-05-2.78050E-05-2.87160E-05 3.18151E-07-2.01896E-19-8.81310E-20
 -1      4022 9.50734E-05-2.81751E-05-2.86720E-05 1.87660E-07-2.05241E-19 1.44955E-18
 -1      4023 9.50337E-05-2.81035E-05-2.86841E-05 2.36227E-07-4.85516E-19 8.12513E-19
 -1      4024 9.49636E-05-2.80144E-05-2.86913E-05 2.21037E-07-1.53364E-19-1.30762E-19
 -1      4025 9.51445E-05-2.82952E-05-2.86506E-05 1.18624E-07-9.19008E-19 3.06527E-18
 -1      4026 9.51177E-05-2.82412E-05-2.86611E-05 1.54557E-07 9.37345E-20 2.02641E-18
 -1      4027 9.50700E-05-2.81750E-05-2.86684E-05 1.47295E-07-6.86700E-19 1.09286E-18
 -1      4028 9.51914E-05-2.83844E-05-2.86322E-05 6.86368E-08-2.16817E-18 3.76363E-18
 -1      4029 9.51741E-05-2.83443E-05-2.86411E-05 9.44349E-08-1.91076E-18 3.14619E-18
 -1      4030 9.51430E-05-2.82963E-05-2.86480E-05 9.26979E-08-2.06466E-18 2.96011E-18
 -1      4031 9.52175E-05-2.84419E-05-2.86184E-05 3.64846E-08 7.00358E-19 1.76843E-18
 -1      4032 9.52065E-05-2.84117E-05-2.86259E-05 5.42808E-08-5.25134E-19 3.10793E-18
 -1      4033 9.51860E-05-2.83771E-05-2.86322E-05 5.51292E-08-1.30802E-18 2.01438E-18
 -1      4034 9.52113E-05-2.84312E-05-2.86202E-05 3.09940E-08 1.40524E-18-7.21376E-19
 -1      4035 8.14869E-05-1.98271E-05-2.64761E-05 7.03778E-06-5.99844E-19-3.94023E-20
 -1      4036 8.02909E-05-1.97081E-05-2.59506E-05 8.02939E-06-9.30884E-19 2.73699E-19
 -1      4037 9.52363E-05-2.84960E-05-2.86031E-05-8.04296E-09 5.65724E-19-1.86294E-18
 -1      4038 8.89461E-05-2.22004E-05-2.86230E-05 6.88757E-06-1.29514E-19-2.61969E-18
 -1      4039 8.88495E-05-2.29213E-05-2.82361E-05 7.97574E-06-7.99806E-20-2.47006E-18
 -1      4040 8.67833E-05-2.19020E-05-2.77619E-05 7.97010E-06 1.40775E-19-2.51494E-18
 -1      4041 7.80844E-05-1.94385E-05-2.52037E-05 9.12659E-06-1.34553E-18 6.58321E-19
 -1      4042 7.68931E-05-1.96708E-05-2.44591E-05 1.05751E-05-1.14578E-18 1.20627E-18
 -1      4043 7.69477E-05-1.81371E-05-2.51412E-05 6.42555E-06-8.14525E-19 7.02192E-19
 -1      4044 8.42683E-05-2.05495E-05-2.73427E-05 5.67562E-06-6.55656E-19-3.61410E-20
 -1      4045 8.31942E-05-2.02377E-05-2.69825E-05 6.36947E-06-5.54977E-19 3.29445E-20
 -1      4046 8.08477E-05-1.90778E-05-2.64187E-05 5.05013E-06-6.79128E-19 6.55254E-19
 -1      4047 8.30016E-05-2.12697E-05-2.64323E-05-1.14781E-05-2.59488E-19-2.27775E-18
 -1      4048 8.65756E-05-2.27981E-05-2.72967E-05-1.17189E-05-2.10014E-19-2.09711E-18
 -1      4049 8.68881E-05-2.22146E-05-2.77446E-05-1.04811E-05-2.52803E-20-2.11016E-18
 -1      4050 9.03203E-05-3.05771E-05-2.55669E-05 1.71040E-05 1.39238E-18-1.70347E-18
 -1      4051 8.56462E-05-2.81978E-05-2.45397E-05 1.81046E-05 1.37342E-18-2.24228E-18
 -1      4052 8.26093E-05-2.46456E-05-2.48611E-05 1.49308E-05 1.19445E-18-2.38045E-18
 -1      4053 8.88701E-05-2.82929E-05-2.59984E-05 1.52303E-05 1.23221E-18-2.00854E-18
 -1      4054 9.52317E-05-2.84867E-05-2.86052E-05 4.56678E-09 1.62571E-18-6.30504E-20
 -1      4055 9.52330E-05-2.84900E-05-2.86045E-05 4.88250E-09 1.08806E-18 3.54286E-19
 -1      4056 9.52218E-05-2.84559E-05-2.86135E-05 1.56937E-08 1.57379E-18-6.68418E-19
 -1      4057 9.52232E-05-2.84633E-05-2.86109E-05 4.99489E-09 1.10405E-18-1.13491E-18
 -1      4058 9.52290E-05-2.84730E-05-2.86091E-05-1.36580E-08 1.47090E-19-2.00365E-18
 -1      4059 9.52108E-05-2.84365E-05-2.86179E-05-1.99817E-08 1.39624E-19-3.31175E-18
 -1      4060 8.87405E-05-1.96189E-05-2.96354E-05 3.78622E-06-1.42751E-19-3.08727E-18
 -1      4061 8.95730E-05-2.03222E-05-2.96867E-05 4.15102E-06-1.87974E-19-2.81031E-18
 -1      4062 8.95520E-05-2.09171E-05-2.94156E-05 4.89841E-06-1.43627E-19-2.89021E-18
 -1      4063 7.26932E-05-1.83008E-05-2.32406E-05 1.04436E-05-3.51244E-19 1.89979E-18
 -1      4064 8.38503E-05-2.00935E-05-2.72850E-05 4.13781E-06-2.90546E-19-1.71604E-19
 -1      4065 8.69901E-05-1.77912E-05-2.96459E-05-9.97958E-07 6.36926E-19-2.75869E-18
 -1      4066 7.27611E-05-1.71596E-05-2.37314E-05-7.59660E-06-1.84167E-19-2.95171E-18
 -1      4067 7.87207E-05-1.94837E-05-2.53403E-05-9.51309E-06-3.69802E-19-2.45059E-18
 -1      4068 8.77973E-05-2.54258E-05-2.67686E-05 1.22323E-05 6.48434E-19-2.20401E-18
 -1      4069 8.83713E-05-2.69472E-05-2.62978E-05 1.38525E-05 1.02399E-18-1.95180E-18
 -1      4070 8.57812E-05-1.89820E-05-2.86243E-05-3.85852E-06 5.03843E-19-2.28869E-18
 -1      4071 8.66186E-05-1.88541E-05-2.90647E-05-3.22936E-06 5.60840E-19-2.37282E-18
 -1      4072 8.61871E-05-1.83485E-05-2.90596E-05-2.29020E-06 5.08485E-19-2.43952E-18
 -1      4073 7.00368E-05-1.78386E-05-2.22138E-05-1.06149E-05-2.59453E-19-6.61692E-19
 -1      4074 7.47385E-05-2.05050E-05-2.32214E-05-1.26068E-05 3.67345E-19-4.25806E-19
 -1      4075 6.96454E-05-1.68953E-05-2.26219E-05-6.54431E-06 7.39235E-20 7.17324E-19
 -1      4076 9.51873E-05-2.83851E-05-2.86289E-05-2.51036E-08-1.08794E-19-4.13737E-18
 -1      4077 9.52064E-05-2.84301E-05-2.86189E-05-9.70393E-09 8.09084E-19-3.97933E-18
 -1      4078 9.52052E-05-2.84270E-05-2.86194E-05-4.64583E-09 1.29977E-18-3.23837E-18
 -1      4079 6.98747E-05-1.71923E-05-2.25240E-05 8.31358E-06 3.49150E-19 2.50832E-18
 -1      4080 6.65395E-05-1.52949E-05-2.17535E-05 4.85279E-06 2.57366E-19 2.76999E-18
 -1      4081 6.78905E-05-1.56089E-05-2.25280E-05 1.81624E-07-1.52622E-19 2.68717E-18
 -1      4082 7.18888E-05-1.67895E-05-2.37128E-05 5.17075E-06-4.43680E-19 2.25038E-18
 -1      4083 8.02272E-05-2.41595E-05-2.40729E-05-1.51491E-05 1.70721E-19-6.14602E-19
 -1      4084 8.63701E-05-1.78288E-05-2.93957E-05 4.07403E-07 4.79601E-19-2.96079E-18
 -1      4085 8.65497E-05-1.79475E-05-2.93978E-05 1.36531E-06 2.17097E-19-3.07677E-18
 -1      4086 8.82981E-05-1.77968E-05-3.02272E-05 2.09664E-06 3.70196E-20-3.26837E-18
 -1      4087 8.55322E-05-2.31719E-05-2.66683E-05 1.08598E-05 7.02960E-19-2.56513E-18
 -1      4088 8.95172E-05-2.14933E-05-2.91491E-05 5.65887E-06-5.46324E-20-2.78510E-18
 -1      4089 8.80316E-05-2.07800E-05-2.88064E-05 5.54064E-06-5.79735E-20-2.96584E-18
 -1      4090 8.73494E-05-2.16866E-05-2.81206E-05-9.18062E-06 2.43106E-19-2.08890E-18
 -1      4091 8.78342E-05-2.13877E-05-2.85006E-05-8.10142E-06 5.68112E-19-2.12725E-18
 -1      4092 8.57581E-05-1.97367E-05-2.82858E-05-6.23048E-06 5.13267E-19-2.03122E-18
 -1      4093 8.46368E-05-2.04439E-05-2.75063E-05-8.67584E-06 1.48443E-19-2.02967E-18
 -1      4094 8.23353E-05-2.32821E-05-2.52033E-05 1.32155E-05 1.05928E-18-2.50551E-18
 -1      4095 8.04045E-05-2.13027E-05-2.53930E-05 1.02817E-05 9.27150E-19-2.75707E-18
 -1      4096 8.61170E-05-1.81618E-05-2.91441E-05-1.28348E-06 5.65577E-19-2.59437E-18
 -1      4097 8.61989E-05-1.78366E-05-2.92848E-05-4.03557E-07 5.04798E-19-2.81832E-18
 -1      4098 8.55905E-05-1.81530E-05-2.88868E-05 2.66825E-07 4.02524E-19-2.75012E-18
 -1      4099 8.51990E-05-1.83044E-05-2.86771E-05-1.62173E-06 4.74876E-19-2.50060E-18
 -1      4100 7.99803E-05-1.92618E-05-2.60633E-05-8.23923E-06-1.51606E-19-2.40308E-18
 -1      4101 7.57424E-05-1.76425E-05-2.48854E-05 3.39454E-06 5.26483E-19-3.08954E-18
 -1      4102 7.23466E-05-1.64183E-05-2.38799E-05 9.30280E-07 4.00780E-19-3.28155E-18
 -1      4103 7.20571E-05-1.66466E-05-2.38140E-05-2.03856E-06 2.66451E-19-3.26928E-18
 -1      4104 8.80052E-05-1.83170E-05-2.98539E-05 2.40209E-06-2.34253E-20-3.10658E-18
 -1      4105 7.53536E-05-1.71312E-05-2.49927E-05-3.20158E-06 7.46373E-20-2.90723E-18
 -1      4106 8.70496E-05-1.83447E-05-2.94648E-05 2.30887E-06 1.37735E-19-2.95085E-18
 -1      4107 8.78577E-05-1.89320E-05-2.95381E-05 3.10524E-06-1.07509E-19-2.98566E-18
 -1      4108 8.76592E-05-1.94365E-05-2.92371E-05 3.73855E-06-3.69460E-20-2.91598E-18
 -1      4109 8.63493E-05-1.84798E-05-2.90701E-05 2.08735E-06 1.42067E-19-2.88462E-18
 -1      4110 8.54019E-05-2.53783E-05-2.57660E-05 1.40144E-05 1.10289E-18-2.04535E-18
 -1      4111 7.83084E-05-1.79442E-05-2.58045E-05-5.65892E-06-1.68976E-20-2.55686E-18
 -1      4112 8.21360E-05-1.95294E-05-2.68185E-05-7.59526E-06-9.72988E-20-2.23460E-18
 -1      4113 8.26645E-05-1.91638E-05-2.72483E-05-6.24822E-06 2.89922E-19-2.14205E-18
 -1      4114 7.76311E-05-1.75738E-05-2.58022E-05-2.87112E-06 1.18027E-19-2.60714E-18
 -1      4115 8.81729E-05-2.22619E-05-2.82622E-05 1.88713E-06-1.49046E-18 9.56854E-19
 -1      4116 8.72831E-05-2.17427E-05-2.81039E-05 2.06879E-06-7.89916E-19 1.61543E-18
 -1      4117 8.15924E-05-2.34098E-05-2.48824E-05-1.27248E-05 7.87326E-19-7.33718E-19
 -1      4118 8.18296E-05-2.25508E-05-2.54546E-05-1.09044E-05 1.24893E-18-3.63316E-19
 -1      4119 7.83225E-05-2.21051E-05-2.40504E-05-1.32806E-05 4.12041E-19-2.47505E-19
 -1      4120 8.69607E-05-2.00762E-05-2.86884E-05 4.80504E-06 8.64925E-20-2.81488E-18
 -1      4121 8.25034E-05-2.18267E-05-2.59739E-05-8.77483E-06 7.90678E-19-1.33226E-19
 -1      4122 8.30796E-05-2.15445E-05-2.64194E-05-7.52297E-06 8.66226E-19-4.97417E-20
 -1      4123 8.43973E-05-2.16583E-05-2.68697E-05-6.41542E-06 1.00376E-18 3.57139E-20
 -1      4124 8.50219E-05-2.16630E-05-2.71974E-05-5.51696E-06 8.22717E-19 2.44948E-19
 -1      4125 8.22366E-05-2.04659E-05-2.64352E-05-5.72340E-06 9.72730E-19-5.46121E-19
 -1      4126 8.61436E-05-2.19231E-05-2.75168E-05-4.72353E-06 2.06798E-19-7.83254E-19
 -1      4127 8.67872E-05-2.21068E-05-2.77528E-05-4.08233E-06 5.44601E-19-1.09171E-18
 -1      4128 8.45395E-05-2.09474E-05-2.72104E-05-4.10200E-06 6.77180E-20 1.40737E-20
 -1      4129 8.77303E-05-2.24459E-05-2.79769E-05-3.52286E-06 2.49562E-19-2.01671E-18
 -1      4130 8.83423E-05-2.27341E-05-2.81417E-05-3.04965E-06-5.21036E-19-1.89139E-18
 -1      4131 8.65538E-05-2.16554E-05-2.77658E-05-2.96785E-06-2.72199E-19-1.62932E-18
 -1      4132 8.91353E-05-2.31140E-05-2.82947E-05-2.64773E-06-6.66050E-19-1.85970E-18
 -1      4133 8.96897E-05-2.34518E-05-2.84055E-05-2.29019E-06-2.82233E-19-2.28464E-18
 -1      4134 8.82437E-05-2.24677E-05-2.81505E-05-2.15316E-06-4.67325E-19-2.09162E-18
 -1      4135 9.03547E-05-2.38423E-05-2.85063E-05-1.99739E-06 7.21872E-19-1.89433E-18
 -1      4136 9.08411E-05-2.41934E-05-2.85768E-05-1.72242E-06 1.43651E-18-1.68104E-18
 -1      4137 8.96682E-05-2.33067E-05-2.84095E-05-1.56735E-06 3.34863E-19-1.27456E-18
 -1      4138 9.13939E-05-2.45715E-05-2.86396E-05-1.50745E-06 1.04562E-18-2.06583E-18
 -1      4139 9.18097E-05-2.49114E-05-2.86810E-05-1.29349E-06 8.25987E-19-2.04665E-18
 -1      4140 9.08621E-05-2.41255E-05-2.85767E-05-1.14342E-06 8.78800E-19-1.91461E-18
 -1      4141 9.22634E-05-2.52612E-05-2.87168E-05-1.13490E-06 2.84750E-19-2.77297E-18
 -1      4142 9.26104E-05-2.55744E-05-2.87377E-05-9.67325E-07-1.04287E-20-2.46388E-18
 -1      4143 9.18513E-05-2.48908E-05-2.86778E-05-8.34569E-07 3.36664E-19-2.98470E-18
 -1      4144 9.29774E-05-2.58865E-05-2.87548E-05-8.50008E-07 5.22486E-20-2.24172E-18
 -1      4145 9.32607E-05-2.61643E-05-2.87617E-05-7.18483E-07 1.76080E-19-2.20242E-18
 -1      4146 9.26594E-05-2.55810E-05-2.87325E-05-6.08197E-07 6.40576E-19-3.28979E-18
 -1      4147 9.35529E-05-2.64345E-05-2.87664E-05-6.31657E-07-2.72207E-19-1.32306E-18
 -1      4148 9.37794E-05-2.66735E-05-2.87643E-05-5.28591E-07-3.34717E-19-1.19790E-18
 -1      4149 9.33093E-05-2.61852E-05-2.87554E-05-4.41504E-07 4.33951E-19-2.14887E-18
 -1      4150 9.40082E-05-2.69016E-05-2.87611E-05-4.64439E-07-3.78550E-19-1.18727E-18
 -1      4151 9.41855E-05-2.71018E-05-2.87537E-05-3.84042E-07-3.14155E-20-1.16080E-18
 -1      4152 9.38235E-05-2.67005E-05-2.87577E-05-3.18395E-07-2.65230E-19-1.77824E-18
 -1      4153 9.43615E-05-2.72899E-05-2.87459E-05-3.36827E-07 1.14448E-19-1.10181E-18
 -1      4154 9.44975E-05-2.74540E-05-2.87356E-05-2.74552E-07 6.56761E-19-1.21280E-18
 -1      4155 9.42233E-05-2.71300E-05-2.87472E-05-2.27381E-07 2.38229E-19-1.33666E-18
 -1      4156 9.46304E-05-2.76059E-05-2.87255E-05-2.40016E-07 6.74578E-20-1.96557E-18
 -1      4157 9.47324E-05-2.77375E-05-2.87141E-05-1.92211E-07 2.41046E-19-2.80878E-18
 -1      4158 9.45285E-05-2.74805E-05-2.87296E-05-1.60171E-07-1.48221E-19-2.33580E-18
 -1      4159 9.48306E-05-2.78578E-05-2.87031E-05-1.67171E-07 2.88942E-20-3.50291E-18
 -1      4160 9.49054E-05-2.79612E-05-2.86918E-05-1.30862E-07-9.17869E-19-3.64318E-18
 -1      4161 9.47569E-05-2.77609E-05-2.87087E-05-1.10718E-07-5.24859E-19-3.24525E-18
 -1      4162 9.49763E-05-2.80548E-05-2.86810E-05-1.12897E-07-6.21968E-19-3.76383E-18
 -1      4163 9.50297E-05-2.81346E-05-2.86703E-05-8.56474E-08-1.44947E-19-3.70366E-18
 -1      4164 9.49242E-05-2.79811E-05-2.86871E-05-7.45803E-08-1.10175E-18-3.60272E-18
 -1      4165 9.50794E-05-2.82061E-05-2.86602E-05-7.25973E-08-3.26554E-20-4.16239E-18
 -1      4166 9.51167E-05-2.82667E-05-2.86506E-05-5.28927E-08 3.03503E-19-4.93720E-18
 -1      4167 9.50430E-05-2.81507E-05-2.86663E-05-4.83421E-08-2.26814E-19-5.47844E-18
 -1      4168 9.51422E-05-2.83067E-05-2.86438E-05-4.56445E-08-2.02069E-19-5.06926E-18
 -1      4169 9.51678E-05-2.83530E-05-2.86352E-05-3.17579E-08-4.20910E-19-4.49866E-18
 -1      4170 9.51633E-05-2.83454E-05-2.86362E-05-1.69034E-08 2.22001E-19-5.14181E-18
 -1      4171 9.51182E-05-2.82695E-05-2.86493E-05-2.84292E-08-5.98665E-19-4.84930E-18
 -1      4172 8.62221E-05-2.11855E-05-2.78922E-05 2.15046E-06-7.56897E-19 9.88793E-19
 -1      4173 8.51227E-05-2.06479E-05-2.76503E-05 2.35536E-06 1.75354E-20 7.00962E-19
 -1      4174 8.64460E-05-2.12244E-05-2.79054E-05 1.01645E-06-1.06106E-18 4.91947E-19
 -1      4175 9.10067E-05-2.41854E-05-2.86468E-05 1.37355E-06-7.16623E-19 2.55636E-19
 -1      4176 9.04322E-05-2.37456E-05-2.85881E-05 1.53272E-06-9.69661E-19 8.47442E-20
 -1      4177 9.20203E-05-2.50028E-05-2.87292E-05 1.13344E-06-6.67065E-19-2.50562E-20
 -1      4178 9.15629E-05-2.46138E-05-2.86984E-05 1.27965E-06-3.95326E-19-6.10479E-20
 -1      4179 9.10964E-05-2.42312E-05-2.86340E-05 8.14400E-07-2.65470E-19-7.82769E-20
 -1      4180 9.28256E-05-2.57138E-05-2.87682E-05 9.14467E-07-5.95940E-19-8.04453E-19
 -1      4181 9.24651E-05-2.53776E-05-2.87561E-05 1.04515E-06-1.00000E-18-6.20076E-19
 -1      4182 9.20881E-05-2.50443E-05-2.87154E-05 6.94595E-07-1.52462E-19-1.22228E-18
 -1      4183 9.34583E-05-2.63187E-05-2.87789E-05 7.21448E-07 4.56767E-20-1.72409E-18
 -1      4184 9.31774E-05-2.60343E-05-2.87786E-05 8.35031E-07-2.97384E-19-1.28952E-18
 -1      4185 9.28774E-05-2.57504E-05-2.87550E-05 5.73756E-07-1.68542E-19-2.64151E-18
 -1      4186 9.39491E-05-2.68234E-05-2.87720E-05 5.56455E-07 6.36772E-19-1.07458E-18
 -1      4187 9.37331E-05-2.65874E-05-2.87788E-05 6.52609E-07 2.24132E-19-1.83398E-18
 -1      4188 9.34982E-05-2.63505E-05-2.87669E-05 4.60420E-07 7.60968E-20-3.68875E-18
 -1      4189 9.43243E-05-2.72366E-05-2.87549E-05 4.19262E-07 5.36638E-19-2.32645E-19
 -1      4190 9.41606E-05-2.70443E-05-2.87656E-05 4.98699E-07 8.16886E-19-1.88316E-19
 -1      4191 9.39800E-05-2.68507E-05-2.87616E-05 3.59541E-07 1.33094E-19-3.47151E-18
 -1      4192 9.46067E-05-2.75689E-05-2.87328E-05 3.08012E-07 2.34980E-19-7.71599E-19
 -1      4193 9.44846E-05-2.74150E-05-2.87451E-05 3.72171E-07 3.70417E-19-2.91520E-19
 -1      4194 9.43483E-05-2.72598E-05-2.87461E-05 2.73331E-07 6.53575E-19-3.04420E-18
 -1      4195 9.48153E-05-2.78318E-05-2.87090E-05 2.19874E-07-3.64030E-21-1.02531E-18
 -1      4196 9.47259E-05-2.77106E-05-2.87215E-05 2.70602E-07 3.04006E-19 4.15898E-20
 -1      4197 9.46252E-05-2.75885E-05-2.87255E-05 2.02084E-07 1.52699E-19-2.28714E-18
 -1      4198 9.49662E-05-2.80362E-05-2.86856E-05 1.51566E-07-9.03402E-20 5.69827E-19
 -1      4199 9.49023E-05-2.79424E-05-2.86975E-05 1.90872E-07-3.01581E-19-4.45463E-19
 -1      4200 9.48295E-05-2.78481E-05-2.87031E-05 1.44898E-07-3.05587E-19-9.71913E-19
 -1      4201 9.50728E-05-2.81926E-05-2.86639E-05 9.97299E-08-1.55773E-18 2.04520E-18
 -1      4202 9.50281E-05-2.81210E-05-2.86747E-05 1.29591E-07-6.07629E-19 1.06387E-18
 -1      4203 9.49769E-05-2.80496E-05-2.86808E-05 1.00239E-07-6.55634E-19 8.48816E-19
 -1      4204 9.51458E-05-2.83101E-05-2.86444E-05 6.15027E-08-2.16871E-18 1.34735E-18
 -1      4205 9.51156E-05-2.82568E-05-2.86539E-05 8.32582E-08-1.46362E-18 1.42037E-18
 -1      4206 9.50802E-05-2.82036E-05-2.86600E-05 6.63219E-08-1.30478E-18 7.64826E-19
 -1      4207 8.22392E-05-2.11751E-05-2.61970E-05 8.82437E-06 7.90871E-19-2.65277E-18
 -1      4208 7.86314E-05-1.85503E-05-2.56390E-05 6.16008E-06 6.24745E-19-3.07469E-18
 -1      4209 8.30237E-05-2.05867E-05-2.68239E-05 7.29588E-06 4.70173E-19-2.62276E-18
 -1      4210 8.07242E-05-1.89467E-05-2.65136E-05 2.76783E-06-2.24584E-19 1.52994E-19
 -1      4211 7.89932E-05-1.84175E-05-2.59860E-05 3.13675E-06-5.54895E-19 3.35267E-19
 -1      4212 7.67246E-05-1.77893E-05-2.53084E-05 3.28699E-06-2.30125E-19 1.19897E-18
 -1      4213 7.45123E-05-1.72657E-05-2.45276E-05 3.86671E-06-1.21633E-19 1.89845E-18
 -1      4214 7.72102E-05-1.76473E-05-2.54589E-05 8.19578E-07 1.69587E-19 1.06622E-18
 -1      4215 7.78032E-05-1.78556E-05-2.57452E-05 2.54004E-06 2.73595E-19-2.76722E-18
 -1      4216 8.56932E-05-2.02109E-05-2.80962E-05 5.38599E-06 2.06699E-19-2.59573E-18
 -1      4217 8.49573E-05-2.06907E-05-2.75818E-05 6.56375E-06 3.96706E-19-2.46920E-18
 -1      4218 8.27143E-05-1.89573E-05-2.72398E-05 4.41571E-06 2.65047E-19-2.52411E-18
 -1      4219 8.57290E-05-1.90003E-05-2.85677E-05 3.37151E-06 1.69548E-19-2.60818E-18
 -1      4220 8.37919E-05-2.00812E-05-2.73346E-05 2.45121E-06-6.35593E-20-8.88020E-20
 -1      4221 8.24381E-05-1.95446E-05-2.69751E-05 2.70034E-06-3.05934E-19 1.88930E-20
 -1      4222 8.40608E-05-2.00636E-05-2.73732E-05 9.69286E-07-5.76702E-19 6.43748E-19
 -1      4223 8.97423E-05-2.32673E-05-2.85006E-05 1.62748E-06-1.45506E-18 3.50652E-19
 -1      4224 8.90260E-05-2.27829E-05-2.84010E-05 1.79723E-06-1.35874E-18 3.48834E-19
 -1      4225 8.83355E-05-2.23089E-05-2.82606E-05 9.95125E-07-1.06066E-18 5.30484E-19
 -1      4226 8.98622E-05-2.33158E-05-2.84913E-05 9.20384E-07-1.03535E-18 3.32278E-19
 -1      4227 8.39525E-05-1.91374E-05-2.77561E-05-5.21566E-06 4.76879E-19-2.22024E-18
 -1      4228 8.45551E-05-1.89278E-05-2.81485E-05-4.18202E-06 5.18143E-19-2.34777E-18
 -1      4229 8.15751E-05-1.82553E-05-2.71012E-05-4.08235E-06 3.04298E-19-2.33218E-18
 -1      4230 8.50683E-05-1.86237E-05-2.84899E-05 2.41161E-06 3.27377E-19-2.72357E-18
 -1      4231 7.83460E-05-1.74654E-05-2.60348E-05 1.27540E-07 2.47884E-19-2.62971E-18
 -1      4232 8.04295E-05-1.80117E-05-2.67530E-05-2.20456E-06 2.18406E-19-2.50604E-18
 -1      4233 8.16921E-05-1.81242E-05-2.72848E-05-1.34773E-06 3.46967E-19-2.55579E-18
 -1      4234 8.05583E-05-1.83018E-05-2.67201E-05 2.67685E-06 3.08625E-19-2.69500E-18
 -1      4235 7.61528E-05-2.00213E-05-2.40976E-05-1.03017E-05 9.42726E-19-1.02827E-19
 -1      4236 9.52113E-05-2.84359E-05-2.86180E-05 1.43335E-08 1.04073E-18-7.86588E-20
 -1      4237 9.52107E-05-2.84334E-05-2.86191E-05 2.06956E-08 2.03293E-18-1.63792E-18
 -1      4238 9.51997E-05-2.84081E-05-2.86249E-05 3.10378E-08 4.66784E-19-1.14509E-18
 -1      4239 8.01010E-05-2.07741E-05-2.54128E-05-8.80922E-06 1.30388E-18 1.35849E-19
 -1      4240 6.97686E-05-1.60336E-05-2.29035E-05-3.53435E-06 4.04060E-19 2.01249E-18
 -1      4241 7.25383E-05-1.76507E-05-2.35373E-05-6.70077E-06 9.83392E-19 3.96051E-19
 -1      4242 7.09845E-05-1.63014E-05-2.34200E-05-6.01143E-07 3.22832E-19 2.27547E-18
 -1      4243 7.25527E-05-1.64665E-05-2.39483E-05 1.80816E-06 1.82042E-19 2.59575E-18
 -1      4244 9.51677E-05-2.83464E-05-2.86376E-05 5.11931E-08-1.52107E-18 5.41944E-19
 -1      4245 9.51457E-05-2.83096E-05-2.86432E-05 4.09420E-08-1.03203E-18-6.00493E-19
 -1      4246 9.51829E-05-2.83777E-05-2.86312E-05 3.72325E-08-7.69216E-19-8.72056E-19
 -1      4247 8.11566E-05-1.89554E-05-2.66049E-05 9.88792E-07-3.51738E-19 1.02304E-19
 -1      4248 8.40901E-05-1.84322E-05-2.81177E-05-2.92608E-06 4.23926E-19-2.54518E-18
 -1      4249 8.04442E-05-1.94913E-05-2.61052E-05-4.34668E-06 1.44984E-18-4.03041E-19
 -1      4250 8.16682E-05-1.97953E-05-2.65624E-05-3.51717E-06 9.10838E-19-2.13617E-19
 -1      4251 8.26764E-05-1.99032E-05-2.69145E-05-1.93088E-06-2.32507E-19 2.78247E-20
 -1      4252 8.38188E-05-2.03197E-05-2.72544E-05-1.41421E-06-5.89293E-19-3.99864E-19
 -1      4253 8.51498E-05-2.08752E-05-2.75717E-05-1.22273E-06-6.42610E-19-9.35827E-20
 -1      4254 8.61232E-05-2.13273E-05-2.78097E-05-8.27829E-07-8.48299E-19-8.64350E-19
 -1      4255 8.71860E-05-2.18476E-05-2.80249E-05-7.34097E-07-1.00850E-18-2.34296E-19
 -1      4256 8.80092E-05-2.23114E-05-2.81877E-05-4.56068E-07-7.39162E-19-4.38765E-19
 -1      4257 8.88696E-05-2.28078E-05-2.83307E-05-4.17989E-07-7.67969E-19-8.50729E-19
 -1      4258 8.95586E-05-2.32596E-05-2.84382E-05-2.21587E-07-1.79816E-19-9.81067E-19
 -1      4259 9.02557E-05-2.37215E-05-2.85295E-05-2.18764E-07-1.09474E-19-1.34645E-18
 -1      4260 9.08271E-05-2.41448E-05-2.85969E-05-7.96393E-08-2.38644E-19-1.98521E-18
 -1      4261 9.13894E-05-2.45630E-05-2.86518E-05-9.84028E-08 5.39120E-20-2.07898E-18
 -1      4262 9.18578E-05-2.49467E-05-2.86908E-05 6.54523E-10 6.32432E-19-1.67296E-18
 -1      4263 9.23078E-05-2.53157E-05-2.87205E-05-2.97866E-08 9.33763E-19-2.20717E-18
 -1      4264 9.26865E-05-2.56535E-05-2.87398E-05 4.11765E-08 4.86891E-19-2.06353E-18
 -1      4265 9.30427E-05-2.59716E-05-2.87524E-05 6.03573E-09 1.26336E-19-2.75080E-18
 -1      4266 9.33444E-05-2.62616E-05-2.87585E-05 5.71984E-08-7.09351E-20-2.85182E-18
 -1      4267 9.36228E-05-2.65297E-05-2.87601E-05 2.19611E-08 5.86140E-20-3.01005E-18
 -1      4268 9.38592E-05-2.67731E-05-2.87579E-05 5.90712E-08-3.89564E-20-3.08794E-18
 -1      4269 9.40737E-05-2.69947E-05-2.87527E-05 2.64991E-08 2.69950E-19-3.12165E-18
 -1      4270 9.42558E-05-2.71947E-05-2.87455E-05 5.35517E-08 4.09857E-19-2.98707E-18
 -1      4271 9.44184E-05-2.73745E-05-2.87366E-05 2.50652E-08 4.69324E-19-2.90384E-18
 -1      4272 9.45562E-05-2.75356E-05-2.87269E-05 4.48507E-08 1.89917E-19-2.84671E-18
 -1      4273 9.46773E-05-2.76788E-05-2.87162E-05 2.09586E-08-7.23825E-19-2.54870E-18
 -1      4274 9.47794E-05-2.78063E-05-2.87055E-05 3.54340E-08-1.03782E-18-3.16910E-18
 -1      4275 9.48677E-05-2.79184E-05-2.86944E-05 1.60806E-08-1.03474E-18-2.86568E-18
 -1      4276 9.49417E-05-2.80174E-05-2.86838E-05 2.65958E-08-5.92425E-19-2.14671E-18
 -1      4277 9.50048E-05-2.81037E-05-2.86732E-05 1.14158E-08-3.20412E-19-2.15142E-18
 -1      4278 9.50569E-05-2.81790E-05-2.86631E-05 1.87929E-08-8.23474E-19-1.77646E-18
 -1      4279 9.51005E-05-2.82440E-05-2.86533E-05 8.19688E-09-1.17245E-18-2.01594E-18
 -1      4280 8.25464E-05-1.85200E-05-2.74716E-05 2.37124E-06 2.39815E-19-2.57365E-18
 -1      4281 7.79286E-05-1.97231E-05-2.49150E-05-7.96733E-06 1.29988E-18 4.97936E-20
 -1      4282 7.86521E-05-1.92812E-05-2.54934E-05-5.86931E-06 1.44608E-18-2.23606E-19
 -1      4283 7.85363E-05-1.85626E-05-2.56716E-05-3.46641E-06 1.00762E-18 1.39521E-19
 -1      4284 7.48647E-05-1.83583E-05-2.41955E-05-7.20434E-06 1.10911E-18-2.19197E-19
 -1      4285 9.51892E-05-2.83926E-05-2.86270E-05 4.48450E-09 6.17077E-19-1.57929E-18
 -1      4286 9.52127E-05-2.84418E-05-2.86165E-05 9.32060E-09 7.63484E-19-1.29033E-18
 -1      4287 7.33963E-05-1.69403E-05-2.42626E-05-1.64334E-06 2.56433E-19 1.71895E-18
 -1      4288 8.29699E-05-1.82026E-05-2.77769E-05-1.64561E-06 4.21737E-19-2.56808E-18
 -1      4289 8.42188E-05-1.83029E-05-2.82657E-05-1.46020E-06 4.56900E-19-2.55393E-18
 -1      4290 8.43629E-05-1.81853E-05-2.83631E-05-3.94524E-07 4.60757E-19-2.54916E-18
 -1      4291 8.21810E-05-1.80361E-05-2.74606E-05 1.48830E-07 3.50651E-19-2.67692E-18
 -1      4292 8.46207E-05-1.81686E-05-2.84790E-05 4.75814E-07 3.96334E-19-2.67336E-18
 -1      4293 9.51827E-05-2.83783E-05-2.86301E-05 2.57228E-08 2.67397E-19-1.77018E-18
 -1      4294 8.37772E-05-1.85762E-05-2.79427E-05 1.90666E-06 3.83584E-19-2.59369E-18
 -1      4295 9.51717E-05-2.83612E-05-2.86333E-05 8.93730E-09 6.01308E-20-1.37147E-18
 -1      4296 7.45514E-05-1.75327E-05-2.44227E-05-4.38497E-06 9.86166E-19 7.90757E-19
 -1      4297 9.51362E-05-2.83016E-05-2.86442E-05 2.57715E-08-2.24288E-19-5.77515E-19
 -1      4298 9.51240E-05-2.82792E-05-2.86472E-05-1.59139E-08-3.30973E-19-3.26743E-18
 -1      4299 8.13462E-05-1.91404E-05-2.66579E-05-5.69461E-07 7.15751E-20 1.27796E-19
 -1      4300 7.96644E-05-1.86301E-05-2.61947E-05-6.93743E-07 6.65397E-19 2.10726E-19
 -1      4301 7.55719E-05-1.76061E-05-2.48641E-05-2.23543E-06 5.15520E-19 8.66889E-19
 -1      4302 7.78415E-05-1.82156E-05-2.55668E-05-1.86895E-06 7.57173E-19 4.88908E-19
 -1      4303 9.51581E-05-2.83390E-05-2.86374E-05 1.53612E-08-3.77571E-19-7.38327E-19
 -1      4304 9.51508E-05-2.83219E-05-2.86404E-05-1.05468E-08 3.12443E-19-2.87222E-18
 -1      4305 9.51684E-05-2.83552E-05-2.86341E-05-7.06706E-09 4.83493E-19-2.27365E-18
 -3
    1PSTEP                         4           1           1          
  100CL  101 1.000000000        4305                     0    1           1
 -4  ERROR       1    1
 -5  STR(%)      1    1    0    0
 -1         1 1.86010E+01
 -1         2 2.45998E+01
 -1         3 6.49731E-04
 -1         4 6.74167E-04
 -1         5 1.36525E+01
 -1         6 1.27736E+01
 -1         7 1.27736E+01
 -1         8 3.53563E+00
 -1         9 1.84569E+00
 -1        10 1.34787E+00
 -1        11 1.07960E+00
 -1        12 8.88378E-01
 -1        13 7.43003E-01
 -1        14 6.33506E-01
 -1        15 6.21782E-01
 -1        16 7.29484E-01
 -1        17 8.69654E-01
 -1        18 1.07452E+00
 -1        19 1.36048E+00
 -1        20 1.85593E+00
 -1        21 3.36913E+00
 -1        22 8.26986E+00
 -1        23 1.27736E+01
 -1        24 4.17625E+00
 -1        25 3.05413E+00
 -1        26 1.84366E+00
 -1        27 1.31411E+00
 -1        28 9.28275E-01
 -1        29 6.72113E-01
 -1        30 6.63883E-01
 -1        31 8.47446E-01
 -1        32 9.25640E-01
 -1        33 9.25640E-01
 -1        34 9.24674E-01
 -1        35 1.12522E+00
 -1        36 1.44731E+00
 -1        37 2.50261E+00
 -1        38 3.19292E+00
 -1        39 3.19292E+00
 -1        40 3.23703E+00
 -1        41 3.23703E+00
 -1        42 2.58255E+00
 -1        43 1.50971E+00
 -1        44 1.21858E+00
 -1        45 1.02147E+00
 -1        46 1.02147E+00
 -1        47 9.77908E-01
 -1        48 9.61969E-01
 -1        49 8.46235E-01
 -1        50 6.89539E-01
 -1        51 5.50108E-01
 -1        52 4.28250E-01
 -1        53 3.73115E-01
 -1        54 3.11053E-01
 -1        55 2.50079E-01
 -1        56 1.94771E-01
 -1        57 1.47263E-01
 -1        58 1.08094E-01
 -1        59 8.89924E-02
 -1        60 7.36202E-02
 -1        61 5.93591E-02
 -1        62 4.66990E-02
 -1        63 3.58035E-02
 -1        64 2.66304E-02
 -1        65 2.07667E-02
 -1        66 1.67654E-02
 -1        67 1.28509E-02
 -1        68 9.06668E-03
 -1        69 5.71562E-03
 -1        70 4.98243E-03
 -1        71 3.27847E-03
 -1        72 1.36525E+01
 -1        73 3.35112E+00
 -1        74 2.29298E+00
 -1        75 1.60426E+00
 -1        76 1.37629E+00
 -1        77 1.18169E+00
 -1        78 9.97864E-01
 -1        79 1.00619E+00
 -1        80 1.00619E+00
 -1        81 1.19901E+00
 -1        82 1.45148E+00
 -1        83 1.59049E+00
 -1        84 1.90706E+00
 -1        85 2.01566E+00
 -1        86 2.55310E+00
 -1        87 3.95935E+00
 -1        88 4.41472E+00
 -1        89 5.03669E+00
 -1        90 5.03669E+00
 -1        91 3.77412E+00
 -1        92 2.06943E+00
 -1        93 1.48885E+00
 -1        94 1.70166E+00
 -1        95 1.75792E+00
 -1        96 1.75792E+00
 -1        97 1.59011E+00
 -1        98 1.33830E+00
 -1        99 1.11269E+00
 -1       100 8.83755E-01
 -1       101 6.76001E-01
 -1       102 5.00046E-01
 -1       103 3.71863E-01
 -1       104 2.85890E-01
 -1       105 2.14798E-01
 -1       106 1.57771E-01
 -1       107 1.13133E-01
 -1       108 7.89245E-02
 -1       109 5.36010E-02
 -1       110 4.46713E-02
 -1       111 3.63697E-02
 -1       112 2.89370E-02
 -1       113 2.24468E-02
 -1       114 1.89313E-02
 -1       115 1.63331E-02
 -1       116 1.34143E-02
 -1       117 1.02852E-02
 -1       118 7.21545E-03
 -1       119 4.97336E-03
 -1       120 3.07165E-03
 -1       121 1.43514E-03
 -1       122 1.15201E-03
 -1       123 5.27353E-04
 -1       124 4.35460E-04
 -1       125 6.08135E-04
 -1       126 6.82542E-04
 -1       127 7.02354E-04
 -1       128 7.02354E-04
 -1       129 6.99011E-04
 -1       130 6.93942E-04
 -1       131 6.61617E-04
 -1       132 5.88806E-04
 -1       133 4.17628E-04
 -1       134 5.53062E-04
 -1       135 1.50607E-03
 -1       136 2.19971E-03
 -1       137 2.54600E+01
 -1       138 4.82681E+01
 -1       139 4.82681E+01
 -1       140 2.10077E+01
 -1       141 1.28624E+01
 -1       142 1.36551E+01
 -1       143 1.36551E+01
 -1       144 1.29101E+01
 -1       145 1.29101E+01
 -1       146 1.29161E+01
 -1       147 3.20267E+01
 -1       148 3.27745E+01
 -1       149 2.77615E+01
 -1       150 2.45325E+01
 -1       151 2.50761E+01
 -1       152 2.50761E+01
 -1       153 3.70763E+01
 -1       154 3.70763E+01
 -1       155 1.30039E+01
 -1       156 1.20522E+01
 -1       157 1.20457E+01
 -1       158 1.19103E+01
 -1       159 1.18788E+01
 -1       160 1.18413E+01
 -1       161 4.70203E+01
 -1       162 4.70203E+01
 -1       163 2.48534E+01
 -1       164 5.83774E+00
 -1       165 2.33066E+00
 -1       166 1.58577E+00
 -1       167 1.21357E+00
 -1       168 9.82057E-01
 -1       169 8.15957E-01
 -1       170 6.88858E-01
 -1       171 5.97116E-01
 -1       172 6.76319E-01
 -1       173 7.99700E-01
 -1       174 9.76262E-01
 -1       175 1.22070E+00
 -1       176 1.60331E+00
 -1       177 2.31780E+00
 -1       178 3.78605E+00
 -1       179 1.36525E+01
 -1       180 4.17625E+00
 -1       181 3.05413E+00
 -1       182 1.84366E+00
 -1       183 1.31411E+00
 -1       184 9.28275E-01
 -1       185 6.72113E-01
 -1       186 6.63883E-01
 -1       187 6.46478E-01
 -1       188 8.47446E-01
 -1       189 9.25640E-01
 -1       190 8.82485E-01
 -1       191 9.24674E-01
 -1       192 1.12522E+00
 -1       193 1.63579E+00
 -1       194 2.50261E+00
 -1       195 3.19292E+00
 -1       196 3.12856E+00
 -1       197 3.23703E+00
 -1       198 2.58255E+00
 -1       199 1.68345E+00
 -1       200 1.21858E+00
 -1       201 1.00987E+00
 -1       202 1.02147E+00
 -1       203 9.77908E-01
 -1       204 9.61969E-01
 -1       205 8.46235E-01
 -1       206 6.95957E-01
 -1       207 5.88049E-01
 -1       208 5.04050E-01
 -1       209 4.10149E-01
 -1       210 3.19144E-01
 -1       211 2.50079E-01
 -1       212 1.95090E-01
 -1       213 1.52970E-01
 -1       214 1.16736E-01
 -1       215 8.89924E-02
 -1       216 7.36202E-02
 -1       217 5.93591E-02
 -1       218 4.66990E-02
 -1       219 3.58035E-02
 -1       220 2.67466E-02
 -1       221 2.07667E-02
 -1       222 1.67654E-02
 -1       223 1.28509E-02
 -1       224 9.10982E-03
 -1       225 6.22891E-03
 -1       226 4.98243E-03
 -1       227 3.27847E-03
 -1       228 3.35112E+00
 -1       229 2.29298E+00
 -1       230 1.60426E+00
 -1       231 1.37629E+00
 -1       232 1.18169E+00
 -1       233 9.97864E-01
 -1       234 9.83517E-01
 -1       235 1.00619E+00
 -1       236 9.96712E-01
 -1       237 1.19901E+00
 -1       238 1.45148E+00
 -1       239 1.59049E+00
 -1       240 1.90706E+00
 -1       241 2.01566E+00
 -1       242 2.65679E+00
 -1       243 3.95935E+00
 -1       244 4.41472E+00
 -1       245 5.03669E+00
 -1       246 3.77412E+00
 -1       247 2.06943E+00
 -1       248 1.28027E+00
 -1       249 1.48885E+00
 -1       250 1.70166E+00
 -1       251 1.75792E+00
 -1       252 1.59011E+00
 -1       253 1.33830E+00
 -1       254 1.11269E+00
 -1       255 9.10141E-01
 -1       256 7.15578E-01
 -1       257 5.43953E-01
 -1       258 4.00961E-01
 -1       259 2.90138E-01
 -1       260 2.14798E-01
 -1       261 1.57771E-01
 -1       262 1.15197E-01
 -1       263 8.26030E-02
 -1       264 5.76495E-02
 -1       265 4.46713E-02
 -1       266 3.63697E-02
 -1       267 2.89370E-02
 -1       268 2.24468E-02
 -1       269 1.89313E-02
 -1       270 1.63331E-02
 -1       271 1.34143E-02
 -1       272 1.02852E-02
 -1       273 7.21545E-03
 -1       274 4.97336E-03
 -1       275 3.07165E-03
 -1       276 1.19534E-03
 -1       277 1.02074E-03
 -1       278 7.12889E-04
 -1       279 1.02147E-03
 -1       280 1.17600E-03
 -1       281 1.22383E-03
 -1       282 1.22689E-03
 -1       283 1.22689E-03
 -1       284 1.22379E-03
 -1       285 1.20060E-03
 -1       286 1.14480E-03
 -1       287 9.95818E-04
 -1       288 7.24114E-04
 -1       289 7.24114E-04
 -1       290 2.05242E-03
 -1       291 2.89377E+01
 -1       292 2.85521E+01
 -1       293 4.82681E+01
 -1       294 2.29553E+01
 -1       295 1.09303E+01
 -1       296 1.28624E+01
 -1       297 1.36551E+01
 -1       298 1.25248E+01
 -1       299 1.29101E+01
 -1       300 1.15810E+01
 -1       301 1.29161E+01
 -1       302 3.27745E+01
 -1       303 3.27745E+01
 -1       304 2.51566E+01
 -1       305 2.94185E+01
 -1       306 2.94185E+01
 -1       307 3.41107E+01
 -1       308 3.70763E+01
 -1       309 1.30039E+01
 -1       310 1.20522E+01
 -1       311 1.20457E+01
 -1       312 1.19103E+01
 -1       313 1.18788E+01
 -1       314 1.18413E+01
 -1       315 1.06447E+01
 -1       316 1.98900E+01
 -1       317 4.70203E+01
 -1       318 2.82343E+01
 -1       319 2.89377E+01
 -1       320 1.12464E+00
 -1       321 2.39358E+00
 -1       322 8.48813E-01
 -1       323 7.09269E-01
 -1       324 6.01154E-01
 -1       325 5.09712E-01
 -1       326 4.99038E-01
 -1       327 5.87318E-01
 -1       328 7.04126E-01
 -1       329 8.42387E-01
 -1       330 1.00799E+00
 -1       331 1.23943E+00
 -1       332 1.35717E+00
 -1       333 1.96513E+00
 -1       334 1.60602E+00
 -1       335 1.43691E+00
 -1       336 8.95652E-01
 -1       337 6.39076E-01
 -1       338 4.56937E-01
 -1       339 4.59474E-01
 -1       340 4.58451E-01
 -1       341 5.38148E-01
 -1       342 5.89948E-01
 -1       343 5.08359E-01
 -1       344 5.39352E-01
 -1       345 7.54630E-01
 -1       346 1.19337E+00
 -1       347 1.53821E+00
 -1       348 1.97790E+00
 -1       349 2.04802E+00
 -1       350 2.06198E+00
 -1       351 2.00860E+00
 -1       352 1.58022E+00
 -1       353 1.20123E+00
 -1       354 6.84543E-01
 -1       355 5.20123E-01
 -1       356 5.71782E-01
 -1       357 7.16117E-01
 -1       358 7.35086E-01
 -1       359 6.76946E-01
 -1       360 6.02777E-01
 -1       361 5.35340E-01
 -1       362 4.60034E-01
 -1       363 3.77766E-01
 -1       364 2.98426E-01
 -1       365 2.27584E-01
 -1       366 1.67692E-01
 -1       367 1.19169E-01
 -1       368 8.67224E-02
 -1       369 6.26164E-02
 -1       370 4.55213E-02
 -1       371 3.67478E-02
 -1       372 3.00971E-02
 -1       373 2.39148E-02
 -1       374 1.83592E-02
 -1       375 1.34804E-02
 -1       376 1.09761E-02
 -1       377 8.51807E-03
 -1       378 6.01300E-03
 -1       379 4.16458E-03
 -1       380 2.90761E-03
 -1       381 9.61118E-01
 -1       382 7.33830E-01
 -1       383 7.01879E-01
 -1       384 6.78419E-01
 -1       385 8.44673E-01
 -1       386 1.02014E+00
 -1       387 1.16317E+00
 -1       388 1.16882E+00
 -1       389 1.13884E+00
 -1       390 9.97964E-01
 -1       391 1.03455E+00
 -1       392 1.77201E+00
 -1       393 2.38217E+00
 -1       394 2.82309E+00
 -1       395 2.73617E+00
 -1       396 2.79718E+00
 -1       397 2.46393E+00
 -1       398 1.46402E+00
 -1       399 9.97980E-01
 -1       400 1.11445E+00
 -1       401 1.29304E+00
 -1       402 1.30688E+00
 -1       403 1.27020E+00
 -1       404 1.14107E+00
 -1       405 1.00884E+00
 -1       406 8.44866E-01
 -1       407 6.78201E-01
 -1       408 5.26073E-01
 -1       409 3.96139E-01
 -1       410 2.90138E-01
 -1       411 2.09350E-01
 -1       412 1.56964E-01
 -1       413 1.15197E-01
 -1       414 8.26030E-02
 -1       415 5.76495E-02
 -1       416 3.88904E-02
 -1       417 2.78085E-02
 -1       418 2.34393E-02
 -1       419 1.90867E-02
 -1       420 1.49718E-02
 -1       421 1.12137E-02
 -1       422 8.98592E-03
 -1       423 7.32051E-03
 -1       424 5.59707E-03
 -1       425 4.09319E-03
 -1       426 2.81143E-03
 -1       427 1.38588E-03
 -1       428 2.00227E-03
 -1       429 2.17693E-03
 -1       430 1.52317E-03
 -1       431 1.53005E-03
 -1       432 1.53005E-03
 -1       433 1.49246E-03
 -1       434 1.47956E-03
 -1       435 1.49575E-03
 -1       436 1.49575E-03
 -1       437 1.47761E-03
 -1       438 1.35545E-03
 -1       439 2.38514E-03
 -1       440 2.85521E+01
 -1       441 3.25759E+01
 -1       442 3.25759E+01
 -1       443 1.71715E+01
 -1       444 9.47678E+00
 -1       445 9.88748E-01
 -1       446 9.47287E+00
 -1       447 1.11498E+01
 -1       448 1.06095E+01
 -1       449 8.25947E+00
 -1       450 7.46899E+00
 -1       451 1.23155E+01
 -1       452 2.20372E+01
 -1       453 2.61905E+01
 -1       454 3.62219E+01
 -1       455 3.62219E+01
 -1       456 2.68139E+01
 -1       457 2.13879E+01
 -1       458 1.21293E+01
 -1       459 6.81042E+00
 -1       460 9.03531E+00
 -1       461 1.06135E+01
 -1       462 1.05331E+01
 -1       463 1.05452E+01
 -1       464 7.59220E+00
 -1       465 8.72538E+00
 -1       466 1.65813E+01
 -1       467 2.82343E+01
 -1       468 2.98486E+01
 -1       469 7.42366E+00
 -1       470 1.12981E+01
 -1       471 7.64183E-01
 -1       472 5.05709E-01
 -1       473 5.78391E-01
 -1       474 3.44437E-01
 -1       475 4.00249E-01
 -1       476 4.84599E-01
 -1       477 5.62105E-01
 -1       478 6.09071E-01
 -1       479 8.80322E-01
 -1       480 4.35286E-01
 -1       481 5.84075E-01
 -1       482 4.26767E+00
 -1       483 4.12385E-01
 -1       484 3.11266E-01
 -1       485 3.59905E-01
 -1       486 4.40888E-01
 -1       487 5.31935E-01
 -1       488 6.07969E-01
 -1       489 6.39489E-01
 -1       490 8.30310E-01
 -1       491 9.70146E-01
 -1       492 1.18194E+00
 -1       493 1.38677E+00
 -1       494 1.58021E+00
 -1       495 2.10318E+00
 -1       496 1.88631E+00
 -1       497 2.01595E+00
 -1       498 1.58608E+00
 -1       499 1.34926E+00
 -1       500 1.12531E+00
 -1       501 9.77285E-01
 -1       502 8.36364E-01
 -1       503 7.65640E-01
 -1       504 7.58926E-01
 -1       505 7.00745E-01
 -1       506 6.26448E-01
 -1       507 5.67594E-01
 -1       508 4.96799E-01
 -1       509 4.17118E-01
 -1       510 3.38259E-01
 -1       511 2.66049E-01
 -1       512 2.03395E-01
 -1       513 1.51213E-01
 -1       514 1.09183E-01
 -1       515 7.63085E-02
 -1       516 5.12919E-02
 -1       517 3.27734E-02
 -1       518 2.25916E-02
 -1       519 1.75306E-02
 -1       520 1.49025E-02
 -1       521 1.20978E-02
 -1       522 9.32606E-03
 -1       523 6.72766E-03
 -1       524 5.31369E-03
 -1       525 3.82275E-03
 -1       526 5.60866E-01
 -1       527 7.64180E-01
 -1       528 9.51543E-01
 -1       529 1.08641E+00
 -1       530 1.28525E+00
 -1       531 1.47110E+00
 -1       532 1.55734E+00
 -1       533 1.93523E+00
 -1       534 1.84740E+00
 -1       535 2.27414E+00
 -1       536 2.93045E+00
 -1       537 4.23791E+00
 -1       538 4.55088E+00
 -1       539 3.65895E+00
 -1       540 2.68878E+00
 -1       541 2.03372E+00
 -1       542 1.65503E+00
 -1       543 1.64342E+00
 -1       544 1.51015E+00
 -1       545 1.31982E+00
 -1       546 1.19993E+00
 -1       547 1.06969E+00
 -1       548 9.06492E-01
 -1       549 7.38997E-01
 -1       550 5.84019E-01
 -1       551 4.49537E-01
 -1       552 3.37873E-01
 -1       553 2.48147E-01
 -1       554 1.77919E-01
 -1       555 1.24188E-01
 -1       556 8.39403E-02
 -1       557 5.44318E-02
 -1       558 3.78993E-02
 -1       559 2.78085E-02
 -1       560 2.34393E-02
 -1       561 1.90867E-02
 -1       562 1.49718E-02
 -1       563 1.12137E-02
 -1       564 8.65780E-03
 -1       565 6.74011E-03
 -1       566 4.78564E-03
 -1       567 3.33981E-03
 -1       568 1.86707E-03
 -1       569 1.75007E-03
 -1       570 2.88906E-03
 -1       571 1.98204E-03
 -1       572 1.59463E-03
 -1       573 1.48889E-03
 -1       574 1.56202E-03
 -1       575 1.69748E-03
 -1       576 1.77430E-03
 -1       577 1.77430E-03
 -1       578 1.87338E-03
 -1       579 3.25759E+01
 -1       580 2.07939E+01
 -1       581 2.98486E+01
 -1       582 3.77905E-01
 -1       583 1.23569E+01
 -1       584 8.19123E+00
 -1       585 9.83182E-01
 -1       586 2.16626E+01
 -1       587 1.75592E+01
 -1       588 3.62219E+01
 -1       589 4.25249E-01
 -1       590 7.58028E+00
 -1       591 1.02654E+01
 -1       592 7.96506E+00
 -1       593 6.51007E+00
 -1       594 4.25949E+00
 -1       595 7.83572E+00
 -1       596 1.67794E+01
 -1       597 2.61905E+01
 -1       598 2.68139E+01
 -1       599 6.51747E+00
 -1       600 7.36898E+00
 -1       601 4.29675E+00
 -1       602 8.20134E+00
 -1       603 7.35881E+00
 -1       604 5.48303E+00
 -1       605 5.96013E+00
 -1       606 8.46748E+00
 -1       607 1.31901E+01
 -1       608 5.50133E+00
 -1       609 1.10448E+00
 -1       610 5.67854E+00
 -1       611 6.51408E-01
 -1       612 1.84979E+01
 -1       613 1.00823E+01
 -1       614 2.50536E-03
 -1       615 3.18836E-01
 -1       616 2.44464E-01
 -1       617 5.37774E-01
 -1       618 5.74655E-01
 -1       619 5.78659E-01
 -1       620 4.74087E-01
 -1       621 1.16308E+01
 -1       622 9.89943E+00
 -1       623 4.06725E-01
 -1       624 3.97708E-01
 -1       625 4.68139E-01
 -1       626 5.77242E-01
 -1       627 7.15919E-01
 -1       628 8.64628E-01
 -1       629 9.90249E-01
 -1       630 1.24711E+00
 -1       631 1.62831E+00
 -1       632 1.60778E+00
 -1       633 2.09659E+00
 -1       634 3.11749E+00
 -1       635 2.84669E+00
 -1       636 2.64467E+00
 -1       637 2.07099E+00
 -1       638 1.65117E+00
 -1       639 1.49451E+00
 -1       640 1.50792E+00
 -1       641 1.29384E+00
 -1       642 1.03484E+00
 -1       643 9.24258E-01
 -1       644 7.89001E-01
 -1       645 7.00745E-01
 -1       646 6.22227E-01
 -1       647 5.33138E-01
 -1       648 4.39971E-01
 -1       649 3.51910E-01
 -1       650 2.73734E-01
 -1       651 2.08068E-01
 -1       652 1.57119E-01
 -1       653 1.16735E-01
 -1       654 8.47391E-02
 -1       655 5.99259E-02
 -1       656 4.10925E-02
 -1       657 2.71194E-02
 -1       658 1.70126E-02
 -1       659 1.07755E-02
 -1       660 8.46469E-03
 -1       661 7.52376E-03
 -1       662 6.21620E-03
 -1       663 4.75779E-03
 -1       664 3.44584E-03
 -1       665 9.06276E-01
 -1       666 5.73633E+00
 -1       667 6.98999E-01
 -1       668 1.35083E+00
 -1       669 1.66759E+00
 -1       670 2.13213E+00
 -1       671 2.54537E+00
 -1       672 3.40248E+00
 -1       673 2.69438E+00
 -1       674 2.93045E+00
 -1       675 5.43534E+00
 -1       676 3.07458E+00
 -1       677 2.87336E+00
 -1       678 2.49279E+00
 -1       679 1.99960E+00
 -1       680 1.58425E+00
 -1       681 1.39014E+00
 -1       682 1.18082E+00
 -1       683 9.75005E-01
 -1       684 7.87425E-01
 -1       685 6.23993E-01
 -1       686 4.85953E-01
 -1       687 3.72140E-01
 -1       688 2.80192E-01
 -1       689 2.07244E-01
 -1       690 1.50343E-01
 -1       691 1.06690E-01
 -1       692 7.37656E-02
 -1       693 4.93791E-02
 -1       694 3.16800E-02
 -1       695 1.91386E-02
 -1       696 1.30521E-02
 -1       697 1.16070E-02
 -1       698 9.74002E-03
 -1       699 7.71152E-03
 -1       700 5.69626E-03
 -1       701 4.24974E-03
 -1       702 3.49871E-03
 -1       703 1.47930E-03
 -1       704 2.57064E-03
 -1       705 1.97063E-03
 -1       706 1.48889E-03
 -1       707 1.59463E-03
 -1       708 3.94256E+00
 -1       709 3.36099E+00
 -1       710 1.56202E-03
 -1       711 1.86363E-03
 -1       712 2.07680E-03
 -1       713 4.26240E+00
 -1       714 5.85597E+00
 -1       715 5.25229E-01
 -1       716 1.04216E+01
 -1       717 7.48283E-01
 -1       718 6.76767E+00
 -1       719 1.31858E+01
 -1       720 1.27085E+01
 -1       721 1.13324E+00
 -1       722 7.21761E-01
 -1       723 5.16859E-01
 -1       724 1.65870E+01
 -1       725 4.25815E-01
 -1       726 4.59986E+00
 -1       727 1.41221E+01
 -1       728 5.14781E+00
 -1       729 3.43038E+00
 -1       730 5.06813E+00
 -1       731 7.03229E+00
 -1       732 9.75967E+00
 -1       733 1.65804E+01
 -1       734 5.25473E+00
 -1       735 4.90984E+00
 -1       736 8.30705E+00
 -1       737 3.21179E+00
 -1       738 3.65895E+00
 -1       739 7.21761E-01
 -1       740 2.80682E-01
 -1       741 1.06008E+01
 -1       742 2.24276E-03
 -1       743 3.74179E+00
 -1       744 2.53419E-03
 -1       745 6.19424E+00
 -1       746 7.56054E+00
 -1       747 3.55625E-01
 -1       748 7.56054E+00
 -1       749 2.58255E-03
 -1       750 5.93734E-01
 -1       751 9.20308E+00
 -1       752 8.45752E+00
 -1       753 5.06355E-01
 -1       754 6.23039E-01
 -1       755 7.71684E-01
 -1       756 9.66627E-01
 -1       757 1.26052E+00
 -1       758 1.62890E+00
 -1       759 2.07348E+00
 -1       760 2.26608E+00
 -1       761 2.09659E+00
 -1       762 3.36099E+00
 -1       763 4.14552E+00
 -1       764 3.89470E+00
 -1       765 2.70328E+00
 -1       766 1.68122E+00
 -1       767 2.46256E+00
 -1       768 1.86276E+00
 -1       769 1.64885E+00
 -1       770 1.34853E+00
 -1       771 1.06876E+00
 -1       772 8.86323E-01
 -1       773 7.37106E-01
 -1       774 6.03313E-01
 -1       775 4.86501E-01
 -1       776 3.84096E-01
 -1       777 2.97740E-01
 -1       778 2.28058E-01
 -1       779 1.72876E-01
 -1       780 1.29748E-01
 -1       781 9.52345E-02
 -1       782 6.81404E-02
 -1       783 4.80486E-02
 -1       784 3.29771E-02
 -1       785 2.18897E-02
 -1       786 1.39200E-02
 -1       787 8.35430E-03
 -1       788 5.01303E-03
 -1       789 4.26081E-03
 -1       790 3.84175E-03
 -1       791 3.23676E-03
 -1       792 2.31970E+00
 -1       793 1.91591E+00
 -1       794 3.96781E+00
 -1       795 2.29999E+00
 -1       796 1.77874E+00
 -1       797 1.36305E+00
 -1       798 1.06168E+00
 -1       799 8.24404E-01
 -1       800 6.56405E-01
 -1       801 5.09348E-01
 -1       802 3.86604E-01
 -1       803 2.87421E-01
 -1       804 2.10187E-01
 -1       805 1.56082E-01
 -1       806 1.14034E-01
 -1       807 8.17377E-02
 -1       808 5.72740E-02
 -1       809 3.90409E-02
 -1       810 2.57055E-02
 -1       811 1.61695E-02
 -1       812 9.53947E-03
 -1       813 6.28283E-03
 -1       814 5.92702E-03
 -1       815 5.08452E-03
 -1       816 3.98242E-03
 -1       817 3.06600E-03
 -1       818 8.10606E+00
 -1       819 3.23101E-01
 -1       820 1.34396E-03
 -1       821 1.42489E-03
 -1       822 2.45389E+00
 -1       823 8.23050E+00
 -1       824 5.43166E+00
 -1       825 3.95659E+00
 -1       826 6.36250E+00
 -1       827 2.07680E-03
 -1       828 1.61536E-03
 -1       829 2.86918E+00
 -1       830 3.20652E+00
 -1       831 3.04213E+00
 -1       832 6.75903E+00
 -1       833 8.25209E-01
 -1       834 4.55534E+00
 -1       835 3.11749E+00
 -1       836 4.60190E-01
 -1       837 9.87523E+00
 -1       838 8.81278E+00
 -1       839 5.26612E+00
 -1       840 9.55949E+00
 -1       841 1.98461E-01
 -1       842 7.68587E-01
 -1       843 5.03662E-01
 -1       844 6.74506E+00
 -1       845 7.65995E+00
 -1       846 6.51086E-01
 -1       847 2.25075E-03
 -1       848 1.43810E+00
 -1       849 6.92782E+00
 -1       850 6.04933E-01
 -1       851 1.65359E-03
 -1       852 6.56169E-01
 -1       853 1.44377E-03
 -1       854 5.34030E+00
 -1       855 3.75055E-01
 -1       856 6.61748E-01
 -1       857 9.20308E+00
 -1       858 1.06181E+00
 -1       859 2.58255E-03
 -1       860 6.20589E-01
 -1       861 6.96614E+00
 -1       862 5.30936E+00
 -1       863 8.10513E-01
 -1       864 1.09841E+00
 -1       865 1.44879E+00
 -1       866 1.74659E+00
 -1       867 3.76844E+00
 -1       868 6.21011E+00
 -1       869 2.85296E+00
 -1       870 2.71706E+00
 -1       871 1.84468E+00
 -1       872 1.52094E+00
 -1       873 1.19734E+00
 -1       874 9.07545E-01
 -1       875 6.95661E-01
 -1       876 5.58491E-01
 -1       877 4.59001E-01
 -1       878 3.72014E-01
 -1       879 2.94467E-01
 -1       880 2.28058E-01
 -1       881 1.72876E-01
 -1       882 1.28160E-01
 -1       883 9.27343E-02
 -1       884 6.52700E-02
 -1       885 4.52363E-02
 -1       886 3.05539E-02
 -1       887 1.97573E-02
 -1       888 1.20181E-02
 -1       889 6.71330E-03
 -1       890 3.40320E-03
 -1       891 2.63348E-03
 -1       892 2.99677E+00
 -1       893 1.31990E+00
 -1       894 1.70919E+00
 -1       895 2.36706E+00
 -1       896 1.04711E+00
 -1       897 8.19268E-01
 -1       898 6.34001E-01
 -1       899 4.85308E-01
 -1       900 3.67083E-01
 -1       901 2.73997E-01
 -1       902 2.01438E-01
 -1       903 1.45506E-01
 -1       904 1.02927E-01
 -1       905 7.17016E-02
 -1       906 4.92382E-02
 -1       907 3.26962E-02
 -1       908 2.07963E-02
 -1       909 1.25193E-02
 -1       910 7.12673E-03
 -1       911 4.14801E-03
 -1       912 3.38604E-03
 -1       913 3.25071E-03
 -1       914 2.31833E-03
 -1       915 1.77785E-03
 -1       916 3.50996E+00
 -1       917 2.80020E-01
 -1       918 5.71807E-01
 -1       919 6.87027E+00
 -1       920 6.92782E+00
 -1       921 6.44548E+00
 -1       922 4.71030E+00
 -1       923 4.63261E+00
 -1       924 5.66659E+00
 -1       925 4.72207E+00
 -1       926 5.82705E+00
 -1       927 4.84919E-01
 -1       928 1.94206E+00
 -1       929 2.81319E-03
 -1       930 8.88835E-01
 -1       931 4.72207E+00
 -1       932 1.77785E-03
 -1       933 2.17494E-03
 -1       934 2.48134E-03
 -1       935 3.31041E-01
 -1       936 1.26048E+00
 -1       937 3.58084E+00
 -1       938 8.00333E-01
 -1       939 1.37238E+00
 -1       940 1.77860E-03
 -1       941 5.62905E+00
 -1       942 4.61689E-01
 -1       943 5.27996E-01
 -1       944 5.71807E-01
 -1       945 7.74496E-01
 -1       946 1.04998E+00
 -1       947 1.51327E+00
 -1       948 2.08767E+00
 -1       949 2.67171E+00
 -1       950 3.12657E+00
 -1       951 2.67053E+00
 -1       952 1.74757E+00
 -1       953 1.11426E+00
 -1       954 8.51626E-01
 -1       955 6.95661E-01
 -1       956 5.58491E-01
 -1       957 4.42105E-01
 -1       958 3.45509E-01
 -1       959 2.66497E-01
 -1       960 2.02633E-01
 -1       961 1.51632E-01
 -1       962 1.11431E-01
 -1       963 8.01929E-02
 -1       964 5.62985E-02
 -1       965 3.83372E-02
 -1       966 2.59242E-02
 -1       967 1.68803E-02
 -1       968 1.03680E-02
 -1       969 5.81294E-03
 -1       970 5.00426E-03
 -1       971 5.82705E+00
 -1       972 9.50405E-01
 -1       973 1.26692E+00
 -1       974 7.20219E-01
 -1       975 5.48026E-01
 -1       976 4.16341E-01
 -1       977 3.14572E-01
 -1       978 2.35522E-01
 -1       979 1.74174E-01
 -1       980 1.26830E-01
 -1       981 9.06271E-02
 -1       982 6.32750E-02
 -1       983 4.33908E-02
 -1       984 2.93321E-02
 -1       985 1.90677E-02
 -1       986 1.17337E-02
 -1       987 6.65910E-03
 -1       988 4.50060E-03
 -1       989 4.68074E+00
 -1       990 3.02351E+00
 -1       991 6.20589E-01
 -1       992 3.21349E-01
 -1       993 3.98610E-01
 -1       994 3.86097E+00
 -1       995 2.33982E+00
 -1       996 1.70919E+00
 -1       997 1.17297E+00
 -1       998 4.31552E+00
 -1       999 2.48134E-03
 -1      1000 1.43450E+00
 -1      1001 4.59291E+00
 -1      1002 4.50060E-03
 -1      1003 3.66644E+00
 -1      1004 3.85312E+00
 -1      1005 6.01590E-01
 -1      1006 3.85333E+00
 -1      1007 3.58610E+00
 -1      1008 6.39535E-03
 -1      1009 4.77911E+00
 -1      1010 6.39535E-03
 -1      1011 5.83684E-01
 -1      1012 1.37238E+00
 -1      1013 3.38063E+00
 -1      1014 7.30133E-01
 -1      1015 5.83684E-01
 -1      1016 1.80749E+00
 -1      1017 2.67053E+00
 -1      1018 1.74757E+00
 -1      1019 1.27752E+00
 -1      1020 9.46567E-01
 -1      1021 7.07412E-01
 -1      1022 5.30289E-01
 -1      1023 4.00739E-01
 -1      1024 3.03764E-01
 -1      1025 2.29871E-01
 -1      1026 1.72964E-01
 -1      1027 1.28953E-01
 -1      1028 9.49515E-02
 -1      1029 6.88225E-02
 -1      1030 4.89169E-02
 -1      1031 3.40305E-02
 -1      1032 2.37771E-02
 -1      1033 1.63674E-02
 -1      1034 1.08042E-02
 -1      1035 7.46416E-03
 -1      1036 9.88859E-01
 -1      1037 5.50398E-01
 -1      1038 7.56522E-01
 -1      1039 4.18597E-01
 -1      1040 3.19260E-01
 -1      1041 2.42508E-01
 -1      1042 1.82597E-01
 -1      1043 1.35789E-01
 -1      1044 9.94091E-02
 -1      1045 7.13985E-02
 -1      1046 5.00993E-02
 -1      1047 3.41475E-02
 -1      1048 2.32056E-02
 -1      1049 1.52453E-02
 -1      1050 9.48932E-03
 -1      1051 5.98848E-03
 -1      1052 2.08273E+00
 -1      1053 1.04998E+00
 -1      1054 2.79124E+00
 -1      1055 1.38339E+00
 -1      1056 2.48818E+00
 -1      1057 2.08767E+00
 -1      1058 2.53180E-03
 -1      1059 7.47604E-01
 -1      1060 3.85312E+00
 -1      1061 2.75591E+00
 -1      1062 9.75585E-01
 -1      1063 2.96099E+00
 -1      1064 6.63507E-03
 -1      1065 2.94983E+00
 -1      1066 8.28592E-01
 -1      1067 1.45719E+00
 -1      1068 8.28592E-01
 -1      1069 2.55273E+00
 -1      1070 7.96856E-01
 -1      1071 2.31392E+00
 -1      1072 5.62700E-01
 -1      1073 2.00036E+00
 -1      1074 1.39975E+00
 -1      1075 1.21322E+00
 -1      1076 1.05325E+00
 -1      1077 7.69576E-01
 -1      1078 5.58180E-01
 -1      1079 4.08295E-01
 -1      1080 3.01093E-01
 -1      1081 2.22918E-01
 -1      1082 1.64951E-01
 -1      1083 1.21779E-01
 -1      1084 9.13199E-02
 -1      1085 6.72422E-02
 -1      1086 4.84629E-02
 -1      1087 3.40305E-02
 -1      1088 2.33790E-02
 -1      1089 1.56839E-02
 -1      1090 9.93414E-03
 -1      1091 7.69576E-01
 -1      1092 3.27720E-01
 -1      1093 2.50846E-01
 -1      1094 1.90944E-01
 -1      1095 1.44276E-01
 -1      1096 1.08095E-01
 -1      1097 7.97742E-02
 -1      1098 5.77985E-02
 -1      1099 4.09377E-02
 -1      1100 2.81730E-02
 -1      1101 1.92364E-02
 -1      1102 1.25646E-02
 -1      1103 1.99258E+00
 -1      1104 1.47503E+00
 -1      1105 1.96005E+00
 -1      1106 1.30208E+00
 -1      1107 1.05325E+00
 -1      1108 4.27860E-01
 -1      1109 1.45719E+00
 -1      1110 1.86131E+00
 -1      1111 4.79349E-03
 -1      1112 2.37410E+00
 -1      1113 6.13294E-03
 -1      1114 1.28280E+00
 -1      1115 1.99824E+00
 -1      1116 9.78952E-01
 -1      1117 9.93414E-03
 -1      1118 1.27736E+01
 -1      1119 8.15460E+00
 -1      1120 2.69066E+00
 -1      1121 1.59678E+00
 -1      1122 1.21373E+00
 -1      1123 9.83989E-01
 -1      1124 8.15691E-01
 -1      1125 6.88255E-01
 -1      1126 6.27644E-01
 -1      1127 6.75633E-01
 -1      1128 7.99569E-01
 -1      1129 9.72088E-01
 -1      1130 1.21750E+00
 -1      1131 1.60821E+00
 -1      1132 2.61253E+00
 -1      1133 5.81950E+00
 -1      1134 1.09612E+01
 -1      1135 1.27736E+01
 -1      1136 8.47491E+00
 -1      1137 3.61519E+00
 -1      1138 2.44889E+00
 -1      1139 1.57888E+00
 -1      1140 1.12119E+00
 -1      1141 8.00194E-01
 -1      1142 6.67998E-01
 -1      1143 7.55665E-01
 -1      1144 8.86543E-01
 -1      1145 9.25640E-01
 -1      1146 9.25157E-01
 -1      1147 1.02494E+00
 -1      1148 1.28626E+00
 -1      1149 1.97496E+00
 -1      1150 2.84776E+00
 -1      1151 3.19292E+00
 -1      1152 3.21497E+00
 -1      1153 3.23703E+00
 -1      1154 2.90979E+00
 -1      1155 2.04613E+00
 -1      1156 1.36414E+00
 -1      1157 1.12003E+00
 -1      1158 1.02147E+00
 -1      1159 9.99689E-01
 -1      1160 9.69939E-01
 -1      1161 9.04102E-01
 -1      1162 7.67887E-01
 -1      1163 6.19824E-01
 -1      1164 4.89179E-01
 -1      1165 4.00683E-01
 -1      1166 3.42084E-01
 -1      1167 2.80566E-01
 -1      1168 2.22425E-01
 -1      1169 1.71017E-01
 -1      1170 1.27678E-01
 -1      1171 9.85430E-02
 -1      1172 8.13063E-02
 -1      1173 6.64896E-02
 -1      1174 5.30290E-02
 -1      1175 4.12513E-02
 -1      1176 3.12169E-02
 -1      1177 2.36985E-02
 -1      1178 1.87661E-02
 -1      1179 1.48082E-02
 -1      1180 1.09588E-02
 -1      1181 7.39115E-03
 -1      1182 5.34903E-03
 -1      1183 4.13045E-03
 -1      1184 1.97632E-03
 -1      1185 1.36525E+01
 -1      1186 8.50179E+00
 -1      1187 2.82205E+00
 -1      1188 1.94862E+00
 -1      1189 1.49027E+00
 -1      1190 1.27899E+00
 -1      1191 1.08977E+00
 -1      1192 1.00203E+00
 -1      1193 1.00619E+00
 -1      1194 1.10260E+00
 -1      1195 1.32524E+00
 -1      1196 1.52099E+00
 -1      1197 1.74878E+00
 -1      1198 1.96136E+00
 -1      1199 2.28438E+00
 -1      1200 3.25622E+00
 -1      1201 4.18704E+00
 -1      1202 4.72571E+00
 -1      1203 5.03669E+00
 -1      1204 4.40541E+00
 -1      1205 2.92178E+00
 -1      1206 1.77914E+00
 -1      1207 1.59526E+00
 -1      1208 1.72979E+00
 -1      1209 1.75792E+00
 -1      1210 1.67402E+00
 -1      1211 1.46421E+00
 -1      1212 1.22550E+00
 -1      1213 9.98224E-01
 -1      1214 7.79878E-01
 -1      1215 5.88023E-01
 -1      1216 4.35954E-01
 -1      1217 3.28876E-01
 -1      1218 2.50344E-01
 -1      1219 1.86284E-01
 -1      1220 1.35452E-01
 -1      1221 9.60289E-02
 -1      1222 6.62628E-02
 -1      1223 4.91362E-02
 -1      1224 4.05205E-02
 -1      1225 3.26533E-02
 -1      1226 2.56919E-02
 -1      1227 2.06891E-02
 -1      1228 1.76322E-02
 -1      1229 1.48737E-02
 -1      1230 1.18498E-02
 -1      1231 8.75033E-03
 -1      1232 6.09441E-03
 -1      1233 4.02250E-03
 -1      1234 1.86069E-03
 -1      1235 1.04243E-03
 -1      1236 1.29358E-03
 -1      1237 8.39684E-04
 -1      1238 4.81407E-04
 -1      1239 5.21798E-04
 -1      1240 6.45339E-04
 -1      1241 6.92448E-04
 -1      1242 7.02354E-04
 -1      1243 7.00683E-04
 -1      1244 6.96477E-04
 -1      1245 6.77780E-04
 -1      1246 6.25211E-04
 -1      1247 5.03217E-04
 -1      1248 4.85345E-04
 -1      1249 1.02957E-03
 -1      1250 1.85289E-03
 -1      1251 1.43694E-03
 -1      1252 2.50299E+01
 -1      1253 3.68640E+01
 -1      1254 4.82681E+01
 -1      1255 3.46379E+01
 -1      1256 1.69351E+01
 -1      1257 1.32588E+01
 -1      1258 1.36551E+01
 -1      1259 1.32826E+01
 -1      1260 1.29101E+01
 -1      1261 1.29131E+01
 -1      1262 2.24714E+01
 -1      1263 3.24006E+01
 -1      1264 3.02680E+01
 -1      1265 2.61470E+01
 -1      1266 2.48043E+01
 -1      1267 2.50761E+01
 -1      1268 3.10762E+01
 -1      1269 3.70763E+01
 -1      1270 2.50401E+01
 -1      1271 1.25280E+01
 -1      1272 1.20489E+01
 -1      1273 1.19780E+01
 -1      1274 1.18945E+01
 -1      1275 1.18600E+01
 -1      1276 1.52212E+01
 -1      1277 3.28107E+01
 -1      1278 4.70203E+01
 -1      1279 3.59369E+01
 -1      1280 2.47266E+01
 -1      1281 1.27736E+01
 -1      1282 4.68668E+00
 -1      1283 9.30566E+00
 -1      1284 2.08818E+00
 -1      1285 2.93314E+00
 -1      1286 4.08420E+00
 -1      1287 1.46682E+00
 -1      1288 1.71573E+00
 -1      1289 1.95821E+00
 -1      1290 1.14658E+00
 -1      1291 1.28072E+00
 -1      1292 1.39967E+00
 -1      1293 9.35217E-01
 -1      1294 1.03083E+00
 -1      1295 1.09781E+00
 -1      1296 7.79480E-01
 -1      1297 8.52167E-01
 -1      1298 8.99007E-01
 -1      1299 6.61182E-01
 -1      1300 7.15931E-01
 -1      1301 7.52408E-01
 -1      1302 6.09449E-01
 -1      1303 6.15311E-01
 -1      1304 6.42987E-01
 -1      1305 7.02901E-01
 -1      1306 6.49051E-01
 -1      1307 6.36718E-01
 -1      1308 8.34677E-01
 -1      1309 7.64592E-01
 -1      1310 7.38010E-01
 -1      1311 1.02539E+00
 -1      1312 9.22958E-01
 -1      1313 8.87981E-01
 -1      1314 1.29059E+00
 -1      1315 1.14761E+00
 -1      1316 1.09848E+00
 -1      1317 1.72962E+00
 -1      1318 1.48190E+00
 -1      1319 1.41200E+00
 -1      1320 2.84346E+00
 -1      1321 2.08686E+00
 -1      1322 1.96055E+00
 -1      1323 6.02795E+00
 -1      1324 3.57759E+00
 -1      1325 3.05192E+00
 -1      1326 1.36525E+01
 -1      1327 1.09612E+01
 -1      1328 8.71925E+00
 -1      1329 1.36525E+01
 -1      1330 8.47491E+00
 -1      1331 4.17625E+00
 -1      1332 3.61519E+00
 -1      1333 3.05413E+00
 -1      1334 3.61519E+00
 -1      1335 2.44889E+00
 -1      1336 1.84366E+00
 -1      1337 2.44889E+00
 -1      1338 1.57888E+00
 -1      1339 1.31411E+00
 -1      1340 1.57888E+00
 -1      1341 1.12119E+00
 -1      1342 9.28275E-01
 -1      1343 1.12119E+00
 -1      1344 8.00194E-01
 -1      1345 6.72113E-01
 -1      1346 8.00194E-01
 -1      1347 6.67998E-01
 -1      1348 6.63883E-01
 -1      1349 6.67998E-01
 -1      1350 6.55181E-01
 -1      1351 7.46962E-01
 -1      1352 6.55181E-01
 -1      1353 8.47446E-01
 -1      1354 8.86543E-01
 -1      1355 7.46962E-01
 -1      1356 9.25640E-01
 -1      1357 9.25640E-01
 -1      1358 8.86543E-01
 -1      1359 9.04062E-01
 -1      1360 9.03580E-01
 -1      1361 9.04062E-01
 -1      1362 9.24674E-01
 -1      1363 1.02494E+00
 -1      1364 9.03580E-01
 -1      1365 1.12522E+00
 -1      1366 1.28626E+00
 -1      1367 1.02494E+00
 -1      1368 1.54155E+00
 -1      1369 2.06920E+00
 -1      1370 1.38050E+00
 -1      1371 2.50261E+00
 -1      1372 2.84776E+00
 -1      1373 2.06920E+00
 -1      1374 3.19292E+00
 -1      1375 3.19292E+00
 -1      1376 2.84776E+00
 -1      1377 3.16074E+00
 -1      1378 3.18280E+00
 -1      1379 3.16074E+00
 -1      1380 3.23703E+00
 -1      1381 3.23703E+00
 -1      1382 3.18280E+00
 -1      1383 2.90979E+00
 -1      1384 2.58255E+00
 -1      1385 2.90979E+00
 -1      1386 2.13300E+00
 -1      1387 1.59658E+00
 -1      1388 2.13300E+00
 -1      1389 1.36414E+00
 -1      1390 1.21858E+00
 -1      1391 1.45102E+00
 -1      1392 1.11423E+00
 -1      1393 1.01567E+00
 -1      1394 1.11423E+00
 -1      1395 1.02147E+00
 -1      1396 1.02147E+00
 -1      1397 1.01567E+00
 -1      1398 9.99689E-01
 -1      1399 9.77908E-01
 -1      1400 9.99689E-01
 -1      1401 9.69939E-01
 -1      1402 9.61969E-01
 -1      1403 9.69939E-01
 -1      1404 9.04102E-01
 -1      1405 8.46235E-01
 -1      1406 9.04102E-01
 -1      1407 7.71096E-01
 -1      1408 6.92748E-01
 -1      1409 7.71096E-01
 -1      1410 6.38794E-01
 -1      1411 5.69079E-01
 -1      1412 6.42003E-01
 -1      1413 5.27079E-01
 -1      1414 4.66150E-01
 -1      1415 5.46050E-01
 -1      1416 4.19200E-01
 -1      1417 3.91632E-01
 -1      1418 4.57100E-01
 -1      1419 3.46129E-01
 -1      1420 3.15098E-01
 -1      1421 3.64646E-01
 -1      1422 2.80566E-01
 -1      1423 2.50079E-01
 -1      1424 2.84611E-01
 -1      1425 2.22585E-01
 -1      1426 1.94930E-01
 -1      1427 2.22585E-01
 -1      1428 1.73871E-01
 -1      1429 1.50116E-01
 -1      1430 1.74030E-01
 -1      1431 1.31999E-01
 -1      1432 1.12415E-01
 -1      1433 1.34853E-01
 -1      1434 9.85430E-02
 -1      1435 8.89924E-02
 -1      1436 1.02864E-01
 -1      1437 8.13063E-02
 -1      1438 7.36202E-02
 -1      1439 8.13063E-02
 -1      1440 6.64896E-02
 -1      1441 5.93591E-02
 -1      1442 6.64896E-02
 -1      1443 5.30290E-02
 -1      1444 4.66990E-02
 -1      1445 5.30290E-02
 -1      1446 4.12513E-02
 -1      1447 3.58035E-02
 -1      1448 4.12513E-02
 -1      1449 3.12750E-02
 -1      1450 2.66885E-02
 -1      1451 3.12750E-02
 -1      1452 2.36985E-02
 -1      1453 2.07667E-02
 -1      1454 2.37566E-02
 -1      1455 1.87661E-02
 -1      1456 1.67654E-02
 -1      1457 1.87661E-02
 -1      1458 1.48082E-02
 -1      1459 1.28509E-02
 -1      1460 1.48082E-02
 -1      1461 1.09804E-02
 -1      1462 9.08825E-03
 -1      1463 1.09804E-02
 -1      1464 7.64779E-03
 -1      1465 5.97226E-03
 -1      1466 7.66936E-03
 -1      1467 5.34903E-03
 -1      1468 4.98243E-03
 -1      1469 5.60567E-03
 -1      1470 4.13045E-03
 -1      1471 3.27847E-03
 -1      1472 4.13045E-03
 -1      1473 2.73909E-03
 -1      1474 2.73909E-03
 -1      1475 3.35112E+00
 -1      1476 8.50179E+00
 -1      1477 8.50179E+00
 -1      1478 2.29298E+00
 -1      1479 2.82205E+00
 -1      1480 2.82205E+00
 -1      1481 1.60426E+00
 -1      1482 1.94862E+00
 -1      1483 1.94862E+00
 -1      1484 1.37629E+00
 -1      1485 1.49027E+00
 -1      1486 1.49027E+00
 -1      1487 1.18169E+00
 -1      1488 1.27899E+00
 -1      1489 1.27899E+00
 -1      1490 9.97864E-01
 -1      1491 1.08977E+00
 -1      1492 1.08977E+00
 -1      1493 9.94855E-01
 -1      1494 9.90690E-01
 -1      1495 9.90690E-01
 -1      1496 1.00619E+00
 -1      1497 1.00619E+00
 -1      1498 9.94855E-01
 -1      1499 1.09786E+00
 -1      1500 1.00145E+00
 -1      1501 1.00145E+00
 -1      1502 1.32524E+00
 -1      1503 1.19901E+00
 -1      1504 1.09786E+00
 -1      1505 1.52099E+00
 -1      1506 1.45148E+00
 -1      1507 1.32524E+00
 -1      1508 1.74878E+00
 -1      1509 1.59049E+00
 -1      1510 1.52099E+00
 -1      1511 1.96136E+00
 -1      1512 1.90706E+00
 -1      1513 1.74878E+00
 -1      1514 2.28438E+00
 -1      1515 2.01566E+00
 -1      1516 1.96136E+00
 -1      1517 3.30807E+00
 -1      1518 2.60494E+00
 -1      1519 2.33623E+00
 -1      1520 4.18704E+00
 -1      1521 3.95935E+00
 -1      1522 3.30807E+00
 -1      1523 4.72571E+00
 -1      1524 4.41472E+00
 -1      1525 4.18704E+00
 -1      1526 5.03669E+00
 -1      1527 5.03669E+00
 -1      1528 4.72571E+00
 -1      1529 3.77412E+00
 -1      1530 4.40541E+00
 -1      1531 4.40541E+00
 -1      1532 2.06943E+00
 -1      1533 2.92178E+00
 -1      1534 2.92178E+00
 -1      1535 1.38456E+00
 -1      1536 1.67485E+00
 -1      1537 1.67485E+00
 -1      1538 1.59526E+00
 -1      1539 1.48885E+00
 -1      1540 1.38456E+00
 -1      1541 1.72979E+00
 -1      1542 1.70166E+00
 -1      1543 1.59526E+00
 -1      1544 1.75792E+00
 -1      1545 1.75792E+00
 -1      1546 1.72979E+00
 -1      1547 1.59011E+00
 -1      1548 1.67402E+00
 -1      1549 1.67402E+00
 -1      1550 1.33830E+00
 -1      1551 1.46421E+00
 -1      1552 1.46421E+00
 -1      1553 1.11269E+00
 -1      1554 1.22550E+00
 -1      1555 1.22550E+00
 -1      1556 8.96948E-01
 -1      1557 1.01142E+00
 -1      1558 1.01142E+00
 -1      1559 6.95789E-01
 -1      1560 7.99666E-01
 -1      1561 8.12859E-01
 -1      1562 5.21999E-01
 -1      1563 6.09977E-01
 -1      1564 6.29766E-01
 -1      1565 3.86412E-01
 -1      1566 4.50504E-01
 -1      1567 4.72457E-01
 -1      1568 2.88014E-01
 -1      1569 3.31000E-01
 -1      1570 3.45550E-01
 -1      1571 2.14798E-01
 -1      1572 2.50344E-01
 -1      1573 2.52468E-01
 -1      1574 1.57771E-01
 -1      1575 1.86284E-01
 -1      1576 1.86284E-01
 -1      1577 1.14165E-01
 -1      1578 1.36484E-01
 -1      1579 1.36484E-01
 -1      1580 8.07637E-02
 -1      1581 9.78681E-02
 -1      1582 9.89001E-02
 -1      1583 5.56253E-02
 -1      1584 6.82870E-02
 -1      1585 7.01262E-02
 -1      1586 4.46713E-02
 -1      1587 4.91362E-02
 -1      1588 5.11604E-02
 -1      1589 3.63697E-02
 -1      1590 4.05205E-02
 -1      1591 4.05205E-02
 -1      1592 2.89370E-02
 -1      1593 3.26533E-02
 -1      1594 3.26533E-02
 -1      1595 2.24468E-02
 -1      1596 2.56919E-02
 -1      1597 2.56919E-02
 -1      1598 1.89313E-02
 -1      1599 2.06891E-02
 -1      1600 2.06891E-02
 -1      1601 1.63331E-02
 -1      1602 1.76322E-02
 -1      1603 1.76322E-02
 -1      1604 1.34143E-02
 -1      1605 1.48737E-02
 -1      1606 1.48737E-02
 -1      1607 1.02852E-02
 -1      1608 1.18498E-02
 -1      1609 1.18498E-02
 -1      1610 7.21545E-03
 -1      1611 8.75033E-03
 -1      1612 8.75033E-03
 -1      1613 4.97336E-03
 -1      1614 6.09441E-03
 -1      1615 6.09441E-03
 -1      1616 3.07165E-03
 -1      1617 4.02250E-03
 -1      1618 4.02250E-03
 -1      1619 2.25339E-03
 -1      1620 1.17368E-03
 -1      1621 1.31524E-03
 -1      1622 7.74046E-04
 -1      1623 1.08638E-03
 -1      1624 1.10804E-03
 -1      1625 5.74175E-04
 -1      1626 6.20121E-04
 -1      1627 8.66814E-04
 -1      1628 8.14802E-04
 -1      1629 7.28464E-04
 -1      1630 8.67179E-04
 -1      1631 9.29272E-04
 -1      1632 8.92068E-04
 -1      1633 1.09873E-03
 -1      1634 9.63093E-04
 -1      1635 9.53187E-04
 -1      1636 1.19992E-03
 -1      1637 9.64622E-04
 -1      1638 9.64622E-04
 -1      1639 1.22536E-03
 -1      1640 9.62950E-04
 -1      1641 9.64622E-04
 -1      1642 1.22689E-03
 -1      1643 9.58864E-04
 -1      1644 9.61399E-04
 -1      1645 1.22534E-03
 -1      1646 9.31107E-04
 -1      1647 9.47269E-04
 -1      1648 1.21219E-03
 -1      1649 8.66801E-04
 -1      1650 9.03206E-04
 -1      1651 1.17270E-03
 -1      1652 7.06723E-04
 -1      1653 7.92312E-04
 -1      1654 1.07031E-03
 -1      1655 6.38588E-04
 -1      1656 5.70871E-04
 -1      1657 8.59966E-04
 -1      1658 1.11509E-03
 -1      1659 6.38588E-04
 -1      1660 7.24114E-04
 -1      1661 2.12607E-03
 -1      1662 1.77925E-03
 -1      1663 1.38827E-03
 -1      1664 2.66545E-03
 -1      1665 2.71989E+01
 -1      1666 2.67687E+01
 -1      1667 3.84101E+01
 -1      1668 2.70060E+01
 -1      1669 4.82681E+01
 -1      1670 4.82681E+01
 -1      1671 2.19815E+01
 -1      1672 3.56117E+01
 -1      1673 1.18963E+01
 -1      1674 1.59690E+01
 -1      1675 1.32588E+01
 -1      1676 1.28624E+01
 -1      1677 1.36551E+01
 -1      1678 1.36551E+01
 -1      1679 1.27175E+01
 -1      1680 1.30900E+01
 -1      1681 1.29101E+01
 -1      1682 1.29101E+01
 -1      1683 1.22485E+01
 -1      1684 1.22455E+01
 -1      1685 2.24714E+01
 -1      1686 1.29161E+01
 -1      1687 3.27745E+01
 -1      1688 3.24006E+01
 -1      1689 3.02680E+01
 -1      1690 3.27745E+01
 -1      1691 2.48445E+01
 -1      1692 2.64591E+01
 -1      1693 2.72473E+01
 -1      1694 2.69755E+01
 -1      1695 2.72473E+01
 -1      1696 2.72473E+01
 -1      1697 3.55935E+01
 -1      1698 2.95934E+01
 -1      1699 3.70763E+01
 -1      1700 3.70763E+01
 -1      1701 1.30039E+01
 -1      1702 2.50401E+01
 -1      1703 1.20522E+01
 -1      1704 1.25280E+01
 -1      1705 1.20457E+01
 -1      1706 1.20489E+01
 -1      1707 1.19103E+01
 -1      1708 1.19780E+01
 -1      1709 1.18788E+01
 -1      1710 1.18945E+01
 -1      1711 1.18413E+01
 -1      1712 1.18600E+01
 -1      1713 1.46228E+01
 -1      1714 1.12430E+01
 -1      1715 3.34551E+01
 -1      1716 1.92455E+01
 -1      1717 4.70203E+01
 -1      1718 4.70203E+01
 -1      1719 2.65438E+01
 -1      1720 3.76273E+01
 -1      1721 2.67687E+01
 -1      1722 2.68955E+01
 -1      1723 1.69428E+01
 -1      1724 3.56117E+01
 -1      1725 2.25339E-03
 -1      1726 2.13350E-03
 -1      1727 2.87449E+01
 -1      1728 3.84101E+01
 -1      1729 2.89377E+01
 -1      1730 1.18963E+01
 -1      1731 1.32588E+01
 -1      1732 1.30900E+01
 -1      1733 1.27175E+01
 -1      1734 1.22455E+01
 -1      1735 1.22485E+01
 -1      1736 2.28453E+01
 -1      1737 3.27745E+01
 -1      1738 2.89656E+01
 -1      1739 2.72875E+01
 -1      1740 2.94185E+01
 -1      1741 3.17646E+01
 -1      1742 3.55935E+01
 -1      1743 2.50401E+01
 -1      1744 1.25280E+01
 -1      1745 1.20489E+01
 -1      1746 1.19780E+01
 -1      1747 1.18945E+01
 -1      1748 1.18600E+01
 -1      1749 1.12430E+01
 -1      1750 1.52673E+01
 -1      1751 3.34551E+01
 -1      1752 3.76273E+01
 -1      1753 2.85860E+01
 -1      1754 9.30566E+00
 -1      1755 1.35520E+00
 -1      1756 1.72765E+00
 -1      1757 2.36212E+00
 -1      1758 4.11566E+00
 -1      1759 1.75911E+00
 -1      1760 9.15435E-01
 -1      1761 1.03119E+00
 -1      1762 7.62613E-01
 -1      1763 8.45663E-01
 -1      1764 7.79041E-01
 -1      1765 6.45006E-01
 -1      1766 7.08556E-01
 -1      1767 6.55211E-01
 -1      1768 5.53414E-01
 -1      1769 5.99285E-01
 -1      1770 5.55433E-01
 -1      1771 5.87678E-01
 -1      1772 5.48077E-01
 -1      1773 5.04375E-01
 -1      1774 6.93509E-01
 -1      1775 6.31819E-01
 -1      1776 5.43178E-01
 -1      1777 8.40194E-01
 -1      1778 7.51913E-01
 -1      1779 6.45722E-01
 -1      1780 1.03154E+00
 -1      1781 9.09324E-01
 -1      1782 7.73257E-01
 -1      1783 1.30565E+00
 -1      1784 1.11434E+00
 -1      1785 9.25186E-01
 -1      1786 1.77861E+00
 -1      1787 1.42137E+00
 -1      1788 1.12371E+00
 -1      1789 2.57161E+00
 -1      1790 1.83748E+00
 -1      1791 1.29830E+00
 -1      1792 7.80880E+00
 -1      1793 2.87559E+00
 -1      1794 1.66115E+00
 -1      1795 2.65813E+00
 -1      1796 5.00699E+00
 -1      1797 1.94950E+00
 -1      1798 2.47857E+00
 -1      1799 1.78558E+00
 -1      1800 3.28491E+00
 -1      1801 2.24552E+00
 -1      1802 1.64028E+00
 -1      1803 1.36966E+00
 -1      1804 1.10488E+00
 -1      1805 1.16628E+00
 -1      1806 9.76591E-01
 -1      1807 7.83675E-01
 -1      1808 7.67364E-01
 -1      1809 6.92606E-01
 -1      1810 5.64525E-01
 -1      1811 5.48006E-01
 -1      1812 5.65794E-01
 -1      1813 5.61679E-01
 -1      1814 4.58206E-01
 -1      1815 5.61167E-01
 -1      1816 5.52465E-01
 -1      1817 4.58962E-01
 -1      1818 5.92313E-01
 -1      1819 6.92797E-01
 -1      1820 4.98300E-01
 -1      1821 7.18697E-01
 -1      1822 7.57794E-01
 -1      1823 5.64048E-01
 -1      1824 7.16999E-01
 -1      1825 6.95422E-01
 -1      1826 5.49154E-01
 -1      1827 7.10918E-01
 -1      1828 7.32013E-01
 -1      1829 5.23855E-01
 -1      1830 8.39652E-01
 -1      1831 9.39923E-01
 -1      1832 6.46991E-01
 -1      1833 1.15929E+00
 -1      1834 1.41458E+00
 -1      1835 9.74001E-01
 -1      1836 1.58700E+00
 -1      1837 2.02041E+00
 -1      1838 1.36579E+00
 -1      1839 2.24026E+00
 -1      1840 2.58541E+00
 -1      1841 1.75806E+00
 -1      1842 2.62047E+00
 -1      1843 2.58829E+00
 -1      1844 2.01296E+00
 -1      1845 2.59527E+00
 -1      1846 2.64951E+00
 -1      1847 2.05500E+00
 -1      1848 2.62282E+00
 -1      1849 2.29557E+00
 -1      1850 2.03529E+00
 -1      1851 2.08138E+00
 -1      1852 1.63183E+00
 -1      1853 1.79441E+00
 -1      1854 1.44234E+00
 -1      1855 1.20991E+00
 -1      1856 1.39072E+00
 -1      1857 9.51562E-01
 -1      1858 8.47207E-01
 -1      1859 9.42888E-01
 -1      1860 7.64997E-01
 -1      1861 7.70796E-01
 -1      1862 6.02333E-01
 -1      1863 7.96626E-01
 -1      1864 7.74845E-01
 -1      1865 5.45952E-01
 -1      1866 8.47013E-01
 -1      1867 8.39043E-01
 -1      1868 6.43950E-01
 -1      1869 8.48527E-01
 -1      1870 7.90660E-01
 -1      1871 7.25601E-01
 -1      1872 7.61591E-01
 -1      1873 6.86452E-01
 -1      1874 7.06016E-01
 -1      1875 6.49367E-01
 -1      1876 5.95413E-01
 -1      1877 6.39861E-01
 -1      1878 5.61695E-01
 -1      1879 5.19695E-01
 -1      1880 5.69059E-01
 -1      1881 4.82042E-01
 -1      1882 4.35091E-01
 -1      1883 4.97687E-01
 -1      1884 3.93958E-01
 -1      1885 3.48455E-01
 -1      1886 4.18900E-01
 -1      1887 3.08785E-01
 -1      1888 2.74252E-01
 -1      1889 3.38096E-01
 -1      1890 2.38832E-01
 -1      1891 2.11337E-01
 -1      1892 2.63005E-01
 -1      1893 1.81391E-01
 -1      1894 1.60331E-01
 -1      1895 1.97638E-01
 -1      1896 1.36070E-01
 -1      1897 1.17952E-01
 -1      1898 1.43431E-01
 -1      1899 1.01729E-01
 -1      1900 8.78574E-02
 -1      1901 1.02946E-01
 -1      1902 7.58044E-02
 -1      1903 6.81183E-02
 -1      1904 7.46695E-02
 -1      1905 5.95707E-02
 -1      1906 5.24402E-02
 -1      1907 5.40689E-02
 -1      1908 4.80534E-02
 -1      1909 4.17234E-02
 -1      1910 4.11345E-02
 -1      1911 3.83981E-02
 -1      1912 3.29503E-02
 -1      1913 3.34224E-02
 -1      1914 2.98591E-02
 -1      1915 2.53307E-02
 -1      1916 2.70059E-02
 -1      1917 2.25529E-02
 -1      1918 1.95630E-02
 -1      1919 2.11370E-02
 -1      1920 1.71235E-02
 -1      1921 1.51229E-02
 -1      1922 1.59198E-02
 -1      1923 1.38707E-02
 -1      1924 1.19135E-02
 -1      1925 1.22282E-02
 -1      1926 1.06845E-02
 -1      1927 8.81394E-03
 -1      1928 9.74706E-03
 -1      1929 7.56141E-03
 -1      1930 6.12096E-03
 -1      1931 7.26554E-03
 -1      1932 5.19674E-03
 -1      1933 4.57351E-03
 -1      1934 5.08879E-03
 -1      1935 3.94502E-03
 -1      1936 3.09304E-03
 -1      1937 2.48001E-03
 -1      1938 3.53609E-03
 -1      1939 1.28269E+00
 -1      1940 1.62705E+00
 -1      1941 1.28357E+00
 -1      1942 1.05506E+00
 -1      1943 1.16904E+00
 -1      1944 8.47474E-01
 -1      1945 9.41783E-01
 -1      1946 1.03908E+00
 -1      1947 7.17855E-01
 -1      1948 8.38141E-01
 -1      1949 9.30053E-01
 -1      1950 6.90149E-01
 -1      1951 9.14095E-01
 -1      1952 9.21268E-01
 -1      1953 7.61546E-01
 -1      1954 1.01317E+00
 -1      1955 1.00183E+00
 -1      1956 9.32406E-01
 -1      1957 1.07994E+00
 -1      1958 1.08468E+00
 -1      1959 1.09165E+00
 -1      1960 1.18391E+00
 -1      1961 1.08277E+00
 -1      1962 1.16600E+00
 -1      1963 1.29516E+00
 -1      1964 1.16892E+00
 -1      1965 1.15383E+00
 -1      1966 1.29423E+00
 -1      1967 1.22472E+00
 -1      1968 1.06840E+00
 -1      1969 1.47080E+00
 -1      1970 1.31252E+00
 -1      1971 1.01626E+00
 -1      1972 1.89384E+00
 -1      1973 1.83954E+00
 -1      1974 1.40328E+00
 -1      1975 2.51948E+00
 -1      1976 2.19891E+00
 -1      1977 2.07709E+00
 -1      1978 3.39122E+00
 -1      1979 2.73994E+00
 -1      1980 2.60263E+00
 -1      1981 3.57544E+00
 -1      1982 3.34776E+00
 -1      1983 2.77963E+00
 -1      1984 3.91693E+00
 -1      1985 3.60595E+00
 -1      1986 2.76667E+00
 -1      1987 3.11903E+00
 -1      1988 3.75031E+00
 -1      1989 2.63055E+00
 -1      1990 1.76673E+00
 -1      1991 2.61907E+00
 -1      1992 1.96397E+00
 -1      1993 1.13913E+00
 -1      1994 1.53371E+00
 -1      1995 1.23100E+00
 -1      1996 1.30165E+00
 -1      1997 1.19736E+00
 -1      1998 1.05621E+00
 -1      1999 1.49735E+00
 -1      2000 1.39094E+00
 -1      2001 1.20374E+00
 -1      2002 1.53240E+00
 -1      2003 1.50427E+00
 -1      2004 1.29996E+00
 -1      2005 1.43016E+00
 -1      2006 1.51406E+00
 -1      2007 1.28854E+00
 -1      2008 1.23969E+00
 -1      2009 1.36559E+00
 -1      2010 1.20564E+00
 -1      2011 1.06077E+00
 -1      2012 1.17357E+00
 -1      2013 1.07496E+00
 -1      2014 8.77503E-01
 -1      2015 9.78780E-01
 -1      2016 9.26854E-01
 -1      2017 6.96890E-01
 -1      2018 7.94171E-01
 -1      2019 7.61534E-01
 -1      2020 5.35013E-01
 -1      2021 6.20826E-01
 -1      2022 6.02137E-01
 -1      2023 3.98550E-01
 -1      2024 4.70046E-01
 -1      2025 4.61106E-01
 -1      2026 2.90138E-01
 -1      2027 3.45550E-01
 -1      2028 3.43138E-01
 -1      2029 2.12074E-01
 -1      2030 2.49744E-01
 -1      2031 2.49744E-01
 -1      2032 1.57368E-01
 -1      2033 1.85881E-01
 -1      2034 1.83157E-01
 -1      2035 1.15197E-01
 -1      2036 1.36484E-01
 -1      2037 1.36081E-01
 -1      2038 8.26030E-02
 -1      2039 9.89001E-02
 -1      2040 9.89001E-02
 -1      2041 5.76495E-02
 -1      2042 7.01262E-02
 -1      2043 7.01262E-02
 -1      2044 4.17809E-02
 -1      2045 4.82700E-02
 -1      2046 4.82700E-02
 -1      2047 3.20891E-02
 -1      2048 3.62399E-02
 -1      2049 3.33494E-02
 -1      2050 2.61881E-02
 -1      2051 2.99045E-02
 -1      2052 2.56239E-02
 -1      2053 2.07668E-02
 -1      2054 2.40118E-02
 -1      2055 2.12630E-02
 -1      2056 1.69515E-02
 -1      2057 1.87093E-02
 -1      2058 1.70293E-02
 -1      2059 1.37734E-02
 -1      2060 1.50725E-02
 -1      2061 1.30928E-02
 -1      2062 1.12001E-02
 -1      2063 1.26595E-02
 -1      2064 1.00998E-02
 -1      2065 8.80286E-03
 -1      2066 1.03674E-02
 -1      2067 8.15322E-03
 -1      2068 6.40626E-03
 -1      2069 7.94114E-03
 -1      2070 6.45879E-03
 -1      2071 4.53328E-03
 -1      2072 5.65432E-03
 -1      2073 4.84513E-03
 -1      2074 2.94154E-03
 -1      2075 3.89240E-03
 -1      2076 3.45231E-03
 -1      2077 2.00339E-03
 -1      2078 1.20367E-03
 -1      2079 1.04938E-03
 -1      2080 1.35758E-03
 -1      2081 1.51150E-03
 -1      2082 1.69408E-03
 -1      2083 1.59883E-03
 -1      2084 1.68614E-03
 -1      2085 2.49418E-03
 -1      2086 2.08960E-03
 -1      2087 1.34959E-03
 -1      2088 1.27232E-03
 -1      2089 1.45453E-03
 -1      2090 1.37694E-03
 -1      2091 1.35303E-03
 -1      2092 1.52661E-03
 -1      2093 1.37847E-03
 -1      2094 1.37694E-03
 -1      2095 1.53005E-03
 -1      2096 1.35968E-03
 -1      2097 1.35968E-03
 -1      2098 1.51126E-03
 -1      2099 1.35167E-03
 -1      2100 1.35322E-03
 -1      2101 1.48601E-03
 -1      2102 1.34817E-03
 -1      2103 1.35977E-03
 -1      2104 1.48765E-03
 -1      2105 1.32027E-03
 -1      2106 1.34817E-03
 -1      2107 1.49575E-03
 -1      2108 1.23671E-03
 -1      2109 1.31120E-03
 -1      2110 1.48668E-03
 -1      2111 1.03978E-03
 -1      2112 1.17563E-03
 -1      2113 1.41653E-03
 -1      2114 1.55463E-03
 -1      2115 1.55463E-03
 -1      2116 1.87029E-03
 -1      2117 3.84101E+01
 -1      2118 2.85521E+01
 -1      2119 3.07568E+01
 -1      2120 3.07568E+01
 -1      2121 3.05640E+01
 -1      2122 3.07568E+01
 -1      2123 2.00634E+01
 -1      2124 3.27198E+01
 -1      2125 2.28618E+01
 -1      2126 1.02035E+01
 -1      2127 1.62160E+01
 -1      2128 1.10116E+00
 -1      2129 1.28726E+00
 -1      2130 1.05670E+00
 -1      2131 9.18781E-01
 -1      2132 1.15640E+01
 -1      2133 1.11676E+01
 -1      2134 1.18373E+01
 -1      2135 1.24025E+01
 -1      2136 1.17598E+01
 -1      2137 1.15672E+01
 -1      2138 1.08797E+01
 -1      2139 9.92021E+00
 -1      2140 1.05848E+01
 -1      2141 1.01926E+01
 -1      2142 9.52498E+00
 -1      2143 7.86423E+00
 -1      2144 2.25450E+01
 -1      2145 1.26158E+01
 -1      2146 2.74059E+01
 -1      2147 2.74059E+01
 -1      2148 2.56735E+01
 -1      2149 2.94825E+01
 -1      2150 3.28202E+01
 -1      2151 3.06893E+01
 -1      2152 3.28202E+01
 -1      2153 3.28202E+01
 -1      2154 3.04623E+01
 -1      2155 2.81162E+01
 -1      2156 3.15179E+01
 -1      2157 2.92321E+01
 -1      2158 2.77493E+01
 -1      2159 1.25666E+01
 -1      2160 2.46028E+01
 -1      2161 9.43129E+00
 -1      2162 9.90715E+00
 -1      2163 9.46988E+00
 -1      2164 1.05405E+01
 -1      2165 1.05437E+01
 -1      2166 1.12619E+01
 -1      2167 1.13296E+01
 -1      2168 1.12059E+01
 -1      2169 1.12217E+01
 -1      2170 1.11933E+01
 -1      2171 1.12120E+01
 -1      2172 9.11843E+00
 -1      2173 9.71676E+00
 -1      2174 1.43077E+01
 -1      2175 9.68502E+00
 -1      2176 3.18008E+01
 -1      2177 1.82356E+01
 -1      2178 2.82343E+01
 -1      2179 3.76273E+01
 -1      2180 2.93932E+01
 -1      2181 2.90415E+01
 -1      2182 1.01430E+01
 -1      2183 9.17696E+00
 -1      2184 8.45022E+00
 -1      2185 1.33241E+01
 -1      2186 2.72385E+00
 -1      2187 8.44826E+00
 -1      2188 1.91524E+00
 -1      2189 3.05640E+01
 -1      2190 3.25759E+01
 -1      2191 2.21878E-03
 -1      2192 3.12123E+01
 -1      2193 2.90415E+01
 -1      2194 2.24078E+01
 -1      2195 1.26533E+01
 -1      2196 8.15879E+00
 -1      2197 9.06873E+00
 -1      2198 1.05392E+01
 -1      2199 1.05733E+01
 -1      2200 7.92286E+00
 -1      2201 2.41009E+01
 -1      2202 3.62219E+01
 -1      2203 3.12062E+01
 -1      2204 2.41138E+01
 -1      2205 9.89226E+00
 -1      2206 9.43450E+00
 -1      2207 1.03113E+01
 -1      2208 1.71764E+01
 -1      2209 2.41872E+01
 -1      2210 1.63430E+01
 -1      2211 1.17137E+01
 -1      2212 9.82439E+00
 -1      2213 8.62650E-01
 -1      2214 1.18510E+00
 -1      2215 5.53431E-01
 -1      2216 6.07489E-01
 -1      2217 6.43830E-01
 -1      2218 7.13602E-01
 -1      2219 5.42050E-01
 -1      2220 4.21737E-01
 -1      2221 4.27074E-01
 -1      2222 4.93784E-01
 -1      2223 4.49644E-01
 -1      2224 3.72343E-01
 -1      2225 5.94363E-01
 -1      2226 5.35959E-01
 -1      2227 4.42424E-01
 -1      2228 7.02246E-01
 -1      2229 6.33115E-01
 -1      2230 5.23352E-01
 -1      2231 8.08528E-01
 -1      2232 7.25729E-01
 -1      2233 5.85588E-01
 -1      2234 1.05988E+00
 -1      2235 9.44153E-01
 -1      2236 7.44696E-01
 -1      2237 5.84558E-01
 -1      2238 6.98202E-01
 -1      2239 5.99735E-01
 -1      2240 1.01049E+00
 -1      2241 7.39863E-01
 -1      2242 6.87027E+00
 -1      2243 5.84567E+00
 -1      2244 6.54018E-01
 -1      2245 5.25730E-01
 -1      2246 4.98230E-01
 -1      2247 4.75171E-01
 -1      2248 3.84101E-01
 -1      2249 3.61825E-01
 -1      2250 4.08421E-01
 -1      2251 4.09689E-01
 -1      2252 3.35585E-01
 -1      2253 4.50181E-01
 -1      2254 4.49669E-01
 -1      2255 4.00396E-01
 -1      2256 4.95193E-01
 -1      2257 5.35042E-01
 -1      2258 4.86412E-01
 -1      2259 5.73059E-01
 -1      2260 5.98959E-01
 -1      2261 5.69952E-01
 -1      2262 6.14719E-01
 -1      2263 5.73924E-01
 -1      2264 6.23729E-01
 -1      2265 6.69334E-01
 -1      2266 6.84831E-01
 -1      2267 7.34899E-01
 -1      2268 7.54749E-01
 -1      2269 8.62388E-01
 -1      2270 9.00228E-01
 -1      2271 9.68284E-01
 -1      2272 1.18765E+00
 -1      2273 1.07604E+00
 -1      2274 1.29007E+00
 -1      2275 1.46249E+00
 -1      2276 1.28435E+00
 -1      2277 1.55921E+00
 -1      2278 1.77906E+00
 -1      2279 1.48349E+00
 -1      2280 2.04054E+00
 -1      2281 2.07560E+00
 -1      2282 1.84170E+00
 -1      2283 1.96717E+00
 -1      2284 1.97414E+00
 -1      2285 1.99475E+00
 -1      2286 2.03896E+00
 -1      2287 2.01228E+00
 -1      2288 1.95113E+00
 -1      2289 1.79734E+00
 -1      2290 1.58315E+00
 -1      2291 1.80101E+00
 -1      2292 1.46474E+00
 -1      2293 1.27525E+00
 -1      2294 1.46767E+00
 -1      2295 1.16327E+00
 -1      2296 9.04928E-01
 -1      2297 1.23729E+00
 -1      2298 8.30914E-01
 -1      2299 7.48704E-01
 -1      2300 1.05130E+00
 -1      2301 6.78243E-01
 -1      2302 7.04073E-01
 -1      2303 9.06825E-01
 -1      2304 6.68711E-01
 -1      2305 7.40879E-01
 -1      2306 8.01002E-01
 -1      2307 7.37521E-01
 -1      2308 7.47006E-01
 -1      2309 7.62283E-01
 -1      2310 7.17915E-01
 -1      2311 6.88846E-01
 -1      2312 7.29835E-01
 -1      2313 6.51697E-01
 -1      2314 6.14612E-01
 -1      2315 6.63596E-01
 -1      2316 5.85186E-01
 -1      2317 5.51467E-01
 -1      2318 5.97021E-01
 -1      2319 5.16070E-01
 -1      2320 4.78417E-01
 -1      2321 5.32197E-01
 -1      2322 4.38576E-01
 -1      2323 3.97442E-01
 -1      2324 4.56959E-01
 -1      2325 3.58012E-01
 -1      2326 3.18342E-01
 -1      2327 3.77688E-01
 -1      2328 2.82237E-01
 -1      2329 2.46816E-01
 -1      2330 3.02154E-01
 -1      2331 2.15490E-01
 -1      2332 1.85544E-01
 -1      2333 2.34722E-01
 -1      2334 1.59453E-01
 -1      2335 1.35191E-01
 -1      2336 1.77304E-01
 -1      2337 1.14176E-01
 -1      2338 9.79528E-02
 -1      2339 1.30198E-01
 -1      2340 8.15155E-02
 -1      2341 6.94625E-02
 -1      2342 9.27458E-02
 -1      2343 5.69542E-02
 -1      2344 4.84066E-02
 -1      2345 6.38002E-02
 -1      2346 3.91474E-02
 -1      2347 3.47606E-02
 -1      2348 4.20327E-02
 -1      2349 2.96697E-02
 -1      2350 2.63443E-02
 -1      2351 2.76825E-02
 -1      2352 2.38138E-02
 -1      2353 2.07227E-02
 -1      2354 2.00611E-02
 -1      2355 1.94087E-02
 -1      2356 1.66309E-02
 -1      2357 1.62166E-02
 -1      2358 1.52285E-02
 -1      2359 1.27891E-02
 -1      2360 1.35002E-02
 -1      2361 1.14032E-02
 -1      2362 1.01511E-02
 -1      2363 1.07119E-02
 -1      2364 8.85185E-03
 -1      2365 7.62286E-03
 -1      2366 8.02686E-03
 -1      2367 6.91588E-03
 -1      2368 5.66335E-03
 -1      2369 6.02067E-03
 -1      2370 4.91787E-03
 -1      2371 3.99366E-03
 -1      2372 4.56822E-03
 -1      2373 6.19642E-01
 -1      2374 6.31373E-01
 -1      2375 8.04427E-01
 -1      2376 7.21299E-01
 -1      2377 6.62523E-01
 -1      2378 9.85841E-01
 -1      2379 8.98108E-01
 -1      2380 8.57861E-01
 -1      2381 1.12479E+00
 -1      2382 1.05328E+00
 -1      2383 1.01898E+00
 -1      2384 1.22704E+00
 -1      2385 1.22421E+00
 -1      2386 1.18583E+00
 -1      2387 1.30497E+00
 -1      2388 1.31996E+00
 -1      2389 1.37817E+00
 -1      2390 1.27765E+00
 -1      2391 1.34809E+00
 -1      2392 1.51422E+00
 -1      2393 1.48489E+00
 -1      2394 1.46660E+00
 -1      2395 1.74628E+00
 -1      2396 1.80971E+00
 -1      2397 1.44097E+00
 -1      2398 1.89131E+00
 -1      2399 2.32815E+00
 -1      2400 2.02307E+00
 -1      2401 2.06077E+00
 -1      2402 2.87677E+00
 -1      2403 2.65631E+00
 -1      2404 2.60229E+00
 -1      2405 3.48704E+00
 -1      2406 3.53050E+00
 -1      2407 3.58418E+00
 -1      2408 3.67403E+00
 -1      2409 3.64353E+00
 -1      2410 4.39439E+00
 -1      2411 3.06144E+00
 -1      2412 3.22806E+00
 -1      2413 4.10491E+00
 -1      2414 2.07640E+00
 -1      2415 2.57635E+00
 -1      2416 3.17386E+00
 -1      2417 1.51585E+00
 -1      2418 1.74887E+00
 -1      2419 2.36125E+00
 -1      2420 1.38474E+00
 -1      2421 1.32650E+00
 -1      2422 1.84438E+00
 -1      2423 1.46823E+00
 -1      2424 1.37893E+00
 -1      2425 1.64923E+00
 -1      2426 1.40852E+00
 -1      2427 1.40160E+00
 -1      2428 1.57679E+00
 -1      2429 1.29501E+00
 -1      2430 1.31335E+00
 -1      2431 1.41499E+00
 -1      2432 1.17050E+00
 -1      2433 1.23507E+00
 -1      2434 1.25987E+00
 -1      2435 1.03927E+00
 -1      2436 1.10538E+00
 -1      2437 1.13481E+00
 -1      2438 8.75679E-01
 -1      2439 9.57666E-01
 -1      2440 9.88093E-01
 -1      2441 7.08599E-01
 -1      2442 7.91932E-01
 -1      2443 8.22744E-01
 -1      2444 5.55046E-01
 -1      2445 6.31110E-01
 -1      2446 6.61508E-01
 -1      2447 4.22838E-01
 -1      2448 4.87805E-01
 -1      2449 5.16778E-01
 -1      2450 3.14005E-01
 -1      2451 3.67006E-01
 -1      2452 3.93705E-01
 -1      2453 2.28748E-01
 -1      2454 2.69142E-01
 -1      2455 2.93010E-01
 -1      2456 1.67442E-01
 -1      2457 1.93635E-01
 -1      2458 2.13033E-01
 -1      2459 1.19692E-01
 -1      2460 1.40576E-01
 -1      2461 1.51054E-01
 -1      2462 8.32716E-02
 -1      2463 9.95688E-02
 -1      2464 1.04064E-01
 -1      2465 5.60407E-02
 -1      2466 6.85174E-02
 -1      2467 6.91861E-02
 -1      2468 3.83949E-02
 -1      2469 4.77744E-02
 -1      2470 4.61656E-02
 -1      2471 2.78085E-02
 -1      2472 3.33494E-02
 -1      2473 3.28539E-02
 -1      2474 2.34393E-02
 -1      2475 2.56239E-02
 -1      2476 2.56239E-02
 -1      2477 1.90867E-02
 -1      2478 2.12630E-02
 -1      2479 2.12630E-02
 -1      2480 1.49718E-02
 -1      2481 1.70293E-02
 -1      2482 1.70293E-02
 -1      2483 1.12137E-02
 -1      2484 1.30928E-02
 -1      2485 1.30928E-02
 -1      2486 8.82186E-03
 -1      2487 9.93574E-03
 -1      2488 9.93574E-03
 -1      2489 7.03031E-03
 -1      2490 7.86301E-03
 -1      2491 7.69896E-03
 -1      2492 5.19136E-03
 -1      2493 6.05308E-03
 -1      2494 5.76288E-03
 -1      2495 3.71650E-03
 -1      2496 4.46844E-03
 -1      2497 4.06272E-03
 -1      2498 3.13506E-03
 -1      2499 1.69856E-03
 -1      2500 1.69512E-03
 -1      2501 1.64006E-03
 -1      2502 1.64006E-03
 -1      2503 1.80857E-03
 -1      2504 2.13747E-03
 -1      2505 2.44566E-03
 -1      2506 1.75261E-03
 -1      2507 1.68396E-03
 -1      2508 2.43555E-03
 -1      2509 1.92455E-03
 -1      2510 1.54355E-03
 -1      2511 1.56234E-03
 -1      2512 1.67235E-03
 -1      2513 1.48422E-03
 -1      2514 1.49068E-03
 -1      2515 1.54176E-03
 -1      2516 1.52888E-03
 -1      2517 1.52079E-03
 -1      2518 1.52546E-03
 -1      2519 1.59661E-03
 -1      2520 1.59661E-03
 -1      2521 1.62975E-03
 -1      2522 1.62595E-03
 -1      2523 1.63502E-03
 -1      2524 1.73589E-03
 -1      2525 1.56487E-03
 -1      2526 1.62595E-03
 -1      2527 1.77430E-03
 -1      2528 2.12926E-03
 -1      2529 1.61442E-03
 -1      2530 1.82384E-03
 -1      2531 3.25759E+01
 -1      2532 3.25759E+01
 -1      2533 2.46730E+01
 -1      2534 2.66849E+01
 -1      2535 3.12123E+01
 -1      2536 2.98486E+01
 -1      2537 3.12123E+01
 -1      2538 5.39892E-01
 -1      2539 5.55868E-01
 -1      2540 4.69386E-01
 -1      2541 2.64637E-03
 -1      2542 1.47642E+01
 -1      2543 2.04545E+01
 -1      2544 8.83400E+00
 -1      2545 1.26813E+01
 -1      2546 1.02740E+01
 -1      2547 1.68838E+00
 -1      2548 1.21005E+00
 -1      2549 7.83629E-01
 -1      2550 1.05391E+00
 -1      2551 2.57556E+01
 -1      2552 2.49484E+01
 -1      2553 1.94735E+01
 -1      2554 2.21865E+01
 -1      2555 3.62219E+01
 -1      2556 3.62219E+01
 -1      2557 4.67480E-01
 -1      2558 5.13201E-01
 -1      2559 4.65479E-01
 -1      2560 3.84843E-01
 -1      2561 9.36505E+00
 -1      2562 8.52657E+00
 -1      2563 1.61513E+01
 -1      2564 1.12904E+01
 -1      2565 9.28729E+00
 -1      2566 9.55744E+00
 -1      2567 7.38477E+00
 -1      2568 8.55980E+00
 -1      2569 5.86424E+00
 -1      2570 6.25948E+00
 -1      2571 1.00756E+01
 -1      2572 7.65236E+00
 -1      2573 2.14850E+01
 -1      2574 1.94083E+01
 -1      2575 3.12062E+01
 -1      2576 2.61905E+01
 -1      2577 2.68139E+01
 -1      2578 3.15179E+01
 -1      2579 2.21865E+01
 -1      2580 8.56547E+00
 -1      2581 7.77639E+00
 -1      2582 7.08970E+00
 -1      2583 9.74916E+00
 -1      2584 6.66603E+00
 -1      2585 5.55359E+00
 -1      2586 5.40711E+00
 -1      2587 9.36721E+00
 -1      2588 9.40740E+00
 -1      2589 8.95203E+00
 -1      2590 8.94595E+00
 -1      2591 6.53762E+00
 -1      2592 8.01414E+00
 -1      2593 7.34276E+00
 -1      2594 6.77617E+00
 -1      2595 5.72158E+00
 -1      2596 1.25244E+01
 -1      2597 8.59643E+00
 -1      2598 2.07122E+01
 -1      2599 1.48857E+01
 -1      2600 6.46249E+00
 -1      2601 7.48905E+00
 -1      2602 1.35525E+00
 -1      2603 1.53481E+00
 -1      2604 1.23082E+00
 -1      2605 9.34330E-01
 -1      2606 6.62941E+00
 -1      2607 7.57570E+00
 -1      2608 4.97311E+00
 -1      2609 6.14900E-01
 -1      2610 7.50110E-01
 -1      2611 8.20078E-01
 -1      2612 4.06596E-01
 -1      2613 1.17195E+00
 -1      2614 4.88450E+00
 -1      2615 1.74264E+01
 -1      2616 2.57556E+01
 -1      2617 7.21381E+00
 -1      2618 1.65754E+01
 -1      2619 6.42092E+00
 -1      2620 2.75837E-03
 -1      2621 2.67104E-03
 -1      2622 9.92400E-01
 -1      2623 2.55369E+01
 -1      2624 2.55369E+01
 -1      2625 1.96459E+01
 -1      2626 5.83287E+00
 -1      2627 6.84628E+00
 -1      2628 9.85965E-01
 -1      2629 1.57351E+01
 -1      2630 1.38207E+01
 -1      2631 1.06902E+01
 -1      2632 7.35941E+00
 -1      2633 3.12062E+01
 -1      2634 2.14850E+01
 -1      2635 9.05055E+00
 -1      2636 6.04760E+00
 -1      2637 5.38478E+00
 -1      2638 7.23756E+00
 -1      2639 3.15179E+01
 -1      2640 1.35224E+01
 -1      2641 7.77267E+00
 -1      2642 9.33354E+00
 -1      2643 2.70648E-03
 -1      2644 2.44525E-03
 -1      2645 2.18937E-03
 -1      2646 3.33497E-03
 -1      2647 7.78008E+00
 -1      2648 1.08288E+01
 -1      2649 3.11443E-03
 -1      2650 3.16405E-03
 -1      2651 4.01718E-01
 -1      2652 3.59543E-01
 -1      2653 3.22357E-01
 -1      2654 2.94451E-01
 -1      2655 2.81650E-01
 -1      2656 5.73423E-01
 -1      2657 5.49939E-01
 -1      2658 7.27488E-01
 -1      2659 5.91863E-01
 -1      2660 5.56215E-01
 -1      2661 5.06973E-01
 -1      2662 6.71421E-01
 -1      2663 4.25996E-01
 -1      2664 4.54687E-01
 -1      2665 5.26373E-01
 -1      2666 1.66467E+01
 -1      2667 1.24105E+01
 -1      2668 1.11282E+01
 -1      2669 1.53467E+01
 -1      2670 4.09555E-01
 -1      2671 3.58995E-01
 -1      2672 3.54487E-01
 -1      2673 3.78806E-01
 -1      2674 4.02216E-01
 -1      2675 4.14022E-01
 -1      2676 4.54513E-01
 -1      2677 4.32923E-01
 -1      2678 5.09065E-01
 -1      2679 5.54589E-01
 -1      2680 5.22690E-01
 -1      2681 6.23927E-01
 -1      2682 6.61944E-01
 -1      2683 6.46580E-01
 -1      2684 7.36299E-01
 -1      2685 7.52059E-01
 -1      2686 7.90273E-01
 -1      2687 8.14869E-01
 -1      2688 9.10279E-01
 -1      2689 9.27438E-01
 -1      2690 1.03871E+00
 -1      2691 1.10863E+00
 -1      2692 1.11868E+00
 -1      2693 1.29923E+00
 -1      2694 1.40512E+00
 -1      2695 1.43771E+00
 -1      2696 1.39486E+00
 -1      2697 1.49727E+00
 -1      2698 1.61804E+00
 -1      2699 1.74168E+00
 -1      2700 1.83840E+00
 -1      2701 1.85218E+00
 -1      2702 2.34885E+00
 -1      2703 2.61034E+00
 -1      2704 2.60704E+00
 -1      2705 2.47494E+00
 -1      2706 2.36650E+00
 -1      2707 2.98209E+00
 -1      2708 2.26549E+00
 -1      2709 2.33031E+00
 -1      2710 2.74568E+00
 -1      2711 2.04347E+00
 -1      2712 1.82853E+00
 -1      2713 2.35783E+00
 -1      2714 1.61862E+00
 -1      2715 1.50022E+00
 -1      2716 1.86108E+00
 -1      2717 1.42189E+00
 -1      2718 1.30991E+00
 -1      2719 1.57284E+00
 -1      2720 1.31662E+00
 -1      2721 1.24260E+00
 -1      2722 1.50122E+00
 -1      2723 1.13556E+00
 -1      2724 1.06510E+00
 -1      2725 1.40088E+00
 -1      2726 9.35602E-01
 -1      2727 9.00240E-01
 -1      2728 1.16434E+00
 -1      2729 8.44949E-01
 -1      2730 8.41592E-01
 -1      2731 9.79549E-01
 -1      2732 7.73963E-01
 -1      2733 7.44873E-01
 -1      2734 8.56629E-01
 -1      2735 7.00745E-01
 -1      2736 6.63596E-01
 -1      2737 7.44873E-01
 -1      2738 6.24337E-01
 -1      2739 5.94911E-01
 -1      2740 6.61486E-01
 -1      2741 5.50366E-01
 -1      2742 5.14969E-01
 -1      2743 5.77682E-01
 -1      2744 4.68385E-01
 -1      2745 4.28545E-01
 -1      2746 4.86555E-01
 -1      2747 3.84514E-01
 -1      2748 3.45084E-01
 -1      2749 3.95941E-01
 -1      2750 3.05996E-01
 -1      2751 2.69892E-01
 -1      2752 3.12822E-01
 -1      2753 2.37058E-01
 -1      2754 2.05731E-01
 -1      2755 2.40901E-01
 -1      2756 1.80257E-01
 -1      2757 1.54166E-01
 -1      2758 1.82593E-01
 -1      2759 1.33974E-01
 -1      2760 1.12959E-01
 -1      2761 1.36927E-01
 -1      2762 9.69611E-02
 -1      2763 8.05238E-02
 -1      2764 1.00737E-01
 -1      2765 6.81172E-02
 -1      2766 5.56089E-02
 -1      2767 7.23325E-02
 -1      2768 4.61922E-02
 -1      2769 3.69330E-02
 -1      2770 5.05092E-02
 -1      2771 2.99464E-02
 -1      2772 2.48555E-02
 -1      2773 3.41059E-02
 -1      2774 1.98021E-02
 -1      2775 1.72716E-02
 -1      2776 2.20660E-02
 -1      2777 1.41530E-02
 -1      2778 1.28390E-02
 -1      2779 1.38940E-02
 -1      2780 1.16836E-02
 -1      2781 1.02812E-02
 -1      2782 9.62011E-03
 -1      2783 9.81076E-03
 -1      2784 8.42491E-03
 -1      2785 7.99423E-03
 -1      2786 7.77113E-03
 -1      2787 6.47193E-03
 -1      2788 6.86998E-03
 -1      2789 5.74272E-03
 -1      2790 5.03574E-03
 -1      2791 5.48699E-03
 -1      2792 4.37976E-03
 -1      2793 3.63429E-03
 -1      2794 4.10181E-03
 -1      2795 9.28909E-01
 -1      2796 8.35228E-01
 -1      2797 6.54757E+00
 -1      2798 6.96883E+00
 -1      2799 7.31589E-01
 -1      2800 6.29932E-01
 -1      2801 8.02637E-01
 -1      2802 1.31804E+00
 -1      2803 1.21862E+00
 -1      2804 1.56934E+00
 -1      2805 1.47642E+00
 -1      2806 1.50921E+00
 -1      2807 1.84473E+00
 -1      2808 1.80161E+00
 -1      2809 1.89986E+00
 -1      2810 2.24030E+00
 -1      2811 2.05135E+00
 -1      2812 2.33875E+00
 -1      2813 2.62494E+00
 -1      2814 2.66885E+00
 -1      2815 2.97393E+00
 -1      2816 2.48426E+00
 -1      2817 2.27089E+00
 -1      2818 3.04843E+00
 -1      2819 2.93045E+00
 -1      2820 2.60229E+00
 -1      2821 2.81241E+00
 -1      2822 4.99311E+00
 -1      2823 4.83662E+00
 -1      2824 4.66874E+00
 -1      2825 5.11471E+00
 -1      2826 2.55415E+00
 -1      2827 2.88168E+00
 -1      2828 2.26420E+00
 -1      2829 2.45354E+00
 -1      2830 2.97397E+00
 -1      2831 2.06810E+00
 -1      2832 2.07391E+00
 -1      2833 2.68307E+00
 -1      2834 1.75487E+00
 -1      2835 1.82151E+00
 -1      2836 2.24619E+00
 -1      2837 1.45204E+00
 -1      2838 1.54720E+00
 -1      2839 1.79192E+00
 -1      2840 1.29503E+00
 -1      2841 1.35498E+00
 -1      2842 1.48720E+00
 -1      2843 1.12526E+00
 -1      2844 1.19037E+00
 -1      2845 1.28548E+00
 -1      2846 9.40748E-01
 -1      2847 1.02235E+00
 -1      2848 1.07791E+00
 -1      2849 7.63211E-01
 -1      2850 8.46958E-01
 -1      2851 8.81215E-01
 -1      2852 6.04006E-01
 -1      2853 6.81495E-01
 -1      2854 7.05709E-01
 -1      2855 4.67745E-01
 -1      2856 5.34986E-01
 -1      2857 5.54973E-01
 -1      2858 3.55006E-01
 -1      2859 4.10838E-01
 -1      2860 4.29046E-01
 -1      2861 2.64169E-01
 -1      2862 3.09032E-01
 -1      2863 3.26166E-01
 -1      2864 1.92581E-01
 -1      2865 2.27695E-01
 -1      2866 2.43718E-01
 -1      2867 1.37265E-01
 -1      2868 1.64131E-01
 -1      2869 1.78793E-01
 -1      2870 9.53153E-02
 -1      2871 1.15439E-01
 -1      2872 1.28516E-01
 -1      2873 6.40987E-02
 -1      2874 7.88529E-02
 -1      2875 9.02279E-02
 -1      2876 4.36392E-02
 -1      2877 5.19054E-02
 -1      2878 6.15723E-02
 -1      2879 2.97442E-02
 -1      2880 3.47897E-02
 -1      2881 4.05295E-02
 -1      2882 2.12889E-02
 -1      2883 2.34735E-02
 -1      2884 2.54093E-02
 -1      2885 1.60694E-02
 -1      2886 1.82457E-02
 -1      2887 1.60953E-02
 -1      2888 1.32894E-02
 -1      2889 1.53468E-02
 -1      2890 1.23295E-02
 -1      2891 1.04768E-02
 -1      2892 1.23559E-02
 -1      2893 1.06735E-02
 -1      2894 8.18466E-03
 -1      2895 9.46260E-03
 -1      2896 8.72577E-03
 -1      2897 6.21819E-03
 -1      2898 7.17703E-03
 -1      2899 6.70389E-03
 -1      2900 4.51769E-03
 -1      2901 5.49493E-03
 -1      2902 4.97300E-03
 -1      2903 3.41926E-03
 -1      2904 4.14218E-03
 -1      2905 3.87423E-03
 -1      2906 3.19388E-03
 -1      2907 1.48410E-03
 -1      2908 1.53697E-03
 -1      2909 3.19669E-03
 -1      2910 2.53800E-03
 -1      2911 3.00824E-03
 -1      2912 1.86035E-03
 -1      2913 1.91885E-03
 -1      2914 1.52546E-03
 -1      2915 1.48889E-03
 -1      2916 1.48410E-03
 -1      2917 1.59463E-03
 -1      2918 1.67235E-03
 -1      2919 1.78263E-03
 -1      2920 1.53697E-03
 -1      2921 4.71279E+00
 -1      2922 5.65069E+00
 -1      2923 4.93923E+00
 -1      2924 3.82887E+00
 -1      2925 1.62975E-03
 -1      2926 1.56202E-03
 -1      2927 1.52546E-03
 -1      2928 1.81896E-03
 -1      2929 1.78056E-03
 -1      2930 1.71283E-03
 -1      2931 1.92555E-03
 -1      2932 1.92555E-03
 -1      2933 1.97022E-03
 -1      2934 4.27958E+00
 -1      2935 5.81569E+00
 -1      2936 7.16172E+00
 -1      2937 5.90805E+00
 -1      2938 5.43047E-01
 -1      2939 4.51567E-01
 -1      2940 4.99658E-01
 -1      2941 6.12114E-01
 -1      2942 1.39904E+01
 -1      2943 1.86177E+01
 -1      2944 8.65732E-01
 -1      2945 6.66179E-01
 -1      2946 7.47945E+00
 -1      2947 9.56227E+00
 -1      2948 1.96881E+01
 -1      2949 1.49826E+01
 -1      2950 2.26422E+01
 -1      2951 2.12786E+01
 -1      2952 1.10983E+00
 -1      2953 1.04239E+00
 -1      2954 1.01976E+00
 -1      2955 1.24203E+00
 -1      2956 6.52918E-01
 -1      2957 5.67073E-01
 -1      2958 5.64243E-01
 -1      2959 7.35022E-01
 -1      2960 5.39482E-01
 -1      2961 5.00729E-01
 -1      2962 4.17848E-01
 -1      2963 5.27317E-01
 -1      2964 2.32178E+01
 -1      2965 1.91248E+01
 -1      2966 4.65762E-01
 -1      2967 5.02103E-01
 -1      2968 6.21779E+00
 -1      2969 4.42968E+00
 -1      2970 2.04680E+01
 -1      2971 2.51720E+01
 -1      2972 5.82894E+00
 -1      2973 6.55643E+00
 -1      2974 3.84494E+00
 -1      2975 4.97023E+00
 -1      2976 4.28909E+00
 -1      2977 4.01512E+00
 -1      2978 6.63474E+00
 -1      2979 5.79280E+00
 -1      2980 6.70020E+00
 -1      2981 6.50781E+00
 -1      2982 8.64884E+00
 -1      2983 7.43400E+00
 -1      2984 1.32695E+01
 -1      2985 1.00125E+01
 -1      2986 2.64012E+01
 -1      2987 2.13855E+01
 -1      2988 1.48831E+01
 -1      2989 6.31186E+00
 -1      2990 8.27641E+00
 -1      2991 2.22201E-03
 -1      2992 5.20558E+00
 -1      2993 6.55053E+00
 -1      2994 1.07486E+01
 -1      2995 8.38727E+00
 -1      2996 8.22252E-01
 -1      2997 4.58596E+00
 -1      2998 4.34741E+00
 -1      2999 8.68516E-01
 -1      3000 3.96331E+00
 -1      3001 4.58014E+00
 -1      3002 6.50076E-01
 -1      3003 6.86584E-01
 -1      3004 5.73788E-01
 -1      3005 2.62573E-01
 -1      3006 3.12559E-01
 -1      3007 3.52965E-01
 -1      3008 9.96893E+00
 -1      3009 1.56032E+01
 -1      3010 5.55694E+00
 -1      3011 1.41089E+01
 -1      3012 1.02501E+01
 -1      3013 1.56974E+01
 -1      3014 1.45493E+01
 -1      3015 1.14727E+01
 -1      3016 8.39598E+00
 -1      3017 2.10670E-03
 -1      3018 2.05492E-03
 -1      3019 2.11240E-03
 -1      3020 5.40223E+00
 -1      3021 1.22719E+01
 -1      3022 5.29157E+00
 -1      3023 4.69286E+00
 -1      3024 4.03913E+00
 -1      3025 3.36676E+00
 -1      3026 3.17386E+00
 -1      3027 3.65895E+00
 -1      3028 5.83876E+00
 -1      3029 4.61241E+00
 -1      3030 3.84218E+00
 -1      3031 3.47679E+00
 -1      3032 2.25811E-03
 -1      3033 2.71162E-03
 -1      3034 3.01645E-03
 -1      3035 2.38848E-03
 -1      3036 4.21456E+00
 -1      3037 3.81170E+00
 -1      3038 4.75857E+00
 -1      3039 2.17247E-03
 -1      3040 9.27555E+00
 -1      3041 8.04683E+00
 -1      3042 6.48095E+00
 -1      3043 4.53388E+00
 -1      3044 6.40764E+00
 -1      3045 9.42931E+00
 -1      3046 8.82141E+00
 -1      3047 4.28439E+00
 -1      3048 7.08151E+00
 -1      3049 1.46478E+01
 -1      3050 3.90437E-01
 -1      3051 4.30667E-01
 -1      3052 3.90720E-01
 -1      3053 3.18154E-01
 -1      3054 5.81608E+00
 -1      3055 6.99845E-01
 -1      3056 4.83944E+00
 -1      3057 8.82141E+00
 -1      3058 1.25599E+01
 -1      3059 8.99107E+00
 -1      3060 2.57660E-03
 -1      3061 2.17842E-03
 -1      3062 2.32968E-03
 -1      3063 3.01419E-03
 -1      3064 4.66874E+00
 -1      3065 7.29490E-01
 -1      3066 5.76657E-01
 -1      3067 5.86196E-01
 -1      3068 5.84194E-01
 -1      3069 5.33910E-01
 -1      3070 5.65754E-01
 -1      3071 1.38505E+01
 -1      3072 1.09558E+01
 -1      3073 9.90193E+00
 -1      3074 1.53513E+01
 -1      3075 1.12898E+01
 -1      3076 1.25190E+01
 -1      3077 4.52031E-01
 -1      3078 4.87247E-01
 -1      3079 5.45589E-01
 -1      3080 6.00141E-01
 -1      3081 5.64697E-01
 -1      3082 6.74463E-01
 -1      3083 7.43801E-01
 -1      3084 6.97361E-01
 -1      3085 8.41273E-01
 -1      3086 9.15627E-01
 -1      3087 8.69155E-01
 -1      3088 1.06257E+00
 -1      3089 1.12538E+00
 -1      3090 1.11357E+00
 -1      3091 1.30958E+00
 -1      3092 1.43800E+00
 -1      3093 1.44471E+00
 -1      3094 1.66029E+00
 -1      3095 1.85089E+00
 -1      3096 1.85119E+00
 -1      3097 1.94719E+00
 -1      3098 1.93693E+00
 -1      3099 2.16978E+00
 -1      3100 1.85218E+00
 -1      3101 2.09659E+00
 -1      3102 2.18133E+00
 -1      3103 3.23924E+00
 -1      3104 3.10384E+00
 -1      3105 3.49610E+00
 -1      3106 3.39509E+00
 -1      3107 3.26968E+00
 -1      3108 2.98285E+00
 -1      3109 2.38714E+00
 -1      3110 2.17722E+00
 -1      3111 1.66619E+00
 -1      3112 1.58786E+00
 -1      3113 2.19225E+00
 -1      3114 1.97853E+00
 -1      3115 1.98524E+00
 -1      3116 2.07189E+00
 -1      3117 1.68534E+00
 -1      3118 1.57830E+00
 -1      3119 2.16266E+00
 -1      3120 1.47135E+00
 -1      3121 1.34185E+00
 -1      3122 1.75580E+00
 -1      3123 1.19168E+00
 -1      3124 1.13639E+00
 -1      3125 1.49869E+00
 -1      3126 9.96508E-01
 -1      3127 9.28880E-01
 -1      3128 1.20864E+00
 -1      3129 8.37662E-01
 -1      3130 7.93534E-01
 -1      3131 9.77541E-01
 -1      3132 7.18926E-01
 -1      3133 6.79667E-01
 -1      3134 8.11715E-01
 -1      3135 6.12770E-01
 -1      3136 5.68225E-01
 -1      3137 6.70210E-01
 -1      3138 5.09820E-01
 -1      3139 4.63236E-01
 -1      3140 5.44907E-01
 -1      3141 4.12034E-01
 -1      3142 3.68003E-01
 -1      3143 4.35299E-01
 -1      3144 3.24825E-01
 -1      3145 2.85737E-01
 -1      3146 3.40918E-01
 -1      3147 2.50896E-01
 -1      3148 2.18063E-01
 -1      3149 2.62899E-01
 -1      3150 1.90472E-01
 -1      3151 1.64997E-01
 -1      3152 2.00467E-01
 -1      3153 1.43433E-01
 -1      3154 1.23242E-01
 -1      3155 1.51312E-01
 -1      3156 1.05985E-01
 -1      3157 8.99868E-02
 -1      3158 1.12491E-01
 -1      3159 7.64397E-02
 -1      3160 6.40331E-02
 -1      3161 8.16875E-02
 -1      3162 5.39873E-02
 -1      3163 4.45706E-02
 -1      3164 5.80945E-02
 -1      3165 3.70348E-02
 -1      3166 3.00482E-02
 -1      3167 4.05128E-02
 -1      3168 2.45046E-02
 -1      3169 1.94512E-02
 -1      3170 2.74334E-02
 -1      3171 1.54663E-02
 -1      3172 1.23478E-02
 -1      3173 1.79049E-02
 -1      3174 9.56491E-03
 -1      3175 8.40950E-03
 -1      3176 1.11372E-02
 -1      3177 6.73886E-03
 -1      3178 6.26840E-03
 -1      3179 6.68367E-03
 -1      3180 5.89228E-03
 -1      3181 5.23850E-03
 -1      3182 4.63692E-03
 -1      3183 5.02897E-03
 -1      3184 4.29977E-03
 -1      3185 4.05128E-03
 -1      3186 3.99727E-03
 -1      3187 3.34130E-03
 -1      3188 2.90966E-03
 -1      3189 3.53926E-03
 -1      3190 2.22592E+00
 -1      3191 1.99364E+00
 -1      3192 1.79175E+00
 -1      3193 1.63337E+00
 -1      3194 2.11780E+00
 -1      3195 3.68515E+00
 -1      3196 3.25659E+00
 -1      3197 4.03913E+00
 -1      3198 3.99221E+00
 -1      3199 1.94212E+00
 -1      3200 2.14979E+00
 -1      3201 1.58444E+00
 -1      3202 1.68149E+00
 -1      3203 2.03937E+00
 -1      3204 1.27194E+00
 -1      3205 1.37660E+00
 -1      3206 1.57090E+00
 -1      3207 1.01834E+00
 -1      3208 1.12125E+00
 -1      3209 1.21237E+00
 -1      3210 8.05915E-01
 -1      3211 8.99705E-01
 -1      3212 9.43044E-01
 -1      3213 6.40199E-01
 -1      3214 7.21915E-01
 -1      3215 7.40405E-01
 -1      3216 4.97650E-01
 -1      3217 5.66670E-01
 -1      3218 5.82877E-01
 -1      3219 3.79372E-01
 -1      3220 4.36278E-01
 -1      3221 4.47976E-01
 -1      3222 2.83807E-01
 -1      3223 3.29781E-01
 -1      3224 3.37012E-01
 -1      3225 2.08715E-01
 -1      3226 2.45189E-01
 -1      3227 2.48804E-01
 -1      3228 1.53212E-01
 -1      3229 1.81663E-01
 -1      3230 1.83134E-01
 -1      3231 1.10362E-01
 -1      3232 1.32189E-01
 -1      3233 1.35058E-01
 -1      3234 7.77516E-02
 -1      3235 9.42140E-02
 -1      3236 9.78860E-02
 -1      3237 5.33265E-02
 -1      3238 6.55198E-02
 -1      3239 6.95058E-02
 -1      3240 3.53605E-02
 -1      3241 4.42100E-02
 -1      3242 4.81575E-02
 -1      3243 2.24220E-02
 -1      3244 2.86927E-02
 -1      3245 3.23732E-02
 -1      3246 1.46108E-02
 -1      3247 1.76541E-02
 -1      3248 2.09375E-02
 -1      3249 1.05732E-02
 -1      3250 1.12958E-02
 -1      3251 1.28545E-02
 -1      3252 8.01142E-03
 -1      3253 8.94490E-03
 -1      3254 7.91115E-03
 -1      3255 6.81927E-03
 -1      3256 7.83352E-03
 -1      3257 6.10492E-03
 -1      3258 5.39039E-03
 -1      3259 6.39802E-03
 -1      3260 5.50577E-03
 -1      3261 4.11608E-03
 -1      3262 4.83934E-03
 -1      3263 4.53347E-03
 -1      3264 3.28236E-03
 -1      3265 3.65787E-03
 -1      3266 3.52421E-03
 -1      3267 2.80009E-03
 -1      3268 9.26383E+00
 -1      3269 1.11141E+01
 -1      3270 3.20968E-01
 -1      3271 2.83783E-01
 -1      3272 1.41642E-03
 -1      3273 1.41163E-03
 -1      3274 1.49345E-03
 -1      3275 1.45689E-03
 -1      3276 1.38442E-03
 -1      3277 3.35815E+00
 -1      3278 3.85431E+00
 -1      3279 1.07081E+01
 -1      3280 8.99508E+00
 -1      3281 4.25312E+00
 -1      3282 5.17075E+00
 -1      3283 6.09967E+00
 -1      3284 4.15251E+00
 -1      3285 4.90628E+00
 -1      3286 3.58419E+00
 -1      3287 8.06108E+00
 -1      3288 6.69740E+00
 -1      3289 2.07680E-03
 -1      3290 1.97022E-03
 -1      3291 1.73950E-03
 -1      3292 1.58869E-03
 -1      3293 1.52012E-03
 -1      3294 1.84608E-03
 -1      3295 2.43439E+00
 -1      3296 2.68098E+00
 -1      3297 2.58459E+00
 -1      3298 2.84966E+00
 -1      3299 3.03994E+00
 -1      3300 4.31909E+00
 -1      3301 3.03785E+00
 -1      3302 2.79375E+00
 -1      3303 2.58713E+00
 -1      3304 2.68092E+00
 -1      3305 3.50497E+00
 -1      3306 9.19492E+00
 -1      3307 7.53304E+00
 -1      3308 8.65742E-01
 -1      3309 7.62104E-01
 -1      3310 4.94092E+00
 -1      3311 4.60682E+00
 -1      3312 5.79381E+00
 -1      3313 4.57760E+00
 -1      3314 3.23924E+00
 -1      3315 3.68995E+00
 -1      3316 4.33457E-01
 -1      3317 4.28949E-01
 -1      3318 4.83272E-01
 -1      3319 1.32311E+01
 -1      3320 1.07530E+01
 -1      3321 8.31713E+00
 -1      3322 7.35022E-01
 -1      3323 4.21456E+00
 -1      3324 3.36099E+00
 -1      3325 1.26966E+01
 -1      3326 1.09993E+01
 -1      3327 6.78659E+00
 -1      3328 5.56105E+00
 -1      3329 1.11340E+01
 -1      3330 1.30733E+01
 -1      3331 3.91863E+00
 -1      3332 4.81552E+00
 -1      3333 2.21463E-01
 -1      3334 2.39571E-01
 -1      3335 2.60781E-01
 -1      3336 6.81160E-01
 -1      3337 6.53181E-01
 -1      3338 4.64739E-01
 -1      3339 6.12712E-01
 -1      3340 8.32224E+00
 -1      3341 8.67292E+00
 -1      3342 6.46965E+00
 -1      3343 1.08910E+01
 -1      3344 8.05873E+00
 -1      3345 7.88300E+00
 -1      3346 2.60704E+00
 -1      3347 2.60704E+00
 -1      3348 6.86423E-01
 -1      3349 5.28905E-01
 -1      3350 5.55638E-01
 -1      3351 2.11069E-03
 -1      3352 2.24676E-03
 -1      3353 3.75326E+00
 -1      3354 3.11749E+00
 -1      3355 4.02011E+00
 -1      3356 3.29899E+00
 -1      3357 6.01258E+00
 -1      3358 7.21761E-01
 -1      3359 1.67700E+00
 -1      3360 1.39446E+00
 -1      3361 1.28567E+00
 -1      3362 3.18041E+00
 -1      3363 3.62486E+00
 -1      3364 3.97891E+00
 -1      3365 3.76515E+00
 -1      3366 3.64712E+00
 -1      3367 3.23924E+00
 -1      3368 8.67471E+00
 -1      3369 7.51694E+00
 -1      3370 7.24418E+00
 -1      3371 4.61885E-01
 -1      3372 4.64017E-01
 -1      3373 5.60896E-01
 -1      3374 1.62411E-03
 -1      3375 1.81211E-03
 -1      3376 1.95217E-03
 -1      3377 5.65128E-01
 -1      3378 6.24951E-01
 -1      3379 5.90699E-01
 -1      3380 6.42723E-01
 -1      3381 1.46153E-03
 -1      3382 1.51920E-03
 -1      3383 1.54868E-03
 -1      3384 1.39386E-03
 -1      3385 2.78569E+00
 -1      3386 7.29650E+00
 -1      3387 5.81295E+00
 -1      3388 5.29752E+00
 -1      3389 6.45042E+00
 -1      3390 3.89710E+00
 -1      3391 4.00435E-01
 -1      3392 4.39359E-01
 -1      3393 3.65340E-01
 -1      3394 5.45892E+00
 -1      3395 6.80373E-01
 -1      3396 5.93488E-01
 -1      3397 6.58958E-01
 -1      3398 7.43478E-01
 -1      3399 9.20308E+00
 -1      3400 1.09558E+01
 -1      3401 9.38128E+00
 -1      3402 9.84045E-01
 -1      3403 9.43511E-01
 -1      3404 1.09753E+00
 -1      3405 4.61135E+00
 -1      3406 7.56054E+00
 -1      3407 8.63515E+00
 -1      3408 9.71736E+00
 -1      3409 4.26157E+00
 -1      3410 2.58255E-03
 -1      3411 2.32968E-03
 -1      3412 2.32968E-03
 -1      3413 2.90966E-03
 -1      3414 8.52164E+00
 -1      3415 7.12378E-01
 -1      3416 5.63472E-01
 -1      3417 6.21814E-01
 -1      3418 8.78346E+00
 -1      3419 8.08461E+00
 -1      3420 5.77374E-01
 -1      3421 6.86423E-01
 -1      3422 7.59229E+00
 -1      3423 6.03419E+00
 -1      3424 2.27524E+00
 -1      3425 7.16776E-01
 -1      3426 7.91099E-01
 -1      3427 7.15551E-01
 -1      3428 9.35047E-01
 -1      3429 1.03252E+00
 -1      3430 9.54461E-01
 -1      3431 1.20771E+00
 -1      3432 1.35466E+00
 -1      3433 1.27360E+00
 -1      3434 1.50355E+00
 -1      3435 1.68774E+00
 -1      3436 1.59769E+00
 -1      3437 2.69867E+00
 -1      3438 2.92096E+00
 -1      3439 2.75751E+00
 -1      3440 3.70689E+00
 -1      3441 3.80319E+00
 -1      3442 2.35998E+00
 -1      3443 7.51144E+00
 -1      3444 7.22031E+00
 -1      3445 2.81890E+00
 -1      3446 3.20957E+00
 -1      3447 2.65776E+00
 -1      3448 2.35786E+00
 -1      3449 2.28991E+00
 -1      3450 2.18296E+00
 -1      3451 2.78501E+00
 -1      3452 1.74677E+00
 -1      3453 1.59661E+00
 -1      3454 2.28087E+00
 -1      3455 1.43474E+00
 -1      3456 1.29485E+00
 -1      3457 1.68281E+00
 -1      3458 1.13305E+00
 -1      3459 1.04183E+00
 -1      3460 1.35914E+00
 -1      3461 8.96934E-01
 -1      3462 8.22326E-01
 -1      3463 1.05244E+00
 -1      3464 7.16384E-01
 -1      3465 6.49487E-01
 -1      3466 8.01603E-01
 -1      3467 5.80902E-01
 -1      3468 5.22496E-01
 -1      3469 6.27076E-01
 -1      3470 4.72751E-01
 -1      3471 4.21549E-01
 -1      3472 5.08746E-01
 -1      3473 3.78055E-01
 -1      3474 3.34877E-01
 -1      3475 4.15507E-01
 -1      3476 2.96103E-01
 -1      3477 2.61262E-01
 -1      3478 3.33240E-01
 -1      3479 2.28058E-01
 -1      3480 2.00467E-01
 -1      3481 2.61262E-01
 -1      3482 1.72876E-01
 -1      3483 1.51312E-01
 -1      3484 2.00467E-01
 -1      3485 1.28954E-01
 -1      3486 1.11697E-01
 -1      3487 1.50518E-01
 -1      3488 9.39844E-02
 -1      3489 8.04373E-02
 -1      3490 1.10447E-01
 -1      3491 6.67052E-02
 -1      3492 5.66593E-02
 -1      3493 7.90021E-02
 -1      3494 4.66424E-02
 -1      3495 3.91067E-02
 -1      3496 5.52531E-02
 -1      3497 3.17655E-02
 -1      3498 2.62218E-02
 -1      3499 3.78951E-02
 -1      3500 2.08235E-02
 -1      3501 1.68386E-02
 -1      3502 2.51556E-02
 -1      3503 1.29691E-02
 -1      3504 1.01862E-02
 -1      3505 1.58877E-02
 -1      3506 7.53380E-03
 -1      3507 5.86317E-03
 -1      3508 9.36571E-03
 -1      3509 4.20812E-03
 -1      3510 3.83200E-03
 -1      3511 5.05825E-03
 -1      3512 3.44714E-03
 -1      3513 3.23762E-03
 -1      3514 3.01834E-03
 -1      3515 2.65823E+00
 -1      3516 2.45634E+00
 -1      3517 3.86434E+00
 -1      3518 1.19079E+00
 -1      3519 1.34147E+00
 -1      3520 1.53612E+00
 -1      3521 1.74397E+00
 -1      3522 1.51454E+00
 -1      3523 3.32993E+00
 -1      3524 2.95753E+00
 -1      3525 2.07290E+00
 -1      3526 2.33353E+00
 -1      3527 2.03813E+00
 -1      3528 9.35757E-01
 -1      3529 1.05440E+00
 -1      3530 1.18350E+00
 -1      3531 7.37837E-01
 -1      3532 8.21836E-01
 -1      3533 9.33189E-01
 -1      3534 5.71675E-01
 -1      3535 6.45203E-01
 -1      3536 7.26635E-01
 -1      3537 4.35956E-01
 -1      3538 4.97328E-01
 -1      3539 5.59655E-01
 -1      3540 3.27252E-01
 -1      3541 3.76843E-01
 -1      3542 4.26195E-01
 -1      3543 2.42092E-01
 -1      3544 2.80709E-01
 -1      3545 3.20540E-01
 -1      3546 1.78760E-01
 -1      3547 2.05812E-01
 -1      3548 2.37718E-01
 -1      3549 1.29770E-01
 -1      3550 1.50794E-01
 -1      3551 1.73472E-01
 -1      3552 9.23325E-02
 -1      3553 1.08481E-01
 -1      3554 1.24217E-01
 -1      3555 6.44878E-02
 -1      3556 7.67196E-02
 -1      3557 8.73144E-02
 -1      3558 4.41396E-02
 -1      3559 5.32561E-02
 -1      3560 6.04699E-02
 -1      3561 2.92008E-02
 -1      3562 3.58686E-02
 -1      3563 4.09672E-02
 -1      3564 1.84829E-02
 -1      3565 2.32509E-02
 -1      3566 2.67462E-02
 -1      3567 1.10294E-02
 -1      3568 1.43444E-02
 -1      3569 1.66578E-02
 -1      3570 6.70478E-03
 -1      3571 8.33310E-03
 -1      3572 9.82300E-03
 -1      3573 5.03751E-03
 -1      3574 5.21542E-03
 -1      3575 5.63737E-03
 -1      3576 4.23528E-03
 -1      3577 4.65653E-03
 -1      3578 3.76702E-03
 -1      3579 3.61657E-03
 -1      3580 4.16762E-03
 -1      3581 3.31838E-03
 -1      3582 2.28055E-03
 -1      3583 2.42626E-03
 -1      3584 2.69216E-03
 -1      3585 2.28454E-03
 -1      3586 1.60137E-03
 -1      3587 1.56090E-03
 -1      3588 2.90497E+00
 -1      3589 3.18957E+00
 -1      3590 2.93851E+00
 -1      3591 4.70038E+00
 -1      3592 6.86760E-01
 -1      3593 3.81825E+00
 -1      3594 2.80351E-01
 -1      3595 3.17822E-01
 -1      3596 3.27537E-01
 -1      3597 5.15998E-01
 -1      3598 5.39081E-01
 -1      3599 5.96198E-01
 -1      3600 5.16516E+00
 -1      3601 8.21488E+00
 -1      3602 8.37275E+00
 -1      3603 7.24418E+00
 -1      3604 7.24418E+00
 -1      3605 7.45150E+00
 -1      3606 7.62913E+00
 -1      3607 5.73466E+00
 -1      3608 4.98821E+00
 -1      3609 5.49756E+00
 -1      3610 4.30021E+00
 -1      3611 3.83737E+00
 -1      3612 6.43156E+00
 -1      3613 6.31636E+00
 -1      3614 7.43483E+00
 -1      3615 7.43483E+00
 -1      3616 5.00983E+00
 -1      3617 5.73356E+00
 -1      3618 7.66143E+00
 -1      3619 5.84411E+00
 -1      3620 5.42136E+00
 -1      3621 6.96655E+00
 -1      3622 6.74350E+00
 -1      3623 5.68002E-01
 -1      3624 4.72554E-01
 -1      3625 5.28363E-01
 -1      3626 4.94291E-01
 -1      3627 4.55437E+00
 -1      3628 6.32779E+00
 -1      3629 6.37743E+00
 -1      3630 2.46941E+00
 -1      3631 1.92898E+00
 -1      3632 1.69008E+00
 -1      3633 3.32747E-03
 -1      3634 3.02498E-03
 -1      3635 2.69787E-03
 -1      3636 2.72334E-03
 -1      3637 4.05954E+00
 -1      3638 1.24996E+00
 -1      3639 7.72502E-01
 -1      3640 8.28711E-01
 -1      3641 2.44500E-03
 -1      3642 6.92782E+00
 -1      3643 3.96430E+00
 -1      3644 5.45815E+00
 -1      3645 5.73356E+00
 -1      3646 3.79563E+00
 -1      3647 2.75073E-03
 -1      3648 2.78452E-03
 -1      3649 3.15037E-03
 -1      3650 1.60137E-03
 -1      3651 1.77785E-03
 -1      3652 1.69660E-03
 -1      3653 1.75945E-03
 -1      3654 1.80935E-03
 -1      3655 1.97639E-03
 -1      3656 4.11601E+00
 -1      3657 6.13406E+00
 -1      3658 2.36605E-03
 -1      3659 2.86603E-03
 -1      3660 3.27071E-01
 -1      3661 2.64751E-01
 -1      3662 2.39240E-01
 -1      3663 2.06747E-03
 -1      3664 1.04285E+00
 -1      3665 9.61114E-01
 -1      3666 3.31148E+00
 -1      3667 2.95027E+00
 -1      3668 3.28880E+00
 -1      3669 4.10672E+00
 -1      3670 7.84460E-01
 -1      3671 7.02633E-01
 -1      3672 8.44584E-01
 -1      3673 1.21710E+00
 -1      3674 1.09880E+00
 -1      3675 1.31643E+00
 -1      3676 1.92770E-03
 -1      3677 1.69698E-03
 -1      3678 1.77822E-03
 -1      3679 2.29589E-03
 -1      3680 7.59427E+00
 -1      3681 6.24966E+00
 -1      3682 7.41606E+00
 -1      3683 7.05271E+00
 -1      3684 6.08981E+00
 -1      3685 4.18372E-01
 -1      3686 4.82676E-01
 -1      3687 4.73304E-01
 -1      3688 3.78163E+00
 -1      3689 5.66465E-01
 -1      3690 4.25548E-01
 -1      3691 4.29519E-01
 -1      3692 6.64165E-01
 -1      3693 3.71368E+00
 -1      3694 5.28363E-01
 -1      3695 5.71807E-01
 -1      3696 5.16748E-01
 -1      3697 6.97543E-01
 -1      3698 7.92504E-01
 -1      3699 9.30246E-01
 -1      3700 1.07419E+00
 -1      3701 9.12237E-01
 -1      3702 1.30584E+00
 -1      3703 1.48103E+00
 -1      3704 1.28163E+00
 -1      3705 1.76823E+00
 -1      3706 1.91713E+00
 -1      3707 1.80047E+00
 -1      3708 2.20915E+00
 -1      3709 3.22007E+00
 -1      3710 2.37969E+00
 -1      3711 3.22254E+00
 -1      3712 2.20604E-03
 -1      3713 2.92182E+00
 -1      3714 2.48563E+00
 -1      3715 2.25761E+00
 -1      3716 2.09574E+00
 -1      3717 2.89855E+00
 -1      3718 1.63426E+00
 -1      3719 1.47246E+00
 -1      3720 2.20905E+00
 -1      3721 1.15580E+00
 -1      3722 1.01090E+00
 -1      3723 1.43091E+00
 -1      3724 8.79586E-01
 -1      3725 7.73644E-01
 -1      3726 9.82942E-01
 -1      3727 6.95661E-01
 -1      3728 6.27076E-01
 -1      3729 7.73644E-01
 -1      3730 5.58491E-01
 -1      3731 5.08746E-01
 -1      3732 6.27076E-01
 -1      3733 4.50553E-01
 -1      3734 4.07059E-01
 -1      3735 5.00298E-01
 -1      3736 3.58761E-01
 -1      3737 3.19988E-01
 -1      3738 3.93807E-01
 -1      3739 2.80482E-01
 -1      3740 2.47277E-01
 -1      3741 3.06003E-01
 -1      3742 2.15345E-01
 -1      3743 1.87755E-01
 -1      3744 2.34565E-01
 -1      3745 1.62254E-01
 -1      3746 1.39896E-01
 -1      3747 1.77132E-01
 -1      3748 1.19795E-01
 -1      3749 1.02082E-01
 -1      3750 1.31531E-01
 -1      3751 8.64636E-02
 -1      3752 7.27314E-02
 -1      3753 9.58117E-02
 -1      3754 6.07842E-02
 -1      3755 5.07674E-02
 -1      3756 6.82457E-02
 -1      3757 4.17867E-02
 -1      3758 3.44455E-02
 -1      3759 4.73178E-02
 -1      3760 2.82390E-02
 -1      3761 2.28407E-02
 -1      3762 3.21307E-02
 -1      3763 1.83188E-02
 -1      3764 1.44492E-02
 -1      3765 2.14022E-02
 -1      3766 1.11931E-02
 -1      3767 8.54066E-03
 -1      3768 1.36242E-02
 -1      3769 6.26312E-03
 -1      3770 4.60807E-03
 -1      3771 8.09048E-03
 -1      3772 4.20373E-03
 -1      3773 3.81887E-03
 -1      3774 5.40860E-03
 -1      3775 6.37743E+00
 -1      3776 6.37743E+00
 -1      3777 7.75292E-01
 -1      3778 5.34813E+00
 -1      3779 8.84837E-01
 -1      3780 9.98758E-01
 -1      3781 1.15702E+00
 -1      3782 1.29341E+00
 -1      3783 1.10866E+00
 -1      3784 4.72207E+00
 -1      3785 6.77110E-01
 -1      3786 7.69744E-01
 -1      3787 8.35312E-01
 -1      3788 5.16667E-01
 -1      3789 5.91014E-01
 -1      3790 6.34122E-01
 -1      3791 3.91712E-01
 -1      3792 4.50824E-01
 -1      3793 4.82184E-01
 -1      3794 2.94284E-01
 -1      3795 3.40827E-01
 -1      3796 3.65456E-01
 -1      3797 2.18480E-01
 -1      3798 2.54760E-01
 -1      3799 2.75047E-01
 -1      3800 1.59840E-01
 -1      3801 1.87806E-01
 -1      3802 2.04848E-01
 -1      3803 1.14879E-01
 -1      3804 1.36168E-01
 -1      3805 1.50502E-01
 -1      3806 8.11643E-02
 -1      3807 9.67772E-02
 -1      3808 1.08729E-01
 -1      3809 5.62566E-02
 -1      3810 6.74883E-02
 -1      3811 7.69510E-02
 -1      3812 3.80435E-02
 -1      3813 4.63145E-02
 -1      3814 5.33329E-02
 -1      3815 2.50642E-02
 -1      3816 3.10142E-02
 -1      3817 3.63615E-02
 -1      3818 1.57935E-02
 -1      3819 1.99320E-02
 -1      3820 2.41999E-02
 -1      3821 9.43023E-03
 -1      3822 1.21265E-02
 -1      3823 1.54007E-02
 -1      3824 5.40355E-03
 -1      3825 6.89291E-03
 -1      3826 9.19642E-03
 -1      3827 3.94332E-03
 -1      3828 4.32430E-03
 -1      3829 5.57985E-03
 -1      3830 2.93369E-03
 -1      3831 3.91843E+00
 -1      3832 5.56311E+00
 -1      3833 5.44543E+00
 -1      3834 2.69529E+00
 -1      3835 3.26674E+00
 -1      3836 4.89547E+00
 -1      3837 5.96198E-01
 -1      3838 6.20589E-01
 -1      3839 6.97543E-01
 -1      3840 5.96198E-01
 -1      3841 1.07466E+00
 -1      3842 3.26195E-01
 -1      3843 2.59905E-01
 -1      3844 3.00684E-01
 -1      3845 3.39315E-01
 -1      3846 3.86833E-01
 -1      3847 4.30149E-01
 -1      3848 3.59980E-01
 -1      3849 4.11601E+00
 -1      3850 4.84401E+00
 -1      3851 5.76046E+00
 -1      3852 2.02451E+00
 -1      3853 2.35344E+00
 -1      3854 2.68167E+00
 -1      3855 1.51454E+00
 -1      3856 1.70919E+00
 -1      3857 1.48806E+00
 -1      3858 1.21673E+00
 -1      3859 1.03090E+00
 -1      3860 9.86653E-01
 -1      3861 5.82705E+00
 -1      3862 5.59290E+00
 -1      3863 4.81244E+00
 -1      3864 4.21796E+00
 -1      3865 1.96255E-03
 -1      3866 2.06747E-03
 -1      3867 2.32814E-03
 -1      3868 1.43630E+00
 -1      3869 1.24816E+00
 -1      3870 1.40344E+00
 -1      3871 1.68828E+00
 -1      3872 2.48134E-03
 -1      3873 6.12643E+00
 -1      3874 5.51920E+00
 -1      3875 4.63683E+00
 -1      3876 4.22694E+00
 -1      3877 3.49097E-03
 -1      3878 3.49097E-03
 -1      3879 3.49097E-03
 -1      3880 4.50060E-03
 -1      3881 5.31629E+00
 -1      3882 4.66651E+00
 -1      3883 4.19425E+00
 -1      3884 3.42494E+00
 -1      3885 2.89759E+00
 -1      3886 5.64793E-01
 -1      3887 4.66316E-01
 -1      3888 3.72105E+00
 -1      3889 4.79976E+00
 -1      3890 4.24938E+00
 -1      3891 4.84019E+00
 -1      3892 4.84019E+00
 -1      3893 3.87279E+00
 -1      3894 4.60758E+00
 -1      3895 5.22819E+00
 -1      3896 3.95081E+00
 -1      3897 4.08660E-03
 -1      3898 4.08660E-03
 -1      3899 6.99109E+00
 -1      3900 5.20408E+00
 -1      3901 5.22285E+00
 -1      3902 2.02451E+00
 -1      3903 4.08660E-03
 -1      3904 4.28514E-03
 -1      3905 6.39535E-03
 -1      3906 3.39143E-03
 -1      3907 4.13079E+00
 -1      3908 4.57362E-01
 -1      3909 4.52517E-01
 -1      3910 5.92637E-01
 -1      3911 3.83875E+00
 -1      3912 1.37238E+00
 -1      3913 1.31643E+00
 -1      3914 1.27268E+00
 -1      3915 4.60384E+00
 -1      3916 3.62080E+00
 -1      3917 3.61698E+00
 -1      3918 4.26693E+00
 -1      3919 7.25176E-01
 -1      3920 8.40269E-01
 -1      3921 5.22687E-01
 -1      3922 5.77745E-01
 -1      3923 4.91147E-01
 -1      3924 1.42873E+00
 -1      3925 1.66038E+00
 -1      3926 2.89855E+00
 -1      3927 2.67053E+00
 -1      3928 3.49302E+00
 -1      3929 2.20905E+00
 -1      3930 1.74757E+00
 -1      3931 2.20905E+00
 -1      3932 1.51255E+00
 -1      3933 1.19589E+00
 -1      3934 1.51255E+00
 -1      3935 1.03041E+00
 -1      3936 8.99097E-01
 -1      3937 1.11204E+00
 -1      3938 7.79519E-01
 -1      3939 7.01536E-01
 -1      3940 8.26989E-01
 -1      3941 6.12975E-01
 -1      3942 5.44390E-01
 -1      3943 6.18850E-01
 -1      3944 4.79615E-01
 -1      3945 4.21422E-01
 -1      3946 4.65514E-01
 -1      3947 3.72935E-01
 -1      3948 3.24637E-01
 -1      3949 3.52251E-01
 -1      3950 2.87690E-01
 -1      3951 2.48184E-01
 -1      3952 2.66817E-01
 -1      3953 2.19730E-01
 -1      3954 1.87798E-01
 -1      3955 2.01417E-01
 -1      3956 1.65793E-01
 -1      3957 1.40292E-01
 -1      3958 1.50958E-01
 -1      3959 1.23292E-01
 -1      3960 1.03191E-01
 -1      3961 1.11952E-01
 -1      3962 9.01266E-02
 -1      3963 7.45077E-02
 -1      3964 8.18871E-02
 -1      3965 6.45549E-02
 -1      3966 5.26077E-02
 -1      3967 5.88697E-02
 -1      3968 4.51645E-02
 -1      3969 3.61839E-02
 -1      3970 4.14737E-02
 -1      3971 3.10572E-02
 -1      3972 2.48506E-02
 -1      3973 2.89038E-02
 -1      3974 2.11458E-02
 -1      3975 1.66238E-02
 -1      3976 2.00722E-02
 -1      3977 1.38423E-02
 -1      3978 1.05861E-02
 -1      3979 1.35858E-02
 -1      3980 8.91609E-03
 -1      3981 6.63855E-03
 -1      3982 9.13420E-03
 -1      3983 6.23421E-03
 -1      3984 4.22301E+00
 -1      3985 3.34498E+00
 -1      3986 9.69632E-01
 -1      3987 1.12789E+00
 -1      3988 8.59496E-01
 -1      3989 5.49212E-01
 -1      3990 6.35308E-01
 -1      3991 6.40266E-01
 -1      3992 9.64747E-01
 -1      3993 7.78427E-01
 -1      3994 6.42259E-01
 -1      3995 4.17469E-01
 -1      3996 4.83311E-01
 -1      3997 4.84497E-01
 -1      3998 3.16916E-01
 -1      3999 3.67801E-01
 -1      4000 3.68928E-01
 -1      4001 2.39015E-01
 -1      4002 2.78540E-01
 -1      4003 2.80884E-01
 -1      4004 1.78386E-01
 -1      4005 2.09059E-01
 -1      4006 2.12553E-01
 -1      4007 1.31310E-01
 -1      4008 1.54982E-01
 -1      4009 1.59193E-01
 -1      4010 9.50181E-02
 -1      4011 1.13120E-01
 -1      4012 1.17599E-01
 -1      4013 6.73368E-02
 -1      4014 8.10128E-02
 -1      4015 8.54038E-02
 -1      4016 4.67451E-02
 -1      4017 5.66872E-02
 -1      4018 6.07489E-02
 -1      4019 3.17398E-02
 -1      4020 3.87692E-02
 -1      4021 4.21234E-02
 -1      4022 2.11367E-02
 -1      4023 2.62689E-02
 -1      4024 2.86766E-02
 -1      4025 1.34895E-02
 -1      4026 1.71565E-02
 -1      4027 1.92255E-02
 -1      4028 8.07421E-03
 -1      4029 1.06115E-02
 -1      4030 1.23673E-02
 -1      4031 5.24454E-03
 -1      4032 6.32379E-03
 -1      4033 7.73890E-03
 -1      4034 5.24454E-03
 -1      4035 1.89596E+00
 -1      4036 2.21128E+00
 -1      4037 3.39105E-03
 -1      4038 9.12237E-01
 -1      4039 1.04998E+00
 -1      4040 1.42873E+00
 -1      4041 2.56553E+00
 -1      4042 2.90738E+00
 -1      4043 2.43698E+00
 -1      4044 1.32516E+00
 -1      4045 1.54629E+00
 -1      4046 1.73306E+00
 -1      4047 3.17065E+00
 -1      4048 2.21512E+00
 -1      4049 1.96134E+00
 -1      4050 2.37969E+00
 -1      4051 3.95736E+00
 -1      4052 2.97050E+00
 -1      4053 2.08767E+00
 -1      4054 2.35337E-03
 -1      4055 2.50657E-03
 -1      4056 3.51620E-03
 -1      4057 4.46358E-03
 -1      4058 5.69980E-03
 -1      4059 6.92975E-03
 -1      4060 6.65644E-01
 -1      4061 6.59705E-01
 -1      4062 6.84097E-01
 -1      4063 3.22884E+00
 -1      4064 1.18612E+00
 -1      4065 6.79056E-01
 -1      4066 4.22301E+00
 -1      4067 3.85312E+00
 -1      4068 2.13459E+00
 -1      4069 2.42179E+00
 -1      4070 1.17398E+00
 -1      4071 1.07428E+00
 -1      4072 8.66053E-01
 -1      4073 4.29502E+00
 -1      4074 3.27354E+00
 -1      4075 3.87005E+00
 -1      4076 7.04961E-03
 -1      4077 6.51521E-03
 -1      4078 6.51521E-03
 -1      4079 3.30813E+00
 -1      4080 4.30821E+00
 -1      4081 3.86447E+00
 -1      4082 2.87053E+00
 -1      4083 3.12831E+00
 -1      4084 7.15091E-01
 -1      4085 7.06138E-01
 -1      4086 4.52517E-01
 -1      4087 2.28170E+00
 -1      4088 7.61050E-01
 -1      4089 8.98791E-01
 -1      4090 1.44584E+00
 -1      4091 1.41479E+00
 -1      4092 1.41479E+00
 -1      4093 1.97268E+00
 -1      4094 3.30462E+00
 -1      4095 3.06827E+00
 -1      4096 7.92557E-01
 -1      4097 7.15091E-01
 -1      4098 8.28592E-01
 -1      4099 9.02089E-01
 -1      4100 3.17065E+00
 -1      4101 2.96668E+00
 -1      4102 3.20685E+00
 -1      4103 3.85704E+00
 -1      4104 5.83684E-01
 -1      4105 3.20292E+00
 -1      4106 6.90270E-01
 -1      4107 6.90270E-01
 -1      4108 7.72230E-01
 -1      4109 8.12724E-01
 -1      4110 2.42179E+00
 -1      4111 3.08352E+00
 -1      4112 2.40105E+00
 -1      4113 1.88556E+00
 -1      4114 2.43333E+00
 -1      4115 5.56549E-01
 -1      4116 6.46416E-01
 -1      4117 2.33544E+00
 -1      4118 1.87396E+00
 -1      4119 2.79323E+00
 -1      4120 9.23417E-01
 -1      4121 1.57366E+00
 -1      4122 1.33864E+00
 -1      4123 1.24537E+00
 -1      4124 1.07989E+00
 -1      4125 1.30648E+00
 -1      4126 9.99909E-01
 -1      4127 8.80331E-01
 -1      4128 1.13323E+00
 -1      4129 7.38494E-01
 -1      4130 6.49932E-01
 -1      4131 9.11413E-01
 -1      4132 5.44234E-01
 -1      4133 4.79459E-01
 -1      4134 6.63878E-01
 -1      4135 4.04517E-01
 -1      4136 3.56029E-01
 -1      4137 4.83237E-01
 -1      4138 3.02428E-01
 -1      4139 2.65482E-01
 -1      4140 3.54694E-01
 -1      4141 2.26394E-01
 -1      4142 1.97941E-01
 -1      4143 2.62006E-01
 -1      4144 1.68957E-01
 -1      4145 1.46952E-01
 -1      4146 1.93935E-01
 -1      4147 1.25366E-01
 -1      4148 1.08365E-01
 -1      4149 1.43365E-01
 -1      4150 9.31357E-02
 -1      4151 8.00712E-02
 -1      4152 1.06549E-01
 -1      4153 6.80324E-02
 -1      4154 5.80795E-02
 -1      4155 7.92810E-02
 -1      4156 4.86899E-02
 -1      4157 4.12467E-02
 -1      4158 5.78526E-02
 -1      4159 3.40305E-02
 -1      4160 2.89038E-02
 -1      4161 4.12467E-02
 -1      4162 2.35780E-02
 -1      4163 1.98732E-02
 -1      4164 2.87048E-02
 -1      4165 1.60256E-02
 -1      4166 1.32440E-02
 -1      4167 1.95314E-02
 -1      4168 1.03692E-02
 -1      4169 8.69915E-03
 -1      4170 8.28460E-03
 -1      4171 1.28090E-02
 -1      4172 7.49854E-01
 -1      4173 8.79218E-01
 -1      4174 6.66138E-01
 -1      4175 3.23490E-01
 -1      4176 3.73158E-01
 -1      4177 2.46677E-01
 -1      4178 2.85053E-01
 -1      4179 2.89283E-01
 -1      4180 1.86770E-01
 -1      4181 2.16726E-01
 -1      4182 2.20895E-01
 -1      4183 1.40033E-01
 -1      4184 1.63437E-01
 -1      4185 1.67610E-01
 -1      4186 1.03752E-01
 -1      4187 1.21942E-01
 -1      4188 1.26186E-01
 -1      4189 7.55864E-02
 -1      4190 8.95917E-02
 -1      4191 9.39348E-02
 -1      4192 5.39489E-02
 -1      4193 6.45985E-02
 -1      4194 6.87863E-02
 -1      4195 3.75426E-02
 -1      4196 4.55185E-02
 -1      4197 4.93681E-02
 -1      4198 2.56893E-02
 -1      4199 3.11603E-02
 -1      4200 3.45554E-02
 -1      4201 1.72408E-02
 -1      4202 2.12210E-02
 -1      4203 2.37047E-02
 -1      4204 1.10270E-02
 -1      4205 1.39049E-02
 -1      4206 1.59005E-02
 -1      4207 2.37424E+00
 -1      4208 2.68660E+00
 -1      4209 1.90003E+00
 -1      4210 1.42921E+00
 -1      4211 1.77888E+00
 -1      4212 2.02139E+00
 -1      4213 2.37565E+00
 -1      4214 1.71754E+00
 -1      4215 2.27265E+00
 -1      4216 1.17603E+00
 -1      4217 1.55478E+00
 -1      4218 1.64733E+00
 -1      4219 1.04947E+00
 -1      4220 1.02106E+00
 -1      4221 1.21832E+00
 -1      4222 9.11413E-01
 -1      4223 4.23228E-01
 -1      4224 4.89129E-01
 -1      4225 4.95280E-01
 -1      4226 3.77790E-01
 -1      4227 1.45719E+00
 -1      4228 1.41479E+00
 -1      4229 1.88556E+00
 -1      4230 1.06533E+00
 -1      4231 2.20702E+00
 -1      4232 2.08762E+00
 -1      4233 1.65925E+00
 -1      4234 1.92694E+00
 -1      4235 2.48067E+00
 -1      4236 3.66265E-03
 -1      4237 4.64705E-03
 -1      4238 5.39098E-03
 -1      4239 1.70006E+00
 -1      4240 3.57660E+00
 -1      4241 2.66754E+00
 -1      4242 2.66196E+00
 -1      4243 2.45494E+00
 -1      4244 7.81113E-03
 -1      4245 9.34876E-03
 -1      4246 6.06071E-03
 -1      4247 1.26414E+00
 -1      4248 1.21639E+00
 -1      4249 1.34128E+00
 -1      4250 1.24801E+00
 -1      4251 1.13323E+00
 -1      4252 1.05325E+00
 -1      4253 9.11413E-01
 -1      4254 7.69576E-01
 -1      4255 6.66138E-01
 -1      4256 5.60440E-01
 -1      4257 4.93020E-01
 -1      4258 4.18078E-01
 -1      4259 3.68008E-01
 -1      4260 3.14406E-01
 -1      4261 2.75970E-01
 -1      4262 2.36882E-01
 -1      4263 2.06931E-01
 -1      4264 1.77948E-01
 -1      4265 1.54614E-01
 -1      4266 1.33027E-01
 -1      4267 1.14937E-01
 -1      4268 9.97076E-02
 -1      4269 8.55470E-02
 -1      4270 7.35082E-02
 -1      4271 6.25203E-02
 -1      4272 5.31307E-02
 -1      4273 4.47003E-02
 -1      4274 3.74841E-02
 -1      4275 3.11018E-02
 -1      4276 2.57760E-02
 -1      4277 2.13077E-02
 -1      4278 1.74601E-02
 -1      4279 1.41242E-02
 -1      4280 1.58169E+00
 -1      4281 1.99930E+00
 -1      4282 1.69899E+00
 -1      4283 1.64052E+00
 -1      4284 2.47961E+00
 -1      4285 5.71428E-03
 -1      4286 5.59442E-03
 -1      4287 2.16707E+00
 -1      4288 1.21807E+00
 -1      4289 9.77269E-01
 -1      4290 9.03772E-01
 -1      4291 1.42013E+00
 -1      4292 9.03772E-01
 -1      4293 5.46321E-03
 -1      4294 1.14051E+00
 -1      4295 6.38400E-03
 -1      4296 2.18617E+00
 -1      4297 1.12494E-02
 -1      4298 1.28090E-02
 -1      4299 1.16803E+00
 -1      4300 1.37891E+00
 -1      4301 1.97914E+00
 -1      4302 1.73663E+00
 -1      4303 8.03354E-03
 -1      4304 9.93414E-03
 -1      4305 8.28460E-03
 -3
 9999
